    1C
    1UUSER                                                              
    1UDATE              26.october.2022                                 
    1UTIME              23:45:16                                        
    1UHOST                                                              
    1UPGM               CalculiX                                        
    1UVERSION           Version 2.17                             
    1UCOMPILETIME       Thu Jul 23 21:43:50 CEST 2020                    
    1UDIR                                                               
    1UDBN                                                               
    1UMAT    1SOLIDMATERIAL                                             
    2C                          4253                                     1
 -1         1 1.11519E+02 3.33385E+01 0.00000E+00
 -1         2 1.16337E+02 2.66873E+01 0.00000E+00
 -1         3 1.50000E+02 0.00000E+00 0.00000E+00
 -1         4 1.50000E+02 5.00000E+01 0.00000E+00
 -1         5 0.00000E+00 0.00000E+00 0.00000E+00
 -1         6 0.00000E+00 5.00000E+01 0.00000E+00
 -1         7 0.00000E+00 4.70500E+01 0.00000E+00
 -1         8 0.00000E+00 4.41000E+01 0.00000E+00
 -1         9 0.00000E+00 4.11500E+01 0.00000E+00
 -1        10 0.00000E+00 3.82000E+01 0.00000E+00
 -1        11 0.00000E+00 3.52500E+01 0.00000E+00
 -1        12 0.00000E+00 3.23500E+01 0.00000E+00
 -1        13 0.00000E+00 2.94000E+01 0.00000E+00
 -1        14 0.00000E+00 2.64500E+01 0.00000E+00
 -1        15 0.00000E+00 2.35000E+01 0.00000E+00
 -1        16 0.00000E+00 2.05500E+01 0.00000E+00
 -1        17 0.00000E+00 1.76000E+01 0.00000E+00
 -1        18 0.00000E+00 1.47000E+01 0.00000E+00
 -1        19 0.00000E+00 1.17500E+01 0.00000E+00
 -1        20 0.00000E+00 8.80000E+00 0.00000E+00
 -1        21 0.00000E+00 5.85000E+00 0.00000E+00
 -1        22 0.00000E+00 2.90000E+00 0.00000E+00
 -1        23 3.15000E+00 5.00000E+01 0.00000E+00
 -1        24 6.15000E+00 5.00000E+01 0.00000E+00
 -1        25 9.15000E+00 5.00000E+01 0.00000E+00
 -1        26 1.21500E+01 5.00000E+01 0.00000E+00
 -1        27 1.51500E+01 5.00000E+01 0.00000E+00
 -1        28 1.81500E+01 5.00000E+01 0.00000E+00
 -1        29 2.11500E+01 5.00000E+01 0.00000E+00
 -1        30 2.41500E+01 5.00000E+01 0.00000E+00
 -1        31 2.71500E+01 5.00000E+01 0.00000E+00
 -1        32 3.01500E+01 5.00000E+01 0.00000E+00
 -1        33 3.31500E+01 5.00000E+01 0.00000E+00
 -1        34 3.61500E+01 5.00000E+01 0.00000E+00
 -1        35 3.91500E+01 5.00000E+01 0.00000E+00
 -1        36 4.21500E+01 5.00000E+01 0.00000E+00
 -1        37 4.51500E+01 5.00000E+01 0.00000E+00
 -1        38 4.81500E+01 5.00000E+01 0.00000E+00
 -1        39 5.11500E+01 5.00000E+01 0.00000E+00
 -1        40 5.41500E+01 5.00000E+01 0.00000E+00
 -1        41 5.71500E+01 5.00000E+01 0.00000E+00
 -1        42 6.01500E+01 5.00000E+01 0.00000E+00
 -1        43 6.31500E+01 5.00000E+01 0.00000E+00
 -1        44 6.61500E+01 5.00000E+01 0.00000E+00
 -1        45 6.91500E+01 5.00000E+01 0.00000E+00
 -1        46 7.21500E+01 5.00000E+01 0.00000E+00
 -1        47 7.51500E+01 5.00000E+01 0.00000E+00
 -1        48 7.81500E+01 5.00000E+01 0.00000E+00
 -1        49 8.11500E+01 5.00000E+01 0.00000E+00
 -1        50 8.41500E+01 5.00000E+01 0.00000E+00
 -1        51 8.71500E+01 5.00000E+01 0.00000E+00
 -1        52 9.01500E+01 5.00000E+01 0.00000E+00
 -1        53 9.31500E+01 5.00000E+01 0.00000E+00
 -1        54 9.61500E+01 5.00000E+01 0.00000E+00
 -1        55 9.91500E+01 5.00000E+01 0.00000E+00
 -1        56 1.02150E+02 5.00000E+01 0.00000E+00
 -1        57 1.05150E+02 5.00000E+01 0.00000E+00
 -1        58 1.08150E+02 5.00000E+01 0.00000E+00
 -1        59 1.11150E+02 5.00000E+01 0.00000E+00
 -1        60 1.14150E+02 5.00000E+01 0.00000E+00
 -1        61 1.17150E+02 5.00000E+01 0.00000E+00
 -1        62 1.20150E+02 5.00000E+01 0.00000E+00
 -1        63 1.23150E+02 5.00000E+01 0.00000E+00
 -1        64 1.26150E+02 5.00000E+01 0.00000E+00
 -1        65 1.29150E+02 5.00000E+01 0.00000E+00
 -1        66 1.32150E+02 5.00000E+01 0.00000E+00
 -1        67 1.35150E+02 5.00000E+01 0.00000E+00
 -1        68 1.38150E+02 5.00000E+01 0.00000E+00
 -1        69 1.41150E+02 5.00000E+01 0.00000E+00
 -1        70 1.44150E+02 5.00000E+01 0.00000E+00
 -1        71 1.47150E+02 5.00000E+01 0.00000E+00
 -1        72 3.15000E+00 0.00000E+00 0.00000E+00
 -1        73 6.15000E+00 0.00000E+00 0.00000E+00
 -1        74 9.15000E+00 0.00000E+00 0.00000E+00
 -1        75 1.21500E+01 0.00000E+00 0.00000E+00
 -1        76 1.51500E+01 0.00000E+00 0.00000E+00
 -1        77 1.81500E+01 0.00000E+00 0.00000E+00
 -1        78 2.11500E+01 0.00000E+00 0.00000E+00
 -1        79 2.41500E+01 0.00000E+00 0.00000E+00
 -1        80 2.71500E+01 0.00000E+00 0.00000E+00
 -1        81 3.01500E+01 0.00000E+00 0.00000E+00
 -1        82 3.31500E+01 0.00000E+00 0.00000E+00
 -1        83 3.61500E+01 0.00000E+00 0.00000E+00
 -1        84 3.91500E+01 0.00000E+00 0.00000E+00
 -1        85 4.21500E+01 0.00000E+00 0.00000E+00
 -1        86 4.51500E+01 0.00000E+00 0.00000E+00
 -1        87 4.81500E+01 0.00000E+00 0.00000E+00
 -1        88 5.11500E+01 0.00000E+00 0.00000E+00
 -1        89 5.41500E+01 0.00000E+00 0.00000E+00
 -1        90 5.71500E+01 0.00000E+00 0.00000E+00
 -1        91 6.01500E+01 0.00000E+00 0.00000E+00
 -1        92 6.31500E+01 0.00000E+00 0.00000E+00
 -1        93 6.61500E+01 0.00000E+00 0.00000E+00
 -1        94 6.91500E+01 0.00000E+00 0.00000E+00
 -1        95 7.21500E+01 0.00000E+00 0.00000E+00
 -1        96 7.51500E+01 0.00000E+00 0.00000E+00
 -1        97 7.81500E+01 0.00000E+00 0.00000E+00
 -1        98 8.11500E+01 0.00000E+00 0.00000E+00
 -1        99 8.41500E+01 0.00000E+00 0.00000E+00
 -1       100 8.71500E+01 0.00000E+00 0.00000E+00
 -1       101 9.01500E+01 0.00000E+00 0.00000E+00
 -1       102 9.31500E+01 0.00000E+00 0.00000E+00
 -1       103 9.61500E+01 0.00000E+00 0.00000E+00
 -1       104 9.91500E+01 0.00000E+00 0.00000E+00
 -1       105 1.02150E+02 0.00000E+00 0.00000E+00
 -1       106 1.05150E+02 0.00000E+00 0.00000E+00
 -1       107 1.08150E+02 0.00000E+00 0.00000E+00
 -1       108 1.11150E+02 0.00000E+00 0.00000E+00
 -1       109 1.14150E+02 0.00000E+00 0.00000E+00
 -1       110 1.17150E+02 0.00000E+00 0.00000E+00
 -1       111 1.20150E+02 0.00000E+00 0.00000E+00
 -1       112 1.23150E+02 0.00000E+00 0.00000E+00
 -1       113 1.26150E+02 0.00000E+00 0.00000E+00
 -1       114 1.29150E+02 0.00000E+00 0.00000E+00
 -1       115 1.32150E+02 0.00000E+00 0.00000E+00
 -1       116 1.35150E+02 0.00000E+00 0.00000E+00
 -1       117 1.38150E+02 0.00000E+00 0.00000E+00
 -1       118 1.41150E+02 0.00000E+00 0.00000E+00
 -1       119 1.44150E+02 0.00000E+00 0.00000E+00
 -1       120 1.47150E+02 0.00000E+00 0.00000E+00
 -1       121 1.50000E+02 2.95000E+00 0.00000E+00
 -1       122 1.50000E+02 5.90000E+00 0.00000E+00
 -1       123 1.50000E+02 8.85000E+00 0.00000E+00
 -1       124 1.50000E+02 1.18000E+01 0.00000E+00
 -1       125 1.50000E+02 1.47500E+01 0.00000E+00
 -1       126 1.50000E+02 1.76500E+01 0.00000E+00
 -1       127 1.50000E+02 2.06000E+01 0.00000E+00
 -1       128 1.50000E+02 2.35500E+01 0.00000E+00
 -1       129 1.50000E+02 2.65000E+01 0.00000E+00
 -1       130 1.50000E+02 2.94500E+01 0.00000E+00
 -1       131 1.50000E+02 3.24000E+01 0.00000E+00
 -1       132 1.50000E+02 3.53000E+01 0.00000E+00
 -1       133 1.50000E+02 3.82500E+01 0.00000E+00
 -1       134 1.50000E+02 4.12000E+01 0.00000E+00
 -1       135 1.50000E+02 4.41500E+01 0.00000E+00
 -1       136 1.50000E+02 4.71000E+01 0.00000E+00
 -1       137 1.16176E+02 2.51927E+01 0.00000E+00
 -1       138 1.15710E+02 2.37922E+01 0.00000E+00
 -1       139 1.14942E+02 2.24938E+01 0.00000E+00
 -1       140 1.13754E+02 2.12571E+01 0.00000E+00
 -1       141 1.12545E+02 2.04658E+01 0.00000E+00
 -1       142 1.11139E+02 1.99232E+01 0.00000E+00
 -1       143 1.09616E+02 1.96928E+01 0.00000E+00
 -1       144 1.08107E+02 1.97963E+01 0.00000E+00
 -1       145 1.06521E+02 2.02788E+01 0.00000E+00
 -1       146 1.05270E+02 2.09898E+01 0.00000E+00
 -1       147 1.04141E+02 2.19972E+01 0.00000E+00
 -1       148 1.03254E+02 2.32235E+01 0.00000E+00
 -1       149 1.02629E+02 2.46863E+01 0.00000E+00
 -1       150 1.02354E+02 2.62028E+01 0.00000E+00
 -1       151 1.02407E+02 2.76716E+01 0.00000E+00
 -1       152 1.02741E+02 2.90304E+01 0.00000E+00
 -1       153 1.03432E+02 3.04464E+01 0.00000E+00
 -1       154 1.04369E+02 3.16190E+01 0.00000E+00
 -1       155 1.05726E+02 3.26842E+01 0.00000E+00
 -1       156 1.07027E+02 3.32951E+01 0.00000E+00
 -1       157 1.08592E+02 3.36475E+01 0.00000E+00
 -1       158 1.10066E+02 3.36492E+01 0.00000E+00
 -1       159 1.12846E+02 3.27441E+01 0.00000E+00
 -1       160 1.14034E+02 3.18773E+01 0.00000E+00
 -1       161 1.15019E+02 3.07761E+01 0.00000E+00
 -1       162 1.15756E+02 2.94792E+01 0.00000E+00
 -1       163 1.16190E+02 2.81142E+01 0.00000E+00
 -1       164 2.59800E+00 4.55750E+01 0.00000E+00
 -1       165 2.59800E+00 4.26250E+01 0.00000E+00
 -1       166 2.59800E+00 3.96750E+01 0.00000E+00
 -1       167 2.59800E+00 3.67250E+01 0.00000E+00
 -1       168 2.59800E+00 3.38250E+01 0.00000E+00
 -1       169 2.59800E+00 3.08750E+01 0.00000E+00
 -1       170 2.59800E+00 2.79250E+01 0.00000E+00
 -1       171 2.59800E+00 2.49750E+01 0.00000E+00
 -1       172 2.59800E+00 2.20250E+01 0.00000E+00
 -1       173 2.59800E+00 1.90750E+01 0.00000E+00
 -1       174 2.59800E+00 1.61750E+01 0.00000E+00
 -1       175 2.59800E+00 1.32250E+01 0.00000E+00
 -1       176 2.59800E+00 1.02750E+01 0.00000E+00
 -1       177 2.59800E+00 7.32500E+00 0.00000E+00
 -1       178 2.59800E+00 4.37500E+00 0.00000E+00
 -1       179 2.87400E+00 2.18750E+00 0.00000E+00
 -1       180 4.65000E+00 4.74020E+01 0.00000E+00
 -1       181 7.65000E+00 4.74020E+01 0.00000E+00
 -1       182 1.06500E+01 4.74020E+01 0.00000E+00
 -1       183 1.36500E+01 4.74020E+01 0.00000E+00
 -1       184 1.66500E+01 4.74020E+01 0.00000E+00
 -1       185 1.96500E+01 4.74020E+01 0.00000E+00
 -1       186 2.26500E+01 4.74020E+01 0.00000E+00
 -1       187 2.56500E+01 4.74020E+01 0.00000E+00
 -1       188 2.86500E+01 4.74020E+01 0.00000E+00
 -1       189 3.16500E+01 4.74020E+01 0.00000E+00
 -1       190 3.46500E+01 4.74020E+01 0.00000E+00
 -1       191 3.76500E+01 4.74020E+01 0.00000E+00
 -1       192 4.06500E+01 4.74020E+01 0.00000E+00
 -1       193 4.36500E+01 4.74020E+01 0.00000E+00
 -1       194 4.66500E+01 4.74020E+01 0.00000E+00
 -1       195 4.96500E+01 4.74020E+01 0.00000E+00
 -1       196 5.26500E+01 4.74020E+01 0.00000E+00
 -1       197 5.56500E+01 4.74020E+01 0.00000E+00
 -1       198 5.86500E+01 4.74020E+01 0.00000E+00
 -1       199 6.16500E+01 4.74020E+01 0.00000E+00
 -1       200 6.46500E+01 4.74020E+01 0.00000E+00
 -1       201 6.76500E+01 4.74020E+01 0.00000E+00
 -1       202 7.06500E+01 4.74020E+01 0.00000E+00
 -1       203 7.36500E+01 4.74020E+01 0.00000E+00
 -1       204 7.66500E+01 4.74020E+01 0.00000E+00
 -1       205 7.96500E+01 4.74020E+01 0.00000E+00
 -1       206 8.26500E+01 4.74020E+01 0.00000E+00
 -1       207 8.56500E+01 4.74020E+01 0.00000E+00
 -1       208 8.86500E+01 4.74020E+01 0.00000E+00
 -1       209 9.16500E+01 4.74020E+01 0.00000E+00
 -1       210 9.46500E+01 4.74020E+01 0.00000E+00
 -1       211 9.76500E+01 4.74020E+01 0.00000E+00
 -1       212 1.00650E+02 4.74020E+01 0.00000E+00
 -1       213 1.03650E+02 4.74020E+01 0.00000E+00
 -1       214 1.06650E+02 4.74020E+01 0.00000E+00
 -1       215 1.09650E+02 4.74020E+01 0.00000E+00
 -1       216 1.12650E+02 4.74020E+01 0.00000E+00
 -1       217 1.15650E+02 4.74020E+01 0.00000E+00
 -1       218 1.18650E+02 4.74020E+01 0.00000E+00
 -1       219 1.21650E+02 4.74020E+01 0.00000E+00
 -1       220 1.24650E+02 4.74020E+01 0.00000E+00
 -1       221 1.27650E+02 4.74020E+01 0.00000E+00
 -1       222 1.30650E+02 4.74020E+01 0.00000E+00
 -1       223 1.33650E+02 4.74020E+01 0.00000E+00
 -1       224 1.36650E+02 4.74020E+01 0.00000E+00
 -1       225 1.39650E+02 4.74020E+01 0.00000E+00
 -1       226 1.42650E+02 4.74020E+01 0.00000E+00
 -1       227 1.45650E+02 4.74020E+01 0.00000E+00
 -1       228 5.87400E+00 2.18750E+00 0.00000E+00
 -1       229 8.87400E+00 2.18750E+00 0.00000E+00
 -1       230 1.18740E+01 2.18750E+00 0.00000E+00
 -1       231 1.48740E+01 2.18750E+00 0.00000E+00
 -1       232 1.78740E+01 2.18750E+00 0.00000E+00
 -1       233 2.08740E+01 2.18750E+00 0.00000E+00
 -1       234 2.38740E+01 2.18750E+00 0.00000E+00
 -1       235 2.68740E+01 2.18750E+00 0.00000E+00
 -1       236 2.98740E+01 2.18750E+00 0.00000E+00
 -1       237 3.28740E+01 2.18750E+00 0.00000E+00
 -1       238 3.58740E+01 2.18750E+00 0.00000E+00
 -1       239 3.88740E+01 2.18750E+00 0.00000E+00
 -1       240 4.18740E+01 2.18750E+00 0.00000E+00
 -1       241 4.48740E+01 2.18750E+00 0.00000E+00
 -1       242 4.78740E+01 2.18750E+00 0.00000E+00
 -1       243 5.08740E+01 2.18750E+00 0.00000E+00
 -1       244 5.38740E+01 2.18750E+00 0.00000E+00
 -1       245 5.68740E+01 2.18750E+00 0.00000E+00
 -1       246 5.98740E+01 2.18750E+00 0.00000E+00
 -1       247 6.28740E+01 2.18750E+00 0.00000E+00
 -1       248 6.58740E+01 2.18750E+00 0.00000E+00
 -1       249 6.88740E+01 2.18750E+00 0.00000E+00
 -1       250 7.18740E+01 2.18750E+00 0.00000E+00
 -1       251 7.48740E+01 2.18750E+00 0.00000E+00
 -1       252 7.78740E+01 2.18750E+00 0.00000E+00
 -1       253 8.08740E+01 2.18750E+00 0.00000E+00
 -1       254 8.38740E+01 2.18750E+00 0.00000E+00
 -1       255 8.68740E+01 2.18750E+00 0.00000E+00
 -1       256 8.98740E+01 2.18750E+00 0.00000E+00
 -1       257 9.28740E+01 2.18750E+00 0.00000E+00
 -1       258 9.58740E+01 2.18750E+00 0.00000E+00
 -1       259 9.88740E+01 2.18750E+00 0.00000E+00
 -1       260 1.01874E+02 2.18750E+00 0.00000E+00
 -1       261 1.04874E+02 2.18750E+00 0.00000E+00
 -1       262 1.07874E+02 2.18750E+00 0.00000E+00
 -1       263 1.10874E+02 2.18750E+00 0.00000E+00
 -1       264 1.13874E+02 2.18750E+00 0.00000E+00
 -1       265 1.16874E+02 2.18750E+00 0.00000E+00
 -1       266 1.19874E+02 2.18750E+00 0.00000E+00
 -1       267 1.22874E+02 2.18750E+00 0.00000E+00
 -1       268 1.25874E+02 2.18750E+00 0.00000E+00
 -1       269 1.28874E+02 2.18750E+00 0.00000E+00
 -1       270 1.31874E+02 2.18750E+00 0.00000E+00
 -1       271 1.34874E+02 2.18750E+00 0.00000E+00
 -1       272 1.37874E+02 2.18750E+00 0.00000E+00
 -1       273 1.40874E+02 2.18750E+00 0.00000E+00
 -1       274 1.43874E+02 2.18750E+00 0.00000E+00
 -1       275 1.46874E+02 2.18750E+00 0.00000E+00
 -1       276 1.47402E+02 4.42500E+00 0.00000E+00
 -1       277 1.47402E+02 7.37500E+00 0.00000E+00
 -1       278 1.47402E+02 1.03250E+01 0.00000E+00
 -1       279 1.47402E+02 1.32750E+01 0.00000E+00
 -1       280 1.47402E+02 1.61750E+01 0.00000E+00
 -1       281 1.47402E+02 1.91250E+01 0.00000E+00
 -1       282 1.47402E+02 2.20750E+01 0.00000E+00
 -1       283 1.47402E+02 2.50250E+01 0.00000E+00
 -1       284 1.47402E+02 2.79750E+01 0.00000E+00
 -1       285 1.47402E+02 3.09250E+01 0.00000E+00
 -1       286 1.47402E+02 3.38250E+01 0.00000E+00
 -1       287 1.47402E+02 3.67750E+01 0.00000E+00
 -1       288 1.47402E+02 3.97250E+01 0.00000E+00
 -1       289 1.47402E+02 4.26750E+01 0.00000E+00
 -1       290 1.46526E+02 4.50385E+01 0.00000E+00
 -1       291 1.17628E+02 2.57918E+01 0.00000E+00
 -1       292 1.17173E+02 2.40837E+01 0.00000E+00
 -1       293 1.16586E+02 2.23975E+01 0.00000E+00
 -1       294 1.15404E+02 2.08616E+01 0.00000E+00
 -1       295 1.13860E+02 1.97769E+01 0.00000E+00
 -1       296 1.12279E+02 1.90634E+01 0.00000E+00
 -1       297 1.10559E+02 1.86093E+01 0.00000E+00
 -1       298 1.08772E+02 1.84514E+01 0.00000E+00
 -1       299 1.06888E+02 1.86372E+01 0.00000E+00
 -1       300 1.05296E+02 1.95804E+01 0.00000E+00
 -1       301 1.03675E+02 2.03385E+01 0.00000E+00
 -1       302 1.02647E+02 2.18510E+01 0.00000E+00
 -1       303 1.01596E+02 2.33799E+01 0.00000E+00
 -1       304 1.01134E+02 2.51981E+01 0.00000E+00
 -1       305 1.01085E+02 2.69838E+01 0.00000E+00
 -1       306 1.01396E+02 2.86406E+01 0.00000E+00
 -1       307 1.01771E+02 3.03805E+01 0.00000E+00
 -1       308 1.02823E+02 3.18943E+01 0.00000E+00
 -1       309 1.04092E+02 3.33689E+01 0.00000E+00
 -1       310 1.05826E+02 3.41629E+01 0.00000E+00
 -1       311 1.07469E+02 3.49810E+01 0.00000E+00
 -1       312 1.09328E+02 3.48607E+01 0.00000E+00
 -1       313 1.11064E+02 3.47614E+01 0.00000E+00
 -1       314 1.12678E+02 3.41478E+01 0.00000E+00
 -1       315 1.14155E+02 3.32901E+01 0.00000E+00
 -1       316 1.15493E+02 3.21906E+01 0.00000E+00
 -1       317 1.16441E+02 3.07269E+01 0.00000E+00
 -1       318 1.17129E+02 2.91640E+01 0.00000E+00
 -1       319 1.17470E+02 2.75250E+01 0.00000E+00
 -1       320 5.19600E+00 4.11500E+01 0.00000E+00
 -1       321 5.19600E+00 4.41000E+01 0.00000E+00
 -1       322 5.19600E+00 3.52750E+01 0.00000E+00
 -1       323 5.19600E+00 3.23250E+01 0.00000E+00
 -1       324 5.19600E+00 2.93750E+01 0.00000E+00
 -1       325 5.19600E+00 2.64250E+01 0.00000E+00
 -1       326 5.19600E+00 2.34750E+01 0.00000E+00
 -1       327 5.19600E+00 2.05250E+01 0.00000E+00
 -1       328 5.19600E+00 1.76250E+01 0.00000E+00
 -1       329 5.19600E+00 1.46750E+01 0.00000E+00
 -1       330 5.19600E+00 1.17250E+01 0.00000E+00
 -1       331 5.19600E+00 8.77500E+00 0.00000E+00
 -1       332 5.19600E+00 5.82500E+00 0.00000E+00
 -1       333 5.53500E+00 4.00625E+00 0.00000E+00
 -1       334 8.53500E+00 4.00625E+00 0.00000E+00
 -1       335 9.15000E+00 4.48040E+01 0.00000E+00
 -1       336 1.21500E+01 4.48040E+01 0.00000E+00
 -1       337 1.51500E+01 4.48040E+01 0.00000E+00
 -1       338 1.81500E+01 4.48040E+01 0.00000E+00
 -1       339 2.11500E+01 4.48040E+01 0.00000E+00
 -1       340 2.41500E+01 4.48040E+01 0.00000E+00
 -1       341 2.71500E+01 4.48040E+01 0.00000E+00
 -1       342 3.01500E+01 4.48040E+01 0.00000E+00
 -1       343 3.31500E+01 4.48040E+01 0.00000E+00
 -1       344 3.61500E+01 4.48040E+01 0.00000E+00
 -1       345 3.91500E+01 4.48040E+01 0.00000E+00
 -1       346 4.21500E+01 4.48040E+01 0.00000E+00
 -1       347 4.51500E+01 4.48040E+01 0.00000E+00
 -1       348 4.81500E+01 4.48040E+01 0.00000E+00
 -1       349 5.11500E+01 4.48040E+01 0.00000E+00
 -1       350 5.41500E+01 4.48040E+01 0.00000E+00
 -1       351 5.71500E+01 4.48040E+01 0.00000E+00
 -1       352 6.01500E+01 4.48040E+01 0.00000E+00
 -1       353 6.31500E+01 4.48040E+01 0.00000E+00
 -1       354 6.61500E+01 4.48040E+01 0.00000E+00
 -1       355 6.91500E+01 4.48040E+01 0.00000E+00
 -1       356 7.21500E+01 4.48040E+01 0.00000E+00
 -1       357 7.51500E+01 4.48040E+01 0.00000E+00
 -1       358 7.81500E+01 4.48040E+01 0.00000E+00
 -1       359 8.11500E+01 4.48040E+01 0.00000E+00
 -1       360 8.41500E+01 4.48040E+01 0.00000E+00
 -1       361 8.71500E+01 4.48040E+01 0.00000E+00
 -1       362 9.01500E+01 4.48040E+01 0.00000E+00
 -1       363 9.31500E+01 4.48040E+01 0.00000E+00
 -1       364 9.61500E+01 4.48040E+01 0.00000E+00
 -1       365 9.91500E+01 4.48040E+01 0.00000E+00
 -1       366 1.02150E+02 4.48040E+01 0.00000E+00
 -1       367 1.05150E+02 4.48040E+01 0.00000E+00
 -1       368 1.08150E+02 4.48040E+01 0.00000E+00
 -1       369 1.11150E+02 4.48040E+01 0.00000E+00
 -1       370 1.14150E+02 4.48040E+01 0.00000E+00
 -1       371 1.17150E+02 4.48040E+01 0.00000E+00
 -1       372 1.20150E+02 4.48040E+01 0.00000E+00
 -1       373 1.23150E+02 4.48040E+01 0.00000E+00
 -1       374 1.26150E+02 4.48040E+01 0.00000E+00
 -1       375 1.29150E+02 4.48040E+01 0.00000E+00
 -1       376 1.32150E+02 4.48040E+01 0.00000E+00
 -1       377 1.35150E+02 4.48040E+01 0.00000E+00
 -1       378 1.38150E+02 4.48040E+01 0.00000E+00
 -1       379 1.41150E+02 4.48040E+01 0.00000E+00
 -1       380 1.43838E+02 4.49212E+01 0.00000E+00
 -1       381 1.15350E+01 4.00625E+00 0.00000E+00
 -1       382 1.45350E+01 4.00625E+00 0.00000E+00
 -1       383 1.75350E+01 4.00625E+00 0.00000E+00
 -1       384 2.05350E+01 4.00625E+00 0.00000E+00
 -1       385 2.35350E+01 4.00625E+00 0.00000E+00
 -1       386 2.65350E+01 4.00625E+00 0.00000E+00
 -1       387 2.95350E+01 4.00625E+00 0.00000E+00
 -1       388 3.25350E+01 4.00625E+00 0.00000E+00
 -1       389 3.55350E+01 4.00625E+00 0.00000E+00
 -1       390 3.85350E+01 4.00625E+00 0.00000E+00
 -1       391 4.15350E+01 4.00625E+00 0.00000E+00
 -1       392 4.45350E+01 4.00625E+00 0.00000E+00
 -1       393 4.75350E+01 4.00625E+00 0.00000E+00
 -1       394 5.05350E+01 4.00625E+00 0.00000E+00
 -1       395 5.35350E+01 4.00625E+00 0.00000E+00
 -1       396 5.65350E+01 4.00625E+00 0.00000E+00
 -1       397 5.95350E+01 4.00625E+00 0.00000E+00
 -1       398 6.25350E+01 4.00625E+00 0.00000E+00
 -1       399 6.55350E+01 4.00625E+00 0.00000E+00
 -1       400 6.85350E+01 4.00625E+00 0.00000E+00
 -1       401 7.15350E+01 4.00625E+00 0.00000E+00
 -1       402 7.45350E+01 4.00625E+00 0.00000E+00
 -1       403 7.75350E+01 4.00625E+00 0.00000E+00
 -1       404 8.05350E+01 4.00625E+00 0.00000E+00
 -1       405 8.35350E+01 4.00625E+00 0.00000E+00
 -1       406 8.65350E+01 4.00625E+00 0.00000E+00
 -1       407 8.95350E+01 4.00625E+00 0.00000E+00
 -1       408 9.25350E+01 4.00625E+00 0.00000E+00
 -1       409 9.55350E+01 4.00625E+00 0.00000E+00
 -1       410 9.85350E+01 4.00625E+00 0.00000E+00
 -1       411 1.01535E+02 4.00625E+00 0.00000E+00
 -1       412 1.04535E+02 4.00625E+00 0.00000E+00
 -1       413 1.07535E+02 4.00625E+00 0.00000E+00
 -1       414 1.10535E+02 4.00625E+00 0.00000E+00
 -1       415 1.13535E+02 4.00625E+00 0.00000E+00
 -1       416 1.16535E+02 4.00625E+00 0.00000E+00
 -1       417 1.19535E+02 4.00625E+00 0.00000E+00
 -1       418 1.22535E+02 4.00625E+00 0.00000E+00
 -1       419 1.25535E+02 4.00625E+00 0.00000E+00
 -1       420 1.28535E+02 4.00625E+00 0.00000E+00
 -1       421 1.31535E+02 4.00625E+00 0.00000E+00
 -1       422 1.34535E+02 4.00625E+00 0.00000E+00
 -1       423 1.37535E+02 4.00625E+00 0.00000E+00
 -1       424 1.40535E+02 4.00625E+00 0.00000E+00
 -1       425 1.43535E+02 4.00625E+00 0.00000E+00
 -1       426 1.45469E+02 4.21562E+00 0.00000E+00
 -1       427 1.44804E+02 1.18000E+01 0.00000E+00
 -1       428 1.44804E+02 8.85000E+00 0.00000E+00
 -1       429 1.45136E+02 6.53281E+00 0.00000E+00
 -1       430 1.44804E+02 1.47000E+01 0.00000E+00
 -1       431 1.44804E+02 1.76500E+01 0.00000E+00
 -1       432 1.44804E+02 2.06000E+01 0.00000E+00
 -1       433 1.44804E+02 2.35500E+01 0.00000E+00
 -1       434 1.44804E+02 2.65000E+01 0.00000E+00
 -1       435 1.44804E+02 2.94500E+01 0.00000E+00
 -1       436 1.44804E+02 3.23500E+01 0.00000E+00
 -1       437 1.44804E+02 3.53000E+01 0.00000E+00
 -1       438 1.44804E+02 3.82500E+01 0.00000E+00
 -1       439 1.44804E+02 4.12000E+01 0.00000E+00
 -1       440 1.18262E+02 2.27593E+01 0.00000E+00
 -1       441 1.18923E+02 2.67843E+01 0.00000E+00
 -1       442 1.18717E+02 2.44673E+01 0.00000E+00
 -1       443 1.17221E+02 2.06859E+01 0.00000E+00
 -1       444 1.15521E+02 1.90529E+01 0.00000E+00
 -1       445 5.19600E+00 3.82125E+01 0.00000E+00
 -1       446 1.11750E+02 1.75831E+01 0.00000E+00
 -1       447 1.09794E+02 1.70722E+01 0.00000E+00
 -1       448 1.07686E+02 1.70876E+01 0.00000E+00
 -1       449 1.05260E+02 1.77054E+01 0.00000E+00
 -1       450 1.03639E+02 1.84636E+01 0.00000E+00
 -1       451 1.01951E+02 2.02716E+01 0.00000E+00
 -1       452 1.00899E+02 2.18005E+01 0.00000E+00
 -1       453 1.00027E+02 2.39492E+01 0.00000E+00
 -1       454 9.93949E+01 2.60441E+01 0.00000E+00
 -1       455 9.99668E+01 2.80517E+01 0.00000E+00
 -1       456 1.00153E+02 2.98187E+01 0.00000E+00
 -1       457 1.01164E+02 3.19248E+01 0.00000E+00
 -1       458 1.02285E+02 3.36413E+01 0.00000E+00
 -1       459 1.04384E+02 3.50205E+01 0.00000E+00
 -1       460 1.06028E+02 3.58387E+01 0.00000E+00
 -1       461 1.08520E+02 3.67996E+01 0.00000E+00
 -1       462 1.10256E+02 3.67003E+01 0.00000E+00
 -1       463 1.12332E+02 3.56662E+01 0.00000E+00
 -1       464 1.14110E+02 3.49122E+01 0.00000E+00
 -1       465 1.15806E+02 3.39359E+01 0.00000E+00
 -1       466 1.17125E+02 3.22093E+01 0.00000E+00
 -1       467 1.18048E+02 3.05009E+01 0.00000E+00
 -1       468 1.18814E+02 2.86597E+01 0.00000E+00
 -1       469 1.13637E+02 1.81624E+01 0.00000E+00
 -1       470 1.02577E+02 3.52929E+01 0.00000E+00
 -1       471 1.00350E+01 6.60425E+00 0.00000E+00
 -1       472 7.79400E+00 3.08500E+01 0.00000E+00
 -1       473 7.79400E+00 3.38000E+01 0.00000E+00
 -1       474 7.79400E+00 2.49500E+01 0.00000E+00
 -1       475 7.79400E+00 2.20000E+01 0.00000E+00
 -1       476 7.79400E+00 1.91000E+01 0.00000E+00
 -1       477 7.79400E+00 1.61500E+01 0.00000E+00
 -1       478 7.79400E+00 1.32000E+01 0.00000E+00
 -1       479 7.79400E+00 1.02500E+01 0.00000E+00
 -1       480 1.30350E+01 6.60425E+00 0.00000E+00
 -1       481 1.06500E+01 4.22060E+01 0.00000E+00
 -1       482 1.13197E+02 1.62331E+01 0.00000E+00
 -1       483 1.36500E+01 4.22060E+01 0.00000E+00
 -1       484 1.66500E+01 4.22060E+01 0.00000E+00
 -1       485 1.96500E+01 4.22060E+01 0.00000E+00
 -1       486 2.26500E+01 4.22060E+01 0.00000E+00
 -1       487 2.56500E+01 4.22060E+01 0.00000E+00
 -1       488 2.86500E+01 4.22060E+01 0.00000E+00
 -1       489 3.16500E+01 4.22060E+01 0.00000E+00
 -1       490 3.46500E+01 4.22060E+01 0.00000E+00
 -1       491 3.76500E+01 4.22060E+01 0.00000E+00
 -1       492 4.06500E+01 4.22060E+01 0.00000E+00
 -1       493 4.36500E+01 4.22060E+01 0.00000E+00
 -1       494 4.66500E+01 4.22060E+01 0.00000E+00
 -1       495 4.96500E+01 4.22060E+01 0.00000E+00
 -1       496 5.26500E+01 4.22060E+01 0.00000E+00
 -1       497 5.56500E+01 4.22060E+01 0.00000E+00
 -1       498 5.86500E+01 4.22060E+01 0.00000E+00
 -1       499 6.16500E+01 4.22060E+01 0.00000E+00
 -1       500 6.46500E+01 4.22060E+01 0.00000E+00
 -1       501 6.76500E+01 4.22060E+01 0.00000E+00
 -1       502 7.06500E+01 4.22060E+01 0.00000E+00
 -1       503 7.36500E+01 4.22060E+01 0.00000E+00
 -1       504 7.66500E+01 4.22060E+01 0.00000E+00
 -1       505 7.96500E+01 4.22060E+01 0.00000E+00
 -1       506 8.26500E+01 4.22060E+01 0.00000E+00
 -1       507 8.56500E+01 4.22060E+01 0.00000E+00
 -1       508 8.86500E+01 4.22060E+01 0.00000E+00
 -1       509 9.16500E+01 4.22060E+01 0.00000E+00
 -1       510 9.46500E+01 4.22060E+01 0.00000E+00
 -1       511 9.76500E+01 4.22060E+01 0.00000E+00
 -1       512 1.00650E+02 4.22060E+01 0.00000E+00
 -1       513 1.03650E+02 4.22060E+01 0.00000E+00
 -1       514 1.06650E+02 4.22060E+01 0.00000E+00
 -1       515 1.09650E+02 4.22060E+01 0.00000E+00
 -1       516 1.12650E+02 4.22060E+01 0.00000E+00
 -1       517 1.15650E+02 4.22060E+01 0.00000E+00
 -1       518 1.18650E+02 4.22060E+01 0.00000E+00
 -1       519 1.21650E+02 4.22060E+01 0.00000E+00
 -1       520 1.24650E+02 4.22060E+01 0.00000E+00
 -1       521 1.27650E+02 4.22060E+01 0.00000E+00
 -1       522 1.30650E+02 4.22060E+01 0.00000E+00
 -1       523 1.33650E+02 4.22060E+01 0.00000E+00
 -1       524 1.36650E+02 4.22060E+01 0.00000E+00
 -1       525 1.39650E+02 4.22060E+01 0.00000E+00
 -1       526 1.20147E+02 2.31715E+01 0.00000E+00
 -1       527 1.90350E+01 6.60425E+00 0.00000E+00
 -1       528 2.20350E+01 6.60425E+00 0.00000E+00
 -1       529 2.50350E+01 6.60425E+00 0.00000E+00
 -1       530 2.80350E+01 6.60425E+00 0.00000E+00
 -1       531 3.10350E+01 6.60425E+00 0.00000E+00
 -1       532 3.40350E+01 6.60425E+00 0.00000E+00
 -1       533 3.70350E+01 6.60425E+00 0.00000E+00
 -1       534 4.00350E+01 6.60425E+00 0.00000E+00
 -1       535 4.30350E+01 6.60425E+00 0.00000E+00
 -1       536 4.60350E+01 6.60425E+00 0.00000E+00
 -1       537 4.90350E+01 6.60425E+00 0.00000E+00
 -1       538 5.20350E+01 6.60425E+00 0.00000E+00
 -1       539 5.50350E+01 6.60425E+00 0.00000E+00
 -1       540 5.80350E+01 6.60425E+00 0.00000E+00
 -1       541 6.10350E+01 6.60425E+00 0.00000E+00
 -1       542 6.40350E+01 6.60425E+00 0.00000E+00
 -1       543 6.70350E+01 6.60425E+00 0.00000E+00
 -1       544 7.00350E+01 6.60425E+00 0.00000E+00
 -1       545 7.30350E+01 6.60425E+00 0.00000E+00
 -1       546 7.60350E+01 6.60425E+00 0.00000E+00
 -1       547 7.90350E+01 6.60425E+00 0.00000E+00
 -1       548 8.20350E+01 6.60425E+00 0.00000E+00
 -1       549 8.50350E+01 6.60425E+00 0.00000E+00
 -1       550 8.80350E+01 6.60425E+00 0.00000E+00
 -1       551 9.10350E+01 6.60425E+00 0.00000E+00
 -1       552 9.40350E+01 6.60425E+00 0.00000E+00
 -1       553 9.70350E+01 6.60425E+00 0.00000E+00
 -1       554 1.00035E+02 6.60425E+00 0.00000E+00
 -1       555 1.03035E+02 6.60425E+00 0.00000E+00
 -1       556 1.06035E+02 6.60425E+00 0.00000E+00
 -1       557 1.09035E+02 6.60425E+00 0.00000E+00
 -1       558 1.12035E+02 6.60425E+00 0.00000E+00
 -1       559 1.15035E+02 6.60425E+00 0.00000E+00
 -1       560 1.18035E+02 6.60425E+00 0.00000E+00
 -1       561 1.21035E+02 6.60425E+00 0.00000E+00
 -1       562 1.24035E+02 6.60425E+00 0.00000E+00
 -1       563 1.27035E+02 6.60425E+00 0.00000E+00
 -1       564 1.30035E+02 6.60425E+00 0.00000E+00
 -1       565 1.33035E+02 6.60425E+00 0.00000E+00
 -1       566 1.36035E+02 6.60425E+00 0.00000E+00
 -1       567 1.39035E+02 6.60425E+00 0.00000E+00
 -1       568 1.42035E+02 6.60425E+00 0.00000E+00
 -1       569 1.42206E+02 1.61750E+01 0.00000E+00
 -1       570 1.42206E+02 1.91250E+01 0.00000E+00
 -1       571 1.42206E+02 1.03250E+01 0.00000E+00
 -1       572 1.42206E+02 1.32500E+01 0.00000E+00
 -1       573 1.42206E+02 2.20750E+01 0.00000E+00
 -1       574 1.42206E+02 2.50250E+01 0.00000E+00
 -1       575 1.42206E+02 2.79750E+01 0.00000E+00
 -1       576 1.42206E+02 3.08750E+01 0.00000E+00
 -1       577 1.42206E+02 3.38250E+01 0.00000E+00
 -1       578 1.42206E+02 3.67750E+01 0.00000E+00
 -1       579 1.42206E+02 3.97250E+01 0.00000E+00
 -1       580 1.20246E+02 2.78021E+01 0.00000E+00
 -1       581 1.60350E+01 6.60425E+00 0.00000E+00
 -1       582 1.19275E+02 2.09534E+01 0.00000E+00
 -1       583 1.19860E+02 3.01747E+01 0.00000E+00
 -1       584 7.92300E+00 4.16780E+01 0.00000E+00
 -1       585 1.17560E+02 1.86325E+01 0.00000E+00
 -1       586 1.06050E+02 1.57344E+01 0.00000E+00
 -1       587 7.79400E+00 2.79000E+01 0.00000E+00
 -1       588 1.08726E+02 1.50297E+01 0.00000E+00
 -1       589 9.80691E+01 2.45010E+01 0.00000E+00
 -1       590 1.11241E+02 1.57223E+01 0.00000E+00
 -1       591 1.03652E+02 1.63792E+01 0.00000E+00
 -1       592 1.01664E+02 1.83113E+01 0.00000E+00
 -1       593 1.00081E+02 2.01117E+01 0.00000E+00
 -1       594 1.13857E+02 3.67911E+01 0.00000E+00
 -1       595 9.89518E+01 2.22613E+01 0.00000E+00
 -1       596 9.81925E+01 2.74719E+01 0.00000E+00
 -1       597 9.83785E+01 2.92388E+01 0.00000E+00
 -1       598 9.91120E+01 3.16138E+01 0.00000E+00
 -1       599 1.00288E+02 3.37209E+01 0.00000E+00
 -1       600 1.04442E+02 3.69650E+01 0.00000E+00
 -1       601 1.06657E+02 3.79194E+01 0.00000E+00
 -1       602 1.09505E+02 3.87969E+01 0.00000E+00
 -1       603 1.11782E+02 3.78252E+01 0.00000E+00
 -1       604 1.15730E+02 3.57654E+01 0.00000E+00
 -1       605 1.17762E+02 3.40627E+01 0.00000E+00
 -1       606 1.18948E+02 3.20907E+01 0.00000E+00
 -1       607 1.20362E+02 2.54887E+01 0.00000E+00
 -1       608 7.61550E+00 6.21462E+00 0.00000E+00
 -1       609 1.15276E+02 1.71327E+01 0.00000E+00
 -1       610 7.79400E+00 3.67375E+01 0.00000E+00
 -1       611 1.41678E+02 4.22645E+01 0.00000E+00
 -1       612 1.00580E+02 3.53725E+01 0.00000E+00
 -1       613 9.68667E+01 2.59289E+01 0.00000E+00
 -1       614 1.03920E+01 2.05500E+01 0.00000E+00
 -1       615 1.03920E+01 2.35000E+01 0.00000E+00
 -1       616 1.03920E+01 1.46750E+01 0.00000E+00
 -1       617 1.03920E+01 1.17250E+01 0.00000E+00
 -1       618 1.15350E+01 9.20225E+00 0.00000E+00
 -1       619 1.19931E+02 1.86740E+01 0.00000E+00
 -1       620 1.45350E+01 9.20225E+00 0.00000E+00
 -1       621 1.22296E+02 2.41408E+01 0.00000E+00
 -1       622 1.13585E+02 3.88432E+01 0.00000E+00
 -1       623 1.51500E+01 3.96080E+01 0.00000E+00
 -1       624 1.81500E+01 3.96080E+01 0.00000E+00
 -1       625 2.11500E+01 3.96080E+01 0.00000E+00
 -1       626 2.41500E+01 3.96080E+01 0.00000E+00
 -1       627 2.71500E+01 3.96080E+01 0.00000E+00
 -1       628 3.01500E+01 3.96080E+01 0.00000E+00
 -1       629 3.31500E+01 3.96080E+01 0.00000E+00
 -1       630 3.61500E+01 3.96080E+01 0.00000E+00
 -1       631 3.91500E+01 3.96080E+01 0.00000E+00
 -1       632 4.21500E+01 3.96080E+01 0.00000E+00
 -1       633 4.51500E+01 3.96080E+01 0.00000E+00
 -1       634 4.81500E+01 3.96080E+01 0.00000E+00
 -1       635 5.11500E+01 3.96080E+01 0.00000E+00
 -1       636 5.41500E+01 3.96080E+01 0.00000E+00
 -1       637 5.71500E+01 3.96080E+01 0.00000E+00
 -1       638 6.01500E+01 3.96080E+01 0.00000E+00
 -1       639 6.31500E+01 3.96080E+01 0.00000E+00
 -1       640 6.61500E+01 3.96080E+01 0.00000E+00
 -1       641 6.91500E+01 3.96080E+01 0.00000E+00
 -1       642 7.21500E+01 3.96080E+01 0.00000E+00
 -1       643 7.51500E+01 3.96080E+01 0.00000E+00
 -1       644 7.81500E+01 3.96080E+01 0.00000E+00
 -1       645 8.11500E+01 3.96080E+01 0.00000E+00
 -1       646 8.41500E+01 3.96080E+01 0.00000E+00
 -1       647 8.71500E+01 3.96080E+01 0.00000E+00
 -1       648 9.01500E+01 3.96080E+01 0.00000E+00
 -1       649 9.31500E+01 3.96080E+01 0.00000E+00
 -1       650 9.61500E+01 3.96080E+01 0.00000E+00
 -1       651 9.91500E+01 3.96080E+01 0.00000E+00
 -1       652 1.02150E+02 3.96080E+01 0.00000E+00
 -1       653 1.20150E+02 3.96080E+01 0.00000E+00
 -1       654 1.23150E+02 3.96080E+01 0.00000E+00
 -1       655 1.26150E+02 3.96080E+01 0.00000E+00
 -1       656 1.29150E+02 3.96080E+01 0.00000E+00
 -1       657 1.32150E+02 3.96080E+01 0.00000E+00
 -1       658 1.35150E+02 3.96080E+01 0.00000E+00
 -1       659 1.38150E+02 3.96080E+01 0.00000E+00
 -1       660 2.05350E+01 9.20225E+00 0.00000E+00
 -1       661 2.95350E+01 9.20225E+00 0.00000E+00
 -1       662 3.25350E+01 9.20225E+00 0.00000E+00
 -1       663 3.55350E+01 9.20225E+00 0.00000E+00
 -1       664 3.85350E+01 9.20225E+00 0.00000E+00
 -1       665 4.15350E+01 9.20225E+00 0.00000E+00
 -1       666 4.45350E+01 9.20225E+00 0.00000E+00
 -1       667 4.75350E+01 9.20225E+00 0.00000E+00
 -1       668 5.05350E+01 9.20225E+00 0.00000E+00
 -1       669 5.35350E+01 9.20225E+00 0.00000E+00
 -1       670 5.65350E+01 9.20225E+00 0.00000E+00
 -1       671 5.95350E+01 9.20225E+00 0.00000E+00
 -1       672 6.25350E+01 9.20225E+00 0.00000E+00
 -1       673 6.55350E+01 9.20225E+00 0.00000E+00
 -1       674 6.85350E+01 9.20225E+00 0.00000E+00
 -1       675 7.15350E+01 9.20225E+00 0.00000E+00
 -1       676 7.45350E+01 9.20225E+00 0.00000E+00
 -1       677 7.75350E+01 9.20225E+00 0.00000E+00
 -1       678 8.05350E+01 9.20225E+00 0.00000E+00
 -1       679 8.35350E+01 9.20225E+00 0.00000E+00
 -1       680 8.65350E+01 9.20225E+00 0.00000E+00
 -1       681 8.95350E+01 9.20225E+00 0.00000E+00
 -1       682 9.25350E+01 9.20225E+00 0.00000E+00
 -1       683 9.55350E+01 9.20225E+00 0.00000E+00
 -1       684 9.85350E+01 9.20225E+00 0.00000E+00
 -1       685 1.01535E+02 9.20225E+00 0.00000E+00
 -1       686 1.04535E+02 9.20225E+00 0.00000E+00
 -1       687 1.07535E+02 9.20225E+00 0.00000E+00
 -1       688 1.10535E+02 9.20225E+00 0.00000E+00
 -1       689 1.13535E+02 9.20225E+00 0.00000E+00
 -1       690 1.16535E+02 9.20225E+00 0.00000E+00
 -1       691 1.19535E+02 9.20225E+00 0.00000E+00
 -1       692 1.22535E+02 9.20225E+00 0.00000E+00
 -1       693 1.25535E+02 9.20225E+00 0.00000E+00
 -1       694 1.28535E+02 9.20225E+00 0.00000E+00
 -1       695 1.31535E+02 9.20225E+00 0.00000E+00
 -1       696 1.34535E+02 9.20225E+00 0.00000E+00
 -1       697 1.37535E+02 9.20225E+00 0.00000E+00
 -1       698 1.39870E+02 9.76363E+00 0.00000E+00
 -1       699 1.39608E+02 2.35500E+01 0.00000E+00
 -1       700 1.40178E+02 3.96665E+01 0.00000E+00
 -1       701 1.39608E+02 1.76500E+01 0.00000E+00
 -1       702 1.39608E+02 2.65000E+01 0.00000E+00
 -1       703 1.39608E+02 2.06000E+01 0.00000E+00
 -1       704 1.21463E+02 2.13736E+01 0.00000E+00
 -1       705 1.39608E+02 2.94000E+01 0.00000E+00
 -1       706 1.39608E+02 3.23500E+01 0.00000E+00
 -1       707 1.39608E+02 3.53000E+01 0.00000E+00
 -1       708 1.75350E+01 9.20225E+00 0.00000E+00
 -1       709 1.17451E+02 1.63090E+01 0.00000E+00
 -1       710 9.78035E+00 3.93914E+01 0.00000E+00
 -1       711 1.04232E+02 1.37532E+01 0.00000E+00
 -1       712 9.69464E+01 3.09819E+01 0.00000E+00
 -1       713 2.65350E+01 9.20225E+00 0.00000E+00
 -1       714 2.35350E+01 9.20225E+00 0.00000E+00
 -1       715 1.24652E+01 3.94997E+01 0.00000E+00
 -1       716 1.06907E+02 1.30485E+01 0.00000E+00
 -1       717 1.03920E+01 1.76125E+01 0.00000E+00
 -1       718 1.03920E+01 3.23250E+01 0.00000E+00
 -1       719 1.15457E+02 3.78175E+01 0.00000E+00
 -1       720 1.12695E+02 1.41562E+01 0.00000E+00
 -1       721 9.80563E+01 3.35851E+01 0.00000E+00
 -1       722 1.02029E+02 3.77804E+01 0.00000E+00
 -1       723 9.78497E+01 2.03110E+01 0.00000E+00
 -1       724 9.69148E+01 2.27523E+01 0.00000E+00
 -1       725 9.93329E+01 1.78577E+01 0.00000E+00
 -1       726 1.01229E+02 1.58750E+01 0.00000E+00
 -1       727 9.66631E+01 2.85261E+01 0.00000E+00
 -1       728 1.17848E+02 3.62288E+01 0.00000E+00
 -1       729 1.22184E+02 2.67390E+01 0.00000E+00
 -1       730 1.21104E+02 3.19418E+01 0.00000E+00
 -1       731 1.19918E+02 3.39138E+01 0.00000E+00
 -1       732 1.21746E+02 2.92640E+01 0.00000E+00
 -1       733 1.14917E+02 1.51088E+01 0.00000E+00
 -1       734 1.10179E+02 1.34636E+01 0.00000E+00
 -1       735 1.03920E+01 3.52625E+01 0.00000E+00
 -1       736 1.03920E+01 2.64500E+01 0.00000E+00
 -1       737 1.19823E+02 1.63506E+01 0.00000E+00
 -1       738 1.17054E+02 4.00118E+01 0.00000E+00
 -1       739 1.39608E+02 1.47250E+01 0.00000E+00
 -1       740 1.39739E+02 1.22443E+01 0.00000E+00
 -1       741 1.20003E+02 3.60798E+01 0.00000E+00
 -1       742 9.57124E+01 2.41801E+01 0.00000E+00
 -1       743 1.01809E+02 1.32491E+01 0.00000E+00
 -1       744 9.83482E+01 3.52367E+01 0.00000E+00
 -1       745 1.03920E+01 2.93875E+01 0.00000E+00
 -1       746 1.38879E+02 3.74540E+01 0.00000E+00
 -1       747 1.29900E+01 1.32000E+01 0.00000E+00
 -1       748 1.96500E+01 3.70100E+01 0.00000E+00
 -1       749 2.26500E+01 3.70100E+01 0.00000E+00
 -1       750 2.56500E+01 3.70100E+01 0.00000E+00
 -1       751 2.86500E+01 3.70100E+01 0.00000E+00
 -1       752 3.16500E+01 3.70100E+01 0.00000E+00
 -1       753 3.46500E+01 3.70100E+01 0.00000E+00
 -1       754 3.76500E+01 3.70100E+01 0.00000E+00
 -1       755 4.06500E+01 3.70100E+01 0.00000E+00
 -1       756 4.36500E+01 3.70100E+01 0.00000E+00
 -1       757 4.66500E+01 3.70100E+01 0.00000E+00
 -1       758 4.96500E+01 3.70100E+01 0.00000E+00
 -1       759 5.26500E+01 3.70100E+01 0.00000E+00
 -1       760 5.56500E+01 3.70100E+01 0.00000E+00
 -1       761 5.86500E+01 3.70100E+01 0.00000E+00
 -1       762 6.16500E+01 3.70100E+01 0.00000E+00
 -1       763 6.46500E+01 3.70100E+01 0.00000E+00
 -1       764 6.76500E+01 3.70100E+01 0.00000E+00
 -1       765 7.06500E+01 3.70100E+01 0.00000E+00
 -1       766 7.36500E+01 3.70100E+01 0.00000E+00
 -1       767 7.66500E+01 3.70100E+01 0.00000E+00
 -1       768 7.96500E+01 3.70100E+01 0.00000E+00
 -1       769 8.26500E+01 3.70100E+01 0.00000E+00
 -1       770 8.56500E+01 3.70100E+01 0.00000E+00
 -1       771 8.86500E+01 3.70100E+01 0.00000E+00
 -1       772 9.16500E+01 3.70100E+01 0.00000E+00
 -1       773 9.46500E+01 3.70100E+01 0.00000E+00
 -1       774 3.70350E+01 1.18003E+01 0.00000E+00
 -1       775 1.24650E+02 3.70100E+01 0.00000E+00
 -1       776 1.27650E+02 3.70100E+01 0.00000E+00
 -1       777 1.30650E+02 3.70100E+01 0.00000E+00
 -1       778 1.33650E+02 3.70100E+01 0.00000E+00
 -1       779 1.36264E+02 3.72320E+01 0.00000E+00
 -1       780 1.37010E+02 3.08750E+01 0.00000E+00
 -1       781 3.40350E+01 1.18003E+01 0.00000E+00
 -1       782 1.14548E+02 1.29021E+01 0.00000E+00
 -1       783 3.10350E+01 1.18003E+01 0.00000E+00
 -1       784 4.00350E+01 1.18003E+01 0.00000E+00
 -1       785 4.30350E+01 1.18003E+01 0.00000E+00
 -1       786 4.60350E+01 1.18003E+01 0.00000E+00
 -1       787 4.90350E+01 1.18003E+01 0.00000E+00
 -1       788 5.20350E+01 1.18003E+01 0.00000E+00
 -1       789 5.50350E+01 1.18003E+01 0.00000E+00
 -1       790 5.80350E+01 1.18003E+01 0.00000E+00
 -1       791 6.10350E+01 1.18003E+01 0.00000E+00
 -1       792 6.40350E+01 1.18003E+01 0.00000E+00
 -1       793 6.70350E+01 1.18003E+01 0.00000E+00
 -1       794 7.00350E+01 1.18003E+01 0.00000E+00
 -1       795 7.30350E+01 1.18003E+01 0.00000E+00
 -1       796 7.60350E+01 1.18003E+01 0.00000E+00
 -1       797 7.90350E+01 1.18003E+01 0.00000E+00
 -1       798 8.20350E+01 1.18003E+01 0.00000E+00
 -1       799 8.50350E+01 1.18003E+01 0.00000E+00
 -1       800 8.80350E+01 1.18003E+01 0.00000E+00
 -1       801 9.10350E+01 1.18003E+01 0.00000E+00
 -1       802 9.40350E+01 1.18003E+01 0.00000E+00
 -1       803 9.70350E+01 1.18003E+01 0.00000E+00
 -1       804 1.21035E+02 1.18003E+01 0.00000E+00
 -1       805 1.24035E+02 1.18003E+01 0.00000E+00
 -1       806 1.27035E+02 1.18003E+01 0.00000E+00
 -1       807 1.30035E+02 1.18003E+01 0.00000E+00
 -1       808 1.33035E+02 1.18003E+01 0.00000E+00
 -1       809 1.36035E+02 1.18003E+01 0.00000E+00
 -1       810 1.37887E+02 1.20223E+01 0.00000E+00
 -1       811 1.29900E+01 2.20250E+01 0.00000E+00
 -1       812 1.24163E+02 2.20697E+01 0.00000E+00
 -1       813 1.37010E+02 2.50250E+01 0.00000E+00
 -1       814 1.37010E+02 3.38250E+01 0.00000E+00
 -1       815 1.37010E+02 2.79500E+01 0.00000E+00
 -1       816 1.22125E+02 3.38980E+01 0.00000E+00
 -1       817 1.23582E+02 3.11199E+01 0.00000E+00
 -1       818 2.80350E+01 1.18003E+01 0.00000E+00
 -1       819 9.86782E+01 1.53334E+01 0.00000E+00
 -1       820 1.66500E+01 3.70100E+01 0.00000E+00
 -1       821 1.24456E+02 2.55348E+01 0.00000E+00
 -1       822 2.20350E+01 1.18003E+01 0.00000E+00
 -1       823 2.50350E+01 1.18003E+01 0.00000E+00
 -1       824 9.54676E+01 2.07984E+01 0.00000E+00
 -1       825 9.66933E+01 1.79369E+01 0.00000E+00
 -1       826 9.56153E+01 3.30876E+01 0.00000E+00
 -1       827 1.17082E+02 1.41023E+01 0.00000E+00
 -1       828 9.47210E+01 2.70673E+01 0.00000E+00
 -1       829 1.22772E+02 1.88467E+01 0.00000E+00
 -1       830 1.24020E+02 2.85949E+01 0.00000E+00
 -1       831 9.51009E+01 2.99505E+01 0.00000E+00
 -1       832 1.37625E+01 1.12011E+01 0.00000E+00
 -1       833 1.29900E+01 2.49750E+01 0.00000E+00
 -1       834 1.19454E+02 1.41438E+01 0.00000E+00
 -1       835 1.36637E+02 3.55285E+01 0.00000E+00
 -1       836 1.37010E+02 1.61875E+01 0.00000E+00
 -1       837 1.03833E+02 1.22896E+01 0.00000E+00
 -1       838 1.12035E+02 1.15876E+01 0.00000E+00
 -1       839 1.18035E+02 1.18003E+01 0.00000E+00
 -1       840 1.29900E+01 1.90875E+01 0.00000E+00
 -1       841 1.37010E+02 1.91375E+01 0.00000E+00
 -1       842 1.37010E+02 2.20812E+01 0.00000E+00
 -1       843 1.67625E+01 1.12011E+01 0.00000E+00
 -1       844 1.93988E+01 1.15007E+01 0.00000E+00
 -1       845 1.39652E+01 3.69017E+01 0.00000E+00
 -1       846 1.29900E+01 1.61437E+01 0.00000E+00
 -1       847 1.29900E+01 3.08563E+01 0.00000E+00
 -1       848 1.22664E+02 1.65232E+01 0.00000E+00
 -1       849 9.42652E+01 2.22263E+01 0.00000E+00
 -1       850 1.29900E+01 3.37938E+01 0.00000E+00
 -1       851 2.41500E+01 3.44120E+01 0.00000E+00
 -1       852 2.71500E+01 3.44120E+01 0.00000E+00
 -1       853 3.01500E+01 3.44120E+01 0.00000E+00
 -1       854 3.31500E+01 3.44120E+01 0.00000E+00
 -1       855 3.61500E+01 3.44120E+01 0.00000E+00
 -1       856 3.91500E+01 3.44120E+01 0.00000E+00
 -1       857 4.21500E+01 3.44120E+01 0.00000E+00
 -1       858 4.51500E+01 3.44120E+01 0.00000E+00
 -1       859 4.81500E+01 3.44120E+01 0.00000E+00
 -1       860 5.11500E+01 3.44120E+01 0.00000E+00
 -1       861 5.41500E+01 3.44120E+01 0.00000E+00
 -1       862 5.71500E+01 3.44120E+01 0.00000E+00
 -1       863 6.01500E+01 3.44120E+01 0.00000E+00
 -1       864 6.31500E+01 3.44120E+01 0.00000E+00
 -1       865 6.61500E+01 3.44120E+01 0.00000E+00
 -1       866 6.91500E+01 3.44120E+01 0.00000E+00
 -1       867 7.21500E+01 3.44120E+01 0.00000E+00
 -1       868 7.51500E+01 3.44120E+01 0.00000E+00
 -1       869 7.81500E+01 3.44120E+01 0.00000E+00
 -1       870 8.11500E+01 3.44120E+01 0.00000E+00
 -1       871 8.41500E+01 3.44120E+01 0.00000E+00
 -1       872 8.71500E+01 3.44120E+01 0.00000E+00
 -1       873 9.01500E+01 3.44120E+01 0.00000E+00
 -1       874 9.31500E+01 3.44120E+01 0.00000E+00
 -1       875 1.29900E+01 2.79188E+01 0.00000E+00
 -1       876 4.15350E+01 1.43982E+01 0.00000E+00
 -1       877 1.26434E+02 2.73775E+01 0.00000E+00
 -1       878 1.29150E+02 3.44120E+01 0.00000E+00
 -1       879 1.32150E+02 3.44120E+01 0.00000E+00
 -1       880 3.55350E+01 1.43982E+01 0.00000E+00
 -1       881 3.85350E+01 1.43982E+01 0.00000E+00
 -1       882 4.45350E+01 1.43982E+01 0.00000E+00
 -1       883 4.75350E+01 1.43982E+01 0.00000E+00
 -1       884 5.05350E+01 1.43982E+01 0.00000E+00
 -1       885 5.35350E+01 1.43982E+01 0.00000E+00
 -1       886 5.65350E+01 1.43982E+01 0.00000E+00
 -1       887 5.95350E+01 1.43982E+01 0.00000E+00
 -1       888 6.25350E+01 1.43982E+01 0.00000E+00
 -1       889 6.55350E+01 1.43982E+01 0.00000E+00
 -1       890 6.85350E+01 1.43982E+01 0.00000E+00
 -1       891 7.15350E+01 1.43982E+01 0.00000E+00
 -1       892 7.45350E+01 1.43982E+01 0.00000E+00
 -1       893 7.75350E+01 1.43982E+01 0.00000E+00
 -1       894 8.05350E+01 1.43982E+01 0.00000E+00
 -1       895 8.35350E+01 1.43982E+01 0.00000E+00
 -1       896 8.65350E+01 1.43982E+01 0.00000E+00
 -1       897 8.95350E+01 1.43982E+01 0.00000E+00
 -1       898 9.25350E+01 1.43982E+01 0.00000E+00
 -1       899 9.55350E+01 1.43982E+01 0.00000E+00
 -1       900 1.31535E+02 1.43982E+01 0.00000E+00
 -1       901 1.34535E+02 1.43982E+01 0.00000E+00
 -1       902 1.37449E+02 1.41049E+01 0.00000E+00
 -1       903 9.30444E+01 2.87549E+01 0.00000E+00
 -1       904 1.34412E+02 3.23500E+01 0.00000E+00
 -1       905 1.26854E+02 2.35876E+01 0.00000E+00
 -1       906 2.95350E+01 1.43982E+01 0.00000E+00
 -1       907 1.28535E+02 1.43982E+01 0.00000E+00
 -1       908 1.25599E+02 1.54607E+01 0.00000E+00
 -1       909 1.81500E+01 3.44120E+01 0.00000E+00
 -1       910 1.24669E+02 3.34613E+01 0.00000E+00
 -1       911 3.25350E+01 1.43982E+01 0.00000E+00
 -1       912 9.64263E+01 3.53453E+01 0.00000E+00
 -1       913 9.31191E+01 2.49034E+01 0.00000E+00
 -1       914 2.11500E+01 3.44120E+01 0.00000E+00
 -1       915 9.33349E+01 3.18508E+01 0.00000E+00
 -1       916 9.38878E+01 1.84284E+01 0.00000E+00
 -1       917 1.25821E+02 3.02081E+01 0.00000E+00
 -1       918 1.59900E+01 1.32000E+01 0.00000E+00
 -1       919 1.25811E+02 1.94461E+01 0.00000E+00
 -1       920 1.34394E+02 3.49702E+01 0.00000E+00
 -1       921 1.55880E+01 2.35000E+01 0.00000E+00
 -1       922 1.54652E+01 3.43037E+01 0.00000E+00
 -1       923 1.55880E+01 2.05625E+01 0.00000E+00
 -1       924 1.34412E+02 2.35531E+01 0.00000E+00
 -1       925 1.34412E+02 2.94250E+01 0.00000E+00
 -1       926 1.34412E+02 2.64891E+01 0.00000E+00
 -1       927 2.04235E+01 1.42319E+01 0.00000E+00
 -1       928 2.65350E+01 1.43982E+01 0.00000E+00
 -1       929 9.26854E+01 1.98562E+01 0.00000E+00
 -1       930 9.14426E+01 2.65910E+01 0.00000E+00
 -1       931 2.35350E+01 1.43982E+01 0.00000E+00
 -1       932 1.25705E+02 1.74534E+01 0.00000E+00
 -1       933 1.55880E+01 2.93875E+01 0.00000E+00
 -1       934 1.34535E+02 1.73482E+01 0.00000E+00
 -1       935 2.86500E+01 3.18140E+01 0.00000E+00
 -1       936 3.16500E+01 3.18140E+01 0.00000E+00
 -1       937 3.46500E+01 3.18140E+01 0.00000E+00
 -1       938 3.76500E+01 3.18140E+01 0.00000E+00
 -1       939 4.06500E+01 3.18140E+01 0.00000E+00
 -1       940 4.36500E+01 3.18140E+01 0.00000E+00
 -1       941 4.66500E+01 3.18140E+01 0.00000E+00
 -1       942 4.96500E+01 3.18140E+01 0.00000E+00
 -1       943 5.26500E+01 3.18140E+01 0.00000E+00
 -1       944 5.56500E+01 3.18140E+01 0.00000E+00
 -1       945 5.86500E+01 3.18140E+01 0.00000E+00
 -1       946 6.16500E+01 3.18140E+01 0.00000E+00
 -1       947 6.46500E+01 3.18140E+01 0.00000E+00
 -1       948 6.76500E+01 3.18140E+01 0.00000E+00
 -1       949 7.06500E+01 3.18140E+01 0.00000E+00
 -1       950 7.36500E+01 3.18140E+01 0.00000E+00
 -1       951 7.66500E+01 3.18140E+01 0.00000E+00
 -1       952 7.96500E+01 3.18140E+01 0.00000E+00
 -1       953 8.26500E+01 3.18140E+01 0.00000E+00
 -1       954 8.56500E+01 3.18140E+01 0.00000E+00
 -1       955 8.86500E+01 3.18140E+01 0.00000E+00
 -1       956 9.09925E+01 3.18324E+01 0.00000E+00
 -1       957 4.60350E+01 1.69963E+01 0.00000E+00
 -1       958 1.30650E+02 3.18140E+01 0.00000E+00
 -1       959 1.29181E+02 2.57637E+01 0.00000E+00
 -1       960 4.30350E+01 1.69963E+01 0.00000E+00
 -1       961 5.20350E+01 1.69963E+01 0.00000E+00
 -1       962 5.50350E+01 1.69963E+01 0.00000E+00
 -1       963 5.80350E+01 1.69963E+01 0.00000E+00
 -1       964 6.10350E+01 1.69963E+01 0.00000E+00
 -1       965 6.40350E+01 1.69963E+01 0.00000E+00
 -1       966 6.70350E+01 1.69963E+01 0.00000E+00
 -1       967 7.00350E+01 1.69963E+01 0.00000E+00
 -1       968 7.30350E+01 1.69963E+01 0.00000E+00
 -1       969 7.60350E+01 1.69963E+01 0.00000E+00
 -1       970 7.90350E+01 1.69963E+01 0.00000E+00
 -1       971 8.20350E+01 1.69963E+01 0.00000E+00
 -1       972 8.50350E+01 1.69963E+01 0.00000E+00
 -1       973 8.80350E+01 1.69963E+01 0.00000E+00
 -1       974 9.10350E+01 1.69963E+01 0.00000E+00
 -1       975 1.34412E+02 2.06094E+01 0.00000E+00
 -1       976 1.55880E+01 1.76187E+01 0.00000E+00
 -1       977 2.56500E+01 3.18140E+01 0.00000E+00
 -1       978 3.70350E+01 1.69963E+01 0.00000E+00
 -1       979 9.15393E+01 2.25333E+01 0.00000E+00
 -1       980 3.10350E+01 1.69963E+01 0.00000E+00
 -1       981 1.30035E+02 1.69963E+01 0.00000E+00
 -1       982 1.82068E+01 1.37159E+01 0.00000E+00
 -1       983 1.28295E+02 2.92619E+01 0.00000E+00
 -1       984 1.96500E+01 3.18140E+01 0.00000E+00
 -1       985 3.40350E+01 1.69963E+01 0.00000E+00
 -1       986 1.55880E+01 2.64438E+01 0.00000E+00
 -1       987 1.28852E+02 2.08829E+01 0.00000E+00
 -1       988 2.26500E+01 3.18140E+01 0.00000E+00
 -1       989 2.18405E+01 1.69093E+01 0.00000E+00
 -1       990 4.90350E+01 1.69963E+01 0.00000E+00
 -1       991 4.00350E+01 1.69963E+01 0.00000E+00
 -1       992 2.80350E+01 1.69963E+01 0.00000E+00
 -1       993 1.81860E+01 2.49719E+01 0.00000E+00
 -1       994 1.31814E+02 2.20812E+01 0.00000E+00
 -1       995 1.76190E+01 3.06007E+01 0.00000E+00
 -1       996 8.98628E+01 2.42210E+01 0.00000E+00
 -1       997 1.96238E+01 1.63934E+01 0.00000E+00
 -1       998 1.31814E+02 2.50172E+01 0.00000E+00
 -1       999 1.81860E+01 2.20344E+01 0.00000E+00
 -1      1000 2.50350E+01 1.69963E+01 0.00000E+00
 -1      1001 1.29487E+02 3.07251E+01 0.00000E+00
 -1      1002 1.81860E+01 2.79156E+01 0.00000E+00
 -1      1003 9.00463E+01 2.92025E+01 0.00000E+00
 -1      1004 3.31500E+01 2.92160E+01 0.00000E+00
 -1      1005 3.61500E+01 2.92160E+01 0.00000E+00
 -1      1006 3.91500E+01 2.92160E+01 0.00000E+00
 -1      1007 4.21500E+01 2.92160E+01 0.00000E+00
 -1      1008 4.51500E+01 2.92160E+01 0.00000E+00
 -1      1009 4.81500E+01 2.92160E+01 0.00000E+00
 -1      1010 5.11500E+01 2.92160E+01 0.00000E+00
 -1      1011 5.41500E+01 2.92160E+01 0.00000E+00
 -1      1012 5.71500E+01 2.92160E+01 0.00000E+00
 -1      1013 6.01500E+01 2.92160E+01 0.00000E+00
 -1      1014 6.31500E+01 2.92160E+01 0.00000E+00
 -1      1015 6.61500E+01 2.92160E+01 0.00000E+00
 -1      1016 6.91500E+01 2.92160E+01 0.00000E+00
 -1      1017 7.21500E+01 2.92160E+01 0.00000E+00
 -1      1018 7.51500E+01 2.92160E+01 0.00000E+00
 -1      1019 7.81500E+01 2.92160E+01 0.00000E+00
 -1      1020 8.11500E+01 2.92160E+01 0.00000E+00
 -1      1021 8.41500E+01 2.92160E+01 0.00000E+00
 -1      1022 8.70981E+01 2.92092E+01 0.00000E+00
 -1      1023 3.25350E+01 1.95942E+01 0.00000E+00
 -1      1024 8.99195E+01 2.02560E+01 0.00000E+00
 -1      1025 4.45350E+01 1.95942E+01 0.00000E+00
 -1      1026 5.65350E+01 1.95942E+01 0.00000E+00
 -1      1027 5.35350E+01 1.95942E+01 0.00000E+00
 -1      1028 6.25350E+01 1.95942E+01 0.00000E+00
 -1      1029 6.55350E+01 1.95942E+01 0.00000E+00
 -1      1030 6.85350E+01 1.95942E+01 0.00000E+00
 -1      1031 7.15350E+01 1.95942E+01 0.00000E+00
 -1      1032 7.45350E+01 1.95942E+01 0.00000E+00
 -1      1033 7.75350E+01 1.95942E+01 0.00000E+00
 -1      1034 8.05350E+01 1.95942E+01 0.00000E+00
 -1      1035 8.35350E+01 1.95942E+01 0.00000E+00
 -1      1036 8.65350E+01 1.95942E+01 0.00000E+00
 -1      1037 1.81860E+01 1.90906E+01 0.00000E+00
 -1      1038 2.71500E+01 2.92160E+01 0.00000E+00
 -1      1039 3.85350E+01 1.95942E+01 0.00000E+00
 -1      1040 1.31814E+02 2.79531E+01 0.00000E+00
 -1      1041 1.81964E+01 1.64033E+01 0.00000E+00
 -1      1042 2.02170E+01 2.91289E+01 0.00000E+00
 -1      1043 3.55350E+01 1.95942E+01 0.00000E+00
 -1      1044 2.02170E+01 2.61851E+01 0.00000E+00
 -1      1045 4.15350E+01 1.95942E+01 0.00000E+00
 -1      1046 2.41500E+01 2.92160E+01 0.00000E+00
 -1      1047 2.33671E+01 1.95498E+01 0.00000E+00
 -1      1048 5.95350E+01 1.95942E+01 0.00000E+00
 -1      1049 3.01500E+01 2.92160E+01 0.00000E+00
 -1      1050 4.75350E+01 1.95942E+01 0.00000E+00
 -1      1051 8.82429E+01 2.19436E+01 0.00000E+00
 -1      1052 2.95350E+01 1.95942E+01 0.00000E+00
 -1      1053 8.84805E+01 2.67151E+01 0.00000E+00
 -1      1054 5.05350E+01 1.95942E+01 0.00000E+00
 -1      1055 2.11503E+01 1.90339E+01 0.00000E+00
 -1      1056 2.65350E+01 1.95942E+01 0.00000E+00
 -1      1057 2.02170E+01 2.32476E+01 0.00000E+00
 -1      1058 3.76500E+01 2.66180E+01 0.00000E+00
 -1      1059 4.06500E+01 2.66180E+01 0.00000E+00
 -1      1060 4.36500E+01 2.66180E+01 0.00000E+00
 -1      1061 4.66500E+01 2.66180E+01 0.00000E+00
 -1      1062 4.96500E+01 2.66180E+01 0.00000E+00
 -1      1063 5.26500E+01 2.66180E+01 0.00000E+00
 -1      1064 5.56500E+01 2.66180E+01 0.00000E+00
 -1      1065 5.86500E+01 2.66180E+01 0.00000E+00
 -1      1066 6.16500E+01 2.66180E+01 0.00000E+00
 -1      1067 6.46500E+01 2.66180E+01 0.00000E+00
 -1      1068 6.76500E+01 2.66180E+01 0.00000E+00
 -1      1069 7.06500E+01 2.66180E+01 0.00000E+00
 -1      1070 7.36500E+01 2.66180E+01 0.00000E+00
 -1      1071 7.66500E+01 2.66180E+01 0.00000E+00
 -1      1072 7.96500E+01 2.66180E+01 0.00000E+00
 -1      1073 8.26500E+01 2.66180E+01 0.00000E+00
 -1      1074 7.00350E+01 2.21922E+01 0.00000E+00
 -1      1075 5.80350E+01 2.21922E+01 0.00000E+00
 -1      1076 2.56500E+01 2.66180E+01 0.00000E+00
 -1      1077 3.16500E+01 2.66180E+01 0.00000E+00
 -1      1078 6.70350E+01 2.21922E+01 0.00000E+00
 -1      1079 6.40350E+01 2.21922E+01 0.00000E+00
 -1      1080 7.30350E+01 2.21922E+01 0.00000E+00
 -1      1081 7.60350E+01 2.21922E+01 0.00000E+00
 -1      1082 7.90350E+01 2.21922E+01 0.00000E+00
 -1      1083 8.20350E+01 2.21922E+01 0.00000E+00
 -1      1084 8.50350E+01 2.21922E+01 0.00000E+00
 -1      1085 3.46500E+01 2.66180E+01 0.00000E+00
 -1      1086 6.10350E+01 2.21922E+01 0.00000E+00
 -1      1087 3.70350E+01 2.21922E+01 0.00000E+00
 -1      1088 2.86500E+01 2.66180E+01 0.00000E+00
 -1      1089 4.30350E+01 2.21922E+01 0.00000E+00
 -1      1090 4.00350E+01 2.21922E+01 0.00000E+00
 -1      1091 3.40350E+01 2.21922E+01 0.00000E+00
 -1      1092 5.50350E+01 2.21922E+01 0.00000E+00
 -1      1093 2.49146E+01 2.21698E+01 0.00000E+00
 -1      1094 2.29335E+01 2.49328E+01 0.00000E+00
 -1      1095 8.55652E+01 2.66666E+01 0.00000E+00
 -1      1096 8.67577E+01 2.44537E+01 0.00000E+00
 -1      1097 3.10350E+01 2.21922E+01 0.00000E+00
 -1      1098 5.20350E+01 2.21922E+01 0.00000E+00
 -1      1099 2.07840E+01 2.05625E+01 0.00000E+00
 -1      1100 2.80350E+01 2.21922E+01 0.00000E+00
 -1      1101 4.60350E+01 2.21922E+01 0.00000E+00
 -1      1102 5.11500E+01 2.40200E+01 0.00000E+00
 -1      1103 4.90350E+01 2.21922E+01 0.00000E+00
 -1      1104 2.19040E+01 2.21811E+01 0.00000E+00
 -1      1105 0.00000E+00 4.85250E+01 0.00000E+00
 -1      1106 0.00000E+00 4.55750E+01 0.00000E+00
 -1      1107 0.00000E+00 4.26250E+01 0.00000E+00
 -1      1108 0.00000E+00 3.96750E+01 0.00000E+00
 -1      1109 0.00000E+00 3.67250E+01 0.00000E+00
 -1      1110 0.00000E+00 3.38000E+01 0.00000E+00
 -1      1111 0.00000E+00 3.08750E+01 0.00000E+00
 -1      1112 0.00000E+00 2.79250E+01 0.00000E+00
 -1      1113 0.00000E+00 2.49750E+01 0.00000E+00
 -1      1114 0.00000E+00 2.20250E+01 0.00000E+00
 -1      1115 0.00000E+00 1.90750E+01 0.00000E+00
 -1      1116 0.00000E+00 1.61500E+01 0.00000E+00
 -1      1117 0.00000E+00 1.32250E+01 0.00000E+00
 -1      1118 0.00000E+00 1.02750E+01 0.00000E+00
 -1      1119 0.00000E+00 7.32500E+00 0.00000E+00
 -1      1120 0.00000E+00 4.37500E+00 0.00000E+00
 -1      1121 0.00000E+00 1.45000E+00 0.00000E+00
 -1      1122 1.57500E+00 5.00000E+01 0.00000E+00
 -1      1123 4.65000E+00 5.00000E+01 0.00000E+00
 -1      1124 7.65000E+00 5.00000E+01 0.00000E+00
 -1      1125 1.06500E+01 5.00000E+01 0.00000E+00
 -1      1126 1.36500E+01 5.00000E+01 0.00000E+00
 -1      1127 1.66500E+01 5.00000E+01 0.00000E+00
 -1      1128 1.96500E+01 5.00000E+01 0.00000E+00
 -1      1129 2.26500E+01 5.00000E+01 0.00000E+00
 -1      1130 2.56500E+01 5.00000E+01 0.00000E+00
 -1      1131 2.86500E+01 5.00000E+01 0.00000E+00
 -1      1132 3.16500E+01 5.00000E+01 0.00000E+00
 -1      1133 3.46500E+01 5.00000E+01 0.00000E+00
 -1      1134 3.76500E+01 5.00000E+01 0.00000E+00
 -1      1135 4.06500E+01 5.00000E+01 0.00000E+00
 -1      1136 4.36500E+01 5.00000E+01 0.00000E+00
 -1      1137 4.66500E+01 5.00000E+01 0.00000E+00
 -1      1138 4.96500E+01 5.00000E+01 0.00000E+00
 -1      1139 5.26500E+01 5.00000E+01 0.00000E+00
 -1      1140 5.56500E+01 5.00000E+01 0.00000E+00
 -1      1141 5.86500E+01 5.00000E+01 0.00000E+00
 -1      1142 6.16500E+01 5.00000E+01 0.00000E+00
 -1      1143 6.46500E+01 5.00000E+01 0.00000E+00
 -1      1144 6.76500E+01 5.00000E+01 0.00000E+00
 -1      1145 7.06500E+01 5.00000E+01 0.00000E+00
 -1      1146 7.36500E+01 5.00000E+01 0.00000E+00
 -1      1147 7.66500E+01 5.00000E+01 0.00000E+00
 -1      1148 7.96500E+01 5.00000E+01 0.00000E+00
 -1      1149 8.26500E+01 5.00000E+01 0.00000E+00
 -1      1150 8.56500E+01 5.00000E+01 0.00000E+00
 -1      1151 8.86500E+01 5.00000E+01 0.00000E+00
 -1      1152 9.16500E+01 5.00000E+01 0.00000E+00
 -1      1153 9.46500E+01 5.00000E+01 0.00000E+00
 -1      1154 9.76500E+01 5.00000E+01 0.00000E+00
 -1      1155 1.00650E+02 5.00000E+01 0.00000E+00
 -1      1156 1.03650E+02 5.00000E+01 0.00000E+00
 -1      1157 1.06650E+02 5.00000E+01 0.00000E+00
 -1      1158 1.09650E+02 5.00000E+01 0.00000E+00
 -1      1159 1.12650E+02 5.00000E+01 0.00000E+00
 -1      1160 1.15650E+02 5.00000E+01 0.00000E+00
 -1      1161 1.18650E+02 5.00000E+01 0.00000E+00
 -1      1162 1.21650E+02 5.00000E+01 0.00000E+00
 -1      1163 1.24650E+02 5.00000E+01 0.00000E+00
 -1      1164 1.27650E+02 5.00000E+01 0.00000E+00
 -1      1165 1.30650E+02 5.00000E+01 0.00000E+00
 -1      1166 1.33650E+02 5.00000E+01 0.00000E+00
 -1      1167 1.36650E+02 5.00000E+01 0.00000E+00
 -1      1168 1.39650E+02 5.00000E+01 0.00000E+00
 -1      1169 1.42650E+02 5.00000E+01 0.00000E+00
 -1      1170 1.45650E+02 5.00000E+01 0.00000E+00
 -1      1171 1.48575E+02 5.00000E+01 0.00000E+00
 -1      1172 1.57500E+00 0.00000E+00 0.00000E+00
 -1      1173 4.65000E+00 0.00000E+00 0.00000E+00
 -1      1174 7.65000E+00 0.00000E+00 0.00000E+00
 -1      1175 1.06500E+01 0.00000E+00 0.00000E+00
 -1      1176 1.36500E+01 0.00000E+00 0.00000E+00
 -1      1177 1.66500E+01 0.00000E+00 0.00000E+00
 -1      1178 1.96500E+01 0.00000E+00 0.00000E+00
 -1      1179 2.26500E+01 0.00000E+00 0.00000E+00
 -1      1180 2.56500E+01 0.00000E+00 0.00000E+00
 -1      1181 2.86500E+01 0.00000E+00 0.00000E+00
 -1      1182 3.16500E+01 0.00000E+00 0.00000E+00
 -1      1183 3.46500E+01 0.00000E+00 0.00000E+00
 -1      1184 3.76500E+01 0.00000E+00 0.00000E+00
 -1      1185 4.06500E+01 0.00000E+00 0.00000E+00
 -1      1186 4.36500E+01 0.00000E+00 0.00000E+00
 -1      1187 4.66500E+01 0.00000E+00 0.00000E+00
 -1      1188 4.96500E+01 0.00000E+00 0.00000E+00
 -1      1189 5.26500E+01 0.00000E+00 0.00000E+00
 -1      1190 5.56500E+01 0.00000E+00 0.00000E+00
 -1      1191 5.86500E+01 0.00000E+00 0.00000E+00
 -1      1192 6.16500E+01 0.00000E+00 0.00000E+00
 -1      1193 6.46500E+01 0.00000E+00 0.00000E+00
 -1      1194 6.76500E+01 0.00000E+00 0.00000E+00
 -1      1195 7.06500E+01 0.00000E+00 0.00000E+00
 -1      1196 7.36500E+01 0.00000E+00 0.00000E+00
 -1      1197 7.66500E+01 0.00000E+00 0.00000E+00
 -1      1198 7.96500E+01 0.00000E+00 0.00000E+00
 -1      1199 8.26500E+01 0.00000E+00 0.00000E+00
 -1      1200 8.56500E+01 0.00000E+00 0.00000E+00
 -1      1201 8.86500E+01 0.00000E+00 0.00000E+00
 -1      1202 9.16500E+01 0.00000E+00 0.00000E+00
 -1      1203 9.46500E+01 0.00000E+00 0.00000E+00
 -1      1204 9.76500E+01 0.00000E+00 0.00000E+00
 -1      1205 1.00650E+02 0.00000E+00 0.00000E+00
 -1      1206 1.03650E+02 0.00000E+00 0.00000E+00
 -1      1207 1.06650E+02 0.00000E+00 0.00000E+00
 -1      1208 1.09650E+02 0.00000E+00 0.00000E+00
 -1      1209 1.12650E+02 0.00000E+00 0.00000E+00
 -1      1210 1.15650E+02 0.00000E+00 0.00000E+00
 -1      1211 1.18650E+02 0.00000E+00 0.00000E+00
 -1      1212 1.21650E+02 0.00000E+00 0.00000E+00
 -1      1213 1.24650E+02 0.00000E+00 0.00000E+00
 -1      1214 1.27650E+02 0.00000E+00 0.00000E+00
 -1      1215 1.30650E+02 0.00000E+00 0.00000E+00
 -1      1216 1.33650E+02 0.00000E+00 0.00000E+00
 -1      1217 1.36650E+02 0.00000E+00 0.00000E+00
 -1      1218 1.39650E+02 0.00000E+00 0.00000E+00
 -1      1219 1.42650E+02 0.00000E+00 0.00000E+00
 -1      1220 1.45650E+02 0.00000E+00 0.00000E+00
 -1      1221 1.48575E+02 0.00000E+00 0.00000E+00
 -1      1222 1.50000E+02 1.47500E+00 0.00000E+00
 -1      1223 1.50000E+02 4.42500E+00 0.00000E+00
 -1      1224 1.50000E+02 7.37500E+00 0.00000E+00
 -1      1225 1.50000E+02 1.03250E+01 0.00000E+00
 -1      1226 1.50000E+02 1.32750E+01 0.00000E+00
 -1      1227 1.50000E+02 1.62000E+01 0.00000E+00
 -1      1228 1.50000E+02 1.91250E+01 0.00000E+00
 -1      1229 1.50000E+02 2.20750E+01 0.00000E+00
 -1      1230 1.50000E+02 2.50250E+01 0.00000E+00
 -1      1231 1.50000E+02 2.79750E+01 0.00000E+00
 -1      1232 1.50000E+02 3.09250E+01 0.00000E+00
 -1      1233 1.50000E+02 3.38500E+01 0.00000E+00
 -1      1234 1.50000E+02 3.67750E+01 0.00000E+00
 -1      1235 1.50000E+02 3.97250E+01 0.00000E+00
 -1      1236 1.50000E+02 4.26750E+01 0.00000E+00
 -1      1237 1.50000E+02 4.56250E+01 0.00000E+00
 -1      1238 1.50000E+02 4.85500E+01 0.00000E+00
 -1      1239 1.16297E+02 2.59356E+01 0.00000E+00
 -1      1240 1.15980E+02 2.44801E+01 0.00000E+00
 -1      1241 1.15361E+02 2.31223E+01 0.00000E+00
 -1      1242 1.14386E+02 2.18390E+01 0.00000E+00
 -1      1243 1.13170E+02 2.08302E+01 0.00000E+00
 -1      1244 1.11857E+02 2.01566E+01 0.00000E+00
 -1      1245 1.10384E+02 1.97660E+01 0.00000E+00
 -1      1246 1.08858E+02 1.97037E+01 0.00000E+00
 -1      1247 1.07299E+02 1.99904E+01 0.00000E+00
 -1      1248 1.05877E+02 2.06021E+01 0.00000E+00
 -1      1249 1.04678E+02 2.14629E+01 0.00000E+00
 -1      1250 1.03664E+02 2.25863E+01 0.00000E+00
 -1      1251 1.02900E+02 2.39371E+01 0.00000E+00
 -1      1252 1.02450E+02 2.54370E+01 0.00000E+00
 -1      1253 1.02342E+02 2.69386E+01 0.00000E+00
 -1      1254 1.02540E+02 2.83594E+01 0.00000E+00
 -1      1255 1.03047E+02 2.97579E+01 0.00000E+00
 -1      1256 1.03869E+02 3.10579E+01 0.00000E+00
 -1      1257 1.05015E+02 3.21936E+01 0.00000E+00
 -1      1258 1.06361E+02 3.30231E+01 0.00000E+00
 -1      1259 1.07799E+02 3.35163E+01 0.00000E+00
 -1      1260 1.09329E+02 3.36873E+01 0.00000E+00
 -1      1261 1.10801E+02 3.35325E+01 0.00000E+00
 -1      1262 1.12198E+02 3.30758E+01 0.00000E+00
 -1      1263 1.13463E+02 3.23420E+01 0.00000E+00
 -1      1264 1.14556E+02 3.13528E+01 0.00000E+00
 -1      1265 1.15422E+02 3.01473E+01 0.00000E+00
 -1      1266 1.16008E+02 2.88078E+01 0.00000E+00
 -1      1267 1.16300E+02 2.74045E+01 0.00000E+00
 -1      1268 1.57500E+00 4.85250E+01 0.00000E+00
 -1      1269 1.29900E+00 4.48375E+01 0.00000E+00
 -1      1270 1.29900E+00 4.63125E+01 0.00000E+00
 -1      1271 1.29900E+00 4.18875E+01 0.00000E+00
 -1      1272 1.29900E+00 4.33625E+01 0.00000E+00
 -1      1273 2.59800E+00 4.41000E+01 0.00000E+00
 -1      1274 1.29900E+00 3.89375E+01 0.00000E+00
 -1      1275 1.29900E+00 4.04125E+01 0.00000E+00
 -1      1276 2.59800E+00 4.11500E+01 0.00000E+00
 -1      1277 1.29900E+00 3.59875E+01 0.00000E+00
 -1      1278 1.29900E+00 3.74625E+01 0.00000E+00
 -1      1279 2.59800E+00 3.82000E+01 0.00000E+00
 -1      1280 1.29900E+00 3.30875E+01 0.00000E+00
 -1      1281 1.29900E+00 3.45375E+01 0.00000E+00
 -1      1282 2.59800E+00 3.52750E+01 0.00000E+00
 -1      1283 1.29900E+00 3.01375E+01 0.00000E+00
 -1      1284 1.29900E+00 3.16125E+01 0.00000E+00
 -1      1285 2.59800E+00 3.23500E+01 0.00000E+00
 -1      1286 1.29900E+00 2.71875E+01 0.00000E+00
 -1      1287 1.29900E+00 2.86625E+01 0.00000E+00
 -1      1288 2.59800E+00 2.94000E+01 0.00000E+00
 -1      1289 1.29900E+00 2.42375E+01 0.00000E+00
 -1      1290 1.29900E+00 2.57125E+01 0.00000E+00
 -1      1291 2.59800E+00 2.64500E+01 0.00000E+00
 -1      1292 1.29900E+00 2.12875E+01 0.00000E+00
 -1      1293 1.29900E+00 2.27625E+01 0.00000E+00
 -1      1294 2.59800E+00 2.35000E+01 0.00000E+00
 -1      1295 1.29900E+00 1.83375E+01 0.00000E+00
 -1      1296 1.29900E+00 1.98125E+01 0.00000E+00
 -1      1297 2.59800E+00 2.05500E+01 0.00000E+00
 -1      1298 1.29900E+00 1.54375E+01 0.00000E+00
 -1      1299 1.29900E+00 1.68875E+01 0.00000E+00
 -1      1300 2.59800E+00 1.76250E+01 0.00000E+00
 -1      1301 1.29900E+00 1.24875E+01 0.00000E+00
 -1      1302 1.29900E+00 1.39625E+01 0.00000E+00
 -1      1303 2.59800E+00 1.47000E+01 0.00000E+00
 -1      1304 1.29900E+00 9.53750E+00 0.00000E+00
 -1      1305 1.29900E+00 1.10125E+01 0.00000E+00
 -1      1306 2.59800E+00 1.17500E+01 0.00000E+00
 -1      1307 1.29900E+00 6.58750E+00 0.00000E+00
 -1      1308 1.29900E+00 8.06250E+00 0.00000E+00
 -1      1309 2.59800E+00 8.80000E+00 0.00000E+00
 -1      1310 1.29900E+00 3.63750E+00 0.00000E+00
 -1      1311 1.29900E+00 5.11250E+00 0.00000E+00
 -1      1312 2.59800E+00 5.85000E+00 0.00000E+00
 -1      1313 1.43700E+00 1.09375E+00 0.00000E+00
 -1      1314 1.43700E+00 2.54375E+00 0.00000E+00
 -1      1315 2.73600E+00 3.28125E+00 0.00000E+00
 -1      1316 3.01200E+00 1.09375E+00 0.00000E+00
 -1      1317 3.90000E+00 4.87010E+01 0.00000E+00
 -1      1318 5.40000E+00 4.87010E+01 0.00000E+00
 -1      1319 6.90000E+00 4.87010E+01 0.00000E+00
 -1      1320 8.40000E+00 4.87010E+01 0.00000E+00
 -1      1321 6.15000E+00 4.74020E+01 0.00000E+00
 -1      1322 9.90000E+00 4.87010E+01 0.00000E+00
 -1      1323 1.14000E+01 4.87010E+01 0.00000E+00
 -1      1324 9.15000E+00 4.74020E+01 0.00000E+00
 -1      1325 1.29000E+01 4.87010E+01 0.00000E+00
 -1      1326 1.44000E+01 4.87010E+01 0.00000E+00
 -1      1327 1.21500E+01 4.74020E+01 0.00000E+00
 -1      1328 1.59000E+01 4.87010E+01 0.00000E+00
 -1      1329 1.74000E+01 4.87010E+01 0.00000E+00
 -1      1330 1.51500E+01 4.74020E+01 0.00000E+00
 -1      1331 1.89000E+01 4.87010E+01 0.00000E+00
 -1      1332 2.04000E+01 4.87010E+01 0.00000E+00
 -1      1333 1.81500E+01 4.74020E+01 0.00000E+00
 -1      1334 2.19000E+01 4.87010E+01 0.00000E+00
 -1      1335 2.34000E+01 4.87010E+01 0.00000E+00
 -1      1336 2.11500E+01 4.74020E+01 0.00000E+00
 -1      1337 2.49000E+01 4.87010E+01 0.00000E+00
 -1      1338 2.64000E+01 4.87010E+01 0.00000E+00
 -1      1339 2.41500E+01 4.74020E+01 0.00000E+00
 -1      1340 2.79000E+01 4.87010E+01 0.00000E+00
 -1      1341 2.94000E+01 4.87010E+01 0.00000E+00
 -1      1342 2.71500E+01 4.74020E+01 0.00000E+00
 -1      1343 3.09000E+01 4.87010E+01 0.00000E+00
 -1      1344 3.24000E+01 4.87010E+01 0.00000E+00
 -1      1345 3.01500E+01 4.74020E+01 0.00000E+00
 -1      1346 3.39000E+01 4.87010E+01 0.00000E+00
 -1      1347 3.54000E+01 4.87010E+01 0.00000E+00
 -1      1348 3.31500E+01 4.74020E+01 0.00000E+00
 -1      1349 3.69000E+01 4.87010E+01 0.00000E+00
 -1      1350 3.84000E+01 4.87010E+01 0.00000E+00
 -1      1351 3.61500E+01 4.74020E+01 0.00000E+00
 -1      1352 3.99000E+01 4.87010E+01 0.00000E+00
 -1      1353 4.14000E+01 4.87010E+01 0.00000E+00
 -1      1354 3.91500E+01 4.74020E+01 0.00000E+00
 -1      1355 4.29000E+01 4.87010E+01 0.00000E+00
 -1      1356 4.44000E+01 4.87010E+01 0.00000E+00
 -1      1357 4.21500E+01 4.74020E+01 0.00000E+00
 -1      1358 4.59000E+01 4.87010E+01 0.00000E+00
 -1      1359 4.74000E+01 4.87010E+01 0.00000E+00
 -1      1360 4.51500E+01 4.74020E+01 0.00000E+00
 -1      1361 4.89000E+01 4.87010E+01 0.00000E+00
 -1      1362 5.04000E+01 4.87010E+01 0.00000E+00
 -1      1363 4.81500E+01 4.74020E+01 0.00000E+00
 -1      1364 5.19000E+01 4.87010E+01 0.00000E+00
 -1      1365 5.34000E+01 4.87010E+01 0.00000E+00
 -1      1366 5.11500E+01 4.74020E+01 0.00000E+00
 -1      1367 5.49000E+01 4.87010E+01 0.00000E+00
 -1      1368 5.64000E+01 4.87010E+01 0.00000E+00
 -1      1369 5.41500E+01 4.74020E+01 0.00000E+00
 -1      1370 5.79000E+01 4.87010E+01 0.00000E+00
 -1      1371 5.94000E+01 4.87010E+01 0.00000E+00
 -1      1372 5.71500E+01 4.74020E+01 0.00000E+00
 -1      1373 6.09000E+01 4.87010E+01 0.00000E+00
 -1      1374 6.24000E+01 4.87010E+01 0.00000E+00
 -1      1375 6.01500E+01 4.74020E+01 0.00000E+00
 -1      1376 6.39000E+01 4.87010E+01 0.00000E+00
 -1      1377 6.54000E+01 4.87010E+01 0.00000E+00
 -1      1378 6.31500E+01 4.74020E+01 0.00000E+00
 -1      1379 6.69000E+01 4.87010E+01 0.00000E+00
 -1      1380 6.84000E+01 4.87010E+01 0.00000E+00
 -1      1381 6.61500E+01 4.74020E+01 0.00000E+00
 -1      1382 6.99000E+01 4.87010E+01 0.00000E+00
 -1      1383 7.14000E+01 4.87010E+01 0.00000E+00
 -1      1384 6.91500E+01 4.74020E+01 0.00000E+00
 -1      1385 7.29000E+01 4.87010E+01 0.00000E+00
 -1      1386 7.44000E+01 4.87010E+01 0.00000E+00
 -1      1387 7.21500E+01 4.74020E+01 0.00000E+00
 -1      1388 7.59000E+01 4.87010E+01 0.00000E+00
 -1      1389 7.74000E+01 4.87010E+01 0.00000E+00
 -1      1390 7.51500E+01 4.74020E+01 0.00000E+00
 -1      1391 7.89000E+01 4.87010E+01 0.00000E+00
 -1      1392 8.04000E+01 4.87010E+01 0.00000E+00
 -1      1393 7.81500E+01 4.74020E+01 0.00000E+00
 -1      1394 8.19000E+01 4.87010E+01 0.00000E+00
 -1      1395 8.34000E+01 4.87010E+01 0.00000E+00
 -1      1396 8.11500E+01 4.74020E+01 0.00000E+00
 -1      1397 8.49000E+01 4.87010E+01 0.00000E+00
 -1      1398 8.64000E+01 4.87010E+01 0.00000E+00
 -1      1399 8.41500E+01 4.74020E+01 0.00000E+00
 -1      1400 8.79000E+01 4.87010E+01 0.00000E+00
 -1      1401 8.94000E+01 4.87010E+01 0.00000E+00
 -1      1402 8.71500E+01 4.74020E+01 0.00000E+00
 -1      1403 9.09000E+01 4.87010E+01 0.00000E+00
 -1      1404 9.24000E+01 4.87010E+01 0.00000E+00
 -1      1405 9.01500E+01 4.74020E+01 0.00000E+00
 -1      1406 9.39000E+01 4.87010E+01 0.00000E+00
 -1      1407 9.54000E+01 4.87010E+01 0.00000E+00
 -1      1408 9.31500E+01 4.74020E+01 0.00000E+00
 -1      1409 9.69000E+01 4.87010E+01 0.00000E+00
 -1      1410 9.84000E+01 4.87010E+01 0.00000E+00
 -1      1411 9.61500E+01 4.74020E+01 0.00000E+00
 -1      1412 9.99000E+01 4.87010E+01 0.00000E+00
 -1      1413 1.01400E+02 4.87010E+01 0.00000E+00
 -1      1414 9.91500E+01 4.74020E+01 0.00000E+00
 -1      1415 1.02900E+02 4.87010E+01 0.00000E+00
 -1      1416 1.04400E+02 4.87010E+01 0.00000E+00
 -1      1417 1.02150E+02 4.74020E+01 0.00000E+00
 -1      1418 1.05900E+02 4.87010E+01 0.00000E+00
 -1      1419 1.07400E+02 4.87010E+01 0.00000E+00
 -1      1420 1.05150E+02 4.74020E+01 0.00000E+00
 -1      1421 1.08900E+02 4.87010E+01 0.00000E+00
 -1      1422 1.10400E+02 4.87010E+01 0.00000E+00
 -1      1423 1.08150E+02 4.74020E+01 0.00000E+00
 -1      1424 1.11900E+02 4.87010E+01 0.00000E+00
 -1      1425 1.13400E+02 4.87010E+01 0.00000E+00
 -1      1426 1.11150E+02 4.74020E+01 0.00000E+00
 -1      1427 1.14900E+02 4.87010E+01 0.00000E+00
 -1      1428 1.16400E+02 4.87010E+01 0.00000E+00
 -1      1429 1.14150E+02 4.74020E+01 0.00000E+00
 -1      1430 1.17900E+02 4.87010E+01 0.00000E+00
 -1      1431 1.19400E+02 4.87010E+01 0.00000E+00
 -1      1432 1.17150E+02 4.74020E+01 0.00000E+00
 -1      1433 1.20900E+02 4.87010E+01 0.00000E+00
 -1      1434 1.22400E+02 4.87010E+01 0.00000E+00
 -1      1435 1.20150E+02 4.74020E+01 0.00000E+00
 -1      1436 1.23900E+02 4.87010E+01 0.00000E+00
 -1      1437 1.25400E+02 4.87010E+01 0.00000E+00
 -1      1438 1.23150E+02 4.74020E+01 0.00000E+00
 -1      1439 1.26900E+02 4.87010E+01 0.00000E+00
 -1      1440 1.28400E+02 4.87010E+01 0.00000E+00
 -1      1441 1.26150E+02 4.74020E+01 0.00000E+00
 -1      1442 1.29900E+02 4.87010E+01 0.00000E+00
 -1      1443 1.31400E+02 4.87010E+01 0.00000E+00
 -1      1444 1.29150E+02 4.74020E+01 0.00000E+00
 -1      1445 1.32900E+02 4.87010E+01 0.00000E+00
 -1      1446 1.34400E+02 4.87010E+01 0.00000E+00
 -1      1447 1.32150E+02 4.74020E+01 0.00000E+00
 -1      1448 1.35900E+02 4.87010E+01 0.00000E+00
 -1      1449 1.37400E+02 4.87010E+01 0.00000E+00
 -1      1450 1.35150E+02 4.74020E+01 0.00000E+00
 -1      1451 1.38900E+02 4.87010E+01 0.00000E+00
 -1      1452 1.40400E+02 4.87010E+01 0.00000E+00
 -1      1453 1.38150E+02 4.74020E+01 0.00000E+00
 -1      1454 1.41900E+02 4.87010E+01 0.00000E+00
 -1      1455 1.43400E+02 4.87010E+01 0.00000E+00
 -1      1456 1.41150E+02 4.74020E+01 0.00000E+00
 -1      1457 1.44900E+02 4.87010E+01 0.00000E+00
 -1      1458 1.46400E+02 4.87010E+01 0.00000E+00
 -1      1459 1.44150E+02 4.74020E+01 0.00000E+00
 -1      1460 1.48575E+02 4.85500E+01 0.00000E+00
 -1      1461 1.47825E+02 4.72510E+01 0.00000E+00
 -1      1462 6.01200E+00 1.09375E+00 0.00000E+00
 -1      1463 4.51200E+00 1.09375E+00 0.00000E+00
 -1      1464 4.37400E+00 2.18750E+00 0.00000E+00
 -1      1465 9.01200E+00 1.09375E+00 0.00000E+00
 -1      1466 7.51200E+00 1.09375E+00 0.00000E+00
 -1      1467 7.37400E+00 2.18750E+00 0.00000E+00
 -1      1468 1.20120E+01 1.09375E+00 0.00000E+00
 -1      1469 1.05120E+01 1.09375E+00 0.00000E+00
 -1      1470 1.03740E+01 2.18750E+00 0.00000E+00
 -1      1471 1.50120E+01 1.09375E+00 0.00000E+00
 -1      1472 1.35120E+01 1.09375E+00 0.00000E+00
 -1      1473 1.33740E+01 2.18750E+00 0.00000E+00
 -1      1474 1.80120E+01 1.09375E+00 0.00000E+00
 -1      1475 1.65120E+01 1.09375E+00 0.00000E+00
 -1      1476 1.63740E+01 2.18750E+00 0.00000E+00
 -1      1477 2.10120E+01 1.09375E+00 0.00000E+00
 -1      1478 1.95120E+01 1.09375E+00 0.00000E+00
 -1      1479 1.93740E+01 2.18750E+00 0.00000E+00
 -1      1480 2.40120E+01 1.09375E+00 0.00000E+00
 -1      1481 2.25120E+01 1.09375E+00 0.00000E+00
 -1      1482 2.23740E+01 2.18750E+00 0.00000E+00
 -1      1483 2.70120E+01 1.09375E+00 0.00000E+00
 -1      1484 2.55120E+01 1.09375E+00 0.00000E+00
 -1      1485 2.53740E+01 2.18750E+00 0.00000E+00
 -1      1486 3.00120E+01 1.09375E+00 0.00000E+00
 -1      1487 2.85120E+01 1.09375E+00 0.00000E+00
 -1      1488 2.83740E+01 2.18750E+00 0.00000E+00
 -1      1489 3.30120E+01 1.09375E+00 0.00000E+00
 -1      1490 3.15120E+01 1.09375E+00 0.00000E+00
 -1      1491 3.13740E+01 2.18750E+00 0.00000E+00
 -1      1492 3.60120E+01 1.09375E+00 0.00000E+00
 -1      1493 3.45120E+01 1.09375E+00 0.00000E+00
 -1      1494 3.43740E+01 2.18750E+00 0.00000E+00
 -1      1495 3.90120E+01 1.09375E+00 0.00000E+00
 -1      1496 3.75120E+01 1.09375E+00 0.00000E+00
 -1      1497 3.73740E+01 2.18750E+00 0.00000E+00
 -1      1498 4.20120E+01 1.09375E+00 0.00000E+00
 -1      1499 4.05120E+01 1.09375E+00 0.00000E+00
 -1      1500 4.03740E+01 2.18750E+00 0.00000E+00
 -1      1501 4.50120E+01 1.09375E+00 0.00000E+00
 -1      1502 4.35120E+01 1.09375E+00 0.00000E+00
 -1      1503 4.33740E+01 2.18750E+00 0.00000E+00
 -1      1504 4.80120E+01 1.09375E+00 0.00000E+00
 -1      1505 4.65120E+01 1.09375E+00 0.00000E+00
 -1      1506 4.63740E+01 2.18750E+00 0.00000E+00
 -1      1507 5.10120E+01 1.09375E+00 0.00000E+00
 -1      1508 4.95120E+01 1.09375E+00 0.00000E+00
 -1      1509 4.93740E+01 2.18750E+00 0.00000E+00
 -1      1510 5.40120E+01 1.09375E+00 0.00000E+00
 -1      1511 5.25120E+01 1.09375E+00 0.00000E+00
 -1      1512 5.23740E+01 2.18750E+00 0.00000E+00
 -1      1513 5.70120E+01 1.09375E+00 0.00000E+00
 -1      1514 5.55120E+01 1.09375E+00 0.00000E+00
 -1      1515 5.53740E+01 2.18750E+00 0.00000E+00
 -1      1516 6.00120E+01 1.09375E+00 0.00000E+00
 -1      1517 5.85120E+01 1.09375E+00 0.00000E+00
 -1      1518 5.83740E+01 2.18750E+00 0.00000E+00
 -1      1519 6.30120E+01 1.09375E+00 0.00000E+00
 -1      1520 6.15120E+01 1.09375E+00 0.00000E+00
 -1      1521 6.13740E+01 2.18750E+00 0.00000E+00
 -1      1522 6.60120E+01 1.09375E+00 0.00000E+00
 -1      1523 6.45120E+01 1.09375E+00 0.00000E+00
 -1      1524 6.43740E+01 2.18750E+00 0.00000E+00
 -1      1525 6.90120E+01 1.09375E+00 0.00000E+00
 -1      1526 6.75120E+01 1.09375E+00 0.00000E+00
 -1      1527 6.73740E+01 2.18750E+00 0.00000E+00
 -1      1528 7.20120E+01 1.09375E+00 0.00000E+00
 -1      1529 7.05120E+01 1.09375E+00 0.00000E+00
 -1      1530 7.03740E+01 2.18750E+00 0.00000E+00
 -1      1531 7.50120E+01 1.09375E+00 0.00000E+00
 -1      1532 7.35120E+01 1.09375E+00 0.00000E+00
 -1      1533 7.33740E+01 2.18750E+00 0.00000E+00
 -1      1534 7.80120E+01 1.09375E+00 0.00000E+00
 -1      1535 7.65120E+01 1.09375E+00 0.00000E+00
 -1      1536 7.63740E+01 2.18750E+00 0.00000E+00
 -1      1537 8.10120E+01 1.09375E+00 0.00000E+00
 -1      1538 7.95120E+01 1.09375E+00 0.00000E+00
 -1      1539 7.93740E+01 2.18750E+00 0.00000E+00
 -1      1540 8.40120E+01 1.09375E+00 0.00000E+00
 -1      1541 8.25120E+01 1.09375E+00 0.00000E+00
 -1      1542 8.23740E+01 2.18750E+00 0.00000E+00
 -1      1543 8.70120E+01 1.09375E+00 0.00000E+00
 -1      1544 8.55120E+01 1.09375E+00 0.00000E+00
 -1      1545 8.53740E+01 2.18750E+00 0.00000E+00
 -1      1546 9.00120E+01 1.09375E+00 0.00000E+00
 -1      1547 8.85120E+01 1.09375E+00 0.00000E+00
 -1      1548 8.83740E+01 2.18750E+00 0.00000E+00
 -1      1549 9.30120E+01 1.09375E+00 0.00000E+00
 -1      1550 9.15120E+01 1.09375E+00 0.00000E+00
 -1      1551 9.13740E+01 2.18750E+00 0.00000E+00
 -1      1552 9.60120E+01 1.09375E+00 0.00000E+00
 -1      1553 9.45120E+01 1.09375E+00 0.00000E+00
 -1      1554 9.43740E+01 2.18750E+00 0.00000E+00
 -1      1555 9.90120E+01 1.09375E+00 0.00000E+00
 -1      1556 9.75120E+01 1.09375E+00 0.00000E+00
 -1      1557 9.73740E+01 2.18750E+00 0.00000E+00
 -1      1558 1.02012E+02 1.09375E+00 0.00000E+00
 -1      1559 1.00512E+02 1.09375E+00 0.00000E+00
 -1      1560 1.00374E+02 2.18750E+00 0.00000E+00
 -1      1561 1.05012E+02 1.09375E+00 0.00000E+00
 -1      1562 1.03512E+02 1.09375E+00 0.00000E+00
 -1      1563 1.03374E+02 2.18750E+00 0.00000E+00
 -1      1564 1.08012E+02 1.09375E+00 0.00000E+00
 -1      1565 1.06512E+02 1.09375E+00 0.00000E+00
 -1      1566 1.06374E+02 2.18750E+00 0.00000E+00
 -1      1567 1.11012E+02 1.09375E+00 0.00000E+00
 -1      1568 1.09512E+02 1.09375E+00 0.00000E+00
 -1      1569 1.09374E+02 2.18750E+00 0.00000E+00
 -1      1570 1.14012E+02 1.09375E+00 0.00000E+00
 -1      1571 1.12512E+02 1.09375E+00 0.00000E+00
 -1      1572 1.12374E+02 2.18750E+00 0.00000E+00
 -1      1573 1.17012E+02 1.09375E+00 0.00000E+00
 -1      1574 1.15512E+02 1.09375E+00 0.00000E+00
 -1      1575 1.15374E+02 2.18750E+00 0.00000E+00
 -1      1576 1.20012E+02 1.09375E+00 0.00000E+00
 -1      1577 1.18512E+02 1.09375E+00 0.00000E+00
 -1      1578 1.18374E+02 2.18750E+00 0.00000E+00
 -1      1579 1.23012E+02 1.09375E+00 0.00000E+00
 -1      1580 1.21512E+02 1.09375E+00 0.00000E+00
 -1      1581 1.21374E+02 2.18750E+00 0.00000E+00
 -1      1582 1.26012E+02 1.09375E+00 0.00000E+00
 -1      1583 1.24512E+02 1.09375E+00 0.00000E+00
 -1      1584 1.24374E+02 2.18750E+00 0.00000E+00
 -1      1585 1.29012E+02 1.09375E+00 0.00000E+00
 -1      1586 1.27512E+02 1.09375E+00 0.00000E+00
 -1      1587 1.27374E+02 2.18750E+00 0.00000E+00
 -1      1588 1.32012E+02 1.09375E+00 0.00000E+00
 -1      1589 1.30512E+02 1.09375E+00 0.00000E+00
 -1      1590 1.30374E+02 2.18750E+00 0.00000E+00
 -1      1591 1.35012E+02 1.09375E+00 0.00000E+00
 -1      1592 1.33512E+02 1.09375E+00 0.00000E+00
 -1      1593 1.33374E+02 2.18750E+00 0.00000E+00
 -1      1594 1.38012E+02 1.09375E+00 0.00000E+00
 -1      1595 1.36512E+02 1.09375E+00 0.00000E+00
 -1      1596 1.36374E+02 2.18750E+00 0.00000E+00
 -1      1597 1.41012E+02 1.09375E+00 0.00000E+00
 -1      1598 1.39512E+02 1.09375E+00 0.00000E+00
 -1      1599 1.39374E+02 2.18750E+00 0.00000E+00
 -1      1600 1.44012E+02 1.09375E+00 0.00000E+00
 -1      1601 1.42512E+02 1.09375E+00 0.00000E+00
 -1      1602 1.42374E+02 2.18750E+00 0.00000E+00
 -1      1603 1.47012E+02 1.09375E+00 0.00000E+00
 -1      1604 1.45512E+02 1.09375E+00 0.00000E+00
 -1      1605 1.45374E+02 2.18750E+00 0.00000E+00
 -1      1606 1.48575E+02 1.47500E+00 0.00000E+00
 -1      1607 1.48701E+02 5.16250E+00 0.00000E+00
 -1      1608 1.48701E+02 3.68750E+00 0.00000E+00
 -1      1609 1.48701E+02 8.11250E+00 0.00000E+00
 -1      1610 1.48701E+02 6.63750E+00 0.00000E+00
 -1      1611 1.47402E+02 5.90000E+00 0.00000E+00
 -1      1612 1.48701E+02 1.10625E+01 0.00000E+00
 -1      1613 1.48701E+02 9.58750E+00 0.00000E+00
 -1      1614 1.47402E+02 8.85000E+00 0.00000E+00
 -1      1615 1.48701E+02 1.40125E+01 0.00000E+00
 -1      1616 1.48701E+02 1.25375E+01 0.00000E+00
 -1      1617 1.47402E+02 1.18000E+01 0.00000E+00
 -1      1618 1.48701E+02 1.69125E+01 0.00000E+00
 -1      1619 1.48701E+02 1.54625E+01 0.00000E+00
 -1      1620 1.47402E+02 1.47250E+01 0.00000E+00
 -1      1621 1.48701E+02 1.98625E+01 0.00000E+00
 -1      1622 1.48701E+02 1.83875E+01 0.00000E+00
 -1      1623 1.47402E+02 1.76500E+01 0.00000E+00
 -1      1624 1.48701E+02 2.28125E+01 0.00000E+00
 -1      1625 1.48701E+02 2.13375E+01 0.00000E+00
 -1      1626 1.47402E+02 2.06000E+01 0.00000E+00
 -1      1627 1.48701E+02 2.57625E+01 0.00000E+00
 -1      1628 1.48701E+02 2.42875E+01 0.00000E+00
 -1      1629 1.47402E+02 2.35500E+01 0.00000E+00
 -1      1630 1.48701E+02 2.87125E+01 0.00000E+00
 -1      1631 1.48701E+02 2.72375E+01 0.00000E+00
 -1      1632 1.47402E+02 2.65000E+01 0.00000E+00
 -1      1633 1.48701E+02 3.16625E+01 0.00000E+00
 -1      1634 1.48701E+02 3.01875E+01 0.00000E+00
 -1      1635 1.47402E+02 2.94500E+01 0.00000E+00
 -1      1636 1.48701E+02 3.45625E+01 0.00000E+00
 -1      1637 1.48701E+02 3.31125E+01 0.00000E+00
 -1      1638 1.47402E+02 3.23750E+01 0.00000E+00
 -1      1639 1.48701E+02 3.75125E+01 0.00000E+00
 -1      1640 1.48701E+02 3.60375E+01 0.00000E+00
 -1      1641 1.47402E+02 3.53000E+01 0.00000E+00
 -1      1642 1.48701E+02 4.04625E+01 0.00000E+00
 -1      1643 1.48701E+02 3.89875E+01 0.00000E+00
 -1      1644 1.47402E+02 3.82500E+01 0.00000E+00
 -1      1645 1.48701E+02 4.34125E+01 0.00000E+00
 -1      1646 1.48701E+02 4.19375E+01 0.00000E+00
 -1      1647 1.47402E+02 4.12000E+01 0.00000E+00
 -1      1648 1.48263E+02 4.60692E+01 0.00000E+00
 -1      1649 1.48263E+02 4.45942E+01 0.00000E+00
 -1      1650 1.46964E+02 4.38568E+01 0.00000E+00
 -1      1651 1.46088E+02 4.62202E+01 0.00000E+00
 -1      1652 1.16902E+02 2.54922E+01 0.00000E+00
 -1      1653 1.16983E+02 2.62395E+01 0.00000E+00
 -1      1654 1.16442E+02 2.39380E+01 0.00000E+00
 -1      1655 1.16674E+02 2.46382E+01 0.00000E+00
 -1      1656 1.15764E+02 2.24457E+01 0.00000E+00
 -1      1657 1.16148E+02 2.30949E+01 0.00000E+00
 -1      1658 1.14579E+02 2.10594E+01 0.00000E+00
 -1      1659 1.15173E+02 2.16777E+01 0.00000E+00
 -1      1660 1.13203E+02 2.01214E+01 0.00000E+00
 -1      1661 1.13807E+02 2.05170E+01 0.00000E+00
 -1      1662 1.11709E+02 1.94933E+01 0.00000E+00
 -1      1663 1.12412E+02 1.97646E+01 0.00000E+00
 -1      1664 1.10087E+02 1.91510E+01 0.00000E+00
 -1      1665 1.10849E+02 1.92662E+01 0.00000E+00
 -1      1666 1.08440E+02 1.91238E+01 0.00000E+00
 -1      1667 1.09194E+02 1.90721E+01 0.00000E+00
 -1      1668 1.06704E+02 1.94580E+01 0.00000E+00
 -1      1669 1.07497E+02 1.92167E+01 0.00000E+00
 -1      1670 1.05283E+02 2.02851E+01 0.00000E+00
 -1      1671 1.05908E+02 1.99296E+01 0.00000E+00
 -1      1672 1.03908E+02 2.11679E+01 0.00000E+00
 -1      1673 1.04473E+02 2.06642E+01 0.00000E+00
 -1      1674 1.02951E+02 2.25373E+01 0.00000E+00
 -1      1675 1.03394E+02 2.19241E+01 0.00000E+00
 -1      1676 1.02112E+02 2.40331E+01 0.00000E+00
 -1      1677 1.02425E+02 2.33017E+01 0.00000E+00
 -1      1678 1.01744E+02 2.57005E+01 0.00000E+00
 -1      1679 1.01881E+02 2.49422E+01 0.00000E+00
 -1      1680 1.01746E+02 2.73277E+01 0.00000E+00
 -1      1681 1.01719E+02 2.65933E+01 0.00000E+00
 -1      1682 1.02069E+02 2.88355E+01 0.00000E+00
 -1      1683 1.01902E+02 2.81561E+01 0.00000E+00
 -1      1684 1.02602E+02 3.04134E+01 0.00000E+00
 -1      1685 1.02256E+02 2.97055E+01 0.00000E+00
 -1      1686 1.03596E+02 3.17567E+01 0.00000E+00
 -1      1687 1.03127E+02 3.11704E+01 0.00000E+00
 -1      1688 1.04909E+02 3.30265E+01 0.00000E+00
 -1      1689 1.04231E+02 3.24940E+01 0.00000E+00
 -1      1690 1.06426E+02 3.37290E+01 0.00000E+00
 -1      1691 1.05776E+02 3.34235E+01 0.00000E+00
 -1      1692 1.08031E+02 3.43143E+01 0.00000E+00
 -1      1693 1.07248E+02 3.41381E+01 0.00000E+00
 -1      1694 1.09697E+02 3.42550E+01 0.00000E+00
 -1      1695 1.08960E+02 3.42541E+01 0.00000E+00
 -1      1696 1.11291E+02 3.40499E+01 0.00000E+00
 -1      1697 1.10565E+02 3.42053E+01 0.00000E+00
 -1      1698 1.12762E+02 3.34459E+01 0.00000E+00
 -1      1699 1.12099E+02 3.37431E+01 0.00000E+00
 -1      1700 1.14095E+02 3.25837E+01 0.00000E+00
 -1      1701 1.13501E+02 3.30171E+01 0.00000E+00
 -1      1702 1.15256E+02 3.14833E+01 0.00000E+00
 -1      1703 1.14764E+02 3.20340E+01 0.00000E+00
 -1      1704 1.16099E+02 3.01031E+01 0.00000E+00
 -1      1705 1.15730E+02 3.07515E+01 0.00000E+00
 -1      1706 1.16659E+02 2.86391E+01 0.00000E+00
 -1      1707 1.16442E+02 2.93216E+01 0.00000E+00
 -1      1708 1.16903E+02 2.71061E+01 0.00000E+00
 -1      1709 1.16830E+02 2.78196E+01 0.00000E+00
 -1      1710 1.14632E+02 2.03193E+01 0.00000E+00
 -1      1711 1.15995E+02 2.16296E+01 0.00000E+00
 -1      1712 1.48437E+02 2.56875E+00 0.00000E+00
 -1      1713 1.47138E+02 3.30625E+00 0.00000E+00
 -1      1714 1.17401E+02 2.49378E+01 0.00000E+00
 -1      1715 1.16879E+02 2.32406E+01 0.00000E+00
 -1      1716 1.17549E+02 2.66584E+01 0.00000E+00
 -1      1717 1.13069E+02 1.94202E+01 0.00000E+00
 -1      1718 1.11419E+02 1.88363E+01 0.00000E+00
 -1      1719 1.09666E+02 1.85303E+01 0.00000E+00
 -1      1720 1.07830E+02 1.85443E+01 0.00000E+00
 -1      1721 1.06092E+02 1.91088E+01 0.00000E+00
 -1      1722 1.04486E+02 1.99594E+01 0.00000E+00
 -1      1723 1.03161E+02 2.10948E+01 0.00000E+00
 -1      1724 1.02121E+02 2.26154E+01 0.00000E+00
 -1      1725 1.01365E+02 2.42890E+01 0.00000E+00
 -1      1726 1.01109E+02 2.60909E+01 0.00000E+00
 -1      1727 1.01241E+02 2.78122E+01 0.00000E+00
 -1      1728 1.01584E+02 2.95106E+01 0.00000E+00
 -1      1729 1.02297E+02 3.11374E+01 0.00000E+00
 -1      1730 1.03458E+02 3.26316E+01 0.00000E+00
 -1      1731 1.04959E+02 3.37659E+01 0.00000E+00
 -1      1732 1.06648E+02 3.45720E+01 0.00000E+00
 -1      1733 1.08399E+02 3.49209E+01 0.00000E+00
 -1      1734 1.10196E+02 3.48111E+01 0.00000E+00
 -1      1735 1.11871E+02 3.44546E+01 0.00000E+00
 -1      1736 1.13417E+02 3.37189E+01 0.00000E+00
 -1      1737 1.14824E+02 3.27403E+01 0.00000E+00
 -1      1738 1.15967E+02 3.14588E+01 0.00000E+00
 -1      1739 1.16785E+02 2.99455E+01 0.00000E+00
 -1      1740 1.17299E+02 2.83445E+01 0.00000E+00
 -1      1741 2.87400E+00 4.77875E+01 0.00000E+00
 -1      1742 3.89700E+00 4.04125E+01 0.00000E+00
 -1      1743 3.89700E+00 4.18875E+01 0.00000E+00
 -1      1744 3.89700E+00 4.33625E+01 0.00000E+00
 -1      1745 3.89700E+00 4.48375E+01 0.00000E+00
 -1      1746 5.19600E+00 4.26250E+01 0.00000E+00
 -1      1747 3.89700E+00 3.45500E+01 0.00000E+00
 -1      1748 3.89700E+00 3.60000E+01 0.00000E+00
 -1      1749 3.89700E+00 3.16000E+01 0.00000E+00
 -1      1750 3.89700E+00 3.30750E+01 0.00000E+00
 -1      1751 5.19600E+00 3.38000E+01 0.00000E+00
 -1      1752 3.89700E+00 2.86500E+01 0.00000E+00
 -1      1753 3.89700E+00 3.01250E+01 0.00000E+00
 -1      1754 5.19600E+00 3.08500E+01 0.00000E+00
 -1      1755 3.89700E+00 2.57000E+01 0.00000E+00
 -1      1756 3.89700E+00 2.71750E+01 0.00000E+00
 -1      1757 5.19600E+00 2.79000E+01 0.00000E+00
 -1      1758 3.89700E+00 2.27500E+01 0.00000E+00
 -1      1759 3.89700E+00 2.42250E+01 0.00000E+00
 -1      1760 5.19600E+00 2.49500E+01 0.00000E+00
 -1      1761 3.89700E+00 1.98000E+01 0.00000E+00
 -1      1762 3.89700E+00 2.12750E+01 0.00000E+00
 -1      1763 5.19600E+00 2.20000E+01 0.00000E+00
 -1      1764 3.89700E+00 1.69000E+01 0.00000E+00
 -1      1765 3.89700E+00 1.83500E+01 0.00000E+00
 -1      1766 5.19600E+00 1.90750E+01 0.00000E+00
 -1      1767 3.89700E+00 1.39500E+01 0.00000E+00
 -1      1768 3.89700E+00 1.54250E+01 0.00000E+00
 -1      1769 5.19600E+00 1.61500E+01 0.00000E+00
 -1      1770 3.89700E+00 1.10000E+01 0.00000E+00
 -1      1771 3.89700E+00 1.24750E+01 0.00000E+00
 -1      1772 5.19600E+00 1.32000E+01 0.00000E+00
 -1      1773 3.89700E+00 8.05000E+00 0.00000E+00
 -1      1774 3.89700E+00 9.52500E+00 0.00000E+00
 -1      1775 5.19600E+00 1.02500E+01 0.00000E+00
 -1      1776 3.89700E+00 5.10000E+00 0.00000E+00
 -1      1777 3.89700E+00 6.57500E+00 0.00000E+00
 -1      1778 5.19600E+00 7.30000E+00 0.00000E+00
 -1      1779 4.20450E+00 3.09687E+00 0.00000E+00
 -1      1780 4.06650E+00 4.19063E+00 0.00000E+00
 -1      1781 5.36550E+00 4.91563E+00 0.00000E+00
 -1      1782 5.70450E+00 3.09687E+00 0.00000E+00
 -1      1783 3.62400E+00 4.64885E+01 0.00000E+00
 -1      1784 8.70450E+00 3.09687E+00 0.00000E+00
 -1      1785 7.20450E+00 3.09687E+00 0.00000E+00
 -1      1786 7.03500E+00 4.00625E+00 0.00000E+00
 -1      1787 4.92300E+00 4.57510E+01 0.00000E+00
 -1      1788 8.40000E+00 4.61030E+01 0.00000E+00
 -1      1789 9.90000E+00 4.61030E+01 0.00000E+00
 -1      1790 1.14000E+01 4.61030E+01 0.00000E+00
 -1      1791 1.29000E+01 4.61030E+01 0.00000E+00
 -1      1792 1.06500E+01 4.48040E+01 0.00000E+00
 -1      1793 1.44000E+01 4.61030E+01 0.00000E+00
 -1      1794 1.59000E+01 4.61030E+01 0.00000E+00
 -1      1795 1.36500E+01 4.48040E+01 0.00000E+00
 -1      1796 1.74000E+01 4.61030E+01 0.00000E+00
 -1      1797 1.89000E+01 4.61030E+01 0.00000E+00
 -1      1798 1.66500E+01 4.48040E+01 0.00000E+00
 -1      1799 2.04000E+01 4.61030E+01 0.00000E+00
 -1      1800 2.19000E+01 4.61030E+01 0.00000E+00
 -1      1801 1.96500E+01 4.48040E+01 0.00000E+00
 -1      1802 2.34000E+01 4.61030E+01 0.00000E+00
 -1      1803 2.49000E+01 4.61030E+01 0.00000E+00
 -1      1804 2.26500E+01 4.48040E+01 0.00000E+00
 -1      1805 2.64000E+01 4.61030E+01 0.00000E+00
 -1      1806 2.79000E+01 4.61030E+01 0.00000E+00
 -1      1807 2.56500E+01 4.48040E+01 0.00000E+00
 -1      1808 2.94000E+01 4.61030E+01 0.00000E+00
 -1      1809 3.09000E+01 4.61030E+01 0.00000E+00
 -1      1810 2.86500E+01 4.48040E+01 0.00000E+00
 -1      1811 3.24000E+01 4.61030E+01 0.00000E+00
 -1      1812 3.39000E+01 4.61030E+01 0.00000E+00
 -1      1813 3.16500E+01 4.48040E+01 0.00000E+00
 -1      1814 3.54000E+01 4.61030E+01 0.00000E+00
 -1      1815 3.69000E+01 4.61030E+01 0.00000E+00
 -1      1816 3.46500E+01 4.48040E+01 0.00000E+00
 -1      1817 3.84000E+01 4.61030E+01 0.00000E+00
 -1      1818 3.99000E+01 4.61030E+01 0.00000E+00
 -1      1819 3.76500E+01 4.48040E+01 0.00000E+00
 -1      1820 4.14000E+01 4.61030E+01 0.00000E+00
 -1      1821 4.29000E+01 4.61030E+01 0.00000E+00
 -1      1822 4.06500E+01 4.48040E+01 0.00000E+00
 -1      1823 4.44000E+01 4.61030E+01 0.00000E+00
 -1      1824 4.59000E+01 4.61030E+01 0.00000E+00
 -1      1825 4.36500E+01 4.48040E+01 0.00000E+00
 -1      1826 4.74000E+01 4.61030E+01 0.00000E+00
 -1      1827 4.89000E+01 4.61030E+01 0.00000E+00
 -1      1828 4.66500E+01 4.48040E+01 0.00000E+00
 -1      1829 5.04000E+01 4.61030E+01 0.00000E+00
 -1      1830 5.19000E+01 4.61030E+01 0.00000E+00
 -1      1831 4.96500E+01 4.48040E+01 0.00000E+00
 -1      1832 5.34000E+01 4.61030E+01 0.00000E+00
 -1      1833 5.49000E+01 4.61030E+01 0.00000E+00
 -1      1834 5.26500E+01 4.48040E+01 0.00000E+00
 -1      1835 5.64000E+01 4.61030E+01 0.00000E+00
 -1      1836 5.79000E+01 4.61030E+01 0.00000E+00
 -1      1837 5.56500E+01 4.48040E+01 0.00000E+00
 -1      1838 5.94000E+01 4.61030E+01 0.00000E+00
 -1      1839 6.09000E+01 4.61030E+01 0.00000E+00
 -1      1840 5.86500E+01 4.48040E+01 0.00000E+00
 -1      1841 6.24000E+01 4.61030E+01 0.00000E+00
 -1      1842 6.39000E+01 4.61030E+01 0.00000E+00
 -1      1843 6.16500E+01 4.48040E+01 0.00000E+00
 -1      1844 6.54000E+01 4.61030E+01 0.00000E+00
 -1      1845 6.69000E+01 4.61030E+01 0.00000E+00
 -1      1846 6.46500E+01 4.48040E+01 0.00000E+00
 -1      1847 6.84000E+01 4.61030E+01 0.00000E+00
 -1      1848 6.99000E+01 4.61030E+01 0.00000E+00
 -1      1849 6.76500E+01 4.48040E+01 0.00000E+00
 -1      1850 7.14000E+01 4.61030E+01 0.00000E+00
 -1      1851 7.29000E+01 4.61030E+01 0.00000E+00
 -1      1852 7.06500E+01 4.48040E+01 0.00000E+00
 -1      1853 7.44000E+01 4.61030E+01 0.00000E+00
 -1      1854 7.59000E+01 4.61030E+01 0.00000E+00
 -1      1855 7.36500E+01 4.48040E+01 0.00000E+00
 -1      1856 7.74000E+01 4.61030E+01 0.00000E+00
 -1      1857 7.89000E+01 4.61030E+01 0.00000E+00
 -1      1858 7.66500E+01 4.48040E+01 0.00000E+00
 -1      1859 8.04000E+01 4.61030E+01 0.00000E+00
 -1      1860 8.19000E+01 4.61030E+01 0.00000E+00
 -1      1861 7.96500E+01 4.48040E+01 0.00000E+00
 -1      1862 8.34000E+01 4.61030E+01 0.00000E+00
 -1      1863 8.49000E+01 4.61030E+01 0.00000E+00
 -1      1864 8.26500E+01 4.48040E+01 0.00000E+00
 -1      1865 8.64000E+01 4.61030E+01 0.00000E+00
 -1      1866 8.79000E+01 4.61030E+01 0.00000E+00
 -1      1867 8.56500E+01 4.48040E+01 0.00000E+00
 -1      1868 8.94000E+01 4.61030E+01 0.00000E+00
 -1      1869 9.09000E+01 4.61030E+01 0.00000E+00
 -1      1870 8.86500E+01 4.48040E+01 0.00000E+00
 -1      1871 9.24000E+01 4.61030E+01 0.00000E+00
 -1      1872 9.39000E+01 4.61030E+01 0.00000E+00
 -1      1873 9.16500E+01 4.48040E+01 0.00000E+00
 -1      1874 9.54000E+01 4.61030E+01 0.00000E+00
 -1      1875 9.69000E+01 4.61030E+01 0.00000E+00
 -1      1876 9.46500E+01 4.48040E+01 0.00000E+00
 -1      1877 9.84000E+01 4.61030E+01 0.00000E+00
 -1      1878 9.99000E+01 4.61030E+01 0.00000E+00
 -1      1879 9.76500E+01 4.48040E+01 0.00000E+00
 -1      1880 1.01400E+02 4.61030E+01 0.00000E+00
 -1      1881 1.02900E+02 4.61030E+01 0.00000E+00
 -1      1882 1.00650E+02 4.48040E+01 0.00000E+00
 -1      1883 1.04400E+02 4.61030E+01 0.00000E+00
 -1      1884 1.05900E+02 4.61030E+01 0.00000E+00
 -1      1885 1.03650E+02 4.48040E+01 0.00000E+00
 -1      1886 1.07400E+02 4.61030E+01 0.00000E+00
 -1      1887 1.08900E+02 4.61030E+01 0.00000E+00
 -1      1888 1.06650E+02 4.48040E+01 0.00000E+00
 -1      1889 1.10400E+02 4.61030E+01 0.00000E+00
 -1      1890 1.11900E+02 4.61030E+01 0.00000E+00
 -1      1891 1.09650E+02 4.48040E+01 0.00000E+00
 -1      1892 1.13400E+02 4.61030E+01 0.00000E+00
 -1      1893 1.14900E+02 4.61030E+01 0.00000E+00
 -1      1894 1.12650E+02 4.48040E+01 0.00000E+00
 -1      1895 1.16400E+02 4.61030E+01 0.00000E+00
 -1      1896 1.17900E+02 4.61030E+01 0.00000E+00
 -1      1897 1.15650E+02 4.48040E+01 0.00000E+00
 -1      1898 1.19400E+02 4.61030E+01 0.00000E+00
 -1      1899 1.20900E+02 4.61030E+01 0.00000E+00
 -1      1900 1.18650E+02 4.48040E+01 0.00000E+00
 -1      1901 1.22400E+02 4.61030E+01 0.00000E+00
 -1      1902 1.23900E+02 4.61030E+01 0.00000E+00
 -1      1903 1.21650E+02 4.48040E+01 0.00000E+00
 -1      1904 1.25400E+02 4.61030E+01 0.00000E+00
 -1      1905 1.26900E+02 4.61030E+01 0.00000E+00
 -1      1906 1.24650E+02 4.48040E+01 0.00000E+00
 -1      1907 1.28400E+02 4.61030E+01 0.00000E+00
 -1      1908 1.29900E+02 4.61030E+01 0.00000E+00
 -1      1909 1.27650E+02 4.48040E+01 0.00000E+00
 -1      1910 1.31400E+02 4.61030E+01 0.00000E+00
 -1      1911 1.32900E+02 4.61030E+01 0.00000E+00
 -1      1912 1.30650E+02 4.48040E+01 0.00000E+00
 -1      1913 1.34400E+02 4.61030E+01 0.00000E+00
 -1      1914 1.35900E+02 4.61030E+01 0.00000E+00
 -1      1915 1.33650E+02 4.48040E+01 0.00000E+00
 -1      1916 1.37400E+02 4.61030E+01 0.00000E+00
 -1      1917 1.38900E+02 4.61030E+01 0.00000E+00
 -1      1918 1.36650E+02 4.48040E+01 0.00000E+00
 -1      1919 1.40400E+02 4.61030E+01 0.00000E+00
 -1      1920 1.41900E+02 4.61030E+01 0.00000E+00
 -1      1921 1.39650E+02 4.48040E+01 0.00000E+00
 -1      1922 1.43244E+02 4.61616E+01 0.00000E+00
 -1      1923 1.44744E+02 4.61616E+01 0.00000E+00
 -1      1924 1.45182E+02 4.49799E+01 0.00000E+00
 -1      1925 1.42494E+02 4.48626E+01 0.00000E+00
 -1      1926 1.17045E+01 3.09687E+00 0.00000E+00
 -1      1927 1.02045E+01 3.09687E+00 0.00000E+00
 -1      1928 1.00350E+01 4.00625E+00 0.00000E+00
 -1      1929 1.47045E+01 3.09687E+00 0.00000E+00
 -1      1930 1.32045E+01 3.09687E+00 0.00000E+00
 -1      1931 1.30350E+01 4.00625E+00 0.00000E+00
 -1      1932 1.77045E+01 3.09687E+00 0.00000E+00
 -1      1933 1.62045E+01 3.09687E+00 0.00000E+00
 -1      1934 1.60350E+01 4.00625E+00 0.00000E+00
 -1      1935 2.07045E+01 3.09687E+00 0.00000E+00
 -1      1936 1.92045E+01 3.09687E+00 0.00000E+00
 -1      1937 1.90350E+01 4.00625E+00 0.00000E+00
 -1      1938 2.37045E+01 3.09687E+00 0.00000E+00
 -1      1939 2.22045E+01 3.09687E+00 0.00000E+00
 -1      1940 2.20350E+01 4.00625E+00 0.00000E+00
 -1      1941 2.67045E+01 3.09687E+00 0.00000E+00
 -1      1942 2.52045E+01 3.09687E+00 0.00000E+00
 -1      1943 2.50350E+01 4.00625E+00 0.00000E+00
 -1      1944 2.97045E+01 3.09687E+00 0.00000E+00
 -1      1945 2.82045E+01 3.09687E+00 0.00000E+00
 -1      1946 2.80350E+01 4.00625E+00 0.00000E+00
 -1      1947 3.27045E+01 3.09687E+00 0.00000E+00
 -1      1948 3.12045E+01 3.09687E+00 0.00000E+00
 -1      1949 3.10350E+01 4.00625E+00 0.00000E+00
 -1      1950 3.57045E+01 3.09687E+00 0.00000E+00
 -1      1951 3.42045E+01 3.09687E+00 0.00000E+00
 -1      1952 3.40350E+01 4.00625E+00 0.00000E+00
 -1      1953 3.87045E+01 3.09687E+00 0.00000E+00
 -1      1954 3.72045E+01 3.09687E+00 0.00000E+00
 -1      1955 3.70350E+01 4.00625E+00 0.00000E+00
 -1      1956 4.17045E+01 3.09687E+00 0.00000E+00
 -1      1957 4.02045E+01 3.09687E+00 0.00000E+00
 -1      1958 4.00350E+01 4.00625E+00 0.00000E+00
 -1      1959 4.47045E+01 3.09687E+00 0.00000E+00
 -1      1960 4.32045E+01 3.09687E+00 0.00000E+00
 -1      1961 4.30350E+01 4.00625E+00 0.00000E+00
 -1      1962 4.77045E+01 3.09687E+00 0.00000E+00
 -1      1963 4.62045E+01 3.09687E+00 0.00000E+00
 -1      1964 4.60350E+01 4.00625E+00 0.00000E+00
 -1      1965 5.07045E+01 3.09687E+00 0.00000E+00
 -1      1966 4.92045E+01 3.09687E+00 0.00000E+00
 -1      1967 4.90350E+01 4.00625E+00 0.00000E+00
 -1      1968 5.37045E+01 3.09687E+00 0.00000E+00
 -1      1969 5.22045E+01 3.09687E+00 0.00000E+00
 -1      1970 5.20350E+01 4.00625E+00 0.00000E+00
 -1      1971 5.67045E+01 3.09687E+00 0.00000E+00
 -1      1972 5.52045E+01 3.09687E+00 0.00000E+00
 -1      1973 5.50350E+01 4.00625E+00 0.00000E+00
 -1      1974 5.97045E+01 3.09687E+00 0.00000E+00
 -1      1975 5.82045E+01 3.09687E+00 0.00000E+00
 -1      1976 5.80350E+01 4.00625E+00 0.00000E+00
 -1      1977 6.27045E+01 3.09687E+00 0.00000E+00
 -1      1978 6.12045E+01 3.09687E+00 0.00000E+00
 -1      1979 6.10350E+01 4.00625E+00 0.00000E+00
 -1      1980 6.57045E+01 3.09687E+00 0.00000E+00
 -1      1981 6.42045E+01 3.09687E+00 0.00000E+00
 -1      1982 6.40350E+01 4.00625E+00 0.00000E+00
 -1      1983 6.87045E+01 3.09687E+00 0.00000E+00
 -1      1984 6.72045E+01 3.09687E+00 0.00000E+00
 -1      1985 6.70350E+01 4.00625E+00 0.00000E+00
 -1      1986 7.17045E+01 3.09687E+00 0.00000E+00
 -1      1987 7.02045E+01 3.09687E+00 0.00000E+00
 -1      1988 7.00350E+01 4.00625E+00 0.00000E+00
 -1      1989 7.47045E+01 3.09687E+00 0.00000E+00
 -1      1990 7.32045E+01 3.09687E+00 0.00000E+00
 -1      1991 7.30350E+01 4.00625E+00 0.00000E+00
 -1      1992 7.77045E+01 3.09687E+00 0.00000E+00
 -1      1993 7.62045E+01 3.09687E+00 0.00000E+00
 -1      1994 7.60350E+01 4.00625E+00 0.00000E+00
 -1      1995 8.07045E+01 3.09687E+00 0.00000E+00
 -1      1996 7.92045E+01 3.09687E+00 0.00000E+00
 -1      1997 7.90350E+01 4.00625E+00 0.00000E+00
 -1      1998 8.37045E+01 3.09687E+00 0.00000E+00
 -1      1999 8.22045E+01 3.09687E+00 0.00000E+00
 -1      2000 8.20350E+01 4.00625E+00 0.00000E+00
 -1      2001 8.67045E+01 3.09687E+00 0.00000E+00
 -1      2002 8.52045E+01 3.09687E+00 0.00000E+00
 -1      2003 8.50350E+01 4.00625E+00 0.00000E+00
 -1      2004 8.97045E+01 3.09687E+00 0.00000E+00
 -1      2005 8.82045E+01 3.09687E+00 0.00000E+00
 -1      2006 8.80350E+01 4.00625E+00 0.00000E+00
 -1      2007 9.27045E+01 3.09687E+00 0.00000E+00
 -1      2008 9.12045E+01 3.09687E+00 0.00000E+00
 -1      2009 9.10350E+01 4.00625E+00 0.00000E+00
 -1      2010 9.57045E+01 3.09687E+00 0.00000E+00
 -1      2011 9.42045E+01 3.09687E+00 0.00000E+00
 -1      2012 9.40350E+01 4.00625E+00 0.00000E+00
 -1      2013 9.87045E+01 3.09687E+00 0.00000E+00
 -1      2014 9.72045E+01 3.09687E+00 0.00000E+00
 -1      2015 9.70350E+01 4.00625E+00 0.00000E+00
 -1      2016 1.01704E+02 3.09687E+00 0.00000E+00
 -1      2017 1.00204E+02 3.09687E+00 0.00000E+00
 -1      2018 1.00035E+02 4.00625E+00 0.00000E+00
 -1      2019 1.04704E+02 3.09687E+00 0.00000E+00
 -1      2020 1.03204E+02 3.09687E+00 0.00000E+00
 -1      2021 1.03035E+02 4.00625E+00 0.00000E+00
 -1      2022 1.07704E+02 3.09687E+00 0.00000E+00
 -1      2023 1.06204E+02 3.09687E+00 0.00000E+00
 -1      2024 1.06035E+02 4.00625E+00 0.00000E+00
 -1      2025 1.10704E+02 3.09687E+00 0.00000E+00
 -1      2026 1.09204E+02 3.09687E+00 0.00000E+00
 -1      2027 1.09035E+02 4.00625E+00 0.00000E+00
 -1      2028 1.13704E+02 3.09687E+00 0.00000E+00
 -1      2029 1.12204E+02 3.09687E+00 0.00000E+00
 -1      2030 1.12035E+02 4.00625E+00 0.00000E+00
 -1      2031 1.16704E+02 3.09687E+00 0.00000E+00
 -1      2032 1.15204E+02 3.09687E+00 0.00000E+00
 -1      2033 1.15035E+02 4.00625E+00 0.00000E+00
 -1      2034 1.19704E+02 3.09687E+00 0.00000E+00
 -1      2035 1.18204E+02 3.09687E+00 0.00000E+00
 -1      2036 1.18035E+02 4.00625E+00 0.00000E+00
 -1      2037 1.22704E+02 3.09687E+00 0.00000E+00
 -1      2038 1.21204E+02 3.09687E+00 0.00000E+00
 -1      2039 1.21035E+02 4.00625E+00 0.00000E+00
 -1      2040 1.25704E+02 3.09687E+00 0.00000E+00
 -1      2041 1.24204E+02 3.09687E+00 0.00000E+00
 -1      2042 1.24035E+02 4.00625E+00 0.00000E+00
 -1      2043 1.28704E+02 3.09687E+00 0.00000E+00
 -1      2044 1.27204E+02 3.09687E+00 0.00000E+00
 -1      2045 1.27035E+02 4.00625E+00 0.00000E+00
 -1      2046 1.31704E+02 3.09687E+00 0.00000E+00
 -1      2047 1.30204E+02 3.09687E+00 0.00000E+00
 -1      2048 1.30035E+02 4.00625E+00 0.00000E+00
 -1      2049 1.34704E+02 3.09687E+00 0.00000E+00
 -1      2050 1.33204E+02 3.09687E+00 0.00000E+00
 -1      2051 1.33035E+02 4.00625E+00 0.00000E+00
 -1      2052 1.37704E+02 3.09687E+00 0.00000E+00
 -1      2053 1.36204E+02 3.09687E+00 0.00000E+00
 -1      2054 1.36035E+02 4.00625E+00 0.00000E+00
 -1      2055 1.40704E+02 3.09687E+00 0.00000E+00
 -1      2056 1.39204E+02 3.09687E+00 0.00000E+00
 -1      2057 1.39035E+02 4.00625E+00 0.00000E+00
 -1      2058 1.43704E+02 3.09687E+00 0.00000E+00
 -1      2059 1.42204E+02 3.09687E+00 0.00000E+00
 -1      2060 1.42035E+02 4.00625E+00 0.00000E+00
 -1      2061 1.46171E+02 3.20156E+00 0.00000E+00
 -1      2062 1.44671E+02 3.20156E+00 0.00000E+00
 -1      2063 1.44502E+02 4.11094E+00 0.00000E+00
 -1      2064 1.46435E+02 4.32031E+00 0.00000E+00
 -1      2065 1.46103E+02 1.25375E+01 0.00000E+00
 -1      2066 1.46103E+02 1.10625E+01 0.00000E+00
 -1      2067 1.46103E+02 9.58750E+00 0.00000E+00
 -1      2068 1.46103E+02 8.11250E+00 0.00000E+00
 -1      2069 1.44804E+02 1.03250E+01 0.00000E+00
 -1      2070 1.46269E+02 6.95391E+00 0.00000E+00
 -1      2071 1.46269E+02 5.47891E+00 0.00000E+00
 -1      2072 1.45302E+02 5.37422E+00 0.00000E+00
 -1      2073 1.44970E+02 7.69141E+00 0.00000E+00
 -1      2074 1.46103E+02 1.54375E+01 0.00000E+00
 -1      2075 1.46103E+02 1.39875E+01 0.00000E+00
 -1      2076 1.44804E+02 1.32500E+01 0.00000E+00
 -1      2077 1.46103E+02 1.83875E+01 0.00000E+00
 -1      2078 1.46103E+02 1.69125E+01 0.00000E+00
 -1      2079 1.44804E+02 1.61750E+01 0.00000E+00
 -1      2080 1.46103E+02 2.13375E+01 0.00000E+00
 -1      2081 1.46103E+02 1.98625E+01 0.00000E+00
 -1      2082 1.44804E+02 1.91250E+01 0.00000E+00
 -1      2083 1.46103E+02 2.42875E+01 0.00000E+00
 -1      2084 1.46103E+02 2.28125E+01 0.00000E+00
 -1      2085 1.44804E+02 2.20750E+01 0.00000E+00
 -1      2086 1.46103E+02 2.72375E+01 0.00000E+00
 -1      2087 1.46103E+02 2.57625E+01 0.00000E+00
 -1      2088 1.44804E+02 2.50250E+01 0.00000E+00
 -1      2089 1.46103E+02 3.01875E+01 0.00000E+00
 -1      2090 1.46103E+02 2.87125E+01 0.00000E+00
 -1      2091 1.44804E+02 2.79750E+01 0.00000E+00
 -1      2092 1.46103E+02 3.30875E+01 0.00000E+00
 -1      2093 1.46103E+02 3.16375E+01 0.00000E+00
 -1      2094 1.44804E+02 3.09000E+01 0.00000E+00
 -1      2095 1.46103E+02 3.60375E+01 0.00000E+00
 -1      2096 1.46103E+02 3.45625E+01 0.00000E+00
 -1      2097 1.44804E+02 3.38250E+01 0.00000E+00
 -1      2098 1.46103E+02 3.89875E+01 0.00000E+00
 -1      2099 1.46103E+02 3.75125E+01 0.00000E+00
 -1      2100 1.44804E+02 3.67750E+01 0.00000E+00
 -1      2101 1.46103E+02 4.19375E+01 0.00000E+00
 -1      2102 1.46103E+02 4.04625E+01 0.00000E+00
 -1      2103 1.44804E+02 3.97250E+01 0.00000E+00
 -1      2104 1.17424E+02 2.25784E+01 0.00000E+00
 -1      2105 1.17717E+02 2.34215E+01 0.00000E+00
 -1      2106 1.18276E+02 2.62880E+01 0.00000E+00
 -1      2107 1.18196E+02 2.71546E+01 0.00000E+00
 -1      2108 1.17945E+02 2.42755E+01 0.00000E+00
 -1      2109 1.18173E+02 2.51295E+01 0.00000E+00
 -1      2110 1.18489E+02 2.36133E+01 0.00000E+00
 -1      2111 1.16313E+02 2.07737E+01 0.00000E+00
 -1      2112 1.16904E+02 2.15417E+01 0.00000E+00
 -1      2113 1.14691E+02 1.94149E+01 0.00000E+00
 -1      2114 1.15463E+02 1.99573E+01 0.00000E+00
 -1      2115 3.89700E+00 3.74688E+01 0.00000E+00
 -1      2116 3.89700E+00 3.89437E+01 0.00000E+00
 -1      2117 5.19600E+00 3.96813E+01 0.00000E+00
 -1      2118 5.19600E+00 3.67438E+01 0.00000E+00
 -1      2119 1.11154E+02 1.80962E+01 0.00000E+00
 -1      2120 1.12014E+02 1.83233E+01 0.00000E+00
 -1      2121 1.09283E+02 1.77618E+01 0.00000E+00
 -1      2122 1.10177E+02 1.78408E+01 0.00000E+00
 -1      2123 1.07287E+02 1.78624E+01 0.00000E+00
 -1      2124 1.08229E+02 1.77695E+01 0.00000E+00
 -1      2125 1.05278E+02 1.86429E+01 0.00000E+00
 -1      2126 1.06074E+02 1.81713E+01 0.00000E+00
 -1      2127 1.03657E+02 1.94010E+01 0.00000E+00
 -1      2128 1.04468E+02 1.90220E+01 0.00000E+00
 -1      2129 1.04450E+02 1.80845E+01 0.00000E+00
 -1      2130 1.02299E+02 2.10613E+01 0.00000E+00
 -1      2131 1.02813E+02 2.03051E+01 0.00000E+00
 -1      2132 1.01248E+02 2.25902E+01 0.00000E+00
 -1      2133 1.01773E+02 2.18257E+01 0.00000E+00
 -1      2134 1.01425E+02 2.10361E+01 0.00000E+00
 -1      2135 1.00580E+02 2.45737E+01 0.00000E+00
 -1      2136 1.00811E+02 2.36646E+01 0.00000E+00
 -1      2137 1.00240E+02 2.65139E+01 0.00000E+00
 -1      2138 1.00264E+02 2.56211E+01 0.00000E+00
 -1      2139 1.00682E+02 2.83462E+01 0.00000E+00
 -1      2140 1.00526E+02 2.75178E+01 0.00000E+00
 -1      2141 1.00962E+02 3.00996E+01 0.00000E+00
 -1      2142 1.00775E+02 2.92296E+01 0.00000E+00
 -1      2143 1.01993E+02 3.19095E+01 0.00000E+00
 -1      2144 1.01467E+02 3.11526E+01 0.00000E+00
 -1      2145 1.03189E+02 3.35051E+01 0.00000E+00
 -1      2146 1.02554E+02 3.27678E+01 0.00000E+00
 -1      2147 1.05105E+02 3.45917E+01 0.00000E+00
 -1      2148 1.04238E+02 3.41947E+01 0.00000E+00
 -1      2149 1.06749E+02 3.54099E+01 0.00000E+00
 -1      2150 1.05927E+02 3.50008E+01 0.00000E+00
 -1      2151 1.05206E+02 3.54296E+01 0.00000E+00
 -1      2152 1.08924E+02 3.58302E+01 0.00000E+00
 -1      2153 1.07995E+02 3.58903E+01 0.00000E+00
 -1      2154 1.10660E+02 3.57308E+01 0.00000E+00
 -1      2155 1.09792E+02 3.57805E+01 0.00000E+00
 -1      2156 1.09388E+02 3.67500E+01 0.00000E+00
 -1      2157 1.12505E+02 3.49070E+01 0.00000E+00
 -1      2158 1.11698E+02 3.52138E+01 0.00000E+00
 -1      2159 1.14132E+02 3.41011E+01 0.00000E+00
 -1      2160 1.13394E+02 3.45300E+01 0.00000E+00
 -1      2161 1.15650E+02 3.30633E+01 0.00000E+00
 -1      2162 1.14981E+02 3.36130E+01 0.00000E+00
 -1      2163 1.16783E+02 3.14681E+01 0.00000E+00
 -1      2164 1.16309E+02 3.21999E+01 0.00000E+00
 -1      2165 1.17588E+02 2.98324E+01 0.00000E+00
 -1      2166 1.17245E+02 3.06139E+01 0.00000E+00
 -1      2167 1.18142E+02 2.80924E+01 0.00000E+00
 -1      2168 1.17971E+02 2.89119E+01 0.00000E+00
 -1      2169 1.12958E+02 1.86129E+01 0.00000E+00
 -1      2170 1.13748E+02 1.89696E+01 0.00000E+00
 -1      2171 1.14579E+02 1.86076E+01 0.00000E+00
 -1      2172 6.42300E+00 4.57510E+01 0.00000E+00
 -1      2173 1.12693E+02 1.78727E+01 0.00000E+00
 -1      2174 7.17300E+00 4.44520E+01 0.00000E+00
 -1      2175 1.18820E+02 2.56258E+01 0.00000E+00
 -1      2176 1.17742E+02 2.17226E+01 0.00000E+00
 -1      2177 1.45665E+02 4.31193E+01 0.00000E+00
 -1      2178 1.18869E+02 2.77220E+01 0.00000E+00
 -1      2179 1.16371E+02 1.98694E+01 0.00000E+00
 -1      2180 1.18431E+02 2.95803E+01 0.00000E+00
 -1      2181 1.17587E+02 3.13551E+01 0.00000E+00
 -1      2182 1.16466E+02 3.30726E+01 0.00000E+00
 -1      2183 1.14958E+02 3.44241E+01 0.00000E+00
 -1      2184 1.11294E+02 3.61832E+01 0.00000E+00
 -1      2185 1.07274E+02 3.63192E+01 0.00000E+00
 -1      2186 1.03335E+02 3.43309E+01 0.00000E+00
 -1      2187 1.02431E+02 3.44671E+01 0.00000E+00
 -1      2188 1.03481E+02 3.51567E+01 0.00000E+00
 -1      2189 1.01724E+02 3.27830E+01 0.00000E+00
 -1      2190 1.00658E+02 3.08717E+01 0.00000E+00
 -1      2191 1.00060E+02 2.89352E+01 0.00000E+00
 -1      2192 9.96808E+01 2.70479E+01 0.00000E+00
 -1      2193 1.00463E+02 2.28749E+01 0.00000E+00
 -1      2194 1.02795E+02 1.93676E+01 0.00000E+00
 -1      2195 1.06473E+02 1.73965E+01 0.00000E+00
 -1      2196 1.10772E+02 1.73277E+01 0.00000E+00
 -1      2197 1.08740E+02 1.70799E+01 0.00000E+00
 -1      2198 9.97110E+01 2.49966E+01 0.00000E+00
 -1      2199 1.13221E+02 3.52892E+01 0.00000E+00
 -1      2200 1.07850E+01 5.30525E+00 0.00000E+00
 -1      2201 9.28500E+00 5.30525E+00 0.00000E+00
 -1      2202 6.49500E+00 3.01125E+01 0.00000E+00
 -1      2203 6.49500E+00 3.15875E+01 0.00000E+00
 -1      2204 6.49500E+00 3.30625E+01 0.00000E+00
 -1      2205 6.49500E+00 3.45375E+01 0.00000E+00
 -1      2206 7.79400E+00 3.23250E+01 0.00000E+00
 -1      2207 6.49500E+00 2.42125E+01 0.00000E+00
 -1      2208 6.49500E+00 2.56875E+01 0.00000E+00
 -1      2209 6.49500E+00 2.12625E+01 0.00000E+00
 -1      2210 6.49500E+00 2.27375E+01 0.00000E+00
 -1      2211 7.79400E+00 2.34750E+01 0.00000E+00
 -1      2212 6.49500E+00 1.83625E+01 0.00000E+00
 -1      2213 6.49500E+00 1.98125E+01 0.00000E+00
 -1      2214 7.79400E+00 2.05500E+01 0.00000E+00
 -1      2215 6.49500E+00 1.54125E+01 0.00000E+00
 -1      2216 6.49500E+00 1.68875E+01 0.00000E+00
 -1      2217 7.79400E+00 1.76250E+01 0.00000E+00
 -1      2218 6.49500E+00 1.24625E+01 0.00000E+00
 -1      2219 6.49500E+00 1.39375E+01 0.00000E+00
 -1      2220 7.79400E+00 1.46750E+01 0.00000E+00
 -1      2221 6.49500E+00 9.51250E+00 0.00000E+00
 -1      2222 6.49500E+00 1.09875E+01 0.00000E+00
 -1      2223 7.79400E+00 1.17250E+01 0.00000E+00
 -1      2224 1.37850E+01 5.30525E+00 0.00000E+00
 -1      2225 1.22850E+01 5.30525E+00 0.00000E+00
 -1      2226 1.15350E+01 6.60425E+00 0.00000E+00
 -1      2227 9.90000E+00 4.35050E+01 0.00000E+00
 -1      2228 1.14000E+01 4.35050E+01 0.00000E+00
 -1      2229 1.12473E+02 1.69081E+01 0.00000E+00
 -1      2230 1.13417E+02 1.71977E+01 0.00000E+00
 -1      2231 1.29000E+01 4.35050E+01 0.00000E+00
 -1      2232 1.44000E+01 4.35050E+01 0.00000E+00
 -1      2233 1.21500E+01 4.22060E+01 0.00000E+00
 -1      2234 1.59000E+01 4.35050E+01 0.00000E+00
 -1      2235 1.74000E+01 4.35050E+01 0.00000E+00
 -1      2236 1.51500E+01 4.22060E+01 0.00000E+00
 -1      2237 1.89000E+01 4.35050E+01 0.00000E+00
 -1      2238 2.04000E+01 4.35050E+01 0.00000E+00
 -1      2239 1.81500E+01 4.22060E+01 0.00000E+00
 -1      2240 2.19000E+01 4.35050E+01 0.00000E+00
 -1      2241 2.34000E+01 4.35050E+01 0.00000E+00
 -1      2242 2.11500E+01 4.22060E+01 0.00000E+00
 -1      2243 2.49000E+01 4.35050E+01 0.00000E+00
 -1      2244 2.64000E+01 4.35050E+01 0.00000E+00
 -1      2245 2.41500E+01 4.22060E+01 0.00000E+00
 -1      2246 2.79000E+01 4.35050E+01 0.00000E+00
 -1      2247 2.94000E+01 4.35050E+01 0.00000E+00
 -1      2248 2.71500E+01 4.22060E+01 0.00000E+00
 -1      2249 3.09000E+01 4.35050E+01 0.00000E+00
 -1      2250 3.24000E+01 4.35050E+01 0.00000E+00
 -1      2251 3.01500E+01 4.22060E+01 0.00000E+00
 -1      2252 3.39000E+01 4.35050E+01 0.00000E+00
 -1      2253 3.54000E+01 4.35050E+01 0.00000E+00
 -1      2254 3.31500E+01 4.22060E+01 0.00000E+00
 -1      2255 3.69000E+01 4.35050E+01 0.00000E+00
 -1      2256 3.84000E+01 4.35050E+01 0.00000E+00
 -1      2257 3.61500E+01 4.22060E+01 0.00000E+00
 -1      2258 3.99000E+01 4.35050E+01 0.00000E+00
 -1      2259 4.14000E+01 4.35050E+01 0.00000E+00
 -1      2260 3.91500E+01 4.22060E+01 0.00000E+00
 -1      2261 4.29000E+01 4.35050E+01 0.00000E+00
 -1      2262 4.44000E+01 4.35050E+01 0.00000E+00
 -1      2263 4.21500E+01 4.22060E+01 0.00000E+00
 -1      2264 4.59000E+01 4.35050E+01 0.00000E+00
 -1      2265 4.74000E+01 4.35050E+01 0.00000E+00
 -1      2266 4.51500E+01 4.22060E+01 0.00000E+00
 -1      2267 4.89000E+01 4.35050E+01 0.00000E+00
 -1      2268 5.04000E+01 4.35050E+01 0.00000E+00
 -1      2269 4.81500E+01 4.22060E+01 0.00000E+00
 -1      2270 5.19000E+01 4.35050E+01 0.00000E+00
 -1      2271 5.34000E+01 4.35050E+01 0.00000E+00
 -1      2272 5.11500E+01 4.22060E+01 0.00000E+00
 -1      2273 5.49000E+01 4.35050E+01 0.00000E+00
 -1      2274 5.64000E+01 4.35050E+01 0.00000E+00
 -1      2275 5.41500E+01 4.22060E+01 0.00000E+00
 -1      2276 5.79000E+01 4.35050E+01 0.00000E+00
 -1      2277 5.94000E+01 4.35050E+01 0.00000E+00
 -1      2278 5.71500E+01 4.22060E+01 0.00000E+00
 -1      2279 6.09000E+01 4.35050E+01 0.00000E+00
 -1      2280 6.24000E+01 4.35050E+01 0.00000E+00
 -1      2281 6.01500E+01 4.22060E+01 0.00000E+00
 -1      2282 6.39000E+01 4.35050E+01 0.00000E+00
 -1      2283 6.54000E+01 4.35050E+01 0.00000E+00
 -1      2284 6.31500E+01 4.22060E+01 0.00000E+00
 -1      2285 6.69000E+01 4.35050E+01 0.00000E+00
 -1      2286 6.84000E+01 4.35050E+01 0.00000E+00
 -1      2287 6.61500E+01 4.22060E+01 0.00000E+00
 -1      2288 6.99000E+01 4.35050E+01 0.00000E+00
 -1      2289 7.14000E+01 4.35050E+01 0.00000E+00
 -1      2290 6.91500E+01 4.22060E+01 0.00000E+00
 -1      2291 7.29000E+01 4.35050E+01 0.00000E+00
 -1      2292 7.44000E+01 4.35050E+01 0.00000E+00
 -1      2293 7.21500E+01 4.22060E+01 0.00000E+00
 -1      2294 7.59000E+01 4.35050E+01 0.00000E+00
 -1      2295 7.74000E+01 4.35050E+01 0.00000E+00
 -1      2296 7.51500E+01 4.22060E+01 0.00000E+00
 -1      2297 7.89000E+01 4.35050E+01 0.00000E+00
 -1      2298 8.04000E+01 4.35050E+01 0.00000E+00
 -1      2299 7.81500E+01 4.22060E+01 0.00000E+00
 -1      2300 8.19000E+01 4.35050E+01 0.00000E+00
 -1      2301 8.34000E+01 4.35050E+01 0.00000E+00
 -1      2302 8.11500E+01 4.22060E+01 0.00000E+00
 -1      2303 8.49000E+01 4.35050E+01 0.00000E+00
 -1      2304 8.64000E+01 4.35050E+01 0.00000E+00
 -1      2305 8.41500E+01 4.22060E+01 0.00000E+00
 -1      2306 8.79000E+01 4.35050E+01 0.00000E+00
 -1      2307 8.94000E+01 4.35050E+01 0.00000E+00
 -1      2308 8.71500E+01 4.22060E+01 0.00000E+00
 -1      2309 9.09000E+01 4.35050E+01 0.00000E+00
 -1      2310 9.24000E+01 4.35050E+01 0.00000E+00
 -1      2311 9.01500E+01 4.22060E+01 0.00000E+00
 -1      2312 9.39000E+01 4.35050E+01 0.00000E+00
 -1      2313 9.54000E+01 4.35050E+01 0.00000E+00
 -1      2314 9.31500E+01 4.22060E+01 0.00000E+00
 -1      2315 9.69000E+01 4.35050E+01 0.00000E+00
 -1      2316 9.84000E+01 4.35050E+01 0.00000E+00
 -1      2317 9.61500E+01 4.22060E+01 0.00000E+00
 -1      2318 9.99000E+01 4.35050E+01 0.00000E+00
 -1      2319 1.01400E+02 4.35050E+01 0.00000E+00
 -1      2320 9.91500E+01 4.22060E+01 0.00000E+00
 -1      2321 1.02900E+02 4.35050E+01 0.00000E+00
 -1      2322 1.04400E+02 4.35050E+01 0.00000E+00
 -1      2323 1.02150E+02 4.22060E+01 0.00000E+00
 -1      2324 1.05900E+02 4.35050E+01 0.00000E+00
 -1      2325 1.07400E+02 4.35050E+01 0.00000E+00
 -1      2326 1.05150E+02 4.22060E+01 0.00000E+00
 -1      2327 1.08900E+02 4.35050E+01 0.00000E+00
 -1      2328 1.10400E+02 4.35050E+01 0.00000E+00
 -1      2329 1.08150E+02 4.22060E+01 0.00000E+00
 -1      2330 1.11900E+02 4.35050E+01 0.00000E+00
 -1      2331 1.13400E+02 4.35050E+01 0.00000E+00
 -1      2332 1.11150E+02 4.22060E+01 0.00000E+00
 -1      2333 1.14900E+02 4.35050E+01 0.00000E+00
 -1      2334 1.16400E+02 4.35050E+01 0.00000E+00
 -1      2335 1.14150E+02 4.22060E+01 0.00000E+00
 -1      2336 1.17900E+02 4.35050E+01 0.00000E+00
 -1      2337 1.19400E+02 4.35050E+01 0.00000E+00
 -1      2338 1.17150E+02 4.22060E+01 0.00000E+00
 -1      2339 1.20900E+02 4.35050E+01 0.00000E+00
 -1      2340 1.22400E+02 4.35050E+01 0.00000E+00
 -1      2341 1.20150E+02 4.22060E+01 0.00000E+00
 -1      2342 1.23900E+02 4.35050E+01 0.00000E+00
 -1      2343 1.25400E+02 4.35050E+01 0.00000E+00
 -1      2344 1.23150E+02 4.22060E+01 0.00000E+00
 -1      2345 1.26900E+02 4.35050E+01 0.00000E+00
 -1      2346 1.28400E+02 4.35050E+01 0.00000E+00
 -1      2347 1.26150E+02 4.22060E+01 0.00000E+00
 -1      2348 1.29900E+02 4.35050E+01 0.00000E+00
 -1      2349 1.31400E+02 4.35050E+01 0.00000E+00
 -1      2350 1.29150E+02 4.22060E+01 0.00000E+00
 -1      2351 1.32900E+02 4.35050E+01 0.00000E+00
 -1      2352 1.34400E+02 4.35050E+01 0.00000E+00
 -1      2353 1.32150E+02 4.22060E+01 0.00000E+00
 -1      2354 1.35900E+02 4.35050E+01 0.00000E+00
 -1      2355 1.37400E+02 4.35050E+01 0.00000E+00
 -1      2356 1.35150E+02 4.22060E+01 0.00000E+00
 -1      2357 1.38900E+02 4.35050E+01 0.00000E+00
 -1      2358 1.40400E+02 4.35050E+01 0.00000E+00
 -1      2359 1.38150E+02 4.22060E+01 0.00000E+00
 -1      2360 1.19204E+02 2.29654E+01 0.00000E+00
 -1      2361 1.19432E+02 2.38194E+01 0.00000E+00
 -1      2362 1.97850E+01 5.30525E+00 0.00000E+00
 -1      2363 1.82850E+01 5.30525E+00 0.00000E+00
 -1      2364 2.27850E+01 5.30525E+00 0.00000E+00
 -1      2365 2.12850E+01 5.30525E+00 0.00000E+00
 -1      2366 2.05350E+01 6.60425E+00 0.00000E+00
 -1      2367 2.57850E+01 5.30525E+00 0.00000E+00
 -1      2368 2.42850E+01 5.30525E+00 0.00000E+00
 -1      2369 2.35350E+01 6.60425E+00 0.00000E+00
 -1      2370 2.87850E+01 5.30525E+00 0.00000E+00
 -1      2371 2.72850E+01 5.30525E+00 0.00000E+00
 -1      2372 2.65350E+01 6.60425E+00 0.00000E+00
 -1      2373 3.17850E+01 5.30525E+00 0.00000E+00
 -1      2374 3.02850E+01 5.30525E+00 0.00000E+00
 -1      2375 2.95350E+01 6.60425E+00 0.00000E+00
 -1      2376 3.47850E+01 5.30525E+00 0.00000E+00
 -1      2377 3.32850E+01 5.30525E+00 0.00000E+00
 -1      2378 3.25350E+01 6.60425E+00 0.00000E+00
 -1      2379 3.77850E+01 5.30525E+00 0.00000E+00
 -1      2380 3.62850E+01 5.30525E+00 0.00000E+00
 -1      2381 3.55350E+01 6.60425E+00 0.00000E+00
 -1      2382 4.07850E+01 5.30525E+00 0.00000E+00
 -1      2383 3.92850E+01 5.30525E+00 0.00000E+00
 -1      2384 3.85350E+01 6.60425E+00 0.00000E+00
 -1      2385 4.37850E+01 5.30525E+00 0.00000E+00
 -1      2386 4.22850E+01 5.30525E+00 0.00000E+00
 -1      2387 4.15350E+01 6.60425E+00 0.00000E+00
 -1      2388 4.67850E+01 5.30525E+00 0.00000E+00
 -1      2389 4.52850E+01 5.30525E+00 0.00000E+00
 -1      2390 4.45350E+01 6.60425E+00 0.00000E+00
 -1      2391 4.97850E+01 5.30525E+00 0.00000E+00
 -1      2392 4.82850E+01 5.30525E+00 0.00000E+00
 -1      2393 4.75350E+01 6.60425E+00 0.00000E+00
 -1      2394 5.27850E+01 5.30525E+00 0.00000E+00
 -1      2395 5.12850E+01 5.30525E+00 0.00000E+00
 -1      2396 5.05350E+01 6.60425E+00 0.00000E+00
 -1      2397 5.57850E+01 5.30525E+00 0.00000E+00
 -1      2398 5.42850E+01 5.30525E+00 0.00000E+00
 -1      2399 5.35350E+01 6.60425E+00 0.00000E+00
 -1      2400 5.87850E+01 5.30525E+00 0.00000E+00
 -1      2401 5.72850E+01 5.30525E+00 0.00000E+00
 -1      2402 5.65350E+01 6.60425E+00 0.00000E+00
 -1      2403 6.17850E+01 5.30525E+00 0.00000E+00
 -1      2404 6.02850E+01 5.30525E+00 0.00000E+00
 -1      2405 5.95350E+01 6.60425E+00 0.00000E+00
 -1      2406 6.47850E+01 5.30525E+00 0.00000E+00
 -1      2407 6.32850E+01 5.30525E+00 0.00000E+00
 -1      2408 6.25350E+01 6.60425E+00 0.00000E+00
 -1      2409 6.77850E+01 5.30525E+00 0.00000E+00
 -1      2410 6.62850E+01 5.30525E+00 0.00000E+00
 -1      2411 6.55350E+01 6.60425E+00 0.00000E+00
 -1      2412 7.07850E+01 5.30525E+00 0.00000E+00
 -1      2413 6.92850E+01 5.30525E+00 0.00000E+00
 -1      2414 6.85350E+01 6.60425E+00 0.00000E+00
 -1      2415 7.37850E+01 5.30525E+00 0.00000E+00
 -1      2416 7.22850E+01 5.30525E+00 0.00000E+00
 -1      2417 7.15350E+01 6.60425E+00 0.00000E+00
 -1      2418 7.67850E+01 5.30525E+00 0.00000E+00
 -1      2419 7.52850E+01 5.30525E+00 0.00000E+00
 -1      2420 7.45350E+01 6.60425E+00 0.00000E+00
 -1      2421 7.97850E+01 5.30525E+00 0.00000E+00
 -1      2422 7.82850E+01 5.30525E+00 0.00000E+00
 -1      2423 7.75350E+01 6.60425E+00 0.00000E+00
 -1      2424 8.27850E+01 5.30525E+00 0.00000E+00
 -1      2425 8.12850E+01 5.30525E+00 0.00000E+00
 -1      2426 8.05350E+01 6.60425E+00 0.00000E+00
 -1      2427 8.57850E+01 5.30525E+00 0.00000E+00
 -1      2428 8.42850E+01 5.30525E+00 0.00000E+00
 -1      2429 8.35350E+01 6.60425E+00 0.00000E+00
 -1      2430 8.87850E+01 5.30525E+00 0.00000E+00
 -1      2431 8.72850E+01 5.30525E+00 0.00000E+00
 -1      2432 8.65350E+01 6.60425E+00 0.00000E+00
 -1      2433 9.17850E+01 5.30525E+00 0.00000E+00
 -1      2434 9.02850E+01 5.30525E+00 0.00000E+00
 -1      2435 8.95350E+01 6.60425E+00 0.00000E+00
 -1      2436 9.47850E+01 5.30525E+00 0.00000E+00
 -1      2437 9.32850E+01 5.30525E+00 0.00000E+00
 -1      2438 9.25350E+01 6.60425E+00 0.00000E+00
 -1      2439 9.77850E+01 5.30525E+00 0.00000E+00
 -1      2440 9.62850E+01 5.30525E+00 0.00000E+00
 -1      2441 9.55350E+01 6.60425E+00 0.00000E+00
 -1      2442 1.00785E+02 5.30525E+00 0.00000E+00
 -1      2443 9.92850E+01 5.30525E+00 0.00000E+00
 -1      2444 9.85350E+01 6.60425E+00 0.00000E+00
 -1      2445 1.03785E+02 5.30525E+00 0.00000E+00
 -1      2446 1.02285E+02 5.30525E+00 0.00000E+00
 -1      2447 1.01535E+02 6.60425E+00 0.00000E+00
 -1      2448 1.06785E+02 5.30525E+00 0.00000E+00
 -1      2449 1.05285E+02 5.30525E+00 0.00000E+00
 -1      2450 1.04535E+02 6.60425E+00 0.00000E+00
 -1      2451 1.09785E+02 5.30525E+00 0.00000E+00
 -1      2452 1.08285E+02 5.30525E+00 0.00000E+00
 -1      2453 1.07535E+02 6.60425E+00 0.00000E+00
 -1      2454 1.12785E+02 5.30525E+00 0.00000E+00
 -1      2455 1.11285E+02 5.30525E+00 0.00000E+00
 -1      2456 1.10535E+02 6.60425E+00 0.00000E+00
 -1      2457 1.15785E+02 5.30525E+00 0.00000E+00
 -1      2458 1.14285E+02 5.30525E+00 0.00000E+00
 -1      2459 1.13535E+02 6.60425E+00 0.00000E+00
 -1      2460 1.18785E+02 5.30525E+00 0.00000E+00
 -1      2461 1.17285E+02 5.30525E+00 0.00000E+00
 -1      2462 1.16535E+02 6.60425E+00 0.00000E+00
 -1      2463 1.21785E+02 5.30525E+00 0.00000E+00
 -1      2464 1.20285E+02 5.30525E+00 0.00000E+00
 -1      2465 1.19535E+02 6.60425E+00 0.00000E+00
 -1      2466 1.24785E+02 5.30525E+00 0.00000E+00
 -1      2467 1.23285E+02 5.30525E+00 0.00000E+00
 -1      2468 1.22535E+02 6.60425E+00 0.00000E+00
 -1      2469 1.27785E+02 5.30525E+00 0.00000E+00
 -1      2470 1.26285E+02 5.30525E+00 0.00000E+00
 -1      2471 1.25535E+02 6.60425E+00 0.00000E+00
 -1      2472 1.30785E+02 5.30525E+00 0.00000E+00
 -1      2473 1.29285E+02 5.30525E+00 0.00000E+00
 -1      2474 1.28535E+02 6.60425E+00 0.00000E+00
 -1      2475 1.33785E+02 5.30525E+00 0.00000E+00
 -1      2476 1.32285E+02 5.30525E+00 0.00000E+00
 -1      2477 1.31535E+02 6.60425E+00 0.00000E+00
 -1      2478 1.36785E+02 5.30525E+00 0.00000E+00
 -1      2479 1.35285E+02 5.30525E+00 0.00000E+00
 -1      2480 1.34535E+02 6.60425E+00 0.00000E+00
 -1      2481 1.39785E+02 5.30525E+00 0.00000E+00
 -1      2482 1.38285E+02 5.30525E+00 0.00000E+00
 -1      2483 1.37535E+02 6.60425E+00 0.00000E+00
 -1      2484 1.42785E+02 5.30525E+00 0.00000E+00
 -1      2485 1.41285E+02 5.30525E+00 0.00000E+00
 -1      2486 1.40535E+02 6.60425E+00 0.00000E+00
 -1      2487 1.44336E+02 5.26953E+00 0.00000E+00
 -1      2488 1.43505E+02 1.69125E+01 0.00000E+00
 -1      2489 1.43505E+02 1.54375E+01 0.00000E+00
 -1      2490 1.43505E+02 1.98625E+01 0.00000E+00
 -1      2491 1.43505E+02 1.83875E+01 0.00000E+00
 -1      2492 1.42206E+02 1.76500E+01 0.00000E+00
 -1      2493 1.43505E+02 1.10625E+01 0.00000E+00
 -1      2494 1.43505E+02 9.58750E+00 0.00000E+00
 -1      2495 1.43505E+02 1.39750E+01 0.00000E+00
 -1      2496 1.43505E+02 1.25250E+01 0.00000E+00
 -1      2497 1.42206E+02 1.17875E+01 0.00000E+00
 -1      2498 1.42206E+02 1.47125E+01 0.00000E+00
 -1      2499 1.43505E+02 2.28125E+01 0.00000E+00
 -1      2500 1.43505E+02 2.13375E+01 0.00000E+00
 -1      2501 1.42206E+02 2.06000E+01 0.00000E+00
 -1      2502 1.43505E+02 2.57625E+01 0.00000E+00
 -1      2503 1.43505E+02 2.42875E+01 0.00000E+00
 -1      2504 1.42206E+02 2.35500E+01 0.00000E+00
 -1      2505 1.43505E+02 2.87125E+01 0.00000E+00
 -1      2506 1.43505E+02 2.72375E+01 0.00000E+00
 -1      2507 1.42206E+02 2.65000E+01 0.00000E+00
 -1      2508 1.43505E+02 3.16125E+01 0.00000E+00
 -1      2509 1.43505E+02 3.01625E+01 0.00000E+00
 -1      2510 1.42206E+02 2.94250E+01 0.00000E+00
 -1      2511 1.43505E+02 3.45625E+01 0.00000E+00
 -1      2512 1.43505E+02 3.30875E+01 0.00000E+00
 -1      2513 1.42206E+02 3.23500E+01 0.00000E+00
 -1      2514 1.43505E+02 3.75125E+01 0.00000E+00
 -1      2515 1.43505E+02 3.60375E+01 0.00000E+00
 -1      2516 1.42206E+02 3.53000E+01 0.00000E+00
 -1      2517 1.43505E+02 4.04625E+01 0.00000E+00
 -1      2518 1.43505E+02 3.89875E+01 0.00000E+00
 -1      2519 1.42206E+02 3.82500E+01 0.00000E+00
 -1      2520 1.44321E+02 4.30606E+01 0.00000E+00
 -1      2521 1.19585E+02 2.72932E+01 0.00000E+00
 -1      2522 1.19530E+02 2.82309E+01 0.00000E+00
 -1      2523 1.67850E+01 5.30525E+00 0.00000E+00
 -1      2524 1.52850E+01 5.30525E+00 0.00000E+00
 -1      2525 1.75350E+01 6.60425E+00 0.00000E+00
 -1      2526 1.18248E+02 2.08196E+01 0.00000E+00
 -1      2527 1.18768E+02 2.18563E+01 0.00000E+00
 -1      2528 1.19337E+02 2.94172E+01 0.00000E+00
 -1      2529 1.18954E+02 3.03378E+01 0.00000E+00
 -1      2530 6.55950E+00 4.28890E+01 0.00000E+00
 -1      2531 8.53650E+00 4.32410E+01 0.00000E+00
 -1      2532 9.28650E+00 4.19420E+01 0.00000E+00
 -1      2533 6.55950E+00 4.14140E+01 0.00000E+00
 -1      2534 1.16540E+02 1.88427E+01 0.00000E+00
 -1      2535 1.17390E+02 1.96592E+01 0.00000E+00
 -1      2536 1.05655E+02 1.67199E+01 0.00000E+00
 -1      2537 1.06868E+02 1.64110E+01 0.00000E+00
 -1      2538 6.49500E+00 2.71625E+01 0.00000E+00
 -1      2539 6.49500E+00 2.86375E+01 0.00000E+00
 -1      2540 7.79400E+00 2.93750E+01 0.00000E+00
 -1      2541 7.79400E+00 2.64250E+01 0.00000E+00
 -1      2542 1.08206E+02 1.60587E+01 0.00000E+00
 -1      2543 1.09260E+02 1.60510E+01 0.00000E+00
 -1      2544 9.87320E+01 2.52725E+01 0.00000E+00
 -1      2545 9.90481E+01 2.42251E+01 0.00000E+00
 -1      2546 1.10518E+02 1.63973E+01 0.00000E+00
 -1      2547 1.11495E+02 1.66527E+01 0.00000E+00
 -1      2548 1.12219E+02 1.59777E+01 0.00000E+00
 -1      2549 1.03646E+02 1.74214E+01 0.00000E+00
 -1      2550 1.04456E+02 1.70423E+01 0.00000E+00
 -1      2551 1.01807E+02 1.92915E+01 0.00000E+00
 -1      2552 1.02652E+02 1.83874E+01 0.00000E+00
 -1      2553 1.00490E+02 2.09561E+01 0.00000E+00
 -1      2554 1.01016E+02 2.01917E+01 0.00000E+00
 -1      2555 1.13984E+02 3.58517E+01 0.00000E+00
 -1      2556 1.13095E+02 3.62286E+01 0.00000E+00
 -1      2557 9.94895E+01 2.31053E+01 0.00000E+00
 -1      2558 9.99256E+01 2.20309E+01 0.00000E+00
 -1      2559 9.90797E+01 2.77618E+01 0.00000E+00
 -1      2560 9.87937E+01 2.67580E+01 0.00000E+00
 -1      2561 9.92657E+01 2.95287E+01 0.00000E+00
 -1      2562 9.91727E+01 2.86453E+01 0.00000E+00
 -1      2563 9.82855E+01 2.83554E+01 0.00000E+00
 -1      2564 1.00138E+02 3.17693E+01 0.00000E+00
 -1      2565 9.96324E+01 3.07163E+01 0.00000E+00
 -1      2566 1.01287E+02 3.36811E+01 0.00000E+00
 -1      2567 1.00726E+02 3.28229E+01 0.00000E+00
 -1      2568 1.05235E+02 3.64019E+01 0.00000E+00
 -1      2569 1.04413E+02 3.59928E+01 0.00000E+00
 -1      2570 1.07589E+02 3.73595E+01 0.00000E+00
 -1      2571 1.06343E+02 3.68791E+01 0.00000E+00
 -1      2572 1.09881E+02 3.77486E+01 0.00000E+00
 -1      2573 1.09013E+02 3.77982E+01 0.00000E+00
 -1      2574 1.12057E+02 3.67457E+01 0.00000E+00
 -1      2575 1.11019E+02 3.72627E+01 0.00000E+00
 -1      2576 1.12820E+02 3.73081E+01 0.00000E+00
 -1      2577 1.15768E+02 3.48507E+01 0.00000E+00
 -1      2578 1.14920E+02 3.53388E+01 0.00000E+00
 -1      2579 1.17444E+02 3.31360E+01 0.00000E+00
 -1      2580 1.16784E+02 3.39993E+01 0.00000E+00
 -1      2581 1.18498E+02 3.12958E+01 0.00000E+00
 -1      2582 1.18037E+02 3.21500E+01 0.00000E+00
 -1      2583 1.19539E+02 2.49780E+01 0.00000E+00
 -1      2584 1.19642E+02 2.61365E+01 0.00000E+00
 -1      2585 8.07525E+00 5.11044E+00 0.00000E+00
 -1      2586 6.57525E+00 5.11044E+00 0.00000E+00
 -1      2587 6.40575E+00 6.01981E+00 0.00000E+00
 -1      2588 8.82525E+00 6.40944E+00 0.00000E+00
 -1      2589 1.14457E+02 1.76475E+01 0.00000E+00
 -1      2590 1.15399E+02 1.80928E+01 0.00000E+00
 -1      2591 1.09983E+02 1.53760E+01 0.00000E+00
 -1      2592 7.79400E+00 3.52687E+01 0.00000E+00
 -1      2593 6.49500E+00 3.60062E+01 0.00000E+00
 -1      2594 6.49500E+00 3.74750E+01 0.00000E+00
 -1      2595 1.45350E+01 6.60425E+00 0.00000E+00
 -1      2596 6.40575E+00 7.49481E+00 0.00000E+00
 -1      2597 1.14236E+02 1.66829E+01 0.00000E+00
 -1      2598 1.20254E+02 2.43301E+01 0.00000E+00
 -1      2599 1.19404E+02 3.11327E+01 0.00000E+00
 -1      2600 1.16418E+02 1.78826E+01 0.00000E+00
 -1      2601 1.18355E+02 3.30767E+01 0.00000E+00
 -1      2602 1.20053E+02 2.89884E+01 0.00000E+00
 -1      2603 1.19711E+02 2.20624E+01 0.00000E+00
 -1      2604 1.43586E+02 6.56853E+00 0.00000E+00
 -1      2605 1.43419E+02 7.72713E+00 0.00000E+00
 -1      2606 1.10644E+02 3.83110E+01 0.00000E+00
 -1      2607 1.42758E+02 4.35929E+01 0.00000E+00
 -1      2608 1.43241E+02 4.17323E+01 0.00000E+00
 -1      2609 1.41942E+02 4.09948E+01 0.00000E+00
 -1      2610 1.41414E+02 4.35342E+01 0.00000E+00
 -1      2611 1.08081E+02 3.83581E+01 0.00000E+00
 -1      2612 1.05550E+02 3.74422E+01 0.00000E+00
 -1      2613 1.20304E+02 2.66454E+01 0.00000E+00
 -1      2614 7.70475E+00 8.23231E+00 0.00000E+00
 -1      2615 1.18417E+02 1.97929E+01 0.00000E+00
 -1      2616 1.01433E+02 3.45069E+01 0.00000E+00
 -1      2617 1.00434E+02 3.45467E+01 0.00000E+00
 -1      2618 1.01578E+02 3.53327E+01 0.00000E+00
 -1      2619 9.87452E+01 3.04263E+01 0.00000E+00
 -1      2620 1.04851E+02 1.60568E+01 0.00000E+00
 -1      2621 1.07388E+02 1.53821E+01 0.00000E+00
 -1      2622 9.85104E+01 2.33811E+01 0.00000E+00
 -1      2623 1.14794E+02 3.62783E+01 0.00000E+00
 -1      2624 9.95164E+01 2.11865E+01 0.00000E+00
 -1      2625 1.00873E+02 1.92115E+01 0.00000E+00
 -1      2626 1.03509E+02 3.61290E+01 0.00000E+00
 -1      2627 6.55950E+00 3.99453E+01 0.00000E+00
 -1      2628 9.81308E+01 2.59865E+01 0.00000E+00
 -1      2629 9.74679E+01 2.52150E+01 0.00000E+00
 -1      2630 9.75296E+01 2.67004E+01 0.00000E+00
 -1      2631 1.02658E+02 1.73452E+01 0.00000E+00
 -1      2632 9.97001E+01 3.26674E+01 0.00000E+00
 -1      2633 1.16746E+02 3.49141E+01 0.00000E+00
 -1      2634 1.42120E+02 8.46463E+00 0.00000E+00
 -1      2635 1.40664E+02 4.22352E+01 0.00000E+00
 -1      2636 9.09300E+00 1.98250E+01 0.00000E+00
 -1      2637 9.09300E+00 2.12750E+01 0.00000E+00
 -1      2638 9.09300E+00 2.27500E+01 0.00000E+00
 -1      2639 9.09300E+00 2.42250E+01 0.00000E+00
 -1      2640 1.03920E+01 2.20250E+01 0.00000E+00
 -1      2641 9.09300E+00 1.39375E+01 0.00000E+00
 -1      2642 9.09300E+00 1.54125E+01 0.00000E+00
 -1      2643 9.09300E+00 1.09875E+01 0.00000E+00
 -1      2644 9.09300E+00 1.24625E+01 0.00000E+00
 -1      2645 1.03920E+01 1.32000E+01 0.00000E+00
 -1      2646 1.22850E+01 7.90325E+00 0.00000E+00
 -1      2647 1.07850E+01 7.90325E+00 0.00000E+00
 -1      2648 1.18745E+02 1.86533E+01 0.00000E+00
 -1      2649 1.19603E+02 1.98137E+01 0.00000E+00
 -1      2650 1.52850E+01 7.90325E+00 0.00000E+00
 -1      2651 1.37850E+01 7.90325E+00 0.00000E+00
 -1      2652 1.30350E+01 9.20225E+00 0.00000E+00
 -1      2653 1.21221E+02 2.36561E+01 0.00000E+00
 -1      2654 1.21329E+02 2.48147E+01 0.00000E+00
 -1      2655 1.13721E+02 3.78172E+01 0.00000E+00
 -1      2656 1.12684E+02 3.83342E+01 0.00000E+00
 -1      2657 1.44000E+01 4.09070E+01 0.00000E+00
 -1      2658 1.59000E+01 4.09070E+01 0.00000E+00
 -1      2659 1.74000E+01 4.09070E+01 0.00000E+00
 -1      2660 1.89000E+01 4.09070E+01 0.00000E+00
 -1      2661 1.66500E+01 3.96080E+01 0.00000E+00
 -1      2662 2.04000E+01 4.09070E+01 0.00000E+00
 -1      2663 2.19000E+01 4.09070E+01 0.00000E+00
 -1      2664 1.96500E+01 3.96080E+01 0.00000E+00
 -1      2665 2.34000E+01 4.09070E+01 0.00000E+00
 -1      2666 2.49000E+01 4.09070E+01 0.00000E+00
 -1      2667 2.26500E+01 3.96080E+01 0.00000E+00
 -1      2668 2.64000E+01 4.09070E+01 0.00000E+00
 -1      2669 2.79000E+01 4.09070E+01 0.00000E+00
 -1      2670 2.56500E+01 3.96080E+01 0.00000E+00
 -1      2671 2.94000E+01 4.09070E+01 0.00000E+00
 -1      2672 3.09000E+01 4.09070E+01 0.00000E+00
 -1      2673 2.86500E+01 3.96080E+01 0.00000E+00
 -1      2674 3.24000E+01 4.09070E+01 0.00000E+00
 -1      2675 3.39000E+01 4.09070E+01 0.00000E+00
 -1      2676 3.16500E+01 3.96080E+01 0.00000E+00
 -1      2677 3.54000E+01 4.09070E+01 0.00000E+00
 -1      2678 3.69000E+01 4.09070E+01 0.00000E+00
 -1      2679 3.46500E+01 3.96080E+01 0.00000E+00
 -1      2680 3.84000E+01 4.09070E+01 0.00000E+00
 -1      2681 3.99000E+01 4.09070E+01 0.00000E+00
 -1      2682 3.76500E+01 3.96080E+01 0.00000E+00
 -1      2683 4.14000E+01 4.09070E+01 0.00000E+00
 -1      2684 4.29000E+01 4.09070E+01 0.00000E+00
 -1      2685 4.06500E+01 3.96080E+01 0.00000E+00
 -1      2686 4.44000E+01 4.09070E+01 0.00000E+00
 -1      2687 4.59000E+01 4.09070E+01 0.00000E+00
 -1      2688 4.36500E+01 3.96080E+01 0.00000E+00
 -1      2689 4.74000E+01 4.09070E+01 0.00000E+00
 -1      2690 4.89000E+01 4.09070E+01 0.00000E+00
 -1      2691 4.66500E+01 3.96080E+01 0.00000E+00
 -1      2692 5.04000E+01 4.09070E+01 0.00000E+00
 -1      2693 5.19000E+01 4.09070E+01 0.00000E+00
 -1      2694 4.96500E+01 3.96080E+01 0.00000E+00
 -1      2695 5.34000E+01 4.09070E+01 0.00000E+00
 -1      2696 5.49000E+01 4.09070E+01 0.00000E+00
 -1      2697 5.26500E+01 3.96080E+01 0.00000E+00
 -1      2698 5.64000E+01 4.09070E+01 0.00000E+00
 -1      2699 5.79000E+01 4.09070E+01 0.00000E+00
 -1      2700 5.56500E+01 3.96080E+01 0.00000E+00
 -1      2701 5.94000E+01 4.09070E+01 0.00000E+00
 -1      2702 6.09000E+01 4.09070E+01 0.00000E+00
 -1      2703 5.86500E+01 3.96080E+01 0.00000E+00
 -1      2704 6.24000E+01 4.09070E+01 0.00000E+00
 -1      2705 6.39000E+01 4.09070E+01 0.00000E+00
 -1      2706 6.16500E+01 3.96080E+01 0.00000E+00
 -1      2707 6.54000E+01 4.09070E+01 0.00000E+00
 -1      2708 6.69000E+01 4.09070E+01 0.00000E+00
 -1      2709 6.46500E+01 3.96080E+01 0.00000E+00
 -1      2710 6.84000E+01 4.09070E+01 0.00000E+00
 -1      2711 6.99000E+01 4.09070E+01 0.00000E+00
 -1      2712 6.76500E+01 3.96080E+01 0.00000E+00
 -1      2713 7.14000E+01 4.09070E+01 0.00000E+00
 -1      2714 7.29000E+01 4.09070E+01 0.00000E+00
 -1      2715 7.06500E+01 3.96080E+01 0.00000E+00
 -1      2716 7.44000E+01 4.09070E+01 0.00000E+00
 -1      2717 7.59000E+01 4.09070E+01 0.00000E+00
 -1      2718 7.36500E+01 3.96080E+01 0.00000E+00
 -1      2719 7.74000E+01 4.09070E+01 0.00000E+00
 -1      2720 7.89000E+01 4.09070E+01 0.00000E+00
 -1      2721 7.66500E+01 3.96080E+01 0.00000E+00
 -1      2722 8.04000E+01 4.09070E+01 0.00000E+00
 -1      2723 8.19000E+01 4.09070E+01 0.00000E+00
 -1      2724 7.96500E+01 3.96080E+01 0.00000E+00
 -1      2725 8.34000E+01 4.09070E+01 0.00000E+00
 -1      2726 8.49000E+01 4.09070E+01 0.00000E+00
 -1      2727 8.26500E+01 3.96080E+01 0.00000E+00
 -1      2728 8.64000E+01 4.09070E+01 0.00000E+00
 -1      2729 8.79000E+01 4.09070E+01 0.00000E+00
 -1      2730 8.56500E+01 3.96080E+01 0.00000E+00
 -1      2731 8.94000E+01 4.09070E+01 0.00000E+00
 -1      2732 9.09000E+01 4.09070E+01 0.00000E+00
 -1      2733 8.86500E+01 3.96080E+01 0.00000E+00
 -1      2734 9.24000E+01 4.09070E+01 0.00000E+00
 -1      2735 9.39000E+01 4.09070E+01 0.00000E+00
 -1      2736 9.16500E+01 3.96080E+01 0.00000E+00
 -1      2737 9.54000E+01 4.09070E+01 0.00000E+00
 -1      2738 9.69000E+01 4.09070E+01 0.00000E+00
 -1      2739 9.46500E+01 3.96080E+01 0.00000E+00
 -1      2740 9.84000E+01 4.09070E+01 0.00000E+00
 -1      2741 9.99000E+01 4.09070E+01 0.00000E+00
 -1      2742 9.76500E+01 3.96080E+01 0.00000E+00
 -1      2743 1.01400E+02 4.09070E+01 0.00000E+00
 -1      2744 1.02900E+02 4.09070E+01 0.00000E+00
 -1      2745 1.00650E+02 3.96080E+01 0.00000E+00
 -1      2746 1.05154E+02 4.00627E+01 0.00000E+00
 -1      2747 1.06654E+02 4.00627E+01 0.00000E+00
 -1      2748 1.08078E+02 4.05014E+01 0.00000E+00
 -1      2749 1.09578E+02 4.05014E+01 0.00000E+00
 -1      2750 1.11078E+02 4.05014E+01 0.00000E+00
 -1      2751 1.13117E+02 4.05246E+01 0.00000E+00
 -1      2752 1.14617E+02 4.05246E+01 0.00000E+00
 -1      2753 1.19400E+02 4.09070E+01 0.00000E+00
 -1      2754 1.20900E+02 4.09070E+01 0.00000E+00
 -1      2755 1.22400E+02 4.09070E+01 0.00000E+00
 -1      2756 1.23900E+02 4.09070E+01 0.00000E+00
 -1      2757 1.21650E+02 3.96080E+01 0.00000E+00
 -1      2758 1.25400E+02 4.09070E+01 0.00000E+00
 -1      2759 1.26900E+02 4.09070E+01 0.00000E+00
 -1      2760 1.24650E+02 3.96080E+01 0.00000E+00
 -1      2761 1.28400E+02 4.09070E+01 0.00000E+00
 -1      2762 1.29900E+02 4.09070E+01 0.00000E+00
 -1      2763 1.27650E+02 3.96080E+01 0.00000E+00
 -1      2764 1.31400E+02 4.09070E+01 0.00000E+00
 -1      2765 1.32900E+02 4.09070E+01 0.00000E+00
 -1      2766 1.30650E+02 3.96080E+01 0.00000E+00
 -1      2767 1.34400E+02 4.09070E+01 0.00000E+00
 -1      2768 1.35900E+02 4.09070E+01 0.00000E+00
 -1      2769 1.33650E+02 3.96080E+01 0.00000E+00
 -1      2770 1.37400E+02 4.09070E+01 0.00000E+00
 -1      2771 1.38900E+02 4.09070E+01 0.00000E+00
 -1      2772 1.36650E+02 3.96080E+01 0.00000E+00
 -1      2773 2.12850E+01 7.90325E+00 0.00000E+00
 -1      2774 1.97850E+01 7.90325E+00 0.00000E+00
 -1      2775 3.02850E+01 7.90325E+00 0.00000E+00
 -1      2776 2.87850E+01 7.90325E+00 0.00000E+00
 -1      2777 3.32850E+01 7.90325E+00 0.00000E+00
 -1      2778 3.17850E+01 7.90325E+00 0.00000E+00
 -1      2779 3.10350E+01 9.20225E+00 0.00000E+00
 -1      2780 3.62850E+01 7.90325E+00 0.00000E+00
 -1      2781 3.47850E+01 7.90325E+00 0.00000E+00
 -1      2782 3.40350E+01 9.20225E+00 0.00000E+00
 -1      2783 3.92850E+01 7.90325E+00 0.00000E+00
 -1      2784 3.77850E+01 7.90325E+00 0.00000E+00
 -1      2785 3.70350E+01 9.20225E+00 0.00000E+00
 -1      2786 4.22850E+01 7.90325E+00 0.00000E+00
 -1      2787 4.07850E+01 7.90325E+00 0.00000E+00
 -1      2788 4.00350E+01 9.20225E+00 0.00000E+00
 -1      2789 4.52850E+01 7.90325E+00 0.00000E+00
 -1      2790 4.37850E+01 7.90325E+00 0.00000E+00
 -1      2791 4.30350E+01 9.20225E+00 0.00000E+00
 -1      2792 4.82850E+01 7.90325E+00 0.00000E+00
 -1      2793 4.67850E+01 7.90325E+00 0.00000E+00
 -1      2794 4.60350E+01 9.20225E+00 0.00000E+00
 -1      2795 5.12850E+01 7.90325E+00 0.00000E+00
 -1      2796 4.97850E+01 7.90325E+00 0.00000E+00
 -1      2797 4.90350E+01 9.20225E+00 0.00000E+00
 -1      2798 5.42850E+01 7.90325E+00 0.00000E+00
 -1      2799 5.27850E+01 7.90325E+00 0.00000E+00
 -1      2800 5.20350E+01 9.20225E+00 0.00000E+00
 -1      2801 5.72850E+01 7.90325E+00 0.00000E+00
 -1      2802 5.57850E+01 7.90325E+00 0.00000E+00
 -1      2803 5.50350E+01 9.20225E+00 0.00000E+00
 -1      2804 6.02850E+01 7.90325E+00 0.00000E+00
 -1      2805 5.87850E+01 7.90325E+00 0.00000E+00
 -1      2806 5.80350E+01 9.20225E+00 0.00000E+00
 -1      2807 6.32850E+01 7.90325E+00 0.00000E+00
 -1      2808 6.17850E+01 7.90325E+00 0.00000E+00
 -1      2809 6.10350E+01 9.20225E+00 0.00000E+00
 -1      2810 6.62850E+01 7.90325E+00 0.00000E+00
 -1      2811 6.47850E+01 7.90325E+00 0.00000E+00
 -1      2812 6.40350E+01 9.20225E+00 0.00000E+00
 -1      2813 6.92850E+01 7.90325E+00 0.00000E+00
 -1      2814 6.77850E+01 7.90325E+00 0.00000E+00
 -1      2815 6.70350E+01 9.20225E+00 0.00000E+00
 -1      2816 7.22850E+01 7.90325E+00 0.00000E+00
 -1      2817 7.07850E+01 7.90325E+00 0.00000E+00
 -1      2818 7.00350E+01 9.20225E+00 0.00000E+00
 -1      2819 7.52850E+01 7.90325E+00 0.00000E+00
 -1      2820 7.37850E+01 7.90325E+00 0.00000E+00
 -1      2821 7.30350E+01 9.20225E+00 0.00000E+00
 -1      2822 7.82850E+01 7.90325E+00 0.00000E+00
 -1      2823 7.67850E+01 7.90325E+00 0.00000E+00
 -1      2824 7.60350E+01 9.20225E+00 0.00000E+00
 -1      2825 8.12850E+01 7.90325E+00 0.00000E+00
 -1      2826 7.97850E+01 7.90325E+00 0.00000E+00
 -1      2827 7.90350E+01 9.20225E+00 0.00000E+00
 -1      2828 8.42850E+01 7.90325E+00 0.00000E+00
 -1      2829 8.27850E+01 7.90325E+00 0.00000E+00
 -1      2830 8.20350E+01 9.20225E+00 0.00000E+00
 -1      2831 8.72850E+01 7.90325E+00 0.00000E+00
 -1      2832 8.57850E+01 7.90325E+00 0.00000E+00
 -1      2833 8.50350E+01 9.20225E+00 0.00000E+00
 -1      2834 9.02850E+01 7.90325E+00 0.00000E+00
 -1      2835 8.87850E+01 7.90325E+00 0.00000E+00
 -1      2836 8.80350E+01 9.20225E+00 0.00000E+00
 -1      2837 9.32850E+01 7.90325E+00 0.00000E+00
 -1      2838 9.17850E+01 7.90325E+00 0.00000E+00
 -1      2839 9.10350E+01 9.20225E+00 0.00000E+00
 -1      2840 9.62850E+01 7.90325E+00 0.00000E+00
 -1      2841 9.47850E+01 7.90325E+00 0.00000E+00
 -1      2842 9.40350E+01 9.20225E+00 0.00000E+00
 -1      2843 9.92850E+01 7.90325E+00 0.00000E+00
 -1      2844 9.77850E+01 7.90325E+00 0.00000E+00
 -1      2845 9.70350E+01 9.20225E+00 0.00000E+00
 -1      2846 1.02285E+02 7.90325E+00 0.00000E+00
 -1      2847 1.00785E+02 7.90325E+00 0.00000E+00
 -1      2848 1.00035E+02 9.20225E+00 0.00000E+00
 -1      2849 1.05285E+02 7.90325E+00 0.00000E+00
 -1      2850 1.03785E+02 7.90325E+00 0.00000E+00
 -1      2851 1.03035E+02 9.20225E+00 0.00000E+00
 -1      2852 1.08285E+02 7.90325E+00 0.00000E+00
 -1      2853 1.06785E+02 7.90325E+00 0.00000E+00
 -1      2854 1.06035E+02 9.20225E+00 0.00000E+00
 -1      2855 1.11285E+02 7.90325E+00 0.00000E+00
 -1      2856 1.09785E+02 7.90325E+00 0.00000E+00
 -1      2857 1.09035E+02 9.20225E+00 0.00000E+00
 -1      2858 1.14285E+02 7.90325E+00 0.00000E+00
 -1      2859 1.12785E+02 7.90325E+00 0.00000E+00
 -1      2860 1.12035E+02 9.20225E+00 0.00000E+00
 -1      2861 1.17285E+02 7.90325E+00 0.00000E+00
 -1      2862 1.15785E+02 7.90325E+00 0.00000E+00
 -1      2863 1.15035E+02 9.20225E+00 0.00000E+00
 -1      2864 1.20285E+02 7.90325E+00 0.00000E+00
 -1      2865 1.18785E+02 7.90325E+00 0.00000E+00
 -1      2866 1.18035E+02 9.20225E+00 0.00000E+00
 -1      2867 1.23285E+02 7.90325E+00 0.00000E+00
 -1      2868 1.21785E+02 7.90325E+00 0.00000E+00
 -1      2869 1.21035E+02 9.20225E+00 0.00000E+00
 -1      2870 1.26285E+02 7.90325E+00 0.00000E+00
 -1      2871 1.24785E+02 7.90325E+00 0.00000E+00
 -1      2872 1.24035E+02 9.20225E+00 0.00000E+00
 -1      2873 1.29285E+02 7.90325E+00 0.00000E+00
 -1      2874 1.27785E+02 7.90325E+00 0.00000E+00
 -1      2875 1.27035E+02 9.20225E+00 0.00000E+00
 -1      2876 1.32285E+02 7.90325E+00 0.00000E+00
 -1      2877 1.30785E+02 7.90325E+00 0.00000E+00
 -1      2878 1.30035E+02 9.20225E+00 0.00000E+00
 -1      2879 1.35285E+02 7.90325E+00 0.00000E+00
 -1      2880 1.33785E+02 7.90325E+00 0.00000E+00
 -1      2881 1.33035E+02 9.20225E+00 0.00000E+00
 -1      2882 1.38285E+02 7.90325E+00 0.00000E+00
 -1      2883 1.36785E+02 7.90325E+00 0.00000E+00
 -1      2884 1.36035E+02 9.20225E+00 0.00000E+00
 -1      2885 1.40953E+02 8.18394E+00 0.00000E+00
 -1      2886 1.39453E+02 8.18394E+00 0.00000E+00
 -1      2887 1.38703E+02 9.48294E+00 0.00000E+00
 -1      2888 1.41038E+02 1.00443E+01 0.00000E+00
 -1      2889 1.40907E+02 2.42875E+01 0.00000E+00
 -1      2890 1.40907E+02 2.28125E+01 0.00000E+00
 -1      2891 1.39914E+02 4.09362E+01 0.00000E+00
 -1      2892 1.40928E+02 4.09655E+01 0.00000E+00
 -1      2893 1.39164E+02 3.96372E+01 0.00000E+00
 -1      2894 1.40907E+02 1.83875E+01 0.00000E+00
 -1      2895 1.40907E+02 1.69125E+01 0.00000E+00
 -1      2896 1.40907E+02 2.72375E+01 0.00000E+00
 -1      2897 1.40907E+02 2.57625E+01 0.00000E+00
 -1      2898 1.39608E+02 2.50250E+01 0.00000E+00
 -1      2899 1.40907E+02 2.13375E+01 0.00000E+00
 -1      2900 1.40907E+02 1.98625E+01 0.00000E+00
 -1      2901 1.39608E+02 1.91250E+01 0.00000E+00
 -1      2902 1.39608E+02 2.20750E+01 0.00000E+00
 -1      2903 1.20369E+02 2.11635E+01 0.00000E+00
 -1      2904 1.20805E+02 2.22725E+01 0.00000E+00
 -1      2905 1.40907E+02 3.01375E+01 0.00000E+00
 -1      2906 1.40907E+02 2.86875E+01 0.00000E+00
 -1      2907 1.39608E+02 2.79500E+01 0.00000E+00
 -1      2908 1.40907E+02 3.30875E+01 0.00000E+00
 -1      2909 1.40907E+02 3.16125E+01 0.00000E+00
 -1      2910 1.39608E+02 3.08750E+01 0.00000E+00
 -1      2911 1.40907E+02 3.60375E+01 0.00000E+00
 -1      2912 1.40907E+02 3.45625E+01 0.00000E+00
 -1      2913 1.39608E+02 3.38250E+01 0.00000E+00
 -1      2914 1.82850E+01 7.90325E+00 0.00000E+00
 -1      2915 1.67850E+01 7.90325E+00 0.00000E+00
 -1      2916 1.60350E+01 9.20225E+00 0.00000E+00
 -1      2917 1.90350E+01 9.20225E+00 0.00000E+00
 -1      2918 1.16364E+02 1.67209E+01 0.00000E+00
 -1      2919 1.17506E+02 1.74707E+01 0.00000E+00
 -1      2920 8.85168E+00 4.05347E+01 0.00000E+00
 -1      2921 1.02152E+01 4.07987E+01 0.00000E+00
 -1      2922 8.91450E+00 8.42712E+00 0.00000E+00
 -1      2923 1.03942E+02 1.50662E+01 0.00000E+00
 -1      2924 1.05141E+02 1.47438E+01 0.00000E+00
 -1      2925 9.80292E+01 3.12979E+01 0.00000E+00
 -1      2926 9.76624E+01 3.01103E+01 0.00000E+00
 -1      2927 2.72850E+01 7.90325E+00 0.00000E+00
 -1      2928 2.57850E+01 7.90325E+00 0.00000E+00
 -1      2929 2.80350E+01 9.20225E+00 0.00000E+00
 -1      2930 2.42850E+01 7.90325E+00 0.00000E+00
 -1      2931 2.27850E+01 7.90325E+00 0.00000E+00
 -1      2932 2.50350E+01 9.20225E+00 0.00000E+00
 -1      2933 1.15576E+01 4.08528E+01 0.00000E+00
 -1      2934 1.30576E+01 4.08528E+01 0.00000E+00
 -1      2935 1.38076E+01 3.95538E+01 0.00000E+00
 -1      2936 1.11228E+01 3.94455E+01 0.00000E+00
 -1      2937 1.06479E+02 1.43915E+01 0.00000E+00
 -1      2938 1.07816E+02 1.40391E+01 0.00000E+00
 -1      2939 1.05569E+02 1.34008E+01 0.00000E+00
 -1      2940 9.09300E+00 1.68813E+01 0.00000E+00
 -1      2941 9.09300E+00 1.83563E+01 0.00000E+00
 -1      2942 1.03920E+01 1.90812E+01 0.00000E+00
 -1      2943 1.03920E+01 1.61437E+01 0.00000E+00
 -1      2944 9.09300E+00 3.15875E+01 0.00000E+00
 -1      2945 9.09300E+00 3.30625E+01 0.00000E+00
 -1      2946 1.15594E+02 3.67915E+01 0.00000E+00
 -1      2947 1.14657E+02 3.73043E+01 0.00000E+00
 -1      2948 1.14521E+02 3.83304E+01 0.00000E+00
 -1      2949 1.11968E+02 1.49392E+01 0.00000E+00
 -1      2950 1.12946E+02 1.51946E+01 0.00000E+00
 -1      2951 9.91723E+01 3.36530E+01 0.00000E+00
 -1      2952 9.85841E+01 3.25995E+01 0.00000E+00
 -1      2953 1.03235E+02 3.73727E+01 0.00000E+00
 -1      2954 1.02303E+02 3.65366E+01 0.00000E+00
 -1      2955 9.84007E+01 2.12861E+01 0.00000E+00
 -1      2956 9.89653E+01 2.02113E+01 0.00000E+00
 -1      2957 9.74919E+01 2.36267E+01 0.00000E+00
 -1      2958 9.79333E+01 2.25068E+01 0.00000E+00
 -1      2959 9.97069E+01 1.89847E+01 0.00000E+00
 -1      2960 1.00498E+02 1.80845E+01 0.00000E+00
 -1      2961 1.01447E+02 1.70932E+01 0.00000E+00
 -1      2962 1.02441E+02 1.61271E+01 0.00000E+00
 -1      2963 9.75208E+01 2.88825E+01 0.00000E+00
 -1      2964 9.74278E+01 2.79990E+01 0.00000E+00
 -1      2965 1.17805E+02 3.51458E+01 0.00000E+00
 -1      2966 1.16789E+02 3.59971E+01 0.00000E+00
 -1      2967 7.48818E+00 3.88019E+01 0.00000E+00
 -1      2968 1.21273E+02 2.61138E+01 0.00000E+00
 -1      2969 1.21215E+02 2.72705E+01 0.00000E+00
 -1      2970 1.41192E+02 3.96958E+01 0.00000E+00
 -1      2971 1.20482E+02 3.10582E+01 0.00000E+00
 -1      2972 1.20026E+02 3.20163E+01 0.00000E+00
 -1      2973 1.19433E+02 3.30023E+01 0.00000E+00
 -1      2974 1.18840E+02 3.39883E+01 0.00000E+00
 -1      2975 1.20511E+02 3.29278E+01 0.00000E+00
 -1      2976 1.20996E+02 2.85330E+01 0.00000E+00
 -1      2977 1.20803E+02 2.97193E+01 0.00000E+00
 -1      2978 1.14057E+02 1.56709E+01 0.00000E+00
 -1      2979 1.15097E+02 1.61208E+01 0.00000E+00
 -1      2980 1.09452E+02 1.42467E+01 0.00000E+00
 -1      2981 1.10710E+02 1.45929E+01 0.00000E+00
 -1      2982 1.11437E+02 1.38099E+01 0.00000E+00
 -1      2983 9.09300E+00 3.45313E+01 0.00000E+00
 -1      2984 9.09300E+00 3.60000E+01 0.00000E+00
 -1      2985 1.03920E+01 3.37938E+01 0.00000E+00
 -1      2986 1.03920E+01 2.49750E+01 0.00000E+00
 -1      2987 9.09300E+00 2.57000E+01 0.00000E+00
 -1      2988 9.09300E+00 2.71750E+01 0.00000E+00
 -1      2989 1.22240E+02 2.54399E+01 0.00000E+00
 -1      2990 1.20697E+02 2.00238E+01 0.00000E+00
 -1      2991 1.21879E+02 2.27572E+01 0.00000E+00
 -1      2992 1.18637E+02 1.63298E+01 0.00000E+00
 -1      2993 1.18691E+02 1.74915E+01 0.00000E+00
 -1      2994 1.19877E+02 1.75123E+01 0.00000E+00
 -1      2995 1.04404E+02 3.87637E+01 0.00000E+00
 -1      2996 1.15319E+02 3.94275E+01 0.00000E+00
 -1      2997 1.16352E+02 4.11089E+01 0.00000E+00
 -1      2998 1.17852E+02 4.11089E+01 0.00000E+00
 -1      2999 1.16255E+02 3.89147E+01 0.00000E+00
 -1      3000 1.12216E+02 4.00156E+01 0.00000E+00
 -1      3001 1.39608E+02 1.61875E+01 0.00000E+00
 -1      3002 1.40907E+02 1.54500E+01 0.00000E+00
 -1      3003 1.40907E+02 1.39875E+01 0.00000E+00
 -1      3004 2.20350E+01 9.20225E+00 0.00000E+00
 -1      3005 1.08543E+02 1.32561E+01 0.00000E+00
 -1      3006 1.21425E+02 3.06029E+01 0.00000E+00
 -1      3007 1.40973E+02 1.27472E+01 0.00000E+00
 -1      3008 1.40973E+02 1.12847E+01 0.00000E+00
 -1      3009 1.39805E+02 1.10040E+01 0.00000E+00
 -1      3010 1.39674E+02 1.34847E+01 0.00000E+00
 -1      3011 1.13806E+02 1.46325E+01 0.00000E+00
 -1      3012 1.41192E+02 3.82207E+01 0.00000E+00
 -1      3013 1.18883E+02 3.50713E+01 0.00000E+00
 -1      3014 1.18925E+02 3.61543E+01 0.00000E+00
 -1      3015 1.19961E+02 3.49968E+01 0.00000E+00
 -1      3016 1.21965E+02 2.80015E+01 0.00000E+00
 -1      3017 9.68048E+01 2.97540E+01 0.00000E+00
 -1      3018 1.00281E+02 1.68663E+01 0.00000E+00
 -1      3019 9.85913E+01 1.90843E+01 0.00000E+00
 -1      3020 9.68908E+01 2.43406E+01 0.00000E+00
 -1      3021 9.63136E+01 2.34662E+01 0.00000E+00
 -1      3022 9.62896E+01 2.50545E+01 0.00000E+00
 -1      3023 1.01305E+02 3.65764E+01 0.00000E+00
 -1      3024 9.73822E+01 2.15316E+01 0.00000E+00
 -1      3025 9.66450E+00 9.72612E+00 0.00000E+00
 -1      3026 1.02730E+02 1.48141E+01 0.00000E+00
 -1      3027 1.03020E+02 1.35011E+01 0.00000E+00
 -1      3028 1.01519E+02 1.45620E+01 0.00000E+00
 -1      3029 9.75013E+01 3.22835E+01 0.00000E+00
 -1      3030 1.18602E+02 3.98099E+01 0.00000E+00
 -1      3031 8.78718E+00 3.80644E+01 0.00000E+00
 -1      3032 9.67649E+01 2.72275E+01 0.00000E+00
 -1      3033 9.93182E+01 3.44788E+01 0.00000E+00
 -1      3034 9.82022E+01 3.44109E+01 0.00000E+00
 -1      3035 9.94642E+01 3.53046E+01 0.00000E+00
 -1      3036 9.09300E+00 2.86437E+01 0.00000E+00
 -1      3037 9.09300E+00 3.01187E+01 0.00000E+00
 -1      3038 1.03920E+01 3.08563E+01 0.00000E+00
 -1      3039 1.03920E+01 2.79188E+01 0.00000E+00
 -1      3040 1.39529E+02 3.85602E+01 0.00000E+00
 -1      3041 1.40542E+02 3.71145E+01 0.00000E+00
 -1      3042 1.39243E+02 3.63770E+01 0.00000E+00
 -1      3043 1.38514E+02 3.85310E+01 0.00000E+00
 -1      3044 1.16652E+02 3.70232E+01 0.00000E+00
 -1      3045 1.16184E+02 1.57089E+01 0.00000E+00
 -1      3046 1.09635E+01 1.04636E+01 0.00000E+00
 -1      3047 1.16910E+01 1.24625E+01 0.00000E+00
 -1      3048 1.16910E+01 1.39375E+01 0.00000E+00
 -1      3049 1.00862E+01 3.73269E+01 0.00000E+00
 -1      3050 1.89000E+01 3.83090E+01 0.00000E+00
 -1      3051 2.04000E+01 3.83090E+01 0.00000E+00
 -1      3052 2.19000E+01 3.83090E+01 0.00000E+00
 -1      3053 2.34000E+01 3.83090E+01 0.00000E+00
 -1      3054 2.11500E+01 3.70100E+01 0.00000E+00
 -1      3055 2.49000E+01 3.83090E+01 0.00000E+00
 -1      3056 2.64000E+01 3.83090E+01 0.00000E+00
 -1      3057 2.41500E+01 3.70100E+01 0.00000E+00
 -1      3058 2.79000E+01 3.83090E+01 0.00000E+00
 -1      3059 2.94000E+01 3.83090E+01 0.00000E+00
 -1      3060 2.71500E+01 3.70100E+01 0.00000E+00
 -1      3061 3.09000E+01 3.83090E+01 0.00000E+00
 -1      3062 3.24000E+01 3.83090E+01 0.00000E+00
 -1      3063 3.01500E+01 3.70100E+01 0.00000E+00
 -1      3064 3.39000E+01 3.83090E+01 0.00000E+00
 -1      3065 3.54000E+01 3.83090E+01 0.00000E+00
 -1      3066 3.31500E+01 3.70100E+01 0.00000E+00
 -1      3067 3.69000E+01 3.83090E+01 0.00000E+00
 -1      3068 3.84000E+01 3.83090E+01 0.00000E+00
 -1      3069 3.61500E+01 3.70100E+01 0.00000E+00
 -1      3070 3.99000E+01 3.83090E+01 0.00000E+00
 -1      3071 4.14000E+01 3.83090E+01 0.00000E+00
 -1      3072 3.91500E+01 3.70100E+01 0.00000E+00
 -1      3073 4.29000E+01 3.83090E+01 0.00000E+00
 -1      3074 4.44000E+01 3.83090E+01 0.00000E+00
 -1      3075 4.21500E+01 3.70100E+01 0.00000E+00
 -1      3076 4.59000E+01 3.83090E+01 0.00000E+00
 -1      3077 4.74000E+01 3.83090E+01 0.00000E+00
 -1      3078 4.51500E+01 3.70100E+01 0.00000E+00
 -1      3079 4.89000E+01 3.83090E+01 0.00000E+00
 -1      3080 5.04000E+01 3.83090E+01 0.00000E+00
 -1      3081 4.81500E+01 3.70100E+01 0.00000E+00
 -1      3082 5.19000E+01 3.83090E+01 0.00000E+00
 -1      3083 5.34000E+01 3.83090E+01 0.00000E+00
 -1      3084 5.11500E+01 3.70100E+01 0.00000E+00
 -1      3085 5.49000E+01 3.83090E+01 0.00000E+00
 -1      3086 5.64000E+01 3.83090E+01 0.00000E+00
 -1      3087 5.41500E+01 3.70100E+01 0.00000E+00
 -1      3088 5.79000E+01 3.83090E+01 0.00000E+00
 -1      3089 5.94000E+01 3.83090E+01 0.00000E+00
 -1      3090 5.71500E+01 3.70100E+01 0.00000E+00
 -1      3091 6.09000E+01 3.83090E+01 0.00000E+00
 -1      3092 6.24000E+01 3.83090E+01 0.00000E+00
 -1      3093 6.01500E+01 3.70100E+01 0.00000E+00
 -1      3094 6.39000E+01 3.83090E+01 0.00000E+00
 -1      3095 6.54000E+01 3.83090E+01 0.00000E+00
 -1      3096 6.31500E+01 3.70100E+01 0.00000E+00
 -1      3097 6.69000E+01 3.83090E+01 0.00000E+00
 -1      3098 6.84000E+01 3.83090E+01 0.00000E+00
 -1      3099 6.61500E+01 3.70100E+01 0.00000E+00
 -1      3100 6.99000E+01 3.83090E+01 0.00000E+00
 -1      3101 7.14000E+01 3.83090E+01 0.00000E+00
 -1      3102 6.91500E+01 3.70100E+01 0.00000E+00
 -1      3103 7.29000E+01 3.83090E+01 0.00000E+00
 -1      3104 7.44000E+01 3.83090E+01 0.00000E+00
 -1      3105 7.21500E+01 3.70100E+01 0.00000E+00
 -1      3106 7.59000E+01 3.83090E+01 0.00000E+00
 -1      3107 7.74000E+01 3.83090E+01 0.00000E+00
 -1      3108 7.51500E+01 3.70100E+01 0.00000E+00
 -1      3109 7.89000E+01 3.83090E+01 0.00000E+00
 -1      3110 8.04000E+01 3.83090E+01 0.00000E+00
 -1      3111 7.81500E+01 3.70100E+01 0.00000E+00
 -1      3112 8.19000E+01 3.83090E+01 0.00000E+00
 -1      3113 8.34000E+01 3.83090E+01 0.00000E+00
 -1      3114 8.11500E+01 3.70100E+01 0.00000E+00
 -1      3115 8.49000E+01 3.83090E+01 0.00000E+00
 -1      3116 8.64000E+01 3.83090E+01 0.00000E+00
 -1      3117 8.41500E+01 3.70100E+01 0.00000E+00
 -1      3118 8.79000E+01 3.83090E+01 0.00000E+00
 -1      3119 8.94000E+01 3.83090E+01 0.00000E+00
 -1      3120 8.71500E+01 3.70100E+01 0.00000E+00
 -1      3121 9.09000E+01 3.83090E+01 0.00000E+00
 -1      3122 9.24000E+01 3.83090E+01 0.00000E+00
 -1      3123 9.01500E+01 3.70100E+01 0.00000E+00
 -1      3124 9.39000E+01 3.83090E+01 0.00000E+00
 -1      3125 9.54000E+01 3.83090E+01 0.00000E+00
 -1      3126 9.31500E+01 3.70100E+01 0.00000E+00
 -1      3127 9.72491E+01 3.74223E+01 0.00000E+00
 -1      3128 9.87491E+01 3.74223E+01 0.00000E+00
 -1      3129 1.00589E+02 3.86942E+01 0.00000E+00
 -1      3130 1.02089E+02 3.86942E+01 0.00000E+00
 -1      3131 1.17451E+02 3.81203E+01 0.00000E+00
 -1      3132 3.77850E+01 1.05013E+01 0.00000E+00
 -1      3133 3.62850E+01 1.05013E+01 0.00000E+00
 -1      3134 1.23900E+02 3.83090E+01 0.00000E+00
 -1      3135 1.25400E+02 3.83090E+01 0.00000E+00
 -1      3136 1.26900E+02 3.83090E+01 0.00000E+00
 -1      3137 1.28400E+02 3.83090E+01 0.00000E+00
 -1      3138 1.26150E+02 3.70100E+01 0.00000E+00
 -1      3139 1.29900E+02 3.83090E+01 0.00000E+00
 -1      3140 1.31400E+02 3.83090E+01 0.00000E+00
 -1      3141 1.29150E+02 3.70100E+01 0.00000E+00
 -1      3142 1.32900E+02 3.83090E+01 0.00000E+00
 -1      3143 1.34400E+02 3.83090E+01 0.00000E+00
 -1      3144 1.32150E+02 3.70100E+01 0.00000E+00
 -1      3145 1.35707E+02 3.84200E+01 0.00000E+00
 -1      3146 1.37207E+02 3.84200E+01 0.00000E+00
 -1      3147 1.37572E+02 3.73430E+01 0.00000E+00
 -1      3148 1.34957E+02 3.71210E+01 0.00000E+00
 -1      3149 1.38309E+02 3.16125E+01 0.00000E+00
 -1      3150 1.38309E+02 3.01375E+01 0.00000E+00
 -1      3151 3.47850E+01 1.05013E+01 0.00000E+00
 -1      3152 3.32850E+01 1.05013E+01 0.00000E+00
 -1      3153 3.55350E+01 1.18003E+01 0.00000E+00
 -1      3154 1.13621E+02 1.35291E+01 0.00000E+00
 -1      3155 1.14733E+02 1.40054E+01 0.00000E+00
 -1      3156 3.17850E+01 1.05013E+01 0.00000E+00
 -1      3157 3.02850E+01 1.05013E+01 0.00000E+00
 -1      3158 3.25350E+01 1.18003E+01 0.00000E+00
 -1      3159 4.07850E+01 1.05013E+01 0.00000E+00
 -1      3160 3.92850E+01 1.05013E+01 0.00000E+00
 -1      3161 3.85350E+01 1.18003E+01 0.00000E+00
 -1      3162 4.37850E+01 1.05013E+01 0.00000E+00
 -1      3163 4.22850E+01 1.05013E+01 0.00000E+00
 -1      3164 4.15350E+01 1.18003E+01 0.00000E+00
 -1      3165 4.67850E+01 1.05013E+01 0.00000E+00
 -1      3166 4.52850E+01 1.05013E+01 0.00000E+00
 -1      3167 4.45350E+01 1.18003E+01 0.00000E+00
 -1      3168 4.97850E+01 1.05013E+01 0.00000E+00
 -1      3169 4.82850E+01 1.05013E+01 0.00000E+00
 -1      3170 4.75350E+01 1.18003E+01 0.00000E+00
 -1      3171 5.27850E+01 1.05013E+01 0.00000E+00
 -1      3172 5.12850E+01 1.05013E+01 0.00000E+00
 -1      3173 5.05350E+01 1.18003E+01 0.00000E+00
 -1      3174 5.57850E+01 1.05013E+01 0.00000E+00
 -1      3175 5.42850E+01 1.05013E+01 0.00000E+00
 -1      3176 5.35350E+01 1.18003E+01 0.00000E+00
 -1      3177 5.87850E+01 1.05013E+01 0.00000E+00
 -1      3178 5.72850E+01 1.05013E+01 0.00000E+00
 -1      3179 5.65350E+01 1.18003E+01 0.00000E+00
 -1      3180 6.17850E+01 1.05013E+01 0.00000E+00
 -1      3181 6.02850E+01 1.05013E+01 0.00000E+00
 -1      3182 5.95350E+01 1.18003E+01 0.00000E+00
 -1      3183 6.47850E+01 1.05013E+01 0.00000E+00
 -1      3184 6.32850E+01 1.05013E+01 0.00000E+00
 -1      3185 6.25350E+01 1.18003E+01 0.00000E+00
 -1      3186 6.77850E+01 1.05013E+01 0.00000E+00
 -1      3187 6.62850E+01 1.05013E+01 0.00000E+00
 -1      3188 6.55350E+01 1.18003E+01 0.00000E+00
 -1      3189 7.07850E+01 1.05013E+01 0.00000E+00
 -1      3190 6.92850E+01 1.05013E+01 0.00000E+00
 -1      3191 6.85350E+01 1.18003E+01 0.00000E+00
 -1      3192 7.37850E+01 1.05013E+01 0.00000E+00
 -1      3193 7.22850E+01 1.05013E+01 0.00000E+00
 -1      3194 7.15350E+01 1.18003E+01 0.00000E+00
 -1      3195 7.67850E+01 1.05013E+01 0.00000E+00
 -1      3196 7.52850E+01 1.05013E+01 0.00000E+00
 -1      3197 7.45350E+01 1.18003E+01 0.00000E+00
 -1      3198 7.97850E+01 1.05013E+01 0.00000E+00
 -1      3199 7.82850E+01 1.05013E+01 0.00000E+00
 -1      3200 7.75350E+01 1.18003E+01 0.00000E+00
 -1      3201 8.27850E+01 1.05013E+01 0.00000E+00
 -1      3202 8.12850E+01 1.05013E+01 0.00000E+00
 -1      3203 8.05350E+01 1.18003E+01 0.00000E+00
 -1      3204 8.57850E+01 1.05013E+01 0.00000E+00
 -1      3205 8.42850E+01 1.05013E+01 0.00000E+00
 -1      3206 8.35350E+01 1.18003E+01 0.00000E+00
 -1      3207 8.87850E+01 1.05013E+01 0.00000E+00
 -1      3208 8.72850E+01 1.05013E+01 0.00000E+00
 -1      3209 8.65350E+01 1.18003E+01 0.00000E+00
 -1      3210 9.17850E+01 1.05013E+01 0.00000E+00
 -1      3211 9.02850E+01 1.05013E+01 0.00000E+00
 -1      3212 8.95350E+01 1.18003E+01 0.00000E+00
 -1      3213 9.47850E+01 1.05013E+01 0.00000E+00
 -1      3214 9.32850E+01 1.05013E+01 0.00000E+00
 -1      3215 9.25350E+01 1.18003E+01 0.00000E+00
 -1      3216 9.77850E+01 1.05013E+01 0.00000E+00
 -1      3217 9.62850E+01 1.05013E+01 0.00000E+00
 -1      3218 9.55350E+01 1.18003E+01 0.00000E+00
 -1      3219 1.01672E+02 1.12257E+01 0.00000E+00
 -1      3220 1.00172E+02 1.12257E+01 0.00000E+00
 -1      3221 1.03172E+02 1.12257E+01 0.00000E+00
 -1      3222 1.07221E+02 1.11254E+01 0.00000E+00
 -1      3223 1.05721E+02 1.11254E+01 0.00000E+00
 -1      3224 1.10357E+02 1.13329E+01 0.00000E+00
 -1      3225 1.08857E+02 1.13329E+01 0.00000E+00
 -1      3226 1.15541E+02 1.10522E+01 0.00000E+00
 -1      3227 1.14041E+02 1.10522E+01 0.00000E+00
 -1      3228 1.21785E+02 1.05013E+01 0.00000E+00
 -1      3229 1.20285E+02 1.05013E+01 0.00000E+00
 -1      3230 1.24785E+02 1.05013E+01 0.00000E+00
 -1      3231 1.23285E+02 1.05013E+01 0.00000E+00
 -1      3232 1.22535E+02 1.18003E+01 0.00000E+00
 -1      3233 1.27785E+02 1.05013E+01 0.00000E+00
 -1      3234 1.26285E+02 1.05013E+01 0.00000E+00
 -1      3235 1.25535E+02 1.18003E+01 0.00000E+00
 -1      3236 1.30785E+02 1.05013E+01 0.00000E+00
 -1      3237 1.29285E+02 1.05013E+01 0.00000E+00
 -1      3238 1.28535E+02 1.18003E+01 0.00000E+00
 -1      3239 1.33785E+02 1.05013E+01 0.00000E+00
 -1      3240 1.32285E+02 1.05013E+01 0.00000E+00
 -1      3241 1.31535E+02 1.18003E+01 0.00000E+00
 -1      3242 1.36785E+02 1.05013E+01 0.00000E+00
 -1      3243 1.35285E+02 1.05013E+01 0.00000E+00
 -1      3244 1.34535E+02 1.18003E+01 0.00000E+00
 -1      3245 1.38879E+02 1.08930E+01 0.00000E+00
 -1      3246 1.37711E+02 1.06123E+01 0.00000E+00
 -1      3247 1.36961E+02 1.19113E+01 0.00000E+00
 -1      3248 1.38813E+02 1.21333E+01 0.00000E+00
 -1      3249 1.16910E+01 2.12875E+01 0.00000E+00
 -1      3250 1.16910E+01 2.27625E+01 0.00000E+00
 -1      3251 1.22813E+02 2.17216E+01 0.00000E+00
 -1      3252 1.23230E+02 2.31052E+01 0.00000E+00
 -1      3253 1.38309E+02 2.57625E+01 0.00000E+00
 -1      3254 1.38309E+02 2.42875E+01 0.00000E+00
 -1      3255 1.38309E+02 3.45625E+01 0.00000E+00
 -1      3256 1.38309E+02 3.30875E+01 0.00000E+00
 -1      3257 1.37010E+02 3.23500E+01 0.00000E+00
 -1      3258 1.38309E+02 2.86750E+01 0.00000E+00
 -1      3259 1.38309E+02 2.72250E+01 0.00000E+00
 -1      3260 1.37010E+02 2.64875E+01 0.00000E+00
 -1      3261 1.37010E+02 2.94125E+01 0.00000E+00
 -1      3262 1.21614E+02 3.29199E+01 0.00000E+00
 -1      3263 1.21021E+02 3.39059E+01 0.00000E+00
 -1      3264 1.22664E+02 3.01919E+01 0.00000E+00
 -1      3265 1.22343E+02 3.15308E+01 0.00000E+00
 -1      3266 1.03296E+02 3.82865E+01 0.00000E+00
 -1      3267 2.87850E+01 1.05013E+01 0.00000E+00
 -1      3268 2.72850E+01 1.05013E+01 0.00000E+00
 -1      3269 2.95350E+01 1.18003E+01 0.00000E+00
 -1      3270 9.90055E+01 1.65955E+01 0.00000E+00
 -1      3271 9.99537E+01 1.56042E+01 0.00000E+00
 -1      3272 1.20077E+02 3.78439E+01 0.00000E+00
 -1      3273 1.21577E+02 3.78439E+01 0.00000E+00
 -1      3274 1.59000E+01 3.83090E+01 0.00000E+00
 -1      3275 1.74000E+01 3.83090E+01 0.00000E+00
 -1      3276 1.81500E+01 3.70100E+01 0.00000E+00
 -1      3277 1.23376E+02 2.48378E+01 0.00000E+00
 -1      3278 1.23320E+02 2.61369E+01 0.00000E+00
 -1      3279 2.27850E+01 1.05013E+01 0.00000E+00
 -1      3280 2.12850E+01 1.05013E+01 0.00000E+00
 -1      3281 2.57850E+01 1.05013E+01 0.00000E+00
 -1      3282 2.42850E+01 1.05013E+01 0.00000E+00
 -1      3283 2.35350E+01 1.18003E+01 0.00000E+00
 -1      3284 2.65350E+01 1.18003E+01 0.00000E+00
 -1      3285 9.98651E+01 3.74903E+01 0.00000E+00
 -1      3286 1.18999E+02 3.79184E+01 0.00000E+00
 -1      3287 9.61912E+01 2.17753E+01 0.00000E+00
 -1      3288 9.66586E+01 2.05547E+01 0.00000E+00
 -1      3289 9.72715E+01 1.91239E+01 0.00000E+00
 -1      3290 9.80131E+01 1.78973E+01 0.00000E+00
 -1      3291 9.68358E+01 3.33363E+01 0.00000E+00
 -1      3292 9.62809E+01 3.20347E+01 0.00000E+00
 -1      3293 1.16000E+02 1.46055E+01 0.00000E+00
 -1      3294 1.17267E+02 1.52056E+01 0.00000E+00
 -1      3295 1.15815E+02 1.35022E+01 0.00000E+00
 -1      3296 9.56921E+01 2.77967E+01 0.00000E+00
 -1      3297 9.57939E+01 2.64981E+01 0.00000E+00
 -1      3298 1.21351E+02 1.87604E+01 0.00000E+00
 -1      3299 1.22117E+02 2.01101E+01 0.00000E+00
 -1      3300 1.23102E+02 2.76670E+01 0.00000E+00
 -1      3301 1.22883E+02 2.89295E+01 0.00000E+00
 -1      3302 1.23801E+02 2.98574E+01 0.00000E+00
 -1      3303 9.60237E+01 3.04662E+01 0.00000E+00
 -1      3304 9.58820E+01 2.92383E+01 0.00000E+00
 -1      3305 1.26488E+01 1.02017E+01 0.00000E+00
 -1      3306 1.20772E+01 1.14631E+01 0.00000E+00
 -1      3307 1.33763E+01 1.22006E+01 0.00000E+00
 -1      3308 1.41488E+01 1.02017E+01 0.00000E+00
 -1      3309 1.16910E+01 2.42375E+01 0.00000E+00
 -1      3310 1.16910E+01 2.57125E+01 0.00000E+00
 -1      3311 1.29900E+01 2.35000E+01 0.00000E+00
 -1      3312 1.14286E+01 3.73811E+01 0.00000E+00
 -1      3313 1.18453E+02 1.52264E+01 0.00000E+00
 -1      3314 1.19638E+02 1.52472E+01 0.00000E+00
 -1      3315 1.18268E+02 1.41231E+01 0.00000E+00
 -1      3316 9.60804E+01 1.93676E+01 0.00000E+00
 -1      3317 1.37758E+02 3.64912E+01 0.00000E+00
 -1      3318 1.38123E+02 3.54142E+01 0.00000E+00
 -1      3319 1.36824E+02 3.46768E+01 0.00000E+00
 -1      3320 1.36451E+02 3.63802E+01 0.00000E+00
 -1      3321 1.24238E+02 2.70649E+01 0.00000E+00
 -1      3322 9.64991E+01 3.61233E+01 0.00000E+00
 -1      3323 1.38309E+02 1.69188E+01 0.00000E+00
 -1      3324 1.38309E+02 1.54563E+01 0.00000E+00
 -1      3325 1.21064E+02 3.49889E+01 0.00000E+00
 -1      3326 1.00244E+02 1.42912E+01 0.00000E+00
 -1      3327 9.94219E+01 1.25247E+01 0.00000E+00
 -1      3328 1.05370E+02 1.26691E+01 0.00000E+00
 -1      3329 1.04184E+02 1.07459E+01 0.00000E+00
 -1      3330 1.12785E+02 1.03949E+01 0.00000E+00
 -1      3331 1.11285E+02 1.03949E+01 0.00000E+00
 -1      3332 1.18785E+02 1.05013E+01 0.00000E+00
 -1      3333 1.17285E+02 1.05013E+01 0.00000E+00
 -1      3334 1.16910E+01 1.98188E+01 0.00000E+00
 -1      3335 1.29900E+01 2.05562E+01 0.00000E+00
 -1      3336 1.16910E+01 1.83500E+01 0.00000E+00
 -1      3337 1.23468E+02 2.04582E+01 0.00000E+00
 -1      3338 1.38309E+02 1.98687E+01 0.00000E+00
 -1      3339 1.38309E+02 1.83937E+01 0.00000E+00
 -1      3340 1.37010E+02 1.76625E+01 0.00000E+00
 -1      3341 9.52167E+01 2.56237E+01 0.00000E+00
 -1      3342 1.24310E+02 2.38022E+01 0.00000E+00
 -1      3343 1.38309E+02 2.28156E+01 0.00000E+00
 -1      3344 1.38309E+02 2.13406E+01 0.00000E+00
 -1      3345 1.37010E+02 2.06094E+01 0.00000E+00
 -1      3346 1.37010E+02 2.35531E+01 0.00000E+00
 -1      3347 9.49110E+01 2.85089E+01 0.00000E+00
 -1      3348 1.71488E+01 1.02017E+01 0.00000E+00
 -1      3349 1.56488E+01 1.02017E+01 0.00000E+00
 -1      3350 1.52625E+01 1.12011E+01 0.00000E+00
 -1      3351 1.22327E+02 3.65449E+01 0.00000E+00
 -1      3352 1.99669E+01 1.03515E+01 0.00000E+00
 -1      3353 1.84669E+01 1.03515E+01 0.00000E+00
 -1      3354 1.80806E+01 1.13509E+01 0.00000E+00
 -1      3355 2.07169E+01 1.16505E+01 0.00000E+00
 -1      3356 1.22853E+02 3.25089E+01 0.00000E+00
 -1      3357 1.45576E+01 3.82548E+01 0.00000E+00
 -1      3358 1.53076E+01 3.69558E+01 0.00000E+00
 -1      3359 1.32152E+01 3.82007E+01 0.00000E+00
 -1      3360 9.76858E+01 1.66351E+01 0.00000E+00
 -1      3361 1.04033E+02 1.30214E+01 0.00000E+00
 -1      3362 1.11107E+02 1.25256E+01 0.00000E+00
 -1      3363 1.16910E+01 1.54094E+01 0.00000E+00
 -1      3364 1.16910E+01 1.68781E+01 0.00000E+00
 -1      3365 1.29900E+01 1.76156E+01 0.00000E+00
 -1      3366 1.29900E+01 1.46719E+01 0.00000E+00
 -1      3367 1.16910E+01 3.01219E+01 0.00000E+00
 -1      3368 1.16910E+01 3.15906E+01 0.00000E+00
 -1      3369 1.21297E+02 1.75986E+01 0.00000E+00
 -1      3370 1.22718E+02 1.76850E+01 0.00000E+00
 -1      3371 1.21243E+02 1.64369E+01 0.00000E+00
 -1      3372 9.55900E+01 2.24893E+01 0.00000E+00
 -1      3373 9.48664E+01 2.15123E+01 0.00000E+00
 -1      3374 9.49888E+01 2.32032E+01 0.00000E+00
 -1      3375 9.53581E+01 3.15190E+01 0.00000E+00
 -1      3376 1.29900E+01 3.23250E+01 0.00000E+00
 -1      3377 1.16910E+01 3.30594E+01 0.00000E+00
 -1      3378 1.16910E+01 3.45281E+01 0.00000E+00
 -1      3379 1.12365E+02 1.28719E+01 0.00000E+00
 -1      3380 1.13291E+02 1.22448E+01 0.00000E+00
 -1      3381 1.19535E+02 1.18003E+01 0.00000E+00
 -1      3382 1.02821E+02 1.27693E+01 0.00000E+00
 -1      3383 2.34000E+01 3.57110E+01 0.00000E+00
 -1      3384 2.49000E+01 3.57110E+01 0.00000E+00
 -1      3385 2.64000E+01 3.57110E+01 0.00000E+00
 -1      3386 2.79000E+01 3.57110E+01 0.00000E+00
 -1      3387 2.56500E+01 3.44120E+01 0.00000E+00
 -1      3388 2.94000E+01 3.57110E+01 0.00000E+00
 -1      3389 3.09000E+01 3.57110E+01 0.00000E+00
 -1      3390 2.86500E+01 3.44120E+01 0.00000E+00
 -1      3391 3.24000E+01 3.57110E+01 0.00000E+00
 -1      3392 3.39000E+01 3.57110E+01 0.00000E+00
 -1      3393 3.16500E+01 3.44120E+01 0.00000E+00
 -1      3394 3.54000E+01 3.57110E+01 0.00000E+00
 -1      3395 3.69000E+01 3.57110E+01 0.00000E+00
 -1      3396 3.46500E+01 3.44120E+01 0.00000E+00
 -1      3397 3.84000E+01 3.57110E+01 0.00000E+00
 -1      3398 3.99000E+01 3.57110E+01 0.00000E+00
 -1      3399 3.76500E+01 3.44120E+01 0.00000E+00
 -1      3400 4.14000E+01 3.57110E+01 0.00000E+00
 -1      3401 4.29000E+01 3.57110E+01 0.00000E+00
 -1      3402 4.06500E+01 3.44120E+01 0.00000E+00
 -1      3403 4.44000E+01 3.57110E+01 0.00000E+00
 -1      3404 4.59000E+01 3.57110E+01 0.00000E+00
 -1      3405 4.36500E+01 3.44120E+01 0.00000E+00
 -1      3406 4.74000E+01 3.57110E+01 0.00000E+00
 -1      3407 4.89000E+01 3.57110E+01 0.00000E+00
 -1      3408 4.66500E+01 3.44120E+01 0.00000E+00
 -1      3409 5.04000E+01 3.57110E+01 0.00000E+00
 -1      3410 5.19000E+01 3.57110E+01 0.00000E+00
 -1      3411 4.96500E+01 3.44120E+01 0.00000E+00
 -1      3412 5.34000E+01 3.57110E+01 0.00000E+00
 -1      3413 5.49000E+01 3.57110E+01 0.00000E+00
 -1      3414 5.26500E+01 3.44120E+01 0.00000E+00
 -1      3415 5.64000E+01 3.57110E+01 0.00000E+00
 -1      3416 5.79000E+01 3.57110E+01 0.00000E+00
 -1      3417 5.56500E+01 3.44120E+01 0.00000E+00
 -1      3418 5.94000E+01 3.57110E+01 0.00000E+00
 -1      3419 6.09000E+01 3.57110E+01 0.00000E+00
 -1      3420 5.86500E+01 3.44120E+01 0.00000E+00
 -1      3421 6.24000E+01 3.57110E+01 0.00000E+00
 -1      3422 6.39000E+01 3.57110E+01 0.00000E+00
 -1      3423 6.16500E+01 3.44120E+01 0.00000E+00
 -1      3424 6.54000E+01 3.57110E+01 0.00000E+00
 -1      3425 6.69000E+01 3.57110E+01 0.00000E+00
 -1      3426 6.46500E+01 3.44120E+01 0.00000E+00
 -1      3427 6.84000E+01 3.57110E+01 0.00000E+00
 -1      3428 6.99000E+01 3.57110E+01 0.00000E+00
 -1      3429 6.76500E+01 3.44120E+01 0.00000E+00
 -1      3430 7.14000E+01 3.57110E+01 0.00000E+00
 -1      3431 7.29000E+01 3.57110E+01 0.00000E+00
 -1      3432 7.06500E+01 3.44120E+01 0.00000E+00
 -1      3433 7.44000E+01 3.57110E+01 0.00000E+00
 -1      3434 7.59000E+01 3.57110E+01 0.00000E+00
 -1      3435 7.36500E+01 3.44120E+01 0.00000E+00
 -1      3436 7.74000E+01 3.57110E+01 0.00000E+00
 -1      3437 7.89000E+01 3.57110E+01 0.00000E+00
 -1      3438 7.66500E+01 3.44120E+01 0.00000E+00
 -1      3439 8.04000E+01 3.57110E+01 0.00000E+00
 -1      3440 8.19000E+01 3.57110E+01 0.00000E+00
 -1      3441 7.96500E+01 3.44120E+01 0.00000E+00
 -1      3442 8.34000E+01 3.57110E+01 0.00000E+00
 -1      3443 8.49000E+01 3.57110E+01 0.00000E+00
 -1      3444 8.26500E+01 3.44120E+01 0.00000E+00
 -1      3445 8.64000E+01 3.57110E+01 0.00000E+00
 -1      3446 8.79000E+01 3.57110E+01 0.00000E+00
 -1      3447 8.56500E+01 3.44120E+01 0.00000E+00
 -1      3448 8.94000E+01 3.57110E+01 0.00000E+00
 -1      3449 9.09000E+01 3.57110E+01 0.00000E+00
 -1      3450 8.86500E+01 3.44120E+01 0.00000E+00
 -1      3451 9.24000E+01 3.57110E+01 0.00000E+00
 -1      3452 9.39000E+01 3.57110E+01 0.00000E+00
 -1      3453 9.16500E+01 3.44120E+01 0.00000E+00
 -1      3454 1.16910E+01 2.86531E+01 0.00000E+00
 -1      3455 1.29900E+01 2.93875E+01 0.00000E+00
 -1      3456 1.16910E+01 2.71844E+01 0.00000E+00
 -1      3457 4.22850E+01 1.30992E+01 0.00000E+00
 -1      3458 4.07850E+01 1.30992E+01 0.00000E+00
 -1      3459 1.25445E+02 2.64562E+01 0.00000E+00
 -1      3460 1.25227E+02 2.79862E+01 0.00000E+00
 -1      3461 1.28400E+02 3.57110E+01 0.00000E+00
 -1      3462 1.29900E+02 3.57110E+01 0.00000E+00
 -1      3463 1.31400E+02 3.57110E+01 0.00000E+00
 -1      3464 1.32900E+02 3.57110E+01 0.00000E+00
 -1      3465 1.30650E+02 3.44120E+01 0.00000E+00
 -1      3466 3.62850E+01 1.30992E+01 0.00000E+00
 -1      3467 3.47850E+01 1.30992E+01 0.00000E+00
 -1      3468 3.92850E+01 1.30992E+01 0.00000E+00
 -1      3469 3.77850E+01 1.30992E+01 0.00000E+00
 -1      3470 4.00350E+01 1.43982E+01 0.00000E+00
 -1      3471 1.20244E+02 1.29720E+01 0.00000E+00
 -1      3472 1.18744E+02 1.29720E+01 0.00000E+00
 -1      3473 4.52850E+01 1.30992E+01 0.00000E+00
 -1      3474 4.37850E+01 1.30992E+01 0.00000E+00
 -1      3475 4.30350E+01 1.43982E+01 0.00000E+00
 -1      3476 4.82850E+01 1.30992E+01 0.00000E+00
 -1      3477 4.67850E+01 1.30992E+01 0.00000E+00
 -1      3478 4.60350E+01 1.43982E+01 0.00000E+00
 -1      3479 5.12850E+01 1.30992E+01 0.00000E+00
 -1      3480 4.97850E+01 1.30992E+01 0.00000E+00
 -1      3481 4.90350E+01 1.43982E+01 0.00000E+00
 -1      3482 5.42850E+01 1.30992E+01 0.00000E+00
 -1      3483 5.27850E+01 1.30992E+01 0.00000E+00
 -1      3484 5.20350E+01 1.43982E+01 0.00000E+00
 -1      3485 5.72850E+01 1.30992E+01 0.00000E+00
 -1      3486 5.57850E+01 1.30992E+01 0.00000E+00
 -1      3487 5.50350E+01 1.43982E+01 0.00000E+00
 -1      3488 6.02850E+01 1.30992E+01 0.00000E+00
 -1      3489 5.87850E+01 1.30992E+01 0.00000E+00
 -1      3490 5.80350E+01 1.43982E+01 0.00000E+00
 -1      3491 6.32850E+01 1.30992E+01 0.00000E+00
 -1      3492 6.17850E+01 1.30992E+01 0.00000E+00
 -1      3493 6.10350E+01 1.43982E+01 0.00000E+00
 -1      3494 6.62850E+01 1.30992E+01 0.00000E+00
 -1      3495 6.47850E+01 1.30992E+01 0.00000E+00
 -1      3496 6.40350E+01 1.43982E+01 0.00000E+00
 -1      3497 6.92850E+01 1.30992E+01 0.00000E+00
 -1      3498 6.77850E+01 1.30992E+01 0.00000E+00
 -1      3499 6.70350E+01 1.43982E+01 0.00000E+00
 -1      3500 7.22850E+01 1.30992E+01 0.00000E+00
 -1      3501 7.07850E+01 1.30992E+01 0.00000E+00
 -1      3502 7.00350E+01 1.43982E+01 0.00000E+00
 -1      3503 7.52850E+01 1.30992E+01 0.00000E+00
 -1      3504 7.37850E+01 1.30992E+01 0.00000E+00
 -1      3505 7.30350E+01 1.43982E+01 0.00000E+00
 -1      3506 7.82850E+01 1.30992E+01 0.00000E+00
 -1      3507 7.67850E+01 1.30992E+01 0.00000E+00
 -1      3508 7.60350E+01 1.43982E+01 0.00000E+00
 -1      3509 8.12850E+01 1.30992E+01 0.00000E+00
 -1      3510 7.97850E+01 1.30992E+01 0.00000E+00
 -1      3511 7.90350E+01 1.43982E+01 0.00000E+00
 -1      3512 8.42850E+01 1.30992E+01 0.00000E+00
 -1      3513 8.27850E+01 1.30992E+01 0.00000E+00
 -1      3514 8.20350E+01 1.43982E+01 0.00000E+00
 -1      3515 8.72850E+01 1.30992E+01 0.00000E+00
 -1      3516 8.57850E+01 1.30992E+01 0.00000E+00
 -1      3517 8.50350E+01 1.43982E+01 0.00000E+00
 -1      3518 9.02850E+01 1.30992E+01 0.00000E+00
 -1      3519 8.87850E+01 1.30992E+01 0.00000E+00
 -1      3520 8.80350E+01 1.43982E+01 0.00000E+00
 -1      3521 9.32850E+01 1.30992E+01 0.00000E+00
 -1      3522 9.17850E+01 1.30992E+01 0.00000E+00
 -1      3523 9.10350E+01 1.43982E+01 0.00000E+00
 -1      3524 9.62850E+01 1.30992E+01 0.00000E+00
 -1      3525 9.47850E+01 1.30992E+01 0.00000E+00
 -1      3526 9.40350E+01 1.43982E+01 0.00000E+00
 -1      3527 1.16291E+02 1.23512E+01 0.00000E+00
 -1      3528 1.23349E+02 1.41617E+01 0.00000E+00
 -1      3529 1.21849E+02 1.41617E+01 0.00000E+00
 -1      3530 1.32285E+02 1.30992E+01 0.00000E+00
 -1      3531 1.30785E+02 1.30992E+01 0.00000E+00
 -1      3532 1.35285E+02 1.30992E+01 0.00000E+00
 -1      3533 1.33785E+02 1.30992E+01 0.00000E+00
 -1      3534 1.33035E+02 1.43982E+01 0.00000E+00
 -1      3535 1.38528E+02 1.44149E+01 0.00000E+00
 -1      3536 1.38594E+02 1.31746E+01 0.00000E+00
 -1      3537 1.37668E+02 1.30636E+01 0.00000E+00
 -1      3538 1.37229E+02 1.51462E+01 0.00000E+00
 -1      3539 9.40727E+01 2.93527E+01 0.00000E+00
 -1      3540 9.38827E+01 2.79111E+01 0.00000E+00
 -1      3541 1.35711E+02 3.30875E+01 0.00000E+00
 -1      3542 1.35711E+02 3.16125E+01 0.00000E+00
 -1      3543 1.25508E+02 2.28286E+01 0.00000E+00
 -1      3544 1.25655E+02 2.45612E+01 0.00000E+00
 -1      3545 3.02850E+01 1.30992E+01 0.00000E+00
 -1      3546 2.87850E+01 1.30992E+01 0.00000E+00
 -1      3547 1.29285E+02 1.30992E+01 0.00000E+00
 -1      3548 1.27785E+02 1.30992E+01 0.00000E+00
 -1      3549 1.30035E+02 1.43982E+01 0.00000E+00
 -1      3550 1.26317E+02 1.36305E+01 0.00000E+00
 -1      3551 1.24817E+02 1.36305E+01 0.00000E+00
 -1      3552 1.24131E+02 1.59920E+01 0.00000E+00
 -1      3553 1.27067E+02 1.49295E+01 0.00000E+00
 -1      3554 1.74000E+01 3.57110E+01 0.00000E+00
 -1      3555 1.89000E+01 3.57110E+01 0.00000E+00
 -1      3556 1.24125E+02 3.22906E+01 0.00000E+00
 -1      3557 1.23397E+02 3.36797E+01 0.00000E+00
 -1      3558 1.23387E+02 3.54540E+01 0.00000E+00
 -1      3559 3.32850E+01 1.30992E+01 0.00000E+00
 -1      3560 3.17850E+01 1.30992E+01 0.00000E+00
 -1      3561 3.40350E+01 1.43982E+01 0.00000E+00
 -1      3562 1.24659E+02 3.52357E+01 0.00000E+00
 -1      3563 1.26159E+02 3.52357E+01 0.00000E+00
 -1      3564 9.72413E+01 3.44652E+01 0.00000E+00
 -1      3565 9.60208E+01 3.42164E+01 0.00000E+00
 -1      3566 9.39200E+01 2.59853E+01 0.00000E+00
 -1      3567 9.44158E+01 2.45418E+01 0.00000E+00
 -1      3568 2.04000E+01 3.57110E+01 0.00000E+00
 -1      3569 2.19000E+01 3.57110E+01 0.00000E+00
 -1      3570 2.26500E+01 3.44120E+01 0.00000E+00
 -1      3571 9.44751E+01 3.24692E+01 0.00000E+00
 -1      3572 9.42179E+01 3.09007E+01 0.00000E+00
 -1      3573 9.46777E+01 1.96134E+01 0.00000E+00
 -1      3574 9.52905E+01 1.81826E+01 0.00000E+00
 -1      3575 9.73873E+01 3.52910E+01 0.00000E+00
 -1      3576 9.61142E+01 1.61676E+01 0.00000E+00
 -1      3577 9.71066E+01 1.48658E+01 0.00000E+00
 -1      3578 1.24921E+02 2.94015E+01 0.00000E+00
 -1      3579 1.24701E+02 3.06640E+01 0.00000E+00
 -1      3580 1.21786E+01 3.60821E+01 0.00000E+00
 -1      3581 1.48763E+01 1.22006E+01 0.00000E+00
 -1      3582 1.44900E+01 1.32000E+01 0.00000E+00
 -1      3583 1.63762E+01 1.22006E+01 0.00000E+00
 -1      3584 1.24292E+02 1.91464E+01 0.00000E+00
 -1      3585 1.24987E+02 2.07579E+01 0.00000E+00
 -1      3586 9.47882E+01 3.48786E+01 0.00000E+00
 -1      3587 9.43827E+01 3.37498E+01 0.00000E+00
 -1      3588 9.31897E+01 3.03028E+01 0.00000E+00
 -1      3589 1.17558E+02 1.29513E+01 0.00000E+00
 -1      3590 1.29900E+01 2.64469E+01 0.00000E+00
 -1      3591 1.26127E+02 2.87928E+01 0.00000E+00
 -1      3592 3.10350E+01 1.43982E+01 0.00000E+00
 -1      3593 1.26909E+02 3.39367E+01 0.00000E+00
 -1      3594 3.70350E+01 1.43982E+01 0.00000E+00
 -1      3595 1.34022E+02 3.59901E+01 0.00000E+00
 -1      3596 1.35329E+02 3.61011E+01 0.00000E+00
 -1      3597 1.35515E+02 3.52494E+01 0.00000E+00
 -1      3598 1.33272E+02 3.46911E+01 0.00000E+00
 -1      3599 1.26644E+02 2.54825E+01 0.00000E+00
 -1      3600 9.78566E+01 1.35668E+01 0.00000E+00
 -1      3601 1.42890E+01 2.27625E+01 0.00000E+00
 -1      3602 1.42890E+01 2.42375E+01 0.00000E+00
 -1      3603 1.60576E+01 3.56568E+01 0.00000E+00
 -1      3604 1.68076E+01 3.43578E+01 0.00000E+00
 -1      3605 1.47152E+01 3.56027E+01 0.00000E+00
 -1      3606 1.42890E+01 1.98250E+01 0.00000E+00
 -1      3607 1.42890E+01 2.12938E+01 0.00000E+00
 -1      3608 1.55880E+01 2.20313E+01 0.00000E+00
 -1      3609 1.35773E+02 1.52929E+01 0.00000E+00
 -1      3610 1.35992E+02 1.42516E+01 0.00000E+00
 -1      3611 1.36742E+02 1.29526E+01 0.00000E+00
 -1      3612 1.35711E+02 2.42891E+01 0.00000E+00
 -1      3613 1.35711E+02 2.28172E+01 0.00000E+00
 -1      3614 1.34412E+02 3.08875E+01 0.00000E+00
 -1      3615 1.35711E+02 3.01500E+01 0.00000E+00
 -1      3616 1.35711E+02 2.86875E+01 0.00000E+00
 -1      3617 1.35711E+02 2.72195E+01 0.00000E+00
 -1      3618 1.35711E+02 2.57570E+01 0.00000E+00
 -1      3619 1.34412E+02 2.50211E+01 0.00000E+00
 -1      3620 1.34412E+02 2.79570E+01 0.00000E+00
 -1      3621 2.12293E+01 1.30161E+01 0.00000E+00
 -1      3622 1.99111E+01 1.28663E+01 0.00000E+00
 -1      3623 1.44900E+01 1.46719E+01 0.00000E+00
 -1      3624 2.72850E+01 1.30992E+01 0.00000E+00
 -1      3625 2.57850E+01 1.30992E+01 0.00000E+00
 -1      3626 2.80350E+01 1.43982E+01 0.00000E+00
 -1      3627 9.40765E+01 2.03273E+01 0.00000E+00
 -1      3628 9.32866E+01 1.91423E+01 0.00000E+00
 -1      3629 9.34753E+01 2.10413E+01 0.00000E+00
 -1      3630 9.30818E+01 2.68291E+01 0.00000E+00
 -1      3631 9.22808E+01 2.57472E+01 0.00000E+00
 -1      3632 9.22435E+01 2.76729E+01 0.00000E+00
 -1      3633 1.96500E+01 3.44120E+01 0.00000E+00
 -1      3634 1.25245E+02 3.18347E+01 0.00000E+00
 -1      3635 2.42850E+01 1.30992E+01 0.00000E+00
 -1      3636 2.27850E+01 1.30992E+01 0.00000E+00
 -1      3637 2.50350E+01 1.43982E+01 0.00000E+00
 -1      3638 9.32425E+01 3.31314E+01 0.00000E+00
 -1      3639 1.24184E+02 1.69883E+01 0.00000E+00
 -1      3640 1.24239E+02 1.81501E+01 0.00000E+00
 -1      3641 1.25758E+02 1.84498E+01 0.00000E+00
 -1      3642 1.25652E+02 1.64571E+01 0.00000E+00
 -1      3643 9.36922E+01 2.35648E+01 0.00000E+00
 -1      3644 1.26332E+02 2.15169E+01 0.00000E+00
 -1      3645 1.42890E+01 2.86531E+01 0.00000E+00
 -1      3646 1.42890E+01 3.01219E+01 0.00000E+00
 -1      3647 9.47114E+01 1.64133E+01 0.00000E+00
 -1      3648 1.55266E+01 3.18456E+01 0.00000E+00
 -1      3649 1.42276E+01 3.25800E+01 0.00000E+00
 -1      3650 2.19793E+01 1.43151E+01 0.00000E+00
 -1      3651 1.35773E+02 1.82429E+01 0.00000E+00
 -1      3652 1.35773E+02 1.67679E+01 0.00000E+00
 -1      3653 1.34535E+02 1.58733E+01 0.00000E+00
 -1      3654 2.79000E+01 3.31130E+01 0.00000E+00
 -1      3655 2.94000E+01 3.31130E+01 0.00000E+00
 -1      3656 3.09000E+01 3.31130E+01 0.00000E+00
 -1      3657 3.24000E+01 3.31130E+01 0.00000E+00
 -1      3658 3.01500E+01 3.18140E+01 0.00000E+00
 -1      3659 3.39000E+01 3.31130E+01 0.00000E+00
 -1      3660 3.54000E+01 3.31130E+01 0.00000E+00
 -1      3661 3.31500E+01 3.18140E+01 0.00000E+00
 -1      3662 3.69000E+01 3.31130E+01 0.00000E+00
 -1      3663 3.84000E+01 3.31130E+01 0.00000E+00
 -1      3664 3.61500E+01 3.18140E+01 0.00000E+00
 -1      3665 3.99000E+01 3.31130E+01 0.00000E+00
 -1      3666 4.14000E+01 3.31130E+01 0.00000E+00
 -1      3667 3.91500E+01 3.18140E+01 0.00000E+00
 -1      3668 4.29000E+01 3.31130E+01 0.00000E+00
 -1      3669 4.44000E+01 3.31130E+01 0.00000E+00
 -1      3670 4.21500E+01 3.18140E+01 0.00000E+00
 -1      3671 4.59000E+01 3.31130E+01 0.00000E+00
 -1      3672 4.74000E+01 3.31130E+01 0.00000E+00
 -1      3673 4.51500E+01 3.18140E+01 0.00000E+00
 -1      3674 4.89000E+01 3.31130E+01 0.00000E+00
 -1      3675 5.04000E+01 3.31130E+01 0.00000E+00
 -1      3676 4.81500E+01 3.18140E+01 0.00000E+00
 -1      3677 5.19000E+01 3.31130E+01 0.00000E+00
 -1      3678 5.34000E+01 3.31130E+01 0.00000E+00
 -1      3679 5.11500E+01 3.18140E+01 0.00000E+00
 -1      3680 5.49000E+01 3.31130E+01 0.00000E+00
 -1      3681 5.64000E+01 3.31130E+01 0.00000E+00
 -1      3682 5.41500E+01 3.18140E+01 0.00000E+00
 -1      3683 5.79000E+01 3.31130E+01 0.00000E+00
 -1      3684 5.94000E+01 3.31130E+01 0.00000E+00
 -1      3685 5.71500E+01 3.18140E+01 0.00000E+00
 -1      3686 6.09000E+01 3.31130E+01 0.00000E+00
 -1      3687 6.24000E+01 3.31130E+01 0.00000E+00
 -1      3688 6.01500E+01 3.18140E+01 0.00000E+00
 -1      3689 6.39000E+01 3.31130E+01 0.00000E+00
 -1      3690 6.54000E+01 3.31130E+01 0.00000E+00
 -1      3691 6.31500E+01 3.18140E+01 0.00000E+00
 -1      3692 6.69000E+01 3.31130E+01 0.00000E+00
 -1      3693 6.84000E+01 3.31130E+01 0.00000E+00
 -1      3694 6.61500E+01 3.18140E+01 0.00000E+00
 -1      3695 6.99000E+01 3.31130E+01 0.00000E+00
 -1      3696 7.14000E+01 3.31130E+01 0.00000E+00
 -1      3697 6.91500E+01 3.18140E+01 0.00000E+00
 -1      3698 7.29000E+01 3.31130E+01 0.00000E+00
 -1      3699 7.44000E+01 3.31130E+01 0.00000E+00
 -1      3700 7.21500E+01 3.18140E+01 0.00000E+00
 -1      3701 7.59000E+01 3.31130E+01 0.00000E+00
 -1      3702 7.74000E+01 3.31130E+01 0.00000E+00
 -1      3703 7.51500E+01 3.18140E+01 0.00000E+00
 -1      3704 7.89000E+01 3.31130E+01 0.00000E+00
 -1      3705 8.04000E+01 3.31130E+01 0.00000E+00
 -1      3706 7.81500E+01 3.18140E+01 0.00000E+00
 -1      3707 8.19000E+01 3.31130E+01 0.00000E+00
 -1      3708 8.34000E+01 3.31130E+01 0.00000E+00
 -1      3709 8.11500E+01 3.18140E+01 0.00000E+00
 -1      3710 8.49000E+01 3.31130E+01 0.00000E+00
 -1      3711 8.64000E+01 3.31130E+01 0.00000E+00
 -1      3712 8.41500E+01 3.18140E+01 0.00000E+00
 -1      3713 8.79000E+01 3.31130E+01 0.00000E+00
 -1      3714 8.94000E+01 3.31130E+01 0.00000E+00
 -1      3715 8.71500E+01 3.18140E+01 0.00000E+00
 -1      3716 9.05712E+01 3.31222E+01 0.00000E+00
 -1      3717 9.20712E+01 3.31222E+01 0.00000E+00
 -1      3718 9.21637E+01 3.18416E+01 0.00000E+00
 -1      3719 8.98212E+01 3.18232E+01 0.00000E+00
 -1      3720 4.67850E+01 1.56973E+01 0.00000E+00
 -1      3721 4.52850E+01 1.56973E+01 0.00000E+00
 -1      3722 1.35702E+02 3.43976E+01 0.00000E+00
 -1      3723 1.29900E+02 3.31130E+01 0.00000E+00
 -1      3724 1.31400E+02 3.31130E+01 0.00000E+00
 -1      3725 1.28017E+02 2.46756E+01 0.00000E+00
 -1      3726 1.27807E+02 2.65706E+01 0.00000E+00
 -1      3727 1.33281E+02 3.33810E+01 0.00000E+00
 -1      3728 1.34403E+02 3.36601E+01 0.00000E+00
 -1      3729 1.21059E+02 1.53335E+01 0.00000E+00
 -1      3730 4.37850E+01 1.56973E+01 0.00000E+00
 -1      3731 4.22850E+01 1.56973E+01 0.00000E+00
 -1      3732 4.45350E+01 1.69963E+01 0.00000E+00
 -1      3733 5.27850E+01 1.56973E+01 0.00000E+00
 -1      3734 5.12850E+01 1.56973E+01 0.00000E+00
 -1      3735 5.57850E+01 1.56973E+01 0.00000E+00
 -1      3736 5.42850E+01 1.56973E+01 0.00000E+00
 -1      3737 5.35350E+01 1.69963E+01 0.00000E+00
 -1      3738 5.87850E+01 1.56973E+01 0.00000E+00
 -1      3739 5.72850E+01 1.56973E+01 0.00000E+00
 -1      3740 5.65350E+01 1.69963E+01 0.00000E+00
 -1      3741 6.17850E+01 1.56973E+01 0.00000E+00
 -1      3742 6.02850E+01 1.56973E+01 0.00000E+00
 -1      3743 5.95350E+01 1.69963E+01 0.00000E+00
 -1      3744 6.47850E+01 1.56973E+01 0.00000E+00
 -1      3745 6.32850E+01 1.56973E+01 0.00000E+00
 -1      3746 6.25350E+01 1.69963E+01 0.00000E+00
 -1      3747 6.77850E+01 1.56973E+01 0.00000E+00
 -1      3748 6.62850E+01 1.56973E+01 0.00000E+00
 -1      3749 6.55350E+01 1.69963E+01 0.00000E+00
 -1      3750 7.07850E+01 1.56973E+01 0.00000E+00
 -1      3751 6.92850E+01 1.56973E+01 0.00000E+00
 -1      3752 6.85350E+01 1.69963E+01 0.00000E+00
 -1      3753 7.37850E+01 1.56973E+01 0.00000E+00
 -1      3754 7.22850E+01 1.56973E+01 0.00000E+00
 -1      3755 7.15350E+01 1.69963E+01 0.00000E+00
 -1      3756 7.67850E+01 1.56973E+01 0.00000E+00
 -1      3757 7.52850E+01 1.56973E+01 0.00000E+00
 -1      3758 7.45350E+01 1.69963E+01 0.00000E+00
 -1      3759 7.97850E+01 1.56973E+01 0.00000E+00
 -1      3760 7.82850E+01 1.56973E+01 0.00000E+00
 -1      3761 7.75350E+01 1.69963E+01 0.00000E+00
 -1      3762 8.27850E+01 1.56973E+01 0.00000E+00
 -1      3763 8.12850E+01 1.56973E+01 0.00000E+00
 -1      3764 8.05350E+01 1.69963E+01 0.00000E+00
 -1      3765 8.57850E+01 1.56973E+01 0.00000E+00
 -1      3766 8.42850E+01 1.56973E+01 0.00000E+00
 -1      3767 8.35350E+01 1.69963E+01 0.00000E+00
 -1      3768 8.87850E+01 1.56973E+01 0.00000E+00
 -1      3769 8.72850E+01 1.56973E+01 0.00000E+00
 -1      3770 8.65350E+01 1.69963E+01 0.00000E+00
 -1      3771 9.17850E+01 1.56973E+01 0.00000E+00
 -1      3772 9.02850E+01 1.56973E+01 0.00000E+00
 -1      3773 8.95350E+01 1.69963E+01 0.00000E+00
 -1      3774 9.32114E+01 1.64133E+01 0.00000E+00
 -1      3775 1.34412E+02 2.20812E+01 0.00000E+00
 -1      3776 1.35711E+02 2.13453E+01 0.00000E+00
 -1      3777 1.35711E+02 1.98734E+01 0.00000E+00
 -1      3778 1.42890E+01 1.68813E+01 0.00000E+00
 -1      3779 1.42890E+01 1.83531E+01 0.00000E+00
 -1      3780 1.55880E+01 1.90906E+01 0.00000E+00
 -1      3781 2.49000E+01 3.31130E+01 0.00000E+00
 -1      3782 2.64000E+01 3.31130E+01 0.00000E+00
 -1      3783 2.71500E+01 3.18140E+01 0.00000E+00
 -1      3784 3.77850E+01 1.56973E+01 0.00000E+00
 -1      3785 3.62850E+01 1.56973E+01 0.00000E+00
 -1      3786 1.32531E+02 3.20820E+01 0.00000E+00
 -1      3787 9.23292E+01 2.37184E+01 0.00000E+00
 -1      3788 9.29023E+01 2.23798E+01 0.00000E+00
 -1      3789 9.21124E+01 2.11948E+01 0.00000E+00
 -1      3790 1.33035E+02 1.58733E+01 0.00000E+00
 -1      3791 3.17850E+01 1.56973E+01 0.00000E+00
 -1      3792 3.02850E+01 1.56973E+01 0.00000E+00
 -1      3793 1.57890E+01 1.54094E+01 0.00000E+00
 -1      3794 1.30785E+02 1.56973E+01 0.00000E+00
 -1      3795 1.29285E+02 1.56973E+01 0.00000E+00
 -1      3796 1.88028E+01 1.26083E+01 0.00000E+00
 -1      3797 1.74846E+01 1.24585E+01 0.00000E+00
 -1      3798 1.70984E+01 1.34580E+01 0.00000E+00
 -1      3799 1.93152E+01 1.39739E+01 0.00000E+00
 -1      3800 1.27364E+02 2.83197E+01 0.00000E+00
 -1      3801 1.27058E+02 2.97350E+01 0.00000E+00
 -1      3802 1.27485E+02 3.23100E+01 0.00000E+00
 -1      3803 1.89000E+01 3.31130E+01 0.00000E+00
 -1      3804 2.04000E+01 3.31130E+01 0.00000E+00
 -1      3805 3.47850E+01 1.56973E+01 0.00000E+00
 -1      3806 3.32850E+01 1.56973E+01 0.00000E+00
 -1      3807 3.55350E+01 1.69963E+01 0.00000E+00
 -1      3808 1.42890E+01 2.57094E+01 0.00000E+00
 -1      3809 1.42890E+01 2.71812E+01 0.00000E+00
 -1      3810 1.55880E+01 2.79156E+01 0.00000E+00
 -1      3811 1.55880E+01 2.49719E+01 0.00000E+00
 -1      3812 9.20184E+01 3.02936E+01 0.00000E+00
 -1      3813 1.27332E+02 2.01645E+01 0.00000E+00
 -1      3814 1.27853E+02 2.22352E+01 0.00000E+00
 -1      3815 2.19000E+01 3.31130E+01 0.00000E+00
 -1      3816 2.34000E+01 3.31130E+01 0.00000E+00
 -1      3817 2.41500E+01 3.18140E+01 0.00000E+00
 -1      3818 1.42276E+01 3.40487E+01 0.00000E+00
 -1      3819 2.26878E+01 1.56538E+01 0.00000E+00
 -1      3820 2.11320E+01 1.55706E+01 0.00000E+00
 -1      3821 1.34776E+01 3.53477E+01 0.00000E+00
 -1      3822 4.97850E+01 1.56973E+01 0.00000E+00
 -1      3823 4.82850E+01 1.56973E+01 0.00000E+00
 -1      3824 4.75350E+01 1.69963E+01 0.00000E+00
 -1      3825 5.05350E+01 1.69963E+01 0.00000E+00
 -1      3826 4.07850E+01 1.56973E+01 0.00000E+00
 -1      3827 3.92850E+01 1.56973E+01 0.00000E+00
 -1      3828 4.15350E+01 1.69963E+01 0.00000E+00
 -1      3829 9.24614E+01 1.77123E+01 0.00000E+00
 -1      3830 1.29016E+02 2.33233E+01 0.00000E+00
 -1      3831 3.25350E+01 1.69963E+01 0.00000E+00
 -1      3832 1.28738E+02 2.75128E+01 0.00000E+00
 -1      3833 2.95350E+01 1.69963E+01 0.00000E+00
 -1      3834 2.87850E+01 1.56973E+01 0.00000E+00
 -1      3835 2.72850E+01 1.56973E+01 0.00000E+00
 -1      3836 1.68870E+01 2.42359E+01 0.00000E+00
 -1      3837 1.68870E+01 2.57078E+01 0.00000E+00
 -1      3838 1.33113E+02 2.28172E+01 0.00000E+00
 -1      3839 1.33113E+02 2.13453E+01 0.00000E+00
 -1      3840 1.32531E+02 3.06195E+01 0.00000E+00
 -1      3841 3.85350E+01 1.69963E+01 0.00000E+00
 -1      3842 1.27817E+02 1.62285E+01 0.00000E+00
 -1      3843 1.65421E+01 3.24522E+01 0.00000E+00
 -1      3844 1.78845E+01 3.25064E+01 0.00000E+00
 -1      3845 1.86345E+01 3.12074E+01 0.00000E+00
 -1      3846 1.66035E+01 2.99941E+01 0.00000E+00
 -1      3847 9.14909E+01 2.45622E+01 0.00000E+00
 -1      3848 9.07010E+01 2.33772E+01 0.00000E+00
 -1      3849 9.06527E+01 2.54060E+01 0.00000E+00
 -1      3850 2.00237E+01 1.53126E+01 0.00000E+00
 -1      3851 1.89153E+01 1.50547E+01 0.00000E+00
 -1      3852 2.07321E+01 1.66514E+01 0.00000E+00
 -1      3853 1.33113E+02 2.57531E+01 0.00000E+00
 -1      3854 1.33113E+02 2.42852E+01 0.00000E+00
 -1      3855 1.31814E+02 2.35492E+01 0.00000E+00
 -1      3856 1.32285E+02 1.71723E+01 0.00000E+00
 -1      3857 9.18602E+01 1.84262E+01 0.00000E+00
 -1      3858 1.68870E+01 2.12984E+01 0.00000E+00
 -1      3859 1.68870E+01 2.27672E+01 0.00000E+00
 -1      3860 1.81860E+01 2.35031E+01 0.00000E+00
 -1      3861 2.57850E+01 1.56973E+01 0.00000E+00
 -1      3862 2.42850E+01 1.56973E+01 0.00000E+00
 -1      3863 2.65350E+01 1.69963E+01 0.00000E+00
 -1      3864 1.27654E+02 3.04666E+01 0.00000E+00
 -1      3865 1.29318E+02 3.25686E+01 0.00000E+00
 -1      3866 2.11500E+01 3.18140E+01 0.00000E+00
 -1      3867 1.68870E+01 2.71797E+01 0.00000E+00
 -1      3868 1.68870E+01 2.86516E+01 0.00000E+00
 -1      3869 1.81860E+01 2.64438E+01 0.00000E+00
 -1      3870 1.27923E+02 1.82212E+01 0.00000E+00
 -1      3871 1.29443E+02 1.89396E+01 0.00000E+00
 -1      3872 1.79025E+01 2.92582E+01 0.00000E+00
 -1      3873 1.34473E+02 1.89788E+01 0.00000E+00
 -1      3874 2.34378E+01 1.69528E+01 0.00000E+00
 -1      3875 9.05194E+01 3.05174E+01 0.00000E+00
 -1      3876 9.15453E+01 2.89787E+01 0.00000E+00
 -1      3877 9.07444E+01 2.78967E+01 0.00000E+00
 -1      3878 8.93481E+01 3.05082E+01 0.00000E+00
 -1      3879 9.55382E+01 3.61776E+01 0.00000E+00
 -1      3880 3.24000E+01 3.05150E+01 0.00000E+00
 -1      3881 3.39000E+01 3.05150E+01 0.00000E+00
 -1      3882 3.54000E+01 3.05150E+01 0.00000E+00
 -1      3883 3.69000E+01 3.05150E+01 0.00000E+00
 -1      3884 3.46500E+01 2.92160E+01 0.00000E+00
 -1      3885 3.84000E+01 3.05150E+01 0.00000E+00
 -1      3886 3.99000E+01 3.05150E+01 0.00000E+00
 -1      3887 3.76500E+01 2.92160E+01 0.00000E+00
 -1      3888 4.14000E+01 3.05150E+01 0.00000E+00
 -1      3889 4.29000E+01 3.05150E+01 0.00000E+00
 -1      3890 4.06500E+01 2.92160E+01 0.00000E+00
 -1      3891 4.44000E+01 3.05150E+01 0.00000E+00
 -1      3892 4.59000E+01 3.05150E+01 0.00000E+00
 -1      3893 4.36500E+01 2.92160E+01 0.00000E+00
 -1      3894 4.74000E+01 3.05150E+01 0.00000E+00
 -1      3895 4.89000E+01 3.05150E+01 0.00000E+00
 -1      3896 4.66500E+01 2.92160E+01 0.00000E+00
 -1      3897 5.04000E+01 3.05150E+01 0.00000E+00
 -1      3898 5.19000E+01 3.05150E+01 0.00000E+00
 -1      3899 4.96500E+01 2.92160E+01 0.00000E+00
 -1      3900 5.34000E+01 3.05150E+01 0.00000E+00
 -1      3901 5.49000E+01 3.05150E+01 0.00000E+00
 -1      3902 5.26500E+01 2.92160E+01 0.00000E+00
 -1      3903 5.64000E+01 3.05150E+01 0.00000E+00
 -1      3904 5.79000E+01 3.05150E+01 0.00000E+00
 -1      3905 5.56500E+01 2.92160E+01 0.00000E+00
 -1      3906 5.94000E+01 3.05150E+01 0.00000E+00
 -1      3907 6.09000E+01 3.05150E+01 0.00000E+00
 -1      3908 5.86500E+01 2.92160E+01 0.00000E+00
 -1      3909 6.24000E+01 3.05150E+01 0.00000E+00
 -1      3910 6.39000E+01 3.05150E+01 0.00000E+00
 -1      3911 6.16500E+01 2.92160E+01 0.00000E+00
 -1      3912 6.54000E+01 3.05150E+01 0.00000E+00
 -1      3913 6.69000E+01 3.05150E+01 0.00000E+00
 -1      3914 6.46500E+01 2.92160E+01 0.00000E+00
 -1      3915 6.84000E+01 3.05150E+01 0.00000E+00
 -1      3916 6.99000E+01 3.05150E+01 0.00000E+00
 -1      3917 6.76500E+01 2.92160E+01 0.00000E+00
 -1      3918 7.14000E+01 3.05150E+01 0.00000E+00
 -1      3919 7.29000E+01 3.05150E+01 0.00000E+00
 -1      3920 7.06500E+01 2.92160E+01 0.00000E+00
 -1      3921 7.44000E+01 3.05150E+01 0.00000E+00
 -1      3922 7.59000E+01 3.05150E+01 0.00000E+00
 -1      3923 7.36500E+01 2.92160E+01 0.00000E+00
 -1      3924 7.74000E+01 3.05150E+01 0.00000E+00
 -1      3925 7.89000E+01 3.05150E+01 0.00000E+00
 -1      3926 7.66500E+01 2.92160E+01 0.00000E+00
 -1      3927 8.04000E+01 3.05150E+01 0.00000E+00
 -1      3928 8.19000E+01 3.05150E+01 0.00000E+00
 -1      3929 7.96500E+01 2.92160E+01 0.00000E+00
 -1      3930 8.34000E+01 3.05150E+01 0.00000E+00
 -1      3931 8.49000E+01 3.05150E+01 0.00000E+00
 -1      3932 8.26500E+01 2.92160E+01 0.00000E+00
 -1      3933 8.63741E+01 3.05116E+01 0.00000E+00
 -1      3934 8.78741E+01 3.05116E+01 0.00000E+00
 -1      3935 8.85722E+01 2.92059E+01 0.00000E+00
 -1      3936 8.56241E+01 2.92126E+01 0.00000E+00
 -1      3937 3.32850E+01 1.82952E+01 0.00000E+00
 -1      3938 3.17850E+01 1.82952E+01 0.00000E+00
 -1      3939 1.32223E+02 1.88028E+01 0.00000E+00
 -1      3940 9.07294E+01 2.13947E+01 0.00000E+00
 -1      3941 9.13025E+01 2.00561E+01 0.00000E+00
 -1      3942 4.52850E+01 1.82952E+01 0.00000E+00
 -1      3943 4.37850E+01 1.82952E+01 0.00000E+00
 -1      3944 5.72850E+01 1.82952E+01 0.00000E+00
 -1      3945 5.57850E+01 1.82952E+01 0.00000E+00
 -1      3946 5.42850E+01 1.82952E+01 0.00000E+00
 -1      3947 5.27850E+01 1.82952E+01 0.00000E+00
 -1      3948 5.50350E+01 1.95942E+01 0.00000E+00
 -1      3949 6.32850E+01 1.82952E+01 0.00000E+00
 -1      3950 6.17850E+01 1.82952E+01 0.00000E+00
 -1      3951 6.62850E+01 1.82952E+01 0.00000E+00
 -1      3952 6.47850E+01 1.82952E+01 0.00000E+00
 -1      3953 6.40350E+01 1.95942E+01 0.00000E+00
 -1      3954 6.92850E+01 1.82952E+01 0.00000E+00
 -1      3955 6.77850E+01 1.82952E+01 0.00000E+00
 -1      3956 6.70350E+01 1.95942E+01 0.00000E+00
 -1      3957 7.22850E+01 1.82952E+01 0.00000E+00
 -1      3958 7.07850E+01 1.82952E+01 0.00000E+00
 -1      3959 7.00350E+01 1.95942E+01 0.00000E+00
 -1      3960 7.52850E+01 1.82952E+01 0.00000E+00
 -1      3961 7.37850E+01 1.82952E+01 0.00000E+00
 -1      3962 7.30350E+01 1.95942E+01 0.00000E+00
 -1      3963 7.82850E+01 1.82952E+01 0.00000E+00
 -1      3964 7.67850E+01 1.82952E+01 0.00000E+00
 -1      3965 7.60350E+01 1.95942E+01 0.00000E+00
 -1      3966 8.12850E+01 1.82952E+01 0.00000E+00
 -1      3967 7.97850E+01 1.82952E+01 0.00000E+00
 -1      3968 7.90350E+01 1.95942E+01 0.00000E+00
 -1      3969 8.42850E+01 1.82952E+01 0.00000E+00
 -1      3970 8.27850E+01 1.82952E+01 0.00000E+00
 -1      3971 8.20350E+01 1.95942E+01 0.00000E+00
 -1      3972 8.72850E+01 1.82952E+01 0.00000E+00
 -1      3973 8.57850E+01 1.82952E+01 0.00000E+00
 -1      3974 8.50350E+01 1.95942E+01 0.00000E+00
 -1      3975 9.04772E+01 1.86261E+01 0.00000E+00
 -1      3976 8.89772E+01 1.86261E+01 0.00000E+00
 -1      3977 1.68870E+01 1.83547E+01 0.00000E+00
 -1      3978 1.68870E+01 1.98266E+01 0.00000E+00
 -1      3979 1.81860E+01 2.05625E+01 0.00000E+00
 -1      3980 2.64000E+01 3.05150E+01 0.00000E+00
 -1      3981 2.79000E+01 3.05150E+01 0.00000E+00
 -1      3982 3.92850E+01 1.82952E+01 0.00000E+00
 -1      3983 3.77850E+01 1.82952E+01 0.00000E+00
 -1      3984 1.33113E+02 2.86891E+01 0.00000E+00
 -1      3985 1.33113E+02 2.72211E+01 0.00000E+00
 -1      3986 1.31814E+02 2.64852E+01 0.00000E+00
 -1      3987 1.70932E+01 1.48016E+01 0.00000E+00
 -1      3988 1.68922E+01 1.70110E+01 0.00000E+00
 -1      3989 1.81912E+01 1.77470E+01 0.00000E+00
 -1      3990 1.82016E+01 1.50596E+01 0.00000E+00
 -1      3991 1.89180E+01 2.98648E+01 0.00000E+00
 -1      3992 1.99335E+01 3.04714E+01 0.00000E+00
 -1      3993 1.92015E+01 2.85222E+01 0.00000E+00
 -1      3994 3.62850E+01 1.82952E+01 0.00000E+00
 -1      3995 3.47850E+01 1.82952E+01 0.00000E+00
 -1      3996 3.70350E+01 1.95942E+01 0.00000E+00
 -1      3997 2.14335E+01 3.04714E+01 0.00000E+00
 -1      3998 1.92015E+01 2.55785E+01 0.00000E+00
 -1      3999 1.92015E+01 2.70504E+01 0.00000E+00
 -1      4000 2.02170E+01 2.76570E+01 0.00000E+00
 -1      4001 4.22850E+01 1.82952E+01 0.00000E+00
 -1      4002 4.07850E+01 1.82952E+01 0.00000E+00
 -1      4003 4.30350E+01 1.95942E+01 0.00000E+00
 -1      4004 2.34000E+01 3.05150E+01 0.00000E+00
 -1      4005 2.49000E+01 3.05150E+01 0.00000E+00
 -1      4006 2.56500E+01 2.92160E+01 0.00000E+00
 -1      4007 1.30333E+02 2.14821E+01 0.00000E+00
 -1      4008 1.30497E+02 2.39225E+01 0.00000E+00
 -1      4009 2.42011E+01 1.82730E+01 0.00000E+00
 -1      4010 2.26038E+01 1.82296E+01 0.00000E+00
 -1      4011 6.02850E+01 1.82952E+01 0.00000E+00
 -1      4012 5.87850E+01 1.82952E+01 0.00000E+00
 -1      4013 6.10350E+01 1.95942E+01 0.00000E+00
 -1      4014 2.94000E+01 3.05150E+01 0.00000E+00
 -1      4015 3.09000E+01 3.05150E+01 0.00000E+00
 -1      4016 3.16500E+01 2.92160E+01 0.00000E+00
 -1      4017 1.30924E+02 1.95387E+01 0.00000E+00
 -1      4018 5.80350E+01 1.95942E+01 0.00000E+00
 -1      4019 4.67850E+01 1.82952E+01 0.00000E+00
 -1      4020 4.60350E+01 1.95942E+01 0.00000E+00
 -1      4021 4.82850E+01 1.82952E+01 0.00000E+00
 -1      4022 8.98911E+01 2.22385E+01 0.00000E+00
 -1      4023 8.90812E+01 2.10998E+01 0.00000E+00
 -1      4024 8.90528E+01 2.30823E+01 0.00000E+00
 -1      4025 1.30068E+02 3.12696E+01 0.00000E+00
 -1      4026 3.02850E+01 1.82952E+01 0.00000E+00
 -1      4027 2.87850E+01 1.82952E+01 0.00000E+00
 -1      4028 3.10350E+01 1.95942E+01 0.00000E+00
 -1      4029 8.92634E+01 2.79588E+01 0.00000E+00
 -1      4030 8.99615E+01 2.66530E+01 0.00000E+00
 -1      4031 8.91716E+01 2.54680E+01 0.00000E+00
 -1      4032 8.77893E+01 2.79622E+01 0.00000E+00
 -1      4033 5.20350E+01 1.95942E+01 0.00000E+00
 -1      4034 5.12850E+01 1.82952E+01 0.00000E+00
 -1      4035 4.97850E+01 1.82952E+01 0.00000E+00
 -1      4036 8.82272E+01 1.99251E+01 0.00000E+00
 -1      4037 1.31232E+02 2.98836E+01 0.00000E+00
 -1      4038 4.00350E+01 1.95942E+01 0.00000E+00
 -1      4039 1.30497E+02 2.53904E+01 0.00000E+00
 -1      4040 2.21835E+01 2.91724E+01 0.00000E+00
 -1      4041 2.14954E+01 1.79716E+01 0.00000E+00
 -1      4042 2.03871E+01 1.77137E+01 0.00000E+00
 -1      4043 2.22587E+01 1.92919E+01 0.00000E+00
 -1      4044 1.28891E+02 2.99935E+01 0.00000E+00
 -1      4045 2.86500E+01 2.92160E+01 0.00000E+00
 -1      4046 2.72850E+01 1.82952E+01 0.00000E+00
 -1      4047 2.57850E+01 1.82952E+01 0.00000E+00
 -1      4048 2.80350E+01 1.95942E+01 0.00000E+00
 -1      4049 2.49511E+01 1.95720E+01 0.00000E+00
 -1      4050 1.92015E+01 2.26410E+01 0.00000E+00
 -1      4051 1.92015E+01 2.41098E+01 0.00000E+00
 -1      4052 2.02170E+01 2.47164E+01 0.00000E+00
 -1      4053 1.30497E+02 2.68584E+01 0.00000E+00
 -1      4054 1.30054E+02 2.86075E+01 0.00000E+00
 -1      4055 1.27870E+02 1.72248E+01 0.00000E+00
 -1      4056 3.40350E+01 1.95942E+01 0.00000E+00
 -1      4057 1.30650E+02 2.93391E+01 0.00000E+00
 -1      4058 3.69000E+01 2.79170E+01 0.00000E+00
 -1      4059 3.84000E+01 2.79170E+01 0.00000E+00
 -1      4060 3.99000E+01 2.79170E+01 0.00000E+00
 -1      4061 4.14000E+01 2.79170E+01 0.00000E+00
 -1      4062 3.91500E+01 2.66180E+01 0.00000E+00
 -1      4063 4.29000E+01 2.79170E+01 0.00000E+00
 -1      4064 4.44000E+01 2.79170E+01 0.00000E+00
 -1      4065 4.21500E+01 2.66180E+01 0.00000E+00
 -1      4066 4.59000E+01 2.79170E+01 0.00000E+00
 -1      4067 4.74000E+01 2.79170E+01 0.00000E+00
 -1      4068 4.51500E+01 2.66180E+01 0.00000E+00
 -1      4069 4.89000E+01 2.79170E+01 0.00000E+00
 -1      4070 5.04000E+01 2.79170E+01 0.00000E+00
 -1      4071 4.81500E+01 2.66180E+01 0.00000E+00
 -1      4072 5.19000E+01 2.79170E+01 0.00000E+00
 -1      4073 5.34000E+01 2.79170E+01 0.00000E+00
 -1      4074 5.11500E+01 2.66180E+01 0.00000E+00
 -1      4075 5.49000E+01 2.79170E+01 0.00000E+00
 -1      4076 5.64000E+01 2.79170E+01 0.00000E+00
 -1      4077 5.41500E+01 2.66180E+01 0.00000E+00
 -1      4078 5.79000E+01 2.79170E+01 0.00000E+00
 -1      4079 5.94000E+01 2.79170E+01 0.00000E+00
 -1      4080 5.71500E+01 2.66180E+01 0.00000E+00
 -1      4081 6.09000E+01 2.79170E+01 0.00000E+00
 -1      4082 6.24000E+01 2.79170E+01 0.00000E+00
 -1      4083 6.01500E+01 2.66180E+01 0.00000E+00
 -1      4084 6.39000E+01 2.79170E+01 0.00000E+00
 -1      4085 6.54000E+01 2.79170E+01 0.00000E+00
 -1      4086 6.31500E+01 2.66180E+01 0.00000E+00
 -1      4087 6.69000E+01 2.79170E+01 0.00000E+00
 -1      4088 6.84000E+01 2.79170E+01 0.00000E+00
 -1      4089 6.61500E+01 2.66180E+01 0.00000E+00
 -1      4090 6.99000E+01 2.79170E+01 0.00000E+00
 -1      4091 7.14000E+01 2.79170E+01 0.00000E+00
 -1      4092 6.91500E+01 2.66180E+01 0.00000E+00
 -1      4093 7.29000E+01 2.79170E+01 0.00000E+00
 -1      4094 7.44000E+01 2.79170E+01 0.00000E+00
 -1      4095 7.21500E+01 2.66180E+01 0.00000E+00
 -1      4096 7.59000E+01 2.79170E+01 0.00000E+00
 -1      4097 7.74000E+01 2.79170E+01 0.00000E+00
 -1      4098 7.51500E+01 2.66180E+01 0.00000E+00
 -1      4099 7.89000E+01 2.79170E+01 0.00000E+00
 -1      4100 8.04000E+01 2.79170E+01 0.00000E+00
 -1      4101 7.81500E+01 2.66180E+01 0.00000E+00
 -1      4102 8.19000E+01 2.79170E+01 0.00000E+00
 -1      4103 8.34000E+01 2.79170E+01 0.00000E+00
 -1      4104 8.11500E+01 2.66180E+01 0.00000E+00
 -1      4105 7.07850E+01 2.08932E+01 0.00000E+00
 -1      4106 6.92850E+01 2.08932E+01 0.00000E+00
 -1      4107 5.87850E+01 2.08932E+01 0.00000E+00
 -1      4108 5.72850E+01 2.08932E+01 0.00000E+00
 -1      4109 2.49000E+01 2.79170E+01 0.00000E+00
 -1      4110 2.64000E+01 2.79170E+01 0.00000E+00
 -1      4111 3.09000E+01 2.79170E+01 0.00000E+00
 -1      4112 3.24000E+01 2.79170E+01 0.00000E+00
 -1      4113 6.77850E+01 2.08932E+01 0.00000E+00
 -1      4114 6.62850E+01 2.08932E+01 0.00000E+00
 -1      4115 6.85350E+01 2.21922E+01 0.00000E+00
 -1      4116 6.47850E+01 2.08932E+01 0.00000E+00
 -1      4117 6.32850E+01 2.08932E+01 0.00000E+00
 -1      4118 6.55350E+01 2.21922E+01 0.00000E+00
 -1      4119 7.37850E+01 2.08932E+01 0.00000E+00
 -1      4120 7.22850E+01 2.08932E+01 0.00000E+00
 -1      4121 7.15350E+01 2.21922E+01 0.00000E+00
 -1      4122 7.67850E+01 2.08932E+01 0.00000E+00
 -1      4123 7.52850E+01 2.08932E+01 0.00000E+00
 -1      4124 7.45350E+01 2.21922E+01 0.00000E+00
 -1      4125 7.97850E+01 2.08932E+01 0.00000E+00
 -1      4126 7.82850E+01 2.08932E+01 0.00000E+00
 -1      4127 7.75350E+01 2.21922E+01 0.00000E+00
 -1      4128 8.27850E+01 2.08932E+01 0.00000E+00
 -1      4129 8.12850E+01 2.08932E+01 0.00000E+00
 -1      4130 8.05350E+01 2.21922E+01 0.00000E+00
 -1      4131 8.57850E+01 2.08932E+01 0.00000E+00
 -1      4132 8.42850E+01 2.08932E+01 0.00000E+00
 -1      4133 8.35350E+01 2.21922E+01 0.00000E+00
 -1      4134 2.21835E+01 2.77006E+01 0.00000E+00
 -1      4135 1.89101E+01 1.63983E+01 0.00000E+00
 -1      4136 3.39000E+01 2.79170E+01 0.00000E+00
 -1      4137 3.54000E+01 2.79170E+01 0.00000E+00
 -1      4138 3.31500E+01 2.66180E+01 0.00000E+00
 -1      4139 6.17850E+01 2.08932E+01 0.00000E+00
 -1      4140 6.02850E+01 2.08932E+01 0.00000E+00
 -1      4141 6.25350E+01 2.21922E+01 0.00000E+00
 -1      4142 3.77850E+01 2.08932E+01 0.00000E+00
 -1      4143 3.62850E+01 2.08932E+01 0.00000E+00
 -1      4144 2.79000E+01 2.79170E+01 0.00000E+00
 -1      4145 2.94000E+01 2.79170E+01 0.00000E+00
 -1      4146 2.71500E+01 2.66180E+01 0.00000E+00
 -1      4147 4.37850E+01 2.08932E+01 0.00000E+00
 -1      4148 4.22850E+01 2.08932E+01 0.00000E+00
 -1      4149 4.07850E+01 2.08932E+01 0.00000E+00
 -1      4150 3.92850E+01 2.08932E+01 0.00000E+00
 -1      4151 3.85350E+01 2.21922E+01 0.00000E+00
 -1      4152 4.15350E+01 2.21922E+01 0.00000E+00
 -1      4153 3.47850E+01 2.08932E+01 0.00000E+00
 -1      4154 3.32850E+01 2.08932E+01 0.00000E+00
 -1      4155 3.55350E+01 2.21922E+01 0.00000E+00
 -1      4156 5.57850E+01 2.08932E+01 0.00000E+00
 -1      4157 5.42850E+01 2.08932E+01 0.00000E+00
 -1      4158 5.65350E+01 2.21922E+01 0.00000E+00
 -1      4159 8.73890E+01 2.07689E+01 0.00000E+00
 -1      4160 2.57248E+01 2.08820E+01 0.00000E+00
 -1      4161 2.41409E+01 2.08598E+01 0.00000E+00
 -1      4162 2.15753E+01 2.55590E+01 0.00000E+00
 -1      4163 2.35417E+01 2.70744E+01 0.00000E+00
 -1      4164 2.42917E+01 2.57754E+01 0.00000E+00
 -1      4165 2.15753E+01 2.40902E+01 0.00000E+00
 -1      4166 4.90350E+01 1.95942E+01 0.00000E+00
 -1      4167 8.48576E+01 2.79413E+01 0.00000E+00
 -1      4168 8.63317E+01 2.79379E+01 0.00000E+00
 -1      4169 8.70228E+01 2.66908E+01 0.00000E+00
 -1      4170 8.41076E+01 2.66423E+01 0.00000E+00
 -1      4171 8.66390E+01 2.20679E+01 0.00000E+00
 -1      4172 8.83102E+01 2.43373E+01 0.00000E+00
 -1      4173 8.75003E+01 2.31986E+01 0.00000E+00
 -1      4174 8.58964E+01 2.33230E+01 0.00000E+00
 -1      4175 8.76191E+01 2.55844E+01 0.00000E+00
 -1      4176 3.17850E+01 2.08932E+01 0.00000E+00
 -1      4177 3.02850E+01 2.08932E+01 0.00000E+00
 -1      4178 3.25350E+01 2.21922E+01 0.00000E+00
 -1      4179 5.95350E+01 2.21922E+01 0.00000E+00
 -1      4180 5.35350E+01 2.21922E+01 0.00000E+00
 -1      4181 5.27850E+01 2.08932E+01 0.00000E+00
 -1      4182 5.12850E+01 2.08932E+01 0.00000E+00
 -1      4183 1.94850E+01 1.98266E+01 0.00000E+00
 -1      4184 1.94850E+01 2.12984E+01 0.00000E+00
 -1      4185 1.96734E+01 1.77186E+01 0.00000E+00
 -1      4186 1.96682E+01 1.90623E+01 0.00000E+00
 -1      4187 2.87850E+01 2.08932E+01 0.00000E+00
 -1      4188 2.72850E+01 2.08932E+01 0.00000E+00
 -1      4189 2.95350E+01 2.21922E+01 0.00000E+00
 -1      4190 3.01500E+01 2.66180E+01 0.00000E+00
 -1      4191 4.52850E+01 2.08932E+01 0.00000E+00
 -1      4192 4.45350E+01 2.21922E+01 0.00000E+00
 -1      4193 4.67850E+01 2.08932E+01 0.00000E+00
 -1      4194 2.05005E+01 2.19051E+01 0.00000E+00
 -1      4195 3.61500E+01 2.66180E+01 0.00000E+00
 -1      4196 2.64748E+01 2.21810E+01 0.00000E+00
 -1      4197 4.18425E+01 2.44051E+01 0.00000E+00
 -1      4198 4.33425E+01 2.44051E+01 0.00000E+00
 -1      4199 4.48425E+01 2.44051E+01 0.00000E+00
 -1      4200 4.63425E+01 2.44051E+01 0.00000E+00
 -1      4201 5.04000E+01 2.53190E+01 0.00000E+00
 -1      4202 5.19000E+01 2.53190E+01 0.00000E+00
 -1      4203 5.38425E+01 2.44051E+01 0.00000E+00
 -1      4204 5.53425E+01 2.44051E+01 0.00000E+00
 -1      4205 5.68425E+01 2.44051E+01 0.00000E+00
 -1      4206 5.83425E+01 2.44051E+01 0.00000E+00
 -1      4207 5.98425E+01 2.44051E+01 0.00000E+00
 -1      4208 6.13425E+01 2.44051E+01 0.00000E+00
 -1      4209 6.28425E+01 2.44051E+01 0.00000E+00
 -1      4210 6.43425E+01 2.44051E+01 0.00000E+00
 -1      4211 6.58425E+01 2.44051E+01 0.00000E+00
 -1      4212 6.73425E+01 2.44051E+01 0.00000E+00
 -1      4213 6.88425E+01 2.44051E+01 0.00000E+00
 -1      4214 7.03425E+01 2.44051E+01 0.00000E+00
 -1      4215 7.18425E+01 2.44051E+01 0.00000E+00
 -1      4216 7.33425E+01 2.44051E+01 0.00000E+00
 -1      4217 7.48425E+01 2.44051E+01 0.00000E+00
 -1      4218 7.63425E+01 2.44051E+01 0.00000E+00
 -1      4219 7.78425E+01 2.44051E+01 0.00000E+00
 -1      4220 7.93425E+01 2.44051E+01 0.00000E+00
 -1      4221 8.08425E+01 2.44051E+01 0.00000E+00
 -1      4222 8.23425E+01 2.44051E+01 0.00000E+00
 -1      4223 8.38425E+01 2.44051E+01 0.00000E+00
 -1      4224 2.09672E+01 1.97982E+01 0.00000E+00
 -1      4225 2.20756E+01 2.00562E+01 0.00000E+00
 -1      4226 3.88425E+01 2.44051E+01 0.00000E+00
 -1      4227 4.03425E+01 2.44051E+01 0.00000E+00
 -1      4228 3.28425E+01 2.44051E+01 0.00000E+00
 -1      4229 3.43425E+01 2.44051E+01 0.00000E+00
 -1      4230 2.98425E+01 2.44051E+01 0.00000E+00
 -1      4231 3.13425E+01 2.44051E+01 0.00000E+00
 -1      4232 3.58425E+01 2.44051E+01 0.00000E+00
 -1      4233 3.73425E+01 2.44051E+01 0.00000E+00
 -1      4234 2.68425E+01 2.44051E+01 0.00000E+00
 -1      4235 2.83425E+01 2.44051E+01 0.00000E+00
 -1      4236 4.97850E+01 2.08932E+01 0.00000E+00
 -1      4237 4.82850E+01 2.08932E+01 0.00000E+00
 -1      4238 4.75350E+01 2.21922E+01 0.00000E+00
 -1      4239 2.34093E+01 2.21754E+01 0.00000E+00
 -1      4240 2.26355E+01 2.08655E+01 0.00000E+00
 -1      4241 2.52823E+01 2.43939E+01 0.00000E+00
 -1      4242 2.13440E+01 2.13718E+01 0.00000E+00
 -1      4243 2.10605E+01 2.27144E+01 0.00000E+00
 -1      4244 2.24187E+01 2.35570E+01 0.00000E+00
 -1      4245 4.78425E+01 2.44051E+01 0.00000E+00
 -1      4246 4.93425E+01 2.44051E+01 0.00000E+00
 -1      4247 8.53001E+01 2.44294E+01 0.00000E+00
 -1      4248 5.00925E+01 2.31061E+01 0.00000E+00
 -1      4249 2.39241E+01 2.35513E+01 0.00000E+00
 -1      4250 5.30925E+01 2.31061E+01 0.00000E+00
 -1      4251 8.61615E+01 2.55601E+01 0.00000E+00
 -1      4252 5.05350E+01 2.21922E+01 0.00000E+00
 -1      4253 5.15925E+01 2.31061E+01 0.00000E+00
 -3
    3C                          2045                                     1
 -1       164    8    0    1
 -2         6         7        23      1105      1268      1122
 -1       165    8    0    1
 -2         7         8       164      1106      1269      1270
 -1       166    8    0    1
 -2         8         9       165      1107      1271      1272
 -1       167    8    0    1
 -2         8       165       164      1272      1273      1269
 -1       168    8    0    1
 -2         9        10       166      1108      1274      1275
 -1       169    8    0    1
 -2         9       166       165      1275      1276      1271
 -1       170    8    0    1
 -2        10        11       167      1109      1277      1278
 -1       171    8    0    1
 -2        10       167       166      1278      1279      1274
 -1       172    8    0    1
 -2        11        12       168      1110      1280      1281
 -1       173    8    0    1
 -2        11       168       167      1281      1282      1277
 -1       174    8    0    1
 -2        12        13       169      1111      1283      1284
 -1       175    8    0    1
 -2        12       169       168      1284      1285      1280
 -1       176    8    0    1
 -2        13        14       170      1112      1286      1287
 -1       177    8    0    1
 -2        13       170       169      1287      1288      1283
 -1       178    8    0    1
 -2        14        15       171      1113      1289      1290
 -1       179    8    0    1
 -2        14       171       170      1290      1291      1286
 -1       180    8    0    1
 -2        15        16       172      1114      1292      1293
 -1       181    8    0    1
 -2        15       172       171      1293      1294      1289
 -1       182    8    0    1
 -2        16        17       173      1115      1295      1296
 -1       183    8    0    1
 -2        16       173       172      1296      1297      1292
 -1       184    8    0    1
 -2        17        18       174      1116      1298      1299
 -1       185    8    0    1
 -2        17       174       173      1299      1300      1295
 -1       186    8    0    1
 -2        18        19       175      1117      1301      1302
 -1       187    8    0    1
 -2        18       175       174      1302      1303      1298
 -1       188    8    0    1
 -2        19        20       176      1118      1304      1305
 -1       189    8    0    1
 -2        19       176       175      1305      1306      1301
 -1       190    8    0    1
 -2        20        21       177      1119      1307      1308
 -1       191    8    0    1
 -2        20       177       176      1308      1309      1304
 -1       192    8    0    1
 -2        21        22       178      1120      1310      1311
 -1       193    8    0    1
 -2        21       178       177      1311      1312      1307
 -1       194    8    0    1
 -2        22         5       179      1121      1313      1314
 -1       195    8    0    1
 -2       178        22       179      1310      1314      1315
 -1       196    8    0    1
 -2         5        72       179      1172      1316      1313
 -1       197    8    0    1
 -2        24        23       180      1123      1317      1318
 -1       198    8    0    1
 -2        25        24       181      1124      1319      1320
 -1       199    8    0    1
 -2        24       180       181      1318      1321      1319
 -1       200    8    0    1
 -2        26        25       182      1125      1322      1323
 -1       201    8    0    1
 -2        25       181       182      1320      1324      1322
 -1       202    8    0    1
 -2        27        26       183      1126      1325      1326
 -1       203    8    0    1
 -2        26       182       183      1323      1327      1325
 -1       204    8    0    1
 -2        28        27       184      1127      1328      1329
 -1       205    8    0    1
 -2        27       183       184      1326      1330      1328
 -1       206    8    0    1
 -2        29        28       185      1128      1331      1332
 -1       207    8    0    1
 -2        28       184       185      1329      1333      1331
 -1       208    8    0    1
 -2        30        29       186      1129      1334      1335
 -1       209    8    0    1
 -2        29       185       186      1332      1336      1334
 -1       210    8    0    1
 -2        31        30       187      1130      1337      1338
 -1       211    8    0    1
 -2        30       186       187      1335      1339      1337
 -1       212    8    0    1
 -2        32        31       188      1131      1340      1341
 -1       213    8    0    1
 -2        31       187       188      1338      1342      1340
 -1       214    8    0    1
 -2        33        32       189      1132      1343      1344
 -1       215    8    0    1
 -2        32       188       189      1341      1345      1343
 -1       216    8    0    1
 -2        34        33       190      1133      1346      1347
 -1       217    8    0    1
 -2        33       189       190      1344      1348      1346
 -1       218    8    0    1
 -2        35        34       191      1134      1349      1350
 -1       219    8    0    1
 -2        34       190       191      1347      1351      1349
 -1       220    8    0    1
 -2        36        35       192      1135      1352      1353
 -1       221    8    0    1
 -2        35       191       192      1350      1354      1352
 -1       222    8    0    1
 -2        37        36       193      1136      1355      1356
 -1       223    8    0    1
 -2        36       192       193      1353      1357      1355
 -1       224    8    0    1
 -2        38        37       194      1137      1358      1359
 -1       225    8    0    1
 -2        37       193       194      1356      1360      1358
 -1       226    8    0    1
 -2        39        38       195      1138      1361      1362
 -1       227    8    0    1
 -2        38       194       195      1359      1363      1361
 -1       228    8    0    1
 -2        40        39       196      1139      1364      1365
 -1       229    8    0    1
 -2        39       195       196      1362      1366      1364
 -1       230    8    0    1
 -2        41        40       197      1140      1367      1368
 -1       231    8    0    1
 -2        40       196       197      1365      1369      1367
 -1       232    8    0    1
 -2        42        41       198      1141      1370      1371
 -1       233    8    0    1
 -2        41       197       198      1368      1372      1370
 -1       234    8    0    1
 -2        43        42       199      1142      1373      1374
 -1       235    8    0    1
 -2        42       198       199      1371      1375      1373
 -1       236    8    0    1
 -2        44        43       200      1143      1376      1377
 -1       237    8    0    1
 -2        43       199       200      1374      1378      1376
 -1       238    8    0    1
 -2        45        44       201      1144      1379      1380
 -1       239    8    0    1
 -2        44       200       201      1377      1381      1379
 -1       240    8    0    1
 -2        46        45       202      1145      1382      1383
 -1       241    8    0    1
 -2        45       201       202      1380      1384      1382
 -1       242    8    0    1
 -2        47        46       203      1146      1385      1386
 -1       243    8    0    1
 -2        46       202       203      1383      1387      1385
 -1       244    8    0    1
 -2        48        47       204      1147      1388      1389
 -1       245    8    0    1
 -2        47       203       204      1386      1390      1388
 -1       246    8    0    1
 -2        49        48       205      1148      1391      1392
 -1       247    8    0    1
 -2        48       204       205      1389      1393      1391
 -1       248    8    0    1
 -2        50        49       206      1149      1394      1395
 -1       249    8    0    1
 -2        49       205       206      1392      1396      1394
 -1       250    8    0    1
 -2        51        50       207      1150      1397      1398
 -1       251    8    0    1
 -2        50       206       207      1395      1399      1397
 -1       252    8    0    1
 -2        52        51       208      1151      1400      1401
 -1       253    8    0    1
 -2        51       207       208      1398      1402      1400
 -1       254    8    0    1
 -2        53        52       209      1152      1403      1404
 -1       255    8    0    1
 -2        52       208       209      1401      1405      1403
 -1       256    8    0    1
 -2        54        53       210      1153      1406      1407
 -1       257    8    0    1
 -2        53       209       210      1404      1408      1406
 -1       258    8    0    1
 -2        55        54       211      1154      1409      1410
 -1       259    8    0    1
 -2        54       210       211      1407      1411      1409
 -1       260    8    0    1
 -2        56        55       212      1155      1412      1413
 -1       261    8    0    1
 -2        55       211       212      1410      1414      1412
 -1       262    8    0    1
 -2        57        56       213      1156      1415      1416
 -1       263    8    0    1
 -2        56       212       213      1413      1417      1415
 -1       264    8    0    1
 -2        58        57       214      1157      1418      1419
 -1       265    8    0    1
 -2        57       213       214      1416      1420      1418
 -1       266    8    0    1
 -2        59        58       215      1158      1421      1422
 -1       267    8    0    1
 -2        58       214       215      1419      1423      1421
 -1       268    8    0    1
 -2        60        59       216      1159      1424      1425
 -1       269    8    0    1
 -2        59       215       216      1422      1426      1424
 -1       270    8    0    1
 -2        61        60       217      1160      1427      1428
 -1       271    8    0    1
 -2        60       216       217      1425      1429      1427
 -1       272    8    0    1
 -2        62        61       218      1161      1430      1431
 -1       273    8    0    1
 -2        61       217       218      1428      1432      1430
 -1       274    8    0    1
 -2        63        62       219      1162      1433      1434
 -1       275    8    0    1
 -2        62       218       219      1431      1435      1433
 -1       276    8    0    1
 -2        64        63       220      1163      1436      1437
 -1       277    8    0    1
 -2        63       219       220      1434      1438      1436
 -1       278    8    0    1
 -2        65        64       221      1164      1439      1440
 -1       279    8    0    1
 -2        64       220       221      1437      1441      1439
 -1       280    8    0    1
 -2        66        65       222      1165      1442      1443
 -1       281    8    0    1
 -2        65       221       222      1440      1444      1442
 -1       282    8    0    1
 -2        67        66       223      1166      1445      1446
 -1       283    8    0    1
 -2        66       222       223      1443      1447      1445
 -1       284    8    0    1
 -2        68        67       224      1167      1448      1449
 -1       285    8    0    1
 -2        67       223       224      1446      1450      1448
 -1       286    8    0    1
 -2        69        68       225      1168      1451      1452
 -1       287    8    0    1
 -2        68       224       225      1449      1453      1451
 -1       288    8    0    1
 -2        70        69       226      1169      1454      1455
 -1       289    8    0    1
 -2        69       225       226      1452      1456      1454
 -1       290    8    0    1
 -2        71        70       227      1170      1457      1458
 -1       291    8    0    1
 -2        70       226       227      1455      1459      1457
 -1       292    8    0    1
 -2         4        71       136      1171      1460      1238
 -1       293    8    0    1
 -2       136        71       227      1460      1458      1461
 -1       294    8    0    1
 -2        72        73       228      1173      1462      1463
 -1       295    8    0    1
 -2        72       228       179      1463      1464      1316
 -1       296    8    0    1
 -2        73        74       229      1174      1465      1466
 -1       297    8    0    1
 -2        73       229       228      1466      1467      1462
 -1       298    8    0    1
 -2        74        75       230      1175      1468      1469
 -1       299    8    0    1
 -2        74       230       229      1469      1470      1465
 -1       300    8    0    1
 -2        75        76       231      1176      1471      1472
 -1       301    8    0    1
 -2        75       231       230      1472      1473      1468
 -1       302    8    0    1
 -2        76        77       232      1177      1474      1475
 -1       303    8    0    1
 -2        76       232       231      1475      1476      1471
 -1       304    8    0    1
 -2        77        78       233      1178      1477      1478
 -1       305    8    0    1
 -2        77       233       232      1478      1479      1474
 -1       306    8    0    1
 -2        78        79       234      1179      1480      1481
 -1       307    8    0    1
 -2        78       234       233      1481      1482      1477
 -1       308    8    0    1
 -2        79        80       235      1180      1483      1484
 -1       309    8    0    1
 -2        79       235       234      1484      1485      1480
 -1       310    8    0    1
 -2        80        81       236      1181      1486      1487
 -1       311    8    0    1
 -2        80       236       235      1487      1488      1483
 -1       312    8    0    1
 -2        81        82       237      1182      1489      1490
 -1       313    8    0    1
 -2        81       237       236      1490      1491      1486
 -1       314    8    0    1
 -2        82        83       238      1183      1492      1493
 -1       315    8    0    1
 -2        82       238       237      1493      1494      1489
 -1       316    8    0    1
 -2        83        84       239      1184      1495      1496
 -1       317    8    0    1
 -2        83       239       238      1496      1497      1492
 -1       318    8    0    1
 -2        84        85       240      1185      1498      1499
 -1       319    8    0    1
 -2        84       240       239      1499      1500      1495
 -1       320    8    0    1
 -2        85        86       241      1186      1501      1502
 -1       321    8    0    1
 -2        85       241       240      1502      1503      1498
 -1       322    8    0    1
 -2        86        87       242      1187      1504      1505
 -1       323    8    0    1
 -2        86       242       241      1505      1506      1501
 -1       324    8    0    1
 -2        87        88       243      1188      1507      1508
 -1       325    8    0    1
 -2        87       243       242      1508      1509      1504
 -1       326    8    0    1
 -2        88        89       244      1189      1510      1511
 -1       327    8    0    1
 -2        88       244       243      1511      1512      1507
 -1       328    8    0    1
 -2        89        90       245      1190      1513      1514
 -1       329    8    0    1
 -2        89       245       244      1514      1515      1510
 -1       330    8    0    1
 -2        90        91       246      1191      1516      1517
 -1       331    8    0    1
 -2        90       246       245      1517      1518      1513
 -1       332    8    0    1
 -2        91        92       247      1192      1519      1520
 -1       333    8    0    1
 -2        91       247       246      1520      1521      1516
 -1       334    8    0    1
 -2        92        93       248      1193      1522      1523
 -1       335    8    0    1
 -2        92       248       247      1523      1524      1519
 -1       336    8    0    1
 -2        93        94       249      1194      1525      1526
 -1       337    8    0    1
 -2        93       249       248      1526      1527      1522
 -1       338    8    0    1
 -2        94        95       250      1195      1528      1529
 -1       339    8    0    1
 -2        94       250       249      1529      1530      1525
 -1       340    8    0    1
 -2        95        96       251      1196      1531      1532
 -1       341    8    0    1
 -2        95       251       250      1532      1533      1528
 -1       342    8    0    1
 -2        96        97       252      1197      1534      1535
 -1       343    8    0    1
 -2        96       252       251      1535      1536      1531
 -1       344    8    0    1
 -2        97        98       253      1198      1537      1538
 -1       345    8    0    1
 -2        97       253       252      1538      1539      1534
 -1       346    8    0    1
 -2        98        99       254      1199      1540      1541
 -1       347    8    0    1
 -2        98       254       253      1541      1542      1537
 -1       348    8    0    1
 -2        99       100       255      1200      1543      1544
 -1       349    8    0    1
 -2        99       255       254      1544      1545      1540
 -1       350    8    0    1
 -2       100       101       256      1201      1546      1547
 -1       351    8    0    1
 -2       100       256       255      1547      1548      1543
 -1       352    8    0    1
 -2       101       102       257      1202      1549      1550
 -1       353    8    0    1
 -2       101       257       256      1550      1551      1546
 -1       354    8    0    1
 -2       102       103       258      1203      1552      1553
 -1       355    8    0    1
 -2       102       258       257      1553      1554      1549
 -1       356    8    0    1
 -2       103       104       259      1204      1555      1556
 -1       357    8    0    1
 -2       103       259       258      1556      1557      1552
 -1       358    8    0    1
 -2       104       105       260      1205      1558      1559
 -1       359    8    0    1
 -2       104       260       259      1559      1560      1555
 -1       360    8    0    1
 -2       105       106       261      1206      1561      1562
 -1       361    8    0    1
 -2       105       261       260      1562      1563      1558
 -1       362    8    0    1
 -2       106       107       262      1207      1564      1565
 -1       363    8    0    1
 -2       106       262       261      1565      1566      1561
 -1       364    8    0    1
 -2       107       108       263      1208      1567      1568
 -1       365    8    0    1
 -2       107       263       262      1568      1569      1564
 -1       366    8    0    1
 -2       108       109       264      1209      1570      1571
 -1       367    8    0    1
 -2       108       264       263      1571      1572      1567
 -1       368    8    0    1
 -2       109       110       265      1210      1573      1574
 -1       369    8    0    1
 -2       109       265       264      1574      1575      1570
 -1       370    8    0    1
 -2       110       111       266      1211      1576      1577
 -1       371    8    0    1
 -2       110       266       265      1577      1578      1573
 -1       372    8    0    1
 -2       111       112       267      1212      1579      1580
 -1       373    8    0    1
 -2       111       267       266      1580      1581      1576
 -1       374    8    0    1
 -2       112       113       268      1213      1582      1583
 -1       375    8    0    1
 -2       112       268       267      1583      1584      1579
 -1       376    8    0    1
 -2       113       114       269      1214      1585      1586
 -1       377    8    0    1
 -2       113       269       268      1586      1587      1582
 -1       378    8    0    1
 -2       114       115       270      1215      1588      1589
 -1       379    8    0    1
 -2       114       270       269      1589      1590      1585
 -1       380    8    0    1
 -2       115       116       271      1216      1591      1592
 -1       381    8    0    1
 -2       115       271       270      1592      1593      1588
 -1       382    8    0    1
 -2       116       117       272      1217      1594      1595
 -1       383    8    0    1
 -2       116       272       271      1595      1596      1591
 -1       384    8    0    1
 -2       117       118       273      1218      1597      1598
 -1       385    8    0    1
 -2       117       273       272      1598      1599      1594
 -1       386    8    0    1
 -2       118       119       274      1219      1600      1601
 -1       387    8    0    1
 -2       118       274       273      1601      1602      1597
 -1       388    8    0    1
 -2       119       120       275      1220      1603      1604
 -1       389    8    0    1
 -2       119       275       274      1604      1605      1600
 -1       390    8    0    1
 -2       120         3       121      1221      1222      1606
 -1       391    8    0    1
 -2       121       122       276      1223      1607      1608
 -1       392    8    0    1
 -2       122       123       277      1224      1609      1610
 -1       393    8    0    1
 -2       122       277       276      1610      1611      1607
 -1       394    8    0    1
 -2       123       124       278      1225      1612      1613
 -1       395    8    0    1
 -2       123       278       277      1613      1614      1609
 -1       396    8    0    1
 -2       124       125       279      1226      1615      1616
 -1       397    8    0    1
 -2       124       279       278      1616      1617      1612
 -1       398    8    0    1
 -2       125       126       280      1227      1618      1619
 -1       399    8    0    1
 -2       125       280       279      1619      1620      1615
 -1       400    8    0    1
 -2       126       127       281      1228      1621      1622
 -1       401    8    0    1
 -2       126       281       280      1622      1623      1618
 -1       402    8    0    1
 -2       127       128       282      1229      1624      1625
 -1       403    8    0    1
 -2       127       282       281      1625      1626      1621
 -1       404    8    0    1
 -2       128       129       283      1230      1627      1628
 -1       405    8    0    1
 -2       128       283       282      1628      1629      1624
 -1       406    8    0    1
 -2       129       130       284      1231      1630      1631
 -1       407    8    0    1
 -2       129       284       283      1631      1632      1627
 -1       408    8    0    1
 -2       130       131       285      1232      1633      1634
 -1       409    8    0    1
 -2       130       285       284      1634      1635      1630
 -1       410    8    0    1
 -2       131       132       286      1233      1636      1637
 -1       411    8    0    1
 -2       131       286       285      1637      1638      1633
 -1       412    8    0    1
 -2       132       133       287      1234      1639      1640
 -1       413    8    0    1
 -2       132       287       286      1640      1641      1636
 -1       414    8    0    1
 -2       133       134       288      1235      1642      1643
 -1       415    8    0    1
 -2       133       288       287      1643      1644      1639
 -1       416    8    0    1
 -2       134       135       289      1236      1645      1646
 -1       417    8    0    1
 -2       134       289       288      1646      1647      1642
 -1       418    8    0    1
 -2       135       136       290      1237      1648      1649
 -1       419    8    0    1
 -2       289       135       290      1645      1649      1650
 -1       420    8    0    1
 -2       136       227       290      1461      1651      1648
 -1       421    8    0    1
 -2         2       137       291      1239      1652      1653
 -1       422    8    0    1
 -2       137       138       292      1240      1654      1655
 -1       423    8    0    1
 -2       138       139       293      1241      1656      1657
 -1       424    8    0    1
 -2       139       140       294      1242      1658      1659
 -1       425    8    0    1
 -2       140       141       295      1243      1660      1661
 -1       426    8    0    1
 -2       141       142       296      1244      1662      1663
 -1       427    8    0    1
 -2       142       143       297      1245      1664      1665
 -1       428    8    0    1
 -2       143       144       298      1246      1666      1667
 -1       429    8    0    1
 -2       144       145       299      1247      1668      1669
 -1       430    8    0    1
 -2       145       146       300      1248      1670      1671
 -1       431    8    0    1
 -2       146       147       301      1249      1672      1673
 -1       432    8    0    1
 -2       147       148       302      1250      1674      1675
 -1       433    8    0    1
 -2       148       149       303      1251      1676      1677
 -1       434    8    0    1
 -2       149       150       304      1252      1678      1679
 -1       435    8    0    1
 -2       150       151       305      1253      1680      1681
 -1       436    8    0    1
 -2       151       152       306      1254      1682      1683
 -1       437    8    0    1
 -2       152       153       307      1255      1684      1685
 -1       438    8    0    1
 -2       153       154       308      1256      1686      1687
 -1       439    8    0    1
 -2       154       155       309      1257      1688      1689
 -1       440    8    0    1
 -2       155       156       310      1258      1690      1691
 -1       441    8    0    1
 -2       156       157       311      1259      1692      1693
 -1       442    8    0    1
 -2       157       158       312      1260      1694      1695
 -1       443    8    0    1
 -2       158         1       313      1261      1696      1697
 -1       444    8    0    1
 -2         1       159       314      1262      1698      1699
 -1       445    8    0    1
 -2       159       160       315      1263      1700      1701
 -1       446    8    0    1
 -2       160       161       316      1264      1702      1703
 -1       447    8    0    1
 -2       161       162       317      1265      1704      1705
 -1       448    8    0    1
 -2       162       163       318      1266      1706      1707
 -1       449    8    0    1
 -2       163         2       319      1267      1708      1709
 -1       450    8    0    1
 -2       294       140       295      1658      1661      1710
 -1       451    8    0    1
 -2       293       139       294      1656      1659      1711
 -1       452    8    0    1
 -2       120       121       275      1606      1712      1603
 -1       453    8    0    1
 -2       121       276       275      1608      1713      1712
 -1       454    8    0    1
 -2       291       137       292      1652      1655      1714
 -1       455    8    0    1
 -2       292       138       293      1654      1657      1715
 -1       456    8    0    1
 -2         2       291       319      1653      1716      1708
 -1       457    8    0    1
 -2       141       296       295      1663      1717      1660
 -1       458    8    0    1
 -2       142       297       296      1665      1718      1662
 -1       459    8    0    1
 -2       143       298       297      1667      1719      1664
 -1       460    8    0    1
 -2       144       299       298      1669      1720      1666
 -1       461    8    0    1
 -2       145       300       299      1671      1721      1668
 -1       462    8    0    1
 -2       146       301       300      1673      1722      1670
 -1       463    8    0    1
 -2       147       302       301      1675      1723      1672
 -1       464    8    0    1
 -2       148       303       302      1677      1724      1674
 -1       465    8    0    1
 -2       149       304       303      1679      1725      1676
 -1       466    8    0    1
 -2       150       305       304      1681      1726      1678
 -1       467    8    0    1
 -2       151       306       305      1683      1727      1680
 -1       468    8    0    1
 -2       152       307       306      1685      1728      1682
 -1       469    8    0    1
 -2       153       308       307      1687      1729      1684
 -1       470    8    0    1
 -2       154       309       308      1689      1730      1686
 -1       471    8    0    1
 -2       155       310       309      1691      1731      1688
 -1       472    8    0    1
 -2       156       311       310      1693      1732      1690
 -1       473    8    0    1
 -2       157       312       311      1695      1733      1692
 -1       474    8    0    1
 -2       158       313       312      1697      1734      1694
 -1       475    8    0    1
 -2         1       314       313      1699      1735      1696
 -1       476    8    0    1
 -2       159       315       314      1701      1736      1698
 -1       477    8    0    1
 -2       160       316       315      1703      1737      1700
 -1       478    8    0    1
 -2       161       317       316      1705      1738      1702
 -1       479    8    0    1
 -2       162       318       317      1707      1739      1704
 -1       480    8    0    1
 -2       163       319       318      1709      1740      1706
 -1       481    8    0    1
 -2        23         7       164      1268      1270      1741
 -1       482    8    0    1
 -2       165       166       320      1276      1742      1743
 -1       483    8    0    1
 -2       164       165       321      1273      1744      1745
 -1       484    8    0    1
 -2       165       320       321      1743      1746      1744
 -1       485    8    0    1
 -2       167       168       322      1282      1747      1748
 -1       486    8    0    1
 -2       168       169       323      1285      1749      1750
 -1       487    8    0    1
 -2       168       323       322      1750      1751      1747
 -1       488    8    0    1
 -2       169       170       324      1288      1752      1753
 -1       489    8    0    1
 -2       169       324       323      1753      1754      1749
 -1       490    8    0    1
 -2       170       171       325      1291      1755      1756
 -1       491    8    0    1
 -2       170       325       324      1756      1757      1752
 -1       492    8    0    1
 -2       171       172       326      1294      1758      1759
 -1       493    8    0    1
 -2       171       326       325      1759      1760      1755
 -1       494    8    0    1
 -2       172       173       327      1297      1761      1762
 -1       495    8    0    1
 -2       172       327       326      1762      1763      1758
 -1       496    8    0    1
 -2       173       174       328      1300      1764      1765
 -1       497    8    0    1
 -2       173       328       327      1765      1766      1761
 -1       498    8    0    1
 -2       174       175       329      1303      1767      1768
 -1       499    8    0    1
 -2       174       329       328      1768      1769      1764
 -1       500    8    0    1
 -2       175       176       330      1306      1770      1771
 -1       501    8    0    1
 -2       175       330       329      1771      1772      1767
 -1       502    8    0    1
 -2       176       177       331      1309      1773      1774
 -1       503    8    0    1
 -2       176       331       330      1774      1775      1770
 -1       504    8    0    1
 -2       177       178       332      1312      1776      1777
 -1       505    8    0    1
 -2       177       332       331      1777      1778      1773
 -1       506    8    0    1
 -2       178       179       333      1315      1779      1780
 -1       507    8    0    1
 -2       332       178       333      1776      1780      1781
 -1       508    8    0    1
 -2       179       228       333      1464      1782      1779
 -1       509    8    0    1
 -2       180        23       164      1317      1741      1783
 -1       510    8    0    1
 -2       228       229       334      1467      1784      1785
 -1       511    8    0    1
 -2       228       334       333      1785      1786      1782
 -1       512    8    0    1
 -2       180       164       321      1783      1745      1787
 -1       513    8    0    1
 -2       182       181       335      1324      1788      1789
 -1       514    8    0    1
 -2       183       182       336      1327      1790      1791
 -1       515    8    0    1
 -2       182       335       336      1789      1792      1790
 -1       516    8    0    1
 -2       184       183       337      1330      1793      1794
 -1       517    8    0    1
 -2       183       336       337      1791      1795      1793
 -1       518    8    0    1
 -2       185       184       338      1333      1796      1797
 -1       519    8    0    1
 -2       184       337       338      1794      1798      1796
 -1       520    8    0    1
 -2       186       185       339      1336      1799      1800
 -1       521    8    0    1
 -2       185       338       339      1797      1801      1799
 -1       522    8    0    1
 -2       187       186       340      1339      1802      1803
 -1       523    8    0    1
 -2       186       339       340      1800      1804      1802
 -1       524    8    0    1
 -2       188       187       341      1342      1805      1806
 -1       525    8    0    1
 -2       187       340       341      1803      1807      1805
 -1       526    8    0    1
 -2       189       188       342      1345      1808      1809
 -1       527    8    0    1
 -2       188       341       342      1806      1810      1808
 -1       528    8    0    1
 -2       190       189       343      1348      1811      1812
 -1       529    8    0    1
 -2       189       342       343      1809      1813      1811
 -1       530    8    0    1
 -2       191       190       344      1351      1814      1815
 -1       531    8    0    1
 -2       190       343       344      1812      1816      1814
 -1       532    8    0    1
 -2       192       191       345      1354      1817      1818
 -1       533    8    0    1
 -2       191       344       345      1815      1819      1817
 -1       534    8    0    1
 -2       193       192       346      1357      1820      1821
 -1       535    8    0    1
 -2       192       345       346      1818      1822      1820
 -1       536    8    0    1
 -2       194       193       347      1360      1823      1824
 -1       537    8    0    1
 -2       193       346       347      1821      1825      1823
 -1       538    8    0    1
 -2       195       194       348      1363      1826      1827
 -1       539    8    0    1
 -2       194       347       348      1824      1828      1826
 -1       540    8    0    1
 -2       196       195       349      1366      1829      1830
 -1       541    8    0    1
 -2       195       348       349      1827      1831      1829
 -1       542    8    0    1
 -2       197       196       350      1369      1832      1833
 -1       543    8    0    1
 -2       196       349       350      1830      1834      1832
 -1       544    8    0    1
 -2       198       197       351      1372      1835      1836
 -1       545    8    0    1
 -2       197       350       351      1833      1837      1835
 -1       546    8    0    1
 -2       199       198       352      1375      1838      1839
 -1       547    8    0    1
 -2       198       351       352      1836      1840      1838
 -1       548    8    0    1
 -2       200       199       353      1378      1841      1842
 -1       549    8    0    1
 -2       199       352       353      1839      1843      1841
 -1       550    8    0    1
 -2       201       200       354      1381      1844      1845
 -1       551    8    0    1
 -2       200       353       354      1842      1846      1844
 -1       552    8    0    1
 -2       202       201       355      1384      1847      1848
 -1       553    8    0    1
 -2       201       354       355      1845      1849      1847
 -1       554    8    0    1
 -2       203       202       356      1387      1850      1851
 -1       555    8    0    1
 -2       202       355       356      1848      1852      1850
 -1       556    8    0    1
 -2       204       203       357      1390      1853      1854
 -1       557    8    0    1
 -2       203       356       357      1851      1855      1853
 -1       558    8    0    1
 -2       205       204       358      1393      1856      1857
 -1       559    8    0    1
 -2       204       357       358      1854      1858      1856
 -1       560    8    0    1
 -2       206       205       359      1396      1859      1860
 -1       561    8    0    1
 -2       205       358       359      1857      1861      1859
 -1       562    8    0    1
 -2       207       206       360      1399      1862      1863
 -1       563    8    0    1
 -2       206       359       360      1860      1864      1862
 -1       564    8    0    1
 -2       208       207       361      1402      1865      1866
 -1       565    8    0    1
 -2       207       360       361      1863      1867      1865
 -1       566    8    0    1
 -2       209       208       362      1405      1868      1869
 -1       567    8    0    1
 -2       208       361       362      1866      1870      1868
 -1       568    8    0    1
 -2       210       209       363      1408      1871      1872
 -1       569    8    0    1
 -2       209       362       363      1869      1873      1871
 -1       570    8    0    1
 -2       211       210       364      1411      1874      1875
 -1       571    8    0    1
 -2       210       363       364      1872      1876      1874
 -1       572    8    0    1
 -2       212       211       365      1414      1877      1878
 -1       573    8    0    1
 -2       211       364       365      1875      1879      1877
 -1       574    8    0    1
 -2       213       212       366      1417      1880      1881
 -1       575    8    0    1
 -2       212       365       366      1878      1882      1880
 -1       576    8    0    1
 -2       214       213       367      1420      1883      1884
 -1       577    8    0    1
 -2       213       366       367      1881      1885      1883
 -1       578    8    0    1
 -2       215       214       368      1423      1886      1887
 -1       579    8    0    1
 -2       214       367       368      1884      1888      1886
 -1       580    8    0    1
 -2       216       215       369      1426      1889      1890
 -1       581    8    0    1
 -2       215       368       369      1887      1891      1889
 -1       582    8    0    1
 -2       217       216       370      1429      1892      1893
 -1       583    8    0    1
 -2       216       369       370      1890      1894      1892
 -1       584    8    0    1
 -2       218       217       371      1432      1895      1896
 -1       585    8    0    1
 -2       217       370       371      1893      1897      1895
 -1       586    8    0    1
 -2       219       218       372      1435      1898      1899
 -1       587    8    0    1
 -2       218       371       372      1896      1900      1898
 -1       588    8    0    1
 -2       220       219       373      1438      1901      1902
 -1       589    8    0    1
 -2       219       372       373      1899      1903      1901
 -1       590    8    0    1
 -2       221       220       374      1441      1904      1905
 -1       591    8    0    1
 -2       220       373       374      1902      1906      1904
 -1       592    8    0    1
 -2       222       221       375      1444      1907      1908
 -1       593    8    0    1
 -2       221       374       375      1905      1909      1907
 -1       594    8    0    1
 -2       223       222       376      1447      1910      1911
 -1       595    8    0    1
 -2       222       375       376      1908      1912      1910
 -1       596    8    0    1
 -2       224       223       377      1450      1913      1914
 -1       597    8    0    1
 -2       223       376       377      1911      1915      1913
 -1       598    8    0    1
 -2       225       224       378      1453      1916      1917
 -1       599    8    0    1
 -2       224       377       378      1914      1918      1916
 -1       600    8    0    1
 -2       226       225       379      1456      1919      1920
 -1       601    8    0    1
 -2       225       378       379      1917      1921      1919
 -1       602    8    0    1
 -2       227       226       380      1459      1922      1923
 -1       603    8    0    1
 -2       290       227       380      1651      1923      1924
 -1       604    8    0    1
 -2       226       379       380      1920      1925      1922
 -1       605    8    0    1
 -2       229       230       381      1470      1926      1927
 -1       606    8    0    1
 -2       229       381       334      1927      1928      1784
 -1       607    8    0    1
 -2       230       231       382      1473      1929      1930
 -1       608    8    0    1
 -2       230       382       381      1930      1931      1926
 -1       609    8    0    1
 -2       231       232       383      1476      1932      1933
 -1       610    8    0    1
 -2       231       383       382      1933      1934      1929
 -1       611    8    0    1
 -2       232       233       384      1479      1935      1936
 -1       612    8    0    1
 -2       232       384       383      1936      1937      1932
 -1       613    8    0    1
 -2       233       234       385      1482      1938      1939
 -1       614    8    0    1
 -2       233       385       384      1939      1940      1935
 -1       615    8    0    1
 -2       234       235       386      1485      1941      1942
 -1       616    8    0    1
 -2       234       386       385      1942      1943      1938
 -1       617    8    0    1
 -2       235       236       387      1488      1944      1945
 -1       618    8    0    1
 -2       235       387       386      1945      1946      1941
 -1       619    8    0    1
 -2       236       237       388      1491      1947      1948
 -1       620    8    0    1
 -2       236       388       387      1948      1949      1944
 -1       621    8    0    1
 -2       237       238       389      1494      1950      1951
 -1       622    8    0    1
 -2       237       389       388      1951      1952      1947
 -1       623    8    0    1
 -2       238       239       390      1497      1953      1954
 -1       624    8    0    1
 -2       238       390       389      1954      1955      1950
 -1       625    8    0    1
 -2       239       240       391      1500      1956      1957
 -1       626    8    0    1
 -2       239       391       390      1957      1958      1953
 -1       627    8    0    1
 -2       240       241       392      1503      1959      1960
 -1       628    8    0    1
 -2       240       392       391      1960      1961      1956
 -1       629    8    0    1
 -2       241       242       393      1506      1962      1963
 -1       630    8    0    1
 -2       241       393       392      1963      1964      1959
 -1       631    8    0    1
 -2       242       243       394      1509      1965      1966
 -1       632    8    0    1
 -2       242       394       393      1966      1967      1962
 -1       633    8    0    1
 -2       243       244       395      1512      1968      1969
 -1       634    8    0    1
 -2       243       395       394      1969      1970      1965
 -1       635    8    0    1
 -2       244       245       396      1515      1971      1972
 -1       636    8    0    1
 -2       244       396       395      1972      1973      1968
 -1       637    8    0    1
 -2       245       246       397      1518      1974      1975
 -1       638    8    0    1
 -2       245       397       396      1975      1976      1971
 -1       639    8    0    1
 -2       246       247       398      1521      1977      1978
 -1       640    8    0    1
 -2       246       398       397      1978      1979      1974
 -1       641    8    0    1
 -2       247       248       399      1524      1980      1981
 -1       642    8    0    1
 -2       247       399       398      1981      1982      1977
 -1       643    8    0    1
 -2       248       249       400      1527      1983      1984
 -1       644    8    0    1
 -2       248       400       399      1984      1985      1980
 -1       645    8    0    1
 -2       249       250       401      1530      1986      1987
 -1       646    8    0    1
 -2       249       401       400      1987      1988      1983
 -1       647    8    0    1
 -2       250       251       402      1533      1989      1990
 -1       648    8    0    1
 -2       250       402       401      1990      1991      1986
 -1       649    8    0    1
 -2       251       252       403      1536      1992      1993
 -1       650    8    0    1
 -2       251       403       402      1993      1994      1989
 -1       651    8    0    1
 -2       252       253       404      1539      1995      1996
 -1       652    8    0    1
 -2       252       404       403      1996      1997      1992
 -1       653    8    0    1
 -2       253       254       405      1542      1998      1999
 -1       654    8    0    1
 -2       253       405       404      1999      2000      1995
 -1       655    8    0    1
 -2       254       255       406      1545      2001      2002
 -1       656    8    0    1
 -2       254       406       405      2002      2003      1998
 -1       657    8    0    1
 -2       255       256       407      1548      2004      2005
 -1       658    8    0    1
 -2       255       407       406      2005      2006      2001
 -1       659    8    0    1
 -2       256       257       408      1551      2007      2008
 -1       660    8    0    1
 -2       256       408       407      2008      2009      2004
 -1       661    8    0    1
 -2       257       258       409      1554      2010      2011
 -1       662    8    0    1
 -2       257       409       408      2011      2012      2007
 -1       663    8    0    1
 -2       258       259       410      1557      2013      2014
 -1       664    8    0    1
 -2       258       410       409      2014      2015      2010
 -1       665    8    0    1
 -2       259       260       411      1560      2016      2017
 -1       666    8    0    1
 -2       259       411       410      2017      2018      2013
 -1       667    8    0    1
 -2       260       261       412      1563      2019      2020
 -1       668    8    0    1
 -2       260       412       411      2020      2021      2016
 -1       669    8    0    1
 -2       261       262       413      1566      2022      2023
 -1       670    8    0    1
 -2       261       413       412      2023      2024      2019
 -1       671    8    0    1
 -2       262       263       414      1569      2025      2026
 -1       672    8    0    1
 -2       262       414       413      2026      2027      2022
 -1       673    8    0    1
 -2       263       264       415      1572      2028      2029
 -1       674    8    0    1
 -2       263       415       414      2029      2030      2025
 -1       675    8    0    1
 -2       264       265       416      1575      2031      2032
 -1       676    8    0    1
 -2       264       416       415      2032      2033      2028
 -1       677    8    0    1
 -2       265       266       417      1578      2034      2035
 -1       678    8    0    1
 -2       265       417       416      2035      2036      2031
 -1       679    8    0    1
 -2       266       267       418      1581      2037      2038
 -1       680    8    0    1
 -2       266       418       417      2038      2039      2034
 -1       681    8    0    1
 -2       267       268       419      1584      2040      2041
 -1       682    8    0    1
 -2       267       419       418      2041      2042      2037
 -1       683    8    0    1
 -2       268       269       420      1587      2043      2044
 -1       684    8    0    1
 -2       268       420       419      2044      2045      2040
 -1       685    8    0    1
 -2       269       270       421      1590      2046      2047
 -1       686    8    0    1
 -2       269       421       420      2047      2048      2043
 -1       687    8    0    1
 -2       270       271       422      1593      2049      2050
 -1       688    8    0    1
 -2       270       422       421      2050      2051      2046
 -1       689    8    0    1
 -2       271       272       423      1596      2052      2053
 -1       690    8    0    1
 -2       271       423       422      2053      2054      2049
 -1       691    8    0    1
 -2       272       273       424      1599      2055      2056
 -1       692    8    0    1
 -2       272       424       423      2056      2057      2052
 -1       693    8    0    1
 -2       273       274       425      1602      2058      2059
 -1       694    8    0    1
 -2       273       425       424      2059      2060      2055
 -1       695    8    0    1
 -2       274       275       426      1605      2061      2062
 -1       696    8    0    1
 -2       425       274       426      2058      2062      2063
 -1       697    8    0    1
 -2       275       276       426      1713      2064      2061
 -1       698    8    0    1
 -2       278       279       427      1617      2065      2066
 -1       699    8    0    1
 -2       277       278       428      1614      2067      2068
 -1       700    8    0    1
 -2       278       427       428      2066      2069      2067
 -1       701    8    0    1
 -2       276       277       429      1611      2070      2071
 -1       702    8    0    1
 -2       426       276       429      2064      2071      2072
 -1       703    8    0    1
 -2       277       428       429      2068      2073      2070
 -1       704    8    0    1
 -2       279       280       430      1620      2074      2075
 -1       705    8    0    1
 -2       279       430       427      2075      2076      2065
 -1       706    8    0    1
 -2       280       281       431      1623      2077      2078
 -1       707    8    0    1
 -2       280       431       430      2078      2079      2074
 -1       708    8    0    1
 -2       281       282       432      1626      2080      2081
 -1       709    8    0    1
 -2       281       432       431      2081      2082      2077
 -1       710    8    0    1
 -2       282       283       433      1629      2083      2084
 -1       711    8    0    1
 -2       282       433       432      2084      2085      2080
 -1       712    8    0    1
 -2       283       284       434      1632      2086      2087
 -1       713    8    0    1
 -2       283       434       433      2087      2088      2083
 -1       714    8    0    1
 -2       284       285       435      1635      2089      2090
 -1       715    8    0    1
 -2       284       435       434      2090      2091      2086
 -1       716    8    0    1
 -2       285       286       436      1638      2092      2093
 -1       717    8    0    1
 -2       285       436       435      2093      2094      2089
 -1       718    8    0    1
 -2       286       287       437      1641      2095      2096
 -1       719    8    0    1
 -2       286       437       436      2096      2097      2092
 -1       720    8    0    1
 -2       287       288       438      1644      2098      2099
 -1       721    8    0    1
 -2       287       438       437      2099      2100      2095
 -1       722    8    0    1
 -2       288       289       439      1647      2101      2102
 -1       723    8    0    1
 -2       288       439       438      2102      2103      2098
 -1       724    8    0    1
 -2       292       293       440      1715      2104      2105
 -1       725    8    0    1
 -2       319       291       441      1716      2106      2107
 -1       726    8    0    1
 -2       291       292       442      1714      2108      2109
 -1       727    8    0    1
 -2       292       440       442      2105      2110      2108
 -1       728    8    0    1
 -2       293       294       443      1711      2111      2112
 -1       729    8    0    1
 -2       294       295       444      1710      2113      2114
 -1       730    8    0    1
 -2       166       167       445      1279      2115      2116
 -1       731    8    0    1
 -2       320       166       445      1742      2116      2117
 -1       732    8    0    1
 -2       167       322       445      1748      2118      2115
 -1       733    8    0    1
 -2       296       297       446      1718      2119      2120
 -1       734    8    0    1
 -2       297       298       447      1719      2121      2122
 -1       735    8    0    1
 -2       298       299       448      1720      2123      2124
 -1       736    8    0    1
 -2       299       300       449      1721      2125      2126
 -1       737    8    0    1
 -2       300       301       450      1722      2127      2128
 -1       738    8    0    1
 -2       300       450       449      2128      2129      2125
 -1       739    8    0    1
 -2       301       302       451      1723      2130      2131
 -1       740    8    0    1
 -2       302       303       452      1724      2132      2133
 -1       741    8    0    1
 -2       302       452       451      2133      2134      2130
 -1       742    8    0    1
 -2       303       304       453      1725      2135      2136
 -1       743    8    0    1
 -2       304       305       454      1726      2137      2138
 -1       744    8    0    1
 -2       305       306       455      1727      2139      2140
 -1       745    8    0    1
 -2       306       307       456      1728      2141      2142
 -1       746    8    0    1
 -2       307       308       457      1729      2143      2144
 -1       747    8    0    1
 -2       308       309       458      1730      2145      2146
 -1       748    8    0    1
 -2       309       310       459      1731      2147      2148
 -1       749    8    0    1
 -2       310       311       460      1732      2149      2150
 -1       750    8    0    1
 -2       310       460       459      2150      2151      2147
 -1       751    8    0    1
 -2       311       312       461      1733      2152      2153
 -1       752    8    0    1
 -2       312       313       462      1734      2154      2155
 -1       753    8    0    1
 -2       312       462       461      2155      2156      2152
 -1       754    8    0    1
 -2       313       314       463      1735      2157      2158
 -1       755    8    0    1
 -2       314       315       464      1736      2159      2160
 -1       756    8    0    1
 -2       315       316       465      1737      2161      2162
 -1       757    8    0    1
 -2       316       317       466      1738      2163      2164
 -1       758    8    0    1
 -2       317       318       467      1739      2165      2166
 -1       759    8    0    1
 -2       318       319       468      1740      2167      2168
 -1       760    8    0    1
 -2       295       296       469      1717      2169      2170
 -1       761    8    0    1
 -2       444       295       469      2113      2170      2171
 -1       762    8    0    1
 -2       180       321       181      1787      2172      1321
 -1       763    8    0    1
 -2       296       446       469      2120      2173      2169
 -1       764    8    0    1
 -2       335       181       321      1788      2172      2174
 -1       765    8    0    1
 -2       441       291       442      2106      2109      2175
 -1       766    8    0    1
 -2       293       443       440      2112      2176      2104
 -1       767    8    0    1
 -2       439       289       290      2101      1650      2177
 -1       768    8    0    1
 -2       319       441       468      2107      2178      2167
 -1       769    8    0    1
 -2       443       294       444      2111      2114      2179
 -1       770    8    0    1
 -2       467       318       468      2165      2168      2180
 -1       771    8    0    1
 -2       466       317       467      2163      2166      2181
 -1       772    8    0    1
 -2       465       316       466      2161      2164      2182
 -1       773    8    0    1
 -2       464       315       465      2159      2162      2183
 -1       774    8    0    1
 -2       462       313       463      2154      2158      2184
 -1       775    8    0    1
 -2       460       311       461      2149      2153      2185
 -1       776    8    0    1
 -2       458       309       470      2145      2186      2187
 -1       777    8    0    1
 -2       309       459       470      2148      2188      2186
 -1       778    8    0    1
 -2       457       308       458      2143      2146      2189
 -1       779    8    0    1
 -2       456       307       457      2141      2144      2190
 -1       780    8    0    1
 -2       455       306       456      2139      2142      2191
 -1       781    8    0    1
 -2       454       305       455      2137      2140      2192
 -1       782    8    0    1
 -2       452       303       453      2132      2136      2193
 -1       783    8    0    1
 -2       450       301       451      2127      2131      2194
 -1       784    8    0    1
 -2       448       299       449      2123      2126      2195
 -1       785    8    0    1
 -2       446       297       447      2119      2122      2196
 -1       786    8    0    1
 -2       447       298       448      2121      2124      2197
 -1       787    8    0    1
 -2       453       304       454      2135      2138      2198
 -1       788    8    0    1
 -2       463       314       464      2157      2160      2199
 -1       789    8    0    1
 -2       334       381       471      1928      2200      2201
 -1       790    8    0    1
 -2       323       324       472      1754      2202      2203
 -1       791    8    0    1
 -2       322       323       473      1751      2204      2205
 -1       792    8    0    1
 -2       323       472       473      2203      2206      2204
 -1       793    8    0    1
 -2       325       326       474      1760      2207      2208
 -1       794    8    0    1
 -2       326       327       475      1763      2209      2210
 -1       795    8    0    1
 -2       326       475       474      2210      2211      2207
 -1       796    8    0    1
 -2       327       328       476      1766      2212      2213
 -1       797    8    0    1
 -2       327       476       475      2213      2214      2209
 -1       798    8    0    1
 -2       328       329       477      1769      2215      2216
 -1       799    8    0    1
 -2       328       477       476      2216      2217      2212
 -1       800    8    0    1
 -2       329       330       478      1772      2218      2219
 -1       801    8    0    1
 -2       329       478       477      2219      2220      2215
 -1       802    8    0    1
 -2       330       331       479      1775      2221      2222
 -1       803    8    0    1
 -2       330       479       478      2222      2223      2218
 -1       804    8    0    1
 -2       381       382       480      1931      2224      2225
 -1       805    8    0    1
 -2       381       480       471      2225      2226      2200
 -1       806    8    0    1
 -2       336       335       481      1792      2227      2228
 -1       807    8    0    1
 -2       469       446       482      2173      2229      2230
 -1       808    8    0    1
 -2       337       336       483      1795      2231      2232
 -1       809    8    0    1
 -2       336       481       483      2228      2233      2231
 -1       810    8    0    1
 -2       338       337       484      1798      2234      2235
 -1       811    8    0    1
 -2       337       483       484      2232      2236      2234
 -1       812    8    0    1
 -2       339       338       485      1801      2237      2238
 -1       813    8    0    1
 -2       338       484       485      2235      2239      2237
 -1       814    8    0    1
 -2       340       339       486      1804      2240      2241
 -1       815    8    0    1
 -2       339       485       486      2238      2242      2240
 -1       816    8    0    1
 -2       341       340       487      1807      2243      2244
 -1       817    8    0    1
 -2       340       486       487      2241      2245      2243
 -1       818    8    0    1
 -2       342       341       488      1810      2246      2247
 -1       819    8    0    1
 -2       341       487       488      2244      2248      2246
 -1       820    8    0    1
 -2       343       342       489      1813      2249      2250
 -1       821    8    0    1
 -2       342       488       489      2247      2251      2249
 -1       822    8    0    1
 -2       344       343       490      1816      2252      2253
 -1       823    8    0    1
 -2       343       489       490      2250      2254      2252
 -1       824    8    0    1
 -2       345       344       491      1819      2255      2256
 -1       825    8    0    1
 -2       344       490       491      2253      2257      2255
 -1       826    8    0    1
 -2       346       345       492      1822      2258      2259
 -1       827    8    0    1
 -2       345       491       492      2256      2260      2258
 -1       828    8    0    1
 -2       347       346       493      1825      2261      2262
 -1       829    8    0    1
 -2       346       492       493      2259      2263      2261
 -1       830    8    0    1
 -2       348       347       494      1828      2264      2265
 -1       831    8    0    1
 -2       347       493       494      2262      2266      2264
 -1       832    8    0    1
 -2       349       348       495      1831      2267      2268
 -1       833    8    0    1
 -2       348       494       495      2265      2269      2267
 -1       834    8    0    1
 -2       350       349       496      1834      2270      2271
 -1       835    8    0    1
 -2       349       495       496      2268      2272      2270
 -1       836    8    0    1
 -2       351       350       497      1837      2273      2274
 -1       837    8    0    1
 -2       350       496       497      2271      2275      2273
 -1       838    8    0    1
 -2       352       351       498      1840      2276      2277
 -1       839    8    0    1
 -2       351       497       498      2274      2278      2276
 -1       840    8    0    1
 -2       353       352       499      1843      2279      2280
 -1       841    8    0    1
 -2       352       498       499      2277      2281      2279
 -1       842    8    0    1
 -2       354       353       500      1846      2282      2283
 -1       843    8    0    1
 -2       353       499       500      2280      2284      2282
 -1       844    8    0    1
 -2       355       354       501      1849      2285      2286
 -1       845    8    0    1
 -2       354       500       501      2283      2287      2285
 -1       846    8    0    1
 -2       356       355       502      1852      2288      2289
 -1       847    8    0    1
 -2       355       501       502      2286      2290      2288
 -1       848    8    0    1
 -2       357       356       503      1855      2291      2292
 -1       849    8    0    1
 -2       356       502       503      2289      2293      2291
 -1       850    8    0    1
 -2       358       357       504      1858      2294      2295
 -1       851    8    0    1
 -2       357       503       504      2292      2296      2294
 -1       852    8    0    1
 -2       359       358       505      1861      2297      2298
 -1       853    8    0    1
 -2       358       504       505      2295      2299      2297
 -1       854    8    0    1
 -2       360       359       506      1864      2300      2301
 -1       855    8    0    1
 -2       359       505       506      2298      2302      2300
 -1       856    8    0    1
 -2       361       360       507      1867      2303      2304
 -1       857    8    0    1
 -2       360       506       507      2301      2305      2303
 -1       858    8    0    1
 -2       362       361       508      1870      2306      2307
 -1       859    8    0    1
 -2       361       507       508      2304      2308      2306
 -1       860    8    0    1
 -2       363       362       509      1873      2309      2310
 -1       861    8    0    1
 -2       362       508       509      2307      2311      2309
 -1       862    8    0    1
 -2       364       363       510      1876      2312      2313
 -1       863    8    0    1
 -2       363       509       510      2310      2314      2312
 -1       864    8    0    1
 -2       365       364       511      1879      2315      2316
 -1       865    8    0    1
 -2       364       510       511      2313      2317      2315
 -1       866    8    0    1
 -2       366       365       512      1882      2318      2319
 -1       867    8    0    1
 -2       365       511       512      2316      2320      2318
 -1       868    8    0    1
 -2       367       366       513      1885      2321      2322
 -1       869    8    0    1
 -2       366       512       513      2319      2323      2321
 -1       870    8    0    1
 -2       368       367       514      1888      2324      2325
 -1       871    8    0    1
 -2       367       513       514      2322      2326      2324
 -1       872    8    0    1
 -2       369       368       515      1891      2327      2328
 -1       873    8    0    1
 -2       368       514       515      2325      2329      2327
 -1       874    8    0    1
 -2       370       369       516      1894      2330      2331
 -1       875    8    0    1
 -2       369       515       516      2328      2332      2330
 -1       876    8    0    1
 -2       371       370       517      1897      2333      2334
 -1       877    8    0    1
 -2       370       516       517      2331      2335      2333
 -1       878    8    0    1
 -2       372       371       518      1900      2336      2337
 -1       879    8    0    1
 -2       371       517       518      2334      2338      2336
 -1       880    8    0    1
 -2       373       372       519      1903      2339      2340
 -1       881    8    0    1
 -2       372       518       519      2337      2341      2339
 -1       882    8    0    1
 -2       374       373       520      1906      2342      2343
 -1       883    8    0    1
 -2       373       519       520      2340      2344      2342
 -1       884    8    0    1
 -2       375       374       521      1909      2345      2346
 -1       885    8    0    1
 -2       374       520       521      2343      2347      2345
 -1       886    8    0    1
 -2       376       375       522      1912      2348      2349
 -1       887    8    0    1
 -2       375       521       522      2346      2350      2348
 -1       888    8    0    1
 -2       377       376       523      1915      2351      2352
 -1       889    8    0    1
 -2       376       522       523      2349      2353      2351
 -1       890    8    0    1
 -2       378       377       524      1918      2354      2355
 -1       891    8    0    1
 -2       377       523       524      2352      2356      2354
 -1       892    8    0    1
 -2       379       378       525      1921      2357      2358
 -1       893    8    0    1
 -2       378       524       525      2355      2359      2357
 -1       894    8    0    1
 -2       442       440       526      2110      2360      2361
 -1       895    8    0    1
 -2       383       384       527      1937      2362      2363
 -1       896    8    0    1
 -2       384       385       528      1940      2364      2365
 -1       897    8    0    1
 -2       384       528       527      2365      2366      2362
 -1       898    8    0    1
 -2       385       386       529      1943      2367      2368
 -1       899    8    0    1
 -2       385       529       528      2368      2369      2364
 -1       900    8    0    1
 -2       386       387       530      1946      2370      2371
 -1       901    8    0    1
 -2       386       530       529      2371      2372      2367
 -1       902    8    0    1
 -2       387       388       531      1949      2373      2374
 -1       903    8    0    1
 -2       387       531       530      2374      2375      2370
 -1       904    8    0    1
 -2       388       389       532      1952      2376      2377
 -1       905    8    0    1
 -2       388       532       531      2377      2378      2373
 -1       906    8    0    1
 -2       389       390       533      1955      2379      2380
 -1       907    8    0    1
 -2       389       533       532      2380      2381      2376
 -1       908    8    0    1
 -2       390       391       534      1958      2382      2383
 -1       909    8    0    1
 -2       390       534       533      2383      2384      2379
 -1       910    8    0    1
 -2       391       392       535      1961      2385      2386
 -1       911    8    0    1
 -2       391       535       534      2386      2387      2382
 -1       912    8    0    1
 -2       392       393       536      1964      2388      2389
 -1       913    8    0    1
 -2       392       536       535      2389      2390      2385
 -1       914    8    0    1
 -2       393       394       537      1967      2391      2392
 -1       915    8    0    1
 -2       393       537       536      2392      2393      2388
 -1       916    8    0    1
 -2       394       395       538      1970      2394      2395
 -1       917    8    0    1
 -2       394       538       537      2395      2396      2391
 -1       918    8    0    1
 -2       395       396       539      1973      2397      2398
 -1       919    8    0    1
 -2       395       539       538      2398      2399      2394
 -1       920    8    0    1
 -2       396       397       540      1976      2400      2401
 -1       921    8    0    1
 -2       396       540       539      2401      2402      2397
 -1       922    8    0    1
 -2       397       398       541      1979      2403      2404
 -1       923    8    0    1
 -2       397       541       540      2404      2405      2400
 -1       924    8    0    1
 -2       398       399       542      1982      2406      2407
 -1       925    8    0    1
 -2       398       542       541      2407      2408      2403
 -1       926    8    0    1
 -2       399       400       543      1985      2409      2410
 -1       927    8    0    1
 -2       399       543       542      2410      2411      2406
 -1       928    8    0    1
 -2       400       401       544      1988      2412      2413
 -1       929    8    0    1
 -2       400       544       543      2413      2414      2409
 -1       930    8    0    1
 -2       401       402       545      1991      2415      2416
 -1       931    8    0    1
 -2       401       545       544      2416      2417      2412
 -1       932    8    0    1
 -2       402       403       546      1994      2418      2419
 -1       933    8    0    1
 -2       402       546       545      2419      2420      2415
 -1       934    8    0    1
 -2       403       404       547      1997      2421      2422
 -1       935    8    0    1
 -2       403       547       546      2422      2423      2418
 -1       936    8    0    1
 -2       404       405       548      2000      2424      2425
 -1       937    8    0    1
 -2       404       548       547      2425      2426      2421
 -1       938    8    0    1
 -2       405       406       549      2003      2427      2428
 -1       939    8    0    1
 -2       405       549       548      2428      2429      2424
 -1       940    8    0    1
 -2       406       407       550      2006      2430      2431
 -1       941    8    0    1
 -2       406       550       549      2431      2432      2427
 -1       942    8    0    1
 -2       407       408       551      2009      2433      2434
 -1       943    8    0    1
 -2       407       551       550      2434      2435      2430
 -1       944    8    0    1
 -2       408       409       552      2012      2436      2437
 -1       945    8    0    1
 -2       408       552       551      2437      2438      2433
 -1       946    8    0    1
 -2       409       410       553      2015      2439      2440
 -1       947    8    0    1
 -2       409       553       552      2440      2441      2436
 -1       948    8    0    1
 -2       410       411       554      2018      2442      2443
 -1       949    8    0    1
 -2       410       554       553      2443      2444      2439
 -1       950    8    0    1
 -2       411       412       555      2021      2445      2446
 -1       951    8    0    1
 -2       411       555       554      2446      2447      2442
 -1       952    8    0    1
 -2       412       413       556      2024      2448      2449
 -1       953    8    0    1
 -2       412       556       555      2449      2450      2445
 -1       954    8    0    1
 -2       413       414       557      2027      2451      2452
 -1       955    8    0    1
 -2       413       557       556      2452      2453      2448
 -1       956    8    0    1
 -2       414       415       558      2030      2454      2455
 -1       957    8    0    1
 -2       414       558       557      2455      2456      2451
 -1       958    8    0    1
 -2       415       416       559      2033      2457      2458
 -1       959    8    0    1
 -2       415       559       558      2458      2459      2454
 -1       960    8    0    1
 -2       416       417       560      2036      2460      2461
 -1       961    8    0    1
 -2       416       560       559      2461      2462      2457
 -1       962    8    0    1
 -2       417       418       561      2039      2463      2464
 -1       963    8    0    1
 -2       417       561       560      2464      2465      2460
 -1       964    8    0    1
 -2       418       419       562      2042      2466      2467
 -1       965    8    0    1
 -2       418       562       561      2467      2468      2463
 -1       966    8    0    1
 -2       419       420       563      2045      2469      2470
 -1       967    8    0    1
 -2       419       563       562      2470      2471      2466
 -1       968    8    0    1
 -2       420       421       564      2048      2472      2473
 -1       969    8    0    1
 -2       420       564       563      2473      2474      2469
 -1       970    8    0    1
 -2       421       422       565      2051      2475      2476
 -1       971    8    0    1
 -2       421       565       564      2476      2477      2472
 -1       972    8    0    1
 -2       422       423       566      2054      2478      2479
 -1       973    8    0    1
 -2       422       566       565      2479      2480      2475
 -1       974    8    0    1
 -2       423       424       567      2057      2481      2482
 -1       975    8    0    1
 -2       423       567       566      2482      2483      2478
 -1       976    8    0    1
 -2       424       425       568      2060      2484      2485
 -1       977    8    0    1
 -2       424       568       567      2485      2486      2481
 -1       978    8    0    1
 -2       425       426       429      2063      2072      2487
 -1       979    8    0    1
 -2       430       431       569      2079      2488      2489
 -1       980    8    0    1
 -2       431       432       570      2082      2490      2491
 -1       981    8    0    1
 -2       431       570       569      2491      2492      2488
 -1       982    8    0    1
 -2       428       427       571      2069      2493      2494
 -1       983    8    0    1
 -2       427       430       572      2076      2495      2496
 -1       984    8    0    1
 -2       571       427       572      2493      2496      2497
 -1       985    8    0    1
 -2       430       569       572      2489      2498      2495
 -1       986    8    0    1
 -2       432       433       573      2085      2499      2500
 -1       987    8    0    1
 -2       432       573       570      2500      2501      2490
 -1       988    8    0    1
 -2       433       434       574      2088      2502      2503
 -1       989    8    0    1
 -2       433       574       573      2503      2504      2499
 -1       990    8    0    1
 -2       434       435       575      2091      2505      2506
 -1       991    8    0    1
 -2       434       575       574      2506      2507      2502
 -1       992    8    0    1
 -2       435       436       576      2094      2508      2509
 -1       993    8    0    1
 -2       435       576       575      2509      2510      2505
 -1       994    8    0    1
 -2       436       437       577      2097      2511      2512
 -1       995    8    0    1
 -2       436       577       576      2512      2513      2508
 -1       996    8    0    1
 -2       437       438       578      2100      2514      2515
 -1       997    8    0    1
 -2       437       578       577      2515      2516      2511
 -1       998    8    0    1
 -2       438       439       579      2103      2517      2518
 -1       999    8    0    1
 -2       438       579       578      2518      2519      2514
 -1      1000    8    0    1
 -2       439       290       380      2177      1924      2520
 -1      1001    8    0    1
 -2       468       441       580      2178      2521      2522
 -1      1002    8    0    1
 -2       382       383       581      1934      2523      2524
 -1      1003    8    0    1
 -2       383       527       581      2363      2525      2523
 -1      1004    8    0    1
 -2       440       443       582      2176      2526      2527
 -1      1005    8    0    1
 -2       467       468       583      2180      2528      2529
 -1      1006    8    0    1
 -2       335       321       584      2174      2530      2531
 -1      1007    8    0    1
 -2       481       335       584      2227      2531      2532
 -1      1008    8    0    1
 -2       321       320       584      1746      2533      2530
 -1      1009    8    0    1
 -2       443       444       585      2179      2534      2535
 -1      1010    8    0    1
 -2       448       449       586      2195      2536      2537
 -1      1011    8    0    1
 -2       324       325       587      1757      2538      2539
 -1      1012    8    0    1
 -2       472       324       587      2202      2539      2540
 -1      1013    8    0    1
 -2       325       474       587      2208      2541      2538
 -1      1014    8    0    1
 -2       447       448       588      2197      2542      2543
 -1      1015    8    0    1
 -2       453       454       589      2198      2544      2545
 -1      1016    8    0    1
 -2       446       447       590      2196      2546      2547
 -1      1017    8    0    1
 -2       446       590       482      2547      2548      2229
 -1      1018    8    0    1
 -2       449       450       591      2129      2549      2550
 -1      1019    8    0    1
 -2       450       451       592      2194      2551      2552
 -1      1020    8    0    1
 -2       451       452       593      2134      2553      2554
 -1      1021    8    0    1
 -2       463       464       594      2199      2555      2556
 -1      1022    8    0    1
 -2       452       453       595      2193      2557      2558
 -1      1023    8    0    1
 -2       454       455       596      2192      2559      2560
 -1      1024    8    0    1
 -2       455       456       597      2191      2561      2562
 -1      1025    8    0    1
 -2       455       597       596      2562      2563      2559
 -1      1026    8    0    1
 -2       456       457       598      2190      2564      2565
 -1      1027    8    0    1
 -2       457       458       599      2189      2566      2567
 -1      1028    8    0    1
 -2       459       460       600      2151      2568      2569
 -1      1029    8    0    1
 -2       460       461       601      2185      2570      2571
 -1      1030    8    0    1
 -2       461       462       602      2156      2572      2573
 -1      1031    8    0    1
 -2       462       463       603      2184      2574      2575
 -1      1032    8    0    1
 -2       463       594       603      2556      2576      2574
 -1      1033    8    0    1
 -2       464       465       604      2183      2577      2578
 -1      1034    8    0    1
 -2       465       466       605      2182      2579      2580
 -1      1035    8    0    1
 -2       466       467       606      2181      2581      2582
 -1      1036    8    0    1
 -2       441       442       607      2175      2583      2584
 -1      1037    8    0    1
 -2       333       334       608      1786      2585      2586
 -1      1038    8    0    1
 -2       332       333       608      1781      2586      2587
 -1      1039    8    0    1
 -2       334       471       608      2201      2588      2585
 -1      1040    8    0    1
 -2       444       469       609      2171      2589      2590
 -1      1041    8    0    1
 -2       447       588       590      2543      2591      2546
 -1      1042    8    0    1
 -2       322       473       610      2205      2592      2593
 -1      1043    8    0    1
 -2       322       610       445      2593      2594      2118
 -1      1044    8    0    1
 -2       480       382       581      2224      2524      2595
 -1      1045    8    0    1
 -2       331       332       608      1778      2587      2596
 -1      1046    8    0    1
 -2       609       469       482      2589      2230      2597
 -1      1047    8    0    1
 -2       607       442       526      2583      2361      2598
 -1      1048    8    0    1
 -2       606       467       583      2581      2529      2599
 -1      1049    8    0    1
 -2       585       444       609      2534      2590      2600
 -1      1050    8    0    1
 -2       605       466       606      2579      2582      2601
 -1      1051    8    0    1
 -2       468       580       583      2522      2602      2528
 -1      1052    8    0    1
 -2       526       440       582      2360      2527      2603
 -1      1053    8    0    1
 -2       425       429       568      2487      2604      2484
 -1      1054    8    0    1
 -2       429       428       568      2073      2605      2604
 -1      1055    8    0    1
 -2       602       462       603      2572      2575      2606
 -1      1056    8    0    1
 -2       439       380       611      2520      2607      2608
 -1      1057    8    0    1
 -2       579       439       611      2517      2608      2609
 -1      1058    8    0    1
 -2       380       379       611      1925      2610      2607
 -1      1059    8    0    1
 -2       601       461       602      2570      2573      2611
 -1      1060    8    0    1
 -2       600       460       601      2568      2571      2612
 -1      1061    8    0    1
 -2       580       441       607      2521      2584      2613
 -1      1062    8    0    1
 -2       331       608       479      2596      2614      2221
 -1      1063    8    0    1
 -2       582       443       585      2526      2535      2615
 -1      1064    8    0    1
 -2       599       458       612      2566      2616      2617
 -1      1065    8    0    1
 -2       458       470       612      2187      2618      2616
 -1      1066    8    0    1
 -2       597       456       598      2561      2565      2619
 -1      1067    8    0    1
 -2       586       449       591      2536      2550      2620
 -1      1068    8    0    1
 -2       448       586       588      2537      2621      2542
 -1      1069    8    0    1
 -2       595       453       589      2557      2545      2622
 -1      1070    8    0    1
 -2       594       464       604      2555      2578      2623
 -1      1071    8    0    1
 -2       593       452       595      2553      2558      2624
 -1      1072    8    0    1
 -2       592       451       593      2551      2554      2625
 -1      1073    8    0    1
 -2       470       459       600      2188      2569      2626
 -1      1074    8    0    1
 -2       584       320       445      2533      2117      2627
 -1      1075    8    0    1
 -2       589       454       613      2544      2628      2629
 -1      1076    8    0    1
 -2       454       596       613      2560      2630      2628
 -1      1077    8    0    1
 -2       591       450       592      2549      2552      2631
 -1      1078    8    0    1
 -2       598       457       599      2564      2567      2632
 -1      1079    8    0    1
 -2       604       465       605      2577      2580      2633
 -1      1080    8    0    1
 -2       568       428       571      2605      2494      2634
 -1      1081    8    0    1
 -2       611       379       525      2610      2358      2635
 -1      1082    8    0    1
 -2       475       476       614      2214      2636      2637
 -1      1083    8    0    1
 -2       474       475       615      2211      2638      2639
 -1      1084    8    0    1
 -2       475       614       615      2637      2640      2638
 -1      1085    8    0    1
 -2       477       478       616      2220      2641      2642
 -1      1086    8    0    1
 -2       478       479       617      2223      2643      2644
 -1      1087    8    0    1
 -2       478       617       616      2644      2645      2641
 -1      1088    8    0    1
 -2       471       480       618      2226      2646      2647
 -1      1089    8    0    1
 -2       582       585       619      2615      2648      2649
 -1      1090    8    0    1
 -2       480       581       620      2595      2650      2651
 -1      1091    8    0    1
 -2       480       620       618      2651      2652      2646
 -1      1092    8    0    1
 -2       607       526       621      2598      2653      2654
 -1      1093    8    0    1
 -2       603       594       622      2576      2655      2656
 -1      1094    8    0    1
 -2       484       483       623      2236      2657      2658
 -1      1095    8    0    1
 -2       485       484       624      2239      2659      2660
 -1      1096    8    0    1
 -2       484       623       624      2658      2661      2659
 -1      1097    8    0    1
 -2       486       485       625      2242      2662      2663
 -1      1098    8    0    1
 -2       485       624       625      2660      2664      2662
 -1      1099    8    0    1
 -2       487       486       626      2245      2665      2666
 -1      1100    8    0    1
 -2       486       625       626      2663      2667      2665
 -1      1101    8    0    1
 -2       488       487       627      2248      2668      2669
 -1      1102    8    0    1
 -2       487       626       627      2666      2670      2668
 -1      1103    8    0    1
 -2       489       488       628      2251      2671      2672
 -1      1104    8    0    1
 -2       488       627       628      2669      2673      2671
 -1      1105    8    0    1
 -2       490       489       629      2254      2674      2675
 -1      1106    8    0    1
 -2       489       628       629      2672      2676      2674
 -1      1107    8    0    1
 -2       491       490       630      2257      2677      2678
 -1      1108    8    0    1
 -2       490       629       630      2675      2679      2677
 -1      1109    8    0    1
 -2       492       491       631      2260      2680      2681
 -1      1110    8    0    1
 -2       491       630       631      2678      2682      2680
 -1      1111    8    0    1
 -2       493       492       632      2263      2683      2684
 -1      1112    8    0    1
 -2       492       631       632      2681      2685      2683
 -1      1113    8    0    1
 -2       494       493       633      2266      2686      2687
 -1      1114    8    0    1
 -2       493       632       633      2684      2688      2686
 -1      1115    8    0    1
 -2       495       494       634      2269      2689      2690
 -1      1116    8    0    1
 -2       494       633       634      2687      2691      2689
 -1      1117    8    0    1
 -2       496       495       635      2272      2692      2693
 -1      1118    8    0    1
 -2       495       634       635      2690      2694      2692
 -1      1119    8    0    1
 -2       497       496       636      2275      2695      2696
 -1      1120    8    0    1
 -2       496       635       636      2693      2697      2695
 -1      1121    8    0    1
 -2       498       497       637      2278      2698      2699
 -1      1122    8    0    1
 -2       497       636       637      2696      2700      2698
 -1      1123    8    0    1
 -2       499       498       638      2281      2701      2702
 -1      1124    8    0    1
 -2       498       637       638      2699      2703      2701
 -1      1125    8    0    1
 -2       500       499       639      2284      2704      2705
 -1      1126    8    0    1
 -2       499       638       639      2702      2706      2704
 -1      1127    8    0    1
 -2       501       500       640      2287      2707      2708
 -1      1128    8    0    1
 -2       500       639       640      2705      2709      2707
 -1      1129    8    0    1
 -2       502       501       641      2290      2710      2711
 -1      1130    8    0    1
 -2       501       640       641      2708      2712      2710
 -1      1131    8    0    1
 -2       503       502       642      2293      2713      2714
 -1      1132    8    0    1
 -2       502       641       642      2711      2715      2713
 -1      1133    8    0    1
 -2       504       503       643      2296      2716      2717
 -1      1134    8    0    1
 -2       503       642       643      2714      2718      2716
 -1      1135    8    0    1
 -2       505       504       644      2299      2719      2720
 -1      1136    8    0    1
 -2       504       643       644      2717      2721      2719
 -1      1137    8    0    1
 -2       506       505       645      2302      2722      2723
 -1      1138    8    0    1
 -2       505       644       645      2720      2724      2722
 -1      1139    8    0    1
 -2       507       506       646      2305      2725      2726
 -1      1140    8    0    1
 -2       506       645       646      2723      2727      2725
 -1      1141    8    0    1
 -2       508       507       647      2308      2728      2729
 -1      1142    8    0    1
 -2       507       646       647      2726      2730      2728
 -1      1143    8    0    1
 -2       509       508       648      2311      2731      2732
 -1      1144    8    0    1
 -2       508       647       648      2729      2733      2731
 -1      1145    8    0    1
 -2       510       509       649      2314      2734      2735
 -1      1146    8    0    1
 -2       509       648       649      2732      2736      2734
 -1      1147    8    0    1
 -2       511       510       650      2317      2737      2738
 -1      1148    8    0    1
 -2       510       649       650      2735      2739      2737
 -1      1149    8    0    1
 -2       512       511       651      2320      2740      2741
 -1      1150    8    0    1
 -2       511       650       651      2738      2742      2740
 -1      1151    8    0    1
 -2       513       512       652      2323      2743      2744
 -1      1152    8    0    1
 -2       512       651       652      2741      2745      2743
 -1      1153    8    0    1
 -2       514       513       601      2326      2746      2747
 -1      1154    8    0    1
 -2       515       514       602      2329      2748      2749
 -1      1155    8    0    1
 -2       516       515       602      2332      2749      2750
 -1      1156    8    0    1
 -2       517       516       622      2335      2751      2752
 -1      1157    8    0    1
 -2       519       518       653      2341      2753      2754
 -1      1158    8    0    1
 -2       520       519       654      2344      2755      2756
 -1      1159    8    0    1
 -2       519       653       654      2754      2757      2755
 -1      1160    8    0    1
 -2       521       520       655      2347      2758      2759
 -1      1161    8    0    1
 -2       520       654       655      2756      2760      2758
 -1      1162    8    0    1
 -2       522       521       656      2350      2761      2762
 -1      1163    8    0    1
 -2       521       655       656      2759      2763      2761
 -1      1164    8    0    1
 -2       523       522       657      2353      2764      2765
 -1      1165    8    0    1
 -2       522       656       657      2762      2766      2764
 -1      1166    8    0    1
 -2       524       523       658      2356      2767      2768
 -1      1167    8    0    1
 -2       523       657       658      2765      2769      2767
 -1      1168    8    0    1
 -2       525       524       659      2359      2770      2771
 -1      1169    8    0    1
 -2       524       658       659      2768      2772      2770
 -1      1170    8    0    1
 -2       601       602       514      2611      2748      2747
 -1      1171    8    0    1
 -2       527       528       660      2366      2773      2774
 -1      1172    8    0    1
 -2       530       531       661      2375      2775      2776
 -1      1173    8    0    1
 -2       531       532       662      2378      2777      2778
 -1      1174    8    0    1
 -2       531       662       661      2778      2779      2775
 -1      1175    8    0    1
 -2       532       533       663      2381      2780      2781
 -1      1176    8    0    1
 -2       532       663       662      2781      2782      2777
 -1      1177    8    0    1
 -2       533       534       664      2384      2783      2784
 -1      1178    8    0    1
 -2       533       664       663      2784      2785      2780
 -1      1179    8    0    1
 -2       534       535       665      2387      2786      2787
 -1      1180    8    0    1
 -2       534       665       664      2787      2788      2783
 -1      1181    8    0    1
 -2       535       536       666      2390      2789      2790
 -1      1182    8    0    1
 -2       535       666       665      2790      2791      2786
 -1      1183    8    0    1
 -2       536       537       667      2393      2792      2793
 -1      1184    8    0    1
 -2       536       667       666      2793      2794      2789
 -1      1185    8    0    1
 -2       537       538       668      2396      2795      2796
 -1      1186    8    0    1
 -2       537       668       667      2796      2797      2792
 -1      1187    8    0    1
 -2       538       539       669      2399      2798      2799
 -1      1188    8    0    1
 -2       538       669       668      2799      2800      2795
 -1      1189    8    0    1
 -2       539       540       670      2402      2801      2802
 -1      1190    8    0    1
 -2       539       670       669      2802      2803      2798
 -1      1191    8    0    1
 -2       540       541       671      2405      2804      2805
 -1      1192    8    0    1
 -2       540       671       670      2805      2806      2801
 -1      1193    8    0    1
 -2       541       542       672      2408      2807      2808
 -1      1194    8    0    1
 -2       541       672       671      2808      2809      2804
 -1      1195    8    0    1
 -2       542       543       673      2411      2810      2811
 -1      1196    8    0    1
 -2       542       673       672      2811      2812      2807
 -1      1197    8    0    1
 -2       543       544       674      2414      2813      2814
 -1      1198    8    0    1
 -2       543       674       673      2814      2815      2810
 -1      1199    8    0    1
 -2       544       545       675      2417      2816      2817
 -1      1200    8    0    1
 -2       544       675       674      2817      2818      2813
 -1      1201    8    0    1
 -2       545       546       676      2420      2819      2820
 -1      1202    8    0    1
 -2       545       676       675      2820      2821      2816
 -1      1203    8    0    1
 -2       546       547       677      2423      2822      2823
 -1      1204    8    0    1
 -2       546       677       676      2823      2824      2819
 -1      1205    8    0    1
 -2       547       548       678      2426      2825      2826
 -1      1206    8    0    1
 -2       547       678       677      2826      2827      2822
 -1      1207    8    0    1
 -2       548       549       679      2429      2828      2829
 -1      1208    8    0    1
 -2       548       679       678      2829      2830      2825
 -1      1209    8    0    1
 -2       549       550       680      2432      2831      2832
 -1      1210    8    0    1
 -2       549       680       679      2832      2833      2828
 -1      1211    8    0    1
 -2       550       551       681      2435      2834      2835
 -1      1212    8    0    1
 -2       550       681       680      2835      2836      2831
 -1      1213    8    0    1
 -2       551       552       682      2438      2837      2838
 -1      1214    8    0    1
 -2       551       682       681      2838      2839      2834
 -1      1215    8    0    1
 -2       552       553       683      2441      2840      2841
 -1      1216    8    0    1
 -2       552       683       682      2841      2842      2837
 -1      1217    8    0    1
 -2       553       554       684      2444      2843      2844
 -1      1218    8    0    1
 -2       553       684       683      2844      2845      2840
 -1      1219    8    0    1
 -2       554       555       685      2447      2846      2847
 -1      1220    8    0    1
 -2       554       685       684      2847      2848      2843
 -1      1221    8    0    1
 -2       555       556       686      2450      2849      2850
 -1      1222    8    0    1
 -2       555       686       685      2850      2851      2846
 -1      1223    8    0    1
 -2       556       557       687      2453      2852      2853
 -1      1224    8    0    1
 -2       556       687       686      2853      2854      2849
 -1      1225    8    0    1
 -2       557       558       688      2456      2855      2856
 -1      1226    8    0    1
 -2       557       688       687      2856      2857      2852
 -1      1227    8    0    1
 -2       558       559       689      2459      2858      2859
 -1      1228    8    0    1
 -2       558       689       688      2859      2860      2855
 -1      1229    8    0    1
 -2       559       560       690      2462      2861      2862
 -1      1230    8    0    1
 -2       559       690       689      2862      2863      2858
 -1      1231    8    0    1
 -2       560       561       691      2465      2864      2865
 -1      1232    8    0    1
 -2       560       691       690      2865      2866      2861
 -1      1233    8    0    1
 -2       561       562       692      2468      2867      2868
 -1      1234    8    0    1
 -2       561       692       691      2868      2869      2864
 -1      1235    8    0    1
 -2       562       563       693      2471      2870      2871
 -1      1236    8    0    1
 -2       562       693       692      2871      2872      2867
 -1      1237    8    0    1
 -2       563       564       694      2474      2873      2874
 -1      1238    8    0    1
 -2       563       694       693      2874      2875      2870
 -1      1239    8    0    1
 -2       564       565       695      2477      2876      2877
 -1      1240    8    0    1
 -2       564       695       694      2877      2878      2873
 -1      1241    8    0    1
 -2       565       566       696      2480      2879      2880
 -1      1242    8    0    1
 -2       565       696       695      2880      2881      2876
 -1      1243    8    0    1
 -2       566       567       697      2483      2882      2883
 -1      1244    8    0    1
 -2       566       697       696      2883      2884      2879
 -1      1245    8    0    1
 -2       567       568       698      2486      2885      2886
 -1      1246    8    0    1
 -2       697       567       698      2882      2886      2887
 -1      1247    8    0    1
 -2       568       571       698      2634      2888      2885
 -1      1248    8    0    1
 -2       573       574       699      2504      2889      2890
 -1      1249    8    0    1
 -2       611       525       700      2635      2891      2892
 -1      1250    8    0    1
 -2       525       659       700      2771      2893      2891
 -1      1251    8    0    1
 -2       569       570       701      2492      2894      2895
 -1      1252    8    0    1
 -2       574       575       702      2507      2896      2897
 -1      1253    8    0    1
 -2       574       702       699      2897      2898      2889
 -1      1254    8    0    1
 -2       570       573       703      2501      2899      2900
 -1      1255    8    0    1
 -2       701       570       703      2894      2900      2901
 -1      1256    8    0    1
 -2       573       699       703      2890      2902      2899
 -1      1257    8    0    1
 -2       526       582       704      2603      2903      2904
 -1      1258    8    0    1
 -2       575       576       705      2510      2905      2906
 -1      1259    8    0    1
 -2       575       705       702      2906      2907      2896
 -1      1260    8    0    1
 -2       576       577       706      2513      2908      2909
 -1      1261    8    0    1
 -2       576       706       705      2909      2910      2905
 -1      1262    8    0    1
 -2       577       578       707      2516      2911      2912
 -1      1263    8    0    1
 -2       577       707       706      2912      2913      2908
 -1      1264    8    0    1
 -2       581       527       708      2525      2914      2915
 -1      1265    8    0    1
 -2       620       581       708      2650      2915      2916
 -1      1266    8    0    1
 -2       527       660       708      2774      2917      2914
 -1      1267    8    0    1
 -2       585       609       709      2600      2918      2919
 -1      1268    8    0    1
 -2       481       584       710      2532      2920      2921
 -1      1269    8    0    1
 -2       608       471       479      2588      2922      2614
 -1      1270    8    0    1
 -2       586       591       711      2620      2923      2924
 -1      1271    8    0    1
 -2       597       598       712      2619      2925      2926
 -1      1272    8    0    1
 -2       529       530       713      2372      2927      2928
 -1      1273    8    0    1
 -2       530       661       713      2776      2929      2927
 -1      1274    8    0    1
 -2       528       529       714      2369      2930      2931
 -1      1275    8    0    1
 -2       529       713       714      2928      2932      2930
 -1      1276    8    0    1
 -2       483       481       715      2233      2933      2934
 -1      1277    8    0    1
 -2       623       483       715      2657      2934      2935
 -1      1278    8    0    1
 -2       481       710       715      2921      2936      2933
 -1      1279    8    0    1
 -2       588       586       716      2621      2937      2938
 -1      1280    8    0    1
 -2       586       711       716      2924      2939      2937
 -1      1281    8    0    1
 -2       476       477       717      2217      2940      2941
 -1      1282    8    0    1
 -2       614       476       717      2636      2941      2942
 -1      1283    8    0    1
 -2       477       616       717      2642      2943      2940
 -1      1284    8    0    1
 -2       473       472       718      2206      2944      2945
 -1      1285    8    0    1
 -2       594       604       719      2623      2946      2947
 -1      1286    8    0    1
 -2       594       719       622      2947      2948      2655
 -1      1287    8    0    1
 -2       482       590       720      2548      2949      2950
 -1      1288    8    0    1
 -2       598       599       721      2632      2951      2952
 -1      1289    8    0    1
 -2       470       600       722      2626      2953      2954
 -1      1290    8    0    1
 -2       593       595       723      2624      2955      2956
 -1      1291    8    0    1
 -2       595       589       724      2622      2957      2958
 -1      1292    8    0    1
 -2       592       593       725      2625      2959      2960
 -1      1293    8    0    1
 -2       591       592       726      2631      2961      2962
 -1      1294    8    0    1
 -2       596       597       727      2563      2963      2964
 -1      1295    8    0    1
 -2       604       605       728      2633      2965      2966
 -1      1296    8    0    1
 -2       584       445       710      2627      2967      2920
 -1      1297    8    0    1
 -2       580       607       729      2613      2968      2969
 -1      1298    8    0    1
 -2       579       611       700      2609      2892      2970
 -1      1299    8    0    1
 -2       606       583       730      2599      2971      2972
 -1      1300    8    0    1
 -2       605       606       731      2601      2973      2974
 -1      1301    8    0    1
 -2       606       730       731      2972      2975      2973
 -1      1302    8    0    1
 -2       583       580       732      2602      2976      2977
 -1      1303    8    0    1
 -2       609       482       733      2597      2978      2979
 -1      1304    8    0    1
 -2       590       588       734      2591      2980      2981
 -1      1305    8    0    1
 -2       590       734       720      2981      2982      2949
 -1      1306    8    0    1
 -2       610       473       735      2592      2983      2984
 -1      1307    8    0    1
 -2       473       718       735      2945      2985      2983
 -1      1308    8    0    1
 -2       474       615       736      2639      2986      2987
 -1      1309    8    0    1
 -2       474       736       587      2987      2988      2541
 -1      1310    8    0    1
 -2       607       621       729      2654      2989      2968
 -1      1311    8    0    1
 -2       582       619       704      2649      2990      2903
 -1      1312    8    0    1
 -2       621       526       704      2653      2904      2991
 -1      1313    8    0    1
 -2       585       709       737      2919      2992      2993
 -1      1314    8    0    1
 -2       585       737       619      2993      2994      2648
 -1      1315    8    0    1
 -2       601       513       652      2746      2744      2995
 -1      1316    8    0    1
 -2       517       622       738      2752      2996      2997
 -1      1317    8    0    1
 -2       518       517       738      2338      2997      2998
 -1      1318    8    0    1
 -2       622       719       738      2948      2999      2996
 -1      1319    8    0    1
 -2       516       602       603      2750      2606      3000
 -1      1320    8    0    1
 -2       569       701       739      2895      3001      3002
 -1      1321    8    0    1
 -2       569       739       572      3002      3003      2498
 -1      1322    8    0    1
 -2       528       714       660      2931      3004      2773
 -1      1323    8    0    1
 -2       734       588       716      2980      2938      3005
 -1      1324    8    0    1
 -2       583       732       730      2977      3006      2971
 -1      1325    8    0    1
 -2       571       572       740      2497      3007      3008
 -1      1326    8    0    1
 -2       698       571       740      2888      3008      3009
 -1      1327    8    0    1
 -2       572       739       740      3003      3010      3007
 -1      1328    8    0    1
 -2       733       482       720      2978      2950      3011
 -1      1329    8    0    1
 -2       578       579       700      2519      2970      3012
 -1      1330    8    0    1
 -2       728       605       741      2965      3013      3014
 -1      1331    8    0    1
 -2       605       731       741      2974      3015      3013
 -1      1332    8    0    1
 -2       580       729       732      2969      3016      2976
 -1      1333    8    0    1
 -2       727       597       712      2963      2926      3017
 -1      1334    8    0    1
 -2       726       592       725      2961      2960      3018
 -1      1335    8    0    1
 -2       725       593       723      2959      2956      3019
 -1      1336    8    0    1
 -2       724       589       742      2957      3020      3021
 -1      1337    8    0    1
 -2       589       613       742      2629      3022      3020
 -1      1338    8    0    1
 -2       612       470       722      2618      2954      3023
 -1      1339    8    0    1
 -2       723       595       724      2955      2958      3024
 -1      1340    8    0    1
 -2       479       471       618      2922      2647      3025
 -1      1341    8    0    1
 -2       711       591       743      2923      3026      3027
 -1      1342    8    0    1
 -2       591       726       743      2962      3028      3026
 -1      1343    8    0    1
 -2       712       598       721      2925      2952      3029
 -1      1344    8    0    1
 -2       653       518       738      2753      2998      3030
 -1      1345    8    0    1
 -2       445       610       710      2594      3031      2967
 -1      1346    8    0    1
 -2       613       596       727      2630      2964      3032
 -1      1347    8    0    1
 -2       721       599       744      2951      3033      3034
 -1      1348    8    0    1
 -2       599       612       744      2617      3035      3033
 -1      1349    8    0    1
 -2       472       587       745      2540      3036      3037
 -1      1350    8    0    1
 -2       718       472       745      2944      3037      3038
 -1      1351    8    0    1
 -2       587       736       745      2988      3039      3036
 -1      1352    8    0    1
 -2       578       700       746      3012      3040      3041
 -1      1353    8    0    1
 -2       707       578       746      2911      3041      3042
 -1      1354    8    0    1
 -2       700       659       746      2893      3043      3040
 -1      1355    8    0    1
 -2       719       604       728      2946      2966      3044
 -1      1356    8    0    1
 -2       709       609       733      2918      2979      3045
 -1      1357    8    0    1
 -2       479       618       617      3025      3046      2643
 -1      1358    8    0    1
 -2       616       617       747      2645      3047      3048
 -1      1359    8    0    1
 -2       710       610       735      3031      2984      3049
 -1      1360    8    0    1
 -2       625       624       748      2664      3050      3051
 -1      1361    8    0    1
 -2       626       625       749      2667      3052      3053
 -1      1362    8    0    1
 -2       625       748       749      3051      3054      3052
 -1      1363    8    0    1
 -2       627       626       750      2670      3055      3056
 -1      1364    8    0    1
 -2       626       749       750      3053      3057      3055
 -1      1365    8    0    1
 -2       628       627       751      2673      3058      3059
 -1      1366    8    0    1
 -2       627       750       751      3056      3060      3058
 -1      1367    8    0    1
 -2       629       628       752      2676      3061      3062
 -1      1368    8    0    1
 -2       628       751       752      3059      3063      3061
 -1      1369    8    0    1
 -2       630       629       753      2679      3064      3065
 -1      1370    8    0    1
 -2       629       752       753      3062      3066      3064
 -1      1371    8    0    1
 -2       631       630       754      2682      3067      3068
 -1      1372    8    0    1
 -2       630       753       754      3065      3069      3067
 -1      1373    8    0    1
 -2       632       631       755      2685      3070      3071
 -1      1374    8    0    1
 -2       631       754       755      3068      3072      3070
 -1      1375    8    0    1
 -2       633       632       756      2688      3073      3074
 -1      1376    8    0    1
 -2       632       755       756      3071      3075      3073
 -1      1377    8    0    1
 -2       634       633       757      2691      3076      3077
 -1      1378    8    0    1
 -2       633       756       757      3074      3078      3076
 -1      1379    8    0    1
 -2       635       634       758      2694      3079      3080
 -1      1380    8    0    1
 -2       634       757       758      3077      3081      3079
 -1      1381    8    0    1
 -2       636       635       759      2697      3082      3083
 -1      1382    8    0    1
 -2       635       758       759      3080      3084      3082
 -1      1383    8    0    1
 -2       637       636       760      2700      3085      3086
 -1      1384    8    0    1
 -2       636       759       760      3083      3087      3085
 -1      1385    8    0    1
 -2       638       637       761      2703      3088      3089
 -1      1386    8    0    1
 -2       637       760       761      3086      3090      3088
 -1      1387    8    0    1
 -2       639       638       762      2706      3091      3092
 -1      1388    8    0    1
 -2       638       761       762      3089      3093      3091
 -1      1389    8    0    1
 -2       640       639       763      2709      3094      3095
 -1      1390    8    0    1
 -2       639       762       763      3092      3096      3094
 -1      1391    8    0    1
 -2       641       640       764      2712      3097      3098
 -1      1392    8    0    1
 -2       640       763       764      3095      3099      3097
 -1      1393    8    0    1
 -2       642       641       765      2715      3100      3101
 -1      1394    8    0    1
 -2       641       764       765      3098      3102      3100
 -1      1395    8    0    1
 -2       643       642       766      2718      3103      3104
 -1      1396    8    0    1
 -2       642       765       766      3101      3105      3103
 -1      1397    8    0    1
 -2       644       643       767      2721      3106      3107
 -1      1398    8    0    1
 -2       643       766       767      3104      3108      3106
 -1      1399    8    0    1
 -2       645       644       768      2724      3109      3110
 -1      1400    8    0    1
 -2       644       767       768      3107      3111      3109
 -1      1401    8    0    1
 -2       646       645       769      2727      3112      3113
 -1      1402    8    0    1
 -2       645       768       769      3110      3114      3112
 -1      1403    8    0    1
 -2       647       646       770      2730      3115      3116
 -1      1404    8    0    1
 -2       646       769       770      3113      3117      3115
 -1      1405    8    0    1
 -2       648       647       771      2733      3118      3119
 -1      1406    8    0    1
 -2       647       770       771      3116      3120      3118
 -1      1407    8    0    1
 -2       649       648       772      2736      3121      3122
 -1      1408    8    0    1
 -2       648       771       772      3119      3123      3121
 -1      1409    8    0    1
 -2       650       649       773      2739      3124      3125
 -1      1410    8    0    1
 -2       649       772       773      3122      3126      3124
 -1      1411    8    0    1
 -2       651       650       744      2742      3127      3128
 -1      1412    8    0    1
 -2       652       651       722      2745      3129      3130
 -1      1413    8    0    1
 -2       738       719       728      2999      3044      3131
 -1      1414    8    0    1
 -2       663       664       774      2785      3132      3133
 -1      1415    8    0    1
 -2       655       654       775      2760      3134      3135
 -1      1416    8    0    1
 -2       656       655       776      2763      3136      3137
 -1      1417    8    0    1
 -2       655       775       776      3135      3138      3136
 -1      1418    8    0    1
 -2       657       656       777      2766      3139      3140
 -1      1419    8    0    1
 -2       656       776       777      3137      3141      3139
 -1      1420    8    0    1
 -2       658       657       778      2769      3142      3143
 -1      1421    8    0    1
 -2       657       777       778      3140      3144      3142
 -1      1422    8    0    1
 -2       659       658       779      2772      3145      3146
 -1      1423    8    0    1
 -2       746       659       779      3043      3146      3147
 -1      1424    8    0    1
 -2       658       778       779      3143      3148      3145
 -1      1425    8    0    1
 -2       705       706       780      2910      3149      3150
 -1      1426    8    0    1
 -2       662       663       781      2782      3151      3152
 -1      1427    8    0    1
 -2       663       774       781      3133      3153      3151
 -1      1428    8    0    1
 -2       733       720       782      3011      3154      3155
 -1      1429    8    0    1
 -2       661       662       783      2779      3156      3157
 -1      1430    8    0    1
 -2       662       781       783      3152      3158      3156
 -1      1431    8    0    1
 -2       664       665       784      2788      3159      3160
 -1      1432    8    0    1
 -2       664       784       774      3160      3161      3132
 -1      1433    8    0    1
 -2       665       666       785      2791      3162      3163
 -1      1434    8    0    1
 -2       665       785       784      3163      3164      3159
 -1      1435    8    0    1
 -2       666       667       786      2794      3165      3166
 -1      1436    8    0    1
 -2       666       786       785      3166      3167      3162
 -1      1437    8    0    1
 -2       667       668       787      2797      3168      3169
 -1      1438    8    0    1
 -2       667       787       786      3169      3170      3165
 -1      1439    8    0    1
 -2       668       669       788      2800      3171      3172
 -1      1440    8    0    1
 -2       668       788       787      3172      3173      3168
 -1      1441    8    0    1
 -2       669       670       789      2803      3174      3175
 -1      1442    8    0    1
 -2       669       789       788      3175      3176      3171
 -1      1443    8    0    1
 -2       670       671       790      2806      3177      3178
 -1      1444    8    0    1
 -2       670       790       789      3178      3179      3174
 -1      1445    8    0    1
 -2       671       672       791      2809      3180      3181
 -1      1446    8    0    1
 -2       671       791       790      3181      3182      3177
 -1      1447    8    0    1
 -2       672       673       792      2812      3183      3184
 -1      1448    8    0    1
 -2       672       792       791      3184      3185      3180
 -1      1449    8    0    1
 -2       673       674       793      2815      3186      3187
 -1      1450    8    0    1
 -2       673       793       792      3187      3188      3183
 -1      1451    8    0    1
 -2       674       675       794      2818      3189      3190
 -1      1452    8    0    1
 -2       674       794       793      3190      3191      3186
 -1      1453    8    0    1
 -2       675       676       795      2821      3192      3193
 -1      1454    8    0    1
 -2       675       795       794      3193      3194      3189
 -1      1455    8    0    1
 -2       676       677       796      2824      3195      3196
 -1      1456    8    0    1
 -2       676       796       795      3196      3197      3192
 -1      1457    8    0    1
 -2       677       678       797      2827      3198      3199
 -1      1458    8    0    1
 -2       677       797       796      3199      3200      3195
 -1      1459    8    0    1
 -2       678       679       798      2830      3201      3202
 -1      1460    8    0    1
 -2       678       798       797      3202      3203      3198
 -1      1461    8    0    1
 -2       679       680       799      2833      3204      3205
 -1      1462    8    0    1
 -2       679       799       798      3205      3206      3201
 -1      1463    8    0    1
 -2       680       681       800      2836      3207      3208
 -1      1464    8    0    1
 -2       680       800       799      3208      3209      3204
 -1      1465    8    0    1
 -2       681       682       801      2839      3210      3211
 -1      1466    8    0    1
 -2       681       801       800      3211      3212      3207
 -1      1467    8    0    1
 -2       682       683       802      2842      3213      3214
 -1      1468    8    0    1
 -2       682       802       801      3214      3215      3210
 -1      1469    8    0    1
 -2       683       684       803      2845      3216      3217
 -1      1470    8    0    1
 -2       683       803       802      3217      3218      3213
 -1      1471    8    0    1
 -2       684       685       743      2848      3219      3220
 -1      1472    8    0    1
 -2       685       686       743      2851      3221      3219
 -1      1473    8    0    1
 -2       686       687       716      2854      3222      3223
 -1      1474    8    0    1
 -2       687       688       734      2857      3224      3225
 -1      1475    8    0    1
 -2       689       690       782      2863      3226      3227
 -1      1476    8    0    1
 -2       691       692       804      2869      3228      3229
 -1      1477    8    0    1
 -2       692       693       805      2872      3230      3231
 -1      1478    8    0    1
 -2       692       805       804      3231      3232      3228
 -1      1479    8    0    1
 -2       693       694       806      2875      3233      3234
 -1      1480    8    0    1
 -2       693       806       805      3234      3235      3230
 -1      1481    8    0    1
 -2       694       695       807      2878      3236      3237
 -1      1482    8    0    1
 -2       694       807       806      3237      3238      3233
 -1      1483    8    0    1
 -2       695       696       808      2881      3239      3240
 -1      1484    8    0    1
 -2       695       808       807      3240      3241      3236
 -1      1485    8    0    1
 -2       696       697       809      2884      3242      3243
 -1      1486    8    0    1
 -2       696       809       808      3243      3244      3239
 -1      1487    8    0    1
 -2       697       698       810      2887      3245      3246
 -1      1488    8    0    1
 -2       809       697       810      3242      3246      3247
 -1      1489    8    0    1
 -2       698       740       810      3009      3248      3245
 -1      1490    8    0    1
 -2       615       614       811      2640      3249      3250
 -1      1491    8    0    1
 -2       621       704       812      2991      3251      3252
 -1      1492    8    0    1
 -2       699       702       813      2898      3253      3254
 -1      1493    8    0    1
 -2       706       707       814      2913      3255      3256
 -1      1494    8    0    1
 -2       706       814       780      3256      3257      3149
 -1      1495    8    0    1
 -2       702       705       815      2907      3258      3259
 -1      1496    8    0    1
 -2       813       702       815      3253      3259      3260
 -1      1497    8    0    1
 -2       705       780       815      3150      3261      3258
 -1      1498    8    0    1
 -2       731       730       816      2975      3262      3263
 -1      1499    8    0    1
 -2       730       732       817      3006      3264      3265
 -1      1500    8    0    1
 -2       722       600       652      2953      3266      3130
 -1      1501    8    0    1
 -2       713       661       818      2929      3267      3268
 -1      1502    8    0    1
 -2       661       783       818      3157      3269      3267
 -1      1503    8    0    1
 -2       726       725       819      3018      3270      3271
 -1      1504    8    0    1
 -2       654       653       741      2757      3272      3273
 -1      1505    8    0    1
 -2       624       623       820      2661      3274      3275
 -1      1506    8    0    1
 -2       624       820       748      3275      3276      3050
 -1      1507    8    0    1
 -2       729       621       821      2989      3277      3278
 -1      1508    8    0    1
 -2       660       714       822      3004      3279      3280
 -1      1509    8    0    1
 -2       714       713       823      2932      3281      3282
 -1      1510    8    0    1
 -2       822       714       823      3279      3282      3283
 -1      1511    8    0    1
 -2       713       818       823      3268      3284      3281
 -1      1512    8    0    1
 -2       612       722       651      3023      3129      3285
 -1      1513    8    0    1
 -2       516       603       622      3000      2656      2751
 -1      1514    8    0    1
 -2       653       738       728      3030      3131      3286
 -1      1515    8    0    1
 -2       723       724       824      3024      3287      3288
 -1      1516    8    0    1
 -2       725       723       825      3019      3289      3290
 -1      1517    8    0    1
 -2       712       721       826      3029      3291      3292
 -1      1518    8    0    1
 -2       709       733       827      3045      3293      3294
 -1      1519    8    0    1
 -2       733       782       827      3155      3295      3293
 -1      1520    8    0    1
 -2       613       727       828      3032      3296      3297
 -1      1521    8    0    1
 -2       704       619       829      2990      3298      3299
 -1      1522    8    0    1
 -2       732       729       830      3016      3300      3301
 -1      1523    8    0    1
 -2       732       830       817      3301      3302      3264
 -1      1524    8    0    1
 -2       727       712       831      3017      3303      3304
 -1      1525    8    0    1
 -2       617       618       832      3046      3305      3306
 -1      1526    8    0    1
 -2       747       617       832      3047      3306      3307
 -1      1527    8    0    1
 -2       618       620       832      2652      3308      3305
 -1      1528    8    0    1
 -2       653       728       741      3286      3014      3272
 -1      1529    8    0    1
 -2       716       687       734      3222      3225      3005
 -1      1530    8    0    1
 -2       736       615       833      2986      3309      3310
 -1      1531    8    0    1
 -2       615       811       833      3250      3311      3309
 -1      1532    8    0    1
 -2       710       735       715      3049      3312      2936
 -1      1533    8    0    1
 -2       737       709       834      2992      3313      3314
 -1      1534    8    0    1
 -2       709       827       834      3294      3315      3313
 -1      1535    8    0    1
 -2       825       723       824      3289      3288      3316
 -1      1536    8    0    1
 -2       707       746       835      3042      3317      3318
 -1      1537    8    0    1
 -2       814       707       835      3255      3318      3319
 -1      1538    8    0    1
 -2       746       779       835      3147      3320      3317
 -1      1539    8    0    1
 -2       729       821       830      3278      3321      3300
 -1      1540    8    0    1
 -2       650       773       744      3125      3322      3127
 -1      1541    8    0    1
 -2       612       651       744      3285      3128      3035
 -1      1542    8    0    1
 -2       739       701       836      3001      3323      3324
 -1      1543    8    0    1
 -2       731       816       741      3263      3325      3015
 -1      1544    8    0    1
 -2       726       819       743      3271      3326      3028
 -1      1545    8    0    1
 -2       684       743       803      3220      3327      3216
 -1      1546    8    0    1
 -2       686       716       837      3223      3328      3329
 -1      1547    8    0    1
 -2       688       689       838      2860      3330      3331
 -1      1548    8    0    1
 -2       690       691       839      2866      3332      3333
 -1      1549    8    0    1
 -2       811       614       840      3249      3334      3335
 -1      1550    8    0    1
 -2       614       717       840      2942      3336      3334
 -1      1551    8    0    1
 -2       812       704       829      3251      3299      3337
 -1      1552    8    0    1
 -2       701       703       841      2901      3338      3339
 -1      1553    8    0    1
 -2       701       841       836      3339      3340      3323
 -1      1554    8    0    1
 -2       613       828       742      3297      3341      3022
 -1      1555    8    0    1
 -2       621       812       821      3252      3342      3277
 -1      1556    8    0    1
 -2       703       699       842      2902      3343      3344
 -1      1557    8    0    1
 -2       841       703       842      3338      3344      3345
 -1      1558    8    0    1
 -2       699       813       842      3254      3346      3343
 -1      1559    8    0    1
 -2       727       831       828      3304      3347      3296
 -1      1560    8    0    1
 -2       620       708       843      2916      3348      3349
 -1      1561    8    0    1
 -2       620       843       832      3349      3350      3308
 -1      1562    8    0    1
 -2       775       654       741      3134      3273      3351
 -1      1563    8    0    1
 -2       708       660       844      2917      3352      3353
 -1      1564    8    0    1
 -2       843       708       844      3348      3353      3354
 -1      1565    8    0    1
 -2       660       822       844      3280      3355      3352
 -1      1566    8    0    1
 -2       730       817       816      3265      3356      3262
 -1      1567    8    0    1
 -2       820       623       845      3274      3357      3358
 -1      1568    8    0    1
 -2       623       715       845      2935      3359      3357
 -1      1569    8    0    1
 -2       652       600       601      3266      2612      2995
 -1      1570    8    0    1
 -2       819       725       825      3270      3290      3360
 -1      1571    8    0    1
 -2       716       711       837      2939      3361      3328
 -1      1572    8    0    1
 -2       734       688       838      3224      3331      3362
 -1      1573    8    0    1
 -2       717       616       846      2943      3363      3364
 -1      1574    8    0    1
 -2       840       717       846      3336      3364      3365
 -1      1575    8    0    1
 -2       616       747       846      3048      3366      3363
 -1      1576    8    0    1
 -2       718       745       847      3038      3367      3368
 -1      1577    8    0    1
 -2       829       619       848      3298      3369      3370
 -1      1578    8    0    1
 -2       619       737       848      2994      3371      3369
 -1      1579    8    0    1
 -2       824       724       849      3287      3372      3373
 -1      1580    8    0    1
 -2       724       742       849      3021      3374      3372
 -1      1581    8    0    1
 -2       712       826       831      3292      3375      3303
 -1      1582    8    0    1
 -2       718       847       850      3368      3376      3377
 -1      1583    8    0    1
 -2       718       850       735      3377      3378      2985
 -1      1584    8    0    1
 -2       720       734       838      2982      3362      3379
 -1      1585    8    0    1
 -2       720       838       782      3379      3380      3154
 -1      1586    8    0    1
 -2       839       691       804      3332      3229      3381
 -1      1587    8    0    1
 -2       838       689       782      3330      3227      3380
 -1      1588    8    0    1
 -2       711       743       837      3027      3382      3361
 -1      1589    8    0    1
 -2       750       749       851      3057      3383      3384
 -1      1590    8    0    1
 -2       751       750       852      3060      3385      3386
 -1      1591    8    0    1
 -2       750       851       852      3384      3387      3385
 -1      1592    8    0    1
 -2       752       751       853      3063      3388      3389
 -1      1593    8    0    1
 -2       751       852       853      3386      3390      3388
 -1      1594    8    0    1
 -2       753       752       854      3066      3391      3392
 -1      1595    8    0    1
 -2       752       853       854      3389      3393      3391
 -1      1596    8    0    1
 -2       754       753       855      3069      3394      3395
 -1      1597    8    0    1
 -2       753       854       855      3392      3396      3394
 -1      1598    8    0    1
 -2       755       754       856      3072      3397      3398
 -1      1599    8    0    1
 -2       754       855       856      3395      3399      3397
 -1      1600    8    0    1
 -2       756       755       857      3075      3400      3401
 -1      1601    8    0    1
 -2       755       856       857      3398      3402      3400
 -1      1602    8    0    1
 -2       757       756       858      3078      3403      3404
 -1      1603    8    0    1
 -2       756       857       858      3401      3405      3403
 -1      1604    8    0    1
 -2       758       757       859      3081      3406      3407
 -1      1605    8    0    1
 -2       757       858       859      3404      3408      3406
 -1      1606    8    0    1
 -2       759       758       860      3084      3409      3410
 -1      1607    8    0    1
 -2       758       859       860      3407      3411      3409
 -1      1608    8    0    1
 -2       760       759       861      3087      3412      3413
 -1      1609    8    0    1
 -2       759       860       861      3410      3414      3412
 -1      1610    8    0    1
 -2       761       760       862      3090      3415      3416
 -1      1611    8    0    1
 -2       760       861       862      3413      3417      3415
 -1      1612    8    0    1
 -2       762       761       863      3093      3418      3419
 -1      1613    8    0    1
 -2       761       862       863      3416      3420      3418
 -1      1614    8    0    1
 -2       763       762       864      3096      3421      3422
 -1      1615    8    0    1
 -2       762       863       864      3419      3423      3421
 -1      1616    8    0    1
 -2       764       763       865      3099      3424      3425
 -1      1617    8    0    1
 -2       763       864       865      3422      3426      3424
 -1      1618    8    0    1
 -2       765       764       866      3102      3427      3428
 -1      1619    8    0    1
 -2       764       865       866      3425      3429      3427
 -1      1620    8    0    1
 -2       766       765       867      3105      3430      3431
 -1      1621    8    0    1
 -2       765       866       867      3428      3432      3430
 -1      1622    8    0    1
 -2       767       766       868      3108      3433      3434
 -1      1623    8    0    1
 -2       766       867       868      3431      3435      3433
 -1      1624    8    0    1
 -2       768       767       869      3111      3436      3437
 -1      1625    8    0    1
 -2       767       868       869      3434      3438      3436
 -1      1626    8    0    1
 -2       769       768       870      3114      3439      3440
 -1      1627    8    0    1
 -2       768       869       870      3437      3441      3439
 -1      1628    8    0    1
 -2       770       769       871      3117      3442      3443
 -1      1629    8    0    1
 -2       769       870       871      3440      3444      3442
 -1      1630    8    0    1
 -2       771       770       872      3120      3445      3446
 -1      1631    8    0    1
 -2       770       871       872      3443      3447      3445
 -1      1632    8    0    1
 -2       772       771       873      3123      3448      3449
 -1      1633    8    0    1
 -2       771       872       873      3446      3450      3448
 -1      1634    8    0    1
 -2       773       772       874      3126      3451      3452
 -1      1635    8    0    1
 -2       772       873       874      3449      3453      3451
 -1      1636    8    0    1
 -2       847       745       875      3367      3454      3455
 -1      1637    8    0    1
 -2       745       736       875      3039      3456      3454
 -1      1638    8    0    1
 -2       784       785       876      3164      3457      3458
 -1      1639    8    0    1
 -2       830       821       877      3321      3459      3460
 -1      1640    8    0    1
 -2       777       776       878      3141      3461      3462
 -1      1641    8    0    1
 -2       778       777       879      3144      3463      3464
 -1      1642    8    0    1
 -2       777       878       879      3462      3465      3463
 -1      1643    8    0    1
 -2       781       774       880      3153      3466      3467
 -1      1644    8    0    1
 -2       774       784       881      3161      3468      3469
 -1      1645    8    0    1
 -2       784       876       881      3458      3470      3468
 -1      1646    8    0    1
 -2       839       804       834      3381      3471      3472
 -1      1647    8    0    1
 -2       785       786       882      3167      3473      3474
 -1      1648    8    0    1
 -2       785       882       876      3474      3475      3457
 -1      1649    8    0    1
 -2       786       787       883      3170      3476      3477
 -1      1650    8    0    1
 -2       786       883       882      3477      3478      3473
 -1      1651    8    0    1
 -2       787       788       884      3173      3479      3480
 -1      1652    8    0    1
 -2       787       884       883      3480      3481      3476
 -1      1653    8    0    1
 -2       788       789       885      3176      3482      3483
 -1      1654    8    0    1
 -2       788       885       884      3483      3484      3479
 -1      1655    8    0    1
 -2       789       790       886      3179      3485      3486
 -1      1656    8    0    1
 -2       789       886       885      3486      3487      3482
 -1      1657    8    0    1
 -2       790       791       887      3182      3488      3489
 -1      1658    8    0    1
 -2       790       887       886      3489      3490      3485
 -1      1659    8    0    1
 -2       791       792       888      3185      3491      3492
 -1      1660    8    0    1
 -2       791       888       887      3492      3493      3488
 -1      1661    8    0    1
 -2       792       793       889      3188      3494      3495
 -1      1662    8    0    1
 -2       792       889       888      3495      3496      3491
 -1      1663    8    0    1
 -2       793       794       890      3191      3497      3498
 -1      1664    8    0    1
 -2       793       890       889      3498      3499      3494
 -1      1665    8    0    1
 -2       794       795       891      3194      3500      3501
 -1      1666    8    0    1
 -2       794       891       890      3501      3502      3497
 -1      1667    8    0    1
 -2       795       796       892      3197      3503      3504
 -1      1668    8    0    1
 -2       795       892       891      3504      3505      3500
 -1      1669    8    0    1
 -2       796       797       893      3200      3506      3507
 -1      1670    8    0    1
 -2       796       893       892      3507      3508      3503
 -1      1671    8    0    1
 -2       797       798       894      3203      3509      3510
 -1      1672    8    0    1
 -2       797       894       893      3510      3511      3506
 -1      1673    8    0    1
 -2       798       799       895      3206      3512      3513
 -1      1674    8    0    1
 -2       798       895       894      3513      3514      3509
 -1      1675    8    0    1
 -2       799       800       896      3209      3515      3516
 -1      1676    8    0    1
 -2       799       896       895      3516      3517      3512
 -1      1677    8    0    1
 -2       800       801       897      3212      3518      3519
 -1      1678    8    0    1
 -2       800       897       896      3519      3520      3515
 -1      1679    8    0    1
 -2       801       802       898      3215      3521      3522
 -1      1680    8    0    1
 -2       801       898       897      3522      3523      3518
 -1      1681    8    0    1
 -2       802       803       899      3218      3524      3525
 -1      1682    8    0    1
 -2       802       899       898      3525      3526      3521
 -1      1683    8    0    1
 -2       690       839       782      3333      3527      3226
 -1      1684    8    0    1
 -2       804       805       848      3232      3528      3529
 -1      1685    8    0    1
 -2       807       808       900      3241      3530      3531
 -1      1686    8    0    1
 -2       808       809       901      3244      3532      3533
 -1      1687    8    0    1
 -2       808       901       900      3533      3534      3530
 -1      1688    8    0    1
 -2       740       739       902      3010      3535      3536
 -1      1689    8    0    1
 -2       810       740       902      3248      3536      3537
 -1      1690    8    0    1
 -2       739       836       902      3324      3538      3535
 -1      1691    8    0    1
 -2       828       831       903      3347      3539      3540
 -1      1692    8    0    1
 -2       780       814       904      3257      3541      3542
 -1      1693    8    0    1
 -2       821       812       905      3342      3543      3544
 -1      1694    8    0    1
 -2       818       783       906      3269      3545      3546
 -1      1695    8    0    1
 -2       806       807       907      3238      3547      3548
 -1      1696    8    0    1
 -2       807       900       907      3531      3549      3547
 -1      1697    8    0    1
 -2       805       806       908      3235      3550      3551
 -1      1698    8    0    1
 -2       848       805       908      3528      3551      3552
 -1      1699    8    0    1
 -2       806       907       908      3548      3553      3550
 -1      1700    8    0    1
 -2       748       820       909      3276      3554      3555
 -1      1701    8    0    1
 -2       816       817       910      3356      3556      3557
 -1      1702    8    0    1
 -2       775       741       816      3351      3325      3558
 -1      1703    8    0    1
 -2       783       781       911      3158      3559      3560
 -1      1704    8    0    1
 -2       781       880       911      3467      3561      3559
 -1      1705    8    0    1
 -2       776       775       910      3138      3562      3563
 -1      1706    8    0    1
 -2       826       721       912      3291      3564      3565
 -1      1707    8    0    1
 -2       742       828       913      3341      3566      3567
 -1      1708    8    0    1
 -2       749       748       914      3054      3568      3569
 -1      1709    8    0    1
 -2       749       914       851      3569      3570      3383
 -1      1710    8    0    1
 -2       831       826       915      3375      3571      3572
 -1      1711    8    0    1
 -2       825       824       916      3316      3573      3574
 -1      1712    8    0    1
 -2       721       744       912      3034      3575      3564
 -1      1713    8    0    1
 -2       819       825       899      3360      3576      3577
 -1      1714    8    0    1
 -2       817       830       917      3302      3578      3579
 -1      1715    8    0    1
 -2       715       735       845      3312      3580      3359
 -1      1716    8    0    1
 -2       747       832       918      3307      3581      3582
 -1      1717    8    0    1
 -2       832       843       918      3350      3583      3581
 -1      1718    8    0    1
 -2       812       829       919      3337      3584      3585
 -1      1719    8    0    1
 -2       775       816       910      3558      3557      3562
 -1      1720    8    0    1
 -2       826       912       874      3565      3586      3587
 -1      1721    8    0    1
 -2       831       915       903      3572      3588      3539
 -1      1722    8    0    1
 -2       834       827       839      3315      3589      3472
 -1      1723    8    0    1
 -2       875       736       833      3456      3310      3590
 -1      1724    8    0    1
 -2       830       877       917      3460      3591      3578
 -1      1725    8    0    1
 -2       783       911       906      3560      3592      3545
 -1      1726    8    0    1
 -2       776       910       878      3563      3593      3461
 -1      1727    8    0    1
 -2       880       774       881      3466      3469      3594
 -1      1728    8    0    1
 -2       779       778       920      3148      3595      3596
 -1      1729    8    0    1
 -2       835       779       920      3320      3596      3597
 -1      1730    8    0    1
 -2       778       879       920      3464      3598      3595
 -1      1731    8    0    1
 -2       877       821       905      3459      3544      3599
 -1      1732    8    0    1
 -2       782       839       827      3527      3589      3295
 -1      1733    8    0    1
 -2       899       803       819      3524      3600      3577
 -1      1734    8    0    1
 -2       833       811       921      3311      3601      3602
 -1      1735    8    0    1
 -2       909       820       922      3554      3603      3604
 -1      1736    8    0    1
 -2       820       845       922      3358      3605      3603
 -1      1737    8    0    1
 -2       811       840       923      3335      3606      3607
 -1      1738    8    0    1
 -2       811       923       921      3607      3608      3601
 -1      1739    8    0    1
 -2       902       836       901      3538      3609      3610
 -1      1740    8    0    1
 -2       809       810       902      3247      3537      3611
 -1      1741    8    0    1
 -2       842       813       924      3346      3612      3613
 -1      1742    8    0    1
 -2       780       904       925      3542      3614      3615
 -1      1743    8    0    1
 -2       780       925       815      3615      3616      3261
 -1      1744    8    0    1
 -2       813       815       926      3260      3617      3618
 -1      1745    8    0    1
 -2       924       813       926      3612      3618      3619
 -1      1746    8    0    1
 -2       815       925       926      3616      3620      3617
 -1      1747    8    0    1
 -2       844       822       927      3355      3621      3622
 -1      1748    8    0    1
 -2       743       819       803      3326      3600      3327
 -1      1749    8    0    1
 -2       747       918       846      3582      3623      3366
 -1      1750    8    0    1
 -2       823       818       928      3284      3624      3625
 -1      1751    8    0    1
 -2       818       906       928      3546      3626      3624
 -1      1752    8    0    1
 -2       916       824       929      3573      3627      3628
 -1      1753    8    0    1
 -2       824       849       929      3373      3629      3627
 -1      1754    8    0    1
 -2       913       828       930      3566      3630      3631
 -1      1755    8    0    1
 -2       828       903       930      3540      3632      3630
 -1      1756    8    0    1
 -2       748       909       914      3555      3633      3568
 -1      1757    8    0    1
 -2       910       817       917      3556      3579      3634
 -1      1758    8    0    1
 -2       822       823       931      3283      3635      3636
 -1      1759    8    0    1
 -2       823       928       931      3625      3637      3635
 -1      1760    8    0    1
 -2       826       874       915      3587      3638      3571
 -1      1761    8    0    1
 -2       829       848       932      3370      3639      3640
 -1      1762    8    0    1
 -2       919       829       932      3584      3640      3641
 -1      1763    8    0    1
 -2       848       908       932      3552      3642      3639
 -1      1764    8    0    1
 -2       849       742       913      3374      3567      3643
 -1      1765    8    0    1
 -2       905       812       919      3543      3585      3644
 -1      1766    8    0    1
 -2       847       875       933      3455      3645      3646
 -1      1767    8    0    1
 -2       825       916       899      3574      3647      3576
 -1      1768    8    0    1
 -2       847       933       922      3646      3648      3649
 -1      1769    8    0    1
 -2       822       931       927      3636      3650      3621
 -1      1770    8    0    1
 -2       836       841       934      3340      3651      3652
 -1      1771    8    0    1
 -2       836       934       901      3652      3653      3609
 -1      1772    8    0    1
 -2       901       809       902      3532      3611      3610
 -1      1773    8    0    1
 -2       853       852       935      3390      3654      3655
 -1      1774    8    0    1
 -2       854       853       936      3393      3656      3657
 -1      1775    8    0    1
 -2       853       935       936      3655      3658      3656
 -1      1776    8    0    1
 -2       855       854       937      3396      3659      3660
 -1      1777    8    0    1
 -2       854       936       937      3657      3661      3659
 -1      1778    8    0    1
 -2       856       855       938      3399      3662      3663
 -1      1779    8    0    1
 -2       855       937       938      3660      3664      3662
 -1      1780    8    0    1
 -2       857       856       939      3402      3665      3666
 -1      1781    8    0    1
 -2       856       938       939      3663      3667      3665
 -1      1782    8    0    1
 -2       858       857       940      3405      3668      3669
 -1      1783    8    0    1
 -2       857       939       940      3666      3670      3668
 -1      1784    8    0    1
 -2       859       858       941      3408      3671      3672
 -1      1785    8    0    1
 -2       858       940       941      3669      3673      3671
 -1      1786    8    0    1
 -2       860       859       942      3411      3674      3675
 -1      1787    8    0    1
 -2       859       941       942      3672      3676      3674
 -1      1788    8    0    1
 -2       861       860       943      3414      3677      3678
 -1      1789    8    0    1
 -2       860       942       943      3675      3679      3677
 -1      1790    8    0    1
 -2       862       861       944      3417      3680      3681
 -1      1791    8    0    1
 -2       861       943       944      3678      3682      3680
 -1      1792    8    0    1
 -2       863       862       945      3420      3683      3684
 -1      1793    8    0    1
 -2       862       944       945      3681      3685      3683
 -1      1794    8    0    1
 -2       864       863       946      3423      3686      3687
 -1      1795    8    0    1
 -2       863       945       946      3684      3688      3686
 -1      1796    8    0    1
 -2       865       864       947      3426      3689      3690
 -1      1797    8    0    1
 -2       864       946       947      3687      3691      3689
 -1      1798    8    0    1
 -2       866       865       948      3429      3692      3693
 -1      1799    8    0    1
 -2       865       947       948      3690      3694      3692
 -1      1800    8    0    1
 -2       867       866       949      3432      3695      3696
 -1      1801    8    0    1
 -2       866       948       949      3693      3697      3695
 -1      1802    8    0    1
 -2       868       867       950      3435      3698      3699
 -1      1803    8    0    1
 -2       867       949       950      3696      3700      3698
 -1      1804    8    0    1
 -2       869       868       951      3438      3701      3702
 -1      1805    8    0    1
 -2       868       950       951      3699      3703      3701
 -1      1806    8    0    1
 -2       870       869       952      3441      3704      3705
 -1      1807    8    0    1
 -2       869       951       952      3702      3706      3704
 -1      1808    8    0    1
 -2       871       870       953      3444      3707      3708
 -1      1809    8    0    1
 -2       870       952       953      3705      3709      3707
 -1      1810    8    0    1
 -2       872       871       954      3447      3710      3711
 -1      1811    8    0    1
 -2       871       953       954      3708      3712      3710
 -1      1812    8    0    1
 -2       873       872       955      3450      3713      3714
 -1      1813    8    0    1
 -2       872       954       955      3711      3715      3713
 -1      1814    8    0    1
 -2       874       873       956      3453      3716      3717
 -1      1815    8    0    1
 -2       915       874       956      3638      3717      3718
 -1      1816    8    0    1
 -2       873       955       956      3714      3719      3716
 -1      1817    8    0    1
 -2       882       883       957      3478      3720      3721
 -1      1818    8    0    1
 -2       814       835       920      3319      3597      3722
 -1      1819    8    0    1
 -2       879       878       958      3465      3723      3724
 -1      1820    8    0    1
 -2       877       905       959      3599      3725      3726
 -1      1821    8    0    1
 -2       920       879       904      3598      3727      3728
 -1      1822    8    0    1
 -2       834       804       848      3471      3529      3729
 -1      1823    8    0    1
 -2       876       882       960      3475      3730      3731
 -1      1824    8    0    1
 -2       882       957       960      3721      3732      3730
 -1      1825    8    0    1
 -2       884       885       961      3484      3733      3734
 -1      1826    8    0    1
 -2       885       886       962      3487      3735      3736
 -1      1827    8    0    1
 -2       885       962       961      3736      3737      3733
 -1      1828    8    0    1
 -2       886       887       963      3490      3738      3739
 -1      1829    8    0    1
 -2       886       963       962      3739      3740      3735
 -1      1830    8    0    1
 -2       887       888       964      3493      3741      3742
 -1      1831    8    0    1
 -2       887       964       963      3742      3743      3738
 -1      1832    8    0    1
 -2       888       889       965      3496      3744      3745
 -1      1833    8    0    1
 -2       888       965       964      3745      3746      3741
 -1      1834    8    0    1
 -2       889       890       966      3499      3747      3748
 -1      1835    8    0    1
 -2       889       966       965      3748      3749      3744
 -1      1836    8    0    1
 -2       890       891       967      3502      3750      3751
 -1      1837    8    0    1
 -2       890       967       966      3751      3752      3747
 -1      1838    8    0    1
 -2       891       892       968      3505      3753      3754
 -1      1839    8    0    1
 -2       891       968       967      3754      3755      3750
 -1      1840    8    0    1
 -2       892       893       969      3508      3756      3757
 -1      1841    8    0    1
 -2       892       969       968      3757      3758      3753
 -1      1842    8    0    1
 -2       893       894       970      3511      3759      3760
 -1      1843    8    0    1
 -2       893       970       969      3760      3761      3756
 -1      1844    8    0    1
 -2       894       895       971      3514      3762      3763
 -1      1845    8    0    1
 -2       894       971       970      3763      3764      3759
 -1      1846    8    0    1
 -2       895       896       972      3517      3765      3766
 -1      1847    8    0    1
 -2       895       972       971      3766      3767      3762
 -1      1848    8    0    1
 -2       896       897       973      3520      3768      3769
 -1      1849    8    0    1
 -2       896       973       972      3769      3770      3765
 -1      1850    8    0    1
 -2       897       898       974      3523      3771      3772
 -1      1851    8    0    1
 -2       897       974       973      3772      3773      3768
 -1      1852    8    0    1
 -2       898       899       916      3526      3647      3774
 -1      1853    8    0    1
 -2       842       924       975      3613      3775      3776
 -1      1854    8    0    1
 -2       842       975       841      3776      3777      3345
 -1      1855    8    0    1
 -2       686       837       743      3329      3382      3221
 -1      1856    8    0    1
 -2       840       846       976      3365      3778      3779
 -1      1857    8    0    1
 -2       840       976       923      3779      3780      3606
 -1      1858    8    0    1
 -2       852       851       977      3387      3781      3782
 -1      1859    8    0    1
 -2       852       977       935      3782      3783      3654
 -1      1860    8    0    1
 -2       880       881       978      3594      3784      3785
 -1      1861    8    0    1
 -2       904       879       958      3727      3724      3786
 -1      1862    8    0    1
 -2       849       913       979      3643      3787      3788
 -1      1863    8    0    1
 -2       849       979       929      3788      3789      3629
 -1      1864    8    0    1
 -2       900       901       934      3534      3653      3790
 -1      1865    8    0    1
 -2       904       814       920      3541      3722      3728
 -1      1866    8    0    1
 -2       906       911       980      3592      3791      3792
 -1      1867    8    0    1
 -2       846       918       976      3623      3793      3778
 -1      1868    8    0    1
 -2       907       900       981      3549      3794      3795
 -1      1869    8    0    1
 -2       843       844       982      3354      3796      3797
 -1      1870    8    0    1
 -2       918       843       982      3583      3797      3798
 -1      1871    8    0    1
 -2       844       927       982      3622      3799      3796
 -1      1872    8    0    1
 -2       917       877       983      3591      3800      3801
 -1      1873    8    0    1
 -2       878       910       917      3593      3634      3802
 -1      1874    8    0    1
 -2       914       909       984      3633      3803      3804
 -1      1875    8    0    1
 -2       911       880       985      3561      3805      3806
 -1      1876    8    0    1
 -2       880       978       985      3785      3807      3805
 -1      1877    8    0    1
 -2       737       834       848      3314      3729      3371
 -1      1878    8    0    1
 -2       875       833       986      3590      3808      3809
 -1      1879    8    0    1
 -2       933       875       986      3645      3809      3810
 -1      1880    8    0    1
 -2       833       921       986      3602      3811      3808
 -1      1881    8    0    1
 -2       903       915       956      3588      3718      3812
 -1      1882    8    0    1
 -2       905       919       987      3644      3813      3814
 -1      1883    8    0    1
 -2       851       914       988      3570      3815      3816
 -1      1884    8    0    1
 -2       851       988       977      3816      3817      3781
 -1      1885    8    0    1
 -2       850       847       922      3376      3649      3818
 -1      1886    8    0    1
 -2       927       931       989      3650      3819      3820
 -1      1887    8    0    1
 -2       845       735       850      3580      3378      3821
 -1      1888    8    0    1
 -2       883       884       990      3481      3822      3823
 -1      1889    8    0    1
 -2       957       883       990      3720      3823      3824
 -1      1890    8    0    1
 -2       884       961       990      3734      3825      3822
 -1      1891    8    0    1
 -2       881       876       991      3470      3826      3827
 -1      1892    8    0    1
 -2       876       960       991      3731      3828      3826
 -1      1893    8    0    1
 -2       898       916       974      3774      3829      3771
 -1      1894    8    0    1
 -2       850       922       845      3818      3605      3821
 -1      1895    8    0    1
 -2       905       987       959      3814      3830      3725
 -1      1896    8    0    1
 -2       980       911       985      3791      3806      3831
 -1      1897    8    0    1
 -2       877       959       983      3726      3832      3800
 -1      1898    8    0    1
 -2       906       980       992      3792      3833      3834
 -1      1899    8    0    1
 -2       906       992       928      3834      3835      3626
 -1      1900    8    0    1
 -2       986       921       993      3811      3836      3837
 -1      1901    8    0    1
 -2       975       924       994      3775      3838      3839
 -1      1902    8    0    1
 -2       925       904       958      3614      3786      3840
 -1      1903    8    0    1
 -2       881       991       978      3827      3841      3784
 -1      1904    8    0    1
 -2       907       981       908      3795      3842      3553
 -1      1905    8    0    1
 -2       909       922       995      3604      3843      3844
 -1      1906    8    0    1
 -2       984       909       995      3803      3844      3845
 -1      1907    8    0    1
 -2       922       933       995      3648      3846      3843
 -1      1908    8    0    1
 -2       979       913       996      3787      3847      3848
 -1      1909    8    0    1
 -2       913       930       996      3631      3849      3847
 -1      1910    8    0    1
 -2       982       927       997      3799      3850      3851
 -1      1911    8    0    1
 -2       927       989       997      3820      3852      3850
 -1      1912    8    0    1
 -2       924       926       998      3619      3853      3854
 -1      1913    8    0    1
 -2       924       998       994      3854      3855      3838
 -1      1914    8    0    1
 -2       900       934       981      3790      3856      3794
 -1      1915    8    0    1
 -2       916       929       974      3628      3857      3829
 -1      1916    8    0    1
 -2       921       923       999      3608      3858      3859
 -1      1917    8    0    1
 -2       921       999       993      3859      3860      3836
 -1      1918    8    0    1
 -2       931       928      1000      3637      3861      3862
 -1      1919    8    0    1
 -2       928       992      1000      3835      3863      3861
 -1      1920    8    0    1
 -2       878       917      1001      3802      3864      3865
 -1      1921    8    0    1
 -2       914       984       988      3804      3866      3815
 -1      1922    8    0    1
 -2       933       986      1002      3810      3867      3868
 -1      1923    8    0    1
 -2       986       993      1002      3837      3869      3867
 -1      1924    8    0    1
 -2       987       919       981      3813      3870      3871
 -1      1925    8    0    1
 -2       933      1002       995      3868      3872      3846
 -1      1926    8    0    1
 -2       841       975       934      3777      3873      3651
 -1      1927    8    0    1
 -2       989       931      1000      3819      3862      3874
 -1      1928    8    0    1
 -2       903       956      1003      3812      3875      3876
 -1      1929    8    0    1
 -2       930       903      1003      3632      3876      3877
 -1      1930    8    0    1
 -2       956       955      1003      3719      3878      3875
 -1      1931    8    0    1
 -2       773       874       912      3452      3586      3879
 -1      1932    8    0    1
 -2       937       936      1004      3661      3880      3881
 -1      1933    8    0    1
 -2       938       937      1005      3664      3882      3883
 -1      1934    8    0    1
 -2       937      1004      1005      3881      3884      3882
 -1      1935    8    0    1
 -2       939       938      1006      3667      3885      3886
 -1      1936    8    0    1
 -2       938      1005      1006      3883      3887      3885
 -1      1937    8    0    1
 -2       940       939      1007      3670      3888      3889
 -1      1938    8    0    1
 -2       939      1006      1007      3886      3890      3888
 -1      1939    8    0    1
 -2       941       940      1008      3673      3891      3892
 -1      1940    8    0    1
 -2       940      1007      1008      3889      3893      3891
 -1      1941    8    0    1
 -2       942       941      1009      3676      3894      3895
 -1      1942    8    0    1
 -2       941      1008      1009      3892      3896      3894
 -1      1943    8    0    1
 -2       943       942      1010      3679      3897      3898
 -1      1944    8    0    1
 -2       942      1009      1010      3895      3899      3897
 -1      1945    8    0    1
 -2       944       943      1011      3682      3900      3901
 -1      1946    8    0    1
 -2       943      1010      1011      3898      3902      3900
 -1      1947    8    0    1
 -2       945       944      1012      3685      3903      3904
 -1      1948    8    0    1
 -2       944      1011      1012      3901      3905      3903
 -1      1949    8    0    1
 -2       946       945      1013      3688      3906      3907
 -1      1950    8    0    1
 -2       945      1012      1013      3904      3908      3906
 -1      1951    8    0    1
 -2       947       946      1014      3691      3909      3910
 -1      1952    8    0    1
 -2       946      1013      1014      3907      3911      3909
 -1      1953    8    0    1
 -2       948       947      1015      3694      3912      3913
 -1      1954    8    0    1
 -2       947      1014      1015      3910      3914      3912
 -1      1955    8    0    1
 -2       949       948      1016      3697      3915      3916
 -1      1956    8    0    1
 -2       948      1015      1016      3913      3917      3915
 -1      1957    8    0    1
 -2       950       949      1017      3700      3918      3919
 -1      1958    8    0    1
 -2       949      1016      1017      3916      3920      3918
 -1      1959    8    0    1
 -2       951       950      1018      3703      3921      3922
 -1      1960    8    0    1
 -2       950      1017      1018      3919      3923      3921
 -1      1961    8    0    1
 -2       952       951      1019      3706      3924      3925
 -1      1962    8    0    1
 -2       951      1018      1019      3922      3926      3924
 -1      1963    8    0    1
 -2       953       952      1020      3709      3927      3928
 -1      1964    8    0    1
 -2       952      1019      1020      3925      3929      3927
 -1      1965    8    0    1
 -2       954       953      1021      3712      3930      3931
 -1      1966    8    0    1
 -2       953      1020      1021      3928      3932      3930
 -1      1967    8    0    1
 -2       955       954      1022      3715      3933      3934
 -1      1968    8    0    1
 -2      1003       955      1022      3878      3934      3935
 -1      1969    8    0    1
 -2       954      1021      1022      3931      3936      3933
 -1      1970    8    0    1
 -2       773       912       744      3879      3575      3322
 -1      1971    8    0    1
 -2       980       985      1023      3831      3937      3938
 -1      1972    8    0    1
 -2       981       934       975      3856      3873      3939
 -1      1973    8    0    1
 -2       929       979      1024      3789      3940      3941
 -1      1974    8    0    1
 -2       960       957      1025      3732      3942      3943
 -1      1975    8    0    1
 -2       962       963      1026      3740      3944      3945
 -1      1976    8    0    1
 -2       961       962      1027      3737      3946      3947
 -1      1977    8    0    1
 -2       962      1026      1027      3945      3948      3946
 -1      1978    8    0    1
 -2       964       965      1028      3746      3949      3950
 -1      1979    8    0    1
 -2       965       966      1029      3749      3951      3952
 -1      1980    8    0    1
 -2       965      1029      1028      3952      3953      3949
 -1      1981    8    0    1
 -2       966       967      1030      3752      3954      3955
 -1      1982    8    0    1
 -2       966      1030      1029      3955      3956      3951
 -1      1983    8    0    1
 -2       967       968      1031      3755      3957      3958
 -1      1984    8    0    1
 -2       967      1031      1030      3958      3959      3954
 -1      1985    8    0    1
 -2       968       969      1032      3758      3960      3961
 -1      1986    8    0    1
 -2       968      1032      1031      3961      3962      3957
 -1      1987    8    0    1
 -2       969       970      1033      3761      3963      3964
 -1      1988    8    0    1
 -2       969      1033      1032      3964      3965      3960
 -1      1989    8    0    1
 -2       970       971      1034      3764      3966      3967
 -1      1990    8    0    1
 -2       970      1034      1033      3967      3968      3963
 -1      1991    8    0    1
 -2       971       972      1035      3767      3969      3970
 -1      1992    8    0    1
 -2       971      1035      1034      3970      3971      3966
 -1      1993    8    0    1
 -2       972       973      1036      3770      3972      3973
 -1      1994    8    0    1
 -2       972      1036      1035      3973      3974      3969
 -1      1995    8    0    1
 -2       973       974      1024      3773      3975      3976
 -1      1996    8    0    1
 -2       923       976      1037      3780      3977      3978
 -1      1997    8    0    1
 -2       923      1037       999      3978      3979      3858
 -1      1998    8    0    1
 -2       935       977      1038      3783      3980      3981
 -1      1999    8    0    1
 -2       978       991      1039      3841      3982      3983
 -1      2000    8    0    1
 -2       926       925      1040      3620      3984      3985
 -1      2001    8    0    1
 -2       926      1040       998      3985      3986      3853
 -1      2002    8    0    1
 -2       976       918      1041      3793      3987      3988
 -1      2003    8    0    1
 -2      1037       976      1041      3977      3988      3989
 -1      2004    8    0    1
 -2       918       982      1041      3798      3990      3987
 -1      2005    8    0    1
 -2       974       929      1024      3857      3941      3975
 -1      2006    8    0    1
 -2       984       995      1042      3845      3991      3992
 -1      2007    8    0    1
 -2       995      1002      1042      3872      3993      3991
 -1      2008    8    0    1
 -2       985       978      1043      3807      3994      3995
 -1      2009    8    0    1
 -2       978      1039      1043      3983      3996      3994
 -1      2010    8    0    1
 -2       988       984      1042      3866      3992      3997
 -1      2011    8    0    1
 -2      1002       993      1044      3869      3998      3999
 -1      2012    8    0    1
 -2      1002      1044      1042      3999      4000      3993
 -1      2013    8    0    1
 -2       991       960      1045      3828      4001      4002
 -1      2014    8    0    1
 -2       960      1025      1045      3943      4003      4001
 -1      2015    8    0    1
 -2       977       988      1046      3817      4004      4005
 -1      2016    8    0    1
 -2       977      1046      1038      4005      4006      3980
 -1      2017    8    0    1
 -2       959       987       994      3830      4007      4008
 -1      2018    8    0    1
 -2       989      1000      1047      3874      4009      4010
 -1      2019    8    0    1
 -2       963       964      1048      3743      4011      4012
 -1      2020    8    0    1
 -2       964      1028      1048      3950      4013      4011
 -1      2021    8    0    1
 -2       936       935      1049      3658      4014      4015
 -1      2022    8    0    1
 -2       936      1049      1004      4015      4016      3880
 -1      2023    8    0    1
 -2       994       987       981      4007      3871      4017
 -1      2024    8    0    1
 -2       994       981       975      4017      3939      3839
 -1      2025    8    0    1
 -2      1026       963      1048      3944      4012      4018
 -1      2026    8    0    1
 -2      1025       957      1050      3942      4019      4020
 -1      2027    8    0    1
 -2       957       990      1050      3824      4021      4019
 -1      2028    8    0    1
 -2      1024       979      1051      3940      4022      4023
 -1      2029    8    0    1
 -2       979       996      1051      3848      4024      4022
 -1      2030    8    0    1
 -2       958       878      1001      3723      3865      4025
 -1      2031    8    0    1
 -2       992       980      1052      3833      4026      4027
 -1      2032    8    0    1
 -2       980      1023      1052      3938      4028      4026
 -1      2033    8    0    1
 -2       930      1003      1053      3877      4029      4030
 -1      2034    8    0    1
 -2       996       930      1053      3849      4030      4031
 -1      2035    8    0    1
 -2      1003      1022      1053      3935      4032      4029
 -1      2036    8    0    1
 -2       961      1027      1054      3947      4033      4034
 -1      2037    8    0    1
 -2       961      1054       990      4034      4035      3825
 -1      2038    8    0    1
 -2       973      1024      1036      3976      4036      3972
 -1      2039    8    0    1
 -2       925       958      1040      3840      4037      3984
 -1      2040    8    0    1
 -2       991      1045      1039      4002      4038      3982
 -1      2041    8    0    1
 -2       959       994       998      4008      3855      4039
 -1      2042    8    0    1
 -2       988      1042      1046      3997      4040      4004
 -1      2043    8    0    1
 -2       997       989      1055      3852      4041      4042
 -1      2044    8    0    1
 -2       989      1047      1055      4010      4043      4041
 -1      2045    8    0    1
 -2       917       983      1001      3801      4044      3864
 -1      2046    8    0    1
 -2       935      1038      1049      3981      4045      4014
 -1      2047    8    0    1
 -2      1000       992      1056      3863      4046      4047
 -1      2048    8    0    1
 -2       992      1052      1056      4027      4048      4046
 -1      2049    8    0    1
 -2      1047      1000      1056      4009      4047      4049
 -1      2050    8    0    1
 -2       993       999      1057      3860      4050      4051
 -1      2051    8    0    1
 -2       993      1057      1044      4051      4052      3998
 -1      2052    8    0    1
 -2       983       959      1040      3832      4053      4054
 -1      2053    8    0    1
 -2       981       919       932      3870      3641      4055
 -1      2054    8    0    1
 -2       985      1043      1023      3995      4056      3937
 -1      2055    8    0    1
 -2       959       998      1040      4039      3986      4053
 -1      2056    8    0    1
 -2      1001       983      1040      4044      4054      4057
 -1      2057    8    0    1
 -2      1006      1005      1058      3887      4058      4059
 -1      2058    8    0    1
 -2      1007      1006      1059      3890      4060      4061
 -1      2059    8    0    1
 -2      1006      1058      1059      4059      4062      4060
 -1      2060    8    0    1
 -2      1008      1007      1060      3893      4063      4064
 -1      2061    8    0    1
 -2      1007      1059      1060      4061      4065      4063
 -1      2062    8    0    1
 -2      1009      1008      1061      3896      4066      4067
 -1      2063    8    0    1
 -2      1008      1060      1061      4064      4068      4066
 -1      2064    8    0    1
 -2      1010      1009      1062      3899      4069      4070
 -1      2065    8    0    1
 -2      1009      1061      1062      4067      4071      4069
 -1      2066    8    0    1
 -2      1011      1010      1063      3902      4072      4073
 -1      2067    8    0    1
 -2      1010      1062      1063      4070      4074      4072
 -1      2068    8    0    1
 -2      1012      1011      1064      3905      4075      4076
 -1      2069    8    0    1
 -2      1011      1063      1064      4073      4077      4075
 -1      2070    8    0    1
 -2      1013      1012      1065      3908      4078      4079
 -1      2071    8    0    1
 -2      1012      1064      1065      4076      4080      4078
 -1      2072    8    0    1
 -2      1014      1013      1066      3911      4081      4082
 -1      2073    8    0    1
 -2      1013      1065      1066      4079      4083      4081
 -1      2074    8    0    1
 -2      1015      1014      1067      3914      4084      4085
 -1      2075    8    0    1
 -2      1014      1066      1067      4082      4086      4084
 -1      2076    8    0    1
 -2      1016      1015      1068      3917      4087      4088
 -1      2077    8    0    1
 -2      1015      1067      1068      4085      4089      4087
 -1      2078    8    0    1
 -2      1017      1016      1069      3920      4090      4091
 -1      2079    8    0    1
 -2      1016      1068      1069      4088      4092      4090
 -1      2080    8    0    1
 -2      1018      1017      1070      3923      4093      4094
 -1      2081    8    0    1
 -2      1017      1069      1070      4091      4095      4093
 -1      2082    8    0    1
 -2      1019      1018      1071      3926      4096      4097
 -1      2083    8    0    1
 -2      1018      1070      1071      4094      4098      4096
 -1      2084    8    0    1
 -2      1020      1019      1072      3929      4099      4100
 -1      2085    8    0    1
 -2      1019      1071      1072      4097      4101      4099
 -1      2086    8    0    1
 -2      1021      1020      1073      3932      4102      4103
 -1      2087    8    0    1
 -2      1020      1072      1073      4100      4104      4102
 -1      2088    8    0    1
 -2      1030      1031      1074      3959      4105      4106
 -1      2089    8    0    1
 -2      1026      1048      1075      4018      4107      4108
 -1      2090    8    0    1
 -2      1038      1046      1076      4006      4109      4110
 -1      2091    8    0    1
 -2      1004      1049      1077      4016      4111      4112
 -1      2092    8    0    1
 -2      1029      1030      1078      3956      4113      4114
 -1      2093    8    0    1
 -2      1030      1074      1078      4106      4115      4113
 -1      2094    8    0    1
 -2      1028      1029      1079      3953      4116      4117
 -1      2095    8    0    1
 -2      1029      1078      1079      4114      4118      4116
 -1      2096    8    0    1
 -2      1031      1032      1080      3962      4119      4120
 -1      2097    8    0    1
 -2      1031      1080      1074      4120      4121      4105
 -1      2098    8    0    1
 -2      1032      1033      1081      3965      4122      4123
 -1      2099    8    0    1
 -2      1032      1081      1080      4123      4124      4119
 -1      2100    8    0    1
 -2      1033      1034      1082      3968      4125      4126
 -1      2101    8    0    1
 -2      1033      1082      1081      4126      4127      4122
 -1      2102    8    0    1
 -2      1034      1035      1083      3971      4128      4129
 -1      2103    8    0    1
 -2      1034      1083      1082      4129      4130      4125
 -1      2104    8    0    1
 -2      1035      1036      1084      3974      4131      4132
 -1      2105    8    0    1
 -2      1035      1084      1083      4132      4133      4128
 -1      2106    8    0    1
 -2      1042      1044      1046      4000      4134      4040
 -1      2107    8    0    1
 -2       908       981       932      3842      4055      3642
 -1      2108    8    0    1
 -2      1041       982       997      3990      3851      4135
 -1      2109    8    0    1
 -2      1005      1004      1085      3884      4136      4137
 -1      2110    8    0    1
 -2      1004      1077      1085      4112      4138      4136
 -1      2111    8    0    1
 -2      1048      1028      1086      4013      4139      4140
 -1      2112    8    0    1
 -2      1028      1079      1086      4117      4141      4139
 -1      2113    8    0    1
 -2      1043      1039      1087      3996      4142      4143
 -1      2114    8    0    1
 -2      1049      1038      1088      4045      4144      4145
 -1      2115    8    0    1
 -2      1038      1076      1088      4110      4146      4144
 -1      2116    8    0    1
 -2      1045      1025      1089      4003      4147      4148
 -1      2117    8    0    1
 -2      1039      1045      1090      4038      4149      4150
 -1      2118    8    0    1
 -2      1087      1039      1090      4142      4150      4151
 -1      2119    8    0    1
 -2      1045      1089      1090      4148      4152      4149
 -1      2120    8    0    1
 -2      1023      1043      1091      4056      4153      4154
 -1      2121    8    0    1
 -2      1043      1087      1091      4143      4155      4153
 -1      2122    8    0    1
 -2       958      1001      1040      4025      4057      4037
 -1      2123    8    0    1
 -2      1027      1026      1092      3948      4156      4157
 -1      2124    8    0    1
 -2      1026      1075      1092      4108      4158      4156
 -1      2125    8    0    1
 -2      1036      1024      1051      4036      4023      4159
 -1      2126    8    0    1
 -2      1047      1056      1093      4049      4160      4161
 -1      2127    8    0    1
 -2      1046      1044      1094      4134      4162      4163
 -1      2128    8    0    1
 -2      1076      1046      1094      4109      4163      4164
 -1      2129    8    0    1
 -2      1044      1057      1094      4052      4165      4162
 -1      2130    8    0    1
 -2      1050       990      1054      4021      4035      4166
 -1      2131    8    0    1
 -2      1022      1021      1095      3936      4167      4168
 -1      2132    8    0    1
 -2      1053      1022      1095      4032      4168      4169
 -1      2133    8    0    1
 -2      1021      1073      1095      4103      4170      4167
 -1      2134    8    0    1
 -2      1036      1051      1084      4159      4171      4131
 -1      2135    8    0    1
 -2      1051       996      1096      4024      4172      4173
 -1      2136    8    0    1
 -2      1084      1051      1096      4171      4173      4174
 -1      2137    8    0    1
 -2       996      1053      1096      4031      4175      4172
 -1      2138    8    0    1
 -2      1052      1023      1097      4028      4176      4177
 -1      2139    8    0    1
 -2      1023      1091      1097      4154      4178      4176
 -1      2140    8    0    1
 -2      1048      1086      1075      4140      4179      4107
 -1      2141    8    0    1
 -2      1027      1092      1098      4157      4180      4181
 -1      2142    8    0    1
 -2      1027      1098      1054      4181      4182      4033
 -1      2143    8    0    1
 -2       999      1037      1099      3979      4183      4184
 -1      2144    8    0    1
 -2      1037      1041      1055      3989      4185      4186
 -1      2145    8    0    1
 -2      1056      1052      1100      4048      4187      4188
 -1      2146    8    0    1
 -2      1052      1097      1100      4177      4189      4187
 -1      2147    8    0    1
 -2      1049      1088      1077      4145      4190      4111
 -1      2148    8    0    1
 -2      1089      1025      1101      4147      4191      4192
 -1      2149    8    0    1
 -2      1025      1050      1101      4020      4193      4191
 -1      2150    8    0    1
 -2      1057       999      1099      4050      4184      4194
 -1      2151    8    0    1
 -2      1058      1005      1085      4058      4137      4195
 -1      2152    8    0    1
 -2      1093      1056      1100      4160      4188      4196
 -1      2153    8    0    1
 -2      1060      1059      1089      4065      4197      4198
 -1      2154    8    0    1
 -2      1061      1060      1101      4068      4199      4200
 -1      2155    8    0    1
 -2      1063      1062      1102      4074      4201      4202
 -1      2156    8    0    1
 -2      1064      1063      1092      4077      4203      4204
 -1      2157    8    0    1
 -2      1065      1064      1075      4080      4205      4206
 -1      2158    8    0    1
 -2      1066      1065      1086      4083      4207      4208
 -1      2159    8    0    1
 -2      1067      1066      1079      4086      4209      4210
 -1      2160    8    0    1
 -2      1068      1067      1078      4089      4211      4212
 -1      2161    8    0    1
 -2      1069      1068      1074      4092      4213      4214
 -1      2162    8    0    1
 -2      1070      1069      1080      4095      4215      4216
 -1      2163    8    0    1
 -2      1071      1070      1081      4098      4217      4218
 -1      2164    8    0    1
 -2      1072      1071      1082      4101      4219      4220
 -1      2165    8    0    1
 -2      1073      1072      1083      4104      4221      4222
 -1      2166    8    0    1
 -2      1080      1081      1070      4124      4217      4216
 -1      2167    8    0    1
 -2      1079      1066      1086      4209      4208      4141
 -1      2168    8    0    1
 -2      1086      1065      1075      4207      4206      4179
 -1      2169    8    0    1
 -2      1074      1080      1069      4121      4215      4214
 -1      2170    8    0    1
 -2      1079      1078      1067      4118      4211      4210
 -1      2171    8    0    1
 -2      1081      1082      1071      4127      4219      4218
 -1      2172    8    0    1
 -2      1082      1083      1072      4130      4221      4220
 -1      2173    8    0    1
 -2      1083      1084      1073      4133      4223      4222
 -1      2174    8    0    1
 -2      1074      1068      1078      4213      4212      4115
 -1      2175    8    0    1
 -2      1099      1037      1055      4183      4186      4224
 -1      2176    8    0    1
 -2      1055      1047      1099      4043      4225      4224
 -1      2177    8    0    1
 -2      1059      1058      1090      4062      4226      4227
 -1      2178    8    0    1
 -2      1060      1089      1101      4198      4192      4199
 -1      2179    8    0    1
 -2      1085      1077      1091      4138      4228      4229
 -1      2180    8    0    1
 -2      1077      1088      1097      4190      4230      4231
 -1      2181    8    0    1
 -2      1075      1064      1092      4205      4204      4158
 -1      2182    8    0    1
 -2      1091      1087      1085      4155      4232      4229
 -1      2183    8    0    1
 -2      1085      1087      1058      4232      4233      4195
 -1      2184    8    0    1
 -2      1088      1076      1100      4146      4234      4235
 -1      2185    8    0    1
 -2      1091      1077      1097      4228      4231      4178
 -1      2186    8    0    1
 -2      1058      1087      1090      4233      4151      4226
 -1      2187    8    0    1
 -2      1050      1054      1103      4166      4236      4237
 -1      2188    8    0    1
 -2      1050      1103      1101      4237      4238      4193
 -1      2189    8    0    1
 -2      1089      1059      1090      4197      4227      4152
 -1      2190    8    0    1
 -2      1047      1093      1104      4161      4239      4240
 -1      2191    8    0    1
 -2      1093      1100      1076      4196      4234      4241
 -1      2192    8    0    1
 -2      1099      1047      1104      4225      4240      4242
 -1      2193    8    0    1
 -2      1099      1104      1057      4242      4243      4194
 -1      2194    8    0    1
 -2      1088      1100      1097      4235      4189      4230
 -1      2195    8    0    1
 -2      1057      1104      1094      4243      4244      4165
 -1      2196    8    0    1
 -2      1061      1101      1103      4200      4238      4245
 -1      2197    8    0    1
 -2      1062      1061      1103      4071      4245      4246
 -1      2198    8    0    1
 -2      1073      1084      1095      4223      4247      4170
 -1      2199    8    0    1
 -2      1062      1103      1102      4246      4248      4201
 -1      2200    8    0    1
 -2      1094      1104      1093      4244      4239      4249
 -1      2201    8    0    1
 -2      1092      1063      1102      4203      4202      4250
 -1      2202    8    0    1
 -2      1094      1093      1076      4249      4241      4164
 -1      2203    8    0    1
 -2      1041       997      1055      4135      4042      4185
 -1      2204    8    0    1
 -2      1096      1053      1095      4175      4169      4251
 -1      2205    8    0    1
 -2      1103      1054      1098      4236      4182      4252
 -1      2206    8    0    1
 -2      1102      1103      1098      4248      4252      4253
 -1      2207    8    0    1
 -2      1098      1092      1102      4180      4250      4253
 -1      2208    8    0    1
 -2      1084      1096      1095      4174      4251      4247
 -3
    1PSTEP                         1           1           1          
  100CL  101 1.000000000        4253                     0    1           1
 -4  DISP        4    1
 -5  D1          1    2    1    0
 -5  D2          1    2    2    0
 -5  D3          1    2    3    0
 -5  ALL         1    2    0    0    1ALL
 -1         1 1.15672E-02-9.71462E-04-6.63083E-14
 -1         2 1.30605E-02-1.61424E-04-7.21148E-14
 -1         3 1.48100E-02 1.91885E-04-1.12076E-13
 -1         4 1.51956E-02-8.22328E-04-1.06859E-13
 -1         5 0.00000E+00 0.00000E+00 0.00000E+00
 -1         6 0.00000E+00 0.00000E+00 0.00000E+00
 -1         7 0.00000E+00 0.00000E+00 0.00000E+00
 -1         8 0.00000E+00 0.00000E+00 0.00000E+00
 -1         9 0.00000E+00 0.00000E+00 0.00000E+00
 -1        10 0.00000E+00 0.00000E+00 0.00000E+00
 -1        11 0.00000E+00 0.00000E+00 0.00000E+00
 -1        12 0.00000E+00 0.00000E+00 0.00000E+00
 -1        13 0.00000E+00 0.00000E+00 0.00000E+00
 -1        14 0.00000E+00 0.00000E+00 0.00000E+00
 -1        15 0.00000E+00 0.00000E+00 0.00000E+00
 -1        16 0.00000E+00 0.00000E+00 0.00000E+00
 -1        17 0.00000E+00 0.00000E+00 0.00000E+00
 -1        18 0.00000E+00 0.00000E+00 0.00000E+00
 -1        19 0.00000E+00 0.00000E+00 0.00000E+00
 -1        20 0.00000E+00 0.00000E+00 0.00000E+00
 -1        21 0.00000E+00 0.00000E+00 0.00000E+00
 -1        22 0.00000E+00 0.00000E+00 0.00000E+00
 -1        23 4.11363E-04-2.60760E-04 5.65310E-17
 -1        24 7.03310E-04-4.01032E-04-2.39541E-18
 -1        25 9.73324E-04-4.98426E-04-1.76406E-16
 -1        26 1.23774E-03-5.67171E-04-4.66309E-16
 -1        27 1.50118E-03-6.16403E-04-8.71048E-16
 -1        28 1.76574E-03-6.51496E-04-1.39105E-15
 -1        29 2.03236E-03-6.76151E-04-2.02664E-15
 -1        30 2.30140E-03-6.93048E-04-2.77631E-15
 -1        31 2.57293E-03-7.04187E-04-3.64073E-15
 -1        32 2.84681E-03-7.11070E-04-4.61566E-15
 -1        33 3.12281E-03-7.14817E-04-5.69982E-15
 -1        34 3.40068E-03-7.16251E-04-6.88475E-15
 -1        35 3.68016E-03-7.15959E-04-8.16934E-15
 -1        36 3.96105E-03-7.14345E-04-9.54754E-15
 -1        37 4.24318E-03-7.11667E-04-1.10145E-14
 -1        38 4.52645E-03-7.08074E-04-1.25683E-14
 -1        39 4.81086E-03-7.03640E-04-1.42115E-14
 -1        40 5.09650E-03-6.98391E-04-1.59435E-14
 -1        41 5.38360E-03-6.92341E-04-1.77645E-14
 -1        42 5.67252E-03-6.85530E-04-1.96748E-14
 -1        43 5.96379E-03-6.78067E-04-2.16729E-14
 -1        44 6.25814E-03-6.70196E-04-2.37567E-14
 -1        45 6.55652E-03-6.62376E-04-2.59312E-14
 -1        46 6.86013E-03-6.55392E-04-2.81907E-14
 -1        47 7.17040E-03-6.50497E-04-3.05277E-14
 -1        48 7.48893E-03-6.49594E-04-3.29505E-14
 -1        49 7.81737E-03-6.55433E-04-3.54517E-14
 -1        50 8.15704E-03-6.71781E-04-3.80257E-14
 -1        51 8.50839E-03-7.03434E-04-4.06643E-14
 -1        52 8.87006E-03-7.55816E-04-4.33694E-14
 -1        53 9.23772E-03-8.33758E-04-4.61268E-14
 -1        54 9.60311E-03-9.39033E-04-4.89289E-14
 -1        55 9.95444E-03-1.06668E-03-5.17736E-14
 -1        56 1.02794E-02-1.20155E-03-5.46564E-14
 -1        57 1.05715E-02-1.31855E-03-5.75883E-14
 -1        58 1.08358E-02-1.38971E-03-6.05736E-14
 -1        59 1.10903E-02-1.39691E-03-6.36125E-14
 -1        60 1.13574E-02-1.34211E-03-6.67098E-14
 -1        61 1.16529E-02-1.24610E-03-6.98458E-14
 -1        62 1.19792E-02-1.13695E-03-7.30333E-14
 -1        63 1.23280E-02-1.03783E-03-7.62795E-14
 -1        64 1.26864E-02-9.61281E-04-7.95853E-14
 -1        65 1.30427E-02-9.10034E-04-8.29453E-14
 -1        66 1.33893E-02-8.80589E-04-8.63497E-14
 -1        67 1.37221E-02-8.66669E-04-8.97903E-14
 -1        68 1.40402E-02-8.61394E-04-9.32302E-14
 -1        69 1.43446E-02-8.58360E-04-9.66668E-14
 -1        70 1.46381E-02-8.52220E-04-1.00107E-13
 -1        71 1.49248E-02-8.39648E-04-1.03558E-13
 -1        72 4.13810E-04 2.61464E-04 2.76878E-17
 -1        73 7.03134E-04 4.03739E-04-8.52793E-17
 -1        74 9.73861E-04 5.00200E-04-3.31027E-16
 -1        75 1.23857E-03 5.68883E-04-7.07289E-16
 -1        76 1.50214E-03 6.18162E-04-1.21140E-15
 -1        77 1.76676E-03 6.53346E-04-1.83922E-15
 -1        78 2.03342E-03 6.78111E-04-2.58569E-15
 -1        79 2.30249E-03 6.95130E-04-3.45065E-15
 -1        80 2.57404E-03 7.06397E-04-4.43087E-15
 -1        81 2.84793E-03 7.13411E-04-5.52673E-15
 -1        82 3.12394E-03 7.17292E-04-6.73478E-15
 -1        83 3.40182E-03 7.18863E-04-8.05554E-15
 -1        84 3.68132E-03 7.18714E-04-9.48351E-15
 -1        85 3.96223E-03 7.17249E-04-1.10237E-14
 -1        86 4.24438E-03 7.14732E-04-1.26764E-14
 -1        87 4.52768E-03 7.11322E-04-1.44322E-14
 -1        88 4.81213E-03 7.07103E-04-1.62898E-14
 -1        89 5.09781E-03 7.02121E-04-1.82420E-14
 -1        90 5.38493E-03 6.96417E-04-2.02913E-14
 -1        91 5.67383E-03 6.90066E-04-2.24301E-14
 -1        92 5.96499E-03 6.83225E-04-2.46497E-14
 -1        93 6.25905E-03 6.76193E-04-2.69508E-14
 -1        94 6.55679E-03 6.69488E-04-2.93408E-14
 -1        95 6.85914E-03 6.63931E-04-3.18118E-14
 -1        96 7.16713E-03 6.60753E-04-3.43591E-14
 -1        97 7.48173E-03 6.61694E-04-3.69762E-14
 -1        98 7.80369E-03 6.69073E-04-3.96552E-14
 -1        99 8.13323E-03 6.85759E-04-4.23887E-14
 -1       100 8.46950E-03 7.14939E-04-4.51651E-14
 -1       101 8.81010E-03 7.59530E-04-4.79889E-14
 -1       102 9.15056E-03 8.21072E-04-5.08639E-14
 -1       103 9.48437E-03 8.98084E-04-5.37863E-14
 -1       104 9.80389E-03 9.84297E-04-5.67490E-14
 -1       105 1.01028E-02 1.06774E-03-5.97522E-14
 -1       106 1.03791E-02 1.13215E-03-6.28061E-14
 -1       107 1.06378E-02 1.16151E-03-6.59162E-14
 -1       108 1.08904E-02 1.14617E-03-6.90789E-14
 -1       109 1.11505E-02 1.08718E-03-7.22904E-14
 -1       110 1.14286E-02 9.95763E-04-7.55296E-14
 -1       111 1.17278E-02 8.88255E-04-7.87816E-14
 -1       112 1.20451E-02 7.80002E-04-8.20607E-14
 -1       113 1.23732E-02 6.81414E-04-8.53533E-14
 -1       114 1.27042E-02 5.97057E-04-8.86592E-14
 -1       115 1.30317E-02 5.26782E-04-9.19772E-14
 -1       116 1.33513E-02 4.67511E-04-9.53047E-14
 -1       117 1.36612E-02 4.14784E-04-9.86515E-14
 -1       118 1.39612E-02 3.63845E-04-1.02031E-13
 -1       119 1.42527E-02 3.10426E-04-1.05435E-13
 -1       120 1.45391E-02 2.51753E-04-1.08850E-13
 -1       121 1.48732E-02 1.07075E-04-1.11812E-13
 -1       122 1.49407E-02 2.35049E-05-1.11572E-13
 -1       123 1.50134E-02-5.49313E-05-1.11314E-13
 -1       124 1.50885E-02-1.25169E-04-1.11049E-13
 -1       125 1.51620E-02-1.85554E-04-1.10777E-13
 -1       126 1.52283E-02-2.35036E-04-1.10519E-13
 -1       127 1.52852E-02-2.76386E-04-1.10243E-13
 -1       128 1.53276E-02-3.11033E-04-1.09942E-13
 -1       129 1.53532E-02-3.42418E-04-1.09637E-13
 -1       130 1.53612E-02-3.74605E-04-1.09301E-13
 -1       131 1.53530E-02-4.11669E-04-1.08967E-13
 -1       132 1.53321E-02-4.56198E-04-1.08624E-13
 -1       133 1.53025E-02-5.11935E-04-1.08279E-13
 -1       134 1.52698E-02-5.78843E-04-1.07926E-13
 -1       135 1.52393E-02-6.55767E-04-1.07564E-13
 -1       136 1.52146E-02-7.38796E-04-1.07205E-13
 -1       137 1.30015E-02 1.65820E-05-7.21175E-14
 -1       138 1.28477E-02 1.86604E-04-7.17844E-14
 -1       139 1.25993E-02 3.45989E-04-7.11151E-14
 -1       140 1.22201E-02 5.02448E-04-6.99872E-14
 -1       141 1.18359E-02 6.05903E-04-6.87968E-14
 -1       142 1.13901E-02 6.79778E-04-6.73735E-14
 -1       143 1.09087E-02 7.14355E-04-6.58016E-14
 -1       144 1.04342E-02 7.06026E-04-6.42268E-14
 -1       145 9.94009E-03 6.49493E-04-6.25507E-14
 -1       146 9.54997E-03 5.64922E-04-6.12080E-14
 -1       147 9.20184E-03 4.45513E-04-5.99684E-14
 -1       148 8.92919E-03 3.01530E-04-5.89542E-14
 -1       149 8.73851E-03 1.31948E-04-5.81690E-14
 -1       150 8.65589E-03-4.42070E-05-5.77267E-14
 -1       151 8.67432E-03-2.16773E-04-5.76209E-14
 -1       152 8.77960E-03-3.80472E-04-5.78122E-14
 -1       153 8.99665E-03-5.54760E-04-5.83660E-14
 -1       154 9.29173E-03-7.06493E-04-5.91959E-14
 -1       155 9.72028E-03-8.52440E-04-6.04606E-14
 -1       156 1.01356E-02-9.41233E-04-6.17101E-14
 -1       157 1.06321E-02-9.98820E-04-6.32626E-14
 -1       158 1.11050E-02-1.00687E-03-6.47733E-14
 -1       159 1.19882E-02-8.97726E-04-6.77588E-14
 -1       160 1.23615E-02-7.89384E-04-6.91033E-14
 -1       161 1.26674E-02-6.53700E-04-7.02618E-14
 -1       162 1.28932E-02-4.96175E-04-7.11865E-14
 -1       163 1.30223E-02-3.32379E-04-7.17962E-14
 -1       164 2.40385E-04-1.25551E-04-8.97516E-18
 -1       165 2.25260E-04-9.46556E-05-2.97139E-17
 -1       166 2.19508E-04-7.28163E-05-4.23313E-17
 -1       167 2.16719E-04-5.51390E-05-5.01715E-17
 -1       168 2.15233E-04-3.99956E-05-5.50368E-17
 -1       169 2.14404E-04-2.59374E-05-5.82115E-17
 -1       170 2.13990E-04-1.26558E-05-6.04544E-17
 -1       171 2.13870E-04 2.72730E-07-6.21790E-17
 -1       172 2.14009E-04 1.32136E-05-6.31717E-17
 -1       173 2.14445E-04 2.65350E-05-6.35512E-17
 -1       174 2.15282E-04 4.04235E-05-6.30870E-17
 -1       175 2.16822E-04 5.59499E-05-6.09728E-17
 -1       176 2.19668E-04 7.38553E-05-5.64598E-17
 -1       177 2.25430E-04 9.60553E-05-4.73932E-17
 -1       178 2.39314E-04 1.27627E-04-2.99206E-17
 -1       179 2.97684E-04 1.85528E-04-1.27123E-17
 -1       180 4.68579E-04-2.63600E-04-2.87381E-17
 -1       181 7.66682E-04-3.82215E-04-1.75156E-16
 -1       182 1.05048E-03-4.65108E-04-4.31092E-16
 -1       183 1.32781E-03-5.23874E-04-7.99487E-16
 -1       184 1.60233E-03-5.65523E-04-1.28056E-15
 -1       185 1.87613E-03-5.94735E-04-1.87502E-15
 -1       186 2.15033E-03-6.14799E-04-2.58226E-15
 -1       187 2.42554E-03-6.28122E-04-3.40077E-15
 -1       188 2.70201E-03-6.36491E-04-4.32988E-15
 -1       189 2.97983E-03-6.41235E-04-5.36800E-15
 -1       190 3.25896E-03-6.43331E-04-6.50948E-15
 -1       191 3.53931E-03-6.43481E-04-7.75065E-15
 -1       192 3.82080E-03-6.42168E-04-9.08801E-15
 -1       193 4.10333E-03-6.39709E-04-1.05180E-14
 -1       194 4.38685E-03-6.36288E-04-1.20393E-14
 -1       195 4.67136E-03-6.31994E-04-1.36469E-14
 -1       196 4.95694E-03-6.26849E-04-1.53430E-14
 -1       197 5.24373E-03-6.20844E-04-1.71294E-14
 -1       198 5.53199E-03-6.13967E-04-1.90046E-14
 -1       199 5.82207E-03-6.06247E-04-2.09675E-14
 -1       200 6.11448E-03-5.97811E-04-2.30194E-14
 -1       201 6.40984E-03-5.88948E-04-2.51563E-14
 -1       202 6.70894E-03-5.80213E-04-2.73816E-14
 -1       203 7.01273E-03-5.72553E-04-2.96859E-14
 -1       204 7.32225E-03-5.67484E-04-3.20721E-14
 -1       205 7.63861E-03-5.67298E-04-3.45371E-14
 -1       206 7.96277E-03-5.75291E-04-3.70750E-14
 -1       207 8.29536E-03-5.95926E-04-3.96846E-14
 -1       208 8.63622E-03-6.34748E-04-4.23590E-14
 -1       209 8.98391E-03-6.97694E-04-4.50941E-14
 -1       210 9.33511E-03-7.89307E-04-4.78797E-14
 -1       211 9.68433E-03-9.09384E-04-5.07083E-14
 -1       212 1.00246E-02-1.04856E-03-5.35774E-14
 -1       213 1.03497E-02-1.18531E-03-5.64890E-14
 -1       214 1.06581E-02-1.28901E-03-5.94562E-14
 -1       215 1.09557E-02-1.33171E-03-6.24757E-14
 -1       216 1.12539E-02-1.30327E-03-6.55480E-14
 -1       217 1.15635E-02-1.21797E-03-6.86652E-14
 -1       218 1.18889E-02-1.10528E-03-7.18256E-14
 -1       219 1.22271E-02-9.94487E-04-7.50437E-14
 -1       220 1.25714E-02-9.04352E-04-7.83157E-14
 -1       221 1.29149E-02-8.41612E-04-8.16371E-14
 -1       222 1.32523E-02-8.04478E-04-8.50041E-14
 -1       223 1.35805E-02-7.86893E-04-8.84114E-14
 -1       224 1.38983E-02-7.81505E-04-9.18371E-14
 -1       225 1.42060E-02-7.81198E-04-9.52649E-14
 -1       226 1.45048E-02-7.79743E-04-9.87053E-14
 -1       227 1.47966E-02-7.72330E-04-1.02150E-13
 -1       228 6.04505E-04 3.31095E-04-1.38409E-16
 -1       229 8.93551E-04 4.32730E-04-3.88683E-16
 -1       230 1.17238E-03 5.04477E-04-7.64430E-16
 -1       231 1.44666E-03 5.55540E-04-1.26386E-15
 -1       232 1.71938E-03 5.91731E-04-1.88423E-15
 -1       233 1.99218E-03 6.17019E-04-2.62339E-15
 -1       234 2.26589E-03 6.34259E-04-3.47844E-15
 -1       235 2.54092E-03 6.45565E-04-4.44817E-15
 -1       236 2.81741E-03 6.52511E-04-5.53124E-15
 -1       237 3.09536E-03 6.56268E-04-6.72621E-15
 -1       238 3.37469E-03 6.57690E-04-8.03165E-15
 -1       239 3.65528E-03 6.57384E-04-9.44471E-15
 -1       240 3.93701E-03 6.55766E-04-1.09673E-14
 -1       241 4.21981E-03 6.53099E-04-1.25975E-14
 -1       242 4.50363E-03 6.49535E-04-1.43332E-14
 -1       243 4.78848E-03 6.45148E-04-1.61697E-14
 -1       244 5.07447E-03 6.39965E-04-1.81025E-14
 -1       245 5.36178E-03 6.34002E-04-2.01300E-14
 -1       246 5.65067E-03 6.27304E-04-2.22458E-14
 -1       247 5.94153E-03 6.19989E-04-2.44480E-14
 -1       248 6.23487E-03 6.12311E-04-2.67305E-14
 -1       249 6.53128E-03 6.04733E-04-2.91005E-14
 -1       250 6.83146E-03 5.98022E-04-3.15475E-14
 -1       251 7.13615E-03 5.93359E-04-3.40706E-14
 -1       252 7.44607E-03 5.92449E-04-3.66680E-14
 -1       253 7.76172E-03 5.97621E-04-3.93280E-14
 -1       254 8.08326E-03 6.11828E-04-4.20430E-14
 -1       255 8.41015E-03 6.38477E-04-4.48050E-14
 -1       256 8.74087E-03 6.80879E-04-4.76173E-14
 -1       257 9.07260E-03 7.41174E-04-5.04791E-14
 -1       258 9.40127E-03 8.18616E-04-5.33875E-14
 -1       259 9.72208E-03 9.07549E-04-5.63417E-14
 -1       260 1.00308E-02 9.96083E-04-5.93403E-14
 -1       261 1.03258E-02 1.06710E-03-6.23866E-14
 -1       262 1.06095E-02 1.10282E-03-6.54875E-14
 -1       263 1.08886E-02 1.09172E-03-6.86375E-14
 -1       264 1.11715E-02 1.03387E-03-7.18307E-14
 -1       265 1.14646E-02 9.40848E-04-7.50542E-14
 -1       266 1.17702E-02 8.30279E-04-7.82998E-14
 -1       267 1.20865E-02 7.18883E-04-8.15686E-14
 -1       268 1.24090E-02 6.17990E-04-8.48552E-14
 -1       269 1.27328E-02 5.32527E-04-8.81607E-14
 -1       270 1.30535E-02 4.62309E-04-9.14778E-14
 -1       271 1.33684E-02 4.04019E-04-9.48037E-14
 -1       272 1.36760E-02 3.52894E-04-9.81493E-14
 -1       273 1.39761E-02 3.03861E-04-1.01527E-13
 -1       274 1.42697E-02 2.52300E-04-1.04927E-13
 -1       275 1.45585E-02 1.94954E-04-1.08336E-13
 -1       276 1.46590E-02 1.21403E-04-1.08736E-13
 -1       277 1.47306E-02 4.19136E-05-1.08475E-13
 -1       278 1.48069E-02-3.22236E-05-1.08206E-13
 -1       279 1.48841E-02-9.97653E-05-1.07933E-13
 -1       280 1.49563E-02-1.59188E-04-1.07664E-13
 -1       281 1.50211E-02-2.12849E-04-1.07390E-13
 -1       282 1.50728E-02-2.60878E-04-1.07098E-13
 -1       283 1.51078E-02-3.05333E-04-1.06792E-13
 -1       284 1.51244E-02-3.48876E-04-1.06472E-13
 -1       285 1.51229E-02-3.94389E-04-1.06140E-13
 -1       286 1.51061E-02-4.43627E-04-1.05806E-13
 -1       287 1.50776E-02-5.00257E-04-1.05454E-13
 -1       288 1.50431E-02-5.64532E-04-1.05095E-13
 -1       289 1.50085E-02-6.36382E-04-1.04737E-13
 -1       290 1.49006E-02-7.02997E-04-1.03443E-13
 -1       291 1.30667E-02-1.23050E-04-7.35989E-14
 -1       292 1.29160E-02-1.49061E-05-7.33107E-14
 -1       293 1.26420E-02 1.09666E-04-7.28762E-14
 -1       294 1.22609E-02 2.94779E-04-7.17860E-14
 -1       295 1.18604E-02 4.98326E-04-7.02604E-14
 -1       296 1.14780E-02 6.59299E-04-6.86606E-14
 -1       297 1.10834E-02 7.65209E-04-6.68970E-14
 -1       298 1.06974E-02 7.90750E-04-6.50503E-14
 -1       299 1.03062E-02 7.22399E-04-6.30912E-14
 -1       300 9.89356E-03 5.78988E-04-6.13800E-14
 -1       301 9.53910E-03 3.99726E-04-5.96749E-14
 -1       302 9.16181E-03 2.41162E-04-5.84989E-14
 -1       303 8.86406E-03 8.53422E-05-5.73058E-14
 -1       304 8.67080E-03-2.31310E-05-5.66670E-14
 -1       305 8.62579E-03-1.13197E-04-5.64337E-14
 -1       306 8.71574E-03-2.10965E-04-5.65642E-14
 -1       307 8.93806E-03-3.18625E-04-5.67572E-14
 -1       308 9.26528E-03-4.87396E-04-5.76354E-14
 -1       309 9.68563E-03-6.83950E-04-5.87391E-14
 -1       310 1.00861E-02-8.87407E-04-6.03869E-14
 -1       311 1.04953E-02-1.03365E-03-6.19490E-14
 -1       312 1.08757E-02-1.08358E-03-6.38573E-14
 -1       313 1.12510E-02-1.05212E-03-6.56521E-14
 -1       314 1.16386E-02-9.37736E-04-6.74012E-14
 -1       315 1.20229E-02-7.78448E-04-6.90498E-14
 -1       316 1.23886E-02-5.99457E-04-7.05894E-14
 -1       317 1.27205E-02-4.45013E-04-7.17668E-14
 -1       318 1.29571E-02-3.16077E-04-7.26770E-14
 -1       319 1.30764E-02-2.14510E-04-7.32294E-14
 -1       320 4.55370E-04-1.64878E-04-1.46920E-16
 -1       321 4.74221E-04-2.13049E-04-1.10572E-16
 -1       322 4.40463E-04-9.40772E-05-1.87926E-16
 -1       323 4.37521E-04-6.49589E-05-1.99425E-16
 -1       324 4.35913E-04-3.79348E-05-2.07472E-16
 -1       325 4.35210E-04-1.20273E-05-2.13053E-16
 -1       326 4.35240E-04 1.35459E-05-2.16627E-16
 -1       327 4.36010E-04 3.95106E-05-2.18518E-16
 -1       328 4.37664E-04 6.61834E-05-2.18060E-16
 -1       329 4.40702E-04 9.54713E-05-2.14489E-16
 -1       330 4.46068E-04 1.28392E-04-2.06164E-16
 -1       331 4.55879E-04 1.67373E-04-1.90467E-16
 -1       332 4.75850E-04 2.17110E-04-1.62634E-16
 -1       333 5.31964E-04 2.70034E-04-1.56691E-16
 -1       334 8.24405E-04 3.73589E-04-4.07392E-16
 -1       335 8.63185E-04-3.57487E-04-3.75391E-16
 -1       336 1.14950E-03-4.26248E-04-7.09739E-16
 -1       337 1.43224E-03-4.75394E-04-1.15436E-15
 -1       338 1.71291E-03-5.10069E-04-1.70976E-15
 -1       339 1.99263E-03-5.34059E-04-2.37647E-15
 -1       340 2.27216E-03-5.50170E-04-3.15261E-15
 -1       341 2.55199E-03-5.60497E-04-4.03712E-15
 -1       342 2.83238E-03-5.66600E-04-5.03004E-15
 -1       343 3.11345E-03-5.69632E-04-6.12897E-15
 -1       344 3.39525E-03-5.70429E-04-7.32848E-15
 -1       345 3.67779E-03-5.69577E-04-8.62438E-15
 -1       346 3.96106E-03-5.67465E-04-1.00164E-14
 -1       347 4.24503E-03-5.64330E-04-1.15014E-14
 -1       348 4.52973E-03-5.60294E-04-1.30763E-14
 -1       349 4.81519E-03-5.55396E-04-1.47378E-14
 -1       350 5.10152E-03-5.49621E-04-1.64884E-14
 -1       351 5.38887E-03-5.42934E-04-1.83283E-14
 -1       352 5.67744E-03-5.35316E-04-2.02560E-14
 -1       353 5.96754E-03-5.26809E-04-2.22745E-14
 -1       354 6.25953E-03-5.17578E-04-2.43796E-14
 -1       355 6.55390E-03-5.07988E-04-2.65675E-14
 -1       356 6.85122E-03-4.98721E-04-2.88392E-14
 -1       357 7.15214E-03-4.90917E-04-3.11911E-14
 -1       358 7.45744E-03-4.86367E-04-3.36232E-14
 -1       359 7.76797E-03-4.87734E-04-3.61291E-14
 -1       360 8.08467E-03-4.98782E-04-3.87063E-14
 -1       361 8.40848E-03-5.24501E-04-4.13533E-14
 -1       362 8.74021E-03-5.70933E-04-4.40604E-14
 -1       363 9.08015E-03-6.44288E-04-4.68239E-14
 -1       364 9.42723E-03-7.48748E-04-4.96335E-14
 -1       365 9.77784E-03-8.82287E-04-5.24910E-14
 -1       366 1.01254E-02-1.03111E-03-5.53886E-14
 -1       367 1.04626E-02-1.16624E-03-5.83339E-14
 -1       368 1.07878E-02-1.25026E-03-6.13317E-14
 -1       369 1.11079E-02-1.25628E-03-6.43815E-14
 -1       370 1.14342E-02-1.18725E-03-6.74836E-14
 -1       371 1.17721E-02-1.07387E-03-7.06244E-14
 -1       372 1.21182E-02-9.52859E-04-7.38138E-14
 -1       373 1.24651E-02-8.50047E-04-7.70565E-14
 -1       374 1.28065E-02-7.76099E-04-8.03480E-14
 -1       375 1.31392E-02-7.30827E-04-8.36832E-14
 -1       376 1.34626E-02-7.08526E-04-8.70537E-14
 -1       377 1.37769E-02-7.01706E-04-9.04530E-14
 -1       378 1.40829E-02-7.02920E-04-9.38686E-14
 -1       379 1.43818E-02-7.05510E-04-9.72986E-14
 -1       380 1.46431E-02-7.07617E-04-1.00367E-13
 -1       381 1.10984E-03 4.47912E-04-7.79114E-16
 -1       382 1.39054E-03 5.00954E-04-1.27157E-15
 -1       383 1.66878E-03 5.38512E-04-1.88291E-15
 -1       384 1.94611E-03 5.64698E-04-2.61161E-15
 -1       385 2.22346E-03 5.82503E-04-3.45480E-15
 -1       386 2.50136E-03 5.94144E-04-4.41199E-15
 -1       387 2.78010E-03 6.01271E-04-5.48107E-15
 -1       388 3.05980E-03 6.05110E-04-6.66054E-15
 -1       389 3.34047E-03 6.06553E-04-7.94979E-15
 -1       390 3.62208E-03 6.06232E-04-9.34622E-15
 -1       391 3.90459E-03 6.04580E-04-1.08506E-14
 -1       392 4.18796E-03 6.01870E-04-1.24606E-14
 -1       393 4.47218E-03 5.98255E-04-1.41757E-14
 -1       394 4.75728E-03 5.93806E-04-1.59928E-14
 -1       395 5.04334E-03 5.88542E-04-1.79059E-14
 -1       396 5.33052E-03 5.82464E-04-1.99120E-14
 -1       397 5.61902E-03 5.75592E-04-2.20072E-14
 -1       398 5.90915E-03 5.68017E-04-2.41902E-14
 -1       399 6.20130E-03 5.59951E-04-2.64558E-14
 -1       400 6.49595E-03 5.51807E-04-2.88043E-14
 -1       401 6.79363E-03 5.44290E-04-3.12304E-14
 -1       402 7.09494E-03 5.38506E-04-3.37340E-14
 -1       403 7.40050E-03 5.36085E-04-3.63111E-14
 -1       404 7.71082E-03 5.39282E-04-3.89535E-14
 -1       405 8.02624E-03 5.51024E-04-4.16519E-14
 -1       406 8.34675E-03 5.74782E-04-4.44013E-14
 -1       407 8.67172E-03 6.14124E-04-4.72002E-14
 -1       408 8.99967E-03 6.71746E-04-5.00502E-14
 -1       409 9.32796E-03 7.47804E-04-5.29462E-14
 -1       410 9.65295E-03 8.37739E-04-5.58906E-14
 -1       411 9.97058E-03 9.30427E-04-5.88801E-14
 -1       412 1.02782E-02 1.00834E-03-6.19180E-14
 -1       413 1.05764E-02 1.05181E-03-6.50090E-14
 -1       414 1.08701E-02 1.04669E-03-6.81464E-14
 -1       415 1.11661E-02 9.91382E-04-7.13296E-14
 -1       416 1.14699E-02 8.97718E-04-7.45419E-14
 -1       417 1.17830E-02 7.84774E-04-7.77800E-14
 -1       418 1.21031E-02 6.70761E-04-8.10401E-14
 -1       419 1.24261E-02 5.67889E-04-8.43212E-14
 -1       420 1.27482E-02 4.81373E-04-8.76241E-14
 -1       421 1.30663E-02 4.10994E-04-9.09374E-14
 -1       422 1.33786E-02 3.53292E-04-9.42609E-14
 -1       423 1.36845E-02 3.03346E-04-9.76058E-14
 -1       424 1.39839E-02 2.55932E-04-1.00981E-13
 -1       425 1.42775E-02 2.06241E-04-1.04377E-13
 -1       426 1.44691E-02 1.65311E-04-1.06555E-13
 -1       427 1.46018E-02-2.07544E-05-1.05103E-13
 -1       428 1.45221E-02 5.26385E-05-1.05377E-13
 -1       429 1.44936E-02 1.07858E-04-1.05969E-13
 -1       430 1.46788E-02-8.74701E-05-1.04833E-13
 -1       431 1.47510E-02-1.49684E-04-1.04545E-13
 -1       432 1.48119E-02-2.06692E-04-1.04255E-13
 -1       433 1.48569E-02-2.59728E-04-1.03954E-13
 -1       434 1.48833E-02-3.10704E-04-1.03643E-13
 -1       435 1.48900E-02-3.61951E-04-1.03316E-13
 -1       436 1.48789E-02-4.14876E-04-1.02986E-13
 -1       437 1.48531E-02-4.73238E-04-1.02636E-13
 -1       438 1.48181E-02-5.37449E-04-1.02281E-13
 -1       439 1.47799E-02-6.08014E-04-1.01922E-13
 -1       440 1.27944E-02-2.69126E-05-7.46271E-14
 -1       441 1.31072E-02-1.76516E-04-7.48732E-14
 -1       442 1.29996E-02-1.06727E-04-7.49199E-14
 -1       443 1.24133E-02 1.35332E-04-7.37431E-14
 -1       444 1.19695E-02 3.64367E-04-7.21035E-14
 -1       445 4.45681E-04-1.26486E-04-1.71307E-16
 -1       446 1.12282E-02 7.38371E-04-6.82514E-14
 -1       447 1.08851E-02 8.22409E-04-6.62515E-14
 -1       448 1.05458E-02 7.98854E-04-6.40646E-14
 -1       449 1.01263E-02 6.41224E-04-6.15279E-14
 -1       450 9.81159E-03 4.78840E-04-5.98248E-14
 -1       451 9.35674E-03 2.50990E-04-5.79700E-14
 -1       452 9.04164E-03 1.08407E-04-5.67870E-14
 -1       453 8.74159E-03-1.20453E-05-5.57247E-14
 -1       454 8.60707E-03-7.80352E-05-5.49080E-14
 -1       455 8.64667E-03-1.33495E-04-5.52535E-14
 -1       456 8.79553E-03-1.95415E-04-5.52508E-14
 -1       457 9.13381E-03-3.39468E-04-5.60112E-14
 -1       458 9.50652E-03-5.16861E-04-5.69206E-14
 -1       459 9.98202E-03-7.84308E-04-5.88419E-14
 -1       460 1.03193E-02-9.60949E-04-6.03855E-14
 -1       461 1.07607E-02-1.11614E-03-6.27808E-14
 -1       462 1.10269E-02-1.12163E-03-6.45669E-14
 -1       463 1.14062E-02-1.01139E-03-6.68429E-14
 -1       464 1.17622E-02-8.44940E-04-6.87929E-14
 -1       465 1.21296E-02-6.47766E-04-7.06995E-14
 -1       466 1.25333E-02-4.52944E-04-7.23100E-14
 -1       467 1.28375E-02-3.20212E-04-7.34990E-14
 -1       468 1.30436E-02-2.29904E-04-7.45352E-14
 -1       469 1.15831E-02 5.77540E-04-7.01911E-14
 -1       470 9.75191E-03-6.35797E-04-5.70184E-14
 -1       471 9.31176E-04 3.46126E-04-6.41001E-16
 -1       472 6.65921E-04-7.51835E-05-4.35114E-16
 -1       473 6.69860E-04-1.15964E-04-4.16798E-16
 -1       474 6.63273E-04 1.10496E-06-4.56554E-16
 -1       475 6.63987E-04 3.87929E-05-4.61684E-16
 -1       476 6.66108E-04 7.68703E-05-4.62904E-16
 -1       477 6.70170E-04 1.17802E-04-4.59444E-16
 -1       478 6.77143E-04 1.62434E-04-4.49381E-16
 -1       479 6.89014E-04 2.12805E-04-4.29659E-16
 -1       480 1.21703E-03 4.06606E-04-1.08474E-15
 -1       481 9.76237E-04-3.28721E-04-6.05307E-16
 -1       482 1.13636E-02 6.78259E-04-6.99167E-14
 -1       483 1.26212E-03-3.83595E-04-1.01447E-15
 -1       484 1.54713E-03-4.23303E-04-1.53228E-15
 -1       485 1.83123E-03-4.51280E-04-2.15947E-15
 -1       486 2.11475E-03-4.70412E-04-2.89536E-15
 -1       487 2.39800E-03-4.82970E-04-3.73763E-15
 -1       488 2.68124E-03-4.90697E-04-4.68714E-15
 -1       489 2.96463E-03-4.94904E-04-5.74218E-15
 -1       490 3.24828E-03-4.96557E-04-6.90093E-15
 -1       491 3.53224E-03-4.96346E-04-8.15755E-15
 -1       492 3.81656E-03-4.94743E-04-9.50949E-15
 -1       493 4.10124E-03-4.92047E-04-1.09560E-14
 -1       494 4.38631E-03-4.88425E-04-1.24954E-14
 -1       495 4.67180E-03-4.83947E-04-1.41248E-14
 -1       496 4.95775E-03-4.78613E-04-1.58407E-14
 -1       497 5.24424E-03-4.72385E-04-1.76457E-14
 -1       498 5.53137E-03-4.65222E-04-1.95393E-14
 -1       499 5.81926E-03-4.57114E-04-2.15240E-14
 -1       500 6.10808E-03-4.48134E-04-2.35976E-14
 -1       501 6.39806E-03-4.38502E-04-2.57525E-14
 -1       502 6.68946E-03-4.28670E-04-2.79889E-14
 -1       503 6.98263E-03-4.19435E-04-3.03078E-14
 -1       504 7.27804E-03-4.12089E-04-3.27067E-14
 -1       505 7.57633E-03-4.08595E-04-3.51823E-14
 -1       506 7.87847E-03-4.11800E-04-3.77297E-14
 -1       507 8.18591E-03-4.25653E-04-4.03457E-14
 -1       508 8.50079E-03-4.55369E-04-4.30279E-14
 -1       509 8.82592E-03-5.07381E-04-4.57655E-14
 -1       510 9.16425E-03-5.88703E-04-4.85560E-14
 -1       511 9.51710E-03-7.04700E-04-5.13944E-14
 -1       512 9.88093E-03-8.53507E-04-5.42802E-14
 -1       513 1.02451E-02-1.01670E-03-5.72092E-14
 -1       514 1.05986E-02-1.15047E-03-6.01822E-14
 -1       515 1.09401E-02-1.20547E-03-6.32084E-14
 -1       516 1.12829E-02-1.16011E-03-6.62926E-14
 -1       517 1.16382E-02-1.04388E-03-6.94191E-14
 -1       518 1.20023E-02-9.07959E-04-7.25886E-14
 -1       519 1.23629E-02-7.91100E-04-7.58035E-14
 -1       520 1.27109E-02-7.07213E-04-7.90681E-14
 -1       521 1.30439E-02-6.55838E-04-8.23708E-14
 -1       522 1.33636E-02-6.30217E-04-8.57117E-14
 -1       523 1.36729E-02-6.22393E-04-8.90844E-14
 -1       524 1.39744E-02-6.24836E-04-9.24801E-14
 -1       525 1.42701E-02-6.30908E-04-9.58921E-14
 -1       526 1.29434E-02-9.96356E-05-7.66045E-14
 -1       527 1.78381E-03 4.81061E-04-2.32045E-15
 -1       528 2.06577E-03 5.02284E-04-3.10898E-15
 -1       529 2.34747E-03 5.16402E-04-4.00986E-15
 -1       530 2.62928E-03 5.25298E-04-5.02260E-15
 -1       531 2.91141E-03 5.30388E-04-6.14440E-15
 -1       532 3.19397E-03 5.32715E-04-7.37431E-15
 -1       533 3.47702E-03 5.33030E-04-8.71135E-15
 -1       534 3.76059E-03 5.31853E-04-1.01545E-14
 -1       535 4.04468E-03 5.29524E-04-1.17033E-14
 -1       536 4.32931E-03 5.26244E-04-1.33568E-14
 -1       537 4.61450E-03 5.22112E-04-1.51112E-14
 -1       538 4.90030E-03 5.17156E-04-1.69643E-14
 -1       539 5.18679E-03 5.11368E-04-1.89110E-14
 -1       540 5.47411E-03 5.04737E-04-2.09472E-14
 -1       541 5.76242E-03 4.97290E-04-2.30731E-14
 -1       542 6.05195E-03 4.89143E-04-2.52830E-14
 -1       543 6.34300E-03 4.80561E-04-2.75773E-14
 -1       544 6.63591E-03 4.72041E-04-2.99504E-14
 -1       545 6.93112E-03 4.64409E-04-3.23993E-14
 -1       546 7.22914E-03 4.58930E-04-3.49243E-14
 -1       547 7.53059E-03 4.57434E-04-3.75197E-14
 -1       548 7.83617E-03 4.62414E-04-4.01766E-14
 -1       549 8.14668E-03 4.77050E-04-4.28892E-14
 -1       550 8.46288E-03 5.05065E-04-4.56537E-14
 -1       551 8.78528E-03 5.50224E-04-4.84683E-14
 -1       552 9.11356E-03 6.15226E-04-5.13328E-14
 -1       553 9.44584E-03 6.99685E-04-5.42426E-14
 -1       554 9.77818E-03 7.97309E-04-5.72024E-14
 -1       555 1.01052E-02 8.93336E-04-6.02105E-14
 -1       556 1.04230E-02 9.65192E-04-6.32688E-14
 -1       557 1.07329E-02 9.89935E-04-6.63790E-14
 -1       558 1.10417E-02 9.56056E-04-6.95317E-14
 -1       559 1.13568E-02 8.71221E-04-7.27217E-14
 -1       560 1.16807E-02 7.56866E-04-7.59415E-14
 -1       561 1.20104E-02 6.36245E-04-7.91844E-14
 -1       562 1.23405E-02 5.25716E-04-8.24463E-14
 -1       563 1.26664E-02 4.32719E-04-8.57339E-14
 -1       564 1.29857E-02 3.57917E-04-8.90391E-14
 -1       565 1.32980E-02 2.98094E-04-9.23565E-14
 -1       566 1.36033E-02 2.48343E-04-9.56905E-14
 -1       567 1.39026E-02 2.03339E-04-9.90496E-14
 -1       568 1.41964E-02 1.57983E-04-1.02441E-13
 -1       569 1.44754E-02-8.72716E-05-1.01723E-13
 -1       570 1.45459E-02-1.51269E-04-1.01430E-13
 -1       571 1.43147E-02 5.50910E-05-1.02286E-13
 -1       572 1.43968E-02-1.86171E-05-1.02009E-13
 -1       573 1.46020E-02-2.10548E-04-1.01129E-13
 -1       574 1.46395E-02-2.66502E-04-1.00819E-13
 -1       575 1.46559E-02-3.21262E-04-1.00496E-13
 -1       576 1.46518E-02-3.76318E-04-1.00168E-13
 -1       577 1.46298E-02-4.35778E-04-9.98191E-14
 -1       578 1.45948E-02-5.00321E-04-9.94679E-14
 -1       579 1.45533E-02-5.70725E-04-9.91146E-14
 -1       580 1.31200E-02-1.99084E-04-7.61776E-14
 -1       581 1.50111E-03 4.50245E-04-1.64518E-15
 -1       582 1.26447E-02 1.35007E-05-7.59129E-14
 -1       583 1.29672E-02-2.60003E-04-7.54767E-14
 -1       584 7.12610E-04-2.51823E-04-3.36553E-16
 -1       585 1.21840E-02 2.30267E-04-7.43217E-14
 -1       586 1.03512E-02 7.51036E-04-6.25160E-14
 -1       587 6.63875E-04-3.65474E-05-4.47979E-16
 -1       588 1.07224E-02 8.47181E-04-6.53342E-14
 -1       589 8.63141E-03-4.98027E-05-5.37842E-14
 -1       590 1.10682E-02 7.99332E-04-6.78978E-14
 -1       591 9.98672E-03 5.78085E-04-6.00318E-14
 -1       592 9.55833E-03 3.42679E-04-5.78712E-14
 -1       593 9.17767E-03 1.57083E-04-5.61470E-14
 -1       594 1.15654E-02-9.42558E-04-6.82807E-14
 -1       595 8.84939E-03 2.39520E-05-5.48476E-14
 -1       596 8.58634E-03-9.99598E-05-5.36106E-14
 -1       597 8.67434E-03-1.36202E-04-5.36069E-14
 -1       598 8.93196E-03-2.29275E-04-5.40599E-14
 -1       599 9.28494E-03-3.84615E-04-5.49648E-14
 -1       600 1.01629E-02-8.74374E-04-5.86622E-14
 -1       601 1.05218E-02-1.05822E-03-6.07534E-14
 -1       602 1.09143E-02-1.15399E-03-6.35197E-14
 -1       603 1.12264E-02-1.09290E-03-6.59857E-14
 -1       604 1.19129E-02-7.54343E-04-7.03807E-14
 -1       605 1.23587E-02-5.18417E-04-7.27511E-14
 -1       606 1.27105E-02-3.57924E-04-7.42640E-14
 -1       607 1.31081E-02-1.58771E-04-7.65727E-14
 -1       608 7.03753E-04 2.90980E-04-3.61768E-16
 -1       609 1.17242E-02 4.83180E-04-7.20394E-14
 -1       610 6.76618E-04-1.60210E-04-3.91543E-16
 -1       611 1.44663E-02-6.35665E-04-9.82076E-14
 -1       612 9.49553E-03-4.97980E-04-5.50580E-14
 -1       613 8.54191E-03-7.22447E-05-5.24945E-14
 -1       614 8.99920E-04 7.41569E-05-7.93067E-16
 -1       615 8.97849E-04 2.51942E-05-7.88012E-16
 -1       616 9.11909E-04 1.78319E-04-7.82248E-16
 -1       617 9.24217E-04 2.36900E-04-7.61564E-16
 -1       618 1.04884E-03 3.14025E-04-8.97093E-16
 -1       619 1.24705E-02 1.09884E-04-7.68563E-14
 -1       620 1.33457E-03 3.61632E-04-1.40805E-15
 -1       621 1.31211E-02-1.46612E-04-7.88123E-14
 -1       622 1.14455E-02-1.03055E-03-6.77209E-14
 -1       623 1.38328E-03-3.37135E-04-1.34622E-15
 -1       624 1.66948E-03-3.67993E-04-1.93421E-15
 -1       625 1.95569E-03-3.89670E-04-2.62982E-15
 -1       626 2.24174E-03-4.04303E-04-3.43161E-15
 -1       627 2.52760E-03-4.13658E-04-4.33899E-15
 -1       628 2.81333E-03-4.19123E-04-5.35240E-15
 -1       629 3.09897E-03-4.21752E-04-6.46863E-15
 -1       630 3.38458E-03-4.22319E-04-7.68478E-15
 -1       631 3.67018E-03-4.21367E-04-8.99874E-15
 -1       632 3.95581E-03-4.19256E-04-1.04062E-14
 -1       633 4.24148E-03-4.16204E-04-1.19077E-14
 -1       634 4.52720E-03-4.12317E-04-1.35030E-14
 -1       635 4.81300E-03-4.07623E-04-1.51859E-14
 -1       636 5.09888E-03-4.02100E-04-1.69567E-14
 -1       637 5.38485E-03-3.95703E-04-1.88171E-14
 -1       638 5.67092E-03-3.88397E-04-2.07673E-14
 -1       639 5.95711E-03-3.80197E-04-2.28084E-14
 -1       640 6.24341E-03-3.71218E-04-2.49346E-14
 -1       641 6.52986E-03-3.61735E-04-2.71365E-14
 -1       642 6.81652E-03-3.52265E-04-2.94217E-14
 -1       643 7.10353E-03-3.43663E-04-3.17871E-14
 -1       644 7.39121E-03-3.37249E-04-3.42302E-14
 -1       645 7.68020E-03-3.34947E-04-3.67488E-14
 -1       646 7.97176E-03-3.39476E-04-3.93375E-14
 -1       647 8.26814E-03-3.54588E-04-4.19930E-14
 -1       648 8.57307E-03-3.85459E-04-4.47069E-14
 -1       649 8.89203E-03-4.39243E-04-4.74757E-14
 -1       650 9.23093E-03-5.25557E-04-5.02947E-14
 -1       651 9.59583E-03-6.53864E-04-5.31612E-14
 -1       652 9.98088E-03-8.26144E-04-5.60741E-14
 -1       653 1.22723E-02-7.23712E-04-7.45561E-14
 -1       654 1.26319E-02-6.29656E-04-7.77939E-14
 -1       655 1.29666E-02-5.75250E-04-8.10690E-14
 -1       656 1.32820E-02-5.49592E-04-8.43824E-14
 -1       657 1.35843E-02-5.42810E-04-8.77295E-14
 -1       658 1.38787E-02-5.47225E-04-9.11048E-14
 -1       659 1.41683E-02-5.56616E-04-9.44972E-14
 -1       660 1.90560E-03 4.20629E-04-2.76691E-15
 -1       661 2.76003E-03 4.54514E-04-5.63539E-15
 -1       662 3.04473E-03 4.57898E-04-6.80733E-15
 -1       663 3.32951E-03 4.59018E-04-8.08564E-15
 -1       664 3.61442E-03 4.58479E-04-9.46930E-15
 -1       665 3.89950E-03 4.56690E-04-1.09583E-14
 -1       666 4.18478E-03 4.53903E-04-1.25515E-14
 -1       667 4.47026E-03 4.50257E-04-1.42461E-14
 -1       668 4.75598E-03 4.45803E-04-1.60374E-14
 -1       669 5.04197E-03 4.40540E-04-1.79249E-14
 -1       670 5.32829E-03 4.34442E-04-1.99039E-14
 -1       671 5.61500E-03 4.27497E-04-2.19718E-14
 -1       672 5.90220E-03 4.19745E-04-2.41278E-14
 -1       673 6.19004E-03 4.11329E-04-2.63663E-14
 -1       674 6.47868E-03 4.02558E-04-2.86861E-14
 -1       675 6.76841E-03 3.93984E-04-3.10826E-14
 -1       676 7.05960E-03 3.86497E-04-3.35557E-14
 -1       677 7.35282E-03 3.81431E-04-3.61023E-14
 -1       678 7.64891E-03 3.80686E-04-3.87150E-14
 -1       679 7.94906E-03 3.86833E-04-4.13873E-14
 -1       680 8.25493E-03 4.03190E-04-4.41157E-14
 -1       681 8.56855E-03 4.33778E-04-4.68975E-14
 -1       682 8.89193E-03 4.82997E-04-4.97280E-14
 -1       683 9.22601E-03 5.54527E-04-5.26060E-14
 -1       684 9.56870E-03 6.48473E-04-5.55329E-14
 -1       685 9.91471E-03 7.57816E-04-5.85075E-14
 -1       686 1.02539E-02 8.60364E-04-6.15346E-14
 -1       687 1.05825E-02 9.24343E-04-6.46131E-14
 -1       688 1.09036E-02 9.21710E-04-6.77378E-14
 -1       689 1.12297E-02 8.48699E-04-7.09076E-14
 -1       690 1.15666E-02 7.29813E-04-7.41058E-14
 -1       691 1.19110E-02 5.98347E-04-7.73337E-14
 -1       692 1.22543E-02 4.78038E-04-8.05799E-14
 -1       693 1.25893E-02 3.78766E-04-8.38483E-14
 -1       694 1.29133E-02 3.00841E-04-8.71408E-14
 -1       695 1.32268E-02 2.40233E-04-9.04493E-14
 -1       696 1.35316E-02 1.91556E-04-9.37758E-14
 -1       697 1.38295E-02 1.49340E-04-9.71251E-14
 -1       698 1.40740E-02 1.02213E-04-9.96952E-14
 -1       699 1.43933E-02-2.20025E-04-9.80152E-14
 -1       700 1.43613E-02-5.64562E-04-9.68010E-14
 -1       701 1.42740E-02-9.50268E-05-9.86290E-14
 -1       702 1.44217E-02-2.76983E-04-9.76935E-14
 -1       703 1.43426E-02-1.60022E-04-9.83287E-14
 -1       704 1.28697E-02-5.87686E-05-7.82170E-14
 -1       705 1.44264E-02-3.32758E-04-9.73630E-14
 -1       706 1.44094E-02-3.92159E-04-9.70205E-14
 -1       707 1.43750E-02-4.56458E-04-9.66687E-14
 -1       708 1.62026E-03 3.96243E-04-2.03179E-15
 -1       709 1.19590E-02 3.71595E-04-7.44389E-14
 -1       710 8.72343E-04-2.47258E-04-5.65096E-16
 -1       711 1.01651E-02 7.12994E-04-6.08485E-14
 -1       712 8.72540E-03-1.64956E-04-5.20494E-14
 -1       713 2.47535E-03 4.48011E-04-4.56949E-15
 -1       714 2.19059E-03 4.37229E-04-3.61311E-15
 -1       715 1.12692E-03-2.97214E-04-9.13461E-16
 -1       716 1.05058E-02 8.39363E-04-6.36372E-14
 -1       717 9.04333E-04 1.24688E-04-7.91688E-16
 -1       718 9.03963E-04-1.22274E-04-7.36017E-16
 -1       719 1.17381E-02-8.77333E-04-6.98195E-14
 -1       720 1.12172E-02 7.61456E-04-6.95797E-14
 -1       721 9.03870E-03-2.88726E-04-5.28249E-14
 -1       722 9.87483E-03-7.30699E-04-5.61829E-14
 -1       723 8.94195E-03 8.71293E-05-5.39593E-14
 -1       724 8.68061E-03-1.02778E-05-5.28394E-14
 -1       725 9.30762E-03 2.54427E-04-5.56168E-14
 -1       726 9.68615E-03 4.54362E-04-5.76584E-14
 -1       727 8.56783E-03-1.07554E-04-5.20389E-14
 -1       728 1.21655E-02-6.43534E-04-7.25582E-14
 -1       729 1.31928E-02-1.87778E-04-7.83961E-14
 -1       730 1.29000E-02-3.09108E-04-7.65939E-14
 -1       731 1.26164E-02-4.23121E-04-7.50681E-14
 -1       732 1.31197E-02-2.27611E-04-7.76205E-14
 -1       733 1.15436E-02 5.99004E-04-7.18526E-14
 -1       734 1.08954E-02 8.57337E-04-6.69911E-14
 -1       735 9.11309E-04-1.75683E-04-7.03234E-16
 -1       736 8.97786E-04-2.31720E-05-7.76790E-16
 -1       737 1.22658E-02 2.43829E-04-7.69745E-14
 -1       738 1.18648E-02-8.85886E-04-7.12043E-14
 -1       739 1.41941E-02-2.49387E-05-9.89216E-14
 -1       740 1.41342E-02 3.71659E-05-9.93110E-14
 -1       741 1.24494E-02-5.39796E-04-7.48795E-14
 -1       742 8.54011E-03-4.13996E-05-5.15592E-14
 -1       743 9.87119E-03 6.11158E-04-5.84601E-14
 -1       744 9.21461E-03-3.83052E-04-5.29152E-14
 -1       745 8.99712E-04-7.18705E-05-7.59877E-16
 -1       746 1.42746E-02-5.04237E-04-9.55839E-14
 -1       747 1.16162E-03 2.43756E-04-1.18169E-15
 -1       748 1.79741E-03-3.09469E-04-2.35968E-15
 -1       749 2.08510E-03-3.25427E-04-3.12067E-15
 -1       750 2.37292E-03-3.36013E-04-3.98715E-15
 -1       751 2.66064E-03-3.42553E-04-4.95872E-15
 -1       752 2.94815E-03-3.46105E-04-6.03355E-15
 -1       753 3.23541E-03-3.47472E-04-7.20919E-15
 -1       754 3.52240E-03-3.47240E-04-8.48274E-15
 -1       755 3.80913E-03-3.45812E-04-9.85261E-15
 -1       756 4.09559E-03-3.43447E-04-1.13160E-14
 -1       757 4.38179E-03-3.40288E-04-1.28738E-14
 -1       758 4.66770E-03-3.36396E-04-1.45227E-14
 -1       759 4.95330E-03-3.31770E-04-1.62598E-14
 -1       760 5.23854E-03-3.26379E-04-1.80889E-14
 -1       761 5.52333E-03-3.20184E-04-2.00060E-14
 -1       762 5.80757E-03-3.13172E-04-2.20129E-14
 -1       763 6.09112E-03-3.05392E-04-2.41082E-14
 -1       764 6.37382E-03-2.96997E-04-2.62822E-14
 -1       765 6.65549E-03-2.88299E-04-2.85353E-14
 -1       766 6.93596E-03-2.79830E-04-3.08668E-14
 -1       767 7.21517E-03-2.72409E-04-3.32773E-14
 -1       768 7.49324E-03-2.67214E-04-3.57655E-14
 -1       769 7.77074E-03-2.65878E-04-3.83265E-14
 -1       770 8.04905E-03-2.70626E-04-4.09538E-14
 -1       771 8.33096E-03-2.84611E-04-4.36441E-14
 -1       772 8.62151E-03-3.12711E-04-4.63904E-14
 -1       773 8.92942E-03-3.63235E-04-4.91909E-14
 -1       774 3.46655E-03 3.84339E-04-8.79691E-15
 -1       775 1.29148E-02-4.86570E-04-7.97759E-14
 -1       776 1.32205E-02-4.65394E-04-8.30624E-14
 -1       777 1.35109E-02-4.62513E-04-8.63813E-14
 -1       778 1.37940E-02-4.70342E-04-8.97353E-14
 -1       779 1.40340E-02-4.87093E-04-9.26530E-14
 -1       780 1.41938E-02-3.45837E-04-9.42458E-14
 -1       781 3.18013E-03 3.84140E-04-7.47187E-15
 -1       782 1.14156E-02 6.99818E-04-7.16614E-14
 -1       783 2.89356E-03 3.82150E-04-6.25153E-15
 -1       784 3.75281E-03 3.83209E-04-1.02267E-14
 -1       785 4.03894E-03 3.81052E-04-1.17595E-14
 -1       786 4.32494E-03 3.78043E-04-1.33940E-14
 -1       787 4.61082E-03 3.74264E-04-1.51266E-14
 -1       788 4.89658E-03 3.69731E-04-1.69545E-14
 -1       789 5.18222E-03 3.64421E-04-1.88761E-14
 -1       790 5.46772E-03 3.58302E-04-2.08878E-14
 -1       791 5.75308E-03 3.51363E-04-2.29874E-14
 -1       792 6.03830E-03 3.43654E-04-2.51728E-14
 -1       793 6.32341E-03 3.35332E-04-2.74395E-14
 -1       794 6.60851E-03 3.26714E-04-2.97833E-14
 -1       795 6.89378E-03 3.18348E-04-3.22049E-14
 -1       796 7.17961E-03 3.11089E-04-3.47002E-14
 -1       797 7.46670E-03 3.06201E-04-3.72678E-14
 -1       798 7.75618E-03 3.05472E-04-3.98989E-14
 -1       799 8.04993E-03 3.11379E-04-4.25884E-14
 -1       800 8.35065E-03 3.27308E-04-4.53340E-14
 -1       801 8.66200E-03 3.57839E-04-4.81332E-14
 -1       802 8.98808E-03 4.08981E-04-5.09789E-14
 -1       803 9.33128E-03 4.87297E-04-5.38722E-14
 -1       804 1.21725E-02 4.23356E-04-7.87167E-14
 -1       805 1.25207E-02 3.16611E-04-8.19655E-14
 -1       806 1.28507E-02 2.36945E-04-8.52426E-14
 -1       807 1.31653E-02 1.77619E-04-8.85385E-14
 -1       808 1.34685E-02 1.31788E-04-9.18594E-14
 -1       809 1.37637E-02 9.33710E-05-9.51985E-14
 -1       810 1.39501E-02 6.50442E-05-9.72490E-14
 -1       811 1.13849E-03 5.90838E-05-1.20352E-15
 -1       812 1.31202E-02-1.07810E-04-8.10619E-14
 -1       813 1.41874E-02-2.32031E-04-9.49145E-14
 -1       814 1.41607E-02-4.08943E-04-9.38977E-14
 -1       815 1.42040E-02-2.88181E-04-9.45828E-14
 -1       816 1.28395E-02-3.79772E-04-7.74456E-14
 -1       817 1.31351E-02-2.75270E-04-7.93782E-14
 -1       818 2.60680E-03 3.77703E-04-5.13518E-15
 -1       819 9.39057E-03 3.69028E-04-5.51926E-14
 -1       820 1.51030E-03-2.86580E-04-1.70433E-15
 -1       821 1.32807E-02-1.79696E-04-8.09959E-14
 -1       822 2.03280E-03 3.57522E-04-3.22367E-15
 -1       823 2.31986E-03 3.69891E-04-4.12553E-15
 -1       824 8.70280E-03 4.71789E-05-5.16292E-14
 -1       825 9.00566E-03 1.79301E-04-5.30489E-14
 -1       826 8.77651E-03-2.19603E-04-5.05522E-14
 -1       827 1.17818E-02 5.07000E-04-7.42566E-14
 -1       828 8.45011E-03-7.93620E-05-5.03404E-14
 -1       829 1.27825E-02 2.46567E-05-7.98984E-14
 -1       830 1.32572E-02-2.22854E-04-8.01651E-14
 -1       831 8.55042E-03-1.26221E-04-5.04042E-14
 -1       832 1.24623E-03 3.00926E-04-1.29668E-15
 -1       833 1.13713E-03 1.19719E-06-1.19189E-15
 -1       834 1.20860E-02 3.79186E-04-7.67932E-14
 -1       835 1.40999E-02-4.46498E-04-9.32764E-14
 -1       836 1.39945E-02-3.68199E-05-9.58536E-14
 -1       837 1.01431E-02 7.42056E-04-6.05713E-14
 -1       838 1.10914E-02 8.41759E-04-6.91109E-14
 -1       839 1.18115E-02 5.59507E-04-7.54873E-14
 -1       840 1.14256E-03 1.17863E-04-1.20677E-15
 -1       841 1.40771E-02-1.08489E-04-9.55495E-14
 -1       842 1.41436E-02-1.73075E-04-9.52361E-14
 -1       843 1.53229E-03 3.35582E-04-1.89593E-15
 -1       844 1.78231E-03 3.49797E-04-2.51788E-15
 -1       845 1.25395E-03-2.56312E-04-1.20992E-15
 -1       846 1.14989E-03 1.79041E-04-1.20010E-15
 -1       847 1.14219E-03-1.15248E-04-1.14312E-15
 -1       848 1.26095E-02 1.35832E-04-8.00189E-14
 -1       849 8.53641E-03 5.13337E-06-5.03617E-14
 -1       850 1.14939E-03-1.76217E-04-1.10464E-15
 -1       851 2.21862E-03-2.58659E-04-3.63362E-15
 -1       852 2.50772E-03-2.65751E-04-4.56385E-15
 -1       853 2.79674E-03-2.69927E-04-5.59741E-15
 -1       854 3.08547E-03-2.71946E-04-6.73232E-15
 -1       855 3.37381E-03-2.72382E-04-7.96574E-15
 -1       856 3.66168E-03-2.71648E-04-9.29553E-15
 -1       857 3.94906E-03-2.70020E-04-1.07208E-14
 -1       858 4.23591E-03-2.67668E-04-1.22414E-14
 -1       859 4.52219E-03-2.64678E-04-1.38548E-14
 -1       860 4.80784E-03-2.61075E-04-1.55588E-14
 -1       861 5.09278E-03-2.56847E-04-1.73536E-14
 -1       862 5.37686E-03-2.51967E-04-1.92383E-14
 -1       863 5.65991E-03-2.46414E-04-2.12118E-14
 -1       864 5.94170E-03-2.40205E-04-2.32742E-14
 -1       865 6.22192E-03-2.33421E-04-2.54202E-14
 -1       866 6.50024E-03-2.26245E-04-2.76451E-14
 -1       867 6.77625E-03-2.18996E-04-2.99472E-14
 -1       868 7.04953E-03-2.12163E-04-3.23228E-14
 -1       869 7.31972E-03-2.06431E-04-3.47802E-14
 -1       870 7.58659E-03-2.02694E-04-3.73123E-14
 -1       871 7.85026E-03-2.02075E-04-3.99142E-14
 -1       872 8.11157E-03-2.06011E-04-4.25801E-14
 -1       873 8.37275E-03-2.16610E-04-4.53036E-14
 -1       874 8.63885E-03-2.38405E-04-4.80828E-14
 -1       875 1.13832E-03-5.65418E-05-1.17178E-15
 -1       876 3.89219E-03 3.07549E-04-1.09831E-14
 -1       877 1.34092E-02-2.15956E-04-8.29323E-14
 -1       878 1.34530E-02-3.82848E-04-8.50459E-14
 -1       879 1.37187E-02-3.95284E-04-8.83753E-14
 -1       880 3.31756E-03 3.09434E-04-8.13909E-15
 -1       881 3.60507E-03 3.09002E-04-9.50912E-15
 -1       882 4.17890E-03 3.05280E-04-1.25573E-14
 -1       883 4.46519E-03 3.02303E-04-1.42309E-14
 -1       884 4.75102E-03 2.98657E-04-1.60005E-14
 -1       885 5.03634E-03 2.94331E-04-1.78635E-14
 -1       886 5.32110E-03 2.89288E-04-1.98189E-14
 -1       887 5.60519E-03 2.83493E-04-2.18632E-14
 -1       888 5.88853E-03 2.76936E-04-2.39944E-14
 -1       889 6.17100E-03 2.69664E-04-2.62104E-14
 -1       890 6.45253E-03 2.61818E-04-2.85017E-14
 -1       891 6.73309E-03 2.53673E-04-3.08705E-14
 -1       892 7.01280E-03 2.45691E-04-3.33160E-14
 -1       893 7.29201E-03 2.38573E-04-3.58357E-14
 -1       894 7.57146E-03 2.33347E-04-3.84231E-14
 -1       895 7.85257E-03 2.31495E-04-4.10739E-14
 -1       896 8.13774E-03 2.35218E-04-4.37803E-14
 -1       897 8.43076E-03 2.47927E-04-4.65448E-14
 -1       898 8.73686E-03 2.75068E-04-4.93606E-14
 -1       899 9.06425E-03 3.25802E-04-5.22208E-14
 -1       900 1.34153E-02 6.83083E-05-8.99399E-14
 -1       901 1.37048E-02 3.50787E-05-9.32678E-14
 -1       902 1.39724E-02 1.33443E-05-9.65553E-14
 -1       903 8.38820E-03-9.83249E-05-4.85900E-14
 -1       904 1.39546E-02-3.60154E-04-9.11528E-14
 -1       905 1.33744E-02-1.54284E-04-8.38261E-14
 -1       906 2.74145E-03 3.05761E-04-5.70700E-15
 -1       907 1.31168E-02 1.08771E-04-8.66346E-14
 -1       908 1.28647E-02 1.17483E-04-8.33148E-14
 -1       909 1.64179E-03-2.31772E-04-2.08807E-15
 -1       910 1.30988E-02-3.48101E-04-8.02612E-14
 -1       911 3.02967E-03 3.08516E-04-6.87090E-15
 -1       912 9.01334E-03-3.29634E-04-5.10658E-14
 -1       913 8.37912E-03-4.34201E-05-4.90376E-14
 -1       914 1.92979E-03-2.47694E-04-2.80832E-15
 -1       915 8.52292E-03-1.62946E-04-4.85386E-14
 -1       916 8.69687E-03 1.26758E-04-5.03244E-14
 -1       917 1.33247E-02-2.62306E-04-8.19231E-14
 -1       918 1.44676E-03 2.76960E-04-1.75571E-15
 -1       919 1.31035E-02-3.86901E-05-8.31388E-14
 -1       920 1.39069E-02-4.20897E-04-9.08193E-14
 -1       921 1.38133E-03 3.41205E-05-1.68978E-15
 -1       922 1.38512E-03-2.09754E-04-1.53479E-15
 -1       923 1.38445E-03 9.98709E-05-1.70016E-15
 -1       924 1.39508E-02-1.87819E-04-9.21643E-14
 -1       925 1.39848E-02-3.00066E-04-9.14946E-14
 -1       926 1.39846E-02-2.44294E-04-9.18356E-14
 -1       927 1.86613E-03 2.82576E-04-2.81418E-15
 -1       928 2.45298E-03 3.00500E-04-4.64638E-15
 -1       929 8.52216E-03 7.39982E-05-4.90694E-14
 -1       930 8.26670E-03-6.19277E-05-4.73088E-14
 -1       931 2.16442E-03 2.91846E-04-3.69187E-15
 -1       932 1.29824E-02 3.55201E-05-8.32294E-14
 -1       933 1.38419E-03-9.71241E-05-1.63744E-15
 -1       934 1.38025E-02-4.63349E-05-9.29692E-14
 -1       935 2.64568E-03-1.93740E-04-5.16047E-15
 -1       936 2.93555E-03-1.96055E-04-6.25407E-15
 -1       937 3.22504E-03-1.96953E-04-7.44699E-15
 -1       938 3.51398E-03-1.96806E-04-8.73698E-15
 -1       939 3.80228E-03-1.95875E-04-1.01231E-14
 -1       940 4.08989E-03-1.94331E-04-1.16051E-14
 -1       941 4.37672E-03-1.92271E-04-1.31828E-14
 -1       942 4.66270E-03-1.89739E-04-1.48520E-14
 -1       943 4.94773E-03-1.86744E-04-1.66125E-14
 -1       944 5.23163E-03-1.83273E-04-1.84649E-14
 -1       945 5.51420E-03-1.79314E-04-2.04048E-14
 -1       946 5.79515E-03-1.74875E-04-2.24345E-14
 -1       947 6.07412E-03-1.70002E-04-2.45507E-14
 -1       948 6.35065E-03-1.64805E-04-2.67477E-14
 -1       949 6.62423E-03-1.59481E-04-2.90205E-14
 -1       950 6.89420E-03-1.54332E-04-3.13695E-14
 -1       951 7.15987E-03-1.49766E-04-3.37949E-14
 -1       952 7.42042E-03-1.46287E-04-3.62959E-14
 -1       953 7.67500E-03-1.44454E-04-3.88694E-14
 -1       954 7.92267E-03-1.44830E-04-4.15103E-14
 -1       955 8.16261E-03-1.47998E-04-4.42132E-14
 -1       956 8.34495E-03-1.53557E-04-4.63588E-14
 -1       957 4.31938E-03 2.29724E-04-1.33517E-14
 -1       958 1.36492E-02-3.24970E-04-8.70221E-14
 -1       959 1.35814E-02-2.02921E-04-8.61246E-14
 -1       960 4.03251E-03 2.31837E-04-1.17362E-14
 -1       961 4.89090E-03 2.23830E-04-1.68678E-14
 -1       962 5.17538E-03 2.20026E-04-1.87657E-14
 -1       963 5.45881E-03 2.15600E-04-2.07545E-14
 -1       964 5.74103E-03 2.10512E-04-2.28313E-14
 -1       965 6.02183E-03 2.04745E-04-2.49936E-14
 -1       966 6.30098E-03 1.98324E-04-2.72358E-14
 -1       967 6.57826E-03 1.91339E-04-2.95550E-14
 -1       968 6.85351E-03 1.83971E-04-3.19498E-14
 -1       969 7.12668E-03 1.76511E-04-3.44185E-14
 -1       970 7.39795E-03 1.69398E-04-3.69614E-14
 -1       971 7.66791E-03 1.63270E-04-3.95703E-14
 -1       972 7.93787E-03 1.59116E-04-4.22377E-14
 -1       973 8.21028E-03 1.58645E-04-4.49650E-14
 -1       974 8.48989E-03 1.65048E-04-4.77488E-14
 -1       975 1.38866E-02-1.24911E-04-9.24858E-14
 -1       976 1.39095E-03 1.67236E-04-1.69924E-15
 -1       977 2.35567E-03-1.89512E-04-4.16914E-15
 -1       978 3.45684E-03 2.34100E-04-8.80665E-15
 -1       979 8.33343E-03 6.81304E-06-4.77670E-14
 -1       980 2.87897E-03 2.32456E-04-6.28368E-15
 -1       981 1.33744E-02 1.86912E-06-8.80220E-14
 -1       982 1.65602E-03 2.82280E-04-2.25593E-15
 -1       983 1.35159E-02-2.58517E-04-8.47389E-14
 -1       984 1.77708E-03-1.72693E-04-2.49677E-15
 -1       985 3.16815E-03 2.33914E-04-7.49378E-15
 -1       986 1.38124E-03-3.12635E-05-1.66891E-15
 -1       987 1.34278E-02-1.00761E-04-8.63089E-14
 -1       988 2.06593E-03-1.82732E-04-3.28046E-15
 -1       989 1.99200E-03 2.16773E-04-3.21587E-15
 -1       990 4.60553E-03 2.27053E-04-1.50627E-14
 -1       991 3.74498E-03 2.33337E-04-1.02211E-14
 -1       992 2.58945E-03 2.29267E-04-5.17535E-15
 -1       993 1.62790E-03 1.56788E-06-2.24880E-15
 -1       994 1.37078E-02-1.44071E-04-8.94376E-14
 -1       995 1.57956E-03-1.33885E-04-2.04750E-15
 -1       996 8.18037E-03-1.87785E-05-4.60613E-14
 -1       997 1.78055E-03 2.21035E-04-2.62258E-15
 -1       998 1.37659E-02-2.02539E-04-8.91069E-14
 -1       999 1.62963E-03 7.31122E-05-2.26880E-15
 -1      1000 2.29982E-03 2.23738E-04-4.17026E-15
 -1      1001 1.35790E-02-2.94107E-04-8.58688E-14
 -1      1002 1.62943E-03-7.01217E-05-2.21597E-15
 -1      1003 8.20438E-03-9.95144E-05-4.57591E-14
 -1      1004 3.07674E-03-1.21242E-04-6.92722E-15
 -1      1005 3.36656E-03-1.21444E-04-8.17747E-15
 -1      1006 3.65570E-03-1.21064E-04-9.52361E-15
 -1      1007 3.94405E-03-1.20241E-04-1.09668E-14
 -1      1008 4.23152E-03-1.19061E-04-1.25070E-14
 -1      1009 4.51802E-03-1.17571E-04-1.41412E-14
 -1      1010 4.80343E-03-1.15790E-04-1.58682E-14
 -1      1011 5.08758E-03-1.13723E-04-1.76860E-14
 -1      1012 5.37025E-03-1.11371E-04-1.95938E-14
 -1      1013 5.65115E-03-1.08744E-04-2.15890E-14
 -1      1014 5.92990E-03-1.05877E-04-2.36738E-14
 -1      1015 6.20602E-03-1.02845E-04-2.58414E-14
 -1      1016 6.47894E-03-9.97803E-05-2.80878E-14
 -1      1017 6.74795E-03-9.68820E-05-3.04093E-14
 -1      1018 7.01222E-03-9.44231E-05-3.28063E-14
 -1      1019 7.27068E-03-9.27376E-05-3.52773E-14
 -1      1020 7.52202E-03-9.21847E-05-3.78212E-14
 -1      1021 7.76448E-03-9.31057E-05-4.04350E-14
 -1      1022 7.99163E-03-9.54961E-05-4.30702E-14
 -1      1023 3.01901E-03 1.58076E-04-6.86502E-15
 -1      1024 8.27743E-03 6.58480E-05-4.64507E-14
 -1      1025 4.17367E-03 1.56400E-04-1.24882E-14
 -1      1026 5.31396E-03 1.47186E-04-1.96627E-14
 -1      1027 5.03063E-03 1.50134E-04-1.77303E-14
 -1      1028 5.87584E-03 1.39761E-04-2.37923E-14
 -1      1029 6.15380E-03 1.35203E-04-2.59844E-14
 -1      1030 6.42930E-03 1.30054E-04-2.82544E-14
 -1      1031 6.70195E-03 1.24325E-04-3.06020E-14
 -1      1032 6.97137E-03 1.18058E-04-3.30214E-14
 -1      1033 7.23722E-03 1.11329E-04-3.55150E-14
 -1      1034 7.49928E-03 1.04245E-04-3.80795E-14
 -1      1035 7.75758E-03 9.69725E-05-4.07085E-14
 -1      1036 8.01270E-03 8.99010E-05-4.33991E-14
 -1      1037 1.63475E-03 1.45587E-04-2.27620E-15
 -1      1038 2.49583E-03-1.18213E-04-4.72517E-15
 -1      1039 3.59778E-03 1.58459E-04-9.47596E-15
 -1      1040 1.37840E-02-2.55720E-04-8.87726E-14
 -1      1041 1.64361E-03 2.13097E-04-2.27244E-15
 -1      1042 1.82582E-03-1.05147E-04-2.69002E-15
 -1      1043 3.30870E-03 1.58658E-04-8.11997E-15
 -1      1044 1.82282E-03-2.94105E-05-2.73372E-15
 -1      1045 3.88612E-03 1.57668E-04-1.09327E-14
 -1      1046 2.20541E-03-1.14770E-04-3.77596E-15
 -1      1047 2.13222E-03 1.49308E-04-3.65873E-15
 -1      1048 5.59578E-03 1.43744E-04-2.16853E-14
 -1      1049 2.78641E-03-1.20256E-04-5.77612E-15
 -1      1050 4.46034E-03 1.54716E-04-1.41424E-14
 -1      1051 8.10124E-03 3.12780E-05-4.47661E-14
 -1      1052 2.72885E-03 1.56443E-04-5.71005E-15
 -1      1053 8.07105E-03-5.56963E-05-4.45641E-14
 -1      1054 4.74604E-03 1.52632E-04-1.58900E-14
 -1      1055 1.91953E-03 1.57600E-04-3.02904E-15
 -1      1056 2.43850E-03 1.53384E-04-4.65788E-15
 -1      1057 1.82324E-03 4.58693E-05-2.76354E-15
 -1      1058 3.50973E-03-4.57478E-05-8.92267E-15
 -1      1059 3.79872E-03-4.54683E-05-1.03265E-14
 -1      1060 4.08681E-03-4.50369E-05-1.18272E-14
 -1      1061 4.37390E-03-4.44819E-05-1.34244E-14
 -1      1062 4.65985E-03-4.38205E-05-1.51170E-14
 -1      1063 4.94455E-03-4.30589E-05-1.69011E-14
 -1      1064 5.22774E-03-4.22242E-05-1.87761E-14
 -1      1065 5.50918E-03-4.13194E-05-2.07397E-14
 -1      1066 5.78850E-03-4.03854E-05-2.27910E-14
 -1      1067 6.06527E-03-3.94813E-05-2.49293E-14
 -1      1068 6.33894E-03-3.87011E-05-2.71475E-14
 -1      1069 6.60884E-03-3.81840E-05-2.94409E-14
 -1      1070 6.87416E-03-3.81223E-05-3.18107E-14
 -1      1071 7.13391E-03-3.87649E-05-3.42561E-14
 -1      1072 7.38682E-03-4.04113E-05-3.67698E-14
 -1      1073 7.63111E-03-4.33893E-05-3.93534E-14
 -1      1074 6.55743E-03 6.50823E-05-2.92658E-14
 -1      1075 5.45250E-03 7.60827E-05-2.05563E-14
 -1      1076 2.34788E-03-4.40925E-05-4.29184E-15
 -1      1077 2.92953E-03-4.56500E-05-6.40803E-15
 -1      1078 6.28557E-03 6.85492E-05-2.69673E-14
 -1      1079 6.01046E-03 7.14924E-05-2.47471E-14
 -1      1080 6.82545E-03 6.10081E-05-3.16385E-14
 -1      1081 7.08895E-03 5.62223E-05-3.40842E-14
 -1      1082 7.34718E-03 5.05897E-05-3.66020E-14
 -1      1083 7.59924E-03 4.39335E-05-3.91869E-14
 -1      1084 7.84388E-03 3.59541E-05-4.18396E-14
 -1      1085 3.21995E-03-4.58306E-05-7.61687E-15
 -1      1086 5.73262E-03 7.39828E-05-2.26082E-14
 -1      1087 3.45105E-03 8.30731E-05-8.74827E-15
 -1      1088 2.63872E-03-4.51135E-05-5.29952E-15
 -1      1089 4.02834E-03 8.23030E-05-1.16439E-14
 -1      1090 3.74012E-03 8.28305E-05-1.01460E-14
 -1      1091 3.16122E-03 8.29520E-05-7.44938E-15
 -1      1092 5.17047E-03 7.78470E-05-1.85882E-14
 -1      1093 2.27776E-03 7.94592E-05-4.11791E-15
 -1      1094 2.08453E-03 2.80921E-06-3.49115E-15
 -1      1095 7.85775E-03-4.87886E-05-4.19303E-14
 -1      1096 7.95386E-03-1.26432E-05-4.32008E-14
 -1      1097 2.87082E-03 8.23464E-05-6.25037E-15
 -1      1098 4.88682E-03 7.93239E-05-1.67130E-14
 -1      1099 1.88109E-03 1.16374E-04-2.92747E-15
 -1      1100 2.58008E-03 8.10864E-05-5.15214E-15
 -1      1101 4.31560E-03 8.15353E-05-1.32385E-14
 -1      1102 4.80230E-03 2.88206E-05-1.61091E-14
 -1      1103 4.60181E-03 8.05419E-05-1.49290E-14
 -1      1104 1.98670E-03 7.57686E-05-3.22502E-15
 -1      1105 0.00000E+00 0.00000E+00 0.00000E+00
 -1      1106 0.00000E+00 0.00000E+00 0.00000E+00
 -1      1107 0.00000E+00 0.00000E+00 0.00000E+00
 -1      1108 0.00000E+00 0.00000E+00 0.00000E+00
 -1      1109 0.00000E+00 0.00000E+00 0.00000E+00
 -1      1110 0.00000E+00 0.00000E+00 0.00000E+00
 -1      1111 0.00000E+00 0.00000E+00 0.00000E+00
 -1      1112 0.00000E+00 0.00000E+00 0.00000E+00
 -1      1113 0.00000E+00 0.00000E+00 0.00000E+00
 -1      1114 0.00000E+00 0.00000E+00 0.00000E+00
 -1      1115 0.00000E+00 0.00000E+00 0.00000E+00
 -1      1116 0.00000E+00 0.00000E+00 0.00000E+00
 -1      1117 0.00000E+00 0.00000E+00 0.00000E+00
 -1      1118 0.00000E+00 0.00000E+00 0.00000E+00
 -1      1119 0.00000E+00 0.00000E+00 0.00000E+00
 -1      1120 0.00000E+00 0.00000E+00 0.00000E+00
 -1      1121 0.00000E+00 0.00000E+00 0.00000E+00
 -1      1122 2.11656E-04-1.48339E-04 2.60344E-17
 -1      1123 5.51588E-04-3.37545E-04 1.18720E-17
 -1      1124 8.33357E-04-4.59055E-04-1.02837E-16
 -1      1125 1.10287E-03-5.40741E-04-3.35764E-16
 -1      1126 1.36820E-03-5.97973E-04-6.84525E-16
 -1      1127 1.63291E-03-6.38636E-04-1.14733E-15
 -1      1128 1.89885E-03-6.67371E-04-1.72495E-15
 -1      1129 2.16686E-03-6.87284E-04-2.41726E-15
 -1      1130 2.43724E-03-7.00644E-04-3.22450E-15
 -1      1131 2.70999E-03-7.09152E-04-4.14316E-15
 -1      1132 2.98495E-03-7.14087E-04-5.17216E-15
 -1      1133 3.26190E-03-7.16395E-04-6.30754E-15
 -1      1134 3.54058E-03-7.16761E-04-7.54195E-15
 -1      1135 3.82076E-03-7.15665E-04-8.87310E-15
 -1      1136 4.10227E-03-7.13421E-04-1.02953E-14
 -1      1137 4.38498E-03-7.10222E-04-1.18046E-14
 -1      1138 4.66883E-03-7.06166E-04-1.34035E-14
 -1      1139 4.95389E-03-7.01290E-04-1.50915E-14
 -1      1140 5.24030E-03-6.95599E-04-1.68666E-14
 -1      1141 5.52836E-03-6.89102E-04-1.87332E-14
 -1      1142 5.81853E-03-6.81851E-04-2.06881E-14
 -1      1143 6.11143E-03-6.73996E-04-2.27282E-14
 -1      1144 6.40790E-03-6.65851E-04-2.48558E-14
 -1      1145 6.70900E-03-6.57992E-04-2.70733E-14
 -1      1146 7.01604E-03-6.51385E-04-2.93706E-14
 -1      1147 7.33052E-03-6.47555E-04-3.17500E-14
 -1      1148 7.65402E-03-6.48788E-04-3.42113E-14
 -1      1149 7.98799E-03-6.58360E-04-3.67488E-14
 -1      1150 8.33330E-03-6.80690E-04-3.93589E-14
 -1      1151 8.68950E-03-7.21241E-04-4.20296E-14
 -1      1152 9.05383E-03-7.85813E-04-4.47557E-14
 -1      1153 9.42017E-03-8.78669E-04-4.75325E-14
 -1      1154 9.77869E-03-9.99150E-04-5.03541E-14
 -1      1155 1.01173E-02-1.13738E-03-5.32201E-14
 -1      1156 1.04262E-02-1.27186E-03-5.61287E-14
 -1      1157 1.07042E-02-1.37301E-03-5.90879E-14
 -1      1158 1.09629E-02-1.41463E-03-6.20981E-14
 -1      1159 1.12231E-02-1.38744E-03-6.51665E-14
 -1      1160 1.15043E-02-1.30451E-03-6.82851E-14
 -1      1161 1.18156E-02-1.19363E-03-7.14461E-14
 -1      1162 1.21536E-02-1.08322E-03-7.46625E-14
 -1      1163 1.25072E-02-9.92177E-04-7.79372E-14
 -1      1164 1.28643E-02-9.27771E-04-8.12756E-14
 -1      1165 1.32155E-02-8.88646E-04-8.46565E-14
 -1      1166 1.35549E-02-8.69001E-04-8.80757E-14
 -1      1167 1.38802E-02-8.61631E-04-9.15106E-14
 -1      1168 1.41916E-02-8.59502E-04-9.49490E-14
 -1      1169 1.44906E-02-8.56441E-04-9.83909E-14
 -1      1170 1.47806E-02-8.47699E-04-1.01834E-13
 -1      1171 1.50590E-02-8.32372E-04-1.05212E-13
 -1      1172 2.28415E-04 1.60717E-04 1.51111E-17
 -1      1173 5.53762E-04 3.42177E-04-4.47775E-17
 -1      1174 8.34287E-04 4.61224E-04-2.23996E-16
 -1      1175 1.10376E-03 5.42429E-04-5.35759E-16
 -1      1176 1.36910E-03 5.99654E-04-9.76541E-16
 -1      1177 1.63386E-03 6.40405E-04-1.54236E-15
 -1      1178 1.89985E-03 6.69245E-04-2.22973E-15
 -1      1179 2.16791E-03 6.89277E-04-3.03491E-15
 -1      1180 2.43832E-03 7.02764E-04-3.95783E-15
 -1      1181 2.71109E-03 7.11405E-04-4.99508E-15
 -1      1182 2.98607E-03 7.16475E-04-6.14625E-15
 -1      1183 3.26303E-03 7.18922E-04-7.41077E-15
 -1      1184 3.54172E-03 7.19430E-04-8.78499E-15
 -1      1185 3.82193E-03 7.18480E-04-1.02691E-14
 -1      1186 4.10346E-03 7.16393E-04-1.18652E-14
 -1      1187 4.38619E-03 7.13365E-04-1.35697E-14
 -1      1188 4.67008E-03 7.09506E-04-1.53765E-14
 -1      1189 4.95516E-03 7.04866E-04-1.72814E-14
 -1      1190 5.24160E-03 6.99474E-04-1.92818E-14
 -1      1191 5.52966E-03 6.93370E-04-2.13749E-14
 -1      1192 5.81975E-03 6.86650E-04-2.35525E-14
 -1      1193 6.11242E-03 6.79517E-04-2.58118E-14
 -1      1194 6.40839E-03 6.72350E-04-2.81553E-14
 -1      1195 6.70850E-03 6.65788E-04-3.05865E-14
 -1      1196 7.01372E-03 6.60828E-04-3.30972E-14
 -1      1197 7.32503E-03 6.58940E-04-3.56790E-14
 -1      1198 7.64327E-03 6.62169E-04-3.83247E-14
 -1      1199 7.96892E-03 6.73186E-04-4.10290E-14
 -1      1200 8.30163E-03 6.95199E-04-4.37835E-14
 -1      1201 8.63983E-03 7.31579E-04-4.65838E-14
 -1      1202 8.98013E-03 7.85008E-04-4.94332E-14
 -1      1203 9.31715E-03 8.56021E-04-5.23335E-14
 -1      1204 9.64385E-03 9.41057E-04-5.52771E-14
 -1      1205 9.95322E-03 1.03078E-03-5.82583E-14
 -1      1206 1.02410E-02 1.11005E-03-6.12841E-14
 -1      1207 1.05085E-02 1.16107E-03-6.43646E-14
 -1      1208 1.07640E-02 1.16942E-03-6.74996E-14
 -1      1209 1.10203E-02 1.13025E-03-7.06881E-14
 -1      1210 1.12894E-02 1.05052E-03-7.39163E-14
 -1      1211 1.15782E-02 9.45743E-04-7.71625E-14
 -1      1212 1.18866E-02 8.33377E-04-8.04261E-14
 -1      1213 1.22093E-02 7.27165E-04-8.37111E-14
 -1      1214 1.25387E-02 6.34659E-04-8.70075E-14
 -1      1215 1.28677E-02 5.57664E-04-9.03187E-14
 -1      1216 1.31911E-02 4.94037E-04-9.36394E-14
 -1      1217 1.35057E-02 4.39542E-04-9.69786E-14
 -1      1218 1.38106E-02 3.89204E-04-1.00345E-13
 -1      1219 1.41064E-02 3.38191E-04-1.03737E-13
 -1      1220 1.43953E-02 2.82649E-04-1.07146E-13
 -1      1221 1.46736E-02 2.22967E-04-1.10468E-13
 -1      1222 1.48404E-02 1.50432E-04-1.11941E-13
 -1      1223 1.49055E-02 6.59658E-05-1.11693E-13
 -1      1224 1.49761E-02-1.51196E-05-1.11446E-13
 -1      1225 1.50511E-02-8.94110E-05-1.11178E-13
 -1      1226 1.51269E-02-1.54691E-04-1.10914E-13
 -1      1227 1.51983E-02-2.09629E-04-1.10647E-13
 -1      1228 1.52614E-02-2.55216E-04-1.10384E-13
 -1      1229 1.53121E-02-2.93413E-04-1.10095E-13
 -1      1230 1.53467E-02-3.26668E-04-1.09793E-13
 -1      1231 1.53633E-02-3.58700E-04-1.09466E-13
 -1      1232 1.53624E-02-3.93546E-04-1.09130E-13
 -1      1233 1.53465E-02-4.34543E-04-1.08794E-13
 -1      1234 1.53196E-02-4.84712E-04-1.08449E-13
 -1      1235 1.52866E-02-5.46033E-04-1.08104E-13
 -1      1236 1.52534E-02-6.17921E-04-1.07743E-13
 -1      1237 1.52252E-02-6.98062E-04-1.07385E-13
 -1      1238 1.52036E-02-7.81764E-04-1.07040E-13
 -1      1239 1.30825E-02-8.59379E-05-7.21654E-14
 -1      1240 1.29595E-02 6.75187E-05-7.19923E-14
 -1      1241 1.27319E-02 2.25434E-04-7.14872E-14
 -1      1242 1.23927E-02 3.95548E-04-7.05936E-14
 -1      1243 1.19922E-02 5.49733E-04-6.94238E-14
 -1      1244 1.15796E-02 6.65753E-04-6.81176E-14
 -1      1245 1.11332E-02 7.39398E-04-6.66132E-14
 -1      1246 1.06796E-02 7.54887E-04-6.50339E-14
 -1      1247 1.02152E-02 7.07588E-04-6.33963E-14
 -1      1248 9.78138E-03 6.10765E-04-6.18783E-14
 -1      1249 9.40212E-03 4.82956E-04-6.05764E-14
 -1      1250 9.06823E-03 3.35614E-04-5.94433E-14
 -1      1251 8.80766E-03 1.79159E-04-5.85297E-14
 -1      1252 8.64980E-03 2.28811E-05-5.79054E-14
 -1      1253 8.61193E-03-1.26313E-04-5.76291E-14
 -1      1254 8.68467E-03-2.71245E-04-5.76738E-14
 -1      1255 8.86745E-03-4.27319E-04-5.80437E-14
 -1      1256 9.15261E-03-5.93707E-04-5.87540E-14
 -1      1257 9.53405E-03-7.64180E-04-5.98049E-14
 -1      1258 9.96421E-03-9.09744E-04-6.10795E-14
 -1      1259 1.04074E-02-1.00667E-03-6.24805E-14
 -1      1260 1.08695E-02-1.04990E-03-6.40220E-14
 -1      1261 1.13138E-02-1.02806E-03-6.55574E-14
 -1      1262 1.17423E-02-9.51540E-04-6.70619E-14
 -1      1263 1.21420E-02-8.33104E-04-6.84678E-14
 -1      1264 1.24994E-02-6.88753E-04-6.97212E-14
 -1      1265 1.27925E-02-5.34032E-04-7.07651E-14
 -1      1266 1.29946E-02-3.81474E-04-7.15328E-14
 -1      1267 1.30931E-02-2.34812E-04-7.20015E-14
 -1      1268 1.66685E-04-1.10353E-04 8.06375E-18
 -1      1269 1.12531E-04-5.69930E-05-1.66018E-17
 -1      1270 1.17611E-04-6.75981E-05-9.93400E-18
 -1      1271 1.08415E-04-4.35131E-05-2.77827E-17
 -1      1272 1.10277E-04-4.96266E-05-2.41777E-17
 -1      1273 2.26311E-04-1.07662E-04-5.65140E-17
 -1      1274 1.06840E-04-3.36363E-05-3.48571E-17
 -1      1275 1.07682E-04-3.83579E-05-3.27022E-17
 -1      1276 2.19093E-04-8.25009E-05-7.75476E-17
 -1      1277 1.06066E-04-2.53734E-05-3.94379E-17
 -1      1278 1.06494E-04-2.94076E-05-3.81775E-17
 -1      1279 2.15868E-04-6.33216E-05-9.15202E-17
 -1      1280 1.05666E-04-1.81096E-05-4.24059E-17
 -1      1281 1.05895E-04-2.16792E-05-4.16740E-17
 -1      1282 2.14219E-04-4.72262E-05-1.00628E-16
 -1      1283 1.05449E-04-1.12520E-05-4.45472E-17
 -1      1284 1.05571E-04-1.46398E-05-4.40864E-17
 -1      1285 2.13311E-04-3.27845E-05-1.06984E-16
 -1      1286 1.05351E-04-4.69500E-06-4.61464E-17
 -1      1287 1.05403E-04-7.95161E-06-4.57533E-17
 -1      1288 2.12821E-04-1.92104E-05-1.11524E-16
 -1      1289 1.05340E-04 1.74465E-06-4.72712E-17
 -1      1290 1.05339E-04-1.47225E-06-4.70273E-17
 -1      1291 2.12610E-04-6.16739E-06-1.14831E-16
 -1      1292 1.05412E-04 8.23383E-06-4.77456E-17
 -1      1293 1.05356E-04 4.97069E-06-4.76236E-17
 -1      1294 2.12618E-04 6.71537E-06-1.16782E-16
 -1      1295 1.05587E-04 1.49477E-05-4.79759E-17
 -1      1296 1.05461E-04 1.15448E-05-4.79082E-17
 -1      1297 2.12846E-04 1.97844E-05-1.17690E-16
 -1      1298 1.05917E-04 2.19716E-05-4.71899E-17
 -1      1299 1.05684E-04 1.83783E-05-4.74610E-17
 -1      1300 2.13352E-04 3.32981E-05-1.17297E-16
 -1      1301 1.06537E-04 2.98418E-05-4.54145E-17
 -1      1302 1.06099E-04 2.57636E-05-4.60515E-17
 -1      1303 2.14285E-04 4.78345E-05-1.14871E-16
 -1      1304 1.07722E-04 3.89415E-05-4.20264E-17
 -1      1305 1.06873E-04 3.41478E-05-4.33816E-17
 -1      1306 2.15979E-04 6.42525E-05-1.09897E-16
 -1      1307 1.10256E-04 5.03662E-05-3.55076E-17
 -1      1308 1.08421E-04 4.41839E-05-3.83808E-17
 -1      1309 2.19195E-04 8.37508E-05-1.00573E-16
 -1      1310 1.16926E-04 6.76333E-05-2.36627E-17
 -1      1311 1.12177E-04 5.77919E-05-2.95039E-17
 -1      1312 2.26298E-04 1.09481E-04-8.42832E-17
 -1      1313 1.57567E-04 1.09867E-04-3.83537E-18
 -1      1314 1.35648E-04 8.61030E-05-1.70220E-17
 -1      1315 2.56012E-04 1.52121E-04-6.41441E-17
 -1      1316 3.35054E-04 2.20758E-04-3.24448E-17
 -1      1317 4.21497E-04-2.61768E-04-1.18720E-17
 -1      1318 5.74572E-04-3.36839E-04-4.77862E-17
 -1      1319 7.21736E-04-3.97451E-04-1.14017E-16
 -1      1320 8.64877E-04-4.46752E-04-2.08397E-16
 -1      1321 6.11998E-04-3.30944E-04-1.17934E-16
 -1      1322 1.00487E-03-4.87828E-04-3.30533E-16
 -1      1323 1.14268E-03-5.21814E-04-4.81562E-16
 -1      1324 9.05183E-04-4.31656E-04-3.19433E-16
 -1      1325 1.27914E-03-5.50580E-04-6.60659E-16
 -1      1326 1.41474E-03-5.74602E-04-8.68487E-16
 -1      1327 1.18755E-03-5.01075E-04-6.32090E-16
 -1      1328 1.54994E-03-5.94945E-04-1.10448E-15
 -1      1329 1.68499E-03-6.11940E-04-1.36905E-15
 -1      1330 1.46441E-03-5.49820E-04-1.05723E-15
 -1      1331 1.82012E-03-6.26215E-04-1.66170E-15
 -1      1332 1.95545E-03-6.38061E-04-1.98282E-15
 -1      1333 1.73902E-03-5.84062E-04-1.59460E-15
 -1      1334 2.09110E-03-6.47878E-04-2.33253E-15
 -1      1335 2.22711E-03-6.55913E-04-2.71105E-15
 -1      1336 2.01323E-03-6.07770E-04-2.24508E-15
 -1      1337 2.36355E-03-6.62440E-04-3.11761E-15
 -1      1338 2.50042E-03-6.67660E-04-3.55166E-15
 -1      1339 2.28804E-03-6.23744E-04-3.00777E-15
 -1      1340 2.63773E-03-6.71764E-04-4.01359E-15
 -1      1341 2.77548E-03-6.74913E-04-4.50264E-15
 -1      1342 2.56393E-03-6.34033E-04-3.88157E-15
 -1      1343 2.91367E-03-6.77243E-04-5.01896E-15
 -1      1344 3.05227E-03-6.78877E-04-5.56224E-15
 -1      1345 2.84110E-03-6.40164E-04-4.86438E-15
 -1      1346 3.19127E-03-6.79908E-04-6.13100E-15
 -1      1347 3.33065E-03-6.80432E-04-6.72506E-15
 -1      1348 3.11958E-03-6.43262E-04-5.95367E-15
 -1      1349 3.47039E-03-6.80508E-04-7.34397E-15
 -1      1350 3.61046E-03-6.80208E-04-7.98688E-15
 -1      1351 3.39931E-03-6.44148E-04-7.14459E-15
 -1      1352 3.75087E-03-6.79566E-04-8.65401E-15
 -1      1353 3.89157E-03-6.78635E-04-9.34463E-15
 -1      1354 3.68023E-03-6.43396E-04-8.43405E-15
 -1      1355 4.03257E-03-6.77431E-04-1.00577E-14
 -1      1356 4.17385E-03-6.75989E-04-1.07924E-14
 -1      1357 3.96223E-03-6.41392E-04-9.81803E-15
 -1      1358 4.31541E-03-6.74313E-04-1.15494E-14
 -1      1359 4.45724E-03-6.72427E-04-1.23289E-14
 -1      1360 4.24525E-03-6.38373E-04-1.12927E-14
 -1      1361 4.59934E-03-6.70322E-04-1.31306E-14
 -1      1362 4.74173E-03-6.68017E-04-1.39548E-14
 -1      1363 4.52928E-03-6.34462E-04-1.28563E-14
 -1      1364 4.88441E-03-6.65495E-04-1.48012E-14
 -1      1365 5.02741E-03-6.62773E-04-1.56691E-14
 -1      1366 4.81435E-03-6.29704E-04-1.45088E-14
 -1      1367 5.17076E-03-6.59829E-04-1.65599E-14
 -1      1368 5.31448E-03-6.56683E-04-1.74726E-14
 -1      1369 5.10057E-03-6.24091E-04-1.62506E-14
 -1      1370 5.45862E-03-6.53312E-04-1.84074E-14
 -1      1371 5.60324E-03-6.49745E-04-1.93657E-14
 -1      1372 5.38814E-03-6.17595E-04-1.80812E-14
 -1      1373 5.74839E-03-6.45961E-04-2.03449E-14
 -1      1374 5.89414E-03-6.42008E-04-2.13460E-14
 -1      1375 5.67738E-03-6.10207E-04-2.00000E-14
 -1      1376 6.04058E-03-6.37874E-04-2.23697E-14
 -1      1377 6.18779E-03-6.33632E-04-2.34138E-14
 -1      1378 5.96871E-03-6.01980E-04-2.20077E-14
 -1      1379 6.33589E-03-6.29290E-04-2.44807E-14
 -1      1380 6.48498E-03-6.24960E-04-2.55690E-14
 -1      1381 6.26270E-03-5.93091E-04-2.41033E-14
 -1      1382 6.63520E-03-6.20684E-04-2.66776E-14
 -1      1383 6.78668E-03-6.16624E-04-2.78080E-14
 -1      1384 6.56006E-03-5.83922E-04-2.62825E-14
 -1      1385 6.93957E-03-6.12882E-04-2.89594E-14
 -1      1386 7.09403E-03-6.09688E-04-3.01307E-14
 -1      1387 6.86164E-03-5.75177E-04-2.85459E-14
 -1      1388 7.25021E-03-6.07229E-04-3.13224E-14
 -1      1389 7.40829E-03-6.05826E-04-3.25322E-14
 -1      1390 7.16842E-03-5.68034E-04-3.08914E-14
 -1      1391 7.56841E-03-6.05794E-04-3.37630E-14
 -1      1392 7.73071E-03-6.07557E-04-3.50141E-14
 -1      1393 7.48144E-03-5.64346E-04-3.33162E-14
 -1      1394 7.89532E-03-6.11605E-04-3.62824E-14
 -1      1395 8.06231E-03-6.18472E-04-3.75705E-14
 -1      1396 7.80171E-03-5.66889E-04-3.58175E-14
 -1      1397 8.23170E-03-6.28861E-04-3.88751E-14
 -1      1398 8.40342E-03-6.43390E-04-4.01961E-14
 -1      1399 8.12996E-03-5.79595E-04-3.83924E-14
 -1      1400 8.57735E-03-6.62956E-04-4.15320E-14
 -1      1401 8.75317E-03-6.88179E-04-4.28817E-14
 -1      1402 8.46639E-03-6.07677E-04-4.10337E-14
 -1      1403 8.93051E-03-7.20007E-04-4.42477E-14
 -1      1404 9.10874E-03-7.58852E-04-4.56253E-14
 -1      1405 8.81020E-03-6.57344E-04-4.37373E-14
 -1      1406 9.28715E-03-8.05349E-04-4.70146E-14
 -1      1407 9.46477E-03-8.59317E-04-4.84149E-14
 -1      1408 9.15913E-03-7.34652E-04-4.64952E-14
 -1      1409 9.64062E-03-9.20452E-04-4.98276E-14
 -1      1410 9.81353E-03-9.87480E-04-5.12503E-14
 -1      1411 9.50901E-03-8.42837E-04-4.92992E-14
 -1      1412 9.98247E-03-1.05848E-03-5.26838E-14
 -1      1413 1.01465E-02-1.13069E-03-5.41307E-14
 -1      1414 9.85381E-03-9.77967E-04-5.21484E-14
 -1      1415 1.03049E-02-1.20044E-03-5.55875E-14
 -1      1416 1.04578E-02-1.26392E-03-5.70547E-14
 -1      1417 1.01869E-02-1.12426E-03-5.50421E-14
 -1      1418 1.06054E-02-1.31674E-03-5.85346E-14
 -1      1419 1.07489E-02-1.35541E-03-6.00286E-14
 -1      1420 1.05041E-02-1.25333E-03-5.79814E-14
 -1      1421 1.08895E-02-1.37703E-03-6.15367E-14
 -1      1422 1.10295E-02-1.38035E-03-6.30582E-14
 -1      1423 1.08070E-02-1.33213E-03-6.09725E-14
 -1      1424 1.11706E-02-1.36570E-03-6.45927E-14
 -1      1425 1.13148E-02-1.33482E-03-6.61406E-14
 -1      1426 1.11045E-02-1.33869E-03-6.40181E-14
 -1      1427 1.14633E-02-1.29105E-03-6.76990E-14
 -1      1428 1.16170E-02-1.23809E-03-6.92673E-14
 -1      1429 1.14084E-02-1.27541E-03-6.71129E-14
 -1      1430 1.17759E-02-1.18031E-03-7.08503E-14
 -1      1431 1.19398E-02-1.12134E-03-7.24458E-14
 -1      1432 1.17263E-02-1.16751E-03-7.02541E-14
 -1      1433 1.21080E-02-1.06456E-03-7.40546E-14
 -1      1434 1.22793E-02-1.01235E-03-7.56756E-14
 -1      1435 1.20584E-02-1.04802E-03-7.34444E-14
 -1      1436 1.24526E-02-9.66242E-04-7.73117E-14
 -1      1437 1.26269E-02-9.27194E-04-7.89630E-14
 -1      1438 1.23997E-02-9.42888E-04-7.66882E-14
 -1      1439 1.28011E-02-8.95205E-04-8.06260E-14
 -1      1440 1.29743E-02-8.70198E-04-8.23052E-14
 -1      1441 1.27432E-02-8.64896E-04-7.99848E-14
 -1      1442 1.31458E-02-8.51336E-04-8.39934E-14
 -1      1443 1.33150E-02-8.38012E-04-8.56865E-14
 -1      1444 1.30831E-02-8.15590E-04-8.33303E-14
 -1      1445 1.34817E-02-8.29117E-04-8.73896E-14
 -1      1446 1.36454E-02-8.23853E-04-8.91016E-14
 -1      1447 1.34155E-02-7.90015E-04-8.67135E-14
 -1      1448 1.38062E-02-8.21144E-04-9.08176E-14
 -1      1449 1.39640E-02-8.20178E-04-9.25308E-14
 -1      1450 1.37383E-02-7.80721E-04-9.01256E-14
 -1      1451 1.41190E-02-8.20024E-04-9.42502E-14
 -1      1452 1.42713E-02-8.19936E-04-9.59696E-14
 -1      1453 1.40511E-02-7.80023E-04-9.35536E-14
 -1      1454 1.44211E-02-8.19170E-04-9.76873E-14
 -1      1455 1.45688E-02-8.17096E-04-9.94089E-14
 -1      1456 1.43545E-02-7.80975E-04-9.69871E-14
 -1      1457 1.47146E-02-8.13252E-04-1.01134E-13
 -1      1458 1.48591E-02-8.07256E-04-1.02858E-13
 -1      1459 1.46500E-02-7.77803E-04-1.00429E-13
 -1      1460 1.50678E-02-7.91029E-04-1.05387E-13
 -1      1461 1.50051E-02-7.58715E-04-1.04680E-13
 -1      1462 6.43006E-04 3.72057E-04-1.47750E-16
 -1      1463 4.92902E-04 3.03724E-04-7.28719E-17
 -1      1464 4.44833E-04 2.65931E-04-9.64533E-17
 -1      1465 9.28535E-04 4.72034E-04-3.96425E-16
 -1      1466 7.87702E-04 4.26539E-04-2.55980E-16
 -1      1467 7.44649E-04 3.90773E-04-2.81500E-16
 -1      1468 1.20336E-03 5.41449E-04-7.71749E-16
 -1      1469 1.06673E-03 5.09775E-04-5.68108E-16
 -1      1470 1.03064E-03 4.76220E-04-5.94617E-16
 -1      1471 1.47382E-03 5.90617E-04-1.27325E-15
 -1      1472 1.33881E-03 5.68176E-04-1.00702E-15
 -1      1473 1.30849E-03 5.36031E-04-1.03212E-15
 -1      1474 1.74325E-03 6.25448E-04-1.89647E-15
 -1      1475 1.60849E-03 6.09584E-04-1.56959E-15
 -1      1476 1.58263E-03 5.78276E-04-1.59178E-15
 -1      1477 2.01333E-03 6.49801E-04-2.63819E-15
 -1      1478 1.87812E-03 6.38763E-04-2.25265E-15
 -1      1479 1.85570E-03 6.07922E-04-2.27100E-15
 -1      1480 2.28488E-03 6.66405E-04-3.49840E-15
 -1      1481 2.14888E-03 6.58942E-04-3.05402E-15
 -1      1482 2.12910E-03 6.28340E-04-3.06787E-15
 -1      1483 2.55820E-03 6.77283E-04-4.47296E-15
 -1      1484 2.42130E-03 6.72461E-04-3.97136E-15
 -1      1485 2.40355E-03 6.41958E-04-3.98061E-15
 -1      1486 2.83337E-03 6.83948E-04-5.56123E-15
 -1      1487 2.69556E-03 6.81067E-04-5.00304E-15
 -1      1488 2.67934E-03 6.50581E-04-5.00634E-15
 -1      1489 3.11030E-03 6.87527E-04-6.76251E-15
 -1      1490 2.97163E-03 6.86067E-04-6.14800E-15
 -1      1491 2.95657E-03 6.55549E-04-6.14486E-15
 -1      1492 3.38885E-03 6.88843E-04-8.07439E-15
 -1      1493 3.24939E-03 6.88427E-04-7.40467E-15
 -1      1494 3.23521E-03 6.57851E-04-7.39445E-15
 -1      1495 3.66884E-03 6.88484E-04-9.49590E-15
 -1      1496 3.52867E-03 6.88845E-04-8.77153E-15
 -1      1497 3.51516E-03 6.58200E-04-8.75377E-15
 -1      1498 3.95012E-03 6.86848E-04-1.10274E-14
 -1      1499 3.80932E-03 6.87806E-04-1.02479E-14
 -1      1500 3.79631E-03 6.57089E-04-1.02219E-14
 -1      1501 4.23257E-03 6.84189E-04-1.26671E-14
 -1      1502 4.09120E-03 6.85634E-04-1.18334E-14
 -1      1503 4.07857E-03 6.54843E-04-1.17982E-14
 -1      1504 4.51614E-03 6.80652E-04-1.44128E-14
 -1      1505 4.37422E-03 6.82522E-04-1.35273E-14
 -1      1506 4.36188E-03 6.51658E-04-1.34811E-14
 -1      1507 4.80083E-03 6.76308E-04-1.62584E-14
 -1      1508 4.65834E-03 6.78575E-04-1.53231E-14
 -1      1509 4.64623E-03 6.47632E-04-1.52671E-14
 -1      1510 5.08674E-03 6.71181E-04-1.82010E-14
 -1      1511 4.94363E-03 6.73836E-04-1.72176E-14
 -1      1512 4.93168E-03 6.42804E-04-1.71510E-14
 -1      1513 5.37408E-03 6.65290E-04-2.02378E-14
 -1      1514 5.23022E-03 6.68322E-04-1.92077E-14
 -1      1515 5.21836E-03 6.37181E-04-1.91306E-14
 -1      1516 5.66315E-03 6.58679E-04-2.23633E-14
 -1      1517 5.51838E-03 6.62059E-04-2.12901E-14
 -1      1518 5.50651E-03 6.30775E-04-2.12022E-14
 -1      1519 5.95437E-03 6.51472E-04-2.45716E-14
 -1      1520 5.80846E-03 6.55124E-04-2.34571E-14
 -1      1521 5.79645E-03 6.23648E-04-2.33597E-14
 -1      1522 6.24833E-03 6.43926E-04-2.68657E-14
 -1      1523 6.10097E-03 6.47701E-04-2.57081E-14
 -1      1524 6.08863E-03 6.15964E-04-2.56013E-14
 -1      1525 6.54569E-03 6.36511E-04-2.92400E-14
 -1      1526 6.39653E-03 6.40142E-04-2.80429E-14
 -1      1527 6.38358E-03 6.08053E-04-2.79268E-14
 -1      1528 6.84725E-03 6.30006E-04-3.17022E-14
 -1      1529 6.69589E-03 6.33060E-04-3.04612E-14
 -1      1530 6.68197E-03 6.00501E-04-3.03344E-14
 -1      1531 7.15385E-03 6.25602E-04-3.42382E-14
 -1      1532 6.99987E-03 6.27425E-04-3.29609E-14
 -1      1533 6.98448E-03 5.94254E-04-3.28215E-14
 -1      1534 7.46625E-03 6.25028E-04-3.68399E-14
 -1      1535 7.30927E-03 6.24688E-04-3.55305E-14
 -1      1536 7.29183E-03 5.90737E-04-3.53813E-14
 -1      1537 7.78501E-03 6.30647E-04-3.95087E-14
 -1      1538 7.62481E-03 6.26887E-04-3.81668E-14
 -1      1539 7.60460E-03 5.91979E-04-3.80077E-14
 -1      1540 8.11017E-03 6.45465E-04-4.22283E-14
 -1      1541 7.94680E-03 6.36716E-04-4.08624E-14
 -1      1542 7.92309E-03 6.00684E-04-4.06939E-14
 -1      1543 8.44093E-03 6.72951E-04-4.49995E-14
 -1      1544 8.27492E-03 6.57456E-04-4.36089E-14
 -1      1545 8.24709E-03 6.20187E-04-4.34327E-14
 -1      1546 8.77528E-03 7.16483E-04-4.78167E-14
 -1      1547 8.60782E-03 6.92629E-04-4.64018E-14
 -1      1548 8.57557E-03 6.54132E-04-4.62193E-14
 -1      1549 9.10967E-03 7.78208E-04-5.06851E-14
 -1      1550 8.94275E-03 7.45169E-04-4.92440E-14
 -1      1551 8.90641E-03 7.05672E-04-4.90545E-14
 -1      1552 9.43915E-03 8.57266E-04-5.36005E-14
 -1      1553 9.27539E-03 8.15957E-04-5.21375E-14
 -1      1554 9.23627E-03 7.76011E-04-5.19397E-14
 -1      1555 9.75806E-03 9.47695E-04-5.65599E-14
 -1      1556 9.60030E-03 9.01803E-04-5.50747E-14
 -1      1557 9.56083E-03 8.62332E-04-5.48721E-14
 -1      1558 1.00617E-02 1.03715E-03-5.95595E-14
 -1      1559 9.91204E-03 9.93592E-04-5.80538E-14
 -1      1560 9.87564E-03 9.55791E-04-5.78470E-14
 -1      1561 1.03488E-02 1.10804E-03-6.26092E-14
 -1      1562 1.02073E-02 1.07601E-03-6.10787E-14
 -1      1563 1.01777E-02 1.04100E-03-6.08691E-14
 -1      1564 1.06227E-02 1.14246E-03-6.57130E-14
 -1      1565 1.04870E-02 1.13056E-03-6.41546E-14
 -1      1566 1.04673E-02 1.09885E-03-6.39422E-14
 -1      1567 1.08916E-02 1.12914E-03-6.88683E-14
 -1      1568 1.07571E-02 1.14183E-03-6.72836E-14
 -1      1569 1.07490E-02 1.11299E-03-6.70652E-14
 -1      1570 1.11654E-02 1.06870E-03-7.20672E-14
 -1      1571 1.10272E-02 1.10412E-03-7.04639E-14
 -1      1572 1.10302E-02 1.07689E-03-7.02375E-14
 -1      1573 1.14517E-02 9.73246E-04-7.53012E-14
 -1      1574 1.13066E-02 1.02421E-03-7.36803E-14
 -1      1575 1.13184E-02 9.97080E-04-7.34463E-14
 -1      1576 1.17534E-02 8.60875E-04-7.85486E-14
 -1      1577 1.16006E-02 9.18056E-04-7.69234E-14
 -1      1578 1.16180E-02 8.89914E-04-7.66824E-14
 -1      1579 1.20684E-02 7.48449E-04-8.18210E-14
 -1      1580 1.19095E-02 8.03882E-04-8.01813E-14
 -1      1581 1.19290E-02 7.74285E-04-7.99384E-14
 -1      1582 1.23917E-02 6.47229E-04-8.51094E-14
 -1      1583 1.22294E-02 6.96082E-04-8.34645E-14
 -1      1584 1.22482E-02 6.65159E-04-8.32159E-14
 -1      1585 1.27173E-02 5.61900E-04-8.84127E-14
 -1      1586 1.25546E-02 6.02571E-04-8.67584E-14
 -1      1587 1.25710E-02 5.70779E-04-8.65103E-14
 -1      1588 1.30401E-02 4.92021E-04-9.17284E-14
 -1      1589 1.28793E-02 5.25238E-04-9.00704E-14
 -1      1590 1.28928E-02 4.93125E-04-8.98198E-14
 -1      1591 1.33568E-02 4.34062E-04-9.50591E-14
 -1      1592 1.31994E-02 4.61857E-04-9.33919E-14
 -1      1593 1.32103E-02 4.29920E-04-9.31418E-14
 -1      1594 1.36655E-02 3.83119E-04-9.84092E-14
 -1      1595 1.35122E-02 4.08036E-04-9.67308E-14
 -1      1596 1.35214E-02 3.76661E-04-9.64804E-14
 -1      1597 1.39660E-02 3.34031E-04-1.01787E-13
 -1      1598 1.38167E-02 3.58633E-04-1.00094E-13
 -1      1599 1.38253E-02 3.28074E-04-9.98425E-14
 -1      1600 1.42593E-02 2.82138E-04-1.05184E-13
 -1      1601 1.41134E-02 3.08652E-04-1.03483E-13
 -1      1602 1.41223E-02 2.79030E-04-1.03229E-13
 -1      1603 1.45476E-02 2.24271E-04-1.08593E-13
 -1      1604 1.44039E-02 2.54008E-04-1.06890E-13
 -1      1605 1.44135E-02 2.25281E-04-1.06632E-13
 -1      1606 1.47047E-02 1.80886E-04-1.10330E-13
 -1      1607 1.47990E-02 7.46298E-05-1.10152E-13
 -1      1608 1.47650E-02 1.15526E-04-1.10278E-13
 -1      1609 1.48718E-02-3.67449E-06-1.09890E-13
 -1      1610 1.48347E-02 3.47970E-05-1.10025E-13
 -1      1611 1.46934E-02 8.22786E-05-1.08606E-13
 -1      1612 1.49486E-02-7.55964E-05-1.09626E-13
 -1      1613 1.49099E-02-4.05409E-05-1.09759E-13
 -1      1614 1.47683E-02 5.57018E-06-1.08341E-13
 -1      1615 1.50251E-02-1.39755E-04-1.09358E-13
 -1      1616 1.49871E-02-1.08697E-04-1.09494E-13
 -1      1617 1.48464E-02-6.51773E-05-1.08075E-13
 -1      1618 1.50955E-02-1.94845E-04-1.09089E-13
 -1      1619 1.50612E-02-1.68277E-04-1.09223E-13
 -1      1620 1.49226E-02-1.28624E-04-1.07805E-13
 -1      1621 1.51573E-02-2.43386E-04-1.08814E-13
 -1      1622 1.51279E-02-2.19984E-04-1.08953E-13
 -1      1623 1.49927E-02-1.85303E-04-1.07528E-13
 -1      1624 1.52050E-02-2.86032E-04-1.08518E-13
 -1      1625 1.51831E-02-2.65308E-04-1.08667E-13
 -1      1626 1.50522E-02-2.36354E-04-1.07242E-13
 -1      1627 1.52354E-02-3.25355E-04-1.08212E-13
 -1      1628 1.52225E-02-3.05926E-04-1.08368E-13
 -1      1629 1.50963E-02-2.82875E-04-1.06943E-13
 -1      1630 1.52474E-02-3.64510E-04-1.07881E-13
 -1      1631 1.52437E-02-3.44752E-04-1.08052E-13
 -1      1632 1.51223E-02-3.27185E-04-1.06632E-13
 -1      1633 1.52416E-02-4.06769E-04-1.07552E-13
 -1      1634 1.52466E-02-3.85061E-04-1.07714E-13
 -1      1635 1.51294E-02-3.72018E-04-1.06304E-13
 -1      1636 1.52216E-02-4.54133E-04-1.07210E-13
 -1      1637 1.52332E-02-4.29587E-04-1.07384E-13
 -1      1638 1.51191E-02-4.19667E-04-1.05970E-13
 -1      1639 1.51912E-02-5.10243E-04-1.06863E-13
 -1      1640 1.52074E-02-4.81107E-04-1.07037E-13
 -1      1641 1.50950E-02-4.72733E-04-1.05628E-13
 -1      1642 1.51563E-02-5.75201E-04-1.06512E-13
 -1      1643 1.51740E-02-5.41613E-04-1.06691E-13
 -1      1644 1.50617E-02-5.33225E-04-1.05277E-13
 -1      1645 1.51228E-02-6.48498E-04-1.06153E-13
 -1      1646 1.51390E-02-6.10898E-04-1.06333E-13
 -1      1647 1.50254E-02-6.01225E-04-1.04923E-13
 -1      1648 1.50561E-02-7.23096E-04-1.05329E-13
 -1      1649 1.50693E-02-6.82825E-04-1.05504E-13
 -1      1650 1.49534E-02-6.70741E-04-1.04096E-13
 -1      1651 1.48468E-02-7.38505E-04-1.02803E-13
 -1      1652 1.30740E-02-9.34321E-05-7.28620E-14
 -1      1653 1.31122E-02-1.39085E-04-7.28660E-14
 -1      1654 1.28964E-02 2.54829E-05-7.25473E-14
 -1      1655 1.29936E-02-3.08053E-05-7.27157E-14
 -1      1656 1.25994E-02 1.64482E-04-7.19920E-14
 -1      1657 1.27465E-02 9.26102E-05-7.23287E-14
 -1      1658 1.21929E-02 3.62682E-04-7.08842E-14
 -1      1659 1.23926E-02 2.66227E-04-7.14474E-14
 -1      1660 1.17972E-02 5.53337E-04-6.95369E-14
 -1      1661 1.19755E-02 4.73664E-04-7.01273E-14
 -1      1662 1.14029E-02 7.03808E-04-6.80279E-14
 -1      1663 1.15890E-02 6.39906E-04-6.87417E-14
 -1      1664 1.10000E-02 7.91074E-04-6.63661E-14
 -1      1665 1.11860E-02 7.60187E-04-6.71494E-14
 -1      1666 1.06075E-02 7.93700E-04-6.46604E-14
 -1      1667 1.07859E-02 8.04720E-04-6.54462E-14
 -1      1668 1.01954E-02 7.02162E-04-6.28397E-14
 -1      1669 1.03902E-02 7.57760E-04-6.36786E-14
 -1      1670 9.78768E-03 5.56036E-04-6.13092E-14
 -1      1671 9.96264E-03 6.26212E-04-6.19802E-14
 -1      1672 9.42377E-03 3.73051E-04-5.98361E-14
 -1      1673 9.59928E-03 4.55390E-04-6.04540E-14
 -1      1674 9.05727E-03 2.17061E-04-5.87404E-14
 -1      1675 9.21219E-03 2.91269E-04-5.92454E-14
 -1      1676 8.77754E-03 6.63014E-05-5.77479E-14
 -1      1677 8.89721E-03 1.27701E-04-5.81382E-14
 -1      1678 8.61715E-03-4.24107E-05-5.71977E-14
 -1      1679 8.67235E-03 5.08730E-06-5.74174E-14
 -1      1680 8.60417E-03-1.38757E-04-5.70227E-14
 -1      1681 8.59281E-03-9.51295E-05-5.70748E-14
 -1      1682 8.72087E-03-2.43875E-04-5.71804E-14
 -1      1683 8.65254E-03-1.94561E-04-5.70862E-14
 -1      1684 8.97524E-03-3.70227E-04-5.75594E-14
 -1      1685 8.84176E-03-3.01684E-04-5.72837E-14
 -1      1686 9.31593E-03-5.46856E-04-5.84215E-14
 -1      1687 9.15167E-03-4.64783E-04-5.80091E-14
 -1      1688 9.75732E-03-7.54464E-04-5.96093E-14
 -1      1689 9.54868E-03-6.51360E-04-5.89827E-14
 -1      1690 1.01521E-02-9.38400E-04-6.10594E-14
 -1      1691 9.97442E-03-8.65007E-04-6.04397E-14
 -1      1692 1.05728E-02-1.06661E-03-6.26157E-14
 -1      1693 1.03842E-02-1.01552E-03-6.18424E-14
 -1      1694 1.09621E-02-1.09623E-03-6.43259E-14
 -1      1695 1.07838E-02-1.09183E-03-6.35714E-14
 -1      1696 1.13497E-02-1.04297E-03-6.59953E-14
 -1      1697 1.11704E-02-1.07923E-03-6.52236E-14
 -1      1698 1.17442E-02-9.16771E-04-6.75976E-14
 -1      1699 1.15643E-02-9.81854E-04-6.68708E-14
 -1      1700 1.21343E-02-7.50527E-04-6.90905E-14
 -1      1701 1.19547E-02-8.30906E-04-6.84190E-14
 -1      1702 1.24980E-02-5.72313E-04-7.04363E-14
 -1      1703 1.23323E-02-6.52271E-04-6.98560E-14
 -1      1704 1.28150E-02-4.19999E-04-7.14821E-14
 -1      1705 1.26796E-02-4.89382E-04-7.10185E-14
 -1      1706 1.30262E-02-2.94850E-04-7.22433E-14
 -1      1707 1.29426E-02-3.48491E-04-7.19361E-14
 -1      1708 1.31172E-02-1.91726E-04-7.26802E-14
 -1      1709 1.30909E-02-2.37379E-04-7.25180E-14
 -1      1710 1.20282E-02 3.74799E-04-7.10229E-14
 -1      1711 1.24427E-02 1.59555E-04-7.23278E-14
 -1      1712 1.47150E-02 1.52692E-04-1.10077E-13
 -1      1713 1.46074E-02 1.58982E-04-1.08536E-13
 -1      1714 1.30356E-02-9.74788E-05-7.34597E-14
 -1      1715 1.27995E-02 4.58322E-06-7.30935E-14
 -1      1716 1.31248E-02-1.66836E-04-7.34210E-14
 -1      1717 1.16294E-02 5.86227E-04-6.94678E-14
 -1      1718 1.12515E-02 7.45715E-04-6.77903E-14
 -1      1719 1.08834E-02 8.23919E-04-6.59896E-14
 -1      1720 1.05203E-02 7.96344E-04-6.40877E-14
 -1      1721 1.01435E-02 6.65385E-04-6.22498E-14
 -1      1722 9.75222E-03 4.75990E-04-6.05390E-14
 -1      1723 9.37215E-03 2.83266E-04-5.91002E-14
 -1      1724 9.00353E-03 1.16891E-04-5.79140E-14
 -1      1725 8.72964E-03-2.60527E-06-5.69923E-14
 -1      1726 8.59593E-03-7.70658E-05-5.65474E-14
 -1      1727 8.62174E-03-1.43254E-04-5.64909E-14
 -1      1728 8.79547E-03-2.27686E-04-5.66542E-14
 -1      1729 9.09821E-03-3.56652E-04-5.71970E-14
 -1      1730 9.50076E-03-5.52776E-04-5.81961E-14
 -1      1731 9.92297E-03-7.82579E-04-5.95749E-14
 -1      1732 1.03309E-02-9.84803E-04-6.11806E-14
 -1      1733 1.06923E-02-1.10376E-03-6.29134E-14
 -1      1734 1.10523E-02-1.11278E-03-6.47653E-14
 -1      1735 1.14091E-02-1.02196E-03-6.65400E-14
 -1      1736 1.17893E-02-8.57785E-04-6.82396E-14
 -1      1737 1.21756E-02-6.60928E-04-6.98305E-14
 -1      1738 1.25488E-02-4.78115E-04-7.11851E-14
 -1      1739 1.28619E-02-3.37342E-04-7.22263E-14
 -1      1740 1.30615E-02-2.38994E-04-7.29591E-14
 -1      1741 2.85210E-04-1.76255E-04-1.84856E-17
 -1      1742 3.32158E-04-1.16827E-04-1.26594E-16
 -1      1743 3.36300E-04-1.33072E-04-1.14045E-16
 -1      1744 3.42183E-04-1.52057E-04-9.95840E-17
 -1      1745 3.51728E-04-1.74054E-04-8.07324E-17
 -1      1746 4.58296E-04-1.88149E-04-1.64812E-16
 -1      1747 3.24576E-04-6.54255E-05-1.57033E-16
 -1      1748 3.25714E-04-7.67190E-05-1.51382E-16
 -1      1749 3.23104E-04-4.39215E-05-1.65788E-16
 -1      1750 3.23749E-04-5.44164E-05-1.61587E-16
 -1      1751 4.36534E-04-7.93428E-05-2.36126E-16
 -1      1752 3.22331E-04-2.37901E-05-1.71819E-16
 -1      1753 3.22658E-04-3.37103E-05-1.68959E-16
 -1      1754 4.34563E-04-5.13521E-05-2.47279E-16
 -1      1755 3.22043E-04-4.34101E-06-1.76251E-16
 -1      1756 3.22138E-04-1.40007E-05-1.74164E-16
 -1      1757 4.33555E-04-2.49414E-05-2.55167E-16
 -1      1758 3.22163E-04 1.49918E-05-1.78500E-16
 -1      1759 3.22051E-04 5.32203E-06-1.77484E-16
 -1      1760 4.33263E-04 7.57300E-07-2.60425E-16
 -1      1761 3.22721E-04 3.47545E-05-1.79625E-16
 -1      1762 3.22375E-04 2.48020E-05-1.79259E-16
 -1      1763 4.33614E-04 2.64845E-05-2.63434E-16
 -1      1764 3.23837E-04 5.52027E-05-1.78283E-16
 -1      1765 3.23181E-04 4.48351E-05-1.79286E-16
 -1      1766 4.34677E-04 5.27553E-05-2.64085E-16
 -1      1767 3.25877E-04 7.78614E-05-1.74109E-16
 -1      1768 3.24688E-04 6.62772E-05-1.76725E-16
 -1      1769 4.36712E-04 8.06467E-05-2.61618E-16
 -1      1770 3.29545E-04 1.03703E-04-1.65598E-16
 -1      1771 3.27408E-04 9.03514E-05-1.70586E-16
 -1      1772 4.40335E-04 1.11624E-04-2.54638E-16
 -1      1773 3.36558E-04 1.35158E-04-1.49959E-16
 -1      1774 3.32387E-04 1.18662E-04-1.59080E-16
 -1      1775 4.46777E-04 1.47396E-04-2.41072E-16
 -1      1776 3.52265E-04 1.77644E-04-1.23084E-16
 -1      1777 3.42779E-04 1.54803E-04-1.38480E-16
 -1      1778 4.59282E-04 1.91513E-04-2.17288E-16
 -1      1779 4.07652E-04 2.33721E-04-1.07363E-16
 -1      1780 3.78048E-04 2.02701E-04-1.18951E-16
 -1      1781 4.95802E-04 2.44046E-04-1.97230E-16
 -1      1782 5.58480E-04 3.02550E-04-1.83569E-16
 -1      1783 3.39984E-04-1.90944E-04-4.89517E-17
 -1      1784 8.53457E-04 4.07173E-04-4.34331E-16
 -1      1785 7.07076E-04 3.59429E-04-2.93344E-16
 -1      1786 6.73321E-04 3.28865E-04-3.02005E-16
 -1      1787 4.58903E-04-2.36764E-04-1.02186E-16
 -1      1788 8.07132E-04-3.74172E-04-3.02736E-16
 -1      1789 9.52377E-04-4.15357E-04-4.37069E-16
 -1      1790 1.09519E-03-4.50042E-04-5.98696E-16
 -1      1791 1.23683E-03-4.78927E-04-7.88418E-16
 -1      1792 1.00382E-03-3.97978E-04-5.61075E-16
 -1      1793 1.37721E-03-5.03394E-04-1.00572E-15
 -1      1794 1.51687E-03-5.23739E-04-1.25114E-15
 -1      1795 1.28946E-03-4.55923E-04-9.50425E-16
 -1      1796 1.65600E-03-5.40882E-04-1.52443E-15
 -1      1797 1.79481E-03-5.55059E-04-1.82524E-15
 -1      1798 1.57182E-03-4.96816E-04-1.45009E-15
 -1      1799 1.93349E-03-5.66877E-04-2.15404E-15
 -1      1800 2.07211E-03-5.76537E-04-2.51104E-15
 -1      1801 1.85239E-03-5.25265E-04-2.06030E-15
 -1      1802 2.21082E-03-5.84454E-04-2.89585E-15
 -1      1803 2.34962E-03-5.90797E-04-3.30808E-15
 -1      1804 2.13223E-03-5.44595E-04-2.78130E-15
 -1      1805 2.48863E-03-5.95859E-04-3.74769E-15
 -1      1806 2.62780E-03-5.99775E-04-4.21428E-15
 -1      1807 2.41204E-03-5.57239E-04-3.61152E-15
 -1      1808 2.76723E-03-6.02755E-04-4.70853E-15
 -1      1809 2.90688E-03-6.04905E-04-5.22905E-15
 -1      1810 2.69223E-03-5.65001E-04-4.55060E-15
 -1      1811 3.04679E-03-6.06373E-04-5.77553E-15
 -1      1812 3.18692E-03-6.07240E-04-6.34765E-15
 -1      1813 2.97300E-03-5.69219E-04-5.59600E-15
 -1      1814 3.32732E-03-6.07608E-04-6.94498E-15
 -1      1815 3.46794E-03-6.07538E-04-7.56722E-15
 -1      1816 3.25446E-03-5.70869E-04-6.74437E-15
 -1      1817 3.60881E-03-6.07095E-04-8.21355E-15
 -1      1818 3.74989E-03-6.06323E-04-8.88383E-15
 -1      1819 3.53665E-03-5.70646E-04-7.99207E-15
 -1      1820 3.89121E-03-6.05260E-04-9.57746E-15
 -1      1821 4.03274E-03-6.03937E-04-1.02946E-14
 -1      1822 3.81956E-03-5.69022E-04-9.33588E-15
 -1      1823 4.17450E-03-6.02371E-04-1.10340E-14
 -1      1824 4.31647E-03-6.00582E-04-1.17959E-14
 -1      1825 4.10319E-03-5.66299E-04-1.07732E-14
 -1      1826 4.45866E-03-5.98571E-04-1.25800E-14
 -1      1827 4.60108E-03-5.96352E-04-1.33864E-14
 -1      1828 4.38753E-03-5.62644E-04-1.23022E-14
 -1      1829 4.74373E-03-5.93913E-04-1.42159E-14
 -1      1830 4.88663E-03-5.91266E-04-1.50665E-14
 -1      1831 4.67264E-03-5.58125E-04-1.39205E-14
 -1      1832 5.02980E-03-5.88392E-04-1.59394E-14
 -1      1833 5.17326E-03-5.85302E-04-1.68348E-14
 -1      1834 4.95856E-03-5.52741E-04-1.56267E-14
 -1      1835 5.31702E-03-5.81972E-04-1.77529E-14
 -1      1836 5.46115E-03-5.78420E-04-1.86923E-14
 -1      1837 5.24544E-03-5.46455E-04-1.74223E-14
 -1      1838 5.60566E-03-5.74624E-04-1.96543E-14
 -1      1839 5.75061E-03-5.70608E-04-2.06382E-14
 -1      1840 5.53345E-03-5.39220E-04-1.93071E-14
 -1      1841 5.89603E-03-5.66364E-04-2.16445E-14
 -1      1842 6.04202E-03-5.61930E-04-2.26733E-14
 -1      1843 5.82284E-03-5.31030E-04-2.12802E-14
 -1      1844 6.18859E-03-5.57317E-04-2.37225E-14
 -1      1845 6.33588E-03-5.52587E-04-2.47940E-14
 -1      1846 6.11396E-03-5.21960E-04-2.33413E-14
 -1      1847 6.48389E-03-5.47785E-04-2.58873E-14
 -1      1848 6.63280E-03-5.43008E-04-2.69980E-14
 -1      1849 6.40723E-03-5.12244E-04-2.54879E-14
 -1      1850 6.78261E-03-5.38357E-04-2.81310E-14
 -1      1851 6.93352E-03-5.33976E-04-2.92858E-14
 -1      1852 6.70314E-03-5.02364E-04-2.77174E-14
 -1      1853 7.08553E-03-5.30051E-04-3.04607E-14
 -1      1854 7.23886E-03-5.26792E-04-3.16547E-14
 -1      1855 7.00232E-03-4.93187E-04-3.00281E-14
 -1      1856 7.39351E-03-5.24503E-04-3.28675E-14
 -1      1857 7.54970E-03-5.23485E-04-3.41002E-14
 -1      1858 7.30545E-03-4.86132E-04-3.24191E-14
 -1      1859 7.70744E-03-5.24202E-04-3.53527E-14
 -1      1860 7.86690E-03-5.27069E-04-3.66224E-14
 -1      1861 7.61333E-03-4.83393E-04-3.48873E-14
 -1      1862 8.02813E-03-5.32744E-04-3.79106E-14
 -1      1863 8.19118E-03-5.41779E-04-3.92164E-14
 -1      1864 7.92679E-03-4.88189E-04-3.74290E-14
 -1      1865 8.35618E-03-5.55015E-04-4.05373E-14
 -1      1866 8.52293E-03-5.73145E-04-4.18740E-14
 -1      1867 8.24679E-03-5.04994E-04-4.00404E-14
 -1      1868 8.69174E-03-5.97098E-04-4.32265E-14
 -1      1869 8.86194E-03-6.27626E-04-4.45929E-14
 -1      1870 8.57423E-03-5.39587E-04-4.27164E-14
 -1      1871 9.03411E-03-6.65491E-04-4.59731E-14
 -1      1872 9.20696E-03-7.11263E-04-4.73639E-14
 -1      1873 8.90984E-03-5.98629E-04-4.54495E-14
 -1      1874 9.38125E-03-7.65059E-04-4.87689E-14
 -1      1875 9.55505E-03-8.26695E-04-5.01843E-14
 -1      1876 9.25355E-03-6.88233E-04-4.82370E-14
 -1      1877 9.72907E-03-8.95003E-04-5.16090E-14
 -1      1878 9.90111E-03-9.68312E-04-5.30465E-14
 -1      1879 9.60333E-03-8.10644E-04-5.10700E-14
 -1      1880 1.00715E-02-1.04368E-03-5.44942E-14
 -1      1881 1.02386E-02-1.11734E-03-5.59538E-14
 -1      1882 9.95397E-03-9.58798E-04-5.39458E-14
 -1      1883 1.04021E-02-1.18487E-03-5.74262E-14
 -1      1884 1.05627E-02-1.24156E-03-5.89093E-14
 -1      1885 1.02975E-02-1.11042E-03-5.68674E-14
 -1      1886 1.07192E-02-1.28341E-03-6.04074E-14
 -1      1887 1.08749E-02-1.30654E-03-6.19193E-14
 -1      1888 1.06278E-02-1.22887E-03-5.98410E-14
 -1      1889 1.10283E-02-1.30954E-03-6.34421E-14
 -1      1890 1.11843E-02-1.29292E-03-6.49781E-14
 -1      1891 1.09474E-02-1.27736E-03-6.28644E-14
 -1      1892 1.13414E-02-1.25866E-03-6.65256E-14
 -1      1893 1.15025E-02-1.21097E-03-6.80851E-14
 -1      1894 1.12679E-02-1.24113E-03-6.59383E-14
 -1      1895 1.16664E-02-1.15409E-03-6.96562E-14
 -1      1896 1.18334E-02-1.09277E-03-7.12397E-14
 -1      1897 1.15996E-02-1.14063E-03-6.90589E-14
 -1      1898 1.20031E-02-1.03119E-03-7.28369E-14
 -1      1899 1.21739E-02-9.72635E-04-7.44445E-14
 -1      1900 1.19430E-02-1.01423E-03-7.22267E-14
 -1      1901 1.23461E-02-9.19635E-04-7.60654E-14
 -1      1902 1.25174E-02-8.73508E-04-7.76988E-14
 -1      1903 1.22910E-02-8.96231E-04-7.54442E-14
 -1      1904 1.26886E-02-8.35052E-04-7.93457E-14
 -1      1905 1.28579E-02-8.04162E-04-8.10052E-14
 -1      1906 1.26358E-02-8.05255E-04-7.87102E-14
 -1      1907 1.30260E-02-7.80450E-04-8.26739E-14
 -1      1908 1.31918E-02-7.63193E-04-8.43540E-14
 -1      1909 1.29730E-02-7.45620E-04-8.20227E-14
 -1      1910 1.33556E-02-7.51415E-04-8.60448E-14
 -1      1911 1.35170E-02-7.44239E-04-8.77376E-14
 -1      1912 1.33008E-02-7.13227E-04-8.53739E-14
 -1      1913 1.36763E-02-7.40529E-04-8.94367E-14
 -1      1914 1.38333E-02-7.39453E-04-9.11448E-14
 -1      1915 1.36194E-02-7.00654E-04-8.87573E-14
 -1      1916 1.39880E-02-7.39938E-04-9.28576E-14
 -1      1917 1.41408E-02-7.41241E-04-9.45712E-14
 -1      1918 1.39294E-02-6.99940E-04-9.21619E-14
 -1      1919 1.42915E-02-7.42460E-04-9.62870E-14
 -1      1920 1.44404E-02-7.42923E-04-9.80042E-14
 -1      1921 1.42319E-02-7.03761E-04-9.55862E-14
 -1      1922 1.45718E-02-7.43842E-04-9.95384E-14
 -1      1923 1.47178E-02-7.41123E-04-1.01262E-13
 -1      1924 1.47713E-02-7.07213E-04-1.01907E-13
 -1      1925 1.45119E-02-7.07488E-04-9.88354E-14
 -1      1926 1.13845E-03 4.80130E-04-8.07283E-16
 -1      1927 9.96713E-04 4.46885E-04-6.05378E-16
 -1      1928 9.64346E-04 4.17435E-04-6.12588E-16
 -1      1929 1.41751E-03 5.31579E-04-1.30263E-15
 -1      1930 1.27838E-03 5.08150E-04-1.03971E-15
 -1      1931 1.24877E-03 4.80020E-04-1.04414E-15
 -1      1932 1.69381E-03 5.67808E-04-1.91783E-15
 -1      1933 1.55582E-03 5.51352E-04-1.59544E-15
 -1      1934 1.52898E-03 5.24190E-04-1.59582E-15
 -1      1935 1.96929E-03 5.92981E-04-2.65026E-15
 -1      1936 1.83156E-03 5.81607E-04-2.26953E-15
 -1      1937 1.80716E-03 5.55087E-04-2.26502E-15
 -1      1938 2.24504E-03 6.10041E-04-3.49972E-15
 -1      1939 2.10709E-03 6.02401E-04-3.06036E-15
 -1      1940 2.08470E-03 5.76291E-04-3.05036E-15
 -1      1941 2.52160E-03 6.21141E-04-4.46282E-15
 -1      1942 2.38320E-03 6.16243E-04-3.96710E-15
 -1      1943 2.36244E-03 5.90385E-04-3.95053E-15
 -1      1944 2.79924E-03 6.27882E-04-5.53747E-15
 -1      1945 2.66028E-03 6.24987E-04-4.98599E-15
 -1      1946 2.64083E-03 5.99277E-04-4.96321E-15
 -1      1947 3.07806E-03 6.31448E-04-6.72512E-15
 -1      1948 2.93851E-03 6.30012E-04-6.11769E-15
 -1      1949 2.92008E-03 6.04380E-04-6.08720E-15
 -1      1950 3.35803E-03 6.32703E-04-8.02079E-15
 -1      1951 3.21791E-03 6.32329E-04-7.35904E-15
 -1      1952 3.20027E-03 6.06733E-04-7.32128E-15
 -1      1953 3.63910E-03 6.32257E-04-9.42635E-15
 -1      1954 3.49844E-03 6.32668E-04-8.71007E-15
 -1      1955 3.48142E-03 6.07080E-04-8.66387E-15
 -1      1956 3.92120E-03 6.30522E-04-1.09401E-14
 -1      1957 3.78003E-03 6.31535E-04-1.01693E-14
 -1      1958 3.76349E-03 6.05939E-04-1.01144E-14
 -1      1959 4.20428E-03 6.27759E-04-1.25584E-14
 -1      1960 4.06262E-03 6.29259E-04-1.17359E-14
 -1      1961 4.04643E-03 6.03648E-04-1.16713E-14
 -1      1962 4.48831E-03 6.24111E-04-1.42843E-14
 -1      1963 4.34618E-03 6.26040E-04-1.34088E-14
 -1      1964 4.33023E-03 6.00408E-04-1.33341E-14
 -1      1965 4.77332E-03 6.19641E-04-1.61090E-14
 -1      1966 4.63069E-03 6.21975E-04-1.51842E-14
 -1      1967 4.61491E-03 5.96320E-04-1.50998E-14
 -1      1968 5.05941E-03 6.14364E-04-1.80311E-14
 -1      1969 4.91622E-03 6.17100E-04-1.70584E-14
 -1      1970 4.90051E-03 5.91415E-04-1.69641E-14
 -1      1971 5.34673E-03 6.08275E-04-2.00475E-14
 -1      1972 5.20290E-03 6.11416E-04-1.90278E-14
 -1      1973 5.18716E-03 5.85688E-04-1.89232E-14
 -1      1974 5.63555E-03 6.01397E-04-2.21521E-14
 -1      1975 5.49094E-03 6.04925E-04-2.10891E-14
 -1      1976 5.47504E-03 5.79135E-04-2.09741E-14
 -1      1977 5.92621E-03 5.93817E-04-2.43425E-14
 -1      1978 5.78062E-03 5.97677E-04-2.32371E-14
 -1      1979 5.76441E-03 5.71793E-04-2.31125E-14
 -1      1980 6.21914E-03 5.85753E-04-2.66174E-14
 -1      1981 6.07235E-03 5.89817E-04-2.54691E-14
 -1      1982 6.05561E-03 5.63789E-04-2.53363E-14
 -1      1983 6.51487E-03 5.77629E-04-2.89723E-14
 -1      1984 6.36661E-03 5.81654E-04-2.77849E-14
 -1      1985 6.34908E-03 5.55412E-04-2.76415E-14
 -1      1986 6.81400E-03 5.70164E-04-3.14114E-14
 -1      1987 6.66395E-03 5.73747E-04-3.01826E-14
 -1      1988 6.64531E-03 5.47193E-04-3.00292E-14
 -1      1989 7.11718E-03 5.64495E-04-3.39259E-14
 -1      1990 6.96503E-03 5.67011E-04-3.26583E-14
 -1      1991 6.94485E-03 5.40011E-04-3.24954E-14
 -1      1992 7.42500E-03 5.62298E-04-3.65075E-14
 -1      1993 7.27045E-03 5.62837E-04-3.52081E-14
 -1      1994 7.24830E-03 5.35214E-04-3.50339E-14
 -1      1995 7.73794E-03 5.65904E-04-3.91575E-14
 -1      1996 7.58080E-03 5.63217E-04-3.78247E-14
 -1      1997 7.55619E-03 5.34753E-04-3.76417E-14
 -1      1998 8.05618E-03 5.78342E-04-4.18615E-14
 -1      1999 7.89640E-03 5.70834E-04-4.05035E-14
 -1      2000 7.86894E-03 5.41270E-04-4.03110E-14
 -1      2001 8.37937E-03 6.03203E-04-4.46188E-14
 -1      2002 8.21721E-03 5.89032E-04-4.32342E-14
 -1      2003 8.18670E-03 5.58100E-04-4.30355E-14
 -1      2004 8.70644E-03 6.44155E-04-4.74229E-14
 -1      2005 8.54257E-03 6.21528E-04-4.60144E-14
 -1      2006 8.50919E-03 5.89018E-04-4.58091E-14
 -1      2007 9.03531E-03 7.03879E-04-5.02771E-14
 -1      2008 8.87091E-03 6.71666E-04-4.88437E-14
 -1      2009 8.83542E-03 6.37555E-04-4.86325E-14
 -1      2010 9.36285E-03 7.82304E-04-5.31807E-14
 -1      2011 9.19962E-03 7.41009E-04-5.17232E-14
 -1      2012 9.16347E-03 7.05652E-04-5.15054E-14
 -1      2013 9.68511E-03 8.74310E-04-5.61286E-14
 -1      2014 9.52504E-03 8.27226E-04-5.46481E-14
 -1      2015 9.49029E-03 7.91549E-04-5.44254E-14
 -1      2016 9.99825E-03 9.68055E-04-5.91234E-14
 -1      2017 9.84312E-03 9.21968E-04-5.76206E-14
 -1      2018 9.81202E-03 8.87461E-04-5.73913E-14
 -1      2019 1.03002E-02 1.04539E-03-6.21660E-14
 -1      2020 1.01506E-02 1.00991E-03-6.06388E-14
 -1      2021 1.01250E-02 9.78275E-04-6.04072E-14
 -1      2022 1.05924E-02 1.08674E-03-6.52604E-14
 -1      2023 1.04471E-02 1.07143E-03-6.37072E-14
 -1      2024 1.04278E-02 1.04371E-03-6.34705E-14
 -1      2025 1.08802E-02 1.07868E-03-6.84022E-14
 -1      2026 1.07362E-02 1.08905E-03-6.68247E-14
 -1      2027 1.07233E-02 1.06503E-03-6.65831E-14
 -1      2028 1.11708E-02 1.02046E-03-7.15871E-14
 -1      2029 1.10245E-02 1.05520E-03-6.99911E-14
 -1      2030 1.10175E-02 1.03343E-03-6.97432E-14
 -1      2031 1.14698E-02 9.24347E-04-7.48051E-14
 -1      2032 1.13189E-02 9.75997E-04-7.31913E-14
 -1      2033 1.13172E-02 9.54675E-04-7.29385E-14
 -1      2034 1.17789E-02 8.09629E-04-7.80474E-14
 -1      2035 1.16231E-02 8.68192E-04-7.64236E-14
 -1      2036 1.16259E-02 8.46024E-04-7.61644E-14
 -1      2037 1.20962E-02 6.94492E-04-8.13088E-14
 -1      2038 1.19368E-02 7.51342E-04-7.96760E-14
 -1      2039 1.19429E-02 7.27887E-04-7.94135E-14
 -1      2040 1.24178E-02 5.91102E-04-8.45948E-14
 -1      2041 1.22569E-02 6.41000E-04-8.29501E-14
 -1      2042 1.22647E-02 6.16407E-04-8.26841E-14
 -1      2043 1.27396E-02 5.04536E-04-8.78945E-14
 -1      2044 1.25790E-02 5.45729E-04-8.62416E-14
 -1      2045 1.25873E-02 5.20409E-04-8.59738E-14
 -1      2046 1.30582E-02 4.34395E-04-9.12090E-14
 -1      2047 1.28995E-02 4.67627E-04-8.95520E-14
 -1      2048 1.29071E-02 4.42018E-04-8.92818E-14
 -1      2049 1.33713E-02 3.77014E-04-9.45370E-14
 -1      2050 1.32156E-02 4.04408E-04-9.28709E-14
 -1      2051 1.32221E-02 3.78895E-04-9.26002E-14
 -1      2052 1.36780E-02 3.27297E-04-9.78863E-14
 -1      2053 1.35255E-02 3.51508E-04-9.62084E-14
 -1      2054 1.35311E-02 3.26413E-04-9.59370E-14
 -1      2055 1.39780E-02 2.79870E-04-1.01262E-13
 -1      2056 1.38288E-02 3.03582E-04-9.95715E-14
 -1      2057 1.38337E-02 2.79169E-04-9.92976E-14
 -1      2058 1.42721E-02 2.29835E-04-1.04655E-13
 -1      2059 1.41257E-02 2.55402E-04-1.02957E-13
 -1      2060 1.41303E-02 2.31877E-04-1.02684E-13
 -1      2061 1.45125E-02 1.81146E-04-1.07450E-13
 -1      2062 1.43680E-02 2.09519E-04-1.05743E-13
 -1      2063 1.43726E-02 1.86814E-04-1.05471E-13
 -1      2064 1.45634E-02 1.44716E-04-1.07649E-13
 -1      2065 1.47445E-02-5.82682E-05-1.06524E-13
 -1      2066 1.47047E-02-2.38223E-05-1.06657E-13
 -1      2067 1.46651E-02 1.21566E-05-1.06793E-13
 -1      2068 1.46260E-02 4.94695E-05-1.06927E-13
 -1      2069 1.45622E-02 1.62257E-05-1.05244E-13
 -1      2070 1.46119E-02 7.66183E-05-1.07222E-13
 -1      2071 1.45751E-02 1.16099E-04-1.07355E-13
 -1      2072 1.44800E-02 1.37181E-04-1.06267E-13
 -1      2073 1.45072E-02 8.08398E-05-1.05677E-13
 -1      2074 1.48201E-02-1.21579E-04-1.06250E-13
 -1      2075 1.47828E-02-9.06665E-05-1.06388E-13
 -1      2076 1.46419E-02-5.38003E-05-1.04972E-13
 -1      2077 1.48895E-02-1.80042E-04-1.05966E-13
 -1      2078 1.48560E-02-1.51499E-04-1.06110E-13
 -1      2079 1.47181E-02-1.18335E-04-1.04693E-13
 -1      2080 1.49464E-02-2.33320E-04-1.05676E-13
 -1      2081 1.49197E-02-2.07195E-04-1.05824E-13
 -1      2082 1.47859E-02-1.78026E-04-1.04406E-13
 -1      2083 1.49867E-02-2.82971E-04-1.05373E-13
 -1      2084 1.49688E-02-2.58402E-04-1.05524E-13
 -1      2085 1.48399E-02-2.33138E-04-1.04110E-13
 -1      2086 1.50080E-02-3.31159E-04-1.05057E-13
 -1      2087 1.49998E-02-3.07013E-04-1.05217E-13
 -1      2088 1.48762E-02-2.85225E-04-1.03802E-13
 -1      2089 1.50100E-02-3.80354E-04-1.04727E-13
 -1      2090 1.50114E-02-3.55395E-04-1.04894E-13
 -1      2091 1.48926E-02-3.36404E-04-1.03483E-13
 -1      2092 1.49952E-02-4.31992E-04-1.04394E-13
 -1      2093 1.50045E-02-4.05576E-04-1.04561E-13
 -1      2094 1.48895E-02-3.88561E-04-1.03152E-13
 -1      2095 1.49670E-02-4.89721E-04-1.04045E-13
 -1      2096 1.49825E-02-4.60074E-04-1.04220E-13
 -1      2097 1.48699E-02-4.44228E-04-1.02812E-13
 -1      2098 1.49311E-02-5.53833E-04-1.03690E-13
 -1      2099 1.49497E-02-5.20937E-04-1.03865E-13
 -1      2100 1.48378E-02-5.05530E-04-1.02459E-13
 -1      2101 1.48937E-02-6.24649E-04-1.03335E-13
 -1      2102 1.49122E-02-5.88448E-04-1.03513E-13
 -1      2103 1.47994E-02-5.72902E-04-1.02105E-13
 -1      2104 1.27199E-02-1.16091E-05-7.37492E-14
 -1      2105 1.28663E-02-6.21745E-05-7.39700E-14
 -1      2106 1.31262E-02-1.63860E-04-7.42432E-14
 -1      2107 1.31300E-02-1.80904E-04-7.40567E-14
 -1      2108 1.29811E-02-1.02758E-04-7.41185E-14
 -1      2109 1.30671E-02-1.32421E-04-7.42664E-14
 -1      2110 1.29234E-02-1.00940E-04-7.47771E-14
 -1      2111 1.23096E-02 1.68572E-04-7.27611E-14
 -1      2112 1.25074E-02 7.52026E-05-7.33078E-14
 -1      2113 1.18694E-02 4.10442E-04-7.11814E-14
 -1      2114 1.20665E-02 2.96097E-04-7.19410E-14
 -1      2115 3.27176E-04-8.90159E-05-1.44687E-16
 -1      2116 3.29250E-04-1.02187E-04-1.36189E-16
 -1      2117 4.46280E-04-1.45166E-04-1.97501E-16
 -1      2118 4.40011E-04-1.09995E-04-2.20079E-16
 -1      2119 1.11383E-02 7.86531E-04-6.75856E-14
 -1      2120 1.13014E-02 7.20126E-04-6.84671E-14
 -1      2121 1.08067E-02 8.48206E-04-6.56694E-14
 -1      2122 1.09571E-02 8.33310E-04-6.65897E-14
 -1      2123 1.04699E-02 7.88940E-04-6.35966E-14
 -1      2124 1.06276E-02 8.33560E-04-6.45772E-14
 -1      2125 1.00745E-02 6.10469E-04-6.14704E-14
 -1      2126 1.02492E-02 6.99086E-04-6.23253E-14
 -1      2127 9.72986E-03 4.14010E-04-5.97637E-14
 -1      2128 9.90162E-03 5.16924E-04-6.06139E-14
 -1      2129 1.00058E-02 5.59558E-04-6.06882E-14
 -1      2130 9.29151E-03 1.99913E-04-5.82486E-14
 -1      2131 9.47939E-03 2.87039E-04-5.88329E-14
 -1      2132 8.95291E-03 5.22686E-05-5.70591E-14
 -1      2133 9.11491E-03 1.20873E-04-5.76527E-14
 -1      2134 9.20753E-03 1.39643E-04-5.73886E-14
 -1      2135 8.67922E-03-4.35124E-05-5.62007E-14
 -1      2136 8.78550E-03-1.00499E-05-5.65225E-14
 -1      2137 8.57901E-03-9.16196E-05-5.56692E-14
 -1      2138 8.60358E-03-7.60801E-05-5.57866E-14
 -1      2139 8.64932E-03-1.39468E-04-5.59026E-14
 -1      2140 8.59818E-03-1.16992E-04-5.58391E-14
 -1      2141 8.85371E-03-2.06963E-04-5.60009E-14
 -1      2142 8.73415E-03-1.69714E-04-5.59039E-14
 -1      2143 9.21655E-03-3.61936E-04-5.68266E-14
 -1      2144 9.04166E-03-2.82930E-04-5.63871E-14
 -1      2145 9.63170E-03-5.67964E-04-5.78382E-14
 -1      2146 9.42439E-03-4.59041E-04-5.72891E-14
 -1      2147 1.00779E-02-8.35691E-04-5.96241E-14
 -1      2148 9.88786E-03-7.18210E-04-5.88032E-14
 -1      2149 1.04333E-02-1.02286E-03-6.11798E-14
 -1      2150 1.02611E-02-9.35329E-04-6.04026E-14
 -1      2151 1.01893E-02-8.81483E-04-5.96256E-14
 -1      2152 1.08126E-02-1.14302E-03-6.33325E-14
 -1      2153 1.06662E-02-1.11073E-03-6.23802E-14
 -1      2154 1.11003E-02-1.12444E-03-6.51248E-14
 -1      2155 1.09582E-02-1.14648E-03-6.42268E-14
 -1      2156 1.08927E-02-1.15829E-03-6.36887E-14
 -1      2157 1.14662E-02-9.88907E-04-6.71380E-14
 -1      2158 1.13038E-02-1.06105E-03-6.62601E-14
 -1      2159 1.18324E-02-7.96905E-04-6.89345E-14
 -1      2160 1.16567E-02-8.94271E-04-6.81101E-14
 -1      2161 1.22135E-02-5.84184E-04-7.06560E-14
 -1      2162 1.20312E-02-6.84654E-04-6.98851E-14
 -1      2163 1.26115E-02-3.99525E-04-7.20427E-14
 -1      2164 1.24376E-02-4.76938E-04-7.14547E-14
 -1      2165 1.29120E-02-2.78195E-04-7.30950E-14
 -1      2166 1.27813E-02-3.27820E-04-7.26370E-14
 -1      2167 1.30942E-02-2.05995E-04-7.38910E-14
 -1      2168 1.30264E-02-2.30937E-04-7.36126E-14
 -1      2169 1.14897E-02 6.28909E-04-6.94311E-14
 -1      2170 1.16622E-02 5.31361E-04-7.02296E-14
 -1      2171 1.17406E-02 4.63588E-04-7.11452E-14
 -1      2172 6.07807E-04-2.98180E-04-1.76156E-16
 -1      2173 1.13712E-02 6.77766E-04-6.92256E-14
 -1      2174 6.63529E-04-2.92473E-04-2.54909E-16
 -1      2175 1.31060E-02-1.56020E-04-7.49041E-14
 -1      2176 1.26098E-02 1.16075E-05-7.41847E-14
 -1      2177 1.48380E-02-6.56186E-04-1.02688E-13
 -1      2178 1.31206E-02-1.90564E-04-7.47138E-14
 -1      2179 1.21702E-02 2.17633E-04-7.29205E-14
 -1      2180 1.29732E-02-2.39249E-04-7.40257E-14
 -1      2181 1.26922E-02-3.42796E-04-7.29109E-14
 -1      2182 1.23118E-02-5.14335E-04-7.15112E-14
 -1      2183 1.19109E-02-7.31674E-04-6.97565E-14
 -1      2184 1.11847E-02-1.10485E-03-6.57183E-14
 -1      2185 1.05709E-02-1.07934E-03-6.15966E-14
 -1      2186 9.77668E-03-6.30290E-04-5.78894E-14
 -1      2187 9.66537E-03-5.53515E-04-5.69814E-14
 -1      2188 9.89925E-03-6.95293E-04-5.79376E-14
 -1      2189 9.33346E-03-3.89769E-04-5.64736E-14
 -1      2190 8.94486E-03-2.24219E-04-5.56322E-14
 -1      2191 8.68630E-03-1.37951E-04-5.52496E-14
 -1      2192 8.57867E-03-9.76061E-05-5.50794E-14
 -1      2193 8.86779E-03 7.46940E-06-5.62632E-14
 -1      2194 9.61435E-03 3.40489E-04-5.89065E-14
 -1      2195 1.03657E-02 7.50167E-04-6.28083E-14
 -1      2196 1.10359E-02 8.19425E-04-6.72613E-14
 -1      2197 1.07216E-02 8.53035E-04-6.51714E-14
 -1      2198 8.62995E-03-6.83131E-05-5.53190E-14
 -1      2199 1.15458E-02-9.40828E-04-6.78292E-14
 -1      2200 1.01647E-03 3.99879E-04-7.45823E-16
 -1      2201 8.72026E-04 3.63498E-04-5.56792E-16
 -1      2202 5.47856E-04-5.53395E-05-3.54548E-16
 -1      2203 5.48883E-04-7.20670E-05-3.48219E-16
 -1      2204 5.50293E-04-8.94000E-05-3.40656E-16
 -1      2205 5.52141E-04-1.07395E-04-3.31685E-16
 -1      2206 6.65362E-04-9.55486E-05-4.67711E-16
 -1      2207 5.46488E-04 8.86242E-06-3.70567E-16
 -1      2208 5.46468E-04-6.98691E-06-3.67938E-16
 -1      2209 5.47236E-04 4.08964E-05-3.74009E-16
 -1      2210 5.46740E-04 2.48106E-05-3.72640E-16
 -1      2211 6.61446E-04 1.99434E-05-5.03056E-16
 -1      2212 5.49046E-04 7.35381E-05-3.73901E-16
 -1      2213 5.47992E-04 5.70363E-05-3.74470E-16
 -1      2214 6.62760E-04 5.78233E-05-5.06295E-16
 -1      2215 5.52415E-04 1.09026E-04-3.69442E-16
 -1      2216 5.50503E-04 9.09443E-05-3.72301E-16
 -1      2217 6.65599E-04 9.73129E-05-5.04967E-16
 -1      2218 5.58267E-04 1.48370E-04-3.58451E-16
 -1      2219 5.54963E-04 1.28141E-04-3.64942E-16
 -1      2220 6.70660E-04 1.40099E-04-4.97676E-16
 -1      2221 5.68563E-04 1.93971E-04-3.38407E-16
 -1      2222 5.62741E-04 1.70253E-04-3.49845E-16
 -1      2223 6.79274E-04 1.87652E-04-4.81725E-16
 -1      2224 1.30189E-03 4.56795E-04-1.21284E-15
 -1      2225 1.15959E-03 4.30869E-04-9.64452E-16
 -1      2226 1.07167E-03 3.81401E-04-8.83801E-16
 -1      2227 9.15093E-04-3.46444E-04-5.19712E-16
 -1      2228 1.05917E-03-3.79761E-04-6.92263E-16
 -1      2229 1.12699E-02 7.26227E-04-6.90902E-14
 -1      2230 1.14262E-02 6.37566E-04-7.00578E-14
 -1      2231 1.20241E-03-4.08143E-04-8.91580E-16
 -1      2232 1.34520E-03-4.31996E-04-1.11853E-15
 -1      2233 1.11688E-03-3.60585E-04-8.29943E-16
 -1      2234 1.48736E-03-4.52184E-04-1.37279E-15
 -1      2235 1.62912E-03-4.68983E-04-1.65484E-15
 -1      2236 1.40319E-03-4.07308E-04-1.29292E-15
 -1      2237 1.77052E-03-4.83064E-04-1.96406E-15
 -1      2238 1.91168E-03-4.94640E-04-2.30042E-15
 -1      2239 1.68829E-03-4.40467E-04-1.86485E-15
 -1      2240 2.05268E-03-5.04202E-04-2.66420E-15
 -1      2241 2.19358E-03-5.11923E-04-3.05565E-15
 -1      2242 1.97246E-03-4.63386E-04-2.54525E-15
 -1      2243 2.33446E-03-5.18161E-04-3.47369E-15
 -1      2244 2.47533E-03-5.23056E-04-3.91885E-15
 -1      2245 2.25607E-03-4.78687E-04-3.33373E-15
 -1      2246 2.61626E-03-5.26867E-04-4.39084E-15
 -1      2247 2.75724E-03-5.29706E-04-4.88977E-15
 -1      2248 2.53946E-03-4.88383E-04-4.22993E-15
 -1      2249 2.89833E-03-5.31756E-04-5.41489E-15
 -1      2250 3.03951E-03-5.33105E-04-5.96584E-15
 -1      2251 2.82288E-03-4.93993E-04-5.23220E-15
 -1      2252 3.18082E-03-5.33882E-04-6.54144E-15
 -1      2253 3.32224E-03-5.34151E-04-7.14295E-15
 -1      2254 3.10646E-03-4.96644E-04-6.33789E-15
 -1      2255 3.46381E-03-5.34001E-04-7.76907E-15
 -1      2256 3.60548E-03-5.33477E-04-8.41924E-15
 -1      2257 3.39032E-03-4.97153E-04-7.54462E-15
 -1      2258 3.74731E-03-5.32635E-04-9.09305E-15
 -1      2259 3.88925E-03-5.31506E-04-9.79045E-15
 -1      2260 3.67449E-03-4.96087E-04-8.84912E-15
 -1      2261 4.03135E-03-5.30120E-04-1.05108E-14
 -1      2262 4.17357E-03-5.28498E-04-1.12548E-14
 -1      2263 3.95901E-03-4.93822E-04-1.02476E-14
 -1      2264 4.31594E-03-5.26651E-04-1.20224E-14
 -1      2265 4.45845E-03-5.24590E-04-1.28117E-14
 -1      2266 4.24391E-03-4.90578E-04-1.17397E-14
 -1      2267 4.60111E-03-5.22313E-04-1.36228E-14
 -1      2268 4.74394E-03-5.19827E-04-1.44574E-14
 -1      2269 4.52921E-03-4.86465E-04-1.33240E-14
 -1      2270 4.88693E-03-5.17118E-04-1.53133E-14
 -1      2271 5.03010E-03-5.14190E-04-1.61903E-14
 -1      2272 4.81496E-03-4.81504E-04-1.49963E-14
 -1      2273 5.17347E-03-5.11026E-04-1.70904E-14
 -1      2274 5.31705E-03-5.07632E-04-1.80133E-14
 -1      2275 5.10122E-03-4.75665E-04-1.67575E-14
 -1      2276 5.46087E-03-5.03988E-04-1.89582E-14
 -1      2277 5.60495E-03-5.00106E-04-1.99254E-14
 -1      2278 5.38806E-03-4.68895E-04-1.86072E-14
 -1      2279 5.74931E-03-4.95974E-04-2.09147E-14
 -1      2280 5.89400E-03-4.91611E-04-2.19259E-14
 -1      2281 5.67561E-03-4.61149E-04-2.05472E-14
 -1      2282 6.03902E-03-4.87023E-04-2.29585E-14
 -1      2283 6.18447E-03-4.82245E-04-2.40128E-14
 -1      2284 5.96401E-03-4.52439E-04-2.25749E-14
 -1      2285 6.33032E-03-4.77308E-04-2.50885E-14
 -1      2286 6.47669E-03-4.72274E-04-2.61846E-14
 -1      2287 6.25346E-03-4.42884E-04-2.46885E-14
 -1      2288 6.62355E-03-4.67218E-04-2.73020E-14
 -1      2289 6.77106E-03-4.62237E-04-2.84379E-14
 -1      2290 6.54418E-03-4.32790E-04-2.68840E-14
 -1      2291 6.91917E-03-4.57473E-04-2.95952E-14
 -1      2292 7.06807E-03-4.53075E-04-3.07736E-14
 -1      2293 6.83648E-03-4.22744E-04-2.91620E-14
 -1      2294 7.21771E-03-4.49278E-04-3.19709E-14
 -1      2295 7.36831E-03-4.46307E-04-3.31868E-14
 -1      2296 7.13073E-03-4.13750E-04-3.15203E-14
 -1      2297 7.51985E-03-4.44518E-04-3.44220E-14
 -1      2298 7.67254E-03-4.44248E-04-3.56763E-14
 -1      2299 7.42746E-03-4.07397E-04-3.39569E-14
 -1      2300 7.82643E-03-4.45995E-04-3.69479E-14
 -1      2301 7.98173E-03-4.50252E-04-3.82378E-14
 -1      2302 7.72747E-03-4.06065E-04-3.64664E-14
 -1      2303 8.13860E-03-4.57665E-04-3.95443E-14
 -1      2304 8.29717E-03-4.68937E-04-4.08673E-14
 -1      2305 8.03194E-03-4.13162E-04-3.90473E-14
 -1      2306 8.45784E-03-4.84807E-04-4.22062E-14
 -1      2307 8.62056E-03-5.06236E-04-4.35595E-14
 -1      2308 8.34271E-03-4.33351E-04-4.16957E-14
 -1      2309 8.78601E-03-5.33923E-04-4.49286E-14
 -1      2310 8.95378E-03-5.69026E-04-4.63086E-14
 -1      2311 8.66246E-03-4.72685E-04-4.44044E-14
 -1      2312 9.12488E-03-6.11951E-04-4.77025E-14
 -1      2313 9.29817E-03-6.63746E-04-4.91091E-14
 -1      2314 8.99447E-03-5.38406E-04-4.71682E-14
 -1      2315 9.47480E-03-7.24139E-04-5.05277E-14
 -1      2316 9.65257E-03-7.92943E-04-5.19560E-14
 -1      2317 9.34150E-03-6.37896E-04-4.99825E-14
 -1      2318 9.83229E-03-8.68519E-04-5.33956E-14
 -1      2319 1.00110E-02-9.48458E-04-5.48477E-14
 -1      2320 9.70288E-03-7.74512E-04-5.28440E-14
 -1      2321 1.01886E-02-1.02924E-03-5.63092E-14
 -1      2322 1.03627E-02-1.10448E-03-5.77842E-14
 -1      2323 1.00708E-02-9.39657E-04-5.57498E-14
 -1      2324 1.05320E-02-1.16963E-03-5.92730E-14
 -1      2325 1.06991E-02-1.21745E-03-6.07719E-14
 -1      2326 1.04301E-02-1.10148E-03-5.87023E-14
 -1      2327 1.08614E-02-1.24489E-03-6.22867E-14
 -1      2328 1.10252E-02-1.24725E-03-6.38121E-14
 -1      2329 1.07720E-02-1.20715E-03-6.17051E-14
 -1      2330 1.11881E-02-1.22485E-03-6.53483E-14
 -1      2331 1.13561E-02-1.18385E-03-6.68990E-14
 -1      2332 1.11071E-02-1.21073E-03-6.47583E-14
 -1      2333 1.15270E-02-1.12768E-03-6.84618E-14
 -1      2334 1.17017E-02-1.06353E-03-7.00346E-14
 -1      2335 1.14518E-02-1.11734E-03-6.78615E-14
 -1      2336 1.18792E-02-9.96032E-04-7.16175E-14
 -1      2337 1.20571E-02-9.30788E-04-7.32165E-14
 -1      2338 1.18131E-02-9.78745E-04-7.10108E-14
 -1      2339 1.22355E-02-8.70839E-04-7.48240E-14
 -1      2340 1.24112E-02-8.18075E-04-7.64428E-14
 -1      2341 1.21792E-02-8.44289E-04-7.42035E-14
 -1      2342 1.25853E-02-7.73780E-04-7.80750E-14
 -1      2343 1.27559E-02-7.37710E-04-7.97185E-14
 -1      2344 1.25363E-02-7.40628E-04-7.74424E-14
 -1      2345 1.29240E-02-7.09872E-04-8.13729E-14
 -1      2346 1.30886E-02-6.89103E-04-8.30361E-14
 -1      2347 1.28781E-02-6.72857E-04-8.07247E-14
 -1      2348 1.32507E-02-6.74782E-04-8.47083E-14
 -1      2349 1.34100E-02-6.65664E-04-8.63909E-14
 -1      2350 1.32046E-02-6.35775E-04-8.40463E-14
 -1      2351 1.35671E-02-6.60861E-04-8.80796E-14
 -1      2352 1.37219E-02-6.59317E-04-8.97696E-14
 -1      2353 1.35189E-02-6.21004E-04-8.74007E-14
 -1      2354 1.38748E-02-6.60085E-04-9.14725E-14
 -1      2355 1.40260E-02-6.62307E-04-9.31793E-14
 -1      2356 1.38240E-02-6.20350E-04-9.07861E-14
 -1      2357 1.41756E-02-6.65112E-04-9.48884E-14
 -1      2358 1.43238E-02-6.67775E-04-9.66014E-14
 -1      2359 1.41225E-02-6.26524E-04-9.41923E-14
 -1      2360 1.28822E-02-1.00758E-04-7.56160E-14
 -1      2361 1.29871E-02-1.29404E-04-7.57678E-14
 -1      2362 1.86494E-03 5.25126E-04-2.49818E-15
 -1      2363 1.72474E-03 5.12442E-04-2.13366E-15
 -1      2364 2.14495E-03 5.44221E-04-3.31374E-15
 -1      2365 2.00499E-03 5.35660E-04-2.89165E-15
 -1      2366 1.92432E-03 4.94479E-04-2.73365E-15
 -1      2367 2.42494E-03 5.56732E-04-4.24185E-15
 -1      2368 2.28493E-03 5.51196E-04-3.76333E-15
 -1      2369 2.20638E-03 5.11536E-04-3.57761E-15
 -1      2370 2.70528E-03 5.64436E-04-5.28168E-15
 -1      2371 2.56506E-03 5.61106E-04-4.74825E-15
 -1      2372 2.48828E-03 5.22544E-04-4.53369E-15
 -1      2373 2.98620E-03 5.68650E-04-6.43237E-15
 -1      2374 2.84567E-03 5.66919E-04-5.84287E-15
 -1      2375 2.77033E-03 5.29142E-04-5.60081E-15
 -1      2376 3.26780E-03 5.70335E-04-7.69071E-15
 -1      2377 3.12692E-03 5.69764E-04-7.04836E-15
 -1      2378 3.05273E-03 5.32542E-04-6.77658E-15
 -1      2379 3.55010E-03 5.70175E-04-9.05737E-15
 -1      2380 3.40887E-03 5.70453E-04-8.36020E-15
 -1      2381 3.33557E-03 5.33629E-04-8.05953E-15
 -1      2382 3.83310E-03 5.68638E-04-1.05304E-14
 -1      2383 3.69152E-03 5.69557E-04-9.78002E-15
 -1      2384 3.61891E-03 5.33024E-04-9.44854E-15
 -1      2385 4.11681E-03 5.66022E-04-1.21091E-14
 -1      2386 3.97487E-03 5.67451E-04-1.13073E-14
 -1      2387 3.90276E-03 5.31144E-04-1.09449E-14
 -1      2388 4.40122E-03 5.62494E-04-1.37933E-14
 -1      2389 4.25893E-03 5.64363E-04-1.29381E-14
 -1      2390 4.18713E-03 5.28247E-04-1.25463E-14
 -1      2391 4.68637E-03 5.58131E-04-1.55771E-14
 -1      2392 4.54370E-03 5.60412E-04-1.46728E-14
 -1      2393 4.47206E-03 5.24473E-04-1.42497E-14
 -1      2394 4.97232E-03 5.52944E-04-1.74589E-14
 -1      2395 4.82923E-03 5.55637E-04-1.65057E-14
 -1      2396 4.75757E-03 5.19872E-04-1.60520E-14
 -1      2397 5.25920E-03 5.46919E-04-1.94347E-14
 -1      2398 5.11563E-03 5.50034E-04-1.84355E-14
 -1      2399 5.04375E-03 5.14443E-04-1.79513E-14
 -1      2400 5.54717E-03 5.40048E-04-2.15003E-14
 -1      2401 5.40303E-03 5.43585E-04-2.04567E-14
 -1      2402 5.33068E-03 5.08162E-04-1.99433E-14
 -1      2403 5.83646E-03 5.32374E-04-2.36530E-14
 -1      2404 5.69162E-03 5.36301E-04-2.25660E-14
 -1      2405 5.61853E-03 5.01021E-04-2.20239E-14
 -1      2406 6.12738E-03 5.24044E-04-2.58908E-14
 -1      2407 5.98169E-03 5.28273E-04-2.47609E-14
 -1      2408 5.90750E-03 4.93072E-04-2.41909E-14
 -1      2409 6.42030E-03 5.15382E-04-2.82090E-14
 -1      2410 6.27355E-03 5.19723E-04-2.70408E-14
 -1      2411 6.19782E-03 4.84485E-04-2.64422E-14
 -1      2412 6.71566E-03 5.06971E-04-3.06106E-14
 -1      2413 6.56763E-03 5.11096E-04-2.93994E-14
 -1      2414 6.48983E-03 4.75616E-04-2.87758E-14
 -1      2415 7.01394E-03 4.99771E-04-3.30865E-14
 -1      2416 6.86438E-03 5.03146E-04-3.18383E-14
 -1      2417 6.78389E-03 4.67101E-04-3.11867E-14
 -1      2418 7.31569E-03 4.95234E-04-3.56341E-14
 -1      2419 7.16433E-03 4.97064E-04-3.43520E-14
 -1      2420 7.08048E-03 4.59966E-04-3.36731E-14
 -1      2421 7.62146E-03 4.95439E-04-3.82514E-14
 -1      2422 7.46803E-03 4.94599E-04-3.69349E-14
 -1      2423 7.38014E-03 4.55751E-04-3.62325E-14
 -1      2424 7.93178E-03 5.03179E-04-4.09267E-14
 -1      2425 7.77603E-03 4.98180E-04-3.95816E-14
 -1      2426 7.68352E-03 4.56635E-04-3.88573E-14
 -1      2427 8.24708E-03 5.21935E-04-4.36583E-14
 -1      2428 8.08884E-03 5.10955E-04-4.22861E-14
 -1      2429 7.99138E-03 4.65523E-04-4.15409E-14
 -1      2430 8.56750E-03 5.55599E-04-4.64394E-14
 -1      2431 8.40675E-03 5.36668E-04-4.50432E-14
 -1      2432 8.30454E-03 4.86016E-04-4.42796E-14
 -1      2433 8.89267E-03 6.07722E-04-4.92710E-14
 -1      2434 8.72969E-03 5.79174E-04-4.78488E-14
 -1      2435 8.62376E-03 5.22132E-04-4.70689E-14
 -1      2436 9.22123E-03 6.80049E-04-5.21509E-14
 -1      2437 9.05685E-03 6.41356E-04-5.07036E-14
 -1      2438 8.94930E-03 5.77534E-04-4.99070E-14
 -1      2439 9.55044E-03 7.70230E-04-5.50775E-14
 -1      2440 9.38619E-03 7.23286E-04-5.36093E-14
 -1      2441 9.28025E-03 6.53986E-04-5.27937E-14
 -1      2442 9.87607E-03 8.69156E-04-5.80530E-14
 -1      2443 9.71411E-03 8.19477E-04-5.65585E-14
 -1      2444 9.61366E-03 7.48643E-04-5.57293E-14
 -1      2445 1.01938E-02 9.59671E-04-6.10776E-14
 -1      2446 1.00361E-02 9.16887E-04-5.95601E-14
 -1      2447 9.94443E-03 8.51081E-04-5.87135E-14
 -1      2448 1.05018E-02 1.01926E-03-6.41506E-14
 -1      2449 1.03487E-02 9.94737E-04-6.26068E-14
 -1      2450 1.02670E-02 9.41264E-04-6.17467E-14
 -1      2451 1.08033E-02 1.02892E-03-6.72715E-14
 -1      2452 1.06526E-02 1.03114E-03-6.57058E-14
 -1      2453 1.05794E-02 9.94017E-04-6.48287E-14
 -1      2454 1.11055E-02 9.82448E-04-7.04384E-14
 -1      2455 1.09534E-02 1.01241E-03-6.88504E-14
 -1      2456 1.08863E-02 9.90106E-04-6.79591E-14
 -1      2457 1.14149E-02 8.90252E-04-7.36370E-14
 -1      2458 1.12588E-02 9.40774E-04-7.20340E-14
 -1      2459 1.11964E-02 9.26948E-04-7.11314E-14
 -1      2460 1.17331E-02 7.73705E-04-7.68666E-14
 -1      2461 1.15730E-02 8.33587E-04-7.52480E-14
 -1      2462 1.15158E-02 8.21265E-04-7.43340E-14
 -1      2463 1.20574E-02 6.53985E-04-8.01164E-14
 -1      2464 1.18949E-02 7.13146E-04-7.84888E-14
 -1      2465 1.18435E-02 6.98064E-04-7.75659E-14
 -1      2466 1.23830E-02 5.45679E-04-8.33897E-14
 -1      2467 1.22205E-02 5.97860E-04-8.17502E-14
 -1      2468 1.21746E-02 5.78607E-04-8.08187E-14
 -1      2469 1.27061E-02 4.55118E-04-8.66807E-14
 -1      2470 1.25453E-02 4.98066E-04-8.50330E-14
 -1      2471 1.25033E-02 4.75004E-04-8.40919E-14
 -1      2472 1.30241E-02 3.82435E-04-8.99899E-14
 -1      2473 1.28660E-02 4.16700E-04-8.83340E-14
 -1      2474 1.28263E-02 3.90832E-04-8.73873E-14
 -1      2475 1.33360E-02 3.24082E-04-9.33148E-14
 -1      2476 1.31810E-02 3.51746E-04-9.16516E-14
 -1      2477 1.31421E-02 3.24235E-04-9.06996E-14
 -1      2478 1.36416E-02 2.74930E-04-9.66561E-14
 -1      2479 1.34897E-02 2.98673E-04-9.49812E-14
 -1      2480 1.34508E-02 2.70665E-04-9.40277E-14
 -1      2481 1.39412E-02 2.29504E-04-1.00024E-13
 -1      2482 1.37922E-02 2.52068E-04-9.83353E-14
 -1      2483 1.37530E-02 2.24685E-04-9.73751E-14
 -1      2484 1.42353E-02 1.82647E-04-1.03413E-13
 -1      2485 1.40889E-02 2.06548E-04-1.01717E-13
 -1      2486 1.40495E-02 1.80874E-04-1.00748E-13
 -1      2487 1.43845E-02 1.57428E-04-1.05176E-13
 -1      2488 1.46161E-02-1.17872E-04-1.03137E-13
 -1      2489 1.45788E-02-8.55677E-05-1.03282E-13
 -1      2490 1.46824E-02-1.78659E-04-1.02846E-13
 -1      2491 1.46509E-02-1.48830E-04-1.02993E-13
 -1      2492 1.45144E-02-1.19693E-04-1.01584E-13
 -1      2493 1.44594E-02 1.79977E-05-1.03699E-13
 -1      2494 1.44185E-02 5.54285E-05-1.03836E-13
 -1      2495 1.45399E-02-5.22537E-05-1.03425E-13
 -1      2496 1.45001E-02-1.79236E-05-1.03561E-13
 -1      2497 1.43566E-02 1.79273E-05-1.02154E-13
 -1      2498 1.44384E-02-5.33222E-05-1.01874E-13
 -1      2499 1.47333E-02-2.35195E-04-1.02542E-13
 -1      2500 1.47101E-02-2.07315E-04-1.02696E-13
 -1      2501 1.45790E-02-1.81287E-04-1.01287E-13
 -1      2502 1.47652E-02-2.89098E-04-1.02233E-13
 -1      2503 1.47518E-02-2.62276E-04-1.02389E-13
 -1      2504 1.46266E-02-2.38759E-04-1.00980E-13
 -1      2505 1.47764E-02-3.42545E-04-1.01907E-13
 -1      2506 1.47734E-02-3.15654E-04-1.02070E-13
 -1      2507 1.46538E-02-2.93891E-04-1.00663E-13
 -1      2508 1.47681E-02-3.96904E-04-1.01576E-13
 -1      2509 1.47745E-02-3.69298E-04-1.01745E-13
 -1      2510 1.46595E-02-3.48565E-04-1.00336E-13
 -1      2511 1.47433E-02-4.56060E-04-1.01232E-13
 -1      2512 1.47575E-02-4.25843E-04-1.01405E-13
 -1      2513 1.46454E-02-4.05611E-04-1.00001E-13
 -1      2514 1.47074E-02-5.20503E-04-1.00878E-13
 -1      2515 1.47264E-02-4.87536E-04-1.01055E-13
 -1      2516 1.46155E-02-4.67490E-04-9.96526E-14
 -1      2517 1.46665E-02-5.90903E-04-1.00523E-13
 -1      2518 1.46871E-02-5.54948E-04-1.00697E-13
 -1      2519 1.45755E-02-5.34935E-04-9.92970E-14
 -1      2520 1.47101E-02-6.57321E-04-1.01148E-13
 -1      2521 1.31445E-02-1.84289E-04-7.55322E-14
 -1      2522 1.31114E-02-1.94343E-04-7.53646E-14
 -1      2523 1.58425E-03 4.97061E-04-1.79765E-15
 -1      2524 1.44335E-03 4.78772E-04-1.49051E-15
 -1      2525 1.64164E-03 4.69189E-04-2.00213E-15
 -1      2526 1.25232E-02 3.28440E-05-7.48245E-14
 -1      2527 1.27149E-02-4.27881E-05-7.52692E-14
 -1      2528 1.30257E-02-2.20089E-04-7.50153E-14
 -1      2529 1.29156E-02-2.50815E-04-7.44928E-14
 -1      2530 5.88427E-04-2.38047E-04-2.43390E-16
 -1      2531 7.81229E-04-3.04870E-04-3.92996E-16
 -1      2532 8.40664E-04-2.93682E-04-4.95399E-16
 -1      2533 5.78929E-04-2.10279E-04-2.67269E-16
 -1      2534 1.20499E-02 2.69156E-04-7.32088E-14
 -1      2535 1.22694E-02 1.51895E-04-7.40315E-14
 -1      2536 1.02824E-02 7.12350E-04-6.20390E-14
 -1      2537 1.04650E-02 7.98700E-04-6.33071E-14
 -1      2538 5.46679E-04-2.29185E-05-3.64455E-16
 -1      2539 5.47132E-04-3.89709E-05-3.59969E-16
 -1      2540 6.62611E-04-5.58524E-05-4.84218E-16
 -1      2541 6.61393E-04-1.77179E-05-4.95765E-16
 -1      2542 1.06573E-02 8.54280E-04-6.47160E-14
 -1      2543 1.07958E-02 8.67310E-04-6.58088E-14
 -1      2544 8.59137E-03-7.49444E-05-5.43491E-14
 -1      2545 8.66482E-03-5.96921E-05-5.47586E-14
 -1      2546 1.09731E-02 8.43112E-04-6.70876E-14
 -1      2547 1.11155E-02 7.95228E-04-6.80862E-14
 -1      2548 1.11927E-02 7.64343E-04-6.89131E-14
 -1      2549 9.94403E-03 5.23121E-04-5.99422E-14
 -1      2550 1.00899E-02 6.10183E-04-6.07948E-14
 -1      2551 9.49331E-03 2.68898E-04-5.79338E-14
 -1      2552 9.71280E-03 3.89652E-04-5.88571E-14
 -1      2553 9.12451E-03 9.60634E-05-5.64788E-14
 -1      2554 9.28325E-03 1.65672E-04-5.70675E-14
 -1      2555 1.16149E-02-8.96390E-04-6.85501E-14
 -1      2556 1.14553E-02-9.89048E-04-6.75741E-14
 -1      2557 8.78536E-03-2.49191E-05-5.52958E-14
 -1      2558 8.93967E-03 2.39725E-05-5.58250E-14
 -1      2559 8.58932E-03-1.01395E-04-5.44296E-14
 -1      2560 8.56292E-03-9.20105E-05-5.42585E-14
 -1      2561 8.71429E-03-1.33823E-04-5.44275E-14
 -1      2562 8.63807E-03-1.16227E-04-5.44289E-14
 -1      2563 8.59796E-03-1.03853E-04-5.36087E-14
 -1      2564 9.03117E-03-2.40537E-04-5.50377E-14
 -1      2565 8.85782E-03-1.78978E-04-5.46579E-14
 -1      2566 9.41312E-03-4.14416E-04-5.59497E-14
 -1      2567 9.22960E-03-3.25490E-04-5.54959E-14
 -1      2568 1.02716E-02-9.26365E-04-5.95349E-14
 -1      2569 1.01187E-02-8.29921E-04-5.87638E-14
 -1      2570 1.06496E-02-1.11662E-03-6.17810E-14
 -1      2571 1.04608E-02-1.03030E-03-6.05874E-14
 -1      2572 1.09593E-02-1.16722E-03-6.40604E-14
 -1      2573 1.08483E-02-1.16497E-03-6.31676E-14
 -1      2574 1.12760E-02-1.07604E-03-6.64320E-14
 -1      2575 1.11182E-02-1.13701E-03-6.52939E-14
 -1      2576 1.13667E-02-1.04216E-03-6.71473E-14
 -1      2577 1.19785E-02-6.82683E-04-7.05537E-14
 -1      2578 1.18011E-02-7.88321E-04-6.95982E-14
 -1      2579 1.24193E-02-4.49682E-04-7.25387E-14
 -1      2580 1.22206E-02-5.50000E-04-7.17340E-14
 -1      2581 1.27722E-02-3.01300E-04-7.38897E-14
 -1      2582 1.26160E-02-3.61600E-04-7.32910E-14
 -1      2583 1.30837E-02-1.55980E-04-7.57494E-14
 -1      2584 1.31397E-02-1.70140E-04-7.57269E-14
 -1      2585 7.57798E-04 3.34290E-04-4.22107E-16
 -1      2586 6.11403E-04 2.84922E-04-2.87219E-16
 -1      2587 5.84691E-04 2.58156E-04-2.89333E-16
 -1      2588 8.13633E-04 3.22969E-04-5.27884E-16
 -1      2589 1.16178E-02 5.25565E-04-7.11140E-14
 -1      2590 1.18020E-02 4.11651E-04-7.20687E-14
 -1      2591 1.08855E-02 8.63097E-04-6.66249E-14
 -1      2592 6.70246E-04-1.38053E-04-4.44604E-16
 -1      2593 5.54580E-04-1.26314E-04-3.21073E-16
 -1      2594 5.57756E-04-1.46317E-04-3.08334E-16
 -1      2595 1.35766E-03 4.32772E-04-1.38501E-15
 -1      2596 5.72207E-04 2.27964E-04-3.09919E-16
 -1      2597 1.15125E-02 5.88888E-04-7.09777E-14
 -1      2598 1.30608E-02-1.49735E-04-7.65920E-14
 -1      2599 1.28564E-02-2.74472E-04-7.48776E-14
 -1      2600 1.19289E-02 3.40843E-04-7.31771E-14
 -1      2601 1.25300E-02-4.03406E-04-7.35168E-14
 -1      2602 1.30824E-02-2.07732E-04-7.58346E-14
 -1      2603 1.28113E-02-7.61554E-05-7.62600E-14
 -1      2604 1.43450E-02 1.34423E-04-1.04205E-13
 -1      2605 1.43596E-02 1.05788E-04-1.03911E-13
 -1      2606 1.10565E-02-1.15889E-03-6.47670E-14
 -1      2607 1.45528E-02-6.72348E-04-9.92883E-14
 -1      2608 1.46237E-02-6.23053E-04-1.00067E-13
 -1      2609 1.45098E-02-6.02637E-04-9.86618E-14
 -1      2610 1.44227E-02-6.69945E-04-9.77551E-14
 -1      2611 1.07329E-02-1.14622E-03-6.21500E-14
 -1      2612 1.03708E-02-9.86308E-04-5.97194E-14
 -1      2613 1.31586E-02-1.78872E-04-7.63810E-14
 -1      2614 6.89490E-04 2.51324E-04-4.37963E-16
 -1      2615 1.24097E-02 8.77377E-05-7.51153E-14
 -1      2616 9.53476E-03-4.77518E-04-5.59982E-14
 -1      2617 9.40850E-03-4.17712E-04-5.50205E-14
 -1      2618 9.64346E-03-5.44341E-04-5.60449E-14
 -1      2619 8.77589E-03-1.51793E-04-5.38362E-14
 -1      2620 1.01960E-02 6.78725E-04-6.12848E-14
 -1      2621 1.05555E-02 8.35715E-04-6.39354E-14
 -1      2622 8.71084E-03-4.11368E-05-5.43231E-14
 -1      2623 1.17068E-02-8.49548E-04-6.93424E-14
 -1      2624 9.00578E-03 5.48173E-05-5.55069E-14
 -1      2625 9.38245E-03 2.20838E-04-5.70179E-14
 -1      2626 9.99270E-03-7.53976E-04-5.78508E-14
 -1      2627 5.71715E-04-1.85401E-04-2.87151E-16
 -1      2628 8.55479E-03-8.23357E-05-5.37008E-14
 -1      2629 8.55877E-03-7.29580E-05-5.31433E-14
 -1      2630 8.53563E-03-8.43512E-05-5.30540E-14
 -1      2631 9.80512E-03 4.52840E-04-5.89611E-14
 -1      2632 9.10480E-03-2.71402E-04-5.45182E-14
 -1      2633 1.21127E-02-6.14286E-04-7.15764E-14
 -1      2634 1.42546E-02 1.05912E-04-1.02369E-13
 -1      2635 1.43680E-02-6.33153E-04-9.70532E-14
 -1      2636 7.80312E-04 7.73804E-05-6.59967E-16
 -1      2637 7.79063E-04 5.55062E-05-6.59263E-16
 -1      2638 7.78224E-04 3.35809E-05-6.57189E-16
 -1      2639 7.77805E-04 1.19032E-05-6.53828E-16
 -1      2640 8.96657E-04 4.97081E-05-8.32491E-16
 -1      2641 7.91581E-04 1.73216E-04-6.45602E-16
 -1      2642 7.87596E-04 1.47793E-04-6.52378E-16
 -1      2643 8.03392E-04 2.28423E-04-6.23592E-16
 -1      2644 7.96798E-04 2.00029E-04-6.36237E-16
 -1      2645 9.14880E-04 2.07917E-04-8.12718E-16
 -1      2646 1.12972E-03 3.62037E-04-1.02658E-15
 -1      2647 9.86131E-04 3.32978E-04-8.02472E-16
 -1      2648 1.23180E-02 1.41755E-04-7.55890E-14
 -1      2649 1.25443E-02 3.59983E-05-7.63866E-14
 -1      2650 1.41593E-03 4.07896E-04-1.56105E-15
 -1      2651 1.27290E-03 3.86885E-04-1.27951E-15
 -1      2652 1.18960E-03 3.41576E-04-1.17446E-15
 -1      2653 1.30532E-02-1.45153E-04-7.77099E-14
 -1      2654 1.31321E-02-1.64202E-04-7.76943E-14
 -1      2655 1.14733E-02-9.97755E-04-6.80154E-14
 -1      2656 1.13210E-02-1.07919E-03-6.68692E-14
 -1      2657 1.32006E-03-3.62831E-04-1.21086E-15
 -1      2658 1.46328E-03-3.81788E-04-1.47385E-15
 -1      2659 1.60632E-03-3.97832E-04-1.76345E-15
 -1      2660 1.74925E-03-4.11193E-04-2.08026E-15
 -1      2661 1.52494E-03-3.55442E-04-1.66052E-15
 -1      2662 1.89201E-03-4.22339E-04-2.42430E-15
 -1      2663 2.03466E-03-4.31454E-04-2.79480E-15
 -1      2664 1.81163E-03-3.81252E-04-2.30148E-15
 -1      2665 2.17721E-03-4.38910E-04-3.19237E-15
 -1      2666 2.31967E-03-4.44858E-04-3.61663E-15
 -1      2667 2.09809E-03-3.98953E-04-3.04956E-15
 -1      2668 2.46208E-03-4.49583E-04-4.06724E-15
 -1      2669 2.60445E-03-4.53203E-04-4.54470E-15
 -1      2670 2.38427E-03-4.10544E-04-3.90360E-15
 -1      2671 2.74680E-03-4.55931E-04-5.04863E-15
 -1      2672 2.88914E-03-4.57858E-04-5.57850E-15
 -1      2673 2.67023E-03-4.17615E-04-4.86384E-15
 -1      2674 3.03151E-03-4.59139E-04-6.13362E-15
 -1      2675 3.17387E-03-4.59841E-04-6.71356E-15
 -1      2676 2.95603E-03-4.21388E-04-5.92807E-15
 -1      2677 3.31627E-03-4.60073E-04-7.31925E-15
 -1      2678 3.45870E-03-4.59884E-04-7.95005E-15
 -1      2679 3.24174E-03-4.22770E-04-7.09364E-15
 -1      2680 3.60117E-03-4.59347E-04-8.60367E-15
 -1      2681 3.74368E-03-4.58493E-04-9.28160E-15
 -1      2682 3.52740E-03-4.22411E-04-8.35763E-15
 -1      2683 3.88624E-03-4.57369E-04-9.98394E-15
 -1      2684 4.02884E-03-4.55995E-04-1.07086E-14
 -1      2685 3.81306E-03-4.20754E-04-9.71808E-15
 -1      2686 4.17150E-03-4.54393E-04-1.14568E-14
 -1      2687 4.31421E-03-4.52574E-04-1.22287E-14
 -1      2688 4.09875E-03-4.18079E-04-1.11732E-14
 -1      2689 4.45699E-03-4.50546E-04-1.30231E-14
 -1      2690 4.59982E-03-4.48313E-04-1.38395E-14
 -1      2691 4.38448E-03-4.14537E-04-1.27203E-14
 -1      2692 4.74273E-03-4.45870E-04-1.46785E-14
 -1      2693 4.88570E-03-4.43217E-04-1.55396E-14
 -1      2694 4.67027E-03-4.10188E-04-1.43589E-14
 -1      2695 5.02875E-03-4.40343E-04-1.64226E-14
 -1      2696 5.17189E-03-4.37246E-04-1.73278E-14
 -1      2697 4.95614E-03-4.05021E-04-1.60855E-14
 -1      2698 5.31511E-03-4.33914E-04-1.82553E-14
 -1      2699 5.45843E-03-4.30345E-04-1.92051E-14
 -1      2700 5.24210E-03-3.98993E-04-1.79020E-14
 -1      2701 5.60185E-03-4.26531E-04-2.01779E-14
 -1      2702 5.74540E-03-4.22476E-04-2.11730E-14
 -1      2703 5.52815E-03-3.92048E-04-1.98074E-14
 -1      2704 5.88906E-03-4.18184E-04-2.21894E-14
 -1      2705 6.03288E-03-4.13666E-04-2.32275E-14
 -1      2706 5.81431E-03-3.84161E-04-2.18021E-14
 -1      2707 6.17682E-03-4.08950E-04-2.42869E-14
 -1      2708 6.32096E-03-4.04061E-04-2.53667E-14
 -1      2709 6.10057E-03-3.75376E-04-2.38846E-14
 -1      2710 6.46525E-03-3.99060E-04-2.64670E-14
 -1      2711 6.60978E-03-3.93999E-04-2.75874E-14
 -1      2712 6.38696E-03-3.65864E-04-2.60484E-14
 -1      2713 6.75450E-03-3.88986E-04-2.87279E-14
 -1      2714 6.89953E-03-3.84109E-04-2.98889E-14
 -1      2715 6.67349E-03-3.55992E-04-2.82935E-14
 -1      2716 7.04481E-03-3.79542E-04-3.10705E-14
 -1      2717 7.19049E-03-3.75432E-04-3.22708E-14
 -1      2718 6.96024E-03-3.46412E-04-3.06193E-14
 -1      2719 7.33654E-03-3.72036E-04-3.34903E-14
 -1      2720 7.48316E-03-3.69583E-04-3.47284E-14
 -1      2721 7.24743E-03-3.38179E-04-3.30236E-14
 -1      2722 7.63035E-03-3.68430E-04-3.59847E-14
 -1      2723 7.77837E-03-3.68937E-04-3.72597E-14
 -1      2724 7.53550E-03-3.32875E-04-3.55025E-14
 -1      2725 7.92735E-03-3.71554E-04-3.85519E-14
 -1      2726 8.07760E-03-3.76852E-04-3.98603E-14
 -1      2727 7.82538E-03-3.32787E-04-3.80550E-14
 -1      2728 8.22945E-03-3.85345E-04-4.11862E-14
 -1      2729 8.38330E-03-3.97928E-04-4.25273E-14
 -1      2730 8.11885E-03-3.41111E-04-4.06760E-14
 -1      2731 8.53975E-03-4.15109E-04-4.38823E-14
 -1      2732 8.69919E-03-4.38279E-04-4.52524E-14
 -1      2733 8.41901E-03-3.62272E-04-4.33603E-14
 -1      2734 8.86265E-03-4.67836E-04-4.66350E-14
 -1      2735 9.03015E-03-5.05682E-04-4.80298E-14
 -1      2736 8.73083E-03-4.02487E-04-4.61002E-14
 -1      2737 9.20310E-03-5.52100E-04-4.94384E-14
 -1      2738 9.38060E-03-6.09096E-04-5.08584E-14
 -1      2739 9.06079E-03-4.70594E-04-4.88941E-14
 -1      2740 9.56493E-03-6.76065E-04-5.22900E-14
 -1      2741 9.75172E-03-7.53718E-04-5.37335E-14
 -1      2742 9.41618E-03-5.77499E-04-5.17348E-14
 -1      2743 9.94260E-03-8.39602E-04-5.51872E-14
 -1      2744 1.01325E-02-9.31202E-04-5.66527E-14
 -1      2745 9.79838E-03-7.32786E-04-5.46231E-14
 -1      2746 1.03951E-02-1.04141E-03-5.89894E-14
 -1      2747 1.05811E-02-1.11940E-03-6.04871E-14
 -1      2748 1.07509E-02-1.17695E-03-6.18610E-14
 -1      2749 1.09266E-02-1.19682E-03-6.33834E-14
 -1      2750 1.11028E-02-1.18123E-03-6.49145E-14
 -1      2751 1.13421E-02-1.11216E-03-6.70204E-14
 -1      2752 1.15282E-02-1.04101E-03-6.85848E-14
 -1      2753 1.21251E-02-8.14749E-04-7.35831E-14
 -1      2754 1.23100E-02-7.54071E-04-7.51907E-14
 -1      2755 1.24916E-02-7.04427E-04-7.68111E-14
 -1      2756 1.26666E-02-6.64084E-04-7.84398E-14
 -1      2757 1.24503E-02-6.65064E-04-7.61776E-14
 -1      2758 1.28369E-02-6.33549E-04-8.00795E-14
 -1      2759 1.30020E-02-6.10909E-04-8.17286E-14
 -1      2760 1.28004E-02-5.91765E-04-7.94369E-14
 -1      2761 1.31631E-02-5.95632E-04-8.33859E-14
 -1      2762 1.33204E-02-5.85784E-04-8.50534E-14
 -1      2763 1.31261E-02-5.53925E-04-8.27289E-14
 -1      2764 1.34749E-02-5.80828E-04-8.67304E-14
 -1      2765 1.36268E-02-5.79367E-04-8.84131E-14
 -1      2766 1.34348E-02-5.40052E-04-8.60599E-14
 -1      2767 1.37768E-02-5.80702E-04-9.01020E-14
 -1      2768 1.39251E-02-5.83857E-04-9.17982E-14
 -1      2769 1.37328E-02-5.41030E-04-8.94224E-14
 -1      2770 1.40722E-02-5.88102E-04-9.34980E-14
 -1      2771 1.42181E-02-5.92701E-04-9.52027E-14
 -1      2772 1.40245E-02-5.49824E-04-9.28062E-14
 -1      2773 1.98526E-03 4.63099E-04-2.97046E-15
 -1      2774 1.84323E-03 4.52918E-04-2.57598E-15
 -1      2775 2.83600E-03 4.93384E-04-5.92007E-15
 -1      2776 2.69423E-03 4.91030E-04-5.36001E-15
 -1      2777 3.11969E-03 4.96055E-04-7.12034E-15
 -1      2778 2.97782E-03 4.95034E-04-6.50666E-15
 -1      2779 2.90229E-03 4.57257E-04-6.23941E-15
 -1      2780 3.40363E-03 4.96619E-04-8.42744E-15
 -1      2781 3.26163E-03 4.96565E-04-7.76098E-15
 -1      2782 3.18710E-03 4.59267E-04-7.46430E-15
 -1      2783 3.68788E-03 4.95636E-04-9.84021E-15
 -1      2784 3.54572E-03 4.96297E-04-9.12074E-15
 -1      2785 3.47200E-03 4.59371E-04-8.79514E-15
 -1      2786 3.97246E-03 4.93473E-04-1.13589E-14
 -1      2787 3.83013E-03 4.94686E-04-1.05864E-14
 -1      2788 3.75704E-03 4.58068E-04-1.02312E-14
 -1      2789 4.25741E-03 4.90352E-04-1.29818E-14
 -1      2790 4.11489E-03 4.92023E-04-1.21571E-14
 -1      2791 4.04224E-03 4.55676E-04-1.17716E-14
 -1      2792 4.54274E-03 4.86382E-04-1.47039E-14
 -1      2793 4.40003E-03 4.88469E-04-1.38304E-14
 -1      2794 4.32765E-03 4.52382E-04-1.34146E-14
 -1      2795 4.82850E-03 4.81596E-04-1.65252E-14
 -1      2796 4.68557E-03 4.84090E-04-1.56034E-14
 -1      2797 4.61327E-03 4.48269E-04-1.51574E-14
 -1      2798 5.11476E-03 4.75979E-04-1.84418E-14
 -1      2799 4.97156E-03 4.78892E-04-1.74711E-14
 -1      2800 4.89916E-03 4.43352E-04-1.69960E-14
 -1      2801 5.40159E-03 4.69502E-04-2.04489E-14
 -1      2802 5.25809E-03 4.72848E-04-1.94338E-14
 -1      2803 5.18534E-03 4.37605E-04-1.89287E-14
 -1      2804 5.68911E-03 4.62159E-04-2.25452E-14
 -1      2805 5.54525E-03 4.65936E-04-2.14861E-14
 -1      2806 5.47188E-03 4.30997E-04-2.09515E-14
 -1      2807 5.97749E-03 4.54013E-04-2.47260E-14
 -1      2808 5.83317E-03 4.58178E-04-2.36254E-14
 -1      2809 5.75886E-03 4.23525E-04-2.30632E-14
 -1      2810 6.26692E-03 4.45253E-04-2.69921E-14
 -1      2811 6.12204E-03 4.49692E-04-2.58484E-14
 -1      2812 6.04639E-03 4.15263E-04-2.52593E-14
 -1      2813 6.55766E-03 4.36266E-04-2.93377E-14
 -1      2814 6.41209E-03 4.40756E-04-2.81553E-14
 -1      2815 6.33463E-03 4.06418E-04-2.75391E-14
 -1      2816 6.85007E-03 4.27728E-04-3.17614E-14
 -1      2817 6.70362E-03 4.31889E-04-3.05406E-14
 -1      2818 6.62379E-03 3.97397E-04-2.98971E-14
 -1      2819 7.14458E-03 4.20711E-04-3.42581E-14
 -1      2820 6.99701E-03 4.23949E-04-3.30002E-14
 -1      2821 6.91419E-03 3.88901E-04-3.23319E-14
 -1      2822 7.44180E-03 4.16810E-04-3.68275E-14
 -1      2823 7.29280E-03 4.18253E-04-3.55340E-14
 -1      2824 7.20628E-03 3.82024E-04-3.48402E-14
 -1      2825 7.74254E-03 4.18260E-04-3.94590E-14
 -1      2826 7.59167E-03 4.16700E-04-3.81353E-14
 -1      2827 7.50075E-03 3.78377E-04-3.74176E-14
 -1      2828 8.04786E-03 4.28034E-04-4.21519E-14
 -1      2829 7.89457E-03 4.21884E-04-4.07985E-14
 -1      2830 7.79864E-03 3.80209E-04-4.00589E-14
 -1      2831 8.35912E-03 4.49827E-04-4.48981E-14
 -1      2832 8.20271E-03 4.37147E-04-4.35179E-14
 -1      2833 8.10142E-03 3.90518E-04-4.27593E-14
 -1      2834 8.67775E-03 4.87830E-04-4.76947E-14
 -1      2835 8.51753E-03 4.66486E-04-4.62901E-14
 -1      2836 8.41103E-03 4.13099E-04-4.55132E-14
 -1      2837 9.00476E-03 5.45996E-04-5.05416E-14
 -1      2838 8.84035E-03 5.14122E-04-4.91129E-14
 -1      2839 8.72973E-03 4.52428E-04-4.83196E-14
 -1      2840 9.33963E-03 6.26399E-04-5.34367E-14
 -1      2841 9.17155E-03 5.83356E-04-5.19831E-14
 -1      2842 9.05929E-03 5.13035E-04-5.11753E-14
 -1      2843 9.67903E-03 7.26241E-04-5.63783E-14
 -1      2844 9.50932E-03 6.74442E-04-5.49009E-14
 -1      2845 9.39944E-03 5.97959E-04-5.40762E-14
 -1      2846 1.00164E-02 8.33265E-04-5.93727E-14
 -1      2847 9.84871E-03 7.80162E-04-5.78693E-14
 -1      2848 9.74620E-03 7.03945E-04-5.70273E-14
 -1      2849 1.03446E-02 9.24350E-04-6.24127E-14
 -1      2850 1.01820E-02 8.83034E-04-6.08863E-14
 -1      2851 1.00907E-02 8.17549E-04-6.00271E-14
 -1      2852 1.06608E-02 9.69545E-04-6.55058E-14
 -1      2853 1.05033E-02 9.54491E-04-6.39537E-14
 -1      2854 1.04237E-02 9.09418E-04-6.30787E-14
 -1      2855 1.09723E-02 9.49609E-04-6.86452E-14
 -1      2856 1.08155E-02 9.68346E-04-6.70702E-14
 -1      2857 1.07433E-02 9.44878E-04-6.61809E-14
 -1      2858 1.12912E-02 8.66901E-04-7.18201E-14
 -1      2859 1.11302E-02 9.14475E-04-7.02275E-14
 -1      2860 1.10622E-02 9.03757E-04-6.93263E-14
 -1      2861 1.16211E-02 7.47033E-04-7.50285E-14
 -1      2862 1.14548E-02 8.09528E-04-7.34212E-14
 -1      2863 1.13918E-02 7.99891E-04-7.25092E-14
 -1      2864 1.19585E-02 6.18366E-04-7.82618E-14
 -1      2865 1.17895E-02 6.82087E-04-7.66424E-14
 -1      2866 1.17336E-02 6.66773E-04-7.57205E-14
 -1      2867 1.22955E-02 5.01310E-04-8.15169E-14
 -1      2868 1.21277E-02 5.57655E-04-7.98866E-14
 -1      2869 1.20799E-02 5.35652E-04-7.89571E-14
 -1      2870 1.26261E-02 4.04185E-04-8.47943E-14
 -1      2871 1.24620E-02 4.50132E-04-8.31541E-14
 -1      2872 1.24211E-02 4.23586E-04-8.22140E-14
 -1      2873 1.29479E-02 3.27513E-04-8.80927E-14
 -1      2874 1.27883E-02 3.63536E-04-8.64425E-14
 -1      2875 1.27517E-02 3.34643E-04-8.54967E-14
 -1      2876 1.32608E-02 2.67476E-04-9.14088E-14
 -1      2877 1.31055E-02 2.95770E-04-8.97468E-14
 -1      2878 1.30709E-02 2.66137E-04-8.87976E-14
 -1      2879 1.35660E-02 2.18759E-04-9.47396E-14
 -1      2880 1.34143E-02 2.42064E-04-9.30729E-14
 -1      2881 1.33800E-02 2.12716E-04-9.21165E-14
 -1      2882 1.38648E-02 1.75834E-04-9.80932E-14
 -1      2883 1.37161E-02 1.96914E-04-9.64135E-14
 -1      2884 1.36813E-02 1.68651E-04-9.54533E-14
 -1      2885 1.41339E-02 1.30507E-04-1.01074E-13
 -1      2886 1.39877E-02 1.51599E-04-9.93845E-14
 -1      2887 1.39524E-02 1.25003E-04-9.84174E-14
 -1      2888 1.41951E-02 7.87893E-05-1.00998E-13
 -1      2889 1.45202E-02-2.43481E-04-9.94206E-14
 -1      2890 1.45007E-02-2.14852E-04-9.95776E-14
 -1      2891 1.43157E-02-5.96444E-04-9.63574E-14
 -1      2892 1.44129E-02-5.99810E-04-9.75087E-14
 -1      2893 1.42654E-02-5.59813E-04-9.56577E-14
 -1      2894 1.44133E-02-1.23427E-04-1.00034E-13
 -1      2895 1.43765E-02-9.04167E-05-1.00181E-13
 -1      2896 1.45423E-02-2.99352E-04-9.90965E-14
 -1      2897 1.45341E-02-2.71443E-04-9.92611E-14
 -1      2898 1.44140E-02-2.48793E-04-9.78628E-14
 -1      2899 1.44761E-02-1.85530E-04-9.97305E-14
 -1      2900 1.44467E-02-1.55043E-04-9.98838E-14
 -1      2901 1.43129E-02-1.28609E-04-9.84855E-14
 -1      2902 1.43738E-02-1.90825E-04-9.81793E-14
 -1      2903 1.27637E-02-5.28177E-05-7.70643E-14
 -1      2904 1.29120E-02-1.02656E-04-7.74156E-14
 -1      2905 1.45420E-02-3.54816E-04-9.87687E-14
 -1      2906 1.45448E-02-3.26783E-04-9.89325E-14
 -1      2907 1.44304E-02-3.04549E-04-9.75373E-14
 -1      2908 1.45217E-02-4.14313E-04-9.84272E-14
 -1      2909 1.45341E-02-3.83982E-04-9.85995E-14
 -1      2910 1.44235E-02-3.61565E-04-9.72022E-14
 -1      2911 1.44861E-02-4.78781E-04-9.80766E-14
 -1      2912 1.45054E-02-4.45801E-04-9.82530E-14
 -1      2913 1.43964E-02-4.23027E-04-9.68578E-14
 -1      2914 1.70103E-03 4.40516E-04-2.20933E-15
 -1      2915 1.55859E-03 4.25684E-04-1.87108E-15
 -1      2916 1.47603E-03 3.82238E-04-1.74093E-15
 -1      2917 1.76202E-03 4.11174E-04-2.41964E-15
 -1      2918 1.18182E-02 4.14959E-04-7.32365E-14
 -1      2919 1.20409E-02 2.87494E-04-7.43803E-14
 -1      2920 7.88815E-04-2.52598E-04-4.79773E-16
 -1      2921 9.19989E-04-2.88382E-04-6.22495E-16
 -1      2922 8.03031E-04 2.78329E-04-5.71890E-16
 -1      2923 1.01097E-02 6.54902E-04-6.04559E-14
 -1      2924 1.02770E-02 7.40985E-04-6.16984E-14
 -1      2925 8.81602E-03-1.67732E-04-5.30570E-14
 -1      2926 8.68800E-03-1.30317E-04-5.28307E-14
 -1      2927 2.55247E-03 4.87804E-04-4.82713E-15
 -1      2928 2.41074E-03 4.83606E-04-4.32132E-15
 -1      2929 2.61749E-03 4.52621E-04-5.12131E-15
 -1      2930 2.26897E-03 4.78206E-04-3.84327E-15
 -1      2931 2.12716E-03 4.71475E-04-3.39327E-15
 -1      2932 2.33262E-03 4.44361E-04-4.11081E-15
 -1      2933 1.04819E-03-3.15947E-04-7.88134E-16
 -1      2934 1.19146E-03-3.41583E-04-9.99987E-16
 -1      2935 1.25302E-03-3.20009E-04-1.15407E-15
 -1      2936 9.96718E-04-2.74951E-04-7.64159E-16
 -1      2937 1.04542E-02 8.15974E-04-6.30938E-14
 -1      2938 1.06174E-02 8.65899E-04-6.44997E-14
 -1      2939 1.03521E-02 7.97236E-04-6.22528E-14
 -1      2940 7.84469E-04 1.23529E-04-6.56688E-16
 -1      2941 7.82101E-04 1.00083E-04-6.59032E-16
 -1      2942 8.99743E-04 9.95027E-05-8.34199E-16
 -1      2943 9.05434E-04 1.51663E-04-8.28344E-16
 -1      2944 7.81834E-04-9.80227E-05-6.16992E-16
 -1      2945 7.84131E-04-1.21384E-04-6.04917E-16
 -1      2946 1.17898E-02-8.13458E-04-7.01135E-14
 -1      2947 1.16266E-02-9.11416E-04-6.90613E-14
 -1      2948 1.15679E-02-9.64026E-04-6.87815E-14
 -1      2949 1.11297E-02 7.99584E-04-6.87489E-14
 -1      2950 1.12618E-02 7.36305E-04-6.97561E-14
 -1      2951 9.16436E-03-3.05128E-04-5.39014E-14
 -1      2952 8.99090E-03-2.32089E-04-5.34505E-14
 -1      2953 1.00400E-02-7.98851E-04-5.74283E-14
 -1      2954 9.85086E-03-6.73653E-04-5.66122E-14
 -1      2955 8.89837E-03 2.91154E-05-5.44155E-14
 -1      2956 9.06057E-03 9.05633E-05-5.50614E-14
 -1      2957 8.64105E-03-4.75737E-05-5.33203E-14
 -1      2958 8.75244E-03-1.99023E-05-5.38510E-14
 -1      2959 9.26381E-03 1.82052E-04-5.58958E-14
 -1      2960 9.44858E-03 2.73553E-04-5.67536E-14
 -1      2961 9.65601E-03 3.86072E-04-5.77795E-14
 -1      2962 9.85645E-03 5.07285E-04-5.88561E-14
 -1      2963 8.59967E-03-1.05567E-04-5.28243E-14
 -1      2964 8.55612E-03-9.61758E-05-5.28258E-14
 -1      2965 1.22345E-02-5.61998E-04-7.26647E-14
 -1      2966 1.20175E-02-6.81503E-04-7.14775E-14
 -1      2967 6.52859E-04-1.88488E-04-3.77533E-16
 -1      2968 1.31764E-02-1.79525E-04-7.74836E-14
 -1      2969 1.31813E-02-1.86906E-04-7.72899E-14
 -1      2970 1.44579E-02-5.67775E-04-9.79631E-14
 -1      2971 1.29396E-02-2.59374E-04-7.60432E-14
 -1      2972 1.28103E-02-3.01037E-04-7.54337E-14
 -1      2973 1.26524E-02-3.61854E-04-7.46750E-14
 -1      2974 1.24805E-02-4.39055E-04-7.39179E-14
 -1      2975 1.27652E-02-3.37780E-04-7.58396E-14
 -1      2976 1.31413E-02-2.01079E-04-7.69043E-14
 -1      2977 1.30648E-02-2.20106E-04-7.65510E-14
 -1      2978 1.14306E-02 6.44695E-04-7.08860E-14
 -1      2979 1.15989E-02 5.43365E-04-7.19452E-14
 -1      2980 1.08137E-02 8.78269E-04-6.61754E-14
 -1      2981 1.09656E-02 8.53818E-04-6.74579E-14
 -1      2982 1.10437E-02 8.38454E-04-6.82932E-14
 -1      2983 7.87166E-04-1.45535E-04-5.90958E-16
 -1      2984 7.91005E-04-1.70697E-04-5.74193E-16
 -1      2985 9.04971E-04-1.49128E-04-7.59267E-16
 -1      2986 8.95641E-04 1.01062E-06-8.24197E-16
 -1      2987 7.77775E-04-9.72756E-06-6.49125E-16
 -1      2988 7.78135E-04-3.13888E-05-6.43338E-16
 -1      2989 1.31911E-02-1.74802E-04-7.86053E-14
 -1      2990 1.26783E-02-3.84862E-06-7.75414E-14
 -1      2991 1.30221E-02-1.25460E-04-7.85186E-14
 -1      2992 1.21006E-02 2.92087E-04-7.57073E-14
 -1      2993 1.21997E-02 2.16411E-04-7.56487E-14
 -1      2994 1.23526E-02 1.61396E-04-7.69205E-14
 -1      2995 1.02616E-02-9.50212E-04-5.84128E-14
 -1      2996 1.16424E-02-9.60339E-04-6.94709E-14
 -1      2997 1.17353E-02-9.72105E-04-7.03238E-14
 -1      2998 1.19237E-02-8.96387E-04-7.19099E-14
 -1      2999 1.17813E-02-8.80055E-04-7.05247E-14
 -1      3000 1.12378E-02-1.13963E-03-6.61560E-14
 -1      3001 1.42371E-02-6.11163E-05-9.87850E-14
 -1      3002 1.43374E-02-5.63858E-05-1.00328E-13
 -1      3003 1.42965E-02-2.09900E-05-1.00471E-13
 -1      3004 2.04751E-03 4.31131E-04-3.20988E-15
 -1      3005 1.07030E-02 8.83178E-04-6.53212E-14
 -1      3006 1.30359E-02-2.44074E-04-7.71130E-14
 -1      3007 1.42671E-02 9.23893E-06-1.00665E-13
 -1      3008 1.42247E-02 4.68598E-05-1.00805E-13
 -1      3009 1.41045E-02 6.90077E-05-9.95152E-14
 -1      3010 1.41656E-02 5.31282E-06-9.91274E-14
 -1      3011 1.13576E-02 6.96725E-04-7.07193E-14
 -1      3012 1.44806E-02-5.31220E-04-9.81427E-14
 -1      3013 1.23806E-02-5.04242E-04-7.38223E-14
 -1      3014 1.22974E-02-5.72362E-04-7.37243E-14
 -1      3015 1.25201E-02-4.61730E-04-7.49837E-14
 -1      3016 1.31922E-02-1.98240E-04-7.80103E-14
 -1      3017 8.61997E-03-1.18444E-04-5.20505E-14
 -1      3018 9.51428E-03 3.39056E-04-5.66489E-14
 -1      3019 9.12703E-03 1.44361E-04-5.47996E-14
 -1      3020 8.57277E-03-5.95577E-05-5.26758E-14
 -1      3021 8.59074E-03-4.13949E-05-5.22080E-14
 -1      3022 8.51997E-03-6.47795E-05-5.20329E-14
 -1      3023 9.71128E-03-6.03333E-04-5.56301E-14
 -1      3024 8.79609E-03 1.26731E-05-5.34105E-14
 -1      3025 8.64816E-04 2.66650E-04-6.80947E-16
 -1      3026 9.95653E-03 5.91221E-04-5.92612E-14
 -1      3027 1.00319E-02 6.65101E-04-5.96656E-14
 -1      3028 9.80340E-03 5.32603E-04-5.80753E-14
 -1      3029 8.86685E-03-1.98652E-04-5.24459E-14
 -1      3030 1.20599E-02-7.97252E-04-7.28860E-14
 -1      3031 7.69991E-04-2.02492E-04-5.13451E-16
 -1      3032 8.51752E-03-8.67323E-05-5.22728E-14
 -1      3033 9.26641E-03-3.58683E-04-5.39493E-14
 -1      3034 9.13213E-03-3.15276E-04-5.28822E-14
 -1      3035 9.36309E-03-4.17105E-04-5.39939E-14
 -1      3036 7.78905E-04-5.31873E-05-6.35979E-16
 -1      3037 7.80111E-04-7.53883E-05-6.27062E-16
 -1      3038 8.99456E-04-9.71487E-05-7.88229E-16
 -1      3039 8.96527E-04-4.75551E-05-8.09438E-16
 -1      3040 1.43184E-02-5.33589E-04-9.62033E-14
 -1      3041 1.44366E-02-5.02308E-04-9.75304E-14
 -1      3042 1.43273E-02-4.79004E-04-9.61392E-14
 -1      3043 1.42229E-02-5.28724E-04-9.50515E-14
 -1      3044 1.19285E-02-7.53517E-04-7.11961E-14
 -1      3045 1.17277E-02 4.83720E-04-7.31450E-14
 -1      3046 9.82922E-04 2.75885E-04-8.67213E-16
 -1      3047 1.04031E-03 2.43372E-04-9.99025E-16
 -1      3048 1.03373E-03 2.11639E-04-1.01121E-15
 -1      3049 8.87919E-04-2.11916E-04-6.72504E-16
 -1      3050 1.73170E-03-3.40442E-04-2.17770E-15
 -1      3051 1.87538E-03-3.50592E-04-2.52837E-15
 -1      3052 2.01905E-03-3.59009E-04-2.90542E-15
 -1      3053 2.16270E-03-3.65846E-04-3.30909E-15
 -1      3054 1.94027E-03-3.19248E-04-2.76061E-15
 -1      3055 2.30631E-03-3.71376E-04-3.73926E-15
 -1      3056 2.44986E-03-3.75721E-04-4.19565E-15
 -1      3057 2.22834E-03-3.32197E-04-3.57390E-15
 -1      3058 2.59337E-03-3.79101E-04-4.67820E-15
 -1      3059 2.73681E-03-3.81609E-04-5.18738E-15
 -1      3060 2.51633E-03-3.40466E-04-4.49230E-15
 -1      3061 2.88020E-03-3.83412E-04-5.72170E-15
 -1      3062 3.02354E-03-3.84582E-04-6.28152E-15
 -1      3063 2.80412E-03-3.45261E-04-5.51463E-15
 -1      3064 3.16683E-03-3.85241E-04-6.86684E-15
 -1      3065 3.31007E-03-3.85440E-04-7.47683E-15
 -1      3066 3.09163E-03-3.47516E-04-6.63941E-15
 -1      3067 3.45327E-03-3.85265E-04-8.11067E-15
 -1      3068 3.59643E-03-3.84750E-04-8.76880E-15
 -1      3069 3.37885E-03-3.47921E-04-7.86324E-15
 -1      3070 3.73956E-03-3.83953E-04-9.45125E-15
 -1      3071 3.88265E-03-3.82894E-04-1.01577E-14
 -1      3072 3.66578E-03-3.46965E-04-9.18434E-15
 -1      3073 4.02571E-03-3.81609E-04-1.08874E-14
 -1      3074 4.16874E-03-3.80107E-04-1.16403E-14
 -1      3075 3.95243E-03-3.44973E-04-1.06004E-14
 -1      3076 4.31174E-03-3.78408E-04-1.24169E-14
 -1      3077 4.45471E-03-3.76511E-04-1.32160E-14
 -1      3078 4.23880E-03-3.42136E-04-1.21115E-14
 -1      3079 4.59765E-03-3.74425E-04-1.40365E-14
 -1      3080 4.74056E-03-3.72144E-04-1.48805E-14
 -1      3081 4.52490E-03-3.38551E-04-1.37142E-14
 -1      3082 4.88344E-03-3.69667E-04-1.57473E-14
 -1      3083 5.02629E-03-3.66986E-04-1.66360E-14
 -1      3084 4.81069E-03-3.34236E-04-1.54066E-14
 -1      3085 5.16909E-03-3.64097E-04-1.75462E-14
 -1      3086 5.31186E-03-3.60990E-04-1.84801E-14
 -1      3087 5.09614E-03-3.29168E-04-1.71900E-14
 -1      3088 5.45457E-03-3.57664E-04-1.94358E-14
 -1      3089 5.59724E-03-3.54109E-04-2.04140E-14
 -1      3090 5.38117E-03-3.23299E-04-1.90625E-14
 -1      3091 5.73983E-03-3.50332E-04-2.14154E-14
 -1      3092 5.88237E-03-3.46328E-04-2.24368E-14
 -1      3093 5.66571E-03-3.16591E-04-2.10250E-14
 -1      3094 6.02481E-03-3.42121E-04-2.34798E-14
 -1      3095 6.16718E-03-3.37713E-04-2.45443E-14
 -1      3096 5.94962E-03-3.09047E-04-2.30746E-14
 -1      3097 6.30942E-03-3.33152E-04-2.56289E-14
 -1      3098 6.45157E-03-3.28456E-04-2.67339E-14
 -1      3099 6.23273E-03-3.00749E-04-2.52081E-14
 -1      3100 6.59357E-03-3.23707E-04-2.78584E-14
 -1      3101 6.73548E-03-3.18944E-04-2.90028E-14
 -1      3102 6.51487E-03-2.91909E-04-2.74222E-14
 -1      3103 6.87721E-03-3.14298E-04-3.01674E-14
 -1      3104 7.01887E-03-3.09839E-04-3.13513E-14
 -1      3105 6.79585E-03-2.82925E-04-2.97154E-14
 -1      3106 7.16036E-03-3.05756E-04-3.25562E-14
 -1      3107 7.30185E-03-3.02168E-04-3.37783E-14
 -1      3108 7.07552E-03-2.74443E-04-3.20867E-14
 -1      3109 7.44325E-03-2.99328E-04-3.50185E-14
 -1      3110 7.58481E-03-2.97435E-04-3.62786E-14
 -1      3111 7.35388E-03-2.67429E-04-3.45354E-14
 -1      3112 7.72653E-03-2.96797E-04-3.75570E-14
 -1      3113 7.86875E-03-2.97753E-04-3.88525E-14
 -1      3114 7.63125E-03-2.63242E-04-3.70586E-14
 -1      3115 8.01160E-03-3.00639E-04-4.01636E-14
 -1      3116 8.15564E-03-3.06052E-04-4.14917E-14
 -1      3117 7.90857E-03-2.63730E-04-3.96510E-14
 -1      3118 8.30121E-03-3.14308E-04-4.28353E-14
 -1      3119 8.44916E-03-3.26480E-04-4.41924E-14
 -1      3120 8.18796E-03-2.71430E-04-4.23092E-14
 -1      3121 8.60015E-03-3.42779E-04-4.55638E-14
 -1      3122 8.75541E-03-3.65258E-04-4.69492E-14
 -1      3123 8.47349E-03-2.90059E-04-4.50265E-14
 -1      3124 8.91611E-03-3.94114E-04-4.83473E-14
 -1      3125 9.08337E-03-4.32509E-04-4.97575E-14
 -1      3126 8.77243E-03-3.25958E-04-4.77997E-14
 -1      3127 9.24932E-03-4.45627E-04-5.16173E-14
 -1      3128 9.43250E-03-5.08596E-04-5.30541E-14
 -1      3129 9.74943E-03-6.80752E-04-5.46775E-14
 -1      3130 9.94958E-03-7.77466E-04-5.61385E-14
 -1      3131 1.19786E-02-7.65262E-04-7.18944E-14
 -1      3132 3.54069E-03 4.21899E-04-9.16221E-15
 -1      3133 3.39784E-03 4.22228E-04-8.47236E-15
 -1      3134 1.27714E-02-5.46834E-04-7.87936E-14
 -1      3135 1.29362E-02-5.24496E-04-8.04301E-14
 -1      3136 1.30952E-02-5.10646E-04-8.20752E-14
 -1      3137 1.32491E-02-5.02166E-04-8.37281E-14
 -1      3138 1.30706E-02-4.65138E-04-8.14228E-14
 -1      3139 1.33993E-02-4.98797E-04-8.53922E-14
 -1      3140 1.35468E-02-4.98697E-04-8.70638E-14
 -1      3141 1.33684E-02-4.56692E-04-8.47267E-14
 -1      3142 1.36921E-02-5.01452E-04-8.87405E-14
 -1      3143 1.38362E-02-5.06010E-04-9.04240E-14
 -1      3144 1.36547E-02-4.61857E-04-8.80611E-14
 -1      3145 1.39584E-02-5.14028E-04-9.18848E-14
 -1      3146 1.41011E-02-5.20297E-04-9.35812E-14
 -1      3147 1.41556E-02-4.94351E-04-9.41250E-14
 -1      3148 1.39155E-02-4.76129E-04-9.11966E-14
 -1      3149 1.43040E-02-3.68422E-04-9.56404E-14
 -1      3150 1.43141E-02-3.38610E-04-9.58103E-14
 -1      3151 3.25497E-03 4.22183E-04-7.80851E-15
 -1      3152 3.11210E-03 4.21725E-04-7.17057E-15
 -1      3153 3.32329E-03 3.84876E-04-8.15274E-15
 -1      3154 1.13034E-02 7.41393E-04-7.06273E-14
 -1      3155 1.14563E-02 6.58133E-04-7.17603E-14
 -1      3156 2.96920E-03 4.20758E-04-6.55918E-15
 -1      3157 2.82628E-03 4.19223E-04-5.97440E-15
 -1      3158 3.03671E-03 3.83966E-04-6.88005E-15
 -1      3159 3.82639E-03 4.20341E-04-1.06214E-14
 -1      3160 3.68354E-03 4.21262E-04-9.87875E-15
 -1      3161 3.60969E-03 3.84267E-04-9.52976E-15
 -1      3162 4.11210E-03 4.17783E-04-1.21832E-14
 -1      3163 3.96925E-03 4.19177E-04-1.13895E-14
 -1      3164 3.89594E-03 3.82515E-04-1.10110E-14
 -1      3165 4.39785E-03 4.14377E-04-1.38462E-14
 -1      3166 4.25497E-03 4.16181E-04-1.30025E-14
 -1      3167 4.18204E-03 3.79849E-04-1.25932E-14
 -1      3168 4.68365E-03 4.10183E-04-1.56076E-14
 -1      3169 4.54074E-03 4.12378E-04-1.47143E-14
 -1      3170 4.46802E-03 3.76390E-04-1.42763E-14
 -1      3171 4.96952E-03 4.05200E-04-1.74642E-14
 -1      3172 4.82657E-03 4.07792E-04-1.65246E-14
 -1      3173 4.75387E-03 3.72176E-04-1.60558E-14
 -1      3174 5.25548E-03 3.99396E-04-1.94134E-14
 -1      3175 5.11249E-03 4.02404E-04-1.84273E-14
 -1      3176 5.03960E-03 3.67196E-04-1.79305E-14
 -1      3177 5.54156E-03 3.92738E-04-2.14523E-14
 -1      3178 5.39850E-03 3.96175E-04-2.04214E-14
 -1      3179 5.32519E-03 3.61409E-04-1.98958E-14
 -1      3180 5.82780E-03 3.85226E-04-2.35793E-14
 -1      3181 5.68465E-03 3.89087E-04-2.25057E-14
 -1      3182 5.61063E-03 3.54783E-04-2.19514E-14
 -1      3183 6.11426E-03 3.76945E-04-2.57906E-14
 -1      3184 5.97099E-03 3.81174E-04-2.46745E-14
 -1      3185 5.89592E-03 3.47324E-04-2.40941E-14
 -1      3186 6.40104E-03 3.68109E-04-2.80821E-14
 -1      3187 6.25758E-03 3.72579E-04-2.69262E-14
 -1      3188 6.18108E-03 3.39117E-04-2.63186E-14
 -1      3189 6.68831E-03 3.59138E-04-3.04537E-14
 -1      3190 6.54458E-03 3.63609E-04-2.92580E-14
 -1      3191 6.46614E-03 3.30382E-04-2.86240E-14
 -1      3192 6.97637E-03 3.50734E-04-3.28991E-14
 -1      3193 6.83220E-03 3.54812E-04-3.16674E-14
 -1      3194 6.75123E-03 3.21532E-04-3.10061E-14
 -1      3195 7.26570E-03 3.43982E-04-3.54194E-14
 -1      3196 7.12082E-03 3.47069E-04-3.41504E-14
 -1      3197 7.03664E-03 3.13248E-04-3.34646E-14
 -1      3198 7.55710E-03 3.40466E-04-3.80052E-14
 -1      3199 7.41106E-03 3.41696E-04-3.67045E-14
 -1      3200 7.32289E-03 3.06569E-04-3.59947E-14
 -1      3201 7.85185E-03 3.42396E-04-4.06574E-14
 -1      3202 7.70395E-03 3.40569E-04-3.93243E-14
 -1      3203 7.61089E-03 3.03002E-04-3.85929E-14
 -1      3204 8.15184E-03 3.52751E-04-4.33658E-14
 -1      3205 8.00105E-03 3.46260E-04-4.20039E-14
 -1      3206 7.90217E-03 3.04663E-04-4.12528E-14
 -1      3207 8.45971E-03 3.75424E-04-4.61278E-14
 -1      3208 8.30465E-03 3.62187E-04-4.47403E-14
 -1      3209 8.19912E-03 3.14478E-04-4.39696E-14
 -1      3210 8.77865E-03 4.15293E-04-4.89426E-14
 -1      3211 8.61771E-03 3.92743E-04-4.75279E-14
 -1      3212 8.50512E-03 3.36468E-04-4.67405E-14
 -1      3213 9.11141E-03 4.77806E-04-5.18035E-14
 -1      3214 8.94342E-03 4.43239E-04-5.03663E-14
 -1      3215 8.82445E-03 3.76129E-04-4.95615E-14
 -1      3216 9.45839E-03 5.67277E-04-5.47134E-14
 -1      3217 9.28366E-03 5.18792E-04-5.32537E-14
 -1      3218 9.16103E-03 4.40320E-04-5.24308E-14
 -1      3219 9.90870E-03 6.89900E-04-5.85028E-14
 -1      3220 9.72815E-03 6.26644E-04-5.70091E-14
 -1      3221 1.00884E-02 7.54685E-04-6.00049E-14
 -1      3222 1.05537E-02 8.95295E-04-6.41413E-14
 -1      3223 1.03851E-02 8.57672E-04-6.26012E-14
 -1      3224 1.08970E-02 9.00835E-04-6.73800E-14
 -1      3225 1.07315E-02 9.10028E-04-6.58150E-14
 -1      3226 1.14815E-02 7.17808E-04-7.28897E-14
 -1      3227 1.13059E-02 7.87860E-04-7.12917E-14
 -1      3228 1.22081E-02 4.49685E-04-7.96497E-14
 -1      3229 1.20323E-02 5.11650E-04-7.80293E-14
 -1      3230 1.25514E-02 3.45645E-04-8.29117E-14
 -1      3231 1.23820E-02 3.94387E-04-8.12778E-14
 -1      3232 1.23446E-02 3.62773E-04-8.03418E-14
 -1      3233 1.28797E-02 2.66660E-04-8.61966E-14
 -1      3234 1.27176E-02 3.03489E-04-8.45510E-14
 -1      3235 1.26861E-02 2.69852E-04-8.36073E-14
 -1      3236 1.31946E-02 2.06932E-04-8.94991E-14
 -1      3237 1.30388E-02 2.34893E-04-8.78450E-14
 -1      3238 1.30093E-02 2.01795E-04-8.68940E-14
 -1      3239 1.34991E-02 1.60124E-04-9.28242E-14
 -1      3240 1.33480E-02 1.82346E-04-9.11584E-14
 -1      3241 1.33184E-02 1.50756E-04-9.02018E-14
 -1      3242 1.37961E-02 1.20477E-04-9.61668E-14
 -1      3243 1.36484E-02 1.39775E-04-9.44929E-14
 -1      3244 1.36175E-02 1.10147E-04-9.35306E-14
 -1      3245 1.40119E-02 8.34658E-05-9.84816E-14
 -1      3246 1.38900E-02 1.05725E-04-9.71940E-14
 -1      3247 1.38579E-02 7.79517E-05-9.62287E-14
 -1      3248 1.40432E-02 5.04962E-05-9.82877E-14
 -1      3249 1.01675E-03 6.82388E-05-1.02856E-15
 -1      3250 1.01559E-03 4.12440E-05-1.02549E-15
 -1      3251 1.30074E-02-1.02401E-04-7.96417E-14
 -1      3252 1.31302E-02-1.39914E-04-7.99408E-14
 -1      3253 1.43084E-02-2.54558E-04-9.63100E-14
 -1      3254 1.42936E-02-2.26075E-04-9.64726E-14
 -1      3255 1.42693E-02-4.32007E-04-9.52934E-14
 -1      3256 1.42887E-02-3.99391E-04-9.54670E-14
 -1      3257 1.41827E-02-3.75451E-04-9.40839E-14
 -1      3258 1.43184E-02-3.10137E-04-9.59809E-14
 -1      3259 1.43166E-02-2.82320E-04-9.61461E-14
 -1      3260 1.42030E-02-2.60082E-04-9.47630E-14
 -1      3261 1.42057E-02-3.15914E-04-9.44274E-14
 -1      3262 1.28690E-02-3.24434E-04-7.70273E-14
 -1      3263 1.27285E-02-3.77633E-04-7.62630E-14
 -1      3264 1.31369E-02-2.36817E-04-7.85014E-14
 -1      3265 1.30313E-02-2.70405E-04-7.79888E-14
 -1      3266 1.00960E-02-8.48009E-04-5.73752E-14
 -1      3267 2.68333E-03 4.16986E-04-5.41609E-15
 -1      3268 2.54034E-03 4.13965E-04-4.88433E-15
 -1      3269 2.74992E-03 3.80981E-04-5.71223E-15
 -1      3270 9.36827E-03 3.00162E-04-5.54208E-14
 -1      3271 9.54968E-03 3.98591E-04-5.64370E-14
 -1      3272 1.23398E-02-6.24443E-04-7.47278E-14
 -1      3273 1.25238E-02-5.74806E-04-7.63407E-14
 -1      3274 1.44460E-03-3.13796E-04-1.55651E-15
 -1      3275 1.58811E-03-3.28237E-04-1.85361E-15
 -1      3276 1.65246E-03-3.00142E-04-2.05299E-15
 -1      3277 1.32211E-02-1.71822E-04-7.99045E-14
 -1      3278 1.32529E-02-1.85517E-04-7.96945E-14
 -1      3279 2.11105E-03 3.98534E-04-3.45144E-15
 -1      3280 1.96782E-03 3.90696E-04-3.02827E-15
 -1      3281 2.39730E-03 4.09977E-04-4.37951E-15
 -1      3282 2.25420E-03 4.04914E-04-3.90175E-15
 -1      3283 2.17568E-03 3.65385E-04-3.69516E-15
 -1      3284 2.46291E-03 3.75139E-04-4.64994E-15
 -1      3285 9.58212E-03-5.67938E-04-5.41221E-14
 -1      3286 1.21950E-02-6.73539E-04-7.35652E-14
 -1      3287 8.68844E-03 1.88027E-06-5.22463E-14
 -1      3288 8.81521E-03 4.54504E-05-5.28023E-14
 -1      3289 8.98319E-03 1.15329E-04-5.35177E-14
 -1      3290 9.15932E-03 1.95217E-04-5.43419E-14
 -1      3291 8.90090E-03-2.30703E-04-5.16959E-14
 -1      3292 8.74808E-03-1.74409E-04-5.13083E-14
 -1      3293 1.16459E-02 5.51099E-04-7.30537E-14
 -1      3294 1.18458E-02 4.37130E-04-7.43493E-14
 -1      3295 1.15801E-02 6.10594E-04-7.29612E-14
 -1      3296 8.48721E-03-8.73018E-05-5.11958E-14
 -1      3297 8.47736E-03-7.75203E-05-5.14215E-14
 -1      3298 1.26282E-02 4.38171E-05-7.83804E-14
 -1      3299 1.28220E-02-3.51424E-05-7.90646E-14
 -1      3300 1.32453E-02-2.01294E-04-7.92792E-14
 -1      3301 1.32050E-02-2.14249E-04-7.88918E-14
 -1      3302 1.32186E-02-2.36474E-04-7.97739E-14
 -1      3303 8.62150E-03-1.28704E-04-5.12319E-14
 -1      3304 8.54512E-03-1.06159E-04-5.12271E-14
 -1      3305 1.14497E-03 3.10659E-04-1.12567E-15
 -1      3306 1.08236E-03 2.71731E-04-1.04944E-15
 -1      3307 1.20146E-03 2.73133E-04-1.27655E-15
 -1      3308 1.28814E-03 3.32615E-04-1.38889E-15
 -1      3309 1.01499E-03 1.44553E-05-1.02049E-15
 -1      3310 1.01496E-03-1.22345E-05-1.01361E-15
 -1      3311 1.13571E-03 3.01778E-05-1.23751E-15
 -1      3312 1.01428E-03-2.34490E-04-8.46586E-16
 -1      3313 1.20045E-02 3.65824E-04-7.56161E-14
 -1      3314 1.21608E-02 3.04042E-04-7.68877E-14
 -1      3315 1.19229E-02 4.36967E-04-7.55250E-14
 -1      3316 8.84818E-03 9.23792E-05-5.23513E-14
 -1      3317 1.41881E-02-4.74246E-04-9.44387E-14
 -1      3318 1.42395E-02-4.50500E-04-9.49802E-14
 -1      3319 1.41334E-02-4.25859E-04-9.35980E-14
 -1      3320 1.40693E-02-4.64662E-04-9.29728E-14
 -1      3321 1.33004E-02-1.99568E-04-8.05834E-14
 -1      3322 9.07823E-03-3.55494E-04-5.10576E-14
 -1      3323 1.41376E-02-6.71703E-05-9.72446E-14
 -1      3324 1.40956E-02-3.10283E-05-9.73943E-14
 -1      3325 1.26474E-02-4.35407E-04-7.61685E-14
 -1      3326 9.64633E-03 4.84428E-04-5.68340E-14
 -1      3327 9.60410E-03 5.36896E-04-5.61664E-14
 -1      3328 1.03340E-02 8.07317E-04-6.21127E-14
 -1      3329 1.02122E-02 8.12288E-04-6.10665E-14
 -1      3330 1.11557E-02 8.55071E-04-7.00180E-14
 -1      3331 1.09902E-02 8.97720E-04-6.84358E-14
 -1      3332 1.18540E-02 5.79547E-04-7.64121E-14
 -1      3333 1.16761E-02 6.51315E-04-7.48015E-14
 -1      3334 1.01854E-03 9.55122E-05-1.02987E-15
 -1      3335 1.13834E-03 8.85954E-05-1.24504E-15
 -1      3336 1.02099E-03 1.23294E-04-1.02888E-15
 -1      3337 1.29676E-02-6.29000E-05-8.04886E-14
 -1      3338 1.42138E-02-1.35196E-04-9.69411E-14
 -1      3339 1.41775E-02-1.01956E-04-9.70941E-14
 -1      3340 1.40398E-02-7.46512E-05-9.57087E-14
 -1      3341 8.46252E-03-6.65125E-05-5.09594E-14
 -1      3342 1.32294E-02-1.55986E-04-8.10354E-14
 -1      3343 1.42726E-02-1.97061E-04-9.66308E-14
 -1      3344 1.42457E-02-1.66737E-04-9.67876E-14
 -1      3345 1.41160E-02-1.42514E-04-9.54010E-14
 -1      3346 1.41724E-02-2.03569E-04-9.50882E-14
 -1      3347 8.47114E-03-9.40184E-05-5.03828E-14
 -1      3348 1.57472E-03 3.67302E-04-1.99917E-15
 -1      3349 1.43138E-03 3.51396E-04-1.68015E-15
 -1      3350 1.38748E-03 3.21071E-04-1.61827E-15
 -1      3351 1.26837E-02-4.90220E-04-7.73240E-14
 -1      3352 1.84289E-03 3.86486E-04-2.67610E-15
 -1      3353 1.69959E-03 3.75138E-04-2.30497E-15
 -1      3354 1.65601E-03 3.44960E-04-2.23077E-15
 -1      3355 1.90659E-03 3.55562E-04-2.89467E-15
 -1      3356 1.30049E-02-3.04457E-04-7.84174E-14
 -1      3357 1.31610E-03-2.97370E-04-1.31427E-15
 -1      3358 1.38026E-03-2.73496E-04-1.48143E-15
 -1      3359 1.18785E-03-2.78854E-04-1.09313E-15
 -1      3360 9.20414E-03 2.57064E-04-5.41319E-14
 -1      3361 1.01687E-02 7.34687E-04-6.07256E-14
 -1      3362 1.09907E-02 8.67764E-04-6.80614E-14
 -1      3363 1.02840E-03 1.81173E-04-1.01981E-15
 -1      3364 1.02425E-03 1.51844E-04-1.02563E-15
 -1      3365 1.14389E-03 1.48691E-04-1.24328E-15
 -1      3366 1.15317E-03 2.11835E-04-1.23052E-15
 -1      3367 1.01825E-03-9.30382E-05-9.81623E-16
 -1      3368 1.02061E-03-1.20754E-04-9.67027E-16
 -1      3369 1.25272E-02 1.06531E-04-7.84403E-14
 -1      3370 1.26919E-02 6.70757E-05-7.99674E-14
 -1      3371 1.24351E-02 1.73459E-04-7.84987E-14
 -1      3372 8.60247E-03-1.72105E-05-5.16072E-14
 -1      3373 8.60811E-03 1.19015E-05-5.10051E-14
 -1      3374 8.52753E-03-2.95121E-05-5.09694E-14
 -1      3375 8.64462E-03-1.53464E-04-5.04902E-14
 -1      3376 1.14345E-03-1.45959E-04-1.16270E-15
 -1      3377 1.02380E-03-1.49177E-04-9.50019E-16
 -1      3378 1.02782E-03-1.78426E-04-9.30273E-16
 -1      3379 1.11385E-02 8.17955E-04-6.93567E-14
 -1      3380 1.12387E-02 7.90180E-04-7.03925E-14
 -1      3381 1.19857E-02 4.87263E-04-7.71022E-14
 -1      3382 1.00213E-02 6.83115E-04-5.95266E-14
 -1      3383 2.15060E-03-2.93178E-04-3.40766E-15
 -1      3384 2.29497E-03-2.97987E-04-3.84351E-15
 -1      3385 2.43933E-03-3.01819E-04-4.30580E-15
 -1      3386 2.58366E-03-3.04769E-04-4.79389E-15
 -1      3387 2.36249E-03-2.63264E-04-4.11902E-15
 -1      3388 2.72794E-03-3.06996E-04-5.30699E-15
 -1      3389 2.87214E-03-3.08573E-04-5.84655E-15
 -1      3390 2.65177E-03-2.68690E-04-5.09978E-15
 -1      3391 3.01626E-03-3.09623E-04-6.41132E-15
 -1      3392 3.16029E-03-3.10196E-04-7.00080E-15
 -1      3393 2.94082E-03-2.71609E-04-6.18310E-15
 -1      3394 3.30423E-03-3.10387E-04-7.61557E-15
 -1      3395 3.44806E-03-3.10228E-04-8.25377E-15
 -1      3396 3.22948E-03-2.72690E-04-7.36653E-15
 -1      3397 3.59180E-03-3.09786E-04-8.91609E-15
 -1      3398 3.73543E-03-3.09080E-04-9.60290E-15
 -1      3399 3.51768E-03-2.72425E-04-8.64804E-15
 -1      3400 3.87897E-03-3.08155E-04-1.03130E-14
 -1      3401 4.02240E-03-3.07020E-04-1.10472E-14
 -1      3402 3.80538E-03-2.71154E-04-1.00250E-14
 -1      3403 4.16573E-03-3.05703E-04-1.18049E-14
 -1      3404 4.30895E-03-3.04204E-04-1.25860E-14
 -1      3405 4.09256E-03-2.69093E-04-1.14978E-14
 -1      3406 4.45206E-03-3.02539E-04-1.33897E-14
 -1      3407 4.59505E-03-3.00702E-04-1.42156E-14
 -1      3408 4.37917E-03-2.66365E-04-1.30639E-14
 -1      3409 4.73792E-03-2.98700E-04-1.50650E-14
 -1      3410 4.88067E-03-2.96522E-04-1.59373E-14
 -1      3411 4.66518E-03-2.63018E-04-1.47225E-14
 -1      3412 5.02326E-03-2.94171E-04-1.68319E-14
 -1      3413 5.16571E-03-2.91634E-04-1.77483E-14
 -1      3414 4.95051E-03-2.59053E-04-1.64716E-14
 -1      3415 5.30799E-03-2.88916E-04-1.86880E-14
 -1      3416 5.45009E-03-2.85999E-04-1.96498E-14
 -1      3417 5.23504E-03-2.54439E-04-1.83118E-14
 -1      3418 5.59197E-03-2.82895E-04-2.06327E-14
 -1      3419 5.73363E-03-2.79589E-04-2.16393E-14
 -1      3420 5.51863E-03-2.49145E-04-2.02403E-14
 -1      3421 5.87502E-03-2.76102E-04-2.26675E-14
 -1      3422 6.01615E-03-2.72422E-04-2.37151E-14
 -1      3423 5.80105E-03-2.43157E-04-2.22568E-14
 -1      3424 6.15694E-03-2.68591E-04-2.47850E-14
 -1      3425 6.29740E-03-2.64601E-04-2.58751E-14
 -1      3426 6.08204E-03-2.36511E-04-2.43606E-14
 -1      3427 6.43744E-03-2.60521E-04-2.69843E-14
 -1      3428 6.57708E-03-2.56350E-04-2.81138E-14
 -1      3429 6.36127E-03-2.29325E-04-2.65454E-14
 -1      3430 6.71623E-03-2.52195E-04-2.92626E-14
 -1      3431 6.85491E-03-2.48068E-04-3.04305E-14
 -1      3432 6.63833E-03-2.21832E-04-2.88082E-14
 -1      3433 6.99301E-03-2.44114E-04-3.16182E-14
 -1      3434 7.13059E-03-2.40367E-04-3.28255E-14
 -1      3435 6.91281E-03-2.14418E-04-3.11490E-14
 -1      3436 7.26754E-03-2.37016E-04-3.40517E-14
 -1      3437 7.40399E-03-2.34122E-04-3.52958E-14
 -1      3438 7.18429E-03-2.07644E-04-3.35662E-14
 -1      3439 7.53982E-03-2.31915E-04-3.65587E-14
 -1      3440 7.67527E-03-2.30507E-04-3.78403E-14
 -1      3441 7.45241E-03-2.02266E-04-3.60593E-14
 -1      3442 7.81024E-03-2.30148E-04-3.91383E-14
 -1      3443 7.94520E-03-2.31053E-04-4.04521E-14
 -1      3444 7.71710E-03-1.99226E-04-3.86238E-14
 -1      3445 8.08008E-03-2.33449E-04-4.17824E-14
 -1      3446 8.21575E-03-2.37819E-04-4.31285E-14
 -1      3447 7.97878E-03-1.99654E-04-4.12557E-14
 -1      3448 8.35223E-03-2.44307E-04-4.44899E-14
 -1      3449 8.49106E-03-2.54046E-04-4.58644E-14
 -1      3450 8.23898E-03-2.05027E-04-4.39516E-14
 -1      3451 8.63242E-03-2.66955E-04-4.72501E-14
 -1      3452 8.77869E-03-2.85768E-04-4.86512E-14
 -1      3453 8.50151E-03-2.17898E-04-4.67013E-14
 -1      3454 1.01656E-03-6.58064E-05-9.94200E-16
 -1      3455 1.13809E-03-8.60106E-05-1.19689E-15
 -1      3456 1.01548E-03-3.89529E-05-1.00507E-15
 -1      3457 3.96568E-03 3.44617E-04-1.13997E-14
 -1      3458 3.82239E-03 3.45672E-04-1.06358E-14
 -1      3459 1.33613E-02-1.98301E-04-8.19673E-14
 -1      3460 1.33471E-02-2.15596E-04-8.15480E-14
 -1      3461 1.33428E-02-4.14711E-04-8.40656E-14
 -1      3462 1.34825E-02-4.17596E-04-8.57228E-14
 -1      3463 1.36204E-02-4.22722E-04-8.73893E-14
 -1      3464 1.37576E-02-4.29350E-04-8.90623E-14
 -1      3465 1.35892E-02-3.84064E-04-8.67165E-14
 -1      3466 3.39206E-03 3.47358E-04-8.49742E-15
 -1      3467 3.24847E-03 3.47320E-04-7.83646E-15
 -1      3468 3.67902E-03 3.46496E-04-9.89704E-15
 -1      3469 3.53558E-03 3.47075E-04-9.18430E-15
 -1      3470 3.74864E-03 3.08646E-04-1.02641E-14
 -1      3471 1.21191E-02 3.97900E-04-7.77566E-14
 -1      3472 1.19334E-02 4.69264E-04-7.61440E-14
 -1      3473 4.25206E-03 3.41909E-04-1.30026E-14
 -1      3474 4.10891E-03 3.43361E-04-1.21889E-14
 -1      3475 4.03561E-03 3.06704E-04-1.17878E-14
 -1      3476 4.53815E-03 3.38464E-04-1.47043E-14
 -1      3477 4.39514E-03 3.40278E-04-1.38414E-14
 -1      3478 4.32216E-03 3.04017E-04-1.34107E-14
 -1      3479 4.82394E-03 3.34303E-04-1.65031E-14
 -1      3480 4.68108E-03 3.36475E-04-1.55916E-14
 -1      3481 4.60825E-03 3.00653E-04-1.51316E-14
 -1      3482 5.10939E-03 3.29402E-04-1.83940E-14
 -1      3483 4.96671E-03 3.31949E-04-1.74371E-14
 -1      3484 4.89386E-03 2.96615E-04-1.69474E-14
 -1      3485 5.39447E-03 3.23720E-04-2.03765E-14
 -1      3486 5.25198E-03 3.26664E-04-1.93743E-14
 -1      3487 5.17892E-03 2.91873E-04-1.88562E-14
 -1      3488 5.67913E-03 3.17222E-04-2.24482E-14
 -1      3489 5.53685E-03 3.20576E-04-2.14008E-14
 -1      3490 5.46336E-03 2.86382E-04-2.08553E-14
 -1      3491 5.96330E-03 3.09915E-04-2.46057E-14
 -1      3492 5.82127E-03 3.13670E-04-2.35163E-14
 -1      3493 5.74708E-03 2.80108E-04-2.29420E-14
 -1      3494 6.24695E-03 3.01887E-04-2.68442E-14
 -1      3495 6.10518E-03 3.05986E-04-2.57147E-14
 -1      3496 6.02996E-03 2.73056E-04-2.51149E-14
 -1      3497 6.53006E-03 2.93348E-04-2.91633E-14
 -1      3498 6.38855E-03 2.97668E-04-2.79948E-14
 -1      3499 6.31191E-03 2.65307E-04-2.73685E-14
 -1      3500 6.81273E-03 2.84689E-04-3.15574E-14
 -1      3501 6.67142E-03 2.89007E-04-3.03509E-14
 -1      3502 6.59287E-03 2.57052E-04-2.96999E-14
 -1      3503 7.09519E-03 2.76545E-04-3.40267E-14
 -1      3504 6.95394E-03 2.80507E-04-3.27820E-14
 -1      3505 6.87285E-03 2.48642E-04-3.21057E-14
 -1      3506 7.37800E-03 2.69871E-04-3.65680E-14
 -1      3507 7.23649E-03 2.72950E-04-3.52891E-14
 -1      3508 7.15208E-03 2.40634E-04-3.45866E-14
 -1      3509 7.66218E-03 2.66050E-04-3.91760E-14
 -1      3510 7.51981E-03 2.67487E-04-3.78634E-14
 -1      3511 7.43110E-03 2.33861E-04-3.71393E-14
 -1      3512 7.94947E-03 2.67050E-04-4.18460E-14
 -1      3513 7.80527E-03 2.65761E-04-4.05046E-14
 -1      3514 7.71098E-03 2.29527E-04-3.97578E-14
 -1      3515 8.24271E-03 2.75701E-04-4.45710E-14
 -1      3516 8.09511E-03 2.70120E-04-4.32013E-14
 -1      3517 7.99367E-03 2.29386E-04-4.24364E-14
 -1      3518 8.54603E-03 2.96136E-04-4.73502E-14
 -1      3519 8.39281E-03 2.83966E-04-4.59544E-14
 -1      3520 8.28241E-03 2.36118E-04-4.51703E-14
 -1      3521 8.86499E-03 3.34636E-04-5.01805E-14
 -1      3522 8.70327E-03 3.12349E-04-4.87595E-14
 -1      3523 8.58212E-03 2.54036E-04-4.79589E-14
 -1      3524 9.20545E-03 3.99924E-04-5.30587E-14
 -1      3525 9.03257E-03 3.63020E-04-5.16133E-14
 -1      3526 8.89992E-03 2.90229E-04-5.07991E-14
 -1      3527 1.16044E-02 6.30652E-04-7.35740E-14
 -1      3528 1.25481E-02 2.23354E-04-8.10007E-14
 -1      3529 1.23734E-02 2.72870E-04-7.93750E-14
 -1      3530 1.34413E-02 9.78254E-05-9.09040E-14
 -1      3531 1.32918E-02 1.17882E-04-8.92449E-14
 -1      3532 1.37344E-02 6.28607E-05-9.42395E-14
 -1      3533 1.35887E-02 7.98369E-05-9.25689E-14
 -1      3534 1.35620E-02 4.87260E-05-9.16075E-14
 -1      3535 1.40852E-02-6.60259E-06-9.77435E-14
 -1      3536 1.40539E-02 2.51315E-05-9.79386E-14
 -1      3537 1.39622E-02 3.81098E-05-9.69078E-14
 -1      3538 1.39853E-02-1.30420E-05-9.62095E-14
 -1      3539 8.45426E-03-1.03601E-04-4.95048E-14
 -1      3540 8.40481E-03-8.49851E-05-4.94737E-14
 -1      3541 1.40596E-02-3.82925E-04-9.25316E-14
 -1      3542 1.40789E-02-3.51235E-04-9.27051E-14
 -1      3543 1.32623E-02-1.40645E-04-8.24467E-14
 -1      3544 1.33378E-02-1.71981E-04-8.24122E-14
 -1      3545 2.81726E-03 3.44603E-04-6.00924E-15
 -1      3546 2.67338E-03 3.42589E-04-5.45262E-15
 -1      3547 1.31394E-02 1.40425E-04-8.75914E-14
 -1      3548 1.29836E-02 1.66760E-04-8.59442E-14
 -1      3549 1.32684E-02 8.35815E-05-8.82901E-14
 -1      3550 1.28511E-02 1.74092E-04-8.42830E-14
 -1      3551 1.26873E-02 2.08988E-04-8.26459E-14
 -1      3552 1.27361E-02 1.17282E-04-8.16690E-14
 -1      3553 1.29910E-02 1.07655E-04-8.49759E-14
 -1      3554 1.57414E-03-2.60720E-04-1.92783E-15
 -1      3555 1.71796E-03-2.71154E-04-2.25850E-15
 -1      3556 1.31218E-02-2.98392E-04-7.98244E-14
 -1      3557 1.29759E-02-3.46663E-04-7.88585E-14
 -1      3558 1.28663E-02-4.21513E-04-7.86165E-14
 -1      3559 3.10481E-03 3.46886E-04-7.20128E-15
 -1      3560 2.96107E-03 3.46015E-04-6.59211E-15
 -1      3561 3.17346E-03 3.09587E-04-7.52324E-15
 -1      3562 1.30069E-02-4.04114E-04-8.00277E-14
 -1      3563 1.31515E-02-3.98262E-04-8.16649E-14
 -1      3564 9.03385E-03-2.90931E-04-5.19555E-14
 -1      3565 8.89160E-03-2.55975E-04-5.08221E-14
 -1      3566 8.39617E-03-6.32406E-05-4.96979E-14
 -1      3567 8.44671E-03-4.93321E-05-5.03028E-14
 -1      3568 1.86203E-03-2.79928E-04-2.61539E-15
 -1      3569 2.00628E-03-2.87196E-04-2.99846E-15
 -1      3570 2.07324E-03-2.54463E-04-3.24176E-15
 -1      3571 8.63754E-03-1.75038E-04-4.95546E-14
 -1      3572 8.53028E-03-1.33323E-04-4.94793E-14
 -1      3573 8.70303E-03 7.46581E-05-5.09896E-14
 -1      3574 8.84720E-03 1.36765E-04-5.16950E-14
 -1      3575 9.11662E-03-3.38063E-04-5.20005E-14
 -1      3576 9.04907E-03 2.43653E-04-5.26503E-14
 -1      3577 9.23130E-03 3.34929E-04-5.37153E-14
 -1      3578 1.33016E-02-2.35119E-04-8.10443E-14
 -1      3579 1.32425E-02-2.57510E-04-8.06525E-14
 -1      3580 1.07922E-03-2.16868E-04-9.77340E-16
 -1      3581 1.34436E-03 2.91483E-04-1.55525E-15
 -1      3582 1.30204E-03 2.62624E-04-1.49163E-15
 -1      3583 1.48770E-03 3.07255E-04-1.86174E-15
 -1      3584 1.29504E-02-2.26031E-05-8.15213E-14
 -1      3585 1.31146E-02-8.41845E-05-8.21062E-14
 -1      3586 8.81752E-03-2.64386E-04-4.95810E-14
 -1      3587 8.70796E-03-2.16222E-04-4.93259E-14
 -1      3588 8.43672E-03-1.19337E-04-4.85781E-14
 -1      3589 1.17820E-02 5.33213E-04-7.48738E-14
 -1      3590 1.13563E-03-2.77080E-05-1.22157E-15
 -1      3591 1.33878E-02-2.33079E-04-8.24310E-14
 -1      3592 2.88528E-03 3.07921E-04-6.30758E-15
 -1      3593 1.32764E-02-3.55735E-04-8.26534E-14
 -1      3594 3.46126E-03 3.09694E-04-8.84270E-15
 -1      3595 1.38538E-02-4.42160E-04-9.02825E-14
 -1      3596 1.39715E-02-4.51773E-04-9.17393E-14
 -1      3597 1.40052E-02-4.31755E-04-9.20537E-14
 -1      3598 1.38149E-02-4.05236E-04-8.96030E-14
 -1      3599 1.34179E-02-1.88845E-04-8.33856E-14
 -1      3600 9.37652E-03 4.24290E-04-5.45486E-14
 -1      3601 1.25772E-03 4.78678E-05-1.47537E-15
 -1      3602 1.25699E-03 1.67910E-05-1.46857E-15
 -1      3603 1.44554E-03-2.48465E-04-1.65567E-15
 -1      3604 1.51174E-03-2.22205E-04-1.83639E-15
 -1      3605 1.31733E-03-2.34723E-04-1.40429E-15
 -1      3606 1.26135E-03 1.10522E-04-1.48217E-15
 -1      3607 1.25917E-03 7.90282E-05-1.48015E-15
 -1      3608 1.38092E-03 6.71118E-05-1.73379E-15
 -1      3609 1.38532E-02-3.58727E-06-9.45655E-14
 -1      3610 1.38401E-02 2.28495E-05-9.49140E-14
 -1      3611 1.38700E-02 5.11597E-05-9.58795E-14
 -1      3612 1.40737E-02-2.10411E-04-9.35488E-14
 -1      3613 1.40503E-02-1.81187E-04-9.37086E-14
 -1      3614 1.39771E-02-3.27626E-04-9.13326E-14
 -1      3615 1.40922E-02-3.21752E-04-9.28780E-14
 -1      3616 1.40989E-02-2.93336E-04-9.30490E-14
 -1      3617 1.40983E-02-2.65757E-04-9.32174E-14
 -1      3618 1.40899E-02-2.38273E-04-9.33839E-14
 -1      3619 1.39764E-02-2.16949E-04-9.20115E-14
 -1      3620 1.39933E-02-2.71283E-04-9.16763E-14
 -1      3621 1.94834E-03 3.20896E-04-3.05196E-15
 -1      3622 1.82261E-03 3.17461E-04-2.70133E-15
 -1      3623 1.29529E-03 2.27676E-04-1.50405E-15
 -1      3624 2.52943E-03 3.39832E-04-4.92233E-15
 -1      3625 2.38543E-03 3.36250E-04-4.41838E-15
 -1      3626 2.59677E-03 3.04122E-04-5.19622E-15
 -1      3627 8.61125E-03 4.89783E-05-5.03586E-14
 -1      3628 8.60417E-03 8.92629E-05-4.97097E-14
 -1      3629 8.52616E-03 2.90822E-05-4.97272E-14
 -1      3630 8.35078E-03-6.99442E-05-4.88287E-14
 -1      3631 8.30920E-03-5.43467E-05-4.81826E-14
 -1      3632 8.31168E-03-7.75802E-05-4.79617E-14
 -1      3633 1.78446E-03-2.41238E-04-2.47008E-15
 -1      3634 1.32303E-02-2.89946E-04-8.10986E-14
 -1      3635 2.24139E-03 3.31659E-04-3.94128E-15
 -1      3636 2.09732E-03 3.25954E-04-3.49097E-15
 -1      3637 2.30803E-03 2.97409E-04-4.18978E-15
 -1      3638 8.57459E-03-1.88505E-04-4.83243E-14
 -1      3639 1.28011E-02 7.11209E-05-8.16270E-14
 -1      3640 1.28803E-02 1.85771E-05-8.15680E-14
 -1      3641 1.30460E-02-1.08413E-05-8.31890E-14
 -1      3642 1.29233E-02 6.88009E-05-8.32772E-14
 -1      3643 8.43630E-03-2.93054E-05-4.97091E-14
 -1      3644 1.32606E-02-1.10988E-04-8.34874E-14
 -1      3645 1.25896E-03-7.63589E-05-1.43395E-15
 -1      3646 1.26105E-03-1.07823E-04-1.41703E-15
 -1      3647 8.88270E-03 2.10194E-04-5.12852E-14
 -1      3648 1.38171E-03-1.53379E-04-1.62683E-15
 -1      3649 1.26064E-03-1.61135E-04-1.37181E-15
 -1      3650 2.01429E-03 2.88817E-04-3.27337E-15
 -1      3651 1.39444E-02-7.96944E-05-9.42637E-14
 -1      3652 1.39000E-02-4.26436E-05-9.44174E-14
 -1      3653 1.37562E-02-8.40573E-06-9.31274E-14
 -1      3654 2.57577E-03-2.30437E-04-4.89267E-15
 -1      3655 2.72064E-03-2.32234E-04-5.41052E-15
 -1      3656 2.86543E-03-2.33534E-04-5.95438E-15
 -1      3657 3.01013E-03-2.34380E-04-6.52377E-15
 -1      3658 2.79018E-03-1.95459E-04-5.72634E-15
 -1      3659 3.15473E-03-2.34864E-04-7.11781E-15
 -1      3660 3.29919E-03-2.35014E-04-7.73645E-15
 -1      3661 3.08003E-03-1.96948E-04-6.86871E-15
 -1      3662 3.44352E-03-2.34898E-04-8.37905E-15
 -1      3663 3.58770E-03-2.34534E-04-9.04519E-15
 -1      3664 3.36936E-03-1.97228E-04-8.10945E-15
 -1      3665 3.73174E-03-2.33970E-04-9.73639E-15
 -1      3666 3.87562E-03-2.33213E-04-1.04511E-14
 -1      3667 3.65808E-03-1.96612E-04-9.44721E-15
 -1      3668 4.01934E-03-2.32298E-04-1.11896E-14
 -1      3669 4.16289E-03-2.31224E-04-1.19523E-14
 -1      3670 3.94611E-03-1.95314E-04-1.08813E-14
 -1      3671 4.30627E-03-2.30012E-04-1.27381E-14
 -1      3672 4.44947E-03-2.28656E-04-1.35467E-14
 -1      3673 4.23339E-03-1.93463E-04-1.24109E-14
 -1      3674 4.59248E-03-2.27171E-04-1.43780E-14
 -1      3675 4.73529E-03-2.25543E-04-1.52331E-14
 -1      3676 4.51985E-03-1.91127E-04-1.40335E-14
 -1      3677 4.87788E-03-2.23785E-04-1.61117E-14
 -1      3678 5.02024E-03-2.21879E-04-1.70121E-14
 -1      3679 4.80539E-03-1.88324E-04-1.57492E-14
 -1      3680 5.16234E-03-2.19837E-04-1.79339E-14
 -1      3681 5.30417E-03-2.17639E-04-1.88791E-14
 -1      3682 5.08989E-03-1.85047E-04-1.75558E-14
 -1      3683 5.44569E-03-2.15301E-04-1.98467E-14
 -1      3684 5.58688E-03-2.12801E-04-2.08354E-14
 -1      3685 5.37315E-03-1.81279E-04-1.94509E-14
 -1      3686 5.72769E-03-2.10163E-04-2.18469E-14
 -1      3687 5.86810E-03-2.07365E-04-2.28800E-14
 -1      3688 5.65491E-03-1.77008E-04-2.14351E-14
 -1      3689 6.00803E-03-2.04447E-04-2.39351E-14
 -1      3690 6.14748E-03-2.01386E-04-2.50106E-14
 -1      3691 5.93485E-03-1.72253E-04-2.35077E-14
 -1      3692 6.28634E-03-1.98242E-04-2.61044E-14
 -1      3693 6.42459E-03-1.94994E-04-2.72186E-14
 -1      3694 6.21256E-03-1.67083E-04-2.56626E-14
 -1      3695 6.56214E-03-1.91730E-04-2.83528E-14
 -1      3696 6.69896E-03-1.88428E-04-2.95063E-14
 -1      3697 6.48753E-03-1.61641E-04-2.78960E-14
 -1      3698 6.83491E-03-1.85210E-04-3.06783E-14
 -1      3699 6.97000E-03-1.82053E-04-3.18703E-14
 -1      3700 6.75915E-03-1.56165E-04-3.02069E-14
 -1      3701 7.10407E-03-1.79118E-04-3.30815E-14
 -1      3702 7.23714E-03-1.76373E-04-3.43111E-14
 -1      3703 7.02674E-03-1.50996E-04-3.25950E-14
 -1      3704 7.36902E-03-1.74019E-04-3.55591E-14
 -1      3705 7.49979E-03-1.72012E-04-3.68250E-14
 -1      3706 7.28949E-03-1.46570E-04-3.50583E-14
 -1      3707 7.62922E-03-1.70586E-04-3.81099E-14
 -1      3708 7.75750E-03-1.69683E-04-3.94117E-14
 -1      3709 7.54653E-03-1.43381E-04-3.75949E-14
 -1      3710 7.88431E-03-1.69555E-04-4.07288E-14
 -1      3711 8.01012E-03-1.70136E-04-4.20619E-14
 -1      3712 7.79689E-03-1.41913E-04-4.02007E-14
 -1      3713 8.13446E-03-1.71661E-04-4.34105E-14
 -1      3714 8.25829E-03-1.74237E-04-4.47751E-14
 -1      3715 8.03963E-03-1.42490E-04-4.28702E-14
 -1      3716 8.35447E-03-1.77320E-04-4.58496E-14
 -1      3717 8.47797E-03-1.82498E-04-4.72345E-14
 -1      3718 8.42779E-03-1.49518E-04-4.74594E-14
 -1      3719 8.24904E-03-1.45065E-04-4.52980E-14
 -1      3720 4.39233E-03 2.66212E-04-1.38175E-14
 -1      3721 4.24910E-03 2.67591E-04-1.29842E-14
 -1      3722 1.40375E-02-4.12556E-04-9.23654E-14
 -1      3723 1.35608E-02-3.46929E-04-8.60466E-14
 -1      3724 1.36878E-02-3.55944E-04-8.77097E-14
 -1      3725 1.34916E-02-1.81618E-04-8.49797E-14
 -1      3726 1.35043E-02-2.09813E-04-8.45307E-14
 -1      3727 1.38431E-02-3.73864E-04-8.97722E-14
 -1      3728 1.39356E-02-3.87457E-04-9.09924E-14
 -1      3729 1.23428E-02 2.40919E-04-7.84080E-14
 -1      3730 4.10573E-03 2.68808E-04-1.21751E-14
 -1      3731 3.96222E-03 2.69867E-04-1.13906E-14
 -1      3732 4.17602E-03 2.30982E-04-1.25613E-14
 -1      3733 4.96365E-03 2.59164E-04-1.73908E-14
 -1      3734 4.82108E-03 2.61165E-04-1.64624E-14
 -1      3735 5.24822E-03 2.54668E-04-1.93166E-14
 -1      3736 5.10603E-03 2.57005E-04-1.83421E-14
 -1      3737 5.03333E-03 2.21999E-04-1.78326E-14
 -1      3738 5.53190E-03 2.49463E-04-2.13318E-14
 -1      3739 5.39017E-03 2.52161E-04-2.03135E-14
 -1      3740 5.31730E-03 2.17834E-04-1.97753E-14
 -1      3741 5.81456E-03 2.43515E-04-2.34352E-14
 -1      3742 5.67336E-03 2.46588E-04-2.23728E-14
 -1      3743 5.60013E-03 2.13011E-04-2.18078E-14
 -1      3744 6.09602E-03 2.36826E-04-2.56222E-14
 -1      3745 5.95544E-03 2.40268E-04-2.45191E-14
 -1      3746 5.88162E-03 2.07493E-04-2.39263E-14
 -1      3747 6.37613E-03 2.29463E-04-2.78899E-14
 -1      3748 6.23625E-03 2.33229E-04-2.67457E-14
 -1      3749 6.16155E-03 2.01273E-04-2.61279E-14
 -1      3750 6.65475E-03 2.21587E-04-3.02327E-14
 -1      3751 6.51562E-03 2.25583E-04-2.90511E-14
 -1      3752 6.43968E-03 1.94399E-04-2.84077E-14
 -1      3753 6.93184E-03 2.13490E-04-3.26515E-14
 -1      3754 6.79346E-03 2.17551E-04-3.14336E-14
 -1      3755 6.71580E-03 1.86989E-04-3.07648E-14
 -1      3756 7.20755E-03 2.05631E-04-3.51458E-14
 -1      3757 7.06982E-03 2.09502E-04-3.38895E-14
 -1      3758 6.98980E-03 1.79261E-04-3.31969E-14
 -1      3759 7.48237E-03 1.98688E-04-3.77071E-14
 -1      3760 7.34499E-03 2.01994E-04-3.64179E-14
 -1      3761 7.26170E-03 1.71550E-04-3.57006E-14
 -1      3762 7.75736E-03 1.93645E-04-4.03366E-14
 -1      3763 7.61970E-03 1.95837E-04-3.90137E-14
 -1      3764 7.53190E-03 1.64340E-04-3.82743E-14
 -1      3765 8.03452E-03 1.91993E-04-4.30242E-14
 -1      3766 7.89543E-03 1.92226E-04-4.16743E-14
 -1      3767 7.80133E-03 1.58348E-04-4.09137E-14
 -1      3768 8.31737E-03 1.96201E-04-4.57684E-14
 -1      3769 8.17485E-03 1.93030E-04-4.43892E-14
 -1      3770 8.07189E-03 1.54716E-04-4.36109E-14
 -1      3771 8.61160E-03 2.10738E-04-4.85674E-14
 -1      3772 8.46244E-03 2.01536E-04-4.71617E-14
 -1      3773 8.34721E-03 1.55579E-04-4.63664E-14
 -1      3774 8.72659E-03 1.93316E-04-4.98583E-14
 -1      3775 1.39261E-02-1.58735E-04-9.23365E-14
 -1      3776 1.40199E-02-1.50519E-04-9.38683E-14
 -1      3777 1.39840E-02-1.17777E-04-9.40231E-14
 -1      3778 1.26828E-03 1.75226E-04-1.47766E-15
 -1      3779 1.26438E-03 1.42565E-04-1.48144E-15
 -1      3780 1.38563E-03 1.33806E-04-1.73890E-15
 -1      3781 2.28598E-03-2.24944E-04-3.93195E-15
 -1      3782 2.43087E-03-2.28028E-04-4.39956E-15
 -1      3783 2.50003E-03-1.92326E-04-4.68470E-15
 -1      3784 3.53087E-03 2.71905E-04-9.18775E-15
 -1      3785 3.38682E-03 2.72139E-04-8.50391E-15
 -1      3786 1.38038E-02-3.39785E-04-8.90902E-14
 -1      3787 8.34608E-03-2.41397E-05-4.84134E-14
 -1      3788 8.42703E-03-2.12017E-06-4.90697E-14
 -1      3789 8.41511E-03 2.98362E-05-4.84312E-14
 -1      3790 1.36152E-02 4.95989E-06-9.14597E-14
 -1      3791 2.95398E-03 2.70942E-04-6.60695E-15
 -1      3792 2.80948E-03 2.69743E-04-6.02642E-15
 -1      3793 1.41587E-03 2.21837E-04-1.76839E-15
 -1      3794 1.33949E-02 3.17019E-05-8.89860E-14
 -1      3795 1.32494E-02 4.82543E-05-8.73337E-14
 -1      3796 1.71772E-03 3.16954E-04-2.42048E-15
 -1      3797 1.59226E-03 3.10618E-04-2.10888E-15
 -1      3798 1.54985E-03 2.81414E-04-2.03354E-15
 -1      3799 1.75981E-03 2.83989E-04-2.56274E-15
 -1      3800 1.34728E-02-2.33941E-04-8.38378E-14
 -1      3801 1.34301E-02-2.54861E-04-8.33315E-14
 -1      3802 1.33877E-02-3.13700E-04-8.34850E-14
 -1      3803 1.70774E-03-2.03449E-04-2.32464E-15
 -1      3804 1.85193E-03-2.10423E-04-2.68729E-15
 -1      3805 3.24265E-03 2.72081E-04-7.84617E-15
 -1      3806 3.09837E-03 2.71708E-04-7.21373E-15
 -1      3807 3.31234E-03 2.34432E-04-8.16931E-15
 -1      3808 1.25695E-03-1.41557E-05-1.45961E-15
 -1      3809 1.25759E-03-4.51548E-05-1.44794E-15
 -1      3810 1.38073E-03-6.43031E-05-1.69188E-15
 -1      3811 1.37933E-03 1.42995E-06-1.71795E-15
 -1      3812 8.35831E-03-1.17707E-04-4.74875E-14
 -1      3813 1.32760E-02-7.95357E-05-8.47259E-14
 -1      3814 1.34073E-02-1.33613E-04-8.50707E-14
 -1      3815 1.99643E-03-2.16255E-04-3.07602E-15
 -1      3816 2.14115E-03-2.21046E-04-3.49094E-15
 -1      3817 2.20989E-03-1.86979E-04-3.74581E-15
 -1      3818 1.26506E-03-1.94024E-04-1.34758E-15
 -1      3819 2.07709E-03 2.54799E-04-3.48602E-15
 -1      3820 1.92755E-03 2.50822E-04-3.04917E-15
 -1      3821 1.19885E-03-2.16018E-04-1.19520E-15
 -1      3822 4.67833E-03 2.63000E-04-1.55568E-14
 -1      3823 4.53541E-03 2.64685E-04-1.46753E-14
 -1      3824 4.46258E-03 2.28544E-04-1.42241E-14
 -1      3825 4.74838E-03 2.25555E-04-1.59813E-14
 -1      3826 3.81857E-03 2.70744E-04-1.06303E-14
 -1      3827 3.67478E-03 2.71436E-04-9.89616E-15
 -1      3828 3.88877E-03 2.32846E-04-1.09968E-14
 -1      3829 8.59444E-03 1.38028E-04-4.90468E-14
 -1      3830 1.35283E-02-1.60047E-04-8.62252E-14
 -1      3831 3.02328E-03 2.33727E-04-6.90787E-15
 -1      3832 1.35675E-02-2.29248E-04-8.54387E-14
 -1      3833 2.73377E-03 2.31547E-04-5.74889E-15
 -1      3834 2.66491E-03 2.68008E-04-5.47170E-15
 -1      3835 2.52027E-03 2.65680E-04-4.94303E-15
 -1      3836 1.50272E-03 1.87252E-05-1.99714E-15
 -1      3837 1.50267E-03-1.57176E-05-1.98551E-15
 -1      3838 1.38350E-02-1.67546E-04-9.08068E-14
 -1      3839 1.37996E-02-1.36422E-04-9.09697E-14
 -1      3840 1.38258E-02-3.09115E-04-8.92667E-14
 -1      3841 3.60086E-03 2.34050E-04-9.53239E-15
 -1      3842 1.31288E-02 4.73386E-05-8.56671E-14
 -1      3843 1.47999E-03-1.73865E-04-1.82001E-15
 -1      3844 1.60846E-03-1.82773E-04-2.10654E-15
 -1      3845 1.67678E-03-1.53604E-04-2.30285E-15
 -1      3846 1.48006E-03-1.15573E-04-1.87406E-15
 -1      3847 8.27515E-03-3.39997E-05-4.75533E-14
 -1      3848 8.24616E-03-1.05814E-05-4.69244E-14
 -1      3849 8.21227E-03-4.25569E-05-4.66981E-14
 -1      3850 1.82196E-03 2.52399E-04-2.75431E-15
 -1      3851 1.71654E-03 2.52989E-04-2.47278E-15
 -1      3852 1.88508E-03 2.20029E-04-2.94743E-15
 -1      3853 1.38808E-02-2.23467E-04-9.04795E-14
 -1      3854 1.38625E-02-1.96124E-04-9.06441E-14
 -1      3855 1.37468E-02-1.75830E-04-8.92842E-14
 -1      3856 1.35924E-02-2.60625E-05-9.04927E-14
 -1      3857 8.50733E-03 1.11918E-04-4.84239E-14
 -1      3858 1.50518E-03 8.77557E-05-2.01236E-15
 -1      3859 1.50355E-03 5.31535E-05-2.00598E-15
 -1      3860 1.62698E-03 3.74132E-05-2.29684E-15
 -1      3861 2.37559E-03 2.62625E-04-4.44017E-15
 -1      3862 2.23092E-03 2.58769E-04-3.96399E-15
 -1      3863 2.44398E-03 2.27357E-04-4.69305E-15
 -1      3864 1.34556E-02-2.72961E-04-8.38965E-14
 -1      3865 1.35275E-02-3.30535E-04-8.54708E-14
 -1      3866 1.92025E-03-1.78697E-04-2.91057E-15
 -1      3867 1.50340E-03-5.02097E-05-1.97058E-15
 -1      3868 1.50494E-03-8.48662E-05-1.95295E-15
 -1      3869 1.62688E-03-3.43436E-05-2.26999E-15
 -1      3870 1.32354E-02-2.36654E-05-8.55785E-14
 -1      3871 1.34047E-02-5.63706E-05-8.71709E-14
 -1      3872 1.60275E-03-1.02513E-04-2.16809E-15
 -1      3873 1.38500E-02-8.88204E-05-9.27390E-14
 -1      3874 2.14496E-03 2.21383E-04-3.71262E-15
 -1      3875 8.26142E-03-1.19797E-04-4.60761E-14
 -1      3876 8.29093E-03-9.47115E-05-4.71806E-14
 -1      3877 8.22255E-03-7.80434E-05-4.65465E-14
 -1      3878 8.17635E-03-1.18697E-04-4.50000E-14
 -1      3879 8.97608E-03-3.34474E-04-5.01402E-14
 -1      3880 3.00549E-03-1.58998E-04-6.61942E-15
 -1      3881 3.15047E-03-1.59333E-04-7.21794E-15
 -1      3882 3.29531E-03-1.59448E-04-7.83984E-15
 -1      3883 3.43999E-03-1.59354E-04-8.48642E-15
 -1      3884 3.22142E-03-1.21592E-04-7.57032E-15
 -1      3885 3.58449E-03-1.59099E-04-9.15798E-15
 -1      3886 3.72881E-03-1.58685E-04-9.85323E-15
 -1      3887 3.51101E-03-1.21449E-04-8.86814E-15
 -1      3888 3.87294E-03-1.58148E-04-1.05721E-14
 -1      3889 4.01686E-03-1.57483E-04-1.13155E-14
 -1      3890 3.79985E-03-1.20804E-04-1.02625E-14
 -1      3891 4.16057E-03-1.56717E-04-1.20825E-14
 -1      3892 4.30406E-03-1.55842E-04-1.28734E-14
 -1      3893 4.08784E-03-1.19768E-04-1.17538E-14
 -1      3894 4.44731E-03-1.54876E-04-1.36875E-14
 -1      3895 4.59032E-03-1.53808E-04-1.45244E-14
 -1      3896 4.37488E-03-1.18403E-04-1.33401E-14
 -1      3897 4.73306E-03-1.52653E-04-1.53848E-14
 -1      3898 4.87552E-03-1.51393E-04-1.62690E-14
 -1      3899 4.66088E-03-1.16742E-04-1.50206E-14
 -1      3900 5.01768E-03-1.50046E-04-1.71746E-14
 -1      3901 5.15951E-03-1.48591E-04-1.81026E-14
 -1      3902 4.94570E-03-1.14789E-04-1.67919E-14
 -1      3903 5.30097E-03-1.47048E-04-1.90537E-14
 -1      3904 5.44205E-03-1.45394E-04-2.00264E-14
 -1      3905 5.22913E-03-1.12547E-04-1.86545E-14
 -1      3906 5.58268E-03-1.43654E-04-2.10215E-14
 -1      3907 5.72284E-03-1.41803E-04-2.20387E-14
 -1      3908 5.51093E-03-1.10015E-04-2.06064E-14
 -1      3909 5.86245E-03-1.39879E-04-2.30776E-14
 -1      3910 6.00150E-03-1.37853E-04-2.41381E-14
 -1      3911 5.79074E-03-1.07211E-04-2.26463E-14
 -1      3912 6.13987E-03-1.35780E-04-2.52181E-14
 -1      3913 6.27755E-03-1.33628E-04-2.63175E-14
 -1      3914 6.06814E-03-1.04184E-04-2.47712E-14
 -1      3915 6.41441E-03-1.31475E-04-2.74376E-14
 -1      3916 6.55040E-03-1.29282E-04-2.85767E-14
 -1      3917 6.34258E-03-1.01032E-04-2.69774E-14
 -1      3918 6.68541E-03-1.27155E-04-2.97344E-14
 -1      3919 6.81936E-03-1.25047E-04-3.09114E-14
 -1      3920 6.61342E-03-9.79155E-05-2.92600E-14
 -1      3921 6.95211E-03-1.23100E-04-3.21076E-14
 -1      3922 7.08359E-03-1.21243E-04-3.33229E-14
 -1      3923 6.87985E-03-9.50650E-05-3.16192E-14
 -1      3924 7.21359E-03-1.19662E-04-3.45565E-14
 -1      3925 7.34207E-03-1.18248E-04-3.58076E-14
 -1      3926 7.14091E-03-9.27781E-05-3.40525E-14
 -1      3927 7.46875E-03-1.17237E-04-3.70786E-14
 -1      3928 7.59359E-03-1.16450E-04-3.83655E-14
 -1      3929 7.39536E-03-9.13909E-05-3.65603E-14
 -1      3930 7.71620E-03-1.16196E-04-3.96701E-14
 -1      3931 7.83660E-03-1.16168E-04-4.09914E-14
 -1      3932 7.64160E-03-9.12174E-05-3.91377E-14
 -1      3933 7.95210E-03-1.16680E-04-4.23047E-14
 -1      3934 8.06707E-03-1.17348E-04-4.36572E-14
 -1      3935 8.09388E-03-9.47930E-05-4.44224E-14
 -1      3936 7.87540E-03-9.24018E-05-4.17612E-14
 -1      3937 3.09318E-03 1.96294E-04-7.20943E-15
 -1      3938 2.94831E-03 1.95700E-04-6.60539E-15
 -1      3939 1.36450E-02-7.02575E-05-9.02536E-14
 -1      3940 8.30156E-03 3.03289E-05-4.71217E-14
 -1      3941 8.39416E-03 6.22394E-05-4.77686E-14
 -1      3942 4.24648E-03 1.93258E-04-1.29478E-14
 -1      3943 4.10296E-03 1.94185E-04-1.21433E-14
 -1      3944 5.38624E-03 1.81418E-04-2.02331E-14
 -1      3945 5.24475E-03 1.83367E-04-1.92413E-14
 -1      3946 5.10294E-03 1.85162E-04-1.82733E-14
 -1      3947 4.96082E-03 1.86829E-04-1.73273E-14
 -1      3948 5.17250E-03 1.48695E-04-1.87123E-14
 -1      3949 5.94841E-03 1.72094E-04-2.44152E-14
 -1      3950 5.80849E-03 1.74674E-04-2.33377E-14
 -1      3951 6.22672E-03 1.66454E-04-2.66309E-14
 -1      3952 6.08782E-03 1.69365E-04-2.55126E-14
 -1      3953 6.01498E-03 1.37355E-04-2.49018E-14
 -1      3954 6.50279E-03 1.60177E-04-2.89251E-14
 -1      3955 6.36505E-03 1.63403E-04-2.77688E-14
 -1      3956 6.29164E-03 1.32403E-04-2.71323E-14
 -1      3957 6.77631E-03 1.53332E-04-3.12940E-14
 -1      3958 6.63987E-03 1.56832E-04-3.00993E-14
 -1      3959 6.56559E-03 1.26828E-04-2.94395E-14
 -1      3960 7.04705E-03 1.46050E-04-3.37393E-14
 -1      3961 6.91202E-03 1.49750E-04-3.25084E-14
 -1      3962 6.83643E-03 1.20643E-04-3.18228E-14
 -1      3963 7.31490E-03 1.38533E-04-3.62550E-14
 -1      3964 7.18130E-03 1.42321E-04-3.49892E-14
 -1      3965 7.10378E-03 1.13886E-04-3.42801E-14
 -1      3966 7.58004E-03 1.31062E-04-3.88397E-14
 -1      3967 7.44774E-03 1.34782E-04-3.75385E-14
 -1      3968 7.36734E-03 1.06611E-04-3.68078E-14
 -1      3969 7.84314E-03 1.24068E-04-4.14899E-14
 -1      3970 7.71170E-03 1.27469E-04-4.01576E-14
 -1      3971 7.62697E-03 9.88798E-05-3.94043E-14
 -1      3972 8.10573E-03 1.18340E-04-4.41970E-14
 -1      3973 7.97422E-03 1.20955E-04-4.28361E-14
 -1      3974 7.88292E-03 9.08030E-05-4.20639E-14
 -1      3975 8.37627E-03 1.05548E-04-4.71148E-14
 -1      3976 8.24441E-03 1.06754E-04-4.57241E-14
 -1      3977 1.51101E-03 1.58060E-04-2.01473E-15
 -1      3978 1.50766E-03 1.22710E-04-2.01504E-15
 -1      3979 1.63037E-03 1.09576E-04-2.31020E-15
 -1      3980 2.42468E-03-1.54471E-04-4.47724E-15
 -1      3981 2.56994E-03-1.56174E-04-4.97493E-15
 -1      3982 3.67122E-03 1.96153E-04-9.87754E-15
 -1      3983 3.52695E-03 1.96505E-04-9.17282E-15
 -1      3984 1.38883E-02-2.76450E-04-9.01416E-14
 -1      3985 1.38894E-02-2.49680E-04-9.03118E-14
 -1      3986 1.37863E-02-2.29264E-04-8.89537E-14
 -1      3987 1.54299E-03 2.47158E-04-2.04475E-15
 -1      3988 1.51541E-03 1.90765E-04-2.01283E-15
 -1      3989 1.63742E-03 1.79775E-04-2.31160E-15
 -1      3990 1.64806E-03 2.48364E-04-2.30102E-15
 -1      3991 1.70107E-03-1.20752E-04-2.39395E-15
 -1      3992 1.79985E-03-1.39468E-04-2.62962E-15
 -1      3993 1.72613E-03-8.76355E-05-2.48384E-15
 -1      3994 3.38251E-03 1.96659E-04-8.49269E-15
 -1      3995 3.23792E-03 1.96608E-04-7.83854E-15
 -1      3996 3.45311E-03 1.58821E-04-8.81704E-15
 -1      3997 1.94433E-03-1.43750E-04-3.01534E-15
 -1      3998 1.72386E-03-1.35926E-05-2.52225E-15
 -1      3999 1.72457E-03-5.05484E-05-2.50459E-15
 -1      4000 1.82272E-03-6.74281E-05-2.74966E-15
 -1      4001 3.95923E-03 1.94979E-04-1.13629E-14
 -1      4002 3.81532E-03 1.95644E-04-1.06074E-14
 -1      4003 4.02994E-03 1.57194E-04-1.17287E-14
 -1      4004 2.13435E-03-1.49527E-04-3.55976E-15
 -1      4005 2.27946E-03-1.52273E-04-4.00567E-15
 -1      4006 2.34979E-03-1.16971E-04-4.27079E-15
 -1      4007 1.35747E-02-1.26461E-04-8.78773E-14
 -1      4008 1.36534E-02-1.77024E-04-8.77864E-14
 -1      4009 2.21493E-03 1.86746E-04-3.94594E-15
 -1      4010 2.06072E-03 1.83944E-04-3.47057E-15
 -1      4011 5.66815E-03 1.77076E-04-2.22805E-14
 -1      4012 5.52738E-03 1.79331E-04-2.12461E-14
 -1      4013 5.73601E-03 1.41697E-04-2.27528E-14
 -1      4014 2.71520E-03-1.57467E-04-5.49806E-15
 -1      4015 2.86039E-03-1.58384E-04-6.04586E-15
 -1      4016 2.93119E-03-1.21065E-04-6.37032E-15
 -1      4017 1.35568E-02-8.11188E-05-8.87395E-14
 -1      4018 5.45508E-03 1.45461E-04-2.06889E-14
 -1      4019 4.38981E-03 1.92216E-04-1.37756E-14
 -1      4020 4.31711E-03 1.55683E-04-1.33326E-14
 -1      4021 4.53292E-03 1.91048E-04-1.46282E-14
 -1      4022 8.21454E-03 1.50945E-05-4.62727E-14
 -1      4023 8.18189E-03 4.32794E-05-4.56210E-14
 -1      4024 8.13480E-03 2.43694E-06-4.54270E-14
 -1      4025 1.36195E-02-3.05894E-04-8.64566E-14
 -1      4026 2.80333E-03 1.94753E-04-6.02703E-15
 -1      4027 2.65827E-03 1.93421E-04-5.47446E-15
 -1      4028 2.87352E-03 1.57682E-04-6.30703E-15
 -1      4029 8.12569E-03-7.57243E-05-4.51768E-14
 -1      4030 8.16378E-03-5.83147E-05-4.59433E-14
 -1      4031 8.11403E-03-3.84370E-05-4.53251E-14
 -1      4032 8.02289E-03-7.36690E-05-4.38302E-14
 -1      4033 4.88851E-03 1.51449E-04-1.68263E-14
 -1      4034 4.81844E-03 1.88357E-04-1.64045E-14
 -1      4035 4.67580E-03 1.89767E-04-1.55048E-14
 -1      4036 8.14334E-03 7.39322E-05-4.49321E-14
 -1      4037 1.37320E-02-2.86245E-04-8.79115E-14
 -1      4038 3.74192E-03 1.58269E-04-1.02229E-14
 -1      4039 1.36787E-02-2.03694E-04-8.76202E-14
 -1      4040 2.01428E-03-1.10652E-04-3.24525E-15
 -1      4041 1.95449E-03 1.87547E-04-3.15797E-15
 -1      4042 1.84845E-03 1.90420E-04-2.85956E-15
 -1      4043 2.02477E-03 1.54191E-04-3.37135E-15
 -1      4044 1.35548E-02-2.72598E-04-8.53108E-14
 -1      4045 2.64054E-03-1.19629E-04-5.26967E-15
 -1      4046 2.51316E-03 1.91611E-04-4.94772E-15
 -1      4047 2.36805E-03 1.89280E-04-4.44672E-15
 -1      4048 2.58307E-03 1.55442E-04-5.20397E-15
 -1      4049 2.28448E-03 1.52036E-04-4.17759E-15
 -1      4050 1.72494E-03 6.01474E-05-2.54698E-15
 -1      4051 1.72399E-03 2.32467E-05-2.53645E-15
 -1      4052 1.82142E-03 8.23737E-06-2.78649E-15
 -1      4053 1.36909E-02-2.28608E-04-8.74530E-14
 -1      4054 1.36560E-02-2.55045E-04-8.67588E-14
 -1      4055 1.31820E-02 1.06770E-05-8.56243E-14
 -1      4056 3.16360E-03 1.58701E-04-7.51156E-15
 -1      4057 1.36937E-02-2.72161E-04-8.73323E-14
 -1      4058 3.43772E-03-8.36963E-05-8.57786E-15
 -1      4059 3.58242E-03-8.35384E-05-9.25362E-15
 -1      4060 3.72691E-03-8.33063E-05-9.95285E-15
 -1      4061 3.87119E-03-8.29951E-05-1.06765E-14
 -1      4062 3.65415E-03-4.56663E-05-9.64241E-15
 -1      4063 4.01523E-03-8.26265E-05-1.14243E-14
 -1      4064 4.15903E-03-8.21923E-05-1.21961E-14
 -1      4065 3.94278E-03-4.52971E-05-1.10943E-14
 -1      4066 4.30258E-03-8.17103E-05-1.29924E-14
 -1      4067 4.44587E-03-8.11698E-05-1.38120E-14
 -1      4068 4.23043E-03-4.47924E-05-1.26431E-14
 -1      4069 4.58886E-03-8.05868E-05-1.46544E-14
 -1      4070 4.73156E-03-7.99486E-05-1.55205E-14
 -1      4071 4.51700E-03-4.41738E-05-1.42872E-14
 -1      4072 4.87394E-03-7.92673E-05-1.64093E-14
 -1      4073 5.01596E-03-7.85291E-05-1.73202E-14
 -1      4074 4.80237E-03-4.34532E-05-1.60242E-14
 -1      4075 5.15761E-03-7.77570E-05-1.82549E-14
 -1      4076 5.29884E-03-7.69287E-05-1.92117E-14
 -1      4077 5.08634E-03-4.26417E-05-1.78533E-14
 -1      4078 5.43962E-03-7.60659E-05-2.01903E-14
 -1      4079 5.57991E-03-7.51506E-05-2.11915E-14
 -1      4080 5.36867E-03-4.17540E-05-1.97728E-14
 -1      4081 5.71964E-03-7.42125E-05-2.22133E-14
 -1      4082 5.85879E-03-7.32295E-05-2.32575E-14
 -1      4083 5.64905E-03-4.08133E-05-2.17792E-14
 -1      4084 5.99726E-03-7.22440E-05-2.43227E-14
 -1      4085 6.13500E-03-7.12291E-05-2.54081E-14
 -1      4086 5.92707E-03-3.98658E-05-2.38718E-14
 -1      4087 6.27193E-03-7.02449E-05-2.65150E-14
 -1      4088 6.40797E-03-6.92575E-05-2.76402E-14
 -1      4089 6.20223E-03-3.89866E-05-2.60499E-14
 -1      4090 6.54301E-03-6.83508E-05-2.87841E-14
 -1      4091 6.67698E-03-6.74792E-05-2.99469E-14
 -1      4092 6.47390E-03-3.82916E-05-2.83060E-14
 -1      4093 6.80972E-03-6.67578E-05-3.11301E-14
 -1      4094 6.94116E-03-6.61208E-05-3.23314E-14
 -1      4095 6.74133E-03-3.79473E-05-3.06380E-14
 -1      4096 7.07109E-03-6.57249E-05-3.35488E-14
 -1      4097 7.19941E-03-6.54666E-05-3.47864E-14
 -1      4098 7.00360E-03-3.81776E-05-3.30446E-14
 -1      4099 7.32587E-03-6.55611E-05-3.60427E-14
 -1      4100 7.45032E-03-6.58318E-05-3.73151E-14
 -1      4101 7.25955E-03-3.92636E-05-3.55236E-14
 -1      4102 7.57241E-03-6.65868E-05-3.86072E-14
 -1      4103 7.69194E-03-6.75051E-05-3.99154E-14
 -1      4104 7.50759E-03-4.15316E-05-3.80738E-14
 -1      4105 6.62836E-03 9.43818E-05-2.99515E-14
 -1      4106 6.49286E-03 9.68548E-05-2.87827E-14
 -1      4107 5.52390E-03 1.09989E-04-2.11427E-14
 -1      4108 5.38320E-03 1.11366E-04-2.01354E-14
 -1      4109 2.27545E-03-7.99389E-05-4.06480E-15
 -1      4110 2.42084E-03-8.11146E-05-4.54060E-15
 -1      4111 2.85722E-03-8.32159E-05-6.12111E-15
 -1      4112 3.00255E-03-8.35322E-05-6.69857E-15
 -1      4113 6.35652E-03 9.91451E-05-2.76318E-14
 -1      4114 6.21938E-03 1.01307E-04-2.64988E-14
 -1      4115 6.42153E-03 6.67082E-05-2.81281E-14
 -1      4116 6.08152E-03 1.03302E-04-2.53864E-14
 -1      4117 5.94298E-03 1.05176E-04-2.42947E-14
 -1      4118 6.14814E-03 6.99622E-05-2.58695E-14
 -1      4119 6.89652E-03 8.89658E-05-3.23488E-14
 -1      4120 6.76291E-03 9.17734E-05-3.11401E-14
 -1      4121 6.69130E-03 6.28672E-05-3.04624E-14
 -1      4122 7.16045E-03 8.28429E-05-3.48183E-14
 -1      4123 7.02901E-03 8.60142E-05-3.35748E-14
 -1      4124 6.95682E-03 5.83336E-05-3.28713E-14
 -1      4125 7.41959E-03 7.59341E-05-3.73568E-14
 -1      4126 7.29060E-03 7.95136E-05-3.60793E-14
 -1      4127 7.21734E-03 5.29672E-05-3.53543E-14
 -1      4128 7.67339E-03 6.81028E-05-3.99666E-14
 -1      4129 7.54711E-03 7.21719E-05-3.86541E-14
 -1      4130 7.47200E-03 4.65723E-05-3.79065E-14
 -1      4131 7.92144E-03 5.91780E-05-4.26367E-14
 -1      4132 7.79801E-03 6.38057E-05-4.12934E-14
 -1      4133 7.71969E-03 3.88618E-05-4.05250E-14
 -1      4134 2.01237E-03-7.12033E-05-3.27233E-15
 -1      4135 1.71078E-03 2.17949E-04-2.48022E-15
 -1      4136 3.14777E-03-8.37094E-05-7.30071E-15
 -1      4137 3.29283E-03-8.37531E-05-7.92659E-15
 -1      4138 3.07442E-03-4.58360E-05-7.03044E-15
 -1      4139 5.80384E-03 1.06899E-04-2.32235E-14
 -1      4140 5.66412E-03 1.08511E-04-2.21727E-14
 -1      4141 5.87172E-03 7.27133E-05-2.36915E-14
 -1      4142 3.52412E-03 1.20941E-04-9.14134E-15
 -1      4143 3.37942E-03 1.21031E-04-8.46553E-15
 -1      4144 2.56631E-03-8.20360E-05-5.04233E-15
 -1      4145 2.71179E-03-8.27217E-05-5.56930E-15
 -1      4146 2.49257E-03-4.47545E-05-4.81554E-15
 -1      4147 4.10088E-03 1.19518E-04-1.20939E-14
 -1      4148 3.95702E-03 1.20018E-04-1.13184E-14
 -1      4149 3.81293E-03 1.20422E-04-1.05677E-14
 -1      4150 3.66863E-03 1.20739E-04-9.84195E-15
 -1      4151 3.59549E-03 8.30680E-05-9.46560E-15
 -1      4152 3.88422E-03 8.26584E-05-1.09128E-14
 -1      4153 3.23454E-03 1.20973E-04-7.81447E-15
 -1      4154 3.08950E-03 1.20765E-04-7.18863E-15
 -1      4155 3.30592E-03 8.31602E-05-8.11817E-15
 -1      4156 5.24207E-03 1.12625E-04-1.91505E-14
 -1      4157 5.10053E-03 1.13793E-04-1.81876E-14
 -1      4158 5.31169E-03 7.69829E-05-1.95867E-14
 -1      4159 8.05416E-03 5.67911E-05-4.40982E-14
 -1      4160 2.35709E-03 1.16446E-04-4.41860E-15
 -1      4161 2.20372E-03 1.15032E-04-3.92084E-15
 -1      4162 1.95234E-03-1.38143E-05-3.13673E-15
 -1      4163 2.14314E-03-5.55653E-05-3.67134E-15
 -1      4164 2.21509E-03-2.03112E-05-3.91642E-15
 -1      4165 1.95247E-03 2.50041E-05-3.15344E-15
 -1      4166 4.60333E-03 1.53768E-04-1.50321E-14
 -1      4167 7.80528E-03-6.94571E-05-4.11992E-14
 -1      4168 7.91653E-03-7.09964E-05-4.25162E-14
 -1      4169 7.96105E-03-5.16303E-05-4.32562E-14
 -1      4170 7.74219E-03-4.56814E-05-4.06536E-14
 -1      4171 7.96937E-03 3.14270E-05-4.33111E-14
 -1      4172 8.06311E-03-1.71059E-05-4.46370E-14
 -1      4173 8.01825E-03 6.23877E-06-4.39973E-14
 -1      4174 7.89429E-03 9.62952E-06-4.25363E-14
 -1      4175 8.00501E-03-3.51209E-05-4.38968E-14
 -1      4176 2.94432E-03 1.20359E-04-6.58778E-15
 -1      4177 2.79904E-03 1.19748E-04-6.01185E-15
 -1      4178 3.01566E-03 8.28359E-05-6.86936E-15
 -1      4179 5.59277E-03 7.50328E-05-2.15962E-14
 -1      4180 5.02883E-03 7.86118E-05-1.76665E-14
 -1      4181 4.95864E-03 1.14856E-04-1.72470E-14
 -1      4182 4.81640E-03 1.15841E-04-1.63295E-14
 -1      4183 1.75636E-03 1.32225E-04-2.62823E-15
 -1      4184 1.75377E-03 9.46536E-05-2.62419E-15
 -1      4185 1.77978E-03 1.87357E-04-2.67523E-15
 -1      4186 1.77567E-03 1.52495E-04-2.67513E-15
 -1      4187 2.65367E-03 1.18870E-04-5.46136E-15
 -1      4188 2.50828E-03 1.17714E-04-4.93696E-15
 -1      4189 2.72490E-03 8.19500E-05-5.72051E-15
 -1      4190 2.78362E-03-4.55021E-05-5.87287E-15
 -1      4191 4.24451E-03 1.18944E-04-1.28940E-14
 -1      4192 4.17203E-03 8.19916E-05-1.24582E-14
 -1      4193 4.38789E-03 1.18283E-04-1.37163E-14
 -1      4194 1.85062E-03 8.10928E-05-2.88199E-15
 -1      4195 3.36466E-03-4.58642E-05-8.28742E-15
 -1      4196 2.42812E-03 8.05791E-05-4.65391E-15
 -1      4197 3.91309E-03 1.86251E-05-1.10102E-14
 -1      4198 4.05711E-03 1.85876E-05-1.17711E-14
 -1      4199 4.20087E-03 1.85221E-05-1.25571E-14
 -1      4200 4.34436E-03 1.84560E-05-1.33675E-14
 -1      4201 4.73099E-03-7.35238E-06-1.56377E-14
 -1      4202 4.87333E-03-7.26794E-06-1.65324E-14
 -1      4203 5.05716E-03 1.78320E-05-1.77672E-14
 -1      4204 5.19863E-03 1.76534E-05-1.87163E-14
 -1      4205 5.33965E-03 1.74256E-05-1.96861E-14
 -1      4206 5.48020E-03 1.71843E-05-2.06796E-14
 -1      4207 5.62023E-03 1.68790E-05-2.16956E-14
 -1      4208 5.75968E-03 1.65533E-05-2.27313E-14
 -1      4209 5.89850E-03 1.61417E-05-2.37891E-14
 -1      4210 6.03662E-03 1.56998E-05-2.48673E-14
 -1      4211 6.17398E-03 1.51423E-05-2.59665E-14
 -1      4212 6.31051E-03 1.45408E-05-2.70863E-14
 -1      4213 6.44611E-03 1.37828E-05-2.82238E-14
 -1      4214 6.58070E-03 1.29624E-05-2.93807E-14
 -1      4215 6.71419E-03 1.19305E-05-3.05564E-14
 -1      4216 6.84646E-03 1.08120E-05-3.17516E-14
 -1      4217 6.97740E-03 9.40750E-06-3.29658E-14
 -1      4218 7.10686E-03 7.88723E-06-3.41962E-14
 -1      4219 7.23472E-03 5.97936E-06-3.54448E-14
 -1      4220 7.36077E-03 3.92583E-06-3.67113E-14
 -1      4221 7.48488E-03 1.34381E-06-3.79950E-14
 -1      4222 7.60673E-03-1.39628E-06-3.92971E-14
 -1      4223 7.72619E-03-4.86348E-06-4.06141E-14
 -1      4224 1.89907E-03 1.37305E-04-3.01377E-15
 -1      4225 2.00547E-03 1.33158E-04-3.31807E-15
 -1      4226 3.62435E-03 1.86691E-05-9.56039E-15
 -1      4227 3.76884E-03 1.86623E-05-1.02730E-14
 -1      4228 3.04438E-03 1.85324E-05-6.95593E-15
 -1      4229 3.18964E-03 1.86101E-05-7.56982E-15
 -1      4230 2.75350E-03 1.83038E-05-5.80269E-15
 -1      4231 2.89899E-03 1.84447E-05-6.36657E-15
 -1      4232 3.33473E-03 1.86445E-05-8.20868E-15
 -1      4233 3.47964E-03 1.86746E-05-8.87254E-15
 -1      4234 2.46241E-03 1.79184E-05-4.75000E-15
 -1      4235 2.60796E-03 1.81436E-05-5.26337E-15
 -1      4236 4.67385E-03 1.16733E-04-1.54357E-14
 -1      4237 4.53101E-03 1.17551E-04-1.45640E-14
 -1      4238 4.45882E-03 8.10967E-05-1.41010E-14
 -1      4239 2.13114E-03 7.79755E-05-3.69263E-15
 -1      4240 2.05811E-03 1.12456E-04-3.47481E-15
 -1      4241 2.31109E-03 1.79616E-05-4.24288E-15
 -1      4242 1.93263E-03 9.65833E-05-3.11040E-15
 -1      4243 1.90370E-03 6.07896E-05-3.02570E-15
 -1      4244 2.03419E-03 3.97001E-05-3.39393E-15
 -1      4245 4.48757E-03 1.83621E-05-1.42010E-14
 -1      4246 4.63048E-03 1.82668E-05-1.50573E-14
 -1      4247 7.83934E-03-8.68463E-06-4.19073E-14
 -1      4248 4.70208E-03 5.45668E-05-1.55433E-14
 -1      4249 2.17983E-03 4.07575E-05-3.83386E-15
 -1      4250 4.98660E-03 5.36616E-05-1.73549E-14
 -1      4251 7.89892E-03-3.09790E-05-4.25812E-14
 -1      4252 4.74447E-03 7.99752E-05-1.58374E-14
 -1      4253 4.84451E-03 5.41362E-05-1.64372E-14
 -3
    1PSTEP                         2           1           1          
  100CL  101 1.000000000        4253                     0    1           1
 -4  STRESS      6    1
 -5  SXX         1    4    1    1
 -5  SYY         1    4    2    2
 -5  SZZ         1    4    3    3
 -5  SXY         1    4    1    2
 -5  SYZ         1    4    2    3
 -5  SZX         1    4    3    1
 -1         1 5.27040E+01 5.87993E+00 2.93254E+00-1.64296E+01 1.68976E-13-3.78808E-13
 -1         2-7.43186E-01-2.50800E+01-3.43316E+00-1.16675E-01 1.88287E-14-6.91218E-14
 -1         3 1.99796E+01-2.16158E-02 4.11724E-02-2.14195E-02-3.92522E-13-3.72786E-13
 -1         4 1.99759E+01-2.47423E-02 5.19436E-02 2.49265E-02 8.07514E-14 8.71178E-14
 -1         5 3.27660E+01 6.14228E+00 2.74254E+00 6.22425E+00-2.56600E-14 2.24376E-12
 -1         6 3.57503E+01 1.22628E+01 5.12557E+00-8.64665E+00-1.22569E-13 2.78899E-12
 -1         7 2.08162E+01 6.09899E+00-1.28811E-01-4.72615E+00-1.71946E-14 8.19358E-13
 -1         8 1.96700E+01 5.93443E+00 5.09081E-02-3.27585E+00-3.61378E-14 1.29008E-13
 -1         9 1.91360E+01 5.77159E+00 4.90778E-02-2.52786E+00-3.29476E-14-2.72796E-13
 -1        10 1.88953E+01 5.69211E+00 5.10782E-02-1.95271E+00-2.52489E-14-5.01489E-13
 -1        11 1.87747E+01 5.65150E+00 5.03054E-02-1.45731E+00-2.21529E-14-6.26869E-13
 -1        12 1.87118E+01 5.63007E+00 4.88039E-02-1.01613E+00-1.41853E-14-6.93773E-13
 -1        13 1.86788E+01 5.61882E+00 4.74926E-02-5.96002E-01-9.52439E-15-7.32686E-13
 -1        14 1.86650E+01 5.61407E+00 4.67817E-02-1.91433E-01-6.38747E-15-7.73261E-13
 -1        15 1.86655E+01 5.61423E+00 4.68241E-02 2.08424E-01-2.01504E-15-7.99781E-13
 -1        16 1.86803E+01 5.61930E+00 4.76375E-02 6.13830E-01 1.08420E-15-8.16218E-13
 -1        17 1.87145E+01 5.63084E+00 4.91390E-02 1.03597E+00 2.36725E-15-8.26770E-13
 -1        18 1.87786E+01 5.65265E+00 5.08703E-02 1.48032E+00 9.39786E-15-8.04727E-13
 -1        19 1.89009E+01 5.69375E+00 5.15535E-02 1.98160E+00 1.75814E-14-7.42999E-13
 -1        20 1.91414E+01 5.77418E+00 4.87677E-02 2.56518E+00 2.51882E-14-6.04786E-13
 -1        21 1.96654E+01 5.94902E+00 4.58569E-02 3.30992E+00 3.30153E-14-2.87934E-13
 -1        22 2.11991E+01 6.38079E+00 1.39597E-01 4.52367E+00 8.89566E-15 4.33690E-13
 -1        23 2.30264E+01-1.37902E+00-9.38253E-01-7.11373E-01-8.27602E-14 2.33760E-12
 -1        24 1.93626E+01-9.94884E-02-3.09845E-01 6.31806E-02-3.39598E-14 1.93153E-12
 -1        25 1.86731E+01-5.63185E-02-6.87753E-02 6.06915E-02-8.06668E-15 1.49242E-12
 -1        26 1.84694E+01-2.20812E-02-6.45720E-03 3.29265E-02-1.34325E-14 1.16106E-12
 -1        27 1.84793E+01-1.17965E-02 1.60638E-03 2.25536E-02 6.84598E-15 9.86031E-13
 -1        28 1.85919E+01-6.23747E-03 1.81626E-03 1.62367E-02 1.63546E-15 8.84806E-13
 -1        29 1.87500E+01-3.09295E-03 1.75113E-03 1.20630E-02-1.43720E-14 7.33762E-13
 -1        30 1.89224E+01-1.25604E-03 1.92213E-03 9.07854E-03-9.62458E-15 5.75630E-13
 -1        31 1.90917E+01-1.89608E-04 2.06301E-03 6.82502E-03 1.29736E-14 5.05117E-13
 -1        32 1.92482E+01 3.93511E-04 2.06160E-03 5.07023E-03-5.79582E-14 3.27222E-13
 -1        33 1.93879E+01 6.58250E-04 1.91995E-03 3.68506E-03 1.28013E-14 1.56586E-13
 -1        34 1.95096E+01 7.04520E-04 1.66918E-03 2.58967E-03 4.46418E-15 2.02939E-13
 -1        35 1.96148E+01 5.94293E-04 1.33634E-03 1.73050E-03 8.35818E-15 1.95670E-13
 -1        36 1.97065E+01 3.65219E-04 9.36745E-04 1.07067E-03 1.12251E-15 2.77936E-13
 -1        37 1.97893E+01 3.81589E-05 4.73941E-04 5.86355E-04-4.13703E-14 4.14357E-13
 -1        38 1.98685E+01-3.78066E-04-5.89954E-05 2.66192E-04-7.13234E-15 3.58853E-13
 -1        39 1.99508E+01-8.83133E-04-6.78020E-04 1.12294E-04 6.23821E-15 2.59612E-13
 -1        40 2.00440E+01-1.48192E-03-1.40667E-03 1.42576E-04 5.26412E-14 3.46634E-13
 -1        41 2.01574E+01-2.18061E-03-2.27404E-03 3.94245E-04 2.02781E-14 2.68837E-13
 -1        42 2.03019E+01-2.98110E-03-3.31108E-03 9.28448E-04 3.15281E-14 3.00164E-13
 -1        43 2.04903E+01-3.87211E-03-4.54308E-03 1.83578E-03-4.54878E-14 3.42714E-13
 -1        44 2.07372E+01-4.81467E-03-5.97401E-03 3.24133E-03 1.07292E-14 3.40712E-13
 -1        45 2.10591E+01-5.71830E-03-7.55462E-03 5.30539E-03-4.73176E-14 2.89235E-13
 -1        46 2.14729E+01-6.40413E-03-9.12036E-03 8.21012E-03 6.66155E-14 2.07338E-13
 -1        47 2.19936E+01-6.55263E-03-1.02790E-02 1.21108E-02-3.73981E-14 3.01279E-13
 -1        48 2.26294E+01-5.64313E-03-1.02287E-02 1.70094E-02-4.77729E-14 4.77066E-14
 -1        49 2.33725E+01-2.91778E-03-7.52360E-03 2.24811E-02-1.38557E-14-7.25921E-14
 -1        50 2.41843E+01 2.53893E-03 7.34943E-05 2.71651E-02 3.85508E-14-2.34916E-14
 -1        51 2.49744E+01 1.14293E-02 1.52316E-02 2.80089E-02-8.54980E-15 4.20002E-13
 -1        52 2.55782E+01 2.33254E-02 3.93048E-02 1.95916E-02-1.76582E-14 7.27972E-13
 -1        53 2.57502E+01 3.52502E-02 6.83633E-02-5.19592E-03-2.30820E-14 7.96664E-13
 -1        54 2.52099E+01 4.05450E-02 8.80313E-02-5.04903E-02-2.90566E-17 6.31762E-13
 -1        55 2.37820E+01 3.07416E-02 7.48901E-02-1.07986E-01-5.08300E-14 2.95965E-13
 -1        56 2.16190E+01 1.94751E-03 1.13175E-02-1.48520E-01 1.25047E-13 3.69288E-13
 -1        57 1.93562E+01-3.64064E-02-8.41142E-02-1.32743E-01 1.24250E-15 4.26249E-13
 -1        58 1.79318E+01-6.28728E-02-1.55878E-01-4.76545E-02-1.73121E-14 2.65701E-13
 -1        59 1.80410E+01-5.95792E-02-1.46809E-01 6.68981E-02 6.54615E-14 2.06186E-13
 -1        60 1.96001E+01-2.87943E-02-6.45858E-02 1.40314E-01-7.41920E-15 4.76355E-14
 -1        61 2.18103E+01 9.43043E-03 2.87285E-02 1.42455E-01 1.51702E-13 5.00572E-14
 -1        62 2.37506E+01 3.50612E-02 8.27482E-02 9.49063E-02-4.77602E-14 9.45598E-14
 -1        63 2.48736E+01 4.15809E-02 8.81379E-02 3.74242E-02-1.31364E-13-3.58010E-13
 -1        64 2.51035E+01 3.43391E-02 6.52117E-02-5.09543E-03-2.97477E-14-9.81056E-13
 -1        65 2.46494E+01 2.17462E-02 3.64548E-02-2.76275E-02 1.81968E-14-6.92339E-13
 -1        66 2.37941E+01 9.54077E-03 1.34356E-02-3.54224E-02-1.29723E-14-5.28745E-13
 -1        67 2.27779E+01-1.08881E-04-1.93973E-03-3.51701E-02 1.50987E-13-4.32973E-13
 -1        68 2.17717E+01-7.34050E-03-1.26048E-02-3.11121E-02 4.06229E-15-3.93990E-14
 -1        69 2.08963E+01-1.28731E-02-2.22329E-02-2.41203E-02 1.30784E-13-2.10079E-13
 -1        70 2.02581E+01-1.43318E-02-2.88781E-02-9.29427E-03 2.88351E-14 4.36037E-13
 -1        71 1.99678E+01 3.21163E-03-9.46207E-03 1.29128E-02-2.30974E-14 3.11373E-13
 -1        72 2.10390E+01-4.04855E-01-9.80339E-01-3.11487E-01 5.70377E-14 1.89648E-12
 -1        73 1.93270E+01-6.58802E-02-2.91138E-01-5.38008E-02 1.78902E-14 1.24576E-12
 -1        74 1.86825E+01-2.05022E-02-6.42684E-02-2.03230E-02 1.40435E-14 7.88569E-13
 -1        75 1.84785E+01-9.87589E-03-9.29709E-03-1.54168E-02 5.54884E-15 4.83114E-13
 -1        76 1.84883E+01-5.16489E-03 6.98110E-04-1.23360E-02 5.74535E-15 2.31221E-13
 -1        77 1.86001E+01-2.61917E-03 1.76281E-03-1.00486E-02-6.00212E-15 1.12947E-13
 -1        78 1.87572E+01-1.15943E-03 1.89536E-03-8.28308E-03 5.03949E-15-2.23779E-16
 -1        79 1.89286E+01-3.11513E-04 2.07488E-03-6.81510E-03 8.93339E-15-1.18385E-13
 -1        80 1.90969E+01 1.63207E-04 2.19050E-03-5.54003E-03 6.43681E-16-1.85660E-13
 -1        81 1.92527E+01 3.97834E-04 2.16312E-03-4.41318E-03-6.53986E-16-3.02153E-13
 -1        82 1.93917E+01 4.70981E-04 1.99704E-03-3.41492E-03 3.25856E-14-4.43156E-13
 -1        83 1.95128E+01 4.31089E-04 1.72286E-03-2.53293E-03-3.78414E-15-5.51253E-13
 -1        84 1.96177E+01 3.08145E-04 1.36749E-03-1.75670E-03 2.79889E-15-6.95623E-13
 -1        85 1.97092E+01 1.20121E-04 9.46688E-04-1.07665E-03 1.49709E-14-7.96465E-13
 -1        86 1.97919E+01-1.23037E-04 4.65314E-04-4.85313E-04 1.71801E-14-9.45810E-13
 -1        87 1.98711E+01-4.16411E-04-8.05427E-05 2.05293E-05-8.12691E-15-1.00509E-12
 -1        88 1.99532E+01-7.57315E-04-7.00887E-04 4.36776E-04-2.31129E-14-9.11494E-13
 -1        89 2.00457E+01-1.14210E-03-1.40839E-03 7.48170E-04 5.05721E-14-9.52149E-13
 -1        90 2.01572E+01-1.56197E-03-2.21347E-03 9.23447E-04-2.98023E-14-8.40817E-13
 -1        91 2.02972E+01-1.99712E-03-3.11642E-03 9.09327E-04-6.70735E-15-7.91978E-13
 -1        92 2.04764E+01-2.40842E-03-4.09466E-03 6.23573E-04 9.33658E-15-7.41572E-13
 -1        93 2.07058E+01-2.72586E-03-5.08154E-03-5.17396E-05-3.61307E-14-9.14742E-13
 -1        94 2.09960E+01-2.83388E-03-5.93252E-03-1.27333E-03 3.41480E-14-1.18215E-12
 -1        95 2.13553E+01-2.55573E-03-6.37405E-03-3.22800E-03-3.24230E-14-1.31225E-12
 -1        96 2.17863E+01-1.64471E-03-5.93553E-03-6.09499E-03-3.66725E-14-1.00605E-12
 -1        97 2.22808E+01 1.99272E-04-3.88242E-03-9.94865E-03 5.54136E-15-8.20921E-13
 -1        98 2.28123E+01 3.25226E-03 7.86920E-04-1.45559E-02-8.69513E-15-8.00431E-13
 -1        99 2.33262E+01 7.57479E-03 9.13175E-03-1.90264E-02 8.03134E-15-8.79021E-13
 -1       100 2.37311E+01 1.26650E-02 2.15986E-02-2.13537E-02-4.97583E-14-6.19645E-13
 -1       101 2.38962E+01 1.70502E-02 3.67178E-02-1.81372E-02-2.83909E-15-8.00825E-13
 -1       102 2.36688E+01 1.81601E-02 4.94670E-02-5.23055E-03-5.60483E-14-8.83446E-13
 -1       103 2.29252E+01 1.31428E-02 5.09050E-02 1.96934E-02 1.99834E-14-5.17647E-13
 -1       104 2.16582E+01 9.94610E-04 3.13593E-02 5.28359E-02-3.84946E-14-1.94112E-13
 -1       105 2.00702E+01-1.48155E-02-1.07389E-02 8.05922E-02-1.43584E-14-3.34767E-14
 -1       106 1.85888E+01-2.70982E-02-6.13678E-02 8.43318E-02-8.91255E-14-2.87829E-13
 -1       107 1.77254E+01-2.91194E-02-9.36347E-02 5.42125E-02 7.09328E-15-6.03394E-13
 -1       108 1.78112E+01-2.00378E-02-8.70656E-02 6.14873E-04 5.14849E-14-9.36817E-13
 -1       109 1.87918E+01-5.26607E-03-4.56018E-02-4.99010E-02 7.74478E-15-1.16492E-12
 -1       110 2.02574E+01 8.24909E-03 5.23877E-03-7.51474E-02-4.71678E-14-9.17069E-13
 -1       111 2.16894E+01 1.61794E-02 4.18999E-02-7.17939E-02 6.25424E-14-3.57332E-13
 -1       112 2.27066E+01 1.78205E-02 5.49172E-02-5.07215E-02-1.11383E-13-1.31029E-13
 -1       113 2.31628E+01 1.49985E-02 4.92433E-02-2.54243E-02 1.32399E-13 1.58114E-13
 -1       114 2.31042E+01 1.00723E-02 3.46274E-02-4.33690E-03-4.62599E-14-5.44250E-14
 -1       115 2.26731E+01 4.79806E-03 1.88846E-02 9.94316E-03 4.46158E-14-2.92454E-13
 -1       116 2.20310E+01-1.66330E-05 5.38994E-03 1.82486E-02-2.66992E-14-5.92322E-13
 -1       117 2.13217E+01-4.22062E-03-6.02453E-03 2.22915E-02 8.27029E-14-9.82256E-13
 -1       118 2.06665E+01-7.63856E-03-1.67029E-02 2.28148E-02 3.91190E-14-1.18519E-12
 -1       119 2.01790E+01-8.76648E-03-2.39072E-02 1.68077E-02-3.86187E-14-1.40974E-12
 -1       120 1.99743E+01 8.95714E-03-3.63873E-03-5.00116E-03 2.03278E-13-1.15488E-12
 -1       121 1.99985E+01-1.20560E-02-4.70351E-03-1.24136E-02-1.18482E-12-5.05889E-14
 -1       122 1.99877E+01 1.97686E-01-2.32970E-02 8.06078E-03-8.82946E-13 1.52902E-14
 -1       123 1.99910E+01 6.87128E-01-1.64480E-02 1.93328E-02-7.33398E-14-1.78377E-14
 -1       124 1.99960E+01 1.34223E+00-6.95198E-03 2.43192E-02-3.35060E-13 4.46461E-13
 -1       125 2.00017E+01 2.06437E+00 2.14769E-03 2.53855E-02-1.20764E-13-1.50301E-13
 -1       126 2.00076E+01 2.74756E+00 1.07762E-02 2.32964E-02-7.77430E-13 1.46471E-13
 -1       127 2.00126E+01 3.31925E+00 1.85148E-02 1.77188E-02-8.60969E-14 5.18603E-14
 -1       128 2.00162E+01 3.68155E+00 2.42053E-02 9.01151E-03-2.67739E-13-2.28513E-13
 -1       129 2.00175E+01 3.77213E+00 2.64528E-02-1.69638E-03 2.17771E-13 2.26955E-13
 -1       130 2.00162E+01 3.56740E+00 2.45340E-02-1.26464E-02 2.94201E-13-1.84857E-13
 -1       131 2.00120E+01 3.09018E+00 1.85191E-02-2.22498E-02-3.34194E-15-4.51244E-14
 -1       132 2.00061E+01 2.41924E+00 9.48093E-03-2.80466E-02-2.71748E-13 1.52577E-13
 -1       133 1.99989E+01 1.63244E+00-2.48663E-03-3.00708E-02-5.36838E-13-2.50857E-14
 -1       134 1.99898E+01 8.62185E-01-1.77949E-02-2.82186E-02 8.98353E-14 2.14950E-13
 -1       135 1.99881E+01 2.69780E-01-2.42533E-02-1.83893E-02 2.61537E-13-1.81548E-13
 -1       136 1.99875E+01 4.58136E-05-5.39588E-03 2.76523E-02-3.09250E-13-7.34665E-14
 -1       137-1.43487E+00-2.01041E+01-3.11589E+00-3.78516E+00 4.83363E-13 3.30347E-13
 -1       138-1.47820E+00-8.45009E+00-2.25568E+00-2.90016E+00 3.76310E-13 5.95357E-14
 -1       139 3.56023E+00 3.77063E+00-9.87174E-01 4.08031E+00 3.26572E-13 3.34122E-13
 -1       140 1.86067E+01 1.09508E+01 6.67689E-01 1.40402E+01 5.57221E-13 9.72278E-13
 -1       141 3.76497E+01 9.62768E+00 2.02097E+00 1.85193E+01 3.39562E-13 2.69507E-13
 -1       142 5.64764E+01 4.39701E+00 3.08212E+00 1.44766E+01-9.47298E-14-3.32845E-13
 -1       143 6.60192E+01 8.83112E-01 3.55846E+00 2.47351E+00-3.03403E-14-2.89560E-13
 -1       144 6.11568E+01 2.77409E+00 3.32045E+00-1.06114E+01 1.06659E-13-5.60441E-13
 -1       145 4.35556E+01 8.04308E+00 2.35747E+00-1.78952E+01 3.68899E-13-9.13158E-13
 -1       146 2.38174E+01 1.10058E+01 1.03833E+00-1.59260E+01 4.74676E-13-8.49321E-13
 -1       147 8.02601E+00 7.43527E+00-3.83392E-01-7.79056E+00 8.26617E-13-6.59861E-13
 -1       148-2.18807E-01-3.00353E+00-1.77106E+00 5.70536E-01 1.36263E-12-6.02185E-13
 -1       149-1.76164E+00-1.60079E+01-2.80537E+00 4.05155E+00 2.07273E-12-6.22585E-13
 -1       150-8.54697E-01-2.39544E+01-3.31374E+00 1.54798E+00 1.05892E-12-1.55886E-13
 -1       151-1.01777E+00-2.27662E+01-3.25225E+00-2.85062E+00-2.77500E-13-1.24679E-13
 -1       152-1.96458E+00-1.37913E+01-2.70126E+00-4.27636E+00-1.97165E-12-7.85594E-13
 -1       153 6.60111E-01-9.12118E-01-1.61354E+00 6.25307E-01-2.75524E-12-1.86967E-12
 -1       154 1.05910E+01 8.40067E+00-1.85935E-01 9.50810E+00-2.41335E-12-2.36405E-12
 -1       155 3.07653E+01 1.04579E+01 1.51123E+00 1.74204E+01-1.10562E-12-1.66095E-12
 -1       156 5.07813E+01 6.20175E+00 2.80328E+00 1.64424E+01-3.42115E-13-9.01057E-13
 -1       157 6.50498E+01 1.71860E+00 3.61309E+00 6.97618E+00 2.43972E-14-6.03545E-13
 -1       158 6.55086E+01 1.49822E+00 3.62903E+00-6.68271E+00 9.14182E-14-8.22675E-13
 -1       159 3.29640E+01 1.04841E+01 1.70531E+00-1.81605E+01 8.49876E-14-2.83606E-13
 -1       160 1.42251E+01 1.01534E+01 2.30673E-01-1.19818E+01-6.24334E-13 6.26110E-13
 -1       161 2.36366E+00 2.59991E+00-1.21159E+00-2.79015E+00-1.19765E-12 8.25395E-13
 -1       162-1.79703E+00-9.93346E+00-2.43763E+00 3.57351E+00-1.11244E-12 4.55608E-13
 -1       163-1.36433E+00-2.08874E+01-3.18602E+00 3.92344E+00-8.14820E-13 3.33570E-13
 -1       164 2.10108E+01 3.69395E+00-5.73833E-02-3.61148E+00-3.62411E-13 4.11320E-13
 -1       165 1.99894E+01 4.20719E+00-4.58060E-02-2.81043E+00-3.82856E-13-1.71946E-14
 -1       166 1.95063E+01 4.47779E+00-3.17255E-02-2.19640E+00-3.37042E-13-2.88396E-13
 -1       167 1.92687E+01 4.61436E+00-2.38262E-02-1.67597E+00-2.89714E-13-4.59195E-13
 -1       168 1.91385E+01 4.69706E+00-1.95900E-02-1.22007E+00-2.33509E-13-5.35359E-13
 -1       169 1.90656E+01 4.74787E+00-1.74550E-02-7.92900E-01-1.75357E-13-5.96904E-13
 -1       170 1.90289E+01 4.77573E+00-1.64330E-02-3.87308E-01-1.10404E-13-6.30350E-13
 -1       171 1.90182E+01 4.78427E+00-1.61393E-02 8.26599E-03-6.08792E-14-6.63320E-13
 -1       172 1.90306E+01 4.77445E+00-1.64712E-02 4.04172E-01-6.10016E-15-6.83375E-13
 -1       173 1.90693E+01 4.74488E+00-1.75241E-02 8.10799E-01 4.90716E-14-6.93108E-13
 -1       174 1.91431E+01 4.69240E+00-1.96905E-02 1.23259E+00 1.01228E-13-6.82517E-13
 -1       175 1.92776E+01 4.60518E+00-2.40087E-02 1.69950E+00 1.87244E-13-6.39242E-13
 -1       176 1.95233E+01 4.45936E+00-3.28525E-02 2.22796E+00 2.64057E-13-5.53496E-13
 -1       177 2.00117E+01 4.18366E+00-4.72169E-02 2.84812E+00 3.40535E-13-3.53179E-13
 -1       178 2.11324E+01 3.46360E+00-5.97906E-02 3.53781E+00 3.73618E-13 5.38181E-14
 -1       179 2.24162E+01 1.14347E+00-3.36468E-01 3.01561E+00 3.19531E-13 6.31759E-13
 -1       180 2.19682E+01 8.58358E-01 6.04225E-04-1.95974E+00-2.91420E-13 8.79803E-13
 -1       181 2.04433E+01 1.90055E-01-9.99195E-03-7.65039E-01-2.61234E-13 7.10065E-13
 -1       182 1.96669E+01 1.01629E-01 1.35701E-02-2.86711E-01-2.14356E-13 5.66935E-13
 -1       183 1.93262E+01 4.71774E-02 1.00114E-02-6.90337E-02-1.40918E-13 4.17534E-13
 -1       184 1.91956E+01 2.25285E-02 5.17208E-03 3.82014E-02-7.62848E-14 3.26731E-13
 -1       185 1.91813E+01 9.50352E-03 2.43973E-03 9.07832E-02-1.04762E-13 2.64142E-13
 -1       186 1.92292E+01 2.16216E-03 1.13908E-03 1.13244E-01-8.96776E-14 1.91253E-13
 -1       187 1.93079E+01-1.97995E-03 5.12014E-04 1.18456E-01-5.07888E-14 1.79960E-13
 -1       188 1.93991E+01-4.14334E-03 1.87646E-04 1.13948E-01-1.16470E-13 1.01724E-13
 -1       189 1.94920E+01-5.01160E-03 1.64297E-05 1.04477E-01-7.62502E-14 9.67723E-14
 -1       190 1.95809E+01-5.00073E-03-6.36752E-05 9.31938E-02 2.28992E-15 5.81474E-14
 -1       191 1.96635E+01-4.37154E-03-8.26689E-05 8.22724E-02-1.01752E-14-5.28042E-15
 -1       192 1.97397E+01-3.28326E-03-5.74244E-05 7.32732E-02-3.71832E-15 3.32595E-15
 -1       193 1.98112E+01-1.82235E-03 2.01125E-06 6.73931E-02 9.91104E-15-2.41731E-14
 -1       194 1.98810E+01-2.03002E-05 8.98678E-05 6.56426E-02-2.49001E-14 2.32148E-14
 -1       195 1.99534E+01 2.13379E-03 2.03168E-04 6.89786E-02-1.16927E-14 1.42719E-14
 -1       196 2.00335E+01 4.68249E-03 3.40512E-04 7.84024E-02 3.99102E-14-1.26329E-14
 -1       197 2.01278E+01 7.68843E-03 5.00749E-04 9.50258E-02-3.02059E-16-7.18461E-14
 -1       198 2.02435E+01 1.12182E-02 6.81201E-04 1.20098E-01-3.00718E-14-8.89843E-14
 -1       199 2.03893E+01 1.53157E-02 8.75002E-04 1.54975E-01 5.37921E-15-1.55728E-13
 -1       200 2.05746E+01 1.99557E-02 1.06700E-03 2.00991E-01 5.68501E-14-1.07338E-13
 -1       201 2.08100E+01 2.49591E-02 1.22776E-03 2.59160E-01-4.53289E-14 5.65700E-14
 -1       202 2.11056E+01 2.98451E-02 1.30569E-03 3.29596E-01-1.35919E-14 8.31309E-14
 -1       203 2.14705E+01 3.35835E-02 1.21933E-03 4.10445E-01-3.56930E-15-2.74096E-14
 -1       204 2.19098E+01 3.42127E-02 8.56288E-04 4.96081E-01-1.33152E-13 3.78835E-14
 -1       205 2.24202E+01 2.83447E-02 9.26141E-05 5.74298E-01-3.21815E-14 1.19060E-13
 -1       206 2.29842E+01 1.07578E-02-1.14432E-03 6.22540E-01 1.24465E-13 6.00414E-14
 -1       207 2.35613E+01-2.52600E-02-2.75313E-03 6.04212E-01 2.36884E-13 1.54700E-13
 -1       208 2.40796E+01-8.53028E-02-4.28294E-03 4.68607E-01 1.39633E-13 3.44628E-13
 -1       209 2.44310E+01-1.66613E-01-4.89807E-03 1.62257E-01-6.63957E-14 3.88788E-13
 -1       210 2.44811E+01-2.44695E-01-3.69343E-03-3.36259E-01-1.46656E-13 3.59185E-13
 -1       211 2.41086E+01-2.63836E-01-1.16690E-03-9.53853E-01-1.60407E-13 4.51036E-13
 -1       212 2.32891E+01-1.54427E-01 9.31852E-04-1.46801E+00 4.56753E-14 3.01579E-13
 -1       213 2.21987E+01 9.85460E-02-4.93910E-04-1.54816E+00 1.03502E-13 3.26066E-13
 -1       214 2.12475E+01 3.77521E-01-2.64142E-03-9.81345E-01-6.43201E-14 2.35099E-13
 -1       215 2.08881E+01 4.90269E-01-3.39155E-03 6.90229E-02-1.07322E-13 1.41941E-13
 -1       216 2.13091E+01 3.30581E-01-1.76640E-03 1.06122E+00-1.26377E-13-1.29787E-13
 -1       217 2.22436E+01 3.94998E-02 3.97866E-04 1.49756E+00 7.23770E-14 4.11693E-14
 -1       218 2.32194E+01-1.92114E-01 7.05884E-04 1.30031E+00-6.40239E-14-2.72382E-13
 -1       219 2.38624E+01-2.73714E-01-1.66087E-03 7.29585E-01-2.52645E-13-2.91667E-13
 -1       220 2.40394E+01-2.38737E-01-4.22669E-03 1.07497E-01-1.95053E-13-7.53702E-14
 -1       221 2.38008E+01-1.56922E-01-4.93311E-03-3.72151E-01 2.41060E-13-2.23497E-14
 -1       222 2.32766E+01-7.72567E-02-3.87937E-03-6.56615E-01 1.77943E-13 2.20353E-13
 -1       223 2.26042E+01-1.77155E-02-1.94358E-03-7.71843E-01 9.85050E-14 4.54417E-13
 -1       224 2.18962E+01 2.30881E-02-2.48408E-05-7.63618E-01 1.84266E-13 2.14117E-13
 -1       225 2.12365E+01 5.38459E-02 1.22724E-03-6.66983E-01-1.14203E-13 4.09054E-14
 -1       226 2.06863E+01 8.43227E-02 1.84299E-03-4.98364E-01 3.19142E-13-8.34176E-14
 -1       227 2.02737E+01 1.16133E-01 1.38132E-03-2.66707E-01-4.81177E-14-1.43757E-13
 -1       228 2.09596E+01 2.77043E-01-5.13410E-02 1.16564E+00 2.98893E-13 5.12274E-13
 -1       229 1.98641E+01 1.26828E-01 8.30712E-03 4.43950E-01 2.15301E-13 3.20459E-13
 -1       230 1.93568E+01 5.80306E-02 1.27339E-02 1.50977E-01 1.58559E-13 1.45150E-13
 -1       231 1.91462E+01 2.76901E-02 7.62953E-03 1.17870E-02 1.15881E-13 4.17409E-14
 -1       232 1.90954E+01 1.30518E-02 3.82669E-03-5.72951E-02 6.51719E-14-2.87669E-14
 -1       233 1.91302E+01 5.12538E-03 1.91430E-03-8.97313E-02 7.03756E-14-1.44477E-13
 -1       234 1.92085E+01 6.33646E-04 1.01659E-03-1.01624E-01 6.94861E-14-2.11915E-13
 -1       235 1.93058E+01-1.87302E-03 5.62356E-04-1.01785E-01 2.80209E-14-2.59141E-13
 -1       236 1.94079E+01-3.12901E-03 3.08254E-04-9.55255E-02 6.96684E-14-3.10374E-13
 -1       237 1.95067E+01-3.55629E-03 1.59929E-04-8.62681E-02 6.28797E-14-3.22767E-13
 -1       238 1.95986E+01-3.41570E-03 7.76916E-05-7.63111E-02 6.79548E-14-3.62446E-13
 -1       239 1.96824E+01-2.87134E-03 4.09677E-05-6.72539E-02 8.25278E-14-4.27242E-13
 -1       240 1.97594E+01-2.02297E-03 3.69907E-05-6.02594E-02 6.68193E-14-4.99798E-13
 -1       241 1.98319E+01-9.24969E-04 5.70577E-05-5.62320E-02 1.67496E-14-4.93653E-13
 -1       242 1.99037E+01 4.00593E-04 9.47955E-05-5.59409E-02-9.21392E-16-3.81756E-13
 -1       243 1.99795E+01 1.95287E-03 1.44958E-04-6.01035E-02-3.80449E-14-4.22669E-13
 -1       244 2.00648E+01 3.74066E-03 2.02332E-04-6.94319E-02 5.59504E-14-3.89375E-13
 -1       245 2.01663E+01 5.76805E-03 2.60568E-04-8.46370E-02-2.06916E-14-3.79541E-13
 -1       246 2.02910E+01 8.01409E-03 3.10877E-04-1.06377E-01-2.28304E-14-4.23245E-13
 -1       247 2.04466E+01 1.04023E-02 3.40613E-04-1.35127E-01-1.86908E-14-4.22404E-13
 -1       248 2.06411E+01 1.27545E-02 3.32109E-04-1.70932E-01 2.48754E-14-4.09492E-13
 -1       249 2.08814E+01 1.47214E-02 2.62706E-04-2.12991E-01 1.53810E-13-5.13293E-13
 -1       250 2.11722E+01 1.56859E-02 1.08093E-04-2.58992E-01-2.65380E-14-6.38932E-13
 -1       251 2.15139E+01 1.46421E-02-1.47466E-04-3.04156E-01-1.58005E-13-5.38356E-13
 -1       252 2.18988E+01 1.00871E-02-4.89677E-04-3.39973E-01-1.01844E-13-4.37864E-13
 -1       253 2.23070E+01 2.85475E-05-8.40677E-04-3.52862E-01-2.19633E-14-2.65549E-13
 -1       254 2.27011E+01-1.76532E-02-1.02626E-03-3.23459E-01 3.01456E-14-2.44583E-13
 -1       255 2.30220E+01-4.40686E-02-7.86852E-04-2.28145E-01-1.50805E-13-2.87227E-13
 -1       256 2.31898E+01-7.69674E-02 8.82322E-05-4.56017E-02-2.70313E-15-2.70854E-13
 -1       257 2.31148E+01-1.07346E-01 1.55846E-03 2.28615E-01-5.27647E-14-2.01170E-13
 -1       258 2.27260E+01-1.17557E-01 2.92610E-03 5.59962E-01-1.37936E-13-2.72175E-13
 -1       259 2.20180E+01-8.58436E-02 2.89656E-03 8.56969E-01-1.08615E-13-1.76585E-13
 -1       260 2.11009E+01-1.50818E-03 3.33917E-04 9.80656E-01 2.82940E-14-1.68492E-13
 -1       261 2.02159E+01 1.11834E-01-4.25175E-03 8.10833E-01 1.16157E-14-1.86205E-13
 -1       262 1.96624E+01 1.98175E-01-7.32052E-03 3.46790E-01 1.21236E-13-2.44303E-13
 -1       263 1.96501E+01 2.04032E-01-5.88172E-03-2.48665E-01 1.33311E-13-3.42468E-13
 -1       264 2.01692E+01 1.24618E-01-1.01115E-03-7.26067E-01 8.70996E-14-3.62431E-13
 -1       265 2.09916E+01 1.08872E-02 3.16306E-03-9.10973E-01-1.94190E-13-5.06840E-13
 -1       266 2.18127E+01-7.90003E-02 4.64414E-03-7.95214E-01-2.17676E-13-2.29520E-13
 -1       267 2.23971E+01-1.18326E-01 3.37313E-03-4.93968E-01-1.22675E-13-7.20734E-15
 -1       268 2.26436E+01-1.13557E-01 1.11568E-03-1.47899E-01 1.27608E-13-2.08758E-13
 -1       269 2.25668E+01-8.51603E-02-6.64415E-04 1.44989E-01-1.16897E-13-2.50110E-13
 -1       270 2.22455E+01-5.08037E-02-1.36001E-03 3.43036E-01 3.92396E-13-1.89914E-13
 -1       271 2.17786E+01-1.96576E-02-1.22777E-03 4.43300E-01 2.54028E-13-5.67463E-13
 -1       272 2.12600E+01 6.43668E-03-9.33646E-04 4.58523E-01 1.81507E-13-5.85268E-13
 -1       273 2.07701E+01 2.96559E-02-1.19855E-03 4.01280E-01 8.02645E-14-5.67490E-13
 -1       274 2.03754E+01 5.42698E-02-9.37254E-04 2.78088E-01 6.51564E-14-4.12520E-13
 -1       275 2.01140E+01 6.57676E-02 1.40848E-03 1.06727E-01-1.07880E-13-5.15574E-13
 -1       276 2.00889E+01 2.28129E-01 1.67508E-03 2.12904E-01-1.17257E-13 2.44621E-13
 -1       277 2.00653E+01 5.43123E-01 1.07699E-03 3.88178E-01-3.14561E-14 4.90675E-13
 -1       278 2.00347E+01 9.63097E-01 6.48513E-04 5.07524E-01 9.70527E-14 1.79518E-13
 -1       279 2.00056E+01 1.44737E+00-8.23291E-06 5.56982E-01-7.12388E-14 6.66739E-14
 -1       280 1.99764E+01 1.93210E+00-1.06522E-03 5.34802E-01-3.46969E-13-3.18629E-13
 -1       281 1.99476E+01 2.37229E+00-2.04422E-03 4.39683E-01-4.35366E-13 2.44446E-13
 -1       282 1.99237E+01 2.69670E+00-2.79846E-03 2.78408E-01-1.47304E-13-1.75168E-14
 -1       283 1.99097E+01 2.85463E+00-3.16598E-03 6.96946E-02 1.40704E-13 9.77985E-14
 -1       284 1.99095E+01 2.81700E+00-3.09220E-03-1.56694E-01-5.28776E-15-1.12172E-15
 -1       285 1.99238E+01 2.58431E+00-2.55615E-03-3.65403E-01-4.03639E-14-1.64781E-13
 -1       286 1.99498E+01 2.19610E+00-1.59266E-03-5.20768E-01 8.48776E-14-1.56275E-13
 -1       287 1.99850E+01 1.69485E+00-5.24655E-04-6.02147E-01 2.83607E-13-7.74662E-17
 -1       288 2.00255E+01 1.15981E+00 4.24790E-04-5.89849E-01 1.51995E-13 2.64035E-13
 -1       289 2.00748E+01 6.69262E-01 1.88815E-03-4.70705E-01-7.29628E-14 6.78481E-14
 -1       290 2.01685E+01 3.66132E-01 2.45039E-03-4.19695E-01-2.01735E-13-4.28550E-13
 -1       291-7.02393E-01-1.00783E+01-8.32985E-01 1.43658E+00 4.04676E-14 4.10977E-13
 -1       292 2.93914E+00-8.48662E+00-7.30871E-01 3.70543E+00 4.95493E-13-3.47916E-14
 -1       293 1.07002E+01-5.30854E+00-3.67361E-01 6.21844E+00 3.24546E-13 3.00725E-13
 -1       294 2.06034E+01-1.59619E+00-4.72846E-02 7.02410E+00 5.82590E-14 3.36814E-13
 -1       295 3.06027E+01 2.66990E+00 3.58525E-01 7.17267E+00 2.88033E-13-2.50161E-13
 -1       296 3.97828E+01 5.31106E+00 7.89358E-01 6.19446E+00 1.68705E-13-2.33591E-13
 -1       297 4.59244E+01 6.43042E+00 1.04182E+00 2.89710E+00-8.55982E-14 6.14786E-15
 -1       298 4.58763E+01 6.78505E+00 9.56204E-01-1.10055E+00 2.74031E-13-3.66041E-13
 -1       299 4.05824E+01 5.73776E+00 6.53730E-01-3.84153E+00 2.56295E-13-4.79894E-13
 -1       300 3.32732E+01 3.68869E+00 4.77939E-01-7.14844E+00 1.66811E-13-4.92995E-13
 -1       301 2.43428E+01-7.26856E-01 5.16841E-02-6.66331E+00 4.84834E-13-2.71116E-13
 -1       302 1.34736E+01-3.33734E+00-2.97446E-01-6.45592E+00 6.99690E-13-2.69174E-13
 -1       303 5.77216E+00-6.89535E+00-5.22750E-01-4.99814E+00 5.88835E-13 8.63545E-15
 -1       304 2.08668E-01-9.37266E+00-7.60859E-01-2.35196E+00 2.06474E-13-5.64826E-13
 -1       305-1.23272E+00-1.06166E+01-9.09749E-01 2.65017E-01 2.29088E-14-7.85122E-13
 -1       306 7.96678E-01-9.79778E+00-8.98286E-01 2.29381E+00-4.44478E-13-1.06605E-12
 -1       307 7.26236E+00-6.51475E+00-5.03087E-01 5.24950E+00-7.14540E-13-1.01183E-12
 -1       308 1.59514E+01-3.18904E+00-2.35575E-01 6.61045E+00-1.00847E-12-9.07663E-13
 -1       309 2.72634E+01-1.86279E-01 1.12696E-01 6.17291E+00-1.11022E-12-3.10529E-13
 -1       310 3.67825E+01 4.09976E+00 5.65944E-01 5.93171E+00-7.36165E-13-4.91662E-13
 -1       311 4.20445E+01 6.32073E+00 6.56152E-01 2.29903E+00-2.80886E-13-5.92026E-13
 -1       312 4.72457E+01 6.78108E+00 1.06473E+00-7.65576E-02 8.94562E-14-4.42483E-13
 -1       313 4.44136E+01 6.29608E+00 9.28045E-01-3.36684E+00-1.08913E-13-5.90278E-13
 -1       314 3.80957E+01 4.69423E+00 7.10367E-01-6.59379E+00-7.97643E-14-2.61124E-13
 -1       315 2.82678E+01 2.10052E+00 2.89325E-01-7.62714E+00-4.01207E-13-2.31648E-13
 -1       316 1.82311E+01-1.83152E+00-1.46778E-01-6.99481E+00-4.60965E-13 6.13398E-15
 -1       317 8.55618E+00-5.56960E+00-5.74207E-01-5.23695E+00-4.48697E-13 3.60337E-13
 -1       318 2.19550E+00-9.21404E+00-8.75371E-01-3.06936E+00-3.19994E-13 3.17912E-13
 -1       319-9.56235E-01-1.12295E+01-1.01060E+00-9.30023E-01-3.15234E-13 4.63088E-13
 -1       320 2.01448E+01 3.01478E+00-1.78002E-02-2.11166E+00-4.06121E-13-7.01331E-14
 -1       321 2.07525E+01 2.20987E+00-1.78594E-02-2.36476E+00-4.10990E-13 1.84514E-13
 -1       322 1.95839E+01 3.69175E+00-1.56108E-02-1.31974E+00-3.02404E-13-3.77196E-13
 -1       323 1.94626E+01 3.84791E+00-1.37032E-02-9.24759E-01-2.39452E-13-4.37048E-13
 -1       324 1.93943E+01 3.93896E+00-1.27164E-02-5.44461E-01-1.80205E-13-4.71117E-13
 -1       325 1.93641E+01 3.98032E+00-1.23028E-02-1.73443E-01-1.05944E-13-4.98441E-13
 -1       326 1.93654E+01 3.97872E+00-1.23207E-02 1.94604E-01-3.27550E-14-5.28004E-13
 -1       327 1.93984E+01 3.93383E+00-1.27664E-02 5.65966E-01 3.31547E-14-5.38940E-13
 -1       328 1.94685E+01 3.84058E+00-1.37740E-02 9.40237E-01 1.04662E-13-5.42545E-13
 -1       329 1.95945E+01 3.67833E+00-1.56591E-02 1.33452E+00 1.89930E-13-4.99908E-13
 -1       330 1.98089E+01 3.40970E+00-1.88340E-02 1.74002E+00 2.79705E-13-4.50758E-13
 -1       331 2.01781E+01 2.95505E+00-2.29386E-02 2.12864E+00 3.55410E-13-3.27161E-13
 -1       332 2.07465E+01 2.12939E+00-3.04696E-02 2.32348E+00 4.07420E-13-8.53692E-14
 -1       333 2.10923E+01 1.18774E+00-2.49269E-02 1.92305E+00 3.80833E-13 1.55759E-13
 -1       334 2.03881E+01 4.89231E-01 8.33264E-03 9.28548E-01 3.02302E-13 5.34685E-14
 -1       335 2.04555E+01 6.75020E-01 1.25574E-02-1.02724E+00-3.09981E-13 2.12774E-13
 -1       336 2.00329E+01 3.37103E-01 7.18402E-03-4.59533E-01-2.59752E-13 1.78816E-13
 -1       337 1.97786E+01 1.76431E-01 4.16633E-03-1.50446E-01-1.90443E-13 1.34852E-13
 -1       338 1.96427E+01 9.04432E-02 1.90552E-03 2.06931E-02-1.34053E-13 7.34014E-14
 -1       339 1.95871E+01 4.15197E-02 7.93723E-04 1.12031E-01-1.27508E-13 6.90325E-14
 -1       340 1.95819E+01 1.28940E-02 2.79087E-04 1.55716E-01-8.26340E-14 6.02062E-14
 -1       341 1.96066E+01-3.56711E-03 2.81763E-05 1.70828E-01-1.08326E-13-6.55671E-15
 -1       342 1.96475E+01-1.22565E-02-9.66066E-05 1.69361E-01-1.10622E-13-7.57427E-15
 -1       343 1.96962E+01-1.57579E-02-1.50195E-04 1.59220E-01-6.43470E-14-4.42448E-14
 -1       344 1.97476E+01-1.56734E-02-1.57453E-04 1.45800E-01-7.17817E-14-7.72706E-14
 -1       345 1.97993E+01-1.30094E-02-1.31843E-04 1.32914E-01-2.70977E-14-7.36093E-14
 -1       346 1.98507E+01-8.37361E-03-8.12419E-05 1.23370E-01-3.91394E-14-6.81183E-14
 -1       347 1.99028E+01-2.08867E-03-9.94168E-06 1.19383E-01-3.52104E-14-1.30967E-13
 -1       348 1.99573E+01 5.73440E-03 8.03119E-05 1.22856E-01-6.89543E-15-1.70605E-13
 -1       349 2.00171E+01 1.51395E-02 1.89539E-04 1.35591E-01 1.13234E-14-1.35148E-13
 -1       350 2.00859E+01 2.62730E-02 3.18752E-04 1.59433E-01-6.25522E-14-2.25964E-13
 -1       351 2.01681E+01 3.93215E-02 4.68972E-04 1.96342E-01-9.18120E-15-2.30788E-13
 -1       352 2.02687E+01 5.44218E-02 6.39761E-04 2.48382E-01-7.34203E-15-2.04974E-13
 -1       353 2.03933E+01 7.15157E-02 8.26806E-04 3.17581E-01 4.85899E-14-2.33046E-13
 -1       354 2.05480E+01 9.01029E-02 1.01794E-03 4.05598E-01 1.36341E-13-1.37115E-13
 -1       355 2.07388E+01 1.08823E-01 1.18686E-03 5.13055E-01 7.22052E-15 4.49319E-14
 -1       356 2.09717E+01 1.24772E-01 1.28397E-03 6.38374E-01-4.19630E-14 4.82207E-14
 -1       357 2.12518E+01 1.32443E-01 1.22535E-03 7.75815E-01 2.80200E-14 1.57013E-13
 -1       358 2.15826E+01 1.22307E-01 8.83962E-04 9.12453E-01 3.01281E-14 1.73577E-13
 -1       359 2.19652E+01 7.93591E-02 9.45877E-05 1.02390E+00 7.75296E-14 1.41777E-13
 -1       360 2.23973E+01-1.70199E-02-1.30047E-03 1.06926E+00 1.41497E-13 1.98034E-13
 -1       361 2.28711E+01-1.88578E-01-3.33379E-03 9.87566E-01 1.70638E-13 7.01512E-14
 -1       362 2.33672E+01-4.42946E-01-5.60346E-03 7.01635E-01 1.27326E-13-9.95298E-17
 -1       363 2.38413E+01-7.40790E-01-7.06758E-03 1.40940E-01-3.00055E-14 1.36081E-13
 -1       364 2.42000E+01-9.47419E-01-6.13496E-03-6.96365E-01-1.12774E-13 2.55044E-13
 -1       365 2.42948E+01-8.31188E-01-5.16518E-03-1.63822E+00-1.00058E-13 3.91611E-13
 -1       366 2.39968E+01-1.90679E-01-6.67107E-03-2.26235E+00 7.85705E-14 3.81394E-13
 -1       367 2.33863E+01 8.43065E-01-1.25806E-02-2.01366E+00-6.78528E-14 4.29694E-13
 -1       368 2.28892E+01 1.65007E+00-6.40869E-03-7.60212E-01-2.60915E-13 1.28317E-13
 -1       369 2.29145E+01 1.55407E+00-7.89958E-03 9.25789E-01-2.95903E-13 2.37345E-14
 -1       370 2.34205E+01 6.29145E-01-1.00121E-02 2.00526E+00-3.45201E-14 1.51767E-15
 -1       371 2.39300E+01-3.67468E-01-5.92207E-03 2.04152E+00-2.61748E-14-3.42672E-13
 -1       372 2.40867E+01-9.09294E-01-4.71213E-03 1.29629E+00-5.34512E-15-5.99834E-14
 -1       373 2.38591E+01-9.47206E-01-6.80410E-03 3.29555E-01 2.69255E-14 2.18178E-13
 -1       374 2.33947E+01-7.09443E-01-7.05313E-03-4.84852E-01 2.38733E-14 4.91717E-13
 -1       375 2.28311E+01-4.09701E-01-5.36090E-03-1.01155E+00 2.84793E-13 5.08886E-13
 -1       376 2.22544E+01-1.58447E-01-2.84611E-03-1.26551E+00 1.71642E-13 4.75685E-13
 -1       377 2.17068E+01 2.20162E-02-5.60411E-04-1.31168E+00-5.70016E-14 3.17344E-13
 -1       378 2.12101E+01 1.49564E-01 1.13477E-03-1.21093E+00-2.50164E-13 1.71305E-13
 -1       379 2.07795E+01 2.52848E-01 2.78312E-03-1.00357E+00-3.50306E-14 1.17890E-13
 -1       380 2.04565E+01 3.18752E-01 3.23465E-03-7.34336E-01-6.06074E-14-1.83490E-13
 -1       381 1.98859E+01 2.28375E-01 1.07909E-02 4.00020E-01 2.27309E-13-1.52690E-14
 -1       382 1.95967E+01 1.15247E-01 6.16868E-03 1.21470E-01 1.50739E-13-6.40870E-14
 -1       383 1.94614E+01 5.75963E-02 2.80221E-03-2.73049E-02 1.08898E-13-1.05973E-13
 -1       384 1.94211E+01 2.57834E-02 1.17892E-03-1.04223E-01 1.08208E-13-1.69083E-13
 -1       385 1.94366E+01 7.51012E-03 4.57152E-04-1.39671E-01 1.13594E-13-2.46162E-13
 -1       386 1.94829E+01-2.91341E-03 1.15054E-04-1.50766E-01 7.52153E-14-2.91457E-13
 -1       387 1.95442E+01-8.40921E-03-5.66501E-05-1.47893E-01 1.04660E-13-2.87784E-13
 -1       388 1.96110E+01-1.06535E-02-1.38018E-04-1.37758E-01 5.34565E-14-2.51996E-13
 -1       389 1.96780E+01-1.06755E-02-1.62082E-04-1.24868E-01 9.98476E-14-2.36455E-13
 -1       390 1.97427E+01-9.12295E-03-1.46076E-04-1.12359E-01 1.16106E-13-2.56917E-13
 -1       391 1.98047E+01-6.39640E-03-1.00482E-04-1.02500E-01 1.15940E-13-2.74438E-13
 -1       392 1.98652E+01-2.72554E-03-3.18080E-05-9.70274E-02 1.47748E-14-2.44522E-13
 -1       393 1.99266E+01 1.77889E-03 5.60324E-05-9.73716E-02-4.32939E-14-2.84718E-13
 -1       394 1.99922E+01 7.08235E-03 1.60631E-04-1.04811E-01 1.51683E-14-2.76286E-13
 -1       395 2.00661E+01 1.31835E-02 2.79955E-04-1.20554E-01 2.82138E-14-3.38681E-13
 -1       396 2.01530E+01 2.00627E-02 4.10969E-04-1.45754E-01 4.82784E-14-3.00255E-13
 -1       397 2.02584E+01 2.76112E-02 5.47832E-04-1.81427E-01 5.94780E-15-3.11874E-13
 -1       398 2.03881E+01 3.55293E-02 6.79428E-04-2.28249E-01 6.86840E-14-3.28340E-13
 -1       399 2.05478E+01 4.31760E-02 7.86122E-04-2.86175E-01-1.20293E-14-4.13629E-13
 -1       400 2.07427E+01 4.93521E-02 8.35907E-04-3.53815E-01 1.54012E-13-4.21390E-13
 -1       401 2.09766E+01 5.20082E-02 7.81019E-04-4.27460E-01-1.00132E-14-3.15454E-13
 -1       402 2.12507E+01 4.78999E-02 5.57666E-04-4.99718E-01-2.41541E-13-2.98931E-13
 -1       403 2.15613E+01 3.23119E-02 9.40928E-05-5.57761E-01-5.19645E-14-2.38992E-13
 -1       404 2.18979E+01-8.25569E-04-6.65625E-04-5.81516E-01-8.40775E-14-3.58424E-13
 -1       405 2.22401E+01-5.77406E-02-1.71574E-03-5.42739E-01 6.30169E-14-6.95737E-14
 -1       406 2.25546E+01-1.41386E-01-2.92505E-03-4.07063E-01-1.36884E-13-1.29074E-15
 -1       407 2.27932E+01-2.44516E-01-3.99732E-03-1.42642E-01-7.79888E-15 1.64760E-13
 -1       408 2.28943E+01-3.39999E-01-4.49823E-03 2.60224E-01-4.06905E-14 1.55240E-13
 -1       409 2.27932E+01-3.74422E-01-3.64089E-03 7.58067E-01-1.25761E-13-4.20694E-14
 -1       410 2.24489E+01-2.81569E-01-1.74702E-03 1.22468E+00-7.79561E-14-2.77624E-13
 -1       411 2.18903E+01-2.34255E-02 1.17968E-03 1.45681E+00-7.54828E-14-2.87886E-13
 -1       412 2.12631E+01 3.33968E-01 2.33880E-03 1.25791E+00-1.10109E-14-1.72176E-13
 -1       413 2.08099E+01 6.18190E-01 2.81281E-03 5.97795E-01 7.64124E-14 7.90285E-14
 -1       414 2.07392E+01 6.56073E-01 4.52719E-03-2.97054E-01 2.61246E-13 2.24062E-13
 -1       415 2.10759E+01 4.15087E-01 5.26082E-03-1.03958E+00 9.08466E-14 1.63607E-13
 -1       416 2.16291E+01 5.15672E-02 2.78114E-03-1.34285E+00-2.77503E-14 1.21002E-13
 -1       417 2.21475E+01-2.44934E-01-3.89900E-04-1.18177E+00-3.71831E-13-1.37756E-13
 -1       418 2.24585E+01-3.81188E-01-3.41116E-03-7.29157E-01-1.89854E-13-2.53029E-13
 -1       419 2.25127E+01-3.72692E-01-4.91589E-03-2.01366E-01 9.23888E-14-1.87961E-13
 -1       420 2.23443E+01-2.83567E-01-4.87471E-03 2.49973E-01-6.69926E-14-1.37402E-13
 -1       421 2.20216E+01-1.71473E-01-3.62390E-03 5.58777E-01 3.56268E-13-2.92408E-13
 -1       422 2.16147E+01-6.79135E-02-1.91395E-03 7.18270E-01 3.31918E-13-7.54727E-14
 -1       423 2.11834E+01 1.89412E-02-3.02597E-04 7.47096E-01 6.45934E-14-2.69583E-14
 -1       424 2.07748E+01 9.35722E-02 8.68321E-04 6.66872E-01 1.08433E-13 6.12744E-14
 -1       425 2.04233E+01 1.59293E-01 1.40060E-03 4.95315E-01-2.61445E-15 1.16704E-13
 -1       426 2.02391E+01 2.04610E-01 1.60638E-03 3.64943E-01 8.46410E-15 2.35211E-13
 -1       427 2.00758E+01 9.93961E-01 8.12048E-04 9.12134E-01-7.59878E-14 8.20053E-15
 -1       428 2.01790E+01 6.46987E-01 1.99996E-03 7.84412E-01 8.12230E-16 6.29345E-13
 -1       429 2.02248E+01 4.14371E-01 2.44074E-03 5.89730E-01-5.52598E-14 3.14249E-13
 -1       430 1.99653E+01 1.35755E+00-4.08538E-04 9.32609E-01-1.25079E-13-6.49275E-13
 -1       431 1.98498E+01 1.71562E+00-1.53884E-03 8.35354E-01-1.28682E-13 2.43705E-13
 -1       432 1.97443E+01 2.01612E+00-2.50433E-03 6.19323E-01-2.69057E-13 2.34898E-13
 -1       433 1.96680E+01 2.21285E+00-3.13383E-03 3.04232E-01-3.49190E-13-3.82034E-14
 -1       434 1.96394E+01 2.27021E+00-3.33649E-03-6.84275E-02-2.78532E-13 2.51106E-13
 -1       435 1.96679E+01 2.17437E+00-3.04729E-03-4.41268E-01-1.10143E-13-2.88765E-13
 -1       436 1.97479E+01 1.94348E+00-2.27558E-03-7.49616E-01-8.70691E-14 5.89789E-14
 -1       437 1.98693E+01 1.60454E+00-1.16071E-03-9.55162E-01 1.96802E-13 2.11019E-13
 -1       438 2.00151E+01 1.20876E+00 3.01566E-04-1.02074E+00 2.81452E-13-1.58646E-14
 -1       439 2.01717E+01 8.05818E-01 2.34382E-03-9.38985E-01-7.46136E-14-1.22110E-13
 -1       440 1.04486E+01-5.60168E+00-2.61727E-02 7.02928E+00 2.71061E-13-2.52492E-13
 -1       441 1.13245E+00-4.66976E+00-7.14159E-02-9.70730E-02 2.79551E-15 4.81670E-13
 -1       442 4.29025E+00-4.98236E+00-4.20474E-02 4.84006E+00 1.40013E-13 4.41411E-13
 -1       443 2.00354E+01-5.61536E+00 2.41857E-03 6.60027E+00-5.95357E-15-9.36820E-14
 -1       444 2.79907E+01-2.95622E+00 3.26273E-03 3.67975E+00 6.13676E-14-4.22079E-13
 -1       445 1.98032E+01 3.43087E+00-1.76716E-02-1.73948E+00-3.74626E-13-2.56359E-13
 -1       446 3.59424E+01 5.89001E+00 1.13361E-01 4.29811E-01-6.23668E-14-4.99462E-14
 -1       447 3.58285E+01 8.07475E+00 6.61993E-02-6.49132E-03 2.18769E-13-2.52839E-13
 -1       448 3.50466E+01 7.04736E+00 3.19307E-02 4.28544E-01 2.84051E-13-1.90542E-13
 -1       449 3.27315E+01 2.23553E+00-4.13880E-02-3.00426E-01 8.62643E-14-2.39156E-13
 -1       450 2.97379E+01-1.76417E+00 1.97599E-03-2.21474E+00 2.09555E-13-2.37588E-13
 -1       451 2.20878E+01-5.00381E+00-2.49245E-02-5.90327E+00 2.65024E-13-8.06716E-14
 -1       452 1.45296E+01-5.60380E+00 1.88643E-03-7.17160E+00 3.07823E-13-4.66892E-14
 -1       453 5.82776E+00-4.94407E+00-2.80331E-02-5.64113E+00-1.23748E-13-4.02775E-13
 -1       454 2.17158E+00-3.43764E+00 6.28812E-02-1.66281E+00-3.69017E-13-6.70186E-13
 -1       455 2.01685E+00-4.96299E+00-9.31582E-02 2.78705E+00-2.76584E-14-1.07088E-12
 -1       456 6.98774E+00-5.20708E+00-4.96488E-02 5.91810E+00-6.91114E-15-8.88012E-13
 -1       457 1.61664E+01-5.79601E+00-1.75683E-02 6.88682E+00-1.17281E-13-4.09943E-13
 -1       458 2.45737E+01-4.83248E+00-8.03060E-03 4.88474E+00-2.53450E-13-2.76723E-14
 -1       459 3.14455E+01-1.30723E-01 8.22814E-03 1.62950E+00-7.66639E-13-1.24553E-13
 -1       460 3.43881E+01 3.83666E+00 2.47380E-02-2.57723E-01-4.51139E-13-2.84994E-13
 -1       461 3.38221E+01 7.68895E+00-5.48861E-02-7.17078E-01-1.44357E-13-9.46049E-14
 -1       462 3.41003E+01 7.63252E+00-6.70649E-02 4.82367E-01-7.63278E-14-1.33851E-14
 -1       463 3.55588E+01 4.61218E+00 8.27866E-02-3.91241E-01-1.62689E-13-3.11307E-13
 -1       464 3.21793E+01 2.57001E-01 4.04269E-02-2.04006E+00-1.45988E-13-2.56711E-13
 -1       465 2.67404E+01-3.80642E+00 5.01495E-04-4.36965E+00-2.38559E-13-6.26804E-13
 -1       466 1.79728E+01-5.72602E+00-4.77872E-02-6.82167E+00-7.42184E-14-2.92495E-13
 -1       467 9.64105E+00-5.87270E+00-7.20829E-02-6.69396E+00-3.27738E-13 2.23946E-13
 -1       468 3.66875E+00-4.81330E+00-3.43419E-02-4.21455E+00-1.42900E-13 3.73535E-13
 -1       469 3.28994E+01 1.71698E+00 4.84959E-02 1.53226E+00 1.93113E-13-2.35811E-13
 -1       470 2.84228E+01-3.92513E+00-5.78443E-02 1.57628E+00-3.39489E-13 3.14644E-13
 -1       471 2.03707E+01 8.31789E-01 4.02491E-03 9.73578E-01 2.76902E-13-1.57316E-13
 -1       472 1.97357E+01 3.10347E+00-5.35624E-03-6.34538E-01-2.10134E-13-4.22056E-13
 -1       473 1.98318E+01 2.92968E+00-5.72583E-03-9.50717E-01-2.45533E-13-3.58140E-13
 -1       474 1.96689E+01 3.22605E+00-5.02538E-03 8.83321E-03-7.66869E-14-4.60171E-13
 -1       475 1.96872E+01 3.19305E+00-5.10687E-03 3.30857E-01-4.73328E-15-4.94695E-13
 -1       476 1.97404E+01 3.09625E+00-5.41803E-03 6.46686E-01 7.10065E-14-4.95259E-13
 -1       477 1.98379E+01 2.91853E+00-5.97208E-03 9.62550E-01 1.62797E-13-4.56729E-13
 -1       478 1.99924E+01 2.63339E+00-6.52762E-03 1.25812E+00 2.22820E-13-4.19568E-13
 -1       479 2.02329E+01 2.18755E+00-5.69325E-03 1.50308E+00 2.93285E-13-3.49632E-13
 -1       480 2.01088E+01 4.53355E-01 5.06140E-03 4.65860E-01 2.12224E-13-1.51130E-13
 -1       481 2.03421E+01 9.72634E-01 2.77839E-03-9.41777E-01-3.01237E-13-6.60089E-15
 -1       482 3.06398E+01 2.89733E+00-1.34413E-01-1.53152E+00-1.09912E-14-7.40311E-14
 -1       483 2.01699E+01 5.45239E-01 2.33600E-03-4.69591E-01-2.40843E-13-1.10424E-14
 -1       484 2.00223E+01 3.03633E-01 1.11340E-03-1.68325E-01-1.77725E-13-4.46461E-15
 -1       485 1.99217E+01 1.61957E-01 4.64436E-04 1.33843E-02-1.49801E-13-1.87335E-14
 -1       486 1.98632E+01 7.62960E-02 1.62744E-04 1.16593E-01-1.28552E-13-3.74229E-14
 -1       487 1.98365E+01 2.45573E-02 2.58897E-05 1.69144E-01-1.30405E-13-8.11526E-14
 -1       488 1.98317E+01-5.49326E-03-3.96982E-05 1.89895E-01-1.03004E-13-8.07999E-14
 -1       489 1.98410E+01-2.11003E-02-6.98631E-05 1.91771E-01-1.01098E-13-4.69233E-14
 -1       490 1.98592E+01-2.67805E-02-7.82518E-05 1.83783E-01-1.09271E-13-2.41008E-14
 -1       491 1.98826E+01-2.54259E-02-7.13410E-05 1.72325E-01-2.66647E-14-3.03603E-15
 -1       492 1.99095E+01-1.88702E-02-5.30193E-05 1.62060E-01-2.93815E-14-2.59358E-15
 -1       493 1.99391E+01-8.20911E-03-2.55687E-05 1.56523E-01-4.98387E-14-4.42046E-15
 -1       494 1.99715E+01 5.99757E-03 9.92194E-06 1.58573E-01-5.70244E-14-3.23836E-15
 -1       495 2.00076E+01 2.35817E-02 5.32809E-05 1.70712E-01-5.38895E-14-6.30347E-14
 -1       496 2.00489E+01 4.46456E-02 1.04953E-04 1.95309E-01-6.13146E-14-1.40709E-13
 -1       497 2.00972E+01 6.94389E-02 1.65658E-04 2.34743E-01-5.06061E-14-1.53488E-13
 -1       498 2.01548E+01 9.82012E-02 2.35930E-04 2.91443E-01-6.71995E-14-2.18853E-13
 -1       499 2.02240E+01 1.30933E-01 3.15393E-04 3.67815E-01 1.81296E-14-1.61197E-13
 -1       500 2.03075E+01 1.67033E-01 4.01520E-04 4.66006E-01 1.88016E-13-2.64316E-13
 -1       501 2.04081E+01 2.04703E-01 4.87524E-04 5.87417E-01 1.93216E-13-2.28734E-13
 -1       502 2.05291E+01 2.39994E-01 5.59067E-04 7.31875E-01 5.32006E-14-1.28174E-13
 -1       503 2.06744E+01 2.65319E-01 5.89385E-04 8.96268E-01-2.47338E-14-1.13697E-13
 -1       504 2.08501E+01 2.67334E-01 5.32902E-04 1.07243E+00-5.17037E-14-1.34769E-13
 -1       505 2.10669E+01 2.24350E-01 3.18342E-04 1.24404E+00-5.93209E-15-1.65633E-13
 -1       506 2.13429E+01 1.04329E-01-1.56029E-04 1.38219E+00 1.93531E-13-1.52099E-13
 -1       507 2.17087E+01-1.33342E-01-9.97226E-04 1.43971E+00 8.55016E-14-1.88642E-13
 -1       508 2.22075E+01-5.24920E-01-2.25615E-03 1.34515E+00 1.52915E-13-1.80676E-13
 -1       509 2.28822E+01-1.06524E+00-3.54516E-03 1.00215E+00 9.50573E-14-2.01069E-13
 -1       510 2.37418E+01-1.63883E+00-3.55524E-03 3.05151E-01-1.63358E-14-6.41907E-15
 -1       511 2.46591E+01-1.90242E+00-1.14918E-03-7.73356E-01-7.30410E-14 4.25320E-14
 -1       512 2.53198E+01-1.34720E+00-1.36577E-02-2.00484E+00 8.94001E-14 2.49062E-13
 -1       513 2.52964E+01 3.58341E-01-1.61645E-02-2.67899E+00 3.01374E-14 2.12961E-13
 -1       514 2.46856E+01 2.52611E+00-7.99619E-02-2.00327E+00-2.39496E-13 1.54819E-13
 -1       515 2.46968E+01 3.30199E+00-4.29509E-02 1.25295E-01-5.10466E-13 3.32605E-13
 -1       516 2.47225E+01 2.15630E+00-7.73361E-02 2.09192E+00-4.00010E-13-3.93511E-14
 -1       517 2.53149E+01-6.50017E-02-2.15474E-02 2.45217E+00-2.31272E-13-3.16640E-13
 -1       518 2.51118E+01-1.57333E+00-1.24125E-02 1.57353E+00 2.67681E-13-1.43049E-13
 -1       519 2.43433E+01-1.93287E+00-2.24071E-03 3.20672E-01 2.81135E-13 3.59563E-14
 -1       520 2.33901E+01-1.58555E+00-3.36871E-03-7.19125E-01 2.77183E-13 3.24898E-13
 -1       521 2.25213E+01-9.97158E-01-3.55345E-03-1.36970E+00-5.73162E-14 4.74996E-13
 -1       522 2.18421E+01-4.65905E-01-2.12194E-03-1.67603E+00 4.31204E-14 2.85881E-13
 -1       523 2.13319E+01-7.03375E-02-6.41591E-04-1.73946E+00 2.22727E-14 2.02295E-13
 -1       524 2.09453E+01 2.03903E-01 2.75046E-04-1.63934E+00-7.40763E-14 1.20814E-13
 -1       525 2.06421E+01 4.04839E-01 1.04684E-03-1.42573E+00-2.79012E-13 1.24839E-13
 -1       526 1.02060E+01-3.31833E+00 1.48750E-01 6.18990E+00 5.31380E-14-1.31908E-14
 -1       527 1.98061E+01 1.29242E-01 1.01888E-03-1.79624E-02 1.53128E-13-1.90895E-13
 -1       528 1.97484E+01 6.00844E-02 3.71808E-04-1.16866E-01 1.68252E-13-2.18409E-13
 -1       529 1.97301E+01 1.89873E-02 9.02954E-05-1.65932E-01 9.93716E-14-2.40699E-13
 -1       530 1.97371E+01-4.75329E-03-4.15445E-05-1.84252E-01 6.45554E-14-2.21944E-13
 -1       531 1.97595E+01-1.71615E-02-1.03216E-04-1.84503E-01 3.18289E-14-1.64548E-13
 -1       532 1.97904E+01-2.18878E-02-1.24805E-04-1.75303E-01 1.11225E-13-1.30247E-13
 -1       533 1.98257E+01-2.12449E-02-1.19402E-04-1.62663E-01 1.65531E-13-1.21369E-13
 -1       534 1.98633E+01-1.67069E-02-9.45754E-05-1.50888E-01 1.04240E-13-1.65733E-13
 -1       535 1.99025E+01-9.18543E-03-5.50614E-05-1.43174E-01 9.06296E-14-1.77922E-13
 -1       536 1.99437E+01 7.96697E-04-3.68968E-06-1.42026E-01-3.72363E-14-2.10091E-13
 -1       537 1.99883E+01 1.29775E-02 5.79341E-05-1.49534E-01-2.82537E-14-1.74846E-13
 -1       538 2.00382E+01 2.72409E-02 1.28829E-04-1.67559E-01 1.00533E-13-2.32646E-13
 -1       539 2.00960E+01 4.34935E-02 2.07908E-04-1.97805E-01 2.80910E-14-2.09830E-13
 -1       540 2.01647E+01 6.15128E-02 2.93036E-04-2.41787E-01 2.04291E-14-1.93965E-13
 -1       541 2.02477E+01 8.07387E-02 3.79785E-04-3.00665E-01-4.60602E-14-1.50967E-13
 -1       542 2.03486E+01 9.99785E-02 4.59708E-04-3.74883E-01 1.11468E-13-9.66900E-14
 -1       543 2.04711E+01 1.16991E-01 5.18019E-04-4.63574E-01 2.45302E-14-2.76197E-13
 -1       544 2.06189E+01 1.27920E-01 5.30892E-04-5.63628E-01 7.85786E-15-1.14327E-13
 -1       545 2.07957E+01 1.26599E-01 4.63019E-04-6.68360E-01-1.33580E-13-8.13194E-15
 -1       546 2.10050E+01 1.03863E-01 2.67342E-04-7.65715E-01-8.36463E-14-1.55923E-13
 -1       547 2.12501E+01 4.73198E-02-1.09536E-04-8.36138E-01-8.08734E-14-1.12085E-13
 -1       548 2.15336E+01-5.74089E-02-7.11129E-04-8.50573E-01-8.07207E-14-1.39670E-13
 -1       549 2.18561E+01-2.22091E-01-1.53679E-03-7.69854E-01-1.21568E-13-2.09115E-13
 -1       550 2.22115E+01-4.45114E-01-2.49226E-03-5.48105E-01-2.12283E-13-2.04112E-13
 -1       551 2.25769E+01-6.92200E-01-3.40293E-03-1.45418E-01-1.45135E-13-1.57107E-13
 -1       552 2.28978E+01-8.73776E-01-4.05360E-03 4.42448E-01 2.27658E-14 1.05503E-13
 -1       553 2.30830E+01-8.41369E-01-2.20440E-03 1.13391E+00 6.20905E-14-5.36843E-14
 -1       554 2.30211E+01-4.43946E-01-1.12991E-03 1.72362E+00-1.39654E-13-1.29861E-13
 -1       555 2.26930E+01 3.23145E-01-2.53148E-04 1.87087E+00-1.26885E-13-2.37213E-14
 -1       556 2.22389E+01 1.18322E+00-3.61139E-03 1.33050E+00-1.60792E-14 3.75512E-14
 -1       557 2.19882E+01 1.61773E+00-3.59050E-03 2.07148E-01 3.88327E-14-9.04505E-14
 -1       558 2.21286E+01 1.31508E+00 3.54666E-04-9.89666E-01 5.29251E-14 1.83698E-13
 -1       559 2.25172E+01 4.94956E-01-1.64870E-03-1.66443E+00 7.92988E-14 3.38240E-13
 -1       560 2.28492E+01-3.35560E-01-1.71858E-03-1.62816E+00 5.93387E-14 3.65959E-13
 -1       561 2.29222E+01-8.27013E-01-2.40969E-03-1.08175E+00-1.88805E-13 1.32816E-14
 -1       562 2.27292E+01-9.28325E-01-2.95849E-03-3.61638E-01-9.94546E-14-1.89937E-15
 -1       563 2.23706E+01-7.74143E-01-3.49873E-03 2.84456E-01 1.26843E-13-4.96938E-14
 -1       564 2.19492E+01-5.17978E-01-2.83989E-03 7.45913E-01 2.29402E-13-3.20421E-13
 -1       565 2.15295E+01-2.59977E-01-1.70215E-03 1.00671E+00 1.23592E-13 1.53454E-13
 -1       566 2.11413E+01-3.90665E-02-5.06401E-04 1.09245E+00 9.89915E-14 3.88337E-13
 -1       567 2.07965E+01 1.44065E-01 9.69425E-04 1.03759E+00 1.09630E-13 3.03110E-13
 -1       568 2.04911E+01 2.98738E-01 1.73840E-03 8.69867E-01 1.92357E-13 4.78075E-13
 -1       569 1.98118E+01 1.20011E+00-4.72978E-04 1.18923E+00 1.65311E-13-2.09521E-13
 -1       570 1.95759E+01 1.49370E+00-9.75203E-04 9.91701E-01-1.60813E-13 8.20856E-14
 -1       571 2.02572E+01 6.15365E-01 7.44763E-04 1.13219E+00 4.08394E-14 8.77433E-14
 -1       572 2.00460E+01 8.97668E-01 9.47836E-05 1.22883E+00-3.08412E-13-3.05497E-13
 -1       573 1.93774E+01 1.73038E+00-1.33169E-03 6.41475E-01-3.15830E-13 1.21638E-13
 -1       574 1.92609E+01 1.86353E+00-1.48203E-03 1.76618E-01-2.43472E-13 8.49888E-14
 -1       575 1.92600E+01 1.86145E+00-1.45228E-03-3.32212E-01-3.17459E-14 3.77793E-13
 -1       576 1.93765E+01 1.72561E+00-1.20374E-03-7.92059E-01 2.20040E-13-2.83516E-13
 -1       577 1.95930E+01 1.47707E+00-8.60462E-04-1.14281E+00 3.34230E-14 2.14400E-13
 -1       578 1.98675E+01 1.16031E+00-3.61119E-04-1.32729E+00-5.84053E-14 2.70144E-14
 -1       579 2.01713E+01 8.21573E-01 3.42416E-04-1.32017E+00-3.94635E-13-8.89809E-14
 -1       580 4.72511E+00-2.07015E+00 1.53637E-01-2.27671E+00 2.20345E-14 6.95527E-13
 -1       581 1.99212E+01 2.46377E-01 2.46323E-03 1.60563E-01 1.47941E-13-1.77156E-13
 -1       582 1.74368E+01-5.29781E+00 7.94632E-02 6.82663E+00-3.24740E-15-3.86701E-13
 -1       583 9.78017E+00-3.60261E+00 1.38679E-01-6.13593E+00-4.32987E-14 1.17573E-13
 -1       584 2.03957E+01 1.75548E+00-5.96306E-03-1.53861E+00-3.68213E-13-3.47186E-14
 -1       585 2.54102E+01-5.37323E+00 8.57214E-03 3.82951E+00-1.43198E-13-6.11899E-13
 -1       586 2.99960E+01 4.03730E+00-1.54741E-01 1.98124E+00-4.02803E-14 9.51184E-14
 -1       587 1.96844E+01 3.19744E+00-5.10605E-03-3.13287E-01-1.50368E-13-4.36118E-13
 -1       588 2.89865E+01 6.98922E+00-1.90519E-01 6.33656E-01 1.27121E-13-1.02730E-14
 -1       589 7.17017E+00-1.90049E+00 1.75572E-01-4.28270E+00-4.03767E-13-6.40779E-13
 -1       590 3.04355E+01 6.27249E+00-1.70257E-01-1.26036E+00 8.04079E-14-1.95975E-13
 -1       591 2.93533E+01-8.17131E-01-9.68334E-02 1.02980E+00-1.31764E-13 2.57981E-13
 -1       592 2.64666E+01-4.66894E+00-2.35971E-02-2.89515E+00 3.92048E-16 2.18159E-14
 -1       593 2.03767E+01-5.56444E+00 5.41828E-02-6.00967E+00-8.61880E-14 1.60968E-13
 -1       594 3.10691E+01 1.16770E+00-1.15220E-01 1.37194E+00-8.05259E-14 7.41629E-14
 -1       595 1.27293E+01-4.14784E+00 1.15759E-01-6.77481E+00-1.90660E-13 2.06848E-14
 -1       596 4.78371E+00-1.52283E+00 1.71195E-01 1.46188E+00-1.55417E-13-6.84244E-13
 -1       597 7.46454E+00-2.41958E+00 1.57582E-01 4.66221E+00 1.31894E-13-7.64125E-13
 -1       598 1.43590E+01-4.53854E+00 1.16264E-01 6.67771E+00 1.99875E-13-5.24449E-13
 -1       599 2.19100E+01-5.67265E+00 5.14952E-02 5.26206E+00 1.38674E-13-4.20323E-15
 -1       600 3.04851E+01 1.29157E-01-1.51697E-01-1.50912E+00-4.65799E-13-2.12746E-14
 -1       601 2.99036E+01 4.52878E+00-1.55656E-01-2.31779E+00-3.05603E-13-2.64434E-13
 -1       602 2.83037E+01 6.31911E+00-2.00226E-01 4.61592E-02-2.15536E-13-3.35497E-13
 -1       603 3.02790E+01 5.08875E+00-1.76640E-01 1.81813E+00-1.41914E-13 2.40488E-13
 -1       604 2.93537E+01-2.97238E+00-4.34546E-02-9.06484E-01-4.26542E-14-2.74933E-13
 -1       605 2.39387E+01-5.82011E+00 1.56385E-02-4.73990E+00 1.66082E-13-6.30249E-13
 -1       606 1.64993E+01-5.40757E+00 8.29622E-02-6.90607E+00 9.82686E-14-5.47284E-13
 -1       607 5.07391E+00-1.93060E+00 1.64963E-01 2.65285E+00 5.53724E-15 5.39485E-13
 -1       608 2.05826E+01 1.30514E+00-9.97480E-04 1.54935E+00 3.50841E-13-1.38700E-13
 -1       609 2.96060E+01-1.68281E+00-6.74670E-02 1.62549E-01-8.46632E-14-5.13402E-13
 -1       610 1.99737E+01 2.64879E+00-9.81981E-03-1.24054E+00-3.02490E-13-2.86170E-13
 -1       611 2.04694E+01 5.16229E-01 1.56208E-03-1.22805E+00-2.52683E-13 1.66799E-13
 -1       612 2.55160E+01-5.20474E+00-9.19188E-03 2.67887E+00 7.30319E-14 1.53710E-13
 -1       613 7.14187E+00-3.70401E-01 1.60254E-01-1.46551E+00-1.72269E-13-4.50737E-13
 -1       614 1.99641E+01 2.44874E+00-1.58377E-03 3.94804E-01 3.71130E-14-4.29140E-13
 -1       615 1.99326E+01 2.52368E+00-1.51300E-03 1.35976E-01-3.97822E-14-4.19484E-13
 -1       616 2.01225E+01 2.04539E+00-1.56085E-03 8.51181E-01 1.70009E-13-3.87150E-13
 -1       617 2.02392E+01 1.67543E+00-2.24855E-03 9.93977E-01 2.17409E-13-3.42100E-13
 -1       618 2.03181E+01 1.03643E+00 2.92915E-03 8.33213E-01 2.29757E-13-2.77039E-13
 -1       619 2.22346E+01-5.07506E+00 5.37028E-02 4.69075E+00-8.70502E-14-5.57884E-13
 -1       620 2.02043E+01 6.13751E-01 1.06393E-03 4.21871E-01 1.58725E-13-2.72717E-13
 -1       621 1.00670E+01-9.58790E-01 1.35020E-01 3.91551E+00-2.51950E-13 3.85997E-13
 -1       622 2.82251E+01 1.92870E+00-1.29632E-01 2.53207E+00-4.65482E-13 2.76924E-13
 -1       623 2.02392E+01 6.74824E-01 5.83765E-04-3.96374E-01-2.06880E-13-7.91782E-14
 -1       624 2.01674E+01 3.92112E-01 1.91774E-04-1.41576E-01-1.71035E-13-9.30519E-14
 -1       625 2.01024E+01 2.13520E-01 6.59463E-05 2.09218E-02-1.47625E-13-9.14775E-14
 -1       626 2.00528E+01 1.00639E-01 7.87770E-06 1.17033E-01-1.42190E-13-1.37904E-13
 -1       627 2.00187E+01 3.10202E-02-1.42719E-05 1.67804E-01-1.10674E-13-1.17491E-13
 -1       628 1.99976E+01-9.33022E-03-2.37109E-05 1.89164E-01-5.98835E-14-9.42375E-14
 -1       629 1.99865E+01-2.94079E-02-2.72561E-05 1.92921E-01-6.56058E-14-4.56541E-15
 -1       630 1.99829E+01-3.51439E-02-2.62686E-05 1.87746E-01-9.00347E-14-1.33358E-14
 -1       631 1.99847E+01-3.04446E-02-2.16909E-05 1.80023E-01-3.84186E-14-5.58712E-14
 -1       632 1.99907E+01-1.78013E-02-1.41988E-05 1.74548E-01-7.65814E-14-6.98692E-14
 -1       633 1.99998E+01 1.32057E-03-4.21526E-06 1.75059E-01-3.66701E-14-6.77204E-14
 -1       634 2.00118E+01 2.62080E-02 8.10748E-06 1.84652E-01-4.98024E-14-5.55018E-14
 -1       635 2.00263E+01 5.66841E-02 2.29089E-05 2.06068E-01-1.30937E-13-6.27206E-14
 -1       636 2.00433E+01 9.29112E-02 4.04702E-05 2.41898E-01-6.91281E-14 2.05342E-14
 -1       637 2.00627E+01 1.35172E-01 6.11131E-05 2.94694E-01-5.32764E-14 3.88304E-14
 -1       638 2.00845E+01 1.83584E-01 8.51122E-05 3.66970E-01-3.32377E-14-4.19041E-14
 -1       639 2.01086E+01 2.37685E-01 1.12574E-04 4.61102E-01 2.59713E-14-1.03044E-13
 -1       640 2.01349E+01 2.95796E-01 1.42915E-04 5.79076E-01 1.46041E-13-2.11707E-13
 -1       641 2.01636E+01 3.54030E-01 1.74341E-04 7.22084E-01 1.14110E-13-4.35512E-13
 -1       642 2.01960E+01 4.04752E-01 2.02717E-04 8.89892E-01 1.24435E-13-3.62621E-13
 -1       643 2.02364E+01 4.34309E-01 2.19499E-04 1.07996E+00-5.42865E-14-2.02666E-13
 -1       644 2.02947E+01 4.19950E-01 2.07543E-04 1.28614E+00-4.35482E-14-7.72150E-14
 -1       645 2.03923E+01 3.26270E-01 1.32100E-04 1.49672E+00 3.55406E-14-1.58933E-14
 -1       646 2.05701E+01 1.02695E-01-7.97901E-05 1.69073E+00 1.25033E-13-1.50547E-13
 -1       647 2.08984E+01-3.13240E-01-5.06567E-04 1.83016E+00 1.36397E-13-1.58600E-14
 -1       648 2.14841E+01-9.75492E-01-1.21883E-03 1.84384E+00 9.23958E-14 2.94048E-15
 -1       649 2.24496E+01-1.86031E+00-9.34353E-04 1.59868E+00 2.55897E-13-8.04910E-15
 -1       650 2.39066E+01-2.76755E+00-1.22394E-02 8.61356E-01 8.52070E-14 9.33828E-14
 -1       651 2.57059E+01-3.05554E+00-1.34385E-02-4.68819E-01 1.18848E-14 3.02826E-13
 -1       652 2.68195E+01-1.63631E+00-6.45203E-02-2.13979E+00-1.26064E-13 1.60882E-13
 -1       653 2.52718E+01-3.09470E+00-8.25488E-03-8.77844E-02 1.99568E-13 3.04126E-13
 -1       654 2.35514E+01-2.70796E+00-7.82638E-03-1.31643E+00 3.04418E-13 1.09717E-13
 -1       655 2.21890E+01-1.75248E+00-2.89461E-03-1.96447E+00 6.97182E-14-5.11813E-14
 -1       656 2.13018E+01-8.85144E-01-1.65625E-03-2.16121E+00-6.06346E-14-1.54146E-13
 -1       657 2.07699E+01-2.34449E-01-2.58283E-04-2.13148E+00-4.10536E-15-1.45672E-13
 -1       658 2.04729E+01 2.10501E-01 2.71371E-04-1.97080E+00-1.93113E-13-2.48031E-13
 -1       659 2.03065E+01 5.17811E-01 4.14210E-04-1.73291E+00-1.05535E-13-2.02602E-13
 -1       660 2.00254E+01 1.91084E-01 2.44395E-04-1.94011E-02 1.56341E-13-2.03988E-13
 -1       661 1.99276E+01-7.63093E-03-2.51075E-05-1.91625E-01 3.64733E-14-1.26023E-13
 -1       662 1.99252E+01-2.57518E-02-3.73225E-05-1.94452E-01 7.57437E-14-1.17046E-13
 -1       663 1.99308E+01-3.15960E-02-3.99178E-05-1.87885E-01 8.43654E-14-7.19735E-14
 -1       664 1.99420E+01-2.86392E-02-3.51012E-05-1.78333E-01 1.21973E-13-2.71210E-14
 -1       665 1.99571E+01-1.91282E-02-2.45194E-05-1.70529E-01 1.03482E-13 2.16470E-14
 -1       666 1.99753E+01-4.45515E-03-9.35498E-06-1.68081E-01 5.31230E-14 5.42474E-14
 -1       667 1.99967E+01 1.45805E-02 9.75471E-06-1.73881E-01-3.16139E-14-1.16085E-14
 -1       668 2.00214E+01 3.75560E-02 3.24416E-05-1.90376E-01 5.13189E-14-9.90836E-14
 -1       669 2.00502E+01 6.42161E-02 5.85253E-05-2.19742E-01 3.93296E-14-5.52138E-14
 -1       670 2.00842E+01 9.42388E-02 8.76712E-05-2.63929E-01 6.20880E-14 8.55893E-15
 -1       671 2.01247E+01 1.26940E-01 1.19008E-04-3.24588E-01 1.99058E-14-1.51084E-14
 -1       672 2.01735E+01 1.60869E-01 1.50723E-04-4.02852E-01-5.74754E-15-5.13898E-14
 -1       673 2.02328E+01 1.93258E-01 1.79338E-04-4.98916E-01 5.78729E-14-6.21282E-14
 -1       674 2.03054E+01 2.19269E-01 1.98890E-04-6.11388E-01-4.04293E-14 6.72927E-14
 -1       675 2.03957E+01 2.31022E-01 1.99697E-04-7.36329E-01-7.05190E-14 7.31436E-14
 -1       676 2.05104E+01 2.16488E-01 1.67180E-04-8.65917E-01-1.01164E-13 9.72555E-14
 -1       677 2.06600E+01 1.58577E-01 8.09465E-05-9.86647E-01-9.20610E-14 1.67680E-13
 -1       678 2.08606E+01 3.53022E-02-8.52810E-05-1.07702E+00-8.20574E-14 5.05674E-14
 -1       679 2.11349E+01-1.77062E-01-3.62066E-04-1.10479E+00 3.65433E-14 7.56369E-14
 -1       680 2.15109E+01-4.94472E-01-7.65601E-04-1.02456E+00-5.14832E-14-1.81679E-14
 -1       681 2.20128E+01-9.04220E-01-1.27594E-03-7.77140E-01-1.54382E-13-1.75774E-13
 -1       682 2.26352E+01-1.32625E+00-2.28151E-03-2.99657E-01-2.43931E-13-2.35389E-13
 -1       683 2.33057E+01-1.57059E+00-3.79642E-03 4.39352E-01-4.14448E-14 2.40496E-14
 -1       684 2.38258E+01-1.38103E+00-1.36530E-03 1.31682E+00 3.10962E-14 4.63509E-14
 -1       685 2.40099E+01-3.16943E-01 1.47213E-03 2.09112E+00-6.68042E-14-2.01106E-13
 -1       686 2.36663E+01 1.25518E+00-2.89331E-02 2.11348E+00-7.96498E-14-2.24543E-13
 -1       687 2.32012E+01 2.59942E+00-3.18451E-02 1.08175E+00-1.06469E-14-1.30382E-13
 -1       688 2.32434E+01 2.69921E+00-1.62488E-02-5.65532E-01 6.52764E-14-2.15637E-13
 -1       689 2.35623E+01 1.55751E+00-2.59757E-02-1.78292E+00-7.78128E-14-1.66807E-13
 -1       690 2.39282E+01-1.13946E-01-6.24380E-03-1.95142E+00 2.22017E-14-1.38482E-13
 -1       691 2.38457E+01-1.25228E+00-4.88036E-03-1.30197E+00 1.53508E-14 8.78295E-14
 -1       692 2.33490E+01-1.63322E+00 3.26218E-04-3.73741E-01-8.04305E-14-7.70993E-14
 -1       693 2.26650E+01-1.46060E+00-1.05079E-03 4.37076E-01 2.48370E-14-3.95644E-13
 -1       694 2.19979E+01-1.04020E+00-1.33537E-03 9.91252E-01 3.22874E-13-3.96798E-13
 -1       695 2.14455E+01-5.87452E-01-8.59497E-04 1.29485E+00 4.02435E-14-3.06393E-13
 -1       696 2.10193E+01-1.93694E-01-4.39624E-04 1.39865E+00-1.57619E-13-2.16886E-13
 -1       697 2.06980E+01 1.26155E-01 3.08980E-04 1.35132E+00-2.36897E-13 2.86456E-13
 -1       698 2.04495E+01 3.71412E-01 5.34500E-04 1.27780E+00 5.55481E-14 2.13976E-13
 -1       699 1.88458E+01 1.52649E+00-5.79788E-04 5.48525E-01 6.72193E-14 8.80329E-14
 -1       700 2.02349E+01 6.78572E-01 7.97129E-04-1.53928E+00-2.19551E-13-1.41561E-13
 -1       701 1.95079E+01 1.02462E+00-4.53512E-04 1.36859E+00-1.85807E-13-2.60941E-13
 -1       702 1.87374E+01 1.61698E+00-5.05895E-04-7.19900E-02-2.15058E-14 3.57498E-13
 -1       703 1.91305E+01 1.30841E+00-4.84238E-04 1.05199E+00-4.53767E-14 1.08255E-13
 -1       704 1.55172E+01-3.34940E+00 9.41629E-02 6.03596E+00-1.00336E-13-4.30992E-13
 -1       705 1.88375E+01 1.55650E+00-4.26111E-04-6.86515E-01 1.30440E-14 8.65523E-14
 -1       706 1.91294E+01 1.36033E+00-3.60360E-04-1.20251E+00 9.17429E-14-2.56960E-13
 -1       707 1.95537E+01 1.07922E+00-5.69322E-04-1.52310E+00 7.83828E-14 1.98664E-13
 -1       708 2.01032E+01 3.53769E-01 6.32386E-04 1.50747E-01 1.45477E-13-2.35738E-13
 -1       709 2.70030E+01-3.74221E+00-5.33133E-02 7.11792E-01-2.17423E-13-4.00570E-13
 -1       710 2.02804E+01 1.67859E+00 7.35060E-05-1.14228E+00-3.03023E-13-1.35381E-13
 -1       711 2.69568E+01 1.12666E+00-1.06074E-01 2.39992E+00-1.53634E-13-2.02201E-13
 -1       712 1.28891E+01-2.25231E+00 1.17365E-01 5.32022E+00 3.72376E-13-4.23404E-13
 -1       713 1.99419E+01 2.80801E-02 1.26319E-06-1.70553E-01 7.70721E-14-1.39143E-13
 -1       714 1.99729E+01 8.95668E-02 5.00530E-05-1.18882E-01 1.42406E-13-1.72564E-13
 -1       715 2.02906E+01 1.07603E+00-1.42081E-04-7.25019E-01-2.46505E-13-1.07973E-13
 -1       716 2.61162E+01 4.19207E+00-1.28673E-01 1.90744E+00-3.42538E-14-1.05258E-13
 -1       717 2.00271E+01 2.29406E+00-1.64872E-03 6.39276E-01 1.12294E-13-4.08002E-13
 -1       718 2.00218E+01 2.30464E+00-1.53455E-03-6.30073E-01-2.04424E-13-3.63225E-13
 -1       719 2.88947E+01-1.33362E+00-7.38034E-02 1.48950E+00-2.39376E-13 5.36668E-13
 -1       720 2.75579E+01 3.60076E+00-1.38793E-01-2.10705E+00-1.16726E-13-3.39947E-13
 -1       721 1.93610E+01-4.38312E+00 9.06614E-02 5.31280E+00 3.49269E-13-6.93889E-15
 -1       722 2.79158E+01-2.67574E+00-3.20256E-02-8.93298E-01-2.00928E-13 1.13028E-13
 -1       723 1.80184E+01-4.18715E+00 7.40889E-02-5.81113E+00-3.06869E-13 2.55931E-13
 -1       724 1.22000E+01-2.06348E+00 1.20860E-01-5.32222E+00-3.71196E-13-3.12098E-13
 -1       725 2.38965E+01-4.99088E+00 2.22244E-02-3.44440E+00-1.33111E-13 1.55372E-13
 -1       726 2.68907E+01-3.32125E+00-3.98857E-02-1.83292E-01 5.20695E-14 3.62202E-13
 -1       727 8.44403E+00-5.65226E-01 1.59674E-01 2.80426E+00 1.96166E-13-5.48006E-13
 -1       728 2.66895E+01-4.63005E+00-3.13538E-02-1.59461E+00 7.22686E-15 7.35453E-14
 -1       729 7.68409E+00-2.06492E-01 1.61239E-01 4.78534E-03-8.60629E-14 5.03618E-13
 -1       730 1.53949E+01-3.48704E+00 1.16363E-01-6.04549E+00 5.20379E-13-4.83960E-13
 -1       731 2.07847E+01-5.04642E+00 5.00451E-02-5.30815E+00 1.53599E-13-6.07904E-13
 -1       732 9.49496E+00-1.29720E+00 1.48599E-01-4.06395E+00 3.56312E-13 1.52725E-13
 -1       733 2.83148E+01 2.98595E-02-9.68254E-02-1.75589E+00-2.48919E-13-3.83252E-13
 -1       734 2.64165E+01 5.61457E+00-1.41038E-01-5.82683E-01-4.96617E-14-2.90034E-13
 -1       735 2.01209E+01 2.06281E+00-1.13818E-03-8.55853E-01-2.33036E-13-2.73708E-13
 -1       736 1.99317E+01 2.52533E+00-1.49865E-03-1.26746E-01-1.08010E-13-3.78875E-13
 -1       737 2.46608E+01-4.39852E+00-5.88416E-03 2.19152E+00 1.19010E-13-4.09426E-13
 -1       738 2.65234E+01-1.78594E+00-5.98552E-02 1.78370E+00 1.78949E-13 3.49286E-13
 -1       739 1.99036E+01 7.36258E-01-3.01805E-04 1.47996E+00-2.62441E-13-8.03724E-14
 -1       740 2.02038E+01 5.39130E-01 3.46527E-04 1.42440E+00-1.06110E-13-5.33157E-13
 -1       741 2.41372E+01-4.75192E+00 3.32420E-02-2.98583E+00 1.13225E-13 8.26200E-14
 -1       742 1.05411E+01-4.58303E-01 1.10006E-01-3.40905E+00-2.47804E-13-5.23477E-13
 -1       743 2.62024E+01-1.39271E+00-2.65555E-02 1.75723E+00-1.13218E-13-2.31463E-13
 -1       744 2.27198E+01-4.74238E+00 2.16297E-02 3.64995E+00 2.96107E-13 3.94884E-14
 -1       745 1.99611E+01 2.45438E+00-1.52353E-03-3.85314E-01-1.70867E-13-3.78419E-13
 -1       746 1.98876E+01 7.92020E-01 1.41001E-04-1.69321E+00-3.09350E-13-3.52282E-13
 -1       747 2.02672E+01 1.30818E+00 7.20213E-04 6.34207E-01 1.60815E-13-3.22521E-13
 -1       748 2.02642E+01 4.34056E-01-1.53595E-05-9.47631E-02-1.48720E-13-1.58333E-13
 -1       749 2.02247E+01 2.36909E-01-5.08192E-06 3.55007E-02-1.69614E-13-1.01836E-13
 -1       750 2.01838E+01 1.09033E-01-1.28619E-05 1.14401E-01-1.42503E-13-1.15445E-13
 -1       751 2.01469E+01 2.95645E-02-1.05515E-05 1.56785E-01-5.96636E-14-1.52201E-13
 -1       752 2.01157E+01-1.55835E-02-9.34667E-06 1.75128E-01-6.19718E-15-1.26214E-13
 -1       753 2.00903E+01-3.62014E-02-8.32950E-06 1.79264E-01-5.45994E-14-4.33968E-14
 -1       754 2.00702E+01-3.90164E-02-7.09914E-06 1.76683E-01-8.29221E-14-7.19145E-15
 -1       755 2.00544E+01-2.85365E-02-5.42295E-06 1.73072E-01-6.96518E-14-2.28343E-14
 -1       756 2.00419E+01-7.63108E-03-3.26080E-06 1.72812E-01-6.19740E-14-9.35005E-14
 -1       757 2.00315E+01 2.20519E-02-6.50214E-07 1.79404E-01-8.21211E-14-7.68219E-14
 -1       758 2.00220E+01 5.97566E-02 2.39552E-06 1.95796E-01-9.88232E-14-1.03712E-13
 -1       759 2.00120E+01 1.05337E-01 6.06830E-06 2.24618E-01-5.07971E-14-1.17384E-14
 -1       760 1.99999E+01 1.58981E-01 1.04872E-05 2.68341E-01-4.25184E-14-7.81713E-14
 -1       761 1.99837E+01 2.20884E-01 1.57254E-05 3.29349E-01-6.26257E-14-9.21292E-14
 -1       762 1.99613E+01 2.90824E-01 2.23147E-05 4.09935E-01-7.30639E-15-4.49395E-14
 -1       763 1.99301E+01 3.67571E-01 3.06015E-05 5.12227E-01-4.47104E-14-1.15895E-13
 -1       764 1.98875E+01 4.48014E-01 4.12627E-05 6.38088E-01 6.23122E-14-1.91348E-13
 -1       765 1.98313E+01 5.25860E-01 5.52506E-05 7.89039E-01 1.24540E-13-2.14256E-13
 -1       766 1.97612E+01 5.89701E-01 7.35453E-05 9.66291E-01 1.19567E-13-2.86675E-13
 -1       767 1.96807E+01 6.20290E-01 9.57075E-05 1.17101E+00-1.28455E-14-3.73267E-14
 -1       768 1.96022E+01 5.86890E-01 1.15668E-04 1.40484E+00-5.47148E-15-9.36250E-14
 -1       769 1.95537E+01 4.42871E-01 1.15354E-04 1.67032E+00 5.91152E-15-1.59905E-13
 -1       770 1.95919E+01 1.21352E-01 4.21576E-05 1.96943E+00 1.12838E-13-1.61985E-13
 -1       771 1.98223E+01-4.64540E-01 2.74452E-04 2.29354E+00 9.26955E-14-1.12614E-13
 -1       772 2.04161E+01-1.40010E+00 3.08785E-04 2.59803E+00 7.99040E-14-6.70886E-14
 -1       773 2.16705E+01-2.66416E+00 2.34108E-02 2.73835E+00 1.44980E-13-1.14224E-13
 -1       774 2.00337E+01-3.76886E-02-1.11315E-05-1.83223E-01 7.00011E-14-1.48401E-13
 -1       775 2.14693E+01-2.50496E+00 1.62164E-02-2.98050E+00 1.63642E-13 2.79646E-14
 -1       776 2.04091E+01-1.28764E+00-5.26953E-03-2.81388E+00-4.00287E-14-8.68493E-14
 -1       777 1.98949E+01-3.79160E-01 1.22592E-04-2.53642E+00-9.66461E-14-7.98524E-14
 -1       778 1.97489E+01 2.14862E-01 6.97467E-04-2.21838E+00 4.23752E-14-1.20435E-13
 -1       779 1.98129E+01 5.47069E-01 5.52627E-04-1.94900E+00-1.91416E-13 1.64011E-14
 -1       780 1.84573E+01 1.26913E+00-2.03013E-04-1.15059E+00-1.37402E-14-1.42973E-13
 -1       781 2.00467E+01-3.33820E-02-1.19872E-05-1.87059E-01 7.24386E-14-1.66368E-13
 -1       782 2.62528E+01 1.08516E+00-6.40264E-02-2.28337E+00-1.73909E-13-4.63622E-14
 -1       783 2.00659E+01-1.29116E-02-1.16234E-05-1.83216E-01 4.51372E-14-1.20692E-13
 -1       784 2.00256E+01-3.01170E-02-8.85557E-06-1.77703E-01 6.35659E-14-1.41342E-13
 -1       785 2.00213E+01-1.34623E-02-5.29665E-06-1.75052E-01 2.65247E-14-9.74882E-14
 -1       786 2.00198E+01 1.05466E-02-8.30673E-07-1.78832E-01 9.57015E-14-1.09026E-14
 -1       787 2.00205E+01 4.09139E-02 4.64691E-06-1.91966E-01 5.48772E-14-1.02980E-13
 -1       788 2.00227E+01 7.70702E-02 1.11507E-05-2.16980E-01-1.08093E-14-8.24101E-15
 -1       789 2.00259E+01 1.18559E-01 1.88480E-05-2.56132E-01 5.92337E-14-2.34033E-14
 -1       790 2.00298E+01 1.64682E-01 2.77101E-05-3.11453E-01 1.27665E-14-4.90876E-14
 -1       791 2.00343E+01 2.14036E-01 3.75536E-05-3.84671E-01-1.46303E-14-1.12714E-13
 -1       792 2.00398E+01 2.63902E-01 4.79048E-05-4.77017E-01-4.42828E-14 2.71693E-14
 -1       793 2.00477E+01 3.09430E-01 5.83751E-05-5.88895E-01-7.19779E-14 1.08762E-13
 -1       794 2.00610E+01 3.42572E-01 6.79246E-05-7.19401E-01-1.09088E-13 8.89563E-14
 -1       795 2.00857E+01 3.50753E-01 7.47906E-05-8.65659E-01-1.13996E-13 2.16530E-13
 -1       796 2.01333E+01 3.15414E-01 7.59148E-05-1.02185E+00-3.47604E-14 7.48295E-14
 -1       797 2.02230E+01 2.10886E-01 6.54276E-05-1.17768E+00-2.94703E-14 1.21155E-13
 -1       798 2.03862E+01 4.83928E-03 3.16853E-05-1.31572E+00-1.36392E-13 7.96956E-14
 -1       799 2.06697E+01-3.36972E-01-4.55168E-05-1.40646E+00-2.07254E-14 2.15304E-13
 -1       800 2.11343E+01-8.36536E-01-1.82379E-04-1.40112E+00-1.06486E-13 3.15967E-13
 -1       801 2.18508E+01-1.47547E+00 1.60135E-04-1.21755E+00-1.61033E-14 1.71594E-13
 -1       802 2.28381E+01-2.10771E+00 2.60515E-04-7.31603E-01-2.25142E-13-1.80572E-13
 -1       803 2.39826E+01-2.42542E+00 1.69720E-03 1.55698E-01-2.37640E-14-2.85584E-13
 -1       804 2.42886E+01-2.48495E+00-7.17281E-03-1.68040E-01 1.08239E-13-6.79617E-14
 -1       805 2.31382E+01-2.30290E+00-1.64975E-03 8.20386E-01 4.38733E-14-2.64148E-13
 -1       806 2.20598E+01-1.68034E+00-2.09002E-03 1.41803E+00 8.66865E-14-1.34850E-13
 -1       807 2.12971E+01-1.00674E+00-1.10006E-05 1.68580E+00 1.97355E-14 6.89591E-14
 -1       808 2.07868E+01-4.12275E-01-2.94245E-04 1.73032E+00 4.93310E-14-1.48389E-14
 -1       809 2.04749E+01 5.13686E-02-1.45317E-05 1.63787E+00-2.25208E-13-4.12245E-13
 -1       810 2.03148E+01 3.04479E-01-9.08986E-04 1.54785E+00-2.56098E-13-6.29816E-13
 -1       811 2.01434E+01 1.88856E+00-3.12017E-04 1.99654E-01 3.28870E-15-3.78370E-13
 -1       812 1.46211E+01-1.22407E+00 5.65592E-02 4.37742E+00-3.62692E-13-6.98868E-14
 -1       813 1.81540E+01 1.38938E+00-4.46622E-04 3.42168E-01 2.40403E-13 2.46086E-14
 -1       814 1.90234E+01 9.87690E-01-9.91848E-04-1.64535E+00-1.73690E-13-1.42874E-13
 -1       815 1.81424E+01 1.42216E+00-2.57043E-04-4.41605E-01-2.59766E-14 3.44188E-13
 -1       816 1.92412E+01-3.62369E+00 5.26982E-02-4.92347E+00 3.37253E-13-3.04896E-13
 -1       817 1.41283E+01-1.32174E+00 6.09498E-02-4.46524E+00 4.26719E-13-5.11976E-13
 -1       818 2.00926E+01 3.01030E-02-1.13859E-05-1.63684E-01 2.04157E-14-1.22298E-13
 -1       819 2.48801E+01-3.91901E+00-1.08483E-02-1.18586E+00 3.06474E-14 9.83415E-15
 -1       820 2.02906E+01 7.30857E-01-1.28441E-04-2.92922E-01-1.83928E-13-1.89735E-13
 -1       821 1.11240E+01 3.84698E-01 7.31810E-02 1.44877E+00-2.27094E-13 2.55438E-13
 -1       822 2.01721E+01 2.26094E-01-1.00002E-04-3.12412E-02 1.19267E-13-2.41145E-13
 -1       823 2.01281E+01 1.05085E-01-4.07530E-06-1.17784E-01 8.23555E-14-1.58382E-13
 -1       824 1.63399E+01-2.30913E+00 5.06214E-02-4.84882E+00-3.10727E-13 1.65987E-13
 -1       825 2.12573E+01-3.92620E+00 1.90915E-02-3.90646E+00-2.01015E-13-4.25081E-14
 -1       826 1.72330E+01-2.49453E+00 6.34756E-02 4.69393E+00 3.37345E-13-1.01493E-13
 -1       827 2.66028E+01-2.03147E+00-5.44734E-02-1.08881E+00-1.45308E-13-1.65902E-13
 -1       828 1.00097E+01 5.69819E-01 1.01778E-01 3.46890E-01 7.29920E-14-1.72275E-13
 -1       829 1.97292E+01-3.41211E+00 4.67664E-02 4.59798E+00 9.89729E-14-4.13202E-13
 -1       830 1.12007E+01 1.04610E-01 8.94499E-02-2.23706E+00 1.50835E-13 8.00505E-14
 -1       831 1.20653E+01-5.32980E-01 8.04743E-02 3.58118E+00 3.40372E-13-3.10668E-13
 -1       832 2.02781E+01 9.40850E-01-9.46561E-05 5.53665E-01 1.68931E-13-2.91009E-13
 -1       833 2.01319E+01 1.92687E+00-3.00483E-04 3.29645E-03-4.80970E-14-3.45640E-13
 -1       834 2.54983E+01-3.32194E+00 2.03649E-02 2.60955E-01 2.06308E-13-1.86951E-14
 -1       835 1.93987E+01 7.64129E-01 9.06490E-04-1.84563E+00-4.70848E-13-3.64609E-13
 -1       836 1.96222E+01 5.34871E-01 8.87847E-04 1.70922E+00-7.92710E-14-2.94095E-14
 -1       837 2.58575E+01 8.86806E-01-2.18030E-02 2.47826E+00-1.89125E-13-3.87190E-15
 -1       838 2.48591E+01 3.31797E+00-7.42002E-02-1.58923E+00-3.45036E-14-9.62112E-14
 -1       839 2.51400E+01-1.56487E+00-1.61283E-02-1.39564E+00-8.86791E-14 1.42803E-13
 -1       840 2.01752E+01 1.77563E+00-2.64414E-04 3.81911E-01 7.43391E-14-3.53360E-13
 -1       841 1.90201E+01 8.60119E-01-2.64360E-04 1.50332E+00-2.15263E-15 3.47712E-13
 -1       842 1.84804E+01 1.18063E+00-5.32238E-04 1.03980E+00 1.73648E-13 2.79075E-13
 -1       843 2.02324E+01 5.73516E-01 7.96511E-05 2.60347E-01 1.31775E-13-3.00555E-13
 -1       844 2.01998E+01 3.71836E-01 3.95678E-05 8.64820E-02 8.87339E-14-2.54271E-13
 -1       845 2.02894E+01 1.12371E+00 1.65953E-04-5.37444E-01-2.21886E-13-2.08226E-13
 -1       846 2.02249E+01 1.58057E+00-7.20267E-05 5.36909E-01 1.13897E-13-3.55766E-13
 -1       847 2.01735E+01 1.78219E+00-3.35185E-04-3.78877E-01-1.64189E-13-3.76708E-13
 -1       848 2.24163E+01-3.76269E+00 2.90338E-03 3.05942E+00 2.91499E-14-1.09018E-13
 -1       849 1.42901E+01-8.89647E-01 5.38017E-02-3.98762E+00-2.97273E-13-2.00109E-13
 -1       850 2.02186E+01 1.59476E+00 1.16307E-04-5.33045E-01-2.15307E-13-2.58437E-13
 -1       851 2.03087E+01 2.32911E-01 6.33828E-06 4.82438E-02-1.16029E-13-1.74548E-13
 -1       852 2.02727E+01 1.01397E-01-8.40801E-06 1.06183E-01-8.87496E-14-8.93465E-14
 -1       853 2.02332E+01 2.05221E-02-5.91662E-06 1.37214E-01-3.92149E-14-9.60583E-14
 -1       854 2.01944E+01-2.34157E-02-4.23785E-06 1.50746E-01 9.75695E-15-1.67213E-13
 -1       855 2.01580E+01-4.03377E-02-3.25997E-06 1.54301E-01-4.22473E-14-1.38616E-13
 -1       856 2.01247E+01-3.72071E-02-2.62585E-06 1.53774E-01-7.97409E-14-8.54440E-14
 -1       857 2.00939E+01-1.87212E-02-2.14007E-06 1.53743E-01-9.77042E-14-5.83789E-14
 -1       858 2.00647E+01 1.21641E-02-1.67373E-06 1.57807E-01-5.88788E-14-8.62966E-14
 -1       859 2.00354E+01 5.38101E-02-1.27982E-06 1.68891E-01-9.18896E-14-1.21539E-13
 -1       860 2.00039E+01 1.05508E-01-1.16499E-06 1.89486E-01-3.18345E-14-1.49065E-13
 -1       861 1.99676E+01 1.67152E-01-1.30312E-06 2.21802E-01-2.27126E-14-1.55105E-13
 -1       862 1.99234E+01 2.38896E-01-1.74715E-06 2.67892E-01-9.99899E-14-5.40332E-14
 -1       863 1.98677E+01 3.20698E-01-1.51617E-06 3.29698E-01-3.38616E-14-6.35106E-14
 -1       864 1.97961E+01 4.11807E-01-9.70261E-07 4.09047E-01-8.08791E-14-9.88777E-14
 -1       865 1.97037E+01 5.10076E-01 2.82051E-07 5.07700E-01 1.68113E-14-1.50376E-14
 -1       866 1.95853E+01 6.10975E-01 2.93900E-06 6.27509E-01 7.73872E-15-3.73077E-14
 -1       867 1.94359E+01 7.06231E-01 8.01308E-06 7.70857E-01 4.33353E-14-1.03213E-13
 -1       868 1.92515E+01 7.81939E-01 1.62252E-05 9.41626E-01 6.99400E-14-1.29232E-13
 -1       869 1.90315E+01 8.15941E-01 2.54689E-05 1.14704E+00-1.72238E-14-1.34849E-13
 -1       870 1.87820E+01 7.74304E-01 3.24152E-05 1.40067E+00-6.43536E-14-8.07902E-14
 -1       871 1.85229E+01 6.06448E-01 1.03845E-04 1.72684E+00 1.06616E-13-1.64086E-13
 -1       872 1.83021E+01 2.36866E-01 5.10830E-04 2.16405E+00 1.14743E-13-1.44179E-13
 -1       873 1.82205E+01-4.51295E-01 2.06333E-03 2.76539E+00 1.19630E-13-2.21506E-13
 -1       874 1.84886E+01-1.58290E+00 1.71852E-02 3.54241E+00 2.77525E-14-2.68971E-13
 -1       875 2.01421E+01 1.89192E+00-2.28129E-04-1.92667E-01-1.02345E-13-3.19808E-13
 -1       876 2.00782E+01-2.40641E-02-1.82425E-07-1.63856E-01 8.35341E-14-1.13344E-13
 -1       877 1.29229E+01 7.89588E-01 3.31440E-02-5.61964E-01 1.85666E-13 1.67330E-13
 -1       878 1.85390E+01-3.85966E-01-2.52176E-03-2.92634E+00-1.55961E-13 5.35503E-14
 -1       879 1.86684E+01 2.96204E-01-4.48413E-04-2.34753E+00-3.65062E-14 1.45173E-13
 -1       880 2.01299E+01-3.88705E-02-1.15827E-06-1.66953E-01 7.58251E-14-9.54213E-14
 -1       881 2.01023E+01-3.85921E-02-7.02928E-07-1.65449E-01 4.88182E-14-1.26757E-13
 -1       882 2.00565E+01 1.65591E-03 5.31904E-07-1.66125E-01 1.37725E-14-1.83602E-13
 -1       883 2.00361E+01 3.66925E-02 4.83854E-07-1.75431E-01 3.94585E-14-1.02463E-13
 -1       884 2.00155E+01 7.99649E-02 8.61470E-07-1.94454E-01 2.03155E-14-8.66569E-14
 -1       885 1.99931E+01 1.30780E-01 1.91092E-06-2.25582E-01 2.94273E-14-1.36387E-13
 -1       886 1.99673E+01 1.88443E-01 4.06800E-06-2.71006E-01 3.97901E-14-3.97229E-14
 -1       887 1.99364E+01 2.51783E-01 7.03014E-06-3.32784E-01 4.04653E-15-3.83272E-14
 -1       888 1.98990E+01 3.18529E-01 9.98231E-06-4.12825E-01-1.01406E-13-5.29894E-14
 -1       889 1.98544E+01 3.84540E-01 1.40693E-05-5.12817E-01-5.60853E-14-3.23884E-14
 -1       890 1.98032E+01 4.42801E-01 1.99212E-05-6.34144E-01-7.36904E-14-5.90808E-14
 -1       891 1.97483E+01 4.82144E-01 2.87121E-05-7.77818E-01-2.23617E-13 1.13415E-13
 -1       892 1.96971E+01 4.85682E-01 4.29572E-05-9.44414E-01-1.68195E-14 1.30473E-13
 -1       893 1.96644E+01 4.29024E-01 6.79351E-05-1.13387E+00-8.61520E-14 4.56897E-14
 -1       894 1.96767E+01 2.78663E-01 1.12923E-04-1.34459E+00-3.49930E-14-1.61431E-14
 -1       895 1.97789E+01-8.37415E-03 1.89779E-04-1.57063E+00-1.51567E-13-1.01585E-13
 -1       896 2.00431E+01-4.80787E-01 4.12762E-04-1.79282E+00-7.32210E-14-5.03697E-14
 -1       897 2.05691E+01-1.17234E+00 1.17535E-03-1.96272E+00-7.54132E-14-2.84615E-14
 -1       898 2.15054E+01-2.09235E+00-4.15716E-03-1.97408E+00 4.00758E-14 1.09999E-14
 -1       899 2.30229E+01-3.04687E+00 9.28912E-03-1.62455E+00-2.95022E-15-3.71389E-14
 -1       900 2.03190E+01-6.22537E-01-1.41876E-03 2.14449E+00 1.11417E-13 1.37515E-13
 -1       901 2.00597E+01-3.03867E-02-4.22891E-04 1.91668E+00 8.69131E-14 1.49563E-13
 -1       902 2.00129E+01 4.00412E-01 3.05220E-04 1.66715E+00-2.48685E-13-2.59203E-13
 -1       903 1.25229E+01 5.54691E-01 3.63171E-02 1.80478E+00 2.40836E-13-2.00343E-13
 -1       904 1.82491E+01 8.92301E-01-1.75490E-03-1.71072E+00-2.53990E-13-2.82118E-13
 -1       905 1.43453E+01 2.86347E-01 1.94782E-02 2.42211E+00-2.12117E-13 3.53051E-14
 -1       906 2.01968E+01 2.42489E-02-4.22334E-06-1.47869E-01 3.14491E-14-1.59285E-13
 -1       907 2.09185E+01-1.44099E+00 2.73663E-03 2.27334E+00-1.45100E-13 2.59949E-14
 -1       908 2.13654E+01-2.41107E+00-1.42130E-03 2.66783E+00-1.73428E-13-1.37738E-13
 -1       909 2.03370E+01 7.29940E-01 1.94721E-04-1.90331E-01-1.60526E-13-2.17587E-13
 -1       910 1.78610E+01-1.86081E+00 3.63442E-02-4.19651E+00 1.72747E-13-1.77447E-13
 -1       911 2.01614E+01-2.02136E-02-1.95614E-06-1.63294E-01 5.59971E-14-1.38177E-13
 -1       912 2.09912E+01-3.56582E+00 2.67572E-02 3.68646E+00 2.91770E-13-2.05295E-13
 -1       913 1.23066E+01 5.60290E-01 4.74041E-02-1.78091E+00-4.67482E-14-2.38722E-13
 -1       914 2.03342E+01 4.32792E-01-8.04946E-05-4.71268E-02-1.12887E-13-2.07459E-13
 -1       915 1.54874E+01-7.22219E-01 3.91159E-02 3.60058E+00 1.76551E-13-1.94449E-13
 -1       916 1.92427E+01-2.36176E+00 1.39719E-02-3.69336E+00-1.19182E-13-2.54894E-13
 -1       917 1.42393E+01-3.61111E-02 3.67350E-02-2.90993E+00 1.73240E-13-3.57988E-13
 -1       918 2.02983E+01 8.26820E-01-2.66987E-04 3.48552E-01 1.43475E-13-2.79021E-13
 -1       919 1.81208E+01-1.63949E+00 2.51840E-02 3.84673E+00-3.87441E-13-9.52190E-15
 -1       920 1.90765E+01 5.61456E-01 1.57140E-03-2.06565E+00-4.26322E-14-1.97082E-13
 -1       921 2.02805E+01 1.40667E+00-5.27907E-06 6.98242E-02-4.30630E-15-3.38364E-13
 -1       922 2.03056E+01 1.10692E+00-3.71509E-04-3.65578E-01-1.70575E-13-2.65723E-13
 -1       923 2.02902E+01 1.33834E+00-1.53304E-05 1.97752E-01 5.93910E-14-3.10463E-13
 -1       924 1.75992E+01 1.09929E+00-1.09393E-03 9.31408E-01-2.07816E-14 8.80799E-14
 -1       925 1.75436E+01 1.20793E+00 4.80103E-04-9.74303E-01-2.25220E-14 6.44425E-14
 -1       926 1.73140E+01 1.28325E+00-1.73044E-03-9.92841E-03 1.30388E-13-1.47391E-13
 -1       927 2.02978E+01 4.35505E-01-2.44251E-05 6.84316E-02 7.44578E-14-2.99364E-13
 -1       928 2.02349E+01 1.04319E-01-1.81363E-06-1.12204E-01 1.90441E-14-1.71822E-13
 -1       929 1.74086E+01-1.29792E+00 1.97785E-02-3.60636E+00-5.20741E-14-1.67449E-14
 -1       930 1.32128E+01 9.92659E-01 2.05250E-02-1.54090E-01 1.36548E-13 3.64994E-14
 -1       931 2.02726E+01 2.33521E-01-5.88232E-06-4.57452E-02 2.61711E-14-2.18575E-13
 -1       932 1.99661E+01-2.21478E+00 2.40840E-03 3.39898E+00-1.41449E-13-2.10538E-13
 -1       933 2.02872E+01 1.34583E+00-4.07167E-04-1.94339E-01-9.62384E-14-2.96910E-13
 -1       934 1.92433E+01 2.71863E-01-4.25179E-03 1.97994E+00 1.79817E-13-1.12901E-13
 -1       935 2.03284E+01 8.09894E-02-4.82329E-06 8.94884E-02-3.12885E-14-1.64245E-13
 -1       936 2.02853E+01 6.27287E-03-1.88727E-06 1.09083E-01-3.77148E-14-1.26596E-13
 -1       937 2.02398E+01-3.11060E-02-7.85457E-07 1.17552E-01-3.77969E-15-9.46211E-14
 -1       938 2.01945E+01-4.06662E-02-5.47886E-07 1.20124E-01-3.22793E-14-1.04129E-13
 -1       939 2.01503E+01-2.91702E-02-9.04046E-07 1.20957E-01-1.04389E-13-1.56146E-13
 -1       940 2.01068E+01-1.15555E-03-1.66524E-06 1.23318E-01-6.65203E-14-1.12385E-13
 -1       941 2.00627E+01 4.05870E-02-2.12089E-06 1.29797E-01-8.00523E-14-8.59808E-14
 -1       942 2.00157E+01 9.45937E-02-2.50571E-06 1.42528E-01-5.40088E-14-7.63640E-14
 -1       943 1.99628E+01 1.60206E-01-7.17739E-06 1.63316E-01-2.55463E-14-7.35920E-14
 -1       944 1.99003E+01 2.37391E-01-1.35139E-05 1.93692E-01-5.24404E-16-6.35156E-14
 -1       945 1.98236E+01 3.26140E-01-1.88719E-05 2.35095E-01-3.05546E-14-5.32600E-14
 -1       946 1.97276E+01 4.26006E-01-2.50343E-05 2.88757E-01-4.89748E-15-1.10030E-13
 -1       947 1.96060E+01 5.35607E-01-3.31574E-05 3.55805E-01-2.71445E-14 3.16133E-14
 -1       948 1.94517E+01 6.51888E-01-4.39521E-05 4.37428E-01 1.02080E-14 2.45507E-14
 -1       949 1.92564E+01 7.69251E-01-5.88631E-05 5.35251E-01 5.91146E-15-4.29019E-14
 -1       950 1.90109E+01 8.78497E-01-8.07189E-05 6.52240E-01 2.71048E-14-1.66546E-13
 -1       951 1.87045E+01 9.65491E-01-1.15315E-04 7.94501E-01-8.05005E-15-1.17518E-13
 -1       952 1.83253E+01 1.00938E+00-1.68978E-04 9.74456E-01 7.78296E-14-5.35625E-14
 -1       953 1.78601E+01 9.80274E-01-1.86191E-04 1.21587E+00-1.28396E-13-5.66492E-14
 -1       954 1.72941E+01 8.35607E-01 4.28494E-04 1.56420E+00-3.25379E-14-3.80002E-13
 -1       955 1.66168E+01 5.06522E-01 4.99861E-03 2.09865E+00 6.10804E-14-4.87595E-13
 -1       956 1.60353E+01 4.14678E-02 1.47020E-02 2.73685E+00 9.60686E-14-3.59165E-13
 -1       957 2.00653E+01 2.60576E-02 5.41562E-06-1.44397E-01 2.65536E-14-1.05011E-14
 -1       958 1.71765E+01 5.37272E-01 7.03099E-03-2.16914E+00-1.42665E-13-2.15436E-13
 -1       959 1.49386E+01 9.85252E-01 8.26558E-03 5.99636E-01-2.99597E-14-7.96451E-14
 -1       960 2.01026E+01-1.00504E-02 6.25917E-06-1.38516E-01 8.88140E-14-4.14646E-14
 -1       961 1.99850E+01 1.29947E-01-2.14893E-06-1.79207E-01 3.11010E-14-8.89228E-14
 -1       962 1.99372E+01 1.95878E-01-3.37258E-06-2.12498E-01-1.49042E-14-7.28571E-14
 -1       963 1.98805E+01 2.69977E-01-3.51119E-06-2.59136E-01-7.81612E-14 2.21872E-14
 -1       964 1.98121E+01 3.50578E-01-6.30386E-06-3.21229E-01-1.72758E-14 9.94172E-14
 -1       965 1.97290E+01 4.34575E-01-8.82535E-06-4.01026E-01 3.63795E-15-3.54963E-14
 -1       966 1.96293E+01 5.16586E-01-1.11486E-05-5.01062E-01-1.06711E-13-5.61736E-14
 -1       967 1.95120E+01 5.87890E-01-1.32403E-05-6.24440E-01-2.55847E-13 4.54220E-14
 -1       968 1.93787E+01 6.35122E-01-1.44786E-05-7.75328E-01-2.15283E-13-9.23164E-14
 -1       969 1.92353E+01 6.38673E-01-1.24041E-05-9.59769E-01-9.76493E-15 5.86493E-14
 -1       970 1.90954E+01 5.70630E-01 1.88504E-06-1.18678E+00-1.29518E-14-5.05762E-14
 -1       971 1.89854E+01 3.92115E-01 7.25478E-05-1.46884E+00-5.57107E-14-8.48516E-14
 -1       972 1.89527E+01 5.14230E-02 9.04153E-05-1.82093E+00-9.77987E-14-2.24234E-13
 -1       973 1.90947E+01-5.25090E-01-7.19329E-04-2.25344E+00-5.60618E-14-3.27488E-13
 -1       974 1.95884E+01-1.40453E+00 5.87232E-03-2.74789E+00 1.94441E-15-3.77464E-13
 -1       975 1.82812E+01 7.39266E-01 5.19923E-03 1.64109E+00 1.52300E-13 4.12785E-13
 -1       976 2.03022E+01 1.20407E+00-6.77410E-04 3.03759E-01 1.10544E-13-3.35991E-13
 -1       977 2.03645E+01 2.05987E-01 1.68631E-05 5.26800E-02-8.31333E-14-1.68244E-13
 -1       978 2.01799E+01-4.10295E-02 8.33830E-06-1.36750E-01 6.17170E-14-6.03133E-14
 -1       979 1.50086E+01 8.28553E-02 1.82650E-02-2.69552E+00-1.91170E-13-2.37089E-13
 -1       980 2.02638E+01 1.20745E-02 6.58362E-06-1.23464E-01 1.00900E-14-2.05558E-13
 -1       981 1.94247E+01-7.11541E-01 1.82157E-03 2.63729E+00 7.63604E-14 3.12046E-14
 -1       982 2.02966E+01 6.12441E-01-1.45487E-05 1.85914E-01 8.71643E-14-3.14452E-13
 -1       983 1.49359E+01 6.97147E-01 9.80474E-04-1.61710E+00 1.52934E-14-1.66688E-13
 -1       984 2.03778E+01 6.79504E-01 3.59400E-05-1.02889E-01-1.19105E-13-2.32441E-13
 -1       985 2.02213E+01-2.81582E-02 8.47364E-06-1.33888E-01 8.35799E-15-1.43441E-13
 -1       986 2.02799E+01 1.40805E+00 1.92140E-06-6.54684E-02-5.87551E-14-2.80161E-13
 -1       987 1.70407E+01-1.52590E-01 2.38090E-03 2.80209E+00-2.14408E-13-1.03996E-13
 -1       988 2.03863E+01 3.95097E-01-2.71965E-04-9.90605E-03-9.98571E-14-1.90185E-13
 -1       989 2.03617E+01 4.25573E-01 2.46310E-05 2.73932E-02 1.54236E-14-2.97334E-13
 -1       990 2.00269E+01 7.30672E-02-5.56645E-08-1.57202E-01 1.27842E-14-1.03002E-13
 -1       991 2.01404E+01-3.34257E-02 7.36813E-06-1.36999E-01 8.09553E-14-6.66884E-14
 -1       992 2.03052E+01 8.93255E-02 7.34614E-06-9.92405E-02-1.78931E-14-2.67956E-13
 -1       993 2.03736E+01 1.00156E+00 3.17273E-05 1.39848E-03-2.18343E-15-2.65991E-13
 -1       994 1.71896E+01 6.59132E-01-1.36731E-04 1.76557E+00 1.72899E-13-1.15725E-13
 -1       995 2.03560E+01 9.81769E-01 1.39399E-04-1.59885E-01-9.12088E-14-2.83479E-13
 -1       996 1.47679E+01 8.18775E-01 8.32085E-03-1.44300E+00-1.44790E-13 4.33674E-14
 -1       997 2.03525E+01 6.09806E-01 4.36509E-05 1.13530E-01 6.40610E-14-3.17821E-13
 -1       998 1.64757E+01 1.06230E+00 9.44417E-03 6.92417E-01-1.35320E-13 3.28630E-14
 -1       999 2.03725E+01 9.71984E-01-4.97449E-05 8.07150E-02 4.69612E-14-2.74588E-13
 -1      1000 2.03409E+01 2.16355E-01-5.75694E-06-5.36389E-02-2.64498E-14-3.17240E-13
 -1      1001 1.62725E+01 5.77510E-01 3.41069E-03-2.08872E+00-4.01528E-14-4.32168E-13
 -1      1002 2.03726E+01 9.74363E-01 1.58151E-04-7.72975E-02-8.05567E-14-2.58680E-13
 -1      1003 1.47280E+01 8.69830E-01 1.22704E-02 1.41684E+00 8.45671E-14-3.21723E-13
 -1      1004 2.03079E+01-1.00513E-02-1.81389E-05 7.27377E-02 1.44825E-14-1.68625E-13
 -1      1005 2.02566E+01-3.68174E-02-1.14132E-05 7.69030E-02-3.89608E-14-1.54213E-13
 -1      1006 2.02043E+01-3.64645E-02-8.76346E-06 7.84448E-02-5.35123E-14-1.39244E-13
 -1      1007 2.01518E+01-1.52159E-02-9.52758E-06 7.97854E-02-9.20062E-15-7.41076E-15
 -1      1008 2.00981E+01 2.28250E-02-1.32535E-05 8.28359E-02-8.73890E-14-9.44268E-14
 -1      1009 2.00416E+01 7.51923E-02-1.04415E-05 8.90668E-02-2.54552E-14-4.09708E-14
 -1      1010 1.99791E+01 1.40872E-01 6.98705E-07 9.97633E-02-3.27311E-14-3.97944E-14
 -1      1011 1.99072E+01 2.18791E-01-3.49794E-05 1.15709E-01-9.12065E-14-8.76929E-14
 -1      1012 1.98206E+01 3.09509E-01-5.72007E-05 1.37917E-01-4.28552E-14-1.57962E-13
 -1      1013 1.97143E+01 4.12276E-01-6.87122E-05 1.66797E-01-1.74418E-14-1.02275E-13
 -1      1014 1.95814E+01 5.26255E-01-8.76954E-05 2.02664E-01-2.96357E-14-1.39129E-13
 -1      1015 1.94141E+01 6.49294E-01-1.12478E-04 2.45680E-01 5.09870E-14-1.06167E-13
 -1      1016 1.92034E+01 7.77448E-01-1.46500E-04 2.95949E-01-1.58692E-14-5.71360E-15
 -1      1017 1.89376E+01 9.04415E-01-1.97157E-04 3.53947E-01-6.47843E-15 3.74429E-14
 -1      1018 1.86023E+01 1.02107E+00-2.78643E-04 4.21448E-01 6.06908E-14-7.48861E-14
 -1      1019 1.81771E+01 1.11512E+00-4.18080E-04 5.03389E-01 9.77306E-14 1.94605E-14
 -1      1020 1.76322E+01 1.17050E+00-6.65208E-04 6.11391E-01-2.24431E-13-1.80736E-13
 -1      1021 1.69257E+01 1.16546E+00-3.94058E-04 7.65542E-01-2.38502E-13-2.81910E-13
 -1      1022 1.59931E+01 1.08150E+00 1.48896E-03 1.00608E+00-7.72759E-14-2.35406E-13
 -1      1023 2.02995E+01-3.67910E-03-6.85865E-06-9.05887E-02-2.55079E-14-2.32196E-13
 -1      1024 1.71313E+01-2.78255E-01 3.35611E-03-2.69602E+00-1.55782E-13-2.83461E-13
 -1      1025 2.01031E+01 1.12361E-02 1.84171E-06-1.02823E-01 4.60730E-15 4.44221E-14
 -1      1026 1.98627E+01 2.67865E-01-2.00123E-05-1.74701E-01-9.89690E-14 8.07021E-14
 -1      1027 1.99354E+01 1.87307E-01-2.41855E-05-1.44383E-01-2.16261E-14 7.38887E-14
 -1      1028 1.96686E+01 4.54610E-01-4.53286E-05-2.71349E-01-1.42777E-14-5.90897E-14
 -1      1029 1.95385E+01 5.55084E-01-5.59103E-05-3.42454E-01-2.95348E-14 1.07530E-14
 -1      1030 1.93806E+01 6.52926E-01-6.76518E-05-4.33155E-01-1.39376E-13-5.59148E-14
 -1      1031 1.91913E+01 7.38623E-01-8.28451E-05-5.48466E-01-8.78785E-14-2.09399E-13
 -1      1032 1.89681E+01 7.98238E-01-1.06836E-04-6.95949E-01-1.93222E-13-3.99822E-13
 -1      1033 1.87104E+01 8.12177E-01-1.51364E-04-8.87471E-01-4.39555E-14-2.15564E-13
 -1      1034 1.84211E+01 7.53219E-01-2.77344E-04-1.14232E+00 3.58135E-15-2.16913E-13
 -1      1035 1.81144E+01 5.80285E-01-3.58786E-04-1.49063E+00 9.05459E-14-3.95921E-13
 -1      1036 1.78274E+01 2.43126E-01 1.20149E-03-1.96907E+00-8.89437E-14-4.74836E-13
 -1      1037 2.03653E+01 8.87523E-01-1.01942E-04 1.43916E-01 9.01286E-14-2.80063E-13
 -1      1038 2.03949E+01 1.63189E-01-5.52973E-05 4.35998E-02-6.59002E-14-1.93874E-13
 -1      1039 2.02013E+01-3.89345E-02 4.21184E-06-9.82874E-02 6.81423E-15-1.22036E-13
 -1      1040 1.63527E+01 1.15573E+00 2.52309E-03-6.01123E-01-1.19802E-13-3.01999E-13
 -1      1041 2.03483E+01 7.67682E-01 2.42580E-04 1.79992E-01 1.05112E-13-3.20160E-13
 -1      1042 2.04070E+01 6.93575E-01 4.87800E-04-5.89945E-02-8.06267E-14-2.55651E-13
 -1      1043 2.02506E+01-3.49737E-02 1.16769E-06-9.63689E-02-1.77039E-14-2.15372E-13
 -1      1044 2.04180E+01 7.33745E-01 1.84077E-04-1.93726E-02-3.05023E-14-1.94655E-13
 -1      1045 2.01522E+01-2.20696E-02 4.02418E-06-9.95740E-02 5.50020E-14-1.80481E-14
 -1      1046 2.04212E+01 3.33393E-01-1.18099E-04 9.02884E-03-6.55994E-14-2.04018E-13
 -1      1047 2.04046E+01 3.72513E-01-2.01108E-04-1.99408E-03 1.55893E-14-2.95227E-13
 -1      1048 1.97752E+01 3.57646E-01-3.51238E-05-2.16310E-01-7.39066E-14-4.77315E-14
 -1      1049 2.03556E+01 5.26652E-02-3.11648E-05 6.28946E-02-2.31327E-14-2.06466E-13
 -1      1050 2.00522E+01 5.81868E-02 1.65648E-06-1.10178E-01 1.15436E-13 3.23506E-14
 -1      1051 1.64303E+01 4.91085E-01 3.64294E-03-1.93001E+00-1.45989E-13-1.59197E-13
 -1      1052 2.03452E+01 6.41020E-02-2.08559E-05-7.69116E-02-5.45440E-14-2.69996E-13
 -1      1053 1.49981E+01 1.15831E+00 4.86904E-03-2.49837E-02-7.53865E-14 1.02429E-13
 -1      1054 1.99973E+01 1.17237E-01-1.12797E-05-1.23396E-01-2.20949E-14 4.06818E-14
 -1      1055 2.03967E+01 5.51622E-01 4.04681E-04 4.65370E-02 5.64864E-14-2.99645E-13
 -1      1056 2.03829E+01 1.80333E-01-3.86253E-05-5.03246E-02-4.88810E-14-2.76009E-13
 -1      1057 2.04142E+01 7.31923E-01-2.49073E-05 2.57806E-02 1.52580E-14-2.67490E-13
 -1      1058 2.02505E+01-3.82670E-02 6.26635E-05 3.06261E-02-4.19192E-14-1.18503E-13
 -1      1059 2.01935E+01-2.70281E-02 5.15516E-05 3.12402E-02-3.41156E-14-1.21876E-13
 -1      1060 2.01352E+01 4.04964E-03 4.10179E-05 3.20985E-02-8.01965E-14-1.22462E-13
 -1      1061 2.00742E+01 5.14657E-02 1.90675E-05 3.37929E-02-2.66803E-14-1.20333E-13
 -1      1062 2.00086E+01 1.12941E-01 2.74324E-05 3.66400E-02-3.86824E-14-7.07292E-14
 -1      1063 1.99346E+01 1.87942E-01 1.66002E-04 4.15797E-02-8.22888E-15-1.68024E-14
 -1      1064 1.98461E+01 2.76618E-01 6.59925E-05 4.78925E-02-3.95313E-14 1.61160E-14
 -1      1065 1.97401E+01 3.77119E-01 4.70763E-05 5.54586E-02 5.04926E-14 3.60002E-14
 -1      1066 1.96093E+01 4.89485E-01 5.66563E-05 6.41834E-02-4.94838E-14 1.27045E-13
 -1      1067 1.94463E+01 6.11877E-01 6.66074E-05 7.31656E-02-9.12043E-14 2.05504E-14
 -1      1068 1.92424E+01 7.41126E-01 7.60265E-05 8.11294E-02-1.61431E-14-1.99753E-13
 -1      1069 1.89868E+01 8.72190E-01 8.23713E-05 8.63041E-02 7.70643E-15-2.54569E-13
 -1      1070 1.86655E+01 9.97883E-01 7.72656E-05 8.64063E-02-4.87509E-14-2.56668E-13
 -1      1071 1.82591E+01 1.10896E+00 3.54711E-05 7.86397E-02 2.37304E-14-3.06274E-13
 -1      1072 1.77382E+01 1.19472E+00-1.19399E-04 5.94963E-02-3.31999E-14-4.24816E-13
 -1      1073 1.70541E+01 1.24278E+00-8.53669E-04 2.41558E-02-1.63666E-13-1.35040E-13
 -1      1074 1.91239E+01 7.86086E-01-9.84748E-05-3.01125E-01-2.60436E-14 2.35543E-14
 -1      1075 1.97784E+01 3.41975E-01-3.32868E-05-1.10237E-01-4.76231E-14 4.07478E-14
 -1      1076 2.04340E+01 2.62250E-01 4.58509E-05 9.71482E-03-2.79220E-14-1.28112E-13
 -1      1077 2.03583E+01 2.29432E-02 8.62957E-05 2.67112E-02 4.80189E-15-8.88252E-14
 -1      1078 1.93413E+01 6.72953E-01-7.68231E-05-2.31538E-01-9.51035E-14 3.01161E-15
 -1      1079 1.95182E+01 5.57403E-01-5.83281E-05-1.79066E-01-7.89360E-14-5.28103E-14
 -1      1080 1.88575E+01 8.87551E-01-1.25106E-04-3.93995E-01-2.76235E-14-1.19346E-13
 -1      1081 1.85322E+01 9.64629E-01-1.65187E-04-5.19618E-01-1.75085E-13-2.27251E-13
 -1      1082 1.81348E+01 1.00074E+00-2.18235E-04-6.92698E-01-6.40017E-14-2.09803E-13
 -1      1083 1.76461E+01 9.76543E-01 5.23581E-05-9.35762E-01 2.18767E-13-1.81584E-13
 -1      1084 1.70355E+01 8.69195E-01 1.89979E-03-1.29930E+00 1.18128E-13-7.19256E-14
 -1      1085 2.03061E+01-2.42317E-02 7.50635E-05 2.94598E-02-3.82795E-14-1.29351E-13
 -1      1086 1.96617E+01 4.45747E-01-4.32881E-05-1.39584E-01 2.03286E-14-8.33716E-14
 -1      1087 2.02552E+01-3.83365E-02-1.40319E-05-5.23029E-02-7.09600E-14-1.30669E-13
 -1      1088 2.04029E+01 1.13979E-01 9.64936E-05 2.11363E-02-3.62832E-14-7.82569E-14
 -1      1089 2.01436E+01-4.83060E-03-1.36573E-05-5.48887E-02-1.82810E-14-6.97614E-14
 -1      1090 2.01998E+01-3.17062E-02-1.45611E-05-5.34474E-02-5.07592E-14-1.20855E-13
 -1      1091 2.03092E+01-1.88954E-02-1.17583E-05-4.98371E-02-2.36891E-14-2.08532E-13
 -1      1092 1.98745E+01 2.47962E-01-5.34775E-06-8.81853E-02-8.48190E-14 1.16389E-14
 -1      1093 2.04284E+01 3.01116E-01-1.13969E-05-1.22377E-02-1.82524E-14-1.78305E-13
 -1      1094 2.04417E+01 4.64193E-01-5.45577E-05 2.17149E-04-2.13053E-14-1.75843E-13
 -1      1095 1.62088E+01 1.22109E+00 1.12203E-03-7.36310E-03-3.37224E-14 2.79410E-14
 -1      1096 1.59583E+01 1.05852E+00-7.06105E-03-8.64586E-01-6.98672E-14 1.84777E-13
 -1      1097 2.03597E+01 3.49361E-02-6.29586E-06-4.40640E-02-5.12484E-14-2.30194E-13
 -1      1098 1.99557E+01 1.65666E-01 2.30456E-04-7.36552E-02-1.82643E-14 3.05115E-14
 -1      1099 2.04104E+01 6.24199E-01 3.04826E-04 4.94357E-02 6.19290E-14-2.40519E-13
 -1      1100 2.04022E+01 1.34366E-01 3.07086E-05-3.26542E-02-2.51134E-14-2.19311E-13
 -1      1101 2.00856E+01 3.84966E-02-5.74559E-06-5.79456E-02 3.50840E-14-3.60752E-14
 -1      1102 1.99716E+01 1.48003E-01-3.15796E-04-2.62251E-02-1.26683E-14-5.91672E-15
 -1      1103 2.00234E+01 9.58290E-02-2.90133E-05-6.40752E-02-2.10436E-15 5.56067E-14
 -1      1104 2.04279E+01 5.40813E-01-1.50375E-04 1.95313E-02 3.07642E-14-2.04332E-13
 -1      1105 2.79609E+01 9.08591E+00 2.32526E+00-6.69863E+00-3.01981E-14 1.77655E-12
 -1      1106 2.05454E+01 6.22651E+00 2.09637E-01-3.90505E+00-2.13440E-14 5.37778E-13
 -1      1107 1.94329E+01 5.85244E+00 7.52414E-02-2.88930E+00-1.88877E-14-5.69371E-14
 -1      1108 1.90255E+01 5.72577E+00 6.03953E-02-2.23664E+00-1.35551E-14-3.74163E-13
 -1      1109 1.88401E+01 5.66931E+00 5.75805E-02-1.70298E+00-1.08004E-14-5.49795E-13
 -1      1110 1.87473E+01 5.64088E+00 5.55760E-02-1.23534E+00-7.59288E-15-6.46604E-13
 -1      1111 1.86989E+01 5.62583E+00 5.38256E-02-8.05235E-01-5.67905E-15-6.99473E-13
 -1      1112 1.86753E+01 5.61839E+00 5.26147E-02-3.93326E-01-3.42022E-15-7.40682E-13
 -1      1113 1.86686E+01 5.61626E+00 5.22284E-02 8.47539E-03-2.42026E-15-7.70791E-13
 -1      1114 1.86764E+01 5.61874E+00 5.27375E-02 4.10688E-01-2.93819E-16-7.94516E-13
 -1      1115 1.87011E+01 5.62657E+00 5.41139E-02 8.23966E-01 1.34658E-15-8.09756E-13
 -1      1116 1.87511E+01 5.64223E+00 5.63024E-02 1.25674E+00 3.75134E-15-7.98661E-13
 -1      1117 1.88455E+01 5.67119E+00 5.84851E-02 1.72877E+00 6.68389E-15-7.59394E-13
 -1      1118 1.90309E+01 5.72740E+00 6.03965E-02 2.26991E+00 1.12063E-14-6.57783E-13
 -1      1119 1.94296E+01 5.84964E+00 6.91573E-02 2.92994E+00 1.72223E-14-4.31339E-13
 -1      1120 2.04514E+01 6.18137E+00 1.53162E-01 3.87959E+00 2.35645E-14 7.57831E-14
 -1      1121 2.52151E+01 7.99367E+00 1.43034E+00 5.84684E+00 6.11733E-14 1.25125E-12
 -1      1122 2.88105E+01 3.61640E+00 1.27145E+00-4.21729E+00-1.47521E-13 2.58477E-12
 -1      1123 2.02241E+01-1.77737E-01-6.16313E-01-1.09999E-01-5.19931E-14 2.24096E-12
 -1      1124 1.88287E+01-9.63475E-02-2.36347E-01 6.24906E-02-1.85112E-14 1.72256E-12
 -1      1125 1.84935E+01-4.80521E-02-5.95715E-02 4.04682E-02-1.84514E-14 1.32348E-12
 -1      1126 1.84371E+01-2.46153E-02-1.51795E-02 2.67451E-02-1.12237E-15 1.07758E-12
 -1      1127 1.85174E+01-1.30483E-02-4.94922E-03 1.90088E-02-6.03055E-15 9.54757E-13
 -1      1128 1.86627E+01-6.61712E-03-1.45183E-03 1.40437E-02-7.93289E-15 8.26348E-13
 -1      1129 1.88335E+01-2.87010E-03 5.64042E-04 1.05887E-02-1.10930E-14 6.69005E-13
 -1      1130 1.90075E+01-6.74702E-04 1.84605E-03 8.02378E-03-2.85071E-15 5.45833E-13
 -1      1131 1.91721E+01 5.62073E-04 2.53401E-03 6.04017E-03-7.93018E-15 4.37459E-13
 -1      1132 1.93209E+01 1.17552E-03 2.75506E-03 4.47460E-03-2.53812E-14 2.19728E-13
 -1      1133 1.94517E+01 1.36717E-03 2.63269E-03 3.23146E-03 7.60286E-15 2.01589E-13
 -1      1134 1.95648E+01 1.26254E-03 2.26155E-03 2.24891E-03 7.17453E-15 1.71415E-13
 -1      1135 1.96626E+01 9.39447E-04 1.70300E-03 1.48466E-03-6.91556E-15 2.14126E-13
 -1      1136 1.97489E+01 4.43121E-04 9.89371E-04 9.10338E-04-4.58929E-15 3.56651E-13
 -1      1137 1.98288E+01-2.04663E-04 1.29361E-04 5.09861E-04-2.65778E-14 4.12926E-13
 -1      1138 1.99081E+01-9.99307E-04-8.87350E-04 2.79895E-04-7.48804E-15 3.16629E-13
 -1      1139 1.99942E+01-1.94814E-03-2.08596E-03 2.31639E-04 3.47830E-14 3.12238E-13
 -1      1140 2.00955E+01-3.06493E-03-3.50191E-03 3.93725E-04 3.40609E-14 2.94863E-13
 -1      1141 2.02222E+01-4.36266E-03-5.17426E-03 8.16138E-04 5.05780E-16 2.42160E-13
 -1      1142 2.03860E+01-5.84251E-03-7.13406E-03 1.57492E-03 1.20642E-14 3.46879E-13
 -1      1143 2.06007E+01-7.47572E-03-9.38279E-03 2.77671E-03-1.33561E-14 3.48491E-13
 -1      1144 2.08820E+01-9.17321E-03-1.18515E-02 4.56032E-03-9.89898E-15 3.22004E-13
 -1      1145 2.12468E+01-1.07357E-02-1.43255E-02 7.08836E-03-1.27611E-14 2.62327E-13
 -1      1146 2.17120E+01-1.17764E-02-1.63116E-02 1.05135E-02 1.54825E-14 2.94851E-13
 -1      1147 2.22904E+01-1.16118E-02-1.68266E-02 1.48882E-02-3.47224E-14 2.34365E-13
 -1      1148 2.29843E+01-9.13925E-03-1.41116E-02 1.99653E-02 1.11226E-14-3.10273E-14
 -1      1149 2.37738E+01-2.77526E-03-5.39506E-03 2.48158E-02-3.13139E-14-1.47844E-13
 -1      1150 2.45982E+01 9.33427E-03 1.28989E-02 2.72235E-02 2.30288E-14 2.49314E-13
 -1      1151 2.53324E+01 2.84357E-02 4.36023E-02 2.30183E-02 2.01271E-15 5.32942E-13
 -1      1152 2.57683E+01 5.30440E-02 8.46821E-02 6.08809E-03-2.11064E-14 7.93465E-13
 -1      1153 2.56265E+01 7.55265E-02 1.22508E-01-2.90198E-02-7.33788E-16 7.66109E-13
 -1      1154 2.46466E+01 7.95488E-02 1.28411E-01-8.02647E-02-1.16756E-14 4.16639E-13
 -1      1155 2.27814E+01 4.61145E-02 7.02097E-02-1.29207E-01 5.88761E-14 3.64431E-13
 -1      1156 2.04240E+01-2.90389E-02-5.39255E-02-1.41674E-01 5.64297E-14 4.87846E-13
 -1      1157 1.84280E+01-1.10135E-01-1.86035E-01-9.10894E-02-8.34055E-15 2.87562E-13
 -1      1158 1.77123E+01-1.42707E-01-2.36735E-01 9.66199E-03 2.17725E-14 2.21783E-13
 -1      1159 1.86300E+01-9.62572E-02-1.63459E-01 1.04532E-01 1.27207E-14 7.10959E-14
 -1      1160 2.06748E+01-1.14214E-02-2.50082E-02 1.42314E-01 5.29749E-14 7.36911E-15
 -1      1161 2.28841E+01 5.75146E-02 8.96063E-02 1.19528E-01 3.88318E-14 9.94760E-14
 -1      1162 2.44703E+01 8.30871E-02 1.34407E-01 6.71057E-02-2.83714E-14-5.52058E-14
 -1      1163 2.51327E+01 7.41154E-02 1.20084E-01 1.72411E-02-7.09034E-14-6.62057E-13
 -1      1164 2.49751E+01 5.01732E-02 7.99702E-02-1.54039E-02 1.05410E-14-1.02636E-12
 -1      1165 2.42726E+01 2.55292E-02 3.96541E-02-3.09035E-02-4.45494E-14-3.59459E-13
 -1      1166 2.32992E+01 6.09356E-03 9.26946E-03-3.50450E-02 2.61865E-14-5.10744E-13
 -1      1167 2.22612E+01-7.87468E-03-1.16651E-02-3.31413E-02 5.10084E-14-1.62842E-13
 -1      1168 2.13001E+01-1.82730E-02-2.77130E-02-2.77563E-02 5.64377E-14-2.19765E-13
 -1      1169 2.05246E+01-2.64930E-02-4.14093E-02-1.76880E-02 6.69508E-14 1.12632E-13
 -1      1170 2.00514E+01-3.47829E-02-4.18280E-02 2.82195E-03-7.86285E-15 3.84053E-13
 -1      1171 1.99620E+01 1.25730E-02 2.37887E-02 1.36577E-02 4.91293E-14 1.85379E-13
 -1      1172 2.77903E+01 5.25741E-01 3.77249E-01 1.96669E+00-1.86101E-14 2.25181E-12
 -1      1173 2.00816E+01-6.62279E-02-5.73601E-01 1.29509E-01 2.77105E-14 1.59636E-12
 -1      1174 1.89033E+01-4.05957E-02-1.93228E-01 1.94325E-02 1.97186E-14 1.02028E-12
 -1      1175 1.85224E+01-2.14095E-02-5.05486E-02 1.47381E-03 7.72256E-15 6.58841E-13
 -1      1176 1.84498E+01-1.24008E-02-1.33930E-02-4.05782E-03 1.58823E-14 3.55650E-13
 -1      1177 1.85238E+01-7.39948E-03-4.64677E-03-5.50363E-03-2.42232E-15 1.53270E-13
 -1      1178 1.86660E+01-4.33035E-03-1.91945E-03-5.67580E-03-7.01490E-15 8.55514E-14
 -1      1179 1.88352E+01-2.37633E-03-3.45912E-04-5.36970E-03 9.04192E-15-7.23883E-14
 -1      1180 1.90083E+01-1.13198E-03 7.44382E-04-4.83696E-03-4.54106E-15-1.44551E-13
 -1      1181 1.91724E+01-3.70039E-04 1.40832E-03-4.19017E-03 2.72300E-15-2.68155E-13
 -1      1182 1.93211E+01 5.06022E-05 1.70285E-03-3.49390E-03 3.73259E-15-3.42413E-13
 -1      1183 1.94519E+01 2.21046E-04 1.70536E-03-2.78802E-03 9.70893E-15-5.32680E-13
 -1      1184 1.95653E+01 1.99930E-04 1.48303E-03-2.09595E-03 1.03806E-14-6.08638E-13
 -1      1185 1.96635E+01 2.33228E-05 1.08109E-03-1.42987E-03-1.50412E-14-7.51524E-13
 -1      1186 1.97503E+01-2.89081E-04 5.23217E-04-7.94923E-04 2.09649E-14-9.07151E-13
 -1      1187 1.98307E+01-7.29396E-04-1.84694E-04-1.93070E-04 1.62351E-14-9.75635E-13
 -1      1188 1.99105E+01-1.29740E-03-1.05010E-03 3.72980E-04-1.61697E-14-9.74259E-13
 -1      1189 1.99967E+01-1.99585E-03-2.08854E-03 8.95311E-04 1.74206E-14-9.28128E-13
 -1      1190 2.00972E+01-2.82420E-03-3.31644E-03 1.35540E-03 1.37916E-14-9.40124E-13
 -1      1191 2.02212E+01-3.76929E-03-4.74026E-03 1.71720E-03 4.70620E-15-8.35242E-13
 -1      1192 2.03787E+01-4.79118E-03-6.33883E-03 1.91827E-03-1.94976E-14-7.44166E-13
 -1      1193 2.05806E+01-5.80163E-03-8.03488E-03 1.85870E-03 3.93349E-16-8.16729E-13
 -1      1194 2.08379E+01-6.63295E-03-9.64964E-03 1.38900E-03-1.71921E-14-1.01960E-12
 -1      1195 2.11606E+01-6.99633E-03-1.08345E-02 3.00830E-04 3.83398E-14-1.34747E-12
 -1      1196 2.15546E+01-6.43566E-03-1.09781E-02-1.66880E-03-3.63940E-14-1.16835E-12
 -1      1197 2.20183E+01-4.29828E-03-9.10553E-03-4.79688E-03-7.46766E-15-9.19731E-13
 -1      1198 2.25362E+01 2.22684E-04-3.83392E-03-9.25564E-03 1.35179E-14-8.77966E-13
 -1      1199 2.30697E+01 7.86925E-03 6.45687E-03-1.48555E-02 2.19586E-14-8.26729E-13
 -1      1200 2.35476E+01 1.87710E-02 2.29480E-02-2.06053E-02-5.13461E-14-7.32137E-13
 -1      1201 2.38591E+01 3.14794E-02 4.48876E-02-2.41761E-02-3.65441E-14-6.50025E-13
 -1      1202 2.38583E+01 4.19398E-02 6.73967E-02-2.16963E-02 7.81493E-16-9.39004E-13
 -1      1203 2.33962E+01 4.34349E-02 7.99594E-02-8.78722E-03-3.39086E-14-7.14900E-13
 -1      1204 2.23913E+01 2.92866E-02 6.85034E-02 1.63483E-02-5.90717E-15-4.27894E-13
 -1      1205 2.09271E+01-1.12364E-03 2.42678E-02 4.84416E-02-5.77127E-14-7.79793E-14
 -1      1206 1.93216E+01-3.69955E-02-4.39772E-02 7.32846E-02-5.28390E-14-8.75827E-14
 -1      1207 1.80716E+01-6.00377E-02-1.06388E-01 7.46714E-02-1.80958E-14-3.84880E-13
 -1      1208 1.76370E+01-5.75742E-02-1.28551E-01 4.65706E-02 1.98895E-14-7.85899E-13
 -1      1209 1.81782E+01-3.33314E-02-9.81738E-02 6.70605E-04 3.95612E-14-1.05379E-12
 -1      1210 1.94517E+01-3.33651E-03-3.59597E-02-4.10688E-02 1.96288E-14-1.15495E-12
 -1      1211 2.09611E+01 1.88309E-02 2.41463E-02-6.21809E-02-3.67289E-14-5.87155E-13
 -1      1212 2.22304E+01 2.83303E-02 5.95743E-02-6.07459E-02 1.98730E-14-3.36293E-13
 -1      1213 2.29873E+01 2.77157E-02 6.71027E-02-4.48953E-02-5.11774E-14 8.16396E-14
 -1      1214 2.31867E+01 2.16373E-02 5.60809E-02-2.47294E-02 5.14393E-14 2.15123E-14
 -1      1215 2.29317E+01 1.37679E-02 3.76709E-02-6.83096E-03-4.02072E-14-2.08011E-13
 -1      1216 2.23810E+01 5.87621E-03 1.90141E-02 6.38979E-03 1.08702E-14-4.01536E-13
 -1      1217 2.16901E+01-1.74644E-03 2.26490E-03 1.51622E-02 6.40609E-15-7.87967E-13
 -1      1218 2.09912E+01-9.52843E-03-1.35012E-02 2.03827E-02 4.33656E-14-1.13742E-12
 -1      1219 2.03999E+01-1.68549E-02-2.79793E-02 2.13555E-02 2.07479E-14-1.21593E-12
 -1      1220 2.00320E+01-1.69460E-02-2.88779E-02 1.24422E-02 6.52024E-14-1.32299E-12
 -1      1221 1.99727E+01 9.71768E-03 2.11511E-02-9.84989E-03 2.82513E-14-7.87040E-13
 -1      1222 2.00095E+01-2.83288E-02 1.95898E-02-9.20336E-03-8.61870E-13-8.78490E-14
 -1      1223 1.99785E+01 3.74442E-02-3.10771E-02-4.17807E-03-1.21658E-12-2.99079E-14
 -1      1224 1.99801E+01 4.03744E-01-3.14665E-02 1.39372E-02-3.52798E-13-2.65946E-14
 -1      1225 1.99882E+01 9.92897E-01-1.83090E-02 2.18863E-02-2.45821E-13-1.51935E-14
 -1      1226 1.99981E+01 1.70004E+00-3.37420E-03 2.48169E-02-6.60028E-14 2.01289E-13
 -1      1227 2.00084E+01 2.42120E+00 1.13354E-02 2.41240E-02-6.91856E-13 2.07560E-15
 -1      1228 2.00185E+01 3.06627E+00 2.50324E-02 2.04634E-02-4.53464E-13-4.08723E-15
 -1      1229 2.00268E+01 3.54806E+00 3.64874E-02 1.32943E-02 1.64053E-14-1.66454E-13
 -1      1230 2.00316E+01 3.78297E+00 4.31656E-02 3.60796E-03-2.49914E-13 2.75747E-14
 -1      1231 2.00316E+01 3.72593E+00 4.33327E-02-7.20246E-03 5.77107E-13 1.50747E-14
 -1      1232 2.00263E+01 3.37600E+00 3.64893E-02-1.73329E-02-4.42459E-14-1.43863E-13
 -1      1233 2.00176E+01 2.78512E+00 2.38490E-02-2.51288E-02 3.46945E-16 8.00050E-14
 -1      1234 2.00051E+01 2.03502E+00 6.51608E-03-2.90349E-02-5.01717E-13-7.22917E-14
 -1      1235 1.99914E+01 1.23128E+00-1.46691E-02-2.85456E-02-2.58110E-13 7.77695E-14
 -1      1236 1.99772E+01 5.08460E-01-3.82728E-02-2.37937E-02 2.51785E-13 9.06055E-14
 -1      1237 1.99665E+01 7.07945E-02-3.63838E-02 1.02712E-02 9.05756E-14-2.76339E-13
 -1      1238 2.00140E+01-3.70509E-02 2.41579E-02 1.16198E-02-2.53011E-13 2.87457E-14
 -1      1239-1.20982E+00-2.43232E+01-3.77086E+00-2.24499E+00 2.53964E-13 1.50727E-13
 -1      1240-1.78578E+00-1.55359E+01-3.11476E+00-4.09973E+00 4.58300E-13 1.80578E-13
 -1      1241 4.17621E-01-2.55750E+00-1.83534E+00-3.59028E-02 3.66152E-13 2.57128E-13
 -1      1242 1.05282E+01 8.04755E+00-1.21545E-01 9.08983E+00 3.28404E-13 5.23581E-13
 -1      1243 2.84994E+01 1.10937E+01 1.66608E+00 1.69492E+01 6.23945E-13 9.08162E-13
 -1      1244 4.83762E+01 7.50131E+00 3.04739E+00 1.73763E+01-2.10942E-15-1.00364E-13
 -1      1245 6.35350E+01 2.70696E+00 3.96385E+00 8.96760E+00-3.72966E-14-2.78000E-13
 -1      1246 6.61634E+01 1.93760E+00 4.18514E+00-4.32314E+00 6.59195E-15-3.72535E-13
 -1      1247 5.41410E+01 5.91967E+00 3.46168E+00-1.50830E+01 2.94709E-13-8.81850E-13
 -1      1248 3.43779E+01 1.03089E+01 2.11879E+00-1.78137E+01 4.45199E-13-9.10605E-13
 -1      1249 1.57021E+01 9.99352E+00 4.83287E-01-1.20632E+01 6.54810E-13-7.42295E-13
 -1      1250 3.27274E+00 2.44689E+00-1.17830E+00-3.21399E+00 9.63896E-13-6.23612E-13
 -1      1251-1.50332E+00-1.03388E+01-2.64575E+00 3.05541E+00 1.91669E-12-7.01772E-13
 -1      1252-1.44388E+00-2.17342E+01-3.56513E+00 3.30771E+00 1.72828E-12-5.08454E-13
 -1      1253-9.70112E-01-2.52111E+01-3.79343E+00-7.46290E-01 4.21885E-13-2.28775E-14
 -1      1254-1.64563E+00-1.98015E+01-3.43562E+00-4.16722E+00-1.15807E-12-4.36651E-13
 -1      1255-1.20897E+00-7.92516E+00-2.44612E+00-2.51860E+00-2.52820E-12-1.35358E-12
 -1      1256 4.96881E+00 4.07871E+00-9.73526E-01 4.71618E+00-2.73115E-12-2.32703E-12
 -1      1257 2.05753E+01 1.03284E+01 8.78989E-01 1.39490E+01-1.88294E-12-2.23999E-12
 -1      1258 4.21442E+01 9.09439E+00 2.76311E+00 1.79848E+01-6.03295E-13-1.14064E-12
 -1      1259 5.99527E+01 4.49656E+00 3.90888E+00 1.23806E+01-2.17132E-13-7.85039E-13
 -1      1260 6.81705E+01 1.54179E+00 4.40895E+00 1.59552E-01 3.20230E-14-6.42181E-13
 -1      1261 6.11486E+01 4.04873E+00 3.94488E+00-1.21605E+01 1.55195E-13-6.02851E-13
 -1      1262 4.39870E+01 8.79079E+00 2.81135E+00-1.81738E+01 2.01728E-13-3.21521E-13
 -1      1263 2.36680E+01 1.10788E+01 1.19953E+00-1.55969E+01-2.80442E-13 1.36113E-13
 -1      1264 7.82383E+00 6.86128E+00-4.78473E-01-7.28253E+00-9.77884E-13 7.57838E-13
 -1      1265-2.48791E-01-3.93863E+00-2.03073E+00 1.00196E+00-1.08291E-12 7.23754E-13
 -1      1266-1.85814E+00-1.65526E+01-3.19451E+00 4.36645E+00-1.18261E-12 4.64573E-13
 -1      1267-1.06844E+00-2.48068E+01-3.81107E+00 2.18410E+00-3.43892E-13 1.01964E-13
 -1      1268 2.22639E+01 1.83803E+00-7.25894E-01-2.79112E+00-5.32074E-14 1.55398E-12
 -1      1269 2.03572E+01 4.68993E+00-4.86595E-02-3.30823E+00-1.95080E-13 2.60750E-13
 -1      1270 2.08642E+01 4.81035E+00-1.13440E-01-4.16228E+00-2.30566E-13 5.73437E-13
 -1      1271 1.95301E+01 4.99297E+00-1.96936E-02-2.65587E+00-2.16813E-13-1.89865E-13
 -1      1272 1.98280E+01 5.08975E+00 2.07884E-04-3.04688E+00-2.39399E-13 1.17337E-14
 -1      1273 2.05240E+01 3.95257E+00-2.59195E-02-3.07631E+00-3.51965E-13 2.33369E-13
 -1      1274 1.91837E+01 5.08430E+00-3.53381E-03-2.07226E+00-1.87989E-13-4.47441E-13
 -1      1275 1.93318E+01 5.13934E+00 1.05349E-02-2.36507E+00-2.09093E-13-3.23543E-13
 -1      1276 1.97521E+01 4.36565E+00-2.45272E-02-2.49071E+00-3.43682E-13-1.44038E-13
 -1      1277 1.90100E+01 5.13085E+00 3.30061E-03-1.56596E+00-1.61640E-13-5.92019E-13
 -1      1278 1.90871E+01 5.16028E+00 1.25431E-02-1.81610E+00-1.76643E-13-5.23755E-13
 -1      1279 1.93916E+01 4.55466E+00-2.00479E-02-1.93337E+00-2.96993E-13-3.67782E-13
 -1      1280 1.89171E+01 5.16090E+00 6.54278E-03-1.11811E+00-1.27931E-13-6.69119E-13
 -1      1281 1.89591E+01 5.17710E+00 1.26827E-02-1.33968E+00-1.42772E-13-6.27739E-13
 -1      1282 1.92069E+01 4.66141E+00-1.61230E-02-1.44571E+00-2.48065E-13-4.88568E-13
 -1      1283 1.88664E+01 5.18074E+00 8.21218E-03-6.94599E-01-9.48907E-14-7.17587E-13
 -1      1284 1.88890E+01 5.18948E+00 1.19749E-02-9.04986E-01-1.07356E-13-6.95759E-13
 -1      1285 1.91047E+01 4.72682E+00-1.40359E-02-1.00526E+00-1.94483E-13-5.65104E-13
 -1      1286 1.88428E+01 5.19270E+00 9.31387E-03-2.89513E-01-5.73500E-14-7.59049E-13
 -1      1287 1.88525E+01 5.19648E+00 1.10805E-02-4.91826E-01-6.85086E-14-7.34716E-13
 -1      1288 1.90497E+01 4.76571E+00-1.29312E-02-5.89429E-01-1.36758E-13-6.05103E-13
 -1      1289 1.88392E+01 5.19764E+00 1.02450E-02 1.08317E-01-3.13612E-14-7.87800E-13
 -1      1290 1.88389E+01 5.19751E+00 1.01728E-02-9.15592E-02-3.96489E-14-7.72863E-13
 -1      1291 1.90259E+01 4.78374E+00-1.24747E-02-1.89318E-01-7.71522E-14-6.42812E-13
 -1      1292 1.88543E+01 5.19612E+00 1.11793E-02 5.09169E-01-4.01155E-16-8.06027E-13
 -1      1293 1.88438E+01 5.19206E+00 9.25220E-03 3.06435E-01-9.15077E-15-7.96377E-13
 -1      1294 1.90267E+01 4.78311E+00-1.24903E-02 2.05981E-01-3.27990E-14-6.67962E-13
 -1      1295 1.88923E+01 5.18833E+00 1.21074E-02 9.23814E-01 3.15607E-14-8.16161E-13
 -1      1296 1.88689E+01 5.17940E+00 8.16093E-03 7.12463E-01 2.24447E-14-8.11018E-13
 -1      1297 1.90523E+01 4.76365E+00-1.29765E-02 6.06768E-01 2.15089E-14-6.84678E-13
 -1      1298 1.89634E+01 5.17520E+00 1.29063E-02 1.35733E+00 6.41605E-14-8.02003E-13
 -1      1299 1.89206E+01 5.15859E+00 6.47313E-03 1.13430E+00 5.12754E-14-8.11776E-13
 -1      1300 1.91091E+01 4.72318E+00-1.39987E-02 1.02043E+00 7.43424E-14-6.81708E-13
 -1      1301 1.90951E+01 5.15658E+00 1.28237E-02 1.84219E+00 1.16518E-13-7.45893E-13
 -1      1302 1.90161E+01 5.12639E+00 3.16356E-03 1.58930E+00 9.61956E-14-7.78235E-13
 -1      1303 1.92137E+01 4.65474E+00-1.61450E-02 1.46380E+00 1.34568E-13-6.54289E-13
 -1      1304 1.93427E+01 5.13318E+00 1.01527E-02 2.39933E+00 1.68615E-13-6.30027E-13
 -1      1305 1.91931E+01 5.07623E+00-4.36460E-03 2.10206E+00 1.43711E-13-7.01678E-13
 -1      1306 1.94052E+01 4.54225E+00-1.99865E-02 1.95966E+00 2.15342E-13-5.91777E-13
 -1      1307 1.98532E+01 5.09903E+00 6.01217E-03 3.08530E+00 2.16605E-13-3.73618E-13
 -1      1308 1.95418E+01 4.98418E+00-2.05432E-02 2.69803E+00 1.85386E-13-5.30711E-13
 -1      1309 1.97734E+01 4.34622E+00-2.45681E-02 2.52954E+00 2.89605E-13-4.43132E-13
 -1      1310 2.11003E+01 4.90664E+00 8.26543E-03 4.05498E+00 2.12719E-13 1.78149E-13
 -1      1311 2.03316E+01 4.73355E+00-4.79883E-02 3.41755E+00 2.00312E-13-1.64528E-13
 -1      1312 2.05620E+01 3.91577E+00-2.24310E-02 3.17974E+00 3.43711E-13-1.39999E-13
 -1      1313 2.71998E+01 3.20526E+00 9.29086E-01 4.58274E+00 1.26801E-13 1.34431E-12
 -1      1314 2.20169E+01 3.52198E+00-1.82013E-01 3.88581E+00 1.26399E-13 5.11119E-13
 -1      1315 2.21090E+01 2.56174E+00-3.25840E-02 3.45767E+00 3.69050E-13 3.60684E-13
 -1      1316 2.14233E+01 3.59636E-01-7.63516E-01 1.18442E+00 2.14023E-13 1.24190E-12
 -1      1317 2.19975E+01 1.31460E-01-4.00893E-01-1.28625E+00-1.74125E-13 1.58779E-12
 -1      1318 2.06742E+01 3.06738E-01-1.64864E-01-8.06216E-01-1.74250E-13 1.39078E-12
 -1      1319 2.00762E+01 1.53471E-01-7.35311E-02-4.02629E-01-1.38872E-13 1.28996E-12
 -1      1320 1.96057E+01 9.11653E-02-1.49361E-02-3.30473E-01-1.31995E-13 1.09522E-12
 -1      1321 2.09683E+01 3.69069E-01-1.04293E-01-1.27479E+00-2.95174E-13 8.09564E-13
 -1      1322 1.92479E+01 6.44841E-02 3.03956E-03-1.35901E-01-1.13057E-13 1.00608E-12
 -1      1323 1.90929E+01 4.12565E-02 1.32213E-02-1.18112E-01-1.14738E-13 8.53012E-13
 -1      1324 1.99168E+01 1.33885E-01-3.51385E-02-5.05002E-01-2.41369E-13 6.58725E-13
 -1      1325 1.89320E+01 3.15188E-02 1.32484E-02-2.86145E-02-7.35388E-14 7.82881E-13
 -1      1326 1.89118E+01 1.93814E-02 1.10624E-02-1.92382E-02-6.03736E-14 6.84931E-13
 -1      1327 1.94386E+01 5.54273E-02-8.51352E-03-1.71133E-01-1.82259E-13 5.06137E-13
 -1      1328 1.88552E+01 1.59927E-02 8.79002E-03 2.43812E-02-3.29676E-14 6.42132E-13
 -1      1329 1.88968E+01 9.06459E-03 6.44808E-03 2.89990E-02-3.88773E-14 5.92189E-13
 -1      1330 1.92287E+01 2.43871E-02-3.49381E-03-1.23477E-02-1.05960E-13 3.71831E-13
 -1      1331 1.88962E+01 7.84011E-03 4.69048E-03 5.01377E-02-5.23709E-14 5.48877E-13
 -1      1332 1.89657E+01 3.50790E-03 3.65659E-03 5.20201E-02-6.14918E-14 4.70731E-13
 -1      1333 1.91708E+01 1.01596E-02-2.21306E-03 6.62690E-02-9.51442E-14 3.15782E-13
 -1      1334 1.89947E+01 3.19400E-03 2.46529E-03 6.08372E-02-4.80948E-14 4.53847E-13
 -1      1335 1.90744E+01 3.68868E-04 2.23156E-03 6.11100E-02-5.03357E-14 3.66095E-13
 -1      1336 1.91960E+01 2.76600E-03-1.32858E-03 1.03099E-01-9.41565E-14 2.41545E-13
 -1      1337 1.91176E+01 4.88512E-04 1.36210E-03 6.28992E-02-3.05544E-14 3.84672E-13
 -1      1338 1.91976E+01-1.37295E-03 1.46891E-03 6.22437E-02-2.34923E-14 3.41108E-13
 -1      1339 1.92643E+01-1.26226E-03-5.77225E-04 1.16527E-01-6.97502E-14 1.90454E-13
 -1      1340 1.92461E+01-1.03445E-03 7.86561E-04 6.00954E-02-5.50892E-14 2.94021E-13
 -1      1341 1.93213E+01-2.23724E-03 1.01256E-03 5.89556E-02-9.25507E-14 2.00056E-13
 -1      1342 1.93521E+01-3.37982E-03-3.70761E-05 1.16614E-01-7.91886E-14 1.38466E-13
 -1      1343 1.93699E+01-1.79061E-03 4.61752E-04 5.48179E-02-7.98814E-14 1.96272E-13
 -1      1344 1.94376E+01-2.52318E-03 7.17470E-04 5.34939E-02-3.04846E-14 1.25879E-13
 -1      1345 1.94458E+01-4.30855E-03 2.88111E-04 1.09442E-01-1.12153E-13 8.22706E-14
 -1      1346 1.94837E+01-2.02849E-03 2.71725E-04 4.86570E-02 6.59807E-15 1.03093E-13
 -1      1347 1.95432E+01-2.41539E-03 5.23347E-04 4.73561E-02 4.73810E-15 1.23315E-13
 -1      1348 1.95376E+01-4.45642E-03 4.39707E-04 9.89354E-02-2.70943E-14 9.38992E-14
 -1      1349 1.95857E+01-1.90309E-03 1.64000E-04 4.27074E-02 1.05813E-15 9.87502E-14
 -1      1350 1.96376E+01-2.02973E-03 4.00756E-04 4.15766E-02 1.93630E-15 1.00893E-13
 -1      1351 1.96235E+01-4.07061E-03 4.62248E-04 8.77384E-02-5.34680E-15 1.79999E-14
 -1      1352 1.96764E+01-1.51065E-03 1.10481E-04 3.77534E-02 1.07854E-15 1.02599E-13
 -1      1353 1.97221E+01-1.43610E-03 3.32456E-04 3.69025E-02-4.96467E-15 1.30610E-13
 -1      1354 1.97027E+01-3.30201E-03 3.89616E-04 7.77062E-02-7.99331E-15 8.13608E-15
 -1      1355 1.97583E+01-9.06682E-04 9.35296E-05 3.43939E-02 1.15760E-14 1.44627E-13
 -1      1356 1.97998E+01-6.71331E-04 3.07049E-04 3.39124E-02-1.72040E-14 1.68391E-13
 -1      1357 1.97761E+01-2.23637E-03 2.43987E-04 7.02092E-02 2.20509E-15 1.26293E-14
 -1      1358 1.98351E+01-1.16546E-04 1.00644E-04 3.31326E-02-2.56034E-14 2.07353E-13
 -1      1359 1.98750E+01 2.52567E-04 3.16343E-04 3.31033E-02-2.14791E-14 1.79595E-13
 -1      1360 1.98460E+01-9.11336E-04 3.79463E-05 6.63447E-02 1.41166E-15-1.65088E-14
 -1      1361 1.99114E+01 8.57490E-04 1.21825E-04 3.44461E-02-1.30073E-14 1.96602E-13
 -1      1362 1.99532E+01 1.34214E-03 3.53768E-04 3.49553E-02-1.37547E-14 1.54994E-13
 -1      1363 1.99161E+01 6.72550E-04-2.23280E-04 6.70916E-02-4.08733E-14 3.19289E-14
 -1      1364 1.99934E+01 2.03068E-03 1.47769E-04 3.88352E-02 1.83050E-14 1.24337E-13
 -1      1365 2.00407E+01 2.61685E-03 4.12969E-04 3.99807E-02 3.29010E-14 1.56341E-13
 -1      1366 1.99912E+01 2.54348E-03-5.39922E-04 7.34257E-02 2.25468E-14 2.76119E-14
 -1      1367 2.00880E+01 3.43026E-03 1.68220E-04 4.68604E-02 2.78477E-14 1.27349E-13
 -1      1368 2.01456E+01 4.10257E-03 4.86212E-04 4.87570E-02 3.42462E-15 1.17947E-13
 -1      1369 2.00770E+01 4.75027E-03-9.15936E-04 8.64020E-02 2.70016E-14-5.14110E-14
 -1      1370 2.02037E+01 5.08828E-03 1.70200E-04 5.91583E-02 6.09950E-15 8.87734E-14
 -1      1371 2.02768E+01 5.82227E-03 5.62265E-04 6.19395E-02 9.16758E-15 8.89425E-14
 -1      1372 2.01803E+01 7.35201E-03-1.35710E-03 1.07202E-01-4.42450E-14-8.81521E-14
 -1      1373 2.03502E+01 7.03026E-03 1.35957E-04 7.64312E-02 2.19929E-14 7.93259E-14
 -1      1374 2.04451E+01 7.78074E-03 6.23572E-04 8.02449E-02-2.86053E-14 5.80816E-14
 -1      1375 2.03092E+01 1.04014E-02-1.86846E-03 1.37131E-01-6.22191E-15-1.09040E-13
 -1      1376 2.05387E+01 9.25555E-03 4.08008E-05 9.93889E-02 1.45576E-15 1.10907E-13
 -1      1377 2.06625E+01 9.93818E-03 6.42770E-04 1.04382E-01 4.04761E-14 1.16642E-13
 -1      1378 2.04727E+01 1.39154E-02-2.45051E-03 1.77543E-01 2.56416E-14-1.63334E-13
 -1      1379 2.07817E+01 1.17021E-02-1.48328E-04 1.28610E-01-1.51524E-14 2.05580E-13
 -1      1380 2.09422E+01 1.21642E-02 5.79577E-04 1.34896E-01-5.18765E-14 1.51811E-13
 -1      1381 2.06809E+01 1.78209E-02-3.09267E-03 2.29633E-01 7.74424E-15-1.02168E-14
 -1      1382 2.10924E+01 1.41843E-02-4.70950E-04 1.64262E-01-3.91063E-14 1.67826E-13
 -1      1383 2.12975E+01 1.41599E-02 3.81317E-04 1.71846E-01 1.51144E-14 1.08259E-13
 -1      1384 2.09444E+01 2.18572E-02-3.76195E-03 2.94000E-01-4.65112E-14 1.07708E-13
 -1      1385 2.14836E+01 1.62876E-02-9.61790E-04 2.05579E-01 4.39553E-14 8.15823E-14
 -1      1386 2.17401E+01 1.53333E-02-5.22949E-06 2.14233E-01-1.96093E-14 1.10882E-13
 -1      1387 2.12732E+01 2.54071E-02-4.38299E-03 3.69836E-01 2.94686E-15 3.58745E-14
 -1      1388 2.19649E+01 1.72032E-02-1.61843E-03 2.49968E-01-7.91893E-14 1.43783E-13
 -1      1389 2.22757E+01 1.46211E-02-5.96368E-04 2.58994E-01-8.91310E-14 4.65999E-14
 -1      1390 2.16750E+01 2.72247E-02-4.80360E-03 4.53501E-01-6.78960E-14-1.49282E-14
 -1      1391 2.25377E+01 1.55011E-02-2.33036E-03 2.91585E-01-3.70268E-14 4.18745E-14
 -1      1392 2.28975E+01 1.02873E-02-1.28966E-03 2.99449E-01-6.14764E-15 4.47385E-15
 -1      1393 2.21518E+01 2.50535E-02-4.74014E-03 5.36232E-01-7.57643E-14 9.22569E-14
 -1      1394 2.31880E+01 8.90945E-03-2.75641E-03 3.19358E-01 1.57751E-14-2.55039E-14
 -1      1395 2.35761E+01-1.59874E-04-1.73302E-03 3.23171E-01 7.62140E-14 6.32654E-15
 -1      1396 2.26949E+01 1.52297E-02-3.70458E-03 6.00841E-01 2.69127E-14 5.15950E-14
 -1      1397 2.38741E+01-5.65867E-03-2.18075E-03 3.14911E-01 1.63463E-13 9.17166E-14
 -1      1398 2.42449E+01-1.95522E-02-1.19883E-03 3.09923E-01 1.12160E-13 3.06770E-13
 -1      1399 2.32771E+01-7.34158E-03-9.47752E-04 6.17900E-01 2.20664E-13 8.25364E-14
 -1      1400 2.45126E+01-3.12237E-02 5.07624E-04 2.52058E-01 5.26120E-14 3.82680E-13
 -1      1401 2.47865E+01-4.93875E-02 1.31522E-03 2.31699E-01 6.84938E-14 4.96773E-13
 -1      1402 2.38434E+01-4.78867E-02 4.46482E-03 5.43616E-01 1.49123E-13 2.94540E-13
 -1      1403 2.49664E+01-6.79835E-02 6.30554E-03 1.01767E-01-3.33197E-14 5.77546E-13
 -1      1404 2.50301E+01-8.59313E-02 6.38783E-03 5.95225E-02-2.28862E-14 5.69323E-13
 -1      1405 2.43034E+01-1.07415E-01 1.31842E-02 3.24960E-01 3.37317E-14 3.39615E-13
 -1      1406 2.50496E+01-1.07567E-01 1.46251E-02-1.50967E-01-6.74044E-14 6.38059E-13
 -1      1407 2.47804E+01-1.14444E-01 1.24739E-02-2.15766E-01-9.72451E-14 5.47788E-13
 -1      1408 2.45304E+01-1.73648E-01 2.43543E-02-7.80517E-02-7.15226E-14 3.72403E-13
 -1      1409 2.45734E+01-1.27471E-01 2.10177E-02-4.74978E-01-9.92002E-14 4.81309E-13
 -1      1410 2.39052E+01-1.07633E-01 1.46557E-02-5.47909E-01-1.07001E-13 3.47139E-13
 -1      1411 2.43839E+01-2.11451E-01 3.34074E-02-6.43429E-01-1.92001E-13 3.65394E-13
 -1      1412 2.34569E+01-9.46936E-02 1.79203E-02-7.61237E-01 2.38889E-14 2.65163E-13
 -1      1413 2.24738E+01-3.88254E-02 6.12889E-03-8.06839E-01 9.14694E-14 2.20657E-13
 -1      1414 2.37720E+01-1.68637E-01 3.09937E-02-1.22539E+00-2.35281E-14 4.44474E-13
 -1      1415 2.18789E+01 7.28911E-03-8.04191E-05-8.36649E-01 9.55703E-14 3.18329E-13
 -1      1416 2.08702E+01 8.37660E-02-1.39240E-02-8.12730E-01 3.68646E-14 3.83249E-13
 -1      1417 2.27574E+01-1.38541E-02 7.92912E-03-1.54122E+00 5.16711E-14 2.93768E-13
 -1      1418 2.03515E+01 1.40056E-01-2.44445E-02-5.72875E-01-4.68740E-14 2.96006E-13
 -1      1419 1.97227E+01 1.95039E-01-3.43073E-02-4.69545E-01-5.57471E-14 2.65680E-13
 -1      1420 2.16488E+01 2.02417E-01-3.19719E-02-1.30122E+00 2.77590E-14 2.90937E-13
 -1      1421 1.95280E+01 2.18737E-01-3.89747E-02-3.03280E-02-4.65843E-14 2.05390E-13
 -1      1422 1.95731E+01 2.12318E-01-3.77563E-02 1.05565E-01-5.21458E-15 2.08663E-13
 -1      1423 2.09285E+01 3.60316E-01-6.16371E-02-4.71221E-01-7.09363E-14 1.86144E-13
 -1      1424 1.98045E+01 1.78704E-01-3.07500E-02 5.20784E-01-3.65923E-14 7.80626E-14
 -1      1425 2.04878E+01 1.15500E-01-1.97057E-02 6.10703E-01-7.19893E-14 3.48332E-15
 -1      1426 2.09672E+01 3.40933E-01-5.79969E-02 5.86299E-01-1.39975E-13-1.60202E-14
 -1      1427 2.10007E+01 5.71329E-02-8.94549E-03 7.96482E-01-3.71057E-15 8.84848E-14
 -1      1428 2.19837E+01-1.82553E-02 4.68098E-03 8.03905E-01 9.63036E-14 3.00593E-14
 -1      1429 2.17199E+01 1.60304E-01-2.30448E-02 1.31735E+00-5.32525E-14-4.30211E-14
 -1      1430 2.25195E+01-5.93251E-02 9.28301E-03 7.24911E-01 4.21971E-14-1.13465E-13
 -1      1431 2.34008E+01-1.08522E-01 1.97073E-02 6.69391E-01-1.20425E-13-1.63355E-13
 -1      1432 2.27612E+01-5.46204E-02 1.47283E-02 1.42914E+00 5.06752E-14-1.01419E-13
 -1      1433 2.37567E+01-1.15808E-01 1.53220E-02 4.31796E-01-1.31712E-13-1.18648E-13
 -1      1434 2.42832E+01-1.29217E-01 2.04414E-02 3.56903E-01-2.13300E-13-3.70710E-13
 -1      1435 2.36224E+01-1.89368E-01 3.37275E-02 1.02581E+00-1.57103E-13-3.19860E-13
 -1      1436 2.43880E+01-1.13958E-01 1.19419E-02 9.54468E-02-1.79771E-13-2.91215E-13
 -1      1437 2.45094E+01-1.03458E-01 1.31286E-02 3.27302E-02-9.45858E-14-4.90988E-13
 -1      1438 2.40413E+01-2.13882E-01 3.30466E-02 4.14849E-01-2.67550E-13-2.09148E-13
 -1      1439 2.43916E+01-8.23584E-02 5.91368E-03-1.69942E-01 4.35884E-14-5.09845E-13
 -1      1440 2.41913E+01-6.29551E-02 5.30781E-03-2.09465E-01 1.49057E-13-4.62103E-13
 -1      1441 2.39922E+01-1.67232E-01 2.30538E-02-1.41861E-01-3.04583E-14-6.24804E-15
 -1      1442 2.39217E+01-4.59548E-02 1.55679E-03-3.30201E-01 1.01609E-13-2.14405E-13
 -1      1443 2.35253E+01-2.69394E-02 3.61676E-04-3.48591E-01 6.19843E-14-1.17965E-13
 -1      1444 2.35832E+01-1.00083E-01 1.20110E-02-5.23877E-01 3.16807E-13 5.58425E-14
 -1      1445 2.31773E+01-1.64400E-02-2.95555E-04-3.97898E-01 2.20535E-14-1.44305E-13
 -1      1446 2.26975E+01-1.01691E-03-1.68940E-03-4.01278E-01 1.22889E-13-1.47590E-14
 -1      1447 2.29591E+01-4.15556E-02 3.57030E-03-7.21540E-01 6.59516E-14 3.28801E-13
 -1      1448 2.23310E+01 4.60306E-03-6.57495E-04-3.98404E-01 2.34937E-13-1.54422E-13
 -1      1449 2.18516E+01 1.66858E-02-2.29933E-03-3.91917E-01 1.30516E-13 1.28453E-13
 -1      1450 2.22485E+01 6.01128E-04-2.07389E-03-7.72948E-01 1.58177E-13 3.36725E-13
 -1      1451 2.15105E+01 2.01826E-02-1.07120E-03-3.51632E-01-1.00731E-13-4.85150E-14
 -1      1452 2.10922E+01 3.02701E-02-3.02269E-03-3.37768E-01-2.82027E-14-5.67740E-14
 -1      1453 2.15495E+01 3.06625E-02-5.98488E-03-7.19351E-01-1.87740E-15 1.13539E-13
 -1      1454 2.08084E+01 3.42021E-02-2.77161E-03-2.67084E-01 2.66717E-13-1.36119E-13
 -1      1455 2.05017E+01 4.30006E-02-3.79173E-03-2.45420E-01 1.87742E-13 1.33770E-13
 -1      1456 2.09340E+01 5.65382E-02-8.97550E-03-5.86247E-01 8.16756E-14 4.24717E-14
 -1      1457 2.02942E+01 5.19072E-02-3.84715E-03-1.45700E-01 3.71578E-15 1.70826E-13
 -1      1458 2.01407E+01 4.97842E-02-2.56983E-04-1.17298E-01-8.43986E-15 1.65704E-13
 -1      1459 2.04499E+01 8.52304E-02-1.05105E-02-3.86097E-01 1.44427E-13-1.48024E-13
 -1      1460 2.00017E+01 1.74830E-02 2.15858E-03 4.15358E-03-2.10356E-13 1.68446E-13
 -1      1461 2.00964E+01 8.39609E-02-4.83810E-03-1.13071E-01-1.17190E-13-7.50673E-14
 -1      1462 2.02549E+01 7.54832E-02-1.52111E-01 4.84323E-01 1.66492E-13 8.64836E-13
 -1      1463 2.15259E+01 2.16118E-01-2.29290E-01 7.21336E-01 1.54349E-13 1.14661E-12
 -1      1464 2.17247E+01 8.81841E-01-8.54442E-02 2.06571E+00 3.11015E-13 6.60555E-13
 -1      1465 1.93255E+01 3.23744E-02-2.13403E-02 1.86483E-01 1.18293E-13 5.46008E-13
 -1      1466 1.97468E+01 1.13604E-01-6.27127E-02 2.38485E-01 1.14520E-13 7.43248E-13
 -1      1467 2.02986E+01 1.87698E-01-5.51822E-02 7.87053E-01 2.56642E-13 4.29560E-13
 -1      1468 1.89425E+01 1.50933E-02 5.66612E-03 5.40207E-02 8.21617E-14 3.14127E-13
 -1      1469 1.90818E+01 5.16014E-02 9.71096E-04 8.03133E-02 8.16187E-14 4.55753E-13
 -1      1470 1.95526E+01 7.18262E-02-1.21469E-02 2.99906E-01 1.84238E-13 2.55702E-13
 -1      1471 1.88307E+01 7.11153E-03 6.97801E-03-8.42556E-03 6.39003E-14 1.34507E-13
 -1      1472 1.88461E+01 2.58323E-02 1.10866E-02 5.94956E-03 6.31040E-14 2.41022E-13
 -1      1473 1.92161E+01 3.10138E-02-2.45268E-03 8.44952E-02 1.43858E-13 9.48859E-14
 -1      1474 1.88552E+01 3.20334E-03 4.78553E-03-3.86413E-02 3.69509E-14 2.92977E-14
 -1      1475 1.88123E+01 1.37832E-02 8.52075E-03-3.05474E-02 3.46945E-14 9.82964E-14
 -1      1476 1.90984E+01 1.32473E-02-1.60651E-03-2.04103E-02 9.00786E-14 2.33234E-14
 -1      1477 1.89479E+01 1.05525E-03 3.29823E-03-5.20564E-02 4.89795E-14-6.58761E-14
 -1      1478 1.88783E+01 7.26097E-03 5.37133E-03-4.76088E-02 3.00185E-14-8.71178E-15
 -1      1479 1.90984E+01 4.53305E-03-1.61961E-03-7.18602E-02 5.81692E-14-8.91479E-14
 -1      1480 1.90707E+01-1.72039E-04 2.51334E-03-5.60475E-02 4.01714E-14-1.56905E-13
 -1      1481 1.89915E+01 3.44745E-03 3.43854E-03-5.38487E-02 3.87305E-14-1.18994E-13
 -1      1482 1.91601E+01-9.51685E-05-1.36562E-03-9.45351E-02 7.74960E-14-1.79727E-13
 -1      1483 1.92023E+01-8.46745E-04 2.04285E-03-5.46990E-02 1.87653E-14-2.20762E-13
 -1      1484 1.91229E+01 1.15481E-03 2.33993E-03-5.38989E-02 1.47826E-14-1.84466E-13
 -1      1485 1.92512E+01-2.56003E-03-9.95641E-04-1.00922E-01 4.64153E-14-2.28877E-13
 -1      1486 1.93305E+01-1.16058E-03 1.69080E-03-5.05009E-02 4.34462E-14-3.08063E-13
 -1      1487 1.92561E+01-1.90509E-04 1.66692E-03-5.05437E-02 4.08430E-14-2.37596E-13
 -1      1488 1.93531E+01-3.74911E-03-6.63978E-04-9.81224E-02 5.55391E-14-2.84364E-13
 -1      1489 1.94490E+01-1.22890E-03 1.38913E-03-4.50703E-02 4.94654E-14-3.47584E-13
 -1      1490 1.93820E+01-9.04238E-04 1.21458E-03-4.55750E-02 1.66519E-14-3.08214E-13
 -1      1491 1.94550E+01-4.13167E-03-4.17957E-04-9.05319E-02 5.08970E-14-3.47444E-13
 -1      1492 1.95553E+01-1.12522E-03 1.11849E-03-3.94976E-02 2.48281E-14-4.60328E-13
 -1      1493 1.94964E+01-1.17830E-03 8.93601E-04-4.01936E-02 5.11272E-14-4.10225E-13
 -1      1494 1.95513E+01-3.98611E-03-2.57386E-04-8.10309E-02 8.06610E-14-3.22119E-13
 -1      1495 1.96497E+01-8.96148E-04 8.72729E-04-3.45436E-02 5.05751E-14-5.52487E-13
 -1      1496 1.95984E+01-1.13380E-03 6.62765E-04-3.52309E-02 4.84295E-14-4.91803E-13
 -1      1497 1.96397E+01-3.48533E-03-1.70944E-04-7.15810E-02 8.42406E-14-4.06386E-13
 -1      1498 1.97341E+01-5.69532E-04 6.47775E-04-3.07643E-02 2.76317E-14-6.33885E-13
 -1      1499 1.96889E+01-8.46276E-04 4.99281E-04-3.12866E-02 1.01130E-14-6.01915E-13
 -1      1500 1.97203E+01-2.73612E-03-1.48899E-04-6.35712E-02 5.59078E-14-4.68358E-13
 -1      1501 1.98120E+01-1.59570E-04 4.38953E-04-2.85968E-02 4.68284E-15-7.11517E-13
 -1      1502 1.97709E+01-3.59496E-04 3.88258E-04-2.88221E-02 1.95503E-14-6.18726E-13
 -1      1503 1.97949E+01-1.80030E-03-1.85766E-04-5.80396E-02 5.66433E-14-4.86028E-13
 -1      1504 1.98878E+01 3.29177E-04 2.40516E-04-2.84193E-02-6.97208E-15-6.94882E-13
 -1      1505 1.98482E+01 3.05757E-04 3.18854E-04-2.82256E-02 2.27026E-14-6.77270E-13
 -1      1506 1.98668E+01-7.08004E-04-2.80260E-04-5.58248E-02 8.30314E-15-4.84885E-13
 -1      1507 1.99672E+01 8.98067E-04 4.57912E-05-3.05928E-02-3.92489E-14-6.70676E-13
 -1      1508 1.99260E+01 1.14478E-03 2.82490E-04-2.98569E-02-3.43764E-14-6.96611E-13
 -1      1509 1.99400E+01 5.32343E-04-4.34670E-04-5.76703E-02-1.81254E-14-3.88068E-13
 -1      1510 2.00568E+01 1.55016E-03-1.52402E-04-3.54827E-02 4.88881E-14-6.55799E-13
 -1      1511 2.00103E+01 2.16225E-03 2.71691E-04-3.40735E-02 2.11000E-14-6.50768E-13
 -1      1512 2.00198E+01 1.92471E-03-6.53993E-04-6.42903E-02 1.54081E-15-4.50280E-13
 -1      1513 2.01639E+01 2.28473E-03-3.61023E-04-4.34606E-02-5.24824E-14-6.08893E-13
 -1      1514 2.01080E+01 3.36411E-03 2.79071E-04-4.12366E-02 1.03075E-15-6.57997E-13
 -1      1515 2.01122E+01 3.47504E-03-9.44610E-04-7.63958E-02 3.11607E-14-3.78025E-13
 -1      1516 2.02970E+01 3.08922E-03-5.85450E-04-5.48761E-02-3.96818E-15-5.90704E-13
 -1      1517 2.02270E+01 4.74625E-03 2.96313E-04-5.16906E-02-6.92697E-15-6.03133E-13
 -1      1518 2.02241E+01 5.17761E-03-1.31206E-03-9.46733E-02-1.25075E-14-4.16602E-13
 -1      1519 2.04653E+01 3.92727E-03-8.26876E-04-6.99874E-02-9.95720E-15-5.80123E-13
 -1      1520 2.03761E+01 6.27739E-03 3.13172E-04-6.57041E-02-2.70622E-14-5.76934E-13
 -1      1521 2.03628E+01 6.99531E-03-1.75715E-03-1.19697E-01-4.19310E-14-4.08790E-13
 -1      1522 2.06781E+01 4.72061E-03-1.07728E-03-8.88287E-02 2.01445E-14-6.54633E-13
 -1      1523 2.05644E+01 7.87270E-03 3.16797E-04-8.33556E-02 4.57450E-14-5.69711E-13
 -1      1524 2.05363E+01 8.82987E-03-2.26931E-03-1.51743E-01 1.68760E-14-4.03688E-13
 -1      1525 2.09440E+01 5.32263E-03-1.30998E-03-1.10984E-01 7.53132E-14-7.96989E-13
 -1      1526 2.08009E+01 9.35382E-03 2.92261E-04-1.04336E-01 3.87767E-14-6.82913E-13
 -1      1527 2.07521E+01 1.04771E-02-2.81536E-03-1.90468E-01 7.69393E-14-4.59176E-13
 -1      1528 2.12694E+01 5.48268E-03-1.46275E-03-1.35231E-01-3.69448E-14-9.55831E-13
 -1      1529 2.10931E+01 1.03912E-02 2.26167E-04-1.27634E-01 3.89814E-14-9.43882E-13
 -1      1530 2.10163E+01 1.15621E-02-3.32136E-03-2.34374E-01 1.01609E-13-6.28171E-13
 -1      1531 2.16554E+01 4.80515E-03-1.41065E-03-1.59011E-01-1.13761E-13-7.67165E-13
 -1      1532 2.14451E+01 1.04294E-02 1.16583E-04-1.51067E-01-1.26291E-13-9.07044E-13
 -1      1533 2.13319E+01 1.14526E-02-3.64552E-03-2.80014E-01-1.38248E-13-5.93526E-13
 -1      1534 2.20934E+01 2.72066E-03-9.30327E-04-1.77735E-01-6.23658E-14-6.23453E-13
 -1      1535 2.18538E+01 8.61137E-03-6.68490E-06-1.70655E-01-6.58823E-14-7.29110E-13
 -1      1536 2.16960E+01 9.16547E-03-3.54327E-03-3.20887E-01-1.09942E-13-5.13384E-13
 -1      1537 2.25598E+01-1.48438E-03 3.27050E-04-1.84034E-01-3.46895E-14-5.15693E-13
 -1      1538 2.23043E+01 3.75329E-03-5.04141E-05-1.79918E-01-3.34221E-14-5.25443E-13
 -1      1539 2.20958E+01 3.31698E-03-2.63655E-03-3.46136E-01-7.87047E-14-3.47446E-13
 -1      1540 2.30077E+01-8.48416E-03 2.79979E-03-1.67352E-01 4.08267E-15-5.48762E-13
 -1      1541 2.27633E+01-5.50602E-03 1.73108E-04-1.69403E-01 1.59128E-14-5.03325E-13
 -1      1542 2.25036E+01-7.74961E-03-4.24487E-04-3.39473E-01 5.36687E-14-2.89178E-13
 -1      1543 2.33619E+01-1.84218E-02 6.80665E-03-1.14787E-01-7.81827E-14-4.56139E-13
 -1      1544 2.31728E+01-2.01570E-02 9.32961E-04-1.27190E-01-8.51277E-14-5.69420E-13
 -1      1545 2.28724E+01-2.53982E-02 3.58447E-03-2.79472E-01-1.01235E-13-2.53372E-13
 -1      1546 2.35182E+01-2.99930E-02 1.20477E-02-1.47680E-02-2.87444E-15-5.03679E-13
 -1      1547 2.34457E+01-3.96102E-02 2.43703E-03-4.16949E-02-2.29790E-14-4.43185E-13
 -1      1548 2.31326E+01-4.93262E-02 9.50471E-03-1.43376E-01-5.93657E-14-3.03283E-13
 -1      1549 2.33585E+01-3.93128E-02 1.68676E-02 1.34779E-01-4.02629E-14-5.10557E-13
 -1      1550 2.34724E+01-5.98384E-02 4.51332E-03 9.16333E-02 8.49147E-16-5.33170E-13
 -1      1551 2.31969E+01-7.52511E-02 1.64418E-02 8.25956E-02-2.41170E-14-2.59625E-13
 -1      1552 2.27905E+01-3.96706E-02 1.77965E-02 3.14169E-01-5.65607E-14-3.72969E-13
 -1      1553 2.31448E+01-7.19484E-02 6.13723E-03 2.59510E-01-9.60863E-14-5.67792E-13
 -1      1554 2.29794E+01-9.23540E-02 2.19719E-02 3.85021E-01-9.46968E-14-2.87627E-13
 -1      1555 2.18132E+01-2.39542E-02 1.04541E-02 4.72289E-01-8.68802E-14-1.60399E-13
 -1      1556 2.24062E+01-6.36320E-02 5.28684E-03 4.20493E-01-6.08888E-14-3.25510E-13
 -1      1557 2.24332E+01-8.41792E-02 2.21278E-02 7.02394E-01-1.12678E-13-2.39407E-13
 -1      1558 2.05838E+01 9.15890E-03-6.81260E-03 5.32811E-01-2.75458E-15-1.31409E-13
 -1      1559 2.13185E+01-2.61662E-02-1.20391E-04 5.06561E-01-1.46643E-14-1.47299E-13
 -1      1560 2.16033E+01-3.55638E-02 1.37741E-02 9.19799E-01-4.23214E-14-1.48468E-13
 -1      1561 1.94293E+01 4.80384E-02-2.88135E-02 4.31779E-01-2.70044E-14-2.26166E-13
 -1      1562 2.01090E+01 3.38512E-02-9.78525E-03 4.50471E-01 1.36228E-14-1.38480E-13
 -1      1563 2.06663E+01 5.02159E-02-2.34307E-03 9.04078E-01-1.70515E-14-1.88051E-13
 -1      1564 1.87415E+01 7.21310E-02-4.29756E-02 1.72458E-01 8.37403E-14-3.97380E-13
 -1      1565 1.91357E+01 9.07284E-02-1.90571E-02 2.36620E-01 1.99285E-14-3.35974E-13
 -1      1566 1.99059E+01 1.40173E-01-1.89290E-02 5.90246E-01 1.01278E-13-1.92927E-13
 -1      1567 1.87803E+01 6.60142E-02-3.87146E-02-1.52800E-01 9.44444E-14-6.10165E-13
 -1      1568 1.87406E+01 1.13505E-01-2.11319E-02-6.74983E-02 7.88362E-14-5.43005E-13
 -1      1569 1.95952E+01 1.84193E-01-2.68399E-02 5.71556E-02 1.23969E-13-2.65361E-13
 -1      1570 1.95134E+01 3.34935E-02-1.74599E-02-4.07480E-01 1.63437E-14-7.30825E-13
 -1      1571 1.90649E+01 8.95117E-02-1.32881E-02-3.37208E-01 6.55769E-14-6.67858E-13
 -1      1572 1.98455E+01 1.51338E-01-2.28211E-02-4.86032E-01 1.27291E-13-3.08245E-13
 -1      1573 2.06326E+01-5.54877E-03 7.49228E-03-4.99406E-01-1.22155E-13-6.83786E-13
 -1      1574 1.99599E+01 3.57206E-02-1.12519E-04-4.68441E-01-9.09195E-14-8.53310E-13
 -1      1575 2.05340E+01 5.98538E-02-1.20438E-02-8.21840E-01-4.04381E-14-4.85136E-13
 -1      1576 2.17381E+01-3.26348E-02 2.42468E-02-4.28707E-01-5.83045E-14-2.45685E-13
 -1      1577 2.10766E+01-1.77615E-02 1.08220E-02-4.37780E-01-1.29501E-13-5.29340E-13
 -1      1578 2.13821E+01-3.72275E-02-1.12171E-03-8.57217E-01-2.30019E-13-4.04943E-13
 -1      1579 2.25276E+01-4.17850E-02 2.83914E-02-2.61238E-01-1.17126E-13-5.06331E-14
 -1      1580 2.20538E+01-5.04002E-02 1.53135E-02-2.95147E-01-5.11952E-14-1.73819E-13
 -1      1581 2.21083E+01-9.79425E-02 5.93457E-03-6.47365E-01-1.69864E-13-8.82801E-14
 -1      1582 2.28773E+01-3.71824E-02 2.33503E-02-7.39383E-02 1.39147E-13 4.03844E-15
 -1      1583 2.26620E+01-5.88538E-02 1.35895E-02-1.14751E-01-2.67720E-14-4.32744E-14
 -1      1584 2.25388E+01-1.12157E-01 8.59846E-03-3.22222E-01-2.06987E-14-7.88146E-14
 -1      1585 2.28140E+01-2.62067E-02 1.47073E-02 8.14982E-02-6.81035E-14-1.57293E-13
 -1      1586 2.28397E+01-5.07045E-02 8.78421E-03 4.58925E-02 3.20872E-14-5.02875E-14
 -1      1587 2.26297E+01-9.38533E-02 8.28303E-03-1.98418E-03 7.42080E-14-2.58006E-13
 -1      1588 2.24448E+01-1.43313E-02 6.58993E-03 1.84524E-01 1.88246E-13-2.72620E-13
 -1      1589 2.26474E+01-3.53291E-02 3.83360E-03 1.59272E-01 1.45715E-13-1.18653E-13
 -1      1590 2.24297E+01-6.22734E-02 6.58345E-03 2.43739E-01 1.06912E-13-2.12897E-13
 -1      1591 2.18979E+01-4.00596E-03 4.84538E-04 2.35063E-01 1.28850E-13-5.61891E-13
 -1      1592 2.22021E+01-1.89556E-02 2.61690E-04 2.20797E-01 1.75279E-13-4.47208E-13
 -1      1593 2.20304E+01-3.06661E-02 4.44544E-03 3.93107E-01 3.41646E-13-4.37410E-13
 -1      1594 2.12913E+01 4.60540E-03-4.02727E-03 2.40671E-01 1.28287E-13-7.18356E-13
 -1      1595 2.16285E+01-3.91711E-03-1.89397E-03 2.36465E-01 4.51547E-14-6.02468E-13
 -1      1596 2.15301E+01-4.20818E-03 2.02330E-03 4.51393E-01 1.66177E-13-5.97380E-13
 -1      1597 2.07261E+01 1.24105E-02-7.89233E-03 2.08036E-01 4.99236E-14-9.21980E-13
 -1      1598 2.10376E+01 1.01180E-02-3.40593E-03 2.13423E-01 9.38234E-14-8.01059E-13
 -1      1599 2.10167E+01 1.75426E-02-1.00990E-03 4.31455E-01 1.72114E-13-5.28715E-13
 -1      1600 2.02907E+01 2.01014E-02-9.94460E-03 1.39731E-01-3.55922E-14-9.28159E-13
 -1      1601 2.05228E+01 2.43914E-02-4.65602E-03 1.56008E-01 3.33587E-14-8.02657E-13
 -1      1602 2.05639E+01 3.79942E-02-4.36426E-03 3.43148E-01 6.16590E-14-4.81481E-13
 -1      1603 2.00577E+01 2.61731E-02-1.33435E-04 4.68026E-02-5.28904E-14-8.40548E-13
 -1      1604 2.01610E+01 3.49741E-02-3.51326E-03 7.04632E-02-3.02636E-14-9.96609E-13
 -1      1605 2.02267E+01 5.59756E-02-5.87388E-03 1.95102E-01 5.51048E-14-4.92139E-13
 -1      1606 2.00043E+01 1.44302E-02 3.70950E-03-3.91456E-04-4.51566E-13-5.63271E-13
 -1      1607 2.00363E+01 2.31780E-01-4.82321E-03 1.17127E-01-4.98935E-13 1.42621E-13
 -1      1608 2.00401E+01 1.16652E-01 1.37467E-03 9.20257E-02-6.21815E-13 9.74739E-14
 -1      1609 2.00253E+01 6.27381E-01-2.67378E-03 2.08088E-01-3.55705E-14 3.23786E-13
 -1      1610 2.00329E+01 3.93263E-01-3.35542E-03 1.92101E-01-3.85327E-13 2.57132E-13
 -1      1611 2.00685E+01 3.62126E-01-7.18187E-03 3.01793E-01-9.41639E-14 2.81480E-13
 -1      1612 2.00118E+01 1.15480E+00-8.54234E-04 2.66789E-01-6.31994E-14 2.01129E-13
 -1      1613 2.00206E+01 8.43709E-01-2.39605E-03 2.57990E-01-4.73128E-14 3.83949E-14
 -1      1614 2.00409E+01 7.34947E-01-6.28466E-03 4.51352E-01-3.95534E-14 3.22531E-13
 -1      1615 1.99979E+01 1.74842E+00 6.62456E-05 2.89110E-01-6.91149E-14-4.49838E-14
 -1      1616 2.00070E+01 1.40557E+00-1.29992E-03 2.87632E-01-1.86793E-13 3.60832E-13
 -1      1617 2.00165E+01 1.19702E+00-2.89481E-03 5.35986E-01 9.35966E-14 1.04767E-13
 -1      1618 1.99841E+01 2.32336E+00 4.31409E-04 2.74094E-01-5.48075E-13 3.39375E-14
 -1      1619 1.99930E+01 1.99963E+00-6.55456E-04 2.79831E-01-2.48133E-13-2.63367E-13
 -1      1620 1.99926E+01 1.69453E+00 1.17988E-03 5.49535E-01-2.81481E-13-3.29644E-13
 -1      1621 1.99710E+01 2.82229E+00 7.59322E-04 2.21212E-01-3.05957E-13 1.92650E-13
 -1      1622 1.99791E+01 2.55211E+00-1.07111E-05 2.34376E-01-6.31020E-13 2.35869E-13
 -1      1623 1.99696E+01 2.17034E+00 5.28815E-03 4.91015E-01-5.16068E-13 2.69025E-14
 -1      1624 1.99610E+01 3.16138E+00 1.06485E-03 1.34615E-01-1.51070E-13-1.92138E-13
 -1      1625 1.99667E+01 2.99090E+00 6.05669E-04 1.53942E-01-1.33484E-13 5.26614E-14
 -1      1626 1.99488E+01 2.56475E+00 9.16649E-03 3.62130E-01-2.66678E-13 1.94727E-13
 -1      1627 1.99564E+01 3.28544E+00 1.25378E-03 2.46477E-02 1.14881E-13 2.20820E-13
 -1      1628 1.99584E+01 3.24355E+00 1.16537E-03 4.76266E-02-5.60099E-14-1.04322E-14
 -1      1629 1.99339E+01 2.81457E+00 1.20139E-02 1.75829E-01 3.67417E-14-1.91106E-14
 -1      1630 1.99584E+01 3.16846E+00 1.17840E-03-9.27769E-02 1.00415E-13-8.13772E-14
 -1      1631 1.99561E+01 3.26593E+00 1.51584E-03-6.96903E-02 1.43463E-13 1.88998E-13
 -1      1632 1.99282E+01 2.87781E+00 1.31103E-02-4.35129E-02 7.79394E-14 1.00924E-13
 -1      1633 1.99671E+01 2.82159E+00 7.99528E-04-1.99202E-01-4.48825E-14-1.71950E-13
 -1      1634 1.99609E+01 3.04752E+00 1.64077E-03-1.79773E-01 9.63916E-14-1.56481E-13
 -1      1635 1.99336E+01 2.73928E+00 1.20673E-02-2.62940E-01-4.45304E-15-1.20920E-13
 -1      1636 1.99809E+01 2.30281E+00 2.56846E-04-2.76544E-01-5.12437E-14 4.86560E-14
 -1      1637 1.99716E+01 2.61959E+00 1.38976E-03-2.64099E-01 1.11827E-13-1.40780E-13
 -1      1638 1.99499E+01 2.41889E+00 9.18965E-03-4.46445E-01-3.55627E-14-2.71391E-13
 -1      1639 1.99987E+01 1.67080E+00-7.70482E-04-3.14416E-01-1.46631E-13-1.65360E-14
 -1      1640 1.99872E+01 2.04203E+00 7.79141E-04-3.10450E-01-3.08781E-14 8.86632E-14
 -1      1641 1.99740E+01 1.96061E+00 4.73059E-03-5.65981E-01 1.69992E-13 2.57598E-14
 -1      1642 2.00180E+01 1.03135E+00-2.56614E-03-3.03269E-01 6.97532E-14 2.85243E-13
 -1      1643 2.00056E+01 1.39291E+00-6.50420E-04-3.09039E-01-1.69578E-13 1.43309E-13
 -1      1644 2.00047E+01 1.42602E+00-5.76100E-04-6.01146E-01 1.74994E-13 5.81791E-15
 -1      1645 2.00402E+01 4.99081E-01-9.67028E-04-2.37371E-01 7.38879E-14 5.42925E-15
 -1      1646 2.00247E+01 7.79011E-01-3.22890E-03-2.54834E-01 4.66224E-14 1.75008E-13
 -1      1647 2.00404E+01 8.97538E-01-5.66001E-03-5.37584E-01 1.35187E-14 2.05802E-13
 -1      1648 2.00777E+01 1.99975E-01 4.83413E-03-1.76323E-01-1.97508E-13-3.48358E-13
 -1      1649 2.00701E+01 3.49768E-01-2.65515E-03-2.21907E-01 3.02518E-14-3.63645E-13
 -1      1650 2.01085E+01 4.97291E-01-7.79091E-03-4.45095E-01-1.20300E-13-1.12012E-13
 -1      1651 2.02231E+01 2.32410E-01-3.87036E-04-3.44768E-01-1.47974E-13-3.99918E-13
 -1      1652-5.28893E-01-1.44995E+01-1.61506E+00-7.95993E-01 2.61902E-13 3.91742E-13
 -1      1653-5.57310E-01-1.66599E+01-1.81344E+00 4.09110E-01 2.66454E-14 1.82715E-13
 -1      1654 1.33911E+00-8.22119E+00-1.19590E+00 5.09060E-01 4.56968E-13-3.03091E-14
 -1      1655 6.17067E-01-1.33919E+01-1.71295E+00-5.33970E-02 4.42979E-13 1.42549E-13
 -1      1656 7.68921E+00-8.53347E-01-4.69846E-01 4.93220E+00 3.47056E-13 3.83693E-13
 -1      1657 4.50961E+00-6.30904E+00-1.21948E+00 2.08890E+00 3.21410E-13 2.44471E-13
 -1      1658 1.95373E+01 4.68353E+00 3.57289E-01 1.00204E+01 2.34923E-13 6.37268E-13
 -1      1659 1.20680E+01 1.07042E+00-5.93176E-01 6.04497E+00 1.86073E-13 3.48277E-13
 -1      1660 3.34629E+01 6.34439E+00 1.09293E+00 1.24726E+01 4.00291E-13 3.06422E-14
 -1      1661 2.45224E+01 6.18238E+00 2.43318E-01 1.08062E+01 4.50306E-13 3.51275E-13
 -1      1662 4.70727E+01 5.01227E+00 1.69468E+00 1.03592E+01 2.79637E-14-2.93210E-13
 -1      1663 3.84525E+01 6.65635E+00 1.04335E+00 1.22175E+01 2.06446E-13-9.05942E-14
 -1      1664 5.48581E+01 3.44738E+00 1.91062E+00 3.08561E+00-5.03764E-14-1.51990E-13
 -1      1665 5.06463E+01 4.71497E+00 1.66322E+00 8.27297E+00-6.38933E-14-2.02394E-13
 -1      1666 5.26194E+01 4.10066E+00 1.65085E+00-5.33611E+00 1.28314E-13-4.86000E-13
 -1      1667 5.49015E+01 3.54510E+00 1.85717E+00 2.26724E-01 1.08746E-13-3.16046E-13
 -1      1668 4.17930E+01 5.92724E+00 1.08436E+00-1.04861E+01 2.51882E-13-6.91669E-13
 -1      1669 4.95202E+01 4.26654E+00 1.61334E+00-7.31158E+00 2.15244E-13-5.87752E-13
 -1      1670 2.82310E+01 6.80605E+00 4.58201E-01-1.17088E+01 3.50164E-13-5.76872E-13
 -1      1671 3.74200E+01 6.13760E+00 1.23560E+00-1.23774E+01 2.61902E-13-6.15064E-13
 -1      1672 1.64203E+01 2.92055E+00-2.96290E-01-7.68185E+00 6.39933E-13-4.74509E-13
 -1      1673 2.39074E+01 5.00978E+00 5.23317E-01-1.07049E+01 4.51639E-13-5.84421E-13
 -1      1674 6.35344E+00-2.74092E+00-1.03216E+00-3.28394E+00 9.43245E-13-4.03233E-13
 -1      1675 1.08736E+01 2.11671E+00-2.32949E-01-6.77788E+00 7.29194E-13-4.72844E-13
 -1      1676 1.91564E+00-1.05254E+01-1.45342E+00-7.03432E-01 1.20104E-12-3.13652E-13
 -1      1677 3.51195E+00-4.89716E+00-8.57288E-01-2.26096E+00 1.00409E-12-2.43139E-13
 -1      1678-2.78573E-01-1.57114E+01-1.74933E+00-1.88203E-01 6.48315E-13-4.34264E-13
 -1      1679-1.45808E-01-1.22436E+01-1.42940E+00 5.57375E-01 1.07536E-12-4.84918E-13
 -1      1680-7.53251E-01-1.60413E+01-1.76251E+00-9.84539E-01-1.37529E-13-4.77840E-13
 -1      1681-7.31742E-01-1.64864E+01-1.77335E+00 5.47681E-01 4.77798E-13-3.85025E-13
 -1      1682-5.76738E-03-1.14249E+01-1.48838E+00-7.94457E-01-1.20060E-12-9.10133E-13
 -1      1683-1.56695E-01-1.54386E+01-1.84909E+00-4.10119E-01-3.74478E-13-6.63886E-13
 -1      1684 4.65095E+00-3.74922E+00-8.03310E-01 2.90226E+00-1.71241E-12-1.31906E-12
 -1      1685 2.54131E+00-9.39407E+00-1.44827E+00 8.24217E-01-1.31217E-12-9.01446E-13
 -1      1686 1.33726E+01 2.63172E+00-1.09894E-01 7.65374E+00-1.73428E-12-1.51734E-12
 -1      1687 8.13511E+00-1.75396E+00-9.35754E-01 4.05363E+00-1.81810E-12-1.42131E-12
 -1      1688 2.83850E+01 5.20711E+00 7.07360E-01 1.12453E+01-1.18316E-12-9.89875E-13
 -1      1689 1.90302E+01 3.73645E+00-1.99071E-01 8.30924E+00-1.62159E-12-1.31450E-12
 -1      1690 4.25195E+01 5.26223E+00 1.37583E+00 1.10328E+01-5.03653E-13-6.65912E-13
 -1      1691 3.34463E+01 6.51625E+00 6.66643E-01 1.16587E+01-8.64642E-13-9.76774E-13
 -1      1692 5.21064E+01 3.99085E+00 1.71751E+00 4.86313E+00-1.45883E-13-6.49314E-13
 -1      1693 4.59074E+01 5.33361E+00 1.25703E+00 8.87263E+00-3.39326E-13-7.02882E-13
 -1      1694 5.55309E+01 3.67815E+00 1.93823E+00-2.88691E+00 1.14797E-13-6.69187E-13
 -1      1695 5.51924E+01 3.65911E+00 1.85901E+00 3.00222E+00 8.58480E-14-4.96492E-13
 -1      1696 4.80810E+01 5.25751E+00 1.50782E+00-9.54486E+00 2.84495E-15-5.35461E-13
 -1      1697 5.37080E+01 3.80458E+00 1.89246E+00-5.38043E+00 1.17684E-14-7.02993E-13
 -1      1698 3.53313E+01 6.77935E+00 8.63117E-01-1.23060E+01-6.77236E-15-1.91180E-13
 -1      1699 4.43072E+01 5.40048E+00 1.56176E+00-1.14181E+01 4.95715E-14-3.17746E-13
 -1      1700 2.11230E+01 5.67478E+00 3.53891E-02-1.00760E+01-4.78284E-13 1.59206E-13
 -1      1701 3.00630E+01 6.49783E+00 9.37623E-01-1.25343E+01-1.50435E-13-2.48690E-13
 -1      1702 1.02200E+01 3.93157E-01-7.53200E-01-5.34374E+00-7.99361E-13 4.04121E-13
 -1      1703 1.63158E+01 4.16812E+00 1.28959E-01-9.06470E+00-5.25469E-13 2.99427E-13
 -1      1704 3.13264E+00-7.18728E+00-1.44665E+00-1.06900E+00-7.09766E-13 4.55525E-13
 -1      1705 5.91171E+00-1.43159E+00-6.93562E-01-3.82428E+00-7.77156E-13 6.14064E-13
 -1      1706 3.14991E-01-1.42220E+01-1.83491E+00 4.80071E-01-5.67768E-13 4.08125E-13
 -1      1707 8.54412E-01-9.35666E+00-1.36144E+00 1.23155E-01-7.48734E-13 3.24407E-13
 -1      1708-6.47401E-01-1.73501E+01-1.92126E+00-2.45413E-01-1.58928E-13 1.88599E-13
 -1      1709-6.94751E-01-1.55286E+01-1.78259E+00 1.16214E+00-5.17697E-13 3.45723E-13
 -1      1710 2.58441E+01 7.42504E-01 2.94830E-01 7.07966E+00 8.80407E-14 1.16129E-13
 -1      1711 1.55895E+01-3.65699E+00-2.70827E-01 6.62593E+00 2.84772E-13 2.63622E-13
 -1      1712 2.00413E+01 4.19535E-02-3.03642E-03 4.43223E-02-5.95469E-13-3.52420E-13
 -1      1713 2.00971E+01 1.40282E-01-2.59213E-03 1.57275E-01-1.33047E-13-6.94271E-14
 -1      1714 6.35298E-01-1.01624E+01-1.14163E+00 2.46466E+00 2.28761E-13 2.65121E-13
 -1      1715 6.46346E+00-7.27206E+00-7.50124E-01 4.97375E+00 4.37872E-13 8.82454E-14
 -1      1716-1.32842E+00-1.15936E+01-1.30835E+00 2.54775E-01-1.48659E-13 4.46587E-13
 -1      1717 3.58435E+01 4.47430E+00 8.91049E-01 6.82728E+00 2.60542E-13-2.11942E-13
 -1      1718 4.40530E+01 6.44829E+00 1.39978E+00 4.71853E+00 1.94011E-14-1.17240E-13
 -1      1719 4.72841E+01 7.31725E+00 1.57415E+00 8.90980E-01 1.30729E-13-1.08358E-13
 -1      1720 4.44272E+01 6.99726E+00 1.34308E+00-2.58781E+00 3.11029E-13-5.83200E-13
 -1      1721 3.81807E+01 5.25128E+00 1.03801E+00-5.76335E+00 1.40783E-13-4.90719E-13
 -1      1722 2.89464E+01 1.76285E+00 4.21455E-01-6.78871E+00 3.38451E-13-3.99902E-13
 -1      1723 1.91532E+01-1.84751E+00-2.57274E-02-6.82540E+00 5.70877E-13-2.84994E-13
 -1      1724 9.31891E+00-5.63222E+00-6.08439E-01-5.57090E+00 7.32414E-13-6.85008E-14
 -1      1725 2.53036E+00-8.84013E+00-9.55641E-01-3.62399E+00 4.06231E-13-2.70839E-13
 -1      1726-1.06084E+00-1.08803E+01-1.22184E+00-1.00886E+00 1.93373E-13-7.30305E-13
 -1      1727-6.93279E-01-1.11836E+01-1.29061E+00 1.20247E+00-1.51712E-13-9.92872E-13
 -1      1728 3.59226E+00-8.58765E+00-9.44054E-01 3.77007E+00-6.67355E-13-1.01780E-12
 -1      1729 1.13815E+01-5.21335E+00-5.05853E-01 5.82207E+00-8.91398E-13-1.12016E-12
 -1      1730 2.19331E+01-1.44609E+00 8.17939E-02 6.70001E+00-1.04783E-12-6.71463E-13
 -1      1731 3.23039E+01 2.36332E+00 5.48517E-01 6.07473E+00-1.00242E-12-4.36096E-13
 -1      1732 4.07919E+01 5.76270E+00 1.12854E+00 4.30773E+00-4.65294E-13-4.93050E-13
 -1      1733 4.59328E+01 7.38668E+00 1.45536E+00 1.21134E+00-1.18239E-13-5.19029E-13
 -1      1734 4.73023E+01 7.34750E+00 1.63142E+00-1.76557E+00 3.84137E-14-4.65461E-13
 -1      1735 4.25176E+01 6.05411E+00 1.32015E+00-5.18951E+00-1.33449E-13-5.67324E-13
 -1      1736 3.38472E+01 3.85460E+00 8.10910E-01-7.29986E+00-1.83881E-13-1.60538E-13
 -1      1737 2.34012E+01 2.64258E-01 1.62476E-01-7.30506E+00-4.94937E-13-1.82077E-13
 -1      1738 1.33073E+01-3.79015E+00-4.05700E-01-6.16566E+00-4.32099E-13 2.65343E-13
 -1      1739 4.99780E+00-7.94967E+00-9.70617E-01-4.04119E+00-4.74842E-13 2.84214E-13
 -1      1740 1.26903E-01-1.10585E+01-1.30200E+00-1.92696E+00-3.27349E-13 4.79228E-13
 -1      1741 2.28567E+01 1.98498E+00-2.35756E-02-2.72317E+00-2.21916E-13 1.28994E-12
 -1      1742 1.98225E+01 3.71423E+00-3.55506E-02-2.15351E+00-3.67794E-13-1.42091E-13
 -1      1743 2.00571E+01 3.56199E+00-4.02684E-02-2.44648E+00-3.99743E-13-1.19210E-14
 -1      1744 2.03619E+01 3.18173E+00-4.57086E-02-2.58633E+00-3.86192E-13 1.36516E-13
 -1      1745 2.05813E+01 2.80999E+00-1.42547E-01-2.85466E+00-3.88078E-13 3.38542E-13
 -1      1746 2.04220E+01 2.69331E+00-4.44708E-03-2.22744E+00-4.04889E-13 6.82406E-14
 -1      1747 1.93557E+01 4.18928E+00-2.02060E-02-1.27192E+00-2.71359E-13-4.06961E-13
 -1      1748 1.94285E+01 4.14891E+00-1.75186E-02-1.49628E+00-3.04508E-13-3.71104E-13
 -1      1749 1.92604E+01 4.29443E+00-1.68041E-02-8.60595E-01-2.06728E-13-4.67758E-13
 -1      1750 1.93027E+01 4.27065E+00-1.43482E-02-1.07147E+00-2.43274E-13-4.36619E-13
 -1      1751 1.95284E+01 3.78247E+00-9.22262E-03-1.12130E+00-2.68139E-13-4.06902E-13
 -1      1752 1.92094E+01 4.35486E+00-1.48137E-02-4.67274E-01-1.47228E-13-4.94741E-13
 -1      1753 1.92311E+01 4.34204E+00-1.33253E-02-6.67742E-01-1.79905E-13-4.78867E-13
 -1      1754 1.94321E+01 3.90279E+00-9.19887E-03-7.33995E-01-2.05544E-13-4.55467E-13
 -1      1755 1.91903E+01 4.38049E+00-1.36797E-02-8.37271E-02-8.06793E-14-5.27453E-13
 -1      1756 1.91966E+01 4.37656E+00-1.32298E-02-2.79355E-01-1.07620E-13-5.10716E-13
 -1      1757 1.93823E+01 3.96735E+00-9.16265E-03-3.58668E-01-1.38401E-13-4.87881E-13
 -1      1758 1.91983E+01 4.37519E+00-1.31813E-02 2.98412E-01-1.65906E-14-5.48386E-13
 -1      1759 1.91908E+01 4.37966E+00-1.37621E-02 1.02626E-01-4.98051E-14-5.35010E-13
 -1      1760 1.93677E+01 3.98677E+00-9.14829E-03 1.05683E-02-7.21831E-14-5.13879E-13
 -1      1761 1.92352E+01 4.33800E+00-1.33413E-02 6.87511E-01 4.33751E-14-5.62082E-13
 -1      1762 1.92122E+01 4.35171E+00-1.49231E-02 4.86543E-01 1.35900E-14-5.55639E-13
 -1      1763 1.93850E+01 3.96407E+00-9.19038E-03 3.79990E-01 1.84778E-15-5.35514E-13
 -1      1764 1.93080E+01 4.26459E+00-1.44211E-02 1.08546E+00 1.05309E-13-5.54574E-13
 -1      1765 1.92650E+01 4.28909E+00-1.69760E-02 8.77366E-01 7.49286E-14-5.60739E-13
 -1      1766 1.94373E+01 3.89659E+00-9.19777E-03 7.52499E-01 6.82853E-14-5.44008E-13
 -1      1767 1.94388E+01 4.13738E+00-1.74130E-02 1.51569E+00 1.94517E-13-5.18242E-13
 -1      1768 1.93628E+01 4.17999E+00-2.05023E-02 1.28606E+00 1.42670E-13-5.37126E-13
 -1      1769 1.95362E+01 3.77272E+00-9.23970E-03 1.13652E+00 1.44418E-13-5.24237E-13
 -1      1770 1.96670E+01 3.92086E+00-2.52043E-02 1.98090E+00 2.75111E-13-4.50133E-13
 -1      1771 1.95347E+01 3.99765E+00-2.68972E-02 1.72352E+00 2.32476E-13-4.89383E-13
 -1      1772 1.97086E+01 3.56567E+00-8.70597E-03 1.53645E+00 2.29988E-13-4.76494E-13
 -1      1773 2.00745E+01 3.52262E+00-4.51940E-02 2.47332E+00 3.51070E-13-2.96048E-13
 -1      1774 1.98350E+01 3.68308E+00-3.97134E-02 2.18425E+00 3.03952E-13-3.89331E-13
 -1      1775 2.00040E+01 3.22265E+00-5.26983E-03 1.93590E+00 3.16645E-13-3.85273E-13
 -1      1776 2.09189E+01 2.68176E+00-5.76570E-02 2.85886E+00 3.90230E-13 1.86726E-14
 -1      1777 2.04119E+01 3.09686E+00-5.04220E-02 2.61718E+00 3.67084E-13-1.72556E-13
 -1      1778 2.05160E+01 2.60983E+00 3.18750E-03 2.24583E+00 3.79310E-13-2.04319E-13
 -1      1779 2.17287E+01 1.21301E+00-1.22096E-01 2.33070E+00 3.58678E-13 4.44381E-13
 -1      1780 2.12724E+01 2.26304E+00 1.21141E-04 2.74143E+00 3.72261E-13 1.65506E-13
 -1      1781 2.09352E+01 1.68501E+00-2.29702E-02 2.14132E+00 3.91652E-13 3.38410E-14
 -1      1782 2.09497E+01 7.78692E-01-6.24645E-02 1.52504E+00 3.49790E-13 3.35874E-13
 -1      1783 2.17946E+01 2.45830E+00 9.08662E-02-3.04911E+00-3.08444E-13 6.83786E-13
 -1      1784 2.00983E+01 2.97910E-01-8.92682E-03 6.57920E-01 2.60021E-13 1.83341E-13
 -1      1785 2.06507E+01 4.40398E-01-1.24705E-02 1.03493E+00 2.83121E-13 2.82154E-13
 -1      1786 2.07422E+01 8.45124E-01 2.25620E-03 1.41617E+00 3.35731E-13 1.10321E-13
 -1      1787 2.15050E+01 1.74277E+00 7.94507E-02-2.33816E+00-3.43000E-13 5.26607E-13
 -1      1788 2.05185E+01 5.00411E-01 3.25311E-02-9.22681E-01-2.76470E-13 4.58223E-13
 -1      1789 2.00861E+01 3.51781E-01 7.56973E-03-6.30933E-01-2.60191E-13 3.89054E-13
 -1      1790 1.98913E+01 2.57299E-01 2.74192E-02-3.92609E-01-2.37854E-13 3.72705E-13
 -1      1791 1.96999E+01 1.78048E-01 1.04005E-02-2.54784E-01-2.06017E-13 3.01609E-13
 -1      1792 2.01967E+01 4.83714E-01-5.72354E-03-7.24441E-01-2.89424E-13 2.03586E-13
 -1      1793 1.95777E+01 1.32665E-01 1.66865E-02-1.21246E-01-1.64207E-13 2.79527E-13
 -1      1794 1.94991E+01 9.29602E-02 6.97659E-03-5.05229E-02-1.25212E-13 2.29124E-13
 -1      1795 1.98700E+01 2.43996E-01-5.70832E-03-2.97259E-01-2.29637E-13 1.64807E-13
 -1      1796 1.94341E+01 6.82847E-02 8.70194E-03 2.29177E-02-1.09344E-13 2.04455E-13
 -1      1797 1.94191E+01 4.66148E-02 4.11749E-03 5.90312E-02-1.12956E-13 1.85231E-13
 -1      1798 1.96870E+01 1.25058E-01-4.61832E-03-6.05777E-02-1.67201E-13 9.75630E-14
 -1      1799 1.93928E+01 3.23225E-02 4.24937E-03 9.77176E-02-1.18402E-13 1.73798E-13
 -1      1800 1.94121E+01 1.99509E-02 2.44581E-03 1.14481E-01-1.07373E-13 1.34000E-13
 -1      1801 1.96000E+01 6.08117E-02-3.46579E-03 6.89011E-02-1.29484E-13 7.06598E-14
 -1      1802 1.94103E+01 1.14018E-02 1.87417E-03 1.32496E-01-8.83050E-14 1.29183E-13
 -1      1803 1.94470E+01 4.34445E-03 1.47973E-03 1.38021E-01-5.68827E-14 1.22001E-13
 -1      1804 1.95755E+01 2.41323E-02-2.35785E-03 1.35409E-01-1.12214E-13 7.09997E-14
 -1      1805 1.94597E+01-7.06907E-04 5.85502E-04 1.43702E-01-8.64575E-14 8.59882E-14
 -1      1806 1.95038E+01-4.49454E-03 8.94425E-04 1.42768E-01-9.31506E-14 6.08765E-14
 -1      1807 1.95891E+01 2.95981E-03-1.47419E-03 1.64191E-01-9.59660E-14 2.75564E-14
 -1      1808 1.95243E+01-7.27111E-03-1.18162E-04 1.41346E-01-1.11625E-13 6.12104E-14
 -1      1809 1.95701E+01-8.94168E-03 5.39789E-04 1.36981E-01-9.41727E-14 5.09849E-14
 -1      1810 1.96243E+01-8.73906E-03-8.49827E-04 1.70612E-01-1.04968E-13-1.22386E-14
 -1      1811 1.95942E+01-1.01744E-02-4.80557E-04 1.31898E-01-5.76244E-14 3.35873E-14
 -1      1812 1.96385E+01-1.04225E-02 3.45271E-04 1.26119E-01-1.64060E-14 2.70765E-14
 -1      1813 1.96706E+01-1.43051E-02-4.45773E-04 1.64535E-01-9.74670E-14-2.91949E-14
 -1      1814 1.96640E+01-1.05728E-02-6.29923E-04 1.19721E-01-3.15185E-14-1.28823E-14
 -1      1815 1.97054E+01-9.82964E-03 2.72967E-04 1.13918E-01-2.91191E-14-5.38424E-14
 -1      1816 1.97215E+01-1.57320E-02-2.10382E-04 1.52564E-01-6.67338E-14-6.48982E-14
 -1      1817 1.97310E+01-9.19286E-03-6.41221E-04 1.07861E-01-3.20909E-14-7.01176E-14
 -1      1818 1.97695E+01-7.72128E-03 3.00641E-04 1.03035E-01-2.03743E-14-6.11234E-14
 -1      1819 1.97734E+01-1.42565E-02-1.00338E-04 1.39272E-01-5.00332E-14-8.28942E-14
 -1      1820 1.97948E+01-6.48032E-03-5.61615E-04 9.85402E-02-1.62444E-14-8.12310E-14
 -1      1821 1.98312E+01-4.42622E-03 4.15866E-04 9.54548E-02-1.29658E-14-5.31897E-14
 -1      1822 1.98249E+01-1.06397E-02-8.39799E-05 1.27951E-01-2.64246E-14-6.84518E-14
 -1      1823 1.98568E+01-2.68250E-03-4.21681E-04 9.34861E-02-8.57222E-15-8.43259E-14
 -1      1824 1.98925E+01-1.06038E-04 6.13399E-04 9.27800E-02-1.08080E-14-3.94388E-14
 -1      1825 1.98764E+01-5.31645E-03-1.39381E-04 1.21099E-01-4.50407E-14-9.05428E-14
 -1      1826 1.99193E+01 2.09956E-03-2.41322E-04 9.41696E-02-2.91117E-14-7.38487E-14
 -1      1827 1.99565E+01 5.20243E-03 8.93343E-04 9.64356E-02-4.89615E-15-9.51398E-14
 -1      1828 1.99291E+01 1.51549E-03-2.51784E-04 1.20763E-01-2.83160E-14-1.73111E-13
 -1      1829 1.99858E+01 7.87328E-03-3.35544E-05 1.01978E-01 1.39585E-14-7.98768E-14
 -1      1830 2.00271E+01 1.15529E-02 1.25932E-03 1.07823E-01 3.09230E-14-6.71942E-14
 -1      1831 1.99856E+01 9.83379E-03-4.11375E-04 1.28789E-01 2.33697E-14-1.30534E-13
 -1      1832 2.00608E+01 1.47212E-02 1.92636E-04 1.18338E-01 5.01227E-16-1.48154E-13
 -1      1833 2.01093E+01 1.90558E-02 1.71613E-03 1.28420E-01-1.89871E-14-1.69247E-13
 -1      1834 2.00490E+01 1.97399E-02-6.11391E-04 1.46996E-01-2.58981E-14-1.86903E-13
 -1      1835 2.01496E+01 2.27638E-02 4.29838E-04 1.44787E-01 9.27557E-15-2.01761E-13
 -1      1836 2.02091E+01 2.78344E-02 2.26621E-03 1.59831E-01-1.36550E-14-1.55451E-13
 -1      1837 2.01235E+01 3.14046E-02-8.46406E-04 1.77284E-01-4.99837E-14-2.52175E-13
 -1      1838 2.02584E+01 3.21086E-02 6.69812E-04 1.82985E-01-4.18182E-14-1.17025E-13
 -1      1839 2.03332E+01 3.79604E-02 2.90393E-03 2.03759E-01-5.17338E-15-1.65385E-13
 -1      1840 2.02137E+01 4.49948E-02-1.11068E-03 2.21669E-01-1.13547E-14-1.55927E-13
 -1      1841 2.03943E+01 4.27679E-02 9.00975E-04 2.34627E-01 1.42312E-14-1.81453E-13
 -1      1842 2.04891E+01 4.93447E-02 3.60607E-03 2.61868E-01 4.86882E-14-1.70330E-13
 -1      1843 2.03251E+01 6.05605E-02-1.39669E-03 2.82206E-01 7.03300E-15-2.52476E-13
 -1      1844 2.05651E+01 5.45217E-02 1.10585E-03 3.01223E-01 8.53300E-14-1.23425E-13
 -1      1845 2.06850E+01 6.15524E-02 4.31652E-03 3.35456E-01 4.48389E-14-5.93933E-14
 -1      1846 2.04634E+01 7.78432E-02-1.69418E-03 3.60759E-01 1.07217E-13-1.85700E-13
 -1      1847 2.07789E+01 6.66809E-02 1.25906E-03 3.83617E-01-1.39333E-14 5.26702E-14
 -1      1848 2.09289E+01 7.34882E-02 4.92284E-03 4.24819E-01 4.65752E-15 1.02631E-13
 -1      1849 2.06350E+01 9.59501E-02-1.99039E-03 4.58505E-01 5.55156E-14-4.09048E-14
 -1      1850 2.10438E+01 7.76945E-02 1.32742E-03 4.81120E-01-2.87864E-14 2.65907E-14
 -1      1851 2.12281E+01 8.28864E-02 5.22375E-03 5.28118E-01-2.17818E-14-3.47619E-14
 -1      1852 2.08459E+01 1.12810E-01-2.27244E-03 5.75034E-01-2.42643E-14 5.35182E-14
 -1      1853 2.13667E+01 8.45287E-02 1.27548E-03 5.90005E-01-1.75207E-16 5.51902E-14
 -1      1854 2.15871E+01 8.55445E-02 4.89184E-03 6.39474E-01-5.10759E-14 9.21058E-14
 -1      1855 2.11019E+01 1.24310E-01-2.53304E-03 7.06794E-01 5.49365E-15 9.39722E-14
 -1      1856 2.17516E+01 8.17849E-02 1.08154E-03 7.01098E-01-5.15801E-14 1.47594E-13
 -1      1857 2.20057E+01 7.43367E-02 3.44851E-03 7.46043E-01 1.00757E-14 1.61811E-13
 -1      1858 2.14076E+01 1.23062E-01-2.77864E-03 8.44622E-01 2.47662E-14 1.60689E-13
 -1      1859 2.21973E+01 6.06982E-02 7.67094E-04 7.96240E-01 9.95189E-16 1.79563E-13
 -1      1860 2.24749E+01 3.83681E-02 2.96466E-04 8.24002E-01 1.11244E-13 1.40464E-13
 -1      1861 2.17655E+01 9.69505E-02-3.03323E-03 9.70089E-01 3.67268E-14 1.27260E-13
 -1      1862 2.26936E+01 8.67166E-03 4.30345E-04 8.43881E-01 1.30624E-13 1.75656E-13
 -1      1863 2.29728E+01-3.65482E-02-5.10215E-03 8.34269E-01 1.77538E-13 1.66412E-13
 -1      1864 2.21756E+01 2.83250E-02-3.31270E-03 1.05081E+00 1.39855E-13 1.81181E-13
 -1      1865 2.32161E+01-8.88669E-02 2.29956E-04 7.95460E-01 1.81214E-13 1.24479E-13
 -1      1866 2.34595E+01-1.63381E-01-1.27498E-02 7.20871E-01 1.95436E-13 2.48211E-13
 -1      1867 2.26328E+01-1.03851E-01-3.51644E-03 1.03598E+00 1.32464E-13 1.10474E-13
 -1      1868 2.37186E+01-2.40648E-01 2.55581E-04 5.87356E-01 1.15266E-13 1.54880E-13
 -1      1869 2.38727E+01-3.40899E-01-2.12754E-02 4.18962E-01 8.34315E-15 1.97483E-13
 -1      1870 2.31239E+01-3.14137E-01-3.15402E-03 8.56143E-01 1.33752E-13 3.63518E-14
 -1      1871 2.41244E+01-4.31079E-01 3.13657E-05 1.58186E-01-6.27302E-14 2.64387E-13
 -1      1872 2.41268E+01-5.28122E-01-2.67380E-02-1.16102E-01-7.22720E-14 2.22403E-13
 -1      1873 2.36179E+01-5.86544E-01-9.90182E-04 4.35937E-01 9.88194E-14 7.84737E-14
 -1      1874 2.43196E+01-5.89842E-01-1.91612E-03-5.03131E-01-1.74295E-13 2.36651E-13
 -1      1875 2.41216E+01-6.17578E-01-2.33666E-02-8.45362E-01-1.54187E-13 3.46672E-13
 -1      1876 2.40475E+01-8.33335E-01 4.97203E-03-2.65376E-01-1.08450E-13 2.37013E-13
 -1      1877 2.41712E+01-5.79061E-01-8.76014E-03-1.27506E+00-9.95705E-14 5.00707E-13
 -1      1878 2.37794E+01-4.53062E-01-7.69926E-03-1.56659E+00-2.68448E-14 4.24792E-13
 -1      1879 2.42893E+01-8.69298E-01 1.39328E-02-1.16876E+00-7.97713E-14 3.35913E-13
 -1      1880 2.36104E+01-2.50562E-01-1.90133E-02-1.84099E+00 1.02019E-14 4.22324E-13
 -1      1881 2.31196E+01 5.11979E-02 1.31714E-02-1.89799E+00 8.56286E-14 3.85086E-13
 -1      1882 2.41906E+01-4.84802E-01 1.56894E-02-1.97977E+00-1.04285E-14 3.39714E-13
 -1      1883 2.27795E+01 3.73222E-01-2.37326E-02-1.77375E+00 3.24185E-14 3.98313E-13
 -1      1884 2.23699E+01 7.08153E-01 2.20981E-02-1.46785E+00-5.67497E-14 3.24334E-13
 -1      1885 2.37080E+01 3.36650E-01-2.95963E-03-2.19751E+00 3.55844E-14 4.13845E-13
 -1      1886 2.20916E+01 9.61337E-01-6.31071E-03-8.92727E-01-1.25559E-13 1.59039E-13
 -1      1887 2.19352E+01 1.09742E+00 1.28387E-02-3.08370E-01-1.48298E-13 1.43303E-13
 -1      1888 2.31139E+01 1.22263E+00-2.70627E-02-1.43557E+00-1.83221E-13 2.75017E-13
 -1      1889 2.19518E+01 1.06724E+00 1.64490E-02 4.58922E-01-2.61808E-13 1.03137E-13
 -1      1890 2.21279E+01 8.74249E-01-1.12104E-02 1.00973E+00-2.10464E-13-1.11695E-13
 -1      1891 2.28556E+01 1.58629E+00-2.98615E-02 8.83671E-02-2.78822E-13 9.47064E-14
 -1      1892 2.24134E+01 5.85253E-01 2.33884E-02 1.50716E+00-3.33466E-14-5.61599E-14
 -1      1893 2.28122E+01 2.35830E-01-2.37690E-02 1.73877E+00 4.34184E-14 6.76785E-14
 -1      1894 2.31507E+01 1.07112E+00-2.31190E-02 1.52148E+00-1.33050E-13-4.37393E-14
 -1      1895 2.31018E+01-7.59529E-02 1.01787E-02 1.76733E+00 3.45776E-14-1.04573E-13
 -1      1896 2.35409E+01-3.51401E-01-1.77704E-02 1.64600E+00-3.93682E-14-1.60483E-13
 -1      1897 2.37008E+01 1.47716E-01 3.59810E-03 2.07812E+00-4.95012E-14-1.48069E-13
 -1      1898 2.36344E+01-5.22051E-01-1.10352E-02 1.31426E+00-8.31453E-15-1.27906E-13
 -1      1899 2.39442E+01-6.14851E-01-7.69379E-03 9.92955E-01-9.06220E-14-9.28268E-14
 -1      1900 2.40559E+01-6.12522E-01 1.73786E-02 1.69299E+00-9.49804E-15-2.32853E-13
 -1      1901 2.38262E+01-6.29005E-01-2.46775E-02 5.50307E-01-1.10851E-13-3.68447E-14
 -1      1902 2.39292E+01-5.82788E-01-2.41777E-03 2.06088E-01-3.37369E-14 1.64796E-13
 -1      1903 2.40127E+01-9.09903E-01 1.25240E-02 8.10657E-01-4.76667E-14 2.98941E-14
 -1      1904 2.36830E+01-5.11099E-01-2.60030E-02-1.70647E-01-6.50955E-14 2.39065E-13
 -1      1905 2.35868E+01-4.09700E-01-7.16340E-04-4.34549E-01 1.19429E-13 3.68301E-13
 -1      1906 2.36522E+01-8.17709E-01 3.94763E-03-9.10231E-02 7.72689E-14 3.73447E-13
 -1      1907 2.32910E+01-3.18655E-01-1.94723E-02-6.79666E-01 3.35181E-13 2.80791E-13
 -1      1908 2.30501E+01-2.20015E-01-2.42566E-04-8.35822E-01 3.19263E-13 3.73108E-13
 -1      1909 2.31251E+01-5.54877E-01-1.53429E-03-7.62714E-01 1.01112E-13 5.53926E-13
 -1      1910 2.27516E+01-1.43469E-01-1.06866E-02-9.54732E-01 1.46963E-13 4.04205E-13
 -1      1911 2.24312E+01-6.90172E-02 6.07162E-04-1.01737E+00 1.67028E-13 6.49656E-13
 -1      1912 2.25457E+01-2.83048E-01-3.39428E-03-1.14989E+00 2.70337E-13 4.08901E-13
 -1      1913 2.21511E+01-1.37641E-02-3.13719E-03-1.04029E+00 2.48670E-14 5.12397E-13
 -1      1914 2.18079E+01 3.77178E-02 2.12754E-03-1.03397E+00-6.56148E-15 3.08258E-13
 -1      1915 2.19763E+01-7.03322E-02-3.78832E-03-1.29660E+00 4.03852E-14 4.75365E-13
 -1      1916 2.15559E+01 7.71512E-02 1.95699E-03-9.89352E-01-1.29606E-13 1.52506E-13
 -1      1917 2.12330E+01 1.14943E-01 3.94961E-03-9.33373E-01-1.38555E-13 3.56943E-14
 -1      1918 2.14484E+01 8.11900E-02-3.80510E-03-1.26696E+00-1.53825E-13 2.06818E-13
 -1      1919 2.10130E+01 1.47296E-01 4.47175E-03-8.40200E-01-3.28392E-14 1.08312E-14
 -1      1920 2.07423E+01 1.79959E-01 5.48664E-03-7.44258E-01 1.18477E-13 4.30797E-15
 -1      1921 2.09802E+01 1.93832E-01-3.51083E-03-1.11165E+00-1.58717E-13 1.01980E-13
 -1      1922 2.05770E+01 2.01547E-01 4.90394E-03-6.19258E-01 1.65123E-13-1.97287E-13
 -1      1923 2.03750E+01 2.29664E-01 7.35147E-03-4.93593E-01-6.15176E-14-2.67204E-13
 -1      1924 2.03081E+01 3.27526E-01-2.98983E-03-5.79316E-01-1.39505E-13-2.88810E-13
 -1      1925 2.05992E+01 2.80534E-01-4.34268E-03-8.69852E-01-3.20555E-15-6.41289E-14
 -1      1926 1.96149E+01 1.41973E-01 7.87325E-03 2.60379E-01 1.99851E-13 5.76310E-14
 -1      1927 1.98874E+01 2.04041E-01 1.64305E-02 4.33325E-01 2.21125E-13 1.52899E-13
 -1      1928 2.00994E+01 3.50494E-01-1.52677E-03 6.56090E-01 2.71977E-13 2.60642E-14
 -1      1929 1.93718E+01 7.18673E-02 6.94032E-03 5.74926E-02 1.35054E-13-1.48258E-14
 -1      1930 1.94873E+01 1.01740E-01 1.41923E-02 1.45955E-01 1.53768E-13 3.70520E-14
 -1      1931 1.97061E+01 1.65114E-01-1.94400E-03 2.57447E-01 1.89775E-13-3.03559E-14
 -1      1932 1.92806E+01 3.61365E-02 4.42468E-03-4.79430E-02 8.36709E-14-7.04159E-14
 -1      1933 1.93112E+01 5.19348E-02 8.33684E-03-7.67082E-04 1.01607E-13-2.67928E-14
 -1      1934 1.95053E+01 8.06315E-02-2.83139E-03 4.55222E-02 1.33646E-13-8.41814E-14
 -1      1935 1.92783E+01 1.62583E-02 2.86356E-03-1.00502E-01 8.23892E-14-1.61378E-13
 -1      1936 1.92635E+01 2.50910E-02 4.35948E-03-7.58764E-02 7.96216E-14-9.88866E-14
 -1      1937 1.94257E+01 3.74868E-02-2.85147E-03-6.64284E-02 1.09017E-13-1.36508E-13
 -1      1938 1.93251E+01 4.75636E-03 1.99809E-03-1.22833E-01 9.11455E-14-2.31613E-13
 -1      1939 1.92870E+01 9.72993E-03 2.16377E-03-1.11325E-01 8.51872E-14-1.98982E-13
 -1      1940 1.94189E+01 1.37957E-02-2.31892E-03-1.22187E-01 1.08167E-13-1.98536E-13
 -1      1941 1.93966E+01-1.83062E-03 1.46703E-03-1.27593E-01 3.76394E-14-2.66981E-13
 -1      1942 1.93482E+01 8.30100E-04 9.77992E-04-1.23881E-01 6.30727E-14-2.55510E-13
 -1      1943 1.94535E+01 4.39787E-04-1.70743E-03-1.45243E-01 1.02339E-13-2.80789E-13
 -1      1944 1.94779E+01-5.30244E-03 1.10455E-03-1.22465E-01 8.52531E-14-3.11873E-13
 -1      1945 1.94267E+01-4.10215E-03 3.22876E-04-1.23272E-01 5.86672E-14-2.76559E-13
 -1      1946 1.95097E+01-6.82037E-03-1.19768E-03-1.49236E-01 8.09489E-14-2.76601E-13
 -1      1947 1.95605E+01-6.70195E-03 8.47476E-04-1.12417E-01 5.23190E-14-3.07497E-13
 -1      1948 1.95105E+01-6.44611E-03-3.46687E-05-1.15592E-01 4.61374E-14-3.05728E-13
 -1      1949 1.95753E+01-1.02221E-02-8.22346E-04-1.42664E-01 8.29108E-14-2.77006E-13
 -1      1950 1.96397E+01-6.67401E-03 6.71273E-04-1.00794E-01 8.07137E-14-3.00503E-13
 -1      1951 1.95930E+01-7.03595E-03-2.08656E-04-1.04863E-01 9.00122E-14-2.81051E-13
 -1      1952 1.96432E+01-1.10647E-02-5.64961E-04-1.31107E-01 8.17785E-14-2.22990E-13
 -1      1953 1.97138E+01-5.62571E-03 5.63844E-04-8.99263E-02 1.06861E-13-3.20919E-13
 -1      1954 1.96711E+01-6.39536E-03-2.60377E-04-9.38411E-02 9.65740E-14-3.07359E-13
 -1      1955 1.97095E+01-1.01457E-02-4.01448E-04-1.18374E-01 1.03441E-13-2.59104E-13
 -1      1956 1.97831E+01-3.80789E-03 5.18096E-04-8.15058E-02 1.01277E-13-3.75744E-13
 -1      1957 1.97439E+01-4.85224E-03-2.26633E-04-8.44853E-02 8.08608E-14-3.43912E-13
 -1      1958 1.97731E+01-7.96009E-03-3.12147E-04-1.07156E-01 1.15143E-13-2.81041E-13
 -1      1959 1.98497E+01-1.36284E-03 5.29913E-04-7.68385E-02 2.76115E-14-3.59585E-13
 -1      1960 1.98126E+01-2.60155E-03-1.30731E-04-7.82619E-02 5.90745E-14-3.50704E-13
 -1      1961 1.98343E+01-4.80277E-03-2.83021E-04-9.94503E-02 6.66776E-14-2.41275E-13
 -1      1962 1.99163E+01 1.64277E-03 5.97161E-04-7.70166E-02-2.41781E-14-3.22680E-13
 -1      1963 1.98796E+01 2.54732E-04 1.23969E-05-7.63478E-02-4.80062E-15-3.99896E-13
 -1      1964 1.98950E+01-8.31217E-04-3.04623E-04-9.68339E-02-9.10893E-15-2.80731E-13
 -1      1965 1.99872E+01 5.19004E-03 7.18624E-04-8.30345E-02-5.55399E-15-3.27433E-13
 -1      1966 1.99484E+01 3.67696E-03 1.93040E-04-7.97708E-02-5.07623E-16-3.05651E-13
 -1      1967 1.99580E+01 3.88940E-03-3.70916E-04-1.00658E-01-7.21305E-15-3.11762E-13
 -1      1968 2.00670E+01 9.27916E-03 8.92489E-04-9.58522E-02 2.87184E-14-3.84635E-13
 -1      1969 2.00235E+01 7.65900E-03 4.04174E-04-8.94951E-02-5.60966E-16-3.68004E-13
 -1      1970 2.00271E+01 9.34533E-03-4.78182E-04-1.12163E-01 2.78748E-14-2.75285E-13
 -1      1971 2.01616E+01 1.38942E-02 1.11402E-03-1.16400E-01 1.88734E-14-3.20818E-13
 -1      1972 2.01100E+01 1.21954E-02 6.38976E-04-1.06452E-01 4.70827E-14-3.23948E-13
 -1      1973 2.01067E+01 1.55291E-02-6.24024E-04-1.32530E-01 3.19377E-14-3.51133E-13
 -1      1974 2.02771E+01 1.89547E-02 1.37198E-03-1.45510E-01-2.73087E-14-3.77614E-13
 -1      1975 2.02138E+01 1.72381E-02 8.88008E-04-1.31506E-01 2.07778E-14-3.37871E-13
 -1      1976 2.02019E+01 2.23812E-02-8.06322E-04-1.62848E-01 4.95596E-14-2.96007E-13
 -1      1977 2.04203E+01 2.42446E-02 1.64325E-03-1.83745E-01 2.18961E-14-3.82505E-13
 -1      1978 2.03416E+01 2.26349E-02 1.13577E-03-1.65329E-01-6.02947E-15-3.63181E-13
 -1      1979 2.03185E+01 2.97072E-02-1.02199E-03-2.03974E-01 1.06832E-14-3.10574E-13
 -1      1980 2.05980E+01 2.93074E-02 1.88536E-03-2.31076E-01-1.09868E-14-4.21494E-13
 -1      1981 2.04999E+01 2.80379E-02 1.35645E-03-2.08157E-01-7.72082E-15-4.34959E-13
 -1      1982 2.04621E+01 3.70568E-02-1.26536E-03-2.56247E-01 2.70723E-14-3.99841E-13
 -1      1983 2.08160E+01 3.32969E-02 2.02693E-03-2.86346E-01 1.68517E-13-5.19139E-13
 -1      1984 2.06952E+01 3.27716E-02 1.50893E-03-2.59354E-01 6.67895E-14-4.36381E-13
 -1      1985 2.06384E+01 4.35472E-02-1.52600E-03-3.18985E-01 6.99030E-14-3.72979E-13
 -1      1986 2.10786E+01 3.47751E-02 1.95840E-03-3.46448E-01-1.23918E-14-4.99900E-13
 -1      1987 2.09330E+01 3.56486E-02 1.53218E-03-3.16742E-01 9.74956E-14-4.87917E-13
 -1      1988 2.08522E+01 4.76176E-02-1.78502E-03-3.89704E-01 9.30598E-14-4.11554E-13
 -1      1989 2.13860E+01 3.14818E-02 1.52891E-03-4.05133E-01-2.09236E-13-4.03308E-13
 -1      1990 2.12159E+01 3.47411E-02 1.34333E-03-3.75597E-01-1.81627E-13-4.75606E-13
 -1      1991 2.11062E+01 4.67232E-02-2.00875E-03-4.62949E-01-1.28896E-13-3.06936E-13
 -1      1992 2.17324E+01 2.01642E-02 5.62319E-04-4.51495E-01-8.91846E-14-3.41229E-13
 -1      1993 2.15421E+01 2.71615E-02 8.43528E-04-4.27320E-01-8.65586E-14-3.38201E-13
 -1      1994 2.13994E+01 3.70378E-02-2.13720E-03-5.28741E-01-1.54288E-13-1.97888E-13
 -1      1995 2.21019E+01-3.29126E-03-1.08630E-03-4.68393E-01-4.79614E-14-3.06424E-13
 -1      1996 2.19021E+01 9.01914E-03-6.11990E-05-4.57918E-01-9.44524E-14-3.46526E-13
 -1      1997 2.17253E+01 1.33838E-02-2.06535E-03-5.70781E-01-6.70619E-14-3.46946E-13
 -1      1998 2.24654E+01-4.29315E-02-3.40927E-03-4.31685E-01 4.74896E-14-9.67841E-14
 -1      1999 2.22751E+01-2.40674E-02-1.41751E-03-4.46865E-01 6.17444E-14-1.60671E-13
 -1      2000 2.20690E+01-3.01176E-02-1.61876E-03-5.65027E-01 1.00076E-14-2.25854E-13
 -1      2001 2.27769E+01-1.00209E-01-6.05594E-03-3.12158E-01-1.82043E-13-1.07645E-13
 -1      2002 2.26254E+01-7.52142E-02-3.16266E-03-3.67697E-01-7.39868E-14-1.29642E-13
 -1      2003 2.24038E+01-9.77750E-02-5.38065E-04-4.80111E-01-4.24248E-14-5.67185E-14
 -1      2004 2.29738E+01-1.69105E-01-8.16564E-03-8.34501E-02 2.04585E-14-7.34047E-14
 -1      2005 2.28992E+01-1.42368E-01-5.06777E-03-1.92884E-01-8.00991E-14-5.92050E-14
 -1      2006 2.26892E+01-1.87250E-01 1.48208E-03-2.82425E-01-1.04139E-13 1.12933E-13
 -1      2007 2.29833E+01-2.29737E-01-8.39476E-03 2.60388E-01-6.78554E-14-4.66428E-14
 -1      2008 2.30261E+01-2.12134E-01-6.72200E-03 9.35211E-02-5.13782E-14-5.67635E-14
 -1      2009 2.28691E+01-2.81494E-01 4.58670E-03 5.00560E-02-1.72059E-14 1.61200E-13
 -1      2010 2.27408E+01-2.45227E-01-5.53408E-03 6.77938E-01-1.38776E-13-1.40859E-13
 -1      2011 2.29311E+01-2.53984E-01-7.35322E-03 4.73749E-01-9.68574E-14-1.25782E-13
 -1      2012 2.28776E+01-3.41448E-01 8.41444E-03 5.02491E-01-7.56322E-14-2.15594E-14
 -1      2013 2.22253E+01-1.72839E-01-2.01677E-04 1.05733E+00-9.18883E-14-2.85143E-13
 -1      2014 2.25613E+01-2.24151E-01-6.41756E-03 8.70591E-01-1.25655E-13-2.64996E-13
 -1      2015 2.26573E+01-3.09398E-01 1.14731E-02 9.91727E-01-8.92654E-14-1.53428E-13
 -1      2016 2.15012E+01 6.21000E-03 4.42420E-03 1.22544E+00-5.92354E-15-2.12715E-13
 -1      2017 2.19324E+01-8.68527E-02-3.18814E-03 1.14079E+00-7.28523E-14-2.64767E-13
 -1      2018 2.21967E+01-1.37873E-01 1.06555E-02 1.35254E+00-7.94252E-14-2.73673E-13
 -1      2019 2.07534E+01 2.39632E-01 3.38860E-03 1.02692E+00-4.44384E-14-1.63432E-13
 -1      2020 2.11733E+01 1.39690E-01 1.70731E-03 1.11655E+00-1.13702E-14-1.18277E-13
 -1      2021 2.15817E+01 1.57677E-01 3.74531E-03 1.37797E+00-3.64392E-14-1.57907E-13
 -1      2022 2.02463E+01 4.11988E-01-2.50689E-03 4.53810E-01 1.17909E-13-5.84988E-14
 -1      2023 2.05221E+01 3.60359E-01 7.43046E-03 7.16965E-01 6.34631E-14-9.84646E-14
 -1      2024 2.10148E+01 4.60171E-01-7.64982E-03 9.46118E-01 3.76314E-14-1.26999E-13
 -1      2025 2.01937E+01 4.17215E-01-7.23365E-03-2.93361E-01 2.13938E-13-7.77590E-14
 -1      2026 2.02247E+01 4.50216E-01 1.22418E-02 4.58799E-02 1.61416E-13 1.85765E-14
 -1      2027 2.07373E+01 6.11476E-01-1.32286E-02 1.54071E-01 1.42752E-13 2.59460E-13
 -1      2028 2.06150E+01 2.49296E-01-6.08123E-03-8.97501E-01 5.33506E-14-1.34335E-13
 -1      2029 2.03912E+01 3.49261E-01 1.25959E-02-6.26840E-01 8.26058E-14-1.38467E-13
 -1      2030 2.08757E+01 5.18113E-01-7.83923E-03-6.81974E-01 2.23982E-13 1.29782E-13
 -1      2031 2.13060E+01 1.44638E-02-7.53386E-04-1.13292E+00-1.07652E-13-1.82805E-13
 -1      2032 2.09215E+01 1.23371E-01 7.00372E-03-1.02608E+00-6.09669E-15-9.58331E-14
 -1      2033 2.13384E+01 2.30716E-01 3.21836E-04-1.21078E+00-8.06603E-15 1.23348E-13
 -1      2034 2.19841E+01-1.69076E-01 5.02317E-03-9.87128E-01-3.17219E-13-2.30031E-13
 -1      2035 2.15807E+01-9.98324E-02-1.04221E-03-1.04513E+00-2.58077E-13-3.25982E-13
 -1      2036 2.18912E+01-8.76035E-02 5.21064E-03-1.27626E+00-1.79903E-13-1.80377E-14
 -1      2037 2.24382E+01-2.48392E-01 7.33139E-03-6.05597E-01-1.27789E-13-1.65147E-13
 -1      2038 2.21365E+01-2.31533E-01-7.44027E-03-7.64442E-01-2.27696E-13-2.17821E-13
 -1      2039 2.23156E+01-3.01227E-01 5.01845E-03-9.59785E-01-3.29806E-13-1.89368E-13
 -1      2040 2.25898E+01-2.37414E-01 6.22607E-03-1.66779E-01 9.77681E-14-2.75493E-13
 -1      2041 2.24491E+01-2.58225E-01-1.03587E-02-3.51107E-01 3.86149E-14-2.04698E-13
 -1      2042 2.25011E+01-3.67510E-01 2.38850E-03-4.62519E-01 6.59715E-15-2.63805E-13
 -1      2043 2.24644E+01-1.77856E-01 3.54522E-03 2.05128E-01-8.56971E-14-1.43901E-13
 -1      2044 2.24854E+01-2.14613E-01-1.00008E-02 4.71794E-02 4.11216E-14-2.67507E-13
 -1      2045 2.24430E+01-3.22313E-01 9.59933E-05 2.98916E-02-1.29393E-14-2.53809E-13
 -1      2046 2.21384E+01-1.05489E-01 1.20404E-03 4.57001E-01 3.60502E-13-2.33634E-13
 -1      2047 2.22854E+01-1.42730E-01-7.59363E-03 3.48036E-01 5.06270E-14-3.16087E-13
 -1      2048 2.21945E+01-2.24536E-01-8.81864E-04 4.09969E-01 1.59838E-13-1.61912E-13
 -1      2049 2.16984E+01-3.91208E-02-3.20595E-06 5.84602E-01 2.91515E-13-3.64301E-13
 -1      2050 2.19226E+01-7.01806E-02-4.37530E-03 5.27298E-01 4.54461E-13-1.29381E-13
 -1      2051 2.18256E+01-1.18752E-01-9.41687E-04 6.43046E-01 3.78607E-13-1.33426E-13
 -1      2052 2.12224E+01 1.69550E-02-1.40471E-04 6.03991E-01 1.54295E-13-3.68383E-13
 -1      2053 2.14759E+01-7.53267E-03-1.27437E-03 5.92946E-01 1.28535E-13-2.43887E-13
 -1      2054 2.14016E+01-2.52421E-02-8.27161E-04 7.36255E-01 1.44496E-13-5.33410E-14
 -1      2055 2.07738E+01 6.59854E-02 1.86493E-04 5.32424E-01 2.23742E-14-2.00667E-13
 -1      2056 2.10154E+01 4.57583E-02 1.08906E-03 5.62214E-01 1.46428E-13-2.90377E-13
 -1      2057 2.09768E+01 5.37429E-02-1.01336E-03 7.10239E-01 1.34542E-13-9.46827E-14
 -1      2058 2.04039E+01 1.11597E-01 1.68243E-03 3.82800E-01 1.96605E-14-1.20371E-13
 -1      2059 2.05980E+01 9.26381E-02 2.08703E-03 4.50408E-01 4.74759E-14-2.33836E-13
 -1      2060 2.05926E+01 1.22589E-01-1.53272E-03 5.84748E-01 5.32575E-14 1.45565E-13
 -1      2061 2.01792E+01 1.41401E-01 3.87318E-03 2.30367E-01-6.55744E-14-6.21008E-14
 -1      2062 2.03138E+01 1.29772E-01 2.06057E-03 3.22041E-01 4.07025E-14-5.56429E-14
 -1      2063 2.03251E+01 1.75272E-01-2.24740E-03 4.29864E-01 6.62317E-15 1.64403E-13
 -1      2064 2.01636E+01 2.15180E-01 1.91448E-04 2.88183E-01-5.26542E-14 2.85862E-13
 -1      2065 2.00309E+01 1.21919E+00-3.84166E-04 7.34410E-01 3.48885E-14-2.58696E-14
 -1      2066 2.00669E+01 9.84936E-01 3.19959E-03 7.06135E-01 3.41537E-14 1.28299E-13
 -1      2067 2.01002E+01 8.06954E-01 1.54314E-03 6.49134E-01 2.94415E-14 4.33230E-13
 -1      2068 2.01329E+01 6.02487E-01 4.06433E-03 5.80758E-01-5.91925E-14 5.39555E-13
 -1      2069 2.01238E+01 8.12796E-01-1.87822E-03 8.54059E-01-1.20820E-14 3.57644E-13
 -1      2070 2.01424E+01 4.84767E-01 2.32280E-03 4.89501E-01-4.42272E-14 4.50632E-13
 -1      2071 2.01649E+01 3.24911E-01 3.96349E-03 3.93423E-01-9.25292E-14 3.43695E-13
 -1      2072 2.02350E+01 3.08899E-01 2.51822E-03 4.74589E-01-9.41836E-15 2.49681E-13
 -1      2073 2.01953E+01 5.26850E-01-1.03170E-03 6.86970E-01-4.38845E-14 4.63761E-13
 -1      2074 1.99585E+01 1.63804E+00-3.43576E-03 7.30526E-01-2.62982E-13-4.95672E-13
 -1      2075 1.99960E+01 1.40459E+00 9.82132E-04 7.43440E-01-1.60931E-13-2.76466E-13
 -1      2076 2.00193E+01 1.17456E+00-5.27393E-04 9.27566E-01-1.72886E-13-4.04480E-13
 -1      2077 1.98845E+01 2.03172E+00-6.55433E-03 6.31249E-01-2.78401E-13 1.63850E-13
 -1      2078 1.99221E+01 1.82127E+00-1.50602E-03 6.86741E-01-2.63968E-13 6.06928E-14
 -1      2079 1.99104E+01 1.54400E+00 1.69367E-03 8.89783E-01-7.70087E-14-1.84602E-13
 -1      2080 1.98203E+01 2.34011E+00-8.84040E-03 4.40122E-01-2.24443E-13 8.66095E-14
 -1      2081 1.98516E+01 2.18596E+00-4.18536E-03 5.34263E-01-2.91599E-13 2.29573E-13
 -1      2082 1.98043E+01 1.88269E+00 4.40199E-03 7.32711E-01-2.06074E-13 2.13577E-13
 -1      2083 1.97783E+01 2.51575E+00-9.70946E-03 1.76991E-01-1.29260E-13-4.16997E-14
 -1      2084 1.97966E+01 2.44154E+00-6.66734E-03 2.98914E-01-1.74169E-13 1.79544E-16
 -1      2085 1.97173E+01 2.13945E+00 6.91020E-03 4.65717E-01-2.71370E-13 1.22774E-13
 -1      2086 1.97691E+01 2.52680E+00-8.98968E-03-1.22116E-01-5.27768E-14 8.38227E-14
 -1      2087 1.97695E+01 2.54574E+00-8.47108E-03 1.01107E-02-1.09380E-13 1.72955E-13
 -1      2088 1.96673E+01 2.27126E+00 8.47390E-03 1.19383E-01-3.84754E-13 9.50399E-14
 -1      2089 1.97966E+01 2.36635E+00-6.93302E-03-4.10799E-01-7.92645E-14-1.85300E-13
 -1      2090 1.97783E+01 2.47808E+00-9.02836E-03-2.89130E-01-2.72581E-14-1.42302E-13
 -1      2091 1.96670E+01 2.25201E+00 8.49242E-03-2.56332E-01-1.65290E-13-1.77072E-14
 -1      2092 1.98557E+01 2.06243E+00-3.82365E-03-6.39447E-01 4.66727E-15-5.65008E-14
 -1      2093 1.98218E+01 2.24808E+00-8.18179E-03-5.49019E-01-1.74301E-13 1.14839E-14
 -1      2094 1.97194E+01 2.08329E+00 7.11449E-03-5.99491E-01-1.40666E-13-1.61828E-13
 -1      2095 1.99392E+01 1.64893E+00-2.59637E-04-7.79276E-01 3.02101E-13 1.35007E-13
 -1      2096 1.98940E+01 1.88863E+00-5.99058E-03-7.31841E-01 1.66966E-13 6.93482E-14
 -1      2097 1.98154E+01 1.79002E+00 4.47892E-03-8.58439E-01 9.84315E-14 1.03967E-13
 -1      2098 2.00360E+01 1.18929E+00 3.23368E-03-8.02207E-01 2.73429E-13 7.08353E-14
 -1      2099 1.99849E+01 1.44574E+00-3.11362E-03-8.08622E-01 3.38146E-13-9.43013E-15
 -1      2100 1.99440E+01 1.41235E+00 1.59759E-03-9.94924E-01 2.36165E-13 1.35538E-13
 -1      2101 2.01383E+01 7.36454E-01 2.90621E-03-7.02211E-01-9.51199E-14-5.20805E-14
 -1      2102 2.00822E+01 9.80874E-01-1.18069E-03-7.63373E-01 1.00162E-13 8.83532E-14
 -1      2103 2.00893E+01 1.00387E+00-5.91908E-04-9.84508E-01 1.53098E-13-6.06878E-14
 -1      2104 1.05929E+01-5.38573E+00-1.29915E-01 6.69381E+00 2.93321E-13-5.64410E-14
 -1      2105 6.70992E+00-6.88409E+00-3.85282E-01 5.31449E+00 4.69125E-13-1.45065E-13
 -1      2106 3.01496E-01-7.09651E+00-3.54073E-01 8.47298E-01-6.38378E-15 4.10338E-13
 -1      2107 2.35434E-01-7.66528E+00-4.41563E-01-7.50243E-01-1.42539E-13 4.10338E-13
 -1      2108 3.87560E+00-6.60946E+00-2.78968E-01 4.47711E+00 3.31679E-13 2.22239E-13
 -1      2109 1.77803E+00-7.25096E+00-3.88897E-01 2.99685E+00 1.07997E-13 3.90410E-13
 -1      2110 7.30232E+00-5.49858E+00-1.11494E-01 5.95465E+00 2.19214E-13 8.14349E-14
 -1      2111 2.03104E+01-3.64519E+00 1.85914E-02 6.86730E+00 6.12843E-14-4.44089E-15
 -1      2112 1.53859E+01-5.42326E+00-2.31971E-01 6.34887E+00 1.51823E-13 1.07025E-13
 -1      2113 2.92008E+01-1.42651E-01 2.16194E-01 5.39996E+00 1.56375E-13-2.96319E-13
 -1      2114 2.43255E+01-2.42219E+00-1.25531E-01 5.28593E+00 3.01426E-14-7.10543E-15
 -1      2115 1.95243E+01 4.01739E+00-2.49802E-02-1.70116E+00-3.27242E-13-3.15260E-13
 -1      2116 1.96478E+01 3.94361E+00-2.46659E-02-1.95754E+00-3.62431E-13-2.24917E-13
 -1      2117 1.99636E+01 3.23718E+00-1.87413E-02-1.92710E+00-3.80638E-13-1.69783E-13
 -1      2118 1.96959E+01 3.58917E+00-6.67892E-03-1.52145E+00-3.29193E-13-3.18945E-13
 -1      2119 4.03574E+01 6.11626E+00 4.28715E-01 1.87506E+00-1.36002E-13 4.25215E-14
 -1      2120 3.76256E+01 5.25009E+00 2.56778E-01 3.00789E+00 2.72005E-14-1.21514E-13
 -1      2121 4.02784E+01 7.19886E+00 2.90624E-01-1.93479E-01 3.07754E-13-2.10637E-13
 -1      2122 4.04747E+01 7.05408E+00 3.88847E-01 1.03786E+00 1.07192E-13-9.95592E-14
 -1      2123 3.74530E+01 6.11497E+00 1.43448E-01-1.40916E+00 2.86438E-13-3.52274E-13
 -1      2124 3.99991E+01 6.88164E+00 3.90790E-01-6.54843E-01 3.25351E-13-2.77389E-13
 -1      2125 3.30437E+01 2.50736E+00 6.94090E-02-3.39590E+00 1.28210E-13-4.39426E-13
 -1      2126 3.60597E+01 3.94999E+00 1.76053E-01-2.18139E+00 1.80717E-13-3.02258E-13
 -1      2127 2.69781E+01-1.36406E+00-8.43049E-02-4.32077E+00 4.13031E-13-2.69396E-13
 -1      2128 3.13048E+01 7.90007E-01 2.12466E-01-4.51299E+00 1.90542E-13-4.41813E-13
 -1      2129 3.15357E+01 4.37984E-01 1.44140E-01-1.17929E+00 1.31613E-13-2.35700E-13
 -1      2130 1.78955E+01-4.30499E+00-2.23380E-01-6.15413E+00 4.76397E-13-1.57707E-13
 -1      2131 2.29087E+01-2.79711E+00-5.63266E-03-6.31819E+00 3.97238E-13-1.39111E-13
 -1      2132 1.01149E+01-6.08240E+00-2.81080E-01-6.02921E+00 4.69957E-13-5.57401E-14
 -1      2133 1.41866E+01-4.57516E+00-8.32265E-02-6.88294E+00 5.17253E-13-1.68004E-13
 -1      2134 1.84256E+01-5.35954E+00 1.49232E-02-6.54776E+00 2.72060E-13-2.91434E-14
 -1      2135 3.01581E+00-6.90753E+00-3.65985E-01-3.85169E+00-1.62648E-14-4.87721E-13
 -1      2136 5.90937E+00-5.77624E+00-1.84027E-01-5.45411E+00 2.45415E-13-2.16466E-13
 -1      2137 5.61681E-01-6.66114E+00-3.13480E-01-4.78937E-01-1.52264E-13-6.96776E-13
 -1      2138 1.32705E+00-6.11329E+00-2.20305E-01-2.25111E+00-1.04833E-13-6.46316E-13
 -1      2139 1.59773E+00-7.22291E+00-3.90955E-01 2.76141E+00-2.00007E-13-1.03884E-12
 -1      2140 3.92652E-01-7.48108E+00-4.27998E-01 1.38915E+00-8.43769E-15-8.80296E-13
 -1      2141 7.19413E+00-5.75209E+00-1.90647E-01 5.67689E+00-3.79863E-13-9.23289E-13
 -1      2142 3.91542E+00-7.30553E+00-4.64165E-01 4.03238E+00-2.20490E-13-9.34003E-13
 -1      2143 1.61100E+01-4.52380E+00-8.14079E-02 6.77674E+00-5.34017E-13-6.38101E-13
 -1      2144 1.16334E+01-6.04960E+00-3.04190E-01 5.95921E+00-3.96683E-13-7.59656E-13
 -1      2145 2.54769E+01-2.64109E+00-4.38330E-02 5.41120E+00-7.17648E-13-1.90181E-13
 -1      2146 2.03234E+01-4.16024E+00-2.22172E-01 5.64201E+00-5.92471E-13-4.48974E-13
 -1      2147 3.39991E+01 2.02794E+00 3.31089E-01 3.91723E+00-7.82041E-13-3.43059E-13
 -1      2148 2.94766E+01-2.11271E-01 2.76197E-02 3.94740E+00-9.49629E-13-2.25264E-13
 -1      2149 3.76399E+01 4.97527E+00 1.78741E-01 1.20546E+00-3.70648E-13-4.77507E-13
 -1      2150 3.56032E+01 3.62481E+00 1.86710E-01 2.54678E+00-5.95732E-13-4.94826E-13
 -1      2151 3.34344E+01 2.06348E+00 2.28317E-01 6.90257E-01-6.07916E-13-2.42528E-13
 -1      2152 3.97864E+01 7.13865E+00 3.20055E-01-1.04141E-01-7.54397E-14-2.61617E-13
 -1      2153 3.74257E+01 6.79947E+00 7.38852E-02 4.53857E-01-1.87794E-13-3.55938E-13
 -1      2154 3.87007E+01 6.78767E+00 2.04563E-01-9.65072E-01-1.40776E-13-2.02227E-13
 -1      2155 3.97839E+01 7.01545E+00 2.30423E-01-1.29756E-01-4.86278E-14-2.54609E-13
 -1      2156 3.44946E+01 8.09610E+00 2.48541E-01-1.16658E-01-9.75331E-14-1.14284E-13
 -1      2157 3.66335E+01 4.30801E+00 2.24349E-01-3.20403E+00-1.57332E-13-3.87357E-13
 -1      2158 3.93058E+01 5.37350E+00 3.18714E-01-1.99505E+00-1.30673E-13-4.15112E-13
 -1      2159 3.01549E+01 8.31278E-01-2.23376E-03-4.68991E+00-2.80609E-13-2.10720E-13
 -1      2160 3.47501E+01 2.51245E+00 3.29464E-01-4.33974E+00-8.04912E-14-1.86962E-13
 -1      2161 2.25572E+01-3.00878E+00-1.75657E-01-5.64354E+00-3.77698E-13-3.62266E-13
 -1      2162 2.74476E+01-9.40187E-01 1.68656E-01-5.90812E+00-3.75588E-13-4.42368E-13
 -1      2163 1.32541E+01-5.63212E+00-3.65214E-01-6.04119E+00-2.26374E-13 8.79574E-14
 -1      2164 1.80846E+01-3.75229E+00-4.64120E-02-6.92137E+00-2.63789E-13-5.27911E-14
 -1      2165 5.87114E+00-7.25917E+00-4.51470E-01-4.86147E+00-3.23852E-13 2.50189E-13
 -1      2166 9.33572E+00-5.65814E+00-2.04140E-01-6.09889E+00-3.91354E-13 1.87406E-13
 -1      2167 1.40577E+00-7.59292E+00-4.26894E-01-2.46927E+00-2.03199E-13 3.86358E-13
 -1      2168 3.17208E+00-6.78095E+00-3.08826E-01-3.91043E+00-1.87073E-13 2.76890E-13
 -1      2169 3.59887E+01 3.58947E+00 3.92544E-01 3.92395E+00 1.42053E-13-1.69864E-13
 -1      2170 3.16214E+01 1.87147E+00 2.81186E-02 4.21725E+00 1.92457E-13-2.14051E-13
 -1      2171 3.07069E+01-5.25235E-01 1.31509E-01 2.54558E+00 1.76040E-13-3.70703E-13
 -1      2172 2.07325E+01 1.10846E+00-2.09153E-02-1.61677E+00-3.35433E-13 4.33051E-13
 -1      2173 3.49491E+01 4.11603E+00 3.00974E-01 9.82379E-01 6.58362E-14-1.18405E-13
 -1      2174 2.06245E+01 1.33213E+00-1.78531E-02-1.67871E+00-3.65262E-13 2.10309E-13
 -1      2175 2.35430E+00-5.15331E+00-1.77809E-01 2.41433E+00 4.94604E-14 5.09204E-13
 -1      2176 1.52835E+01-5.74537E+00-1.55751E-02 6.97150E+00 1.05971E-13-9.55746E-14
 -1      2177 2.01861E+01 5.87172E-01 3.75670E-03-6.80477E-01-1.81072E-13-1.20705E-13
 -1      2178 2.19843E+00-5.05135E+00-1.84029E-01-2.18038E+00-8.09353E-14 4.07840E-13
 -1      2179 2.42757E+01-4.41580E+00 4.68313E-02 5.16532E+00 1.16018E-14-2.52381E-13
 -1      2180 6.46036E+00-5.69001E+00-1.67701E-01-5.45231E+00-2.35201E-13 3.33372E-13
 -1      2181 1.37727E+01-5.95530E+00-9.35941E-02-6.81013E+00-1.77691E-13-2.39201E-14
 -1      2182 2.26111E+01-4.82298E+00 2.44888E-02-5.73338E+00-1.73639E-13-4.69375E-13
 -1      2183 2.97166E+01-1.69796E+00 1.25902E-01-3.14925E+00-2.03448E-13-5.02987E-13
 -1      2184 3.56954E+01 6.51669E+00 2.88549E-01 4.94560E-02-1.54099E-13-5.59552E-14
 -1      2185 3.49334E+01 6.06216E+00 2.01427E-01-4.85839E-01-2.66953E-13-1.19821E-13
 -1      2186 2.80357E+01-2.31587E+00 3.99135E-02 3.65593E+00-6.80012E-13 1.74305E-14
 -1      2187 2.68855E+01-4.09393E+00 1.42146E-01 3.34277E+00-2.57488E-13 1.22680E-13
 -1      2188 2.95392E+01-2.44369E+00-2.22971E-01 1.55226E+00-5.67997E-13 6.92779E-14
 -1      2189 2.06217E+01-5.29003E+00 5.20323E-02 5.96942E+00-1.67533E-13-1.85352E-13
 -1      2190 1.14843E+01-5.71886E+00-6.87330E-02 6.49702E+00-1.27620E-13-7.41462E-13
 -1      2191 4.35060E+00-5.30700E+00-1.70002E-01 4.39280E+00 2.58682E-14-9.83935E-13
 -1      2192 1.73613E+00-4.54789E+00-1.62831E-01 5.40668E-01-1.36342E-13-8.20011E-13
 -1      2193 1.00393E+01-5.50873E+00-8.10053E-02-6.52183E+00 1.59928E-13-1.89015E-13
 -1      2194 2.62909E+01-3.40642E+00 6.22309E-02-4.23326E+00 2.73892E-13-2.14495E-13
 -1      2195 3.45622E+01 4.90586E+00 2.06110E-01 5.27888E-02 1.57208E-13-2.84772E-13
 -1      2196 3.66393E+01 7.38684E+00 3.80243E-01 2.28657E-01 7.63833E-14-1.88821E-13
 -1      2197 3.60513E+01 7.99897E+00 3.23061E-01 2.20651E-01 2.97373E-13-2.10193E-13
 -1      2198 3.70544E+00-4.54879E+00-1.11088E-01-3.65998E+00-2.99760E-13-5.59552E-13
 -1      2199 3.44127E+01 2.72072E+00 2.89040E-01-1.25125E+00-1.59484E-13-3.01981E-13
 -1      2200 2.01447E+01 5.06309E-01 3.72601E-03 6.79377E-01 2.42065E-13-8.28343E-14
 -1      2201 2.04128E+01 6.99876E-01 2.07922E-02 9.70930E-01 2.91068E-13-5.08382E-14
 -1      2202 1.95628E+01 3.51554E+00-1.11234E-02-5.92150E-01-1.94924E-13-4.50497E-13
 -1      2203 1.95980E+01 3.46950E+00-1.05189E-02-7.76744E-01-2.21900E-13-4.36803E-13
 -1      2204 1.96446E+01 3.38093E+00-1.28023E-02-9.41187E-01-2.37121E-13-4.01580E-13
 -1      2205 1.97050E+01 3.30033E+00-1.27812E-02-1.13125E+00-2.75759E-13-3.66900E-13
 -1      2206 1.97894E+01 3.03273E+00 2.96982E-04-7.92785E-01-2.19845E-13-3.97614E-13
 -1      2207 1.95161E+01 3.59809E+00-9.62751E-03 9.95657E-02-5.46577E-14-5.04061E-13
 -1      2208 1.95154E+01 3.59891E+00-9.63488E-03-8.01400E-02-9.90965E-14-4.80947E-13
 -1      2209 1.95419E+01 3.55869E+00-9.72905E-03 4.46093E-01 1.52855E-14-5.16985E-13
 -1      2210 1.95247E+01 3.58125E+00-1.01469E-02 2.65040E-01-2.09653E-14-5.19551E-13
 -1      2211 1.96824E+01 3.22078E+00-8.96122E-04 1.69834E-01-3.72052E-14-4.83563E-13
 -1      2212 1.96032E+01 3.46219E+00-1.06232E-02 7.90522E-01 9.01371E-14-5.23708E-13
 -1      2213 1.95672E+01 3.50918E+00-1.12142E-02 6.08883E-01 4.92772E-14-5.19606E-13
 -1      2214 1.97188E+01 3.15726E+00-4.99541E-04 4.88760E-01 3.27305E-14-4.93475E-13
 -1      2215 1.97129E+01 3.28853E+00-1.29581E-02 1.14418E+00 1.77896E-13-4.77529E-13
 -1      2216 1.96507E+01 3.37185E+00-1.28837E-02 9.54781E-01 1.27897E-13-5.03809E-13
 -1      2217 1.97951E+01 3.02366E+00 2.58690E-04 8.04885E-01 1.14906E-13-4.81047E-13
 -1      2218 1.98911E+01 3.00297E+00-1.81788E-02 1.49154E+00 2.56957E-13-4.43128E-13
 -1      2219 1.97922E+01 3.14423E+00-1.51823E-02 1.30099E+00 2.02293E-13-4.60615E-13
 -1      2220 1.99233E+01 2.79854E+00 1.92857E-03 1.11141E+00 1.89655E-13-4.39555E-13
 -1      2221 2.01682E+01 2.54363E+00-2.84029E-02 1.79603E+00 3.36224E-13-3.40472E-13
 -1      2222 2.00177E+01 2.78294E+00-1.70802E-02 1.62153E+00 2.84459E-13-4.04208E-13
 -1      2223 2.01169E+01 2.44805E+00 5.86097E-03 1.37753E+00 2.59008E-13-3.85383E-13
 -1      2224 1.98672E+01 2.68097E-01 4.72885E-03 2.86979E-01 1.81376E-13-1.11557E-13
 -1      2225 2.00282E+01 3.67821E-01 2.01600E-02 4.44061E-01 2.16690E-13-7.75057E-14
 -1      2226 2.02081E+01 6.34441E-01-2.23125E-03 7.06465E-01 2.51187E-13-1.41061E-13
 -1      2227 2.03994E+01 8.55453E-01 1.35236E-02-1.00115E+00-2.97267E-13 1.00305E-13
 -1      2228 2.01867E+01 6.26771E-01-4.68471E-03-6.93368E-01-2.78818E-13 8.03847E-14
 -1      2229 3.29407E+01 4.25673E+00-9.82051E-02-4.73736E-01 2.41474E-15-3.49720E-14
 -1      2230 3.17137E+01 2.31390E+00-8.85764E-02-1.64350E-01 1.41942E-13-1.50324E-13
 -1      2231 2.01215E+01 4.69659E-01 1.62037E-02-4.76524E-01-2.47366E-13 8.88531E-14
 -1      2232 1.99806E+01 3.44297E-01 8.78617E-05-3.05164E-01-2.17912E-13 6.38094E-14
 -1      2233 2.02432E+01 7.49137E-01-6.74653E-04-6.95697E-01-2.81682E-13-4.11238E-16
 -1      2234 1.99170E+01 2.59348E-01 1.08837E-02-1.67899E-01-1.90652E-13 6.66165E-14
 -1      2235 1.98381E+01 1.87949E-01 7.34823E-04-7.07118E-02-1.55691E-13 3.41120E-14
 -1      2236 2.00785E+01 4.15931E-01-3.63887E-03-3.12406E-01-2.09439E-13-1.35540E-14
 -1      2237 1.97937E+01 1.38566E-01 6.41059E-03 1.13972E-02-1.35518E-13 2.99013E-14
 -1      2238 1.97585E+01 9.63833E-02 7.38710E-04 6.47680E-02-1.28004E-13 2.42247E-14
 -1      2239 1.99575E+01 2.27227E-01-3.63149E-03-7.33395E-02-1.65639E-13-7.82425E-15
 -1      2240 1.97327E+01 6.66761E-02 3.58775E-03 1.10667E-01-1.21522E-13 1.11142E-14
 -1      2241 1.97254E+01 4.14155E-02 6.53886E-04 1.37461E-01-1.03288E-13 6.86910E-15
 -1      2242 1.98819E+01 1.15244E-01-2.94691E-03 6.76342E-02-1.41812E-13-3.56568E-14
 -1      2243 1.97140E+01 2.34787E-02 1.86595E-03 1.60145E-01-1.07856E-13-1.03919E-14
 -1      2244 1.97234E+01 8.65716E-03 5.57154E-04 1.70776E-01-1.11444E-13-4.63123E-14
 -1      2245 1.98426E+01 4.78183E-02-2.15566E-03 1.44550E-01-1.31930E-13-4.16422E-14
 -1      2246 1.97220E+01-1.77956E-03 8.07267E-04 1.78990E-01-1.03925E-13-4.83399E-14
 -1      2247 1.97408E+01-9.83263E-03 4.76646E-04 1.80086E-01-9.35698E-14-5.97607E-14
 -1      2248 1.98293E+01 7.84546E-03-1.48592E-03 1.80550E-01-1.17689E-13-9.16199E-14
 -1      2249 1.97458E+01-1.52694E-02 1.61514E-04 1.79797E-01-1.11353E-13-4.43556E-14
 -1      2250 1.97694E+01-1.87712E-02 4.29148E-04 1.75759E-01-1.00708E-13-5.78270E-14
 -1      2251 1.98333E+01-1.43469E-02-9.87309E-04 1.91414E-01-9.72841E-14-5.82914E-14
 -1      2252 1.97784E+01-2.07621E-02-2.17003E-04 1.71114E-01-8.94893E-14-5.06649E-14
 -1      2253 1.98040E+01-2.11078E-02 4.23857E-04 1.64965E-01-7.96433E-14-5.54749E-14
 -1      2254 1.98482E+01-2.45763E-02-6.45214E-04 1.88042E-01-1.14463E-13-4.92942E-14
 -1      2255 1.98154E+01-2.06489E-02-4.19165E-04 1.58901E-01-6.17069E-14-3.54666E-14
 -1      2256 1.98415E+01-1.87244E-02 4.65419E-04 1.52782E-01-1.07239E-14-1.24784E-14
 -1      2257 1.98697E+01-2.64938E-02-4.29178E-04 1.78092E-01-6.69725E-14-2.65935E-14
 -1      2258 1.98544E+01-1.64487E-02-5.05631E-04 1.47436E-01-1.98585E-14 4.01719E-15
 -1      2259 1.98808E+01-1.27963E-02 5.57045E-04 1.42927E-01-3.76370E-14 7.84177E-15
 -1      2260 1.98952E+01-2.24213E-02-3.10662E-04 1.67061E-01-2.33167E-14-9.32654E-16
 -1      2261 1.98948E+01-9.08312E-03-5.18304E-04 1.39925E-01-5.28229E-14 1.97942E-15
 -1      2262 1.99217E+01-3.99958E-03 7.02391E-04 1.38266E-01-5.58247E-14-5.22747E-14
 -1      2263 1.99235E+01-1.37932E-02-2.66738E-04 1.59027E-01-4.08486E-14-6.68168E-15
 -1      2264 1.99371E+01 9.56492E-04-4.86600E-04 1.38924E-01-7.80666E-14-6.46287E-14
 -1      2265 1.99655E+01 7.35464E-03 9.06092E-04 1.41172E-01-3.78045E-14-7.54476E-14
 -1      2266 1.99544E+01-1.41508E-03-2.79733E-04 1.57172E-01-6.36151E-14-1.57073E-14
 -1      2267 1.99825E+01 1.34947E-02-4.31385E-04 1.46650E-01-2.18165E-14-7.49660E-14
 -1      2268 2.00138E+01 2.12215E-02 1.17345E-03 1.53790E-01-2.46851E-14-8.89793E-14
 -1      2269 1.99884E+01 1.43654E-02-3.35947E-04 1.64165E-01-4.07716E-14-1.96384E-14
 -1      2270 2.00333E+01 2.85805E-02-3.67634E-04 1.65199E-01-2.42612E-14-1.29760E-13
 -1      2271 2.00693E+01 3.77351E-02 1.50936E-03 1.78225E-01-4.49432E-14-1.59381E-13
 -1      2272 2.00267E+01 3.35279E-02-4.24221E-04 1.82433E-01-6.58944E-14-1.08306E-13
 -1      2273 2.00921E+01 4.63986E-02-3.06171E-04 1.96691E-01-5.05594E-14-1.62853E-13
 -1      2274 2.01351E+01 5.71122E-02 1.91640E-03 2.16637E-01-3.51592E-14-1.55684E-13
 -1      2275 2.00711E+01 5.62590E-02-5.34730E-04 2.14347E-01-6.87981E-14-1.78729E-13
 -1      2276 2.01622E+01 6.71613E-02-2.54563E-04 2.43327E-01-5.34470E-14-2.05474E-13
 -1      2277 2.02147E+01 7.95248E-02 2.39153E-03 2.71265E-01-3.19147E-14-2.12841E-13
 -1      2278 2.01235E+01 8.28141E-02-6.58029E-04 2.62310E-01-3.96722E-14-1.74650E-13
 -1      2279 2.02474E+01 9.09534E-02-2.17010E-04 3.07346E-01 1.15432E-14-1.98810E-13
 -1      2280 2.03122E+01 1.04903E-01 2.92103E-03 3.44309E-01 4.67805E-14-2.06075E-13
 -1      2281 2.01863E+01 1.13326E-01-7.84685E-04 3.28747E-01-4.94319E-14-1.92691E-13
 -1      2282 2.03517E+01 1.17486E-01-1.92656E-04 3.90843E-01 1.25616E-13-2.27567E-13
 -1      2283 2.04318E+01 1.32618E-01 3.47245E-03 4.37643E-01 1.80216E-13-2.03651E-13
 -1      2284 2.02622E+01 1.47508E-01-9.06438E-04 4.15949E-01 1.01158E-13-2.08427E-13
 -1      2285 2.04797E+01 1.45695E-01-1.71196E-04 4.95352E-01 1.66471E-13-1.40262E-13
 -1      2286 2.05779E+01 1.60956E-01 3.98260E-03 5.52243E-01 7.55739E-14-1.07658E-13
 -1      2287 2.03538E+01 1.84179E-01-1.02041E-03 5.25716E-01 2.18511E-13-2.57022E-13
 -1      2288 2.06358E+01 1.73073E-01-1.24153E-04 6.21097E-01 2.66021E-14-4.20952E-14
 -1      2289 2.07551E+01 1.86267E-01 4.34071E-03 6.87180E-01 4.76832E-16 3.57820E-14
 -1      2290 2.04642E+01 2.20479E-01-1.13846E-03 6.58709E-01 1.13516E-13-2.03713E-13
 -1      2291 2.08254E+01 1.94624E-01 1.02005E-05 7.65716E-01-1.39052E-14 2.37844E-15
 -1      2292 2.09677E+01 2.01669E-01 4.36705E-03 8.37968E-01 2.12792E-14 6.54668E-14
 -1      2293 2.05969E+01 2.50638E-01-1.30517E-03 8.13358E-01-3.91093E-15-1.30782E-13
 -1      2294 2.10539E+01 2.01318E-01 3.49414E-04 9.22207E-01 6.35126E-16 2.08933E-14
 -1      2295 2.12204E+01 1.95241E-01 3.78960E-03 9.94015E-01 2.14520E-15 3.37563E-14
 -1      2296 2.07570E+01 2.64148E-01-1.62735E-03 9.84138E-01-2.69338E-14-1.24259E-13
 -1      2297 2.13288E+01 1.78114E-01 1.09263E-03 1.07582E+00 6.86398E-15 1.60106E-14
 -1      2298 2.15189E+01 1.48007E-01 2.22537E-03 1.13495E+00 4.65586E-14-3.03394E-14
 -1      2299 2.09522E+01 2.43368E-01-2.31364E-03 1.15896E+00-5.39471E-14-1.32557E-13
 -1      2300 2.16603E+01 1.02201E-01 2.52665E-03 1.19972E+00 1.65271E-13 4.93892E-15
 -1      2301 2.18714E+01 3.29672E-02-8.11762E-04 1.22597E+00 1.96738E-13 4.81195E-14
 -1      2302 2.11962E+01 1.61163E-01-3.70558E-03 1.31545E+00 1.25902E-13-1.79981E-13
 -1      2303 2.20629E+01-5.64412E-02 4.95647E-03 1.24956E+00 1.05654E-13-3.88507E-14
 -1      2304 2.22888E+01-1.81401E-01-5.81872E-03 1.21317E+00 1.31337E-13-6.42703E-14
 -1      2305 2.15124E+01-1.92629E-02-6.22701E-03 1.41586E+00 9.49983E-14-1.63104E-13
 -1      2306 2.25541E+01-3.27140E-01 8.41012E-03 1.15903E+00 1.50013E-13-6.75350E-14
 -1      2307 2.27828E+01-5.15963E-01-1.28532E-02 1.02236E+00 1.31956E-13-9.06111E-14
 -1      2308 2.19370E+01-3.36899E-01-1.00830E-02 1.40119E+00 1.47195E-13-1.65079E-13
 -1      2309 2.31441E+01-7.14159E-01 1.21529E-02 8.42003E-01 1.07528E-13-9.46025E-14
 -1      2310 2.33523E+01-9.44354E-01-2.07897E-02 5.70097E-01 4.19387E-14-6.09348E-14
 -1      2311 2.25144E+01-8.07455E-01-1.44240E-02 1.18740E+00 1.08235E-13-2.04167E-13
 -1      2312 2.38075E+01-1.14703E+00 1.34666E-02 2.14091E-01-6.43396E-14 5.63373E-15
 -1      2313 2.39540E+01-1.32643E+00-2.47169E-02-1.98592E-01-5.05472E-14 1.45523E-13
 -1      2314 2.32739E+01-1.36842E+00-1.63509E-02 6.74287E-01 4.98972E-14-1.37703E-13
 -1      2315 2.44296E+01-1.40772E+00 6.94304E-03-7.35375E-01-5.76613E-14 1.03081E-13
 -1      2316 2.44593E+01-1.35960E+00-1.84283E-02-1.21387E+00-1.13650E-13 1.75439E-13
 -1      2317 2.41723E+01-1.79031E+00-1.03807E-02-2.15865E-01-4.31859E-14 5.60437E-14
 -1      2318 2.47706E+01-1.13527E+00-2.14531E-02-1.79974E+00-3.31727E-14 2.76554E-13
 -1      2319 2.46599E+01-6.75185E-01-4.15104E-04-2.14247E+00 9.05161E-14 2.82766E-13
 -1      2320 2.50018E+01-1.61602E+00 5.44935E-03-1.38964E+00 2.02009E-15 1.19009E-13
 -1      2321 2.45955E+01-2.75345E-02-6.23462E-02-2.43282E+00 1.28238E-13 2.87602E-13
 -1      2322 2.43817E+01 7.84390E-01 9.58339E-03-2.33431E+00 5.11223E-14 2.69978E-13
 -1      2323 2.53751E+01-4.41098E-01-1.20402E-03-2.41773E+00 6.65960E-14 2.66367E-13
 -1      2324 2.40687E+01 1.52171E+00-7.99217E-02-1.94060E+00-1.98133E-13 2.93297E-13
 -1      2325 2.38659E+01 2.17512E+00-1.89295E-02-1.34303E+00-3.01578E-13 1.73774E-13
 -1      2326 2.51384E+01 1.39627E+00-9.44274E-03-2.39315E+00-1.40075E-13 1.51117E-13
 -1      2327 2.37697E+01 2.50730E+00-2.28959E-02-3.03926E-01-4.35870E-13 2.40450E-13
 -1      2328 2.37745E+01 2.42969E+00-3.20107E-02 5.07504E-01-3.95559E-13 1.95920E-13
 -1      2329 2.47692E+01 3.03847E+00-3.05747E-02-8.98885E-01-3.73482E-13 2.69602E-13
 -1      2330 2.39049E+01 1.96902E+00-1.63493E-02 1.47317E+00-2.55879E-13 3.72100E-14
 -1      2331 2.41083E+01 1.22371E+00-8.19575E-02 1.98364E+00-2.17520E-13-3.02835E-14
 -1      2332 2.47930E+01 2.84115E+00-3.17938E-02 1.07950E+00-4.17277E-13 1.82388E-13
 -1      2333 2.43897E+01 4.52647E-01 1.36006E-02 2.22057E+00-1.80220E-13-2.17768E-13
 -1      2334 2.45582E+01-3.18997E-01-5.29177E-02 2.20793E+00-1.04403E-13-3.50857E-13
 -1      2335 2.51710E+01 1.04248E+00-2.62356E-02 2.34073E+00-3.60129E-13-2.49075E-13
 -1      2336 2.45217E+01-8.95302E-01-4.57861E-03 1.81948E+00 1.46409E-13-2.98057E-13
 -1      2337 2.45731E+01-1.27439E+00-1.57222E-02 1.41902E+00 1.13584E-13-1.65978E-13
 -1      2338 2.52618E+01-7.89845E-01 2.86426E-03 2.06015E+00 6.09374E-14-1.90910E-13
 -1      2339 2.41990E+01-1.42513E+00-1.95467E-02 8.15451E-01 9.56752E-14-9.61975E-14
 -1      2340 2.41052E+01-1.41797E+00 7.49712E-03 3.28213E-01 1.60610E-13 3.31471E-14
 -1      2341 2.47338E+01-1.74770E+00 2.78776E-03 9.41801E-01 2.11454E-13-5.07170E-14
 -1      2342 2.36093E+01-1.30341E+00-2.41199E-02-1.91189E-01 1.69509E-13 2.09552E-13
 -1      2343 2.34101E+01-1.10466E+00 1.30692E-02-5.92076E-01 2.01218E-13 3.33636E-13
 -1      2344 2.38388E+01-1.77464E+00-1.00050E-02-2.17788E-01 3.10926E-13 1.73425E-13
 -1      2345 2.29495E+01-8.94210E-01-1.92237E-02-9.25852E-01-6.39679E-15 4.34237E-13
 -1      2346 2.26952E+01-6.64354E-01 1.10319E-02-1.18073E+00 6.24724E-14 5.14574E-13
 -1      2347 2.29190E+01-1.30840E+00-1.64582E-02-1.06405E+00 1.50995E-13 4.38444E-13
 -1      2348 2.23330E+01-4.68715E-01-1.12411E-02-1.34277E+00 1.23182E-13 3.63836E-13
 -1      2349 2.20632E+01-2.82639E-01 7.81319E-03-1.46331E+00 1.46182E-13 3.02617E-13
 -1      2350 2.21518E+01-7.43125E-01-1.40252E-02-1.53585E+00-6.67973E-14 3.40961E-13
 -1      2351 2.17926E+01-1.35186E-01-4.64165E-03-1.50215E+00 1.73510E-14 1.77576E-13
 -1      2352 2.15305E+01-3.35830E-03 5.47915E-03-1.51985E+00-3.45182E-14 1.77518E-13
 -1      2353 2.15660E+01-2.75768E-01-9.57130E-03-1.71663E+00 1.75900E-14 2.02478E-13
 -1      2354 2.13274E+01 9.98474E-02-2.90423E-04-1.47587E+00-4.81421E-14 2.08923E-13
 -1      2355 2.10864E+01 1.91965E-01 4.35277E-03-1.42042E+00-1.24551E-13 1.65286E-13
 -1      2356 2.11244E+01 6.16528E-02-5.83152E-03-1.69522E+00-5.90386E-15 2.12884E-13
 -1      2357 2.09266E+01 2.68669E-01 2.05175E-03-1.32025E+00-2.65597E-13 2.30762E-13
 -1      2358 2.07182E+01 3.38548E-01 4.24958E-03-1.21051E+00-2.11188E-13 1.92927E-13
 -1      2359 2.07826E+01 3.00220E-01-3.22812E-03-1.53746E+00-1.50581E-13 5.76854E-14
 -1      2360 1.01721E+01-4.47930E+00 1.74593E-02 6.67005E+00 1.53960E-13-2.98289E-13
 -1      2361 7.45064E+00-4.01926E+00 9.55281E-02 5.43812E+00 9.75053E-14 1.94345E-13
 -1      2362 1.96190E+01 7.27435E-02 2.08980E-03-6.46278E-02 1.18197E-13-1.92277E-13
 -1      2363 1.96465E+01 1.04360E-01 6.90342E-03-1.83756E-02 1.28089E-13-1.46920E-13
 -1      2364 1.95954E+01 3.11769E-02 1.36995E-03-1.30663E-01 1.40772E-13-2.44689E-13
 -1      2365 1.95924E+01 4.98906E-02 3.69054E-03-1.07960E-01 1.37450E-13-2.06003E-13
 -1      2366 1.97651E+01 9.02148E-02-3.17162E-03-7.00195E-02 1.59619E-13-2.10326E-13
 -1      2367 1.96078E+01 6.65349E-03 9.23593E-04-1.59934E-01 9.34159E-14-2.85464E-13
 -1      2368 1.95876E+01 1.76151E-02 1.83408E-03-1.51280E-01 1.07926E-13-2.54827E-13
 -1      2369 1.97312E+01 3.67026E-02-2.31364E-03-1.43027E-01 1.46645E-13-2.21064E-13
 -1      2370 1.96411E+01-7.20143E-03 6.36510E-04-1.67108E-01 8.40020E-14-2.61505E-13
 -1      2371 1.96121E+01-1.19334E-03 7.43189E-04-1.66676E-01 7.91097E-14-2.60175E-13
 -1      2372 1.97285E+01 5.38640E-03-1.56257E-03-1.76079E-01 8.41548E-14-2.41074E-13
 -1      2373 1.96852E+01-1.40182E-02 4.60260E-04-1.61808E-01 3.79038E-14-2.05169E-13
 -1      2374 1.96526E+01-1.13038E-02 1.03150E-04-1.65801E-01 6.80537E-14-2.25448E-13
 -1      2375 1.97453E+01-1.19595E-02-1.00674E-03-1.84940E-01 5.56246E-14-1.88664E-13
 -1      2376 1.97340E+01-1.60285E-02 3.73353E-04-1.50554E-01 9.49519E-14-1.84898E-13
 -1      2377 1.97007E+01-1.55755E-02-2.55662E-04-1.56399E-01 8.82380E-14-1.79649E-13
 -1      2378 1.97732E+01-2.00647E-02-6.30535E-04-1.80170E-01 7.24160E-14-1.51651E-13
 -1      2379 1.97840E+01-1.46487E-02 3.63239E-04-1.37886E-01 1.39177E-13-2.16555E-13
 -1      2380 1.97515E+01-1.58017E-02-4.30580E-04-1.43780E-01 1.33623E-13-1.93526E-13
 -1      2381 1.98071E+01-2.18427E-02-3.96969E-04-1.69039E-01 1.34949E-13-1.27706E-13
 -1      2382 1.98340E+01-1.07753E-02 4.21679E-04-1.27070E-01 1.11589E-13-2.54237E-13
 -1      2383 1.98026E+01-1.31242E-02-4.83381E-04-1.31702E-01 1.17359E-13-2.27457E-13
 -1      2384 1.98439E+01-1.91364E-02-2.72255E-04-1.56677E-01 1.43187E-13-1.46635E-13
 -1      2385 1.98842E+01-4.95129E-03 5.43751E-04-1.20558E-01 4.06435E-14-2.32029E-13
 -1      2386 1.98533E+01-8.25511E-03-4.55225E-04-1.22923E-01 1.21287E-13-2.23076E-13
 -1      2387 1.98824E+01-1.31025E-02-2.30269E-04-1.46814E-01 1.03157E-13-1.65894E-13
 -1      2388 1.99359E+01 2.52491E-03 7.26966E-04-1.20308E-01-4.99442E-14-2.37463E-13
 -1      2389 1.99044E+01-1.60919E-03-3.73983E-04-1.19579E-01-5.60083E-15-2.34231E-13
 -1      2390 1.99224E+01-4.43243E-03-2.51744E-04-1.42287E-01 2.53687E-14-2.09535E-13
 -1      2391 1.99914E+01 1.15151E-02 9.69835E-04-1.27999E-01-1.39594E-15-2.40531E-13
 -1      2392 1.99577E+01 6.60127E-03-2.58546E-04-1.23444E-01-2.70387E-14-2.52791E-13
 -1      2393 1.99649E+01 6.49952E-03-3.22584E-04-1.45384E-01-3.18786E-14-2.10831E-13
 -1      2394 2.00538E+01 2.19611E-02 1.26981E-03-1.45160E-01 6.70879E-14-2.95534E-13
 -1      2395 2.00158E+01 1.62861E-02-1.21681E-04-1.36095E-01 5.16493E-14-2.64908E-13
 -1      2396 2.00117E+01 1.95175E-02-4.32239E-04-1.58075E-01 2.41610E-14-1.80913E-13
 -1      2397 2.01268E+01 3.37947E-02 1.62030E-03-1.73213E-01 2.59974E-14-2.81126E-13
 -1      2398 2.00821E+01 2.73942E-02 2.78552E-05-1.58997E-01 2.16648E-14-2.98502E-13
 -1      2399 2.00650E+01 3.45274E-02-5.72224E-04-1.82142E-01 6.94132E-14-2.44653E-13
 -1      2400 2.02144E+01 4.68214E-02 2.00642E-03-2.13413E-01 1.98190E-14-2.24477E-13
 -1      2401 2.01604E+01 3.98133E-02 1.83756E-04-1.93489E-01 5.86564E-14-2.54962E-13
 -1      2402 2.01276E+01 5.13821E-02-7.35072E-04-2.19199E-01 2.50658E-14-2.21862E-13
 -1      2403 2.03212E+01 6.05575E-02 2.39890E-03-2.66654E-01 6.19773E-15-2.38325E-13
 -1      2404 2.02551E+01 5.32339E-02 3.41123E-04-2.40664E-01-2.31534E-14-2.32802E-13
 -1      2405 2.02027E+01 6.97026E-02-9.13683E-04-2.70593E-01-1.69458E-14-1.53653E-13
 -1      2406 2.04518E+01 7.39974E-02 2.74580E-03-3.33097E-01 6.79217E-14-3.04084E-13
 -1      2407 2.03709E+01 6.69572E-02 4.95971E-04-3.01087E-01 1.26638E-13-1.91870E-13
 -1      2408 2.02940E+01 8.86296E-02-1.10130E-03-3.37146E-01 2.02946E-14-7.11997E-14
 -1      2409 2.06106E+01 8.52846E-02 2.96198E-03-4.11549E-01 7.59400E-14-3.12803E-13
 -1      2410 2.05124E+01 7.96193E-02 6.45538E-04-3.74307E-01 2.76589E-14-3.16486E-13
 -1      2411 2.04050E+01 1.06469E-01-1.29270E-03-4.18679E-01 8.03798E-14-2.37247E-13
 -1      2412 2.08012E+01 9.12719E-02 2.91735E-03-4.98506E-01-1.12787E-14-2.10046E-13
 -1      2413 2.06840E+01 8.88103E-02 7.89820E-04-4.58071E-01 7.48888E-14-2.92183E-13
 -1      2414 2.05397E+01 1.20199E-01-1.48706E-03-5.13252E-01 2.14682E-14-2.20120E-13
 -1      2415 2.10257E+01 8.69972E-02 2.42783E-03-5.86788E-01-1.48778E-13-1.87389E-13
 -1      2416 2.08895E+01 9.05856E-02 9.34516E-04-5.47174E-01-7.85212E-14-1.59783E-13
 -1      2417 2.07018E+01 1.24842E-01-1.69221E-03-6.16036E-01-7.67043E-14-2.22062E-14
 -1      2418 2.12840E+01 6.52296E-02 1.25821E-03-6.63775E-01-7.33340E-14-1.89291E-13
 -1      2419 2.11309E+01 7.89437E-02 1.09447E-03-6.31866E-01-1.61155E-13-1.62965E-13
 -1      2420 2.08948E+01 1.12763E-01-1.92830E-03-7.17749E-01-1.31318E-13-6.58732E-14
 -1      2421 2.15721E+01 1.65054E-02-8.45467E-04-7.09444E-01-8.91755E-14-2.87886E-13
 -1      2422 2.14082E+01 4.55283E-02 1.29343E-03-6.95910E-01-2.97597E-14-2.35062E-13
 -1      2423 2.11223E+01 7.32051E-02-2.22416E-03-8.02688E-01-5.12823E-14-1.62826E-13
 -1      2424 2.18813E+01-6.94337E-02-4.06580E-03-6.94959E-01-9.60798E-15-1.96534E-13
 -1      2425 2.17172E+01-1.98225E-02 1.54852E-03-7.14681E-01-6.95873E-14-2.69772E-13
 -1      2426 2.13872E+01-7.20258E-03-2.59220E-03-8.46629E-01-9.09138E-14-8.05214E-14
 -1      2427 2.21952E+01-1.99200E-01-8.32822E-03-5.83485E-01-1.33892E-13-1.09470E-13
 -1      2428 2.20479E+01-1.26450E-01 1.81724E-03-6.54444E-01-3.36020E-14-1.71467E-13
 -1      2429 2.16912E+01-1.41507E-01-2.95839E-03-8.15450E-01-7.29371E-14-2.06359E-13
 -1      2430 2.24875E+01-3.66222E-01-1.29744E-02-3.36356E-01-1.66334E-13 1.17117E-14
 -1      2431 2.23803E+01-2.76255E-01 1.87473E-03-4.75219E-01-1.72205E-13-3.14148E-14
 -1      2432 2.20321E+01-3.34684E-01-3.02591E-03-6.66381E-01-1.78136E-13-2.33085E-13
 -1      2433 2.27175E+01-5.35655E-01-1.63800E-02 7.04551E-02-4.64576E-14 1.20454E-13
 -1      2434 2.26786E+01-4.51205E-01 1.11000E-03-1.41675E-01-7.11857E-14 5.36268E-14
 -1      2435 2.23963E+01-5.68316E-01-2.09534E-03-3.55698E-01-2.05306E-13-2.18158E-13
 -1      2436 2.28286E+01-6.30541E-01-1.55097E-02 6.15750E-01-7.35419E-14-1.39333E-14
 -1      2437 2.28845E+01-5.97274E-01-1.47763E-03 3.52067E-01-7.08981E-15 1.44737E-13
 -1      2438 2.27468E+01-7.79514E-01 7.61244E-04 1.40483E-01-4.72630E-14-1.29474E-14
 -1      2439 2.27571E+01-5.41090E-01-7.47910E-03 1.19260E+00 2.04602E-14-1.87829E-13
 -1      2440 2.29201E+01-6.16825E-01-5.72989E-03 9.42854E-01-1.72171E-14-6.47585E-14
 -1      2441 2.30100E+01-8.48500E-01 6.42003E-03 7.86353E-01 1.99183E-14 1.49245E-14
 -1      2442 2.24657E+01-1.79490E-01 6.74918E-03 1.59348E+00-1.09708E-13-2.53996E-13
 -1      2443 2.27149E+01-4.01035E-01-1.18535E-02 1.46370E+00-8.42039E-14-2.20225E-13
 -1      2444 2.30829E+01-6.27112E-01 1.33673E-02 1.44075E+00-3.05212E-14-1.34532E-13
 -1      2445 2.20064E+01 4.01021E-01 1.85655E-02 1.55374E+00-5.12658E-14-1.30536E-13
 -1      2446 2.22758E+01 9.07319E-02-1.45740E-02 1.65162E+00-9.75124E-14-1.92697E-13
 -1      2447 2.28800E+01-4.90477E-02 9.21262E-03 1.82464E+00-1.61077E-13-8.07469E-14
 -1      2448 2.15646E+01 9.43032E-01 1.68865E-02 9.41480E-01 3.65506E-15 1.59150E-14
 -1      2449 2.17564E+01 6.97838E-01-1.13504E-02 1.28832E+00-1.30972E-14-1.02465E-13
 -1      2450 2.24703E+01 7.58129E-01-1.11911E-03 1.64115E+00-6.55435E-14 7.05109E-14
 -1      2451 2.13879E+01 1.12181E+00 4.23923E-03-6.43425E-02 9.45771E-14 1.25148E-13
 -1      2452 2.14279E+01 1.09633E+00 2.98474E-03 4.08202E-01-1.28196E-15 2.27474E-14
 -1      2453 2.20967E+01 1.38303E+00-1.71535E-02 7.88083E-01 7.72646E-15-1.34490E-13
 -1      2454 2.16005E+01 8.01194E-01-8.85415E-03-1.01587E+00 8.95456E-14 3.01772E-13
 -1      2455 2.14726E+01 1.01995E+00 1.93036E-02-6.32329E-01 1.60783E-13 1.90460E-13
 -1      2456 2.20355E+01 1.45549E+00-1.52341E-02-4.07575E-01 4.44905E-14 4.96721E-14
 -1      2457 2.20487E+01 2.02238E-01-1.63235E-02-1.49034E+00 2.11654E-14 2.87595E-13
 -1      2458 2.18233E+01 5.17352E-01 2.02991E-02-1.34400E+00 7.04809E-14 3.75045E-13
 -1      2459 2.23222E+01 9.01421E-01-4.32566E-03-1.36415E+00 8.31076E-14 2.11642E-13
 -1      2460 2.24671E+01-3.35849E-01-1.28196E-02-1.38980E+00-2.03413E-13 1.17790E-13
 -1      2461 2.22408E+01-8.94019E-02 8.71500E-03-1.48473E+00 1.89922E-14 2.07395E-13
 -1      2462 2.27066E+01 9.49186E-02 9.36341E-03-1.67882E+00 7.62110E-14 4.03318E-13
 -1      2463 2.26636E+01-6.16201E-01-6.07536E-03-8.96169E-01-2.16551E-13-6.06477E-14
 -1      2464 2.25157E+01-5.11830E-01-5.21549E-03-1.13597E+00-2.98168E-13 1.83538E-14
 -1      2465 2.29163E+01-5.65418E-01 1.25861E-02-1.37019E+00-1.09395E-13 1.97492E-13
 -1      2466 2.26036E+01-6.39221E-01-8.50760E-04-2.78494E-01 2.17231E-14-1.38973E-15
 -1      2467 2.25662E+01-6.55809E-01-1.38932E-02-5.51067E-01-7.74051E-14-8.49256E-14
 -1      2468 2.28479E+01-8.67100E-01 8.29495E-03-7.21770E-01-1.17513E-13-1.61600E-16
 -1      2469 2.23490E+01-5.07646E-01 1.38984E-03 2.66752E-01 1.15047E-14-1.05853E-13
 -1      2470 2.24160E+01-5.87954E-01-1.58096E-02 3.63580E-02 9.31763E-14-5.09233E-14
 -1      2471 2.25603E+01-8.47415E-01 1.78072E-03-3.11367E-02-6.29835E-15-2.42160E-14
 -1      2472 2.19839E+01-3.22829E-01 2.24411E-03 6.50548E-01 3.41108E-13-2.20567E-13
 -1      2473 2.21282E+01-4.19225E-01-1.31267E-02 4.94057E-01 1.16076E-13-1.92684E-13
 -1      2474 2.21618E+01-6.45697E-01-2.18737E-03 5.24593E-01 1.87833E-13-2.71698E-13
 -1      2475 2.15757E+01-1.45069E-01 2.71295E-03 8.60169E-01 2.19317E-13 9.73895E-14
 -1      2476 2.17650E+01-2.32830E-01-8.66139E-03 7.80289E-01 2.65095E-13-3.38007E-14
 -1      2477 2.17366E+01-3.90278E-01-3.41826E-03 8.84817E-01 1.36903E-13-8.32265E-14
 -1      2478 2.11695E+01 5.52420E-03 3.36126E-03 9.16872E-01 6.19647E-14 2.13008E-13
 -1      2479 2.13744E+01-6.75717E-02-4.37790E-03 9.04232E-01 1.93612E-13 1.80469E-13
 -1      2480 2.13300E+01-1.51981E-01-3.40594E-03 1.05648E+00 1.35906E-13 3.48188E-13
 -1      2481 2.07937E+01 1.31828E-01 4.22789E-03 8.48112E-01 2.01255E-13 1.75700E-13
 -1      2482 2.09903E+01 6.99930E-02-1.14735E-03 8.91660E-01 9.92017E-14 2.14544E-13
 -1      2483 2.09606E+01 4.87313E-02-3.03230E-03 1.07035E+00 8.99895E-14 3.34359E-13
 -1      2484 2.04645E+01 2.39207E-01 4.42958E-03 6.77158E-01 1.76126E-14 2.09967E-13
 -1      2485 2.06370E+01 1.86901E-01 9.15147E-04 7.66683E-01 1.57793E-13 2.16139E-13
 -1      2486 2.06347E+01 2.18858E-01-2.49625E-03 9.57084E-01 1.92814E-13 3.40989E-13
 -1      2487 2.03286E+01 2.80870E-01 2.39243E-03 5.43931E-01-2.85992E-14 1.50356E-13
 -1      2488 1.98125E+01 1.44856E+00-6.70709E-03 1.00782E+00 4.30331E-14 5.75968E-14
 -1      2489 1.99043E+01 1.28276E+00 3.13624E-03 1.05875E+00 1.15504E-13-4.81091E-13
 -1      2490 1.96417E+01 1.74220E+00-8.79385E-03 7.99027E-01-1.72664E-13 1.39253E-13
 -1      2491 1.97270E+01 1.60505E+00 1.30598E-03 9.13458E-01-1.82077E-13 1.20830E-13
 -1      2492 1.96963E+01 1.35320E+00 1.65830E-03 1.09798E+00-4.49241E-14 2.56444E-14
 -1      2493 2.01524E+01 8.02996E-01-1.29376E-03 1.02057E+00-2.26545E-14 1.12826E-13
 -1      2494 2.02298E+01 6.35983E-01 4.76120E-03 9.56614E-01 3.36192E-14 3.62784E-13
 -1      2495 1.99895E+01 1.12255E+00-3.84327E-03 1.07849E+00-2.15514E-13-4.94569E-13
 -1      2496 2.00752E+01 9.51314E-01 4.16881E-03 1.06757E+00-2.92236E-13-1.17799E-13
 -1      2497 2.01507E+01 7.53252E-01-6.24208E-04 1.18440E+00-1.59235E-13-1.60157E-13
 -1      2498 1.99277E+01 1.04896E+00-4.19093E-04 1.21566E+00-1.25357E-14-3.10386E-13
 -1      2499 1.95079E+01 1.95747E+00-9.30877E-03 4.65236E-01-3.38441E-13 6.51207E-14
 -1      2500 1.95701E+01 1.86904E+00-1.40877E-03 6.33018E-01-2.88504E-13 1.42447E-13
 -1      2501 1.94827E+01 1.62574E+00 4.42664E-03 8.23155E-01-1.84940E-13 9.89877E-15
 -1      2502 1.94425E+01 2.05396E+00-7.93447E-03 4.68467E-02-2.76580E-13 8.66134E-14
 -1      2503 1.94661E+01 2.02922E+00-4.54629E-03 2.45780E-01-3.45690E-13 2.17283E-14
 -1      2504 1.93285E+01 1.81692E+00 6.98166E-03 4.13034E-01-2.92785E-13 1.97877E-13
 -1      2505 1.94651E+01 2.00864E+00-5.14651E-03-3.92049E-01-1.16963E-13 2.00165E-15
 -1      2506 1.94424E+01 2.05330E+00-7.27903E-03-1.93125E-01-1.82660E-13 2.47573E-13
 -1      2507 1.92708E+01 1.88499E+00 8.01747E-03-7.77366E-02-9.66919E-14 1.66904E-13
 -1      2508 1.95719E+01 1.83034E+00-1.57102E-03-7.73313E-01 1.01310E-13-5.38595E-14
 -1      2509 1.95075E+01 1.93595E+00-8.81049E-03-6.09102E-01 6.98410E-14-2.11504E-13
 -1      2510 1.93281E+01 1.81346E+00 7.29162E-03-5.65897E-01 3.89450E-14 5.09720E-14
 -1      2511 1.97473E+01 1.54184E+00 1.78277E-03-1.04834E+00 5.79442E-14 2.11849E-13
 -1      2512 1.96508E+01 1.69741E+00-8.66483E-03-9.39432E-01-2.41934E-14 1.08422E-13
 -1      2513 1.94908E+01 1.61568E+00 4.89668E-03-9.74448E-01 1.75273E-13-1.67234E-13
 -1      2514 1.99625E+01 1.18899E+00 4.15317E-03-1.16971E+00 7.11344E-14 4.12665E-14
 -1      2515 1.98496E+01 1.37338E+00-6.82807E-03-1.13552E+00 6.50502E-14 2.00567E-13
 -1      2516 1.97329E+01 1.32572E+00 1.56891E-03-1.24272E+00-2.68611E-17 1.76254E-13
 -1      2517 2.01892E+01 8.20213E-01 5.89236E-03-1.12258E+00-2.54879E-13-1.24767E-13
 -1      2518 2.00750E+01 1.01213E+00-3.44438E-03-1.16833E+00-9.17518E-14-9.56918E-14
 -1      2519 2.00150E+01 9.92753E-01-2.54735E-04-1.33039E+00-1.84824E-13-1.03608E-13
 -1      2520 2.03128E+01 5.52672E-01 2.35050E-03-8.45057E-01-1.38501E-13-4.37797E-14
 -1      2521 2.99109E+00-3.30158E+00 4.69281E-02-1.09285E+00 4.25909E-14 5.27356E-13
 -1      2522 4.15768E+00-3.43680E+00 4.36585E-02-3.30080E+00-9.13158E-14 5.30243E-13
 -1      2523 1.97003E+01 1.43346E-01 3.28195E-03 6.16185E-02 1.26860E-13-1.44448E-13
 -1      2524 1.97791E+01 1.98085E-01 1.23661E-02 1.47850E-01 1.42508E-13-1.20370E-13
 -1      2525 1.98460E+01 1.81168E-01-3.81222E-03 6.72102E-02 1.53490E-13-1.79349E-13
 -1      2526 1.83887E+01-5.61365E+00-6.55064E-02 6.81671E+00-8.16014E-15-2.61464E-13
 -1      2527 1.41707E+01-5.29148E+00 8.73875E-02 6.85230E+00 1.42802E-13-3.68747E-13
 -1      2528 6.81031E+00-4.09771E+00 7.72924E-02-5.12500E+00-1.56264E-13 3.00093E-13
 -1      2529 9.67121E+00-4.77066E+00 1.75796E-02-6.49295E+00-1.93345E-13 1.73861E-13
 -1      2530 2.05454E+01 1.95499E+00-1.37233E-02-1.89715E+00-3.82378E-13 6.75918E-14
 -1      2531 2.04071E+01 1.20885E+00-8.82283E-03-1.29088E+00-3.38588E-13 8.19788E-14
 -1      2532 2.03805E+01 1.38475E+00 9.19467E-03-1.23989E+00-3.29010E-13-1.18510E-14
 -1      2533 2.02937E+01 2.39736E+00 7.07464E-04-1.83744E+00-3.88178E-13-4.42910E-14
 -1      2534 2.63766E+01-4.37213E+00-9.91012E-02 3.88944E+00-8.46823E-14-4.94688E-13
 -1      2535 2.29596E+01-5.30548E+00 7.53655E-02 5.08208E+00-6.37268E-14-3.63126E-13
 -1      2536 3.13797E+01 3.21067E+00-1.08573E-01 9.37056E-01-5.32907E-15-3.89966E-14
 -1      2537 3.22198E+01 5.41153E+00-1.52100E-01 1.09413E+00 1.25455E-13-4.09395E-14
 -1      2538 1.95226E+01 3.58427E+00-1.01031E-02-2.45618E-01-1.29095E-13-4.74262E-13
 -1      2539 1.95384E+01 3.56356E+00-9.68408E-03-4.26566E-01-1.66270E-13-4.57673E-13
 -1      2540 1.97148E+01 3.16301E+00-5.71055E-04-4.73952E-01-1.77124E-13-4.21891E-13
 -1      2541 1.96809E+01 3.22288E+00-9.11977E-04-1.52215E-01-1.16211E-13-4.54554E-13
 -1      2542 3.17428E+01 7.00114E+00-1.43747E-01 7.39344E-01 2.21156E-13 1.69309E-15
 -1      2543 3.21231E+01 7.42981E+00-1.32623E-01 1.45350E-01 1.17073E-13-1.38334E-13
 -1      2544 4.67073E+00-2.58010E+00 1.19107E-01-2.98573E+00-3.96863E-13-6.36491E-13
 -1      2545 6.46742E+00-3.37591E+00 8.30777E-02-5.05609E+00-2.80026E-13-5.45841E-13
 -1      2546 3.27693E+01 7.08608E+00-1.61982E-01-5.48273E-01 1.08968E-13-1.86406E-13
 -1      2547 3.30405E+01 5.99017E+00-8.75216E-02-6.13036E-01 6.07292E-14-1.59595E-13
 -1      2548 3.08501E+01 4.72957E+00-3.24960E-02-1.41404E+00 2.88103E-14-1.53100E-13
 -1      2549 2.96180E+01-1.15524E+00-2.21684E-02-4.15340E-01 6.07153E-14 3.68594E-14
 -1      2550 3.07712E+01 5.31586E-01-1.44239E-01 2.09841E-01-3.56173E-14 4.27713E-14
 -1      2551 2.45125E+01-4.69424E+00 4.02075E-02-4.29191E+00 1.37723E-13-8.58480E-14
 -1      2552 2.77275E+01-3.38925E+00-1.30914E-01-2.66060E+00 1.12521E-13-9.03999E-14
 -1      2553 1.76329E+01-5.46743E+00 6.47488E-02-6.47483E+00 7.71327E-14 1.05910E-13
 -1      2554 2.09527E+01-5.40293E+00-6.58635E-02-6.04810E+00 9.00946E-14 4.98906E-14
 -1      2555 3.16139E+01 7.31931E-01-6.32647E-02-1.75345E-01-1.11910E-13-2.10609E-13
 -1      2556 3.29311E+01 2.71619E+00-1.22517E-01 4.04778E-01-1.30118E-13-1.87961E-13
 -1      2557 9.40079E+00-4.40452E+00 7.15507E-02-6.17554E+00-1.29646E-13-2.17409E-13
 -1      2558 1.34134E+01-4.96314E+00 2.92951E-03-7.04359E+00 3.55271E-14 3.07809E-14
 -1      2559 3.48814E+00-3.21719E+00 5.58977E-02 2.17951E+00-9.65339E-14-8.85347E-13
 -1      2560 3.38923E+00-2.42169E+00 1.04141E-01-2.12993E-02-2.76897E-13-6.36158E-13
 -1      2561 7.12274E+00-3.75686E+00 3.97044E-02 5.35347E+00 8.69305E-14-7.91200E-13
 -1      2562 4.86083E+00-3.54994E+00 5.79359E-02 3.66928E+00 5.22082E-14-9.35030E-13
 -1      2563 6.15683E+00-2.05748E+00 1.63417E-01 3.05095E+00 3.23352E-14-7.63251E-13
 -1      2564 1.50336E+01-5.28903E+00-1.59379E-02 6.85106E+00 2.72560E-14-4.39371E-13
 -1      2565 1.08234E+01-4.73110E+00 7.31974E-02 6.26195E+00 6.06182E-14-7.45071E-13
 -1      2566 2.29268E+01-5.39603E+00-6.65677E-02 5.06843E+00-2.80331E-15 1.06304E-14
 -1      2567 1.92703E+01-5.69702E+00 3.82587E-02 5.95249E+00-2.02616E-14-1.81896E-13
 -1      2568 3.20183E+01 1.95102E+00-1.44817E-01-7.36534E-01-4.32876E-13-1.35086E-13
 -1      2569 3.11232E+01 1.77061E-02-6.45213E-02-1.73049E-01-5.57651E-13-2.69229E-14
 -1      2570 3.17359E+01 6.09026E+00-1.96931E-01-1.33374E+00-2.41251E-13-1.52392E-13
 -1      2571 3.22492E+01 4.22139E+00-9.30716E-02-1.45073E+00-3.56853E-13-1.99396E-13
 -1      2572 3.11576E+01 6.77827E+00-1.78094E-01 4.36287E-01-1.01696E-13-2.45401E-13
 -1      2573 3.09466E+01 6.84584E+00-1.91386E-01-5.28840E-01-1.98841E-13-2.41918E-13
 -1      2574 3.29814E+01 4.88354E+00-4.57380E-02 9.15400E-01-8.70137E-14-5.92859E-14
 -1      2575 3.19296E+01 6.28997E+00-2.16545E-01 1.05446E+00-8.43769E-15 1.42955E-13
 -1      2576 3.10935E+01 3.31769E+00-2.71206E-02 1.62247E+00-1.13104E-13 2.22822E-13
 -1      2577 2.81085E+01-3.26304E+00-4.06167E-03-2.49658E+00-1.44468E-13-4.89664E-13
 -1      2578 3.05016E+01-1.52142E+00-7.86182E-02-1.55986E+00-9.86017E-14-3.32401E-13
 -1      2579 2.11643E+01-5.64279E+00 2.99499E-02-5.68726E+00 2.10942E-14-6.07042E-13
 -1      2580 2.49878E+01-4.97503E+00-9.08424E-02-4.66588E+00-2.92821E-14-6.20115E-13
 -1      2581 1.31951E+01-5.51917E+00 2.82388E-02-6.72597E+00-1.49381E-13-1.17503E-13
 -1      2582 1.70397E+01-5.65159E+00-3.21819E-02-6.93651E+00-4.38538E-15-4.40261E-13
 -1      2583 4.55980E+00-3.45991E+00 3.69122E-02 3.80704E+00 5.69267E-14 5.55556E-13
 -1      2584 3.13068E+00-3.20857E+00 6.76445E-02 1.22466E+00 9.90874E-15 4.61964E-13
 -1      2585 2.04873E+01 8.74861E-01-7.31987E-03 1.22809E+00 3.30923E-13-4.58951E-14
 -1      2586 2.08380E+01 1.25689E+00-6.05240E-03 1.72875E+00 3.57801E-13-1.10849E-15
 -1      2587 2.06443E+01 1.71556E+00-1.57906E-02 1.92300E+00 3.80081E-13-1.07844E-13
 -1      2588 2.04465E+01 1.05788E+00-9.39486E-03 1.24305E+00 3.23192E-13-1.51599E-13
 -1      2589 3.10027E+01-1.52431E-01-8.29935E-02 9.23447E-01 9.85600E-14-3.44946E-13
 -1      2590 2.88389E+01-2.17099E+00-1.94482E-02 1.78086E+00 4.59043E-14-4.70762E-13
 -1      2591 3.00164E+01 6.84883E+00-7.72076E-02-3.13304E-01 5.21805E-14-1.40964E-13
 -1      2592 1.99148E+01 2.81002E+00 1.14475E-03-1.09872E+00-2.70913E-13-3.17194E-13
 -1      2593 1.97813E+01 3.15588E+00-1.61745E-02-1.28846E+00-2.96939E-13-3.37293E-13
 -1      2594 1.98836E+01 3.01247E+00-1.85417E-02-1.47848E+00-3.42243E-13-2.73083E-13
 -1      2595 1.99919E+01 3.40238E-01-3.51005E-03 3.06456E-01 1.84516E-13-1.69158E-13
 -1      2596 2.04206E+01 2.11565E+00-1.27740E-02 1.87607E+00 3.47097E-13-2.34233E-13
 -1      2597 3.03735E+01 6.82305E-01-3.16283E-02-7.34769E-01-5.85781E-14-2.75890E-13
 -1      2598 7.60489E+00-2.67769E+00 1.58902E-01 4.53593E+00 5.18197E-14 4.53637E-13
 -1      2599 1.31936E+01-4.59302E+00 1.21623E-01-6.54893E+00 5.69267E-14-1.67158E-13
 -1      2600 2.76794E+01-3.67483E+00-2.13877E-02 1.98199E+00-1.05110E-13-5.88501E-13
 -1      2601 2.03607E+01-5.61933E+00 9.68209E-02-5.93552E+00 1.37279E-13-6.24244E-13
 -1      2602 7.13649E+00-2.88311E+00 1.43419E-01-4.30467E+00-5.05429E-14 4.51472E-13
 -1      2603 1.39043E+01-4.34433E+00 1.49262E-01 6.58788E+00 6.27831E-14-3.96211E-13
 -1      2604 2.03540E+01 3.55244E-01 1.11072E-03 7.32354E-01 5.64529E-14 2.77379E-13
 -1      2605 2.03231E+01 4.66808E-01 6.31905E-04 8.30054E-01 1.17119E-13 5.40359E-13
 -1      2606 2.95376E+01 5.92497E+00-8.30060E-02 9.22816E-01-2.12524E-13-6.47260E-14
 -1      2607 2.04768E+01 4.27351E-01 6.42391E-03-9.78017E-01-1.58306E-13 6.07591E-14
 -1      2608 2.03005E+01 6.55940E-01-2.18363E-03-1.08660E+00-1.57975E-13-2.35229E-14
 -1      2609 2.03218E+01 6.64631E-01 8.33984E-04-1.27777E+00-3.64078E-13 6.53646E-14
 -1      2610 2.06355E+01 3.81469E-01 4.55141E-03-1.11486E+00-1.27906E-13 1.95203E-13
 -1      2611 2.94811E+01 5.79017E+00-8.64981E-02-1.08112E+00-2.44610E-13-2.91440E-13
 -1      2612 3.05407E+01 2.67902E+00 1.23517E-04-1.93766E+00-4.46199E-13-2.22738E-13
 -1      2613 4.79569E+00-2.03980E+00 1.59817E-01 2.03405E-01 2.14915E-14 5.12923E-13
 -1      2614 2.04349E+01 1.80787E+00 1.25505E-02 1.56390E+00 3.19714E-13-2.43166E-13
 -1      2615 2.16406E+01-5.41252E+00 1.02426E-01 5.46080E+00-7.38576E-14-4.52874E-13
 -1      2616 2.51896E+01-5.04771E+00 3.72465E-02 3.77601E+00-8.95672E-14 8.53206E-14
 -1      2617 2.38148E+01-5.29985E+00 8.51799E-02 4.11469E+00 1.80356E-13 8.74474E-14
 -1      2618 2.64134E+01-4.78083E+00-2.18005E-01 2.11769E+00-1.14686E-13 2.93501E-13
 -1      2619 1.08751E+01-3.53362E+00 1.49837E-01 5.78010E+00 1.51851E-13-7.54619E-13
 -1      2620 2.98922E+01 1.66171E+00-6.34929E-02 1.59667E+00-1.83159E-13 2.27901E-13
 -1      2621 2.98274E+01 5.70977E+00-7.25503E-02 1.34339E+00 1.04611E-13 6.44762E-14
 -1      2622 9.84068E+00-3.10059E+00 1.41650E-01-5.59525E+00-3.11334E-13-3.88023E-13
 -1      2623 3.04523E+01-8.08502E-01 2.33387E-03 2.90493E-01-3.90660E-14-1.62648E-13
 -1      2624 1.66366E+01-4.93136E+00 1.10475E-01-6.51846E+00-1.47410E-13 1.11425E-13
 -1      2625 2.36394E+01-5.16962E+00 7.37373E-02-4.48259E+00-3.35010E-14 6.84869E-14
 -1      2626 2.99204E+01-1.74920E+00 7.83822E-03 6.44811E-02-4.59251E-13 1.63675E-13
 -1      2627 2.01183E+01 2.61272E+00-9.99500E-03-1.67772E+00-3.75507E-13-1.44055E-13
 -1      2628 5.02850E+00-1.77853E+00 1.66828E-01-1.58681E+00-2.89421E-13-6.12621E-13
 -1      2629 7.09391E+00-1.13521E+00 1.44539E-01-2.75420E+00-2.81317E-13-5.54112E-13
 -1      2630 5.82330E+00-9.65827E-01 1.18817E-01-9.69475E-02-1.82001E-13-5.46174E-13
 -1      2631 2.82467E+01-2.74232E+00-1.20784E-02-9.63388E-01 9.88098E-15 1.39833E-13
 -1      2632 1.83310E+01-5.19887E+00 1.26616E-01 6.05020E+00 1.15297E-13-1.81650E-13
 -1      2633 2.68370E+01-4.56877E+00-3.45014E-03-2.88372E+00 4.33681E-14-4.20108E-13
 -1      2634 2.03770E+01 4.50270E-01 2.98309E-04 1.00701E+00 1.00227E-13 4.14312E-13
 -1      2635 2.05475E+01 4.55645E-01-2.86158E-03-1.32548E+00-2.72557E-13 9.52446E-14
 -1      2636 1.98485E+01 2.76440E+00-6.29495E-03 5.17020E-01 5.52675E-14-4.61944E-13
 -1      2637 1.98239E+01 2.81414E+00-5.70350E-03 3.65948E-01 1.54520E-14-4.63553E-13
 -1      2638 1.98072E+01 2.85167E+00-5.61894E-03 2.30196E-01-2.08361E-14-4.65455E-13
 -1      2639 1.97987E+01 2.86857E+00-5.43722E-03 7.53679E-02-5.64889E-14-4.38486E-13
 -1      2640 1.99538E+01 2.50049E+00 3.65519E-03 2.65676E-01-1.69594E-15-4.35592E-13
 -1      2641 2.00453E+01 2.32328E+00-1.07346E-02 1.04731E+00 1.99221E-13-4.03678E-13
 -1      2642 1.99814E+01 2.47237E+00-6.34312E-03 9.11478E-01 1.67493E-13-4.18474E-13
 -1      2643 2.02167E+01 1.90817E+00-1.19600E-02 1.22910E+00 2.55051E-13-3.50735E-13
 -1      2644 2.01252E+01 2.14588E+00-4.78967E-03 1.13575E+00 2.18037E-13-3.72881E-13
 -1      2645 2.01909E+01 1.88602E+00 6.48371E-03 9.28116E-01 1.96416E-13-3.60903E-13
 -1      2646 2.02109E+01 7.26644E-01-3.45555E-03 6.44615E-01 2.15982E-13-2.16565E-13
 -1      2647 2.03529E+01 9.51454E-01 9.16884E-03 9.08275E-01 2.49416E-13-2.12620E-13
 -1      2648 2.34682E+01-5.35988E+00-6.70889E-02 4.31907E+00-7.78405E-14-5.86704E-13
 -1      2649 2.01295E+01-5.07563E+00 1.42067E-01 5.66682E+00-3.32928E-14-3.80165E-13
 -1      2650 2.00684E+01 4.15613E-01-1.37647E-03 2.90051E-01 1.60934E-13-2.14638E-13
 -1      2651 2.01691E+01 5.53222E-01 1.02589E-02 4.52424E-01 1.79942E-13-1.96163E-13
 -1      2652 2.02528E+01 8.22286E-01 1.02880E-03 6.19144E-01 2.04330E-13-2.72683E-13
 -1      2653 9.85415E+00-2.20517E+00 4.80667E-02 5.05019E+00-1.33893E-13 3.65624E-13
 -1      2654 7.78059E+00-1.34666E+00 1.92533E-01 3.25141E+00-1.27218E-13 5.90888E-13
 -1      2655 2.97370E+01 1.64714E+00-1.02933E-01 2.04410E+00-2.38726E-13 3.34149E-13
 -1      2656 2.91148E+01 3.42179E+00-2.09144E-01 2.17988E+00-3.35371E-13 2.33286E-13
 -1      2657 2.02143E+01 6.26958E-01 7.81808E-03-4.39285E-01-2.15920E-13-5.27277E-14
 -1      2658 2.01313E+01 4.75913E-01-3.09935E-03-2.80149E-01-1.84626E-13-5.44602E-14
 -1      2659 2.01052E+01 3.62622E-01 6.61851E-03-1.60487E-01-1.77342E-13-4.85386E-14
 -1      2660 2.00462E+01 2.68217E-01-1.73220E-03-6.26247E-02-1.65056E-13-6.33072E-14
 -1      2661 2.01956E+01 5.28835E-01-1.52398E-03-2.63827E-01-1.88451E-13-8.46257E-14
 -1      2662 2.00203E+01 1.98307E-01 4.53737E-03 1.29805E-02-1.46630E-13-5.63491E-14
 -1      2663 1.99846E+01 1.39215E-01-7.93425E-04 6.99222E-02-1.37033E-13-5.99095E-14
 -1      2664 2.01267E+01 2.99535E-01-2.08000E-03-5.68912E-02-1.59186E-13-9.23298E-14
 -1      2665 1.99640E+01 9.56220E-02 2.89396E-03 1.13843E-01-1.34871E-13-6.98117E-14
 -1      2666 1.99463E+01 5.90618E-02-2.36532E-04 1.43978E-01-1.30831E-13-9.12243E-14
 -1      2667 2.00707E+01 1.54453E-01-1.91661E-03 7.13150E-02-1.51485E-13-1.20482E-13
 -1      2668 1.99317E+01 3.24206E-02 1.72042E-03 1.66435E-01-1.36169E-13-8.44708E-14
 -1      2669 1.99265E+01 1.07123E-02 8.99099E-05 1.79511E-01-1.16759E-13-8.92778E-14
 -1      2670 2.00303E+01 6.38408E-02-1.55715E-03 1.43965E-01-1.29042E-13-1.09556E-13
 -1      2671 1.99173E+01-4.59979E-03 9.05611E-04 1.88178E-01-7.87698E-14-7.34529E-14
 -1      2672 1.99204E+01-1.62263E-02 2.86509E-04 1.90968E-01-6.14532E-14-4.13602E-14
 -1      2673 2.00041E+01 9.39121E-03-1.18758E-03 1.79448E-01-8.08141E-14-1.28404E-13
 -1      2674 1.99155E+01-2.37424E-02 3.52455E-04 1.91484E-01-6.83768E-14-7.41558E-15
 -1      2675 1.99238E+01-2.83578E-02 4.15958E-04 1.88752E-01-9.09652E-14 1.10303E-14
 -1      2676 1.99891E+01-2.04162E-02-8.80726E-04 1.91581E-01-5.43376E-14-3.65577E-14
 -1      2677 1.99220E+01-3.03763E-02-1.37985E-05 1.85238E-01-1.14295E-13-3.84058E-15
 -1      2678 1.99336E+01-2.99910E-02 5.16947E-04 1.80386E-01-6.24071E-14-1.14705E-14
 -1      2679 1.99826E+01-3.30295E-02-6.48236E-04 1.90560E-01-8.82518E-14-1.80372E-14
 -1      2680 1.99342E+01-2.80131E-02-2.51450E-04 1.75870E-01-3.31865E-14-3.34178E-15
 -1      2681 1.99480E+01-2.39235E-02 6.13947E-04 1.71386E-01-2.10526E-14-1.14910E-14
 -1      2682 1.99822E+01-3.33488E-02-4.83100E-04 1.83881E-01-7.03095E-14-4.56046E-14
 -1      2683 1.99503E+01-1.89006E-02-4.05182E-04 1.68138E-01-5.23672E-14-2.56904E-14
 -1      2684 1.99658E+01-1.18968E-02 7.23582E-04 1.65909E-01-5.41327E-14-2.37015E-14
 -1      2685 1.99865E+01-2.45533E-02-3.73256E-04 1.77106E-01-4.73988E-14-7.26992E-14
 -1      2686 1.99695E+01-4.38384E-03-5.08981E-04 1.65704E-01-4.56621E-14-6.65235E-14
 -1      2687 1.99867E+01 5.11415E-03 8.57877E-04 1.67249E-01-3.57650E-14-8.21821E-14
 -1      2688 1.99942E+01-8.60388E-03-3.06072E-04 1.74483E-01-6.06044E-14-4.02001E-14
 -1      2689 1.99916E+01 1.48527E-02-5.88719E-04 1.71560E-01-4.73987E-14-5.09171E-14
 -1      2690 2.00109E+01 2.66949E-02 1.02574E-03 1.78198E-01-4.71869E-14-3.69355E-14
 -1      2691 2.00049E+01 1.34255E-02-2.69722E-04 1.79414E-01-3.35713E-14-1.13964E-13
 -1      2692 2.00168E+01 3.86020E-02-6.64110E-04 1.88344E-01-7.37114E-14-6.74105E-14
 -1      2693 2.00391E+01 5.28239E-02 1.23345E-03 2.01305E-01-8.17617E-14-7.39661E-14
 -1      2694 2.00181E+01 4.11037E-02-2.53088E-04 1.94807E-01-1.02542E-13-4.27300E-14
 -1      2695 2.00459E+01 6.69735E-02-7.50088E-04 2.18548E-01-7.47984E-14-7.49486E-14
 -1      2696 2.00720E+01 8.37121E-02 1.48429E-03 2.39047E-01-6.57487E-14-7.86474E-14
 -1      2697 2.00339E+01 7.44367E-02-2.45309E-04 2.23323E-01-9.76377E-14-3.77213E-14
 -1      2698 2.00798E+01 1.00223E-01-8.57190E-04 2.64645E-01-5.25669E-14-6.91462E-14
 -1      2699 2.01107E+01 1.19612E-01 1.77751E-03 2.93906E-01-4.90020E-14-9.72778E-14
 -1      2700 2.00520E+01 1.13660E-01-2.35904E-04 2.67529E-01-6.65716E-14 5.23121E-14
 -1      2701 2.01194E+01 1.38533E-01-9.90838E-04 3.29116E-01-5.77113E-14-1.08810E-13
 -1      2702 2.01565E+01 1.60558E-01 2.10699E-03 3.68326E-01-9.07339E-15-8.95652E-14
 -1      2703 2.00727E+01 1.58988E-01-2.14932E-04 3.29961E-01-4.21911E-14-3.65165E-14
 -1      2704 2.01660E+01 1.81697E-01-1.14905E-03 4.14357E-01 1.51299E-14-1.29319E-13
 -1      2705 2.02105E+01 2.05969E-01 2.45959E-03 4.64552E-01 1.03542E-13-1.94226E-13
 -1      2706 2.00957E+01 2.10262E-01-1.74579E-04 4.13072E-01-2.44658E-15-7.24905E-14
 -1      2707 2.02208E+01 2.28630E-01-1.31746E-03 5.22436E-01 1.86984E-13-2.26160E-13
 -1      2708 2.02741E+01 2.54036E-01 2.81334E-03 5.84259E-01 1.96872E-13-2.35421E-13
 -1      2709 2.01211E+01 2.66422E-01-1.14292E-04 5.19057E-01 9.91281E-14-1.58930E-13
 -1      2710 2.02854E+01 2.76586E-01-1.45984E-03 6.54636E-01 1.46279E-13-3.14027E-13
 -1      2711 2.03490E+01 3.00727E-01 3.13619E-03 7.27943E-01 9.08280E-14-3.34383E-13
 -1      2712 2.01488E+01 3.24685E-01-5.07869E-05 6.49526E-01 1.16146E-13-3.10596E-13
 -1      2713 2.03622E+01 3.19940E-01-1.50240E-03 8.10717E-01 8.35497E-14-2.85892E-13
 -1      2714 2.04380E+01 3.38279E-01 3.38565E-03 8.93938E-01 2.17806E-14-2.48844E-13
 -1      2715 2.01795E+01 3.79261E-01-3.68451E-05 8.04991E-01 1.37304E-13-4.68670E-13
 -1      2716 2.04556E+01 3.48345E-01-1.30883E-03 9.87758E-01-3.19166E-14-1.77770E-13
 -1      2717 2.05462E+01 3.52986E-01 3.50799E-03 1.07695E+00-2.06569E-14-1.98450E-13
 -1      2718 2.02158E+01 4.19420E-01-1.93780E-04 9.84109E-01 6.15104E-15-2.49689E-13
 -1      2719 2.05739E+01 3.44187E-01-6.44445E-04 1.17842E+00-6.93821E-14-1.28266E-13
 -1      2720 2.06843E+01 3.22343E-01 3.42838E-03 1.26588E+00-5.70490E-14-1.05269E-13
 -1      2721 2.02640E+01 4.26766E-01-7.62049E-04 1.18260E+00-1.87499E-14-1.63855E-13
 -1      2722 2.07340E+01 2.79604E-01 8.68647E-04 1.36832E+00 2.41143E-14-1.25064E-13
 -1      2723 2.08725E+01 2.12185E-01 3.00094E-03 1.44073E+00 1.19429E-13-1.64114E-13
 -1      2724 2.03388E+01 3.71835E-01-2.17048E-03 1.39163E+00-2.77411E-14 1.11944E-14
 -1      2725 2.09666E+01 1.14348E-01 3.78136E-03 1.53192E+00 1.51681E-13-2.32186E-13
 -1      2726 2.11471E+01-2.38659E-02 1.87602E-03 1.56788E+00 1.19506E-13-1.73578E-13
 -1      2727 2.04693E+01 2.10958E-01-5.10668E-03 1.59505E+00 8.38020E-14-1.34107E-13
 -1      2728 2.13232E+01-2.01626E-01 8.78155E-03 1.62578E+00 1.38154E-13-9.32959E-14
 -1      2729 2.15645E+01-4.36485E-01-7.75536E-04 1.59310E+00 1.58201E-13-7.66360E-14
 -1      2730 2.07087E+01-1.13503E-01-1.04736E-02 1.76382E+00 1.41895E-13-7.91921E-14
 -1      2731 2.18785E+01-7.11889E-01 1.62481E-02 1.57790E+00 1.51510E-13-1.17587E-13
 -1      2732 2.21972E+01-1.05127E+00-6.31964E-03 1.43245E+00 1.21003E-13-8.68331E-14
 -1      2733 2.11429E+01-6.60938E-01-1.89440E-02 1.84443E+00 1.23516E-13-2.64992E-14
 -1      2734 2.27123E+01-1.40402E+00 2.58382E-02 1.27554E+00 2.11952E-13-8.84804E-14
 -1      2735 2.31095E+01-1.79541E+00-1.36020E-02 9.68483E-01 1.61048E-13 4.17687E-14
 -1      2736 2.18897E+01-1.45204E+00-3.00594E-02 1.73633E+00 1.52024E-13-8.73216E-15
 -1      2737 2.38442E+01-2.11287E+00 3.21166E-02 5.84791E-01 7.15168E-14 3.63789E-14
 -1      2738 2.42752E+01-2.36449E+00-1.54055E-02 1.05541E-01 3.40943E-14 1.37123E-13
 -1      2739 2.30132E+01-2.36844E+00-5.40024E-02 1.26342E+00 1.64298E-13-1.05363E-15
 -1      2740 2.51756E+01-2.41545E+00 2.52959E-02-6.12709E-01-1.28985E-14 1.74345E-13
 -1      2741 2.54948E+01-2.14688E+00-9.31613E-03-1.20831E+00 7.15651E-14 2.63841E-13
 -1      2742 2.46657E+01-2.98326E+00-6.62442E-02 2.27037E-01 3.12302E-14 2.76337E-13
 -1      2743 2.60997E+01-1.58273E+00-7.33738E-02-2.00462E+00 1.21188E-14 2.46187E-13
 -1      2744 2.60942E+01-4.73012E-01-1.13413E-02-2.40417E+00-9.87474E-14 2.45729E-13
 -1      2745 2.62755E+01-2.36699E+00-2.09574E-02-1.22946E+00-8.38218E-15 2.70282E-13
 -1      2746 2.72059E+01 1.97862E+00-1.41448E-01-2.55077E+00-1.77698E-13 1.78538E-14
 -1      2747 2.70076E+01 3.54803E+00-1.36357E-01-2.20793E+00-2.02990E-13-6.20198E-14
 -1      2748 2.62535E+01 4.46841E+00-1.58617E-01-1.09625E+00-1.83437E-13-1.01839E-13
 -1      2749 2.62712E+01 4.72197E+00-1.30225E-01 9.28967E-02-3.45390E-13 2.43711E-14
 -1      2750 2.62812E+01 4.22133E+00-1.44011E-01 1.20976E+00-3.36772E-13-1.04555E-13
 -1      2751 2.64615E+01 2.25506E+00-5.42678E-02 2.24953E+00-4.54359E-13-2.06744E-14
 -1      2752 2.66402E+01 7.09628E-01-1.06501E-01 2.44002E+00-3.62377E-13-4.39371E-14
 -1      2753 2.51849E+01-2.32267E+00-2.07380E-02 7.36626E-01 2.26489E-13 1.11889E-13
 -1      2754 2.48218E+01-2.47257E+00 1.78543E-02 1.24970E-01 2.36597E-13 1.81377E-13
 -1      2755 2.39533E+01-2.34954E+00-1.69320E-02-5.27973E-01 3.19904E-13 1.34901E-13
 -1      2756 2.35137E+01-2.06103E+00 3.11382E-02-1.00182E+00 3.05903E-13 1.62203E-13
 -1      2757 2.43224E+01-2.91415E+00-2.80012E-02-7.04782E-01 2.91623E-13 1.73790E-13
 -1      2758 2.28034E+01-1.71418E+00-1.30601E-02-1.35683E+00 1.40938E-13 1.38430E-13
 -1      2759 2.24009E+01-1.31816E+00 2.34470E-02-1.64332E+00 2.20592E-14 1.46844E-13
 -1      2760 2.27454E+01-2.28011E+00-4.74035E-02-1.67367E+00 1.98450E-13 3.40103E-14
 -1      2761 2.19256E+01-9.68031E-01-4.68332E-03-1.77467E+00-1.06683E-13 1.55019E-13
 -1      2762 2.16028E+01-6.38745E-01 1.45246E-02-1.90379E+00 1.56584E-14 8.48917E-14
 -1      2763 2.16698E+01-1.34831E+00-2.99893E-02-2.07551E+00-5.34787E-14-1.32782E-13
 -1      2764 2.13169E+01-3.67498E-01-1.61439E-04-1.90880E+00 5.06357E-14 1.88563E-13
 -1      2765 2.10702E+01-1.30144E-01 8.36454E-03-1.92650E+00 6.08580E-14 2.06309E-13
 -1      2766 2.09902E+01-5.75340E-01-1.77991E-02-2.15422E+00 1.97532E-14-1.27146E-13
 -1      2767 2.09086E+01 5.91911E-02 1.86828E-03-1.85783E+00-1.72977E-14 1.13346E-13
 -1      2768 2.07198E+01 2.20636E-01 4.44078E-03-1.80055E+00-9.38693E-14-2.70676E-14
 -1      2769 2.05973E+01-1.90798E-02-8.85638E-03-2.05504E+00-1.24101E-13-2.05624E-13
 -1      2770 2.06264E+01 3.53914E-01 2.02832E-03-1.68880E+00-1.38705E-13-1.65185E-14
 -1      2771 2.04812E+01 4.69587E-01 2.66770E-03-1.57750E+00-2.18901E-13 4.95450E-14
 -1      2772 2.03758E+01 3.61397E-01-4.40608E-03-1.85485E+00-1.29532E-13-2.44192E-13
 -1      2773 1.98901E+01 1.19368E-01-2.13243E-04-6.97813E-02 1.65726E-13-1.94498E-13
 -1      2774 1.99248E+01 1.70659E-01 4.95512E-03-1.42749E-02 1.67296E-13-1.88839E-13
 -1      2775 1.98447E+01-1.33543E-02 3.59739E-04-1.88539E-01 3.44474E-14-1.37855E-13
 -1      2776 1.98351E+01-3.34288E-03 8.72631E-04-1.86577E-01 4.53004E-14-1.58430E-13
 -1      2777 1.98587E+01-2.40832E-02 4.20904E-04-1.85216E-01 1.07185E-13-1.15562E-13
 -1      2778 1.98439E+01-1.99298E-02 2.83082E-04-1.88656E-01 6.43789E-14-1.31415E-13
 -1      2779 1.99234E+01-1.77416E-02-9.21578E-04-1.93599E-01 5.28977E-14-1.31557E-13
 -1      2780 1.98790E+01-2.61698E-02 4.79820E-04-1.75548E-01 1.19727E-13-7.25646E-14
 -1      2781 1.98615E+01-2.61365E-02-8.77579E-05-1.81130E-01 1.06235E-13-9.16186E-14
 -1      2782 1.99259E+01-2.93811E-02-6.42949E-04-1.91414E-01 8.22365E-14-1.02647E-13
 -1      2783 1.99034E+01-2.20183E-02 5.53465E-04-1.64877E-01 1.04339E-13-4.58453E-14
 -1      2784 1.98842E+01-2.49807E-02-3.09970E-04-1.70258E-01 1.46345E-13-2.70346E-14
 -1      2785 1.99349E+01-3.06074E-02-4.57758E-04-1.83125E-01 1.12963E-13-4.79022E-14
 -1      2786 1.99306E+01-1.31595E-02 6.52419E-04-1.57156E-01 9.74469E-14-6.64423E-14
 -1      2787 1.99103E+01-1.84113E-02-4.33802E-04-1.60594E-01 1.09883E-13-5.17425E-14
 -1      2788 1.99484E+01-2.42535E-02-3.46941E-04-1.74275E-01 1.11461E-13-1.21688E-14
 -1      2789 1.99605E+01-5.17676E-04 7.83853E-04-1.55432E-01 5.80279E-16-8.90676E-14
 -1      2790 1.99389E+01-7.64435E-03-4.95597E-04-1.55569E-01 6.13727E-14-6.11012E-14
 -1      2791 1.99653E+01-1.21162E-02-2.93710E-04-1.69014E-01 7.85145E-14 3.78419E-14
 -1      2792 1.99936E+01 1.53977E-02 9.52499E-04-1.62189E-01-5.40546E-14-7.95792E-14
 -1      2793 1.99702E+01 6.61418E-03-5.21354E-04-1.57898E-01-4.23763E-14-8.85507E-14
 -1      2794 1.99851E+01 4.72655E-03-2.84312E-04-1.70579E-01 1.64634E-14 8.96443E-15
 -1      2795 2.00312E+01 3.43267E-02 1.16032E-03-1.79575E-01 6.88515E-14-1.28563E-13
 -1      2796 2.00048E+01 2.39927E-02-5.29153E-04-1.69865E-01-4.68974E-15-9.55913E-14
 -1      2797 2.00080E+01 2.56780E-02-3.07727E-04-1.81629E-01 1.23858E-14-5.62813E-14
 -1      2798 2.00748E+01 5.60916E-02 1.40544E-03-2.09521E-01 3.71443E-14-1.17415E-13
 -1      2799 2.00443E+01 4.42910E-02-5.30505E-04-1.93498E-01 6.97919E-14-1.17897E-13
 -1      2800 2.00345E+01 5.04104E-02-3.55203E-04-2.04473E-01 3.81518E-14-8.36549E-14
 -1      2801 2.01265E+01 8.04010E-02 1.68019E-03-2.53749E-01 4.71015E-14-1.15036E-13
 -1      2802 2.00903E+01 6.73024E-02-5.30945E-04-2.30631E-01 7.69829E-14-7.25884E-14
 -1      2803 2.00657E+01 7.86452E-02-4.19830E-04-2.41172E-01 5.73178E-14-2.22100E-14
 -1      2804 2.01885E+01 1.06593E-01 1.96817E-03-3.13651E-01 6.79941E-15-9.63408E-14
 -1      2805 2.01451E+01 9.25931E-02-5.29379E-04-2.82852E-01 1.99705E-14-1.03833E-13
 -1      2806 2.01027E+01 1.09888E-01-4.97347E-04-2.93534E-01 2.63711E-14 3.35420E-16
 -1      2807 2.02636E+01 1.33279E-01 2.24048E-03-3.89998E-01 8.99202E-15-8.10119E-14
 -1      2808 2.02111E+01 1.19202E-01-5.16035E-04-3.51308E-01-1.74276E-14-1.38562E-13
 -1      2809 2.01471E+01 1.43077E-01-5.87495E-04-3.62965E-01 4.16209E-14-5.12227E-14
 -1      2810 2.03547E+01 1.57852E-01 2.45097E-03-4.82432E-01 3.11312E-14-1.52380E-13
 -1      2811 2.02914E+01 1.45224E-01-4.68798E-04-4.36313E-01 7.52449E-14-9.12561E-14
 -1      2812 2.02009E+01 1.76107E-01-6.97400E-04-4.50150E-01 6.33651E-15-4.97881E-14
 -1      2813 2.04650E+01 1.75819E-01 2.53070E-03-5.88681E-01-1.21651E-14-4.26385E-14
 -1      2814 2.03893E+01 1.67239E-01-3.47296E-04-5.36726E-01-7.78750E-15-1.05501E-13
 -1      2815 2.02665E+01 2.05167E-01-8.47703E-04-5.54525E-01 2.93635E-14-1.20001E-14
 -1      2816 2.05984E+01 1.79961E-01 2.38180E-03-7.03416E-01-1.09707E-13 2.19940E-14
 -1      2817 2.05088E+01 1.79554E-01-8.47898E-05-6.48993E-01-3.09074E-14-2.74628E-14
 -1      2818 2.03475E+01 2.23871E-01-1.08214E-03-6.73474E-01-5.23365E-14 8.62341E-14
 -1      2819 2.07601E+01 1.59435E-01 1.87154E-03-8.16700E-01-8.49343E-14-8.85219E-14
 -1      2820 2.06553E+01 1.73314E-01 4.20500E-04-7.65803E-01-1.04385E-13 2.72900E-14
 -1      2821 2.04492E+01 2.22207E-01-1.47954E-03-8.01182E-01-9.83470E-14 8.16383E-14
 -1      2822 2.09569E+01 9.92185E-02 8.28271E-04-9.12030E-01-1.13857E-13 1.50831E-15
 -1      2823 2.08361E+01 1.35694E-01 1.30877E-03-8.74287E-01-6.08207E-14-2.63378E-14
 -1      2824 2.05800E+01 1.85503E-01-2.16320E-03-9.27075E-01-8.16791E-14 1.52593E-13
 -1      2825 2.11981E+01-1.91195E-02-9.55910E-04-9.64186E-01-7.20025E-14-1.19528E-14
 -1      2826 2.10609E+01 4.98266E-02 2.74153E-03-9.53788E-01-5.68886E-14 1.53602E-14
 -1      2827 2.07527E+01 9.40471E-02-3.29269E-03-1.03376E+00-8.83151E-14 1.19286E-13
 -1      2828 2.14954E+01-2.13382E-01-3.69765E-03-9.37532E-01 5.88787E-15-9.29763E-15
 -1      2829 2.13427E+01-1.03163E-01 4.83271E-03-9.73548E-01 8.15209E-15-8.46908E-15
 -1      2830 2.09863E+01-7.52334E-02-5.00651E-03-1.09451E+00-3.42533E-14 6.43428E-15
 -1      2831 2.18592E+01-4.90255E-01-7.54573E-03-7.86428E-01-1.07754E-13-1.30762E-13
 -1      2832 2.16955E+01-3.37440E-01 7.47952E-03-8.91293E-01-7.98399E-14-8.77278E-14
 -1      2833 2.13061E+01-3.42310E-01-7.25898E-03-1.07060E+00-1.21379E-14 4.23454E-14
 -1      2834 2.22896E+01-8.23984E-01-1.21976E-02-4.60955E-01-1.91028E-13-2.45858E-13
 -1      2835 2.21268E+01-6.47447E-01 9.98802E-03-6.55045E-01-1.44411E-13-2.21199E-13
 -1      2836 2.17394E+01-7.08783E-01-9.52480E-03-9.09839E-01-7.38797E-14-1.26223E-13
 -1      2837 2.27565E+01-1.12443E+00-1.64677E-02 7.29221E-02-7.15281E-14-4.77756E-14
 -1      2838 2.26198E+01-9.80532E-01 1.03190E-02-2.15093E-01-2.00401E-13-1.95495E-13
 -1      2839 2.22995E+01-1.12673E+00-1.02170E-02-5.50303E-01-2.27521E-13-1.97345E-13
 -1      2840 2.31824E+01-1.20763E+00-1.33780E-02 7.90374E-01-1.46390E-14 2.31542E-14
 -1      2841 2.31042E+01-1.20434E+00 4.96876E-03 4.41804E-01-1.44240E-14 7.70399E-14
 -1      2842 2.29527E+01-1.45832E+00-7.37485E-03 5.55649E-02-1.29912E-13-1.57661E-13
 -1      2843 2.34307E+01-8.63097E-01-2.14035E-03 1.52384E+00-6.49077E-14-1.91657E-14
 -1      2844 2.34404E+01-1.10865E+00-8.01541E-03 1.21459E+00 6.09170E-14 2.68290E-14
 -1      2845 2.35631E+01-1.45024E+00-6.84379E-04 8.82353E-01 2.16676E-14 3.67098E-14
 -1      2846 2.33435E+01 7.92043E-02 1.04765E-02 1.96201E+00-8.94510E-14-1.14965E-13
 -1      2847 2.34777E+01-4.54830E-01-2.12365E-02 1.87966E+00-1.12343E-13-8.12909E-14
 -1      2848 2.39634E+01-9.00106E-01 1.08959E-02 1.72954E+00-3.77086E-14-4.12066E-14
 -1      2849 2.30009E+01 1.30529E+00 1.71385E-02 1.69301E+00-8.31106E-15-1.22007E-13
 -1      2850 2.31697E+01 6.69215E-01-3.72040E-02 1.94683E+00-6.66303E-14-1.16945E-13
 -1      2851 2.38984E+01 5.04716E-01-3.88215E-03 2.15018E+00-6.41882E-14-2.48952E-13
 -1      2852 2.26242E+01 2.12626E+00-1.71623E-02 6.38789E-01 2.90427E-14-1.59218E-13
 -1      2853 2.27473E+01 1.79907E+00-3.83728E-02 1.18515E+00 3.63772E-15-8.23074E-14
 -1      2854 2.35514E+01 1.89484E+00-4.04862E-04 1.61052E+00-2.69125E-14-2.22065E-13
 -1      2855 2.26722E+01 1.95847E+00-2.68619E-02-7.78022E-01 2.96915E-14-1.30499E-13
 -1      2856 2.26340E+01 2.20670E+00 5.55111E-04-1.88860E-01 8.96748E-14-1.56101E-13
 -1      2857 2.32503E+01 2.71451E+00-1.15951E-02 2.31934E-01 2.91035E-14-1.52898E-13
 -1      2858 2.30039E+01 9.10505E-01-4.56327E-02-1.68979E+00 2.13588E-14 1.18890E-14
 -1      2859 2.28871E+01 1.52337E+00 1.90173E-02-1.36346E+00 7.82360E-16-1.92717E-15
 -1      2860 2.34567E+01 2.15765E+00-1.53003E-02-1.21141E+00-5.00433E-14-2.12501E-13
 -1      2861 2.33455E+01-2.95259E-01-3.19074E-02-1.76151E+00 1.15888E-13 1.25146E-13
 -1      2862 2.32395E+01 2.96703E-01 1.61160E-02-1.80352E+00 7.91910E-14 7.32656E-14
 -1      2863 2.37917E+01 7.33003E-01 7.95044E-04-1.92951E+00-2.30996E-14-1.75722E-13
 -1      2864 2.33626E+01-1.06446E+00-1.07807E-02-1.17811E+00-8.35705E-14-5.25593E-14
 -1      2865 2.33421E+01-7.45617E-01-9.77852E-04-1.46963E+00 1.08466E-13 1.90081E-13
 -1      2866 2.39239E+01-6.56810E-01 1.03203E-02-1.65532E+00 7.02364E-14 7.20344E-15
 -1      2867 2.30409E+01-1.26767E+00 5.66569E-03-3.68158E-01-1.02690E-13-6.97924E-14
 -1      2868 2.31228E+01-1.22911E+00-1.15927E-02-7.33086E-01-1.32969E-13-2.22141E-14
 -1      2869 2.36097E+01-1.43674E+00 7.57416E-03-8.35672E-01-8.85423E-14 6.94956E-14
 -1      2870 2.25300E+01-1.08767E+00 1.04647E-02 3.53984E-01 6.87149E-14-2.17915E-13
 -1      2871 2.26858E+01-1.21549E+00-1.49111E-02 3.56956E-02-8.94983E-14-2.27556E-13
 -1      2872 2.29923E+01-1.55945E+00-4.41381E-03 4.35547E-02-4.34071E-14-2.23820E-13
 -1      2873 2.19889E+01-7.48858E-01 1.03720E-02 8.60524E-01 2.32823E-13-3.64323E-13
 -1      2874 2.21780E+01-9.33504E-01-1.26950E-02 6.37520E-01 2.21536E-13-2.88860E-13
 -1      2875 2.23047E+01-1.26355E+00-1.03578E-02 7.27328E-01 1.88187E-13-4.50596E-13
 -1      2876 2.15015E+01-3.98526E-01 8.52781E-03 1.14360E+00 4.81388E-14-2.09028E-13
 -1      2877 2.16948E+01-5.75828E-01-8.43205E-03 1.02012E+00 1.00932E-13-3.01746E-13
 -1      2878 2.16971E+01-8.23397E-01-9.87714E-03 1.15340E+00 1.71957E-13-2.42780E-13
 -1      2879 2.10917E+01-9.65350E-02 6.59486E-03 1.23996E+00-5.54542E-15 5.09651E-15
 -1      2880 2.12736E+01-2.44787E-01-4.76222E-03 1.20262E+00 5.60804E-15-5.18625E-14
 -1      2881 2.12131E+01-3.98611E-01-8.14622E-03 1.35430E+00-4.73356E-14-2.80761E-13
 -1      2882 2.07575E+01 1.48082E-01 5.66510E-03 1.18958E+00-9.40041E-14 3.23867E-13
 -1      2883 2.09192E+01 2.95890E-02-1.99663E-03 1.22228E+00-6.89291E-14 3.26621E-13
 -1      2884 2.08440E+01-3.88719E-02-5.36283E-03 1.38117E+00-2.27758E-13 1.39523E-15
 -1      2885 2.04849E+01 3.47434E-01 4.82168E-03 1.07012E+00 1.65791E-13 5.31177E-13
 -1      2886 2.06257E+01 2.47691E-01 1.38010E-04 1.15978E+00 5.29201E-14 2.87061E-13
 -1      2887 2.05591E+01 2.43690E-01-3.95870E-03 1.31725E+00-6.50894E-14 2.26395E-13
 -1      2888 2.03414E+01 4.92159E-01-2.82749E-03 1.20567E+00-7.99502E-15 1.52335E-13
 -1      2889 1.90402E+01 1.68259E+00-8.09944E-03 3.55781E-01-1.09145E-13 1.10944E-13
 -1      2890 1.91230E+01 1.62654E+00 7.96789E-04 5.96757E-01-1.71012E-13 1.83455E-13
 -1      2891 2.04457E+01 5.41195E-01 2.97735E-03-1.48217E+00-1.99451E-13-8.69096E-16
 -1      2892 2.03604E+01 6.04268E-01 2.23725E-03-1.38204E+00-2.09129E-13 1.65806E-13
 -1      2893 2.02641E+01 5.95071E-01-2.87405E-03-1.63655E+00-1.85221E-13-2.80913E-13
 -1      2894 1.95191E+01 1.24841E+00-8.65468E-03 1.17514E+00-1.91307E-13-1.43314E-13
 -1      2895 1.96812E+01 1.11943E+00 5.84771E-03 1.27520E+00 1.41680E-14-1.89031E-13
 -1      2896 1.89971E+01 1.73072E+00-4.47593E-03-2.07099E-01 1.04710E-14 4.30482E-13
 -1      2897 1.89988E+01 1.73243E+00-3.59029E-03 5.71793E-02-1.46585E-13 1.78271E-13
 -1      2898 1.88002E+01 1.58946E+00 7.90719E-03 2.41249E-01 1.08140E-14 1.44069E-13
 -1      2899 1.92327E+01 1.50631E+00-9.62638E-03 8.40226E-01-1.90229E-13 1.28790E-13
 -1      2900 1.93720E+01 1.40471E+00 4.21936E-03 1.02018E+00-1.42226E-13 8.46277E-14
 -1      2901 1.93208E+01 1.17047E+00 1.41209E-03 1.21953E+00-2.07161E-13-4.68783E-14
 -1      2902 1.89941E+01 1.42958E+00 5.28151E-03 8.08112E-01 1.66751E-14 1.24032E-13
 -1      2903 1.61103E+01-4.45993E+00-4.44714E-02 6.48710E+00-2.85466E-14-3.85567E-13
 -1      2904 1.30754E+01-3.23501E+00 1.77872E-01 6.02889E+00-6.46566E-14-2.77209E-13
 -1      2905 1.91176E+01 1.63858E+00 1.48995E-04-7.41196E-01 4.76705E-14-2.21667E-13
 -1      2906 1.90365E+01 1.69679E+00-7.38481E-03-5.02821E-01 4.39362E-14 2.62901E-13
 -1      2907 1.87970E+01 1.60445E+00 8.22891E-03-3.81786E-01 5.12788E-14 3.82255E-13
 -1      2908 1.93807E+01 1.42216E+00 3.94965E-03-1.17111E+00 1.08895E-13-8.25292E-14
 -1      2909 1.92316E+01 1.52975E+00-9.33444E-03-9.90492E-01 1.54019E-13-3.41163E-13
 -1      2910 1.89896E+01 1.47169E+00 5.96885E-03-9.52154E-01-3.47985E-14-1.63649E-13
 -1      2911 1.97288E+01 1.12687E+00 4.06968E-03-1.41917E+00 1.85486E-14 9.07080E-14
 -1      2912 1.95489E+01 1.26800E+00-8.20055E-03-1.32989E+00 1.16762E-13 2.77069E-13
 -1      2913 1.93400E+01 1.22648E+00 1.96455E-03-1.37492E+00 1.53905E-13 3.49387E-14
 -1      2914 1.99595E+01 2.31502E-01-6.11086E-04 6.46417E-02 1.50329E-13-2.03280E-13
 -1      2915 2.00240E+01 3.14672E-01 7.49037E-03 1.61972E-01 1.50567E-13-1.87666E-13
 -1      2916 2.01456E+01 4.78907E-01-1.26424E-03 2.82211E-01 1.52881E-13-2.49783E-13
 -1      2917 2.00558E+01 2.67714E-01-2.12520E-03 6.26597E-02 1.50316E-13-2.27932E-13
 -1      2918 2.81280E+01-2.92920E+00-1.31644E-01 5.58968E-01-1.54040E-13-4.87652E-13
 -1      2919 2.63446E+01-4.35361E+00 2.58795E-02 2.17804E+00-1.77292E-13-6.65079E-13
 -1      2920 2.03190E+01 1.70944E+00-9.82717E-03-1.33344E+00-3.31630E-13-8.48724E-14
 -1      2921 2.02862E+01 1.32783E+00-7.06025E-03-1.03638E+00-3.03207E-13-7.25346E-14
 -1      2922 2.03364E+01 1.50006E+00-1.89574E-03 1.26871E+00 2.82356E-13-2.57017E-13
 -1      2923 2.81072E+01 3.47735E-01-8.39068E-02 1.78841E+00-1.92554E-13-3.85941E-14
 -1      2924 2.83253E+01 2.40010E+00-1.70565E-01 2.10926E+00-1.19904E-13-7.86177E-14
 -1      2925 1.33311E+01-3.48525E+00 1.89382E-02 6.02276E+00 2.59556E-13-5.29937E-13
 -1      2926 1.03407E+01-2.25585E+00 1.78593E-01 4.96599E+00 2.53894E-13-6.07236E-13
 -1      2927 1.98411E+01 9.72112E-03 2.67632E-04-1.78103E-01 6.28601E-14-1.83003E-13
 -1      2928 1.98403E+01 2.82822E-02 1.78407E-03-1.66093E-01 8.85873E-14-1.86499E-13
 -1      2929 1.99304E+01 8.67284E-03-1.31051E-03-1.82086E-01 5.74844E-14-1.31327E-13
 -1      2930 1.98536E+01 5.08985E-02 9.86904E-05-1.43442E-01 1.17494E-13-1.85678E-13
 -1      2931 1.98672E+01 8.22578E-02 3.14070E-03-1.14608E-01 1.46315E-13-1.73468E-13
 -1      2932 1.99512E+01 5.66027E-02-1.80917E-03-1.46330E-01 1.13743E-13-1.55483E-13
 -1      2933 2.03177E+01 1.03561E+00 5.04340E-03-8.35383E-01-2.70581E-13-6.26774E-14
 -1      2934 2.02239E+01 7.98585E-01-5.16484E-03-5.95096E-01-2.42119E-13-6.01329E-14
 -1      2935 2.02614E+01 8.78475E-01 2.17032E-03-5.55970E-01-2.31649E-13-8.66289E-14
 -1      2936 2.02793E+01 1.38574E+00 1.92401E-03-9.21576E-01-2.77344E-13-1.23532E-13
 -1      2937 2.79977E+01 4.22244E+00-1.36918E-01 2.02370E+00-4.51306E-14-7.27751E-14
 -1      2938 2.74595E+01 5.53852E+00-1.86872E-01 1.18159E+00 7.72160E-14-9.12465E-14
 -1      2939 2.67330E+01 2.73115E+00-7.91588E-02 2.21907E+00-9.53265E-14-7.05894E-14
 -1      2940 1.99259E+01 2.59539E+00-7.92757E-03 7.95738E-01 1.45849E-13-4.32953E-13
 -1      2941 1.98828E+01 2.68746E+00-6.13033E-03 6.46555E-01 9.17132E-14-4.50356E-13
 -1      2942 2.00019E+01 2.38791E+00 4.36245E-03 5.17711E-01 7.11846E-14-4.17648E-13
 -1      2943 2.00825E+01 2.19032E+00 5.73609E-03 7.47006E-01 1.40561E-13-3.95342E-13
 -1      2944 1.98777E+01 2.69643E+00-6.01374E-03-6.36003E-01-2.05432E-13-3.97403E-13
 -1      2945 1.99204E+01 2.60674E+00-7.56246E-03-7.85282E-01-2.28069E-13-3.62072E-13
 -1      2946 2.92067E+01-1.94505E+00-5.33035E-03 4.66593E-01-1.47320E-13 1.62814E-13
 -1      2947 2.97478E+01-2.09604E-01-1.62605E-01 1.31372E+00-1.36974E-13 3.47056E-13
 -1      2948 2.86749E+01 3.67353E-01-7.01398E-02 1.97989E+00-3.19050E-13 4.60174E-13
 -1      2949 2.88204E+01 4.80972E+00-2.04609E-01-1.60061E+00 4.63518E-15-2.66093E-13
 -1      2950 2.90775E+01 3.34048E+00-1.16413E-01-1.89277E+00-6.93334E-14-2.70076E-13
 -1      2951 2.03796E+01-5.14707E+00-8.60326E-03 5.30611E+00 2.04725E-13-2.34326E-14
 -1      2952 1.70985E+01-4.38567E+00 1.53687E-01 5.91934E+00 3.19716E-13-1.99160E-13
 -1      2953 2.89289E+01-1.51535E+00-1.89003E-01-1.27224E+00-3.55618E-13 3.86080E-14
 -1      2954 2.84078E+01-3.15251E+00 2.77005E-02 1.91319E-01-2.95420E-13 2.31232E-13
 -1      2955 1.55786E+01-4.04377E+00 1.47787E-01-6.21822E+00-2.20657E-13 1.96523E-13
 -1      2956 1.88795E+01-5.01611E+00-4.36909E-02-5.98122E+00-1.82840E-13 1.50088E-13
 -1      2957 9.70948E+00-1.96843E+00 1.45034E-01-4.80332E+00-4.04565E-13-5.11979E-13
 -1      2958 1.22879E+01-3.13777E+00 7.20576E-02-6.08059E+00-2.88755E-13-1.81855E-13
 -1      2959 2.23724E+01-5.11401E+00 1.13086E-01-4.60095E+00-1.18239E-13 1.61753E-13
 -1      2960 2.48201E+01-5.02202E+00-1.17388E-01-3.26590E+00-7.39131E-14 1.02439E-13
 -1      2961 2.68948E+01-3.85368E+00 3.56036E-02-1.38658E+00 2.31568E-14 2.02283E-13
 -1      2962 2.79100E+01-2.18909E+00-1.20875E-01 4.13638E-01-7.61891E-15 3.42198E-13
 -1      2963 7.83432E+00-1.55328E+00 9.24506E-02 3.73227E+00 1.39472E-13-6.76459E-13
 -1      2964 6.73803E+00-1.00458E+00 1.97402E-01 2.08578E+00 4.53040E-14-6.09401E-13
 -1      2965 2.54356E+01-5.06517E+00 4.11877E-02-3.16939E+00 1.02821E-13-2.72171E-13
 -1      2966 2.77331E+01-4.02035E+00-1.30423E-01-1.42420E+00-4.52416E-15-6.28664E-14
 -1      2967 2.00853E+01 2.52639E+00-2.10810E-03-1.45915E+00-3.46061E-13-1.84111E-13
 -1      2968 6.27158E+00-1.07835E+00 1.12944E-01 1.31849E+00-1.38778E-14 4.45421E-13
 -1      2969 6.20180E+00-1.09002E+00 1.50228E-01-1.14430E+00-3.64014E-14 6.32383E-13
 -1      2970 2.02029E+01 7.49584E-01 7.11400E-04-1.43070E+00-2.41524E-13-3.98368E-15
 -1      2971 1.27817E+01-3.46594E+00 1.64271E-01-6.03852E+00 3.22603E-13-2.15869E-13
 -1      2972 1.57264E+01-4.52444E+00 2.33230E-02-6.50704E+00 3.03035E-13-5.12909E-13
 -1      2973 1.88516E+01-5.17511E+00 1.03819E-01-6.01303E+00 1.88266E-13-6.74731E-13
 -1      2974 2.20810E+01-5.46736E+00-2.14047E-02-5.02704E+00 1.33143E-13-5.67799E-13
 -1      2975 1.82700E+01-4.34637E+00 1.24758E-01-5.69790E+00 3.40047E-13-5.72695E-13
 -1      2976 7.17424E+00-1.63544E+00 1.57617E-01-3.14412E+00 2.23328E-13 5.70238E-13
 -1      2977 9.42334E+00-2.50912E+00 7.45256E-02-5.12318E+00 1.76442E-13 1.34864E-13
 -1      2978 2.92829E+01 1.29384E+00-1.89211E-01-1.54688E+00-1.55487E-13-2.22891E-13
 -1      2979 2.90119E+01-6.11355E-01-2.74846E-02-9.09591E-01-1.94414E-13-4.38261E-13
 -1      2980 2.76189E+01 6.33461E+00-1.87759E-01 7.11218E-02 3.15026E-14-1.47519E-13
 -1      2981 2.84479E+01 5.94120E+00-1.58318E-01-1.00198E+00-2.86993E-14-2.65649E-13
 -1      2982 2.71857E+01 4.70416E+00-1.02175E-01-1.40518E+00-1.11702E-13-3.61919E-13
 -1      2983 1.99745E+01 2.48900E+00-5.42686E-03-9.03117E-01-2.38529E-13-3.11201E-13
 -1      2984 2.00346E+01 2.35959E+00-6.73585E-03-1.03757E+00-2.68793E-13-2.80184E-13
 -1      2985 2.00757E+01 2.20441E+00 5.96188E-03-7.40715E-01-2.16750E-13-3.08796E-13
 -1      2986 1.99373E+01 2.53805E+00 3.45138E-03 4.62286E-03-6.73311E-14-3.95181E-13
 -1      2987 1.97981E+01 2.86940E+00-5.48798E-03-6.19895E-02-9.05300E-14-4.19835E-13
 -1      2988 1.98055E+01 2.85477E+00-5.53534E-03-2.16901E-01-1.35615E-13-4.09633E-13
 -1      2989 8.90456E+00-5.41692E-01 1.92543E-01 2.03943E+00-1.22562E-13 4.22606E-13
 -1      2990 1.90811E+01-4.28622E+00 1.31406E-01 5.46792E+00-4.89608E-14-4.23855E-13
 -1      2991 1.28273E+01-2.12359E+00 1.67805E-01 5.06991E+00-2.28553E-13-1.05083E-13
 -1      2992 2.57498E+01-4.06496E+00-2.83623E-02 1.40451E+00-9.38728E-14-4.44873E-13
 -1      2993 2.51079E+01-4.86966E+00 2.02448E-02 2.91659E+00-4.23342E-14-5.90264E-13
 -1      2994 2.35336E+01-4.72382E+00 2.49560E-02 3.47673E+00-2.07022E-14-6.05137E-13
 -1      2995 2.82708E+01 1.11887E+00-1.20103E-01-2.42067E+00-2.63720E-13-9.90180E-14
 -1      2996 2.73381E+01-8.79877E-02-8.40163E-02 2.20483E+00-1.90369E-13 3.17177E-13
 -1      2997 2.59421E+01-8.30555E-01-1.14303E-02 2.07379E+00 3.63598E-15 3.97963E-14
 -1      2998 2.58174E+01-1.76829E+00-4.75578E-02 1.61555E+00 2.70965E-13 9.39622E-14
 -1      2999 2.75947E+01-1.68493E+00-1.16498E-01 1.64302E+00-1.33608E-14 4.10026E-13
 -1      3000 2.71778E+01 3.39621E+00-1.78768E-01 2.01871E+00-3.91756E-13 2.92474E-14
 -1      3001 1.97021E+01 8.78346E-01-1.53159E-03 1.43407E+00-1.68556E-13-7.28050E-14
 -1      3002 1.98362E+01 9.61436E-01-6.07925E-03 1.33330E+00-1.00209E-13-2.16615E-13
 -1      3003 1.99911E+01 8.24124E-01 4.93774E-03 1.35058E+00-2.29604E-13-1.70031E-13
 -1      3004 1.99914E+01 1.36507E-01-2.30677E-03-7.15424E-02 1.57672E-13-1.97251E-13
 -1      3005 2.64037E+01 5.08619E+00-9.64230E-02 6.81608E-01 2.31482E-14-2.11792E-13
 -1      3006 1.24374E+01-2.38970E+00 1.59875E-01-5.19741E+00 4.42729E-13-2.58918E-13
 -1      3007 2.01096E+01 7.15314E-01-3.32457E-03 1.32558E+00-1.92109E-13-4.11188E-13
 -1      3008 2.02437E+01 5.84577E-01 4.22760E-03 1.27393E+00-2.09870E-14-1.43887E-13
 -1      3009 2.03315E+01 4.52567E-01 1.11063E-03 1.35329E+00-7.22822E-14-1.80130E-13
 -1      3010 2.00558E+01 6.35105E-01 7.86362E-05 1.45662E+00-1.33579E-13-3.60410E-13
 -1      3011 2.80729E+01 1.84805E+00-9.33601E-02-1.96070E+00-1.89793E-13-3.52635E-13
 -1      3012 2.00361E+01 9.11460E-01-5.96603E-04-1.43714E+00-1.93632E-13-1.98671E-13
 -1      3013 2.41139E+01-5.32182E+00 2.18689E-02-3.78144E+00 9.80743E-14-2.52083E-13
 -1      3014 2.52825E+01-4.71293E+00-1.53453E-02-2.23215E+00 8.66668E-14 7.23310E-14
 -1      3015 2.26265E+01-4.82243E+00 9.24716E-02-4.17674E+00 7.72299E-15-2.19390E-13
 -1      3016 8.55864E+00-6.94229E-01 1.97456E-01-2.02828E+00 1.66062E-13 5.01682E-13
 -1      3017 1.07113E+01-1.38619E+00 1.73991E-01 4.12066E+00 2.88936E-13-5.43385E-13
 -1      3018 2.56300E+01-4.26742E+00 1.77571E-02-1.80497E+00-2.89525E-14 2.28977E-13
 -1      3019 2.11167E+01-4.65717E+00 8.07398E-02-4.72449E+00-2.28165E-13 1.41058E-13
 -1      3020 9.11167E+00-1.17221E+00 1.73641E-01-3.83120E+00-3.09704E-13-5.76761E-13
 -1      3021 1.13609E+01-1.24271E+00 1.21919E-01-4.27978E+00-2.98206E-13-4.10505E-13
 -1      3022 8.70526E+00-4.72041E-01 7.66943E-02-2.49503E+00-2.39253E-13-4.87083E-13
 -1      3023 2.71619E+01-3.93205E+00 6.18747E-02 8.65025E-01-4.58522E-14 1.55626E-13
 -1      3024 1.51231E+01-3.12853E+00 1.28696E-01-5.68274E+00-3.27821E-13 2.60070E-14
 -1      3025 2.02896E+01 1.58742E+00-1.18607E-03 1.16760E+00 2.59069E-13-3.03026E-13
 -1      3026 2.76440E+01-1.21154E+00-7.51030E-02 1.40824E+00-1.43743E-13-6.08680E-14
 -1      3027 2.64911E+01-1.63911E-01-8.22500E-02 2.09583E+00-1.41977E-13-2.71949E-13
 -1      3028 2.66997E+01-2.19775E+00 4.01445E-02 8.15523E-01-1.79405E-14-4.23966E-15
 -1      3029 1.62294E+01-3.38338E+00 1.39846E-01 5.43551E+00 3.27932E-13-1.83541E-13
 -1      3030 2.59584E+01-2.45887E+00-1.70160E-02 8.67169E-01 1.52427E-13 3.83424E-13
 -1      3031 2.01447E+01 2.17274E+00 5.15678E-04-1.20838E+00-3.03777E-13-2.10595E-13
 -1      3032 7.68899E+00-4.55934E-01 1.82735E-01 7.12858E-01 5.08413E-14-4.15029E-13
 -1      3033 2.24137E+01-5.16310E+00 8.58591E-02 4.40790E+00 2.88894E-13-2.94773E-15
 -1      3034 2.10993E+01-4.50951E+00 9.59333E-02 4.53199E+00 3.12181E-13-3.02536E-15
 -1      3035 2.38375E+01-5.11251E+00-8.86717E-02 3.20579E+00 2.08583E-13 5.59743E-14
 -1      3036 1.98209E+01 2.81927E+00-5.69269E-03-3.52373E-01-1.55477E-13-4.00655E-13
 -1      3037 1.98446E+01 2.77110E+00-6.18340E-03-5.06173E-01-1.91346E-13-4.00675E-13
 -1      3038 1.99978E+01 2.39588E+00 4.47015E-03-5.08505E-01-1.88038E-13-3.83820E-13
 -1      3039 1.99519E+01 2.50402E+00 3.69604E-03-2.56232E-01-1.39494E-13-3.72927E-13
 -1      3040 2.00616E+01 7.38792E-01 1.02439E-03-1.61371E+00-2.90443E-13-3.72458E-13
 -1      3041 1.98636E+01 9.73110E-01-2.70523E-03-1.51103E+00-1.40266E-13-1.85545E-13
 -1      3042 1.97244E+01 9.32454E-01 1.40943E-03-1.61193E+00-1.44755E-13-1.01737E-13
 -1      3043 2.01046E+01 6.53602E-01 3.18971E-03-1.71086E+00-1.55699E-13-3.75501E-13
 -1      3044 2.80486E+01-3.03276E+00-6.43424E-03 3.61996E-02-1.45070E-13 3.11848E-13
 -1      3045 2.78475E+01-1.97403E+00-6.07881E-02-5.49801E-01-2.26597E-13-2.97054E-13
 -1      3046 2.02790E+01 1.36623E+00 2.09198E-03 9.21457E-01 2.25415E-13-3.16075E-13
 -1      3047 2.02411E+01 1.48096E+00-6.14334E-03 8.05428E-01 1.85849E-13-3.39587E-13
 -1      3048 2.02039E+01 1.66915E+00-6.14345E-05 7.48962E-01 1.59955E-13-3.58747E-13
 -1      3049 2.01976E+01 1.89088E+00 1.11575E-03-1.00853E+00-2.62673E-13-2.16031E-13
 -1      3050 2.02221E+01 4.23678E-01 4.06964E-03-1.21637E-01-1.62296E-13-1.21454E-13
 -1      3051 2.01831E+01 3.16371E-01-2.27560E-03-3.64731E-02-1.56120E-13-1.27440E-13
 -1      3052 2.01691E+01 2.33416E-01 3.16416E-03 2.53276E-02-1.69845E-13-1.01024E-13
 -1      3053 2.01392E+01 1.63711E-01-1.25892E-03 7.68444E-02-1.60529E-13-1.29265E-13
 -1      3054 2.02401E+01 3.33698E-01-8.54176E-04-2.70078E-02-1.64284E-13-1.25958E-13
 -1      3055 2.01227E+01 1.10696E-01 2.20993E-03 1.13473E-01-1.36584E-13-1.24161E-13
 -1      3056 2.01021E+01 6.67879E-02-5.63852E-04 1.41678E-01-1.16205E-13-1.18692E-13
 -1      3057 2.01999E+01 1.71310E-01-1.03658E-03 7.68125E-02-1.46699E-13-1.00457E-13
 -1      3058 2.00860E+01 3.42335E-02 1.42587E-03 1.60637E-01-8.04311E-14-1.51256E-13
 -1      3059 2.00732E+01 8.25483E-03-1.02054E-04 1.73512E-01-6.61350E-14-1.30917E-13
 -1      3060 2.01615E+01 6.78748E-02-9.89384E-04 1.36861E-01-1.14733E-13-1.40546E-13
 -1      3061 2.00589E+01-1.00127E-02 8.18594E-04 1.80963E-01-5.45712E-14-1.06260E-13
 -1      3062 2.00521E+01-2.33450E-02 2.01194E-04 1.84519E-01-4.43685E-14-8.13396E-14
 -1      3063 2.01281E+01 5.81347E-03-8.63605E-04 1.66744E-01-3.56454E-14-1.31153E-13
 -1      3064 2.00400E+01-3.14896E-02 3.68249E-04 1.85277E-01-7.97407E-14-4.63572E-14
 -1      3065 2.00376E+01-3.57776E-02 4.03733E-04 1.83962E-01-7.23765E-14-3.53115E-14
 -1      3066 2.01005E+01-2.68371E-02-7.17853E-04 1.77620E-01-2.97087E-14-1.01535E-13
 -1      3067 2.00275E+01-3.66110E-02 3.84783E-05 1.81677E-01-9.31358E-14-1.11983E-14
 -1      3068 2.00284E+01-3.42778E-02 5.46891E-04 1.78784E-01-7.16525E-14-6.92889E-14
 -1      3069 2.00783E+01-3.83539E-02-5.77710E-04 1.78124E-01-6.77482E-14-2.35772E-15
 -1      3070 2.00201E+01-2.96625E-02-2.06657E-04 1.76217E-01-6.64485E-14-6.50092E-14
 -1      3071 2.00235E+01-2.22815E-02 6.59719E-04 1.74228E-01-6.50214E-14-8.76003E-14
 -1      3072 2.00607E+01-3.43554E-02-4.51493E-04 1.74820E-01-8.44191E-14-1.64234E-14
 -1      3073 2.00164E+01-1.33902E-02-3.98562E-04 1.73505E-01-8.81220E-14-8.12713E-14
 -1      3074 2.00219E+01-1.90777E-03 7.62651E-04 1.74352E-01-5.40439E-14-4.35545E-14
 -1      3075 2.00469E+01-1.85247E-02-3.38767E-04 1.72722E-01-5.00454E-14-6.04331E-14
 -1      3076 2.00156E+01 1.05962E-02-5.63450E-04 1.77177E-01-6.20409E-14-4.53774E-14
 -1      3077 2.00227E+01 2.56975E-02 8.69809E-04 1.82452E-01-5.25459E-14-9.51668E-14
 -1      3078 2.00358E+01 6.88832E-03-2.34829E-04 1.75755E-01-8.01542E-14-8.22419E-14
 -1      3079 2.00166E+01 4.15220E-02-7.22575E-04 1.90268E-01-8.69572E-14-8.45717E-14
 -1      3080 2.00252E+01 6.00905E-02 9.90367E-04 2.01367E-01-1.42442E-13-1.18050E-13
 -1      3081 2.00261E+01 4.06917E-02-1.32901E-04 1.87131E-01-7.76595E-14-1.00347E-13
 -1      3082 2.00186E+01 7.91961E-02-8.92921E-04 2.15477E-01-1.11013E-13-5.61750E-14
 -1      3083 2.00287E+01 1.01291E-01 1.12964E-03 2.33700E-01-6.32924E-14-2.46579E-14
 -1      3084 2.00167E+01 8.24465E-02-2.41040E-05 2.09633E-01-8.28358E-14-8.71857E-14
 -1      3085 2.00208E+01 1.23775E-01-1.08775E-03 2.55348E-01-4.49929E-14-1.55840E-14
 -1      3086 2.00324E+01 1.49534E-01 1.28916E-03 2.81953E-01-5.45046E-14-6.01122E-17
 -1      3087 2.00060E+01 1.32188E-01 1.01685E-04 2.45805E-01-3.39076E-14-4.56147E-14
 -1      3088 2.00221E+01 1.75491E-01-1.31589E-03 3.12358E-01-6.11632E-14 1.09019E-14
 -1      3089 2.00353E+01 2.04965E-01 1.46711E-03 3.48564E-01-4.49016E-14-6.80795E-14
 -1      3090 1.99923E+01 1.90121E-01 2.54085E-04 2.98072E-01-7.24046E-14-8.22291E-14
 -1      3091 2.00215E+01 2.34296E-01-1.58072E-03 3.88920E-01-1.72957E-14-1.70556E-14
 -1      3092 2.00361E+01 2.67221E-01 1.66040E-03 4.35853E-01 2.57574E-14-4.64896E-14
 -1      3093 1.99736E+01 2.56248E-01 4.42708E-04 3.68778E-01-4.03897E-14-8.90448E-14
 -1      3094 2.00176E+01 2.99362E-01-1.87790E-03 4.87290E-01 7.35331E-15-9.73696E-14
 -1      3095 2.00335E+01 3.34818E-01 1.86767E-03 5.45868E-01 4.84637E-14-1.66768E-13
 -1      3096 1.99475E+01 3.29855E-01 6.72127E-04 4.60136E-01-8.37200E-15-7.00912E-14
 -1      3097 2.00090E+01 3.68335E-01-2.19029E-03 6.09388E-01 6.81848E-14-2.32411E-13
 -1      3098 2.00264E+01 4.04232E-01 2.09630E-03 6.80133E-01 9.00532E-14-2.71678E-13
 -1      3099 1.99114E+01 4.08777E-01 9.34685E-04 5.74147E-01-1.62597E-14-1.96369E-13
 -1      3100 1.99949E+01 4.36181E-01-2.47938E-03 7.56546E-01 1.24383E-13-3.31560E-13
 -1      3101 2.00144E+01 4.68484E-01 2.37448E-03 8.39320E-01 1.49329E-13-3.38965E-13
 -1      3102 1.98629E+01 4.88296E-01 1.19755E-03 7.12506E-01 9.93220E-14-1.58623E-13
 -1      3103 1.99760E+01 4.93477E-01-2.67077E-03 9.29191E-01 1.20353E-13-3.02465E-13
 -1      3104 1.99997E+01 5.15064E-01 2.76943E-03 1.02284E+00-3.30996E-15-2.19752E-13
 -1      3105 1.98005E+01 5.59503E-01 1.37864E-03 8.76574E-01 1.36084E-13-2.90005E-13
 -1      3106 1.99564E+01 5.23934E-01-2.62822E-03 1.12649E+00-5.21215E-14-1.02590E-13
 -1      3107 1.99894E+01 5.23035E-01 3.40745E-03 1.22838E+00 2.77174E-15-3.40826E-14
 -1      3108 1.97254E+01 6.06931E-01 1.30604E-03 1.06752E+00 5.27107E-14-2.21586E-13
 -1      3109 1.99479E+01 5.01109E-01-2.10516E-03 1.34592E+00-2.42381E-14-6.75311E-14
 -1      3110 2.00012E+01 4.59383E-01 4.47719E-03 1.45124E+00 9.46769E-15-3.87413E-14
 -1      3111 1.96446E+01 6.05303E-01 6.52196E-04 1.28671E+00-1.65245E-14-2.61598E-14
 -1      3112 1.99766E+01 3.84641E-01-6.44294E-04 1.58234E+00 1.77553E-14-8.70113E-14
 -1      3113 2.00706E+01 2.75294E-01 6.14158E-03 1.68278E+00 4.43300E-14-1.03397E-13
 -1      3114 1.95767E+01 5.15409E-01-1.17014E-03 1.53619E+00-4.44268E-15-1.81540E-13
 -1      3115 2.00931E+01 1.17333E-01 2.60852E-03 1.82523E+00 9.45263E-14-1.11112E-13
 -1      3116 2.02626E+01-9.51782E-02 8.25178E-03 1.90585E+00 1.20248E-13-8.85156E-14
 -1      3117 1.95611E+01 2.79568E-01-5.17309E-03 1.81830E+00 7.61622E-14-1.42344E-13
 -1      3118 2.03883E+01-3.72256E-01 9.32811E-03 2.04947E+00 8.59823E-14-2.43441E-15
 -1      3119 2.06849E+01-7.25490E-01 1.01639E-02 2.08142E+00 7.61648E-14-6.41663E-15
 -1      3120 1.96738E+01-1.80962E-01-1.27981E-02 2.13048E+00 9.86716E-14-1.56072E-13
 -1      3121 2.10077E+01-1.14919E+00 2.20972E-02 2.19421E+00 4.49207E-14 7.49401E-15
 -1      3122 2.14855E+01-1.65970E+00 8.15400E-03 2.12035E+00 1.44735E-13-3.52890E-14
 -1      3123 2.00479E+01-9.52517E-01-2.48988E-02 2.44585E+00 8.38348E-14-1.05762E-13
 -1      3124 2.21797E+01-2.19725E+00 5.42119E-02 2.10605E+00 1.49519E-13-3.69505E-14
 -1      3125 2.29450E+01-2.76773E+00 2.29758E-02 1.78380E+00 9.08232E-14-1.19384E-14
 -1      3126 2.09216E+01-2.10781E+00-3.99146E-02 2.68053E+00 9.98663E-14-7.62999E-14
 -1      3127 2.36090E+01-3.64375E+00 5.68712E-02 2.12459E+00 1.48637E-13 1.02064E-13
 -1      3128 2.46453E+01-3.91135E+00 3.59980E-02 1.55473E+00 9.75296E-14 1.23209E-13
 -1      3129 2.64827E+01-3.05305E+00-1.26693E-01-5.85884E-01-6.74460E-14 1.93746E-13
 -1      3130 2.73095E+01-1.90007E+00 1.17962E-02-1.43315E+00-1.99341E-13 9.40845E-14
 -1      3131 2.68811E+01-3.08166E+00-2.00576E-02 2.12666E-01 7.24421E-14 2.22787E-13
 -1      3132 1.99888E+01-3.27815E-02 5.40508E-04-1.81176E-01 9.42432E-14-1.16429E-13
 -1      3133 1.99832E+01-3.41195E-02 2.55679E-05-1.85019E-01 7.88575E-14-1.07499E-13
 -1      3134 2.25546E+01-2.67943E+00 3.87532E-03-2.19214E+00 1.62252E-13 1.12273E-13
 -1      3135 2.19156E+01-2.05774E+00 4.61281E-02-2.42000E+00 1.24786E-13 4.39088E-14
 -1      3136 2.13413E+01-1.52655E+00 1.37676E-02-2.42768E+00-2.62188E-14-9.32318E-14
 -1      3137 2.08920E+01-1.03631E+00 2.13239E-02-2.47135E+00-7.97990E-14-1.99565E-13
 -1      3138 2.07975E+01-1.98422E+00-6.16112E-02-2.89137E+00 1.49095E-14-4.25077E-14
 -1      3139 2.06286E+01-6.39639E-01 9.34719E-03-2.36207E+00-9.05432E-14-1.35114E-13
 -1      3140 2.03601E+01-2.91069E-01 8.47759E-03-2.32249E+00-5.92095E-14-2.00704E-13
 -1      3141 2.00628E+01-8.54934E-01-2.85784E-02-2.67986E+00-6.98777E-14-7.04371E-14
 -1      3142 2.02714E+01-1.11750E-02 7.44333E-03-2.18232E+00-8.91380E-14-1.61658E-13
 -1      3143 2.01232E+01 2.19399E-01 3.23069E-03-2.09120E+00-1.72710E-13-1.28822E-13
 -1      3144 1.97924E+01-8.77439E-02-9.50795E-03-2.37645E+00 7.40998E-15-1.49452E-13
 -1      3145 2.01495E+01 3.76907E-01 4.62485E-03-1.96195E+00-1.66696E-13-1.08927E-13
 -1      3146 2.00677E+01 5.38414E-01 1.77684E-03-1.83813E+00-7.25071E-14-5.99672E-14
 -1      3147 1.98443E+01 6.67814E-01-2.82928E-03-1.81958E+00-3.36719E-13-1.07525E-13
 -1      3148 1.97699E+01 3.76278E-01-4.40175E-03-2.08312E+00-4.91158E-14-6.99820E-14
 -1      3149 1.88168E+01 1.32030E+00 5.84115E-03-1.17469E+00 3.43471E-14-1.73384E-13
 -1      3150 1.86257E+01 1.39882E+00-9.97676E-03-9.11121E-01 1.30723E-14-2.85199E-14
 -1      3151 1.99897E+01-3.26665E-02 4.13390E-04-1.87905E-01 7.44640E-14-1.36022E-13
 -1      3152 1.99875E+01-2.81636E-02 3.70884E-04-1.89920E-01 7.52651E-14-1.27689E-13
 -1      3153 2.00381E+01-3.62849E-02-6.05220E-04-1.85324E-01 6.62280E-14-1.64178E-13
 -1      3154 2.67909E+01 2.25554E+00-1.47754E-01-2.13908E+00-1.86157E-13-2.18603E-13
 -1      3155 2.73437E+01 7.29851E-01-2.89975E-02-2.07063E+00-2.08569E-13-2.94646E-13
 -1      3156 1.99966E+01-2.02594E-02 2.37827E-04-1.89329E-01 4.86277E-14-1.23931E-13
 -1      3157 1.99992E+01-7.66485E-03 8.63520E-04-1.86167E-01 3.92478E-14-1.20758E-13
 -1      3158 2.00536E+01-2.41329E-02-7.81580E-04-1.85612E-01 7.06479E-14-1.44570E-13
 -1      3159 1.99923E+01-2.38044E-02 6.46576E-04-1.74505E-01 6.11552E-14-7.89664E-14
 -1      3160 1.99843E+01-2.95036E-02-2.15789E-04-1.77696E-01 8.25685E-14-1.25691E-13
 -1      3161 2.00281E+01-3.44753E-02-4.66247E-04-1.80428E-01 7.67346E-14-1.32655E-13
 -1      3162 1.99993E+01-7.78059E-03 7.50128E-04-1.71967E-01 4.68527E-14-1.02900E-14
 -1      3163 1.99894E+01-1.69089E-02-3.88796E-04-1.72614E-01 5.96357E-14-1.54407E-14
 -1      3164 2.00222E+01-2.22338E-02-3.59980E-04-1.76175E-01 4.02159E-14-1.02226E-13
 -1      3165 2.00093E+01 1.40597E-02 8.63825E-04-1.76786E-01 3.32233E-14-2.24903E-14
 -1      3166 1.99976E+01 2.04910E-03-5.21460E-04-1.73379E-01 9.09580E-14 3.58945E-14
 -1      3167 2.00196E+01-1.81086E-03-2.79663E-04-1.76606E-01 6.15461E-14-7.29557E-14
 -1      3168 2.00221E+01 4.10279E-02 9.95764E-04-1.91643E-01 6.31050E-14-1.17555E-13
 -1      3169 2.00084E+01 2.64332E-02-6.34503E-04-1.82911E-01 2.70745E-14-6.73838E-14
 -1      3170 2.00194E+01 2.54417E-02-2.18344E-04-1.84950E-01 7.61020E-14-5.86710E-14
 -1      3171 2.00377E+01 7.27193E-02 1.14978E-03-2.18882E-01 9.79540E-15-4.07453E-14
 -1      3172 2.00217E+01 5.57227E-02-7.42144E-04-2.03709E-01 3.06244E-14-5.87026E-14
 -1      3173 2.00209E+01 5.87506E-02-1.69794E-04-2.03925E-01 1.18734E-14-6.58630E-14
 -1      3174 2.00564E+01 1.08740E-01 1.32576E-03-2.60600E-01 3.89659E-14-1.49029E-14
 -1      3175 2.00376E+01 8.95518E-02-8.52121E-04-2.37997E-01 5.48274E-14-4.53816E-14
 -1      3176 2.00237E+01 9.76112E-02-1.29048E-04-2.35918E-01 2.31017E-14-1.07785E-14
 -1      3177 2.00788E+01 1.48380E-01 1.51903E-03-3.18631E-01-1.44102E-14-3.25644E-14
 -1      3178 2.00565E+01 1.27416E-01-9.65196E-04-2.87769E-01 3.75466E-14-4.69920E-14
 -1      3179 2.00274E+01 1.41452E-01-9.39509E-05-2.83075E-01 5.29822E-14-4.56019E-14
 -1      3180 2.01056E+01 1.90176E-01 1.72007E-03-3.94398E-01 6.65773E-15-2.86225E-14
 -1      3181 2.00790E+01 1.68298E-01-1.07276E-03-3.54715E-01 7.77195E-15-2.45741E-14
 -1      3182 2.00317E+01 1.89226E-01-6.77109E-05-3.47282E-01-1.75151E-14-7.45839E-14
 -1      3183 2.01381E+01 2.31330E-01 1.91463E-03-4.88610E-01-5.99258E-15-2.30351E-14
 -1      3184 2.01061E+01 2.10164E-01-1.15326E-03-4.40008E-01-2.82371E-14 1.36085E-14
 -1      3185 2.00368E+01 2.38865E-01-6.25624E-05-4.30028E-01-2.62784E-14-6.76254E-14
 -1      3186 2.01784E+01 2.66926E-01 2.08455E-03-6.00777E-01-7.26161E-14 9.50721E-14
 -1      3187 2.01398E+01 2.49289E-01-1.16639E-03-5.43926E-01 6.75575E-15 1.28146E-14
 -1      3188 2.00435E+01 2.86566E-01-1.06329E-04-5.32150E-01-4.45942E-14 8.46477E-14
 -1      3189 2.02304E+01 2.88903E-01 2.20785E-03-7.28500E-01-7.50925E-14 1.30797E-13
 -1      3190 2.01831E+01 2.79357E-01-1.04433E-03-6.65277E-01-8.09144E-14 9.92442E-14
 -1      3191 2.00539E+01 3.25835E-01-2.53609E-04-6.53420E-01-1.03659E-13 7.13992E-14
 -1      3192 2.03005E+01 2.84834E-01 2.25655E-03-8.66481E-01-1.59399E-13 2.15944E-13
 -1      3193 2.02413E+01 2.90332E-01-6.79413E-04-8.00574E-01-1.00149E-13 1.80326E-13
 -1      3194 2.00722E+01 3.46277E-01-6.01391E-04-7.91981E-01-8.30106E-14 1.58171E-13
 -1      3195 2.03996E+01 2.36719E-01 2.18478E-03-1.00516E+00-5.22058E-14 1.59517E-13
 -1      3196 2.03239E+01 2.67202E-01 9.15068E-05-9.42861E-01-7.33945E-14 1.34494E-13
 -1      3197 2.01068E+01 3.32169E-01-1.30897E-03-9.43532E-01-1.07158E-13 1.28611E-13
 -1      3198 2.05459E+01 1.20456E-01 1.89400E-03-1.12879E+00-9.40912E-14 5.76120E-14
 -1      3199 2.04461E+01 1.88996E-01 1.50108E-03-1.08003E+00-3.39367E-14 1.37733E-13
 -1      3200 2.01722E+01 2.61145E-01-2.61601E-03-1.10010E+00-2.86159E-15 8.54987E-14
 -1      3201 2.07663E+01-9.24241E-02 1.15735E-03-1.21270E+00-9.13673E-14 6.32904E-14
 -1      3202 2.06321E+01 2.91245E-02 3.84741E-03-1.19231E+00-1.30856E-13 2.29669E-14
 -1      3203 2.02930E+01 1.03830E-01-4.83822E-03-1.24795E+00-9.24471E-14 6.23595E-14
 -1      3204 2.10981E+01-4.27600E-01-4.41935E-04-1.21953E+00-3.40212E-14 6.86429E-14
 -1      3205 2.09172E+01-2.40732E-01 7.42810E-03-1.24853E+00-1.04094E-14 1.19766E-13
 -1      3206 2.05072E+01-1.73568E-01-8.29624E-03-1.36392E+00-9.00871E-14 1.63413E-13
 -1      3207 2.15826E+01-8.90829E-01-3.77590E-03-1.09528E+00-1.30382E-13 8.25014E-14
 -1      3208 2.13457E+01-6.39077E-01 1.23599E-02-1.20134E+00-4.69629E-14 1.04491E-13
 -1      3209 2.08682E+01-5.99408E-01-1.30290E-02-1.40914E+00-4.56318E-14 2.51634E-13
 -1      3210 2.22488E+01-1.43039E+00-9.56163E-03-7.66033E-01-1.82888E-13-6.52178E-14
 -1      3211 2.19615E+01-1.15000E+00 1.80189E-02-9.80791E-01-1.20200E-13 4.48211E-14
 -1      3212 2.14412E+01-1.17536E+00-1.84451E-02-1.32003E+00-9.06848E-14 2.89878E-13
 -1      3213 2.30734E+01-1.87217E+00-1.56563E-02-1.54554E-01-1.07411E-13-7.48121E-14
 -1      3214 2.27689E+01-1.67023E+00 2.10501E-02-4.97334E-01-2.27748E-13-1.82153E-13
 -1      3215 2.22828E+01-1.82220E+00-2.19079E-02-9.90501E-01-1.09008E-13 5.88180E-15
 -1      3216 2.38899E+01-1.91356E+00-7.97677E-03 7.07928E-01 8.53701E-15-7.03274E-14
 -1      3217 2.36737E+01-1.95369E+00 1.34364E-02 3.02307E-01-1.59811E-14-8.60922E-14
 -1      3218 2.33453E+01-2.29492E+00-2.64769E-02-3.06482E-01-1.17622E-13-2.77693E-13
 -1      3219 2.49956E+01-7.38052E-01-3.00664E-02 1.93662E+00-1.06880E-13-1.37308E-13
 -1      3220 2.48744E+01-1.44294E+00-5.72325E-03 1.49565E+00-2.96776E-14-1.27059E-13
 -1      3221 2.50042E+01 2.08334E-01-2.75954E-02 2.08470E+00-1.56607E-13-7.05902E-15
 -1      3222 2.45294E+01 3.40458E+00-7.84732E-02 1.48735E+00-2.76862E-14-1.25223E-13
 -1      3223 2.47389E+01 2.52469E+00-8.62061E-02 1.94995E+00-7.44127E-14-1.58803E-13
 -1      3224 2.46678E+01 3.99564E+00-8.67532E-02-5.23543E-01 3.13360E-14-1.83166E-13
 -1      3225 2.46354E+01 4.11148E+00-8.35929E-02 3.25543E-01 2.58543E-14-1.63558E-13
 -1      3226 2.49916E+01 3.35859E-01-5.63354E-02-2.07622E+00-8.23057E-14-5.35726E-14
 -1      3227 2.48672E+01 1.48836E+00-2.12519E-02-2.03242E+00-6.77375E-14-6.20268E-14
 -1      3228 2.38427E+01-2.01663E+00 2.36357E-02-2.87302E-01-1.47451E-17-1.14820E-13
 -1      3229 2.40349E+01-1.85457E+00-1.71215E-02-7.42930E-01 2.76506E-14 5.84654E-14
 -1      3230 2.29093E+01-1.82453E+00 2.46262E-02 6.24968E-01 6.61568E-14-3.97745E-13
 -1      3231 2.32124E+01-1.99827E+00-1.52236E-02 2.56677E-01 2.29114E-14-2.41724E-13
 -1      3232 2.36487E+01-2.45547E+00-3.53455E-02 3.61594E-01 4.03605E-14-1.51507E-13
 -1      3233 2.20532E+01-1.31692E+00 1.80454E-02 1.19481E+00 2.25668E-13-3.78042E-13
 -1      3234 2.23655E+01-1.60264E+00-9.44130E-03 9.48713E-01 8.84494E-14-3.83995E-13
 -1      3235 2.24894E+01-2.04795E+00-3.96929E-02 1.14092E+00 7.59913E-14-2.46841E-13
 -1      3236 2.13967E+01-7.65656E-01 1.38287E-02 1.47724E+00 8.69683E-14-1.17005E-13
 -1      3237 2.16564E+01-1.04572E+00-4.16700E-03 1.34477E+00 2.28031E-13-1.80597E-13
 -1      3238 2.16114E+01-1.36452E+00-2.22827E-02 1.56279E+00 2.95341E-14-1.95421E-14
 -1      3239 2.09212E+01-2.82244E-01 8.73897E-03 1.55556E+00-8.20319E-14-7.72318E-14
 -1      3240 2.11241E+01-5.16552E-01-1.58143E-03 1.51760E+00 3.27737E-14-1.36030E-13
 -1      3241 2.10035E+01-7.27044E-01-1.52685E-02 1.71632E+00 6.92557E-14 2.65198E-14
 -1      3242 2.06010E+01 1.02140E-01 5.84900E-03 1.48966E+00-2.61946E-13-1.15855E-13
 -1      3243 2.07524E+01-8.14352E-02 2.59857E-04 1.52199E+00-2.31072E-13-1.74487E-13
 -1      3244 2.06077E+01-1.86552E-01-8.16876E-03 1.68871E+00-1.05325E-13-1.30353E-13
 -1      3245 2.03960E+01 3.45267E-01 3.77212E-03 1.40898E+00-4.86950E-14-2.66263E-13
 -1      3246 2.05146E+01 2.08877E-01 5.17442E-04 1.45185E+00-2.02612E-13-1.75273E-13
 -1      3247 2.03838E+01 1.72831E-01-4.28724E-03 1.59431E+00-2.39039E-13-6.02391E-13
 -1      3248 2.02496E+01 4.22621E-01-2.81309E-03 1.48284E+00-2.24022E-13-6.31010E-13
 -1      3249 2.00492E+01 2.16021E+00-4.29009E-03 2.93227E-01 2.10656E-14-4.04136E-13
 -1      3250 2.00362E+01 2.19902E+00-3.31455E-03 1.71255E-01-2.30097E-14-3.95498E-13
 -1      3251 1.47701E+01-2.38760E+00-3.80387E-02 5.21042E+00-2.69632E-13-2.07140E-13
 -1      3252 1.25340E+01-1.03209E+00 1.39084E-01 4.12306E+00-3.62901E-13 8.42243E-14
 -1      3253 1.84367E+01 1.49297E+00-6.58437E-03 1.28950E-01 1.24913E-13 1.57910E-13
 -1      3254 1.85102E+01 1.45613E+00 7.61450E-04 4.47309E-01 2.05668E-13 1.04873E-13
 -1      3255 1.93097E+01 1.04149E+00 4.78782E-03-1.57921E+00-6.72454E-14 7.11188E-14
 -1      3256 1.90498E+01 1.16091E+00-1.02683E-02-1.42153E+00 1.17708E-14-1.34577E-13
 -1      3257 1.87396E+01 1.13339E+00 2.14346E-03-1.41429E+00-2.46242E-14-1.49795E-13
 -1      3258 1.84992E+01 1.48610E+00-1.02330E-04-5.66368E-01-7.89988E-15 3.27479E-13
 -1      3259 1.84334E+01 1.50975E+00-5.41963E-03-2.50832E-01 1.76792E-14 3.41820E-13
 -1      3260 1.81584E+01 1.42349E+00 9.57416E-03-4.89092E-02 1.61978E-13 1.71682E-14
 -1      3261 1.83083E+01 1.35931E+00 7.89194E-03-8.03816E-01-3.37403E-14 1.07697E-13
 -1      3262 1.74713E+01-3.45681E+00 1.34758E-01-5.41132E+00 3.95878E-13-4.11796E-13
 -1      3263 1.98265E+01-4.47178E+00-3.11590E-02-5.17639E+00 1.83582E-13-4.30225E-13
 -1      3264 1.19667E+01-1.26195E+00 1.24067E-01-4.25006E+00 3.55025E-13-3.13832E-13
 -1      3265 1.44954E+01-2.47449E+00 3.46493E-03-5.26844E+00 4.82329E-13-4.22676E-13
 -1      3266 2.84521E+01-1.04913E+00-1.68766E-01-1.94126E+00-3.30194E-13 4.84335E-15
 -1      3267 2.00112E+01 9.27817E-03-2.77461E-05-1.78240E-01 3.40127E-14-1.34811E-13
 -1      3268 2.00209E+01 3.33296E-02 1.55227E-03-1.65304E-01 6.02258E-14-1.39890E-13
 -1      3269 2.00757E+01 7.30696E-03-9.93302E-04-1.74315E-01 1.98710E-14-1.15468E-13
 -1      3270 2.46075E+01-4.23750E+00 1.08463E-01-2.19198E+00-2.98286E-14 8.74578E-14
 -1      3271 2.56543E+01-3.84330E+00-1.37511E-01-7.81200E-01 6.89388E-14 1.59223E-13
 -1      3272 2.47851E+01-3.88271E+00 2.00702E-03-1.51705E+00 2.40696E-13 1.79919E-13
 -1      3273 2.38591E+01-3.59962E+00 3.54693E-02-2.04376E+00 2.83386E-13 1.25428E-13
 -1      3274 2.02690E+01 7.12967E-01 3.59024E-03-3.47877E-01-1.96371E-13-1.23912E-13
 -1      3275 2.02273E+01 5.51653E-01-3.54877E-03-2.16765E-01-1.70599E-13-1.41146E-13
 -1      3276 2.02742E+01 5.80145E-01-3.71941E-04-1.90277E-01-1.61505E-13-1.71640E-13
 -1      3277 1.03754E+01-3.83534E-01 7.02867E-03 2.64987E+00-1.97103E-13 2.67772E-13
 -1      3278 9.54880E+00 1.18497E-01 1.40343E-01 7.19207E-01-1.40849E-13 3.80446E-13
 -1      3279 2.00734E+01 1.52793E-01-1.03740E-03-7.60508E-02 1.43533E-13-2.03005E-13
 -1      3280 2.01045E+01 2.17248E-01 3.20531E-03-2.17010E-02 1.33671E-13-2.11871E-13
 -1      3281 2.00361E+01 6.31997E-02-4.43791E-04-1.44876E-01 7.49589E-14-1.53459E-13
 -1      3282 2.00555E+01 1.03732E-01 2.48554E-03-1.15790E-01 1.04689E-13-1.56744E-13
 -1      3283 2.01447E+01 1.63553E-01-1.41378E-03-7.69188E-02 9.79926E-14-2.07196E-13
 -1      3284 2.01059E+01 6.59417E-02-1.21903E-03-1.42129E-01 6.47562E-14-1.38543E-13
 -1      3285 2.59761E+01-3.91614E+00 8.69603E-02 9.33860E-01 2.35558E-14 1.56930E-13
 -1      3286 2.60524E+01-3.89331E+00-9.00861E-03-7.89510E-01 9.30662E-14 2.04718E-13
 -1      3287 1.43776E+01-2.15580E+00 1.04436E-01-5.06234E+00-3.26225E-13-2.40225E-14
 -1      3288 1.69109E+01-3.32337E+00-1.78102E-02-5.37054E+00-3.42809E-13 2.40231E-13
 -1      3289 1.98577E+01-3.91398E+00 1.23174E-01-4.77798E+00-2.43146E-13 4.70214E-14
 -1      3290 2.22184E+01-4.60917E+00-1.00681E-01-3.75261E+00-1.64133E-13 6.00492E-14
 -1      3291 1.80400E+01-3.55730E+00-1.46549E-02 5.03273E+00 3.22853E-13-2.72005E-14
 -1      3292 1.53119E+01-2.29966E+00 1.58441E-01 4.97642E+00 3.54709E-13-2.31273E-13
 -1      3293 2.73506E+01-1.15992E+00-1.25686E-01-1.34899E+00-1.89793E-13-3.67040E-13
 -1      3294 2.68878E+01-2.75493E+00-1.61317E-02-2.44309E-01-1.29795E-13-2.39440E-13
 -1      3295 2.65537E+01-5.53250E-01-6.39068E-02-1.70725E+00-2.01679E-13-1.41227E-13
 -1      3296 9.02999E+00-3.36193E-02 6.30713E-02 1.54091E+00 1.30129E-13-3.13319E-13
 -1      3297 8.65052E+00 1.59048E-01 1.66815E-01-5.35995E-01-6.99961E-14-2.46178E-13
 -1      3298 2.07296E+01-4.35664E+00-3.05074E-02 4.66804E+00-2.29920E-14-4.71453E-13
 -1      3299 1.78818E+01-3.32986E+00 1.24345E-01 5.26382E+00 6.94236E-15-3.49620E-13
 -1      3300 9.34843E+00-8.83932E-02 7.52113E-02-1.16730E+00-3.22138E-15 3.45321E-13
 -1      3301 1.03205E+01-6.22388E-01 8.45971E-02-3.13864E+00 2.37053E-13 6.34215E-14
 -1      3302 1.27876E+01-5.75850E-01 1.28022E-01-3.37966E+00 3.05984E-13-3.04742E-13
 -1      3303 1.22193E+01-1.50141E+00-6.01204E-03 4.44714E+00 3.73118E-13-3.54772E-13
 -1      3304 1.04161E+01-5.23460E-01 1.55398E-01 3.15089E+00 2.88696E-13-4.60590E-13
 -1      3305 2.02904E+01 9.88102E-01-7.44657E-04 6.91858E-01 2.00084E-13-2.87260E-13
 -1      3306 2.02674E+01 1.30703E+00 3.04853E-03 7.72868E-01 1.93141E-13-3.11068E-13
 -1      3307 2.02708E+01 1.12739E+00 9.32514E-05 5.94661E-01 1.66992E-13-3.11568E-13
 -1      3308 2.02313E+01 7.75244E-01-3.74553E-03 4.86162E-01 1.62317E-13-2.95051E-13
 -1      3309 2.00292E+01 2.21783E+00-3.67152E-03 6.61073E-02-4.36990E-14-3.70452E-13
 -1      3310 2.00288E+01 2.21869E+00-3.62925E-03-5.81706E-02-8.31957E-14-3.62811E-13
 -1      3311 2.01434E+01 1.92230E+00 4.99199E-03 1.01736E-01-2.34877E-14-3.58441E-13
 -1      3312 2.02179E+01 1.56767E+00-2.13903E-03-8.09304E-01-2.42757E-13-1.93760E-13
 -1      3313 2.61910E+01-3.59759E+00-3.47904E-02 4.92371E-01-3.93349E-14-1.66749E-13
 -1      3314 2.51264E+01-3.78621E+00 3.87959E-02 1.19838E+00 1.83382E-13-1.22182E-13
 -1      3315 2.60079E+01-2.63906E+00-6.82286E-03-4.26117E-01 1.89120E-14-7.46625E-14
 -1      3316 1.88484E+01-3.14038E+00 6.03627E-02-4.52047E+00-2.35902E-13-1.60705E-14
 -1      3317 1.96503E+01 7.82455E-01 5.30174E-04-1.76548E+00-4.43003E-13-2.97345E-13
 -1      3318 1.94630E+01 9.17732E-01-5.05795E-03-1.68341E+00-2.39959E-13-2.79258E-15
 -1      3319 1.92077E+01 8.73615E-01-1.96496E-04-1.74982E+00-3.66628E-13-1.67677E-13
 -1      3320 1.96123E+01 6.56245E-01 3.40317E-03-1.89527E+00-3.63228E-13-2.68591E-13
 -1      3321 1.11229E+01 3.44793E-01 1.28940E-01-3.79887E-01-2.01341E-14 2.36290E-13
 -1      3322 2.19557E+01-3.66076E+00-2.36771E-02 3.17349E+00 2.12431E-13 1.78677E-15
 -1      3323 1.95394E+01 7.70963E-01-7.91356E-03 1.53899E+00-1.88833E-13-1.69594E-13
 -1      3324 1.97846E+01 6.43037E-01 6.20367E-03 1.58704E+00-1.48554E-13 4.16776E-14
 -1      3325 2.17423E+01-4.34191E+00 3.88854E-02-4.06690E+00 1.40804E-13-1.11829E-13
 -1      3326 2.57174E+01-2.84193E+00-3.37907E-02 2.88329E-01 2.29920E-14-1.63966E-13
 -1      3327 2.49790E+01-2.13232E+00-3.80805E-02 8.87793E-01-3.13942E-14-2.94068E-13
 -1      3328 2.60098E+01 2.44483E+00-8.84150E-02 2.24848E+00-7.51760E-14-5.36030E-14
 -1      3329 2.46635E+01 1.12875E+00-4.46002E-02 2.28593E+00-1.48874E-13-5.91038E-14
 -1      3330 2.41318E+01 2.33901E+00-8.99967E-02-1.64678E+00-5.76483E-14-1.17009E-13
 -1      3331 2.40114E+01 3.07131E+00-2.43455E-02-1.01805E+00 4.40203E-14-4.17080E-14
 -1      3332 2.44801E+01-1.44388E+00-2.07785E-02-1.33230E+00-5.89719E-14 1.45848E-13
 -1      3333 2.45188E+01-7.88760E-01-1.13199E-02-1.66559E+00-7.76931E-14 1.92346E-14
 -1      3334 2.00692E+01 2.10477E+00-3.05475E-03 3.91991E-01 5.21761E-14-3.88583E-13
 -1      3335 2.01654E+01 1.84753E+00 5.32483E-03 2.91744E-01 4.34177E-14-3.69410E-13
 -1      3336 2.00944E+01 2.02433E+00-5.34483E-03 5.05485E-01 9.02398E-14-3.86344E-13
 -1      3337 1.73181E+01-2.35262E+00 1.02115E-01 4.57701E+00-1.05027E-13-2.60188E-13
 -1      3338 1.90477E+01 1.07152E+00-1.08518E-02 1.27275E+00-1.46314E-14 1.41379E-13
 -1      3339 1.92921E+01 9.54860E-01 9.27053E-03 1.43005E+00-1.20999E-13-3.20745E-15
 -1      3340 1.93092E+01 6.90561E-01-4.42147E-03 1.62065E+00-7.81904E-14 6.86410E-14
 -1      3341 1.01303E+01 9.87560E-02 1.21769E-01-1.52006E+00-1.18240E-13-3.25878E-13
 -1      3342 1.28797E+01-3.41552E-01 1.15562E-01 3.00602E+00-3.45852E-13 5.83145E-14
 -1      3343 1.86409E+01 1.33878E+00-1.07236E-02 7.86227E-01 1.30599E-13 2.41504E-13
 -1      3344 1.88314E+01 1.25011E+00 6.74219E-03 1.04306E+00 1.60855E-13 1.44318E-13
 -1      3345 1.87522E+01 1.02082E+00 9.79070E-04 1.28614E+00 7.73999E-14 3.15356E-13
 -1      3346 1.83246E+01 1.29731E+00 6.89687E-03 6.98107E-01 1.49632E-13 2.28968E-13
 -1      3347 1.09683E+01 7.37605E-02 1.20210E-01 1.99525E+00 2.38819E-13-3.12556E-13
 -1      3348 2.01634E+01 4.58802E-01-2.63971E-03 2.03628E-01 1.38066E-13-2.81070E-13
 -1      3349 2.02199E+01 5.99667E-01 2.79241E-03 3.42236E-01 1.37917E-13-3.06721E-13
 -1      3350 2.02553E+01 7.58260E-01 1.70475E-03 4.04695E-01 1.52221E-13-2.94137E-13
 -1      3351 2.24459E+01-3.64652E+00-3.43729E-02-3.05106E+00 1.91120E-13 2.10144E-14
 -1      3352 2.01122E+01 2.75586E-01-1.67882E-03 3.21343E-02 1.11299E-13-2.37952E-13
 -1      3353 2.01558E+01 3.71193E-01 3.35829E-03 1.21705E-01 1.18483E-13-2.54384E-13
 -1      3354 2.02114E+01 4.73172E-01-4.56996E-04 1.71462E-01 1.10098E-13-2.65372E-13
 -1      3355 2.01803E+01 2.96554E-01-1.78040E-03 2.49451E-02 1.05084E-13-2.47169E-13
 -1      3356 1.66813E+01-2.42591E+00 1.02277E-01-4.81374E+00 3.96280E-13-3.80002E-13
 -1      3357 2.02563E+01 8.92455E-01-4.73807E-03-4.65259E-01-2.25327E-13-1.44511E-13
 -1      3358 2.02885E+01 9.29469E-01 1.49809E-03-4.10479E-01-2.08463E-13-2.02758E-13
 -1      3359 2.02871E+01 1.10352E+00-2.78721E-04-6.33551E-01-2.35136E-13-1.48396E-13
 -1      3360 2.32513E+01-3.95237E+00 4.84044E-02-2.57745E+00-1.00149E-13 6.10970E-14
 -1      3361 2.64509E+01 9.67524E-01-5.94002E-02 2.44945E+00-1.66672E-13-1.05430E-13
 -1      3362 2.55925E+01 4.41071E+00-1.20589E-01-1.13718E+00-7.22200E-14-2.01571E-13
 -1      3363 2.01595E+01 1.79957E+00-7.80749E-03 6.84967E-01 1.39765E-13-3.68584E-13
 -1      3364 2.01249E+01 1.93056E+00-2.91580E-03 5.91421E-01 1.09325E-13-3.79027E-13
 -1      3365 2.02061E+01 1.69746E+00 6.52882E-03 4.61504E-01 9.24385E-14-3.59993E-13
 -1      3366 2.02590E+01 1.46055E+00 7.48664E-03 5.89742E-01 1.36689E-13-3.29213E-13
 -1      3367 2.00650E+01 2.11039E+00-3.50059E-03-3.85094E-01-1.65441E-13-3.74015E-13
 -1      3368 2.00891E+01 2.03278E+00-5.58572E-03-4.98012E-01-1.90593E-13-3.72571E-13
 -1      3369 2.23771E+01-4.31412E+00 6.13566E-02 3.77272E+00-6.57564E-14-2.87713E-13
 -1      3370 2.10598E+01-3.54042E+00 2.97251E-02 3.86116E+00 5.64063E-14-2.72768E-13
 -1      3371 2.33121E+01-4.19675E+00-7.62067E-02 2.69592E+00 1.05057E-13-2.17696E-13
 -1      3372 1.33501E+01-1.47307E+00 8.97895E-02-4.63587E+00-3.15054E-13-1.91486E-13
 -1      3373 1.53293E+01-1.55893E+00 7.27495E-02-4.34639E+00-2.96142E-13 4.61749E-14
 -1      3374 1.23607E+01-7.25696E-01 3.62391E-02-3.73953E+00-2.30489E-13-3.68740E-13
 -1      3375 1.46966E+01-1.50941E+00 1.00485E-01 4.24519E+00 3.26739E-13-2.69604E-13
 -1      3376 2.02024E+01 1.70150E+00 4.71514E-03-4.58320E-01-1.89908E-13-3.22502E-13
 -1      3377 2.01240E+01 1.93916E+00-2.36727E-03-5.85269E-01-2.02318E-13-3.02422E-13
 -1      3378 2.01600E+01 1.81114E+00-6.30939E-03-6.84706E-01-2.25866E-13-2.71596E-13
 -1      3379 2.62464E+01 3.52721E+00-7.55871E-02-1.90003E+00-1.12577E-13-2.97616E-13
 -1      3380 2.56521E+01 2.28203E+00-5.68702E-02-1.98261E+00-1.20362E-13-1.12937E-13
 -1      3381 2.46886E+01-2.01172E+00-3.09571E-03-7.80604E-01 2.88415E-14 3.85386E-14
 -1      3382 2.60781E+01-1.27040E-01-2.67841E-03 2.12077E+00-1.96062E-13-2.49800E-14
 -1      3383 2.02704E+01 2.40884E-01 2.14254E-03 3.99371E-02-1.49811E-13-1.40044E-13
 -1      3384 2.02461E+01 1.66916E-01-1.23822E-03 8.15782E-02-1.31889E-13-1.48500E-13
 -1      3385 2.02313E+01 1.09642E-01 1.57564E-03 1.08681E-01-1.23026E-13-1.20401E-13
 -1      3386 2.02102E+01 6.28915E-02-5.92663E-04 1.31874E-01-7.25339E-14-1.13113E-13
 -1      3387 2.02880E+01 1.66189E-01-4.20567E-04 7.85966E-02-9.72833E-14-1.40004E-13
 -1      3388 2.01925E+01 2.80661E-02 1.05762E-03 1.45718E-01-4.71557E-14-1.16039E-13
 -1      3389 2.01752E+01 1.03917E-03-1.34139E-04 1.56628E-01-1.30905E-14-1.06495E-13
 -1      3390 2.02502E+01 5.99439E-02-5.80343E-04 1.22625E-01-5.91673E-14-5.36050E-14
 -1      3391 2.01569E+01-1.76195E-02 6.27542E-04 1.61965E-01 1.47630E-14-1.27547E-13
 -1      3392 2.01433E+01-3.03679E-02 1.76862E-04 1.65480E-01-1.79422E-14-1.09108E-13
 -1      3393 2.02113E+01-2.38366E-03-6.06816E-04 1.44547E-01-2.02741E-14-1.38306E-13
 -1      3394 2.01255E+01-3.72936E-02 2.81327E-04 1.66078E-01-4.22142E-14-8.56082E-14
 -1      3395 2.01151E+01-3.95898E-02 3.84207E-04 1.65958E-01-4.94651E-14-5.78201E-14
 -1      3396 2.01741E+01-3.26907E-02-5.61728E-04 1.52809E-01-1.40000E-14-1.67795E-13
 -1      3397 2.00983E+01-3.78468E-02 2.68708E-06 1.64750E-01-8.28791E-14-4.00277E-14
 -1      3398 2.00905E+01-3.23024E-02 5.23147E-04 1.63863E-01-8.55633E-14-3.56015E-14
 -1      3399 2.01396E+01-3.94420E-02-4.75463E-04 1.54104E-01-5.97944E-14-1.04770E-13
 -1      3400 2.00746E+01-2.39318E-02-2.29192E-04 1.63122E-01-9.26771E-14-4.43990E-14
 -1      3401 2.00688E+01-1.22384E-02 6.20071E-04 1.63682E-01-6.89415E-14-7.67767E-14
 -1      3402 2.01079E+01-2.84780E-02-3.62900E-04 1.53655E-01-9.43037E-14-6.76802E-14
 -1      3403 2.00533E+01 1.49155E-03-4.35358E-04 1.65194E-01-5.31509E-14-1.19847E-13
 -1      3404 2.00489E+01 1.83399E-02 6.94158E-04 1.68966E-01-5.73543E-14-8.27580E-14
 -1      3405 2.00784E+01-3.62742E-03-2.29987E-04 1.55537E-01-8.52387E-14-8.09035E-14
 -1      3406 2.00331E+01 3.67400E-02-6.34828E-04 1.74190E-01-9.29007E-14-1.00122E-13
 -1      3407 2.00294E+01 5.82618E-02 7.57746E-04 1.82651E-01-9.26183E-14-6.60854E-14
 -1      3408 2.00496E+01 3.28169E-02-7.65598E-05 1.62999E-01-5.69491E-14-9.57115E-14
 -1      3409 2.00123E+01 8.10517E-02-8.43667E-04 1.92842E-01-5.85957E-14-9.39087E-14
 -1      3410 2.00086E+01 1.07115E-01 8.17993E-04 2.07290E-01-2.22097E-14-3.99510E-14
 -1      3411 2.00197E+01 7.96857E-02 9.99237E-05 1.78742E-01-8.53038E-14-1.46485E-13
 -1      3412 1.99888E+01 1.34277E-01-1.07574E-03 2.23581E-01-2.62271E-14-5.07721E-14
 -1      3413 1.99842E+01 1.64951E-01 8.78826E-04 2.45216E-01-4.31828E-14-6.99134E-14
 -1      3414 1.99864E+01 1.36587E-01 3.08394E-04 2.05110E-01-1.60381E-15-1.87691E-13
 -1      3415 1.99602E+01 1.96572E-01-1.34217E-03 2.68680E-01-8.97892E-14-8.35430E-14
 -1      3416 1.99539E+01 2.31938E-01 9.39962E-04 2.98637E-01-8.25689E-14-8.27589E-14
 -1      3417 1.99469E+01 2.03553E-01 5.55866E-04 2.44229E-01-8.54343E-14-9.87160E-14
 -1      3418 1.99237E+01 2.68006E-01-1.65034E-03 3.30313E-01-3.67080E-14-1.09253E-13
 -1      3419 1.99145E+01 3.07937E-01 1.00127E-03 3.69658E-01-1.81601E-14-8.35317E-14
 -1      3420 1.98978E+01 2.80658E-01 8.54259E-04 2.98100E-01-6.33698E-14-6.70919E-14
 -1      3421 1.98761E+01 3.48089E-01-2.00612E-03 4.10552E-01-3.34956E-14-7.84372E-14
 -1      3422 1.98628E+01 3.91953E-01 1.06624E-03 4.60246E-01-5.69787E-14-9.86694E-14
 -1      3423 1.98351E+01 3.67524E-01 1.21404E-03 3.68607E-01-3.95368E-14-6.98748E-14
 -1      3424 1.98137E+01 4.35125E-01-2.41265E-03 5.11347E-01-6.42860E-14-1.18834E-13
 -1      3425 1.97948E+01 4.81368E-01 1.15072E-03 5.72209E-01 3.65522E-14-1.26572E-13
 -1      3426 1.97544E+01 4.62716E-01 1.63986E-03 4.57540E-01-5.85799E-14-9.34176E-14
 -1      3427 1.97324E+01 5.25281E-01-2.86998E-03 6.34557E-01 5.87063E-14-1.22777E-13
 -1      3428 1.97071E+01 5.70822E-01 1.29754E-03 7.07248E-01 6.48134E-14-1.07229E-13
 -1      3429 1.96506E+01 5.62900E-01 2.12753E-03 5.66698E-01 3.39182E-14 1.09412E-14
 -1      3430 1.96288E+01 6.11235E-01-3.37496E-03 7.82118E-01 1.07867E-13-1.18753E-13
 -1      3431 1.95970E+01 6.50605E-01 1.60052E-03 8.67211E-01 1.09738E-13-1.38691E-13
 -1      3432 1.95184E+01 6.61669E-01 2.65241E-03 6.98170E-01 2.72672E-14-1.07812E-13
 -1      3433 1.95009E+01 6.80257E-01-3.91747E-03 9.56529E-01 8.12689E-14-1.74594E-13
 -1      3434 1.94647E+01 7.04391E-01 2.23853E-03 1.05474E+00 3.52710E-14-1.10463E-13
 -1      3435 1.93533E+01 7.47891E-01 3.15013E-03 8.55032E-01 4.55433E-14-8.52441E-14
 -1      3436 1.93503E+01 7.11547E-01-4.46548E-03 1.16187E+00-2.85302E-14-6.72126E-14
 -1      3437 1.93165E+01 7.06150E-01 3.51906E-03 1.27451E+00-8.71709E-15-8.19006E-14
 -1      3438 1.91526E+01 8.03428E-01 3.48151E-03 1.04273E+00 3.28399E-14-1.96054E-13
 -1      3439 1.91871E+01 6.72704E-01-4.91209E-03 1.40549E+00-5.18112E-14-9.59346E-14
 -1      3440 1.91708E+01 6.16164E-01 5.93619E-03 1.53499E+00-4.29253E-14-1.32231E-13
 -1      3441 1.89182E+01 8.00012E-01 3.37369E-03 1.27150E+00-6.03471E-14-7.55975E-14
 -1      3442 1.90365E+01 5.15408E-01-4.87530E-03 1.70028E+00 5.26252E-14-1.48789E-13
 -1      3443 1.90675E+01 3.76009E-01 1.01489E-02 1.85011E+00 1.01913E-13-1.47914E-13
 -1      3444 1.86618E+01 6.94993E-01 2.33795E-03 1.55997E+00 2.07894E-14-1.44541E-13
 -1      3445 1.89539E+01 1.70016E-01-3.21562E-03 2.06537E+00 1.10036E-13-1.52074E-13
 -1      3446 1.90865E+01-9.63086E-02 1.72365E-02 2.23629E+00 1.38232E-13-1.55789E-13
 -1      3447 1.84138E+01 4.24528E-01-5.22288E-04 1.93957E+00 1.22918E-13-1.65333E-13
 -1      3448 1.90514E+01-4.62808E-01 2.25917E-03 2.51769E+00 1.32715E-13-1.97315E-13
 -1      3449 1.93703E+01-9.08022E-01 2.59222E-02 2.69264E+00 1.25335E-13-1.24919E-13
 -1      3450 1.82444E+01-1.06375E-01-6.13381E-03 2.45571E+00 1.18992E-13-1.96444E-13
 -1      3451 1.95192E+01-1.46212E+00 2.20541E-02 3.03232E+00 3.54144E-14-2.21123E-13
 -1      3452 2.00697E+01-2.19779E+00 7.17091E-03 3.19683E+00 6.96249E-14-2.46380E-13
 -1      3453 1.83242E+01-1.00821E+00-3.06533E-04 3.13537E+00 4.37792E-14-2.15679E-13
 -1      3454 2.00475E+01 2.16471E+00-4.08095E-03-2.84884E-01-1.42024E-13-3.41531E-13
 -1      3455 2.01647E+01 1.85267E+00 5.86912E-03-2.86373E-01-1.26553E-13-3.40052E-13
 -1      3456 2.00350E+01 2.20133E+00-3.34473E-03-1.63202E-01-1.01949E-13-3.42878E-13
 -1      3457 2.00507E+01-1.78387E-02 6.47472E-04-1.69869E-01 3.62317E-14-1.12562E-13
 -1      3458 2.00524E+01-2.73373E-02-2.13558E-04-1.70474E-01 6.50282E-14-1.21507E-13
 -1      3459 1.18802E+01 5.03532E-01-1.68108E-02 4.06956E-01-8.05324E-15 2.17784E-13
 -1      3460 1.20759E+01 4.48074E-01 5.75185E-02-1.37765E+00 1.37414E-13 2.32064E-13
 -1      3461 1.95509E+01-8.12678E-01 3.10366E-02-2.85685E+00-6.47806E-14 5.84300E-14
 -1      3462 1.92329E+01-3.74844E-01 6.94003E-03-2.70117E+00-1.34775E-13 6.37324E-14
 -1      3463 1.92996E+01-3.56629E-02 1.15744E-02-2.44833E+00-5.96764E-14 9.29118E-15
 -1      3464 1.92243E+01 2.47693E-01-1.08018E-03-2.28418E+00 8.77232E-14-4.06073E-14
 -1      3465 1.85874E+01-4.59455E-02-2.69553E-04-2.61987E+00-1.29835E-13 1.20765E-13
 -1      3466 2.00828E+01-3.82718E-02 3.97709E-04-1.75549E-01 4.24104E-14-1.28804E-13
 -1      3467 2.00897E+01-3.50077E-02 3.21914E-04-1.76257E-01 4.86798E-14-1.26465E-13
 -1      3468 2.00649E+01-3.38287E-02 5.41232E-04-1.72014E-01 7.22163E-14-1.30374E-13
 -1      3469 2.00689E+01-3.77904E-02 2.20651E-05-1.73833E-01 5.28542E-14-1.38275E-13
 -1      3470 2.00888E+01-3.18741E-02-4.03407E-04-1.64566E-01 7.40054E-14-1.31481E-13
 -1      3471 2.48949E+01-2.88319E+00 8.36596E-03 5.79579E-02 1.76718E-13-3.38375E-14
 -1      3472 2.52903E+01-2.42145E+00-2.43302E-02-5.42339E-01 7.14272E-14 1.48076E-14
 -1      3473 2.00391E+01 7.34805E-03 7.36283E-04-1.72872E-01 2.38383E-14-1.04327E-13
 -1      3474 2.00390E+01-6.62820E-03-4.09036E-04-1.70442E-01 1.27453E-14-1.49931E-13
 -1      3475 2.00663E+01-1.16033E-02-2.87476E-04-1.64757E-01 6.02304E-14-1.47769E-13
 -1      3476 2.00292E+01 4.03272E-02 8.21831E-04-1.84071E-01 6.15271E-14-7.55781E-14
 -1      3477 2.00278E+01 2.24919E-02-5.85142E-04-1.77120E-01 7.88916E-14-4.53955E-14
 -1      3478 2.00456E+01 1.89169E-02-1.68800E-04-1.70424E-01 1.45344E-14-1.64057E-13
 -1      3479 2.00200E+01 8.02914E-02 9.13629E-04-2.06066E-01-2.76357E-14-6.39988E-14
 -1      3480 2.00176E+01 5.89528E-02-7.56800E-04-1.93320E-01 2.03920E-14-7.40366E-14
 -1      3481 2.00255E+01 5.82139E-02-4.58340E-05-1.84483E-01 5.79662E-14-7.89163E-14
 -1      3482 2.00104E+01 1.26674E-01 1.01748E-03-2.41177E-01 5.31530E-14-5.81206E-14
 -1      3483 2.00072E+01 1.02105E-01-9.33910E-04-2.21505E-01 2.21812E-14-5.31031E-14
 -1      3484 2.00044E+01 1.05405E-01 8.34066E-05-2.09464E-01-1.34509E-16-1.30205E-13
 -1      3485 1.99994E+01 1.78777E-01 1.13703E-03-2.91510E-01 2.12335E-15-1.08640E-14
 -1      3486 1.99956E+01 1.51366E-01-1.12121E-03-2.63907E-01 5.55439E-14-4.51588E-14
 -1      3487 1.99807E+01 1.59803E-01 2.21166E-04-2.47652E-01 5.68536E-14-1.13681E-13
 -1      3488 1.99862E+01 2.35306E-01 1.27442E-03-3.58956E-01-1.64574E-14-1.13247E-13
 -1      3489 1.99819E+01 2.05805E-01-1.31678E-03-3.22570E-01 1.76722E-14-5.86671E-14
 -1      3490 1.99528E+01 2.20476E-01 3.63256E-04-3.01171E-01 3.32668E-14-1.66483E-14
 -1      3491 1.99703E+01 2.93748E-01 1.43336E-03-4.45089E-01-6.57412E-14-7.42462E-16
 -1      3492 1.99652E+01 2.63608E-01-1.50952E-03-3.99307E-01-4.11512E-14-8.84992E-14
 -1      3493 1.99191E+01 2.85699E-01 4.98901E-04-3.72007E-01-6.57499E-14-2.34210E-14
 -1      3494 1.99519E+01 3.49594E-01 1.62490E-03-5.50966E-01-1.05778E-13 6.74477E-14
 -1      3495 1.99455E+01 3.21384E-01-1.67557E-03-4.95563E-01-1.00770E-13 2.48910E-14
 -1      3496 1.98785E+01 3.52250E-01 6.05371E-04-4.61963E-01-9.02023E-14-6.86926E-14
 -1      3497 1.99331E+01 3.95303E-01 1.87194E-03-6.76862E-01-1.12578E-13-1.13453E-14
 -1      3498 1.99238E+01 3.73260E-01-1.77283E-03-6.12196E-01-5.07359E-14 1.24450E-14
 -1      3499 1.98308E+01 4.14514E-01 6.37927E-04-5.72576E-01-3.05439E-14-3.98435E-14
 -1      3500 1.99185E+01 4.19003E-01 2.21641E-03-8.21913E-01-1.45810E-13 1.37022E-13
 -1      3501 1.99032E+01 4.09725E-01-1.73157E-03-7.49197E-01-1.72636E-13 8.28044E-14
 -1      3502 1.97777E+01 4.63331E-01 5.16405E-04-7.05050E-01-1.71318E-13 3.70995E-15
 -1      3503 1.99176E+01 4.02959E-01 2.72074E-03-9.83617E-01-3.94489E-14 8.99520E-14
 -1      3504 1.98909E+01 4.16201E-01-1.43699E-03-9.05297E-01-5.82955E-14 1.48242E-13
 -1      3505 1.97239E+01 4.84545E-01 1.04422E-04-8.60175E-01-1.17848E-13 1.52297E-13
 -1      3506 1.99480E+01 3.22061E-01 3.44797E-03-1.15699E+00-7.19597E-14 9.22408E-14
 -1      3507 1.99001E+01 3.71489E-01-6.97799E-04-1.07735E+00-5.80234E-14 3.25280E-14
 -1      3508 1.96798E+01 4.57298E-01-8.22057E-04-1.03821E+00-3.94401E-14 4.59000E-14
 -1      3509 2.00391E+01 1.43076E-01 4.39562E-03-1.33281E+00-7.58741E-14 2.92462E-14
 -1      3510 1.99546E+01 2.46527E-01 8.05914E-04-1.25909E+00-1.57530E-14 8.50972E-14
 -1      3511 1.96651E+01 3.52270E-01-2.61665E-03-1.23839E+00-5.95204E-14 2.63362E-14
 -1      3512 2.02368E+01-1.73562E-01 5.27781E-03-1.49371E+00-1.15517E-13 1.05024E-13
 -1      3513 2.00935E+01 4.68217E-03 3.59339E-03-1.43825E+00-1.57917E-13 1.45889E-14
 -1      3514 1.97137E+01 1.30681E-01-5.79222E-03-1.45708E+00-1.01064E-13-1.25071E-13
 -1      3515 2.06073E+01-6.64452E-01 5.44200E-03-1.60573E+00-9.89509E-14 1.70608E-13
 -1      3516 2.03769E+01-3.93670E-01 8.42487E-03-1.58985E+00-5.00116E-14 1.59014E-13
 -1      3517 1.98819E+01-2.54307E-01-1.10455E-02-1.68246E+00-1.08784E-13-4.37347E-14
 -1      3518 2.12379E+01-1.33988E+00 5.17918E-03-1.60461E+00-1.71610E-14 7.12964E-14
 -1      3519 2.08867E+01-9.75205E-01 1.62640E-02-1.66494E+00-9.31056E-14 1.30419E-13
 -1      3520 2.02551E+01-8.46019E-01-1.87289E-02-1.88108E+00-8.00322E-14-8.35417E-14
 -1      3521 2.22041E+01-2.13802E+00-1.32499E-03-1.38352E+00-1.16527E-13-4.65314E-14
 -1      3522 2.17209E+01-1.72813E+00 2.58466E-02-1.57712E+00 4.76440E-14 7.01006E-14
 -1      3523 2.09294E+01-1.65595E+00-3.30259E-02-1.97781E+00-1.98212E-14 2.82153E-15
 -1      3524 2.35450E+01-2.76278E+00-1.80609E-03-7.24676E-01-2.45221E-14-2.25258E-13
 -1      3525 2.29875E+01-2.48407E+00 4.79670E-02-1.12879E+00-1.43114E-13-1.77467E-13
 -1      3526 2.21239E+01-2.65668E+00-5.24778E-02-1.82867E+00 2.58118E-14 2.90913E-14
 -1      3527 2.56903E+01-3.75225E-01-4.07965E-02-1.86938E+00-1.31326E-13 7.50962E-14
 -1      3528 2.29755E+01-2.94613E+00 3.62392E-02 1.81673E+00-2.08661E-14-1.28949E-13
 -1      3529 2.36319E+01-3.20228E+00 9.37894E-03 1.40285E+00 6.85962E-14-1.13824E-13
 -1      3530 2.05805E+01-5.00776E-01 7.89173E-03 1.92464E+00 8.58974E-14-2.54500E-15
 -1      3531 2.08364E+01-8.31515E-01 3.75153E-03 1.92457E+00 3.82330E-14 5.43725E-14
 -1      3532 2.02836E+01 1.79751E-02 3.28566E-03 1.77171E+00-1.97788E-14-9.83798E-14
 -1      3533 2.04426E+01-2.23660E-01 5.82630E-03 1.82393E+00 8.89730E-14 5.07144E-14
 -1      3534 2.01700E+01-3.18019E-01-3.20685E-03 2.02728E+00 4.69962E-14 1.64990E-13
 -1      3535 1.99450E+01 5.68929E-01-3.55062E-03 1.56866E+00-2.56071E-13-2.47392E-13
 -1      3536 2.01207E+01 4.74087E-01 2.52047E-03 1.54026E+00-1.96142E-13-4.50874E-13
 -1      3537 2.01719E+01 3.52567E-01 2.05838E-03 1.60704E+00-3.07039E-13-4.23765E-13
 -1      3538 1.98115E+01 4.64227E-01-2.52943E-03 1.68891E+00-6.74313E-14-1.12691E-13
 -1      3539 1.21475E+01-1.30248E-02 1.35780E-02 2.65788E+00 2.72669E-13-2.09985E-13
 -1      3540 1.12810E+01 5.36988E-01 5.77276E-02 1.09055E+00 1.40597E-13-2.36706E-13
 -1      3541 1.86705E+01 9.52545E-01 9.18170E-03-1.67299E+00-1.76432E-13-2.47949E-13
 -1      3542 1.83163E+01 1.06389E+00-1.49281E-02-1.43089E+00-1.57331E-13-2.08122E-13
 -1      3543 1.42137E+01-5.67037E-01-6.64649E-02 3.37226E+00-2.25400E-13-1.80828E-14
 -1      3544 1.29039E+01 3.80334E-01 8.71809E-02 1.93758E+00-2.91164E-13 1.08233E-13
 -1      3545 2.01322E+01 4.04859E-03-1.22637E-04-1.66028E-01 3.67866E-14-1.37963E-13
 -1      3546 2.01475E+01 3.05831E-02 1.21222E-03-1.54344E-01 1.66304E-14-1.33108E-13
 -1      3547 2.11572E+01-1.19415E+00 1.97619E-02 1.95619E+00-1.16099E-13 1.45271E-13
 -1      3548 2.15559E+01-1.55702E+00 1.72281E-02 1.83230E+00-6.14988E-14 5.91662E-14
 -1      3549 2.05656E+01-1.07234E+00-2.52111E-02 2.22064E+00 2.24527E-14 1.31209E-13
 -1      3550 2.18495E+01-2.02632E+00 2.42876E-02 2.01008E+00-5.01634E-14-9.30679E-16
 -1      3551 2.24393E+01-2.40429E+00 2.22669E-02 1.72406E+00-6.91136E-14-9.27782E-14
 -1      3552 2.17556E+01-3.06755E+00-2.59375E-02 2.85098E+00-4.12821E-14-1.52833E-13
 -1      3553 2.10933E+01-1.89698E+00-3.37329E-03 2.47066E+00-1.89060E-13-1.75796E-13
 -1      3554 2.03160E+01 7.36236E-01 1.94008E-03-2.43177E-01-1.68277E-13-2.07663E-13
 -1      3555 2.02988E+01 5.74219E-01-2.70751E-03-1.42250E-01-1.46765E-13-1.92793E-13
 -1      3556 1.60509E+01-1.58288E+00 6.88651E-02-4.32232E+00 3.29023E-13-3.53113E-13
 -1      3557 1.83425E+01-2.80518E+00-2.07325E-02-4.58457E+00 3.07239E-13-2.84214E-13
 -1      3558 2.05506E+01-2.95484E+00 8.89548E-02-3.83860E+00 3.19598E-13-1.40443E-13
 -1      3559 2.01050E+01-2.74830E-02 1.89090E-04-1.75656E-01 7.42816E-14-1.34140E-13
 -1      3560 2.01157E+01-1.44436E-02 7.11775E-04-1.72197E-01 7.22702E-14-1.23148E-13
 -1      3561 2.01433E+01-3.04072E-02-6.20704E-04-1.65467E-01 6.81391E-14-1.26520E-13
 -1      3562 1.98393E+01-2.23341E+00 4.46438E-02-3.63685E+00 1.75207E-13-7.48245E-14
 -1      3563 1.92640E+01-1.55391E+00 1.91223E-02-3.44020E+00 5.42849E-14-3.88318E-14
 -1      3564 2.03608E+01-3.90527E+00 1.04733E-01 4.38559E+00 3.31200E-13-1.00722E-13
 -1      3565 1.91281E+01-3.12364E+00 2.40605E-02 4.26093E+00 2.92530E-13-8.29753E-14
 -1      3566 1.10656E+01 5.29326E-01 3.75968E-02-8.01687E-01 7.24872E-14-1.73160E-13
 -1      3567 1.14467E+01 1.27420E-01 1.07095E-01-2.56275E+00-1.37074E-13-3.88342E-13
 -1      3568 2.03031E+01 4.40664E-01 2.49017E-03-7.30102E-02-1.24124E-13-1.92765E-13
 -1      3569 2.02786E+01 3.29167E-01-2.10574E-03-5.82156E-03-1.34034E-13-1.57874E-13
 -1      3570 2.03193E+01 3.32220E-01-7.11931E-05 2.47357E-03-1.19238E-13-1.82311E-13
 -1      3571 1.61592E+01-1.62555E+00-1.35135E-03 4.13561E+00 2.86278E-13-1.77677E-13
 -1      3572 1.39445E+01-5.87478E-01 9.98184E-02 3.58889E+00 2.09168E-13-1.91194E-13
 -1      3573 1.78993E+01-2.27074E+00 6.86197E-02-4.23766E+00-2.16289E-13-5.92131E-14
 -1      3574 1.99919E+01-3.24631E+00-6.85473E-02-3.86037E+00-1.87570E-13-1.72175E-13
 -1      3575 2.16867E+01-4.19003E+00-1.34914E-02 3.65141E+00 2.73327E-13-8.74023E-14
 -1      3576 2.23721E+01-3.37266E+00 8.43723E-02-2.66359E+00-1.33626E-13 5.00208E-15
 -1      3577 2.36864E+01-3.53494E+00-7.26706E-02-1.46625E+00-2.67564E-14-2.29504E-14
 -1      3578 1.27428E+01 2.20932E-02 5.70460E-02-2.55437E+00 1.78963E-13-1.50324E-13
 -1      3579 1.40096E+01-7.37441E-01-1.30866E-02-3.67938E+00 2.79204E-13-4.31696E-13
 -1      3580 2.02196E+01 1.58079E+00 1.28954E-03-7.00865E-01-2.26592E-13-2.28117E-13
 -1      3581 2.02868E+01 8.84611E-01 1.03429E-04 4.47705E-01 1.60272E-13-3.00735E-13
 -1      3582 2.02792E+01 1.05772E+00-1.97766E-03 4.86324E-01 1.57804E-13-2.92593E-13
 -1      3583 2.02619E+01 6.99314E-01-1.38565E-03 3.03099E-01 1.43666E-13-2.98341E-13
 -1      3584 1.87120E+01-2.59501E+00-3.04447E-02 4.22346E+00-1.51016E-13-2.03879E-13
 -1      3585 1.65726E+01-1.39334E+00 9.32846E-02 4.11435E+00-3.05072E-13-5.58234E-14
 -1      3586 1.95760E+01-2.59358E+00-7.30518E-03 3.65989E+00 1.72022E-13-1.96357E-13
 -1      3587 1.80276E+01-1.93741E+00 1.02086E-01 4.02123E+00 2.02354E-13-1.04129E-13
 -1      3588 1.40359E+01-5.86103E-02 7.07895E-02 2.76408E+00 1.83045E-13-1.44280E-13
 -1      3589 2.59089E+01-1.78751E+00-1.72422E-02-1.26238E+00-1.25828E-13 9.15865E-14
 -1      3590 2.01427E+01 1.92392E+00 5.03385E-03-9.50584E-02-7.11932E-14-3.34857E-13
 -1      3591 1.36057E+01 4.60198E-01 8.75154E-02-1.74375E+00 1.93677E-13-4.38642E-14
 -1      3592 2.01764E+01 9.87807E-04-7.05139E-04-1.56243E-01 4.57622E-14-1.58498E-13
 -1      3593 1.81377E+01-1.11381E+00-1.74271E-02-3.52019E+00-4.59389E-14-3.66547E-15
 -1      3594 2.01142E+01-3.94328E-02-5.16020E-04-1.66301E-01 5.49491E-14-1.10401E-13
 -1      3595 1.94238E+01 3.92334E-01 6.41884E-03-2.13660E+00 4.31599E-14-1.86963E-13
 -1      3596 1.94544E+01 5.53000E-01-5.67134E-05-2.00474E+00-1.05228E-13-1.95255E-13
 -1      3597 1.92439E+01 6.63927E-01 2.39096E-03-1.94821E+00-2.43637E-13-3.94141E-13
 -1      3598 1.88870E+01 4.38717E-01 6.22111E-03-2.20042E+00-2.27563E-15 1.23361E-15
 -1      3599 1.36352E+01 6.28624E-01 7.06479E-02 9.76516E-01-3.86193E-14 4.47212E-14
 -1      3600 2.44815E+01-3.03648E+00 4.35382E-02-4.14132E-01-2.49991E-14-1.71141E-13
 -1      3601 2.02078E+01 1.63969E+00-3.31962E-03 1.30883E-01 2.34773E-15-3.50133E-13
 -1      3602 2.02038E+01 1.65960E+00-2.64470E-03 4.00813E-02-2.85102E-14-3.43261E-13
 -1      3603 2.02942E+01 9.12545E-01-3.31423E-03-3.28494E-01-1.75666E-13-2.33421E-13
 -1      3604 2.03225E+01 9.19972E-01 2.06565E-03-2.75021E-01-1.57093E-13-2.31428E-13
 -1      3605 2.02957E+01 1.11539E+00-4.05404E-04-4.50040E-01-1.91889E-13-2.47312E-13
 -1      3606 2.02263E+01 1.54793E+00-4.19322E-03 2.85659E-01 6.91731E-14-3.29925E-13
 -1      3607 2.02161E+01 1.60677E+00-2.04286E-03 2.02023E-01 2.76752E-14-3.53405E-13
 -1      3608 2.02909E+01 1.38667E+00 5.06036E-03 1.34331E-01 3.01956E-14-3.26835E-13
 -1      3609 1.98255E+01 2.57124E-01 3.36691E-04 1.81330E+00 3.10388E-14 7.15052E-14
 -1      3610 2.00300E+01 1.90458E-01-5.34508E-04 1.79202E+00-3.83053E-14-5.03802E-14
 -1      3611 2.02478E+01 2.22827E-01 2.76838E-03 1.65370E+00-2.10657E-13-3.75047E-13
 -1      3612 1.78533E+01 1.23034E+00-1.19857E-02 6.30023E-01 9.65637E-14 1.56834E-13
 -1      3613 1.80663E+01 1.14995E+00 7.46760E-03 9.83973E-01 4.00617E-14 1.44849E-13
 -1      3614 1.78741E+01 1.05350E+00-3.55006E-03-1.36583E+00-1.59054E-13-1.63956E-13
 -1      3615 1.80350E+01 1.24781E+00 9.68999E-03-1.05833E+00-5.00894E-14 3.35344E-16
 -1      3616 1.78307E+01 1.29428E+00-1.04204E-02-6.99945E-01-5.68708E-14 3.09731E-13
 -1      3617 1.77306E+01 1.34716E+00-3.51738E-03-2.32173E-01 1.08732E-13 7.90495E-14
 -1      3618 1.77397E+01 1.33139E+00-2.33423E-03 1.70092E-01 1.35091E-13-1.35324E-13
 -1      3619 1.74621E+01 1.20903E+00 8.16493E-03 4.68968E-01-4.40682E-14 1.80571E-14
 -1      3620 1.74531E+01 1.25752E+00 1.22493E-02-5.00714E-01 1.75560E-13-3.94207E-14
 -1      3621 2.02358E+01 3.24501E-01-1.48333E-03 1.88480E-02 9.64959E-14-2.75436E-13
 -1      3622 2.02535E+01 4.11142E-01 2.61119E-03 8.04493E-02 8.52534E-14-2.87118E-13
 -1      3623 2.02732E+01 1.19502E+00 3.30794E-04 4.52603E-01 1.23743E-13-3.11425E-13
 -1      3624 2.01644E+01 6.43450E-02-5.87972E-04-1.38397E-01 1.72128E-14-1.45802E-13
 -1      3625 2.01851E+01 1.09746E-01 1.85116E-03-1.13145E-01 5.36152E-14-1.61069E-13
 -1      3626 2.02127E+01 6.31076E-02-7.40579E-04-1.31097E-01 2.98313E-14-1.60191E-13
 -1      3627 1.68860E+01-1.80179E+00 2.14639E-02-4.20846E+00-1.48411E-13 8.03906E-14
 -1      3628 1.83313E+01-1.76412E+00 4.33114E-02-3.58267E+00-1.00595E-13-1.06077E-13
 -1      3629 1.58481E+01-1.12589E+00 1.44281E-02-3.81306E+00-1.64026E-13-7.95926E-14
 -1      3630 1.18356E+01 7.81648E-01 8.41127E-02 7.70244E-02 1.19298E-13-6.24396E-14
 -1      3631 1.26877E+01 7.63808E-01 6.81489E-03-9.16961E-01 1.87407E-14-8.65974E-14
 -1      3632 1.28341E+01 7.80457E-01 2.38379E-02 7.31387E-01 2.42459E-13-8.47239E-14
 -1      3633 2.03354E+01 5.78658E-01 4.79504E-04-1.16002E-01-1.44170E-13-2.15224E-13
 -1      3634 1.60360E+01-8.96528E-01 7.58433E-02-3.63683E+00 1.88126E-13-2.36337E-13
 -1      3635 2.02005E+01 1.64913E-01-1.26208E-03-8.20068E-02 5.25247E-14-2.01037E-13
 -1      3636 2.02270E+01 2.36681E-01 2.62153E-03-3.65063E-02 6.50364E-14-2.38381E-13
 -1      3637 2.02504E+01 1.67857E-01-6.78889E-04-8.05075E-02 2.20943E-14-1.91827E-13
 -1      3638 1.69280E+01-1.20942E+00-9.45939E-03 3.61242E+00 1.51570E-13-2.50341E-13
 -1      3639 2.10708E+01-2.93482E+00 1.09656E-02 3.24841E+00-3.00064E-14-2.30692E-13
 -1      3640 1.99307E+01-2.74691E+00 5.66992E-02 3.91853E+00-1.36141E-14-3.13635E-13
 -1      3641 1.91004E+01-1.97239E+00 8.06721E-03 3.62250E+00-3.27603E-13-4.91057E-14
 -1      3642 2.05665E+01-2.30497E+00-1.80272E-02 3.03705E+00-1.29744E-13-1.78635E-13
 -1      3643 1.32334E+01-1.25134E-01 7.44410E-02-2.89444E+00-2.05150E-13-3.03767E-13
 -1      3644 1.62606E+01-6.46601E-01 6.27402E-02 3.24570E+00-2.13562E-13-6.09287E-14
 -1      3645 2.02148E+01 1.60964E+00-2.26707E-03-1.96451E-01-9.02578E-14-3.14065E-13
 -1      3646 2.02272E+01 1.55692E+00-3.07817E-03-2.82476E-01-1.20981E-13-3.32031E-13
 -1      3647 2.12836E+01-2.77635E+00 3.12252E-02-2.75386E+00-4.81282E-14-1.20445E-13
 -1      3648 2.02977E+01 1.24498E+00 2.35477E-03-2.84364E-01-1.35337E-13-2.88820E-13
 -1      3649 2.02445E+01 1.44134E+00-9.41544E-04-3.83039E-01-1.78176E-13-3.24914E-13
 -1      3650 2.02821E+01 3.31361E-01-7.77337E-04 8.50585E-03 5.21350E-14-2.47110E-13
 -1      3651 1.90930E+01 5.64703E-01-1.26523E-02 1.73677E+00 1.11950E-13 2.41870E-13
 -1      3652 1.94674E+01 4.19768E-01 9.57999E-03 1.83493E+00 2.03161E-14-7.18328E-14
 -1      3653 1.96571E+01 9.95300E-02-7.40921E-03 1.95525E+00 3.90131E-14-6.51739E-14
 -1      3654 2.03026E+01 9.42140E-02 9.99371E-04 9.66934E-02-6.70006E-14-1.26120E-13
 -1      3655 2.02812E+01 4.89678E-02-4.64646E-04 1.13680E-01-3.98451E-14-1.19241E-13
 -1      3656 2.02610E+01 1.54888E-02 6.99573E-04 1.22182E-01-3.75509E-14-1.13710E-13
 -1      3657 2.02405E+01-9.48061E-03-7.71962E-05 1.30338E-01-1.86841E-14-1.37782E-13
 -1      3658 2.03048E+01 4.28860E-02-3.31184E-04 9.98855E-02-3.84353E-14-1.37144E-13
 -1      3659 2.02185E+01-2.59759E-02 4.17577E-04 1.33378E-01 7.39162E-15-1.29003E-13
 -1      3660 2.01997E+01-3.59638E-02 1.84574E-04 1.36382E-01-1.99322E-14-1.16227E-13
 -1      3661 2.02605E+01-1.31740E-02-4.27442E-04 1.13669E-01-1.92913E-14-1.22473E-13
 -1      3662 2.01772E+01-3.98867E-02 1.67234E-04 1.36636E-01-4.58461E-14-1.01372E-13
 -1      3663 2.01604E+01-3.86882E-02 3.52200E-04 1.37391E-01-4.70559E-14-7.88872E-14
 -1      3664 2.02153E+01-3.65738E-02-4.27917E-04 1.18991E-01-2.95246E-14-1.06385E-13
 -1      3665 2.01381E+01-3.31260E-02-5.61831E-05 1.36978E-01-8.06519E-14-1.20265E-13
 -1      3666 2.01229E+01-2.33420E-02 4.52828E-04 1.37746E-01-9.23452E-14-1.02239E-13
 -1      3667 2.01709E+01-3.54795E-02-3.58830E-04 1.20538E-01-5.76888E-14-1.05434E-13
 -1      3668 2.01006E+01-1.03414E-02-2.63846E-04 1.38328E-01-8.59662E-14-9.82009E-14
 -1      3669 2.00865E+01 6.36520E-03 5.07535E-04 1.40887E-01-9.10147E-14-8.06838E-14
 -1      3670 2.01275E+01-1.55561E-02-2.37187E-04 1.22014E-01-8.81810E-14-1.63191E-13
 -1      3671 2.00635E+01 2.55620E-02-4.68525E-04 1.43785E-01-7.14752E-14-6.82779E-14
 -1      3672 2.00496E+01 4.82504E-02 5.32815E-04 1.49571E-01-6.98672E-14-9.87640E-14
 -1      3673 2.00843E+01 1.95244E-02-7.17296E-05 1.26338E-01-6.98657E-14-8.56910E-14
 -1      3674 2.00250E+01 7.30037E-02-6.82751E-04 1.55886E-01-8.62046E-14-9.42653E-14
 -1      3675 2.00101E+01 1.01236E-01 5.35310E-04 1.66116E-01-6.61888E-14-1.04973E-13
 -1      3676 2.00393E+01 6.76436E-02 1.38067E-04 1.35857E-01-7.42220E-14-9.25608E-14
 -1      3677 1.99823E+01 1.31291E-01-9.18417E-04 1.76789E-01-3.43787E-14-1.22297E-13
 -1      3678 1.99652E+01 1.64960E-01 5.19774E-04 1.92511E-01-1.32468E-14-1.24261E-13
 -1      3679 1.99901E+01 1.27732E-01 3.85970E-04 1.52553E-01-5.10487E-14-6.74078E-14
 -1      3680 1.99324E+01 2.00321E-01-1.18795E-03 2.08376E-01-1.22796E-14-1.19994E-13
 -1      3681 1.99116E+01 2.39479E-01 4.87560E-04 2.30553E-01-4.34522E-14-4.98001E-14
 -1      3682 1.99332E+01 1.99475E-01 6.86087E-04 1.78072E-01-6.09804E-15-7.92773E-14
 -1      3683 1.98714E+01 2.80164E-01-1.49664E-03 2.52401E-01-5.32907E-14-1.47706E-14
 -1      3684 1.98449E+01 3.24761E-01 4.37600E-04 2.81908E-01-5.39461E-14-1.57633E-14
 -1      3685 1.98647E+01 2.82839E-01 1.04033E-03 2.13905E-01-4.42629E-15-5.82812E-14
 -1      3686 1.97948E+01 3.70564E-01-1.85486E-03 3.10470E-01-7.40139E-15-5.08341E-14
 -1      3687 1.97605E+01 4.20208E-01 3.69888E-04 3.48098E-01-1.89416E-14-7.14172E-14
 -1      3688 1.97796E+01 3.77641E-01 1.47207E-03 2.61393E-01-4.54061E-14-8.97472E-14
 -1      3689 1.96974E+01 4.70430E-01-2.27775E-03 3.84071E-01-7.36549E-14-4.67623E-14
 -1      3690 1.96528E+01 5.24071E-01 2.91847E-04 4.30554E-01 2.69357E-14 2.83569E-14
 -1      3691 1.96723E+01 4.82972E-01 1.98824E-03 3.21705E-01-2.78546E-14-7.23418E-14
 -1      3692 1.95730E+01 5.77119E-01-2.78574E-03 4.74699E-01 3.98226E-14 4.54096E-14
 -1      3693 1.95157E+01 6.32606E-01 2.28693E-04 5.30792E-01 2.39077E-15-3.17616E-15
 -1      3694 1.95363E+01 5.96642E-01 2.60595E-03 3.95994E-01 9.98571E-15 6.46735E-14
 -1      3695 1.94149E+01 6.85475E-01-3.41734E-03 5.84114E-01 6.67294E-15-3.93443E-14
 -1      3696 1.93424E+01 7.39003E-01 2.41605E-04 6.50823E-01 5.95525E-15-9.50505E-14
 -1      3697 1.93638E+01 7.14354E-01 3.34417E-03 4.85643E-01-3.00794E-15-2.41949E-14
 -1      3698 1.92160E+01 7.86588E-01-4.24227E-03 7.15017E-01 4.88401E-15-1.36627E-13
 -1      3699 1.91265E+01 8.31964E-01 4.56223E-04 7.94107E-01 5.23180E-14-1.08826E-13
 -1      3700 1.91462E+01 8.28744E-01 4.22541E-03 5.92897E-01 1.39741E-14-1.10729E-13
 -1      3701 1.89688E+01 8.66133E-01-5.37922E-03 8.72433E-01 6.64765E-14-1.42639E-13
 -1      3702 1.88627E+01 8.93789E-01 1.10244E-03 9.67393E-01 2.79443E-14-1.35949E-13
 -1      3703 1.88738E+01 9.28194E-01 5.27640E-03 7.22185E-01 1.68245E-14-1.58089E-13
 -1      3704 1.86671E+01 9.02131E-01-7.00918E-03 1.06620E+00-4.65448E-16-1.20429E-13
 -1      3705 1.85484E+01 8.97813E-01 2.57616E-03 1.18384E+00 6.91537E-15-3.40436E-14
 -1      3706 1.85354E+01 9.95264E-01 6.52212E-03 8.82598E-01 3.64479E-14-6.19968E-14
 -1      3707 1.83074E+01 8.61966E-01-9.34031E-03 1.31503E+00-5.91462E-14-3.56130E-14
 -1      3708 1.81880E+01 8.05108E-01 5.71774E-03 1.46771E+00-4.22524E-15-7.14999E-14
 -1      3709 1.81185E+01 1.00457E+00 8.00008E-03 1.09199E+00 3.26770E-15-2.15607E-14
 -1      3710 1.78935E+01 6.98202E-01-1.22134E-02 1.65331E+00 4.13524E-14-2.24535E-13
 -1      3711 1.78001E+01 5.57450E-01 1.20197E-02 1.86168E+00 4.26298E-14-2.78899E-13
 -1      3712 1.76094E+01 9.20284E-01 1.00881E-02 1.38403E+00-1.24184E-13-2.00189E-13
 -1      3713 1.74475E+01 3.38989E-01-1.40964E-02 2.13743E+00 5.85875E-14-3.57337E-13
 -1      3714 1.74183E+01 5.59192E-02 1.95520E-02 2.43790E+00 7.28677E-14-3.64867E-13
 -1      3715 1.69966E+01 6.86966E-01 1.43090E-02 1.81874E+00 4.45221E-14-5.30860E-13
 -1      3716 1.70875E+01-2.48234E-01-1.63214E-02 2.75701E+00 9.26296E-14-3.35417E-13
 -1      3717 1.72122E+01-7.60028E-01 2.18157E-02 3.16501E+00 7.39812E-14-2.77228E-13
 -1      3718 1.57865E+01-3.23410E-01 3.55246E-02 3.14720E+00 1.49640E-13-2.39921E-13
 -1      3719 1.63769E+01 2.88554E-01 2.61757E-02 2.40125E+00 5.23149E-14-3.90740E-13
 -1      3720 2.00514E+01 3.25467E-02 6.34063E-04-1.60220E-01-8.77187E-17-7.64530E-14
 -1      3721 2.00609E+01 1.30453E-02-4.46620E-04-1.55196E-01 2.66680E-14-1.10650E-13
 -1      3722 1.90206E+01 7.69520E-01-7.46227E-03-1.85338E+00-1.84280E-13-1.51949E-13
 -1      3723 1.77684E+01 5.24833E-02-1.38355E-02-2.57020E+00-1.08630E-13-7.85792E-14
 -1      3724 1.79104E+01 3.89744E-01-1.39575E-02-2.26733E+00-8.08320E-14-1.76898E-14
 -1      3725 1.44553E+01 5.69035E-01-5.69054E-02 1.47120E+00-1.06977E-13 3.86271E-14
 -1      3726 1.40324E+01 9.18935E-01 4.88917E-02 2.70662E-02 1.35780E-13 8.23994E-16
 -1      3727 1.84316E+01 6.08533E-01-1.68075E-03-2.01484E+00-1.51529E-13-5.29562E-14
 -1      3728 1.86448E+01 7.18589E-01-4.90822E-03-1.90147E+00-1.18985E-13-1.77134E-13
 -1      3729 2.40240E+01-3.67265E+00 8.17704E-03 1.72136E+00 1.23563E-13-6.33313E-14
 -1      3730 2.00804E+01-3.27330E-03 5.79064E-04-1.52690E-01 6.91144E-14-9.39619E-14
 -1      3731 2.00907E+01-1.74325E-02-2.45075E-04-1.50948E-01 1.11591E-13-7.18029E-14
 -1      3732 2.00832E+01 7.73076E-03-1.50427E-04-1.41217E-01 5.82902E-14-1.69818E-14
 -1      3733 1.99895E+01 1.31925E-01 7.22769E-04-2.02531E-01 1.25595E-14-1.33309E-13
 -1      3734 1.99995E+01 1.03371E-01-8.61366E-04-1.87107E-01 3.30756E-14-9.25935E-14
 -1      3735 1.99525E+01 1.93893E-01 7.75916E-04-2.41782E-01 2.07778E-14-7.38777E-14
 -1      3736 1.99640E+01 1.61372E-01-1.08959E-03-2.19502E-01 1.46204E-14-1.24623E-13
 -1      3737 1.99621E+01 1.63313E-01 4.17255E-04-1.95341E-01 3.36224E-15-8.32473E-14
 -1      3738 1.99086E+01 2.62777E-01 8.45112E-04-2.95865E-01-3.21149E-14 1.52353E-14
 -1      3739 1.99223E+01 2.26871E-01-1.33932E-03-2.65727E-01 1.19528E-14 4.77365E-15
 -1      3740 1.99105E+01 2.33598E-01 6.49643E-04-2.35218E-01-4.32385E-14-3.48263E-14
 -1      3741 1.98555E+01 3.36615E-01 9.39714E-04-3.66794E-01-7.47560E-14-1.24714E-14
 -1      3742 1.98722E+01 2.98450E-01-1.61025E-03-3.27872E-01-2.26347E-14 6.50443E-14
 -1      3743 1.98487E+01 3.11251E-01 8.99104E-04-2.89495E-01-5.62990E-14 8.99399E-14
 -1      3744 1.97915E+01 4.11804E-01 1.08269E-03-4.56548E-01-7.91596E-15-9.48538E-14
 -1      3745 1.98116E+01 3.73425E-01-1.89692E-03-4.08008E-01-5.50496E-14-9.62132E-14
 -1      3746 1.97738E+01 3.93879E-01 1.15181E-03-3.60346E-01 2.09901E-15 1.00074E-14
 -1      3747 1.97160E+01 4.82188E-01 1.31227E-03-5.67114E-01-8.68044E-14-3.84221E-14
 -1      3748 1.97390E+01 4.47036E-01-2.18667E-03-5.08228E-01-2.77268E-14-5.59482E-14
 -1      3749 1.96832E+01 4.77216E-01 1.38197E-03-4.50153E-01-7.19175E-14-6.79128E-14
 -1      3750 1.96301E+01 5.37897E-01 1.69565E-03-7.00603E-01-2.56358E-13 8.12251E-14
 -1      3751 1.96544E+01 5.11421E-01-2.45786E-03-6.30746E-01-1.62504E-13 3.55420E-14
 -1      3752 1.95754E+01 5.54173E-01 1.54371E-03-5.61719E-01-1.57917E-13 2.40042E-14
 -1      3753 1.95385E+01 5.63930E-01 2.34500E-03-8.59483E-01-1.05255E-13 7.62479E-14
 -1      3754 1.95603E+01 5.54325E-01-2.67240E-03-7.78086E-01-2.18326E-13 6.19106E-14
 -1      3755 1.94505E+01 6.13638E-01 1.55755E-03-6.98652E-01-2.52786E-13-6.45363E-14
 -1      3756 1.94520E+01 5.38446E-01 3.43160E-03-1.04691E+00-2.48710E-14 9.24334E-14
 -1      3757 1.94636E+01 5.57543E-01-2.75479E-03-9.53440E-01-1.22599E-14 1.21535E-13
 -1      3758 1.93119E+01 6.39007E-01 1.28791E-03-8.66010E-01-1.02829E-13-2.85052E-14
 -1      3759 1.93912E+01 4.30804E-01 5.16618E-03-1.26689E+00-3.99213E-14-6.79919E-14
 -1      3760 1.93788E+01 4.95111E-01-2.53668E-03-1.16105E+00-2.39142E-14 4.39092E-14
 -1      3761 1.91686E+01 6.06315E-01 4.97321E-04-1.07125E+00 1.01740E-14 4.03289E-14
 -1      3762 1.93927E+01 1.99924E-01 7.79659E-03-1.52305E+00-9.67389E-14-1.32518E-13
 -1      3763 1.93336E+01 3.31392E-01-1.63709E-03-1.40594E+00-5.10449E-14-2.74783E-14
 -1      3764 1.90392E+01 4.81696E-01-1.24733E-03-1.32514E+00-4.62535E-14-1.08046E-13
 -1      3765 1.95184E+01-2.06157E-01 1.13551E-02-1.81424E+00-7.03000E-14-1.80386E-13
 -1      3766 1.93763E+01 2.01529E-02 7.46850E-04-1.69173E+00-8.01038E-14-1.29435E-13
 -1      3767 1.89591E+01 2.19121E-01-4.62004E-03-1.64119E+00-8.03766E-14-1.56291E-13
 -1      3768 1.98670E+01-8.42660E-01 1.56373E-02-2.12142E+00-7.67379E-14-2.05867E-13
 -1      3769 1.95914E+01-4.94110E-01 6.39947E-03-2.01205E+00-4.57689E-14-1.65101E-13
 -1      3770 1.89910E+01-2.42637E-01-1.10852E-02-2.03319E+00-7.11203E-14-2.57351E-13
 -1      3771 2.06233E+01-1.73237E+00 2.73289E-02-2.34831E+00 9.57069E-15-1.98987E-13
 -1      3772 2.01186E+01-1.26625E+00 1.86204E-02-2.31897E+00-5.97929E-14-1.60861E-13
 -1      3773 1.92699E+01-9.90911E-01-2.18367E-02-2.50157E+00-5.47394E-14-3.92311E-13
 -1      3774 2.05561E+01-2.20457E+00 3.87337E-02-2.81719E+00-9.16715E-15-1.44588E-13
 -1      3775 1.79589E+01 9.05698E-01 2.62743E-03 1.30710E+00 7.55420E-14 1.27108E-13
 -1      3776 1.83607E+01 9.32206E-01-1.36120E-02 1.32842E+00 1.26857E-13 3.35787E-13
 -1      3777 1.87146E+01 8.21074E-01 2.16152E-02 1.55000E+00 3.44451E-14 5.52371E-13
 -1      3778 2.02563E+01 1.38060E+00-5.50354E-03 4.16515E-01 1.12627E-13-3.60673E-13
 -1      3779 2.02416E+01 1.48238E+00-1.16344E-03 3.45660E-01 8.59970E-14-3.41870E-13
 -1      3780 2.03024E+01 1.28467E+00 4.93484E-03 2.51293E-01 8.59701E-14-3.05168E-13
 -1      3781 2.03389E+01 2.23698E-01 1.38680E-03 4.92237E-02-8.24364E-14-1.76756E-13
 -1      3782 2.03183E+01 1.50803E-01-1.00580E-03 7.95040E-02-7.99765E-14-1.48667E-13
 -1      3783 2.03447E+01 1.42843E-01-9.69946E-05 7.18991E-02-5.37762E-14-1.68397E-13
 -1      3784 2.01420E+01-3.96199E-02 3.77676E-04-1.51553E-01 5.98989E-14-8.27228E-14
 -1      3785 2.01560E+01-3.91928E-02 2.18299E-04-1.51225E-01 9.47130E-14-8.58914E-14
 -1      3786 1.77761E+01 7.24232E-01 1.29150E-02-1.91070E+00-2.14433E-13-2.85908E-13
 -1      3787 1.36225E+01 2.71625E-01 5.78440E-03-2.28662E+00-1.61617E-13-2.35340E-13
 -1      3788 1.46289E+01-3.74641E-01 4.17320E-02-3.32604E+00-2.44239E-13-2.44336E-13
 -1      3789 1.61953E+01-5.81512E-01 4.15895E-02-3.19514E+00-1.00629E-13-1.57312E-13
 -1      3790 1.97872E+01-1.57680E-01 1.05225E-02 2.07059E+00 1.50768E-13-4.34841E-14
 -1      3791 2.02133E+01-5.20411E-03-9.76624E-05-1.43811E-01 1.46641E-14-1.73340E-13
 -1      3792 2.02323E+01 2.06419E-02 8.54142E-04-1.34576E-01 1.76229E-14-1.80746E-13
 -1      3793 2.03089E+01 1.03151E+00 3.48801E-03 3.34374E-01 1.22450E-13-3.09363E-13
 -1      3794 1.98973E+01-6.61429E-01 2.32531E-03 2.35951E+00 1.01984E-13 1.04335E-13
 -1      3795 2.01513E+01-1.11283E+00-7.09489E-03 2.47365E+00-7.27682E-14-9.55074E-14
 -1      3796 2.02500E+01 4.86441E-01-1.13204E-03 1.37258E-01 7.71161E-14-2.93589E-13
 -1      3797 2.02681E+01 5.98698E-01 1.89764E-03 2.25800E-01 9.65679E-14-2.98100E-13
 -1      3798 2.02926E+01 7.25093E-01 8.71534E-04 2.63896E-01 1.14405E-13-2.85845E-13
 -1      3799 2.02944E+01 5.22592E-01-6.56912E-04 1.25303E-01 8.57336E-14-3.31882E-13
 -1      3800 1.38929E+01 6.87843E-01-1.50718E-02-1.13126E+00 1.30674E-13-9.11771E-15
 -1      3801 1.46179E+01 3.46980E-01 3.41176E-02-2.20248E+00 8.96627E-14-3.02749E-13
 -1      3802 1.65297E+01-2.47762E-01 6.70024E-03-3.00341E+00-6.75713E-15-1.98276E-13
 -1      3803 2.03566E+01 7.06292E-01-2.86772E-04-1.47786E-01-1.44800E-13-2.16999E-13
 -1      3804 2.03531E+01 5.50580E-01-2.62217E-03-7.44901E-02-1.25535E-13-2.01431E-13
 -1      3805 2.01764E+01-3.38879E-02 1.89107E-04-1.50882E-01 6.18658E-14-1.30225E-13
 -1      3806 2.01929E+01-2.26566E-02 5.09796E-04-1.47740E-01 1.52990E-14-1.46012E-13
 -1      3807 2.01986E+01-3.53292E-02-4.70607E-04-1.35525E-01 3.29965E-14-1.17279E-13
 -1      3808 2.02035E+01 1.66022E+00-2.67216E-03-3.46078E-02-4.60767E-14-3.09687E-13
 -1      3809 2.02069E+01 1.64206E+00-3.25585E-03-1.25445E-01-8.08185E-14-3.08945E-13
 -1      3810 2.02900E+01 1.38843E+00 4.77159E-03-1.29768E-01-7.60707E-14-3.01722E-13
 -1      3811 2.02857E+01 1.42127E+00 4.99506E-03 2.18586E-03-3.33472E-14-3.03552E-13
 -1      3812 1.43117E+01 2.73915E-01 1.42265E-02 2.37335E+00 1.87779E-13-2.55122E-13
 -1      3813 1.74287E+01-9.17369E-01-3.15565E-02 3.29697E+00-2.68875E-13-5.88488E-14
 -1      3814 1.58502E+01 8.97157E-02 5.37917E-02 2.63456E+00-2.34638E-13-7.19416E-14
 -1      3815 2.03630E+01 4.20039E-01 1.76160E-03-2.98162E-02-1.04328E-13-1.95942E-13
 -1      3816 2.03457E+01 3.11130E-01-1.76514E-03 1.89677E-02-1.01463E-13-1.81839E-13
 -1      3817 2.03735E+01 3.02123E-01 3.62421E-04 2.28328E-02-9.79353E-14-1.64827E-13
 -1      3818 2.02628E+01 1.35022E+00 6.76691E-04-4.49360E-01-2.01074E-13-2.56945E-13
 -1      3819 2.03168E+01 3.23662E-01-1.69196E-03-8.88932E-03 2.27927E-14-2.70293E-13
 -1      3820 2.03323E+01 4.36272E-01 1.81567E-03 4.91919E-02 3.49708E-14-2.88873E-13
 -1      3821 2.02564E+01 1.36609E+00 1.65373E-03-5.39868E-01-2.19332E-13-2.37772E-13
 -1      3822 2.00218E+01 7.78982E-02 6.78522E-04-1.76055E-01 3.59556E-14-8.80803E-14
 -1      3823 2.00311E+01 5.36741E-02-6.49604E-04-1.66422E-01 1.54072E-14-1.08233E-13
 -1      3824 2.00459E+01 4.94884E-02 1.41835E-05-1.50463E-01 2.41082E-14-4.45768E-14
 -1      3825 2.00063E+01 1.01651E-01 2.00448E-04-1.67773E-01 2.78367E-14-1.02920E-13
 -1      3826 2.01102E+01-2.81361E-02 4.99441E-04-1.50848E-01 8.88769E-14-9.74060E-14
 -1      3827 2.01221E+01-3.58736E-02-2.84739E-05-1.50800E-01 6.31848E-14-6.39134E-14
 -1      3828 2.01203E+01-2.21879E-02-2.90328E-04-1.37635E-01 8.11401E-14-9.19818E-14
 -1      3829 1.93505E+01-1.90785E+00-2.47808E-02-3.20217E+00-3.75346E-14-3.39902E-13
 -1      3830 1.59556E+01 4.81570E-01 3.64258E-02 1.77709E+00-1.50268E-13-1.08978E-13
 -1      3831 2.02403E+01-8.86357E-03-4.84825E-04-1.29119E-01 8.86160E-15-1.71657E-13
 -1      3832 1.49660E+01 8.98831E-01 4.15631E-02-5.23367E-01 3.15334E-14-2.80956E-14
 -1      3833 2.02822E+01 4.98564E-02-4.15065E-04-1.12086E-01 6.84055E-15-2.27644E-13
 -1      3834 2.02513E+01 5.46504E-02-5.18710E-04-1.23895E-01 5.93963E-15-2.03170E-13
 -1      3835 2.02726E+01 1.00455E-01 1.26422E-03-1.04386E-01-5.70729E-15-2.19774E-13
 -1      3836 2.03243E+01 1.19655E+00-2.54074E-03 3.21874E-02-8.84508E-15-3.05655E-13
 -1      3837 2.03240E+01 1.19745E+00-2.45405E-03-2.87823E-02-3.78389E-14-2.66212E-13
 -1      3838 1.73426E+01 8.69920E-01-2.05385E-02 1.32348E+00 1.03626E-13-6.85329E-14
 -1      3839 1.77918E+01 7.26541E-01 2.42531E-02 1.71102E+00 2.12426E-13 1.55974E-13
 -1      3840 1.72951E+01 8.79944E-01-9.52052E-03-1.54682E+00-1.27397E-13-1.65872E-13
 -1      3841 2.01585E+01-3.78342E-02-4.00265E-04-1.36897E-01 7.99499E-14-3.45451E-14
 -1      3842 2.02959E+01-1.54712E+00-1.13056E-03 2.67210E+00-1.64835E-13-1.59749E-13
 -1      3843 2.03259E+01 1.04718E+00-1.71734E-03-2.57508E-01-1.21851E-13-2.74983E-13
 -1      3844 2.03446E+01 8.59224E-01-1.02563E-03-1.76645E-01-1.24286E-13-2.52849E-13
 -1      3845 2.03675E+01 8.29092E-01 1.07280E-04-1.33737E-01-1.08174E-13-2.66044E-13
 -1      3846 2.03224E+01 1.16252E+00-2.05105E-04-1.81454E-01-9.65594E-14-2.75200E-13
 -1      3847 1.37063E+01 7.01906E-01 5.67028E-02-1.60568E+00-9.70417E-14-1.01988E-13
 -1      3848 1.48520E+01 4.70020E-01 1.06735E-02-2.03043E+00-1.90118E-13-1.55889E-13
 -1      3849 1.39294E+01 8.74049E-01-8.37867E-03-8.59408E-01-3.47899E-14 2.57242E-14
 -1      3850 2.03240E+01 5.19338E-01-1.60122E-03 9.11690E-02 6.79802E-14-3.17918E-13
 -1      3851 2.03247E+01 6.12045E-01-3.54956E-04 1.50745E-01 8.81721E-14-3.23329E-13
 -1      3852 2.03556E+01 5.20088E-01 6.84390E-04 6.88520E-02 3.53239E-14-2.88740E-13
 -1      3853 1.68673E+01 1.15513E+00-1.04136E-02 3.33906E-01-7.76381E-14-2.62160E-14
 -1      3854 1.70554E+01 1.07119E+00 3.48549E-03 8.04548E-01-6.22922E-14-4.35403E-14
 -1      3855 1.68249E+01 8.78738E-01 8.36262E-03 1.22050E+00 9.18506E-14-2.34684E-13
 -1      3856 1.93245E+01-1.77606E-01 1.04395E-02 2.28774E+00 2.28638E-13-2.54213E-14
 -1      3857 1.85127E+01-1.35938E+00 6.65780E-03-3.15269E+00-2.03217E-14-2.05984E-13
 -1      3858 2.03267E+01 1.14696E+00-3.38194E-03 1.34949E-01 5.94267E-14-2.89748E-13
 -1      3859 2.03256E+01 1.18294E+00-1.75930E-03 7.78731E-02 1.68110E-14-3.17405E-13
 -1      3860 2.03775E+01 9.98109E-01 3.89874E-03 4.15598E-02 1.02186E-14-2.92459E-13
 -1      3861 2.02877E+01 1.56960E-01-1.14476E-03-8.30082E-02-3.83455E-16-2.53382E-13
 -1      3862 2.03098E+01 2.30174E-01 1.81408E-03-4.81274E-02 9.53411E-15-2.61048E-13
 -1      3863 2.03209E+01 1.52314E-01-2.19733E-04-7.74872E-02-3.20400E-14-3.01614E-13
 -1      3864 1.53353E+01 2.02791E-01-6.32238E-03-2.45825E+00 9.15067E-15-3.71782E-13
 -1      3865 1.74422E+01 9.98775E-02 1.85266E-02-2.55331E+00-1.28150E-13-1.65600E-13
 -1      3866 2.03817E+01 5.33846E-01-3.41989E-04-5.29896E-02-1.11633E-13-2.10392E-13
 -1      3867 2.03250E+01 1.18458E+00-1.79583E-03-7.47350E-02-6.58023E-14-2.71778E-13
 -1      3868 2.03254E+01 1.15227E+00-2.86513E-03-1.31635E-01-9.71148E-14-2.78683E-13
 -1      3869 2.03774E+01 9.98546E-01 3.79280E-03-3.84136E-02-3.34815E-14-2.50174E-13
 -1      3870 1.89425E+01-1.13998E+00 3.74092E-02 3.11397E+00-1.77153E-13 1.48541E-13
 -1      3871 1.83154E+01-4.78275E-01-3.32325E-03 2.74245E+00 4.62477E-15 7.85275E-14
 -1      3872 2.03688E+01 9.87006E-01 4.03955E-03-1.18262E-01-8.93626E-14-2.67035E-13
 -1      3873 1.87082E+01 4.97544E-01-1.52156E-02 1.82292E+00 1.93001E-13 2.73188E-13
 -1      3874 2.03501E+01 3.18032E-01-2.02833E-04-1.50628E-02 3.92882E-15-3.12308E-13
 -1      3875 1.53581E+01 4.65363E-01 1.57004E-02 2.06407E+00 1.05336E-13-3.81171E-13
 -1      3876 1.37738E+01 7.49581E-01 5.80678E-02 1.60181E+00 1.96744E-13-2.54994E-13
 -1      3877 1.38831E+01 9.00215E-01-9.12443E-03 6.90469E-01 1.29568E-13-7.09901E-14
 -1      3878 1.56145E+01 6.40057E-01-2.15114E-02 1.78193E+00 8.29697E-14-4.30919E-13
 -1      3879 2.13287E+01-3.00321E+00 5.89237E-02 3.19397E+00 2.12488E-13-2.11851E-13
 -1      3880 2.02978E+01-5.42377E-04 4.03135E-04 9.01899E-02-1.74742E-14-1.77392E-13
 -1      3881 2.02745E+01-2.09129E-02 2.22793E-05 9.55436E-02 8.00683E-16-1.50652E-13
 -1      3882 2.02492E+01-3.31399E-02 2.41862E-04 9.66259E-02-1.95383E-14-1.24682E-13
 -1      3883 2.02263E+01-3.86574E-02 2.01672E-04 9.89284E-02-2.77831E-14-1.58616E-13
 -1      3884 2.02804E+01-2.41479E-02-4.00605E-04 7.49618E-02-6.68930E-15-1.45675E-13
 -1      3885 2.02001E+01-3.82013E-02 7.51663E-05 9.88296E-02-3.92786E-14-1.47609E-13
 -1      3886 2.01780E+01-3.24436E-02 3.00085E-04 1.00078E-01-8.33003E-14-1.42635E-13
 -1      3887 2.02289E+01-3.72733E-02-3.84684E-04 7.77060E-02-5.07370E-14-1.62767E-13
 -1      3888 2.01514E+01-2.22300E-02-9.66694E-05 1.00082E-01-7.45479E-14-1.11464E-13
 -1      3889 2.01299E+01-7.62333E-03 3.38217E-04 1.01849E-01-3.21109E-14-5.74362E-14
 -1      3890 2.01768E+01-2.63205E-02-2.90123E-04 7.90605E-02-2.52773E-14-7.30661E-14
 -1      3891 2.01025E+01 1.04388E-02-2.76939E-04 1.02968E-01-5.48442E-14-8.57882E-14
 -1      3892 2.00808E+01 3.23757E-02 3.29849E-04 1.06501E-01-8.16962E-14-8.11144E-14
 -1      3893 2.01242E+01 3.53360E-03-1.33391E-04 8.11865E-02-4.48273E-14-2.93024E-14
 -1      3894 2.00518E+01 5.71659E-02-4.69178E-04 1.09525E-01-6.35693E-14-7.74192E-14
 -1      3895 2.00288E+01 8.56345E-02 2.94353E-04 1.15827E-01-2.14193E-14-5.88105E-14
 -1      3896 2.00698E+01 4.89905E-02 7.61577E-05 8.57846E-02-6.75481E-14-8.06832E-14
 -1      3897 1.99966E+01 1.16628E-01-6.78042E-04 1.21442E-01-2.15504E-14-9.40324E-14
 -1      3898 1.99707E+01 1.51202E-01 2.15497E-04 1.31382E-01-2.13491E-14-4.84949E-14
 -1      3899 2.00111E+01 1.08296E-01 3.59054E-04 9.41470E-02-1.79331E-14-4.64610E-14
 -1      3900 1.99336E+01 1.88120E-01-9.31721E-04 1.40096E-01-4.29614E-14-1.24392E-13
 -1      3901 1.99030E+01 2.28776E-01 1.06381E-04 1.54324E-01-4.08706E-14-1.01025E-13
 -1      3902 1.99448E+01 1.80532E-01 7.02306E-04 1.07542E-01-6.74448E-14-2.91049E-14
 -1      3903 1.98585E+01 2.71687E-01-1.22481E-03 1.66660E-01-3.34982E-14-1.26700E-13
 -1      3904 1.98209E+01 3.18364E-01-3.36724E-05 1.85831E-01-1.31783E-14-1.65192E-13
 -1      3905 1.98666E+01 2.65263E-01 1.03224E-03 1.26499E-01-7.04365E-14-1.20991E-13
 -1      3906 1.97663E+01 3.67070E-01-1.54895E-03 2.02153E-01-4.23660E-14-1.39556E-13
 -1      3907 1.97191E+01 4.19491E-01-2.11894E-04 2.26742E-01-4.55826E-14-1.42274E-13
 -1      3908 1.97716E+01 3.62527E-01 1.49911E-03 1.52045E-01-1.30965E-14-1.61004E-13
 -1      3909 1.96509E+01 4.73559E-01-1.93546E-03 2.47332E-01-2.69109E-14-1.61381E-13
 -1      3910 1.95910E+01 5.31019E-01-4.34977E-04 2.77752E-01-2.01941E-14-8.81592E-14
 -1      3911 1.96536E+01 4.71534E-01 2.05094E-03 1.84403E-01-3.93097E-14-1.46939E-13
 -1      3912 1.95055E+01 5.89362E-01-2.40251E-03 3.02873E-01-1.72902E-14-1.53380E-14
 -1      3913 1.94291E+01 6.50357E-01-7.03632E-04 3.39516E-01 8.58054E-15-5.97866E-14
 -1      3914 1.95056E+01 5.90823E-01 2.71944E-03 2.23840E-01 1.87419E-14-9.05326E-14
 -1      3915 1.93216E+01 7.10897E-01-2.99561E-03 3.69454E-01-1.87148E-14-7.71092E-15
 -1      3916 1.92248E+01 7.72791E-01-1.00746E-03 4.12874E-01-2.49684E-14-2.96171E-14
 -1      3917 1.93191E+01 7.17385E-01 3.54383E-03 2.70476E-01 2.31867E-14-1.06751E-13
 -1      3918 1.90893E+01 8.32058E-01-3.80073E-03 4.48186E-01-2.27596E-15-3.01065E-14
 -1      3919 1.89675E+01 8.90699E-01-1.31480E-03 4.99516E-01 5.67694E-15-5.25590E-14
 -1      3920 1.90842E+01 8.46168E-01 4.58677E-03 3.24577E-01-8.92323E-15 1.91806E-14
 -1      3921 1.87965E+01 9.43383E-01-4.97788E-03 5.41539E-01 5.36742E-14-1.28094E-13
 -1      3922 1.86447E+01 9.92713E-01-1.55285E-03 6.03332E-01-8.16822E-15-1.40075E-13
 -1      3923 1.87881E+01 9.69573E-01 5.95689E-03 3.87213E-01 1.48085E-14 1.79708E-14
 -1      3924 1.84274E+01 1.03114E+00-6.80734E-03 6.55208E-01-3.91730E-15-1.59855E-14
 -1      3925 1.82399E+01 1.06271E+00-1.57753E-03 7.32942E-01 9.16102E-14-4.36865E-14
 -1      3926 1.84140E+01 1.07710E+00 7.84493E-03 4.61627E-01 8.71270E-14-3.03342E-14
 -1      3927 1.79604E+01 1.07611E+00-9.72638E-03 8.01440E-01-4.00091E-14-1.31448E-13
 -1      3928 1.77315E+01 1.07820E+00-1.23751E-03 9.06060E-01-1.52022E-13-1.49899E-13
 -1      3929 1.79380E+01 1.15496E+00 1.05530E-02 5.55869E-01-6.71979E-14-7.90989E-14
 -1      3930 1.73657E+01 1.05231E+00-1.41710E-02 1.00342E+00-2.18018E-13-2.45469E-13
 -1      3931 1.70888E+01 1.01060E+00 7.12546E-04 1.15550E+00-1.68357E-13-2.96539E-13
 -1      3932 1.73244E+01 1.18451E+00 1.44506E-02 6.86634E-01-1.98853E-13-2.52565E-13
 -1      3933 1.66034E+01 9.24940E-01-2.03705E-02 1.30410E+00-3.64530E-14-3.46264E-13
 -1      3934 1.62743E+01 8.12216E-01 5.58182E-03 1.53770E+00 1.59499E-14-4.02620E-13
 -1      3935 1.54594E+01 1.00897E+00 3.87239E-02 1.19715E+00 1.01264E-16-3.09540E-13
 -1      3936 1.65255E+01 1.14723E+00 2.20669E-02 8.79604E-01-1.70207E-13-2.10802E-13
 -1      3937 2.02610E+01-1.64634E-02-1.60906E-05-1.12633E-01-1.60693E-14-1.85863E-13
 -1      3938 2.02831E+01 5.90329E-03 5.47066E-04-1.06216E-01-1.24683E-14-2.24676E-13
 -1      3939 1.87062E+01 2.86982E-02-1.19051E-02 2.17562E+00 2.05929E-13 2.12365E-13
 -1      3940 1.60711E+01-1.28439E-01-1.58814E-03-2.70031E+00-1.68321E-13-2.04361E-13
 -1      3941 1.71945E+01-8.01083E-01-5.53784E-03-3.14798E+00-1.22050E-13-1.28378E-13
 -1      3942 2.00848E+01 1.94739E-02 4.47431E-04-1.23868E-01 2.52800E-14 2.95963E-14
 -1      3943 2.01029E+01 1.69267E-04-2.67872E-04-1.20524E-01 3.97716E-14 2.98230E-15
 -1      3944 1.98711E+01 2.70198E-01 4.24443E-04-2.16585E-01-9.35703E-14 2.21917E-14
 -1      3945 1.98982E+01 2.29884E-01-1.20432E-03-1.94303E-01-4.63734E-14 2.01559E-14
 -1      3946 1.99362E+01 1.92784E-01 4.26697E-04-1.78279E-01-1.21176E-14-8.08740E-16
 -1      3947 1.99591E+01 1.57078E-01-9.27861E-04-1.62266E-01 2.95509E-15-5.74406E-15
 -1      3948 1.99010E+01 2.28413E-01 7.76420E-04-1.59099E-01-4.49130E-14 1.07742E-13
 -1      3949 1.96977E+01 4.46110E-01 4.75275E-04-3.35420E-01 2.75369E-14-3.30771E-14
 -1      3950 1.97375E+01 3.99600E-01-1.87449E-03-2.97574E-01 1.31266E-14 1.95972E-14
 -1      3951 1.95825E+01 5.37590E-01 5.91010E-04-4.20756E-01-8.48005E-14-2.15253E-14
 -1      3952 1.96302E+01 4.91205E-01-2.28660E-03-3.73359E-01-9.76702E-15 2.88835E-14
 -1      3953 1.96091E+01 5.07058E-01 1.91940E-03-3.06145E-01-1.49972E-14-3.59996E-14
 -1      3954 1.94447E+01 6.22582E-01 8.34310E-04-5.27582E-01-1.90367E-13-1.33006E-14
 -1      3955 1.95007E+01 5.80356E-01-2.76671E-03-4.69087E-01-1.21521E-13-2.80292E-14
 -1      3956 1.94665E+01 6.06797E-01 2.36069E-03-3.86865E-01-9.01890E-14-1.73846E-14
 -1      3957 1.92834E+01 6.89802E-01 1.30198E-03-6.60539E-01-1.71336E-13-1.80774E-13
 -1      3958 1.93466E+01 6.57851E-01-3.33886E-03-5.88803E-01-1.54629E-13-1.10439E-13
 -1      3959 1.92945E+01 6.99196E-01 2.81047E-03-4.89600E-01-9.20933E-14-1.39338E-13
 -1      3960 1.91007E+01 7.22736E-01 2.15709E-03-8.26515E-01-1.20865E-13-1.99162E-13
 -1      3961 1.91675E+01 7.09909E-01-4.03950E-03-7.38345E-01-2.19285E-13-2.73839E-13
 -1      3962 1.90898E+01 7.72515E-01 3.23842E-03-6.20578E-01-1.60819E-13-2.98211E-13
 -1      3963 1.89033E+01 6.98028E-01 3.68433E-03-1.03610E+00-3.21671E-14-8.42196E-14
 -1      3964 1.89665E+01 7.16746E-01-4.90882E-03-9.26618E-01-4.17854E-14-1.09305E-13
 -1      3965 1.88509E+01 8.09956E-01 3.58908E-03-7.89409E-01-1.26447E-13-3.39315E-13
 -1      3966 1.87069E+01 5.82876E-01 6.24840E-03-1.30557E+00-4.31081E-14-2.00872E-13
 -1      3967 1.87521E+01 6.50656E-01-5.92612E-03-1.16761E+00-2.38530E-14-1.21603E-13
 -1      3968 1.85786E+01 7.88111E-01 3.72916E-03-1.01143E+00 1.74497E-15-1.34381E-13
 -1      3969 1.85422E+01 3.30971E-01 9.86699E-03-1.65763E+00-2.95784E-14-2.79082E-13
 -1      3970 1.85451E+01 4.72577E-01-6.79480E-03-1.48202E+00 6.81969E-15-2.61229E-13
 -1      3971 1.82795E+01 6.72976E-01 3.20374E-03-1.31147E+00 4.53451E-15-3.61026E-13
 -1      3972 1.84782E+01-1.18591E-01 1.57197E-02-2.11515E+00-1.03283E-13-3.53410E-13
 -1      3973 1.83865E+01 1.30546E-01-6.47022E-03-1.89416E+00-1.20492E-13-3.11024E-13
 -1      3974 1.79779E+01 4.14153E-01 2.35060E-03-1.72284E+00 1.32887E-14-4.19591E-13
 -1      3975 1.83693E+01-8.28155E-01 2.23191E-02-2.77741E+00-6.92328E-14-3.10677E-13
 -1      3976 1.81525E+01-4.17259E-01-5.11101E-05-2.48611E+00-9.75807E-14-3.90210E-13
 -1      3977 2.03269E+01 1.03692E+00-4.28944E-03 2.19458E-01 1.00052E-13-3.02293E-13
 -1      3978 2.03298E+01 1.10765E+00-7.36212E-04 1.74198E-01 7.61909E-14-2.84855E-13
 -1      3979 2.03737E+01 9.41316E-01 3.86636E-03 1.13575E-01 8.09661E-14-2.68094E-13
 -1      3980 2.03811E+01 1.86992E-01 6.58164E-04 4.72693E-02-7.21396E-14-1.80316E-13
 -1      3981 2.03616E+01 1.20443E-01-6.65376E-04 6.67053E-02-3.25853E-14-1.80972E-13
 -1      3982 2.01716E+01-3.58158E-02 3.41564E-04-1.18045E-01 6.52668E-14-8.08935E-14
 -1      3983 2.01914E+01-3.95039E-02 1.24086E-04-1.17020E-01 3.96674E-14-7.67616E-14
 -1      3984 1.69731E+01 1.18100E+00 4.96643E-03-7.95045E-01-4.87181E-14-2.09608E-13
 -1      3985 1.68255E+01 1.20341E+00-1.04048E-02-3.03968E-01 6.72970E-14-1.68848E-13
 -1      3986 1.64070E+01 1.13553E+00 1.57324E-02 4.98433E-02-2.25118E-13 5.02270E-14
 -1      3987 2.03178E+01 7.99434E-01-2.24342E-03 2.62561E-01 1.23229E-13-2.97005E-13
 -1      3988 2.03286E+01 9.85789E-01 1.18614E-03 2.46911E-01 1.06695E-13-3.31094E-13
 -1      3989 2.03602E+01 8.35540E-01 3.07373E-03 1.63163E-01 9.06207E-14-3.04880E-13
 -1      3990 2.03203E+01 6.92651E-01-5.35895E-04 1.81981E-01 1.10698E-13-3.08395E-13
 -1      3991 2.03784E+01 8.34467E-01-8.49453E-04-1.05822E-01-9.23690E-14-2.77548E-13
 -1      3992 2.03960E+01 6.95345E-01 3.30631E-03-8.16392E-02-9.16085E-14-2.62332E-13
 -1      3993 2.03881E+01 8.29797E-01-1.44054E-03-7.08681E-02-8.37177E-14-2.63096E-13
 -1      3994 2.02160E+01-3.80178E-02 2.06649E-04-1.16983E-01 1.21137E-14-1.43321E-13
 -1      3995 2.02371E+01-3.05249E-02 3.30103E-04-1.14465E-01-1.22921E-15-1.76328E-13
 -1      3996 2.02242E+01-3.76121E-02-4.12244E-04-9.74171E-02-1.29526E-14-1.87091E-13
 -1      3997 2.03950E+01 5.35761E-01-2.67058E-03-3.53145E-02-8.86949E-14-2.26914E-13
 -1      3998 2.03916E+01 8.66526E-01-1.42770E-03-1.04926E-02-3.91512E-15-2.30923E-13
 -1      3999 2.03904E+01 8.50480E-01-2.49422E-03-4.36815E-02-5.86863E-14-2.26904E-13
 -1      4000 2.04181E+01 7.22072E-01 3.85963E-03-4.02640E-02-6.22463E-14-2.13099E-13
 -1      4001 2.01281E+01-1.54247E-02 4.15013E-04-1.19389E-01 5.56631E-14-4.87884E-14
 -1      4002 2.01468E+01-2.77495E-02-7.31120E-05-1.17961E-01 6.79409E-14-5.60753E-14
 -1      4003 2.01268E+01-5.75513E-03-1.89223E-04-1.01064E-01 1.07036E-14 2.58709E-14
 -1      4004 2.04067E+01 3.70500E-01 2.20831E-03-8.28474E-04-7.60959E-14-2.14056E-13
 -1      4005 2.03907E+01 2.68990E-01-1.15018E-03 3.17899E-02-7.48818E-14-1.76760E-13
 -1      4006 2.04055E+01 2.49484E-01 9.37671E-05 2.82439E-02-6.64500E-14-1.94008E-13
 -1      4007 1.70743E+01 2.09328E-01-2.06564E-02 2.27540E+00-3.97688E-14-7.23440E-14
 -1      4008 1.61248E+01 8.33497E-01 1.83245E-02 1.24475E+00 5.47934E-14-2.37093E-13
 -1      4009 2.03720E+01 2.91261E-01-1.34584E-03-2.77180E-02-9.50932E-15-3.15973E-13
 -1      4010 2.03846E+01 4.02954E-01 9.07549E-04 1.33120E-02 1.93483E-14-2.98510E-13
 -1      4011 1.97928E+01 3.55484E-01 4.30257E-04-2.68231E-01-5.16745E-14 9.86812E-15
 -1      4012 1.98256E+01 3.11347E-01-1.51685E-03-2.38703E-01-7.69129E-14-1.30351E-14
 -1      4013 1.97261E+01 4.07816E-01 1.50384E-03-2.43206E-01-5.41498E-14-4.44483E-14
 -1      4014 2.03434E+01 6.87520E-02 5.48559E-04 7.53996E-02-1.68282E-14-2.02452E-13
 -1      4015 2.03208E+01 2.85596E-02-2.61284E-04 8.62998E-02-2.53508E-14-1.71669E-13
 -1      4016 2.03300E+01 2.06081E-02-3.14028E-04 6.80967E-02-5.72163E-15-1.78057E-13
 -1      4017 1.82724E+01-5.78168E-02 6.05427E-04 2.31038E+00 1.48118E-13 1.34779E-13
 -1      4018 1.98219E+01 3.13978E-01 1.12172E-03-1.94976E-01-7.74378E-14 1.37019E-14
 -1      4019 2.00585E+01 4.13180E-02-4.67584E-04-1.27327E-01 7.49166E-14 3.57745E-14
 -1      4020 2.00773E+01 3.46008E-02-5.87317E-06-1.06286E-01 5.71159E-14 5.56344E-14
 -1      4021 2.00399E+01 6.65929E-02 4.49998E-04-1.33838E-01 6.36685E-14-2.56550E-14
 -1      4022 1.58001E+01 2.94672E-01 2.40694E-02-2.29478E+00-1.92771E-13-2.03335E-13
 -1      4023 1.67826E+01 1.41020E-01 1.73846E-02-2.28057E+00-1.70855E-13-2.16544E-13
 -1      4024 1.55593E+01 6.13530E-01-1.78830E-02-1.71265E+00-1.54576E-13-9.33164E-14
 -1      4025 1.67680E+01 5.81760E-01 3.15469E-02-2.15049E+00-1.20027E-13-2.87334E-13
 -1      4026 2.03048E+01 3.68288E-02-3.56204E-04-1.00477E-01-1.31080E-14-2.49983E-13
 -1      4027 2.03268E+01 7.91961E-02 7.79717E-04-8.71494E-02-2.96767E-14-2.73212E-13
 -1      4028 2.03204E+01 2.95041E-02-3.38705E-04-8.41900E-02-3.19524E-14-2.55899E-13
 -1      4029 1.47870E+01 1.01240E+00-7.32155E-03 6.63804E-01-3.09251E-14-8.68763E-14
 -1      4030 1.42170E+01 1.13014E+00 5.50404E-02-8.70794E-02 2.38845E-14 5.67164E-14
 -1      4031 1.48263E+01 9.85172E-01-1.73097E-03-7.01941E-01-1.05358E-13 1.20782E-13
 -1      4032 1.54294E+01 1.08639E+00-2.30272E-02 5.15774E-01-8.41688E-14-7.44513E-14
 -1      4033 1.99675E+01 1.52711E-01 4.58813E-04-1.33556E-01-3.45429E-14 6.02499E-14
 -1      4034 1.99913E+01 1.24676E-01 4.37056E-04-1.51322E-01-5.45869E-16-1.03404E-14
 -1      4035 2.00114E+01 9.39580E-02-6.89352E-04-1.40551E-01-6.67615E-15-5.88301E-14
 -1      4036 1.74998E+01-1.62361E-02 9.99621E-04-2.31831E+00-1.26388E-13-4.31816E-13
 -1      4037 1.67024E+01 8.71447E-01 8.84786E-03-1.41001E+00-1.17894E-13-3.25427E-13
 -1      4038 2.01754E+01-3.10254E-02-3.28437E-04-9.88962E-02 4.79295E-14-8.20820E-14
 -1      4039 1.57588E+01 9.87541E-01 4.37903E-04 6.48244E-01-1.03080E-13 1.94597E-14
 -1      4040 2.04129E+01 5.03083E-01-1.46295E-03-2.25055E-02-7.27428E-14-2.28217E-13
 -1      4041 2.03776E+01 4.86596E-01-1.42797E-03 3.79627E-02 4.18648E-14-2.86129E-13
 -1      4042 2.03747E+01 5.86649E-01 1.45212E-03 7.87637E-02 6.24266E-14-2.94101E-13
 -1      4043 2.03986E+01 4.60682E-01-5.97266E-04 2.21581E-02 3.71457E-14-3.01277E-13
 -1      4044 1.55688E+01 6.18593E-01-2.10965E-02-1.84600E+00 7.50268E-15-3.66988E-13
 -1      4045 2.03739E+01 1.07357E-01-1.01865E-04 5.37272E-02-4.45721E-14-2.11239E-13
 -1      4046 2.03438E+01 1.32652E-01-8.72094E-04-7.48785E-02-3.24848E-14-3.07864E-13
 -1      4047 2.03639E+01 2.01946E-01 1.11102E-03-5.10243E-02-4.00718E-14-3.10615E-13
 -1      4048 2.03624E+01 1.21845E-01-1.12588E-04-6.42830E-02-5.89842E-14-2.66883E-13
 -1      4049 2.03931E+01 2.75692E-01 1.95810E-04-2.77591E-02-1.45448E-14-2.81920E-13
 -1      4050 2.03900E+01 8.47498E-01-2.11669E-03 5.18502E-02 2.49561E-14-2.64039E-13
 -1      4051 2.03926E+01 8.63357E-01-1.37618E-03 1.74102E-02 4.13164E-15-2.74969E-13
 -1      4052 2.04199E+01 7.43823E-01 3.78461E-03 3.03486E-03-9.95521E-16-2.45644E-13
 -1      4053 1.56239E+01 1.03491E+00-1.83055E-02-7.04354E-02-1.52654E-13-1.74455E-13
 -1      4054 1.56960E+01 9.44151E-01 1.45622E-02-1.07549E+00-4.91881E-14-2.01265E-13
 -1      4055 1.96482E+01-1.43345E+00-1.01626E-02 2.95870E+00-1.06812E-13-3.04661E-14
 -1      4056 2.02731E+01-2.00542E-02-4.24255E-04-9.37249E-02-2.18566E-14-2.16042E-13
 -1      4057 1.62304E+01 8.78647E-01-7.57914E-03-1.31736E+00 3.08469E-14-4.43129E-13
 -1      4058 2.02536E+01-3.71408E-02 1.45589E-04 5.29962E-02-4.57312E-14-1.36427E-13
 -1      4059 2.02278E+01-3.69673E-02 3.60185E-04 5.51389E-02-4.64431E-14-1.11550E-13
 -1      4060 2.01989E+01-3.16162E-02 4.03784E-05 5.42346E-02-2.99636E-14-1.05066E-13
 -1      4061 2.01729E+01-2.06818E-02 3.39820E-04 5.59536E-02 1.24565E-14-8.26374E-14
 -1      4062 2.02194E+01-3.40188E-02-7.33877E-04 3.05843E-02-4.82708E-14-1.07740E-13
 -1      4063 2.01433E+01-5.75948E-03-1.00413E-04 5.55028E-02-4.40039E-14-5.94423E-14
 -1      4064 2.01169E+01 1.38275E-02 2.76674E-04 5.76959E-02-1.05998E-13-1.04875E-13
 -1      4065 2.01626E+01-1.24022E-02-4.39393E-04 3.13786E-02-3.21589E-14-1.27170E-13
 -1      4066 2.00859E+01 3.66506E-02-2.71543E-04 5.80750E-02-6.80536E-14-1.20374E-13
 -1      4067 2.00581E+01 6.36069E-02 1.87675E-04 6.14454E-02-3.69097E-14-9.40503E-14
 -1      4068 2.01041E+01 2.73689E-02-5.96616E-05 3.27038E-02-6.17047E-14-1.09667E-13
 -1      4069 2.00244E+01 9.33202E-02-4.67867E-04 6.29608E-02-3.86603E-14-9.71100E-14
 -1      4070 1.99937E+01 1.27104E-01 6.13947E-05 6.80383E-02-4.28269E-14-7.29029E-14
 -1      4071 2.00417E+01 8.23443E-02 2.80036E-04 3.50415E-02-4.56934E-14-1.37710E-13
 -1      4072 1.99561E+01 1.63206E-01-5.84930E-04 7.06823E-02-2.71124E-14-3.38736E-14
 -1      4073 1.99200E+01 2.03023E-01-2.60729E-04 7.76091E-02-5.92756E-14-2.36170E-14
 -1      4074 1.99739E+01 1.50637E-01 8.77553E-04 3.89968E-02-2.04771E-14-3.82698E-14
 -1      4075 1.98756E+01 2.45939E-01-9.54897E-04 8.20628E-02-7.17237E-14-1.37146E-14
 -1      4076 1.98328E+01 2.92377E-01-3.48873E-04 9.16266E-02-2.21476E-14 9.05548E-15
 -1      4077 1.98938E+01 2.34272E-01 1.64312E-03 4.46632E-02-3.73671E-14-5.72829E-15
 -1      4078 1.97790E+01 3.40906E-01-1.31388E-03 9.73242E-02-9.15103E-15 3.19916E-14
 -1      4079 1.97264E+01 3.93460E-01-6.34401E-04 1.09345E-01 4.41485E-14 6.94270E-14
 -1      4080 1.98000E+01 3.29626E-01 2.70035E-03 5.17839E-02-7.23851E-15 4.64499E-14
 -1      4081 1.96601E+01 4.47830E-01-1.67209E-03 1.16502E-01-2.58367E-14 9.79937E-14
 -1      4082 1.95941E+01 5.05925E-01-9.98112E-04 1.30967E-01-6.31774E-14 5.50473E-14
 -1      4083 1.96846E+01 4.37359E-01 3.80075E-03 6.01611E-02 3.43143E-14 7.53846E-14
 -1      4084 1.95119E+01 5.65263E-01-2.09948E-03 1.39408E-01-5.20076E-14-1.96312E-14
 -1      4085 1.94285E+01 6.27737E-01-1.47027E-03 1.56134E-01 2.71217E-14-2.32824E-14
 -1      4086 1.95413E+01 5.56273E-01 5.13434E-03 6.93156E-02-7.74193E-14 7.69893E-14
 -1      4087 1.93259E+01 6.90478E-01-2.62351E-03 1.65529E-01 4.67114E-14-1.19130E-13
 -1      4088 1.92204E+01 7.55290E-01-2.08554E-03 1.84208E-01 9.70496E-15-1.03151E-13
 -1      4089 1.93625E+01 6.84032E-01 6.79980E-03 7.82104E-02-5.85530E-14-9.82617E-14
 -1      4090 1.90922E+01 8.18855E-01-3.30546E-03 1.94094E-01-9.35032E-15-1.02826E-13
 -1      4091 1.89587E+01 8.82852E-01-2.89702E-03 2.14457E-01-1.59844E-15-1.58844E-13
 -1      4092 1.91386E+01 8.16702E-01 8.94199E-03 8.53622E-02-1.57442E-15-2.66540E-13
 -1      4093 1.87980E+01 9.43418E-01-4.26739E-03 2.24311E-01-2.77976E-14-1.23296E-13
 -1      4094 1.86290E+01 1.00219E+00-3.99569E-03 2.46481E-01-2.15455E-14-1.46325E-13
 -1      4095 1.88581E+01 9.48440E-01 1.17996E-02 8.87985E-02 8.40674E-15-2.95437E-13
 -1      4096 1.84260E+01 1.05459E+00-5.74021E-03 2.55902E-01 7.99723E-14-1.96520E-13
 -1      4097 1.82110E+01 1.10245E+00-5.54925E-03 2.81132E-01 1.19448E-13-1.83873E-13
 -1      4098 1.85055E+01 1.07147E+00 1.57646E-02 8.60689E-02-4.74649E-14-2.46632E-13
 -1      4099 1.79508E+01 1.14034E+00-8.11795E-03 2.90275E-01 3.20538E-14-2.26231E-13
 -1      4100 1.76745E+01 1.17039E+00-7.76957E-03 3.22360E-01-1.68192E-13-3.05495E-13
 -1      4101 1.80580E+01 1.17640E+00 2.13910E-02 7.41875E-02 1.32149E-14-3.97420E-13
 -1      4102 1.73323E+01 1.18698E+00-1.18196E-02 3.33678E-01-2.23754E-13-1.88006E-13
 -1      4103 1.69744E+01 1.19001E+00-9.84287E-03 3.80985E-01-1.86946E-13-2.20033E-13
 -1      4104 1.74781E+01 1.25213E+00 2.86504E-02 4.91483E-02-1.13279E-13-3.22494E-13
 -1      4105 1.91579E+01 7.62128E-01-7.98691E-05-4.21699E-01-5.50249E-14-1.29337E-13
 -1      4106 1.92494E+01 7.12039E-01-3.84589E-03-3.70537E-01-7.91180E-14-3.91559E-14
 -1      4107 1.97764E+01 3.49817E-01-1.03838E-04-1.62427E-01-8.05628E-14 3.54945E-14
 -1      4108 1.98193E+01 3.02320E-01-1.32807E-03-1.43540E-01-8.88019E-14 3.22295E-14
 -1      4109 2.04251E+01 2.98119E-01-1.10200E-03 1.00586E-02-5.79428E-14-1.71226E-13
 -1      4110 2.04137E+01 2.11417E-01-3.32419E-04 2.76454E-02-5.10477E-14-1.58143E-13
 -1      4111 2.03568E+01 3.85930E-02 2.10263E-04 4.37482E-02-1.29351E-14-1.32548E-13
 -1      4112 2.03333E+01 6.38190E-03 2.19262E-04 5.04340E-02 1.63357E-14-1.31029E-13
 -1      4113 1.93608E+01 6.62578E-01-2.27509E-04-3.30042E-01-1.04985E-13-4.17235E-14
 -1      4114 1.94376E+01 6.08285E-01-2.96872E-03-2.89707E-01-3.01975E-14-3.28479E-14
 -1      4115 1.92521E+01 7.37946E-01 7.06719E-03-2.64562E-01-6.51849E-14 4.86432E-14
 -1      4116 1.95280E+01 5.55927E-01-2.47238E-04-2.59071E-01-3.76960E-14-1.10750E-14
 -1      4117 1.95915E+01 5.01568E-01-2.29795E-03-2.27313E-01-5.58021E-14-6.48152E-14
 -1      4118 1.94446E+01 6.21497E-01 5.41760E-03-2.04081E-01-8.29761E-14-2.86917E-14
 -1      4119 1.89141E+01 8.43128E-01 2.83895E-04-5.40839E-01-8.98750E-14-2.89782E-13
 -1      4120 1.90209E+01 8.03200E-01-5.03694E-03-4.75406E-01-6.49720E-14-1.77715E-13
 -1      4121 1.90161E+01 8.47967E-01 9.18097E-03-3.44995E-01-2.44612E-14-7.01107E-14
 -1      4122 1.86242E+01 8.89659E-01 9.98055E-04-6.98025E-01-1.28286E-13-2.71518E-13
 -1      4123 1.87460E+01 8.68044E-01-6.72380E-03-6.12849E-01-1.59369E-13-3.27154E-13
 -1      4124 1.87281E+01 9.40863E-01 1.19914E-02-4.53071E-01-8.80681E-14-2.15961E-13
 -1      4125 1.82836E+01 8.80336E-01 2.29029E-03-9.10085E-01-1.36566E-15-1.87712E-13
 -1      4126 1.84175E+01 8.87866E-01-9.20660E-03-7.96232E-01-7.13030E-14-1.95580E-13
 -1      4127 1.83776E+01 1.00240E+00 1.58582E-02-6.00687E-01-1.70139E-13-2.07717E-13
 -1      4128 1.78911E+01 7.87142E-01 5.64074E-03-1.20457E+00 1.61563E-13-3.28486E-13
 -1      4129 1.80270E+01 8.38486E-01-1.28122E-02-1.04743E+00 1.22612E-13-2.17899E-13
 -1      4130 1.79497E+01 1.01436E+00 2.11567E-02-8.06368E-01 1.07300E-13-2.02982E-13
 -1      4131 1.74463E+01 5.59884E-01 9.04289E-03-1.63159E+00 3.46255E-14-3.08938E-13
 -1      4132 1.75662E+01 6.81627E-01-1.86710E-02-1.40852E+00 1.39031E-13-2.72044E-13
 -1      4133 1.74109E+01 9.52702E-01 2.53253E-02-1.10191E+00 1.71750E-13-1.84583E-13
 -1      4134 2.04214E+01 5.23889E-01-1.31660E-03-1.06473E-02-5.47588E-14-1.96124E-13
 -1      4135 2.03495E+01 6.87013E-01-3.20915E-04 1.46386E-01 8.29238E-14-3.16742E-13
 -1      4136 2.03070E+01-1.65142E-02 2.07518E-04 5.01773E-02 5.56017E-15-1.44953E-13
 -1      4137 2.02817E+01-3.02854E-02 3.25503E-04 5.38817E-02-3.31217E-14-1.30633E-13
 -1      4138 2.03287E+01-2.66034E-03-9.36642E-04 2.75822E-02-1.68114E-14-1.34532E-13
 -1      4139 1.96648E+01 4.50000E-01-1.95124E-04-2.04258E-01-2.82484E-14-6.53438E-14
 -1      4140 1.97169E+01 3.98269E-01-1.76869E-03-1.79519E-01-1.08218E-14-5.46522E-14
 -1      4141 1.96011E+01 5.06223E-01 4.08937E-03-1.58487E-01-4.09274E-14-5.88249E-14
 -1      4142 2.02282E+01-3.82941E-02 2.52184E-04-7.59179E-02-6.21968E-14-1.44642E-13
 -1      4143 2.02534E+01-3.58349E-02 3.55110E-04-7.35149E-02-4.27565E-14-1.76571E-13
 -1      4144 2.03984E+01 1.39461E-01 1.37629E-04 3.12778E-02-5.11964E-14-1.27195E-13
 -1      4145 2.03792E+01 8.27855E-02 2.02047E-05 4.26053E-02-3.12647E-14-1.30332E-13
 -1      4146 2.04157E+01 1.86225E-01-3.73837E-04 1.52494E-02-2.66214E-14-1.10229E-13
 -1      4147 2.01235E+01 3.78462E-03 3.08465E-04-7.91546E-02-2.03722E-14-2.62834E-14
 -1      4148 2.01480E+01-1.34529E-02-1.72632E-05-7.67549E-02 5.96692E-15-2.65963E-14
 -1      4149 2.01761E+01-2.63675E-02 3.10449E-04-7.69714E-02 2.48058E-14-7.63634E-14
 -1      4150 2.02008E+01-3.49117E-02 1.72072E-04-7.51931E-02-2.03790E-14-1.00708E-13
 -1      4151 2.02244E+01-3.64444E-02-9.49132E-04-5.34276E-02-8.27442E-14-1.11625E-13
 -1      4152 2.01695E+01-1.93305E-02-6.89326E-04-5.45259E-02-2.76768E-14-1.12881E-13
 -1      4153 2.02797E+01-2.69311E-02 1.11080E-04-7.38896E-02-1.68728E-14-2.24919E-13
 -1      4154 2.03050E+01-1.00551E-02 5.31899E-04-6.93140E-02-1.59398E-14-2.13475E-13
 -1      4155 2.02786E+01-3.02970E-02-1.08228E-03-5.18640E-02-3.29311E-14-1.79704E-13
 -1      4156 1.98681E+01 2.58332E-01 1.74803E-05-1.31160E-01-9.76037E-14 6.68588E-14
 -1      4157 1.99041E+01 2.15894E-01-8.97369E-04-1.17091E-01-4.43820E-14 6.33795E-14
 -1      4158 1.98316E+01 2.97266E-01 1.99020E-03-9.92428E-02-6.61035E-14 2.77973E-15
 -1      4159 1.70980E+01 3.38424E-01-1.68415E-02-1.95607E+00-8.47331E-14-3.00895E-13
 -1      4160 2.04041E+01 2.37681E-01-1.28228E-03-3.21204E-02-3.73148E-14-2.14529E-13
 -1      4161 2.04177E+01 3.38940E-01 6.49582E-04-7.25680E-03-1.79543E-15-2.22684E-13
 -1      4162 2.04283E+01 5.90697E-01-2.11757E-03-7.81137E-03-2.90192E-14-1.83973E-13
 -1      4163 2.04357E+01 4.08661E-01 2.53071E-03 1.96199E-03-4.83282E-14-1.70094E-13
 -1      4164 2.04369E+01 3.65736E-01 6.07589E-04 1.02286E-03-2.81479E-14-1.52472E-13
 -1      4165 2.04265E+01 5.93157E-01-1.21529E-03 1.01943E-02-1.75672E-15-2.44046E-13
 -1      4166 2.00251E+01 8.78440E-02 2.16417E-04-1.16498E-01 5.83685E-14 1.36692E-14
 -1      4167 1.65252E+01 1.17836E+00-1.64789E-02 4.09683E-01-1.26087E-13-1.77282E-13
 -1      4168 1.60731E+01 1.14937E+00-5.54406E-03 4.93489E-01-3.47634E-14-1.15374E-13
 -1      4169 1.57164E+01 1.20872E+00 3.38430E-02-2.06017E-02-2.94745E-14 5.96450E-14
 -1      4170 1.67012E+01 1.27375E+00 2.89475E-02 1.04308E-02-1.14816E-13-6.30828E-14
 -1      4171 1.67762E+01 6.85351E-01 1.18034E-02-1.60369E+00-1.46897E-14-1.23181E-13
 -1      4172 1.54319E+01 9.69671E-01 2.50711E-02-1.14127E+00-1.10890E-13 1.30139E-13
 -1      4173 1.61970E+01 7.89770E-01 9.88068E-03-1.38088E+00-1.07602E-13-1.09576E-14
 -1      4174 1.65261E+01 9.69814E-01 8.02984E-03-1.09376E+00-6.88078E-15 6.06089E-14
 -1      4175 1.54321E+01 1.08348E+00-2.18001E-02-4.73154E-01-5.87857E-14 1.61053E-13
 -1      4176 2.03290E+01 1.50916E-02-1.39604E-04-6.82734E-02-2.37217E-14-2.38884E-13
 -1      4177 2.03533E+01 5.11504E-02 6.94425E-04-5.96044E-02-4.47511E-14-2.62044E-13
 -1      4178 2.03307E+01 6.21704E-03-1.05008E-03-4.80387E-02-3.60634E-14-2.08257E-13
 -1      4179 1.97281E+01 3.97151E-01 2.98853E-03-1.24345E-01-2.26682E-15 3.52479E-14
 -1      4180 1.99168E+01 2.05682E-01 1.89633E-04-8.03613E-02-3.56250E-14 3.48200E-14
 -1      4181 1.99447E+01 1.77035E-01 8.54674E-05-1.09019E-01-3.65563E-14 7.01704E-14
 -1      4182 1.99754E+01 1.40479E-01-5.89174E-04-9.89387E-02-2.26230E-14 4.95185E-14
 -1      4183 2.03844E+01 7.49386E-01-2.42488E-03 9.33556E-02 8.15466E-14-2.73156E-13
 -1      4184 2.03922E+01 7.94002E-01-5.11797E-04 6.73253E-02 5.70399E-14-2.46967E-13
 -1      4185 2.03695E+01 6.57242E-01-1.06575E-03 1.09495E-01 7.70239E-14-2.99366E-13
 -1      4186 2.03814E+01 7.15328E-01-6.51994E-06 9.57160E-02 6.51804E-14-2.91695E-13
 -1      4187 2.03724E+01 9.78833E-02-5.47833E-04-5.58601E-02-4.22509E-14-2.44658E-13
 -1      4188 2.03935E+01 1.59602E-01 9.15048E-04-4.07610E-02-4.44903E-14-2.27792E-13
 -1      4189 2.03775E+01 8.29444E-02-7.92291E-04-3.97587E-02-3.06536E-14-2.35186E-13
 -1      4190 2.03774E+01 6.63265E-02-7.73094E-04 2.32987E-02-1.23293E-14-7.26559E-14
 -1      4191 2.00941E+01 2.44422E-02-2.15925E-04-8.01597E-02 3.28066E-14 8.86586E-16
 -1      4192 2.01134E+01 1.62036E-02-3.29516E-04-5.66216E-02 7.26125E-15-6.27889E-14
 -1      4193 2.00690E+01 4.89213E-02 2.78743E-04-8.42089E-02 8.40557E-14-1.47289E-14
 -1      4194 2.04146E+01 6.84876E-01 2.12758E-03 3.83603E-02 4.13894E-14-2.29712E-13
 -1      4195 2.02751E+01-3.29980E-02-9.10124E-04 2.96253E-02-3.82874E-14-1.34268E-13
 -1      4196 2.04137E+01 2.16371E-01-1.60707E-04-2.39511E-02-3.25273E-14-1.99535E-13
 -1      4197 2.01709E+01-1.58416E-02 3.23582E-04-1.17036E-02-3.37792E-14-7.53330E-14
 -1      4198 2.01411E+01 4.98484E-04 3.11999E-04-1.10242E-02-3.28327E-14-8.84242E-14
 -1      4199 2.01115E+01 2.12682E-02 8.24095E-05-1.26833E-02-3.40157E-14-7.57938E-14
 -1      4200 2.00804E+01 4.56498E-02 4.46285E-05-1.19209E-02 4.70804E-15-4.49232E-14
 -1      4201 1.99890E+01 1.30195E-01-6.24469E-04 5.32824E-03-1.10448E-14 1.24105E-14
 -1      4202 1.99514E+01 1.67722E-01-5.90673E-04 7.90930E-03-1.22274E-14-1.40267E-14
 -1      4203 1.99007E+01 2.18475E-01-7.10265E-04-2.23081E-02-4.99545E-14 1.99472E-15
 -1      4204 1.98553E+01 2.62494E-01-1.13940E-03-2.12385E-02-7.75154E-14-2.27444E-14
 -1      4205 1.98060E+01 3.08501E-01-1.68684E-03-2.96958E-02-4.92650E-14-2.14032E-14
 -1      4206 1.97514E+01 3.59251E-01-1.84596E-03-2.85098E-02 8.44710E-15-4.39079E-14
 -1      4207 1.96915E+01 4.10389E-01-2.42971E-03-4.01898E-02 3.91975E-14-1.05749E-13
 -1      4208 1.96243E+01 4.66831E-01-2.63276E-03-3.93750E-02-1.84731E-14-6.38757E-14
 -1      4209 1.95507E+01 5.22134E-01-3.25919E-03-5.51865E-02-7.56768E-14-1.17125E-14
 -1      4210 1.94670E+01 5.83137E-01-3.61854E-03-5.53799E-02-1.11648E-13-5.17172E-14
 -1      4211 1.93761E+01 6.40844E-01-4.26006E-03-7.65899E-02-1.41348E-13 1.20780E-14
 -1      4212 1.92714E+01 7.04496E-01-4.90144E-03-7.86628E-02-8.44160E-14-7.26915E-14
 -1      4213 1.91594E+01 7.61780E-01-5.51362E-03-1.07132E-01-3.97535E-14-3.68872E-14
 -1      4214 1.90280E+01 8.25107E-01-6.62201E-03-1.12295E-01-3.24448E-17-6.75767E-14
 -1      4215 1.88903E+01 8.77793E-01-7.15276E-03-1.50809E-01-6.18537E-16-9.44779E-14
 -1      4216 1.87248E+01 9.36581E-01-9.00735E-03-1.60704E-01-2.07607E-14-1.53643E-13
 -1      4217 1.85557E+01 9.78922E-01-9.39592E-03-2.13520E-01-9.44115E-14-2.06376E-13
 -1      4218 1.83460E+01 1.02767E+00-1.24146E-02-2.30387E-01-1.09928E-13-1.73574E-13
 -1      4219 1.81379E+01 1.05226E+00-1.25192E-02-3.04017E-01-5.06443E-14-2.10019E-13
 -1      4220 1.78689E+01 1.08429E+00-1.72430E-02-3.31174E-01-1.89128E-15-2.69456E-13
 -1      4221 1.76121E+01 1.08273E+00-1.62730E-02-4.35037E-01 9.73194E-14-2.39390E-13
 -1      4222 1.72628E+01 1.09067E+00-2.26391E-02-4.78023E-01 4.14660E-14-1.00615E-13
 -1      4223 1.69456E+01 1.06400E+00-1.44232E-02-6.20862E-01 1.68803E-14-2.36920E-15
 -1      4224 2.04058E+01 5.91365E-01 2.31642E-03 4.88472E-02 5.19265E-14-2.86427E-13
 -1      4225 2.04068E+01 4.97782E-01 3.03753E-04 2.45797E-02 3.48645E-14-2.70246E-13
 -1      4226 2.02285E+01-3.48788E-02 4.86781E-04-1.12808E-02-6.51428E-14-1.17220E-13
 -1      4227 2.01995E+01-2.81801E-02 5.50181E-04-1.05217E-02-6.66907E-14-1.31768E-13
 -1      4228 2.03382E+01 1.88342E-03 4.60867E-04-1.08700E-02-1.65888E-14-1.40494E-13
 -1      4229 2.03119E+01-1.94391E-02 8.73200E-04-9.16904E-03-4.54062E-14-1.63911E-13
 -1      4230 2.03857E+01 7.39821E-02 1.99797E-04-1.01443E-02-5.28036E-14-1.41717E-13
 -1      4231 2.03634E+01 3.17541E-02 9.26401E-04-7.42460E-03-3.37704E-14-1.49078E-13
 -1      4232 2.02847E+01-3.12444E-02 5.42771E-04-1.11162E-02-4.94481E-14-1.19297E-13
 -1      4233 2.02565E+01-3.67128E-02 7.41416E-04-1.00423E-02-5.83152E-14-1.19262E-13
 -1      4234 2.04213E+01 1.97471E-01-3.01134E-04-8.73910E-03-2.43620E-14-1.70132E-13
 -1      4235 2.04065E+01 1.27819E-01 8.52637E-04-4.21101E-03-2.81116E-14-1.63152E-13
 -1      4236 2.00103E+01 1.06925E-01 1.63360E-04-9.36852E-02-1.74662E-14 6.50020E-14
 -1      4237 2.00374E+01 7.61155E-02-4.51395E-04-8.71494E-02 5.26111E-14 1.09044E-14
 -1      4238 2.00545E+01 6.70895E-02 8.39698E-05-6.09849E-02 1.42285E-14-2.06893E-14
 -1      4239 2.04285E+01 4.20347E-01 7.14806E-04 2.35014E-03 9.73482E-15-1.72990E-13
 -1      4240 2.04164E+01 4.55878E-01-6.64260E-04 9.51041E-03 2.38646E-14-2.41996E-13
 -1      4241 2.04350E+01 2.88110E-01 1.43120E-03-4.72669E-04-2.36177E-14-1.62446E-13
 -1      4242 2.04170E+01 5.81842E-01-1.14279E-03 3.48398E-02 4.63080E-14-2.24685E-13
 -1      4243 2.04204E+01 6.34644E-01-6.63911E-04 2.35123E-02 2.51226E-14-2.40022E-13
 -1      4244 2.04373E+01 5.07002E-01 1.65335E-03 9.50129E-03 5.67387E-15-1.93699E-13
 -1      4245 2.00488E+01 7.37478E-02-1.45413E-04-1.44680E-02-5.68535E-16-1.46255E-14
 -1      4246 2.00157E+01 1.05507E-01 4.23313E-05-1.38283E-02-1.83648E-15 3.56857E-14
 -1      4247 1.65202E+01 1.04396E+00-1.53335E-02-6.85623E-01 2.06050E-14 9.25085E-14
 -1      4248 1.99980E+01 1.21760E-01-1.11039E-04-4.59444E-02 4.84544E-16 3.82739E-14
 -1      4249 2.04343E+01 3.79539E-01-1.42540E-03-3.57545E-03-1.31822E-14-1.80167E-13
 -1      4250 1.99250E+01 1.98521E-01 6.01227E-04-5.56637E-02-5.37564E-14-1.98842E-14
 -1      4251 1.60254E+01 1.11352E+00-2.37841E-02-4.45848E-01-5.54140E-14 1.60443E-13
 -1      4252 1.99902E+01 1.30519E-01 3.42553E-04-6.87370E-02-1.78249E-14 3.36035E-14
 -1      4253 1.99649E+01 1.57024E-01 3.84053E-04-4.97013E-02-1.26865E-14 1.42557E-14
 -3
    1PSTEP                         3           1           1          
  100CL  101 1.000000000        4253                     0    1           1
 -4  TOSTRAIN    6    1
 -5  EXX         1    4    1    1
 -5  EYY         1    4    2    2
 -5  EZZ         1    4    3    3
 -5  EXY         1    4    1    2
 -5  EYZ         1    4    2    3
 -5  EZX         1    4    3    1
 -1         1 2.38382E-04-5.14811E-05-6.97269E-05-1.01707E-04 1.04587E-18-2.34628E-18
 -1         2 3.71941E-05-1.13462E-04 2.05419E-05-7.22274E-07 1.16580E-19-4.28069E-19
 -1         3 9.51130E-05-2.87040E-05-2.83153E-05-1.32597E-07-2.42989E-18-2.30772E-18
 -1         4 9.50845E-05-2.87290E-05-2.82543E-05 1.54307E-07 4.99885E-19 5.39304E-19
 -1         5 1.43336E-04-2.14775E-05-4.25235E-05 3.85311E-05-1.58977E-19 1.38898E-17
 -1         6 1.45399E-04 2.57534E-10-4.41827E-05-5.35269E-05-7.58518E-19 1.72651E-17
 -1         7 9.05957E-05-5.10542E-07-3.90636E-05-2.92571E-05-1.06409E-19 5.07230E-18
 -1         8 8.51161E-05 8.64666E-08-3.63353E-05-2.02791E-05-2.23776E-19 7.98628E-19
 -1         9 8.28084E-05 7.65552E-08-3.53485E-05-1.56486E-05-2.03950E-19-1.68872E-18
 -1        10 8.17729E-05 3.91169E-08-3.48816E-05-1.20882E-05-1.56271E-19-3.10445E-18
 -1        11 8.12578E-05 1.90708E-08-3.46550E-05-9.02146E-06-1.37140E-19-3.88062E-18
 -1        12 8.09909E-05 9.06326E-09-3.45417E-05-6.29035E-06-8.78168E-20-4.29481E-18
 -1        13 8.08518E-05 4.48389E-09-3.44847E-05-3.68954E-06-5.89590E-20-4.53567E-18
 -1        14 8.07939E-05 2.58891E-09-3.44616E-05-1.18506E-06-3.95407E-20-4.78686E-18
 -1        15 8.07960E-05 2.57106E-09-3.44623E-05 1.29024E-06-1.24747E-20-4.95103E-18
 -1        16 8.08582E-05 4.37362E-09-3.44869E-05 3.79990E-06 6.71009E-21-5.05277E-18
 -1        17 8.10026E-05 8.28546E-09-3.45451E-05 6.41312E-06 1.46510E-20-5.11810E-18
 -1        18 8.12741E-05 1.80859E-08-3.46596E-05 9.16387E-06 5.81740E-20-4.98162E-18
 -1        19 8.17967E-05 3.81653E-08-3.48897E-05 1.22670E-05 1.08824E-19-4.59952E-18
 -1        20 8.28309E-05 8.15829E-08-3.53614E-05 1.58797E-05 1.55933E-19-3.74390E-18
 -1        21 8.50809E-05 1.69673E-07-3.63737E-05 2.04900E-05 2.04453E-19-1.78248E-18
 -1        22 9.16333E-05-9.91475E-08-3.87351E-05 2.80037E-05 5.52689E-20 2.68468E-18
 -1        23 1.12960E-04-3.81213E-05-3.53927E-05-4.40374E-06-5.12323E-19 1.44710E-17
 -1        24 9.27875E-05-2.76919E-05-2.89942E-05 3.91118E-07-2.10233E-19 1.19571E-17
 -1        25 8.90983E-05-2.68458E-05-2.69229E-05 3.75709E-07-4.99352E-20 9.23885E-18
 -1        26 8.79902E-05-2.64807E-05-2.63840E-05 2.03831E-07-8.31457E-20 7.18754E-18
 -1        27 8.80112E-05-2.64575E-05-2.63745E-05 1.39617E-07 4.23785E-20 6.10398E-18
 -1        28 8.85392E-05-2.65922E-05-2.65423E-05 1.00513E-07 1.01243E-20 5.47736E-18
 -1        29 8.92877E-05-2.68030E-05-2.67730E-05 7.46759E-08-8.89690E-20 4.54233E-18
 -1        30 9.01059E-05-2.70408E-05-2.70211E-05 5.62005E-08-5.95812E-20 3.56342E-18
 -1        31 9.09100E-05-2.72776E-05-2.72637E-05 4.22501E-08 8.03127E-20 3.12691E-18
 -1        32 9.16548E-05-2.74986E-05-2.74882E-05 3.13871E-08-3.58789E-19 2.02566E-18
 -1        33 9.23194E-05-2.76965E-05-2.76887E-05 2.28123E-08 7.92464E-20 9.69348E-19
 -1        34 9.28993E-05-2.78698E-05-2.78639E-05 1.60313E-08 2.76355E-20 1.25629E-18
 -1        35 9.34009E-05-2.80202E-05-2.80156E-05 1.07126E-08 5.17411E-20 1.21129E-18
 -1        36 9.38388E-05-2.81518E-05-2.81483E-05 6.62793E-09 6.94881E-21 1.72055E-18
 -1        37 9.42339E-05-2.82709E-05-2.82682E-05 3.62982E-09-2.56102E-19 2.56507E-18
 -1        38 9.46124E-05-2.83852E-05-2.83833E-05 1.64786E-09-4.41526E-20 2.22147E-18
 -1        39 9.50059E-05-2.85043E-05-2.85031E-05 6.95153E-10 3.86174E-20 1.60712E-18
 -1        40 9.54516E-05-2.86393E-05-2.86388E-05 8.82611E-10 3.25874E-19 2.14583E-18
 -1        41 9.59939E-05-2.88034E-05-2.88040E-05 2.44056E-09 1.25531E-19 1.66423E-18
 -1        42 9.66847E-05-2.90122E-05-2.90142E-05 5.74754E-09 1.95174E-19 1.85816E-18
 -1        43 9.75847E-05-2.92838E-05-2.92879E-05 1.13643E-08-2.81590E-19 2.12157E-18
 -1        44 9.87641E-05-2.96390E-05-2.96462E-05 2.00654E-08 6.64195E-20 2.10917E-18
 -1        45 1.00300E-04-3.01009E-05-3.01123E-05 3.28429E-08-2.92919E-19 1.79050E-18
 -1        46 1.02274E-04-3.06930E-05-3.07098E-05 5.08246E-08 4.12381E-19 1.28352E-18
 -1        47 1.04755E-04-3.14359E-05-3.14590E-05 7.49713E-08-2.31511E-19 1.86506E-18
 -1        48 1.07782E-04-3.23399E-05-3.23683E-05 1.05296E-07-2.95738E-19 2.95330E-19
 -1        49 1.11313E-04-3.33924E-05-3.34209E-05 1.39169E-07-8.57722E-20-4.49344E-19
 -1        50 1.15160E-04-3.45370E-05-3.45523E-05 1.68165E-07 2.38648E-19-1.45432E-19
 -1        51 1.18888E-04-3.56451E-05-3.56215E-05 1.73388E-07-5.29321E-20 2.60000E-18
 -1        52 1.21711E-04-3.64853E-05-3.63864E-05 1.21281E-07-1.09319E-19 4.50651E-18
 -1        53 1.22472E-04-3.67158E-05-3.65108E-05-3.21652E-08-1.42899E-19 4.93174E-18
 -1        54 1.19863E-04-3.59468E-05-3.56529E-05-3.12559E-07-1.80325E-22 3.91091E-18
 -1        55 1.13097E-04-3.39349E-05-3.36616E-05-6.68487E-07-3.14660E-19 1.83219E-18
 -1        56 1.02929E-04-3.08912E-05-3.08332E-05-9.19407E-07 7.74101E-19 2.28635E-18
 -1        57 9.23443E-05-2.77048E-05-2.80002E-05-8.21744E-07 7.69609E-21 2.63869E-18
 -1        58 8.57019E-05-2.56935E-05-2.62693E-05-2.95004E-07-1.07186E-19 1.64479E-18
 -1        59 8.62044E-05-2.58468E-05-2.63868E-05 4.14131E-07 4.05249E-19 1.27633E-18
 -1        60 9.34673E-05-2.80450E-05-2.82666E-05 8.68613E-07-4.59267E-20 2.94873E-19
 -1        61 1.03804E-04-3.11538E-05-3.10343E-05 8.81867E-07 9.39108E-19 3.09802E-19
 -1        62 1.12930E-04-3.38806E-05-3.35854E-05 5.87515E-07-2.95653E-19 5.85326E-19
 -1        63 1.18260E-04-3.54616E-05-3.51734E-05 2.31673E-07-8.13203E-19-2.21630E-18
 -1        64 1.19398E-04-3.57918E-05-3.56007E-05-3.15432E-08-1.84152E-19-6.07321E-18
 -1        65 1.17295E-04-3.51620E-05-3.50709E-05-1.71027E-07 1.12648E-19-4.28588E-18
 -1        66 1.13272E-04-3.39653E-05-3.39412E-05-2.19282E-07-8.03056E-20-3.27324E-18
 -1        67 1.08469E-04-3.25376E-05-3.25490E-05-2.17720E-07 9.34684E-19-2.68032E-18
 -1        68 1.03703E-04-3.11194E-05-3.11520E-05-1.92599E-07 2.51500E-20-2.43906E-19
 -1        69 9.95562E-05-2.98814E-05-2.99393E-05-1.49316E-07 8.09623E-19-1.30048E-18
 -1        70 9.65287E-05-2.89671E-05-2.90571E-05-5.75360E-08 1.78506E-19 2.69928E-18
 -1        71 9.50937E-05-2.84966E-05-2.85751E-05 7.99361E-08-1.42983E-19 1.92755E-18
 -1        72 1.02165E-04-3.05831E-05-3.41457E-05-1.92825E-06 3.53080E-19 1.17402E-17
 -1        73 9.25435E-05-2.75078E-05-2.89023E-05-3.33052E-07 1.10756E-19 7.71192E-18
 -1        74 8.90854E-05-2.66951E-05-2.69661E-05-1.25809E-07 8.69317E-20 4.88158E-18
 -1        75 8.80201E-05-2.64316E-05-2.64280E-05-9.54372E-08 3.43524E-20 2.99069E-18
 -1        76 8.80461E-05-2.64375E-05-2.64012E-05-7.63655E-08 3.55650E-20 1.43136E-18
 -1        77 8.85731E-05-2.65866E-05-2.65594E-05-6.22058E-08-3.71559E-20 6.99199E-19
 -1        78 8.93190E-05-2.68042E-05-2.67853E-05-5.12762E-08 3.11966E-20-1.38966E-21
 -1        79 9.01338E-05-2.70454E-05-2.70306E-05-4.21887E-08 5.53021E-20-7.32862E-19
 -1        80 9.09345E-05-2.72837E-05-2.72711E-05-3.42954E-08 3.98461E-21-1.14932E-18
 -1        81 9.16759E-05-2.75051E-05-2.74941E-05-2.73197E-08-4.04859E-21-1.87047E-18
 -1        82 9.23377E-05-2.77030E-05-2.76935E-05-2.11400E-08 2.01721E-19-2.74335E-18
 -1        83 9.29152E-05-2.78759E-05-2.78679E-05-1.56801E-08-2.34257E-20-3.41252E-18
 -1        84 9.34151E-05-2.80257E-05-2.80192E-05-1.08748E-08 1.73265E-20-4.30624E-18
 -1        85 9.38520E-05-2.81568E-05-2.81517E-05-6.66500E-09 9.26768E-20-4.93050E-18
 -1        86 9.42466E-05-2.82754E-05-2.82717E-05-3.00432E-09 1.06353E-19-5.85501E-18
 -1        87 9.46248E-05-2.83891E-05-2.83870E-05 1.27086E-10-5.03094E-20-6.22201E-18
 -1        88 9.50172E-05-2.85071E-05-2.85068E-05 2.70385E-09-1.43080E-19-5.64258E-18
 -1        89 9.54594E-05-2.86402E-05-2.86418E-05 4.63153E-09 3.13066E-19-5.89426E-18
 -1        90 9.59920E-05-2.88003E-05-2.88043E-05 5.71658E-09-1.84491E-19-5.20506E-18
 -1        91 9.66608E-05-2.90011E-05-2.90080E-05 5.62917E-09-4.15213E-20-4.90272E-18
 -1        92 9.75161E-05-2.92577E-05-2.92681E-05 3.86021E-09 5.77970E-20-4.59068E-18
 -1        93 9.86103E-05-2.95855E-05-2.96001E-05-3.20293E-10-2.23667E-19-5.66269E-18
 -1        94 9.99937E-05-2.99994E-05-3.00186E-05-7.88252E-09 2.11392E-19-7.31805E-18
 -1        95 1.01705E-04-3.05107E-05-3.05343E-05-1.99828E-08-2.00713E-19-8.12342E-18
 -1        96 1.03755E-04-3.11227E-05-3.11492E-05-3.77309E-08-2.27020E-19-6.22794E-18
 -1        97 1.06104E-04-3.18232E-05-3.18485E-05-6.15869E-08 3.43035E-20-5.08187E-18
 -1        98 1.08624E-04-3.25746E-05-3.25899E-05-9.01080E-08-5.38275E-20-4.95504E-18
 -1        99 1.11053E-04-3.33002E-05-3.32905E-05-1.17783E-07 4.97189E-20-5.44156E-18
 -1       100 1.12956E-04-3.38721E-05-3.38168E-05-1.32190E-07-3.08024E-19-3.83590E-18
 -1       101 1.13715E-04-3.41087E-05-3.39869E-05-1.12278E-07-1.75726E-20-4.95748E-18
 -1       102 1.12612E-04-3.37967E-05-3.36029E-05-3.23796E-08-3.46958E-19-5.46899E-18
 -1       103 1.09076E-04-3.27604E-05-3.25266E-05 1.21912E-07 1.23707E-19-3.20448E-18
 -1       104 1.03088E-04-3.09804E-05-3.07924E-05 3.27079E-07-2.38302E-19-1.20162E-18
 -1       105 9.56087E-05-2.87269E-05-2.87016E-05 4.98904E-07-8.88841E-20-2.07126E-19
 -1       106 8.86446E-05-2.65968E-05-2.68090E-05 5.22054E-07-5.51729E-19-1.78181E-18
 -1       107 8.45820E-05-2.53269E-05-2.57263E-05 3.35601E-07 4.39216E-20-3.73528E-18
 -1       108 8.49685E-05-2.54157E-05-2.58306E-05 3.80636E-09 3.18711E-19-5.79936E-18
 -1       109 8.95574E-05-2.68053E-05-2.70550E-05-3.08911E-07 4.79434E-20-7.21140E-18
 -1       110 9.64446E-05-2.89074E-05-2.89260E-05-4.65198E-07-2.91993E-19-5.67724E-18
 -1       111 1.03200E-04-3.09677E-05-3.08085E-05-4.44438E-07 3.87161E-19-2.21219E-18
 -1       112 1.08023E-04-3.24315E-05-3.22019E-05-3.13991E-07-6.89511E-19-8.11113E-19
 -1       113 1.10207E-04-3.30887E-05-3.28767E-05-1.57388E-07 8.19621E-19 9.78800E-19
 -1       114 1.09956E-04-3.30075E-05-3.28555E-05-2.68475E-08-2.86373E-19-3.36916E-19
 -1       115 1.07933E-04-3.23942E-05-3.23070E-05 6.15529E-08 2.76192E-19-1.81045E-18
 -1       116 1.04902E-04-3.14807E-05-3.14472E-05 1.12968E-07-1.65281E-19-3.66676E-18
 -1       117 1.01546E-04-3.04710E-05-3.04822E-05 1.37995E-07 5.11969E-19-6.08064E-18
 -1       118 9.84468E-05-2.95361E-05-2.95922E-05 1.41235E-07 2.42166E-19-7.33685E-18
 -1       119 9.61372E-05-2.88348E-05-2.89285E-05 1.04048E-07-2.39068E-19-8.72698E-18
 -1       120 9.51081E-05-2.84869E-05-2.85648E-05-3.09596E-08 1.25839E-18-7.14924E-18
 -1       121 9.52550E-05-2.86200E-05-2.85745E-05-7.68460E-08-7.33461E-18-3.13170E-19
 -1       122 9.49303E-05-2.75792E-05-2.89472E-05 4.99000E-08-5.46585E-18 9.46539E-20
 -1       123 9.42370E-05-2.52630E-05-2.96185E-05 1.19679E-07-4.54010E-19-1.10427E-19
 -1       124 9.33114E-05-2.21642E-05-3.05163E-05 1.50548E-07-2.07419E-18 2.76381E-18
 -1       125 9.22938E-05-1.87465E-05-3.15127E-05 1.57148E-07-7.47560E-19-9.30434E-19
 -1       126 9.13339E-05-1.55141E-05-3.24561E-05 1.44216E-07-4.81270E-18 9.06722E-19
 -1       127 9.05300E-05-1.28100E-05-3.32431E-05 1.09688E-07-5.33015E-19 3.21042E-19
 -1       128 9.00215E-05-1.10980E-05-3.37387E-05 5.57855E-08-1.65744E-18-1.41461E-18
 -1       129 8.98950E-05-1.06717E-05-3.38593E-05-1.05014E-08 1.34811E-18 1.40496E-18
 -1       130 9.01837E-05-1.16419E-05-3.35740E-05-7.82871E-08 1.82126E-18-1.14435E-18
 -1       131 9.08541E-05-1.38999E-05-3.29149E-05-1.37737E-07-2.06928E-20-2.79341E-19
 -1       132 9.17978E-05-1.70736E-05-3.19911E-05-1.73622E-07-1.68222E-18 9.44523E-19
 -1       133 9.29045E-05-2.07929E-05-3.09138E-05-1.86153E-07-3.32326E-18-1.55292E-19
 -1       134 9.39831E-05-2.44257E-05-2.98732E-05-1.74687E-07 5.56130E-19 1.33064E-18
 -1       135 9.48306E-05-2.72351E-05-2.90553E-05-1.13838E-07 1.61904E-18-1.12386E-18
 -1       136 9.51860E-05-2.85456E-05-2.85793E-05 1.71181E-07-1.91441E-18-4.54793E-19
 -1       137 2.63386E-05-8.92325E-05 1.59323E-05-2.34319E-05 2.99363E-18 2.04498E-18
 -1       138 8.25491E-06-3.49044E-05 3.44193E-06-1.79534E-05 2.32892E-18 3.68248E-19
 -1       139 1.29771E-05 1.42796E-05-1.51735E-05 2.52591E-05 2.02102E-18 2.06845E-18
 -1       140 7.20053E-05 2.46118E-05-3.90454E-05 8.69155E-05 3.45081E-18 6.02113E-18
 -1       141 1.62643E-04-1.08262E-05-5.79154E-05 1.14643E-04 2.10085E-18 1.66908E-18
 -1       142 2.58251E-04-6.41454E-05-7.22852E-05 8.96168E-05-5.86676E-19-2.05956E-18
 -1       143 3.08032E-04-9.51914E-05-7.86298E-05 1.53122E-05-1.87803E-19-1.79259E-18
 -1       144 2.82516E-04-7.89004E-05-7.55182E-05-6.56894E-05 6.60302E-19-3.46754E-18
 -1       145 1.92550E-04-2.72897E-05-6.24864E-05-1.10780E-04 2.28339E-18-5.65140E-18
 -1       146 9.62101E-05 1.69003E-05-4.48029E-05-9.85896E-05 2.93878E-18-5.25838E-18
 -1       147 2.81450E-05 2.44880E-05-2.39132E-05-4.82273E-05 5.11608E-18-4.08609E-18
 -1       148 5.77889E-06-1.14598E-05-3.83027E-06 3.53189E-06 8.43348E-18-3.72737E-18
 -1       149 1.84873E-05-6.97038E-05 1.20262E-05 2.50810E-05 1.28300E-17-3.85379E-18
 -1       150 3.48845E-05-1.08114E-04 1.96619E-05 9.58271E-06 6.55498E-18-9.65115E-19
 -1       151 3.23227E-05-1.02311E-04 1.84902E-05-1.76467E-05-1.71842E-18-7.71859E-19
 -1       152 1.42057E-05-5.90075E-05 9.64530E-06-2.64727E-05-1.22074E-17-4.86303E-18
 -1       153 6.75146E-06-2.98138E-06-7.32349E-06 3.87095E-06-1.70580E-17-1.15743E-17
 -1       154 3.86981E-05 2.51388E-05-2.80164E-05 5.88597E-05-1.49404E-17-1.46355E-17
 -1       155 1.29403E-04 3.69011E-06-5.16940E-05 1.07840E-04-6.84318E-18-1.02809E-17
 -1       156 2.28951E-04-4.70172E-05-6.80554E-05 1.01786E-04-2.11801E-18-5.57729E-18
 -1       157 3.02144E-04-8.99061E-05-7.81783E-05 4.31859E-05 1.51023E-19-3.73616E-18
 -1       158 3.04621E-04-9.16337E-05-7.84429E-05-4.13691E-05 5.65924E-19-5.09247E-18
 -1       159 1.39558E-04 3.96499E-07-5.39481E-05-1.12422E-04 5.27066E-19-1.75421E-18
 -1       160 5.29044E-05 2.76982E-05-3.37280E-05-7.41733E-05-3.86586E-18 3.87560E-18
 -1       161 9.27220E-06 1.07347E-05-1.28603E-05-1.72724E-05-7.41239E-18 5.10930E-18
 -1       162 9.11572E-06-4.12527E-05 5.15008E-06 2.21218E-05-6.88595E-18 2.82062E-18
 -1       163 2.78938E-05-9.29633E-05 1.66167E-05 2.42879E-05-5.04387E-18 2.06496E-18
 -1       164 9.48564E-05-1.23432E-05-3.55658E-05-2.23568E-05-2.24350E-18 2.54626E-18
 -1       165 8.92427E-05-8.45656E-06-3.47847E-05-1.73979E-05-2.37006E-18-1.06395E-19
 -1       166 8.65356E-05-6.49800E-06-3.44140E-05-1.35968E-05-2.08645E-18-1.78533E-18
 -1       167 8.51978E-05-5.51952E-06-3.42321E-05-1.03751E-05-1.79347E-18-2.84265E-18
 -1       168 8.44537E-05-4.94581E-06-3.41441E-05-7.55282E-06-1.44553E-18-3.31414E-18
 -1       169 8.40306E-05-4.60269E-06-3.41023E-05-4.90843E-06-1.08555E-18-3.69513E-18
 -1       170 8.38148E-05-4.41911E-06-3.40849E-05-2.39762E-06-6.83454E-19-3.90216E-18
 -1       171 8.37512E-05-4.36355E-06-3.40804E-05 5.11704E-08-3.76872E-19-4.10626E-18
 -1       172 8.38248E-05-4.42755E-06-3.40856E-05 2.50202E-06-3.77631E-20-4.23042E-18
 -1       173 8.40527E-05-4.62214E-06-3.41037E-05 5.01923E-06 3.03777E-19-4.29067E-18
 -1       174 8.44822E-05-4.97437E-06-3.41444E-05 7.63029E-06 6.26651E-19-4.22511E-18
 -1       175 8.52537E-05-5.57572E-06-3.42326E-05 1.05207E-05 1.15913E-18-3.95723E-18
 -1       176 8.66446E-05-6.60849E-06-3.44174E-05 1.37921E-05 1.63464E-18-3.42635E-18
 -1       177 8.93844E-05-8.59842E-06-3.47896E-05 1.76312E-05 2.10804E-18-2.18636E-18
 -1       178 9.57678E-05-1.36104E-05-3.54218E-05 2.19007E-05 2.31288E-18 3.33016E-19
 -1       179 1.05591E-04-2.60974E-05-3.52589E-05 1.86681E-05 1.97804E-18 3.91107E-18
 -1       180 1.03383E-04-2.72965E-05-3.26065E-05-1.21317E-05-1.80397E-18 5.44645E-18
 -1       181 9.70919E-05-2.82854E-05-2.95238E-05-4.73595E-06-1.61717E-18 4.39563E-18
 -1       182 9.34871E-05-2.76310E-05-2.81761E-05-1.77488E-06-1.32697E-18 3.50957E-18
 -1       183 9.19479E-05-2.73985E-05-2.76286E-05-4.27352E-07-8.72346E-19 2.58474E-18
 -1       184 9.13683E-05-2.73225E-05-2.74299E-05 2.36485E-07-4.72239E-19 2.02262E-18
 -1       185 9.13226E-05-2.73601E-05-2.74039E-05 5.61991E-07-6.48527E-19 1.63517E-18
 -1       186 9.15629E-05-2.74616E-05-2.74680E-05 7.01033E-07-5.55147E-19 1.18395E-18
 -1       187 9.19447E-05-2.75929E-05-2.75775E-05 7.33297E-07-3.14407E-19 1.11404E-18
 -1       188 9.23824E-05-2.77330E-05-2.77062E-05 7.05395E-07-7.21006E-19 6.29718E-19
 -1       189 9.28262E-05-2.78696E-05-2.78385E-05 6.46760E-07-4.72025E-19 5.99066E-19
 -1       190 9.32497E-05-2.79965E-05-2.79659E-05 5.76914E-07 1.41761E-20 3.59960E-19
 -1       191 9.36420E-05-2.81114E-05-2.80848E-05 5.09305E-07-6.29890E-20-3.26883E-20
 -1       192 9.40032E-05-2.82151E-05-2.81951E-05 4.53596E-07-2.30182E-20 2.05893E-20
 -1       193 9.43414E-05-2.83103E-05-2.82990E-05 4.17195E-07 6.13541E-20-1.49643E-19
 -1       194 9.46713E-05-2.84016E-05-2.84010E-05 4.06359E-07-1.54144E-19 1.43711E-19
 -1       195 9.50127E-05-2.84949E-05-2.85069E-05 4.27011E-07-7.23835E-20 8.83499E-20
 -1       196 9.53905E-05-2.85975E-05-2.86244E-05 4.85348E-07 2.47064E-19-7.82038E-20
 -1       197 9.58348E-05-2.87180E-05-2.87625E-05 5.88255E-07-1.87005E-21-4.44762E-19
 -1       198 9.63806E-05-2.88668E-05-2.89321E-05 7.43466E-07-1.86159E-19-5.50855E-19
 -1       199 9.70686E-05-2.90558E-05-2.91452E-05 9.59372E-07 3.32990E-20-9.64030E-19
 -1       200 9.79445E-05-2.92988E-05-2.94158E-05 1.24423E-06 3.51927E-19-6.64471E-19
 -1       201 9.90577E-05-2.96114E-05-2.97583E-05 1.60432E-06-2.80607E-19 3.50195E-19
 -1       202 1.00458E-04-3.00106E-05-3.01873E-05 2.04035E-06-8.41404E-20 5.14619E-19
 -1       203 1.02191E-04-3.05140E-05-3.07144E-05 2.54085E-06-2.20956E-20-1.69679E-19
 -1       204 1.04282E-04-3.11380E-05-3.13445E-05 3.07098E-06-8.24273E-19 2.34514E-19
 -1       205 1.06722E-04-3.18940E-05-3.20689E-05 3.55518E-06-1.99218E-19 7.37045E-19
 -1       206 1.09435E-04-3.27817E-05-3.28553E-05 3.85382E-06 7.70497E-19 3.71684E-19
 -1       207 1.12237E-04-3.37754E-05-3.36360E-05 3.74036E-06 1.46642E-18 9.57667E-19
 -1       208 1.14793E-04-3.47995E-05-3.42979E-05 2.90090E-06 8.64395E-19 2.13341E-18
 -1       209 1.16583E-04-3.56879E-05-3.46868E-05 1.00445E-06-4.11013E-19 2.40678E-18
 -1       210 1.16931E-04-3.61329E-05-3.46410E-05-2.08160E-06-9.07877E-19 2.22352E-18
 -1       211 1.15181E-04-3.56955E-05-3.40694E-05-5.90480E-06-9.93014E-19 2.79211E-18
 -1       212 1.11120E-04-3.40068E-05-3.30450E-05-9.08767E-06 2.82753E-19 1.86691E-18
 -1       213 1.05568E-04-3.12425E-05-3.18556E-05-9.58387E-06 6.40731E-19 2.01855E-18
 -1       214 1.00643E-04-2.85521E-05-3.09054E-05-6.07499E-06-3.98172E-19 1.45536E-18
 -1       215 9.87717E-05-2.75007E-05-3.05567E-05 4.27285E-07-6.64352E-19 8.78684E-19
 -1       216 1.01002E-04-2.88648E-05-3.09222E-05 6.56947E-06-7.82321E-19-8.03470E-19
 -1       217 1.05865E-04-3.15890E-05-3.18311E-05 9.27061E-06 4.48052E-19 2.54825E-19
 -1       218 1.10842E-04-3.40864E-05-3.28927E-05 8.04954E-06-3.96345E-19-1.68618E-18
 -1       219 1.14024E-04-3.53902E-05-3.37060E-05 4.51648E-06-1.56400E-18-1.80555E-18
 -1       220 1.14821E-04-3.54728E-05-3.40211E-05 6.65455E-07-1.20747E-18-4.66579E-19
 -1       221 1.13568E-04-3.47413E-05-3.38004E-05-2.30379E-06 1.49227E-18-1.38354E-19
 -1       222 1.10957E-04-3.36147E-05-3.31604E-05-4.06476E-06 1.10155E-18 1.36409E-18
 -1       223 1.07667E-04-3.23733E-05-3.22757E-05-4.77807E-06 6.09793E-19 2.81306E-18
 -1       224 1.04235E-04-3.11703E-05-3.13134E-05-4.72716E-06 1.14069E-18 1.32549E-18
 -1       225 1.01048E-04-3.00832E-05-3.04089E-05-4.12894E-06-7.06970E-19 2.53225E-19
 -1       226 9.83830E-05-2.91529E-05-2.96635E-05-3.08511E-06 1.97564E-18-5.16395E-19
 -1       227 9.63735E-05-2.84114E-05-2.91217E-05-1.65104E-06-2.97874E-19-8.89924E-19
 -1       228 9.94853E-05-2.85497E-05-3.05826E-05 7.21587E-06 1.85028E-18 3.17122E-18
 -1       229 9.43977E-05-2.77851E-05-2.85188E-05 2.74826E-06 1.33282E-18 1.98379E-18
 -1       230 9.20742E-05-2.73944E-05-2.76748E-05 9.34617E-07 9.81552E-19 8.98537E-19
 -1       231 9.11217E-05-2.72307E-05-2.73549E-05 7.29672E-08 7.17357E-19 2.58390E-19
 -1       232 9.09061E-05-2.72224E-05-2.72795E-05-3.54684E-07 4.03444E-19-1.78080E-19
 -1       233 9.10861E-05-2.73072E-05-2.73271E-05-5.55480E-07 4.35659E-19-8.94386E-19
 -1       234 9.14667E-05-2.74392E-05-2.74368E-05-6.29099E-07 4.30152E-19-1.31185E-18
 -1       235 9.19344E-05-2.75895E-05-2.75744E-05-6.30096E-07 1.73463E-19-1.60420E-18
 -1       236 9.24224E-05-2.77409E-05-2.77196E-05-5.91348E-07 4.31281E-19-1.92136E-18
 -1       237 9.28939E-05-2.78839E-05-2.78609E-05-5.34041E-07 3.89256E-19-1.99808E-18
 -1       238 9.33312E-05-2.80143E-05-2.79927E-05-4.72402E-07 4.20672E-19-2.24371E-18
 -1       239 9.37300E-05-2.81315E-05-2.81135E-05-4.16334E-07 5.10887E-19-2.64483E-18
 -1       240 9.40951E-05-2.82374E-05-2.82246E-05-3.73034E-07 4.13643E-19-3.09399E-18
 -1       241 9.44389E-05-2.83358E-05-2.83297E-05-3.48103E-07 1.03688E-19-3.05595E-18
 -1       242 9.47788E-05-2.84321E-05-2.84340E-05-3.46301E-07-5.70398E-21-2.36325E-18
 -1       243 9.51373E-05-2.85330E-05-2.85442E-05-3.72069E-07-2.35516E-19-2.61652E-18
 -1       244 9.55412E-05-2.86465E-05-2.86684E-05-4.29817E-07 3.46359E-19-2.41041E-18
 -1       245 9.60212E-05-2.87818E-05-2.88159E-05-5.23943E-07-1.28091E-19-2.34954E-18
 -1       246 9.66117E-05-2.89494E-05-2.89970E-05-6.58522E-07-1.41331E-19-2.62009E-18
 -1       247 9.73496E-05-2.91604E-05-2.92227E-05-8.36498E-07-1.15705E-19-2.61488E-18
 -1       248 9.82722E-05-2.94270E-05-2.95039E-05-1.05815E-06 1.53991E-19-2.53495E-18
 -1       249 9.94136E-05-2.97608E-05-2.98503E-05-1.31852E-06 9.52158E-19-3.17753E-18
 -1       250 1.00797E-04-3.01714E-05-3.02679E-05-1.60329E-06-1.64281E-19-3.95529E-18
 -1       251 1.02426E-04-3.06642E-05-3.07557E-05-1.88287E-06-9.78123E-19-3.33268E-18
 -1       252 1.04266E-04-3.12353E-05-3.13008E-05-2.10460E-06-6.30463E-19-2.71059E-18
 -1       253 1.06225E-04-3.18658E-05-3.18712E-05-2.18438E-06-1.35963E-19-1.64387E-18
 -1       254 1.08127E-04-3.25127E-05-3.24098E-05-2.00237E-06 1.86614E-19-1.51409E-18
 -1       255 1.09693E-04-3.30973E-05-3.28293E-05-1.41233E-06-9.33559E-19-1.77807E-18
 -1       256 1.10538E-04-3.34949E-05-3.30179E-05-2.82296E-07-1.67339E-20-1.67671E-18
 -1       257 1.10222E-04-3.35346E-05-3.28604E-05 1.41524E-06-3.26640E-19-1.24534E-18
 -1       258 1.08383E-04-3.30297E-05-3.22838E-05 3.46643E-06-8.53889E-19-1.68486E-18
 -1       259 1.04966E-04-3.18672E-05-3.13178E-05 5.30505E-06-6.72375E-19-1.09312E-18
 -1       260 1.00482E-04-3.01518E-05-3.01404E-05 6.07073E-06 1.75151E-19-1.04304E-18
 -1       261 9.61124E-05-2.83412E-05-2.90598E-05 5.01944E-06 7.19018E-20-1.15271E-18
 -1       262 9.33577E-05-2.71350E-05-2.84071E-05 2.14680E-06 7.50518E-19-1.51235E-18
 -1       263 9.32886E-05-2.70915E-05-2.83910E-05-1.53935E-06 8.25248E-19-2.12003E-18
 -1       264 9.58670E-05-2.82182E-05-2.89959E-05-4.49470E-06 5.39179E-19-2.24364E-18
 -1       265 9.99400E-05-2.99407E-05-2.99885E-05-5.63936E-06-1.20213E-18-3.13759E-18
 -1       266 1.03976E-04-3.15438E-05-3.10260E-05-4.92275E-06-1.34752E-18-1.42084E-18
 -1       267 1.06817E-04-3.25641E-05-3.18107E-05-3.05790E-06-7.59415E-19-4.46099E-20
 -1       268 1.07987E-04-3.28904E-05-3.21805E-05-9.15566E-07 7.89948E-19-1.29231E-18
 -1       269 1.07583E-04-3.26428E-05-3.21197E-05 8.97552E-07-7.23641E-19-1.54830E-18
 -1       270 1.06005E-04-3.20192E-05-3.17131E-05 2.12356E-06 2.42912E-18-1.17566E-18
 -1       271 1.03738E-04-3.12042E-05-3.10901E-05 2.74424E-06 1.57255E-18-3.51287E-18
 -1       272 1.01230E-04-3.03395E-05-3.03851E-05 2.83848E-06 1.12361E-18-3.62310E-18
 -1       273 9.88645E-05-2.95286E-05-2.97196E-05 2.48411E-06 4.96873E-19-3.51304E-18
 -1       274 9.69494E-05-2.88479E-05-2.91897E-05 1.72150E-06 4.03349E-19-2.55369E-18
 -1       275 9.56851E-05-2.84231E-05-2.88216E-05 6.60692E-07-6.67827E-19-3.19165E-18
 -1       276 9.53330E-05-2.76144E-05-2.90163E-05 1.31798E-06-7.25877E-19 1.51432E-18
 -1       277 9.47717E-05-2.60800E-05-2.94355E-05 2.40301E-06-1.94728E-19 3.03751E-18
 -1       278 9.40266E-05-2.40358E-05-2.99938E-05 3.14182E-06 6.00803E-19 1.11131E-18
 -1       279 9.31972E-05-2.16872E-05-3.06472E-05 3.44798E-06-4.40996E-19 4.12743E-19
 -1       280 9.23671E-05-1.93357E-05-3.13029E-05 3.31068E-06-2.14790E-18-1.97247E-18
 -1       281 9.16024E-05-1.71970E-05-3.18953E-05 2.72185E-06-2.69512E-18 1.51324E-18
 -1       282 9.10263E-05-1.56170E-05-3.23282E-05 1.72348E-06-9.11880E-19-1.08440E-19
 -1       283 9.07347E-05-1.48445E-05-3.25356E-05 4.31443E-07 8.71027E-19 6.05423E-19
 -1       284 9.07871E-05-1.50234E-05-3.24811E-05-9.70011E-07-3.27328E-20-6.94335E-21
 -1       285 9.11868E-05-1.61526E-05-3.21666E-05-2.26202E-06-2.49872E-19-1.02007E-18
 -1       286 9.18641E-05-1.80398E-05-3.16446E-05-3.22380E-06 5.25428E-19-9.67417E-19
 -1       287 9.27463E-05-2.04786E-05-3.09738E-05-3.72757E-06 1.75567E-18-4.78938E-22
 -1       288 9.37020E-05-2.30855E-05-3.02627E-05-3.65145E-06 9.40930E-19 1.63450E-18
 -1       289 9.46355E-05-2.54940E-05-2.96254E-05-2.91389E-06-4.51676E-19 4.20014E-19
 -1       290 9.55138E-05-2.70721E-05-2.93235E-05-2.59811E-06-1.24884E-18-2.65293E-18
 -1       291 1.22428E-05-4.57985E-05 1.14344E-05 8.89313E-06 2.50510E-19 2.54417E-18
 -1       292 2.71637E-05-4.35671E-05 4.44464E-06 2.29384E-05 3.06668E-18-2.15411E-19
 -1       293 5.90616E-05-4.00399E-05-9.45166E-06 3.84951E-05 2.00874E-18 1.86146E-18
 -1       294 1.00459E-04-3.69668E-05-2.73784E-05 4.34825E-05 3.60624E-19 2.08455E-18
 -1       295 1.41401E-04-3.15165E-05-4.58251E-05 4.44022E-05 1.78332E-18-1.54859E-18
 -1       296 1.80727E-04-3.26695E-05-6.06609E-05 3.83467E-05 1.04443E-18-1.44525E-18
 -1       297 2.08013E-04-3.64735E-05-6.98315E-05 1.79344E-05-5.30031E-19 3.83282E-20
 -1       298 2.07400E-04-3.45938E-05-7.06771E-05-6.81291E-06 1.69576E-18-2.26602E-18
 -1       299 1.84119E-04-3.15861E-05-6.30587E-05-2.37809E-05 1.58649E-18-2.97097E-18
 -1       300 1.52491E-04-3.06507E-05-5.05268E-05-4.42523E-05 1.03264E-18-3.05165E-18
 -1       301 1.16883E-04-3.83105E-05-3.34910E-05-4.12491E-05 3.00146E-18-1.67818E-18
 -1       302 6.93527E-05-3.47152E-05-1.58968E-05-3.99652E-05 4.33088E-18-1.66643E-18
 -1       303 3.80838E-05-4.03342E-05-8.84733E-07-3.09409E-05 3.64436E-18 5.36013E-20
 -1       304 1.54701E-05-4.38429E-05 9.46828E-06-1.45597E-05 1.27817E-18-3.49698E-18
 -1       305 1.05961E-05-4.74945E-05 1.25954E-05 1.64058E-06 1.41825E-19-4.85996E-18
 -1       306 1.90738E-05-4.65110E-05 8.58117E-06 1.41998E-05-2.75137E-18-6.59923E-18
 -1       307 4.46081E-05-4.06787E-05-3.46366E-06 3.24969E-05-4.42215E-18-6.26388E-18
 -1       308 8.08514E-05-3.76371E-05-1.93538E-05 4.09218E-05-6.24242E-18-5.61943E-18
 -1       309 1.29931E-04-3.99957E-05-3.81449E-05 3.82132E-05-6.87325E-18-1.92255E-18
 -1       310 1.68490E-04-3.38323E-05-5.57083E-05 3.67201E-05-4.55733E-18-3.04275E-18
 -1       311 1.90245E-04-3.09022E-05-6.59687E-05 1.42321E-05-1.73917E-18-3.66501E-18
 -1       312 2.13771E-04-3.67240E-05-7.21109E-05-4.73928E-07 5.53748E-19-2.73925E-18
 -1       313 2.01173E-04-3.47925E-05-6.80231E-05-2.08423E-05-6.74450E-19-3.65431E-18
 -1       314 1.73687E-04-3.30838E-05-5.77458E-05-4.08187E-05-4.93688E-19-1.61614E-18
 -1       315 1.31195E-04-3.07934E-05-4.20056E-05-4.72157E-05-2.48350E-18-1.43339E-18
 -1       316 8.96409E-05-3.45563E-05-2.41269E-05-4.33012E-05-2.85344E-18 3.81165E-20
 -1       317 4.95206E-05-3.79247E-05-7.00086E-06-3.24192E-05-2.77742E-18 2.23077E-18
 -1       318 2.48682E-05-4.57623E-05 5.85806E-06-1.90008E-05-1.98163E-18 1.96782E-18
 -1       319 1.29323E-05-5.06640E-05 1.25958E-05-5.75729E-06-1.95156E-18 2.86636E-18
 -1       320 9.16462E-05-1.43967E-05-3.31699E-05-1.30722E-05-2.51408E-18-4.34197E-19
 -1       321 9.56901E-05-1.90977E-05-3.28885E-05-1.46390E-05-2.54422E-18 1.14226E-18
 -1       322 8.80050E-05-1.03749E-05-3.33253E-05-8.16983E-06-1.87202E-18-2.33501E-18
 -1       323 8.72018E-05-9.46081E-06-3.33660E-05-5.72470E-06-1.48232E-18-2.70554E-18
 -1       324 8.67447E-05-8.93095E-06-3.33937E-05-3.37047E-06-1.11555E-18-2.91643E-18
 -1       325 8.65413E-05-8.69149E-06-3.34077E-05-1.07370E-06-6.55845E-19-3.08559E-18
 -1       326 8.65498E-05-8.70096E-06-3.34074E-05 1.20469E-06-2.02769E-19-3.26859E-18
 -1       327 8.67719E-05-8.96127E-06-3.33926E-05 3.50360E-06 2.05243E-19-3.33630E-18
 -1       328 8.72404E-05-9.50403E-06-3.33643E-05 5.82052E-06 6.47908E-19-3.35860E-18
 -1       329 8.80747E-05-1.04539E-05-3.33215E-05 8.26130E-06 1.17576E-18-3.09467E-18
 -1       330 8.94838E-05-1.20348E-05-3.32590E-05 1.07716E-05 1.73150E-18-2.79041E-18
 -1       331 9.18972E-05-1.47213E-05-3.31565E-05 1.31773E-05 2.20015E-18-2.02529E-18
 -1       332 9.57945E-05-1.94544E-05-3.28250E-05 1.43835E-05 2.52212E-18-5.28456E-19
 -1       333 9.87783E-05-2.44403E-05-3.19473E-05 1.19046E-05 2.35756E-18 9.64254E-19
 -1       334 9.63754E-05-2.68081E-05-2.97851E-05 5.74815E-06 1.87137E-18 3.30996E-19
 -1       335 9.64249E-05-2.60257E-05-3.01267E-05-6.35910E-06-1.91892E-18 1.31717E-18
 -1       336 9.49031E-05-2.70235E-05-2.90659E-05-2.84473E-06-1.60799E-18 1.10696E-18
 -1       337 9.39256E-05-2.74209E-05-2.84873E-05-9.31329E-07-1.17894E-18 8.34801E-19
 -1       338 9.34049E-05-2.76331E-05-2.81812E-05 1.28100E-07-8.29850E-19 4.54390E-19
 -1       339 9.32116E-05-2.77850E-05-2.80371E-05 6.93526E-07-7.89334E-19 4.27344E-19
 -1       340 9.32285E-05-2.79132E-05-2.79913E-05 9.63959E-07-5.11544E-19 3.72705E-19
 -1       341 9.33697E-05-2.80264E-05-2.80042E-05 1.05750E-06-6.70590E-19-4.05893E-20
 -1       342 9.35772E-05-2.81261E-05-2.80508E-05 1.04843E-06-6.84803E-19-4.68882E-20
 -1       343 9.38140E-05-2.82122E-05-2.81156E-05 9.85646E-07-3.98338E-19-2.73896E-19
 -1       344 9.40587E-05-2.82852E-05-2.81892E-05 9.02573E-07-4.44363E-19-4.78342E-19
 -1       345 9.43011E-05-2.83465E-05-2.82668E-05 8.22798E-07-1.67748E-19-4.55677E-19
 -1       346 9.45394E-05-2.83980E-05-2.83466E-05 7.63721E-07-2.42291E-19-4.21685E-19
 -1       347 9.47780E-05-2.84424E-05-2.84296E-05 7.39040E-07-2.17969E-19-8.10749E-19
 -1       348 9.50262E-05-2.84832E-05-2.85182E-05 7.60538E-07-4.26860E-20-1.05613E-18
 -1       349 9.52976E-05-2.85240E-05-2.86166E-05 8.39374E-07 7.00971E-20-8.36628E-19
 -1       350 9.56093E-05-2.85695E-05-2.87302E-05 9.86967E-07-3.87228E-19-1.39882E-18
 -1       351 9.59818E-05-2.86250E-05-2.88655E-05 1.21545E-06-5.68359E-20-1.42869E-18
 -1       352 9.64390E-05-2.86970E-05-2.90300E-05 1.53760E-06-4.54502E-20-1.26888E-18
 -1       353 9.70076E-05-2.87939E-05-2.92315E-05 1.96598E-06 3.00796E-19-1.44267E-18
 -1       354 9.77172E-05-2.89266E-05-2.94781E-05 2.51084E-06 8.44014E-19-8.48809E-19
 -1       355 9.85990E-05-2.91103E-05-2.97767E-05 3.17606E-06 4.46982E-20 2.78150E-19
 -1       356 9.96854E-05-2.93673E-05-3.01318E-05 3.95184E-06-2.59772E-19 2.98509E-19
 -1       357 1.01008E-04-2.97308E-05-3.05431E-05 4.80266E-06 1.73457E-19 9.71987E-19
 -1       358 1.02598E-04-3.02511E-05-3.10028E-05 5.64852E-06 1.86507E-19 1.07452E-18
 -1       359 1.04483E-04-3.10010E-05-3.14917E-05 6.33842E-06 4.79946E-19 8.77669E-19
 -1       360 1.06680E-04-3.20754E-05-3.19780E-05 6.61925E-06 8.75932E-19 1.22593E-18
 -1       361 1.09184E-04-3.35663E-05-3.24195E-05 6.11350E-06 1.05633E-18 4.34272E-19
 -1       362 1.11913E-04-3.54829E-05-3.27756E-05 4.34346E-06 7.88203E-19-6.16663E-22
 -1       363 1.14598E-04-3.75764E-05-3.30344E-05 8.72484E-07-1.85757E-19 8.42405E-19
 -1       364 1.16600E-04-3.90742E-05-3.32472E-05-4.31083E-06-6.98122E-19 1.57884E-18
 -1       365 1.16884E-04-3.86575E-05-3.35440E-05-1.01414E-05-6.19409E-19 2.42426E-18
 -1       366 1.14552E-04-3.51796E-05-3.40405E-05-1.40050E-05 4.86385E-19 2.36102E-18
 -1       367 1.10177E-04-2.93765E-05-3.46733E-05-1.24655E-05-4.20056E-19 2.66000E-18
 -1       368 1.06648E-04-2.48322E-05-3.50866E-05-4.70607E-06-1.61519E-18 7.94351E-19
 -1       369 1.06908E-04-2.53234E-05-3.49927E-05 5.73108E-06-1.83179E-18 1.46937E-19
 -1       370 1.10642E-04-3.04476E-05-3.44043E-05 1.24135E-05-2.13697E-19 9.39677E-21
 -1       371 1.14486E-04-3.59271E-05-3.36890E-05 1.26380E-05-1.62038E-19-2.12130E-18
 -1       372 1.16004E-04-3.87328E-05-3.31330E-05 8.02463E-06-3.31005E-20-3.71326E-19
 -1       373 1.14978E-04-3.85852E-05-3.27637E-05 2.04010E-06 1.66680E-19 1.35062E-18
 -1       374 1.12427E-04-3.67892E-05-3.24411E-05-3.00146E-06 1.47786E-19 3.04396E-18
 -1       375 1.09313E-04-3.45592E-05-3.20561E-05-6.26196E-06 1.76301E-18 3.15025E-18
 -1       376 1.06204E-04-3.25425E-05-3.15792E-05-7.83410E-06 1.06254E-18 2.94472E-18
 -1       377 1.03335E-04-3.09041E-05-3.10438E-05-8.11994E-06-3.52867E-19 1.96451E-18
 -1       378 1.00785E-04-2.95896E-05-3.05084E-05-7.49625E-06-1.54863E-18 1.06046E-18
 -1       379 9.85848E-05-2.84849E-05-3.00329E-05-6.21257E-06-2.16854E-19 7.29794E-19
 -1       380 9.69519E-05-2.77103E-05-2.96635E-05-4.54589E-06-3.75188E-19-1.13589E-18
 -1       381 9.43532E-05-2.73364E-05-2.86833E-05 2.47631E-06 1.40714E-18-9.45219E-20
 -1       382 9.31441E-05-2.74553E-05-2.81305E-05 7.51955E-07 9.33142E-19-3.96727E-19
 -1       383 9.25872E-05-2.75318E-05-2.78710E-05-1.69030E-07 6.74130E-19-6.56024E-19
 -1       384 9.24430E-05-2.76234E-05-2.77757E-05-6.45192E-07 6.69858E-19-1.04671E-18
 -1       385 9.25440E-05-2.77315E-05-2.77752E-05-8.64631E-07 7.03199E-19-1.52386E-18
 -1       386 9.27796E-05-2.78467E-05-2.78280E-05-9.33313E-07 4.65619E-19-1.80426E-18
 -1       387 9.30796E-05-2.79602E-05-2.79085E-05-9.15531E-07 6.47895E-19-1.78152E-18
 -1       388 9.34011E-05-2.80662E-05-2.80011E-05-8.52790E-07 3.30921E-19-1.55997E-18
 -1       389 9.37201E-05-2.81620E-05-2.80969E-05-7.72994E-07 6.18104E-19-1.46377E-18
 -1       390 9.40259E-05-2.82470E-05-2.81915E-05-6.95556E-07 7.18751E-19-1.59044E-18
 -1       391 9.43173E-05-2.83227E-05-2.82838E-05-6.34525E-07 7.17722E-19-1.69890E-18
 -1       392 9.46003E-05-2.83918E-05-2.83752E-05-6.00646E-07 9.14630E-20-1.51371E-18
 -1       393 9.48861E-05-2.84582E-05-2.84689E-05-6.02776E-07-2.68010E-19-1.76254E-18
 -1       394 9.51907E-05-2.85268E-05-2.85697E-05-6.48829E-07 9.38990E-20-1.71034E-18
 -1       395 9.55335E-05-2.86034E-05-2.86833E-05-7.46289E-07 1.74657E-19-2.09660E-18
 -1       396 9.59375E-05-2.86951E-05-2.88167E-05-9.02289E-07 2.98866E-19-1.85872E-18
 -1       397 9.64285E-05-2.88099E-05-2.89775E-05-1.12312E-06 3.68190E-20-1.93065E-18
 -1       398 9.70344E-05-2.89576E-05-2.91734E-05-1.41297E-06 4.25187E-19-2.03258E-18
 -1       399 9.77836E-05-2.91495E-05-2.94119E-05-1.77156E-06-7.44682E-20-2.56056E-18
 -1       400 9.87028E-05-2.93985E-05-2.96989E-05-2.19028E-06 9.53409E-19-2.60861E-18
 -1       401 9.98132E-05-2.97200E-05-3.00372E-05-2.64618E-06-6.19868E-20-1.95281E-18
 -1       402 1.01124E-04-3.01308E-05-3.04239E-05-3.09349E-06-1.49526E-18-1.85053E-18
 -1       403 1.02627E-04-3.06481E-05-3.08476E-05-3.45281E-06-3.21686E-19-1.47947E-18
 -1       404 1.04278E-04-3.12857E-05-3.12847E-05-3.59986E-06-5.20480E-19-2.21881E-18
 -1       405 1.05990E-04-3.20441E-05-3.16973E-05-3.35981E-06 3.90105E-19-4.30692E-19
 -1       406 1.07609E-04-3.28899E-05-3.20327E-05-2.51991E-06-8.47376E-19-7.98726E-21
 -1       407 1.08894E-04-3.37203E-05-3.22314E-05-8.83022E-07-4.82776E-20 1.01994E-18
 -1       408 1.09513E-04-3.43188E-05-3.22419E-05 1.61091E-06-2.51893E-19 9.61013E-19
 -1       409 1.09079E-04-3.43395E-05-3.20442E-05 4.69279E-06-7.78528E-19-2.60430E-19
 -1       410 1.07304E-04-3.34082E-05-3.16760E-05 7.58135E-06-4.82584E-19-1.71863E-18
 -1       411 1.04271E-04-3.13851E-05-3.12328E-05 9.01836E-06-4.67274E-19-1.78217E-18
 -1       412 1.00772E-04-2.87889E-05-3.08418E-05 7.78707E-06-6.81613E-20-1.06586E-18
 -1       413 9.82077E-05-2.67887E-05-3.05982E-05 3.70064E-06 4.73025E-19 4.89224E-19
 -1       414 9.78145E-05-2.65098E-05-3.05432E-05-1.83891E-06 1.61723E-18 1.38705E-18
 -1       415 9.97609E-05-2.81393E-05-3.06764E-05-6.43551E-06 5.62380E-19 1.01280E-18
 -1       416 1.02918E-04-3.06571E-05-3.09591E-05-8.31287E-06-1.71787E-19 7.49058E-19
 -1       417 1.05815E-04-3.28050E-05-3.12912E-05-7.31571E-06-2.30181E-18-8.52779E-19
 -1       418 1.07495E-04-3.38939E-05-3.15553E-05-4.51383E-06-1.17529E-18-1.56637E-18
 -1       419 1.07743E-04-3.39286E-05-3.16519E-05-1.24655E-06 5.71933E-19-1.16357E-18
 -1       420 1.06814E-04-3.32638E-05-3.15386E-05 1.54745E-06-4.14720E-19-8.50581E-19
 -1       421 1.05115E-04-3.22708E-05-3.12317E-05 3.45910E-06 2.20547E-18-1.81015E-18
 -1       422 1.03027E-04-3.11987E-05-3.07902E-05 4.44643E-06 2.05473E-18-4.67216E-19
 -1       423 1.00847E-04-3.01713E-05-3.02905E-05 4.62488E-06 3.99863E-19-1.66886E-19
 -1       424 9.87929E-05-2.92340E-05-2.98079E-05 4.12825E-06 6.71250E-19 3.79319E-19
 -1       425 9.70240E-05-2.84195E-05-2.93970E-05 3.06623E-06-1.61863E-20 7.22452E-19
 -1       426 9.60819E-05-2.79409E-05-2.91976E-05 2.25917E-06 5.23940E-20 1.45607E-18
 -1       427 9.41779E-05-2.39477E-05-3.00958E-05 5.64654E-06-4.70400E-19 5.07657E-20
 -1       428 9.51635E-05-2.57491E-05-2.97419E-05 4.85588E-06 5.02802E-21 3.89595E-18
 -1       429 9.57133E-05-2.69229E-05-2.94730E-05 3.65071E-06-3.42086E-19 1.94535E-18
 -1       430 9.31342E-05-2.20568E-05-3.04632E-05 5.77329E-06-7.74299E-19-4.01932E-18
 -1       431 9.20742E-05-2.01850E-05-3.08151E-05 5.17124E-06-7.96600E-19 1.50865E-18
 -1       432 9.11438E-05-1.86020E-05-3.10982E-05 3.83390E-06-1.66559E-18 1.45413E-18
 -1       433 9.05005E-05-1.75553E-05-3.12733E-05 1.88334E-06-2.16165E-18-2.36497E-19
 -1       434 9.02826E-05-1.72410E-05-3.13153E-05-4.23599E-07-1.72424E-18 1.55447E-18
 -1       435 9.05548E-05-1.77385E-05-3.12178E-05-2.73166E-06-6.81836E-19-1.78759E-18
 -1       436 9.12644E-05-1.89533E-05-3.09985E-05-4.64048E-06-5.38998E-19 3.65108E-19
 -1       437 9.23250E-05-2.07423E-05-3.06824E-05-5.91291E-06 1.21829E-18 1.30631E-18
 -1       438 9.35827E-05-2.28374E-05-3.03183E-05-6.31884E-06 1.74232E-18-9.82096E-20
 -1       439 9.49012E-05-2.49828E-05-2.99567E-05-5.81276E-06-4.61894E-19-7.55921E-19
 -1       440 5.77949E-05-4.15638E-05-7.04875E-06 4.35146E-05 1.67840E-18-1.56315E-18
 -1       441 1.21657E-05-2.37527E-05 4.71323E-06-6.00928E-07 1.73377E-20 2.98145E-18
 -1       442 2.76075E-05-2.97944E-05 7.88491E-07 2.99623E-05 8.66621E-19 2.73253E-18
 -1       443 1.03425E-04-5.53653E-05-2.05886E-05 4.08588E-05-3.70577E-20-5.80006E-19
 -1       444 1.37507E-04-5.40685E-05-3.57479E-05 2.27794E-05 3.79894E-19-2.61320E-18
 -1       445 8.94249E-05-1.19275E-05-3.32757E-05-1.07682E-05-2.31911E-18-1.58698E-18
 -1       446 1.62578E-04-2.34605E-05-5.92207E-05 2.66074E-06-3.86141E-19-3.08744E-19
 -1       447 1.58982E-04-1.28270E-05-6.24038E-05-4.01844E-08 1.35430E-18-1.56518E-18
 -1       448 1.56775E-04-1.65533E-05-5.99822E-05 2.65289E-06 1.75844E-18-1.17960E-18
 -1       449 1.52730E-04-3.60548E-05-5.01500E-05-1.85978E-06 5.34001E-19-1.48040E-18
 -1       450 1.44126E-04-5.08863E-05-3.99531E-05-1.37103E-05 1.29726E-18-1.47098E-18
 -1       451 1.12364E-04-5.53461E-05-2.45244E-05-3.65441E-05 1.64081E-18-4.99644E-19
 -1       452 7.71914E-05-4.74441E-05-1.27422E-05-4.43956E-05 1.90604E-18-2.88944E-19
 -1       453 3.48542E-05-3.18285E-05-1.39590E-06-3.49213E-05-7.66247E-19-2.49303E-18
 -1       454 1.51619E-05-1.95618E-05 2.10810E-06-1.02936E-05-2.28442E-18-4.14877E-18
 -1       455 1.68271E-05-2.63814E-05 3.76517E-06 1.72531E-05-1.71207E-19-6.62888E-18
 -1       456 4.07845E-05-3.47072E-05-2.78022E-06 3.66359E-05-4.25634E-20-5.49735E-18
 -1       457 8.52879E-05-5.06698E-05-1.48985E-05 4.26327E-05-7.26225E-19-2.53776E-18
 -1       458 1.23933E-04-5.81057E-05-2.82400E-05 3.02389E-05-1.56923E-18-1.71418E-19
 -1       459 1.49916E-04-4.55564E-05-4.46963E-05 1.00874E-05-4.74586E-18-7.71329E-19
 -1       460 1.58237E-04-3.08914E-05-5.44890E-05-1.59543E-06-2.79272E-18-1.76479E-18
 -1       461 1.50152E-04-1.16249E-05-5.95629E-05-4.43905E-06-8.93302E-19-5.85697E-19
 -1       462 1.51575E-04-1.22736E-05-5.99377E-05 2.98608E-06-4.72433E-19-8.27710E-20
 -1       463 1.62620E-04-2.89537E-05-5.69928E-05-2.42197E-06-1.00733E-18-1.92679E-18
 -1       464 1.52810E-04-4.48044E-05-4.61451E-05-1.26289E-05-9.03738E-19-1.58861E-18
 -1       465 1.32772E-04-5.63271E-05-3.27604E-05-2.70502E-05-1.47680E-18-3.88005E-18
 -1       466 9.38333E-05-5.28740E-05-1.77230E-05-4.22294E-05-4.59727E-19-1.81056E-18
 -1       467 5.44023E-05-4.16352E-05-5.72661E-06-4.14388E-05-2.02886E-18 1.38654E-18
 -1       468 2.43954E-05-2.81125E-05 1.47154E-06-2.60900E-05-8.84514E-19 2.31229E-18
 -1       469 1.54142E-04-3.88923E-05-4.92210E-05 9.48540E-06 1.19543E-18-1.45986E-18
 -1       470 1.41036E-04-5.92124E-05-3.52720E-05 9.75794E-06-2.10161E-18 1.94802E-18
 -1       471 9.58095E-05-2.51459E-05-3.02702E-05 6.02691E-06 1.71415E-18-9.73858E-19
 -1       472 8.95539E-05-1.34078E-05-3.26530E-05-3.92809E-06-1.30083E-18-2.61273E-18
 -1       473 9.02600E-05-1.43721E-05-3.25436E-05-5.88539E-06-1.51996E-18-2.21706E-18
 -1       474 8.90602E-05-1.27292E-05-3.27311E-05 5.46818E-08-4.74728E-19-2.84868E-18
 -1       475 8.91946E-05-1.29124E-05-3.27104E-05 2.04816E-06-2.93014E-20-3.06240E-18
 -1       476 8.95866E-05-1.34488E-05-3.26496E-05 4.00330E-06 4.39564E-19-3.06589E-18
 -1       477 9.03056E-05-1.44336E-05-3.25377E-05 5.95864E-06 1.00779E-18-2.82737E-18
 -1       478 9.14494E-05-1.60113E-05-3.23537E-05 7.78834E-06 1.37936E-18-2.59732E-18
 -1       479 9.32304E-05-1.84792E-05-3.20564E-05 9.30476E-06 1.81558E-18-2.16439E-18
 -1       480 9.51015E-05-2.65753E-05-2.93505E-05 2.88390E-06 1.31376E-18-9.35571E-19
 -1       481 9.54737E-05-2.44325E-05-3.04364E-05-5.83005E-06-1.86480E-18-4.08625E-20
 -1       482 1.41957E-04-2.97823E-05-4.85503E-05-9.48084E-06-6.80803E-20-4.58245E-19
 -1       483 9.52648E-05-2.62211E-05-2.95819E-05-2.90699E-06-1.49093E-18-6.83581E-20
 -1       484 9.49091E-05-2.71590E-05-2.90318E-05-1.04201E-06-1.10020E-18-2.76382E-20
 -1       485 9.46331E-05-2.76890E-05-2.86887E-05 8.28552E-08-9.27342E-19-1.15970E-19
 -1       486 9.44775E-05-2.80129E-05-2.84842E-05 7.21769E-07-7.95800E-19-2.31665E-19
 -1       487 9.44246E-05-2.82210E-05-2.83729E-05 1.04708E-06-8.07268E-19-5.02373E-19
 -1       488 9.44446E-05-2.83571E-05-2.83233E-05 1.17554E-06-6.37643E-19-5.00190E-19
 -1       489 9.45114E-05-2.84447E-05-2.83145E-05 1.18716E-06-6.25843E-19-2.90477E-19
 -1       490 9.46059E-05-2.84977E-05-2.83324E-05 1.13770E-06-6.76440E-19-1.49195E-19
 -1       491 9.47157E-05-2.85247E-05-2.83678E-05 1.06678E-06-1.65067E-19-1.87945E-20
 -1       492 9.48343E-05-2.85320E-05-2.84155E-05 1.00323E-06-1.81886E-19-1.60555E-20
 -1       493 9.49597E-05-2.85234E-05-2.84728E-05 9.68950E-07-3.08525E-19-2.73648E-20
 -1       494 9.50937E-05-2.85021E-05-2.85392E-05 9.81642E-07-3.53008E-19-2.00470E-20
 -1       495 9.52406E-05-2.84701E-05-2.86157E-05 1.05679E-06-3.33601E-19-3.90215E-19
 -1       496 9.54070E-05-2.84288E-05-2.87046E-05 1.20906E-06-3.79567E-19-8.71056E-19
 -1       497 9.56016E-05-2.83799E-05-2.88087E-05 1.45317E-06-3.13276E-19-9.50163E-19
 -1       498 9.58344E-05-2.83252E-05-2.89317E-05 1.80417E-06-4.15997E-19-1.35480E-18
 -1       499 9.61171E-05-2.82683E-05-2.90769E-05 2.27695E-06 1.12231E-19-9.97888E-19
 -1       500 9.64631E-05-2.82159E-05-2.92474E-05 2.88480E-06 1.16391E-18-1.63624E-18
 -1       501 9.68884E-05-2.81804E-05-2.94446E-05 3.63639E-06 1.19610E-18-1.41597E-18
 -1       502 9.74139E-05-2.81852E-05-2.96674E-05 4.53066E-06 3.29337E-19-7.93455E-19
 -1       503 9.80695E-05-2.82722E-05-2.99110E-05 5.54833E-06-1.53113E-19-7.03839E-19
 -1       504 9.89038E-05-2.85137E-05-3.01653E-05 6.63887E-06-3.20070E-19-8.34286E-19
 -1       505 9.99974E-05-2.90276E-05-3.04145E-05 7.70118E-06-3.67221E-20-1.02535E-18
 -1       506 1.01484E-04-2.99928E-05-3.06396E-05 8.55640E-06 1.19805E-18-9.41566E-19
 -1       507 1.03567E-04-3.16460E-05-3.08267E-05 8.91250E-06 5.29296E-19-1.16778E-18
 -1       508 1.06503E-04-3.42214E-05-3.09859E-05 8.32711E-06 9.46620E-19-1.11847E-18
 -1       509 1.10490E-04-3.77564E-05-3.11840E-05 6.20379E-06 5.88451E-19-1.24471E-18
 -1       510 1.15402E-04-4.17157E-05-3.15926E-05 1.88903E-06-1.01129E-19-3.97367E-20
 -1       511 1.20143E-04-4.42847E-05-3.25150E-05-4.78744E-06-4.52155E-19 2.63298E-19
 -1       512 1.22515E-04-4.25669E-05-3.43116E-05-1.24109E-05 5.53434E-19 1.54181E-18
 -1       513 1.19970E-04-3.44083E-05-3.67266E-05-1.65842E-05 1.86599E-19 1.31835E-18
 -1       514 1.14056E-04-2.31219E-05-3.92547E-05-1.24012E-05-1.48256E-18 9.58385E-19
 -1       515 1.12948E-04-1.94960E-05-4.02027E-05 7.75633E-07-3.16006E-18 2.05899E-18
 -1       516 1.14756E-04-2.49393E-05-3.87666E-05 1.29500E-05-2.47623E-18-2.43625E-19
 -1       517 1.20671E-04-3.64429E-05-3.61739E-05 1.51801E-05-1.43170E-18-1.96015E-18
 -1       518 1.21845E-04-4.33483E-05-3.36854E-05 9.74091E-06 1.65707E-18-8.85542E-19
 -1       519 1.18685E-04-4.39770E-05-3.20255E-05 1.98511E-06 1.74036E-18 2.22584E-19
 -1       520 1.13651E-04-4.09598E-05-3.11653E-05-4.45173E-06 1.71590E-18 2.01127E-18
 -1       521 1.08674E-04-3.69166E-05-3.07657E-05-8.47908E-06-3.54811E-19 2.94045E-18
 -1       522 1.04679E-04-3.34186E-05-3.05476E-05-1.03754E-05 2.66936E-19 1.76974E-18
 -1       523 1.01682E-04-3.08081E-05-3.03767E-05-1.07681E-05 1.37879E-19 1.25230E-18
 -1       524 9.94478E-05-2.89513E-05-3.02118E-05-1.01483E-05-4.58568E-19 7.47899E-19
 -1       525 9.77161E-05-2.75625E-05-3.00621E-05-8.82595E-06-1.72722E-18 7.72810E-19
 -1       526 5.31280E-05-3.05941E-05-9.13121E-06 3.83184E-05 3.28966E-19-8.17387E-20
 -1       527 9.41289E-05-2.76805E-05-2.84743E-05-1.11196E-07 9.47936E-19-1.18173E-18
 -1       528 9.39536E-05-2.79264E-05-2.82961E-05-7.23458E-07 1.04156E-18-1.35206E-18
 -1       529 9.39255E-05-2.80955E-05-2.82125E-05-1.02720E-06 6.15157E-19-1.49004E-18
 -1       530 9.39932E-05-2.82185E-05-2.81893E-05-1.14061E-06 3.99629E-19-1.37394E-18
 -1       531 9.41175E-05-2.83094E-05-2.82038E-05-1.14216E-06 1.97036E-19-1.01863E-18
 -1       532 9.42714E-05-2.83760E-05-2.82413E-05-1.08521E-06 6.88534E-19-8.06293E-19
 -1       533 9.44387E-05-2.84235E-05-2.82927E-05-1.00696E-06 1.02472E-18-7.51334E-19
 -1       534 9.46112E-05-2.84556E-05-2.83528E-05-9.34067E-07 6.45293E-19-1.02597E-18
 -1       535 9.47870E-05-2.84758E-05-2.84193E-05-8.86317E-07 5.61040E-19-1.10142E-18
 -1       536 9.49690E-05-2.84872E-05-2.84922E-05-8.79206E-07-2.30510E-19-1.30056E-18
 -1       537 9.51637E-05-2.84930E-05-2.85730E-05-9.25686E-07-1.74904E-19-1.08238E-18
 -1       538 9.53809E-05-2.84965E-05-2.86643E-05-1.03727E-06 6.22347E-19-1.44019E-18
 -1       539 9.56328E-05-2.85018E-05-2.87697E-05-1.22450E-06 1.73897E-19-1.29895E-18
 -1       540 9.59342E-05-2.85142E-05-2.88932E-05-1.49678E-06 1.26466E-19-1.20074E-18
 -1       541 9.63018E-05-2.85414E-05-2.90388E-05-1.86126E-06-2.85135E-19-9.34558E-19
 -1       542 9.67545E-05-2.85940E-05-2.92100E-05-2.32071E-06 6.90042E-19-5.98557E-19
 -1       543 9.73134E-05-2.86880E-05-2.94090E-05-2.86974E-06 1.51853E-19-1.70979E-18
 -1       544 9.80017E-05-2.88472E-05-2.96358E-05-3.48913E-06 4.86436E-20-7.07737E-19
 -1       545 9.88457E-05-2.91060E-05-2.98868E-05-4.13747E-06-8.26927E-19-5.03406E-20
 -1       546 9.98751E-05-2.95130E-05-3.01543E-05-4.74014E-06-5.17811E-19-9.65237E-19
 -1       547 1.01123E-04-3.01317E-05-3.04253E-05-5.17609E-06-5.00645E-19-6.93862E-19
 -1       548 1.02624E-04-3.10346E-05-3.06836E-05-5.26545E-06-4.99700E-19-8.64626E-19
 -1       549 1.04396E-04-3.22783E-05-3.09130E-05-4.76576E-06-7.52565E-19-1.29452E-18
 -1       550 1.06408E-04-3.38467E-05-3.11066E-05-3.39303E-06-1.31413E-18-1.26355E-18
 -1       551 1.08503E-04-3.55441E-05-3.12801E-05-9.00209E-07-8.98452E-19-9.72567E-19
 -1       552 1.10291E-04-3.68662E-05-3.14822E-05 2.73896E-06 1.40931E-19 6.53114E-19
 -1       553 1.11124E-04-3.69791E-05-3.17843E-05 7.01944E-06 3.84367E-19-3.32331E-19
 -1       554 1.10260E-04-3.49996E-05-3.22584E-05 1.06700E-05-8.64525E-19-8.03903E-19
 -1       555 1.07601E-04-3.08795E-05-3.28815E-05 1.15816E-05-7.85475E-19-1.46850E-19
 -1       556 1.04215E-04-2.61304E-05-3.34774E-05 8.23640E-06-9.95396E-20 2.32461E-19
 -1       557 1.02400E-04-2.37031E-05-3.37398E-05 1.28234E-06 2.40402E-19-5.59931E-19
 -1       558 1.03495E-04-2.53505E-05-3.34893E-05-6.12651E-06 3.27629E-19 1.13718E-18
 -1       559 1.06520E-04-2.98082E-05-3.28824E-05-1.03036E-05 4.90896E-19 2.09387E-18
 -1       560 1.09288E-04-3.42372E-05-3.21706E-05-1.00791E-05 3.67336E-19 2.26546E-18
 -1       561 1.10338E-04-3.66806E-05-3.15760E-05-6.69656E-06-1.16879E-18 8.22201E-20
 -1       562 1.09565E-04-3.68867E-05-3.11582E-05-2.23871E-06-6.15671E-19-1.17571E-20
 -1       563 1.07638E-04-3.56395E-05-3.08688E-05 1.76092E-06 7.85221E-19-3.07628E-19
 -1       564 1.05264E-04-3.38185E-05-3.06295E-05 4.61756E-06 1.42011E-18-1.98356E-18
 -1       565 1.02895E-04-3.19919E-05-3.03931E-05 6.23201E-06 7.65090E-19 9.49955E-19
 -1       566 1.00729E-04-3.03871E-05-3.01484E-05 6.76279E-06 6.12805E-19 2.40399E-18
 -1       567 9.88239E-05-2.90247E-05-2.99105E-05 6.42315E-06 6.78659E-19 1.87639E-18
 -1       568 9.71473E-05-2.78529E-05-2.96914E-05 5.38489E-06 1.19078E-18 2.95951E-18
 -1       569 9.26283E-05-2.25871E-05-3.00193E-05 7.36193E-06 1.02335E-18-1.29703E-18
 -1       570 9.10861E-05-2.08513E-05-3.01041E-05 6.13910E-06-9.95506E-19 5.08148E-19
 -1       571 9.55826E-05-2.60096E-05-2.98144E-05 7.00879E-06 2.52815E-19 5.43172E-19
 -1       572 9.41745E-05-2.43626E-05-2.99190E-05 7.60702E-06-1.90922E-18-1.89117E-18
 -1       573 8.98033E-05-1.94402E-05-3.01603E-05 3.97104E-06-1.95514E-18 7.52995E-19
 -1       574 8.90587E-05-1.86396E-05-3.01849E-05 1.09335E-06-1.50720E-18 5.26121E-19
 -1       575 8.90570E-05-1.86481E-05-3.01804E-05-2.05655E-06-1.96522E-19 2.33872E-18
 -1       576 8.98054E-05-1.94617E-05-3.01516E-05-4.90322E-06 1.36215E-18-1.75510E-18
 -1       577 9.11913E-05-2.09551E-05-3.01042E-05-7.07451E-06 2.06904E-19 1.32724E-18
 -1       578 9.29500E-05-2.28563E-05-3.00414E-05-8.21654E-06-3.61557E-19 1.67232E-19
 -1       579 9.48797E-05-2.49044E-05-2.99882E-05-8.17245E-06-2.44298E-18-5.50834E-19
 -1       580 2.52384E-05-1.68275E-05-3.06119E-06-1.40939E-05 1.36452E-19 4.30579E-18
 -1       581 9.45072E-05-2.72891E-05-2.87991E-05 9.93958E-07 9.15827E-19-1.09668E-18
 -1       582 9.04870E-05-5.02509E-05-1.69630E-05 4.22601E-05-2.00112E-20-2.39386E-18
 -1       583 5.15207E-05-3.13251E-05-8.16471E-06-3.79843E-05-2.67927E-19 7.27707E-19
 -1       584 9.46233E-05-2.07688E-05-3.16730E-05-9.52475E-06-2.27942E-18-2.14920E-19
 -1       585 1.28665E-04-6.18994E-05-2.85835E-05 2.37065E-05-8.86394E-19-3.78798E-18
 -1       586 1.37292E-04-2.34051E-05-4.93559E-05 1.22648E-05-2.49398E-19 5.88794E-19
 -1       587 8.91746E-05-1.28873E-05-3.27126E-05-1.93939E-06-9.30852E-19-2.69978E-18
 -1       588 1.28319E-04-7.85516E-06-5.23011E-05 3.92263E-06 7.86894E-19-6.35870E-20
 -1       589 3.66079E-05-1.95439E-05-6.69206E-06-2.65120E-05-2.49957E-18-3.96697E-18
 -1       590 1.36213E-04-1.33671E-05-5.32507E-05-7.80222E-06 4.97844E-19-1.21314E-18
 -1       591 1.41083E-04-4.56861E-05-4.12271E-05 6.37494E-06-8.15759E-19 1.59687E-18
 -1       592 1.32735E-04-6.00088E-05-3.12519E-05-1.79224E-05 2.35581E-21 1.34996E-19
 -1       593 1.04904E-04-5.56843E-05-2.09023E-05-3.72027E-05-5.33684E-19 9.96463E-19
 -1       594 1.46445E-04-3.86594E-05-4.66013E-05 8.49296E-06-4.98585E-19 4.58986E-19
 -1       595 6.63757E-05-3.81017E-05-1.17080E-05-4.19393E-05-1.18029E-18 1.28061E-19
 -1       596 2.47105E-05-1.43300E-05-3.84319E-06 9.04971E-06-9.62110E-19-4.23538E-18
 -1       597 3.87769E-05-2.24106E-05-6.45669E-06 2.88613E-05 8.16434E-19-4.73026E-18
 -1       598 7.46936E-05-4.22910E-05-1.34756E-05 4.13382E-05 1.23741E-18-3.24668E-18
 -1       599 1.12364E-04-5.83862E-05-2.29510E-05 3.25746E-05 8.58415E-19-2.60529E-20
 -1       600 1.45199E-04-4.27184E-05-4.44570E-05-9.34219E-06-2.88356E-18-1.31714E-19
 -1       601 1.36151E-04-2.09314E-05-4.99303E-05-1.43482E-05-1.89174E-18-1.63694E-18
 -1       602 1.26038E-04-1.00568E-05-5.04146E-05 2.85747E-07-1.33408E-18-2.07690E-18
 -1       603 1.37169E-04-1.87713E-05-5.13666E-05 1.12551E-05-8.78426E-19 1.48877E-18
 -1       604 1.44088E-04-5.60260E-05-3.78945E-05-5.61157E-06-2.64076E-19-1.70222E-18
 -1       605 1.22286E-04-6.19353E-05-2.58092E-05-2.93422E-05 1.02840E-18-3.90157E-18
 -1       606 8.61744E-05-4.94392E-05-1.54502E-05-4.27519E-05 6.08328E-19-3.38795E-18
 -1       607 2.66838E-05-1.66774E-05-3.70490E-06 1.64224E-05 3.43048E-20 3.33964E-18
 -1       608 9.61492E-05-2.31873E-05-3.12729E-05 9.59124E-06 2.17187E-18-8.58622E-19
 -1       609 1.43482E-04-5.02113E-05-4.02116E-05 1.00626E-06-5.24135E-19-3.17823E-18
 -1       610 9.13431E-05-1.59066E-05-3.23647E-05-7.67952E-06-1.87256E-18-1.77153E-18
 -1       611 9.67337E-05-2.67860E-05-2.99720E-05-7.60222E-06-1.56423E-18 1.03257E-18
 -1       612 1.28953E-04-6.12228E-05-2.90599E-05 1.65835E-05 4.52183E-19 9.51509E-19
 -1       613 3.43091E-05-1.21954E-05-8.91041E-06-9.07221E-06-1.06643E-18-2.79002E-18
 -1       614 9.15710E-05-1.68571E-05-3.20258E-05 2.44403E-06 2.29747E-19-2.65658E-18
 -1       615 9.13139E-05-1.64554E-05-3.20876E-05 8.41758E-07-2.46271E-19-2.59680E-18
 -1       616 9.29015E-05-1.90042E-05-3.16758E-05 5.26922E-06 1.05244E-18-2.39664E-18
 -1       617 9.39867E-05-2.09316E-05-3.13173E-05 6.15319E-06 1.34587E-18-2.11776E-18
 -1       618 9.52683E-05-2.40947E-05-3.04926E-05 5.15799E-06 1.42230E-18-1.71500E-18
 -1       619 1.13052E-04-5.60073E-05-2.42579E-05 2.90380E-05-5.38925E-19-3.45359E-18
 -1       620 9.53326E-05-2.59422E-05-2.97350E-05 2.61158E-06 9.82582E-19-1.68825E-18
 -1       621 4.91151E-05-1.91400E-05-1.23688E-05 2.42388E-05-1.55967E-18 2.38953E-18
 -1       622 1.31835E-04-3.09521E-05-4.36941E-05 1.56747E-05-2.88155E-18 1.71418E-18
 -1       623 9.54124E-05-2.57006E-05-2.98744E-05-2.45374E-06-1.28068E-18-4.90150E-19
 -1       624 9.54746E-05-2.69436E-05-2.93698E-05-8.76425E-07-1.05879E-18-5.76036E-19
 -1       625 9.54207E-05-2.77011E-05-2.90225E-05 1.29516E-07-9.13870E-19-5.66290E-19
 -1       626 9.53457E-05-2.81676E-05-2.87906E-05 7.24490E-07-8.80224E-19-8.53688E-19
 -1       627 9.52828E-05-2.84504E-05-2.86425E-05 1.03879E-06-6.85128E-19-7.27324E-19
 -1       628 9.52400E-05-2.86124E-05-2.85548E-05 1.17102E-06-3.70707E-19-5.83375E-19
 -1       629 9.52159E-05-2.86922E-05-2.85103E-05 1.19428E-06-4.06131E-19-2.82621E-20
 -1       630 9.52068E-05-2.87143E-05-2.84969E-05 1.16224E-06-5.57358E-19-8.25552E-20
 -1       631 9.52088E-05-2.86945E-05-2.85062E-05 1.11443E-06-2.37830E-19-3.45869E-19
 -1       632 9.52190E-05-2.86428E-05-2.85327E-05 1.08053E-06-4.74076E-19-4.32524E-19
 -1       633 9.52355E-05-2.85649E-05-2.85731E-05 1.08370E-06-2.27005E-19-4.19221E-19
 -1       634 9.52568E-05-2.84635E-05-2.86257E-05 1.14308E-06-3.08301E-19-3.43582E-19
 -1       635 9.52823E-05-2.83391E-05-2.86899E-05 1.27566E-06-8.10560E-19-3.88271E-19
 -1       636 9.53114E-05-2.81909E-05-2.87658E-05 1.49747E-06-4.27936E-19 1.27116E-19
 -1       637 9.53435E-05-2.80174E-05-2.88538E-05 1.82429E-06-3.29806E-19 2.40379E-19
 -1       638 9.53782E-05-2.78181E-05-2.89540E-05 2.27172E-06-2.05757E-19-2.59406E-19
 -1       639 9.54156E-05-2.75949E-05-2.90656E-05 2.85444E-06 1.60774E-19-6.37894E-19
 -1       640 9.54577E-05-2.73558E-05-2.91860E-05 3.58476E-06 9.04061E-19-1.31057E-18
 -1       641 9.55111E-05-2.71195E-05-2.93101E-05 4.47004E-06 7.06397E-19-2.69602E-18
 -1       642 9.55931E-05-2.69244E-05-2.94287E-05 5.50886E-06 7.70311E-19-2.24480E-18
 -1       643 9.57429E-05-2.68413E-05-2.95285E-05 6.68545E-06-3.36059E-19-1.25460E-18
 -1       644 9.60411E-05-2.69929E-05-2.95913E-05 7.96183E-06-2.69584E-19-4.77997E-19
 -1       645 9.66399E-05-2.75784E-05-2.95973E-05 9.26544E-06 2.20013E-19-9.83869E-20
 -1       646 9.78062E-05-2.88967E-05-2.95329E-05 1.04664E-05 7.74011E-19-9.31955E-19
 -1       647 9.99645E-05-3.13458E-05-2.94098E-05 1.13296E-05 8.44363E-19-9.81810E-20
 -1       648 1.03701E-04-3.53350E-05-2.93038E-05 1.14143E-05 5.71973E-19 1.82010E-20
 -1       649 1.09562E-04-4.09281E-05-2.94177E-05 9.89662E-06 1.58412E-18-4.98319E-20
 -1       650 1.17812E-04-4.73136E-05-3.02569E-05 5.33221E-06 5.27488E-19 5.78093E-19
 -1       651 1.26793E-04-5.12537E-05-3.24217E-05-2.90221E-06 7.35777E-20 1.87462E-18
 -1       652 1.30142E-04-4.60134E-05-3.62833E-05-1.32463E-05-7.80356E-19 9.95952E-19
 -1       653 1.24775E-04-5.08275E-05-3.17209E-05-5.43427E-07 1.23541E-18 1.88268E-18
 -1       654 1.16029E-04-4.65287E-05-2.98136E-05-8.14934E-06 1.88449E-18 6.79215E-19
 -1       655 1.08170E-04-4.00396E-05-2.92088E-05-1.21610E-05 4.31585E-19-3.16832E-19
 -1       656 1.02704E-04-3.46437E-05-2.91745E-05-1.33789E-05-3.75357E-19-9.54235E-19
 -1       657 9.92394E-05-3.07873E-05-2.93375E-05-1.31948E-05-2.54150E-20-9.01777E-19
 -1       658 9.71891E-05-2.82451E-05-2.95465E-05-1.22002E-05-1.19546E-18-1.53543E-18
 -1       659 9.59575E-05-2.65442E-05-2.97471E-05-1.07276E-05-6.53313E-19-1.25420E-18
 -1       660 9.50856E-05-2.76981E-05-2.88795E-05-1.20102E-07 9.67827E-19-1.26279E-18
 -1       661 9.49044E-05-2.85043E-05-2.84573E-05-1.18625E-06 2.25787E-19-7.80139E-19
 -1       662 9.49186E-05-2.85871E-05-2.84279E-05-1.20375E-06 4.68890E-19-7.24573E-19
 -1       663 9.49538E-05-2.86230E-05-2.84276E-05-1.16310E-06 5.22262E-19-4.45551E-19
 -1       664 9.50027E-05-2.86248E-05-2.84478E-05-1.10397E-06 7.55070E-19-1.67892E-19
 -1       665 9.50610E-05-2.86011E-05-2.84829E-05-1.05566E-06 6.40601E-19 1.34005E-19
 -1       666 9.51271E-05-2.85574E-05-2.85299E-05-1.04050E-06 3.28857E-19 3.35818E-19
 -1       667 9.52013E-05-2.84972E-05-2.85874E-05-1.07640E-06-1.95705E-19-7.18619E-20
 -1       668 9.52861E-05-2.84231E-05-2.86554E-05-1.17852E-06 3.17689E-19-6.13375E-19
 -1       669 9.53852E-05-2.83374E-05-2.87346E-05-1.36031E-06 2.43469E-19-3.41800E-19
 -1       670 9.55042E-05-2.82431E-05-2.88259E-05-1.63384E-06 3.84354E-19 5.29839E-20
 -1       671 9.56506E-05-2.81453E-05-2.89304E-05-2.00935E-06 1.23227E-19-9.35284E-20
 -1       672 9.58345E-05-2.80535E-05-2.90484E-05-2.49384E-06-3.55801E-20-3.18127E-19
 -1       673 9.60702E-05-2.79840E-05-2.91792E-05-3.08853E-06 3.58261E-19-3.84603E-19
 -1       674 9.63789E-05-2.79639E-05-2.93200E-05-3.78478E-06-2.50277E-19 4.16574E-19
 -1       675 9.67922E-05-2.80369E-05-2.94658E-05-4.55823E-06-4.36546E-19 4.52794E-19
 -1       676 9.73592E-05-2.82700E-05-2.96091E-05-5.36044E-06-6.26254E-19 6.02058E-19
 -1       677 9.81544E-05-2.87593E-05-2.97405E-05-6.10782E-06-5.69902E-19 1.03802E-18
 -1       678 9.92858E-05-2.96326E-05-2.98517E-05-6.66725E-06-5.07974E-19 3.13036E-19
 -1       679 1.00896E-04-3.10353E-05-2.99415E-05-6.83920E-06 2.26221E-19 4.68228E-19
 -1       680 1.03140E-04-3.30834E-05-3.00271E-05-6.34252E-06-3.18705E-19-1.12468E-19
 -1       681 1.06116E-04-3.57509E-05-3.01612E-05-4.81087E-06-9.55697E-19-1.08812E-18
 -1       682 1.09684E-04-3.86482E-05-3.04522E-05-1.85502E-06-1.51005E-18-1.45717E-18
 -1       683 1.13229E-04-4.07675E-05-3.10683E-05 2.71980E-06-2.56565E-19 1.48878E-19
 -1       684 1.15431E-04-4.06112E-05-3.20704E-05 8.15174E-06 1.92505E-19 2.86936E-19
 -1       685 1.14784E-04-3.58112E-05-3.38401E-05 1.29450E-05-4.13544E-19-1.24495E-18
 -1       686 1.10945E-04-2.77906E-05-3.57399E-05 1.30834E-05-4.93092E-19-1.39004E-18
 -1       687 1.06814E-04-2.07209E-05-3.70097E-05 6.69658E-06-6.59230E-20-8.07121E-19
 -1       688 1.06850E-04-2.03283E-05-3.71383E-05-3.50091E-06 4.04101E-19-1.33490E-18
 -1       689 1.10014E-04-2.62066E-05-3.60091E-05-1.10371E-05-4.81697E-19-1.03261E-18
 -1       690 1.14115E-04-3.47168E-05-3.40501E-05-1.20802E-05 1.37447E-19-8.57265E-19
 -1       691 1.15347E-04-4.00215E-05-3.22995E-05-8.05984E-06 9.50290E-20 5.43707E-19
 -1       692 1.13519E-04-4.11335E-05-3.10210E-05-2.31363E-06-4.97903E-19-4.77280E-19
 -1       693 1.10016E-04-3.93322E-05-3.02969E-05 2.70571E-06 1.53754E-19-2.44923E-18
 -1       694 1.06240E-04-3.63770E-05-2.99459E-05 6.13632E-06 1.99874E-18-2.45637E-18
 -1       695 1.02962E-04-3.34326E-05-2.98013E-05 8.01573E-06 2.49126E-19-1.89672E-18
 -1       696 1.00369E-04-3.09492E-05-2.97529E-05 8.65832E-06-9.75735E-19-1.34263E-18
 -1       697 9.83811E-05-2.89682E-05-2.97473E-05 8.36530E-06-1.46650E-18 1.77330E-18
 -1       698 9.68471E-05-2.74457E-05-2.97416E-05 7.91022E-06 3.43869E-19 1.32461E-18
 -1       699 8.75619E-05-1.96527E-05-2.91060E-05 3.39563E-06 4.16119E-19 5.44965E-19
 -1       700 9.53862E-05-2.56769E-05-2.98726E-05-9.52890E-06-1.35912E-18-8.76330E-19
 -1       701 9.14318E-05-2.29887E-05-2.93344E-05 8.47221E-06-1.15024E-18-1.61535E-18
 -1       702 8.69166E-05-1.90671E-05-2.90801E-05-4.45652E-07-1.33131E-19 2.21308E-18
 -1       703 8.92293E-05-2.10981E-05-2.92008E-05 6.51233E-06-2.80904E-19 6.70149E-19
 -1       704 7.85416E-05-3.82514E-05-1.69341E-05 3.73655E-05-6.21034E-19-2.66810E-18
 -1       705 8.74794E-05-1.94982E-05-2.91363E-05-4.24986E-06 8.07484E-20 5.35799E-19
 -1       706 8.91498E-05-2.08495E-05-2.92728E-05-7.44410E-06 5.67933E-19-1.59070E-18
 -1       707 9.15718E-05-2.27939E-05-2.94783E-05-9.42870E-06 4.85227E-19 1.22982E-18
 -1       708 9.52232E-05-2.70351E-05-2.92212E-05 9.33195E-07 9.00571E-19-1.45933E-18
 -1       709 1.34008E-04-5.63197E-05-3.34836E-05 4.40633E-06-1.34596E-18-2.47970E-18
 -1       710 9.41751E-05-2.09788E-05-3.13696E-05-7.07126E-06-1.87586E-18-8.38073E-19
 -1       711 1.26908E-04-3.29931E-05-4.06243E-05 1.48567E-05-9.51033E-19-1.25181E-18
 -1       712 6.44264E-05-2.93059E-05-1.46365E-05 3.29347E-05 2.30512E-18-2.62101E-18
 -1       713 9.49214E-05-2.83547E-05-2.85286E-05-1.05581E-06 4.77113E-19-8.61359E-19
 -1       714 9.49810E-05-2.81063E-05-2.86604E-05-7.35933E-07 8.81561E-19-1.06825E-18
 -1       715 9.50851E-05-2.38624E-05-3.05245E-05-4.48821E-06-1.52598E-18-6.68405E-19
 -1       716 1.18558E-04-1.71628E-05-4.39103E-05 1.18079E-05-2.12129E-19-6.51580E-19
 -1       717 9.20925E-05-1.76838E-05-3.18953E-05 3.95742E-06 6.95152E-19-2.52573E-18
 -1       718 9.20516E-05-1.76258E-05-3.19022E-05-3.90045E-06-1.26548E-18-2.24853E-18
 -1       719 1.39604E-04-4.75233E-05-3.97244E-05 9.22074E-06-1.48186E-18 3.32225E-18
 -1       720 1.26282E-04-2.20236E-05-4.51733E-05-1.30436E-05-7.22546E-19-2.10435E-18
 -1       721 9.83275E-05-4.86602E-05-2.09653E-05 3.28888E-05 2.16216E-18-4.29472E-20
 -1       722 1.36800E-04-5.25755E-05-3.62097E-05-5.52994E-06-1.24387E-18 6.99676E-19
 -1       723 9.16778E-05-4.57853E-05-1.94061E-05-3.59737E-05-1.89966E-18 1.58432E-18
 -1       724 6.08704E-05-2.74273E-05-1.39052E-05-3.29471E-05-2.29789E-18-1.93200E-18
 -1       725 1.20891E-04-5.79357E-05-2.69022E-05-2.13225E-05-8.24031E-19 9.61816E-19
 -1       726 1.32852E-04-5.41737E-05-3.38605E-05-1.13467E-06 3.22309E-19 2.24222E-18
 -1       727 4.07890E-05-1.49826E-05-1.04951E-05 1.73597E-05 1.21438E-18-3.39237E-18
 -1       728 1.33752E-04-6.01310E-05-3.16628E-05-9.87141E-06 4.47604E-20 4.55267E-19
 -1       729 3.66556E-05-1.21909E-05-9.91448E-06 2.96235E-08-5.32747E-19 3.11777E-18
 -1       730 7.81244E-05-3.87639E-05-1.64572E-05-3.74245E-05 3.22135E-18-2.99582E-18
 -1       731 1.06112E-04-5.37945E-05-2.22449E-05-3.28600E-05 9.50847E-19-3.76324E-18
 -1       732 4.68550E-05-1.99537E-05-1.10035E-05-2.51578E-05 2.20574E-18 9.45342E-19
 -1       733 1.34928E-04-4.01692E-05-4.09534E-05-1.08698E-05-1.54086E-18-2.37257E-18
 -1       734 1.17974E-04-1.08004E-05-4.64303E-05-3.60709E-06-3.07367E-19-1.79546E-18
 -1       735 9.28687E-05-1.89196E-05-3.16965E-05-5.29814E-06-1.44261E-18-1.69438E-18
 -1       736 9.13072E-05-1.64463E-05-3.20886E-05-7.84616E-07-6.68633E-19-2.34542E-18
 -1       737 1.23724E-04-5.61667E-05-2.89741E-05 1.35666E-05 7.36727E-19-2.53454E-18
 -1       738 1.28939E-04-4.63095E-05-3.56242E-05 1.10419E-05 1.10775E-18 2.16223E-18
 -1       739 9.37276E-05-2.49273E-05-2.94869E-05 9.16168E-06-1.62464E-18-4.97544E-19
 -1       740 9.54377E-05-2.62957E-05-2.96311E-05 8.81770E-06-6.56871E-19-3.30050E-18
 -1       741 1.21680E-04-5.71575E-05-2.75350E-05-1.84837E-05 7.00900E-19 5.11466E-19
 -1       742 5.06934E-05-1.73983E-05-1.38802E-05-2.11036E-05-1.53402E-18-3.24059E-18
 -1       743 1.26801E-04-4.40260E-05-3.55688E-05 1.08781E-05-7.00877E-19-1.43284E-18
 -1       744 1.14933E-04-5.50705E-05-2.55790E-05 2.25949E-05 1.83305E-18 2.44462E-19
 -1       745 9.15487E-05-1.68261E-05-3.20293E-05-2.38528E-06-1.05775E-18-2.34259E-18
 -1       746 9.35713E-05-2.46396E-05-2.95417E-05-1.04818E-05-1.91502E-18-2.18079E-18
 -1       747 9.46404E-05-2.27247E-05-3.08185E-05 3.92604E-06 9.95519E-19-1.99656E-18
 -1       748 9.58759E-05-2.68818E-05-2.95690E-05-5.86629E-07-9.20649E-19-9.80158E-19
 -1       749 9.59695E-05-2.77642E-05-2.92309E-05 2.19766E-07-1.04999E-18-6.30412E-19
 -1       750 9.59574E-05-2.83147E-05-2.89898E-05 7.08197E-07-8.82160E-19-7.14659E-19
 -1       751 9.58953E-05-2.86405E-05-2.88236E-05 9.70571E-07-3.69346E-19-9.42197E-19
 -1       752 9.58113E-05-2.88109E-05-2.87145E-05 1.08412E-06-3.83634E-20-7.81326E-19
 -1       753 9.57201E-05-2.88729E-05-2.86488E-05 1.10973E-06-3.37996E-19-2.68647E-19
 -1       754 9.56282E-05-2.88575E-05-2.86160E-05 1.09375E-06-5.13328E-19-4.45185E-20
 -1       755 9.55380E-05-2.87850E-05-2.86084E-05 1.07140E-06-4.31178E-19-1.41355E-19
 -1       756 9.54484E-05-2.86676E-05-2.86204E-05 1.06979E-06-3.83648E-19-5.78813E-19
 -1       757 9.53565E-05-2.85114E-05-2.86479E-05 1.11060E-06-5.08369E-19-4.75564E-19
 -1       758 9.52574E-05-2.83183E-05-2.86882E-05 1.21207E-06-6.11762E-19-6.42026E-19
 -1       759 9.51446E-05-2.80869E-05-2.87390E-05 1.39050E-06-3.14458E-19-7.26661E-20
 -1       760 9.50103E-05-2.78142E-05-2.87983E-05 1.66116E-06-2.63209E-19-4.83917E-19
 -1       761 9.48450E-05-2.74964E-05-2.88636E-05 2.03883E-06-3.87683E-19-5.70324E-19
 -1       762 9.46385E-05-2.71313E-05-2.89315E-05 2.53769E-06-4.52301E-20-2.78197E-19
 -1       763 9.43803E-05-2.67213E-05-2.89966E-05 3.17093E-06-2.76779E-19-7.17448E-19
 -1       764 9.40624E-05-2.62774E-05-2.90506E-05 3.95007E-06 3.85742E-19-1.18454E-18
 -1       765 9.36836E-05-2.58265E-05-2.90814E-05 4.88452E-06 7.70963E-19-1.32634E-18
 -1       766 9.32582E-05-2.54222E-05-2.90723E-05 5.98180E-06 7.40175E-19-1.77465E-18
 -1       767 9.28314E-05-2.51617E-05-2.90010E-05 7.24910E-06-7.95195E-20-2.31070E-19
 -1       768 9.25051E-05-2.52086E-05-2.88410E-05 8.69660E-06-3.38713E-20-5.79583E-19
 -1       769 9.24800E-05-2.58251E-05-2.85660E-05 1.03401E-05 3.65951E-20-9.89886E-19
 -1       770 9.31214E-05-2.74106E-05-2.81616E-05 1.21917E-05 6.98520E-19-1.00276E-18
 -1       771 9.50554E-05-3.05301E-05-2.76527E-05 1.41981E-05 5.73831E-19-6.97137E-19
 -1       772 9.92192E-05-3.58334E-05-2.71642E-05 1.60830E-05 4.94642E-19-4.15307E-19
 -1       773 1.06965E-04-4.36777E-05-2.70404E-05 1.69517E-05 8.97511E-19-7.07111E-19
 -1       774 9.54525E-05-2.87990E-05-2.85658E-05-1.13424E-06 4.33340E-19-9.18672E-19
 -1       775 1.05790E-04-4.26219E-05-2.70146E-05-1.84507E-05 1.01301E-18 1.73109E-19
 -1       776 9.90332E-05-3.52800E-05-2.73415E-05-1.74193E-05-2.47803E-19-5.37636E-19
 -1       777 9.52791E-05-3.02270E-05-2.78790E-05-1.57016E-05-5.98288E-19-4.94325E-19
 -1       778 9.37344E-05-2.71905E-05-2.85163E-05-1.37328E-05 2.62322E-19-7.45548E-19
 -1       779 9.35647E-05-2.56998E-05-2.90830E-05-1.20652E-05-1.18496E-18 1.01531E-19
 -1       780 8.60794E-05-2.03239E-05-2.81816E-05-7.12271E-06-8.50592E-20-8.85073E-19
 -1       781 9.55082E-05-2.87971E-05-2.85905E-05-1.15799E-06 4.48430E-19-1.02990E-18
 -1       782 1.23555E-04-3.22451E-05-3.93592E-05-1.41351E-05-1.07662E-18-2.87012E-19
 -1       783 9.55702E-05-2.87270E-05-2.86471E-05-1.13419E-06 2.79421E-19-7.47139E-19
 -1       784 9.54031E-05-2.87514E-05-2.85650E-05-1.10007E-06 3.93503E-19-8.74972E-19
 -1       785 9.53588E-05-2.86660E-05-2.85827E-05-1.08365E-06 1.64200E-19-6.03498E-19
 -1       786 9.53175E-05-2.85496E-05-2.86148E-05-1.10705E-06 5.92438E-19-6.74925E-20
 -1       787 9.52773E-05-2.84059E-05-2.86591E-05-1.18836E-06 3.39716E-19-6.37497E-19
 -1       788 9.52360E-05-2.82368E-05-2.87139E-05-1.34321E-06-6.69147E-20-5.10158E-20
 -1       789 9.51919E-05-2.80439E-05-2.87777E-05-1.58558E-06 3.66685E-19-1.44877E-19
 -1       790 9.51446E-05-2.78298E-05-2.88491E-05-1.92804E-06 7.90307E-20-3.03876E-19
 -1       791 9.50956E-05-2.76013E-05-2.89260E-05-2.38130E-06-9.05689E-20-6.97755E-19
 -1       792 9.50507E-05-2.73717E-05-2.90051E-05-2.95296E-06-2.74131E-19 1.68191E-19
 -1       793 9.50231E-05-2.71662E-05-2.90813E-05-3.64554E-06-4.45577E-19 6.73288E-19
 -1       794 9.50390E-05-2.70273E-05-2.91476E-05-4.45344E-06-6.75304E-19 5.50681E-19
 -1       795 9.51452E-05-2.70238E-05-2.91946E-05-5.35884E-06-7.05690E-19 1.34043E-18
 -1       796 9.54220E-05-2.72599E-05-2.92120E-05-6.32573E-06-2.15183E-19 4.63230E-19
 -1       797 9.59985E-05-2.78858E-05-2.91909E-05-7.29041E-06-1.82435E-19 7.50009E-19
 -1       798 9.70702E-05-2.91002E-05-2.91299E-05-8.14490E-06-8.44333E-19 4.93354E-19
 -1       799 9.89084E-05-3.11327E-05-2.90469E-05-8.70668E-06-1.28299E-19 1.33284E-18
 -1       800 1.01835E-04-3.41751E-05-2.89977E-05-8.67360E-06-6.59198E-19 1.95599E-18
 -1       801 1.06159E-04-3.82417E-05-2.91069E-05-7.53720E-06-9.96838E-20 1.06225E-18
 -1       802 1.11763E-04-4.26629E-05-2.96136E-05-4.52897E-06-1.39374E-18-1.11783E-18
 -1       803 1.17666E-04-4.58130E-05-3.07879E-05 9.63843E-07-1.47109E-19-1.76789E-18
 -1       804 1.19220E-04-4.65208E-05-3.11822E-05-1.04024E-06 6.70053E-19-4.20714E-19
 -1       805 1.13474E-04-4.40184E-05-2.97726E-05 5.07858E-06 2.71598E-19-1.63519E-18
 -1       806 1.07450E-04-3.95127E-05-2.91235E-05 8.77825E-06 5.36631E-19-8.34788E-19
 -1       807 1.02853E-04-3.52184E-05-2.89863E-05 1.04359E-05 1.22171E-19 4.26889E-19
 -1       808 9.95743E-05-3.16583E-05-2.91079E-05 1.07115E-05 3.05383E-19-9.18604E-20
 -1       809 9.74264E-05-2.90053E-05-2.93234E-05 1.01392E-05-1.39414E-18-2.55199E-18
 -1       810 9.63036E-05-2.75700E-05-2.94605E-05 9.58192E-06-1.58537E-18-3.89886E-18
 -1       811 9.32236E-05-1.97827E-05-3.14758E-05 1.23596E-06 2.03590E-20-2.34229E-18
 -1       812 7.12920E-05-2.67969E-05-1.88692E-05 2.70983E-05-2.24525E-18-4.32582E-19
 -1       813 8.44633E-05-1.93175E-05-2.79212E-05 2.11818E-06 1.48821E-18 1.52338E-19
 -1       814 8.91778E-05-2.24715E-05-2.85919E-05-1.01855E-05-1.07523E-18-8.84459E-19
 -1       815 8.43612E-05-1.91452E-05-2.79506E-05-2.73374E-06-1.60808E-19 2.13069E-18
 -1       816 9.67262E-05-4.48184E-05-2.20598E-05-3.04786E-05 2.08775E-18-1.88744E-18
 -1       817 6.90790E-05-2.65644E-05-1.80049E-05-2.76420E-05 2.64155E-18-3.16936E-18
 -1       818 9.56362E-05-2.85604E-05-2.87468E-05-1.01328E-06 1.26383E-19-7.57086E-19
 -1       819 1.24091E-04-5.41894E-05-2.99960E-05-7.34103E-06 1.89722E-19 6.08673E-20
 -1       820 9.55779E-05-2.55061E-05-3.00312E-05-1.81333E-06-1.13860E-18-1.17455E-18
 -1       821 5.23173E-05-1.41641E-05-1.60925E-05 8.96856E-06-1.40583E-18 1.58128E-18
 -1       822 9.57349E-05-2.77405E-05-2.91408E-05-1.93398E-07 7.38317E-19-1.49280E-18
 -1       823 9.56980E-05-2.82540E-05-2.89046E-05-7.29142E-07 5.09820E-19-9.80458E-19
 -1       824 8.10355E-05-3.44109E-05-1.98029E-05-3.00165E-05-1.92355E-18 1.02758E-18
 -1       825 1.06807E-04-4.90910E-05-2.46677E-05-2.41828E-05-1.24442E-18-2.63161E-19
 -1       826 8.55348E-05-3.65880E-05-2.07527E-05 2.90577E-05 2.08835E-18-6.28326E-19
 -1       827 1.29660E-04-4.75999E-05-3.53613E-05-6.74025E-06-8.99516E-19-1.02699E-18
 -1       828 4.67059E-05-1.17316E-05-1.46290E-05 2.14741E-06 4.51852E-19-1.06652E-18
 -1       829 9.87562E-05-4.44995E-05-2.30874E-05 2.84637E-05 6.12683E-19-2.55792E-18
 -1       830 5.30593E-05-1.56306E-05-1.57245E-05-1.38485E-05 9.33748E-19 4.95620E-19
 -1       831 5.81002E-05-1.98891E-05-1.60915E-05 2.21692E-05 2.10705E-18-1.92316E-18
 -1       832 9.52183E-05-2.44883E-05-3.03132E-05 3.42745E-06 1.04576E-18-1.80149E-18
 -1       833 9.31140E-05-1.95839E-05-3.15140E-05 2.04066E-08-2.97743E-19-2.13968E-18
 -1       834 1.26137E-04-5.22741E-05-3.15836E-05 1.61544E-06 1.27714E-18-1.15739E-19
 -1       835 9.12818E-05-2.40750E-05-2.87997E-05-1.14253E-05-2.91477E-18-2.25710E-18
 -1       836 9.26737E-05-2.54860E-05-2.87916E-05 1.05809E-05-4.90726E-19-1.82058E-19
 -1       837 1.21895E-04-3.26853E-05-3.83100E-05 1.53416E-05-1.17075E-18-2.39816E-20
 -1       838 1.13743E-04-1.96072E-05-4.06063E-05-9.83810E-06-2.13532E-19-5.95590E-19
 -1       839 1.21973E-04-4.33430E-05-3.37556E-05-8.63965E-06-5.48960E-19 8.84018E-19
 -1       840 9.35359E-05-2.03659E-05-3.13595E-05 2.36421E-06 4.60195E-19-2.18747E-18
 -1       841 8.93434E-05-2.30753E-05-2.84015E-05 9.30626E-06-1.33255E-20 2.15250E-18
 -1       842 8.63162E-05-2.07778E-05-2.80898E-05 6.43687E-06 1.07496E-18 1.72761E-18
 -1       843 9.55253E-05-2.61725E-05-2.97224E-05 1.61167E-06 8.15748E-19-1.86058E-18
 -1       844 9.56582E-05-2.70862E-05-2.93878E-05 5.35365E-07 5.49305E-19-1.57406E-18
 -1       845 9.50107E-05-2.36341E-05-3.05894E-05-3.32703E-06-1.37358E-18-1.28902E-18
 -1       846 9.40513E-05-2.13661E-05-3.11511E-05 3.32372E-06 7.05074E-19-2.20236E-18
 -1       847 9.35188E-05-2.03322E-05-3.13669E-05-2.34543E-06-1.01641E-18-2.33200E-18
 -1       848 1.12115E-04-4.99450E-05-2.66342E-05 1.89392E-05 1.80458E-19-6.74874E-19
 -1       849 6.92423E-05-2.47278E-05-1.88874E-05-2.46853E-05-1.84026E-18-1.23880E-18
 -1       850 9.40008E-05-2.12898E-05-3.11614E-05-3.29980E-06-1.33285E-18-1.59985E-18
 -1       851 9.63754E-05-2.79033E-05-2.93451E-05 2.98652E-07-7.18277E-19-1.08053E-18
 -1       852 9.63916E-05-2.84781E-05-2.91058E-05 6.57323E-07-5.49402E-19-5.53098E-19
 -1       853 9.63194E-05-2.88069E-05-2.89340E-05 8.49419E-07-2.42759E-19-5.94646E-19
 -1       854 9.61973E-05-2.89606E-05-2.88157E-05 9.33192E-07 6.04002E-20-1.03513E-18
 -1       855 9.60483E-05-2.89893E-05-2.87396E-05 9.55199E-07-2.61531E-19-8.58101E-19
 -1       856 9.58850E-05-2.89267E-05-2.86964E-05 9.51933E-07-4.93634E-19-5.28939E-19
 -1       857 9.57121E-05-2.87948E-05-2.86789E-05 9.51742E-07-6.04835E-19-3.61393E-19
 -1       858 9.55288E-05-2.86059E-05-2.86812E-05 9.76899E-07-3.64488E-19-5.34217E-19
 -1       859 9.53296E-05-2.83657E-05-2.86988E-05 1.04551E-06-5.68841E-19-7.52386E-19
 -1       860 9.51058E-05-2.80745E-05-2.87277E-05 1.17301E-06-1.97071E-19-9.22786E-19
 -1       861 9.48450E-05-2.77292E-05-2.87639E-05 1.37306E-06-1.40602E-19-9.60172E-19
 -1       862 9.45322E-05-2.73245E-05-2.88033E-05 1.65838E-06-6.18985E-19-3.34491E-19
 -1       863 9.41499E-05-2.68553E-05-2.88406E-05 2.04099E-06-2.09620E-19-3.93161E-19
 -1       864 9.36787E-05-2.63191E-05-2.88684E-05 2.53219E-06-5.00680E-19-6.12100E-19
 -1       865 9.30984E-05-2.57192E-05-2.88768E-05 3.14290E-06 1.04070E-19-9.30895E-20
 -1       866 9.23907E-05-2.50697E-05-2.88519E-05 3.88458E-06 4.79064E-20-2.30952E-19
 -1       867 9.15431E-05-2.44026E-05-2.87745E-05 4.77197E-06 2.68266E-19-6.38939E-19
 -1       868 9.05569E-05-2.37787E-05-2.86192E-05 5.82911E-06 4.32961E-19-8.00005E-19
 -1       869 8.94605E-05-2.33024E-05-2.83533E-05 7.10073E-06-1.06623E-19-8.34781E-19
 -1       870 8.83317E-05-2.31442E-05-2.79374E-05 8.67083E-06-3.98379E-19-5.00130E-19
 -1       871 8.73376E-05-2.35735E-05-2.73271E-05 1.06899E-05 6.60002E-19-1.01577E-18
 -1       872 8.68138E-05-2.50187E-05-2.64818E-05 1.33965E-05 7.10312E-19-8.92535E-19
 -1       873 8.74063E-05-2.81813E-05-2.53748E-05 1.71191E-05 7.40567E-19-1.37123E-18
 -1       874 9.02775E-05-3.39744E-05-2.40691E-05 2.19292E-05 1.71809E-19-1.66506E-18
 -1       875 9.32124E-05-1.97650E-05-3.14783E-05-1.19270E-06-6.33565E-19-1.97976E-18
 -1       876 9.56448E-05-2.87977E-05-2.86488E-05-1.01435E-06 5.17116E-19-7.01651E-19
 -1       877 6.03623E-05-1.47487E-05-1.94314E-05-3.47882E-06 1.14936E-18 1.03586E-18
 -1       878 8.88360E-05-2.83186E-05-2.59449E-05-1.81154E-05-9.65474E-19 3.31498E-19
 -1       879 8.84747E-05-2.52580E-05-2.70944E-05-1.45323E-05-2.25990E-19 8.98690E-19
 -1       880 9.59122E-05-2.89421E-05-2.87015E-05-1.03352E-06 4.69393E-19-5.90703E-19
 -1       881 9.57806E-05-2.89014E-05-2.86625E-05-1.02421E-06 3.02208E-19-7.84688E-19
 -1       882 9.55049E-05-2.86443E-05-2.86545E-05-1.02840E-06 8.52585E-20-1.13659E-18
 -1       883 9.53576E-05-2.84483E-05-2.86754E-05-1.08600E-06 2.44267E-19-6.34294E-19
 -1       884 9.51976E-05-2.82128E-05-2.87078E-05-1.20376E-06 1.25763E-19-5.36447E-19
 -1       885 9.50185E-05-2.79388E-05-2.87484E-05-1.39646E-06 1.82169E-19-8.44300E-19
 -1       886 9.48132E-05-2.76274E-05-2.87939E-05-1.67765E-06 2.46319E-19-2.45904E-19
 -1       887 9.45756E-05-2.72816E-05-2.88403E-05-2.06009E-06 2.50500E-20-2.37264E-19
 -1       888 9.43023E-05-2.69104E-05-2.88822E-05-2.55558E-06-6.27754E-19-3.28029E-19
 -1       889 9.39956E-05-2.65324E-05-2.89128E-05-3.17458E-06-3.47195E-19-2.00499E-19
 -1       890 9.36682E-05-2.61817E-05-2.89227E-05-3.92565E-06-4.56179E-19-3.65739E-19
 -1       891 9.33506E-05-2.59159E-05-2.89005E-05-4.81507E-06-1.38430E-18 7.02092E-19
 -1       892 9.31020E-05-2.58260E-05-2.88324E-05-5.84637E-06-1.04121E-19 8.07692E-19
 -1       893 9.30272E-05-2.60492E-05-2.87046E-05-7.01918E-06-5.33322E-19 2.82841E-19
 -1       894 9.33005E-05-2.67828E-05-2.85072E-05-8.32368E-06-2.16623E-19-9.99333E-20
 -1       895 9.41968E-05-2.82957E-05-2.82427E-05-9.72294E-06-9.38271E-19-6.28862E-19
 -1       896 9.61297E-05-3.09231E-05-2.79442E-05-1.10984E-05-4.53271E-19-3.11813E-19
 -1       897 9.96211E-05-3.49686E-05-2.77040E-05-1.21502E-05-4.66847E-19-1.76188E-19
 -1       898 1.05402E-04-4.06797E-05-2.77528E-05-1.22205E-05 2.48090E-19 6.80968E-20
 -1       899 1.13972E-04-4.74119E-05-2.84929E-05-1.00567E-05-1.82724E-20-2.29912E-19
 -1       900 9.76485E-05-3.19896E-05-2.81446E-05 1.32754E-05 6.89722E-19 8.51281E-19
 -1       901 9.55663E-05-2.88008E-05-2.86153E-05 1.18652E-05 5.38033E-19 9.25868E-19
 -1       902 9.47268E-05-2.66835E-05-2.91604E-05 1.03204E-05-1.53948E-18-1.60459E-18
 -1       903 5.87888E-05-1.53004E-05-1.85094E-05 1.11725E-05 1.49089E-18-1.24023E-18
 -1       904 8.56283E-05-2.18186E-05-2.73532E-05-1.05902E-05-1.57232E-18-1.74645E-18
 -1       905 6.78740E-05-1.91575E-05-2.08096E-05 1.49940E-05-1.31309E-18 2.18548E-19
 -1       906 9.61407E-05-2.87371E-05-2.88873E-05-9.15381E-07 1.94685E-19-9.86050E-19
 -1       907 1.01666E-04-3.67493E-05-2.78119E-05 1.40730E-05-8.98239E-19 1.60921E-19
 -1       908 1.05186E-04-4.20012E-05-2.70843E-05 1.65152E-05-1.07360E-18-8.52667E-19
 -1       909 9.57997E-05-2.55772E-05-3.00947E-05-1.17824E-06-9.93732E-19-1.34696E-18
 -1       910 8.76588E-05-3.44286E-05-2.26843E-05-2.59784E-05 1.06940E-18-1.09848E-18
 -1       911 9.60357E-05-2.88983E-05-2.87732E-05-1.01086E-06 3.46649E-19-8.55384E-19
 -1       912 1.05014E-04-4.70058E-05-2.47660E-05 2.28209E-05 1.80621E-18-1.27085E-18
 -1       913 5.77346E-05-1.49805E-05-1.81555E-05-1.10247E-05-2.89391E-19-1.47781E-18
 -1       914 9.62115E-05-2.69879E-05-2.96675E-05-2.91737E-07-6.98822E-19-1.28427E-18
 -1       915 7.47255E-05-2.56199E-05-2.09069E-05 2.22893E-05 1.09294E-18-1.20375E-18
 -1       916 9.49857E-05-3.87560E-05-2.40490E-05-2.28636E-05-7.37795E-19-1.57791E-18
 -1       917 6.78055E-05-2.05664E-05-2.01154E-05-1.80138E-05 1.07244E-18-2.21612E-18
 -1       918 9.54779E-05-2.50600E-05-3.01800E-05 2.15770E-06 8.88177E-19-1.72727E-18
 -1       919 8.85955E-05-3.37299E-05-2.34248E-05 2.38131E-05-2.39845E-18-5.89416E-20
 -1       920 9.00361E-05-2.45808E-05-2.80467E-05-1.27874E-05-2.63913E-19-1.22003E-18
 -1       921 9.45642E-05-2.22737E-05-3.09817E-05 4.32245E-07-2.66583E-20-2.09464E-18
 -1       922 9.51127E-05-2.37365E-05-3.05911E-05-2.26310E-06-1.05594E-18-1.64495E-18
 -1       923 9.47081E-05-2.26129E-05-3.08980E-05 1.22418E-06 3.67659E-19-1.92192E-18
 -1       924 8.22370E-05-1.99055E-05-2.67174E-05 5.76586E-06-1.28647E-19 5.45256E-19
 -1       925 8.18148E-05-1.93110E-05-2.67857E-05-6.03140E-06-1.39422E-19 3.98927E-19
 -1       926 8.06169E-05-1.86211E-05-2.65757E-05-6.14616E-08 8.07165E-19-9.12422E-19
 -1       927 9.60341E-05-2.69230E-05-2.96191E-05 4.23624E-07 4.60929E-19-1.85321E-18
 -1       928 9.62078E-05-2.84103E-05-2.90561E-05-6.94599E-07 1.17892E-19-1.06366E-18
 -1       929 8.47241E-05-3.10783E-05-2.29211E-05-2.23251E-05-3.22365E-19-1.03662E-19
 -1       930 6.14708E-05-1.41778E-05-2.01958E-05-9.53890E-07 8.45294E-19 2.25959E-19
 -1       931 9.62028E-05-2.78489E-05-2.92945E-05-2.83185E-07 1.62011E-19-1.35308E-18
 -1       932 9.82371E-05-3.90730E-05-2.53475E-05 2.10413E-05-8.75640E-19-1.30332E-18
 -1       933 9.46835E-05-2.25724E-05-3.09062E-05-1.20305E-06-5.95761E-19-1.83801E-18
 -1       934 9.12525E-05-2.61898E-05-2.78991E-05 1.22568E-05 1.11315E-18-6.98912E-19
 -1       935 9.66863E-05-2.86549E-05-2.91563E-05 5.53976E-07-1.93690E-19-1.01676E-18
 -1       936 9.65875E-05-2.89491E-05-2.89879E-05 6.75274E-07-2.33473E-19-7.83692E-19
 -1       937 9.64242E-05-2.90621E-05-2.88695E-05 7.27706E-07-2.33981E-20-5.85750E-19
 -1       938 9.62222E-05-2.90429E-05-2.87911E-05 7.43626E-07-1.99824E-19-6.44606E-19
 -1       939 9.59954E-05-2.89250E-05-2.87445E-05 7.48782E-07-6.46218E-19-9.66616E-19
 -1       940 9.57485E-05-2.87295E-05-2.87224E-05 7.63399E-07-4.11792E-19-6.95715E-19
 -1       941 9.54788E-05-2.84677E-05-2.87190E-05 8.03503E-07-4.95562E-19-5.32262E-19
 -1       942 9.51777E-05-2.81434E-05-2.87290E-05 8.82313E-07-3.34340E-19-4.72730E-19
 -1       943 9.48320E-05-2.77554E-05-2.87472E-05 1.01101E-06-1.58144E-19-4.55570E-19
 -1       944 9.44240E-05-2.72985E-05-2.87681E-05 1.19905E-06-3.24633E-21-3.93192E-19
 -1       945 9.39324E-05-2.67664E-05-2.87855E-05 1.45535E-06-1.89148E-19-3.29704E-19
 -1       946 9.33325E-05-2.61537E-05-2.87910E-05 1.78754E-06-3.03177E-20-6.81135E-19
 -1       947 9.25968E-05-2.54580E-05-2.87739E-05 2.20260E-06-1.68037E-19 1.95702E-19
 -1       948 9.16958E-05-2.46838E-05-2.87196E-05 2.70789E-06 6.31926E-20 1.51981E-19
 -1       949 9.05983E-05-2.38459E-05-2.86083E-05 3.31346E-06 3.65949E-20-2.65583E-19
 -1       950 8.92730E-05-2.29749E-05-2.84137E-05 4.03768E-06 1.67791E-19-1.03100E-18
 -1       951 8.76898E-05-2.21229E-05-2.81005E-05 4.91834E-06-4.98335E-20-7.27493E-19
 -1       952 8.58216E-05-2.13722E-05-2.76218E-05 6.03235E-06 4.81803E-19-3.31578E-19
 -1       953 8.36480E-05-2.08462E-05-2.69157E-05 7.52680E-06-7.94834E-19-3.50685E-19
 -1       954 8.11586E-05-2.07274E-05-2.58976E-05 9.68312E-06-2.01426E-19-2.35240E-18
 -1       955 7.83970E-05-2.13335E-05-2.44381E-05 1.29916E-05 3.78116E-19-3.01844E-18
 -1       956 7.62785E-05-2.27312E-05-2.28969E-05 1.69424E-05 5.94712E-19-2.22340E-18
 -1       957 9.55119E-05-2.85407E-05-2.87019E-05-8.93889E-07 1.64380E-19-6.50070E-20
 -1       958 8.10152E-05-2.19895E-05-2.52719E-05-1.34280E-05-8.83166E-19-1.33365E-18
 -1       959 6.97171E-05-1.66610E-05-2.27091E-05 3.71203E-06-1.85465E-19-4.93038E-19
 -1       960 9.57410E-05-2.87659E-05-2.87036E-05-8.57481E-07 5.49801E-19-2.56686E-19
 -1       961 9.49811E-05-2.79312E-05-2.87357E-05-1.10937E-06 1.92530E-19-5.50475E-19
 -1       962 9.46591E-05-2.75489E-05-2.87615E-05-1.31546E-06-9.22641E-20-4.51020E-19
 -1       963 9.42834E-05-2.71151E-05-2.87864E-05-1.60417E-06-4.83855E-19 1.37349E-19
 -1       964 9.38423E-05-2.66335E-05-2.88038E-05-1.98856E-06-1.06945E-19 6.15440E-19
 -1       965 9.33270E-05-2.61149E-05-2.88052E-05-2.48254E-06 2.25205E-20-2.19739E-19
 -1       966 9.27349E-05-2.55819E-05-2.87799E-05-3.10181E-06-6.60592E-19-3.47741E-19
 -1       967 9.20743E-05-2.50747E-05-2.87142E-05-3.86558E-06-1.58382E-18 2.81184E-19
 -1       968 9.13721E-05-2.46594E-05-2.85912E-05-4.79965E-06-1.33271E-18-5.71483E-19
 -1       969 9.06845E-05-2.44377E-05-2.83915E-05-5.94143E-06-6.04499E-20 3.63067E-19
 -1       970 9.01152E-05-2.45618E-05-2.80943E-05-7.34674E-06-8.01782E-20-3.13091E-19
 -1       971 8.98462E-05-2.52548E-05-2.76818E-05-9.09279E-06-3.44876E-19-5.25271E-19
 -1       972 9.01774E-05-2.68306E-05-2.71483E-05-1.12724E-05-6.05420E-19-1.38812E-18
 -1       973 9.16785E-05-2.97776E-05-2.65315E-05-1.39499E-05-3.47048E-19-2.02731E-18
 -1       974 9.52760E-05-3.46800E-05-2.59489E-05-1.70107E-05 1.20322E-20-2.33669E-18
 -1       975 8.59899E-05-2.26031E-05-2.71474E-05 1.01591E-05 9.42809E-19 2.55533E-18
 -1       976 9.49580E-05-2.32685E-05-3.07265E-05 1.88041E-06 6.84317E-19-2.07995E-18
 -1       977 9.66793E-05-2.81112E-05-2.93863E-05 3.26114E-07-5.14635E-19-1.04151E-18
 -1       978 9.61532E-05-2.90238E-05-2.87697E-05-8.46550E-07 3.82058E-19-3.73368E-19
 -1       979 7.13253E-05-2.10725E-05-2.14723E-05-1.66866E-05-1.18343E-18-1.46770E-18
 -1       980 9.64770E-05-2.88908E-05-2.89655E-05-7.64301E-07 6.24622E-20-1.27250E-18
 -1       981 9.35123E-05-3.11404E-05-2.67244E-05 1.63261E-05 4.72711E-19 1.93171E-19
 -1       982 9.57753E-05-2.60787E-05-2.98701E-05 1.15090E-06 5.39589E-19-1.94661E-18
 -1       983 7.01261E-05-1.80187E-05-2.23283E-05-1.00106E-05 9.46737E-20-1.03187E-18
 -1       984 9.60665E-05-2.58755E-05-3.00817E-05-6.36932E-07-7.37316E-19-1.43892E-18
 -1       985 9.63319E-05-2.90216E-05-2.88472E-05-8.28831E-07 5.17400E-20-8.87971E-19
 -1       986 9.45595E-05-2.22663E-05-3.09828E-05-4.05280E-07-3.63722E-19-1.73433E-18
 -1       987 8.13606E-05-2.50738E-05-2.41145E-05 1.73463E-05-1.32729E-18-6.43796E-19
 -1       988 9.65135E-05-2.72415E-05-2.96890E-05-6.13231E-08-6.18163E-19-1.17733E-18
 -1       989 9.63525E-05-2.70616E-05-2.96960E-05 1.69577E-07 9.54793E-20-1.84064E-18
 -1       990 9.52616E-05-2.82619E-05-2.87142E-05-9.73157E-07 7.91401E-20-6.37632E-19
 -1       991 9.59544E-05-2.89312E-05-2.87242E-05-8.48091E-07 5.01152E-19-4.12833E-19
 -1       992 9.65636E-05-2.85820E-05-2.91349E-05-6.14346E-07-1.10767E-19-1.65878E-18
 -1       993 9.55862E-05-2.43358E-05-3.05358E-05 8.65726E-09-1.35164E-20-1.64661E-18
 -1       994 8.09136E-05-2.14176E-05-2.54988E-05 1.09297E-05 1.07033E-18-7.16393E-19
 -1       995 9.55306E-05-2.44051E-05-3.04819E-05-9.89761E-07-5.64626E-19-1.75487E-18
 -1       996 6.91419E-05-1.72100E-05-2.22271E-05-8.93288E-06-8.96318E-19 2.68466E-19
 -1       997 9.60455E-05-2.61712E-05-2.99460E-05 7.02808E-07 3.96568E-19-1.96746E-18
 -1       998 7.69246E-05-1.84916E-05-2.50093E-05 4.28639E-06-8.37695E-19 2.03438E-19
 -1       999 9.56234E-05-2.44750E-05-3.04924E-05 4.99664E-07 2.90712E-19-1.69983E-18
 -1      1000 9.65524E-05-2.80282E-05-2.93675E-05-3.32050E-07-1.63737E-19-1.96386E-18
 -1      1001 7.66580E-05-2.05012E-05-2.40551E-05-1.29302E-05-2.48558E-19-2.67532E-18
 -1      1002 9.56203E-05-2.44642E-05-3.04949E-05-4.78508E-07-4.98684E-19-1.60135E-18
 -1      1003 6.88733E-05-1.69155E-05-2.22242E-05 8.77091E-06 5.23511E-19-1.99162E-18
 -1      1004 9.67187E-05-2.90591E-05-2.89970E-05 4.50281E-07 8.96539E-20-1.04387E-18
 -1      1005 9.65127E-05-2.91133E-05-2.88855E-05 4.76066E-07-2.41186E-19-9.54653E-19
 -1      1006 9.62632E-05-2.90370E-05-2.88113E-05 4.85610E-07-3.31267E-19-8.61986E-19
 -1      1007 9.59825E-05-2.88607E-05-2.87665E-05 4.93909E-07-5.69562E-20-4.58761E-20
 -1      1008 9.56728E-05-2.86029E-05-2.87443E-05 5.12794E-07-5.40980E-19-5.84547E-19
 -1      1009 9.53289E-05-2.82728E-05-2.87384E-05 5.51366E-07-1.57579E-19-2.53629E-19
 -1      1010 9.49374E-05-2.78708E-05-2.87428E-05 6.17582E-07-2.02621E-19-2.46346E-19
 -1      1011 9.44835E-05-2.73969E-05-2.87515E-05 7.16291E-07-5.64612E-19-5.42861E-19
 -1      1012 9.39417E-05-2.68412E-05-2.87576E-05 8.53772E-07-2.65294E-19-9.77861E-19
 -1      1013 9.32886E-05-2.61999E-05-2.87525E-05 1.03255E-06-1.07973E-19-6.33130E-19
 -1      1014 9.24929E-05-2.54673E-05-2.87256E-05 1.25459E-06-1.83459E-19-8.61274E-19
 -1      1015 9.15209E-05-2.46424E-05-2.86626E-05 1.52088E-06 3.15633E-19-6.57223E-19
 -1      1016 9.03341E-05-2.37310E-05-2.85447E-05 1.83206E-06-9.82382E-20-3.53700E-20
 -1      1017 8.88875E-05-2.27468E-05-2.83467E-05 2.19110E-06-4.01046E-20 2.31790E-19
 -1      1018 8.71243E-05-2.17121E-05-2.80347E-05 2.60896E-06 3.75705E-19-4.63581E-19
 -1      1019 8.49651E-05-2.06566E-05-2.75623E-05 3.11622E-06 6.04999E-19 1.20469E-19
 -1      1020 8.22917E-05-1.96141E-05-2.68642E-05 3.78480E-06-1.38934E-18-1.11884E-18
 -1      1021 7.89342E-05-1.86292E-05-2.58464E-05 4.73907E-06-1.47644E-18-1.74516E-18
 -1      1022 7.46107E-05-1.76995E-05-2.43853E-05 6.22811E-06-4.78376E-19-1.45727E-18
 -1      1023 9.66693E-05-2.90167E-05-2.89940E-05-5.60787E-07-1.57906E-19-1.43740E-18
 -1      1024 8.19704E-05-2.58031E-05-2.40598E-05-1.66896E-05-9.64363E-19-1.75476E-18
 -1      1025 9.57129E-05-2.86652E-05-2.87347E-05-6.36521E-07 2.85214E-20 2.74994E-19
 -1      1026 9.42014E-05-2.70996E-05-2.87580E-05-1.08148E-06-6.12665E-19 4.99585E-19
 -1      1027 9.46629E-05-2.75872E-05-2.87468E-05-8.93798E-07-1.33876E-19 4.57406E-19
 -1      1028 9.30106E-05-2.59331E-05-2.87477E-05-1.67978E-06-8.83859E-20-3.65793E-19
 -1      1029 9.22476E-05-2.52688E-05-2.87054E-05-2.11995E-06-1.82834E-19 6.65658E-20
 -1      1030 9.13561E-05-2.45774E-05-2.86197E-05-2.68144E-06-8.62806E-19-3.46139E-19
 -1      1031 9.03322E-05-2.38988E-05-2.84717E-05-3.39527E-06-5.44010E-19-1.29628E-18
 -1      1032 8.91840E-05-2.32960E-05-2.82381E-05-4.30825E-06-1.19614E-18-2.47509E-18
 -1      1033 8.79369E-05-2.28614E-05-2.78900E-05-5.49387E-06-2.72106E-19-1.33444E-18
 -1      1034 8.66439E-05-2.27287E-05-2.73932E-05-7.07150E-06 2.21703E-20-1.34280E-18
 -1      1035 8.54305E-05-2.31139E-05-2.67084E-05-9.22773E-06 5.60521E-19-2.45094E-18
 -1      1036 8.45432E-05-2.43116E-05-2.58093E-05-1.21895E-05-5.50603E-19-2.93946E-18
 -1      1037 9.57098E-05-2.48668E-05-3.03617E-05 8.90908E-07 5.57939E-19-1.73372E-18
 -1      1038 9.68856E-05-2.83584E-05-2.93690E-05 2.69904E-07-4.07954E-19-1.20017E-18
 -1      1039 9.62521E-05-2.90444E-05-2.88033E-05-6.08446E-07 4.21833E-20-7.55459E-19
 -1      1040 7.62152E-05-1.78611E-05-2.50000E-05-3.72124E-06-7.41630E-19-1.86952E-18
 -1      1041 9.57998E-05-2.54138E-05-3.01646E-05 1.11424E-06 6.50693E-19-1.98194E-18
 -1      1042 9.61846E-05-2.58508E-05-3.01413E-05-3.65204E-07-4.99118E-19-1.58260E-18
 -1      1043 9.64815E-05-2.90960E-05-2.88795E-05-5.96570E-07-1.09595E-19-1.33325E-18
 -1      1044 9.61799E-05-2.56748E-05-3.02158E-05-1.19925E-07-1.88824E-19-1.20501E-18
 -1      1045 9.59946E-05-2.88940E-05-2.87574E-05-6.16410E-07 3.40488E-19-1.11727E-19
 -1      1046 9.67678E-05-2.75854E-05-2.96500E-05 5.58928E-08-4.06091E-19-1.26297E-18
 -1      1047 9.66329E-05-2.73753E-05-2.96825E-05-1.23443E-08 9.65053E-20-1.82759E-18
 -1      1048 9.36565E-05-2.65471E-05-2.87613E-05-1.33906E-06-4.57517E-19-2.95480E-19
 -1      1049 9.68564E-05-2.88286E-05-2.91548E-05 3.89348E-07-1.43202E-19-1.27812E-18
 -1      1050 9.54037E-05-2.83690E-05-2.87292E-05-6.82052E-07 7.14604E-19 2.00266E-19
 -1      1051 7.75327E-05-2.11386E-05-2.41561E-05-1.19477E-05-9.03740E-19-9.85509E-19
 -1      1052 9.67902E-05-2.87592E-05-2.91562E-05-4.76119E-07-3.37653E-19-1.67140E-18
 -1      1053 6.97578E-05-1.59170E-05-2.30574E-05-1.54661E-07-4.66676E-19 6.34084E-19
 -1      1054 9.50580E-05-2.80093E-05-2.87352E-05-7.63878E-07-1.36778E-19 2.51840E-19
 -1      1055 9.63385E-05-2.65119E-05-2.99242E-05 2.88086E-07 3.49678E-19-1.85494E-18
 -1      1056 9.68040E-05-2.82597E-05-2.93763E-05-3.11533E-07-3.02597E-19-1.70863E-18
 -1      1057 9.61650E-05-2.56778E-05-3.02089E-05 1.59594E-07 9.44545E-20-1.65589E-18
 -1      1058 9.64857E-05-2.91116E-05-2.88744E-05 1.89590E-07-2.59500E-19-7.33591E-19
 -1      1059 9.61981E-05-2.89766E-05-2.88090E-05 1.93392E-07-2.11192E-19-7.54474E-19
 -1      1060 9.58759E-05-2.87453E-05-2.87701E-05 1.98705E-07-4.96454E-19-7.58096E-19
 -1      1061 9.55181E-05-2.84324E-05-2.87509E-05 2.09194E-07-1.65164E-19-7.44918E-19
 -1      1062 9.51177E-05-2.80459E-05-2.87449E-05 2.26819E-07-2.39463E-19-4.37847E-19
 -1      1063 9.46581E-05-2.75833E-05-2.87457E-05 2.57398E-07-5.09407E-20-1.04015E-19
 -1      1064 9.41101E-05-2.70345E-05-2.87465E-05 2.96478E-07-2.44718E-19 9.97658E-20
 -1      1065 9.34617E-05-2.64044E-05-2.87387E-05 3.43315E-07 3.12573E-19 2.22858E-19
 -1      1066 9.26783E-05-2.56825E-05-2.87123E-05 3.97326E-07-3.06328E-19 7.86466E-19
 -1      1067 9.17275E-05-2.48669E-05-2.86543E-05 4.52930E-07-5.64599E-19 1.27217E-19
 -1      1068 9.05717E-05-2.39601E-05-2.85476E-05 5.02229E-07-9.99333E-20-1.23657E-18
 -1      1069 8.91671E-05-2.29708E-05-2.83696E-05 5.34264E-07 4.77064E-20-1.57590E-18
 -1      1070 8.74575E-05-2.19132E-05-2.80901E-05 5.34896E-07-3.01793E-19-1.58889E-18
 -1      1071 8.53636E-05-2.08036E-05-2.76684E-05 4.86817E-07 1.46900E-19-1.89598E-18
 -1      1072 8.27608E-05-1.96509E-05-2.70475E-05 3.68311E-07-2.05522E-19-2.62981E-18
 -1      1073 7.94359E-05-1.84438E-05-2.61425E-05 1.49536E-07-1.01317E-18-8.35965E-19
 -1      1074 8.99433E-05-2.35764E-05-2.84433E-05-1.86410E-06-1.61222E-19 1.45812E-19
 -1      1075 9.36942E-05-2.66263E-05-2.87435E-05-6.82418E-07-2.94810E-19 2.52248E-19
 -1      1076 9.69301E-05-2.79427E-05-2.95659E-05 6.01394E-08-1.72850E-19-7.93075E-19
 -1      1077 9.69114E-05-2.89742E-05-2.91157E-05 1.65355E-07 2.97260E-20-5.49870E-19
 -1      1078 9.11404E-05-2.44258E-05-2.85922E-05-1.43333E-06-5.88736E-19 1.86426E-20
 -1      1079 9.21476E-05-2.52288E-05-2.86797E-05-1.10850E-06-4.88652E-19-3.26921E-19
 -1      1080 8.85299E-05-2.27127E-05-2.82078E-05-2.43902E-06-1.71002E-19-7.38810E-19
 -1      1081 8.68706E-05-2.18808E-05-2.78533E-05-3.21668E-06-1.08386E-18-1.40679E-18
 -1      1082 8.49269E-05-2.11412E-05-2.73375E-05-4.28813E-06-3.96200E-19-1.29878E-18
 -1      1083 8.26337E-05-2.05585E-05-2.66035E-05-5.79281E-06 1.35427E-18-1.12409E-18
 -1      1084 7.98768E-05-2.02001E-05-2.55690E-05-8.04329E-06 7.31272E-19-4.45254E-19
 -1      1085 9.67303E-05-2.91242E-05-2.89738E-05 1.82370E-07-2.36968E-19-8.00742E-19
 -1      1086 9.29904E-05-2.59655E-05-2.87251E-05-8.64093E-07 1.25843E-19-5.16110E-19
 -1      1087 9.65081E-05-2.91185E-05-2.88813E-05-3.23780E-07-4.39276E-19-8.08906E-19
 -1      1088 9.69937E-05-2.86044E-05-2.93094E-05 1.30844E-07-2.24610E-19-4.84448E-19
 -1      1089 9.59290E-05-2.87996E-05-2.87698E-05-3.39787E-07-1.13168E-19-4.31856E-19
 -1      1090 9.62351E-05-2.90079E-05-2.88117E-05-3.30865E-07-3.14224E-19-7.48149E-19
 -1      1091 9.67376E-05-2.91032E-05-2.89863E-05-3.08515E-07-1.46647E-19-1.29091E-18
 -1      1092 9.42864E-05-2.72114E-05-2.87464E-05-5.45909E-07-5.25070E-19 7.20508E-20
 -1      1093 9.68477E-05-2.77495E-05-2.96136E-05-7.57572E-08-1.12991E-19-1.10380E-18
 -1      1094 9.66782E-05-2.69918E-05-2.98658E-05 1.34426E-09-1.31890E-19-1.08855E-18
 -1      1095 7.54389E-05-1.73424E-05-2.48945E-05-4.55811E-08-2.08759E-19 1.72968E-19
 -1      1096 7.44898E-05-1.77469E-05-2.43434E-05-5.35220E-06-4.32513E-19 1.14386E-18
 -1      1097 9.69011E-05-2.89189E-05-2.91353E-05-2.72777E-07-3.17252E-19-1.42501E-18
 -1      1098 9.47899E-05-2.77195E-05-2.87436E-05-4.55961E-07-1.13065E-19 1.88880E-19
 -1      1099 9.63004E-05-2.61858E-05-3.00480E-05 3.06030E-07 3.83370E-19-1.48893E-18
 -1      1100 9.69611E-05-2.85061E-05-2.93377E-05-2.02145E-07-1.55464E-19-1.35764E-18
 -1      1101 9.55905E-05-2.85103E-05-2.87487E-05-3.58711E-07 2.17187E-19-2.23323E-19
 -1      1102 9.48920E-05-2.78257E-05-2.87438E-05-1.62346E-07-7.84229E-20-3.66272E-20
 -1      1103 9.52128E-05-2.81485E-05-2.87419E-05-3.96656E-07-1.30270E-20 3.44232E-19
 -1      1104 9.65033E-05-2.66072E-05-2.99560E-05 1.20908E-07 1.90445E-19-1.26491E-18
 -1      1105 1.16846E-04 2.57534E-10-4.18514E-05-4.14677E-05-1.86771E-19 1.09975E-17
 -1      1106 8.86406E-05 7.18991E-11-3.72473E-05-2.41741E-05-1.32243E-19 3.32916E-18
 -1      1107 8.40694E-05 4.14476E-11-3.57636E-05-1.78861E-05-1.16891E-19-3.52472E-19
 -1      1108 8.23316E-05 3.20114E-11-3.50713E-05-1.38459E-05-8.39621E-20-2.31625E-18
 -1      1109 8.15335E-05 2.73504E-11-3.47392E-05-1.05422E-05-6.68494E-20-3.40351E-18
 -1      1110 8.11352E-05 2.46177E-11-3.45757E-05-7.64737E-06-4.69971E-20-4.00281E-18
 -1      1111 8.09287E-05 2.29684E-11-3.44933E-05-4.98479E-06-3.51519E-20-4.33009E-18
 -1      1112 8.08287E-05 2.20787E-11-3.44548E-05-2.43488E-06-2.11725E-20-4.58516E-18
 -1      1113 8.08004E-05 2.18095E-11-3.44440E-05 5.24667E-08-1.49827E-20-4.77157E-18
 -1      1114 8.08331E-05 2.21230E-11-3.44562E-05 2.54236E-06-1.82145E-21-4.91844E-18
 -1      1115 8.09376E-05 2.30700E-11-3.44961E-05 5.10074E-06 8.33467E-21-5.01277E-18
 -1      1116 8.11503E-05 2.47818E-11-3.45795E-05 7.77981E-06 2.32206E-20-4.94407E-18
 -1      1117 8.15550E-05 2.76488E-11-3.47453E-05 1.07019E-05 4.13723E-20-4.70101E-18
 -1      1118 8.23552E-05 3.24996E-11-3.50814E-05 1.40518E-05 6.94038E-20-4.07201E-18
 -1      1119 8.40665E-05 4.19142E-11-3.57839E-05 1.81377E-05 1.06567E-19-2.67021E-18
 -1      1120 8.83381E-05 6.67215E-11-3.73174E-05 2.40165E-05 1.45901E-19 4.69097E-19
 -1      1121 1.06609E-04 1.63891E-10-4.06300E-05 3.61947E-05 3.78624E-19 7.74559E-18
 -1      1122 1.30210E-04-2.57532E-05-4.02696E-05-2.61071E-05-9.13102E-19 1.60009E-17
 -1      1123 9.74394E-05-2.88574E-05-3.15724E-05-6.80948E-07-3.21873E-19 1.38725E-17
 -1      1124 9.01358E-05-2.70193E-05-2.78860E-05 3.86847E-07-1.14574E-19 1.06635E-17
 -1      1125 8.82183E-05-2.65631E-05-2.66344E-05 2.50517E-07-1.14210E-19 8.19298E-18
 -1      1126 8.78524E-05-2.64342E-05-2.63758E-05 1.65565E-07-6.94666E-21 6.67070E-18
 -1      1127 8.82037E-05-2.65085E-05-2.64583E-05 1.17673E-07-3.73340E-20 5.91038E-18
 -1      1128 8.88813E-05-2.66904E-05-2.66584E-05 8.69369E-08-4.91076E-20 5.11547E-18
 -1      1129 8.96866E-05-2.69195E-05-2.68982E-05 6.55491E-08-6.86711E-20 4.14144E-18
 -1      1130 9.05100E-05-2.71594E-05-2.71438E-05 4.96710E-08-1.76471E-20 3.37896E-18
 -1      1131 9.12911E-05-2.73896E-05-2.73774E-05 3.73915E-08-4.90917E-20 2.70807E-18
 -1      1132 9.19986E-05-2.75996E-05-2.75898E-05 2.76999E-08-1.57122E-19 1.36023E-18
 -1      1133 9.26213E-05-2.77853E-05-2.77775E-05 2.00043E-08 4.70652E-20 1.24794E-18
 -1      1134 9.31606E-05-2.79469E-05-2.79407E-05 1.39218E-08 4.44140E-20 1.06114E-18
 -1      1135 9.36277E-05-2.80874E-05-2.80827E-05 9.19077E-09-4.28109E-20 1.32555E-18
 -1      1136 9.40406E-05-2.82121E-05-2.82087E-05 5.63543E-09-2.84099E-20 2.20784E-18
 -1      1137 9.44227E-05-2.83279E-05-2.83259E-05 3.15628E-09-1.64530E-19 2.55621E-18
 -1      1138 9.48031E-05-2.84436E-05-2.84429E-05 1.73268E-09-4.63545E-20 1.96008E-18
 -1      1139 9.52161E-05-2.85694E-05-2.85703E-05 1.43396E-09 2.15323E-19 1.93290E-18
 -1      1140 9.57024E-05-2.87175E-05-2.87202E-05 2.43734E-09 2.10854E-19 1.82534E-18
 -1      1141 9.63097E-05-2.89022E-05-2.89072E-05 5.05229E-09 3.13047E-21 1.49909E-18
 -1      1142 9.70946E-05-2.91405E-05-2.91485E-05 9.74952E-09 7.46837E-20 2.14735E-18
 -1      1143 9.81226E-05-2.94518E-05-2.94636E-05 1.71892E-08-8.26784E-20 2.15732E-18
 -1      1144 9.94680E-05-2.98581E-05-2.98747E-05 2.82305E-08-6.12808E-20 1.99337E-18
 -1      1145 1.01211E-04-3.03833E-05-3.04055E-05 4.38803E-08-7.89974E-20 1.62393E-18
 -1      1146 1.03431E-04-3.10499E-05-3.10780E-05 6.50834E-08 9.58429E-20 1.82526E-18
 -1      1147 1.06185E-04-3.18746E-05-3.19069E-05 9.21653E-08-2.14950E-19 1.45084E-18
 -1      1148 1.09482E-04-3.28581E-05-3.28889E-05 1.23595E-07 6.88545E-20-1.92065E-19
 -1      1149 1.13220E-04-3.39681E-05-3.39843E-05 1.53622E-07-1.93848E-19-9.15166E-19
 -1      1150 1.17102E-04-3.51142E-05-3.50922E-05 1.68527E-07 1.42560E-19 1.54335E-18
 -1      1151 1.20528E-04-3.61161E-05-3.60222E-05 1.42495E-07 1.24557E-20 3.29917E-18
 -1      1152 1.22509E-04-3.66802E-05-3.64844E-05 3.76882E-08-1.30668E-19 4.91193E-18
 -1      1153 1.21748E-04-3.64247E-05-3.61339E-05-1.79646E-07-4.55280E-21 4.74267E-18
 -1      1154 1.17068E-04-3.50141E-05-3.47116E-05-4.96877E-07-7.22757E-20 2.57911E-18
 -1      1155 1.08317E-04-3.24255E-05-3.22764E-05-7.99856E-07 3.64479E-19 2.25618E-18
 -1      1156 9.73755E-05-2.92383E-05-2.93924E-05-8.77029E-07 3.49327E-19 3.02031E-18
 -1      1157 8.81754E-05-2.65844E-05-2.70542E-05-5.63886E-07-5.16359E-20 1.78004E-18
 -1      1158 8.48864E-05-2.56447E-05-2.62267E-05 5.98123E-08 1.34784E-19 1.37295E-18
 -1      1159 8.90854E-05-2.68392E-05-2.72552E-05 6.47102E-07 7.87344E-20 4.40034E-19
 -1      1160 9.85035E-05-2.95541E-05-2.96382E-05 8.80993E-07 3.27940E-19 4.58457E-20
 -1      1161 1.08762E-04-3.25458E-05-3.23471E-05 7.39933E-07 2.40385E-19 6.15687E-19
 -1      1162 1.16214E-04-3.47539E-05-3.44362E-05 4.15416E-07-1.75634E-19-3.41831E-19
 -1      1163 1.19402E-04-3.57225E-05-3.54379E-05 1.06730E-07-4.38915E-19-4.09847E-18
 -1      1164 1.18743E-04-3.55540E-05-3.53696E-05-9.53573E-08 6.52513E-20-6.35362E-18
 -1      1165 1.15491E-04-3.46102E-05-3.45227E-05-1.91307E-07-2.75784E-19-2.22521E-18
 -1      1166 1.10927E-04-3.32688E-05-3.32491E-05-2.16945E-07 1.62106E-19-3.16179E-18
 -1      1167 1.06033E-04-3.18225E-05-3.18459E-05-2.05160E-07 3.15766E-19-1.00808E-18
 -1      1168 1.01495E-04-3.04761E-05-3.05345E-05-1.71825E-07 3.49381E-19-1.36039E-18
 -1      1169 9.78334E-05-2.93879E-05-2.94803E-05-1.09497E-07 4.14459E-19 6.97280E-19
 -1      1170 9.55924E-05-2.87508E-05-2.87944E-05 1.74692E-08-4.86713E-20 2.37747E-18
 -1      1171 9.50053E-05-2.84913E-05-2.84219E-05 8.45475E-08 3.04129E-19 1.14758E-18
 -1      1172 1.31045E-04-3.77358E-05-3.86550E-05 1.21747E-05-1.15249E-19 1.39392E-17
 -1      1173 9.65407E-05-2.81839E-05-3.13248E-05 8.01721E-07 1.71604E-19 9.88255E-18
 -1      1174 9.03496E-05-2.69219E-05-2.78668E-05 1.20296E-07 1.22065E-19 6.31599E-18
 -1      1175 8.83048E-05-2.64903E-05-2.66707E-05 9.12362E-09 4.78044E-20 4.07849E-18
 -1      1176 8.78931E-05-2.63968E-05-2.64029E-05-2.51198E-08 9.83187E-20 2.20165E-18
 -1      1177 8.82258E-05-2.64912E-05-2.64741E-05-3.40701E-08-1.49943E-20 9.48809E-19
 -1      1178 8.88946E-05-2.66836E-05-2.66687E-05-3.51359E-08-4.34253E-20 5.29581E-19
 -1      1179 8.96952E-05-2.69182E-05-2.69056E-05-3.32410E-08 5.59743E-20-4.48133E-19
 -1      1180 9.05160E-05-2.71611E-05-2.71495E-05-2.99431E-08-2.81112E-20-8.94837E-19
 -1      1181 9.12957E-05-2.73929E-05-2.73819E-05-2.59391E-08 1.68566E-20-1.66002E-18
 -1      1182 9.20027E-05-2.76038E-05-2.75935E-05-2.16289E-08 2.31064E-20-2.11970E-18
 -1      1183 9.26255E-05-2.77899E-05-2.77807E-05-1.72592E-08 6.01030E-20-3.29754E-18
 -1      1184 9.31657E-05-2.79516E-05-2.79436E-05-1.29749E-08 6.42610E-20-3.76776E-18
 -1      1185 9.36342E-05-2.80922E-05-2.80856E-05-8.85157E-09-9.31119E-20-4.65229E-18
 -1      1186 9.40488E-05-2.82169E-05-2.82119E-05-4.92095E-09 1.29782E-19-5.61570E-18
 -1      1187 9.44331E-05-2.83327E-05-2.83294E-05-1.19520E-09 1.00503E-19-6.03964E-18
 -1      1188 9.48151E-05-2.84482E-05-2.84467E-05 2.30892E-09-1.00098E-19-6.03112E-18
 -1      1189 9.52280E-05-2.85732E-05-2.85737E-05 5.54240E-09 1.07842E-19-5.74556E-18
 -1      1190 9.57097E-05-2.87190E-05-2.87220E-05 8.39056E-09 8.53764E-20-5.81981E-18
 -1      1191 9.63034E-05-2.88986E-05-2.89046E-05 1.06303E-08 2.91333E-20-5.17055E-18
 -1      1192 9.70571E-05-2.91261E-05-2.91357E-05 1.18750E-08-1.20699E-19-4.60674E-18
 -1      1193 9.80225E-05-2.94170E-05-2.94308E-05 1.15062E-08 2.43398E-21-5.05594E-18
 -1      1194 9.92516E-05-2.97863E-05-2.98050E-05 8.59858E-09-1.06428E-19-6.31180E-18
 -1      1195 1.00790E-04-3.02472E-05-3.02710E-05 1.86228E-09 2.37342E-19-8.34148E-18
 -1      1196 1.02666E-04-3.08072E-05-3.08353E-05-1.03307E-08-2.25296E-19-7.23263E-18
 -1      1197 1.04868E-04-3.14622E-05-3.14920E-05-2.96950E-08-4.62291E-20-5.69360E-18
 -1      1198 1.07320E-04-3.21880E-05-3.22131E-05-5.72968E-08 8.36825E-20-5.43501E-18
 -1      1199 1.09835E-04-3.29284E-05-3.29372E-05-9.19629E-08 1.35933E-19-5.11784E-18
 -1      1200 1.12072E-04-3.35829E-05-3.35570E-05-1.27556E-07-3.17852E-19-4.53226E-18
 -1      1201 1.13506E-04-3.39987E-05-3.39157E-05-1.49662E-07-2.26217E-19-4.02397E-18
 -1      1202 1.13455E-04-3.39798E-05-3.38222E-05-1.34311E-07 4.84728E-21-5.81288E-18
 -1      1203 1.11234E-04-3.33305E-05-3.31044E-05-5.43971E-08-2.09902E-19-4.42559E-18
 -1      1204 1.06485E-04-3.19459E-05-3.17032E-05 1.01204E-07-3.65746E-20-2.64888E-18
 -1      1205 9.96196E-05-2.99358E-05-2.97786E-05 2.99876E-07-3.57268E-19-4.82756E-19
 -1      1206 9.21231E-05-2.77156E-05-2.77588E-05 4.53666E-07-3.27094E-19-5.42207E-19
 -1      1207 8.62932E-05-2.59505E-05-2.62375E-05 4.62252E-07-1.12020E-19-2.38260E-18
 -1      1208 8.42516E-05-2.52862E-05-2.57256E-05 2.88294E-07 1.23137E-19-4.86507E-18
 -1      1209 8.67508E-05-2.59874E-05-2.63888E-05 4.15136E-09 2.44892E-19-6.52348E-18
 -1      1210 9.26830E-05-2.77526E-05-2.79545E-05-2.54236E-07 1.21513E-19-7.14981E-18
 -1      1211 9.97533E-05-2.98892E-05-2.98563E-05-3.84930E-07-2.27370E-19-3.63499E-18
 -1      1212 1.05733E-04-3.17079E-05-3.15144E-05-3.76046E-07 1.23022E-19-2.08190E-18
 -1      1213 1.09328E-04-3.28029E-05-3.25590E-05-2.77923E-07-3.16813E-19 5.05414E-19
 -1      1214 1.10302E-04-3.31010E-05-3.28878E-05-1.53087E-07 3.18441E-19 1.33189E-19
 -1      1215 1.09125E-04-3.27479E-05-3.25999E-05-4.22869E-08-2.48904E-19-1.28770E-18
 -1      1216 1.06541E-04-3.19721E-05-3.18907E-05 3.95558E-08 6.72903E-20-2.48572E-18
 -1      1217 1.03285E-04-3.09974E-05-3.09726E-05 9.38613E-08 3.96565E-20-4.87785E-18
 -1      1218 9.99910E-05-3.00135E-05-3.00381E-05 1.26178E-07 2.68452E-19-7.04115E-18
 -1      1219 9.72063E-05-2.91830E-05-2.92518E-05 1.32200E-07 1.28438E-19-7.52720E-18
 -1      1220 9.54558E-05-2.86565E-05-2.87304E-05 7.70232E-08 4.03633E-19-8.18992E-18
 -1      1221 9.50640E-05-2.85164E-05-2.84456E-05-6.09755E-08 1.74887E-19-4.87215E-18
 -1      1222 9.52956E-05-2.87478E-05-2.84512E-05-5.69732E-08-5.33538E-18-5.43827E-19
 -1      1223 9.51266E-05-2.83180E-05-2.87422E-05-2.58642E-08-7.53123E-18-1.85143E-19
 -1      1224 9.46117E-05-2.65755E-05-2.92697E-05 8.62781E-08-2.18397E-18-1.64634E-19
 -1      1225 9.37897E-05-2.38003E-05-3.00602E-05 1.35487E-07-1.52176E-18-9.40554E-20
 -1      1226 9.28052E-05-2.04685E-05-3.10134E-05 1.53628E-07-4.08588E-19 1.24607E-18
 -1      1227 9.18029E-05-1.70700E-05-3.19883E-05 1.49339E-07-4.28292E-18 1.28494E-20
 -1      1228 9.09099E-05-1.40323E-05-3.28590E-05 1.26678E-07-2.80716E-18-2.53035E-20
 -1      1229 9.02451E-05-1.17664E-05-3.35047E-05 8.22981E-08 1.01512E-19-1.03043E-18
 -1      1230 8.99228E-05-1.06642E-05-3.38153E-05 2.23350E-08-1.54709E-18 1.70704E-19
 -1      1231 9.00040E-05-1.09360E-05-3.37330E-05-4.45867E-08 3.57257E-18 9.33242E-20
 -1      1232 9.04885E-05-1.25850E-05-3.32582E-05-1.07299E-07-2.73923E-19-8.90582E-19
 -1      1233 9.13090E-05-1.53681E-05-3.24617E-05-1.55559E-07 2.17052E-21 4.95269E-19
 -1      1234 9.23460E-05-1.88975E-05-3.14549E-05-1.79740E-07-3.10586E-18-4.47521E-19
 -1      1235 9.34589E-05-2.26749E-05-3.03879E-05-1.76711E-07-1.59780E-18 4.81431E-19
 -1      1236 9.44579E-05-2.60630E-05-2.94475E-05-1.47295E-07 1.55866E-18 5.60893E-19
 -1      1237 9.50293E-05-2.81344E-05-2.87979E-05 6.35837E-08 5.60709E-19-1.71067E-18
 -1      1238 9.53230E-05-2.88023E-05-2.84234E-05 7.19322E-08-1.56627E-18 1.77953E-19
 -1      1239 3.43733E-05-1.08709E-04 1.85193E-05-1.38976E-05 1.57252E-18 9.32954E-19
 -1      1240 1.81401E-05-6.69796E-05 9.91305E-06-2.53793E-05 2.83587E-18 1.11808E-18
 -1      1241 8.26416E-06-1.01533E-05-5.68274E-06-2.22256E-07 2.26666E-18 1.59073E-18
 -1      1242 3.88114E-05 2.34550E-05-2.71156E-05 5.62704E-05 2.03457E-18 3.24075E-18
 -1      1243 1.17483E-04 9.73357E-06-4.86278E-05 1.04924E-04 3.86162E-18 5.62430E-18
 -1      1244 2.15293E-04-3.77418E-05-6.53137E-05 1.07567E-04-1.31290E-20-6.20875E-19
 -1      1245 2.93018E-04-8.35367E-05-7.57559E-05 5.55137E-05-2.30869E-19-1.72032E-18
 -1      1246 3.06317E-04-9.12713E-05-7.73579E-05-2.67623E-05 4.08693E-20-2.30605E-18
 -1      1247 2.44413E-04-5.41007E-05-6.93169E-05-9.33707E-05 1.82451E-18-5.45828E-18
 -1      1248 1.45951E-04-3.04794E-06-5.37489E-05-1.10275E-04 2.75540E-18-5.63616E-18
 -1      1249 5.98050E-05 2.44662E-05-3.44067E-05-7.46770E-05 4.05305E-18-4.59769E-18
 -1      1250 1.37722E-05 8.65981E-06-1.37818E-05-1.98961E-05 5.96481E-18-3.86162E-18
 -1      1251 1.13906E-05-4.33050E-05 4.31846E-06 1.89145E-05 1.18678E-17-4.34316E-18
 -1      1252 2.92663E-05-9.63405E-05 1.61347E-05 2.04763E-05 1.06963E-17-3.14768E-18
 -1      1253 3.68155E-05-1.13248E-04 1.93378E-05-4.61989E-06 2.61151E-18-1.41613E-19
 -1      1254 2.53596E-05-8.70341E-05 1.42787E-05-2.57971E-05-7.17013E-18-2.70288E-18
 -1      1255 9.05914E-06-3.25173E-05 1.40054E-06-1.55913E-05-1.56515E-17-8.37885E-18
 -1      1256 1.92250E-05 1.37149E-05-1.75609E-05 2.91954E-05-1.69068E-17-1.44063E-17
 -1      1257 8.19670E-05 1.85338E-05-3.99624E-05 8.63510E-05-1.16552E-17-1.38676E-17
 -1      1258 1.83748E-04-2.08467E-05-6.00404E-05 1.11335E-04-3.73414E-18-7.06087E-18
 -1      1259 2.73481E-04-6.98187E-05-7.34567E-05 7.66419E-05-1.34456E-18-4.85858E-18
 -1      1260 3.16120E-04-9.63430E-05-7.85939E-05 9.87703E-07 1.98206E-19-3.97470E-18
 -1      1261 2.79764E-04-7.37110E-05-7.43539E-05-7.52795E-05 9.60747E-19-3.73203E-18
 -1      1262 1.92887E-04-2.49939E-05-6.20095E-05-1.12504E-04 1.24937E-18-1.98883E-18
 -1      1263 9.51642E-05 1.72313E-05-4.39262E-05-9.65520E-05-1.73811E-18 8.40257E-19
 -1      1264 2.81380E-05 2.21794E-05-2.32572E-05-4.50823E-05-6.05120E-18 4.69172E-18
 -1      1265 7.34294E-06-1.54989E-05-3.68812E-06 6.20263E-06-6.70342E-18 4.48165E-18
 -1      1266 1.93618E-05-7.16036E-05 1.10890E-05 2.70304E-05-7.31836E-18 2.87589E-18
 -1      1267 3.57948E-05-1.11157E-04 1.88166E-05 1.35206E-05-2.12859E-18 6.31066E-19
 -1      1268 1.04430E-04-2.20161E-05-3.78880E-05-1.72784E-05-3.29496E-19 9.61954E-18
 -1      1269 9.03088E-05-6.67922E-06-3.60134E-05-2.04795E-05-1.20755E-18 1.61413E-18
 -1      1270 9.26435E-05-6.73751E-06-3.72181E-05-2.57665E-05-1.42725E-18 3.54986E-18
 -1      1271 8.58959E-05-4.09598E-06-3.51268E-05-1.64411E-05-1.34215E-18-1.17534E-18
 -1      1272 8.71476E-05-4.08906E-06-3.55958E-05-1.88616E-05-1.48199E-18 7.26331E-20
 -1      1273 9.21237E-05-1.04612E-05-3.50899E-05-1.90438E-05-2.17886E-18 1.44483E-18
 -1      1274 8.40929E-05-3.18933E-06-3.46854E-05-1.28283E-05-1.16373E-18-2.76989E-18
 -1      1275 8.46993E-05-3.15888E-06-3.49086E-05-1.46409E-05-1.29440E-18-2.00292E-18
 -1      1276 8.78559E-05-7.39341E-06-3.45707E-05-1.54187E-05-2.12756E-18-8.91635E-19
 -1      1277 8.31892E-05-2.72919E-06-3.44712E-05-9.69406E-06-1.00064E-18-3.66489E-18
 -1      1278 8.35014E-05-2.71251E-06-3.45794E-05-1.12425E-05-1.09349E-18-3.24230E-18
 -1      1279 8.58630E-05-5.98480E-06-3.43044E-05-1.19685E-05-1.83852E-18-2.27677E-18
 -1      1280 8.26994E-05-2.45805E-06-3.43660E-05-6.92166E-06-7.91956E-19-4.14219E-18
 -1      1281 8.28676E-05-2.44973E-06-3.44199E-05-8.29323E-06-8.83826E-19-3.88600E-18
 -1      1282 8.48252E-05-5.21819E-06-3.41743E-05-8.94963E-06-1.53564E-18-3.02446E-18
 -1      1283 8.24270E-05-2.29347E-06-3.43139E-05-4.29990E-06-5.87417E-19-4.44221E-18
 -1      1284 8.25168E-05-2.28952E-06-3.43408E-05-5.60230E-06-6.64583E-19-4.30711E-18
 -1      1285 8.42420E-05-4.76367E-06-3.41118E-05-6.22305E-06-1.20394E-18-3.49827E-18
 -1      1286 8.22964E-05-2.20452E-06-3.42921E-05-1.79222E-06-3.55023E-19-4.69886E-18
 -1      1287 8.23346E-05-2.20291E-06-3.43030E-05-3.04463E-06-4.24097E-19-4.54824E-18
 -1      1288 8.39230E-05-4.50146E-06-3.40835E-05-3.64884E-06-8.46601E-19-3.74586E-18
 -1      1289 8.22707E-05-2.17711E-06-3.42896E-05 6.70533E-07-1.94141E-19-4.87686E-18
 -1      1290 8.22693E-05-2.17715E-06-3.42892E-05-5.66795E-07-2.45446E-19-4.78439E-18
 -1      1291 8.37832E-05-4.38225E-06-3.40731E-05-1.17197E-06-4.77609E-19-3.97931E-18
 -1      1292 8.23433E-05-2.20725E-06-3.43045E-05 3.15200E-06-2.48154E-21-4.98966E-18
 -1      1293 8.23021E-05-2.20890E-06-3.42929E-05 1.89698E-06-5.66484E-20-4.92994E-18
 -1      1294 8.37882E-05-4.38644E-06-3.40735E-05 1.27512E-06-2.03042E-19-4.13498E-18
 -1      1295 8.25342E-05-2.29996E-06-3.43433E-05 5.71885E-06 1.95373E-19-5.05242E-18
 -1      1296 8.24409E-05-2.30336E-06-3.43158E-05 4.41048E-06 1.38943E-19-5.02056E-18
 -1      1297 8.39386E-05-4.51499E-06-3.40846E-05 3.75618E-06 1.33150E-19-4.23846E-18
 -1      1298 8.28904E-05-2.46520E-06-3.44223E-05 8.40250E-06 3.97192E-19-4.96476E-18
 -1      1299 8.27193E-05-2.47392E-06-3.43680E-05 7.02187E-06 3.17416E-19-5.02529E-18
 -1      1300 8.42682E-05-4.78738E-06-3.41127E-05 6.31692E-06 4.60215E-19-4.22008E-18
 -1      1301 8.35442E-05-2.74188E-06-3.45842E-05 1.14040E-05 7.21275E-19-4.61747E-18
 -1      1302 8.32250E-05-2.75902E-06-3.44742E-05 9.83854E-06 5.95491E-19-4.81765E-18
 -1      1303 8.48671E-05-5.25958E-06-3.41746E-05 9.06165E-06 8.33037E-19-4.05035E-18
 -1      1304 8.47605E-05-3.20322E-06-3.49172E-05 1.48530E-05 1.04386E-18-3.90016E-18
 -1      1305 8.41504E-05-3.24003E-06-3.46913E-05 1.30127E-05 8.89649E-19-4.34373E-18
 -1      1306 8.59454E-05-6.06342E-06-3.43058E-05 1.21312E-05 1.33306E-18-3.66339E-18
 -1      1307 8.72463E-05-4.08927E-06-3.56175E-05 1.90995E-05 1.34101E-18-2.31293E-18
 -1      1308 8.59651E-05-4.15327E-06-3.51349E-05 1.67021E-05 1.14765E-18-3.28532E-18
 -1      1309 8.79851E-05-7.51628E-06-3.45735E-05 1.56591E-05 1.79280E-18-2.74322E-18
 -1      1310 9.34564E-05-6.79017E-06-3.71134E-05 2.51023E-05 1.31692E-18 1.10273E-18
 -1      1311 9.01236E-05-6.43593E-06-3.60359E-05 2.11563E-05 1.23995E-18-1.01856E-18
 -1      1312 9.23525E-05-1.06957E-05-3.50751E-05 1.96841E-05 2.12777E-18-8.66779E-19
 -1      1313 1.23617E-04-2.49210E-05-3.90116E-05 2.83693E-05 7.84988E-19 8.32168E-18
 -1      1314 1.00071E-04-1.44214E-05-3.73509E-05 2.40550E-05 7.82553E-19 3.16430E-18
 -1      1315 1.01668E-04-1.93390E-05-3.53991E-05 2.14046E-05 2.28457E-18 2.23278E-18
 -1      1316 1.02593E-04-2.78015E-05-3.47543E-05 7.33211E-06 1.32487E-18 7.68767E-18
 -1      1317 1.05135E-04-3.02262E-05-3.35218E-05-7.96247E-06-1.07796E-18 9.82897E-18
 -1      1318 9.82458E-05-2.78384E-05-3.07578E-05-4.99086E-06-1.07870E-18 8.60956E-18
 -1      1319 9.54868E-05-2.78444E-05-2.92497E-05-2.49247E-06-8.59686E-19 7.98549E-18
 -1      1320 9.32517E-05-2.75527E-05-2.82095E-05-2.04578E-06-8.17122E-19 6.77992E-18
 -1      1321 9.94710E-05-2.80483E-05-3.09786E-05-7.89153E-06-1.82731E-18 5.01158E-18
 -1      1322 9.15601E-05-2.71942E-05-2.75746E-05-8.41293E-07-6.99874E-19 6.22807E-18
 -1      1323 9.08405E-05-2.70979E-05-2.72715E-05-7.31167E-07-7.10264E-19 5.28054E-18
 -1      1324 9.47009E-05-2.77648E-05-2.88112E-05-3.12620E-06-1.49422E-18 4.07782E-18
 -1      1325 9.00883E-05-2.69145E-05-2.70276E-05-1.77137E-07-4.55244E-19 4.84640E-18
 -1      1326 9.00126E-05-2.69403E-05-2.69918E-05-1.19093E-07-3.73743E-19 4.24004E-18
 -1      1327 9.24977E-05-2.74933E-05-2.78891E-05-1.05940E-06-1.12827E-18 3.13321E-18
 -1      1328 8.97512E-05-2.68724E-05-2.69170E-05 1.50931E-07-2.04084E-19 3.97511E-18
 -1      1329 8.99624E-05-2.69614E-05-2.69776E-05 1.79518E-07-2.40672E-19 3.66595E-18
 -1      1330 9.15353E-05-2.73484E-05-2.75210E-05-7.64380E-08-6.55941E-19 2.30181E-18
 -1      1331 8.99642E-05-2.69640E-05-2.69835E-05 3.10376E-07-3.24200E-19 3.39781E-18
 -1      1332 9.03027E-05-2.70824E-05-2.70815E-05 3.22029E-07-3.80664E-19 2.91406E-18
 -1      1333 9.12784E-05-2.73354E-05-2.74120E-05 4.10236E-07-5.88986E-19 1.95484E-18
 -1      1334 9.04428E-05-2.71236E-05-2.71281E-05 3.76611E-07-2.97730E-19 2.80953E-18
 -1      1335 9.08266E-05-2.72505E-05-2.72390E-05 3.78300E-07-3.11602E-19 2.26630E-18
 -1      1336 9.14075E-05-2.74078E-05-2.74331E-05 6.38234E-07-5.82873E-19 1.49528E-18
 -1      1337 9.10334E-05-2.73104E-05-2.73050E-05 3.89376E-07-1.89146E-19 2.38130E-18
 -1      1338 9.14172E-05-2.74338E-05-2.74163E-05 3.85318E-07-1.45429E-19 2.11162E-18
 -1      1339 9.17372E-05-2.75256E-05-2.75213E-05 7.21360E-07-4.31787E-19 1.17900E-18
 -1      1340 9.16487E-05-2.75005E-05-2.74893E-05 3.72019E-07-3.41028E-19 1.82013E-18
 -1      1341 9.20079E-05-2.76140E-05-2.75938E-05 3.64963E-07-5.72933E-19 1.23843E-18
 -1      1342 9.21579E-05-2.76620E-05-2.76413E-05 7.21899E-07-4.90215E-19 8.57169E-19
 -1      1343 9.22397E-05-2.76805E-05-2.76666E-05 3.39349E-07-4.94504E-19 1.21502E-18
 -1      1344 9.25628E-05-2.77811E-05-2.77610E-05 3.31153E-07-1.88714E-19 7.79254E-19
 -1      1345 9.26049E-05-2.78007E-05-2.77722E-05 6.77501E-07-6.94279E-19 5.09294E-19
 -1      1346 9.27821E-05-2.78439E-05-2.78297E-05 3.01210E-07 4.08456E-20 6.38196E-19
 -1      1347 9.30658E-05-2.79312E-05-2.79130E-05 2.93157E-07 2.93312E-20 7.63377E-19
 -1      1348 9.30417E-05-2.79326E-05-2.79023E-05 6.12457E-07-1.67726E-19 5.81280E-19
 -1      1349 9.32676E-05-2.79888E-05-2.79760E-05 2.64379E-07 6.55086E-21 6.11313E-19
 -1      1350 9.35145E-05-2.80639E-05-2.80489E-05 2.57379E-07 1.19871E-20 6.24576E-19
 -1      1351 9.34505E-05-2.80537E-05-2.80256E-05 5.43142E-07-3.30992E-20 1.11428E-19
 -1      1352 9.36993E-05-2.81166E-05-2.81065E-05 2.33712E-07 6.67648E-21 6.35133E-19
 -1      1353 9.39162E-05-2.81817E-05-2.81708E-05 2.28444E-07-3.07337E-20 8.08540E-19
 -1      1354 9.38267E-05-2.81630E-05-2.81402E-05 4.81038E-07-4.94824E-20 5.03662E-20
 -1      1355 9.40885E-05-2.82307E-05-2.82245E-05 2.12915E-07 7.16612E-20 8.95313E-19
 -1      1356 9.42853E-05-2.82891E-05-2.82830E-05 2.09934E-07-1.06501E-19 1.04242E-18
 -1      1357 9.41746E-05-2.82625E-05-2.82472E-05 4.34628E-07 1.36505E-20 7.81812E-20
 -1      1358 9.44526E-05-2.83365E-05-2.83351E-05 2.05106E-07-1.58497E-19 1.28361E-18
 -1      1359 9.46422E-05-2.83922E-05-2.83918E-05 2.04925E-07-1.32966E-19 1.11178E-18
 -1      1360 9.45060E-05-2.83558E-05-2.83499E-05 4.10705E-07 8.73880E-21-1.02197E-19
 -1      1361 9.48149E-05-2.84410E-05-2.84455E-05 2.13238E-07-8.05214E-20 1.21706E-18
 -1      1362 9.50126E-05-2.84986E-05-2.85047E-05 2.16390E-07-8.51479E-20 9.59487E-19
 -1      1363 9.48381E-05-2.84481E-05-2.84536E-05 4.15329E-07-2.53025E-19 1.97655E-19
 -1      1364 9.52034E-05-2.85525E-05-2.85642E-05 2.40408E-07 1.13317E-19 7.69708E-19
 -1      1365 9.54278E-05-2.86178E-05-2.86314E-05 2.47500E-07 2.03673E-19 9.67827E-19
 -1      1366 9.51933E-05-2.85460E-05-2.85651E-05 4.54540E-07 1.39575E-19 1.70931E-19
 -1      1367 9.56521E-05-2.86811E-05-2.87013E-05 2.90088E-07 1.72390E-19 7.88354E-19
 -1      1368 9.59247E-05-2.87605E-05-2.87829E-05 3.01829E-07 2.11998E-20 7.30146E-19
 -1      1369 9.55992E-05-2.86575E-05-2.86925E-05 5.34869E-07 1.67153E-19-3.18259E-19
 -1      1370 9.62007E-05-2.88385E-05-2.88689E-05 3.66218E-07 3.77583E-20 5.49549E-19
 -1      1371 9.65470E-05-2.89399E-05-2.89725E-05 3.83435E-07 5.67508E-20 5.50596E-19
 -1      1372 9.60882E-05-2.87921E-05-2.88460E-05 6.63629E-07-2.73899E-19-5.45704E-19
 -1      1373 9.68956E-05-2.90385E-05-2.90811E-05 4.73146E-07 1.36147E-19 4.91064E-19
 -1      1374 9.73454E-05-2.91711E-05-2.92154E-05 4.96754E-07-1.77080E-19 3.59555E-19
 -1      1375 9.66982E-05-2.89609E-05-2.90369E-05 8.48905E-07-3.85185E-20-6.75009E-19
 -1      1376 9.77901E-05-2.92970E-05-2.93540E-05 6.15264E-07 9.01379E-21 6.86568E-19
 -1      1377 9.83775E-05-2.94714E-05-2.95289E-05 6.46176E-07 2.50568E-19 7.22072E-19
 -1      1378 9.74727E-05-2.91770E-05-2.92783E-05 1.09908E-06 1.58733E-19-1.01111E-18
 -1      1379 9.89439E-05-2.96322E-05-2.97056E-05 7.96157E-07-9.38015E-20 1.27264E-18
 -1      1380 9.97063E-05-2.98603E-05-2.99320E-05 8.35067E-07-3.21141E-19 9.39783E-19
 -1      1381 9.84595E-05-2.94549E-05-2.95843E-05 1.42154E-06 4.79401E-20-6.32474E-20
 -1      1382 1.00421E-04-3.00638E-05-3.01545E-05 1.01686E-06-2.42086E-19 1.03892E-18
 -1      1383 1.01396E-04-3.03582E-05-3.04435E-05 1.06381E-06 9.35674E-20 6.70175E-19
 -1      1384 9.97093E-05-2.98111E-05-2.99697E-05 1.82000E-06-2.87928E-19 6.66763E-19
 -1      1385 1.02281E-04-3.06120E-05-3.07187E-05 1.27263E-06 2.72103E-19 5.05040E-19
 -1      1386 1.03503E-04-3.09843E-05-3.10792E-05 1.32620E-06-1.21390E-19 6.86414E-19
 -1      1387 1.01271E-04-3.02630E-05-3.04474E-05 2.28946E-06 1.82426E-20 2.22079E-19
 -1      1388 1.04572E-04-3.12941E-05-3.14106E-05 1.54742E-06-4.90220E-19 8.90093E-19
 -1      1389 1.06055E-04-3.17519E-05-3.18461E-05 1.60330E-06-5.51764E-19 2.88481E-19
 -1      1390 1.03182E-04-3.08277E-05-3.10260E-05 2.80738E-06-4.20310E-19-9.24126E-20
 -1      1391 1.07304E-04-3.21196E-05-3.22300E-05 1.80505E-06-2.29213E-19 2.59232E-19
 -1      1392 1.09023E-04-3.26599E-05-3.27316E-05 1.85373E-06-3.80553E-20 2.77006E-20
 -1      1393 1.05456E-04-3.15194E-05-3.17038E-05 3.31953E-06-4.69020E-19 5.71112E-19
 -1      1394 1.10410E-04-3.30793E-05-3.31516E-05 1.97698E-06 9.76552E-20-1.57866E-19
 -1      1395 1.12270E-04-3.36784E-05-3.36881E-05 2.00058E-06 4.71801E-19 3.91753E-20
 -1      1396 1.08055E-04-3.23435E-05-3.24607E-05 3.71949E-06 1.66604E-19 3.19401E-19
 -1      1397 1.13697E-04-3.41297E-05-3.41082E-05 1.94945E-06 1.01191E-18 5.67737E-19
 -1      1398 1.15481E-04-3.47269E-05-3.46133E-05 1.91857E-06 6.94319E-19 1.89907E-18
 -1      1399 1.10855E-04-3.32865E-05-3.32470E-05 3.82509E-06 1.36602E-18 5.10940E-19
 -1      1400 1.16770E-04-3.51674E-05-3.49710E-05 1.56036E-06 3.25691E-19 2.36897E-18
 -1      1401 1.18100E-04-3.56464E-05-3.53325E-05 1.43433E-06 4.24003E-19 3.07528E-18
 -1      1402 1.13602E-04-3.42964E-05-3.39723E-05 3.36524E-06 9.23143E-19 1.82334E-18
 -1      1403 1.18976E-04-3.59990E-05-3.55392E-05 6.29986E-07-2.06266E-19 3.57530E-18
 -1      1404 1.19305E-04-3.61756E-05-3.56041E-05 3.68473E-07-1.41673E-19 3.52438E-18
 -1      1405 1.15865E-04-3.52494E-05-3.45029E-05 2.01165E-06 2.08813E-19 2.10237E-18
 -1      1406 1.19417E-04-3.63183E-05-3.55618E-05-9.34555E-07-4.17276E-19 3.94989E-18
 -1      1407 1.18148E-04-3.59634E-05-3.51777E-05-1.33569E-06-6.02009E-19 3.39110E-18
 -1      1408 1.17025E-04-3.59051E-05-3.46794E-05-4.83177E-07-4.42760E-19 2.30535E-18
 -1      1409 1.17168E-04-3.57419E-05-3.48226E-05-2.94034E-06-6.14099E-19 2.97946E-18
 -1      1410 1.13967E-04-3.46838E-05-3.39268E-05-3.39182E-06-6.62400E-19 2.14887E-18
 -1      1411 1.16368E-04-3.58887E-05-3.43730E-05-3.98313E-06-1.18860E-18 2.26196E-18
 -1      1412 1.11809E-04-3.39864E-05-3.32893E-05-4.71242E-06 1.47880E-19 1.64155E-18
 -1      1413 1.07065E-04-3.22990E-05-3.20208E-05-4.99472E-06 5.66245E-19 1.36605E-18
 -1      1414 1.13397E-04-3.48073E-05-3.35715E-05-7.58576E-06-1.45670E-19 2.75151E-18
 -1      1415 1.04175E-04-3.12208E-05-3.12664E-05-5.17926E-06 5.91633E-19 1.97062E-18
 -1      1416 9.92821E-05-2.93958E-05-3.00005E-05-5.03118E-06 2.28222E-19 2.37265E-18
 -1      1417 1.08377E-04-3.25878E-05-3.24530E-05-9.54091E-06 3.19867E-19 1.81851E-18
 -1      1418 9.67468E-05-2.83717E-05-2.93901E-05-3.54637E-06-2.90148E-19 1.83240E-18
 -1      1419 9.36879E-05-2.71975E-05-2.86172E-05-2.90671E-06-3.45113E-19 1.64465E-18
 -1      1420 1.02846E-04-2.99173E-05-3.13683E-05-8.05516E-06 1.71842E-19 1.80108E-18
 -1      1421 9.27335E-05-2.67998E-05-2.83952E-05-1.87745E-07-2.88388E-19 1.27148E-18
 -1      1422 9.29559E-05-2.68966E-05-2.84447E-05 6.53496E-07-3.22799E-20 1.29170E-18
 -1      1423 9.92330E-05-2.80941E-05-3.07061E-05-2.91708E-06-4.39134E-19 1.15232E-18
 -1      1424 9.40959E-05-2.73973E-05-2.86939E-05 3.22390E-06-2.26515E-19 4.83232E-19
 -1      1425 9.74243E-05-2.86902E-05-2.95272E-05 3.78054E-06-4.45645E-19 2.14935E-20
 -1      1426 9.94397E-05-2.82468E-05-3.07164E-05 3.62947E-06-8.66501E-19-9.91823E-20
 -1      1427 9.99343E-05-2.97161E-05-3.01251E-05 4.93060E-06-2.29692E-20 5.47660E-19
 -1      1428 1.04704E-04-3.14989E-05-3.13569E-05 4.97656E-06 5.96169E-19 1.86083E-19
 -1      1429 1.03232E-04-3.02322E-05-3.13672E-05 8.15503E-06-3.29648E-19-2.66365E-19
 -1      1430 1.07307E-04-3.24665E-05-3.20418E-05 4.48754E-06 2.61204E-19-7.02614E-19
 -1      1431 1.11559E-04-3.39747E-05-3.31809E-05 4.14385E-06-7.45495E-19-1.01125E-18
 -1      1432 1.08444E-04-3.27972E-05-3.23679E-05 8.84708E-06 3.13700E-19-6.27876E-19
 -1      1433 1.13270E-04-3.45114E-05-3.36997E-05 2.67303E-06-8.15349E-19-7.34483E-19
 -1      1434 1.15790E-04-3.53348E-05-3.44083E-05 2.20940E-06-1.32043E-18-2.29493E-18
 -1      1435 1.12710E-04-3.46962E-05-3.33151E-05 6.35025E-06-9.72553E-19-1.98009E-18
 -1      1436 1.16279E-04-3.53997E-05-3.46203E-05 5.90861E-07-1.11288E-18-1.80279E-18
 -1      1437 1.16841E-04-3.55249E-05-3.48032E-05 2.02616E-07-5.85518E-19-3.03946E-18
 -1      1438 1.14741E-04-3.54104E-05-3.38818E-05 2.56811E-06-1.65628E-18-1.29473E-18
 -1      1439 1.16260E-04-3.52458E-05-3.46994E-05-1.05202E-06 2.69833E-19-3.15619E-18
 -1      1440 1.15279E-04-3.48664E-05-3.44438E-05-1.29669E-06 9.22737E-19-2.86064E-18
 -1      1441 1.14455E-04-3.51038E-05-3.39259E-05-8.78186E-07-1.88571E-19-3.86856E-20
 -1      1442 1.13976E-04-3.43949E-05-3.41008E-05-2.04410E-06 6.29015E-19-1.32725E-18
 -1      1443 1.12063E-04-3.37363E-05-3.35673E-05-2.15794E-06 3.83713E-19-7.30275E-19
 -1      1444 1.12427E-04-3.41841E-05-3.34902E-05-3.24305E-06 1.96119E-18 3.45695E-19
 -1      1445 1.10392E-04-3.31883E-05-3.30883E-05-2.46318E-06 1.36521E-19-8.93329E-19
 -1      1446 1.08087E-04-3.24275E-05-3.24317E-05-2.48410E-06 7.60744E-19-9.14001E-20
 -1      1447 1.09383E-04-3.30017E-05-3.27223E-05-4.46667E-06 4.08273E-19 2.03543E-18
 -1      1448 1.06332E-04-3.18785E-05-3.19111E-05-2.46631E-06 1.45437E-18-9.55956E-19
 -1      1449 1.04035E-04-3.11339E-05-3.12514E-05-2.42615E-06 8.07955E-19 7.95192E-19
 -1      1450 1.05947E-04-3.17777E-05-3.17943E-05-4.78492E-06 9.79192E-19 2.08449E-18
 -1      1451 1.02404E-04-3.06316E-05-3.07632E-05-2.17677E-06-6.23573E-19-3.00326E-19
 -1      1452 1.00400E-04-2.99832E-05-3.01893E-05-2.09095E-06-1.74586E-19-3.51466E-19
 -1      1453 1.02582E-04-3.06305E-05-3.08574E-05-4.45312E-06-1.16202E-20 7.02865E-19
 -1      1454 9.90428E-05-2.95595E-05-2.97884E-05-1.65338E-06 1.65110E-18-8.42639E-19
 -1      1455 9.75712E-05-2.90780E-05-2.93677E-05-1.51927E-06 1.16221E-18 8.28094E-19
 -1      1456 9.96176E-05-2.96236E-05-3.00292E-05-3.62915E-06 5.05606E-19 2.62921E-19
 -1      1457 9.65703E-05-2.87390E-05-2.90842E-05-9.01953E-07 2.30039E-20 1.05749E-18
 -1      1458 9.58374E-05-2.85350E-05-2.88448E-05-7.26127E-07-5.22464E-20 1.02579E-18
 -1      1459 9.72735E-05-2.87932E-05-2.93859E-05-2.39012E-06 8.94076E-19-9.16336E-19
 -1      1460 9.52183E-05-2.84937E-05-2.85886E-05 2.57127E-08-1.30221E-18 1.04276E-18
 -1      1461 9.55843E-05-2.83025E-05-2.88522E-05-6.99961E-07-7.25459E-19-4.64705E-19
 -1      1462 9.65615E-05-2.83589E-05-2.97678E-05 2.99819E-06 1.03068E-18 5.35380E-18
 -1      1463 1.02523E-04-2.93946E-05-3.21519E-05 4.46541E-06 9.55453E-19 7.09814E-18
 -1      1464 1.02313E-04-2.67140E-05-3.27020E-05 1.27877E-05 1.92531E-18 4.08926E-18
 -1      1465 9.20105E-05-2.74232E-05-2.77557E-05 1.15442E-06 7.32273E-19 3.38003E-18
 -1      1466 9.39598E-05-2.75792E-05-2.86707E-05 1.47633E-06 7.08940E-19 4.60105E-18
 -1      1467 9.64708E-05-2.80254E-05-2.95290E-05 4.87223E-06 1.58872E-18 2.65919E-18
 -1      1468 9.01727E-05-2.69969E-05-2.70553E-05 3.34414E-07 5.08617E-19 1.94458E-18
 -1      1469 9.07905E-05-2.70154E-05-2.73288E-05 4.97177E-07 5.05255E-19 2.82131E-18
 -1      1470 9.30222E-05-2.75729E-05-2.80927E-05 1.85656E-06 1.14052E-18 1.58292E-18
 -1      1471 8.96498E-05-2.68771E-05-2.68779E-05-5.21582E-08 3.95571E-19 8.32673E-19
 -1      1472 8.96904E-05-2.68158E-05-2.69070E-05 3.68306E-08 3.90648E-19 1.49208E-18
 -1      1473 9.14646E-05-2.73004E-05-2.75076E-05 5.23066E-07 8.90549E-19 5.87364E-19
 -1      1474 8.97755E-05-2.69277E-05-2.69179E-05-2.39208E-07 2.28744E-19 1.81384E-19
 -1      1475 8.95506E-05-2.68213E-05-2.68538E-05-1.89103E-07 2.14773E-19 6.08501E-19
 -1      1476 9.09282E-05-2.72181E-05-2.73100E-05-1.26350E-07 5.57632E-19 1.44386E-19
 -1      1477 9.02217E-05-2.70681E-05-2.70542E-05-3.22254E-07 3.03206E-19-4.07807E-19
 -1      1478 8.98786E-05-2.69421E-05-2.69538E-05-2.94721E-07 1.85828E-19-5.39256E-20
 -1      1479 9.09408E-05-2.72596E-05-2.72977E-05-4.44849E-07 3.60096E-19-5.51872E-19
 -1      1480 9.08096E-05-2.72483E-05-2.72317E-05-3.46961E-07 2.48679E-19-9.71309E-19
 -1      1481 9.04259E-05-2.71192E-05-2.71193E-05-3.33349E-07 2.39760E-19-7.36627E-19
 -1      1482 9.12406E-05-2.73701E-05-2.73779E-05-5.85217E-07 4.79737E-19-1.11260E-18
 -1      1483 9.14378E-05-2.74388E-05-2.74209E-05-3.38613E-07 1.16166E-19-1.36661E-18
 -1      1484 9.10564E-05-2.73163E-05-2.73089E-05-3.33660E-07 9.15116E-20-1.14193E-18
 -1      1485 9.16776E-05-2.75125E-05-2.75028E-05-6.24757E-07 2.87333E-19-1.41686E-18
 -1      1486 9.20491E-05-2.76229E-05-2.76052E-05-3.12625E-07 2.68953E-19-1.90706E-18
 -1      1487 9.16934E-05-2.75119E-05-2.75004E-05-3.12890E-07 2.52837E-19-1.47084E-18
 -1      1488 9.21640E-05-2.76642E-05-2.76451E-05-6.07424E-07 3.43813E-19-1.76035E-18
 -1      1489 9.26139E-05-2.77921E-05-2.77759E-05-2.79006E-07 3.06214E-19-2.15171E-18
 -1      1490 9.22946E-05-2.76946E-05-2.76815E-05-2.82131E-07 1.03083E-19-1.90799E-18
 -1      1491 9.26495E-05-2.78120E-05-2.77890E-05-5.60436E-07 3.15077E-19-2.15084E-18
 -1      1492 9.31206E-05-2.79431E-05-2.79292E-05-2.44509E-07 1.53698E-19-2.84965E-18
 -1      1493 9.28405E-05-2.78589E-05-2.78461E-05-2.48818E-07 3.16502E-19-2.53949E-18
 -1      1494 9.31075E-05-2.79490E-05-2.79260E-05-5.01620E-07 4.99330E-19-1.99407E-18
 -1      1495 9.35700E-05-2.80765E-05-2.80656E-05-2.13841E-07 3.13084E-19-3.42016E-18
 -1      1496 9.33263E-05-2.80040E-05-2.79929E-05-2.18096E-07 2.99802E-19-3.04450E-18
 -1      1497 9.35275E-05-2.80730E-05-2.80525E-05-4.43120E-07 5.21490E-19-2.51572E-18
 -1      1498 9.39718E-05-2.81952E-05-2.81877E-05-1.90446E-07 1.71053E-19-3.92405E-18
 -1      1499 9.37574E-05-2.81318E-05-2.81235E-05-1.93679E-07 6.26041E-20-3.72614E-18
 -1      1500 9.39103E-05-2.81847E-05-2.81686E-05-3.93536E-07 3.46096E-19-2.89936E-18
 -1      1501 9.43422E-05-2.83042E-05-2.83005E-05-1.77028E-07 2.89890E-20-4.40463E-18
 -1      1502 9.41471E-05-2.82464E-05-2.82418E-05-1.78423E-07 1.21025E-19-3.83021E-18
 -1      1503 9.42645E-05-2.82868E-05-2.82768E-05-3.59293E-07 3.50649E-19-3.00875E-18
 -1      1504 9.47030E-05-2.84099E-05-2.84105E-05-1.75929E-07-4.31605E-20-4.30165E-18
 -1      1505 9.45146E-05-2.83536E-05-2.83536E-05-1.74730E-07 1.40540E-19-4.19263E-18
 -1      1506 9.46052E-05-2.83841E-05-2.83815E-05-3.45582E-07 5.14003E-20-3.00167E-18
 -1      1507 9.50807E-05-2.85204E-05-2.85257E-05-1.89384E-07-2.42969E-19-4.15180E-18
 -1      1508 9.48838E-05-2.84607E-05-2.84660E-05-1.84828E-07-2.12807E-19-4.31236E-18
 -1      1509 9.49524E-05-2.84826E-05-2.84886E-05-3.57007E-07-1.12205E-19-2.40233E-18
 -1      1510 9.55063E-05-2.86449E-05-2.86554E-05-2.19655E-07 3.02641E-19-4.05971E-18
 -1      1511 9.52836E-05-2.85762E-05-2.85879E-05-2.10931E-07 1.30619E-19-4.02856E-18
 -1      1512 9.53307E-05-2.85897E-05-2.86056E-05-3.97987E-07 9.53822E-21-2.78745E-18
 -1      1513 9.60158E-05-2.87942E-05-2.88105E-05-2.69042E-07-3.24891E-19-3.76934E-18
 -1      1514 9.57471E-05-2.87101E-05-2.87292E-05-2.55274E-07 6.38046E-21-4.07332E-18
 -1      1515 9.57689E-05-2.87139E-05-2.87412E-05-4.72927E-07 1.92899E-19-2.34015E-18
 -1      1516 9.66490E-05-2.89802E-05-2.90030E-05-3.39709E-07-2.45660E-20-3.65674E-18
 -1      1517 9.63120E-05-2.88736E-05-2.89011E-05-3.19990E-07-4.28815E-20-3.73368E-18
 -1      1518 9.62995E-05-2.88650E-05-2.89051E-05-5.86073E-07-7.74274E-20-2.57896E-18
 -1      1519 9.74494E-05-2.92163E-05-2.92457E-05-4.33255E-07-6.16390E-20-3.59123E-18
 -1      1520 9.70196E-05-2.90793E-05-2.91162E-05-4.06740E-07-1.67528E-19-3.57149E-18
 -1      1521 9.69582E-05-2.90539E-05-2.91081E-05-7.40980E-07-2.59573E-19-2.53060E-18
 -1      1522 9.84618E-05-2.95161E-05-2.95520E-05-5.49892E-07 1.24704E-19-4.05249E-18
 -1      1523 9.79139E-05-2.93407E-05-2.93874E-05-5.16011E-07 2.83182E-19-3.52678E-18
 -1      1524 9.77825E-05-2.92923E-05-2.93610E-05-9.39364E-07 1.04470E-19-2.49902E-18
 -1      1525 9.97277E-05-2.98928E-05-2.99339E-05-6.87046E-07 4.66225E-19-4.93374E-18
 -1      1526 9.90379E-05-2.96714E-05-2.97275E-05-6.45890E-07 2.40046E-19-4.22756E-18
 -1      1527 9.88083E-05-2.95919E-05-2.96742E-05-1.17909E-06 4.76292E-19-2.84252E-18
 -1      1528 1.01277E-04-3.03567E-05-3.03997E-05-8.37145E-07-2.28706E-19-5.91704E-18
 -1      1529 1.00428E-04-3.00838E-05-3.01468E-05-7.90115E-07 2.41313E-19-5.84308E-18
 -1      1530 1.00066E-04-2.99634E-05-3.00556E-05-1.45089E-06 6.29006E-19-3.88868E-18
 -1      1531 1.03116E-04-3.09113E-05-3.09498E-05-9.84354E-07-7.04233E-19-4.74912E-18
 -1      1532 1.02104E-04-3.05863E-05-3.06502E-05-9.35177E-07-7.81800E-19-5.61502E-18
 -1      1533 1.01569E-04-3.04144E-05-3.05079E-05-1.73342E-06-8.55820E-19-3.67421E-18
 -1      1534 1.05204E-04-3.15478E-05-3.15704E-05-1.10027E-06-3.86074E-19-3.85946E-18
 -1      1535 1.04053E-04-3.11786E-05-3.12320E-05-1.05644E-06-4.07843E-19-4.51355E-18
 -1      1536 1.03306E-04-3.09456E-05-3.10243E-05-1.98644E-06-6.80595E-19-3.17810E-18
 -1      1537 1.07429E-04-3.22358E-05-3.22245E-05-1.13926E-06-2.14745E-19-3.19239E-18
 -1      1538 1.06205E-04-3.18453E-05-3.18688E-05-1.11378E-06-2.06898E-19-3.25273E-18
 -1      1539 1.05217E-04-3.15458E-05-3.15827E-05-2.14274E-06-4.87219E-19-2.15086E-18
 -1      1540 1.09569E-04-3.29126E-05-3.28427E-05-1.03599E-06 2.52753E-20-3.39711E-18
 -1      1541 1.08404E-04-3.25455E-05-3.25103E-05-1.04868E-06 9.85089E-20-3.11582E-18
 -1      1542 1.07172E-04-3.21844E-05-3.21390E-05-2.10150E-06 3.32235E-19-1.79016E-18
 -1      1543 1.11264E-04-3.34717E-05-3.33155E-05-7.10589E-07-4.83987E-19-2.82372E-18
 -1      1544 1.10374E-04-3.32013E-05-3.30707E-05-7.87366E-07-5.26977E-19-3.52498E-18
 -1      1545 1.08947E-04-3.28009E-05-3.26215E-05-1.73006E-06-6.26699E-19-1.56849E-18
 -1      1546 1.12017E-04-3.37575E-05-3.34973E-05-9.14212E-08-1.77910E-20-3.11801E-18
 -1      1547 1.11699E-04-3.36860E-05-3.34257E-05-2.58111E-07-1.42249E-19-2.74353E-18
 -1      1548 1.10212E-04-3.32950E-05-3.29308E-05-8.87564E-07-3.67506E-19-1.87746E-18
 -1      1549 1.11263E-04-3.35805E-05-3.32328E-05 8.34349E-07-2.49243E-19-3.16060E-18
 -1      1550 1.11853E-04-3.38234E-05-3.34251E-05 5.67254E-07 5.25425E-21-3.30057E-18
 -1      1551 1.10546E-04-3.35203E-05-3.29527E-05 5.11306E-07-1.49296E-19-1.60720E-18
 -1      1552 1.08557E-04-3.27722E-05-3.24164E-05 1.94486E-06-3.50136E-19-2.30880E-18
 -1      1553 1.10307E-04-3.34153E-05-3.29320E-05 1.60649E-06-5.94816E-19-3.51490E-18
 -1      1554 1.09526E-04-3.32989E-05-3.25911E-05 2.38346E-06-5.86226E-19-1.78054E-18
 -1      1555 1.03892E-04-3.12908E-05-3.10778E-05 2.92369E-06-5.37833E-19-9.92934E-19
 -1      1556 1.06780E-04-3.23194E-05-3.18928E-05 2.60305E-06-3.76930E-19-2.01504E-18
 -1      1557 1.06913E-04-3.24798E-05-3.18217E-05 4.34815E-06-6.97532E-19-1.48204E-18
 -1      1558 9.80148E-05-2.93521E-05-2.94510E-05 3.29835E-06-1.70525E-20-8.13469E-19
 -1      1559 1.01554E-04-3.05794E-05-3.04181E-05 3.13586E-06-9.07806E-20-9.11884E-19
 -1      1560 1.02904E-04-3.10508E-05-3.07454E-05 5.69400E-06-2.61990E-19-9.19084E-19
 -1      1561 9.24929E-05-2.74862E-05-2.79620E-05 2.67292E-06-1.67170E-19-1.40009E-18
 -1      1562 9.57229E-05-2.85520E-05-2.88221E-05 2.78863E-06 8.43327E-20-8.57197E-19
 -1      1563 9.83427E-05-2.92808E-05-2.96062E-05 5.59667E-06-1.05568E-19-1.16413E-18
 -1      1564 8.92038E-05-2.63688E-05-2.70813E-05 1.06760E-06 5.18397E-19-2.45996E-18
 -1      1565 9.10199E-05-2.68774E-05-2.75570E-05 1.46479E-06 1.23362E-19-2.07984E-18
 -1      1566 9.46168E-05-2.77425E-05-2.87274E-05 3.65391E-06 6.26976E-19-1.19430E-18
 -1      1567 8.93908E-05-2.64593E-05-2.71076E-05-9.45906E-07 5.84651E-19-3.77718E-18
 -1      1568 8.91091E-05-2.62016E-05-2.70351E-05-4.17847E-07 4.88050E-19-3.36146E-18
 -1      1569 9.30858E-05-2.70777E-05-2.83841E-05 3.53820E-07 7.67438E-19-1.64271E-18
 -1      1570 9.28980E-05-2.76918E-05-2.80073E-05-2.52250E-06 1.01167E-19-4.52427E-18
 -1      1571 9.06765E-05-2.67904E-05-2.74268E-05-2.08748E-06 4.05947E-19-4.13437E-18
 -1      1572 9.43188E-05-2.75975E-05-2.86756E-05-3.00877E-06 7.87966E-19-1.90819E-18
 -1      1573 9.82479E-05-2.95123E-05-2.94316E-05-3.09156E-06-7.56199E-19-4.23294E-18
 -1      1574 9.49965E-05-2.83440E-05-2.85658E-05-2.89987E-06-5.62835E-19-5.28252E-18
 -1      1575 9.77128E-05-2.90321E-05-2.94772E-05-5.08758E-06-2.50325E-19-3.00327E-18
 -1      1576 1.03527E-04-3.12444E-05-3.08923E-05-2.65390E-06-3.60935E-19-1.52093E-18
 -1      1577 1.00375E-04-3.02095E-05-3.00326E-05-2.71006E-06-8.01674E-19-3.27696E-18
 -1      1578 1.01874E-04-3.07215E-05-3.04980E-05-5.30658E-06-1.42393E-18-2.50677E-18
 -1      1579 1.07293E-04-3.24218E-05-3.19874E-05-1.61719E-06-7.25064E-19-3.13455E-19
 -1      1580 1.05068E-04-3.17672E-05-3.13604E-05-1.82710E-06-3.16923E-19-1.07608E-18
 -1      1581 1.05409E-04-3.20582E-05-3.14152E-05-4.00750E-06-1.05154E-18-5.46495E-19
 -1      1582 1.08959E-04-3.28923E-05-3.25176E-05-4.57713E-07 8.61393E-19 2.50007E-20
 -1      1583 1.07979E-04-3.26740E-05-3.22255E-05-7.10363E-07-1.65741E-19-2.67861E-19
 -1      1584 1.07476E-04-3.27447E-05-3.19971E-05-1.99471E-06-1.28127E-19-4.87891E-19
 -1      1585 1.08655E-04-3.27372E-05-3.24840E-05 5.04513E-07-4.21591E-19-9.73727E-19
 -1      1586 1.08820E-04-3.28822E-05-3.25139E-05 2.84096E-07 1.98642E-19-3.11291E-19
 -1      1587 1.07882E-04-3.27868E-05-3.21546E-05-1.22830E-08 4.59383E-19-1.59719E-18
 -1      1588 1.06891E-04-3.21417E-05-3.20122E-05 1.14229E-06 1.16534E-18-1.68766E-18
 -1      1589 1.07890E-04-3.25272E-05-3.22847E-05 9.85970E-07 9.02044E-19-7.34510E-19
 -1      1590 1.06887E-04-3.23483E-05-3.19221E-05 1.50886E-06 6.61837E-19-1.31793E-18
 -1      1591 1.04281E-04-3.13025E-05-3.12747E-05 1.45515E-06 7.97644E-19-3.47839E-18
 -1      1592 1.05751E-04-3.18079E-05-3.16889E-05 1.36684E-06 1.08506E-18-2.76845E-18
 -1      1593 1.04944E-04-3.16244E-05-3.14070E-05 2.43352E-06 2.11495E-18-2.70777E-18
 -1      1594 1.01386E-04-3.03884E-05-3.04418E-05 1.48987E-06 7.94156E-19-4.44698E-18
 -1      1595 1.03001E-04-3.09138E-05-3.09013E-05 1.46383E-06 2.79529E-19-3.72954E-18
 -1      1596 1.02527E-04-3.07802E-05-3.07416E-05 2.79434E-06 1.02871E-18-3.69808E-18
 -1      1597 9.86892E-05-2.95383E-05-2.96640E-05 1.28784E-06 3.09051E-19-5.70749E-18
 -1      1598 1.00169E-04-3.00007E-05-3.00844E-05 1.32119E-06 5.80808E-19-4.95894E-18
 -1      1599 1.00056E-04-2.99389E-05-3.00537E-05 2.67091E-06 1.06547E-18-3.27300E-18
 -1      1600 9.66080E-05-2.88768E-05-2.90628E-05 8.65002E-07-2.20331E-19-5.74575E-18
 -1      1601 9.76996E-05-2.91955E-05-2.93754E-05 9.65764E-07 2.06504E-19-4.96883E-18
 -1      1602 9.78754E-05-2.91899E-05-2.94521E-05 2.12425E-06 3.81698E-19-2.98060E-18
 -1      1603 9.54756E-05-2.85290E-05-2.86919E-05 2.89730E-07-3.27416E-19-5.20339E-18
 -1      1604 9.59597E-05-2.86298E-05-2.88681E-05 4.36200E-07-1.87345E-19-6.16948E-18
 -1      1605 9.62459E-05-2.86203E-05-2.90032E-05 1.20777E-06 3.41124E-19-3.04658E-18
 -1      1606 9.52327E-05-2.85142E-05-2.85805E-05-2.42330E-09-2.79540E-18-3.48691E-18
 -1      1607 9.50867E-05-2.75127E-05-2.89773E-05 7.25069E-07-3.08864E-18 8.82888E-19
 -1      1608 9.52606E-05-2.80752E-05-2.87889E-05 5.69683E-07-3.84933E-18 6.03408E-19
 -1      1609 9.44659E-05-2.56162E-05-2.95165E-05 1.28816E-06-2.20189E-19 2.00439E-18
 -1      1610 9.48378E-05-2.67410E-05-2.91962E-05 1.18919E-06-2.38535E-18 1.59177E-18
 -1      1611 9.50570E-05-2.69346E-05-2.92207E-05 1.86824E-06-5.82920E-19 1.74249E-18
 -1      1612 9.36457E-05-2.30880E-05-3.02420E-05 1.65155E-06-3.91250E-19 1.24509E-18
 -1      1613 9.41343E-05-2.45798E-05-2.98176E-05 1.59708E-06-2.92908E-19 2.37682E-19
 -1      1614 9.43917E-05-2.51211E-05-2.97096E-05 2.79408E-06-2.44855E-19 1.99662E-18
 -1      1615 9.27304E-05-2.02428E-05-3.10659E-05 1.78973E-06-4.27818E-19-2.78471E-19
 -1      1616 9.32656E-05-2.18864E-05-3.05956E-05 1.78058E-06-1.15636E-18 2.23372E-18
 -1      1617 9.36108E-05-2.28908E-05-3.03188E-05 3.31801E-06 5.79404E-19 6.48558E-19
 -1      1618 9.18428E-05-1.74857E-05-3.18658E-05 1.69677E-06-3.39284E-18 2.10088E-19
 -1      1619 9.23491E-05-1.90384E-05-3.14212E-05 1.73229E-06-1.53604E-18-1.63036E-18
 -1      1620 9.27806E-05-2.04934E-05-3.09760E-05 3.40188E-06-1.74249E-18-2.04066E-18
 -1      1621 9.10669E-05-1.50916E-05-3.25582E-05 1.36941E-06-1.89403E-18 1.19260E-18
 -1      1622 9.14929E-05-1.63887E-05-3.21875E-05 1.45090E-06-3.90633E-18 1.46014E-18
 -1      1623 9.19854E-05-1.82007E-05-3.16033E-05 3.03962E-06-3.19471E-18 1.66538E-19
 -1      1624 9.05346E-05-1.34631E-05-3.30269E-05 8.33330E-07-9.35191E-19-1.18943E-18
 -1      1625 9.08060E-05-1.42824E-05-3.27937E-05 9.52973E-07-8.26334E-19 3.25995E-19
 -1      1626 9.13171E-05-1.62982E-05-3.21185E-05 2.24176E-06-1.65087E-18 1.20545E-18
 -1      1627 9.03351E-05-1.28659E-05-3.31966E-05 1.52581E-07 7.11171E-19 1.36698E-18
 -1      1628 9.04045E-05-1.30681E-05-3.31400E-05 2.94831E-07-3.46728E-19-6.45763E-20
 -1      1629 9.08852E-05-1.50914E-05-3.24405E-05 1.08846E-06 2.27450E-19-1.18297E-19
 -1      1630 9.05121E-05-1.34258E-05-3.30328E-05-5.74333E-07 6.21616E-19-5.03763E-19
 -1      1631 9.03613E-05-1.29588E-05-3.31671E-05-4.31416E-07 8.88106E-19 1.16998E-18
 -1      1632 9.07665E-05-1.47838E-05-3.25177E-05-2.69366E-07 4.82484E-19 6.24779E-19
 -1      1633 9.10493E-05-1.50894E-05-3.25514E-05-1.23315E-06-2.77840E-19-1.06445E-18
 -1      1634 9.06962E-05-1.40060E-05-3.28614E-05-1.11288E-06 5.96708E-19-9.68688E-19
 -1      1635 9.09914E-05-1.54496E-05-3.23323E-05-1.62773E-06-2.75666E-20-7.48552E-19
 -1      1636 9.18571E-05-1.75788E-05-3.18327E-05-1.71194E-06-3.17214E-19 3.01203E-19
 -1      1637 9.13587E-05-1.60586E-05-3.22665E-05-1.63490E-06 6.92264E-19-8.71496E-19
 -1      1638 9.15311E-05-1.69945E-05-3.19117E-05-2.76371E-06-2.20149E-19-1.68004E-18
 -1      1639 9.28461E-05-2.06123E-05-3.09601E-05-1.94639E-06-9.07702E-19-1.02364E-19
 -1      1640 9.22587E-05-1.88303E-05-3.14666E-05-1.92183E-06-1.91138E-19 5.48867E-19
 -1      1641 9.23064E-05-1.92047E-05-3.13126E-05-3.50369E-06 1.05233E-18 1.59464E-19
 -1      1642 9.38539E-05-2.36822E-05-3.00827E-05-1.87738E-06 4.31802E-19 1.76579E-18
 -1      1643 9.32760E-05-2.19457E-05-3.05724E-05-1.91310E-06-1.04979E-18 8.87151E-19
 -1      1644 9.32241E-05-2.17867E-05-3.06181E-05-3.72138E-06 1.08329E-18 3.60152E-20
 -1      1645 9.47180E-05-2.62509E-05-2.93464E-05-1.46944E-06 4.57398E-19 3.36100E-20
 -1      1646 9.42472E-05-2.48925E-05-2.97349E-05-1.57754E-06 2.88613E-19 1.08339E-18
 -1      1647 9.41563E-05-2.43470E-05-2.99383E-05-3.32790E-06 8.36875E-20 1.27401E-18
 -1      1648 9.53154E-05-2.77370E-05-2.89450E-05-1.09153E-06-1.22267E-18-2.15650E-18
 -1      1649 9.50759E-05-2.70022E-05-2.91839E-05-1.37371E-06 1.87270E-19-2.25114E-18
 -1      1650 9.50556E-05-2.63473E-05-2.94740E-05-2.75535E-06-7.44714E-19-6.93409E-19
 -1      1651 9.59690E-05-2.77829E-05-2.92240E-05-2.13428E-06-9.16028E-19-2.47568E-18
 -1      1652 2.05022E-05-6.59822E-05 1.37783E-05-4.92758E-06 1.62207E-18 2.42506E-18
 -1      1653 2.37367E-05-7.59462E-05 1.59606E-05 2.53259E-06 1.65066E-19 1.13121E-18
 -1      1654 1.98297E-05-3.93531E-05 4.13680E-06 3.15132E-06 2.82740E-18-1.87406E-19
 -1      1655 2.45168E-05-6.22056E-05 1.00929E-05-3.30553E-07 2.74269E-18 8.82502E-19
 -1      1656 3.85056E-05-1.43769E-05-1.20029E-05 3.05327E-05 2.14638E-18 2.37466E-18
 -1      1657 3.22293E-05-3.47432E-05-3.23642E-06 1.29313E-05 1.98968E-18 1.51322E-18
 -1      1658 8.58337E-05-6.11838E-06-3.28998E-05 6.20313E-05 1.45690E-18 3.94548E-18
 -1      1659 5.67850E-05-1.12954E-05-2.15939E-05 3.74213E-05 1.15112E-18 2.15739E-18
 -1      1660 1.48723E-04-1.91541E-05-5.16632E-05 7.72114E-05 2.47757E-18 1.89735E-19
 -1      1661 1.07594E-04-5.93972E-06-4.27054E-05 6.68953E-05 2.78843E-18 2.17518E-18
 -1      1662 2.14574E-04-4.57997E-05-6.63372E-05 6.41285E-05 1.73112E-19-1.81434E-18
 -1      1663 1.72107E-04-2.47257E-05-5.94728E-05 7.56323E-05 1.27796E-18-5.59042E-19
 -1      1664 2.53575E-04-6.46820E-05-7.41953E-05 1.91014E-05-3.11285E-19-9.40630E-19
 -1      1665 2.32061E-04-5.22756E-05-7.11674E-05 5.12136E-05-3.95564E-19-1.25107E-18
 -1      1666 2.42352E-04-5.80019E-05-7.31675E-05-3.30331E-05 7.94305E-19-3.00781E-18
 -1      1667 2.53718E-04-6.42024E-05-7.46515E-05 1.40353E-06 6.72968E-19-1.95633E-18
 -1      1668 1.88998E-04-3.30285E-05-6.30082E-05-6.49142E-05 1.55939E-18-4.28090E-18
 -1      1669 2.27410E-04-5.27310E-05-6.91556E-05-4.52622E-05 1.33259E-18-3.63674E-18
 -1      1670 1.24056E-04-8.57474E-06-4.78710E-05-7.24830E-05 2.16798E-18-3.57109E-18
 -1      1671 1.67657E-04-2.59956E-05-5.63413E-05-7.66218E-05 1.62037E-18-3.80657E-18
 -1      1672 7.44429E-05-9.12692E-06-2.90407E-05-4.75543E-05 3.96157E-18-2.93836E-18
 -1      1673 1.05940E-04-1.10449E-05-3.88182E-05-6.62683E-05 2.79606E-18-3.61768E-18
 -1      1674 3.56446E-05-2.06538E-05-1.00758E-05-2.03292E-05 5.83775E-18-2.49621E-18
 -1      1675 4.90882E-05-5.12142E-06-1.96669E-05-4.19583E-05 4.51130E-18-2.92735E-18
 -1      1676 2.62346E-05-5.07811E-05 5.37858E-06-4.35458E-06 7.43526E-18-1.94161E-18
 -1      1677 2.49442E-05-2.71122E-05-2.10346E-06-1.39964E-05 6.21468E-18-1.50518E-18
 -1      1678 2.36174E-05-7.19194E-05 1.45127E-05-1.16507E-06 4.01324E-18-2.68827E-18
 -1      1679 1.88385E-05-5.60524E-05 1.08924E-05 3.45042E-06 6.65683E-18-3.00188E-18
 -1      1680 2.18471E-05-7.27931E-05 1.55993E-05-6.09477E-06-8.51692E-19-2.95784E-18
 -1      1681 2.26009E-05-7.49281E-05 1.61528E-05 3.39041E-06 2.95773E-18-2.38313E-18
 -1      1682 1.84201E-05-5.22699E-05 9.24204E-06-4.91807E-06-7.43356E-18-5.63409E-18
 -1      1683 2.39505E-05-7.06518E-05 1.34738E-05-2.53883E-06-2.31875E-18-4.10970E-18
 -1      1684 2.86510E-05-2.33501E-05-5.11347E-06 1.79664E-05-1.05998E-17-8.16540E-18
 -1      1685 2.75905E-05-4.62951E-05 2.89315E-06 5.10230E-06-8.12305E-18-5.58046E-18
 -1      1686 6.00766E-05-6.41475E-06-2.33867E-05 4.73803E-05-1.07361E-17-9.39360E-18
 -1      1687 4.25811E-05-1.86370E-05-1.35719E-05 2.50939E-05-1.12554E-17-8.79898E-18
 -1      1688 1.26717E-04-1.67648E-05-4.46203E-05 6.96137E-05-7.32514E-18-6.12913E-18
 -1      1689 8.55667E-05-9.10905E-06-3.34718E-05 5.14382E-05-1.00407E-17-8.13660E-18
 -1      1690 1.92991E-04-3.76494E-05-6.17080E-05 6.82984E-05-3.11772E-18-4.12336E-18
 -1      1691 1.49007E-04-1.77031E-05-5.39149E-05 7.21730E-05-5.35240E-18-6.04612E-18
 -1      1692 2.39971E-04-5.78873E-05-7.19603E-05 3.01051E-05-9.03149E-19-4.01959E-18
 -1      1693 2.09192E-04-4.19797E-05-6.72157E-05 5.49258E-05-2.10080E-18-4.35036E-18
 -1      1694 2.56410E-04-6.45838E-05-7.53547E-05-1.78714E-05 7.10661E-19-4.14241E-18
 -1      1695 2.54938E-04-6.40776E-05-7.52211E-05 1.85852E-05 5.31725E-19-3.07325E-18
 -1      1696 2.19292E-04-4.58054E-05-6.90178E-05-5.90872E-05 1.76818E-20-3.31613E-18
 -1      1697 2.47614E-04-6.13122E-05-7.31491E-05-3.33074E-05 7.30566E-20-4.35206E-18
 -1      1698 1.57326E-04-1.94236E-05-5.60480E-05-7.61801E-05-4.15046E-20-1.18331E-18
 -1      1699 2.01041E-04-3.98105E-05-6.35740E-05-7.06834E-05 3.06202E-19-1.96596E-18
 -1      1700 9.24281E-05-3.20343E-06-3.81140E-05-6.23751E-05-2.96292E-18 9.85946E-19
 -1      1701 1.32535E-04-1.33445E-05-4.77649E-05-7.75932E-05-9.30889E-19-1.53906E-18
 -1      1702 4.91808E-05-1.16518E-05-1.87483E-05-3.30803E-05-4.94667E-18 2.50214E-18
 -1      1703 7.15555E-05-3.64432E-06-2.86486E-05-5.61148E-05-3.25261E-18 1.85416E-18
 -1      1704 2.72515E-05-3.66337E-05-1.09647E-06-6.61763E-06-4.39356E-18 2.81977E-18
 -1      1705 3.11869E-05-1.42716E-05-9.70284E-06-2.36741E-05-4.80945E-18 3.80148E-18
 -1      1706 2.44384E-05-6.55525E-05 1.11295E-05 2.97187E-06-3.51349E-18 2.52649E-18
 -1      1707 1.93802E-05-4.38312E-05 5.66303E-06 7.62388E-07-4.63412E-18 2.00821E-18
 -1      1708 2.44477E-05-7.89502E-05 1.65619E-05-1.51922E-06-9.83935E-19 1.16721E-18
 -1      1709 2.14219E-05-7.04064E-05 1.46876E-05 7.19423E-06-3.20517E-18 2.14024E-18
 -1      1710 1.21585E-04-3.38056E-05-3.65769E-05 4.38265E-05 5.45489E-19 7.19978E-19
 -1      1711 7.98467E-05-3.92980E-05-1.83361E-05 4.10177E-05 1.76183E-18 1.63054E-18
 -1      1712 9.53791E-05-2.84263E-05-2.87048E-05 2.74376E-07-3.68624E-18-2.18165E-18
 -1      1713 9.55037E-05-2.80384E-05-2.89229E-05 9.73608E-07-8.23623E-19-4.29785E-19
 -1      1714 1.91739E-05-4.76691E-05 8.17383E-06 1.52574E-05 1.41624E-18 1.64113E-18
 -1      1715 4.22386E-05-4.27907E-05-2.41688E-06 3.07899E-05 2.71051E-18 5.46230E-19
 -1      1716 1.21056E-05-5.14410E-05 1.22298E-05 1.57718E-06-9.20301E-19 2.76429E-18
 -1      1717 1.63018E-04-3.11717E-05-5.33537E-05 4.22641E-05 1.61286E-18-1.31205E-18
 -1      1718 1.98565E-04-3.42264E-05-6.54791E-05 2.92100E-05 1.19855E-19-7.25484E-19
 -1      1719 2.12460E-04-3.49535E-05-7.05060E-05 5.51559E-06 8.08493E-19-6.70744E-19
 -1      1720 1.99644E-04-3.20659E-05-6.70679E-05-1.60198E-05 1.92488E-18-3.61005E-18
 -1      1721 1.72828E-04-3.10207E-05-5.71029E-05-3.56779E-05 8.71491E-19-3.03915E-18
 -1      1722 1.34720E-04-3.35596E-05-4.18635E-05-4.20254E-05 2.09471E-18-2.47503E-18
 -1      1723 9.38820E-05-3.61227E-05-2.48450E-05-4.22525E-05 3.53382E-18-1.76395E-18
 -1      1724 5.32910E-05-3.92636E-05-8.16403E-06-3.44865E-05 4.53247E-18-4.23940E-19
 -1      1725 2.60433E-05-4.43455E-05 4.46329E-06-2.24342E-05 2.51526E-18-1.67649E-18
 -1      1726 1.22371E-05-4.85498E-05 1.12404E-05-6.24535E-06 1.19686E-18-4.52146E-18
 -1      1727 1.45190E-05-5.04213E-05 1.08213E-05 7.44384E-06-9.39360E-19-6.14649E-18
 -1      1728 3.07227E-05-4.46767E-05 2.64077E-06 2.33385E-05-4.13013E-18-6.30076E-18
 -1      1729 6.23678E-05-4.03621E-05-1.12204E-05 3.60414E-05-5.51757E-18-6.93445E-18
 -1      1730 1.06392E-04-3.83360E-05-2.88777E-05 4.14762E-05-6.48700E-18-4.15724E-18
 -1      1731 1.49668E-04-3.56781E-05-4.69126E-05 3.76055E-05-6.20558E-18-2.69865E-18
 -1      1732 1.84403E-04-3.24449E-05-6.11326E-05 2.66669E-05-2.88055E-18-3.05186E-18
 -1      1733 2.06096E-04-3.25226E-05-6.92403E-05 7.49874E-06-7.31836E-19-3.21322E-18
 -1      1734 2.12422E-04-3.49172E-05-7.03024E-05-1.09297E-05 2.37593E-19-2.88118E-18
 -1      1735 1.91930E-04-3.37963E-05-6.31018E-05-3.21255E-05-8.26069E-19-3.51349E-18
 -1      1736 1.54512E-04-3.11563E-05-4.99982E-05-4.51896E-05-1.13820E-18-9.93570E-19
 -1      1737 1.10825E-04-3.24041E-05-3.30342E-05-4.52218E-05-3.06287E-18-1.12740E-18
 -1      1738 6.93621E-05-3.64792E-05-1.55278E-05-3.81684E-05-2.67493E-18 1.64240E-18
 -1      1739 3.65423E-05-4.36087E-05-4.05023E-07-2.50169E-05-2.93920E-18 1.75955E-18
 -1      1740 1.82621E-05-5.09807E-05 9.41656E-06-1.19288E-05-2.02695E-18 2.96652E-18
 -1      1741 1.06039E-04-2.31665E-05-3.56004E-05-1.68577E-05-1.37373E-18 7.98540E-18
 -1      1742 8.91377E-05-1.05803E-05-3.37932E-05-1.33312E-05-2.27682E-18-8.79670E-19
 -1      1743 9.04788E-05-1.16336E-05-3.39333E-05-1.51449E-05-2.47461E-18-7.37977E-20
 -1      1744 9.24814E-05-1.38720E-05-3.38514E-05-1.60106E-05-2.39071E-18 8.45180E-19
 -1      1745 9.41954E-05-1.58173E-05-3.40949E-05-1.76717E-05-2.40240E-18 2.09577E-18
 -1      1746 9.34064E-05-1.63426E-05-3.30431E-05-1.37889E-05-2.50645E-18 4.22458E-19
 -1      1747 8.62142E-05-7.67319E-06-3.37319E-05-7.87379E-06-1.67984E-18-2.51926E-18
 -1      1748 8.66146E-05-7.97324E-06-3.37654E-05-9.26268E-06-1.88505E-18-2.29731E-18
 -1      1749 8.56052E-05-7.04116E-06-3.37298E-05-5.32750E-06-1.27974E-18-2.89565E-18
 -1      1750 8.58371E-05-7.21831E-06-3.37445E-05-6.63294E-06-1.50598E-18-2.70288E-18
 -1      1751 8.76018E-05-9.87272E-06-3.33451E-05-6.94138E-06-1.65991E-18-2.51893E-18
 -1      1752 8.52735E-05-6.68345E-06-3.37338E-05-2.89265E-06-9.11411E-19-3.06269E-18
 -1      1753 8.53930E-05-6.77764E-06-3.37394E-05-4.13364E-06-1.11370E-18-2.96443E-18
 -1      1754 8.69717E-05-9.16237E-06-3.33794E-05-4.54378E-06-1.27241E-18-2.81955E-18
 -1      1755 8.51440E-05-6.53570E-06-3.37377E-05-5.18311E-07-4.99444E-19-3.26519E-18
 -1      1756 8.51792E-05-6.56410E-06-3.37390E-05-1.72934E-06-6.66216E-19-3.16159E-18
 -1      1757 8.66420E-05-8.78376E-06-3.34002E-05-2.22032E-06-8.56766E-19-3.02022E-18
 -1      1758 8.51890E-05-6.57305E-06-3.37392E-05 1.84731E-06-1.02704E-19-3.39478E-18
 -1      1759 8.51477E-05-6.54022E-06-3.37376E-05 6.35302E-07-3.08318E-19-3.31196E-18
 -1      1760 8.65448E-05-8.67045E-06-3.34071E-05 6.54229E-08-4.46847E-19-3.18114E-18
 -1      1761 8.54180E-05-6.80263E-06-3.37395E-05 4.25602E-06 2.68514E-19-3.47955E-18
 -1      1762 8.52912E-05-6.70226E-06-3.37338E-05 3.01193E-06 8.41292E-20-3.43966E-18
 -1      1763 8.66596E-05-8.80318E-06-3.33995E-05 2.35232E-06 1.14389E-20-3.31509E-18
 -1      1764 8.58714E-05-7.25472E-06-3.37439E-05 6.71953E-06 6.51908E-19-3.43305E-18
 -1      1765 8.56352E-05-7.07298E-06-3.37296E-05 5.43131E-06 4.63844E-19-3.47123E-18
 -1      1766 8.70051E-05-9.19920E-06-3.33779E-05 4.65833E-06 4.22717E-19-3.36766E-18
 -1      1767 8.66800E-05-8.04304E-06-3.37632E-05 9.38284E-06 1.20416E-18-3.20816E-18
 -1      1768 8.62616E-05-7.72708E-06-3.37302E-05 7.96132E-06 8.83196E-19-3.32505E-18
 -1      1769 8.76532E-05-9.93032E-06-3.33425E-05 7.03559E-06 8.94018E-19-3.24527E-18
 -1      1770 8.80870E-05-9.38891E-06-3.38169E-05 1.22627E-05 1.70307E-18-2.78650E-18
 -1      1771 8.73497E-05-8.83180E-06-3.37457E-05 1.06694E-05 1.43915E-18-3.02952E-18
 -1      1772 8.87692E-05-1.11633E-05-3.32905E-05 9.51136E-06 1.42374E-18-2.94974E-18
 -1      1773 9.06252E-05-1.18390E-05-3.39254E-05 1.53110E-05 2.17327E-18-1.83266E-18
 -1      1774 8.92476E-05-1.07405E-05-3.37864E-05 1.35216E-05 1.88162E-18-2.41013E-18
 -1      1775 9.06607E-05-1.32236E-05-3.32060E-05 1.19841E-05 1.96018E-18-2.38501E-18
 -1      1776 9.58650E-05-1.70314E-05-3.39898E-05 1.76977E-05 2.41570E-18 1.15514E-19
 -1      1777 9.28477E-05-1.43409E-05-3.38241E-05 1.62016E-05 2.27242E-18-1.06816E-18
 -1      1778 9.39622E-05-1.68853E-05-3.30217E-05 1.39028E-05 2.34811E-18-1.26486E-18
 -1      1779 1.01911E-04-2.50903E-05-3.33552E-05 1.44282E-05 2.22044E-18 2.75085E-18
 -1      1780 9.80641E-05-1.96129E-05-3.36215E-05 1.69707E-05 2.30447E-18 1.02465E-18
 -1      1781 9.73172E-05-2.18508E-05-3.24240E-05 1.32558E-05 2.42453E-18 2.09508E-19
 -1      1782 9.87372E-05-2.61308E-05-3.13380E-05 9.44071E-06 2.16536E-18 2.07921E-18
 -1      1783 1.00142E-04-1.95588E-05-3.42143E-05-1.88755E-05-1.90932E-18 4.23305E-18
 -1      1784 9.52932E-05-2.72804E-05-2.91799E-05 4.07284E-06 1.60967E-18 1.13497E-18
 -1      1785 9.77255E-05-2.73861E-05-3.01896E-05 6.40670E-06 1.75267E-18 1.74668E-18
 -1      1786 9.75620E-05-2.56106E-05-3.08283E-05 8.76680E-06 2.07835E-18 6.82947E-19
 -1      1787 9.98015E-05-2.25360E-05-3.28327E-05-1.44743E-05-2.12333E-18 3.26002E-18
 -1      1788 9.69459E-05-2.69757E-05-2.98722E-05-5.71183E-06-1.71146E-18 2.83662E-18
 -1      1789 9.51348E-05-2.70301E-05-2.91610E-05-3.90577E-06-1.61069E-18 2.40844E-18
 -1      1790 9.43138E-05-2.72301E-05-2.86532E-05-2.43044E-06-1.47243E-18 2.30723E-18
 -1      1791 9.35397E-05-2.73097E-05-2.83475E-05-1.57723E-06-1.27534E-18 1.86711E-18
 -1      1792 9.54917E-05-2.65408E-05-2.95706E-05-4.48463E-06-1.79165E-18 1.26029E-18
 -1      1793 9.30140E-05-2.73603E-05-2.80783E-05-7.50568E-07-1.01652E-18 1.73041E-18
 -1      1794 9.27103E-05-2.74232E-05-2.79555E-05-3.12761E-07-7.75121E-19 1.41839E-18
 -1      1795 9.42787E-05-2.72157E-05-2.87615E-05-1.84017E-06-1.42157E-18 1.02023E-18
 -1      1796 9.24332E-05-2.74502E-05-2.78191E-05 1.41871E-07-6.76886E-19 1.26567E-18
 -1      1797 9.23992E-05-2.75254E-05-2.77885E-05 3.65431E-07-6.99252E-19 1.14667E-18
 -1      1798 9.35754E-05-2.75221E-05-2.83249E-05-3.75005E-07-1.03505E-18 6.03961E-19
 -1      1799 9.22945E-05-2.75562E-05-2.77300E-05 6.04918E-07-7.32965E-19 1.07589E-18
 -1      1800 9.24067E-05-2.76401E-05-2.77485E-05 7.08692E-07-6.64688E-19 8.29523E-19
 -1      1801 9.32514E-05-2.77055E-05-2.81034E-05 4.26531E-07-8.01566E-19 4.37419E-19
 -1      1802 9.24112E-05-2.76774E-05-2.77364E-05 8.20213E-07-5.46650E-19 7.99702E-19
 -1      1803 9.25966E-05-2.77629E-05-2.77806E-05 8.54419E-07-3.52132E-19 7.55247E-19
 -1      1804 9.31855E-05-2.78467E-05-2.80107E-05 8.38245E-07-6.94657E-19 4.39522E-19
 -1      1805 9.26653E-05-2.78037E-05-2.77957E-05 8.89582E-07-5.35213E-19 5.32308E-19
 -1      1806 9.28803E-05-2.78852E-05-2.78519E-05 8.83801E-07-5.76646E-19 3.76854E-19
 -1      1807 9.32792E-05-2.79682E-05-2.79956E-05 1.01642E-06-5.94075E-19 1.70587E-19
 -1      1808 9.29833E-05-2.79263E-05-2.78820E-05 8.74999E-07-6.91010E-19 3.78921E-19
 -1      1809 9.32027E-05-2.80006E-05-2.79419E-05 8.47979E-07-5.82974E-19 3.15620E-19
 -1      1810 9.34629E-05-2.80752E-05-2.80263E-05 1.05617E-06-6.49803E-19-7.57627E-20
 -1      1811 9.33211E-05-2.80395E-05-2.79795E-05 8.16514E-07-3.56722E-19 2.07921E-19
 -1      1812 9.35312E-05-2.81052E-05-2.80385E-05 7.80734E-07-1.01560E-19 1.67617E-19
 -1      1813 9.36907E-05-2.81684E-05-2.80826E-05 1.01855E-06-6.03367E-19-1.80730E-19
 -1      1814 9.36539E-05-2.81408E-05-2.80793E-05 7.41132E-07-1.95114E-19-7.97477E-20
 -1      1815 9.38491E-05-2.81978E-05-2.81353E-05 7.05204E-07-1.80261E-19-3.33310E-19
 -1      1816 9.39346E-05-2.82482E-05-2.81521E-05 9.44443E-07-4.13114E-19-4.01751E-19
 -1      1817 9.39710E-05-2.82299E-05-2.81770E-05 6.67712E-07-1.98658E-19-4.34061E-19
 -1      1818 9.41510E-05-2.82793E-05-2.82297E-05 6.37833E-07-1.26126E-19-3.78383E-19
 -1      1819 9.41795E-05-2.83154E-05-2.82278E-05 8.62160E-07-3.09729E-19-5.13155E-19
 -1      1820 9.42711E-05-2.83084E-05-2.82717E-05 6.10011E-07-1.00560E-19-5.02859E-19
 -1      1821 9.44401E-05-2.83520E-05-2.83220E-05 5.90911E-07-8.02643E-20-3.29269E-19
 -1      1822 9.44198E-05-2.83719E-05-2.83066E-05 7.92077E-07-1.63581E-19-4.23749E-19
 -1      1823 9.45605E-05-2.83790E-05-2.83650E-05 5.78723E-07-5.30661E-20-5.22018E-19
 -1      1824 9.47256E-05-2.84193E-05-2.84148E-05 5.74352E-07-6.69067E-20-2.44145E-19
 -1      1825 9.46572E-05-2.84199E-05-2.83879E-05 7.49658E-07-2.78824E-19-5.60503E-19
 -1      1826 9.48510E-05-2.84458E-05-2.84602E-05 5.82954E-07-1.80215E-19-4.57159E-19
 -1      1827 9.50220E-05-2.84857E-05-2.85124E-05 5.96982E-07-3.03093E-20-5.88961E-19
 -1      1828 9.48987E-05-2.84626E-05-2.84735E-05 7.47578E-07-1.75289E-19-1.07164E-18
 -1      1829 9.51593E-05-2.85136E-05-2.85625E-05 6.31293E-07 8.64098E-20-4.94475E-19
 -1      1830 9.53486E-05-2.85569E-05-2.86206E-05 6.67474E-07 1.91428E-19-4.15964E-19
 -1      1831 9.51559E-05-2.85034E-05-2.85668E-05 7.97264E-07 1.44669E-19-8.08067E-19
 -1      1832 9.55063E-05-2.85885E-05-2.86784E-05 7.32570E-07 3.10275E-21-9.17144E-19
 -1      1833 9.57289E-05-2.86393E-05-2.87466E-05 7.94980E-07-1.17539E-19-1.04772E-18
 -1      1834 9.54443E-05-2.85466E-05-2.86726E-05 9.09974E-07-1.60322E-19-1.15702E-18
 -1      1835 9.59173E-05-2.86774E-05-2.88156E-05 8.96304E-07 5.74204E-20-1.24899E-18
 -1      1836 9.61907E-05-2.87408E-05-2.88991E-05 9.89429E-07-8.45308E-20-9.62317E-19
 -1      1837 9.57826E-05-2.85971E-05-2.87968E-05 1.09747E-06-3.09423E-19-1.56108E-18
 -1      1838 9.64218E-05-2.87887E-05-2.89833E-05 1.13276E-06-2.58874E-19-7.24440E-19
 -1      1839 9.67662E-05-2.88708E-05-2.90878E-05 1.26137E-06-3.20251E-20-1.02381E-18
 -1      1840 9.61932E-05-2.86609E-05-2.89463E-05 1.37224E-06-7.02905E-20-9.65264E-19
 -1      1841 9.70535E-05-2.89324E-05-2.91916E-05 1.45245E-06 8.80980E-20-1.12328E-18
 -1      1842 9.74915E-05-2.90403E-05-2.93235E-05 1.62109E-06 3.01403E-19-1.05442E-18
 -1      1843 9.67016E-05-2.87455E-05-2.91290E-05 1.74699E-06 4.35374E-20-1.56295E-18
 -1      1844 9.78496E-05-2.91207E-05-2.94513E-05 1.86471E-06 5.28233E-19-7.64062E-19
 -1      1845 9.84059E-05-2.92631E-05-2.96174E-05 2.07663E-06 2.77575E-19-3.67673E-19
 -1      1846 9.73361E-05-2.88604E-05-2.93527E-05 2.23327E-06 6.63726E-19-1.14957E-18
 -1      1847 9.88502E-05-2.93684E-05-2.97734E-05 2.37477E-06-8.62559E-20 3.26054E-19
 -1      1848 9.95496E-05-2.95556E-05-2.99800E-05 2.62983E-06 2.88289E-20 6.35334E-19
 -1      1849 9.81275E-05-2.90188E-05-2.96251E-05 2.83836E-06 3.43668E-19-2.53220E-19
 -1      1850 1.00096E-04-2.96945E-05-3.01673E-05 2.97836E-06-1.78204E-19 1.64609E-19
 -1      1851 1.00960E-04-2.99386E-05-3.04194E-05 3.26930E-06-1.34840E-19-2.15192E-19
 -1      1852 9.91083E-05-2.92394E-05-2.99518E-05 3.55973E-06-1.50207E-19 3.31303E-19
 -1      1853 1.01624E-04-3.01231E-05-3.06385E-05 3.65241E-06-1.08526E-21 3.41654E-19
 -1      1854 1.02667E-04-3.04384E-05-3.09377E-05 3.95865E-06-3.16186E-19 5.70178E-19
 -1      1855 1.00311E-04-2.95500E-05-3.03352E-05 4.37539E-06 3.40079E-20 5.81733E-19
 -1      1856 1.03461E-04-3.06858E-05-3.11854E-05 4.34013E-06-3.19308E-19 9.13680E-19
 -1      1857 1.04678E-04-3.10876E-05-3.15264E-05 4.61836E-06 6.23744E-20 1.00169E-18
 -1      1858 1.01769E-04-2.99923E-05-3.07713E-05 5.22861E-06 1.53316E-19 9.94739E-19
 -1      1859 1.05614E-04-3.14225E-05-3.17935E-05 4.92910E-06 6.16043E-21 1.11158E-18
 -1      1860 1.06968E-04-3.19247E-05-3.21603E-05 5.10096E-06 6.88656E-19 8.69541E-19
 -1      1861 1.03511E-04-3.06276E-05-3.12466E-05 6.00531E-06 2.27357E-19 7.87799E-19
 -1      1862 1.08052E-04-3.23787E-05-3.24298E-05 5.22403E-06 8.08627E-19 1.08740E-18
 -1      1863 1.09454E-04-3.29850E-05-3.27904E-05 5.16452E-06 1.09904E-18 1.03017E-18
 -1      1864 1.05562E-04-3.15398E-05-3.17356E-05 6.50503E-06 8.65770E-19 1.12159E-18
 -1      1865 1.10679E-04-3.35893E-05-3.30377E-05 4.92428E-06 1.12180E-18 7.70588E-19
 -1      1866 1.11964E-04-3.42734E-05-3.33409E-05 4.46253E-06 1.20984E-18 1.53655E-18
 -1      1867 1.07929E-04-3.28220E-05-3.22009E-05 6.41324E-06 8.20014E-19 6.83888E-19
 -1      1868 1.13289E-04-3.50300E-05-3.35387E-05 3.63601E-06 7.13559E-19 9.58782E-19
 -1      1869 1.14197E-04-3.56967E-05-3.37181E-05 2.59357E-06 5.16425E-20 1.22251E-18
 -1      1870 1.10567E-04-3.45255E-05-3.26004E-05 5.29993E-06 8.27985E-19 2.25034E-19
 -1      1871 1.15494E-04-3.65162E-05-3.38474E-05 9.79248E-07-3.88332E-19 1.63669E-18
 -1      1872 1.15682E-04-3.69435E-05-3.38397E-05-7.18728E-07-4.47412E-19 1.37678E-18
 -1      1873 1.13305E-04-3.65315E-05-3.29066E-05 2.69866E-06 6.11730E-19 4.85788E-19
 -1      1874 1.16653E-04-3.75483E-05-3.39087E-05-3.11462E-06-1.07895E-18 1.46498E-18
 -1      1875 1.15781E-04-3.73670E-05-3.36885E-05-5.23319E-06-9.54500E-19 2.14606E-18
 -1      1876 1.15695E-04-3.83289E-05-3.31394E-05-1.64280E-06-6.71366E-19 1.46722E-18
 -1      1877 1.15941E-04-3.72752E-05-3.37447E-05-7.89324E-06-6.16389E-19 3.09962E-18
 -1      1878 1.13894E-04-3.61170E-05-3.33600E-05-9.69796E-06-1.66177E-19 2.62968E-18
 -1      1879 1.16885E-04-3.88584E-05-3.33908E-05-7.23517E-06-4.93827E-19 2.07946E-18
 -1      1880 1.12815E-04-3.48951E-05-3.34617E-05-1.13966E-05 6.31503E-20 2.61438E-18
 -1      1881 1.10001E-04-3.28030E-05-3.30384E-05-1.17495E-05 5.30080E-19 2.38387E-18
 -1      1882 1.15864E-04-3.68890E-05-3.37908E-05-1.22557E-05-6.45590E-20 2.10299E-18
 -1      1883 1.07974E-04-3.07310E-05-3.31883E-05-1.09803E-05 2.00667E-19 2.46577E-18
 -1      1884 1.05480E-04-2.86164E-05-3.28634E-05-9.08668E-06-3.51307E-19 2.00777E-18
 -1      1885 1.12419E-04-3.22613E-05-3.43636E-05-1.36036E-05 2.20275E-19 2.56189E-18
 -1      1886 1.03834E-04-2.69727E-05-3.29629E-05-5.52641E-06-7.77285E-19 9.84530E-19
 -1      1887 1.02867E-04-2.61285E-05-3.28426E-05-1.90896E-06-9.17998E-19 8.87115E-19
 -1      1888 1.08358E-04-2.71592E-05-3.48954E-05-8.88688E-06-1.13420E-18 1.70249E-18
 -1      1889 1.02984E-04-2.63011E-05-3.28060E-05 2.84094E-06-1.62069E-18 6.38464E-19
 -1      1890 1.04138E-04-2.74322E-05-3.29136E-05 6.25071E-06-1.30284E-18-6.91470E-19
 -1      1891 1.06613E-04-2.50545E-05-3.50592E-05 5.47034E-07-1.72608E-18 5.86282E-19
 -1      1892 1.05861E-04-2.92657E-05-3.27439E-05 9.33004E-06-2.06425E-19-3.47667E-19
 -1      1893 1.08327E-04-3.14320E-05-3.30390E-05 1.07638E-05 2.68801E-19 4.18964E-19
 -1      1894 1.08744E-04-2.79388E-05-3.47127E-05 9.41867E-06-8.23620E-19-2.70771E-19
 -1      1895 1.10103E-04-3.33788E-05-3.28456E-05 1.09406E-05 2.14053E-19-6.47345E-19
 -1      1896 1.12627E-04-3.52779E-05-3.32125E-05 1.01895E-05-2.43714E-19-9.93444E-19
 -1      1897 1.12645E-04-3.31600E-05-3.40522E-05 1.28646E-05-3.06441E-19-9.16616E-19
 -1      1898 1.13307E-04-3.62337E-05-3.30702E-05 8.13591E-06-5.14837E-20-7.91810E-19
 -1      1899 1.14909E-04-3.71229E-05-3.33643E-05 6.14686E-06-5.61001E-19-5.74639E-19
 -1      1900 1.15402E-04-3.73072E-05-3.34078E-05 1.04804E-05-5.88026E-20-1.44147E-18
 -1      1901 1.14392E-04-3.69975E-05-3.32564E-05 3.40666E-06-6.86216E-19-2.28080E-19
 -1      1902 1.14784E-04-3.69563E-05-3.33635E-05 1.27578E-06-2.08853E-19 1.02016E-18
 -1      1903 1.15628E-04-3.86546E-05-3.29443E-05 5.01836E-06-2.95092E-19 1.85060E-19
 -1      1904 1.13544E-04-3.62296E-05-3.32266E-05-1.05639E-06-4.02976E-19 1.47993E-18
 -1      1905 1.12904E-04-3.56454E-05-3.31136E-05-2.69006E-06 7.39321E-19 2.27996E-18
 -1      1906 1.13792E-04-3.76884E-05-3.26020E-05-5.63476E-07 4.78335E-19 2.31182E-18
 -1      1907 1.11393E-04-3.47624E-05-3.29104E-05-4.20745E-06 2.07493E-18 1.73823E-18
 -1      1908 1.10077E-04-3.39761E-05-3.26156E-05-5.17414E-06 1.97640E-18 2.30971E-18
 -1      1909 1.10915E-04-3.56760E-05-3.22505E-05-4.72156E-06 6.25921E-19 3.42907E-18
 -1      1910 1.08561E-04-3.31702E-05-3.23482E-05-5.91024E-06 9.09770E-19 2.50222E-18
 -1      1911 1.06913E-04-3.23740E-05-3.19430E-05-6.29801E-06 1.03398E-18 4.02168E-18
 -1      1912 1.07769E-04-3.35511E-05-3.18199E-05-7.11838E-06 1.67351E-18 2.53130E-18
 -1      1913 1.05506E-04-3.17056E-05-3.16398E-05-6.43989E-06 1.53939E-19 3.17199E-18
 -1      1914 1.03790E-04-3.09776E-05-3.11979E-05-6.40078E-06-4.06186E-20 1.90827E-18
 -1      1915 1.04755E-04-3.17242E-05-3.13122E-05-8.02656E-06 2.50005E-19 2.94274E-18
 -1      1916 1.02534E-04-3.04295E-05-3.08950E-05-6.12456E-06-8.02319E-19 9.44084E-19
 -1      1917 1.00940E-04-2.97912E-05-3.04783E-05-5.77802E-06-8.57717E-19 2.20963E-19
 -1      1918 1.02025E-04-3.02486E-05-3.07747E-05-7.84307E-06-9.52247E-19 1.28030E-18
 -1      1919 9.98451E-05-2.93235E-05-3.02077E-05-5.20124E-06-2.03291E-19 6.70546E-20
 -1      1920 9.85080E-05-2.87828E-05-2.98628E-05-4.60731E-06 7.33428E-19 2.66675E-20
 -1      1921 9.96339E-05-2.90437E-05-3.02654E-05-6.88162E-06-9.82530E-19 6.31303E-19
 -1      1922 9.76906E-05-2.84429E-05-2.96602E-05-3.83350E-06 1.02219E-18-1.22130E-18
 -1      1923 9.66851E-05-2.80240E-05-2.94002E-05-3.05558E-06-3.80824E-19-1.65412E-18
 -1      1924 9.62415E-05-2.74476E-05-2.94937E-05-3.58624E-06-8.63603E-19-1.78787E-18
 -1      1925 9.76969E-05-2.80853E-05-2.98489E-05-5.38480E-06-1.98424E-20-3.96989E-19
 -1      1926 9.31902E-05-2.73565E-05-2.81866E-05 1.61187E-06 1.23716E-18 3.56760E-19
 -1      1927 9.43869E-05-2.74624E-05-2.86238E-05 2.68249E-06 1.36888E-18 9.46533E-19
 -1      1928 9.52130E-05-2.70423E-05-2.92214E-05 4.06151E-06 1.68364E-18 1.61347E-19
 -1      1929 9.21342E-05-2.73417E-05-2.77436E-05 3.55906E-07 8.36048E-19-9.17972E-20
 -1      1930 9.26309E-05-2.73748E-05-2.79167E-05 9.03529E-07 9.51886E-19 2.29374E-19
 -1      1931 9.36056E-05-2.73626E-05-2.83967E-05 1.59372E-06 1.17479E-18-1.87909E-19
 -1      1932 9.17545E-05-2.73780E-05-2.75743E-05-2.96790E-07 5.17964E-19-4.35911E-19
 -1      1933 9.18721E-05-2.73521E-05-2.76220E-05-4.74860E-09 6.28993E-19-1.65853E-19
 -1      1934 9.27712E-05-2.74767E-05-2.79934E-05 2.81804E-07 8.27323E-19-5.21117E-19
 -1      1935 9.17739E-05-2.74670E-05-2.75500E-05-6.22153E-07 5.10030E-19-9.99009E-19
 -1      1936 9.16887E-05-2.74060E-05-2.75343E-05-4.69711E-07 4.92895E-19-6.12157E-19
 -1      1937 9.24540E-05-2.75685E-05-2.78182E-05-4.11223E-07 6.74864E-19-8.45051E-19
 -1      1938 9.20144E-05-2.75874E-05-2.76045E-05-7.60396E-07 5.64234E-19-1.43379E-18
 -1      1939 9.18260E-05-2.75097E-05-2.75565E-05-6.89158E-07 5.27350E-19-1.23179E-18
 -1      1940 9.24545E-05-2.76723E-05-2.77720E-05-7.56396E-07 6.69603E-19-1.22903E-18
 -1      1941 9.23651E-05-2.77202E-05-2.76998E-05-7.89859E-07 2.33006E-19-1.65274E-18
 -1      1942 9.21316E-05-2.76377E-05-2.76368E-05-7.66885E-07 3.90450E-19-1.58173E-18
 -1      1943 9.26373E-05-2.77861E-05-2.77994E-05-8.99125E-07 6.33530E-19-1.73822E-18
 -1      1944 9.27581E-05-2.78524E-05-2.78128E-05-7.58115E-07 5.27757E-19-1.93064E-18
 -1      1945 9.25133E-05-2.77724E-05-2.77450E-05-7.63115E-07 3.63177E-19-1.71203E-18
 -1      1946 9.29147E-05-2.79017E-05-2.78669E-05-9.23842E-07 5.01112E-19-1.71229E-18
 -1      1947 9.31535E-05-2.79767E-05-2.79299E-05-6.95916E-07 3.23880E-19-1.90355E-18
 -1      1948 9.29165E-05-2.79028E-05-2.78631E-05-7.15573E-07 2.85612E-19-1.89260E-18
 -1      1949 9.32316E-05-2.80122E-05-2.79541E-05-8.83157E-07 5.13258E-19-1.71480E-18
 -1      1950 9.35307E-05-2.80894E-05-2.80439E-05-6.23965E-07 4.99656E-19-1.86026E-18
 -1      1951 9.33105E-05-2.80233E-05-2.79810E-05-6.49155E-07 5.57218E-19-1.73984E-18
 -1      1952 9.35556E-05-2.81136E-05-2.80486E-05-8.11616E-07 5.06247E-19-1.38041E-18
 -1      1953 9.38823E-05-2.81901E-05-2.81518E-05-5.56687E-07 6.61521E-19-1.98664E-18
 -1      1954 9.36812E-05-2.81316E-05-2.80936E-05-5.80921E-07 5.97839E-19-1.90270E-18
 -1      1955 9.38700E-05-2.82042E-05-2.81439E-05-7.32790E-07 6.40351E-19-1.60398E-18
 -1      1956 9.42101E-05-2.82805E-05-2.82537E-05-5.04560E-07 6.26955E-19-2.32603E-18
 -1      1957 9.40258E-05-2.82283E-05-2.81997E-05-5.23004E-07 5.00567E-19-2.12898E-18
 -1      1958 9.41694E-05-2.82847E-05-2.82374E-05-6.63348E-07 7.12791E-19-1.73978E-18
 -1      1959 9.45233E-05-2.83639E-05-2.83522E-05-4.75667E-07 1.70928E-19-2.22600E-18
 -1      1960 9.43496E-05-2.83159E-05-2.83006E-05-4.84478E-07 3.65699E-19-2.17102E-18
 -1      1961 9.44564E-05-2.83572E-05-2.83292E-05-6.15645E-07 4.12766E-19-1.49361E-18
 -1      1962 9.48364E-05-2.84449E-05-2.84514E-05-4.76769E-07-1.49674E-19-1.99754E-18
 -1      1963 9.46645E-05-2.83983E-05-2.83998E-05-4.72629E-07-2.97181E-20-2.47554E-18
 -1      1964 9.47397E-05-2.84249E-05-2.84217E-05-5.99448E-07-5.63886E-20-1.73786E-18
 -1      1965 9.51685E-05-2.85294E-05-2.85571E-05-5.14023E-07-3.43822E-20-2.02697E-18
 -1      1966 9.49871E-05-2.84805E-05-2.85021E-05-4.93819E-07-3.14246E-21-1.89212E-18
 -1      1967 9.50331E-05-2.84924E-05-2.85188E-05-6.23118E-07-4.46522E-20-1.92995E-18
 -1      1968 9.55428E-05-2.86243E-05-2.86762E-05-5.93371E-07 1.77780E-19-2.38107E-18
 -1      1969 9.53385E-05-2.85691E-05-2.86140E-05-5.54017E-07-3.47292E-21-2.27812E-18
 -1      1970 9.53543E-05-2.85649E-05-2.86257E-05-6.94340E-07 1.72558E-19-1.70414E-18
 -1      1971 9.59862E-05-2.87377E-05-2.88168E-05-7.20571E-07 1.16834E-19-1.98601E-18
 -1      1972 9.57435E-05-2.86714E-05-2.87429E-05-6.58990E-07 2.91464E-19-2.00539E-18
 -1      1973 9.57248E-05-2.86490E-05-2.87490E-05-8.20424E-07 1.97710E-19-2.17368E-18
 -1      1974 9.65287E-05-2.88790E-05-2.89879E-05-9.00778E-07-1.69053E-19-2.33761E-18
 -1      1975 9.62305E-05-2.87961E-05-2.88973E-05-8.14084E-07 1.28623E-19-2.09158E-18
 -1      1976 9.61689E-05-2.87522E-05-2.88957E-05-1.00811E-06 3.06797E-19-1.83242E-18
 -1      1977 9.72027E-05-2.90588E-05-2.91987E-05-1.13747E-06 1.35548E-19-2.36789E-18
 -1      1978 9.68306E-05-2.89532E-05-2.90863E-05-1.02347E-06-3.73265E-20-2.24826E-18
 -1      1979 9.67136E-05-2.88835E-05-2.90737E-05-1.26270E-06 6.61331E-20-1.92260E-18
 -1      1980 9.80410E-05-2.92888E-05-2.94585E-05-1.43047E-06-6.80141E-20-2.60925E-18
 -1      1981 9.75763E-05-2.91539E-05-2.93191E-05-1.28859E-06-4.77970E-20-2.69260E-18
 -1      1982 9.73874E-05-2.90533E-05-2.92905E-05-1.58629E-06 1.67591E-19-2.47521E-18
 -1      1983 9.90734E-05-2.95815E-05-2.97751E-05-1.77262E-06 1.04320E-18-3.21372E-18
 -1      1984 9.84997E-05-2.94107E-05-2.96042E-05-1.60553E-06 4.13456E-19-2.70140E-18
 -1      1985 9.82183E-05-2.92739E-05-2.95530E-05-1.97467E-06 4.32733E-19-2.30892E-18
 -1      1986 1.00322E-04-2.99494E-05-3.01526E-05-2.14468E-06-7.67111E-20-3.09462E-18
 -1      1987 9.96277E-05-2.97367E-05-2.99479E-05-1.96078E-06 6.03544E-19-3.02044E-18
 -1      1988 9.92309E-05-2.95596E-05-2.98654E-05-2.41246E-06 5.76084E-19-2.54772E-18
 -1      1989 1.01791E-04-3.04037E-05-3.05892E-05-2.50797E-06-1.29527E-18-2.49667E-18
 -1      1990 1.00977E-04-3.01449E-05-3.03517E-05-2.32512E-06-1.12436E-18-2.94423E-18
 -1      1991 1.00442E-04-2.99263E-05-3.02280E-05-2.86588E-06-7.97927E-19-1.90008E-18
 -1      1992 1.03458E-04-3.09511E-05-3.10724E-05-2.79497E-06-5.52095E-19-2.11237E-18
 -1      1993 1.02541E-04-3.06463E-05-3.08092E-05-2.64531E-06-5.35838E-19-2.09363E-18
 -1      1994 1.01852E-04-3.03911E-05-3.06337E-05-3.27316E-06-9.55118E-19-1.22502E-18
 -1      1995 1.05254E-04-3.15883E-05-3.15747E-05-2.89958E-06-2.96903E-19-1.89691E-18
 -1      1996 1.04283E-04-3.12456E-05-3.13019E-05-2.83473E-06-5.84705E-19-2.14517E-18
 -1      1997 1.03438E-04-3.09695E-05-3.10651E-05-3.53341E-06-4.15145E-19-2.14776E-18
 -1      1998 1.07044E-04-3.22930E-05-3.20483E-05-2.67234E-06 2.93985E-19-5.99140E-19
 -1      1999 1.06108E-04-3.19342E-05-3.17940E-05-2.76631E-06 3.82226E-19-9.94628E-19
 -1      2000 1.05136E-04-3.16682E-05-3.14918E-05-3.49778E-06 6.19525E-20-1.39814E-18
 -1      2001 1.08613E-04-3.30070E-05-3.24241E-05-1.93241E-06-1.12693E-18-6.66372E-19
 -1      2002 1.07852E-04-3.26757E-05-3.22296E-05-2.27622E-06-4.58020E-19-8.02544E-19
 -1      2003 1.06825E-04-3.24703E-05-3.18683E-05-2.97212E-06-2.62628E-19-3.51113E-19
 -1      2004 1.09652E-04-3.36133E-05-3.26170E-05-5.16596E-07 1.26645E-19-4.54411E-19
 -1      2005 1.09254E-04-3.33838E-05-3.25338E-05-1.19404E-06-4.95858E-19-3.66507E-19
 -1      2006 1.08309E-04-3.33069E-05-3.21385E-05-1.74835E-06-6.44665E-19 6.99112E-19
 -1      2007 1.09784E-04-3.39152E-05-3.25450E-05 1.61192E-06-4.20056E-19-2.88746E-19
 -1      2008 1.09961E-04-3.38950E-05-3.26234E-05 5.78940E-07-3.18061E-19-3.51393E-19
 -1      2009 1.09296E-04-3.40171E-05-3.22461E-05 3.09871E-07-1.06514E-19 9.97902E-19
 -1      2010 1.08648E-04-3.36467E-05-3.21629E-05 4.19676E-06-8.59097E-19-8.71974E-19
 -1      2011 1.09569E-04-3.39576E-05-3.24309E-05 2.93273E-06-5.99600E-19-7.78655E-19
 -1      2012 1.09417E-04-3.43203E-05-3.21544E-05 3.11066E-06-4.68204E-19-1.33464E-19
 -1      2013 1.06082E-04-3.25731E-05-3.15044E-05 6.54538E-06-5.68826E-19-1.76520E-18
 -1      2014 1.07764E-04-3.32887E-05-3.19408E-05 5.38937E-06-7.77854E-19-1.64046E-18
 -1      2015 1.08317E-04-3.38572E-05-3.18709E-05 6.13927E-06-5.52596E-19-9.49795E-19
 -1      2016 1.02372E-04-3.06928E-05-3.07038E-05 7.58607E-06-3.66693E-20-1.31681E-18
 -1      2017 1.04569E-04-3.17410E-05-3.12231E-05 7.06202E-06-4.50992E-19-1.63905E-18
 -1      2018 1.05880E-04-3.23814E-05-3.14619E-05 8.37288E-06-4.91678E-19-1.69417E-18
 -1      2019 9.84787E-05-2.85115E-05-2.99739E-05 6.35713E-06-2.75100E-19-1.01173E-18
 -1      2020 1.00623E-04-2.95848E-05-3.04390E-05 6.91199E-06-7.03964E-20-7.32181E-19
 -1      2021 1.02539E-04-3.00855E-05-3.10384E-05 8.53027E-06-2.25579E-19-9.77516E-19
 -1      2022 9.58261E-05-2.69579E-05-2.95238E-05 2.80930E-06 7.29924E-19-3.62140E-19
 -1      2023 9.71990E-05-2.76120E-05-2.97968E-05 4.43836E-06 3.92878E-19-6.09539E-19
 -1      2024 9.94241E-05-2.78190E-05-3.07150E-05 5.85692E-06 2.32961E-19-7.86192E-19
 -1      2025 9.55750E-05-2.68511E-05-2.94787E-05-1.81605E-06 1.32438E-18-4.81360E-19
 -1      2026 9.56476E-05-2.67661E-05-2.94773E-05 2.84019E-07 9.99208E-19 1.14996E-19
 -1      2027 9.78946E-05-2.66941E-05-3.05613E-05 9.53771E-07 8.83694E-19 1.60618E-18
 -1      2028 9.78192E-05-2.82542E-05-2.98351E-05-5.55596E-06 3.30263E-19-8.31588E-19
 -1      2029 9.65839E-05-2.74851E-05-2.95692E-05-3.88044E-06 5.11356E-19-8.57171E-19
 -1      2030 9.86790E-05-2.73440E-05-3.05999E-05-4.22174E-06 1.38656E-18 8.03411E-19
 -1      2031 1.01437E-04-3.03671E-05-3.04613E-05-7.01331E-06-6.66419E-19-1.13165E-18
 -1      2032 9.94401E-05-2.93104E-05-3.00308E-05-6.35191E-06-3.77327E-20-5.93280E-19
 -1      2033 1.01281E-04-2.93852E-05-3.08115E-05-7.49528E-06-4.99352E-20 7.63567E-19
 -1      2034 1.04920E-04-3.22181E-05-3.11404E-05-6.11079E-06-1.96374E-18-1.42401E-18
 -1      2035 1.02910E-04-3.13035E-05-3.06920E-05-6.46983E-06-1.59762E-18-2.01799E-18
 -1      2036 1.04362E-04-3.16978E-05-3.11232E-05-7.90066E-06-1.11368E-18-1.11656E-19
 -1      2037 1.07193E-04-3.32479E-05-3.16648E-05-3.74893E-06-7.91082E-19-1.02234E-18
 -1      2038 1.05753E-04-3.27155E-05-3.13283E-05-4.73226E-06-1.40954E-18-1.34841E-18
 -1      2039 1.06688E-04-3.33211E-05-3.14253E-05-5.94153E-06-2.04166E-18-1.17228E-18
 -1      2040 1.07901E-04-3.34105E-05-3.19023E-05-1.03244E-06 6.05238E-19-1.70544E-18
 -1      2041 1.07284E-04-3.32850E-05-3.17506E-05-2.17352E-06 2.39049E-19-1.26717E-18
 -1      2042 1.07670E-04-3.38978E-05-3.16080E-05-2.86322E-06 4.08429E-20-1.63308E-18
 -1      2043 1.07222E-04-3.29439E-05-3.18210E-05 1.26984E-06-5.30511E-19-8.90814E-19
 -1      2044 1.07394E-04-3.31296E-05-3.18630E-05 2.92063E-07 2.54547E-19-1.65599E-18
 -1      2045 1.07332E-04-3.35963E-05-3.16005E-05 1.85043E-07-8.00976E-20-1.57120E-18
 -1      2046 1.05570E-04-3.21303E-05-3.14698E-05 2.82905E-06 2.23168E-18-1.44630E-18
 -1      2047 1.06336E-04-3.25051E-05-3.16685E-05 2.15451E-06 3.13402E-19-1.95673E-18
 -1      2048 1.06010E-04-3.27744E-05-3.13898E-05 2.53790E-06 9.89467E-19-1.00231E-18
 -1      2049 1.03382E-04-3.11840E-05-3.09419E-05 3.61896E-06 1.80462E-18-2.25520E-18
 -1      2050 1.04500E-04-3.16460E-05-3.12386E-05 3.26423E-06 2.81333E-18-8.00933E-19
 -1      2051 1.04102E-04-3.17435E-05-3.10142E-05 3.98076E-06 2.34376E-18-8.25973E-19
 -1      2052 1.01035E-04-3.02368E-05-3.03426E-05 3.73899E-06 9.55160E-19-2.28047E-18
 -1      2053 1.02279E-04-3.07139E-05-3.06752E-05 3.67062E-06 7.95692E-19-1.50978E-18
 -1      2054 1.01950E-04-3.06928E-05-3.05416E-05 4.55777E-06 8.94501E-19-3.30207E-19
 -1      2055 9.88285E-05-2.93629E-05-2.97703E-05 3.29596E-06 1.38506E-19-1.24222E-18
 -1      2056 1.00007E-04-2.98057E-05-3.00822E-05 3.48037E-06 9.06463E-19-1.79757E-18
 -1      2057 9.98141E-05-2.97095E-05-3.00484E-05 4.39672E-06 8.32877E-19-5.86130E-19
 -1      2058 9.69998E-05-2.86195E-05-2.92999E-05 2.36971E-06 1.21710E-19-7.45154E-19
 -1      2059 9.79505E-05-2.89876E-05-2.95481E-05 2.78824E-06 2.93897E-19-1.44756E-18
 -1      2060 9.78869E-05-2.88320E-05-2.96004E-05 3.61987E-06 3.29688E-19 9.01116E-19
 -1      2061 9.58839E-05-2.81596E-05-2.90110E-05 1.42608E-06-4.05938E-19-3.84434E-19
 -1      2062 9.65439E-05-2.84047E-05-2.91953E-05 1.99359E-06 2.51967E-19-3.44456E-19
 -1      2063 9.65390E-05-2.81980E-05-2.92970E-05 2.66106E-06 4.10000E-20 1.01773E-18
 -1      2064 9.57096E-05-2.77808E-05-2.91117E-05 1.78399E-06-3.25955E-19 1.76962E-18
 -1      2065 9.36443E-05-2.28094E-05-3.03592E-05 4.54635E-06 2.15977E-19-1.60144E-19
 -1      2066 9.41452E-05-2.39814E-05-3.00588E-05 4.37131E-06 2.11431E-19 7.94230E-19
 -1      2067 9.45602E-05-2.48741E-05-2.98600E-05 4.01845E-06 1.82259E-19 2.68190E-18
 -1      2068 9.50045E-05-2.58981E-05-2.96026E-05 3.59517E-06-3.66430E-19 3.34010E-18
 -1      2069 9.46690E-05-2.48751E-05-2.99183E-05 5.28703E-06-7.47937E-20 2.21399E-18
 -1      2070 9.52204E-05-2.64698E-05-2.94563E-05 3.03024E-06-2.73787E-19 2.78963E-18
 -1      2071 9.55536E-05-2.72655E-05-2.92523E-05 2.43548E-06-5.72801E-19 2.12763E-18
 -1      2072 9.59125E-05-2.74399E-05-2.93365E-05 2.93793E-06-5.83063E-20 1.54564E-18
 -1      2073 9.54168E-05-2.63401E-05-2.96080E-05 4.25267E-06-2.71667E-19 2.87090E-18
 -1      2074 9.27052E-05-2.07070E-05-3.08685E-05 4.52231E-06-1.62799E-18-3.06844E-18
 -1      2075 9.32112E-05-2.18786E-05-3.05676E-05 4.60225E-06-9.96236E-19-1.71146E-18
 -1      2076 9.36528E-05-2.30051E-05-3.02795E-05 5.74207E-06-1.07025E-18-2.50392E-18
 -1      2077 9.17951E-05-1.87223E-05-3.13401E-05 3.90773E-06-1.72343E-18 1.01431E-18
 -1      2078 9.22676E-05-1.97853E-05-3.10692E-05 4.25125E-06-1.63409E-18 3.75717E-19
 -1      2079 9.26035E-05-2.10935E-05-3.06411E-05 5.50818E-06-4.76722E-19-1.14278E-18
 -1      2080 9.10520E-05-1.71587E-05-3.16998E-05 2.72457E-06-1.38941E-18 5.36155E-19
 -1      2081 9.14147E-05-1.79441E-05-3.15022E-05 3.30734E-06-1.80513E-18 1.42117E-18
 -1      2082 9.16105E-05-1.93330E-05-3.09605E-05 4.53583E-06-1.27570E-18 1.32214E-18
 -1      2083 9.06023E-05-1.62611E-05-3.18949E-05 1.09566E-06-8.00180E-19-2.58140E-19
 -1      2084 9.07911E-05-1.66450E-05-3.18005E-05 1.85042E-06-1.07819E-18 1.11173E-21
 -1      2085 9.08259E-05-1.79897E-05-3.11911E-05 2.88301E-06-1.67991E-18 7.60028E-19
 -1      2086 9.05418E-05-1.61964E-05-3.18941E-05-7.55956E-07-3.26713E-19 5.18907E-19
 -1      2087 9.05157E-05-1.61074E-05-3.19192E-05 6.25901E-08-6.77111E-19 1.07067E-18
 -1      2088 9.03969E-05-1.72927E-05-3.13004E-05 7.39038E-07-2.38181E-18 5.88347E-19
 -1      2089 9.08990E-05-1.70026E-05-3.16944E-05-2.54304E-06-4.90685E-19-1.14709E-18
 -1      2090 9.06551E-05-1.64414E-05-3.18378E-05-1.78985E-06-1.68742E-19-8.80914E-19
 -1      2091 9.04232E-05-1.73840E-05-3.12725E-05-1.58682E-06-1.02323E-18-1.09618E-19
 -1      2092 9.16100E-05-1.85387E-05-3.13298E-05-3.95848E-06 2.88951E-20-3.49768E-19
 -1      2093 9.11896E-05-1.76000E-05-3.15673E-05-3.39869E-06-1.07900E-18 7.10879E-20
 -1      2094 9.09158E-05-1.82604E-05-3.11129E-05-3.71114E-06-8.70790E-19-1.00179E-18
 -1      2095 9.25933E-05-2.06321E-05-3.08414E-05-4.82409E-06 1.87015E-18 8.35757E-19
 -1      2096 9.20438E-05-1.94180E-05-3.11466E-05-4.53044E-06 1.03360E-18 4.29298E-19
 -1      2097 9.17955E-05-1.97902E-05-3.08436E-05-5.31415E-06 6.09338E-19 6.43606E-19
 -1      2098 9.37060E-05-2.29642E-05-3.03065E-05-4.96604E-06 1.69266E-18 4.38504E-19
 -1      2099 9.31052E-05-2.16609E-05-3.06300E-05-5.00575E-06 2.09329E-18-5.83764E-20
 -1      2100 9.29515E-05-2.17682E-05-3.05014E-05-6.15905E-06 1.46197E-18 8.39043E-19
 -1      2101 9.48406E-05-2.52663E-05-2.98073E-05-4.34702E-06-5.88835E-19-3.22404E-19
 -1      2102 9.42299E-05-2.40163E-05-3.00957E-05-4.72564E-06 6.20051E-19 5.46948E-19
 -1      2103 9.42303E-05-2.39179E-05-3.01360E-05-6.09458E-06 9.47750E-19-3.75686E-19
 -1      2104 5.83216E-05-4.05934E-05-8.05739E-06 4.14379E-05 1.81562E-18-3.49533E-19
 -1      2105 4.23368E-05-4.18166E-05-1.58586E-06 3.28992E-05 2.90448E-18-8.97855E-19
 -1      2106 1.20794E-05-3.37178E-05 8.02110E-06 5.24518E-06-3.95988E-20 2.53983E-18
 -1      2107 1.27023E-05-3.62068E-05 8.51138E-06-4.64436E-06-8.82502E-19 2.54068E-18
 -1      2108 2.82959E-05-3.66117E-05 2.57709E-06 2.77155E-05 2.05278E-18 1.37579E-18
 -1      2109 1.93809E-05-3.65129E-05 5.96659E-06 1.85519E-05 6.68733E-19 2.41574E-18
 -1      2110 4.27873E-05-3.64563E-05-3.10768E-06 3.68621E-05 1.35695E-18 5.04408E-19
 -1      2111 1.01897E-04-4.63995E-05-2.37190E-05 4.25119E-05 3.79471E-19-2.77403E-20
 -1      2112 8.13452E-05-4.74735E-05-1.53370E-05 3.93026E-05 9.39783E-19 6.62380E-19
 -1      2113 1.38946E-04-4.27035E-05-4.04821E-05 3.34283E-05 9.68159E-19-1.83467E-18
 -1      2114 1.19475E-04-4.61056E-05-3.18882E-05 3.27225E-05 1.86559E-19-4.40457E-20
 -1      2115 8.72696E-05-8.72582E-06-3.37500E-05-1.05310E-05-2.02578E-18-1.95162E-18
 -1      2116 8.79626E-05-9.25397E-06-3.38195E-05-1.21181E-05-2.24362E-18-1.39236E-18
 -1      2117 9.04668E-05-1.30774E-05-3.32332E-05-1.19297E-05-2.35633E-18-1.05106E-18
 -1      2118 8.86721E-05-1.10361E-05-3.32962E-05-9.41847E-06-2.03786E-18-1.97441E-18
 -1      2119 1.82828E-04-2.91409E-05-6.43495E-05 1.16075E-05-8.41951E-19 2.63639E-19
 -1      2120 1.71302E-04-2.91173E-05-6.00282E-05 1.86202E-05 1.68560E-19-7.51742E-19
 -1      2121 1.81102E-04-2.36754E-05-6.64407E-05-1.19773E-06 1.90455E-18-1.30406E-18
 -1      2122 1.82104E-04-2.47857E-05-6.60467E-05 6.42485E-06 6.62803E-19-6.16428E-19
 -1      2123 1.69407E-04-2.45902E-05-6.15568E-05-8.72338E-06 1.77326E-18-2.18026E-18
 -1      2124 1.80083E-04-2.49301E-05-6.51116E-05-4.05379E-06 2.01467E-18-1.71715E-18
 -1      2125 1.53670E-04-3.53646E-05-5.04567E-05-2.10222E-05 7.93802E-19-2.72067E-18
 -1      2126 1.65819E-04-3.29559E-05-5.63184E-05-1.35039E-05 1.11851E-18-1.87110E-18
 -1      2127 1.30536E-04-4.49152E-05-3.69929E-05-2.67476E-05 2.55677E-18-1.66781E-18
 -1      2128 1.47639E-04-4.12628E-05-4.48380E-05-2.79376E-05 1.17949E-18-2.73634E-18
 -1      2129 1.49338E-04-4.31713E-05-4.49903E-05-7.30036E-06 8.14872E-19-1.45901E-18
 -1      2130 9.16860E-05-4.57459E-05-2.04788E-05-3.80970E-05 2.94852E-18-9.76417E-19
 -1      2131 1.13093E-04-4.60382E-05-2.87576E-05-3.91126E-05 2.45894E-18-8.61009E-19
 -1      2132 5.72569E-05-4.30121E-05-7.09920E-06-3.73237E-05 2.90871E-18-3.44954E-19
 -1      2133 7.42099E-05-4.19341E-05-1.41269E-05-4.26087E-05 3.20263E-18-1.04016E-18
 -1      2134 9.53762E-05-5.18652E-05-1.85948E-05-4.05338E-05 1.68475E-18-1.80524E-19
 -1      2135 2.47517E-05-3.66785E-05 3.81681E-06-2.38438E-05-1.00797E-19-3.01904E-18
 -1      2136 3.66545E-05-3.56849E-05-1.06650E-06-3.37636E-05 1.51873E-18-1.33979E-18
 -1      2137 1.26384E-05-3.20743E-05 7.22075E-06-2.96485E-06-9.42602E-19-4.31309E-18
 -1      2138 1.53673E-05-3.06920E-05 5.78842E-06-1.39354E-05-6.49251E-19-4.00138E-18
 -1      2139 1.84852E-05-3.61188E-05 6.17428E-06 1.70944E-05-1.23836E-18-6.43067E-18
 -1      2140 1.31685E-05-3.55737E-05 8.08824E-06 8.59951E-06-5.21984E-20-5.44896E-18
 -1      2141 4.27474E-05-3.73959E-05-2.96789E-06 3.51427E-05-2.35179E-18-5.71578E-18
 -1      2142 2.97444E-05-3.97186E-05 2.63271E-06 2.49623E-05-1.36542E-18-5.78164E-18
 -1      2143 8.32929E-05-4.44398E-05-1.69393E-05 4.19512E-05-3.30597E-18-3.95014E-18
 -1      2144 6.44741E-05-4.49922E-05-9.42541E-06 3.68904E-05-2.45555E-18-4.70270E-18
 -1      2145 1.25154E-04-4.89096E-05-3.28314E-05 3.34979E-05-4.44311E-18-1.17780E-18
 -1      2146 1.03039E-04-4.85267E-05-2.41482E-05 3.49267E-05-3.66765E-18-2.77996E-18
 -1      2147 1.58530E-04-3.93863E-05-4.98906E-05 2.42495E-05-4.84132E-18-2.12309E-18
 -1      2148 1.40627E-04-4.31549E-05-4.16760E-05 2.44363E-05-5.87862E-18-1.39422E-18
 -1      2149 1.71875E-04-3.03348E-05-6.00277E-05 7.46237E-06-2.29461E-18-2.95657E-18
 -1      2150 1.64094E-04-3.38675E-05-5.51509E-05 1.57658E-05-3.68798E-18-3.06329E-18
 -1      2151 1.55937E-04-3.82635E-05-4.96240E-05 4.27302E-06-3.76347E-18-1.50264E-18
 -1      2152 1.78804E-04-2.33014E-05-6.55118E-05-6.44683E-07-4.66715E-19-1.61947E-18
 -1      2153 1.68399E-04-2.11924E-05-6.28270E-05 2.80959E-06-1.16298E-18-2.20313E-18
 -1      2154 1.74300E-04-2.32566E-05-6.40092E-05-5.97426E-06-8.71597E-19-1.25191E-18
 -1      2155 1.79096E-04-2.37564E-05-6.57590E-05-8.03249E-07-3.00697E-19-1.57609E-18
 -1      2156 1.52339E-04-1.10802E-05-5.96604E-05-7.22168E-07-6.03087E-19-7.07537E-19
 -1      2157 1.67970E-04-3.21397E-05-5.74195E-05-1.98345E-05-9.73876E-19-2.39795E-18
 -1      2158 1.79039E-04-3.10183E-05-6.23099E-05-1.23503E-05-8.09340E-19-2.57032E-18
 -1      2159 1.42410E-04-3.91168E-05-4.42766E-05-2.90328E-05-1.73726E-18-1.30274E-18
 -1      2160 1.61417E-04-3.81496E-05-5.16634E-05-2.68650E-05-4.98267E-19-1.15705E-18
 -1      2161 1.11965E-04-4.63012E-05-2.87628E-05-3.49362E-05-2.33781E-18-2.24294E-18
 -1      2162 1.31805E-04-4.39289E-05-3.70646E-05-3.65741E-05-2.32511E-18-2.73803E-18
 -1      2163 7.16825E-05-4.52324E-05-1.26277E-05-3.73979E-05-1.40099E-18 5.44642E-19
 -1      2164 9.15437E-05-4.36369E-05-2.06957E-05-4.28466E-05-1.63308E-18-3.27166E-19
 -1      2165 3.89730E-05-4.23098E-05-1.66959E-07-3.00948E-05-2.00493E-18 1.54880E-18
 -1      2166 5.28305E-05-3.99886E-05-6.22579E-06-3.77550E-05-2.42336E-18 1.16028E-18
 -1      2167 1.81510E-05-3.75551E-05 6.80595E-06-1.52860E-05-1.25827E-18 2.39117E-18
 -1      2168 2.52334E-05-3.63806E-05 3.68493E-06-2.42074E-05-1.15959E-18 1.71439E-18
 -1      2169 1.65686E-04-3.48805E-05-5.46710E-05 2.42911E-05 8.79485E-19-1.05117E-18
 -1      2170 1.47864E-04-3.63019E-05-4.77131E-05 2.61068E-05 1.19135E-18-1.32561E-18
 -1      2171 1.46786E-04-4.65560E-05-4.24905E-05 1.57584E-05 1.08965E-18-2.29461E-18
 -1      2172 9.71725E-05-2.43096E-05-3.13009E-05-1.00086E-05-2.07647E-18 2.68078E-18
 -1      2173 1.60114E-04-3.07571E-05-5.43741E-05 6.08139E-06 4.07211E-19-7.33107E-19
 -1      2174 9.63344E-05-2.30946E-05-3.14517E-05-1.03920E-05-2.26111E-18 1.30190E-18
 -1      2175 1.88268E-05-2.76488E-05 3.15188E-06 1.49459E-05 3.05885E-19 3.15181E-18
 -1      2176 8.10087E-05-4.91703E-05-1.37001E-05 4.31569E-05 6.56027E-19-5.91692E-19
 -1      2177 9.52801E-05-2.60466E-05-2.96582E-05-4.21248E-06-1.12092E-18-7.47220E-19
 -1      2178 1.79478E-05-2.69318E-05 3.19928E-06-1.34976E-05-5.00808E-19 2.52458E-18
 -1      2179 1.21840E-04-5.57741E-05-2.81483E-05 3.19758E-05 7.15743E-20-1.56256E-18
 -1      2180 3.91318E-05-3.60848E-05-1.89908E-06-3.37524E-05-1.45563E-18 2.06422E-18
 -1      2181 7.42254E-05-4.79001E-05-1.16134E-05-4.21580E-05-1.10030E-18-1.47940E-19
 -1      2182 1.14527E-04-5.53032E-05-2.52951E-05-3.54923E-05-1.07531E-18-2.90553E-18
 -1      2183 1.43753E-04-5.07176E-05-3.94270E-05-1.94954E-05-1.25933E-18-3.11369E-18
 -1      2184 1.60256E-04-2.03737E-05-5.89289E-05 3.06156E-07-9.53759E-19-3.46013E-19
 -1      2185 1.57402E-04-2.13252E-05-5.76059E-05-3.00758E-06-1.65298E-18-7.41577E-19
 -1      2186 1.36755E-04-5.11360E-05-3.65526E-05 2.26319E-05-4.20975E-18 1.07997E-19
 -1      2187 1.33672E-04-5.81059E-05-3.18826E-05 2.06933E-05-1.59433E-18 7.59789E-19
 -1      2188 1.44472E-04-5.35169E-05-3.97697E-05 9.60924E-06-3.51619E-18 4.28599E-19
 -1      2189 1.05681E-04-5.47245E-05-2.16546E-05 3.69536E-05-1.03762E-18-1.14731E-18
 -1      2190 6.29553E-05-4.35406E-05-8.56370E-06 4.02197E-05-7.90282E-19-4.59007E-18
 -1      2191 2.85415E-05-3.12437E-05 5.56751E-07 2.71935E-05 1.59877E-19-6.09101E-18
 -1      2192 1.49969E-05-2.39042E-05 3.24141E-06 3.34699E-06-8.43910E-19-5.07584E-18
 -1      2193 5.57917E-05-4.04582E-05-6.85803E-06-4.03732E-05 9.89758E-19-1.16975E-18
 -1      2194 1.29972E-04-5.38684E-05-3.23958E-05-2.62059E-05 1.69576E-18-1.32815E-18
 -1      2195 1.57279E-04-2.63078E-05-5.54015E-05 3.26788E-07 9.73029E-19-1.76289E-18
 -1      2196 1.63377E-04-1.77096E-05-6.10838E-05 1.41549E-06 4.72644E-19-1.16869E-18
 -1      2197 1.59784E-04-1.38730E-05-6.13905E-05 1.36594E-06 1.84103E-18-1.30131E-18
 -1      2198 2.43019E-05-2.67957E-05 6.75797E-07-2.26570E-05-1.85564E-18-3.46394E-18
 -1      2199 1.59570E-04-3.66181E-05-5.16714E-05-7.74584E-06-9.87323E-19-1.86898E-18
 -1      2200 9.51983E-05-2.63724E-05-2.94836E-05 4.20567E-06 1.49848E-18-5.12789E-19
 -1      2201 9.61745E-05-2.58582E-05-3.00620E-05 6.01052E-06 1.80185E-18-3.14716E-19
 -1      2202 8.81499E-05-1.11903E-05-3.30220E-05-3.66569E-06-1.20667E-18-2.78879E-18
 -1      2203 8.83826E-05-1.14608E-05-3.30037E-05-4.80842E-06-1.37367E-18-2.70402E-18
 -1      2204 8.87339E-05-1.19457E-05-3.29545E-05-5.82639E-06-1.46789E-18-2.48598E-18
 -1      2205 8.91369E-05-1.24159E-05-3.29256E-05-7.00300E-06-1.70708E-18-2.27129E-18
 -1      2206 8.99022E-05-1.38294E-05-3.26016E-05-4.90772E-06-1.36095E-18-2.46142E-18
 -1      2207 8.78073E-05-1.07326E-05-3.30661E-05 6.16359E-07-3.38357E-19-3.12036E-18
 -1      2208 8.78029E-05-1.07277E-05-3.30663E-05-4.96105E-07-6.13454E-19-2.97728E-18
 -1      2209 8.79868E-05-1.09570E-05-3.30472E-05 2.76153E-06 9.46241E-20-3.20039E-18
 -1      2210 8.78729E-05-1.08243E-05-3.30568E-05 1.64072E-06-1.29785E-19-3.21626E-18
 -1      2211 8.91257E-05-1.27793E-05-3.27230E-05 1.05135E-06-2.30318E-19-2.99348E-18
 -1      2212 8.84175E-05-1.15027E-05-3.30011E-05 4.89371E-06 5.57991E-19-3.24199E-18
 -1      2213 8.81801E-05-1.12267E-05-3.30197E-05 3.76928E-06 3.05049E-19-3.21662E-18
 -1      2214 8.93895E-05-1.31344E-05-3.26825E-05 3.02566E-06 2.02617E-19-3.05485E-18
 -1      2215 8.91918E-05-1.24832E-05-3.29210E-05 7.08302E-06 1.10126E-18-2.95613E-18
 -1      2216 8.87764E-05-1.19977E-05-3.29507E-05 5.91055E-06 7.91743E-19-3.11880E-18
 -1      2217 8.99424E-05-1.38807E-05-3.25970E-05 4.98262E-06 7.11320E-19-2.97791E-18
 -1      2218 9.04557E-05-1.40901E-05-3.27924E-05 9.23337E-06 1.59069E-18-2.74318E-18
 -1      2219 8.97784E-05-1.32803E-05-3.28386E-05 8.05377E-06 1.25229E-18-2.85144E-18
 -1      2220 9.08723E-05-1.51383E-05-3.24506E-05 6.88018E-06 1.17406E-18-2.72105E-18
 -1      2221 9.24459E-05-1.66586E-05-3.25807E-05 1.11183E-05 2.08139E-18-2.10769E-18
 -1      2222 9.13710E-05-1.53202E-05-3.26536E-05 1.00380E-05 1.76094E-18-2.50225E-18
 -1      2223 9.22894E-05-1.70895E-05-3.22078E-05 8.52756E-06 1.60339E-18-2.38570E-18
 -1      2224 9.42159E-05-2.71118E-05-2.87422E-05 1.77654E-06 1.12281E-18-6.90592E-19
 -1      2225 9.48180E-05-2.68889E-05-2.90411E-05 2.74895E-06 1.34142E-18-4.79795E-19
 -1      2226 9.53258E-05-2.58444E-05-2.97857E-05 4.37335E-06 1.55496E-18-8.73228E-19
 -1      2227 9.58987E-05-2.50878E-05-3.02997E-05-6.19757E-06-1.84023E-18 6.20933E-19
 -1      2228 9.52383E-05-2.58468E-05-2.97558E-05-4.29228E-06-1.72601E-18 4.97620E-19
 -1      2229 1.50920E-04-2.66477E-05-5.36068E-05-2.93265E-06 1.46113E-20-2.15993E-19
 -1      2230 1.47839E-04-3.41602E-05-4.90327E-05-1.01741E-06 8.78797E-19-9.30254E-19
 -1      2231 9.51226E-05-2.65317E-05-2.93388E-05-2.94991E-06-1.53131E-18 5.50041E-19
 -1      2232 9.46535E-05-2.69043E-05-2.90351E-05-1.88911E-06-1.34898E-18 3.95009E-19
 -1      2233 9.53269E-05-2.53506E-05-2.99923E-05-4.30670E-06-1.74374E-18-2.54606E-21
 -1      2234 9.44567E-05-2.72334E-05-2.87715E-05-1.03937E-06-1.18023E-18 4.12388E-19
 -1      2235 9.41975E-05-2.74462E-05-2.86051E-05-4.37740E-07-9.63801E-19 2.11170E-19
 -1      2236 9.50231E-05-2.66978E-05-2.92951E-05-1.93394E-06-1.29653E-18-8.39051E-20
 -1      2237 9.40486E-05-2.76260E-05-2.84441E-05 7.05538E-08-8.38923E-19 1.85102E-19
 -1      2238 9.39493E-05-2.77685E-05-2.83606E-05 4.00945E-07-7.92403E-19 1.49962E-19
 -1      2239 9.47162E-05-2.74235E-05-2.88526E-05-4.54006E-07-1.02538E-18-4.84360E-20
 -1      2240 9.38649E-05-2.78772E-05-2.82678E-05 6.85080E-07-7.52279E-19 6.88023E-20
 -1      2241 9.38703E-05-2.79829E-05-2.82352E-05 8.50948E-07-6.39404E-19 4.25232E-20
 -1      2242 9.45151E-05-2.78497E-05-2.85813E-05 4.18688E-07-8.77887E-19-2.20732E-19
 -1      2243 9.38398E-05-2.80537E-05-2.81875E-05 9.91374E-07-6.67677E-19-6.43305E-20
 -1      2244 9.39079E-05-2.81359E-05-2.81860E-05 1.05718E-06-6.89890E-19-2.86695E-19
 -1      2245 9.44233E-05-2.81158E-05-2.84251E-05 8.94830E-07-8.16710E-19-2.57785E-19
 -1      2246 9.39155E-05-2.81839E-05-2.81678E-05 1.10803E-06-6.43342E-19-2.99247E-19
 -1      2247 9.40172E-05-2.82487E-05-2.81848E-05 1.11482E-06-5.79242E-19-3.69947E-19
 -1      2248 9.44161E-05-2.82881E-05-2.83458E-05 1.11769E-06-7.28548E-19-5.67171E-19
 -1      2249 9.40493E-05-2.82813E-05-2.81857E-05 1.11303E-06-6.89327E-19-2.74582E-19
 -1      2250 9.41663E-05-2.83320E-05-2.82132E-05 1.08803E-06-6.23431E-19-3.57977E-19
 -1      2251 9.44661E-05-2.84002E-05-2.83175E-05 1.18495E-06-6.02235E-19-3.60851E-19
 -1      2252 9.42129E-05-2.83534E-05-2.82263E-05 1.05928E-06-5.53982E-19-3.13640E-19
 -1      2253 9.43343E-05-2.83925E-05-2.82592E-05 1.02121E-06-4.93030E-19-3.43416E-19
 -1      2254 9.45511E-05-2.84706E-05-2.83225E-05 1.16407E-06-7.08580E-19-3.05155E-19
 -1      2255 9.43890E-05-2.84054E-05-2.82802E-05 9.83672E-07-3.81995E-19-2.19555E-19
 -1      2256 9.45096E-05-2.84349E-05-2.83161E-05 9.45790E-07-6.63860E-20-7.72474E-20
 -1      2257 9.46559E-05-2.85108E-05-2.83494E-05 1.10247E-06-4.14592E-19-1.64627E-19
 -1      2258 9.45691E-05-2.84411E-05-2.83424E-05 9.12701E-07-1.22933E-19 2.48683E-20
 -1      2259 9.46878E-05-2.84628E-05-2.83802E-05 8.84788E-07-2.32991E-19 4.85443E-20
 -1      2260 9.47715E-05-2.85280E-05-2.83912E-05 1.03419E-06-1.44342E-19-5.77355E-21
 -1      2261 9.47511E-05-2.84637E-05-2.84107E-05 8.66202E-07-3.26999E-19 1.22535E-20
 -1      2262 9.48701E-05-2.84797E-05-2.84506E-05 8.55934E-07-3.45582E-19-3.23605E-19
 -1      2263 9.48939E-05-2.85275E-05-2.84437E-05 9.84453E-07-2.52872E-19-4.13628E-20
 -1      2264 9.49379E-05-2.84763E-05-2.84853E-05 8.60004E-07-4.83269E-19-4.00083E-19
 -1      2265 9.50619E-05-2.84884E-05-2.85283E-05 8.73919E-07-2.34028E-19-4.67056E-19
 -1      2266 9.50233E-05-2.85126E-05-2.85056E-05 9.72971E-07-3.93808E-19-9.72358E-20
 -1      2267 9.51363E-05-2.84816E-05-2.85678E-05 9.07830E-07-1.35054E-19-4.64075E-19
 -1      2268 9.52719E-05-2.84918E-05-2.86159E-05 9.52035E-07-1.52812E-19-5.50824E-19
 -1      2269 9.51628E-05-2.84860E-05-2.85770E-05 1.01626E-06-2.52395E-19-1.21571E-19
 -1      2270 9.53563E-05-2.84824E-05-2.86616E-05 1.02266E-06-1.50188E-19-8.03276E-19
 -1      2271 9.55122E-05-2.84929E-05-2.87172E-05 1.10330E-06-2.78220E-19-9.86641E-19
 -1      2272 9.53181E-05-2.84494E-05-2.86595E-05 1.12935E-06-4.07917E-19-6.70468E-19
 -1      2273 9.56108E-05-2.84816E-05-2.87707E-05 1.21761E-06-3.12987E-19-1.00814E-18
 -1      2274 9.57970E-05-2.84952E-05-2.88369E-05 1.34109E-06-2.17653E-19-9.63759E-19
 -1      2275 9.54970E-05-2.84043E-05-2.87559E-05 1.32691E-06-4.25893E-19-1.10641E-18
 -1      2276 9.59150E-05-2.84830E-05-2.89003E-05 1.50631E-06-3.30863E-19-1.27198E-18
 -1      2277 9.61434E-05-2.85029E-05-2.89804E-05 1.67926E-06-1.97568E-19-1.31759E-18
 -1      2278 9.57088E-05-2.83525E-05-2.88693E-05 1.62382E-06-2.45590E-19-1.08117E-18
 -1      2279 9.62865E-05-2.84914E-05-2.90558E-05 1.90262E-06 7.14585E-20-1.23073E-18
 -1      2280 9.65706E-05-2.85220E-05-2.91533E-05 2.13144E-06 2.89593E-19-1.27570E-18
 -1      2281 9.59646E-05-2.82968E-05-2.90032E-05 2.03510E-06-3.06007E-19-1.19285E-18
 -1      2282 9.67454E-05-2.85142E-05-2.92427E-05 2.41951E-06 7.77624E-19-1.40875E-18
 -1      2283 9.70997E-05-2.85617E-05-2.93612E-05 2.70922E-06 1.11563E-18-1.26070E-18
 -1      2284 9.62770E-05-2.82422E-05-2.91610E-05 2.57492E-06 6.26218E-19-1.29026E-18
 -1      2285 9.73143E-05-2.85626E-05-2.94656E-05 3.06646E-06 1.03054E-18-8.68288E-19
 -1      2286 9.77545E-05-2.86363E-05-2.96080E-05 3.41865E-06 4.67838E-19-6.66454E-19
 -1      2287 9.66611E-05-2.81983E-05-2.93448E-05 3.25443E-06 1.35269E-18-1.59109E-18
 -1      2288 9.80189E-05-2.86555E-05-2.97276E-05 3.84489E-06 1.64679E-19-2.60590E-19
 -1      2289 9.85614E-05-2.87693E-05-2.98955E-05 4.25397E-06 2.95138E-21 2.21508E-19
 -1      2290 9.71351E-05-2.81830E-05-2.95549E-05 4.07772E-06 7.02715E-19-1.26108E-18
 -1      2291 9.88903E-05-2.88237E-05-3.00285E-05 4.74014E-06-8.60801E-20 1.47236E-20
 -1      2292 9.95516E-05-2.89997E-05-3.02211E-05 5.18742E-06 1.31729E-19 4.05270E-19
 -1      2293 9.77245E-05-2.82288E-05-2.97885E-05 5.03507E-06-2.42107E-20-8.09604E-19
 -1      2294 9.99687E-05-2.91189E-05-3.03630E-05 5.70890E-06 3.93283E-21 1.29340E-19
 -1      2295 1.00765E-04-2.93905E-05-3.05757E-05 6.15343E-06 1.32796E-20 2.08968E-19
 -1      2296 9.84677E-05-2.83927E-05-3.00379E-05 6.09228E-06-1.66733E-19-7.69224E-19
 -1      2297 1.01310E-04-2.96232E-05-3.07190E-05 6.65986E-06 4.24914E-20 9.91133E-20
 -1      2298 1.02256E-04-3.00397E-05-3.09422E-05 7.02591E-06 2.88221E-19-1.87815E-19
 -1      2299 9.94279E-05-2.87695E-05-3.02904E-05 7.17454E-06-3.33958E-19-8.20588E-19
 -1      2300 1.02995E-04-3.04602E-05-3.10773E-05 7.42681E-06 1.02311E-18 3.05749E-20
 -1      2301 1.04103E-04-3.10866E-05-3.12957E-05 7.58936E-06 1.21790E-18 2.97883E-19
 -1      2302 1.00709E-04-2.95075E-05-3.05282E-05 8.14326E-06 7.79393E-19-1.11417E-18
 -1      2303 1.05135E-04-3.17943E-05-3.14142E-05 7.73538E-06 6.54048E-19-2.40504E-19
 -1      2304 1.06404E-04-3.26966E-05-3.16097E-05 7.51012E-06 8.13037E-19-3.97861E-19
 -1      2305 1.02477E-04-3.08149E-05-3.07342E-05 8.76483E-06 5.88085E-19-1.00969E-18
 -1      2306 1.07856E-04-3.37900E-05-3.17127E-05 7.17494E-06 9.28654E-19-4.18072E-19
 -1      2307 1.09245E-04-3.49854E-05-3.18709E-05 6.32887E-06 8.16874E-19-5.60927E-19
 -1      2308 1.04957E-04-3.29284E-05-3.09053E-05 8.67406E-06 9.11211E-19-1.02192E-18
 -1      2309 1.11213E-04-3.64811E-05-3.19848E-05 5.21240E-06 6.65647E-19-5.85636E-19
 -1      2310 1.12580E-04-3.78276E-05-3.21103E-05 3.52917E-06 2.59622E-19-3.77218E-19
 -1      2311 1.08385E-04-3.59878E-05-3.10785E-05 7.35055E-06 6.70026E-19-1.26389E-18
 -1      2312 1.14988E-04-3.94920E-05-3.23079E-05 1.32533E-06-3.98291E-19 3.48690E-20
 -1      2313 1.15997E-04-4.05010E-05-3.24428E-05-1.22938E-06-3.12919E-19 9.00857E-19
 -1      2314 1.12806E-04-3.97414E-05-3.13714E-05 4.17416E-06 3.08889E-19-8.52444E-19
 -1      2315 1.18333E-04-4.16128E-05-3.28554E-05-4.55232E-06-3.56952E-19 6.38119E-19
 -1      2316 1.18442E-04-4.13899E-05-3.30874E-05-7.51446E-06-7.03540E-19 1.08605E-18
 -1      2317 1.17679E-04-4.30424E-05-3.20238E-05-1.33630E-06-2.67341E-19 3.46939E-19
 -1      2318 1.19608E-04-4.07620E-05-3.38669E-05-1.11413E-05-2.05348E-19 1.71200E-18
 -1      2319 1.18393E-04-3.84431E-05-3.42659E-05-1.32629E-05 5.60339E-19 1.75046E-18
 -1      2320 1.21357E-04-4.34200E-05-3.33823E-05-8.60256E-06 1.25111E-20 7.36727E-19
 -1      2321 1.17250E-04-3.51785E-05-3.53940E-05-1.50603E-05 7.93842E-19 1.78040E-18
 -1      2322 1.14969E-04-3.11096E-05-3.59060E-05-1.44505E-05 3.16473E-19 1.67129E-18
 -1      2323 1.21465E-04-3.83488E-05-3.56257E-05-1.49669E-05 4.12240E-19 1.64895E-18
 -1      2324 1.12553E-04-2.70234E-05-3.69383E-05-1.20133E-05-1.22656E-18 1.81565E-18
 -1      2325 1.10567E-04-2.37093E-05-3.72916E-05-8.31402E-06-1.86694E-18 1.07575E-18
 -1      2326 1.17726E-04-2.92497E-05-3.79517E-05-1.48148E-05-8.67057E-19 9.35468E-19
 -1      2327 1.09640E-04-2.19845E-05-3.76476E-05-1.88145E-06-2.69824E-18 1.48851E-18
 -1      2328 1.09786E-04-2.23479E-05-3.75869E-05 3.14169E-06-2.44875E-18 1.21285E-18
 -1      2329 1.13651E-04-2.08719E-05-3.98708E-05-5.56453E-06-2.31206E-18 1.66897E-18
 -1      2330 1.11043E-04-2.47502E-05-3.70406E-05 9.11964E-06-1.58400E-18 2.30348E-19
 -1      2331 1.13171E-04-2.84962E-05-3.65789E-05 1.22797E-05-1.34657E-18-1.87466E-19
 -1      2332 1.14049E-04-2.18439E-05-3.96288E-05 6.68261E-06-2.58313E-18 1.12907E-18
 -1      2333 1.15475E-04-3.27064E-05-3.54243E-05 1.37464E-05-1.11562E-18-1.34808E-18
 -1      2334 1.17475E-04-3.65266E-05-3.48795E-05 1.36681E-05-6.46306E-19-2.17197E-18
 -1      2335 1.18410E-04-3.09569E-05-3.75728E-05 1.44902E-05-2.22939E-18-1.54186E-18
 -1      2336 1.18056E-04-3.92878E-05-3.37738E-05 1.12635E-05 9.06343E-19-1.84511E-18
 -1      2337 1.18858E-04-4.11505E-05-3.33587E-05 8.78442E-06 7.03130E-19-1.02748E-18
 -1      2338 1.21419E-04-3.98536E-05-3.49463E-05 1.27533E-05 3.77221E-19-1.18184E-18
 -1      2339 1.17297E-04-4.13284E-05-3.26271E-05 5.04803E-06 5.92268E-19-5.95509E-19
 -1      2340 1.16802E-04-4.11990E-05-3.23747E-05 2.03180E-06 9.94255E-19 2.05194E-19
 -1      2341 1.20273E-04-4.36604E-05-3.28240E-05 5.83019E-06 1.30900E-18-3.13963E-19
 -1      2342 1.14322E-04-3.98999E-05-3.19804E-05-1.18355E-06 1.04934E-18 1.29722E-18
 -1      2343 1.13036E-04-3.87219E-05-3.18027E-05-3.66523E-06 1.24563E-18 2.06537E-18
 -1      2344 1.16068E-04-4.24918E-05-3.15678E-05-1.34821E-06 1.92478E-18 1.07358E-18
 -1      2345 1.10588E-04-3.70156E-05-3.15991E-05-5.73146E-06-3.96021E-20 2.68813E-18
 -1      2346 1.09006E-04-3.56011E-05-3.14201E-05-7.30927E-06 3.86733E-19 3.18546E-18
 -1      2347 1.11031E-04-3.89483E-05-3.09506E-05-6.58699E-06 9.34737E-19 2.71417E-18
 -1      2348 1.07033E-04-3.41202E-05-3.12882E-05-8.31238E-06 7.62553E-19 2.25231E-18
 -1      2349 1.05456E-04-3.28759E-05-3.10779E-05-9.05858E-06 9.04936E-19 1.87334E-18
 -1      2350 1.06567E-04-3.51641E-05-3.06507E-05-9.50763E-06-4.13505E-19 2.11071E-18
 -1      2351 1.03974E-04-3.17694E-05-3.09612E-05-9.29901E-06 1.07411E-19 1.09928E-18
 -1      2352 1.02523E-04-3.07817E-05-3.07270E-05-9.40861E-06-2.13683E-19 1.09892E-18
 -1      2353 1.03103E-04-3.21081E-05-3.04602E-05-1.06267E-05 1.08891E-19 1.25344E-18
 -1      2354 1.01417E-04-2.99919E-05-3.06118E-05-9.13632E-06-2.98022E-19 1.29334E-18
 -1      2355 1.00131E-04-2.92156E-05-3.03770E-05-8.79307E-06-7.71030E-19 1.02320E-18
 -1      2356 1.00512E-04-2.98757E-05-3.02935E-05-1.04942E-05-3.65476E-20 1.31785E-18
 -1      2357 9.92637E-05-2.86187E-05-3.02692E-05-8.17299E-06-1.64417E-18 1.42853E-18
 -1      2358 9.81685E-05-2.79914E-05-3.00609E-05-7.49365E-06-1.30735E-18 1.19431E-18
 -1      2359 9.85406E-05-2.82552E-05-3.01337E-05-9.51758E-06-9.32169E-19 3.57100E-19
 -1      2360 5.48125E-05-3.58865E-05-8.04940E-06 4.12908E-05 9.52912E-19-1.84653E-18
 -1      2361 4.10846E-05-2.99196E-05-4.44707E-06 3.36646E-05 6.03087E-19 1.20321E-18
 -1      2362 9.33167E-05-2.76837E-05-2.81211E-05-4.00077E-07 7.31696E-19-1.19028E-18
 -1      2363 9.33958E-05-2.75793E-05-2.81826E-05-1.13754E-07 7.92932E-19-9.09503E-19
 -1      2364 9.32649E-05-2.78469E-05-2.80314E-05-8.08869E-07 8.71444E-19-1.51474E-18
 -1      2365 9.32205E-05-2.77568E-05-2.80428E-05-6.68326E-07 8.50879E-19-1.27526E-18
 -1      2366 9.39950E-05-2.78017E-05-2.83798E-05-4.33454E-07 9.88115E-19-1.30202E-18
 -1      2367 9.33598E-05-2.79808E-05-2.80163E-05-9.90066E-07 5.78289E-19-1.76716E-18
 -1      2368 9.32466E-05-2.79010E-05-2.79987E-05-9.36494E-07 6.68114E-19-1.57750E-18
 -1      2369 9.39089E-05-2.80093E-05-2.82508E-05-8.85404E-07 9.07804E-19-1.36849E-18
 -1      2370 9.35385E-05-2.80939E-05-2.80454E-05-1.03448E-06 5.20012E-19-1.61884E-18
 -1      2371 9.33918E-05-2.80241E-05-2.80121E-05-1.03180E-06 4.89727E-19-1.61060E-18
 -1      2372 9.39399E-05-2.81557E-05-2.81987E-05-1.09001E-06 5.20958E-19-1.49236E-18
 -1      2373 9.37585E-05-2.81892E-05-2.80995E-05-1.00167E-06 2.34643E-19-1.27009E-18
 -1      2374 9.36000E-05-2.81292E-05-2.80586E-05-1.02639E-06 4.21285E-19-1.39563E-18
 -1      2375 9.40436E-05-2.82630E-05-2.81952E-05-1.14487E-06 3.44343E-19-1.16792E-18
 -1      2376 9.39937E-05-2.82683E-05-2.81667E-05-9.32001E-07 5.87798E-19-1.14461E-18
 -1      2377 9.38357E-05-2.82177E-05-2.81229E-05-9.68181E-07 5.46235E-19-1.11211E-18
 -1      2378 9.41876E-05-2.83421E-05-2.82217E-05-1.11534E-06 4.48289E-19-9.38791E-19
 -1      2379 9.42300E-05-2.83331E-05-2.82402E-05-8.53583E-07 8.61574E-19-1.34058E-18
 -1      2380 9.40781E-05-2.82911E-05-2.81959E-05-8.90068E-07 8.27189E-19-1.19802E-18
 -1      2381 9.43511E-05-2.83993E-05-2.82665E-05-1.04643E-06 8.35397E-19-7.90559E-19
 -1      2382 9.44625E-05-2.83862E-05-2.83169E-05-7.86627E-07 6.90791E-19-1.57385E-18
 -1      2383 9.43174E-05-2.83512E-05-2.82729E-05-8.15300E-07 7.26510E-19-1.40806E-18
 -1      2384 9.45225E-05-2.84392E-05-2.83224E-05-9.69907E-07 8.86395E-19-9.07743E-19
 -1      2385 9.46929E-05-2.84303E-05-2.83963E-05-7.46313E-07 2.51603E-19-1.43637E-18
 -1      2386 9.45518E-05-2.84005E-05-2.83522E-05-7.60952E-07 7.50824E-19-1.38095E-18
 -1      2387 9.46969E-05-2.84654E-05-2.83857E-05-9.08851E-07 6.38590E-19-1.02696E-18
 -1      2388 9.49282E-05-2.84689E-05-2.84800E-05-7.44763E-07-3.09179E-19-1.47001E-18
 -1      2389 9.47855E-05-2.84419E-05-2.84343E-05-7.40251E-07-3.46718E-20-1.45000E-18
 -1      2390 9.48752E-05-2.84813E-05-2.84554E-05-8.80826E-07 1.57045E-19-1.29712E-18
 -1      2391 9.51794E-05-2.85057E-05-2.85710E-05-7.92372E-07-8.64145E-21-1.48900E-18
 -1      2392 9.50275E-05-2.84792E-05-2.85216E-05-7.64176E-07-1.67383E-19-1.56490E-18
 -1      2393 9.50624E-05-2.84899E-05-2.85322E-05-8.99996E-07-1.97344E-19-1.30514E-18
 -1      2394 9.54613E-05-2.85456E-05-2.86737E-05-8.98609E-07 4.15306E-19-1.82950E-18
 -1      2395 9.52903E-05-2.85163E-05-2.86179E-05-8.42495E-07 3.19734E-19-1.63990E-18
 -1      2396 9.52666E-05-2.84946E-05-2.86181E-05-9.78562E-07 1.49568E-19-1.11994E-18
 -1      2397 9.57912E-05-2.85939E-05-2.87931E-05-1.07227E-06 1.60936E-19-1.74030E-18
 -1      2398 9.55899E-05-2.85583E-05-2.87277E-05-9.84268E-07 1.34116E-19-1.84787E-18
 -1      2399 9.54990E-05-2.84990E-05-2.87163E-05-1.12755E-06 4.29701E-19-1.51452E-18
 -1      2400 9.61893E-05-2.86576E-05-2.89350E-05-1.32113E-06 1.22689E-19-1.38962E-18
 -1      2401 9.59449E-05-2.86113E-05-2.88566E-05-1.19779E-06 3.63111E-19-1.57834E-18
 -1      2402 9.57732E-05-2.85079E-05-2.88306E-05-1.35694E-06 1.55169E-19-1.37343E-18
 -1      2403 9.66777E-05-2.87454E-05-2.91054E-05-1.65071E-06 3.83671E-20-1.47534E-18
 -1      2404 9.63765E-05-2.86829E-05-2.90103E-05-1.48983E-06-1.43330E-19-1.44116E-18
 -1      2405 9.61052E-05-2.85278E-05-2.89650E-05-1.67510E-06-1.04903E-19-9.51185E-19
 -1      2406 9.72800E-05-2.88685E-05-2.93095E-05-2.06203E-06 4.20467E-19-1.88243E-18
 -1      2407 9.69078E-05-2.87831E-05-2.91945E-05-1.86387E-06 7.83950E-19-1.18776E-18
 -1      2408 9.65129E-05-2.85678E-05-2.91232E-05-2.08709E-06 1.25633E-19-4.40760E-19
 -1      2409 9.80197E-05-2.90419E-05-2.95515E-05-2.54769E-06 4.70104E-19-1.93640E-18
 -1      2410 9.75632E-05-2.89252E-05-2.94140E-05-2.31714E-06 1.71222E-19-1.95920E-18
 -1      2411 9.70165E-05-2.86412E-05-2.93083E-05-2.59182E-06 4.97589E-19-1.46867E-18
 -1      2412 9.89188E-05-2.92855E-05-2.98325E-05-3.08599E-06-6.98207E-20-1.30028E-18
 -1      2413 9.83673E-05-2.91268E-05-2.96717E-05-2.83568E-06 4.63597E-19-1.80875E-18
 -1      2414 9.76385E-05-2.87679E-05-2.95212E-05-3.17727E-06 1.32898E-19-1.36265E-18
 -1      2415 9.99948E-05-2.96260E-05-3.01495E-05-3.63250E-06-9.21010E-19-1.16003E-18
 -1      2416 9.93429E-05-2.94121E-05-2.99671E-05-3.38727E-06-4.86084E-19-9.89131E-19
 -1      2417 9.84038E-05-2.89770E-05-2.97603E-05-3.81356E-06-4.74836E-19-1.37467E-19
 -1      2418 1.01257E-04-3.00969E-05-3.04929E-05-4.10908E-06-4.53973E-19-1.17180E-18
 -1      2419 1.00509E-04-2.98127E-05-3.02946E-05-3.91155E-06-9.97628E-19-1.00883E-18
 -1      2420 9.93408E-05-2.93100E-05-3.00200E-05-4.44321E-06-8.12921E-19-4.07786E-19
 -1      2421 1.02702E-04-3.07375E-05-3.08449E-05-4.39180E-06-5.52039E-19-1.78215E-18
 -1      2422 1.01877E-04-3.03682E-05-3.06420E-05-4.30802E-06-1.84227E-19-1.45514E-18
 -1      2423 1.00481E-04-2.98229E-05-3.02899E-05-4.96902E-06-3.17462E-19-1.00797E-18
 -1      2424 1.04301E-04-3.15838E-05-3.11791E-05-4.30213E-06-5.94784E-20-1.21664E-18
 -1      2425 1.03441E-04-3.11212E-05-3.09889E-05-4.42421E-06-4.30779E-19-1.67001E-18
 -1      2426 1.01858E-04-3.05837E-05-3.05552E-05-5.24104E-06-5.62800E-19-4.98466E-19
 -1      2427 1.05988E-04-3.26441E-05-3.14625E-05-3.61205E-06-8.28848E-19-6.77670E-19
 -1      2428 1.05168E-04-3.21017E-05-3.13076E-05-4.05132E-06-2.08011E-19-1.06146E-18
 -1      2429 1.03498E-04-3.16571E-05-3.07994E-05-5.04802E-06-4.51514E-19-1.27746E-18
 -1      2430 1.07625E-04-3.38504E-05-3.16636E-05-2.08220E-06-1.02968E-18 7.25007E-20
 -1      2431 1.06965E-04-3.32900E-05-3.15683E-05-2.94183E-06-1.06603E-18-1.94469E-19
 -1      2432 1.05397E-04-3.30638E-05-3.10107E-05-4.12522E-06-1.10274E-18-1.44291E-18
 -1      2433 1.08967E-04-3.49809E-05-3.17663E-05 4.36151E-07-2.87591E-19 7.45667E-19
 -1      2434 1.08637E-04-3.45482E-05-3.17482E-05-8.77038E-07-4.40669E-19 3.31974E-19
 -1      2435 1.07464E-04-3.46980E-05-3.11929E-05-2.20194E-06-1.27094E-18-1.35050E-18
 -1      2436 1.09630E-04-3.55927E-05-3.17854E-05 3.81179E-06-4.55257E-19-8.62534E-20
 -1      2437 1.09829E-04-3.55342E-05-3.18460E-05 2.17946E-06-4.38902E-20 8.95995E-19
 -1      2438 1.09431E-04-3.62085E-05-3.13783E-05 8.69654E-07-2.92580E-19-8.01499E-20
 -1      2439 1.09151E-04-3.50761E-05-3.17728E-05 7.38278E-06 1.26658E-19-1.16276E-18
 -1      2440 1.10033E-04-3.56720E-05-3.18890E-05 5.83672E-06-1.06581E-19-4.00885E-19
 -1      2441 1.10774E-04-3.69211E-05-3.16287E-05 4.86790E-06 1.23305E-19 9.23911E-20
 -1      2442 1.07226E-04-3.29582E-05-3.18053E-05 9.86439E-06-6.79147E-19-1.57237E-18
 -1      2443 1.08756E-04-3.43426E-05-3.19334E-05 9.06102E-06-5.21259E-19-1.36329E-18
 -1      2444 1.10796E-04-3.59810E-05-3.20161E-05 8.91893E-06-1.88941E-19-8.32817E-19
 -1      2445 1.04193E-04-2.95546E-05-3.19222E-05 9.61838E-06-3.17356E-19-8.08089E-19
 -1      2446 1.05966E-04-3.13697E-05-3.20216E-05 1.02243E-05-6.03650E-19-1.19290E-18
 -1      2447 1.09009E-04-3.29324E-05-3.25717E-05 1.12954E-05-9.97141E-19-4.99862E-19
 -1      2448 1.01317E-04-2.63401E-05-3.20734E-05 5.82821E-06 2.26184E-20 9.85255E-20
 -1      2449 1.02621E-04-2.77413E-05-3.21315E-05 7.97531E-06-8.10703E-20-6.34315E-19
 -1      2450 1.05920E-04-2.84887E-05-3.31888E-05 1.01595E-05-4.05742E-19 4.36495E-19
 -1      2451 1.00239E-04-2.52183E-05-3.21366E-05-3.98311E-07 5.85485E-19 7.74732E-19
 -1      2452 1.00467E-04-2.53950E-05-3.21633E-05 2.52697E-06-7.94093E-21 1.40823E-19
 -1      2453 1.03271E-04-2.49563E-05-3.36241E-05 4.87861E-06 4.78375E-20-8.32559E-19
 -1      2454 1.01728E-04-2.70300E-05-3.20446E-05-6.28870E-06 5.54327E-19 1.86811E-18
 -1      2455 1.00766E-04-2.58458E-05-3.20402E-05-3.91442E-06 9.95330E-19 1.17904E-18
 -1      2456 1.02873E-04-2.45266E-05-3.36310E-05-2.52308E-06 2.75425E-19 3.07496E-19
 -1      2457 1.04728E-04-3.05117E-05-3.18647E-05-9.22594E-06 1.31025E-19 1.78036E-18
 -1      2458 1.03152E-04-2.87415E-05-3.18185E-05-8.31998E-06 4.36308E-19 2.32171E-18
 -1      2459 1.05014E-04-2.75901E-05-3.31971E-05-8.44474E-06 5.14473E-19 1.31017E-18
 -1      2460 1.07484E-04-3.36768E-05-3.16771E-05-8.60354E-06-1.25923E-18 7.29180E-19
 -1      2461 1.06024E-04-3.22108E-05-3.16034E-05-9.19121E-06 1.17570E-19 1.28388E-18
 -1      2462 1.07977E-04-3.19993E-05-3.25289E-05-1.03927E-05 4.71779E-19 2.49673E-18
 -1      2463 1.08811E-04-3.53022E-05-3.15253E-05-5.54771E-06-1.34056E-18-3.75439E-19
 -1      2464 1.07956E-04-3.45952E-05-3.14590E-05-7.03220E-06-1.84580E-18 1.13618E-19
 -1      2465 1.09915E-04-3.54480E-05-3.18699E-05-8.48211E-06-6.77208E-19 1.22257E-18
 -1      2466 1.08550E-04-3.53335E-05-3.13817E-05-1.72401E-06 1.34480E-19-8.60226E-21
 -1      2467 1.08415E-04-3.53404E-05-3.13666E-05-3.41137E-06-4.79176E-19-5.25728E-19
 -1      2468 1.10026E-04-3.67808E-05-3.13617E-05-4.46810E-06-7.27461E-19-9.99648E-22
 -1      2469 1.07147E-04-3.43465E-05-3.11953E-05 1.65132E-06 7.12236E-20-6.55276E-19
 -1      2470 1.07605E-04-3.48000E-05-3.12582E-05 2.25073E-07 5.76810E-19-3.15239E-19
 -1      2471 1.08638E-04-3.62668E-05-3.10099E-05-1.92751E-07-3.89883E-20-1.49908E-19
 -1      2472 1.05143E-04-3.29460E-05-3.09337E-05 4.02720E-06 2.11162E-18-1.36542E-18
 -1      2473 1.05990E-04-3.35892E-05-3.10753E-05 3.05845E-06 7.18562E-19-1.19280E-18
 -1      2474 1.06458E-04-3.47313E-05-3.07477E-05 3.24748E-06 1.16277E-18-1.68194E-18
 -1      2475 1.02945E-04-3.15171E-05-3.06023E-05 5.32486E-06 1.35768E-18 6.02889E-19
 -1      2476 1.03988E-04-3.21892E-05-3.08015E-05 4.83036E-06 1.64106E-18-2.09242E-19
 -1      2477 1.04070E-04-3.29059E-05-3.05110E-05 5.47744E-06 8.47495E-19-5.15212E-19
 -1      2478 1.00795E-04-3.02207E-05-3.02341E-05 5.67588E-06 3.83591E-19 1.31862E-18
 -1      2479 1.01886E-04-3.08503E-05-3.04591E-05 5.59762E-06 1.19855E-18 1.11719E-18
 -1      2480 1.01793E-04-3.11903E-05-3.02705E-05 6.54012E-06 8.41321E-19 2.15545E-18
 -1      2481 9.88235E-05-2.90836E-05-2.98735E-05 5.25022E-06 1.24587E-18 1.08767E-18
 -1      2482 9.98556E-05-2.96513E-05-3.00916E-05 5.51980E-06 6.14106E-19 1.32813E-18
 -1      2483 9.97471E-05-2.97073E-05-3.00278E-05 6.62600E-06 5.57078E-19 2.06984E-18
 -1      2484 9.71019E-05-2.81022E-05-2.95556E-05 4.19193E-06 1.09032E-19 1.29979E-18
 -1      2485 9.80033E-05-2.85928E-05-2.97441E-05 4.74613E-06 9.76814E-19 1.33801E-18
 -1      2486 9.79515E-05-2.84324E-05-2.98027E-05 5.92480E-06 1.19361E-18 2.11089E-18
 -1      2487 9.63983E-05-2.77068E-05-2.94308E-05 3.36719E-06-1.77042E-19 9.30773E-19
 -1      2488 9.22854E-05-2.13960E-05-3.04049E-05 6.23890E-06 2.66395E-19 3.56552E-19
 -1      2489 9.29452E-05-2.23307E-05-3.02522E-05 6.55415E-06 7.15024E-19-2.97818E-18
 -1      2490 9.10555E-05-1.97508E-05-3.05903E-05 4.94636E-06-1.06887E-18 8.62044E-19
 -1      2491 9.16431E-05-2.05401E-05-3.04681E-05 5.65474E-06-1.12715E-18 7.47997E-19
 -1      2492 9.18562E-05-2.16961E-05-3.00628E-05 6.79704E-06-2.78102E-19 1.58751E-19
 -1      2493 9.48183E-05-2.49634E-05-2.99424E-05 6.31783E-06-1.40242E-19 6.98444E-19
 -1      2494 9.54172E-05-2.58781E-05-2.97856E-05 5.92190E-06 2.08119E-19 2.24580E-18
 -1      2495 9.35900E-05-2.32054E-05-3.01784E-05 6.67634E-06-1.33414E-18-3.06162E-18
 -1      2496 9.42313E-05-2.41548E-05-3.00181E-05 6.60874E-06-1.80908E-18-7.29232E-19
 -1      2497 9.48807E-05-2.51990E-05-2.98658E-05 7.33199E-06-9.85740E-19-9.91451E-19
 -1      2498 9.33959E-05-2.34725E-05-2.99687E-05 7.52552E-06-7.76022E-20-1.92144E-18
 -1      2499 9.01116E-05-1.85338E-05-3.07091E-05 2.88003E-06-2.09511E-18 4.03128E-19
 -1      2500 9.05230E-05-1.90551E-05-3.06341E-05 3.91868E-06-1.78598E-18 8.81814E-19
 -1      2501 9.04460E-05-2.00971E-05-3.01338E-05 5.09572E-06-1.14487E-18 6.12775E-20
 -1      2502 8.96605E-05-1.79829E-05-3.07470E-05 2.90003E-07-1.71216E-18 5.36182E-19
 -1      2503 8.98032E-05-1.81392E-05-3.07292E-05 1.52150E-06-2.13999E-18 1.34509E-19
 -1      2504 8.94351E-05-1.89702E-05-3.01745E-05 2.55688E-06-1.81248E-18 1.22496E-18
 -1      2505 8.98288E-05-1.82350E-05-3.07013E-05-2.42697E-06-7.24057E-19 1.23879E-20
 -1      2506 8.96602E-05-1.79869E-05-3.07429E-05-1.19553E-06-1.13075E-18 1.53259E-18
 -1      2507 8.90616E-05-1.85651E-05-3.01844E-05-4.81227E-07-5.98569E-19 1.03322E-18
 -1      2508 9.05871E-05-1.92417E-05-3.05821E-05-4.78718E-06 6.27160E-19-3.33415E-19
 -1      2509 9.01397E-05-1.86364E-05-3.06754E-05-3.77063E-06 4.32350E-19-1.30931E-18
 -1      2510 8.94376E-05-1.89865E-05-3.01675E-05-3.50317E-06 2.41088E-19 3.15540E-19
 -1      2511 9.18294E-05-2.08708E-05-3.04045E-05-6.48972E-06 3.58702E-19 1.31145E-18
 -1      2512 9.11628E-05-1.99773E-05-3.05387E-05-5.81553E-06-1.49769E-19 6.71182E-19
 -1      2513 9.04985E-05-2.01574E-05-3.01289E-05-6.03230E-06 1.08503E-18-1.03526E-18
 -1      2514 9.33552E-05-2.28620E-05-3.01967E-05-7.24104E-06 4.40355E-19 2.55459E-19
 -1      2515 9.25696E-05-2.18069E-05-3.03510E-05-7.02942E-06 4.02691E-19 1.24161E-18
 -1      2516 9.20699E-05-2.18791E-05-3.00762E-05-7.69305E-06-1.66263E-22 1.09110E-18
 -1      2517 9.49590E-05-2.49444E-05-2.99854E-05-6.94931E-06-1.57782E-18-7.72368E-19
 -1      2518 9.41543E-05-2.38540E-05-3.01409E-05-7.23251E-06-5.67989E-19-5.92378E-19
 -1      2519 9.38919E-05-2.38652E-05-3.00124E-05-8.23577E-06-1.14415E-18-6.41380E-19
 -1      2520 9.59349E-05-2.63899E-05-2.97967E-05-5.23131E-06-8.57386E-19-2.71014E-19
 -1      2521 1.88928E-05-2.00618E-05 6.67025E-07-6.76527E-06 2.63692E-19 3.26531E-18
 -1      2522 2.46458E-05-2.23676E-05-8.21935E-07-2.04335E-05-5.65289E-19 3.28225E-18
 -1      2523 9.36015E-05-2.74654E-05-2.83324E-05 3.81448E-07 7.85325E-19-8.94202E-19
 -1      2524 9.38854E-05-2.73302E-05-2.84799E-05 9.15264E-07 8.82196E-19-7.45144E-19
 -1      2525 9.42516E-05-2.74833E-05-2.86284E-05 4.16063E-07 9.50177E-19-1.11026E-18
 -1      2526 9.56786E-05-5.29077E-05-1.85621E-05 4.21987E-05-5.08220E-20-1.61861E-18
 -1      2527 7.49139E-05-4.55662E-05-1.22685E-05 4.24190E-05 8.84091E-19-2.28265E-18
 -1      2528 3.81735E-05-2.93524E-05-3.50708E-06-3.17262E-05-9.67312E-19 1.85776E-18
 -1      2529 5.28435E-05-3.65585E-05-6.91708E-06-4.01944E-05-1.19643E-18 1.07658E-18
 -1      2530 9.50621E-05-2.00215E-05-3.22088E-05-1.17442E-05-2.36709E-18 4.18448E-19
 -1      2531 9.54622E-05-2.33839E-05-3.09219E-05-7.99119E-06-2.09602E-18 5.07486E-19
 -1      2532 9.50589E-05-2.25341E-05-3.10495E-05-7.67550E-06-2.03673E-18-7.33626E-20
 -1      2533 9.32111E-05-1.75761E-05-3.24125E-05-1.13746E-05-2.40300E-18-2.74174E-19
 -1      2534 1.31990E-04-5.83589E-05-3.19068E-05 2.40775E-05-5.24313E-19-3.06266E-18
 -1      2535 1.16803E-04-5.81713E-05-2.48613E-05 3.14605E-05-3.95141E-19-2.24803E-18
 -1      2536 1.44995E-04-2.93841E-05-4.99318E-05 5.80082E-06-3.30343E-20-2.41193E-19
 -1      2537 1.45914E-04-2.00418E-05-5.44833E-05 6.77316E-06 7.76517E-19-2.53475E-19
 -1      2538 8.78588E-05-1.08071E-05-3.30579E-05-1.52049E-06-7.99162E-19-2.93590E-18
 -1      2539 8.79632E-05-1.09289E-05-3.30490E-05-2.64064E-06-1.02929E-18-2.83321E-18
 -1      2540 8.93622E-05-1.31012E-05-3.26853E-05-2.93399E-06-1.09648E-18-2.61171E-18
 -1      2541 8.91159E-05-1.27673E-05-3.27241E-05-9.42286E-07-7.19402E-19-2.81391E-18
 -1      2542 1.41360E-04-1.18028E-05-5.60330E-05 4.57689E-06 1.36881E-18 1.03762E-20
 -1      2543 1.42543E-04-1.03206E-05-5.71357E-05 8.99788E-07 7.24637E-19-8.56350E-19
 -1      2544 2.57573E-05-1.91288E-05-2.41944E-06-1.84831E-05-2.45661E-18-3.94061E-18
 -1      2545 3.55013E-05-2.54336E-05-4.02082E-06-3.12996E-05-1.73345E-18-3.37860E-18
 -1      2546 1.46153E-04-1.28386E-05-5.77076E-05-3.39407E-06 6.74662E-19-1.15398E-18
 -1      2547 1.48903E-04-1.85510E-05-5.61748E-05-3.79498E-06 3.75236E-19-9.87852E-19
 -1      2548 1.40195E-04-2.15034E-05-5.09828E-05-8.75356E-06 1.78300E-19-9.47936E-19
 -1      2549 1.42720E-04-4.77810E-05-4.07667E-05-2.57115E-06 3.75739E-19 2.27852E-19
 -1      2550 1.45976E-04-4.12214E-05-4.54051E-05 1.29902E-06-2.20652E-19 2.64910E-19
 -1      2551 1.23375E-04-5.74288E-05-2.81203E-05-2.65690E-05 8.52750E-19-5.31725E-19
 -1      2552 1.37065E-04-5.55630E-05-3.53923E-05-1.64704E-05 6.96473E-19-5.59465E-19
 -1      2553 9.16844E-05-5.13178E-05-1.70709E-05-4.00823E-05 4.77727E-19 6.55690E-19
 -1      2554 1.07587E-04-5.55666E-05-2.25276E-05-3.74406E-05 5.58195E-19 3.08796E-19
 -1      2555 1.49587E-04-4.15870E-05-4.65096E-05-1.08547E-06-6.92873E-19-1.30380E-18
 -1      2556 1.53110E-04-3.39352E-05-5.15081E-05 2.50577E-06-8.05528E-19-1.16404E-18
 -1      2557 5.09556E-05-3.45058E-05-6.79681E-06-3.82295E-05-8.02775E-19-1.34551E-18
 -1      2558 7.09594E-05-4.28002E-05-1.20579E-05-4.36032E-05 2.20017E-19 1.90477E-19
 -1      2559 2.11263E-05-2.03829E-05-1.20890E-07 1.34922E-05-5.97582E-19-5.48073E-18
 -1      2560 1.94500E-05-1.65224E-05-8.86290E-07-1.31853E-07-1.71410E-18-3.93786E-18
 -1      2561 3.92280E-05-2.81219E-05-4.61932E-06 3.31405E-05 5.38078E-19-4.89754E-18
 -1      2562 2.81354E-05-2.39313E-05-1.59683E-06 2.27146E-05 3.23037E-19-5.78820E-18
 -1      2563 3.20240E-05-1.88265E-05-5.07803E-06 1.88868E-05 2.00006E-19-4.72475E-18
 -1      2564 7.91671E-05-4.66396E-05-1.39967E-05 4.24113E-05 1.68560E-19-2.72003E-18
 -1      2565 5.81940E-05-3.80956E-05-8.35470E-06 3.87645E-05 3.75236E-19-4.61252E-18
 -1      2566 1.16979E-04-5.83528E-05-2.53609E-05 3.13760E-05-1.75759E-20 6.55392E-20
 -1      2567 9.98471E-05-5.47123E-05-1.92082E-05 3.68487E-05-1.25361E-19-1.12592E-18
 -1      2568 1.49888E-04-3.62429E-05-4.92172E-05-4.55950E-06-2.67969E-18-8.36445E-19
 -1      2569 1.48273E-04-4.42852E-05-4.47943E-05-1.07126E-06-3.45219E-18-1.67289E-19
 -1      2570 1.42704E-04-1.60544E-05-5.49751E-05-8.25648E-06-1.49332E-18-9.43383E-19
 -1      2571 1.47670E-04-2.58354E-05-5.25440E-05-8.98069E-06-2.20906E-18-1.23434E-18
 -1      2572 1.38941E-04-1.19790E-05-5.50422E-05 2.70082E-06-6.29345E-19-1.51921E-18
 -1      2573 1.37858E-04-1.13368E-05-5.49006E-05-3.27377E-06-1.23116E-18-1.49766E-18
 -1      2574 1.50143E-04-2.37959E-05-5.43105E-05 5.66676E-06-5.38713E-19-3.66977E-19
 -1      2575 1.43369E-04-1.53521E-05-5.56305E-05 6.52764E-06-5.23043E-20 8.85149E-19
 -1      2576 1.43363E-04-2.85820E-05-4.92880E-05 1.00438E-05-7.00496E-19 1.37918E-18
 -1      2577 1.38517E-04-5.56874E-05-3.55128E-05-1.54550E-05-8.94361E-19-3.03132E-18
 -1      2578 1.47531E-04-5.07062E-05-4.17746E-05-9.65625E-06-6.10393E-19-2.05765E-18
 -1      2579 1.08801E-04-5.71479E-05-2.20310E-05-3.52068E-05 1.30443E-19-3.75765E-18
 -1      2580 1.26226E-04-5.92577E-05-2.90222E-05-2.88840E-05-1.81265E-19-3.83886E-18
 -1      2581 7.06782E-05-4.51723E-05-1.08312E-05-4.16369E-05-9.24748E-19-7.27390E-19
 -1      2582 8.92609E-05-5.12087E-05-1.64219E-05-4.29403E-05-2.73168E-20-2.72546E-18
 -1      2583 2.66033E-05-2.30425E-05-1.39550E-06 2.35674E-05 3.52260E-19 3.43938E-18
 -1      2584 1.93950E-05-1.98480E-05 4.33393E-07 7.58120E-06 6.13569E-20 2.86001E-18
 -1      2585 9.63191E-05-2.50911E-05-3.05522E-05 7.60249E-06 2.04856E-18-2.84120E-19
 -1      2586 9.74418E-05-2.37748E-05-3.15930E-05 1.07018E-05 2.21491E-18-6.86891E-21
 -1      2587 9.58779E-05-2.12999E-05-3.20178E-05 1.19043E-05 2.35289E-18-6.67608E-19
 -1      2588 9.58665E-05-2.41584E-05-3.07653E-05 7.69507E-06 2.00072E-18-9.38464E-19
 -1      2589 1.47968E-04-4.48969E-05-4.44671E-05 5.71658E-06 6.10102E-19-2.13495E-18
 -1      2590 1.40457E-04-5.15087E-05-3.81896E-05 1.10243E-05 2.84113E-19-2.91422E-18
 -1      2591 1.33262E-04-1.01568E-05-5.30323E-05-1.93950E-06 3.22931E-19-8.72682E-19
 -1      2592 9.08163E-05-1.50703E-05-3.24585E-05-6.80162E-06-1.67708E-18-1.96358E-18
 -1      2593 8.97115E-05-1.32079E-05-3.28445E-05-7.97619E-06-1.83819E-18-2.08802E-18
 -1      2594 9.04068E-05-1.40335E-05-3.27970E-05-9.15250E-06-2.11864E-18-1.69051E-18
 -1      2595 9.47185E-05-2.69347E-05-2.90626E-05 1.89711E-06 1.14224E-18-1.04717E-18
 -1      2596 9.42368E-05-1.90795E-05-3.22555E-05 1.16138E-05 2.14870E-18-1.45000E-18
 -1      2597 1.43706E-04-4.00964E-05-4.45160E-05-4.54857E-06-3.62636E-19-1.70804E-18
 -1      2598 3.98120E-05-2.38420E-05-6.28218E-06 2.80796E-05 3.20920E-19 2.80834E-18
 -1      2599 6.92143E-05-4.08932E-05-1.17074E-05-4.05410E-05 3.52577E-19-1.03486E-18
 -1      2600 1.37087E-04-5.70107E-05-3.43942E-05 1.22695E-05-6.50680E-19-3.64309E-18
 -1      2601 1.04845E-04-5.59837E-05-2.05980E-05-3.67437E-05 8.49998E-19-3.86443E-18
 -1      2602 3.78971E-05-2.41290E-05-5.39330E-06-2.66480E-05-3.12661E-19 2.79479E-18
 -1      2603 7.22041E-05-4.07639E-05-1.29464E-05 4.07821E-05 3.88788E-19-2.45280E-18
 -1      2604 9.64149E-05-2.73872E-05-2.95794E-05 4.53362E-06 3.49470E-19 1.71711E-18
 -1      2605 9.61088E-05-2.68110E-05-2.96968E-05 5.13843E-06 7.25020E-19 3.34508E-18
 -1      2606 1.32310E-04-1.38639E-05-5.10561E-05 5.71267E-06-1.31587E-18-4.00647E-19
 -1      2607 9.68891E-05-2.72268E-05-2.98325E-05-6.05439E-06-9.79987E-19 3.76129E-19
 -1      2608 9.57353E-05-2.58741E-05-2.99482E-05-6.72656E-06-9.77941E-19-1.45618E-19
 -1      2609 9.58200E-05-2.58675E-05-2.99767E-05-7.91000E-06-2.25382E-18 4.04638E-19
 -1      2610 9.77129E-05-2.76693E-05-3.00026E-05-6.90152E-06-7.91802E-19 1.20840E-18
 -1      2611 1.32238E-04-1.44200E-05-5.07994E-05-6.69266E-06-1.51386E-18-1.80407E-18
 -1      2612 1.41605E-04-3.08726E-05-4.74562E-05-1.19951E-05-2.76217E-18-1.37876E-18
 -1      2613 2.55223E-05-1.67926E-05-3.17596E-06 1.25917E-06 1.33037E-19 3.17510E-18
 -1      2614 9.47087E-05-2.06018E-05-3.17157E-05 9.68127E-06 1.97918E-18-1.50530E-18
 -1      2615 1.10636E-04-5.68354E-05-2.26953E-05 3.38049E-05-4.57186E-19-2.80347E-18
 -1      2616 1.27108E-04-6.00751E-05-2.85968E-05 2.33753E-05-5.54595E-19 5.27913E-19
 -1      2617 1.20853E-04-5.93802E-05-2.60443E-05 2.54719E-05 1.11650E-18 5.41333E-19
 -1      2618 1.32919E-04-6.01879E-05-3.19418E-05 1.31095E-05-7.09919E-19 1.81699E-18
 -1      2619 5.66204E-05-3.25768E-05-9.77438E-06 3.57816E-05 9.40418E-19-4.67139E-18
 -1      2620 1.40061E-04-3.46995E-05-4.53793E-05 9.88413E-06-1.13407E-18 1.41073E-18
 -1      2621 1.33982E-04-1.53176E-05-5.11129E-05 8.31622E-06 6.47557E-19 3.99217E-19
 -1      2622 5.10874E-05-2.90252E-05-8.95417E-06-3.46372E-05-1.92742E-18-2.40219E-18
 -1      2623 1.46163E-04-4.73566E-05-4.23371E-05 1.79829E-06-2.42040E-19-1.00712E-18
 -1      2624 8.61090E-05-4.74071E-05-1.61957E-05-4.03524E-05-9.12466E-19 6.89802E-19
 -1      2625 1.19849E-04-5.84932E-05-2.60343E-05-2.77494E-05-2.07523E-19 4.24046E-19
 -1      2626 1.44966E-04-5.10841E-05-4.02072E-05 3.99169E-07-2.84297E-18 1.01347E-18
 -1      2627 9.20830E-05-1.62845E-05-3.25204E-05-1.03859E-05-2.32457E-18-8.91754E-19
 -1      2628 2.62477E-05-1.58911E-05-3.84840E-06-9.82308E-06-1.79174E-18-3.79217E-18
 -1      2629 3.51958E-05-1.57464E-05-7.82414E-06-1.70498E-05-1.74139E-18-3.43027E-18
 -1      2630 2.89400E-05-1.30879E-05-6.37345E-06-6.00151E-07-1.12667E-18-3.38093E-18
 -1      2631 1.38443E-04-5.33938E-05-3.64923E-05-5.96383E-06 6.10658E-20 8.65456E-19
 -1      2632 9.45367E-05-5.11246E-05-1.81573E-05 3.74536E-05 7.13625E-19-1.12454E-18
 -1      2633 1.34327E-04-6.00896E-05-3.18281E-05-1.78516E-05 2.68509E-19-2.60124E-18
 -1      2634 9.63896E-05-2.69663E-05-2.97518E-05 6.23390E-06 6.20455E-19 2.56479E-18
 -1      2635 9.71985E-05-2.71798E-05-3.00181E-05-8.20535E-06-1.68726E-18 5.89610E-19
 -1      2636 9.05765E-05-1.51822E-05-3.23341E-05 3.20060E-06 3.42132E-19-2.85966E-18
 -1      2637 9.03876E-05-1.49111E-05-3.23673E-05 2.26539E-06 9.56551E-20-2.86961E-18
 -1      2638 9.02542E-05-1.47086E-05-3.23966E-05 1.42502E-06-1.28985E-19-2.88139E-18
 -1      2639 9.01895E-05-1.46163E-05-3.24078E-05 4.66563E-07-3.49693E-19-2.71444E-18
 -1      2640 9.14405E-05-1.66035E-05-3.20601E-05 1.64466E-06-1.04988E-20-2.69652E-18
 -1      2641 9.21503E-05-1.75576E-05-3.20063E-05 6.48337E-06 1.23327E-18-2.49896E-18
 -1      2642 9.16267E-05-1.67626E-05-3.21070E-05 5.64249E-06 1.03686E-18-2.59055E-18
 -1      2643 9.35611E-05-1.97774E-05-3.16639E-05 7.60871E-06 1.57889E-18-2.17122E-18
 -1      2644 9.27755E-05-1.85249E-05-3.18386E-05 7.03082E-06 1.34975E-18-2.30831E-18
 -1      2645 9.34437E-05-1.98724E-05-3.15076E-05 5.74548E-06 1.21591E-18-2.23416E-18
 -1      2646 9.52090E-05-2.54075E-05-2.99272E-05 3.99048E-06 1.33703E-18-1.34064E-18
 -1      2647 9.55462E-05-2.45579E-05-3.03911E-05 5.62265E-06 1.54400E-18-1.31622E-18
 -1      2648 1.19506E-04-5.89534E-05-2.61885E-05 2.67371E-05-4.81803E-19-3.63202E-18
 -1      2649 1.02903E-04-5.31290E-05-2.08290E-05 3.50803E-05-2.06147E-19-2.35344E-18
 -1      2650 9.49722E-05-2.66881E-05-2.92695E-05 1.79556E-06 9.96255E-19-1.32871E-18
 -1      2651 9.52382E-05-2.61932E-05-2.95544E-05 2.80072E-06 1.11393E-18-1.21435E-18
 -1      2652 9.52659E-05-2.50184E-05-3.01024E-05 3.83279E-06 1.26490E-18-1.68804E-18
 -1      2653 5.00061E-05-2.46469E-05-1.06982E-05 3.12631E-05-8.28822E-19 2.26327E-18
 -1      2654 3.86992E-05-1.78028E-05-8.27451E-06 2.01278E-05-7.87582E-19 3.65770E-18
 -1      2655 1.39399E-04-3.44909E-05-4.53247E-05 1.26540E-05-1.47786E-18 2.06867E-18
 -1      2656 1.34053E-04-2.49996E-05-4.74768E-05 1.34945E-05-2.07608E-18 1.44398E-18
 -1      2657 9.53519E-05-2.59033E-05-2.97360E-05-2.71938E-06-1.33665E-18-3.26410E-19
 -1      2658 9.51879E-05-2.64883E-05-2.94536E-05-1.73425E-06-1.14292E-18-3.37134E-19
 -1      2659 9.52118E-05-2.70045E-05-2.92083E-05-9.93490E-07-1.09783E-18-3.00478E-19
 -1      2660 9.50773E-05-2.73577E-05-2.90288E-05-3.87677E-07-1.02178E-18-3.91902E-19
 -1      2661 9.54161E-05-2.63304E-05-2.96136E-05-1.63322E-06-1.16660E-18-5.23873E-19
 -1      2662 9.50448E-05-2.76625E-05-2.88621E-05 8.03557E-08-9.07709E-19-3.48828E-19
 -1      2663 9.49672E-05-2.78854E-05-2.87522E-05 4.32852E-07-8.48301E-19-3.70869E-19
 -1      2664 9.54164E-05-2.73231E-05-2.91902E-05-3.52184E-07-9.85434E-19-5.71565E-19
 -1      2665 9.49257E-05-2.80687E-05-2.86428E-05 7.04744E-07-8.34918E-19-4.32168E-19
 -1      2666 9.48983E-05-2.82131E-05-2.85802E-05 8.91290E-07-8.09909E-19-5.64722E-19
 -1      2667 9.53568E-05-2.79342E-05-2.89022E-05 4.41474E-07-9.37765E-19-7.45842E-19
 -1      2668 9.48641E-05-2.83219E-05-2.85120E-05 1.03031E-06-8.42952E-19-5.22915E-19
 -1      2669 9.48729E-05-2.84156E-05-2.84814E-05 1.11126E-06-7.22794E-19-5.52672E-19
 -1      2670 9.52936E-05-2.83086E-05-2.87134E-05 8.91209E-07-7.98831E-19-6.78205E-19
 -1      2671 9.48497E-05-2.84765E-05-2.84424E-05 1.16491E-06-4.87623E-19-4.54709E-19
 -1      2672 9.48820E-05-2.85355E-05-2.84332E-05 1.18218E-06-3.80425E-19-2.56039E-19
 -1      2673 9.52460E-05-2.85309E-05-2.85964E-05 1.11087E-06-5.00278E-19-7.94880E-19
 -1      2674 9.48689E-05-2.85642E-05-2.84151E-05 1.18537E-06-4.23285E-19-4.59059E-20
 -1      2675 9.49152E-05-2.85982E-05-2.84201E-05 1.16846E-06-5.63118E-19 6.82826E-20
 -1      2676 9.52167E-05-2.86519E-05-2.85309E-05 1.18597E-06-3.36375E-19-2.26310E-19
 -1      2677 9.49101E-05-2.86046E-05-2.84167E-05 1.14671E-06-7.07540E-19-2.37750E-20
 -1      2678 9.49642E-05-2.86202E-05-2.84313E-05 1.11668E-06-3.86330E-19-7.10081E-20
 -1      2679 9.52032E-05-2.87029E-05-2.85024E-05 1.17966E-06-5.46321E-19-1.11659E-19
 -1      2680 9.49650E-05-2.86104E-05-2.84386E-05 1.08872E-06-2.05440E-19-2.06872E-20
 -1      2681 9.50237E-05-2.86119E-05-2.84600E-05 1.06096E-06-1.30326E-19-7.11347E-20
 -1      2682 9.52017E-05-2.87041E-05-2.85007E-05 1.13831E-06-4.35249E-19-2.82314E-19
 -1      2683 9.50289E-05-2.85898E-05-2.84753E-05 1.04086E-06-3.24178E-19-1.59036E-19
 -1      2684 9.50912E-05-2.85803E-05-2.85021E-05 1.02706E-06-3.35107E-19-1.46724E-19
 -1      2685 9.52092E-05-2.86685E-05-2.85188E-05 1.09637E-06-2.93421E-19-4.50043E-19
 -1      2686 9.50997E-05-2.85480E-05-2.85240E-05 1.02579E-06-2.82670E-19-4.11812E-19
 -1      2687 9.51663E-05-2.85293E-05-2.85557E-05 1.03535E-06-2.21402E-19-5.08746E-19
 -1      2688 9.52233E-05-2.86037E-05-2.85523E-05 1.08013E-06-3.75170E-19-2.48858E-19
 -1      2689 9.51775E-05-2.84878E-05-2.85834E-05 1.06204E-06-2.93421E-19-3.15201E-19
 -1      2690 9.52506E-05-2.84614E-05-2.86203E-05 1.10313E-06-2.92110E-19-2.28648E-19
 -1      2691 9.52426E-05-2.85141E-05-2.85989E-05 1.11066E-06-2.07822E-19-7.05493E-19
 -1      2692 9.52640E-05-2.84107E-05-2.86538E-05 1.16594E-06-4.56309E-19-4.17303E-19
 -1      2693 9.53469E-05-2.83774E-05-2.86968E-05 1.24617E-06-5.06144E-19-4.57885E-19
 -1      2694 9.52661E-05-2.84013E-05-2.86573E-05 1.20595E-06-6.34781E-19-2.64519E-19
 -1      2695 9.53621E-05-2.83170E-05-2.87363E-05 1.35292E-06-4.63038E-19-4.63968E-19
 -1      2696 9.54590E-05-2.82777E-05-2.87867E-05 1.47982E-06-4.07016E-19-4.86865E-19
 -1      2697 9.52933E-05-2.82650E-05-2.87273E-05 1.38247E-06-6.04424E-19-2.33513E-19
 -1      2698 9.54759E-05-2.82069E-05-2.88326E-05 1.63828E-06-3.25414E-19-4.28048E-19
 -1      2699 9.55918E-05-2.81625E-05-2.88920E-05 1.81942E-06-3.03346E-19-6.02196E-19
 -1      2700 9.53238E-05-2.81042E-05-2.88093E-05 1.65613E-06-4.12110E-19 3.23837E-19
 -1      2701 9.56101E-05-2.80809E-05-2.89446E-05 2.03738E-06-3.57260E-19-6.73586E-19
 -1      2702 9.57508E-05-2.80334E-05-2.90143E-05 2.28012E-06-5.61686E-20-5.54452E-19
 -1      2703 9.53573E-05-2.79178E-05-2.89034E-05 2.04262E-06-2.61183E-19-2.26055E-19
 -1      2704 9.57706E-05-2.79417E-05-2.90736E-05 2.56507E-06 9.36617E-20-8.00545E-19
 -1      2705 9.59427E-05-2.78948E-05-2.91547E-05 2.87580E-06 6.40972E-19-1.20235E-18
 -1      2706 9.53937E-05-2.77067E-05-2.90094E-05 2.55712E-06-1.51453E-20-4.48751E-19
 -1      2707 9.59648E-05-2.77963E-05-2.92198E-05 3.23413E-06 1.15752E-18-1.40004E-18
 -1      2708 9.61765E-05-2.77574E-05-2.93125E-05 3.61684E-06 1.21873E-18-1.45737E-18
 -1      2709 9.54342E-05-2.74756E-05-2.91255E-05 3.21321E-06 6.13650E-19-9.83854E-19
 -1      2710 9.62043E-05-2.76600E-05-2.93813E-05 4.05251E-06 9.05539E-19-1.94398E-18
 -1      2711 9.64661E-05-2.76425E-05-2.94847E-05 4.50631E-06 5.62268E-19-2.06999E-18
 -1      2712 9.54829E-05-2.72378E-05-2.92481E-05 4.02088E-06 7.18998E-19-1.92274E-18
 -1      2713 9.65081E-05-2.75632E-05-2.95531E-05 5.01872E-06 5.17212E-19-1.76981E-18
 -1      2714 9.68355E-05-2.75911E-05-2.96642E-05 5.53391E-06 1.34833E-19-1.54046E-18
 -1      2715 9.55513E-05-2.70219E-05-2.93699E-05 4.98328E-06 8.49978E-19-2.90129E-18
 -1      2716 9.69116E-05-2.75616E-05-2.97261E-05 6.11470E-06-1.97579E-19-1.10048E-18
 -1      2717 9.73297E-05-2.76758E-05-2.98393E-05 6.66682E-06-1.27876E-19-1.22850E-18
 -1      2718 9.56667E-05-2.68822E-05-2.94798E-05 6.09210E-06 3.80779E-20-1.54569E-18
 -1      2719 9.74803E-05-2.77514E-05-2.98861E-05 7.29499E-06-4.29508E-19-7.94029E-19
 -1      2720 9.80311E-05-2.80189E-05-2.99931E-05 7.83641E-06-3.53160E-19-6.51664E-19
 -1      2721 9.58866E-05-2.69152E-05-2.95618E-05 7.32086E-06-1.16071E-19-1.01434E-18
 -1      2722 9.83329E-05-2.82899E-05-3.00154E-05 8.47056E-06 1.49279E-19-7.74208E-19
 -1      2723 9.90856E-05-2.88118E-05-3.01067E-05 8.91881E-06 7.39324E-19-1.01595E-18
 -1      2724 9.63232E-05-2.72816E-05-2.95969E-05 8.61486E-06-1.71731E-19 6.92989E-20
 -1      2725 9.96722E-05-2.94132E-05-3.00976E-05 9.48334E-06 9.38976E-19-1.43734E-18
 -1      2726 1.00732E-04-3.03264E-05-3.01671E-05 9.70592E-06 7.39801E-19-1.07453E-18
 -1      2727 9.71789E-05-2.82300E-05-2.95676E-05 9.87412E-06 5.18774E-19-8.30185E-19
 -1      2728 1.01814E-04-3.14343E-05-3.01318E-05 1.00644E-05 8.55238E-19-5.77545E-19
 -1      2729 1.03313E-04-3.28838E-05-3.01866E-05 9.86205E-06 9.79340E-19-4.74410E-19
 -1      2730 9.87899E-05-3.01094E-05-2.94716E-05 1.09189E-05 8.78399E-19-4.90236E-19
 -1      2731 1.05177E-04-3.46681E-05-3.01606E-05 9.76792E-06 9.37921E-19-7.27916E-19
 -1      2732 1.07212E-04-3.67073E-05-3.02386E-05 8.86755E-06 7.49068E-19-5.37537E-19
 -1      2733 1.01652E-04-3.33244E-05-2.93502E-05 1.14179E-05 7.64626E-19-1.64044E-19
 -1      2734 1.10123E-04-3.91689E-05-3.03174E-05 7.89623E-06 1.31209E-18-5.47734E-19
 -1      2735 1.12629E-04-4.15436E-05-3.05134E-05 5.99537E-06 9.96961E-19 2.58572E-19
 -1      2736 1.06354E-04-3.81425E-05-2.93397E-05 1.07487E-05 9.41097E-19-5.40563E-20
 -1      2737 1.16516E-04-4.41703E-05-3.08918E-05 3.62013E-06 4.42722E-19 2.25205E-19
 -1      2738 1.18996E-04-4.59163E-05-3.13744E-05 6.53350E-07 2.11083E-19 8.48859E-19
 -1      2739 1.13047E-04-4.40771E-05-2.97497E-05 7.82119E-06 1.01708E-18-6.51818E-21
 -1      2740 1.23298E-04-4.75034E-05-3.23940E-05-3.79296E-06-7.98395E-20 1.07928E-18
 -1      2741 1.24484E-04-4.66311E-05-3.33986E-05-7.47999E-06 4.43023E-19 1.63330E-18
 -1      2742 1.21812E-04-4.93481E-05-3.12904E-05 1.40547E-06 1.93335E-19 1.71065E-18
 -1      2743 1.26650E-04-4.47173E-05-3.53737E-05-1.24096E-05 7.50418E-20 1.52402E-18
 -1      2744 1.24950E-04-3.95136E-05-3.66557E-05-1.48830E-05-6.11293E-19 1.52122E-18
 -1      2745 1.28533E-04-4.87779E-05-3.42549E-05-7.61093E-06-5.18675E-20 1.67318E-18
 -1      2746 1.26927E-04-2.92415E-05-4.23657E-05-1.57905E-05-1.09998E-18 1.10538E-19
 -1      2747 1.23734E-04-2.14922E-05-4.43003E-05-1.36681E-05-1.25668E-18-3.83918E-19
 -1      2748 1.18860E-04-1.60002E-05-4.46437E-05-6.78634E-06-1.13555E-18-6.30431E-19
 -1      2749 1.18542E-04-1.48587E-05-4.48961E-05 5.75075E-07-2.13823E-18 1.50878E-19
 -1      2750 1.19324E-04-1.72372E-05-4.42608E-05 7.48897E-06-2.08487E-18-6.47292E-19
 -1      2751 1.22863E-04-2.69862E-05-4.12820E-05 1.39257E-05-2.81257E-18-1.28021E-19
 -1      2752 1.25996E-04-3.45261E-05-3.95783E-05 1.51049E-05-2.24326E-18-2.72056E-19
 -1      2753 1.23276E-04-4.70091E-05-3.27590E-05 4.56007E-06 1.40208E-18 6.92651E-19
 -1      2754 1.21706E-04-4.72593E-05-3.18424E-05 7.73626E-07 1.46465E-18 1.12281E-18
 -1      2755 1.17444E-04-4.53831E-05-3.09432E-05-3.26840E-06 1.98035E-18 8.35108E-19
 -1      2756 1.14870E-04-4.34499E-05-3.04984E-05-6.20175E-06 1.89369E-18 1.00411E-18
 -1      2757 1.20024E-04-4.85831E-05-3.07165E-05-4.36293E-06 1.80529E-18 1.07585E-18
 -1      2758 1.11055E-04-4.07203E-05-3.01896E-05-8.39945E-06 8.72477E-19 8.56945E-19
 -1      2759 1.08521E-04-3.83117E-05-3.00066E-05-1.01729E-05 1.36563E-19 9.09038E-19
 -1      2760 1.11636E-04-4.32834E-05-2.94618E-05-1.03608E-05 1.22849E-18 2.10541E-19
 -1      2761 1.05797E-04-3.59252E-05-2.99617E-05-1.09861E-05-6.60418E-19 9.59640E-19
 -1      2762 1.03762E-04-3.39235E-05-2.98795E-05-1.17853E-05 9.69332E-20 5.25519E-19
 -1      2763 1.05159E-04-3.73345E-05-2.91735E-05-1.28484E-05-3.31058E-19-8.21985E-19
 -1      2764 1.02034E-04-3.22025E-05-2.99285E-05-1.18164E-05 3.13457E-19 1.16729E-18
 -1      2765 1.00508E-04-3.07320E-05-2.98746E-05-1.19260E-05 3.76740E-19 1.27715E-18
 -1      2766 1.00801E-04-3.27003E-05-2.92489E-05-1.33356E-05 1.22280E-19-7.87095E-19
 -1      2767 9.94775E-05-2.95902E-05-2.99451E-05-1.15009E-05-1.07081E-19 7.01665E-19
 -1      2768 9.83443E-05-2.85555E-05-2.98938E-05-1.11463E-05-5.81096E-19-1.67562E-19
 -1      2769 9.81223E-05-2.95029E-05-2.94396E-05-1.27217E-05-7.68245E-19-1.27291E-18
 -1      2770 9.77126E-05-2.77839E-05-2.99623E-05-1.04545E-05-8.58650E-19-1.02258E-19
 -1      2771 9.68548E-05-2.70265E-05-2.99170E-05-9.76550E-06-1.35510E-18 3.06707E-19
 -1      2772 9.65178E-05-2.73811E-05-2.96456E-05-1.14824E-05-8.01864E-19-1.51166E-18
 -1      2773 9.45445E-05-2.78457E-05-2.85860E-05-4.31979E-07 1.02592E-18-1.20403E-18
 -1      2774 9.46293E-05-2.76585E-05-2.86843E-05-8.83685E-08 1.03564E-18-1.16900E-18
 -1      2775 9.45171E-05-2.84137E-05-2.83288E-05-1.16714E-06 2.13246E-19-8.53389E-19
 -1      2776 9.44565E-05-2.83530E-05-2.83269E-05-1.15500E-06 2.80431E-19-9.80759E-19
 -1      2777 9.45989E-05-2.84848E-05-2.83331E-05-1.14657E-06 6.63526E-19-7.15384E-19
 -1      2778 9.45230E-05-2.84438E-05-2.83187E-05-1.16787E-06 3.98536E-19-8.13523E-19
 -1      2779 9.49000E-05-2.85452E-05-2.84410E-05-1.19847E-06 3.27462E-19-8.14399E-19
 -1      2780 9.46987E-05-2.85239E-05-2.83589E-05-1.08672E-06 7.41166E-19-4.49209E-19
 -1      2781 9.46159E-05-2.84979E-05-2.83366E-05-1.12128E-06 6.57644E-19-5.67163E-19
 -1      2782 9.49283E-05-2.86046E-05-2.84267E-05-1.18494E-06 5.09083E-19-6.35434E-19
 -1      2783 9.48086E-05-2.85390E-05-2.83993E-05-1.02067E-06 6.45907E-19-2.83804E-19
 -1      2784 9.47230E-05-2.85246E-05-2.83718E-05-1.05398E-06 9.05943E-19-1.67357E-19
 -1      2785 9.49726E-05-2.86236E-05-2.84369E-05-1.13363E-06 6.99296E-19-2.96538E-19
 -1      2786 9.49254E-05-2.85359E-05-2.84503E-05-9.72870E-07 6.03243E-19-4.11309E-19
 -1      2787 9.48380E-05-2.85304E-05-2.84191E-05-9.94156E-07 6.80228E-19-3.20311E-19
 -1      2788 9.50276E-05-2.86127E-05-2.84647E-05-1.07884E-06 6.89997E-19-7.53308E-20
 -1      2789 9.50495E-05-2.85185E-05-2.85105E-05-9.62199E-07 3.59223E-21-5.51371E-19
 -1      2790 9.49589E-05-2.85199E-05-2.84756E-05-9.63047E-07 3.79926E-19-3.78246E-19
 -1      2791 9.50904E-05-2.85791E-05-2.85059E-05-1.04628E-06 4.86042E-19 2.34259E-19
 -1      2792 9.51844E-05-2.84904E-05-2.85798E-05-1.00403E-06-3.34624E-19-4.92633E-19
 -1      2793 9.50873E-05-2.84966E-05-2.85407E-05-9.77462E-07-2.62329E-19-5.48171E-19
 -1      2794 9.51606E-05-2.85272E-05-2.85582E-05-1.05596E-06 1.01916E-19 5.54941E-20
 -1      2795 9.53359E-05-2.84542E-05-2.86595E-05-1.11166E-06 4.26224E-19-7.95867E-19
 -1      2796 9.52276E-05-2.84633E-05-2.86151E-05-1.05155E-06-2.90317E-20-5.91756E-19
 -1      2797 9.52398E-05-2.84601E-05-2.86210E-05-1.12437E-06 7.66740E-20-3.48408E-19
 -1      2798 9.55121E-05-2.84132E-05-2.87517E-05-1.29704E-06 2.29941E-19-7.26854E-19
 -1      2799 9.53864E-05-2.84230E-05-2.87005E-05-1.19785E-06 4.32045E-19-7.29840E-19
 -1      2800 9.53311E-05-2.83802E-05-2.86945E-05-1.26579E-06 2.36178E-19-5.17864E-19
 -1      2801 9.57231E-05-2.83716E-05-2.88590E-05-1.57083E-06 2.91580E-19-7.12125E-19
 -1      2802 9.55727E-05-2.83792E-05-2.87991E-05-1.42772E-06 4.76561E-19-4.49357E-19
 -1      2803 9.54393E-05-2.82902E-05-2.87797E-05-1.49297E-06 3.54825E-19-1.37491E-19
 -1      2804 9.59808E-05-2.83360E-05-2.89837E-05-1.94165E-06 4.20915E-20-5.96396E-19
 -1      2805 9.57974E-05-2.83370E-05-2.89135E-05-1.75099E-06 1.23627E-19-6.42774E-19
 -1      2806 9.55710E-05-2.81942E-05-2.88775E-05-1.81712E-06 1.63250E-19 2.07637E-21
 -1      2807 9.63000E-05-2.83166E-05-2.91278E-05-2.41427E-06 5.56651E-20-5.01502E-19
 -1      2808 9.60740E-05-2.83047E-05-2.90458E-05-2.17476E-06-1.07885E-19-8.57765E-19
 -1      2809 9.57352E-05-2.80995E-05-2.89888E-05-2.24692E-06 2.57653E-19-3.17093E-19
 -1      2810 9.66981E-05-2.83299E-05-2.92920E-05-2.98648E-06 1.92717E-19-9.43302E-19
 -1      2811 9.64189E-05-2.82955E-05-2.91974E-05-2.70099E-06 4.65802E-19-5.64918E-19
 -1      2812 9.59440E-05-2.80188E-05-2.91133E-05-2.78664E-06 3.92258E-20-3.08212E-19
 -1      2813 9.71974E-05-2.84020E-05-2.94748E-05-3.64421E-06-7.53080E-20-2.63953E-19
 -1      2814 9.68533E-05-2.83306E-05-2.93681E-05-3.32259E-06-4.82083E-20-6.53100E-19
 -1      2815 9.62151E-05-2.79739E-05-2.92492E-05-3.43277E-06 1.81774E-19-7.42867E-20
 -1      2816 9.78272E-05-2.85727E-05-2.96720E-05-4.35448E-06-6.79136E-19 1.36154E-19
 -1      2817 9.74046E-05-2.84432E-05-2.95552E-05-4.01757E-06-1.91332E-19-1.70008E-19
 -1      2818 9.65744E-05-2.80002E-05-2.93928E-05-4.16912E-06-3.23987E-19 5.33830E-19
 -1      2819 9.86271E-05-2.89007E-05-2.98761E-05-5.05576E-06-5.25784E-19-5.47993E-19
 -1      2820 9.81106E-05-2.86829E-05-2.97532E-05-4.74069E-06-6.46191E-19 1.68938E-19
 -1      2821 9.70619E-05-2.81529E-05-2.95377E-05-4.95970E-06-6.08815E-19 5.05380E-19
 -1      2822 9.96517E-05-2.94671E-05-3.00762E-05-5.64590E-06-7.04832E-19 9.33732E-21
 -1      2823 9.90237E-05-2.91215E-05-2.99534E-05-5.41225E-06-3.76509E-19-1.63044E-19
 -1      2824 9.77381E-05-2.85136E-05-2.96753E-05-5.73904E-06-5.05633E-19 9.44623E-19
 -1      2825 1.00972E-04-3.03727E-05-3.02603E-05-5.96877E-06-4.45730E-19-7.39936E-20
 -1      2826 1.00215E-04-2.98536E-05-3.01451E-05-5.90440E-06-3.52167E-19 9.50869E-20
 -1      2827 9.86927E-05-2.91942E-05-2.97967E-05-6.39949E-06-5.46713E-19 7.38439E-19
 -1      2828 1.02669E-04-3.17185E-05-3.04205E-05-5.80377E-06 3.64489E-20-5.75569E-20
 -1      2829 1.01772E-04-3.09877E-05-3.03192E-05-6.02673E-06 5.04655E-20-5.24277E-20
 -1      2830 1.00049E-04-3.03315E-05-2.98968E-05-6.77554E-06-2.12044E-19 3.98312E-20
 -1      2831 1.04803E-04-3.35512E-05-3.05630E-05-4.86836E-06-6.67048E-19-8.09482E-19
 -1      2832 1.03783E-04-3.26110E-05-3.04758E-05-5.51753E-06-4.94246E-19-5.43078E-19
 -1      2833 1.01957E-04-3.20570E-05-2.99829E-05-6.62752E-06-7.51386E-20 2.62138E-19
 -1      2834 1.07335E-04-3.57486E-05-3.07232E-05-2.85353E-06-1.18255E-18-1.52198E-18
 -1      2835 1.06276E-04-3.47071E-05-3.06372E-05-4.05504E-06-8.93974E-19-1.36932E-18
 -1      2836 1.04547E-04-3.44178E-05-3.00891E-05-5.63233E-06-4.57349E-19-7.81379E-19
 -1      2837 1.09994E-04-3.78402E-05-3.09814E-05 4.51422E-07-4.42793E-19-2.95754E-19
 -1      2838 1.09099E-04-3.69979E-05-3.08640E-05-1.33153E-06-1.24058E-18-1.21020E-18
 -1      2839 1.07812E-04-3.72073E-05-3.02955E-05-3.40664E-06-1.40847E-18-1.22166E-18
 -1      2840 1.12136E-04-3.88492E-05-3.14562E-05 4.89279E-06-9.06238E-20 1.43338E-19
 -1      2841 1.11733E-04-3.87480E-05-3.12619E-05 2.73498E-06-8.92908E-20 4.76918E-19
 -1      2842 1.11392E-04-3.97234E-05-3.07414E-05 3.43973E-07-8.04219E-19-9.75997E-19
 -1      2843 1.12811E-04-3.75794E-05-3.22497E-05 9.43331E-06-4.01811E-19-1.18647E-19
 -1      2844 1.13216E-04-3.87541E-05-3.19407E-05 7.51890E-06 3.77098E-19 1.66083E-19
 -1      2845 1.14278E-04-4.05664E-05-3.15930E-05 5.46218E-06 1.34132E-19 2.27250E-19
 -1      2846 1.11032E-04-3.29857E-05-3.34112E-05 1.21458E-05-5.53748E-19-7.11698E-19
 -1      2847 1.12478E-04-3.56750E-05-3.29909E-05 1.16360E-05-6.95447E-19-5.03237E-19
 -1      2848 1.15382E-04-3.85352E-05-3.28957E-05 1.07066E-05-2.33437E-19-2.55083E-19
 -1      2849 1.07639E-04-2.66673E-05-3.46415E-05 1.04805E-05-5.14573E-20-7.55295E-19
 -1      2850 1.09429E-04-2.98597E-05-3.42328E-05 1.20518E-05-4.12470E-19-7.23942E-19
 -1      2851 1.13086E-04-3.17316E-05-3.48800E-05 1.33106E-05-3.97391E-19-1.54114E-18
 -1      2852 1.04721E-04-2.21708E-05-3.54396E-05 3.95441E-06 1.79770E-19-9.85637E-19
 -1      2853 1.05805E-04-2.38743E-05-3.52490E-05 7.33665E-06 2.25125E-20-5.09523E-19
 -1      2854 1.09443E-04-2.46212E-05-3.63537E-05 9.96986E-06-1.66624E-19-1.37469E-18
 -1      2855 1.05203E-04-2.30244E-05-3.53146E-05-4.81633E-06 1.83806E-19-8.07851E-19
 -1      2856 1.04628E-04-2.18270E-05-3.54841E-05-1.16913E-06 5.55137E-19-9.66337E-19
 -1      2857 1.06855E-04-2.02720E-05-3.71478E-05 1.43578E-06 1.80147E-19-9.46512E-19
 -1      2858 1.08307E-04-2.84617E-05-3.43807E-05-1.04606E-05 1.32217E-19 7.36058E-20
 -1      2859 1.06783E-04-2.54689E-05-3.47815E-05-8.44049E-06 4.83073E-21-1.19354E-20
 -1      2860 1.08638E-04-2.32132E-05-3.66648E-05-7.49919E-06-3.09776E-19-1.31549E-18
 -1      2861 1.11637E-04-3.47111E-05-3.30809E-05-1.09046E-05 7.17403E-19 7.74712E-19
 -1      2862 1.10218E-04-3.18095E-05-3.35465E-05-1.11647E-05 4.90227E-19 4.53559E-19
 -1      2863 1.12246E-04-3.04988E-05-3.50316E-05-1.19446E-05-1.42990E-19-1.08779E-18
 -1      2864 1.12787E-04-3.84286E-05-3.19059E-05-7.29306E-06-5.17344E-19-3.25367E-19
 -1      2865 1.12220E-04-3.68950E-05-3.22854E-05-9.09771E-06 6.71452E-19 1.17669E-18
 -1      2866 1.14847E-04-3.73194E-05-3.31896E-05-1.02472E-05 4.34789E-19 4.45883E-20
 -1      2867 1.11521E-04-3.89602E-05-3.10776E-05-2.27908E-06-6.35705E-19-4.32048E-19
 -1      2868 1.11881E-04-3.88690E-05-3.13320E-05-4.53815E-06-8.23141E-19-1.37515E-19
 -1      2869 1.14469E-04-4.05807E-05-3.16396E-05-5.17321E-06-5.48118E-19 4.30210E-19
 -1      2870 1.08825E-04-3.73801E-05-3.05821E-05 2.19133E-06 4.25380E-19-1.34899E-18
 -1      2871 1.09785E-04-3.81750E-05-3.07428E-05 2.20973E-07-5.54036E-19-1.40868E-18
 -1      2872 1.11721E-04-4.02658E-05-3.06394E-05 2.69624E-07-2.68713E-19-1.38555E-18
 -1      2873 1.05764E-04-3.49935E-05-3.02935E-05 5.32705E-06 1.44129E-18-2.25533E-18
 -1      2874 1.06961E-04-3.61100E-05-3.04098E-05 3.94655E-06 1.37141E-18-1.78818E-18
 -1      2875 1.08033E-04-3.78660E-05-3.01081E-05 4.50251E-06 1.16497E-18-2.78940E-18
 -1      2876 1.02945E-04-3.26264E-05-3.01065E-05 7.07945E-06 2.98002E-19-1.29398E-18
 -1      2877 1.04143E-04-3.37225E-05-3.02101E-05 6.31500E-06 6.24816E-19-1.86795E-18
 -1      2878 1.04510E-04-3.49027E-05-2.98666E-05 7.14011E-06 1.06450E-18-1.50292E-18
 -1      2879 1.00565E-04-3.06000E-05-2.99616E-05 7.67594E-06-3.43290E-20 3.15503E-20
 -1      2880 1.01659E-04-3.15497E-05-3.00639E-05 7.44479E-06 3.47164E-20-3.21054E-19
 -1      2881 1.01596E-04-3.21909E-05-2.97737E-05 8.38374E-06-2.93030E-19-1.73805E-18
 -1      2882 9.86256E-05-2.89565E-05-2.98382E-05 7.36409E-06-5.81930E-19 2.00489E-18
 -1      2883 9.95760E-05-2.97409E-05-2.99364E-05 7.56647E-06-4.26704E-19 2.02194E-18
 -1      2884 9.93204E-05-2.99546E-05-2.97472E-05 8.55008E-06-1.40993E-18 8.63670E-21
 -1      2885 9.70438E-05-2.76165E-05-2.97375E-05 6.62455E-06 1.02632E-18 3.28824E-18
 -1      2886 9.78634E-05-2.82859E-05-2.98184E-05 7.17960E-06 3.27601E-19 1.77705E-18
 -1      2887 9.75581E-05-2.82041E-05-2.97372E-05 8.15438E-06-4.02934E-19 1.40149E-18
 -1      2888 9.61647E-05-2.67115E-05-2.97757E-05 7.46370E-06-4.94933E-20 9.43026E-19
 -1      2889 8.82753E-05-1.91763E-05-2.96425E-05 2.20245E-06-6.75659E-19 6.86794E-19
 -1      2890 8.87373E-05-1.95743E-05-2.96385E-05 3.69421E-06-1.05864E-18 1.13567E-18
 -1      2891 9.65832E-05-2.66353E-05-2.99671E-05-9.17536E-06-1.23470E-18-5.37998E-21
 -1      2892 9.60879E-05-2.62120E-05-2.99389E-05-8.55549E-06-1.29461E-18 1.02642E-18
 -1      2893 9.56496E-05-2.61109E-05-2.98125E-05-1.01310E-05-1.14660E-18-1.73899E-18
 -1      2894 9.11769E-05-2.19272E-05-2.97091E-05 7.27469E-06-1.18428E-18-8.87181E-19
 -1      2895 9.21125E-05-2.27937E-05-2.96874E-05 7.89406E-06 8.77072E-20-1.17019E-18
 -1      2896 8.79965E-05-1.88909E-05-2.96325E-05-1.28204E-06 6.48206E-20 2.66489E-18
 -1      2897 8.80005E-05-1.88863E-05-2.96331E-05 3.53967E-07-9.07429E-19 1.10358E-18
 -1      2898 8.72430E-05-1.92999E-05-2.90905E-05 1.49345E-06 6.69431E-20 8.91857E-19
 -1      2899 8.94463E-05-2.02887E-05-2.96731E-05 5.20140E-06-1.17761E-18 7.97271E-19
 -1      2900 9.02347E-05-2.09912E-05-2.96609E-05 6.31542E-06-8.80447E-19 5.23886E-19
 -1      2901 9.03297E-05-2.20295E-05-2.92665E-05 7.54949E-06-1.28242E-18-2.90199E-19
 -1      2902 8.83985E-05-2.03345E-05-2.91516E-05 5.00260E-06 1.03227E-19 7.67815E-19
 -1      2903 8.31506E-05-4.41890E-05-1.68551E-05 4.01582E-05-1.76500E-19-2.38694E-18
 -1      2904 6.66311E-05-3.43381E-05-1.32107E-05 3.73217E-05-4.00435E-19-1.71609E-18
 -1      2905 8.86951E-05-1.95083E-05-2.96510E-05-4.58836E-06 2.95103E-19-1.37222E-18
 -1      2906 8.82367E-05-1.91045E-05-2.96542E-05-3.11270E-06 2.71987E-19 1.62748E-18
 -1      2907 8.72056E-05-1.92244E-05-2.91057E-05-2.36343E-06 3.17440E-19 2.36634E-18
 -1      2908 9.02516E-05-2.09201E-05-2.96995E-05-7.24971E-06 6.74112E-19-5.10894E-19
 -1      2909 8.94068E-05-2.01758E-05-2.97035E-05-6.13162E-06 9.53452E-19-2.11196E-18
 -1      2910 8.83158E-05-2.01285E-05-2.92020E-05-5.89428E-06-2.15419E-19-1.01306E-18
 -1      2911 9.23312E-05-2.28238E-05-2.97745E-05-8.78536E-06 1.14825E-19 5.61526E-19
 -1      2912 9.12901E-05-2.18771E-05-2.97774E-05-8.23263E-06 7.22815E-19 1.71519E-18
 -1      2913 9.03404E-05-2.17910E-05-2.93714E-05-8.51144E-06 9.52747E-19 2.16286E-19
 -1      2914 9.47154E-05-2.74103E-05-2.88472E-05 4.00163E-07 9.30605E-19-1.25840E-18
 -1      2915 9.48921E-05-2.71180E-05-2.90196E-05 1.00269E-06 9.32079E-19-1.16174E-18
 -1      2916 9.52489E-05-2.64971E-05-2.94696E-05 1.74702E-06 9.46405E-19-1.54628E-18
 -1      2917 9.51244E-05-2.73733E-05-2.90437E-05 3.87893E-07 9.30525E-19-1.41101E-18
 -1      2918 1.38315E-04-5.39433E-05-3.66252E-05 3.46028E-06-9.53574E-19-3.01893E-18
 -1      2919 1.31633E-04-5.84036E-05-3.12925E-05 1.34831E-05-1.09749E-18-4.11716E-18
 -1      2920 9.43293E-05-2.08730E-05-3.15160E-05-8.25462E-06-2.05295E-18-5.25402E-19
 -1      2921 9.47143E-05-2.26473E-05-3.09108E-05-6.41570E-06-1.87699E-18-4.49025E-19
 -1      2922 9.47000E-05-2.19062E-05-3.12040E-05 7.85390E-06 1.74791E-18-1.59106E-18
 -1      2923 1.33467E-04-3.83774E-05-4.10494E-05 1.10711E-05-1.19188E-18-2.38916E-19
 -1      2924 1.31697E-04-2.87919E-05-4.47056E-05 1.30573E-05-7.42213E-19-4.86726E-19
 -1      2925 6.84331E-05-3.56679E-05-1.39752E-05 3.72838E-05 1.60672E-18-3.28066E-18
 -1      2926 5.22088E-05-2.57697E-05-1.06993E-05 3.07418E-05 1.57167E-18-3.75892E-18
 -1      2927 9.44670E-05-2.82985E-05-2.83570E-05-1.10255E-06 3.89134E-19-1.13287E-18
 -1      2928 9.44349E-05-2.82112E-05-2.83753E-05-1.02819E-06 5.48397E-19-1.15451E-18
 -1      2929 9.48963E-05-2.84289E-05-2.84907E-05-1.12720E-06 3.55856E-19-8.12974E-19
 -1      2930 9.44681E-05-2.81200E-05-2.84345E-05-8.87972E-07 7.27344E-19-1.14944E-18
 -1      2931 9.44836E-05-2.79945E-05-2.84842E-05-7.09477E-07 9.05762E-19-1.07385E-18
 -1      2932 9.49277E-05-2.82297E-05-2.85913E-05-9.05855E-07 7.04120E-19-9.62515E-19
 -1      2933 9.52644E-05-2.41010E-05-3.04807E-05-5.17142E-06-1.67502E-18-3.88003E-19
 -1      2934 9.51710E-05-2.50812E-05-3.00568E-05-3.68393E-06-1.49883E-18-3.72251E-19
 -1      2935 9.52250E-05-2.47648E-05-3.01895E-05-3.44172E-06-1.43401E-18-5.36275E-19
 -1      2936 9.45856E-05-2.23744E-05-3.09409E-05-5.70500E-06-1.71689E-18-7.64724E-19
 -1      2937 1.27486E-04-1.96943E-05-4.66808E-05 1.25277E-05-2.79521E-19-4.50516E-19
 -1      2938 1.23114E-04-1.25870E-05-4.80299E-05 7.31459E-06 4.77727E-19-5.64839E-19
 -1      2939 1.23512E-04-2.50715E-05-4.24686E-05 1.37371E-05-5.90223E-19-4.36963E-19
 -1      2940 9.11887E-05-1.60952E-05-3.22110E-05 4.92600E-06 9.02878E-19-2.68019E-18
 -1      2941 9.08494E-05-1.55978E-05-3.22724E-05 4.00248E-06 5.67749E-19-2.78792E-18
 -1      2942 9.18296E-05-1.72094E-05-3.19647E-05 3.20488E-06 4.40667E-19-2.58544E-18
 -1      2943 9.24936E-05-1.82673E-05-3.17910E-05 4.62432E-06 8.70139E-19-2.44736E-18
 -1      2944 9.08124E-05-1.55480E-05-3.22774E-05-3.93716E-06-1.27172E-18-2.46011E-18
 -1      2945 9.11461E-05-1.60339E-05-3.22177E-05-4.86127E-06-1.41185E-18-2.24140E-18
 -1      2946 1.41866E-04-5.09784E-05-3.89706E-05 2.88843E-06-9.11963E-19 1.00755E-18
 -1      2947 1.42188E-04-4.32627E-05-4.29718E-05 8.13256E-06-8.47986E-19 2.14850E-18
 -1      2948 1.36123E-04-3.91147E-05-4.18230E-05 1.22565E-05-1.97517E-18 2.84868E-18
 -1      2949 1.30661E-04-1.79762E-05-4.90173E-05-9.90853E-06 2.87991E-20-1.64727E-18
 -1      2950 1.33858E-04-2.54659E-05-4.68657E-05-1.17171E-05-4.29128E-19-1.67183E-18
 -1      2951 1.04411E-04-5.36113E-05-2.18018E-05 3.28474E-05 1.26737E-18-1.45054E-19
 -1      2952 8.74669E-05-4.55300E-05-1.74293E-05 3.66435E-05 1.97909E-18-1.23307E-18
 -1      2953 1.40192E-04-4.82730E-05-4.00622E-05-7.87574E-06-2.20147E-18 2.39075E-19
 -1      2954 1.39739E-04-5.56342E-05-3.59471E-05 1.18436E-06-1.82880E-18 1.43180E-18
 -1      2955 7.97494E-05-4.17223E-05-1.57746E-05-3.84937E-05-1.36595E-18 1.21666E-18
 -1      2956 9.71309E-05-5.07946E-05-2.00130E-05-3.70266E-05-1.13174E-18 9.29089E-19
 -1      2957 4.88405E-05-2.34514E-05-1.03680E-05-2.97348E-05-2.50446E-18-3.16960E-18
 -1      2958 6.28934E-05-3.25989E-05-1.27285E-05-3.76417E-05-1.78756E-18-1.12571E-18
 -1      2959 1.13679E-04-5.64745E-05-2.41163E-05-2.84821E-05-7.32048E-19 1.00125E-18
 -1      2960 1.25533E-04-5.92040E-05-2.88420E-05-2.02175E-05-4.57662E-19 6.34242E-19
 -1      2961 1.33525E-04-5.68229E-05-3.27464E-05-8.58359E-06 1.43307E-19 1.25223E-18
 -1      2962 1.36205E-04-5.01230E-05-3.73198E-05 2.56062E-06-4.71691E-20 2.11832E-18
 -1      2963 3.93932E-05-1.87205E-05-8.53268E-06 2.31045E-05 8.63444E-19-4.18773E-18
 -1      2964 3.32389E-05-1.46915E-05-7.25063E-06 1.29120E-05 2.80447E-19-3.77184E-18
 -1      2965 1.28299E-04-6.05153E-05-2.89046E-05-1.96200E-05 6.36492E-19-1.68491E-18
 -1      2966 1.37992E-04-5.85769E-05-3.44965E-05-8.81649E-06-2.80580E-20-3.89212E-19
 -1      2967 9.20382E-05-1.66598E-05-3.23125E-05-9.03284E-06-2.14228E-18-1.13971E-18
 -1      2968 3.12438E-05-1.42557E-05-6.88108E-06 8.16208E-06-8.59209E-20 2.75730E-18
 -1      2969 3.08750E-05-1.42649E-05-6.58717E-06-7.08379E-06-2.25337E-19 3.91499E-18
 -1      2970 9.51326E-05-2.52929E-05-2.99288E-05-8.85672E-06-1.49515E-18-2.46611E-20
 -1      2971 6.55821E-05-3.49988E-05-1.25260E-05-3.73813E-05 1.99709E-18-1.33641E-18
 -1      2972 8.13177E-05-4.40445E-05-1.58917E-05-4.02817E-05 1.87597E-18-3.17500E-18
 -1      2973 9.70141E-05-5.17225E-05-1.90434E-05-3.72235E-05 1.16552E-18-4.17685E-18
 -1      2974 1.12989E-04-5.75487E-05-2.38357E-05-3.11198E-05 8.24481E-19-3.51491E-18
 -1      2975 9.30309E-05-4.69752E-05-1.92968E-05-3.52727E-05 2.10509E-18-3.54526E-18
 -1      2976 3.62742E-05-1.82619E-05-7.16202E-06-1.94636E-05 1.38246E-18 3.53001E-18
 -1      2977 4.83510E-05-2.55166E-05-9.52257E-06-3.17149E-05 1.09225E-18 8.34751E-19
 -1      2978 1.37864E-04-3.54013E-05-4.45821E-05-9.57592E-06-9.62441E-19-1.37992E-18
 -1      2979 1.39065E-04-4.43175E-05-4.07031E-05-5.63080E-06-1.20342E-18-2.71315E-18
 -1      2980 1.22737E-04-9.02254E-06-4.93991E-05 4.40278E-07 1.95029E-19-9.13196E-19
 -1      2981 1.27205E-04-1.21222E-05-4.98811E-05-6.20274E-06-1.77665E-19-1.64457E-18
 -1      2982 1.22882E-04-1.62900E-05-4.60435E-05-8.69873E-06-6.91391E-19-2.24046E-18
 -1      2983 9.15685E-05-1.66748E-05-3.21165E-05-5.59072E-06-1.47661E-18-1.92648E-18
 -1      2984 9.20419E-05-1.73752E-05-3.20238E-05-6.42307E-06-1.66395E-18-1.73447E-18
 -1      2985 9.24410E-05-1.81909E-05-3.18004E-05-4.58538E-06-1.34178E-18-1.91159E-18
 -1      2986 9.13090E-05-1.64009E-05-3.20913E-05 2.86177E-08-4.16812E-19-2.44636E-18
 -1      2987 9.01854E-05-1.46114E-05-3.24083E-05-3.83745E-07-5.60424E-19-2.59898E-18
 -1      2988 9.02416E-05-1.46915E-05-3.23982E-05-1.34272E-06-8.39522E-19-2.53582E-18
 -1      2989 4.29015E-05-1.55754E-05-1.10301E-05 1.26250E-05-7.58730E-19 2.61627E-18
 -1      2990 9.67980E-05-4.78570E-05-2.05099E-05 3.38490E-05-3.02920E-19-2.62390E-18
 -1      2991 6.38763E-05-2.86767E-05-1.44919E-05 3.13851E-05-1.41486E-18-6.50415E-19
 -1      2992 1.28466E-04-5.61019E-05-3.11135E-05 8.69458E-06-5.81111E-19-2.75400E-18
 -1      2993 1.26489E-04-5.90862E-05-2.88153E-05 1.80551E-05-2.62104E-19-3.65399E-18
 -1      2994 1.18778E-04-5.61496E-05-2.67523E-05 2.15226E-05-1.28167E-19-3.74608E-18
 -1      2995 1.33196E-04-3.48873E-05-4.25572E-05-1.49851E-05-1.63266E-18-6.13040E-19
 -1      2996 1.30427E-04-3.93535E-05-3.93289E-05 1.36490E-05-1.17849E-18 1.96342E-18
 -1      2997 1.24737E-04-4.09989E-05-3.59281E-05 1.28378E-05 2.24728E-20 2.46328E-19
 -1      2998 1.25534E-04-4.52345E-05-3.45824E-05 1.00010E-05 1.67739E-18 5.81663E-19
 -1      2999 1.33977E-04-4.72780E-05-3.75687E-05 1.01711E-05-8.27181E-20 2.53813E-18
 -1      3000 1.24822E-04-2.23975E-05-4.45284E-05 1.24968E-05-2.42527E-18 1.80947E-19
 -1      3001 9.25670E-05-2.39611E-05-2.94079E-05 8.87757E-06-1.04344E-18-4.50697E-19
 -1      3002 9.30935E-05-2.37505E-05-2.97399E-05 8.25378E-06-6.20344E-19-1.34095E-18
 -1      3003 9.40116E-05-2.46414E-05-2.97126E-05 8.36073E-06-1.42136E-18-1.05257E-18
 -1      3004 9.50056E-05-2.79059E-05-2.87652E-05-4.42881E-07 9.76062E-19-1.22107E-18
 -1      3005 1.18604E-04-1.33618E-05-4.54447E-05 4.21948E-06 1.43466E-19-1.31107E-18
 -1      3006 6.24113E-05-2.93757E-05-1.35926E-05-3.21744E-05 2.74079E-18-1.60301E-18
 -1      3007 9.47429E-05-2.53170E-05-2.97657E-05 8.20596E-06-1.18925E-18-2.54545E-18
 -1      3008 9.55575E-05-2.61419E-05-2.97346E-05 7.88625E-06-1.29919E-19-8.90728E-19
 -1      3009 9.61685E-05-2.68915E-05-2.96862E-05 8.37753E-06-4.47462E-19-1.11509E-18
 -1      3010 9.45962E-05-2.56269E-05-2.95580E-05 9.01716E-06-8.26916E-19-2.23111E-18
 -1      3011 1.31174E-04-3.11705E-05-4.31887E-05-1.21376E-05-1.17505E-18-2.18291E-18
 -1      3012 9.41087E-05-2.42819E-05-2.99279E-05-8.89658E-06-1.19867E-18-1.22987E-18
 -1      3013 1.22399E-04-5.98216E-05-2.67416E-05-2.34089E-05 6.07111E-19-1.56045E-18
 -1      3014 1.27147E-04-5.85384E-05-2.94581E-05-1.38180E-05 5.36489E-19 4.47789E-19
 -1      3015 1.14502E-04-5.54196E-05-2.49940E-05-2.58560E-05 4.78044E-20-1.35812E-18
 -1      3016 4.14651E-05-1.58146E-05-1.02946E-05-1.25560E-05 1.02803E-18 3.10565E-18
 -1      3017 5.27381E-05-2.21514E-05-1.24931E-05 2.55088E-05 1.78872E-18-3.36389E-18
 -1      3018 1.28119E-04-5.69608E-05-3.04335E-05-1.11736E-05-1.79306E-19 1.41748E-18
 -1      3019 1.07093E-04-5.24590E-05-2.31291E-05-2.92469E-05-1.41243E-18 8.73159E-19
 -1      3020 4.48154E-05-1.88467E-05-1.05152E-05-2.37170E-05-1.91715E-18-3.57046E-18
 -1      3021 5.57005E-05-2.23217E-05-1.38740E-05-2.64939E-05-1.84611E-18-2.54131E-18
 -1      3022 4.20184E-05-1.47935E-05-1.13965E-05-1.54454E-05-1.48109E-18-3.01501E-18
 -1      3023 1.34871E-04-5.76152E-05-3.28909E-05 5.35492E-06-2.83875E-19 9.63394E-19
 -1      3024 7.63003E-05-3.66860E-05-1.65223E-05-3.51789E-05-2.02939E-18 1.61042E-19
 -1      3025 9.43511E-05-2.14243E-05-3.12585E-05 7.22801E-06 1.60376E-18-1.87588E-18
 -1      3026 1.33476E-04-4.51534E-05-3.81183E-05 8.71766E-06-8.89808E-19-3.76824E-19
 -1      3027 1.26500E-04-3.85074E-05-3.80019E-05 1.29742E-05-8.78929E-19-1.68353E-18
 -1      3028 1.30224E-04-4.86652E-05-3.48116E-05 5.04847E-06-1.11067E-19-2.62580E-20
 -1      3029 8.19165E-05-3.94960E-05-1.76855E-05 3.36484E-05 2.03002E-18-1.13619E-18
 -1      3030 1.27148E-04-4.87680E-05-3.36518E-05 5.36819E-06 9.43595E-19 2.37360E-18
 -1      3031 9.28225E-05-1.84325E-05-3.18796E-05-7.48045E-06-1.88052E-18-1.30368E-18
 -1      3032 3.70045E-05-1.34164E-05-9.46277E-06 4.41293E-06 3.14699E-19-2.56905E-18
 -1      3033 1.13985E-04-5.67284E-05-2.42349E-05 2.72870E-05 1.78840E-18-1.82575E-20
 -1      3034 1.06778E-04-5.17528E-05-2.32429E-05 2.80552E-05 1.93256E-18-1.86877E-20
 -1      3035 1.20942E-04-5.82722E-05-2.71723E-05 1.98454E-05 1.29128E-18 3.46476E-19
 -1      3036 9.03658E-05-1.48823E-05-3.23702E-05-2.18136E-06-9.62474E-19-2.48025E-18
 -1      3037 9.05481E-05-1.51449E-05-3.23376E-05-3.13345E-06-1.18452E-18-2.48037E-18
 -1      3038 9.17986E-05-1.71657E-05-3.19697E-05-3.14789E-06-1.16405E-18-2.37603E-18
 -1      3039 9.14267E-05-1.65841E-05-3.20623E-05-1.58620E-06-8.63536E-19-2.30859E-18
 -1      3040 9.44745E-05-2.51428E-05-2.97099E-05-9.98961E-06-1.79798E-18-2.30569E-18
 -1      3041 9.32022E-05-2.37388E-05-2.97796E-05-9.35401E-06-8.68314E-19-1.14861E-18
 -1      3042 9.25915E-05-2.37394E-05-2.95030E-05-9.97863E-06-8.96102E-19-6.29799E-19
 -1      3043 9.47977E-05-2.56130E-05-2.96393E-05-1.05911E-05-9.63850E-19-2.32453E-18
 -1      3044 1.37907E-04-5.45020E-05-3.57676E-05 2.24093E-07-8.98020E-19 1.93060E-18
 -1      3045 1.35514E-04-4.90954E-05-3.72515E-05-3.40353E-06-1.40271E-18-1.83891E-18
 -1      3046 9.46121E-05-2.24672E-05-3.09118E-05 5.70426E-06 1.39543E-18-1.95665E-18
 -1      3047 9.42791E-05-2.18549E-05-3.10607E-05 4.98598E-06 1.15050E-18-2.10221E-18
 -1      3048 9.38247E-05-2.09143E-05-3.12475E-05 4.63643E-06 9.90198E-19-2.22081E-18
 -1      3049 9.34762E-05-1.98511E-05-3.15497E-05-6.24331E-06-1.62607E-18-1.33733E-18
 -1      3050 9.56845E-05-2.68770E-05-2.94745E-05-7.52990E-07-1.00469E-18-7.51860E-19
 -1      3051 9.56613E-05-2.73232E-05-2.92958E-05-2.25786E-07-9.66459E-19-7.88914E-19
 -1      3052 9.57055E-05-2.77061E-05-2.91314E-05 1.56790E-07-1.05142E-18-6.25386E-19
 -1      3053 9.56690E-05-2.79890E-05-2.90102E-05 4.75703E-07-9.93749E-19-8.00211E-19
 -1      3054 9.59059E-05-2.73242E-05-2.93952E-05-1.67191E-07-1.01699E-18-7.79741E-19
 -1      3055 9.56609E-05-2.82227E-05-2.88943E-05 7.02451E-07-8.45520E-19-7.68617E-19
 -1      3056 9.56295E-05-2.83984E-05-2.88153E-05 8.77057E-07-7.19367E-19-7.34760E-19
 -1      3057 9.59466E-05-2.80397E-05-2.91066E-05 4.75506E-07-9.08136E-19-6.21879E-19
 -1      3058 9.55968E-05-2.85334E-05-2.87364E-05 9.94419E-07-4.97907E-19-9.36345E-19
 -1      3059 9.55750E-05-2.86366E-05-2.86883E-05 1.07412E-06-4.09407E-19-8.10439E-19
 -1      3060 9.59116E-05-2.84775E-05-2.89038E-05 8.47234E-07-7.10251E-19-8.70046E-19
 -1      3061 9.55319E-05-2.87045E-05-2.86374E-05 1.12025E-06-3.37822E-19-6.57803E-19
 -1      3062 9.55193E-05-2.87573E-05-2.86116E-05 1.14226E-06-2.74662E-19-5.03531E-19
 -1      3063 9.58411E-05-2.87255E-05-2.87669E-05 1.03222E-06-2.20662E-19-8.11902E-19
 -1      3064 9.54728E-05-2.87790E-05-2.85818E-05 1.14696E-06-4.93633E-19-2.86973E-19
 -1      3065 9.54677E-05-2.87961E-05-2.85721E-05 1.13881E-06-4.48045E-19-2.18595E-19
 -1      3066 9.57558E-05-2.88417E-05-2.86800E-05 1.09955E-06-1.83911E-19-6.28549E-19
 -1      3067 9.54213E-05-2.87851E-05-2.85582E-05 1.12467E-06-5.76555E-19-6.93230E-20
 -1      3068 9.54217E-05-2.87761E-05-2.85605E-05 1.10676E-06-4.43563E-19-4.28931E-19
 -1      3069 9.56663E-05-2.88650E-05-2.86312E-05 1.10267E-06-4.19394E-19-1.45954E-20
 -1      3070 9.53763E-05-2.87411E-05-2.85587E-05 1.09087E-06-4.11348E-19-4.02438E-19
 -1      3071 9.53809E-05-2.87121E-05-2.85700E-05 1.07855E-06-4.02514E-19-5.42288E-19
 -1      3072 9.55771E-05-2.88212E-05-2.86113E-05 1.08222E-06-5.22594E-19-1.01669E-19
 -1      3073 9.53361E-05-2.86581E-05-2.85777E-05 1.07408E-06-5.45517E-19-5.03108E-19
 -1      3074 9.53438E-05-2.86128E-05-2.85963E-05 1.07932E-06-3.34557E-19-2.69623E-19
 -1      3075 9.54886E-05-2.87262E-05-2.86136E-05 1.06923E-06-3.09805E-19-3.74110E-19
 -1      3076 9.52979E-05-2.85424E-05-2.86115E-05 1.09681E-06-3.84063E-19-2.80908E-19
 -1      3077 9.53081E-05-2.84827E-05-2.86364E-05 1.12946E-06-3.25284E-19-5.89127E-19
 -1      3078 9.53991E-05-2.85894E-05-2.86335E-05 1.08801E-06-4.96193E-19-5.09116E-19
 -1      3079 9.52587E-05-2.83963E-05-2.86579E-05 1.17785E-06-5.38306E-19-5.23539E-19
 -1      3080 9.52709E-05-2.83227E-05-2.86886E-05 1.24656E-06-8.81784E-19-7.30784E-19
 -1      3081 9.53046E-05-2.84148E-05-2.86675E-05 1.15843E-06-4.80749E-19-6.21198E-19
 -1      3082 9.52148E-05-2.82196E-05-2.87154E-05 1.33391E-06-6.87223E-19-3.47750E-19
 -1      3083 9.52286E-05-2.81318E-05-2.87518E-05 1.44672E-06-3.91810E-19-1.52644E-19
 -1      3084 9.51998E-05-2.82026E-05-2.87132E-05 1.29773E-06-5.12793E-19-5.39721E-19
 -1      3085 9.51618E-05-2.80102E-05-2.87831E-05 1.58073E-06-2.78527E-19-9.64722E-20
 -1      3086 9.51770E-05-2.79075E-05-2.88252E-05 1.74543E-06-3.37409E-19-3.71999E-22
 -1      3087 9.50776E-05-2.79507E-05-2.87683E-05 1.52165E-06-2.09904E-19-2.82377E-19
 -1      3088 9.50947E-05-2.77655E-05-2.88600E-05 1.93365E-06-3.78629E-19 6.74883E-20
 -1      3089 9.51111E-05-2.76479E-05-2.89076E-05 2.15778E-06-2.77962E-19-4.21444E-19
 -1      3090 9.49294E-05-2.76554E-05-2.88308E-05 1.84521E-06-4.48219E-19-5.09037E-19
 -1      3091 9.50082E-05-2.74842E-05-2.89444E-05 2.40760E-06-1.07069E-19-1.05582E-19
 -1      3092 9.50257E-05-2.73528E-05-2.89968E-05 2.69814E-06 1.59450E-19-2.87793E-19
 -1      3093 9.47455E-05-2.73141E-05-2.88976E-05 2.28291E-06-2.50032E-19-5.51230E-19
 -1      3094 9.48970E-05-2.71684E-05-2.90332E-05 3.01655E-06 4.55205E-20-6.02764E-19
 -1      3095 9.49167E-05-2.70276E-05-2.90887E-05 3.37918E-06 3.00013E-19-1.03237E-18
 -1      3096 9.45157E-05-2.69266E-05-2.89644E-05 2.84846E-06-5.18266E-20-4.33898E-19
 -1      3097 9.47581E-05-2.68272E-05-2.91210E-05 3.77240E-06 4.22097E-19-1.43873E-18
 -1      3098 9.47833E-05-2.66872E-05-2.91766E-05 4.21035E-06 5.57472E-19-1.68182E-18
 -1      3099 9.42308E-05-2.64996E-05-2.90243E-05 3.55424E-06-1.00655E-19-1.21562E-18
 -1      3100 9.45945E-05-2.64836E-05-2.91991E-05 4.68338E-06 7.69989E-19-2.05252E-18
 -1      3101 9.46341E-05-2.63645E-05-2.92500E-05 5.19579E-06 9.24415E-19-2.09836E-18
 -1      3102 9.38859E-05-2.60520E-05-2.90674E-05 4.41075E-06 6.14851E-19-9.81954E-19
 -1      3103 9.44225E-05-2.61834E-05-2.92548E-05 5.75213E-06 7.45040E-19-1.87240E-18
 -1      3104 9.44967E-05-2.61222E-05-2.92936E-05 6.33186E-06-2.04901E-20-1.36037E-18
 -1      3105 9.34867E-05-2.56241E-05-2.90791E-05 5.42641E-06 8.42423E-19-1.79527E-18
 -1      3106 9.42856E-05-2.60104E-05-2.92701E-05 6.97352E-06-3.22657E-19-6.35080E-19
 -1      3107 9.44356E-05-2.60705E-05-2.92873E-05 7.60426E-06 1.71584E-20-2.10988E-19
 -1      3108 9.30614E-05-2.52908E-05-2.90399E-05 6.60845E-06 3.26304E-19-1.37172E-18
 -1      3109 9.42773E-05-2.61078E-05-2.92229E-05 8.33188E-06-1.50046E-19-4.18049E-19
 -1      3110 9.45812E-05-2.63920E-05-2.92081E-05 8.98385E-06 5.86093E-20-2.39827E-19
 -1      3111 9.26801E-05-2.51823E-05-2.89253E-05 7.96532E-06-1.02295E-19-1.61941E-19
 -1      3112 9.45781E-05-2.67055E-05-2.90906E-05 9.79547E-06 1.09914E-19-5.38641E-19
 -1      3113 9.51724E-05-2.73702E-05-2.90364E-05 1.04172E-05 2.74424E-19-6.40078E-19
 -1      3114 9.24877E-05-2.55107E-05-2.87086E-05 9.50974E-06-2.75023E-20-1.12382E-18
 -1      3115 9.55102E-05-2.81495E-05-2.88597E-05 1.12990E-05 5.85162E-19-6.87837E-19
 -1      3116 9.66129E-05-2.94116E-05-2.87713E-05 1.17981E-05 7.44392E-19-5.47953E-19
 -1      3117 9.27559E-05-2.66057E-05-2.83684E-05 1.12561E-05 4.71480E-19-8.81175E-19
 -1      3118 9.76057E-05-3.09121E-05-2.85500E-05 1.26872E-05 5.32272E-19-1.50729E-20
 -1      3119 9.95214E-05-3.30191E-05-2.84650E-05 1.28850E-05 4.71498E-19-3.97253E-20
 -1      3120 9.39616E-05-2.89489E-05-2.79079E-05 1.31887E-05 6.10824E-19-9.66163E-19
 -1      3121 1.01647E-04-3.55149E-05-2.82640E-05 1.35832E-05 2.78077E-19 4.63883E-20
 -1      3122 1.04671E-04-3.86085E-05-2.82837E-05 1.31260E-05 8.95976E-19-2.18462E-19
 -1      3123 9.68626E-05-3.31401E-05-2.73977E-05 1.51410E-05 5.18980E-19-6.54713E-19
 -1      3124 1.08679E-04-4.22258E-05-2.82882E-05 1.30374E-05 9.25579E-19-2.28758E-19
 -1      3125 1.13183E-04-4.59911E-05-2.87153E-05 1.10426E-05 5.62245E-19-7.38772E-20
 -1      3126 1.02695E-04-3.98681E-05-2.70669E-05 1.65938E-05 6.18235E-19-4.72325E-19
 -1      3127 1.17548E-04-5.11596E-05-2.82510E-05 1.31522E-05 9.20146E-19 6.31867E-19
 -1      3128 1.22895E-04-5.38844E-05-2.94484E-05 9.62449E-06 6.03723E-19 7.62720E-19
 -1      3129 1.30651E-04-5.21898E-05-3.40743E-05-3.62690E-06-4.17534E-19 1.19938E-18
 -1      3130 1.32743E-04-4.80784E-05-3.62430E-05-8.87188E-06-1.23397E-18 5.82428E-19
 -1      3131 1.32436E-04-5.30475E-05-3.40947E-05 1.31650E-06 4.48425E-19 1.37910E-18
 -1      3132 9.52307E-05-2.87123E-05-2.85060E-05-1.12157E-06 5.83410E-19-7.20748E-19
 -1      3133 9.52069E-05-2.87100E-05-2.84986E-05-1.14536E-06 4.88165E-19-6.65473E-19
 -1      3134 1.11225E-04-4.49855E-05-2.83746E-05-1.35704E-05 1.00438E-18 6.95027E-19
 -1      3135 1.07234E-04-4.11727E-05-2.81487E-05-1.49809E-05 7.72466E-19 2.71826E-19
 -1      3136 1.03786E-04-3.77766E-05-2.82413E-05-1.50285E-05-1.62310E-19-5.77145E-19
 -1      3137 1.00936E-04-3.48110E-05-2.82637E-05-1.52988E-05-4.93992E-19-1.23540E-18
 -1      3138 1.01958E-04-3.90713E-05-2.71694E-05-1.78990E-05 9.22770E-20-2.63143E-19
 -1      3139 9.91317E-05-3.25286E-05-2.85111E-05-1.46223E-05-5.60509E-19-8.36419E-19
 -1      3140 9.73564E-05-3.04840E-05-2.86296E-05-1.43773E-05-3.66536E-19-1.24245E-18
 -1      3141 9.67995E-05-3.26915E-05-2.75760E-05-1.65896E-05-4.32579E-19-4.36043E-19
 -1      3142 9.65358E-05-2.90230E-05-2.89077E-05-1.35096E-05-5.51809E-19-1.00074E-18
 -1      3143 9.55067E-05-2.77073E-05-2.90455E-05-1.29455E-05-1.06916E-18-7.97469E-19
 -1      3144 9.43883E-05-2.86791E-05-2.81947E-05-1.47114E-05 4.58696E-20-9.25178E-19
 -1      3145 9.54050E-05-2.69968E-05-2.93014E-05-1.21454E-05-1.03193E-18-6.74310E-19
 -1      3146 9.47887E-05-2.61068E-05-2.94288E-05-1.13789E-05-4.48853E-19-3.71226E-19
 -1      3147 9.35465E-05-2.51648E-05-2.93164E-05-1.12641E-05-2.08445E-18-6.65634E-19
 -1      3148 9.36111E-05-2.64446E-05-2.88012E-05-1.28955E-05-3.04050E-19-4.33222E-19
 -1      3149 8.77091E-05-2.06023E-05-2.87394E-05-7.27191E-06 2.12624E-19-1.07333E-18
 -1      3150 8.67097E-05-1.99328E-05-2.86540E-05-5.64027E-06 8.09231E-20-1.76551E-19
 -1      3151 9.52352E-05-2.87129E-05-2.85081E-05-1.16322E-06 4.60967E-19-8.42040E-19
 -1      3152 9.52184E-05-2.86882E-05-2.85116E-05-1.17569E-06 4.65926E-19-7.90455E-19
 -1      3153 9.54724E-05-2.87978E-05-2.85769E-05-1.14725E-06 4.09983E-19-1.01634E-18
 -1      3154 1.24565E-04-2.73210E-05-4.21986E-05-1.32419E-05-1.15249E-18-1.35324E-18
 -1      3155 1.29207E-04-3.55455E-05-4.02431E-05-1.28182E-05-1.29120E-18-1.82398E-18
 -1      3156 9.52503E-05-2.86633E-05-2.85364E-05-1.17204E-06 3.01028E-19-7.67191E-19
 -1      3157 9.52440E-05-2.86080E-05-2.85552E-05-1.15246E-06 2.42962E-19-7.47550E-19
 -1      3158 9.55288E-05-2.87618E-05-2.86172E-05-1.14902E-06 4.37344E-19-8.94960E-19
 -1      3159 9.52344E-05-2.86747E-05-2.85233E-05-1.08027E-06 3.78580E-19-4.88840E-19
 -1      3160 9.52058E-05-2.86892E-05-2.85079E-05-1.10002E-06 5.11138E-19-7.78084E-19
 -1      3161 9.54217E-05-2.87750E-05-2.85645E-05-1.11694E-06 4.75024E-19-8.21196E-19
 -1      3162 9.52448E-05-2.86085E-05-2.85557E-05-1.06456E-06 2.90041E-19-6.37003E-20
 -1      3163 9.52122E-05-2.86362E-05-2.85340E-05-1.06857E-06 3.69173E-19-9.55851E-20
 -1      3164 9.53762E-05-2.87085E-05-2.85731E-05-1.09061E-06 2.48955E-19-6.32828E-19
 -1      3165 9.52610E-05-2.85190E-05-2.86007E-05-1.09439E-06 2.05668E-19-1.39225E-19
 -1      3166 9.52243E-05-2.85575E-05-2.85734E-05-1.07330E-06 5.63073E-19 2.22204E-19
 -1      3167 9.53344E-05-2.86077E-05-2.85982E-05-1.09327E-06 3.80999E-19-4.51630E-19
 -1      3168 9.52832E-05-2.84090E-05-2.86568E-05-1.18636E-06 3.90650E-19-7.27720E-19
 -1      3169 9.52412E-05-2.84567E-05-2.86242E-05-1.13231E-06 1.67604E-19-4.17138E-19
 -1      3170 9.52944E-05-2.84777E-05-2.86365E-05-1.14493E-06 4.71107E-19-3.63201E-19
 -1      3171 9.53121E-05-2.82806E-05-2.87237E-05-1.35498E-06 6.06382E-20-2.52232E-19
 -1      3172 9.52630E-05-2.83360E-05-2.86856E-05-1.26105E-06 1.89580E-19-3.63397E-19
 -1      3173 9.52541E-05-2.83213E-05-2.86861E-05-1.26239E-06 7.35023E-20-4.07723E-19
 -1      3174 9.53496E-05-2.81361E-05-2.88011E-05-1.61324E-06 2.41218E-19-9.22561E-20
 -1      3175 9.52906E-05-2.81975E-05-2.87572E-05-1.47331E-06 3.39408E-19-2.80934E-19
 -1      3176 9.52119E-05-2.81404E-05-2.87454E-05-1.46044E-06 1.43011E-19-6.67243E-20
 -1      3177 9.53992E-05-2.79796E-05-2.88887E-05-1.97248E-06-8.92063E-20-2.01589E-19
 -1      3178 9.53265E-05-2.80440E-05-2.88388E-05-1.78143E-06 2.32431E-19-2.90903E-19
 -1      3179 9.51667E-05-2.79369E-05-2.88131E-05-1.75237E-06 3.27985E-19-2.82297E-19
 -1      3180 9.54668E-05-2.78191E-05-2.89858E-05-2.44151E-06 4.12144E-20-1.77187E-19
 -1      3181 9.53753E-05-2.78813E-05-2.89298E-05-2.19585E-06 4.81121E-20-1.52125E-19
 -1      3182 9.51189E-05-2.77156E-05-2.88874E-05-2.14984E-06-1.08427E-19-4.61710E-19
 -1      3183 9.55624E-05-2.76699E-05-2.90900E-05-3.02473E-06-3.70970E-20-1.42598E-19
 -1      3184 9.54450E-05-2.77206E-05-2.90288E-05-2.72386E-06-1.74801E-19 8.42430E-20
 -1      3185 9.50723E-05-2.74865E-05-2.89656E-05-2.66208E-06-1.62676E-19-4.18633E-19
 -1      3186 9.57036E-05-2.75583E-05-2.91978E-05-3.71910E-06-4.49528E-19 5.88541E-19
 -1      3187 9.55494E-05-2.75824E-05-2.91328E-05-3.36716E-06 4.18213E-20 7.93288E-20
 -1      3188 9.50361E-05-2.72688E-05-2.90435E-05-3.29426E-06-2.76060E-19 5.24010E-19
 -1      3189 9.59194E-05-2.75280E-05-2.93028E-05-4.50976E-06-4.64858E-19 8.09698E-19
 -1      3190 9.57123E-05-2.75012E-05-2.92370E-05-4.11838E-06-5.00899E-19 6.14369E-19
 -1      3191 9.50295E-05-2.70964E-05-2.91151E-05-4.04498E-06-6.41699E-19 4.41995E-19
 -1      3192 9.62588E-05-2.76475E-05-2.93968E-05-5.36393E-06-9.86754E-19 1.33680E-18
 -1      3193 9.59736E-05-2.75327E-05-2.93342E-05-4.95594E-06-6.19972E-19 1.11630E-18
 -1      3194 9.50881E-05-2.70248E-05-2.91721E-05-4.90274E-06-5.13875E-19 9.79157E-19
 -1      3195 9.67998E-05-2.80182E-05-2.94701E-05-6.22241E-06-3.23179E-19 9.87485E-19
 -1      3196 9.63985E-05-2.77619E-05-2.94154E-05-5.83676E-06-4.54347E-19 8.32580E-19
 -1      3197 9.52738E-05-2.71403E-05-2.92047E-05-5.84091E-06-6.63357E-19 7.96164E-19
 -1      3198 9.76627E-05-2.87803E-05-2.95143E-05-6.98772E-06-5.82469E-19 3.56646E-19
 -1      3199 9.70900E-05-2.83108E-05-2.94715E-05-6.68589E-06-2.10085E-19 8.52632E-19
 -1      3200 9.56888E-05-2.75701E-05-2.92030E-05-6.81011E-06-1.77144E-20 5.29278E-19
 -1      3201 9.90176E-05-3.01079E-05-2.95286E-05-7.50720E-06-5.65607E-19 3.91798E-19
 -1      3202 9.82011E-05-2.93413E-05-2.94977E-05-7.38094E-06-8.10063E-19 1.42176E-19
 -1      3203 9.64920E-05-2.84887E-05-2.91614E-05-7.72541E-06-5.72292E-19 3.86035E-19
 -1      3204 1.01078E-04-3.21757E-05-2.95313E-05-7.54950E-06-2.10606E-19 4.24934E-19
 -1      3205 9.99390E-05-3.10387E-05-2.95024E-05-7.72897E-06-6.44386E-20 7.41407E-19
 -1      3206 9.79133E-05-3.01107E-05-2.90876E-05-8.44333E-06-5.57682E-19 1.01160E-18
 -1      3207 1.04052E-04-3.50690E-05-2.95777E-05-6.78028E-06-8.07125E-19 5.10725E-19
 -1      3208 1.02542E-04-3.35548E-05-2.95221E-05-7.43684E-06-2.90721E-19 6.46849E-19
 -1      3209 1.00247E-04-3.26474E-05-2.90174E-05-8.72324E-06-2.82482E-19 1.55774E-18
 -1      3210 1.08004E-04-3.85818E-05-2.97862E-05-4.74211E-06-1.13216E-18-4.03729E-19
 -1      3211 1.06195E-04-3.68754E-05-2.96449E-05-6.07156E-06-7.44094E-19 2.77466E-19
 -1      3212 1.03807E-04-3.62009E-05-2.90391E-05-8.17164E-06-5.61386E-19 1.79448E-18
 -1      3213 1.12570E-04-4.18548E-05-3.03620E-05-9.56764E-07-6.64923E-19-4.63122E-19
 -1      3214 1.10780E-04-4.05106E-05-3.00408E-05-3.07874E-06-1.40987E-18-1.12761E-18
 -1      3215 1.08743E-04-4.04784E-05-2.93338E-05-6.13167E-06-6.74805E-19 3.64125E-20
 -1      3216 1.16506E-04-4.32292E-05-3.14327E-05 4.38241E-06 5.28568E-20-4.35362E-19
 -1      3217 1.15504E-04-4.31421E-05-3.09646E-05 1.87143E-06-9.89308E-20-5.32949E-19
 -1      3218 1.14484E-04-4.42408E-05-3.01980E-05-1.89727E-06-7.28137E-19-1.71905E-18
 -1      3219 1.20124E-04-3.91796E-05-3.47968E-05 1.19886E-05-6.61652E-19-8.50011E-19
 -1      3220 1.20519E-04-4.23978E-05-3.35007E-05 9.25876E-06-1.83730E-19-7.86546E-19
 -1      3221 1.18809E-04-3.46888E-05-3.61493E-05 1.29053E-05-9.69482E-19-4.37049E-20
 -1      3222 1.12055E-04-1.87177E-05-4.02794E-05 9.20738E-06-1.71418E-19-7.75141E-19
 -1      3223 1.14321E-04-2.31958E-05-3.93585E-05 1.20711E-05-4.60680E-19-9.83071E-19
 -1      3224 1.11882E-04-1.60889E-05-4.13609E-05-3.24098E-06 1.94076E-19-1.13392E-18
 -1      3225 1.11557E-04-1.54956E-05-4.14651E-05 2.01526E-06 1.60089E-19-1.01249E-18
 -1      3226 1.18608E-04-3.40225E-05-3.64504E-05-1.28528E-05-5.09464E-19-3.31640E-19
 -1      3227 1.16319E-04-2.84067E-05-3.77520E-05-1.25816E-05-4.19387E-19-3.83971E-19
 -1      3228 1.16384E-04-4.36978E-05-3.10675E-05-1.77853E-06-9.26442E-23-7.10790E-19
 -1      3229 1.17126E-04-4.31423E-05-3.17677E-05-4.59909E-06 1.71170E-19 3.61928E-19
 -1      3230 1.11663E-04-4.14511E-05-3.00039E-05 3.86885E-06 4.09540E-19-2.46223E-18
 -1      3231 1.13412E-04-4.26544E-05-3.03784E-05 1.58895E-06 1.41832E-19-1.49638E-18
 -1      3232 1.16171E-04-4.54260E-05-3.04443E-05 2.23844E-06 2.49845E-19-9.37904E-19
 -1      3233 1.06871E-04-3.78014E-05-2.95373E-05 7.39643E-06 1.39699E-18-2.34026E-18
 -1      3234 1.08806E-04-3.95689E-05-2.97063E-05 5.87298E-06 5.47544E-19-2.37711E-18
 -1      3235 1.10075E-04-4.18232E-05-2.93911E-05 7.06286E-06 4.70421E-19-1.52806E-18
 -1      3236 1.02963E-04-3.42325E-05-2.94071E-05 9.14479E-06 5.38376E-19-7.24315E-19
 -1      3237 1.04626E-04-3.59114E-05-2.94637E-05 8.32478E-06 1.41162E-18-1.11798E-18
 -1      3238 1.04892E-04-3.73393E-05-2.90302E-05 9.67441E-06 1.82833E-19-1.20975E-19
 -1      3239 1.00015E-04-3.12439E-05-2.94425E-05 9.62964E-06-5.07816E-19-4.78100E-19
 -1      3240 1.01331E-04-3.26348E-05-2.94469E-05 9.39469E-06 2.02884E-19-8.42087E-19
 -1      3241 1.01077E-04-3.34453E-05-2.90391E-05 1.06249E-05 4.28726E-19 1.64172E-19
 -1      3242 9.79460E-05-2.89520E-05-2.95481E-05 9.22172E-06-1.62157E-18-7.17196E-19
 -1      3243 9.89368E-05-3.00344E-05-2.95287E-05 9.42183E-06-1.43045E-18-1.08016E-18
 -1      3244 9.84099E-05-3.03162E-05-2.92119E-05 1.04539E-05-6.52014E-19-8.06951E-19
 -1      3245 9.66250E-05-2.74983E-05-2.96124E-05 8.72225E-06-3.01445E-19-1.64830E-18
 -1      3246 9.73897E-05-2.83127E-05-2.96026E-05 8.98767E-06-1.25426E-18-1.08502E-18
 -1      3247 9.68248E-05-2.82905E-05-2.93870E-05 9.86957E-06-1.47977E-18-3.72908E-18
 -1      3248 9.58269E-05-2.69115E-05-2.95451E-05 9.17950E-06-1.38680E-18-3.90625E-18
 -1      3249 9.23924E-05-1.83488E-05-3.17481E-05 1.81521E-06 1.30407E-19-2.50180E-18
 -1      3250 9.22737E-05-1.81468E-05-3.17804E-05 1.06015E-06-1.42441E-19-2.44832E-18
 -1      3251 7.37990E-05-3.24153E-05-1.78704E-05 3.22550E-05-1.66918E-18-1.28241E-18
 -1      3252 6.09616E-05-2.30191E-05-1.57690E-05 2.55237E-05-2.24652E-18 5.21455E-19
 -1      3253 8.56706E-05-1.92194E-05-2.85024E-05 7.98260E-07 7.73273E-19 9.77537E-19
 -1      3254 8.60625E-05-1.95103E-05-2.85197E-05 2.76906E-06 1.27318E-18 6.49215E-19
 -1      3255 9.04563E-05-2.26326E-05-2.90503E-05-9.77609E-06-4.16281E-19 4.40258E-19
 -1      3256 8.90695E-05-2.16712E-05-2.89213E-05-8.79996E-06 7.28668E-20-8.33094E-19
 -1      3257 8.76138E-05-2.13767E-05-2.83797E-05-8.75511E-06-1.52437E-19-9.27301E-19
 -1      3258 8.59684E-05-1.93505E-05-2.85509E-05-3.50609E-06-4.89044E-20 2.02725E-18
 -1      3259 8.56292E-05-1.91365E-05-2.85161E-05-1.55277E-06 1.09443E-19 2.11603E-18
 -1      3260 8.44215E-05-1.91758E-05-2.79286E-05-3.02771E-07 1.00272E-18 1.06280E-19
 -1      3261 8.52292E-05-1.96931E-05-2.80590E-05-4.97600E-06-2.08869E-19 6.66695E-19
 -1      3262 8.79425E-05-4.16125E-05-1.93790E-05-3.34987E-05 2.45063E-18-2.54915E-18
 -1      3263 1.00845E-04-4.95732E-05-2.20836E-05-3.20443E-05 1.13640E-18-2.66336E-18
 -1      3264 5.86098E-05-2.32818E-05-1.47017E-05-2.63099E-05 2.19773E-18-1.94267E-18
 -1      3265 7.25555E-05-3.24959E-05-1.71562E-05-3.26142E-05 2.98579E-18-2.61648E-18
 -1      3266 1.37226E-04-4.54006E-05-3.99508E-05-1.20173E-05-2.04408E-18 2.99638E-20
 -1      3267 9.52784E-05-2.85433E-05-2.86009E-05-1.10339E-06 2.10554E-19-8.34543E-19
 -1      3268 9.52876E-05-2.84447E-05-2.86415E-05-1.02331E-06 3.72826E-19-8.65988E-19
 -1      3269 9.55897E-05-2.86434E-05-2.86948E-05-1.07909E-06 1.23011E-19-7.14802E-19
 -1      3270 1.23077E-04-5.54871E-05-2.85835E-05-1.35694E-05-1.84627E-19 5.41413E-19
 -1      3271 1.27850E-04-5.47539E-05-3.18133E-05-4.83600E-06 4.26799E-19 9.85655E-19
 -1      3272 1.23568E-04-5.38992E-05-2.98510E-05-9.39127E-06 1.49002E-18 1.11378E-18
 -1      3273 1.18706E-04-5.12761E-05-2.87732E-05-1.26519E-05 1.75430E-18 7.76458E-19
 -1      3274 9.54953E-05-2.55657E-05-2.99571E-05-2.15352E-06-1.21563E-18-7.67072E-19
 -1      3275 9.55373E-05-2.62641E-05-2.97011E-05-1.34188E-06-1.05609E-18-8.73759E-19
 -1      3276 9.57158E-05-2.62001E-05-2.97938E-05-1.17791E-06-9.99795E-19-1.06253E-18
 -1      3277 4.99446E-05-1.66584E-05-1.42407E-05 1.64040E-05-1.22012E-18 1.65764E-18
 -1      3278 4.51007E-05-1.32774E-05-1.31421E-05 4.45223E-06-8.71905E-19 2.35528E-18
 -1      3279 9.53709E-05-2.79472E-05-2.88995E-05-4.70790E-07 8.88539E-19-1.25670E-18
 -1      3280 9.54207E-05-2.76908E-05-2.90158E-05-1.34339E-07 8.27489E-19-1.31158E-18
 -1      3281 9.53206E-05-2.83215E-05-2.87155E-05-8.96851E-07 4.64031E-19-9.49987E-19
 -1      3282 9.53508E-05-2.81603E-05-2.87871E-05-7.16794E-07 6.48076E-19-9.70317E-19
 -1      3283 9.56954E-05-2.79973E-05-2.90185E-05-4.76164E-07 6.06621E-19-1.28264E-18
 -1      3284 9.56500E-05-2.84070E-05-2.88228E-05-8.79848E-07 4.00872E-19-8.57647E-19
 -1      3285 1.29166E-04-5.58812E-05-3.11001E-05 5.78104E-06 1.45829E-19 9.71494E-19
 -1      3286 1.29634E-04-5.57445E-05-3.16988E-05-4.88744E-06 5.76121E-19 1.26732E-18
 -1      3287 7.13952E-05-3.09543E-05-1.69624E-05-3.13383E-05-2.01943E-18-1.48707E-19
 -1      3288 8.53010E-05-3.99585E-05-1.94955E-05-3.32462E-05-2.12219E-18 1.48713E-18
 -1      3289 9.99759E-05-4.71821E-05-2.21902E-05-2.95780E-05-1.50518E-18 2.91062E-19
 -1      3290 1.12530E-04-5.35451E-05-2.56354E-05-2.32304E-05-1.01610E-18 3.71715E-19
 -1      3291 9.10076E-05-4.26900E-05-2.07593E-05 3.11550E-05 1.99873E-18-1.68401E-19
 -1      3292 7.59725E-05-3.30512E-05-1.78344E-05 3.08064E-05 2.19585E-18-1.43170E-18
 -1      3293 1.32078E-04-4.44162E-05-3.80138E-05-8.35090E-06-1.17491E-18-2.27217E-18
 -1      3294 1.31996E-04-5.15069E-05-3.45524E-05-1.51239E-06-8.03517E-19-1.48225E-18
 -1      3295 1.27328E-04-4.04771E-05-3.74478E-05-1.05687E-05-1.24858E-18-8.74270E-19
 -1      3296 4.29579E-05-1.31502E-05-1.25516E-05 9.53897E-06 8.05555E-19-1.93971E-18
 -1      3297 4.07275E-05-1.18388E-05-1.17907E-05-3.31806E-06-4.33310E-19-1.52392E-18
 -1      3298 1.04980E-04-5.03160E-05-2.35352E-05 2.88974E-05-1.42354E-19-2.91850E-18
 -1      3299 8.97306E-05-4.15795E-05-2.01963E-05 3.25855E-05 4.30399E-20-2.16433E-18
 -1      3300 4.45352E-05-1.38833E-05-1.28705E-05-7.22614E-06-1.99450E-20 2.13781E-18
 -1      3301 4.99136E-05-1.78282E-05-1.34516E-05-1.94297E-05 1.46748E-18 3.92706E-19
 -1      3302 6.15329E-05-2.11930E-05-1.68357E-05-2.09217E-05 1.89418E-18-1.88650E-18
 -1      3303 6.03404E-05-2.45971E-05-1.53398E-05 2.75299E-05 2.30981E-18-2.19604E-18
 -1      3304 5.01263E-05-1.75948E-05-1.33924E-05 1.95055E-05 1.78716E-18-2.85101E-18
 -1      3305 9.52103E-05-2.42799E-05-3.04014E-05 4.28293E-06 1.23862E-18-1.77828E-18
 -1      3306 9.46399E-05-2.27338E-05-3.08061E-05 4.78442E-06 1.19564E-18-1.92566E-18
 -1      3307 9.49168E-05-2.35899E-05-3.05684E-05 3.68124E-06 1.03376E-18-1.92875E-18
 -1      3308 9.52374E-05-2.52049E-05-3.00272E-05 3.00957E-06 1.00482E-18-1.82651E-18
 -1      3309 9.22139E-05-1.80468E-05-3.17989E-05 4.09236E-07-2.70517E-19-2.29327E-18
 -1      3310 9.22108E-05-1.80422E-05-3.17994E-05-3.60103E-07-5.15021E-19-2.24597E-18
 -1      3311 9.31675E-05-1.96296E-05-3.14986E-05 6.29795E-07-1.45400E-19-2.21892E-18
 -1      3312 9.40393E-05-2.14146E-05-3.11324E-05-5.00998E-06-1.50278E-18-1.19947E-18
 -1      3313 1.29908E-04-5.44974E-05-3.24419E-05 3.04801E-06-2.43509E-19-1.03224E-18
 -1      3314 1.25003E-04-5.39799E-05-3.03013E-05 7.41856E-06 1.13522E-18-7.56374E-19
 -1      3315 1.27627E-04-4.97113E-05-3.34165E-05-2.63786E-06 1.17076E-19-4.62215E-19
 -1      3316 9.41544E-05-4.19667E-05-2.21526E-05-2.79839E-05-1.46034E-18-9.94867E-20
 -1      3317 9.24543E-05-2.43466E-05-2.91871E-05-1.09292E-05-2.74240E-18-1.84071E-18
 -1      3318 9.13770E-05-2.34269E-05-2.91394E-05-1.04211E-05-1.48546E-18-1.72872E-20
 -1      3319 9.02177E-05-2.32793E-05-2.86886E-05-1.08322E-05-2.26960E-18-1.03800E-18
 -1      3320 9.24496E-05-2.48975E-05-2.89389E-05-1.17326E-05-2.24855E-18-1.66271E-18
 -1      3321 5.22894E-05-1.44322E-05-1.57684E-05-2.35168E-06-1.24633E-19 1.46283E-18
 -1      3322 1.09814E-04-4.87636E-05-2.62483E-05 1.96454E-05 1.31501E-18 1.10379E-20
 -1      3323 9.19546E-05-2.42308E-05-2.90525E-05 9.52708E-06-1.16896E-18-1.04987E-18
 -1      3324 9.32850E-05-2.52105E-05-2.91528E-05 9.82452E-06-9.19620E-19 2.58005E-19
 -1      3325 1.09682E-04-5.17918E-05-2.46726E-05-2.51760E-05 8.71597E-19-6.92258E-19
 -1      3326 1.26572E-04-5.02239E-05-3.28402E-05 1.78490E-06 1.42328E-19-1.01504E-18
 -1      3327 1.22048E-04-4.57838E-05-3.28195E-05 5.49586E-06-1.94364E-19-1.82040E-18
 -1      3328 1.20490E-04-2.53885E-05-4.10705E-05 1.39192E-05-4.65445E-19-3.31772E-19
 -1      3329 1.15897E-04-2.97949E-05-3.70585E-05 1.41510E-05-9.21572E-19-3.65865E-19
 -1      3330 1.11701E-04-2.32073E-05-3.82441E-05-1.01944E-05-3.56839E-19-7.24342E-19
 -1      3331 1.09987E-04-1.96419E-05-3.88055E-05-6.30224E-06 2.72533E-19-2.58213E-19
 -1      3332 1.18664E-04-4.18176E-05-3.30079E-05-8.24755E-06-3.65065E-19 9.02863E-19
 -1      3333 1.17899E-04-3.87667E-05-3.39539E-05-1.03108E-05-4.80949E-19 1.19068E-19
 -1      3334 9.25653E-05-1.86432E-05-3.16917E-05 2.42661E-06 3.22995E-19-2.40551E-18
 -1      3335 9.33790E-05-2.00176E-05-3.14217E-05 1.80603E-06 2.68777E-19-2.28682E-18
 -1      3336 9.28033E-05-1.90590E-05-3.16236E-05 3.12920E-06 5.58627E-19-2.39165E-18
 -1      3337 8.56823E-05-3.60890E-05-2.08930E-05 2.83339E-05-6.50177E-19-1.61069E-18
 -1      3338 8.91883E-05-2.20930E-05-2.87935E-05 7.87894E-06-9.05759E-20 8.75204E-19
 -1      3339 9.04897E-05-2.30264E-05-2.88800E-05 8.85269E-06-7.49043E-19-1.98556E-20
 -1      3340 9.09684E-05-2.42899E-05-2.85921E-05 1.00326E-05-4.84036E-19 4.24921E-19
 -1      3341 4.79247E-05-1.41756E-05-1.40332E-05-9.40989E-06-7.31962E-19-2.01731E-18
 -1      3342 6.16547E-05-2.01911E-05-1.73613E-05 1.86087E-05-2.14103E-18 3.60995E-19
 -1      3343 8.68691E-05-2.02394E-05-2.85935E-05 4.86712E-06 8.08469E-19 1.49502E-18
 -1      3344 8.78781E-05-2.09588E-05-2.86558E-05 6.45704E-06 9.95769E-19 8.93400E-19
 -1      3345 8.78367E-05-2.19293E-05-2.82426E-05 7.96180E-06 4.79142E-19 1.95220E-18
 -1      3346 8.53969E-05-2.00102E-05-2.79985E-05 4.32162E-06 9.26296E-19 1.41742E-18
 -1      3347 5.19530E-05-1.54895E-05-1.52020E-05 1.23516E-05 1.47842E-18-1.93473E-18
 -1      3348 9.53647E-05-2.66164E-05-2.94729E-05 1.26055E-06 8.54696E-19-1.73996E-18
 -1      3349 9.54245E-05-2.60340E-05-2.97289E-05 2.11860E-06 8.53770E-19-1.89875E-18
 -1      3350 9.53682E-05-2.53278E-05-3.00113E-05 2.50525E-06 9.42320E-19-1.82085E-18
 -1      3351 1.12143E-04-4.93808E-05-2.70199E-05-1.88875E-05 1.18312E-18 1.30046E-19
 -1      3352 9.53812E-05-2.74170E-05-2.91334E-05 1.98927E-07 6.88993E-19-1.47303E-18
 -1      3353 9.54451E-05-2.70313E-05-2.93083E-05 7.53412E-07 7.33469E-19-1.57476E-18
 -1      3354 9.55695E-05-2.66196E-05-2.95516E-05 1.06143E-06 6.81560E-19-1.64278E-18
 -1      3355 9.56755E-05-2.74143E-05-2.92611E-05 1.54422E-07 6.50519E-19-1.53009E-18
 -1      3356 8.27541E-05-3.55285E-05-1.98778E-05-2.97993E-05 2.45311E-18-2.35242E-18
 -1      3357 9.51902E-05-2.46810E-05-3.02350E-05-2.88018E-06-1.39488E-18-8.94589E-19
 -1      3358 9.52821E-05-2.45597E-05-3.03043E-05-2.54106E-06-1.29049E-18-1.25517E-18
 -1      3359 9.50291E-05-2.37263E-05-3.05593E-05-3.92198E-06-1.45560E-18-9.18641E-19
 -1      3360 1.16297E-04-5.21060E-05-2.73393E-05-1.59557E-05-6.20002E-19 3.78213E-19
 -1      3361 1.24659E-04-3.30948E-05-3.94520E-05 1.51633E-05-1.03179E-18-6.52745E-19
 -1      3362 1.15740E-04-1.53851E-05-4.34360E-05-7.03966E-06-4.47022E-19-1.24784E-18
 -1      3363 9.34381E-05-2.02188E-05-3.14073E-05 4.24027E-06 8.65209E-19-2.28171E-18
 -1      3364 9.30789E-05-1.95525E-05-3.15216E-05 3.66118E-06 6.76772E-19-2.34636E-18
 -1      3365 9.37854E-05-2.07921E-05-3.12598E-05 2.85693E-06 5.72238E-19-2.22853E-18
 -1      3366 9.43745E-05-2.19972E-05-3.09923E-05 3.65078E-06 8.46167E-19-2.03799E-18
 -1      3367 9.25377E-05-1.86098E-05-3.16958E-05-2.38391E-06-1.02416E-18-2.31533E-18
 -1      3368 9.27662E-05-1.90108E-05-3.16292E-05-3.08293E-06-1.17986E-18-2.30639E-18
 -1      3369 1.12633E-04-5.25984E-05-2.55121E-05 2.33549E-05-4.07052E-19-1.78109E-18
 -1      3370 1.05300E-04-4.69871E-05-2.48862E-05 2.39024E-05 3.49189E-19-1.68856E-18
 -1      3371 1.17114E-04-5.31787E-05-2.76706E-05 1.66890E-05 6.50336E-19-1.34764E-18
 -1      3372 6.55481E-05-2.62145E-05-1.65396E-05-2.86982E-05-1.95035E-18-1.18542E-18
 -1      3373 7.51196E-05-2.94263E-05-1.93255E-05-2.69062E-05-1.83324E-18 2.85847E-19
 -1      3374 5.98456E-05-2.11657E-05-1.64489E-05-2.31495E-05-1.42685E-18-2.28265E-18
 -1      3375 7.19964E-05-2.83263E-05-1.83603E-05 2.62797E-05 2.02271E-18-1.66897E-18
 -1      3376 9.37646E-05-2.07650E-05-3.12689E-05-2.83722E-06-1.17562E-18-1.99644E-18
 -1      3377 9.30615E-05-1.95110E-05-3.15300E-05-3.62309E-06-1.25245E-18-1.87214E-18
 -1      3378 9.34216E-05-2.01665E-05-3.14174E-05-4.23866E-06-1.39822E-18-1.68131E-18
 -1      3379 1.20052E-04-2.05907E-05-4.28937E-05-1.17621E-05-6.96896E-19-1.84235E-18
 -1      3380 1.18974E-04-2.56978E-05-4.01766E-05-1.22733E-05-7.45124E-19-6.99120E-19
 -1      3381 1.20443E-04-4.48447E-05-3.24103E-05-4.83231E-06 1.78559E-19 2.38579E-19
 -1      3382 1.24367E-04-3.78556E-05-3.70857E-05 1.31286E-05-1.21372E-18-1.54689E-19
 -1      3383 9.61784E-05-2.78137E-05-2.92916E-05 2.47230E-07-9.27402E-19-8.66938E-19
 -1      3384 9.61734E-05-2.81264E-05-2.91674E-05 5.05008E-07-8.16455E-19-9.19288E-19
 -1      3385 9.61807E-05-2.83820E-05-2.90510E-05 6.72787E-07-7.61589E-19-7.45342E-19
 -1      3386 9.61501E-05-2.85714E-05-2.89644E-05 8.16360E-07-4.49019E-19-7.00222E-19
 -1      3387 9.63728E-05-2.81909E-05-2.92223E-05 4.86550E-07-6.02230E-19-8.66692E-19
 -1      3388 9.61132E-05-2.87143E-05-2.88815E-05 9.02065E-07-2.91916E-19-7.18336E-19
 -1      3389 9.60711E-05-2.88166E-05-2.88238E-05 9.69602E-07-8.10366E-20-6.59256E-19
 -1      3390 9.63450E-05-2.86427E-05-2.90173E-05 7.59105E-07-3.66274E-19-3.31840E-19
 -1      3391 9.60093E-05-2.88803E-05-2.87674E-05 1.00264E-06 9.13900E-20-7.89576E-19
 -1      3392 9.59634E-05-2.89209E-05-2.87319E-05 1.02440E-06-1.11070E-19-6.75431E-19
 -1      3393 9.62486E-05-2.88838E-05-2.88728E-05 8.94817E-07-1.25506E-19-8.56183E-19
 -1      3394 9.58884E-05-2.89287E-05-2.86960E-05 1.02810E-06-2.61326E-19-5.29955E-19
 -1      3395 9.58421E-05-2.89249E-05-2.86774E-05 1.02736E-06-3.06212E-19-3.57934E-19
 -1      3396 9.61144E-05-2.89749E-05-2.87761E-05 9.45958E-07-8.66670E-20-1.03873E-18
 -1      3397 9.57600E-05-2.88920E-05-2.86577E-05 1.01988E-06-5.13061E-19-2.47791E-19
 -1      3398 9.57144E-05-2.88553E-05-2.86521E-05 1.01439E-06-5.29677E-19-2.20390E-19
 -1      3399 9.59598E-05-2.89580E-05-2.87168E-05 9.53976E-07-3.70156E-19-6.48578E-19
 -1      3400 9.56277E-05-2.87916E-05-2.86449E-05 1.00980E-06-5.73716E-19-2.74851E-19
 -1      3401 9.55824E-05-2.87289E-05-2.86493E-05 1.01327E-06-4.26781E-19-4.75284E-19
 -1      3402 9.57933E-05-2.88607E-05-2.86867E-05 9.51200E-07-5.83785E-19-4.18973E-19
 -1      3403 9.54905E-05-2.86399E-05-2.86518E-05 1.02263E-06-3.29030E-19-7.41912E-19
 -1      3404 9.54439E-05-2.85550E-05-2.86642E-05 1.04598E-06-3.55050E-19-5.12311E-19
 -1      3405 9.56168E-05-2.87003E-05-2.86793E-05 9.62851E-07-5.27668E-19-5.00831E-19
 -1      3406 9.53442E-05-2.84429E-05-2.86743E-05 1.07832E-06-5.75099E-19-6.19802E-19
 -1      3407 9.52939E-05-2.83371E-05-2.86931E-05 1.13069E-06-5.73351E-19-4.09100E-19
 -1      3408 9.54273E-05-2.84858E-05-2.86895E-05 1.00904E-06-3.52542E-19-5.92500E-19
 -1      3409 9.51819E-05-2.82018E-05-2.87088E-05 1.19378E-06-3.62735E-19-5.81340E-19
 -1      3410 9.51247E-05-2.80748E-05-2.87328E-05 1.28322E-06-1.37489E-19-2.47315E-19
 -1      3411 9.52177E-05-2.82202E-05-2.87129E-05 1.10650E-06-5.28071E-19-9.06811E-19
 -1      3412 9.49942E-05-2.79144E-05-2.87523E-05 1.38407E-06-1.62358E-19-3.14304E-19
 -1      3413 9.49261E-05-2.77647E-05-2.87804E-05 1.51800E-06-2.67322E-19-4.32797E-19
 -1      3414 9.49776E-05-2.79020E-05-2.87456E-05 1.26973E-06-9.92837E-21-1.16190E-18
 -1      3415 9.47696E-05-2.75766E-05-2.88018E-05 1.66326E-06-5.55838E-19-5.17171E-19
 -1      3416 9.46858E-05-2.74024E-05-2.88324E-05 1.84871E-06-5.11141E-19-5.12317E-19
 -1      3417 9.46935E-05-2.75270E-05-2.87837E-05 1.51190E-06-5.28879E-19-6.11099E-19
 -1      3418 9.44945E-05-2.71839E-05-2.88532E-05 2.04480E-06-2.27240E-19-6.76329E-19
 -1      3419 9.43898E-05-2.69844E-05-2.88845E-05 2.28836E-06-1.12420E-19-5.17101E-19
 -1      3420 9.43491E-05-2.70901E-05-2.88223E-05 1.84538E-06-3.92289E-19-4.15330E-19
 -1      3421 9.41539E-05-2.67341E-05-2.89013E-05 2.54151E-06-2.07354E-19-4.85564E-19
 -1      3422 9.40231E-05-2.65105E-05-2.89302E-05 2.84914E-06-3.52725E-19-6.10811E-19
 -1      3423 9.39263E-05-2.65875E-05-2.88552E-05 2.28185E-06-2.44752E-19-4.32558E-19
 -1      3424 9.37327E-05-2.62298E-05-2.89383E-05 3.16548E-06-3.97961E-19-7.35641E-19
 -1      3425 9.35717E-05-2.59877E-05-2.89605E-05 3.54224E-06 2.26276E-19-7.83540E-19
 -1      3426 9.34054E-05-2.60196E-05-2.88738E-05 2.83239E-06-3.62637E-19-5.78300E-19
 -1      3427 9.32176E-05-2.56837E-05-2.89532E-05 3.92821E-06 3.63420E-19-7.60050E-19
 -1      3428 9.30259E-05-2.54366E-05-2.89623E-05 4.37820E-06 4.01226E-19-6.63796E-19
 -1      3429 9.27670E-05-2.53948E-05-2.88663E-05 3.50813E-06 2.09970E-19 6.77311E-20
 -1      3430 9.26022E-05-2.51257E-05-2.89304E-05 4.84168E-06 6.67748E-19-7.35137E-19
 -1      3431 9.23871E-05-2.48998E-05-2.89175E-05 5.36845E-06 6.79328E-19-8.58562E-19
 -1      3432 9.19958E-05-2.47364E-05-2.88161E-05 4.32200E-06 1.68797E-19-6.67410E-19
 -1      3433 9.18951E-05-2.46135E-05-2.88488E-05 5.92137E-06 5.03093E-19-1.08082E-18
 -1      3434 9.16794E-05-2.44556E-05-2.88023E-05 6.52936E-06 2.18344E-19-6.83816E-19
 -1      3435 9.10856E-05-2.40907E-05-2.87010E-05 5.29306E-06 2.81935E-19-5.27702E-19
 -1      3436 9.11344E-05-2.42487E-05-2.86811E-05 7.19252E-06-1.76615E-19-4.16078E-19
 -1      3437 9.09696E-05-2.42374E-05-2.85870E-05 7.88982E-06-5.39632E-20-5.07004E-19
 -1      3438 9.00499E-05-2.35399E-05-2.84920E-05 6.45501E-06 2.03295E-19-1.21367E-18
 -1      3439 9.04131E-05-2.41998E-05-2.83945E-05 8.70068E-06-3.20736E-19-5.93882E-19
 -1      3440 9.04007E-05-2.44612E-05-2.82388E-05 9.50231E-06-2.65728E-19-8.18570E-19
 -1      3441 8.89390E-05-2.32212E-05-2.81528E-05 7.87117E-06-3.73577E-19-4.67984E-19
 -1      3442 8.99208E-05-2.47337E-05-2.79545E-05 1.05255E-05 3.25775E-19-9.21075E-19
 -1      3443 9.02462E-05-2.54633E-05-2.77282E-05 1.14530E-05 6.30889E-19-9.15655E-19
 -1      3444 8.78693E-05-2.33535E-05-2.76414E-05 9.65698E-06 1.28697E-19-8.94778E-19
 -1      3445 9.00183E-05-2.62628E-05-2.73352E-05 1.27856E-05 6.81173E-19-9.41413E-19
 -1      3446 9.10012E-05-2.77497E-05-2.70468E-05 1.38437E-05 8.55725E-19-9.64412E-19
 -1      3447 8.70788E-05-2.42831E-05-2.69143E-05 1.20068E-05 7.60920E-19-1.02349E-18
 -1      3448 9.13788E-05-2.94233E-05-2.65443E-05 1.55857E-05 8.21573E-19-1.22147E-18
 -1      3449 9.34997E-05-3.20328E-05-2.62513E-05 1.66687E-05 7.75884E-19-7.73313E-19
 -1      3450 8.70388E-05-2.65612E-05-2.59407E-05 1.52020E-05 7.36619E-19-1.21608E-18
 -1      3451 9.50058E-05-3.48786E-05-2.56908E-05 1.87715E-05 2.19229E-19-1.36886E-18
 -1      3452 9.86997E-05-3.91470E-05-2.54972E-05 1.97899E-05 4.31047E-19-1.52521E-18
 -1      3453 8.86991E-05-3.09781E-05-2.47387E-05 1.94094E-05 2.71017E-19-1.33516E-18
 -1      3454 9.23778E-05-1.83254E-05-3.17512E-05-1.76357E-06-8.79195E-19-2.11424E-18
 -1      3455 9.33673E-05-1.99929E-05-3.14254E-05-1.77279E-06-7.83426E-19-2.10508E-18
 -1      3456 9.22646E-05-1.81341E-05-3.17821E-05-1.01030E-06-6.31116E-19-2.12258E-18
 -1      3457 9.55041E-05-2.87297E-05-2.86153E-05-1.05157E-06 2.24291E-19-6.96811E-19
 -1      3458 9.55268E-05-2.87761E-05-2.86082E-05-1.05531E-06 4.02555E-19-7.52184E-19
 -1      3459 5.58772E-05-1.45500E-05-1.77711E-05 2.51925E-06-4.98525E-20 1.34821E-18
 -1      3460 5.67821E-05-1.51998E-05-1.76175E-05-8.52833E-06 8.50659E-19 1.43662E-18
 -1      3461 9.42159E-05-3.18440E-05-2.66210E-05-1.76853E-05-4.01027E-19 3.61710E-19
 -1      3462 9.21110E-05-2.92705E-05-2.69071E-05-1.67215E-05-8.34322E-19 3.94532E-19
 -1      3463 9.19371E-05-2.77572E-05-2.74647E-05-1.51563E-05-3.69425E-19 5.75147E-20
 -1      3464 9.11918E-05-2.62822E-05-2.78222E-05-1.41402E-05 5.43049E-19-2.51379E-19
 -1      3465 8.85772E-05-2.67718E-05-2.64890E-05-1.62182E-05-8.03742E-19 7.47586E-19
 -1      3466 9.56864E-05-2.88725E-05-2.86331E-05-1.08673E-06 2.62541E-19-7.97358E-19
 -1      3467 9.57147E-05-2.88667E-05-2.86480E-05-1.09112E-06 3.01351E-19-7.82880E-19
 -1      3468 9.55949E-05-2.88261E-05-2.86133E-05-1.06485E-06 4.47053E-19-8.07080E-19
 -1      3469 9.56201E-05-2.88498E-05-2.86158E-05-1.07611E-06 3.27193E-19-8.55986E-19
 -1      3470 9.57071E-05-2.88495E-05-2.86547E-05-1.01874E-06 4.58129E-19-8.13928E-19
 -1      3471 1.22654E-04-4.93057E-05-3.14055E-05 3.58787E-07 1.09396E-18-2.09482E-19
 -1      3472 1.23924E-04-4.76250E-05-3.27857E-05-3.35734E-06 4.42178E-19 9.16384E-20
 -1      3473 9.54128E-05-2.85934E-05-2.86343E-05-1.07016E-06 1.47571E-19-6.45832E-19
 -1      3474 9.54340E-05-2.86582E-05-2.86197E-05-1.05512E-06 7.88993E-20-9.28144E-19
 -1      3475 9.55707E-05-2.87210E-05-2.86509E-05-1.01993E-06 3.72855E-19-9.14764E-19
 -1      3476 9.53184E-05-2.84223E-05-2.86669E-05-1.13949E-06 3.80882E-19-4.67864E-19
 -1      3477 9.53391E-05-2.85032E-05-2.86460E-05-1.09646E-06 4.88377E-19-2.81020E-19
 -1      3478 9.54285E-05-2.85463E-05-2.86644E-05-1.05500E-06 8.99749E-20-1.01559E-18
 -1      3479 9.52173E-05-2.82189E-05-2.87103E-05-1.27565E-06-1.71078E-19-3.96183E-19
 -1      3480 9.52385E-05-2.83147E-05-2.86843E-05-1.19674E-06 1.26236E-19-4.58322E-19
 -1      3481 9.52763E-05-2.83305E-05-2.86912E-05-1.14204E-06 3.58839E-19-4.88529E-19
 -1      3482 9.51051E-05-2.79845E-05-2.87624E-05-1.49300E-06 3.29043E-19-3.59794E-19
 -1      3483 9.51278E-05-2.80942E-05-2.87320E-05-1.37122E-06 1.37312E-19-3.28734E-19
 -1      3484 9.51082E-05-2.80758E-05-2.87278E-05-1.29668E-06-8.32661E-22-8.06031E-19
 -1      3485 9.49782E-05-2.77209E-05-2.88206E-05-1.80458E-06 1.31446E-20-6.72533E-20
 -1      3486 9.50027E-05-2.78428E-05-2.87868E-05-1.63371E-06 3.43843E-19-2.79555E-19
 -1      3487 9.49175E-05-2.77832E-05-2.87711E-05-1.53309E-06 3.51951E-19-7.03743E-19
 -1      3488 9.48344E-05-2.74330E-05-2.88818E-05-2.22211E-06-1.01879E-19-7.01050E-19
 -1      3489 9.48597E-05-2.75636E-05-2.88458E-05-1.99686E-06 1.09399E-19-3.63177E-19
 -1      3490 9.46977E-05-2.74546E-05-2.88172E-05-1.86439E-06 2.05938E-19-1.03061E-19
 -1      3491 9.46748E-05-2.71322E-05-2.89418E-05-2.75531E-06-4.06969E-19-4.59620E-21
 -1      3492 9.46980E-05-2.72643E-05-2.89055E-05-2.47190E-06-2.54746E-19-5.47852E-19
 -1      3493 9.44439E-05-2.70961E-05-2.88616E-05-2.30290E-06-4.07023E-19-1.44987E-19
 -1      3494 9.45074E-05-2.68403E-05-2.89944E-05-3.41074E-06-6.54815E-19 4.17533E-19
 -1      3495 9.45218E-05-2.69608E-05-2.89607E-05-3.06777E-06-6.23813E-19 1.54087E-19
 -1      3496 9.41555E-05-2.67214E-05-2.88982E-05-2.85977E-06-5.58395E-19-4.25240E-19
 -1      3497 9.43521E-05-2.65961E-05-2.90316E-05-4.19010E-06-6.96909E-19-7.02333E-20
 -1      3498 9.43444E-05-2.66826E-05-2.90042E-05-3.78978E-06-3.14080E-19 7.70402E-20
 -1      3499 9.38395E-05-2.63568E-05-2.89189E-05-3.54452E-06-1.89082E-19-2.46650E-19
 -1      3500 9.42481E-05-2.64629E-05-2.90430E-05-5.08804E-06-9.02635E-19 8.48231E-19
 -1      3501 9.41945E-05-2.64796E-05-2.90268E-05-4.63788E-06-1.06870E-18 5.12599E-19
 -1      3502 9.35168E-05-2.60482E-05-2.89133E-05-4.36459E-06-1.06054E-18 2.29664E-20
 -1      3503 9.42664E-05-2.65388E-05-2.90165E-05-6.08906E-06-2.44207E-19 5.56845E-19
 -1      3504 9.41260E-05-2.64316E-05-2.90170E-05-5.60422E-06-3.60877E-19 9.17688E-19
 -1      3505 9.32308E-05-2.58697E-05-2.88687E-05-5.32489E-06-7.29536E-19 9.42788E-19
 -1      3506 9.45257E-05-2.69685E-05-2.89409E-05-7.16235E-06-4.45465E-19 5.71015E-19
 -1      3507 9.42329E-05-2.66588E-05-2.89628E-05-6.66933E-06-3.59192E-19 2.01364E-19
 -1      3508 9.30612E-05-2.59352E-05-2.87712E-05-6.42703E-06-2.44153E-19 2.84143E-19
 -1      3509 9.52136E-05-2.79522E-05-2.88107E-05-8.25073E-06-4.69697E-19 1.81048E-19
 -1      3510 9.46687E-05-2.73338E-05-2.88550E-05-7.79438E-06-9.75186E-20 5.26792E-19
 -1      3511 9.31436E-05-2.64117E-05-2.86086E-05-7.66623E-06-3.68460E-19 1.63034E-19
 -1      3512 9.66062E-05-2.97438E-05-2.86367E-05-9.24675E-06-7.15103E-19 6.50148E-19
 -1      3513 9.56714E-05-2.86878E-05-2.86945E-05-8.90345E-06-9.77583E-19 9.03127E-20
 -1      3514 9.36964E-05-2.75319E-05-2.83767E-05-9.02002E-06-6.25636E-19-7.74251E-19
 -1      3515 9.90715E-05-3.26108E-05-2.84639E-05-9.94021E-06-6.12552E-19 1.05614E-18
 -1      3516 9.75830E-05-3.09964E-05-2.85073E-05-9.84196E-06-3.09595E-19 9.84372E-19
 -1      3517 9.50549E-05-2.95980E-05-2.80921E-05-1.04152E-05-6.73423E-19-2.70740E-19
 -1      3518 1.03039E-04-3.67276E-05-2.84010E-05-9.93328E-06-1.06235E-19 4.41360E-19
 -1      3519 1.00830E-04-3.45052E-05-2.83676E-05-1.03068E-05-5.76371E-19 8.07356E-19
 -1      3520 9.76881E-05-3.29377E-05-2.78164E-05-1.16448E-05-4.95435E-19-5.17165E-19
 -1      3521 1.08790E-04-4.18994E-05-2.86722E-05-8.56464E-06-7.21354E-19-2.88047E-19
 -1      3522 1.05865E-04-3.92959E-05-2.84380E-05-9.76313E-06 2.94944E-19 4.33962E-19
 -1      3523 1.02077E-04-3.77375E-05-2.76908E-05-1.22436E-05-1.22707E-19 1.74701E-20
 -1      3524 1.16069E-04-4.67893E-05-2.96975E-05-4.48609E-06-1.51807E-19-1.39445E-18
 -1      3525 1.12944E-04-4.47366E-05-2.90621E-05-6.98773E-06-8.85948E-19-1.09860E-18
 -1      3526 1.09222E-04-4.41815E-05-2.80602E-05-1.13203E-05 1.59780E-19 1.80100E-19
 -1      3527 1.22929E-04-3.84290E-05-3.63587E-05-1.15723E-05-8.12966E-19 4.64889E-19
 -1      3528 1.13564E-04-4.69032E-05-2.84409E-05 1.12464E-05-1.29173E-19-7.98236E-19
 -1      3529 1.17094E-04-4.90221E-05-2.91404E-05 8.68433E-06 4.24648E-19-7.04626E-19
 -1      3530 9.87063E-05-3.17966E-05-2.86477E-05 1.19144E-05 5.31746E-19-1.57557E-20
 -1      3531 1.00404E-04-3.37313E-05-2.85606E-05 1.19140E-05 2.36680E-19 3.36595E-19
 -1      3532 9.65581E-05-2.88956E-05-2.89866E-05 1.09677E-05-1.22440E-19-6.09018E-19
 -1      3533 9.76569E-05-3.02771E-05-2.88565E-05 1.12910E-05 5.50786E-19 3.13946E-19
 -1      3534 9.65067E-05-3.03241E-05-2.83753E-05 1.25498E-05 2.90929E-19 1.02137E-18
 -1      3535 9.41684E-05-2.57786E-05-2.93225E-05 9.71073E-06-1.58520E-18-1.53148E-18
 -1      3536 9.51319E-05-2.64899E-05-2.94091E-05 9.53497E-06-1.21421E-18-2.79113E-18
 -1      3537 9.55501E-05-2.71411E-05-2.93109E-05 9.94835E-06-1.90072E-18-2.62331E-18
 -1      3538 9.36809E-05-2.60879E-05-2.89774E-05 1.04552E-05-4.17431E-19-6.97611E-19
 -1      3539 5.78446E-05-1.74350E-05-1.72703E-05 1.64535E-05 1.68795E-18-1.29993E-18
 -1      3540 5.28696E-05-1.36411E-05-1.66080E-05 6.75104E-06 8.70366E-19-1.46531E-18
 -1      3541 8.75334E-05-2.21494E-05-2.79893E-05-1.03566E-05-1.09220E-18-1.53492E-18
 -1      3542 8.57219E-05-2.10787E-05-2.77571E-05-8.85790E-06-9.73957E-19-1.28837E-18
 -1      3543 6.85894E-05-2.29105E-05-1.98118E-05 2.08759E-05-1.39533E-18-1.11914E-19
 -1      3544 6.07795E-05-1.67476E-05-1.85624E-05 1.19945E-05-1.80243E-18 6.70030E-19
 -1      3545 9.58619E-05-2.87408E-05-2.87666E-05-1.02779E-06 2.27727E-19-8.54059E-19
 -1      3546 9.58950E-05-2.86382E-05-2.88200E-05-9.55464E-07 1.02950E-19-8.23999E-19
 -1      3547 1.02426E-04-3.59393E-05-2.84246E-05 1.21097E-05-7.18708E-19 8.99298E-19
 -1      3548 1.04847E-04-3.82332E-05-2.84878E-05 1.13428E-05-3.80703E-19 3.66262E-19
 -1      3549 9.94992E-05-3.44497E-05-2.79675E-05 1.37468E-05 1.38996E-19 8.12245E-19
 -1      3550 1.06905E-04-4.08974E-05-2.82031E-05 1.24433E-05-3.10534E-19-5.76049E-21
 -1      3551 1.10257E-04-4.35369E-05-2.85154E-05 1.06728E-05-4.27848E-19-5.74328E-19
 -1      3552 1.08017E-04-4.56497E-05-2.68207E-05 1.76489E-05-2.55556E-19-9.46119E-19
 -1      3553 1.03159E-04-3.91617E-05-2.74393E-05 1.52945E-05-1.17037E-18-1.08826E-18
 -1      3554 9.56881E-05-2.55197E-05-3.00653E-05-1.50538E-06-1.04171E-18-1.28553E-18
 -1      3555 9.58447E-05-2.62601E-05-2.98315E-05-8.80595E-07-9.08543E-19-1.19348E-18
 -1      3556 7.85956E-05-3.05657E-05-2.03406E-05-2.67572E-05 2.03680E-18-2.18593E-18
 -1      3557 9.13824E-05-3.95320E-05-2.22950E-05-2.83807E-05 1.90195E-18-1.75942E-18
 -1      3558 1.01954E-04-4.35557E-05-2.47131E-05-2.37628E-05 1.97847E-18-8.69410E-19
 -1      3559 9.57770E-05-2.88526E-05-2.86813E-05-1.08739E-06 4.59838E-19-8.30389E-19
 -1      3560 9.58085E-05-2.88065E-05-2.87126E-05-1.06598E-06 4.47387E-19-7.62345E-19
 -1      3561 9.59650E-05-2.89201E-05-2.87357E-05-1.02432E-06 4.21814E-19-7.83219E-19
 -1      3562 9.75996E-05-3.90409E-05-2.49387E-05-2.25138E-05 1.08464E-18-4.63200E-19
 -1      3563 9.39260E-05-3.49469E-05-2.52091E-05-2.12965E-05 3.36047E-19-2.40385E-19
 -1      3564 1.02385E-04-4.78330E-05-2.30092E-05 2.71489E-05 2.05024E-18-6.23496E-19
 -1      3565 9.55140E-05-4.22346E-05-2.27489E-05 2.63772E-05 1.81096E-18-5.13593E-19
 -1      3566 5.18834E-05-1.33411E-05-1.63851E-05-4.96283E-06 4.48729E-19-1.07187E-18
 -1      3567 5.41730E-05-1.58986E-05-1.60245E-05-1.58646E-05-8.48542E-19-2.40404E-18
 -1      3568 9.60484E-05-2.69096E-05-2.96221E-05-4.51968E-07-7.68384E-19-1.19331E-18
 -1      3569 9.60974E-05-2.73989E-05-2.94496E-05-3.60382E-08-8.29737E-19-9.77315E-19
 -1      3570 9.62841E-05-2.74455E-05-2.95025E-05 1.53126E-08-7.38139E-19-1.12859E-18
 -1      3571 7.92726E-05-3.08233E-05-2.07687E-05 2.56014E-05 1.77219E-18-1.09987E-18
 -1      3572 6.70989E-05-2.28608E-05-1.86061E-05 2.22169E-05 1.29485E-18-1.18362E-18
 -1      3573 8.83808E-05-3.64816E-05-2.19998E-05-2.62332E-05-1.33893E-18-3.66567E-19
 -1      3574 9.99351E-05-4.39206E-05-2.42487E-05-2.38975E-05-1.16115E-18-1.06583E-18
 -1      3575 1.09275E-04-5.09142E-05-2.50594E-05 2.26040E-05 1.69197E-18-5.41069E-19
 -1      3576 1.11231E-04-4.81410E-05-2.67403E-05-1.64889E-05-8.27204E-19 3.09630E-20
 -1      3577 1.17946E-04-5.05670E-05-2.91339E-05-9.07681E-06-1.65661E-19-1.42063E-19
 -1      3578 6.05669E-05-1.81803E-05-1.79639E-05-1.58128E-05 1.10787E-18-9.30572E-19
 -1      3579 6.77846E-05-2.35067E-05-1.90226E-05-2.27771E-05 1.72838E-18-2.67239E-18
 -1      3580 9.40237E-05-2.13594E-05-3.11373E-05-4.33869E-06-1.40272E-18-1.41215E-18
 -1      3581 9.53398E-05-2.47688E-05-3.02443E-05 2.77150E-06 9.92158E-19-1.86169E-18
 -1      3582 9.50593E-05-2.39307E-05-3.04907E-05 3.01058E-06 9.76881E-19-1.81129E-18
 -1      3583 9.54882E-05-2.56135E-05-2.99512E-05 1.87633E-06 8.89360E-19-1.84687E-18
 -1      3584 9.28555E-05-3.90451E-05-2.31693E-05 2.61453E-05-9.34880E-19-1.26211E-18
 -1      3585 8.07742E-05-3.04433E-05-2.12404E-05 2.54698E-05-1.88857E-18-3.45550E-19
 -1      3586 9.69346E-05-4.03057E-05-2.42954E-05 2.26565E-05 1.06492E-18-1.21549E-18
 -1      3587 8.84676E-05-3.51253E-05-2.24999E-05 2.48933E-05 1.25268E-18-6.44605E-19
 -1      3588 6.68201E-05-2.04315E-05-1.96304E-05 1.71110E-05 1.13312E-18-8.93143E-19
 -1      3589 1.25954E-04-4.55000E-05-3.45412E-05-7.81475E-06-7.78939E-19 5.66930E-19
 -1      3590 9.31621E-05-1.96210E-05-3.14998E-05-5.88457E-07-4.40720E-19-2.07292E-18
 -1      3591 6.40065E-05-1.73703E-05-1.96774E-05-1.07947E-05 1.19895E-18-2.71553E-19
 -1      3592 9.60775E-05-2.88177E-05-2.88281E-05-9.67220E-07 2.83290E-19-9.81179E-19
 -1      3593 8.79862E-05-3.11900E-05-2.44029E-05-2.17917E-05-2.84378E-19-2.27045E-20
 -1      3594 9.58392E-05-2.89217E-05-2.86808E-05-1.02948E-06 3.40161E-19-6.83432E-19
 -1      3595 9.19248E-05-2.58892E-05-2.82782E-05-1.32265E-05 2.67179E-19-1.15739E-18
 -1      3596 9.18500E-05-2.51586E-05-2.85822E-05-1.24103E-05-6.51415E-19-1.20872E-18
 -1      3597 9.06859E-05-2.43332E-05-2.84284E-05-1.20604E-05-1.50823E-18-2.43992E-18
 -1      3598 8.93023E-05-2.49011E-05-2.75785E-05-1.36216E-05-1.40877E-20 7.63653E-21
 -1      3599 6.39305E-05-1.65863E-05-2.00405E-05 6.04510E-06-2.39062E-19 2.76834E-19
 -1      3600 1.20854E-04-4.94953E-05-3.04285E-05-2.56367E-06-1.54782E-19-1.05943E-18
 -1      3601 9.38900E-05-2.10555E-05-3.12265E-05 8.10231E-07 1.45335E-20-2.16749E-18
 -1      3602 9.38416E-05-2.09560E-05-3.12461E-05 2.48122E-07-1.76492E-19-2.12495E-18
 -1      3603 9.53399E-05-2.46415E-05-3.03111E-05-2.03354E-06-1.08746E-18-1.44499E-18
 -1      3604 9.54567E-05-2.46543E-05-3.03366E-05-1.70251E-06-9.72483E-19-1.43265E-18
 -1      3605 9.50534E-05-2.36819E-05-3.05892E-05-2.78596E-06-1.18788E-18-1.53098E-18
 -1      3606 9.41102E-05-2.15176E-05-3.11259E-05 1.76837E-06 4.28215E-19-2.04239E-18
 -1      3607 9.39748E-05-2.12260E-05-3.11853E-05 1.25062E-06 1.71323E-19-2.18774E-18
 -1      3608 9.46353E-05-2.23911E-05-3.09439E-05 8.31572E-07 1.86925E-19-2.02326E-18
 -1      3609 9.40393E-05-2.70982E-05-2.86879E-05 1.12252E-05 1.92145E-19 4.42652E-19
 -1      3610 9.51095E-05-2.77065E-05-2.88889E-05 1.10935E-05-2.37126E-19-3.11877E-19
 -1      3611 9.60959E-05-2.78683E-05-2.92306E-05 1.02372E-05-1.30406E-18-2.32172E-18
 -1      3612 8.32754E-05-1.96289E-05-2.73195E-05 3.90015E-06 5.97775E-19 9.70876E-19
 -1      3613 8.43767E-05-2.03438E-05-2.74163E-05 6.09126E-06 2.47999E-19 8.96685E-19
 -1      3614 8.36150E-05-2.05127E-05-2.70564E-05-8.45517E-06-9.84623E-19-1.01497E-18
 -1      3615 8.40847E-05-1.98362E-05-2.75008E-05-6.55155E-06-3.10077E-19 2.07540E-21
 -1      3616 8.30741E-05-1.92943E-05-2.73710E-05-4.33299E-06-3.52057E-19 1.91739E-18
 -1      3617 8.25118E-05-1.89093E-05-2.72706E-05-1.43726E-06 6.73103E-19 4.89356E-19
 -1      3618 8.25760E-05-1.89991E-05-2.72555E-05 1.05295E-06 8.36281E-19-8.37718E-19
 -1      3619 8.14140E-05-1.92002E-05-2.66341E-05 2.90314E-06-2.72802E-19 1.11780E-19
 -1      3620 8.12962E-05-1.89623E-05-2.66712E-05-3.09966E-06 1.08680E-18-2.44033E-19
 -1      3621 9.58997E-05-2.73610E-05-2.93790E-05 1.16678E-07 5.97356E-19-1.70508E-18
 -1      3622 9.58541E-05-2.69795E-05-2.95085E-05 4.98019E-07 5.27759E-19-1.77740E-18
 -1      3623 9.48314E-05-2.32716E-05-3.06673E-05 2.80183E-06 7.66025E-19-1.92787E-18
 -1      3624 9.59296E-05-2.84990E-05-2.89009E-05-8.56744E-07 1.06555E-19-9.02586E-19
 -1      3625 9.59603E-05-2.83160E-05-2.89839E-05-7.00421E-07 3.31904E-19-9.97092E-19
 -1      3626 9.61620E-05-2.85738E-05-2.89690E-05-8.11550E-07 1.84670E-19-9.91657E-19
 -1      3627 8.29530E-05-3.27335E-05-2.14467E-05-2.60524E-05-9.18726E-19 4.97658E-19
 -1      3628 8.97503E-05-3.46500E-05-2.34612E-05-2.21784E-05-6.22731E-19-6.56669E-19
 -1      3629 7.70551E-05-2.80222E-05-2.09631E-05-2.36047E-05-1.01541E-18-4.92708E-19
 -1      3630 5.51232E-05-1.33060E-05-1.76241E-05 4.76817E-07 7.38518E-19-3.86512E-19
 -1      3631 5.93167E-05-1.44978E-05-1.91840E-05-5.67643E-06 1.16012E-19-5.36040E-19
 -1      3632 5.99657E-05-1.46520E-05-1.93358E-05 4.52763E-06 1.50093E-18-5.24472E-19
 -1      3633 9.60079E-05-2.62957E-05-2.98749E-05-7.18110E-07-8.92478E-19-1.33234E-18
 -1      3634 7.75342E-05-2.72861E-05-2.12666E-05-2.25137E-05 1.16460E-18-1.46304E-18
 -1      3635 9.59591E-05-2.80708E-05-2.90995E-05-5.07661E-07 3.25153E-19-1.24452E-18
 -1      3636 9.59774E-05-2.77725E-05-2.92214E-05-2.25991E-07 4.02606E-19-1.47569E-18
 -1      3637 9.61915E-05-2.81288E-05-2.91721E-05-4.98380E-07 1.36774E-19-1.18750E-18
 -1      3638 8.23506E-05-2.99284E-05-2.25001E-05 2.23626E-05 9.38301E-19-1.54978E-18
 -1      3639 1.04514E-04-4.40921E-05-2.58563E-05 2.01092E-05-1.85757E-19-1.42808E-18
 -1      3640 9.87514E-05-4.16340E-05-2.42783E-05 2.42576E-05-8.42930E-20-1.94156E-18
 -1      3641 9.37603E-05-3.66901E-05-2.44301E-05 2.24250E-05-2.02802E-18-3.03992E-19
 -1      3642 1.01254E-04-4.03311E-05-2.61738E-05 1.88008E-05-8.03179E-19-1.10584E-18
 -1      3643 6.30888E-05-1.96071E-05-1.83717E-05-1.79180E-05-1.26997E-18-1.88047E-18
 -1      3644 7.82654E-05-2.63981E-05-2.20069E-05 2.00924E-05-1.32205E-18-3.77188E-19
 -1      3645 9.39647E-05-2.12101E-05-3.11886E-05-1.21612E-06-5.58739E-19-1.94421E-18
 -1      3646 9.41003E-05-2.14777E-05-3.11349E-05-1.74866E-06-7.48932E-19-2.05543E-18
 -1      3647 1.05272E-04-4.36705E-05-2.62903E-05-1.70477E-05-2.97944E-19-7.45621E-19
 -1      3648 9.48737E-05-2.30716E-05-3.07640E-05-1.76035E-06-8.37798E-19-1.78793E-18
 -1      3649 9.43446E-05-2.20558E-05-3.09842E-05-2.37119E-06-1.10299E-18-2.01137E-18
 -1      3650 9.61094E-05-2.73955E-05-2.94516E-05 5.26553E-08 3.22741E-19-1.52973E-18
 -1      3651 9.01306E-05-2.45686E-05-2.81427E-05 1.07514E-05 6.93027E-19 1.49729E-18
 -1      3652 9.20884E-05-2.58253E-05-2.83646E-05 1.13591E-05 1.25765E-19-4.44679E-19
 -1      3653 9.34736E-05-2.75970E-05-2.82590E-05 1.21039E-05 2.41510E-19-4.03456E-19
 -1      3654 9.65432E-05-2.85565E-05-2.91336E-05 5.98578E-07-4.14765E-19-7.80745E-19
 -1      3655 9.65076E-05-2.87392E-05-2.90452E-05 7.03733E-07-2.46660E-19-7.38156E-19
 -1      3656 9.64579E-05-2.88715E-05-2.89631E-05 7.56364E-07-2.32458E-19-7.03917E-19
 -1      3657 9.63969E-05-2.89600E-05-2.89018E-05 8.06851E-07-1.15663E-19-8.52936E-19
 -1      3658 9.66289E-05-2.88022E-05-2.90698E-05 6.18339E-07-2.37933E-19-8.48990E-19
 -1      3659 9.63149E-05-2.90078E-05-2.88444E-05 8.25675E-07 4.57577E-20-7.98589E-19
 -1      3660 9.62402E-05-2.90283E-05-2.88045E-05 8.44269E-07-1.23390E-19-7.19499E-19
 -1      3661 9.64980E-05-2.90057E-05-2.89268E-05 7.03663E-07-1.19422E-19-7.58164E-19
 -1      3662 9.61389E-05-2.90148E-05-2.87669E-05 8.45844E-07-2.83809E-19-6.27540E-19
 -1      3663 9.60568E-05-2.89854E-05-2.87437E-05 8.50514E-07-2.91299E-19-4.88350E-19
 -1      3664 9.63162E-05-2.90526E-05-2.88288E-05 7.36611E-07-1.82771E-19-6.58571E-19
 -1      3665 9.59431E-05-2.89264E-05-2.87216E-05 8.47960E-07-4.99274E-19-7.44496E-19
 -1      3666 9.58561E-05-2.88588E-05-2.87115E-05 8.52711E-07-5.71661E-19-6.32907E-19
 -1      3667 9.61031E-05-2.89840E-05-2.87666E-05 7.46190E-07-3.57121E-19-6.52688E-19
 -1      3668 9.57323E-05-2.87640E-05-2.87016E-05 8.56315E-07-5.32172E-19-6.07910E-19
 -1      3669 9.56400E-05-2.86654E-05-2.87016E-05 8.72155E-07-5.63425E-19-4.99471E-19
 -1      3670 9.58679E-05-2.88273E-05-2.87325E-05 7.55324E-07-5.45883E-19-1.01023E-18
 -1      3671 9.55048E-05-2.85398E-05-2.87010E-05 8.90096E-07-4.42465E-19-4.22673E-19
 -1      3672 9.54045E-05-2.84133E-05-2.87087E-05 9.25917E-07-4.32512E-19-6.11396E-19
 -1      3673 9.56115E-05-2.85987E-05-2.87200E-05 7.82090E-07-4.32502E-19-5.30468E-19
 -1      3674 9.52536E-05-2.82585E-05-2.87146E-05 9.65009E-07-5.33647E-19-5.83547E-19
 -1      3675 9.51408E-05-2.81046E-05-2.87279E-05 1.02834E-06-4.09740E-19-6.49830E-19
 -1      3676 9.53284E-05-2.83057E-05-2.87236E-05 8.41019E-07-4.59470E-19-5.72996E-19
 -1      3677 9.49676E-05-2.79196E-05-2.87381E-05 1.09441E-06-2.12821E-19-7.57077E-19
 -1      3678 9.48362E-05-2.77370E-05-2.87550E-05 1.19174E-06-8.20041E-20-7.69235E-19
 -1      3679 9.50078E-05-2.79495E-05-2.87379E-05 9.44378E-07-3.16016E-19-4.17287E-19
 -1      3680 9.46317E-05-2.75193E-05-2.87667E-05 1.28995E-06-7.60162E-20-7.42818E-19
 -1      3681 9.44741E-05-2.73054E-05-2.87849E-05 1.42723E-06-2.68990E-19-3.08286E-19
 -1      3682 9.46341E-05-2.75271E-05-2.87577E-05 1.10235E-06-3.77498E-20-4.90764E-19
 -1      3683 9.42277E-05-2.70515E-05-2.87951E-05 1.56248E-06-3.29895E-19-9.14370E-20
 -1      3684 9.40350E-05-2.68040E-05-2.88117E-05 1.74515E-06-3.33952E-19-9.75825E-20
 -1      3685 9.41881E-05-2.70327E-05-2.87772E-05 1.32418E-06-2.74009E-20-3.60788E-19
 -1      3686 9.37344E-05-2.65111E-05-2.88165E-05 1.92195E-06-4.58182E-20-3.14687E-19
 -1      3687 9.34969E-05-2.62289E-05-2.88279E-05 2.15489E-06-1.17258E-19-4.42106E-19
 -1      3688 9.36470E-05-2.64604E-05-2.87891E-05 1.61815E-06-2.81085E-19-5.55578E-19
 -1      3689 9.31282E-05-2.58957E-05-2.88220E-05 2.37758E-06-4.55958E-19-2.89481E-19
 -1      3690 9.28358E-05-2.55803E-05-2.88228E-05 2.66534E-06 1.66745E-19 1.75543E-19
 -1      3691 9.29851E-05-2.58063E-05-2.87838E-05 1.99151E-06-1.72433E-19-4.47830E-19
 -1      3692 9.23842E-05-2.52093E-05-2.87991E-05 2.93861E-06 2.46521E-19 2.81108E-19
 -1      3693 9.20276E-05-2.48674E-05-2.87821E-05 3.28586E-06 1.47999E-20-1.96619E-20
 -1      3694 9.21738E-05-2.50715E-05-2.87489E-05 2.45139E-06 6.18164E-20 4.00360E-19
 -1      3695 9.14778E-05-2.44666E-05-2.87312E-05 3.61594E-06 4.13088E-20-2.43560E-19
 -1      3696 9.10505E-05-2.41133E-05-2.86865E-05 4.02890E-06 3.68656E-20-5.88408E-19
 -1      3697 9.11832E-05-2.42656E-05-2.86671E-05 3.00636E-06-1.86208E-20-1.49778E-19
 -1      3698 9.03870E-05-2.36997E-05-2.85953E-05 4.42630E-06 3.02343E-20-8.45787E-19
 -1      3699 8.98895E-05-2.33625E-05-2.85100E-05 4.91590E-06 3.23873E-19-6.73686E-19
 -1      3700 8.99827E-05-2.34114E-05-2.85156E-05 3.67031E-06 8.65061E-20-6.85464E-19
 -1      3701 8.90979E-05-2.29662E-05-2.83612E-05 5.40078E-06 4.11521E-19-8.83004E-19
 -1      3702 8.85438E-05-2.26921E-05-2.82183E-05 5.98862E-06 1.72989E-19-8.41591E-19
 -1      3703 8.85418E-05-2.25502E-05-2.82635E-05 4.47067E-06 1.04152E-19-9.78649E-19
 -1      3704 8.76120E-05-2.23613E-05-2.79894E-05 6.60030E-06-2.88148E-21-7.45512E-19
 -1      3705 8.70394E-05-2.22261E-05-2.77680E-05 7.32854E-06 4.28095E-20-2.10747E-19
 -1      3706 8.68325E-05-2.17490E-05-2.78698E-05 5.46370E-06 2.25630E-19-3.83790E-19
 -1      3707 8.59601E-05-2.20355E-05-2.74293E-05 8.14064E-06-3.66142E-19-2.20462E-19
 -1      3708 8.54511E-05-2.21572E-05-2.71058E-05 9.08580E-06-2.61565E-20-4.42617E-19
 -1      3709 8.48319E-05-2.11113E-05-2.72805E-05 6.75996E-06 2.02289E-20-1.33471E-19
 -1      3710 8.42272E-05-2.22199E-05-2.66177E-05 1.02348E-05 2.55992E-19-1.38998E-18
 -1      3711 8.39491E-05-2.27914E-05-2.61679E-05 1.15247E-05 2.63899E-19-1.72652E-18
 -1      3712 8.25250E-05-2.07883E-05-2.64229E-05 8.56783E-06-7.68757E-19-1.23927E-18
 -1      3713 8.26192E-05-2.32906E-05-2.54764E-05 1.32317E-05 3.62684E-19-2.21209E-18
 -1      3714 8.28364E-05-2.46449E-05-2.48700E-05 1.50918E-05 4.51086E-19-2.25870E-18
 -1      3715 7.99342E-05-2.10300E-05-2.51940E-05 1.12588E-05 2.75611E-19-3.28628E-18
 -1      3716 8.17472E-05-2.55695E-05-2.41339E-05 1.70672E-05 5.73424E-19-2.07638E-18
 -1      3717 8.30175E-05-2.82392E-05-2.33992E-05 1.95929E-05 4.57980E-19-1.71617E-18
 -1      3718 7.55851E-05-2.41430E-05-2.19210E-05 1.94827E-05 9.26356E-19-1.48525E-18
 -1      3719 7.75355E-05-2.20589E-05-2.36831E-05 1.48649E-05 3.23854E-19-2.41886E-18
 -1      3720 9.54356E-05-2.84908E-05-2.86884E-05-9.91836E-07-5.43031E-22-4.73281E-19
 -1      3721 9.55099E-05-2.85956E-05-2.86791E-05-9.60738E-07 1.65087E-19-6.84974E-19
 -1      3722 8.94857E-05-2.34973E-05-2.83072E-05-1.14733E-05-1.14078E-18-9.40639E-19
 -1      3723 8.45561E-05-2.51137E-05-2.55243E-05-1.59108E-05-6.72473E-19-4.86442E-19
 -1      3724 8.47509E-05-2.37104E-05-2.62096E-05-1.40358E-05-5.00391E-19-1.09511E-19
 -1      3725 6.81030E-05-1.78594E-05-2.17343E-05 9.10743E-06-6.62234E-19 2.39128E-19
 -1      3726 6.54383E-05-1.57402E-05-2.11262E-05 1.67553E-07 8.40540E-19 5.11528E-21
 -1      3727 8.69026E-05-2.34307E-05-2.72082E-05-1.24728E-05-9.38034E-19-3.27823E-19
 -1      3728 8.77651E-05-2.32065E-05-2.76853E-05-1.17710E-05-7.36571E-19-1.09654E-18
 -1      3729 1.19635E-04-5.18205E-05-2.90345E-05 1.06560E-05 7.64924E-19-3.92070E-19
 -1      3730 9.56247E-05-2.87027E-05-2.86788E-05-9.45226E-07 4.27851E-19-5.81669E-19
 -1      3731 9.56952E-05-2.87837E-05-2.86773E-05-9.34437E-07 6.90799E-19-4.44494E-19
 -1      3732 9.56235E-05-2.86533E-05-2.87021E-05-8.74203E-07 3.60844E-19-1.05125E-19
 -1      3733 9.49987E-05-2.79293E-05-2.87415E-05-1.25376E-06 7.77492E-20-8.25247E-19
 -1      3734 9.50891E-05-2.80772E-05-2.87224E-05-1.15828E-06 2.04754E-19-5.73198E-19
 -1      3735 9.47340E-05-2.75814E-05-2.87769E-05-1.49674E-06 1.28624E-19-4.57338E-19
 -1      3736 9.48376E-05-2.77500E-05-2.87557E-05-1.35882E-06 9.05070E-20-7.71478E-19
 -1      3737 9.48236E-05-2.77402E-05-2.87486E-05-1.20925E-06 2.08139E-20-5.15340E-19
 -1      3738 9.44262E-05-2.71907E-05-2.88122E-05-1.83155E-06-1.98807E-19 9.43134E-20
 -1      3739 9.45460E-05-2.73782E-05-2.87909E-05-1.64498E-06 7.39934E-20 2.95510E-20
 -1      3740 9.44773E-05-2.73321E-05-2.87742E-05-1.45611E-06-2.67667E-19-2.15591E-19
 -1      3741 9.40678E-05-2.67634E-05-2.88414E-05-2.27063E-06-4.62775E-19-7.72039E-20
 -1      3742 9.42055E-05-2.69654E-05-2.88229E-05-2.02968E-06-1.40119E-19 4.02655E-19
 -1      3743 9.40718E-05-2.68744E-05-2.87957E-05-1.79211E-06-3.48517E-19 5.56771E-19
 -1      3744 9.36556E-05-2.63142E-05-2.88568E-05-2.82625E-06-4.90036E-20-5.87190E-19
 -1      3745 9.38101E-05-2.65213E-05-2.88447E-05-2.52576E-06-3.40783E-19-5.95605E-19
 -1      3746 9.35966E-05-2.63743E-05-2.88055E-05-2.23071E-06 1.29940E-20 6.19503E-20
 -1      3747 9.31949E-05-2.58714E-05-2.88483E-05-3.51070E-06-5.37361E-19-2.37851E-19
 -1      3748 9.33597E-05-2.60667E-05-2.88476E-05-3.14618E-06-1.71642E-19-3.46346E-19
 -1      3749 9.30460E-05-2.58484E-05-2.87941E-05-2.78666E-06-4.45204E-19-4.20413E-19
 -1      3750 9.27056E-05-2.54840E-05-2.88033E-05-4.33707E-06-1.58698E-18 5.02822E-19
 -1      3751 9.28653E-05-2.56389E-05-2.88200E-05-3.90462E-06-1.00598E-18 2.20022E-19
 -1      3752 9.24223E-05-2.53282E-05-2.87492E-05-3.47731E-06-9.77584E-19 1.48598E-19
 -1      3753 9.22315E-05-2.52301E-05-2.87066E-05-5.32061E-06-6.51576E-19 4.72011E-19
 -1      3754 9.23561E-05-2.52998E-05-2.87479E-05-4.81672E-06-1.35154E-18 3.83256E-19
 -1      3755 9.17425E-05-2.48665E-05-2.86556E-05-4.32499E-06-1.56487E-18-3.99511E-19
 -1      3756 9.18546E-05-2.52295E-05-2.85415E-05-6.48088E-06-1.53963E-19 5.72207E-19
 -1      3757 9.18911E-05-2.51462E-05-2.86147E-05-5.90224E-06-7.58948E-20 7.52361E-19
 -1      3758 9.10466E-05-2.45473E-05-2.84951E-05-5.36101E-06-6.36562E-19-1.76461E-19
 -1      3759 9.17163E-05-2.56577E-05-2.82926E-05-7.84266E-06-2.47132E-19-4.20902E-19
 -1      3760 9.15765E-05-2.53227E-05-2.84034E-05-7.18746E-06-1.48040E-19 2.71818E-19
 -1      3761 9.04120E-05-2.44971E-05-2.82474E-05-6.63158E-06 6.29816E-20 2.49655E-19
 -1      3762 9.20496E-05-2.67630E-05-2.79524E-05-9.42843E-06-5.98859E-19-8.20347E-19
 -1      3763 9.15935E-05-2.60390E-05-2.81006E-05-8.70343E-06-3.15992E-19-1.70104E-19
 -1      3764 8.99766E-05-2.49033E-05-2.78930E-05-8.20327E-06-2.86332E-19-6.68859E-19
 -1      3765 9.32232E-05-2.88814E-05-2.75349E-05-1.12310E-05-4.35191E-19-1.11668E-18
 -1      3766 9.22381E-05-2.75855E-05-2.77056E-05-1.04726E-05-4.95881E-19-8.01263E-19
 -1      3767 8.99749E-05-2.60344E-05-2.74194E-05-1.01597E-05-4.97569E-19-9.67517E-19
 -1      3768 9.57863E-05-3.24165E-05-2.71032E-05-1.31326E-05-4.75043E-19-1.27441E-18
 -1      3769 9.39892E-05-3.03498E-05-2.72514E-05-1.24556E-05-2.83330E-19-1.02206E-18
 -1      3770 9.07957E-05-2.82695E-05-2.68361E-05-1.25864E-05-4.40269E-19-1.59312E-18
 -1      3771 1.00642E-04-3.77503E-05-2.68569E-05-1.45371E-05 5.92468E-20-1.23182E-18
 -1      3772 9.75852E-05-3.47972E-05-2.68433E-05-1.43555E-05-3.70152E-19-9.95805E-19
 -1      3773 9.32084E-05-3.22159E-05-2.62169E-05-1.54859E-05-3.38864E-19-2.42859E-18
 -1      3774 1.00980E-04-3.99191E-05-2.60320E-05-1.74397E-05-5.67545E-20-8.95069E-19
 -1      3775 8.42208E-05-2.13464E-05-2.69369E-05 8.09156E-06 4.67641E-19 7.86857E-19
 -1      3776 8.61199E-05-2.17711E-05-2.76262E-05 8.22356E-06 7.85305E-19 2.07868E-18
 -1      3777 8.79135E-05-2.28562E-05-2.78052E-05 9.59526E-06 2.13231E-19 3.41944E-18
 -1      3778 9.44941E-05-2.23554E-05-3.09360E-05 2.57843E-06 6.97214E-19-2.23274E-18
 -1      3779 9.42728E-05-2.18560E-05-3.10399E-05 2.13980E-06 5.32362E-19-2.11634E-18
 -1      3780 9.48360E-05-2.28931E-05-3.08152E-05 1.55563E-06 5.32196E-19-1.88914E-18
 -1      3781 9.65304E-05-2.79923E-05-2.93685E-05 3.04718E-07-5.10321E-19-1.09421E-18
 -1      3782 9.65397E-05-2.83066E-05-2.92463E-05 4.92168E-07-4.95093E-19-9.20322E-19
 -1      3783 9.66757E-05-2.83836E-05-2.92684E-05 4.45090E-07-3.32901E-19-1.04245E-18
 -1      3784 9.59703E-05-2.89635E-05-2.87159E-05-9.38185E-07 3.70803E-19-5.12094E-19
 -1      3785 9.60366E-05-2.89812E-05-2.87372E-05-9.36154E-07 5.86319E-19-5.31709E-19
 -1      3786 8.35948E-05-2.19641E-05-2.63675E-05-1.18282E-05-1.32744E-18-1.76991E-18
 -1      3787 6.44726E-05-1.81755E-05-1.98211E-05-1.41553E-05-1.00050E-18-1.45687E-18
 -1      3788 7.01370E-05-2.27420E-05-2.01645E-05-2.05898E-05-1.51196E-18-1.51256E-18
 -1      3789 7.78917E-05-2.59646E-05-2.21073E-05-1.97795E-05-6.22933E-19-9.73823E-19
 -1      3790 9.44349E-05-2.90333E-05-2.79920E-05 1.28179E-05 9.33325E-19-2.69188E-19
 -1      3791 9.62613E-05-2.89008E-05-2.88692E-05-8.90256E-07 9.07777E-20-1.07306E-18
 -1      3792 9.63138E-05-2.88063E-05-2.89288E-05-8.33087E-07 1.09094E-19-1.11890E-18
 -1      3793 9.52303E-05-2.41057E-05-3.04696E-05 2.06994E-06 7.58023E-19-1.91511E-18
 -1      3794 9.56907E-05-3.15777E-05-2.74688E-05 1.46065E-05 6.31327E-19 6.45888E-19
 -1      3795 9.75585E-05-3.40766E-05-2.72316E-05 1.53131E-05-4.50476E-19-5.91236E-19
 -1      3796 9.57352E-05-2.66105E-05-2.96289E-05 8.49695E-07 4.77386E-19-1.81745E-18
 -1      3797 9.56569E-05-2.61062E-05-2.98007E-05 1.39781E-06 5.97802E-19-1.84538E-18
 -1      3798 9.55944E-05-2.55379E-05-3.00212E-05 1.63364E-06 7.08223E-19-1.76951E-18
 -1      3799 9.58944E-05-2.65025E-05-2.97417E-05 7.75686E-07 5.30732E-19-2.05450E-18
 -1      3800 6.51956E-05-1.65500E-05-2.09014E-05-7.00301E-06 8.08932E-19-5.64336E-20
 -1      3801 6.90646E-05-1.92792E-05-2.12159E-05-1.36344E-05 5.55058E-19-1.87417E-18
 -1      3802 7.90572E-05-2.48032E-05-2.32280E-05-1.85925E-05-4.18342E-20-1.22743E-18
 -1      3803 9.59276E-05-2.57171E-05-3.00912E-05-9.14868E-07-8.96379E-19-1.34333E-18
 -1      3804 9.61369E-05-2.64504E-05-2.98749E-05-4.61129E-07-7.77122E-19-1.24695E-18
 -1      3805 9.61263E-05-2.89851E-05-2.87741E-05-9.34030E-07 3.82979E-19-8.06156E-19
 -1      3806 9.61883E-05-2.89556E-05-2.88122E-05-9.14582E-07 9.47081E-20-9.03881E-19
 -1      3807 9.62350E-05-2.90227E-05-2.88069E-05-8.38966E-07 2.04264E-19-7.26010E-19
 -1      3808 9.38393E-05-2.09525E-05-3.12466E-05-2.14239E-07-2.85237E-19-1.91711E-18
 -1      3809 9.38823E-05-2.10430E-05-3.12283E-05-7.76562E-07-5.00305E-19-1.91252E-18
 -1      3810 9.46286E-05-2.23809E-05-3.09464E-05-8.03328E-07-4.70914E-19-1.86781E-18
 -1      3811 9.45610E-05-2.22187E-05-3.09862E-05 1.35315E-08-2.06435E-19-1.87913E-18
 -1      3812 6.77392E-05-1.91612E-05-2.07688E-05 1.46922E-05 1.16244E-18-1.57932E-18
 -1      3813 8.43493E-05-2.92215E-05-2.37379E-05 2.04098E-05-1.66446E-18-3.64310E-19
 -1      3814 7.52722E-05-2.22928E-05-2.25152E-05 1.63092E-05-1.45252E-18-4.45374E-19
 -1      3815 9.63640E-05-2.70923E-05-2.96816E-05-1.84577E-07-6.45842E-19-1.21297E-18
 -1      3816 9.64422E-05-2.75812E-05-2.95181E-05 1.17419E-07-6.28107E-19-1.12567E-18
 -1      3817 9.65844E-05-2.76668E-05-2.95348E-05 1.41346E-07-6.06266E-19-1.02035E-18
 -1      3818 9.45596E-05-2.25182E-05-3.08725E-05-2.78175E-06-1.24474E-18-1.59061E-18
 -1      3819 9.62867E-05-2.74803E-05-2.94944E-05-5.50291E-08 1.41098E-19-1.67324E-18
 -1      3820 9.61948E-05-2.69713E-05-2.96608E-05 3.04521E-07 2.16486E-19-1.78826E-18
 -1      3821 9.45052E-05-2.24349E-05-3.08814E-05-3.34204E-06-1.35777E-18-1.47192E-18
 -1      3822 9.52296E-05-2.82326E-05-2.87106E-05-1.08987E-06 2.22583E-19-5.45259E-19
 -1      3823 9.53103E-05-2.83593E-05-2.86956E-05-1.03023E-06 9.53778E-20-6.70013E-19
 -1      3824 9.53858E-05-2.84013E-05-2.87076E-05-9.31436E-07 1.49241E-19-2.75952E-19
 -1      3825 9.51225E-05-2.80966E-05-2.87247E-05-1.03860E-06 1.72323E-19-6.37124E-19
 -1      3826 9.58023E-05-2.88635E-05-2.86863E-05-9.33820E-07 5.50190E-19-6.02989E-19
 -1      3827 9.58706E-05-2.89166E-05-2.86947E-05-9.33525E-07 3.91144E-19-3.95654E-19
 -1      3828 9.58431E-05-2.88485E-05-2.87130E-05-8.52025E-07 5.02296E-19-5.69411E-19
 -1      3829 9.49062E-05-3.66932E-05-2.50361E-05-1.98230E-05-2.32358E-19-2.10416E-18
 -1      3830 7.52390E-05-2.05526E-05-2.33082E-05 1.10010E-05-9.30227E-19-6.74629E-19
 -1      3831 9.63959E-05-2.89563E-05-2.89044E-05-7.99310E-07 5.48576E-20-1.06264E-18
 -1      3832 6.99231E-05-1.71592E-05-2.24661E-05-3.23989E-06 1.95208E-19-1.73906E-19
 -1      3833 9.65113E-05-2.87366E-05-2.90478E-05-6.93864E-07 4.23463E-20-1.40923E-18
 -1      3834 9.63576E-05-2.86695E-05-2.90110E-05-7.66967E-07 3.67693E-20-1.25772E-18
 -1      3835 9.63908E-05-2.84843E-05-2.90983E-05-6.46199E-07-3.53310E-20-1.36051E-18
 -1      3836 9.50766E-05-2.33332E-05-3.07561E-05 1.99256E-07-5.47553E-20-1.89215E-18
 -1      3837 9.50740E-05-2.33287E-05-3.07567E-05-1.78176E-07-2.34241E-19-1.64798E-18
 -1      3838 8.13703E-05-2.06033E-05-2.61157E-05 8.19297E-06 6.41498E-19-4.24248E-19
 -1      3839 8.36501E-05-2.19917E-05-2.63392E-05 1.05920E-05 1.31502E-18 9.65556E-19
 -1      3840 8.11141E-05-2.05035E-05-2.60097E-05-9.57554E-06-7.88653E-19-1.02683E-18
 -1      3841 9.60476E-05-2.89775E-05-2.87458E-05-8.47456E-07 4.94928E-19-2.13851E-19
 -1      3842 9.88588E-05-3.63597E-05-2.67893E-05 1.65416E-05-1.02040E-18-9.88928E-19
 -1      3843 9.52965E-05-2.40480E-05-3.05411E-05-1.59410E-06-7.54318E-19-1.70228E-18
 -1      3844 9.56531E-05-2.49707E-05-3.02961E-05-1.09352E-06-7.69390E-19-1.56526E-18
 -1      3845 9.58034E-05-2.51485E-05-3.02803E-05-8.27897E-07-6.69647E-19-1.64694E-18
 -1      3846 9.51128E-05-2.34959E-05-3.06937E-05-1.12328E-06-5.97749E-19-1.70362E-18
 -1      3847 6.41846E-05-1.63191E-05-2.03132E-05-9.93994E-06-6.00727E-19-6.31357E-19
 -1      3848 7.00371E-05-1.89942E-05-2.18378E-05-1.25693E-05-1.17692E-18-9.65042E-19
 -1      3849 6.50938E-05-1.57250E-05-2.11877E-05-5.32015E-06-2.15365E-19 1.59236E-19
 -1      3850 9.60413E-05-2.65590E-05-2.97838E-05 5.64380E-07 4.20830E-19-1.96806E-18
 -1      3851 9.59102E-05-2.61202E-05-2.99113E-05 9.33182E-07 5.45828E-19-2.00156E-18
 -1      3852 9.61874E-05-2.66038E-05-2.98191E-05 4.26227E-07 2.18672E-19-1.78744E-18
 -1      3853 7.86850E-05-1.85806E-05-2.57959E-05 2.06704E-06-4.80617E-19-1.62290E-19
 -1      3854 7.96810E-05-1.92690E-05-2.58786E-05 4.98053E-06-3.85615E-19-2.69535E-19
 -1      3855 7.88515E-05-1.98631E-05-2.52512E-05 7.55546E-06 5.68601E-19-1.45281E-18
 -1      3856 9.22601E-05-2.84670E-05-2.73030E-05 1.41622E-05 1.41538E-18-1.57369E-19
 -1      3857 9.00882E-05-3.29295E-05-2.44730E-05-1.95166E-05-1.25803E-19-1.27514E-18
 -1      3858 9.51599E-05-2.35715E-05-3.06927E-05 8.35400E-07 3.67880E-19-1.79368E-18
 -1      3859 9.51013E-05-2.34010E-05-3.07349E-05 4.82071E-07 1.04068E-19-1.96489E-18
 -1      3860 9.56041E-05-2.43633E-05-3.05180E-05 2.57275E-07 6.32581E-20-1.81046E-18
 -1      3861 9.63856E-05-2.82334E-05-2.92121E-05-5.13860E-07-2.37380E-21-1.56856E-18
 -1      3862 9.63822E-05-2.79206E-05-2.93342E-05-2.97932E-07 5.90205E-20-1.61601E-18
 -1      3863 9.65488E-05-2.83042E-05-2.92485E-05-4.79682E-07-1.98343E-19-1.86714E-18
 -1      3864 7.27445E-05-2.09328E-05-2.22274E-05-1.52178E-05 5.66453E-20-2.30151E-18
 -1      3865 8.28890E-05-2.44683E-05-2.49719E-05-1.58062E-05-7.93299E-19-1.02514E-18
 -1      3866 9.62936E-05-2.65741E-05-2.98810E-05-3.28031E-07-6.91059E-19-1.30243E-18
 -1      3867 9.50962E-05-2.33923E-05-3.07366E-05-4.62645E-07-4.07348E-19-1.68243E-18
 -1      3868 9.51458E-05-2.35453E-05-3.06961E-05-8.14881E-07-6.01187E-19-1.72518E-18
 -1      3869 9.56031E-05-2.43609E-05-3.05189E-05-2.37799E-07-2.07266E-19-1.54870E-18
 -1      3870 9.17775E-05-3.25426E-05-2.52540E-05 1.92769E-05-1.09667E-18 9.19540E-19
 -1      3871 8.79042E-05-2.84376E-05-2.54974E-05 1.69771E-05 2.86304E-20 4.86116E-19
 -1      3872 9.55783E-05-2.44040E-05-3.04890E-05-7.32101E-07-5.53197E-19-1.65307E-18
 -1      3873 8.83978E-05-2.43351E-05-2.75093E-05 1.12848E-05 1.19477E-18 1.69116E-18
 -1      3874 9.64512E-05-2.75569E-05-2.95269E-05-9.32460E-08 2.43212E-20-1.93334E-18
 -1      3875 7.24465E-05-1.97465E-05-2.25302E-05 1.27776E-05 6.52081E-19-2.35963E-18
 -1      3876 6.44359E-05-1.61904E-05-2.04712E-05 9.91596E-06 1.21794E-18-1.57850E-18
 -1      3877 6.48372E-05-1.55333E-05-2.11625E-05 4.27433E-06 8.02087E-19-4.39451E-19
 -1      3878 7.34709E-05-1.92277E-05-2.33232E-05 1.10310E-05 5.13620E-19-2.66760E-18
 -1      3879 1.05771E-04-4.48548E-05-2.58987E-05 1.97722E-05 1.31541E-18-1.31147E-18
 -1      3880 9.66563E-05-2.90000E-05-2.89941E-05 5.58319E-07-1.08174E-19-1.09814E-18
 -1      3881 9.65749E-05-2.90631E-05-2.89335E-05 5.91460E-07 4.95657E-21-9.32606E-19
 -1      3882 9.64717E-05-2.90856E-05-2.88789E-05 5.98160E-07-1.20952E-19-7.71844E-19
 -1      3883 9.63706E-05-2.90791E-05-2.88385E-05 6.12414E-07-1.71991E-19-9.81909E-19
 -1      3884 9.66086E-05-2.90865E-05-2.89395E-05 4.64049E-07-4.14099E-20-9.01800E-19
 -1      3885 9.62455E-05-2.90393E-05-2.88024E-05 6.11802E-07-2.43153E-19-9.13768E-19
 -1      3886 9.61318E-05-2.89807E-05-2.87780E-05 6.19530E-07-5.15668E-19-8.82979E-19
 -1      3887 9.63817E-05-2.90753E-05-2.88470E-05 4.81037E-07-3.14086E-19-1.00760E-18
 -1      3888 9.59910E-05-2.88934E-05-2.87564E-05 6.19555E-07-4.61487E-19-6.90014E-19
 -1      3889 9.58670E-05-2.87938E-05-2.87445E-05 6.30496E-07-1.98782E-19-3.55558E-19
 -1      3890 9.61181E-05-2.89489E-05-2.87878E-05 4.89422E-07-1.56478E-19-4.52314E-19
 -1      3891 9.57117E-05-2.86678E-05-2.87341E-05 6.37423E-07-3.39511E-19-5.31070E-19
 -1      3892 9.55762E-05-2.85332E-05-2.87316E-05 6.59293E-07-5.05738E-19-5.02136E-19
 -1      3893 9.58248E-05-2.87319E-05-2.87546E-05 5.02583E-07-2.77502E-19-1.81396E-19
 -1      3894 9.54037E-05-2.83725E-05-2.87293E-05 6.78009E-07-3.93524E-19-4.79262E-19
 -1      3895 9.52524E-05-2.82052E-05-2.87335E-05 7.17022E-07-1.32595E-19-3.64065E-19
 -1      3896 9.55003E-05-2.84380E-05-2.87408E-05 5.31047E-07-4.18155E-19-4.99467E-19
 -1      3897 9.50563E-05-2.80102E-05-2.87364E-05 7.51787E-07-1.33407E-19-5.82105E-19
 -1      3898 9.48825E-05-2.78099E-05-2.87446E-05 8.13319E-07-1.32161E-19-3.00206E-19
 -1      3899 9.51358E-05-2.80721E-05-2.87403E-05 5.82815E-07-1.11015E-19-2.87616E-19
 -1      3900 9.46545E-05-2.75794E-05-2.87498E-05 8.67258E-07-2.65952E-19-7.70044E-19
 -1      3901 9.44493E-05-2.73436E-05-2.87592E-05 9.55336E-07-2.53009E-19-6.25391E-19
 -1      3902 9.47165E-05-2.76340E-05-2.87472E-05 6.65737E-07-4.17515E-19-1.80173E-19
 -1      3903 9.41778E-05-2.70737E-05-2.87632E-05 1.03170E-06-2.07370E-19-7.84333E-19
 -1      3904 9.39306E-05-2.67995E-05-2.87706E-05 1.15038E-06-8.15803E-20-1.02262E-18
 -1      3905 9.42225E-05-2.71192E-05-2.87549E-05 7.83087E-07-4.36036E-19-7.48993E-19
 -1      3906 9.36029E-05-2.64873E-05-2.87693E-05 1.25142E-06-2.62266E-19-8.63917E-19
 -1      3907 9.33013E-05-2.61722E-05-2.87704E-05 1.40364E-06-2.82178E-19-8.80744E-19
 -1      3908 9.36303E-05-2.65209E-05-2.87558E-05 9.41232E-07-8.10733E-20-9.96689E-19
 -1      3909 9.29021E-05-2.58150E-05-2.87585E-05 1.53110E-06-1.66591E-19-9.99023E-19
 -1      3910 9.25323E-05-2.54578E-05-2.87478E-05 1.71942E-06-1.25011E-19-5.45748E-19
 -1      3911 9.29119E-05-2.58341E-05-2.87404E-05 1.14154E-06-2.43346E-19-9.09622E-19
 -1      3912 9.20447E-05-2.50550E-05-2.87183E-05 1.87493E-06-1.07034E-19-9.49497E-20
 -1      3913 9.15916E-05-2.46579E-05-2.86883E-05 2.10177E-06 5.31176E-20-3.70108E-19
 -1      3914 9.20357E-05-2.50555E-05-2.86962E-05 1.38568E-06 1.16022E-19-5.60440E-19
 -1      3915 9.09962E-05-2.42127E-05-2.86321E-05 2.28709E-06-1.15853E-19-4.77344E-20
 -1      3916 9.04441E-05-2.37826E-05-2.85728E-05 2.55589E-06-1.54566E-19-1.83344E-19
 -1      3917 9.09659E-05-2.41877E-05-2.86067E-05 1.67438E-06 1.43537E-19-6.60837E-19
 -1      3918 8.97184E-05-2.33029E-05-2.84772E-05 2.77448E-06-1.40894E-20-1.86374E-19
 -1      3919 8.90511E-05-2.28532E-05-2.83752E-05 3.09224E-06 3.51428E-20-3.25365E-19
 -1      3920 8.96617E-05-2.32403E-05-2.84501E-05 2.00929E-06-5.52392E-20 1.18737E-19
 -1      3921 8.81668E-05-2.23528E-05-2.82236E-05 3.35239E-06 3.32268E-19-7.92960E-19
 -1      3922 8.73681E-05-2.19058E-05-2.80608E-05 3.73491E-06-5.05656E-20-8.67131E-19
 -1      3923 8.80736E-05-2.22317E-05-2.81969E-05 2.39704E-06 9.16721E-20 1.11247E-19
 -1      3924 8.62860E-05-2.14049E-05-2.78303E-05 4.05605E-06-2.42498E-20-9.89577E-20
 -1      3925 8.53409E-05-2.09943E-05-2.75827E-05 4.53726E-06 5.67110E-19-2.70441E-19
 -1      3926 8.61360E-05-2.11880E-05-2.78071E-05 2.85769E-06 5.39357E-19-1.87782E-19
 -1      3927 8.40023E-05-2.05195E-05-2.72413E-05 4.96129E-06-2.47674E-19-8.13724E-19
 -1      3928 8.28973E-05-2.01947E-05-2.68769E-05 5.60894E-06-9.41090E-19-9.27944E-19
 -1      3929 8.37540E-05-2.01410E-05-2.72254E-05 3.44110E-06-4.15986E-19-4.89659E-19
 -1      3930 8.12109E-05-1.97770E-05-2.63790E-05 6.21164E-06-1.34963E-18-1.51957E-18
 -1      3931 7.99303E-05-1.96012E-05-2.58528E-05 7.15312E-06-1.04221E-18-1.83572E-18
 -1      3932 8.07845E-05-1.91293E-05-2.63725E-05 4.25059E-06-1.23099E-18-1.56350E-18
 -1      3933 7.77714E-05-1.92855E-05-2.51374E-05 8.07299E-06-2.25663E-19-2.14354E-18
 -1      3934 7.63284E-05-1.93893E-05-2.43827E-05 9.51910E-06 9.87389E-20-2.49241E-18
 -1      3935 7.21195E-05-1.73356E-05-2.33419E-05 7.41093E-06 6.27830E-22-1.91620E-18
 -1      3936 7.70223E-05-1.81763E-05-2.51416E-05 5.44517E-06-1.05366E-18-1.30496E-18
 -1      3937 9.65043E-05-2.90226E-05-2.89208E-05-6.97249E-07-9.94768E-20-1.15058E-18
 -1      3938 9.65768E-05-2.89485E-05-2.89816E-05-6.57529E-07-7.71850E-20-1.39085E-18
 -1      3939 8.90530E-05-2.65694E-05-2.68208E-05 1.34681E-05 1.27480E-18 1.31464E-18
 -1      3940 7.67150E-05-2.35681E-05-2.27828E-05-1.67162E-05-1.04198E-18-1.26509E-18
 -1      3941 8.30307E-05-2.83703E-05-2.34455E-05-1.94875E-05-7.55547E-19-7.94729E-19
 -1      3942 9.56133E-05-2.86004E-05-2.87182E-05-7.66802E-07 1.56495E-19 1.83215E-19
 -1      3943 9.57285E-05-2.87173E-05-2.87200E-05-7.46101E-07 2.46205E-19 1.84618E-20
 -1      3944 9.42379E-05-2.71013E-05-2.87713E-05-1.34076E-06-5.79245E-19 1.37377E-19
 -1      3945 9.44269E-05-2.73297E-05-2.87602E-05-1.20283E-06-2.87073E-19 1.24775E-19
 -1      3946 9.46581E-05-2.75628E-05-2.87536E-05-1.10363E-06-7.50140E-20-5.00645E-21
 -1      3947 9.48201E-05-2.77636E-05-2.87418E-05-1.00450E-06 1.82934E-20-3.55585E-20
 -1      3948 9.44394E-05-2.73435E-05-2.87526E-05-9.84899E-07-2.78033E-19 6.66974E-19
 -1      3949 9.31607E-05-2.60159E-05-2.87746E-05-2.07641E-06 1.70467E-19-2.04763E-19
 -1      3950 9.34197E-05-2.62908E-05-2.87762E-05-1.84212E-06 8.12598E-20 1.21316E-19
 -1      3951 9.24811E-05-2.54159E-05-2.87402E-05-2.60468E-06-5.24955E-19-1.33252E-19
 -1      3952 9.27787E-05-2.57008E-05-2.87558E-05-2.31127E-06-6.04626E-20 1.78803E-19
 -1      3953 9.26494E-05-2.56011E-05-2.87282E-05-1.89518E-06-9.28399E-20-2.22855E-19
 -1      3954 9.17032E-05-2.48146E-05-2.86636E-05-3.26598E-06-1.17846E-18-8.23372E-20
 -1      3955 9.20351E-05-2.50905E-05-2.87003E-05-2.90387E-06-7.52272E-19-1.73514E-19
 -1      3956 9.18275E-05-2.49232E-05-2.86649E-05-2.39488E-06-5.58313E-19-1.07619E-19
 -1      3957 9.08385E-05-2.42648E-05-2.85270E-05-4.08905E-06-1.06065E-18-1.11908E-18
 -1      3958 9.11915E-05-2.45005E-05-2.85936E-05-3.64497E-06-9.57225E-19-6.83668E-19
 -1      3959 9.08756E-05-2.42381E-05-2.85490E-05-3.03086E-06-5.70101E-19-8.62570E-19
 -1      3960 8.99199E-05-2.38481E-05-2.83089E-05-5.11652E-06-7.48212E-19-1.23291E-18
 -1      3961 9.02657E-05-2.39959E-05-2.84156E-05-4.57071E-06-1.35748E-18-1.69520E-18
 -1      3962 8.97957E-05-2.35972E-05-2.83593E-05-3.84167E-06-9.95547E-19-1.84607E-18
 -1      3963 8.90132E-05-2.36860E-05-2.79843E-05-6.41396E-06-1.99130E-19-5.21360E-19
 -1      3964 8.92997E-05-2.36749E-05-2.81423E-05-5.73621E-06-2.58672E-19-6.76651E-19
 -1      3965 8.86039E-05-2.30780E-05-2.80698E-05-4.88682E-06-7.82765E-19-2.10052E-18
 -1      3966 8.82391E-05-2.39575E-05-2.75271E-05-8.08210E-06-2.66860E-19-1.24349E-18
 -1      3967 8.83748E-05-2.36819E-05-2.77465E-05-7.22808E-06-1.47662E-19-7.52780E-19
 -1      3968 8.73384E-05-2.27933E-05-2.76490E-05-6.26124E-06 1.08015E-20-8.31879E-19
 -1      3969 8.78092E-05-2.49269E-05-2.69146E-05-1.02615E-05-1.83104E-19-1.72765E-18
 -1      3970 8.76446E-05-2.42329E-05-2.72005E-05-9.17439E-06 4.22167E-20-1.61713E-18
 -1      3971 8.60793E-05-2.29135E-05-2.70597E-05-8.11861E-06 2.80708E-20-2.23492E-18
 -1      3972 8.81383E-05-2.69846E-05-2.61531E-05-1.30938E-05-6.39372E-19-2.18777E-18
 -1      3973 8.73774E-05-2.56355E-05-2.64837E-05-1.17257E-05-7.45900E-19-1.92539E-18
 -1      3974 8.50141E-05-2.37139E-05-2.62632E-05-1.06652E-05 8.22623E-20-2.59747E-18
 -1      3975 8.86239E-05-3.02173E-05-2.49524E-05-1.71935E-05-4.28579E-19-1.92324E-18
 -1      3976 8.70366E-05-2.79190E-05-2.53363E-05-1.53902E-05-6.04066E-19-2.41559E-18
 -1      3977 9.53195E-05-2.40946E-05-3.05401E-05 1.35855E-06 6.19367E-19-1.87134E-18
 -1      3978 9.52271E-05-2.37670E-05-3.06284E-05 1.07837E-06 4.71658E-19-1.76339E-18
 -1      3979 9.56672E-05-2.46283E-05-3.04316E-05 7.03083E-07 5.01219E-19-1.65963E-18
 -1      3980 9.67847E-05-2.82263E-05-2.93798E-05 2.92619E-07-4.46578E-19-1.11624E-18
 -1      3981 9.67890E-05-2.85135E-05-2.92633E-05 4.12938E-07-2.01718E-19-1.12030E-18
 -1      3982 9.61059E-05-2.89876E-05-2.87638E-05-7.30758E-07 4.04033E-19-5.00769E-19
 -1      3983 9.62057E-05-2.90331E-05-2.87878E-05-7.24412E-07 2.45560E-19-4.75191E-19
 -1      3984 7.91302E-05-1.86306E-05-2.59108E-05-4.92171E-06-3.01589E-19-1.29757E-18
 -1      3985 7.84172E-05-1.82911E-05-2.58052E-05-1.88170E-06 4.16601E-19-1.04525E-18
 -1      3986 7.64841E-05-1.80538E-05-2.49859E-05 3.08554E-07-1.39359E-18 3.10927E-19
 -1      3987 9.56126E-05-2.52154E-05-3.01782E-05 1.62537E-06 7.62848E-19-1.83860E-18
 -1      3988 9.53930E-05-2.43484E-05-3.04435E-05 1.52850E-06 6.60491E-19-2.04963E-18
 -1      3989 9.57555E-05-2.51117E-05-3.02650E-05 1.01006E-06 5.60985E-19-1.88735E-18
 -1      3990 9.57747E-05-2.57299E-05-3.00211E-05 1.12655E-06 6.85272E-19-1.90911E-18
 -1      3991 9.58490E-05-2.51371E-05-3.03081E-05-6.55089E-07-5.71808E-19-1.71816E-18
 -1      3992 9.61257E-05-2.58307E-05-3.01147E-05-5.05385E-07-5.67100E-19-1.62396E-18
 -1      3993 9.59028E-05-2.51724E-05-3.03181E-05-4.38707E-07-5.18253E-19-1.62869E-18
 -1      3994 9.63206E-05-2.90613E-05-2.88247E-05-7.24182E-07 7.49898E-20-8.87223E-19
 -1      3995 9.64102E-05-2.90559E-05-2.88649E-05-7.08595E-07-7.60939E-21-1.09155E-18
 -1      3996 9.63600E-05-2.90702E-05-2.88399E-05-6.03058E-07-8.01830E-20-1.15818E-18
 -1      3997 9.63575E-05-2.65807E-05-2.99138E-05-2.18614E-07-5.49063E-19-1.40471E-18
 -1      3998 9.58672E-05-2.50026E-05-3.03756E-05-6.49541E-08-2.42363E-20-1.42953E-18
 -1      3999 9.58858E-05-2.50757E-05-3.03560E-05-2.70409E-07-3.63296E-19-1.40464E-18
 -1      4000 9.61919E-05-2.57358E-05-3.01818E-05-2.49254E-07-3.85334E-19-1.31918E-18
 -1      4001 9.58696E-05-2.88285E-05-2.87304E-05-7.39073E-07 3.44581E-19-3.02023E-19
 -1      4002 9.59769E-05-2.89132E-05-2.87418E-05-7.30236E-07 4.20587E-19-3.47133E-19
 -1      4003 9.58502E-05-2.87797E-05-2.87452E-05-6.25635E-07 6.62604E-20 1.60153E-19
 -1      4004 9.66423E-05-2.73913E-05-2.96712E-05-5.12865E-09-4.71070E-19-1.32511E-18
 -1      4005 9.67158E-05-2.78470E-05-2.95193E-05 1.96795E-07-4.63554E-19-1.09423E-18
 -1      4006 9.68126E-05-2.79629E-05-2.95067E-05 1.74843E-07-4.11357E-19-1.20100E-18
 -1      4007 8.10365E-05-2.33655E-05-2.47892E-05 1.40858E-05-2.46187E-19-4.47849E-19
 -1      4008 7.55680E-05-1.90926E-05-2.41389E-05 7.70556E-06 3.39199E-19-1.46772E-18
 -1      4009 9.65953E-05-2.77139E-05-2.95253E-05-1.71588E-07-5.88673E-20-1.95602E-18
 -1      4010 9.64927E-05-2.72034E-05-2.96922E-05 8.24078E-08 1.19775E-19-1.84792E-18
 -1      4011 9.37432E-05-2.65833E-05-2.87813E-05-1.66048E-06-3.19890E-19 6.10883E-20
 -1      4012 9.39650E-05-2.68375E-05-2.87743E-05-1.47768E-06-4.76127E-19-8.06933E-20
 -1      4013 9.33490E-05-2.62403E-05-2.87555E-05-1.50556E-06-3.35213E-19-2.75156E-19
 -1      4014 9.67741E-05-2.87353E-05-2.91575E-05 4.66759E-07-1.04175E-19-1.25327E-18
 -1      4015 9.67254E-05-2.88934E-05-2.90718E-05 5.34237E-07-1.56934E-19-1.06272E-18
 -1      4016 9.67804E-05-2.89442E-05-2.90738E-05 4.21551E-07-3.54197E-20-1.10226E-18
 -1      4017 8.70930E-05-2.63796E-05-2.60179E-05 1.43024E-05 9.16923E-19 8.34344E-19
 -1      4018 9.39400E-05-2.68235E-05-2.87602E-05-1.20699E-06-4.79377E-19 8.48213E-20
 -1      4019 9.54583E-05-2.84576E-05-2.87163E-05-7.88214E-07 4.63769E-19 2.21461E-19
 -1      4020 9.55569E-05-2.85171E-05-2.87314E-05-6.57959E-07 3.53574E-19 3.44404E-19
 -1      4021 9.53325E-05-2.83120E-05-2.87215E-05-8.28519E-07 3.94138E-19-1.58816E-19
 -1      4022 7.47832E-05-2.12028E-05-2.28779E-05-1.42058E-05-1.19334E-18-1.25874E-18
 -1      4023 7.96909E-05-2.33285E-05-2.40938E-05-1.41178E-05-1.05767E-18-1.34052E-18
 -1      4024 7.32408E-05-1.92804E-05-2.31891E-05-1.06021E-05-9.56899E-19-5.77670E-19
 -1      4025 7.89715E-05-2.12291E-05-2.46352E-05-1.33125E-05-7.43017E-19-1.77873E-18
 -1      4026 9.66372E-05-2.88309E-05-2.90611E-05-6.22003E-07-8.11449E-20-1.54751E-18
 -1      4027 9.66802E-05-2.86623E-05-2.91478E-05-5.39496E-07-1.83713E-19-1.69132E-18
 -1      4028 9.67220E-05-2.88881E-05-2.90729E-05-5.21176E-07-1.97800E-19-1.58414E-18
 -1      4029 6.89784E-05-1.62929E-05-2.26054E-05 4.10926E-06-1.91438E-19-5.37800E-19
 -1      4030 6.60071E-05-1.50071E-05-2.16624E-05-5.39063E-07 1.47860E-19 3.51095E-19
 -1      4031 6.91966E-05-1.64867E-05-2.25961E-05-4.34535E-06-6.52215E-19 7.47695E-19
 -1      4032 7.19542E-05-1.68358E-05-2.37036E-05 3.19289E-06-5.21048E-19-4.60888E-19
 -1      4033 9.48644E-05-2.77984E-05-2.87409E-05-8.26775E-07-2.13837E-19 3.72976E-19
 -1      4034 9.50180E-05-2.79660E-05-2.87351E-05-9.36757E-07-3.37929E-21-6.40117E-20
 -1      4035 9.51592E-05-2.81393E-05-2.87253E-05-8.70080E-07-4.13286E-20-3.64186E-19
 -1      4036 8.33540E-05-2.50784E-05-2.49717E-05-1.43515E-05-7.82399E-19-2.67315E-18
 -1      4037 7.82779E-05-1.97235E-05-2.50634E-05-8.72864E-06-7.29823E-19-2.01455E-18
 -1      4038 9.61180E-05-2.89692E-05-2.87792E-05-6.12215E-07 2.96706E-19-5.08126E-19
 -1      4039 7.36305E-05-1.78106E-05-2.39212E-05 4.01294E-06-6.38115E-19 1.20464E-19
 -1      4040 9.64877E-05-2.67636E-05-2.98869E-05-1.39320E-07-4.50312E-19-1.41277E-18
 -1      4041 9.63429E-05-2.67916E-05-2.98127E-05 2.35007E-07 2.59163E-19-1.77127E-18
 -1      4042 9.61823E-05-2.63152E-05-2.99379E-05 4.87585E-07 3.86450E-19-1.82063E-18
 -1      4043 9.64789E-05-2.69463E-05-2.98018E-05 1.37169E-07 2.29949E-19-1.86505E-18
 -1      4044 7.32837E-05-1.92654E-05-2.32253E-05-1.14276E-05 4.64412E-20-2.27184E-18
 -1      4045 9.68651E-05-2.85941E-05-2.92594E-05 3.32597E-07-2.75922E-19-1.30767E-18
 -1      4046 9.66869E-05-2.84296E-05-2.92562E-05-4.63534E-07-2.01097E-19-1.90582E-18
 -1      4047 9.66809E-05-2.81312E-05-2.93745E-05-3.15865E-07-2.48063E-19-1.92285E-18
 -1      4048 9.67898E-05-2.85087E-05-2.92637E-05-3.97942E-07-3.65140E-19-1.65213E-18
 -1      4049 9.67157E-05-2.78204E-05-2.95258E-05-1.71842E-07-9.00395E-20-1.74522E-18
 -1      4050 9.58876E-05-2.50899E-05-3.03494E-05 3.20977E-07 1.54490E-19-1.63453E-18
 -1      4051 9.58763E-05-2.50191E-05-3.03722E-05 1.07778E-07 2.55769E-20-1.70219E-18
 -1      4052 9.61698E-05-2.56347E-05-3.02159E-05 1.87872E-08-6.16275E-21-1.52065E-18
 -1      4053 7.29471E-05-1.73655E-05-2.38854E-05-4.36029E-07-9.45001E-19-1.07996E-18
 -1      4054 7.33734E-05-1.79477E-05-2.37023E-05-6.65778E-06-3.04495E-19-1.24592E-18
 -1      4055 9.56253E-05-3.48803E-05-2.60695E-05 1.83158E-05-6.61218E-19-1.88597E-19
 -1      4056 9.65677E-05-2.90564E-05-2.89349E-05-5.80202E-07-1.35303E-19-1.33740E-18
 -1      4057 7.60434E-05-1.89915E-05-2.44776E-05-8.15506E-06 1.90950E-19-2.74318E-18
 -1      4058 9.64987E-05-2.91108E-05-2.88800E-05 3.28072E-07-2.83098E-19-8.44550E-19
 -1      4059 9.63750E-05-2.90734E-05-2.88423E-05 3.41336E-07-2.87505E-19-6.90547E-19
 -1      4060 9.62304E-05-2.90062E-05-2.88102E-05 3.35738E-07-1.85489E-19-6.50406E-19
 -1      4061 9.60906E-05-2.89174E-05-2.87873E-05 3.46380E-07 7.71115E-20-5.11565E-19
 -1      4062 9.63324E-05-2.90458E-05-2.88397E-05 1.89331E-07-2.98819E-19-6.66963E-19
 -1      4063 9.59290E-05-2.88035E-05-2.87685E-05 3.43588E-07-2.72405E-19-3.67976E-19
 -1      4064 9.57745E-05-2.86730E-05-2.87568E-05 3.57165E-07-6.56178E-19-6.49229E-19
 -1      4065 9.60307E-05-2.88621E-05-2.87881E-05 1.94248E-07-1.99079E-19-7.87241E-19
 -1      4066 9.55951E-05-2.85192E-05-2.87478E-05 3.59512E-07-4.21284E-19-7.45174E-19
 -1      4067 9.54234E-05-2.83517E-05-2.87443E-05 3.80376E-07-2.28488E-19-5.82216E-19
 -1      4068 9.56947E-05-2.85897E-05-2.87595E-05 2.02452E-07-3.81981E-19-6.78891E-19
 -1      4069 9.52218E-05-2.81613E-05-2.87419E-05 3.89757E-07-2.39326E-19-6.01157E-19
 -1      4070 9.50262E-05-2.79572E-05-2.87436E-05 4.21189E-07-2.65119E-19-4.51304E-19
 -1      4071 9.53188E-05-2.82393E-05-2.87473E-05 2.16923E-07-2.82864E-19-8.52488E-19
 -1      4072 9.47969E-05-2.77308E-05-2.87447E-05 4.37557E-07-1.67839E-19-2.09694E-19
 -1      4073 9.45677E-05-2.74901E-05-2.87485E-05 4.80438E-07-3.66944E-19-1.46200E-19
 -1      4074 9.48976E-05-2.78181E-05-2.87452E-05 2.41409E-07-1.26763E-19-2.36909E-19
 -1      4075 9.42957E-05-2.72212E-05-2.87496E-05 5.08008E-07-4.44004E-19-8.49000E-20
 -1      4076 9.40249E-05-2.69399E-05-2.87520E-05 5.67212E-07-1.37104E-19 5.60578E-20
 -1      4077 9.43954E-05-2.73065E-05-2.87466E-05 2.76486E-07-2.31320E-19-3.54608E-20
 -1      4078 9.37007E-05-2.66305E-05-2.87490E-05 6.02483E-07-5.66491E-20 1.98043E-19
 -1      4079 9.33740E-05-2.63060E-05-2.87456E-05 6.76895E-07 2.73300E-19 4.29786E-19
 -1      4080 9.38110E-05-2.67199E-05-2.87437E-05 3.20567E-07-4.48097E-20 2.87547E-19
 -1      4081 9.29824E-05-2.59510E-05-2.87336E-05 7.21201E-07-1.59941E-19 6.06628E-19
 -1      4082 9.25839E-05-2.55810E-05-2.87191E-05 8.10746E-07-3.91098E-19 3.40769E-19
 -1      4083 9.31058E-05-2.60436E-05-2.87275E-05 3.72426E-07 2.12422E-19 4.66667E-19
 -1      4084 9.21091E-05-2.51793E-05-2.86916E-05 8.63003E-07-3.21952E-19-1.21526E-19
 -1      4085 9.16218E-05-2.47636E-05-2.86587E-05 9.66543E-07 1.67896E-19-1.44129E-19
 -1      4086 9.22520E-05-2.52746E-05-2.86864E-05 4.29097E-07-4.79262E-19 4.76601E-19
 -1      4087 9.10454E-05-2.43167E-05-2.86073E-05 1.02470E-06 2.89166E-19-7.37471E-19
 -1      4088 9.04496E-05-2.38581E-05-2.85466E-05 1.14034E-06 6.00785E-20-6.38555E-19
 -1      4089 9.12154E-05-2.44131E-05-2.86055E-05 4.84160E-07-3.62472E-19-6.08287E-19
 -1      4090 8.97501E-05-2.33705E-05-2.84601E-05 1.20154E-06-5.78829E-20-6.36539E-19
 -1      4091 8.90225E-05-2.28757E-05-2.83589E-05 1.32759E-06-9.89432E-21-9.83320E-19
 -1      4092 8.99569E-05-2.34646E-05-2.84651E-05 5.28433E-07-9.74626E-21-1.65001E-18
 -1      4093 8.81727E-05-2.23557E-05-2.82224E-05 1.38859E-06-1.72080E-19-7.63262E-19
 -1      4094 8.72836E-05-2.18348E-05-2.80636E-05 1.52583E-06-1.33377E-19-9.05824E-19
 -1      4095 8.84289E-05-2.24407E-05-2.82389E-05 5.49705E-07 5.20412E-20-1.82890E-18
 -1      4096 8.62447E-05-2.12929E-05-2.78568E-05 1.58416E-06 4.95067E-19-1.21655E-18
 -1      4097 8.51522E-05-2.07581E-05-2.76171E-05 1.74034E-06 7.39438E-19-1.13826E-18
 -1      4098 8.65681E-05-2.13567E-05-2.78920E-05 5.32807E-07-2.93831E-19-1.52677E-18
 -1      4099 8.38627E-05-2.02023E-05-2.73118E-05 1.79694E-06 1.98428E-19-1.40048E-18
 -1      4100 8.25033E-05-1.96649E-05-2.69582E-05 1.99556E-06-1.04119E-18-1.89116E-18
 -1      4101 8.42795E-05-2.02258E-05-2.73759E-05 4.59256E-07 8.18015E-20-2.46022E-18
 -1      4102 8.08559E-05-1.90912E-05-2.65124E-05 2.06563E-06-1.38515E-18-1.16384E-18
 -1      4103 7.91447E-05-1.85684E-05-2.59961E-05 2.35848E-06-1.15728E-18-1.36211E-18
 -1      4104 8.13992E-05-1.90471E-05-2.66210E-05 3.04251E-07-7.01250E-19-1.99639E-18
 -1      4105 9.01397E-05-2.37392E-05-2.84576E-05-2.61052E-06-3.40630E-19-8.00660E-19
 -1      4106 9.06520E-05-2.41030E-05-2.85346E-05-2.29380E-06-4.89778E-19-2.42394E-19
 -1      4107 9.36738E-05-2.65861E-05-2.87523E-05-1.00550E-06-4.98722E-19 2.19728E-19
 -1      4108 9.39478E-05-2.68718E-05-2.87515E-05-8.88580E-07-5.49726E-19 1.99516E-19
 -1      4109 9.68380E-05-2.77575E-05-2.96098E-05 6.22673E-08-3.58693E-19-1.05997E-18
 -1      4110 9.69065E-05-2.81552E-05-2.94660E-05 1.71138E-07-3.16010E-19-9.78978E-19
 -1      4111 9.68818E-05-2.88977E-05-2.91353E-05 2.70822E-07-8.00744E-20-8.20537E-19
 -1      4112 9.68156E-05-2.90174E-05-2.90556E-05 3.12210E-07 1.01126E-19-8.11133E-19
 -1      4113 9.12483E-05-2.45029E-05-2.86060E-05-2.04312E-06-6.49905E-19-2.58289E-19
 -1      4114 9.16951E-05-2.48671E-05-2.86511E-05-1.79342E-06-1.86937E-19-2.03344E-19
 -1      4115 9.06122E-05-2.39990E-05-2.85235E-05-1.63777E-06-4.03526E-19 3.01124E-19
 -1      4116 9.21967E-05-2.52495E-05-2.86925E-05-1.60377E-06-2.33356E-19-6.85597E-20
 -1      4117 9.25795E-05-2.55961E-05-2.87153E-05-1.40718E-06-3.45441E-19-4.01237E-19
 -1      4118 9.16977E-05-2.48262E-05-2.86401E-05-1.26336E-06-5.13661E-19-1.77616E-19
 -1      4119 8.88621E-05-2.30056E-05-2.82232E-05-3.34805E-06-5.56368E-19-1.79389E-18
 -1      4120 8.94357E-05-2.33408E-05-2.83442E-05-2.94299E-06-4.02207E-19-1.10014E-18
 -1      4121 8.93283E-05-2.31410E-05-2.83335E-05-2.13569E-06-1.51425E-19-4.34019E-19
 -1      4122 8.74143E-05-2.23710E-05-2.78722E-05-4.32111E-06-7.94152E-19-1.68082E-18
 -1      4123 8.80360E-05-2.26368E-05-2.80520E-05-3.79383E-06-9.86568E-19-2.02524E-18
 -1      4124 8.78203E-05-2.22913E-05-2.80414E-05-2.80472E-06-5.45184E-19-1.33690E-18
 -1      4125 8.58038E-05-2.19306E-05-2.73661E-05-5.63386E-06-8.45337E-21-1.16203E-18
 -1      4126 8.64473E-05-2.20697E-05-2.76230E-05-4.92905E-06-4.41400E-19-1.21073E-18
 -1      4127 8.60579E-05-2.15031E-05-2.76102E-05-3.71854E-06-1.05324E-18-1.28587E-18
 -1      4128 8.40629E-05-2.18184E-05-2.66563E-05-7.45683E-06 1.00015E-18-2.03349E-18
 -1      4129 8.46635E-05-2.17418E-05-2.70118E-05-6.48407E-06 7.59027E-19-1.34890E-18
 -1      4130 8.39955E-05-2.08424E-05-2.69908E-05-4.99180E-06 6.64244E-19-1.25655E-18
 -1      4131 8.22646E-05-2.22700E-05-2.56800E-05-1.01003E-05 2.14349E-19-1.91247E-18
 -1      4132 8.27015E-05-2.18221E-05-2.61572E-05-8.71943E-06 8.60666E-19-1.68408E-18
 -1      4133 8.15120E-05-2.03723E-05-2.61132E-05-6.82136E-06 1.06321E-18-1.14266E-18
 -1      4134 9.64985E-05-2.66769E-05-2.99282E-05-6.59118E-08-3.38983E-19-1.21410E-18
 -1      4135 9.59214E-05-2.57988E-05-3.00537E-05 9.06201E-07 5.13338E-19-1.96078E-18
 -1      4136 9.67234E-05-2.90890E-05-2.89854E-05 3.10622E-07 3.44201E-20-8.97325E-19
 -1      4137 9.66221E-05-2.91185E-05-2.89290E-05 3.33553E-07-2.05039E-19-8.08678E-19
 -1      4138 9.68087E-05-2.90524E-05-2.90417E-05 1.70747E-07-1.04070E-19-8.32816E-19
 -1      4139 9.29991E-05-2.59494E-05-2.87363E-05-1.26445E-06-1.74871E-19-4.04510E-19
 -1      4140 9.33236E-05-2.62680E-05-2.87444E-05-1.11131E-06-6.69923E-20-3.38323E-19
 -1      4141 9.26094E-05-2.55968E-05-2.87052E-05-9.81113E-07-2.53360E-19-3.64155E-19
 -1      4142 9.63791E-05-2.90801E-05-2.88415E-05-4.69968E-07-3.85028E-19-8.95401E-19
 -1      4143 9.64953E-05-2.91045E-05-2.88805E-05-4.55092E-07-2.64683E-19-1.09306E-18
 -1      4144 9.69359E-05-2.84767E-05-2.93392E-05 1.93625E-07-3.16930E-19-7.87395E-19
 -1      4145 9.69253E-05-2.87189E-05-2.92313E-05 2.63747E-07-1.93544E-19-8.06817E-19
 -1      4146 9.69520E-05-2.82779E-05-2.94331E-05 9.44008E-08-1.64799E-19-6.82368E-19
 -1      4147 9.58201E-05-2.87302E-05-2.87517E-05-4.90004E-07-1.26113E-19-1.62707E-19
 -1      4148 9.59621E-05-2.88469E-05-2.87637E-05-4.75150E-07 3.69381E-20-1.64644E-19
 -1      4149 9.61140E-05-2.89490E-05-2.87839E-05-4.76489E-07 1.53559E-19-4.72726E-19
 -1      4150 9.62440E-05-2.90248E-05-2.88076E-05-4.65481E-07-1.26156E-19-6.23430E-19
 -1      4151 9.63602E-05-2.90642E-05-2.88445E-05-3.30743E-07-5.12226E-19-6.91013E-19
 -1      4152 9.60738E-05-2.89046E-05-2.87892E-05-3.37541E-07-1.71333E-19-6.98789E-19
 -1      4153 9.66082E-05-2.90994E-05-2.89320E-05-4.57412E-07-1.04451E-19-1.39235E-18
 -1      4154 9.67040E-05-2.90558E-05-2.89902E-05-4.29087E-07-9.86752E-20-1.32151E-18
 -1      4155 9.66095E-05-2.91121E-05-2.89313E-05-3.21063E-07-2.03859E-19-1.11245E-18
 -1      4156 9.42411E-05-2.71529E-05-2.87520E-05-8.11944E-07-6.04214E-19 4.13888E-19
 -1      4157 9.44744E-05-2.74051E-05-2.87472E-05-7.24847E-07-2.74746E-19 3.92349E-19
 -1      4158 9.40085E-05-2.69181E-05-2.87460E-05-6.14360E-07-4.09212E-19 1.72083E-20
 -1      4159 8.09594E-05-2.27901E-05-2.49893E-05-1.21090E-05-5.24537E-19-1.86268E-18
 -1      4160 9.68248E-05-2.80151E-05-2.94944E-05-1.98841E-07-2.30997E-19-1.32803E-18
 -1      4161 9.67422E-05-2.75551E-05-2.96493E-05-4.49230E-08-1.11146E-20-1.37852E-18
 -1      4162 9.64370E-05-2.63675E-05-3.00373E-05-4.83561E-08-1.79643E-19-1.13888E-18
 -1      4163 9.67257E-05-2.72515E-05-2.97657E-05 1.21456E-08-2.99175E-19-1.05296E-18
 -1      4164 9.67952E-05-2.74548E-05-2.97152E-05 6.33200E-09-1.74249E-19-9.43876E-19
 -1      4165 9.64235E-05-2.63544E-05-3.00339E-05 6.31074E-08-1.08749E-20-1.51076E-18
 -1      4166 9.52321E-05-2.81894E-05-2.87318E-05-7.21177E-07 3.61328E-19 8.46192E-20
 -1      4167 7.70314E-05-1.79726E-05-2.53692E-05 2.53613E-06-7.80537E-19-1.09746E-18
 -1      4168 7.49046E-05-1.74805E-05-2.46299E-05 3.05493E-06-2.15203E-19-7.14220E-19
 -1      4169 7.30651E-05-1.67446E-05-2.40177E-05-1.27535E-07-1.82464E-19 3.69234E-19
 -1      4170 7.76684E-05-1.78347E-05-2.55406E-05 6.45716E-08-7.10770E-19-3.90515E-19
 -1      4171 7.88907E-05-2.07193E-05-2.48888E-05-9.92759E-06-9.09386E-20-7.62548E-19
 -1      4172 7.20640E-05-1.74638E-05-2.33114E-05-7.06500E-06-6.86466E-19 8.05621E-19
 -1      4173 7.59862E-05-1.93919E-05-2.42198E-05-8.54830E-06-6.66109E-19-6.78354E-20
 -1      4174 7.72987E-05-1.90020E-05-2.49559E-05-6.77091E-06-4.25899E-20 3.75197E-19
 -1      4175 7.19696E-05-1.68553E-05-2.36975E-05-2.92905E-06-3.63914E-19 9.96994E-19
 -1      4176 9.67832E-05-2.89693E-05-2.90636E-05-4.22645E-07-1.46849E-19-1.47881E-18
 -1      4177 9.68462E-05-2.88335E-05-2.91458E-05-3.68980E-07-2.77030E-19-1.62218E-18
 -1      4178 9.68054E-05-2.90127E-05-2.90577E-05-2.97382E-07-2.23250E-19-1.28921E-18
 -1      4179 9.33717E-05-2.62961E-05-2.87361E-05-7.69756E-07-1.40329E-20 2.18201E-19
 -1      4180 9.45477E-05-2.74734E-05-2.87455E-05-4.97475E-07-2.20536E-19 2.15553E-19
 -1      4181 9.47217E-05-2.76495E-05-2.87449E-05-6.74876E-07-2.26301E-19 4.34388E-19
 -1      4182 9.49211E-05-2.78665E-05-2.87398E-05-6.12478E-07-1.40047E-19 3.06543E-19
 -1      4183 9.60013E-05-2.55485E-05-3.02026E-05 5.77916E-07 5.04812E-19-1.69096E-18
 -1      4184 9.59722E-05-2.53500E-05-3.02684E-05 4.16776E-07 3.53104E-19-1.52884E-18
 -1      4185 9.60602E-05-2.59680E-05-3.00433E-05 6.77829E-07 4.76815E-19-1.85322E-18
 -1      4186 9.60323E-05-2.57099E-05-3.01382E-05 5.92528E-07 4.03498E-19-1.80573E-18
 -1      4187 9.68725E-05-2.86366E-05-2.92459E-05-3.45801E-07-2.61553E-19-1.51455E-18
 -1      4188 9.68825E-05-2.83748E-05-2.93572E-05-2.52330E-07-2.75416E-19-1.41014E-18
 -1      4189 9.69183E-05-2.87146E-05-2.92330E-05-2.46125E-07-1.89761E-19-1.45591E-18
 -1      4190 9.69414E-05-2.87936E-05-2.92090E-05 1.44230E-07-7.63243E-20-4.49775E-19
 -1      4191 9.56518E-05-2.85892E-05-2.87419E-05-4.96227E-07 2.03088E-19 5.48836E-21
 -1      4192 9.57555E-05-2.86558E-05-2.87582E-05-3.50514E-07 4.49506E-20-3.88693E-19
 -1      4193 9.54962E-05-2.84374E-05-2.87385E-05-5.21293E-07 5.20345E-19-9.11790E-20
 -1      4194 9.62307E-05-2.59054E-05-3.01319E-05 2.37468E-07 2.56220E-19-1.42203E-18
 -1      4195 9.65965E-05-2.91203E-05-2.89216E-05 1.83395E-07-2.37017E-19-8.31184E-19
 -1      4196 9.68990E-05-2.81318E-05-2.94722E-05-1.48269E-07-2.01360E-19-1.23522E-18
 -1      4197 9.60741E-05-2.88915E-05-2.87914E-05-7.24509E-08-2.09109E-19-4.66347E-19
 -1      4198 9.59090E-05-2.87711E-05-2.87723E-05-6.82452E-08-2.03250E-19-5.47388E-19
 -1      4199 9.57388E-05-2.86296E-05-2.87608E-05-7.85155E-08-2.10574E-19-4.69200E-19
 -1      4200 9.55558E-05-2.84690E-05-2.87513E-05-7.37963E-08 2.91451E-20-2.78096E-19
 -1      4201 9.50005E-05-2.79348E-05-2.87446E-05 3.29843E-08-6.83726E-20 7.68271E-20
 -1      4202 9.47680E-05-2.77025E-05-2.87444E-05 4.89623E-08-7.56931E-20-8.68324E-20
 -1      4203 9.44544E-05-2.73883E-05-2.87451E-05-1.38098E-07-3.09242E-19 1.23482E-20
 -1      4204 9.41756E-05-2.71131E-05-2.87451E-05-1.31476E-07-4.79858E-19-1.40798E-19
 -1      4205 9.38760E-05-2.68228E-05-2.87430E-05-1.83831E-07-3.04974E-19-1.32496E-19
 -1      4206 9.35438E-05-2.65030E-05-2.87383E-05-1.76489E-07 5.22914E-20-2.71811E-19
 -1      4207 9.31864E-05-2.61731E-05-2.87286E-05-2.48794E-07 2.42652E-19-6.54634E-19
 -1      4208 9.27861E-05-2.58080E-05-2.87142E-05-2.43750E-07-1.14357E-19-3.95421E-19
 -1      4209 9.23572E-05-2.54385E-05-2.86910E-05-3.41631E-07-4.68476E-19-7.25059E-20
 -1      4210 9.18722E-05-2.50280E-05-2.86603E-05-3.42828E-07-6.91156E-19-3.20154E-19
 -1      4211 9.13579E-05-2.46225E-05-2.86160E-05-4.74128E-07-8.75012E-19 7.47689E-20
 -1      4212 9.07692E-05-2.41688E-05-2.85603E-05-4.86960E-07-5.22575E-19-4.49995E-19
 -1      4213 9.01549E-05-2.37352E-05-2.84851E-05-6.63197E-07-2.46093E-19-2.28349E-19
 -1      4214 8.94402E-05-2.32443E-05-2.83931E-05-6.95158E-07-2.02246E-22-4.18333E-19
 -1      4215 8.87099E-05-2.27959E-05-2.82742E-05-9.33583E-07-3.82861E-21-5.84863E-19
 -1      4216 8.78408E-05-2.22770E-05-2.81306E-05-9.94836E-07-1.28519E-19-9.51124E-19
 -1      4217 8.69753E-05-2.18332E-05-2.79513E-05-1.32179E-06-5.84454E-19-1.27756E-18
 -1      4218 8.59114E-05-2.12971E-05-2.77357E-05-1.42621E-06-6.80504E-19-1.07451E-18
 -1      4219 8.48854E-05-2.08826E-05-2.74741E-05-1.88201E-06-3.13518E-19-1.30012E-18
 -1      4220 8.35655E-05-2.03390E-05-2.71580E-05-2.05012E-06-1.17054E-20-1.66806E-18
 -1      4221 8.23435E-05-1.99810E-05-2.67844E-05-2.69308E-06 6.02455E-19-1.48194E-18
 -1      4222 8.06780E-05-1.94351E-05-2.63270E-05-2.95919E-06 2.56694E-19-6.22856E-19
 -1      4223 7.91939E-05-1.91207E-05-2.57967E-05-3.84343E-06 1.04490E-19-1.46709E-20
 -1      4224 9.63225E-05-2.63385E-05-2.99850E-05 3.02387E-07 3.21450E-19-1.77312E-18
 -1      4225 9.64638E-05-2.67827E-05-2.98623E-05 1.52160E-07 2.15828E-19-1.67295E-18
 -1      4226 9.63753E-05-2.90646E-05-2.88457E-05-6.98337E-08-4.03265E-19-7.25646E-19
 -1      4227 9.62274E-05-2.89914E-05-2.88135E-05-6.51345E-08-4.12847E-19-8.15709E-19
 -1      4228 9.68451E-05-2.90462E-05-2.90550E-05-6.72908E-08-1.02692E-19-8.69722E-19
 -1      4229 9.67497E-05-2.91108E-05-2.89850E-05-5.67607E-08-2.81086E-19-1.01468E-18
 -1      4230 9.69686E-05-2.87704E-05-2.92271E-05-6.27982E-08-3.26879E-19-8.77297E-19
 -1      4231 9.69217E-05-2.89406E-05-2.91315E-05-4.59618E-08-2.09055E-19-9.22861E-19
 -1      4232 9.66375E-05-2.91277E-05-2.89309E-05-6.88146E-08-3.06108E-19-7.38504E-19
 -1      4233 9.65109E-05-2.91137E-05-2.88819E-05-6.21664E-08-3.60999E-19-7.38290E-19
 -1      4234 9.69626E-05-2.82325E-05-2.94568E-05-5.40992E-08-1.50812E-19-1.05320E-18
 -1      4235 9.69898E-05-2.85446E-05-2.93306E-05-2.60681E-08-1.74024E-19-1.00999E-18
 -1      4236 9.51343E-05-2.80772E-05-2.87381E-05-5.79956E-07-1.08124E-19 4.02393E-19
 -1      4237 9.53082E-05-2.82618E-05-2.87358E-05-5.39496E-07 3.25688E-19 6.75034E-20
 -1      4238 9.54015E-05-2.83299E-05-2.87447E-05-3.77525E-07 8.80811E-20-1.28077E-19
 -1      4239 9.66769E-05-2.71829E-05-2.97806E-05 1.45485E-08 6.02631E-20-1.07089E-18
 -1      4240 9.65705E-05-2.69944E-05-2.98207E-05 5.88739E-08 1.47733E-19-1.49807E-18
 -1      4241 9.68958E-05-2.78229E-05-2.95976E-05-2.92605E-09-1.46205E-19-1.00562E-18
 -1      4242 9.63942E-05-2.63948E-05-3.00038E-05 2.15675E-07 2.86669E-19-1.39091E-18
 -1      4243 9.63344E-05-2.61490E-05-3.00818E-05 1.45553E-07 1.55521E-19-1.48585E-18
 -1      4244 9.65937E-05-2.67842E-05-2.99125E-05 5.88175E-08 3.51239E-20-1.19909E-18
 -1      4245 9.53654E-05-2.82898E-05-2.87472E-05-8.95640E-08-3.51955E-21-9.05388E-20
 -1      4246 9.51619E-05-2.80915E-05-2.87443E-05-8.56039E-08-1.13687E-20 2.20911E-19
 -1      4247 7.71984E-05-1.86072E-05-2.51648E-05-4.24433E-06 1.27558E-19 5.72672E-19
 -1      4248 9.50549E-05-2.79886E-05-2.87431E-05-2.84418E-07 2.99956E-21 2.36934E-19
 -1      4249 9.67659E-05-2.73825E-05-2.97408E-05-2.21338E-08-8.16042E-20-1.11532E-18
 -1      4250 9.45964E-05-2.75198E-05-2.87450E-05-3.44585E-07-3.32778E-19-1.23092E-19
 -1      4251 7.47548E-05-1.75570E-05-2.45975E-05-2.76001E-06-3.43040E-19 9.93221E-19
 -1      4252 9.50047E-05-2.79365E-05-2.87423E-05-4.25515E-07-1.10345E-19 2.08022E-19
 -1      4253 9.48460E-05-2.77741E-05-2.87437E-05-3.07675E-07-7.85356E-20 8.82495E-20
 -3
    1PSTEP                         4           1           1          
  100CL  101 1.000000000        4253                     0    1           1
 -4  ERROR       1    1
 -5  STR(%)      1    1    0    0
 -1         1 1.23999E+01
 -1         2 2.52262E+01
 -1         3 9.14289E-02
 -1         4 1.33715E-01
 -1         5 1.40416E+01
 -1         6 1.31459E+01
 -1         7 1.31459E+01
 -1         8 3.66320E+00
 -1         9 1.82382E+00
 -1        10 1.28833E+00
 -1        11 1.04572E+00
 -1        12 8.99622E-01
 -1        13 8.08836E-01
 -1        14 7.54393E-01
 -1        15 7.56356E-01
 -1        16 8.13097E-01
 -1        17 9.00495E-01
 -1        18 1.05197E+00
 -1        19 1.30691E+00
 -1        20 1.83452E+00
 -1        21 3.50498E+00
 -1        22 8.64309E+00
 -1        23 1.31459E+01
 -1        24 4.31985E+00
 -1        25 3.34387E+00
 -1        26 2.11492E+00
 -1        27 1.36687E+00
 -1        28 1.01725E+00
 -1        29 7.79365E-01
 -1        30 6.01117E-01
 -1        31 4.63041E-01
 -1        32 3.56862E-01
 -1        33 2.80866E-01
 -1        34 2.21049E-01
 -1        35 1.75423E-01
 -1        36 1.42049E-01
 -1        37 1.19104E-01
 -1        38 1.07697E-01
 -1        39 1.14536E-01
 -1        40 1.41318E-01
 -1        41 1.80370E-01
 -1        42 2.32955E-01
 -1        43 3.00034E-01
 -1        44 3.81490E-01
 -1        45 4.75084E-01
 -1        46 5.74905E-01
 -1        47 6.98476E-01
 -1        48 9.04616E-01
 -1        49 1.12938E+00
 -1        50 1.40532E+00
 -1        51 1.61549E+00
 -1        52 1.63499E+00
 -1        53 1.68059E+00
 -1        54 1.68059E+00
 -1        55 2.05695E+00
 -1        56 3.37055E+00
 -1        57 4.70737E+00
 -1        58 4.70737E+00
 -1        59 4.63214E+00
 -1        60 4.52988E+00
 -1        61 3.00082E+00
 -1        62 1.87762E+00
 -1        63 1.53861E+00
 -1        64 1.63524E+00
 -1        65 1.63524E+00
 -1        66 1.51964E+00
 -1        67 1.20775E+00
 -1        68 1.01479E+00
 -1        69 9.69479E-01
 -1        70 7.82474E-01
 -1        71 6.17327E-01
 -1        72 1.40416E+01
 -1        73 3.39621E+00
 -1        74 2.41521E+00
 -1        75 1.66843E+00
 -1        76 1.14785E+00
 -1        77 9.07814E-01
 -1        78 7.34111E-01
 -1        79 5.92087E-01
 -1        80 4.74617E-01
 -1        81 3.78039E-01
 -1        82 3.05404E-01
 -1        83 2.47782E-01
 -1        84 2.02185E-01
 -1        85 1.68047E-01
 -1        86 1.44592E-01
 -1        87 1.34931E-01
 -1        88 1.45586E-01
 -1        89 1.63864E-01
 -1        90 1.87929E-01
 -1        91 2.18484E-01
 -1        92 2.74162E-01
 -1        93 3.37700E-01
 -1        94 4.04451E-01
 -1        95 4.66154E-01
 -1        96 5.09751E-01
 -1        97 5.22865E-01
 -1        98 6.41211E-01
 -1        99 8.05866E-01
 -1       100 9.17933E-01
 -1       101 1.08213E+00
 -1       102 1.29525E+00
 -1       103 1.29525E+00
 -1       104 1.59703E+00
 -1       105 1.99878E+00
 -1       106 2.80563E+00
 -1       107 3.00519E+00
 -1       108 3.34221E+00
 -1       109 3.34221E+00
 -1       110 2.75294E+00
 -1       111 1.71292E+00
 -1       112 1.07753E+00
 -1       113 8.80181E-01
 -1       114 1.07423E+00
 -1       115 1.07423E+00
 -1       116 1.03793E+00
 -1       117 8.41550E-01
 -1       118 7.18989E-01
 -1       119 5.94114E-01
 -1       120 3.46388E-01
 -1       121 1.74085E-01
 -1       122 1.74085E-01
 -1       123 1.46363E-01
 -1       124 9.52300E-02
 -1       125 4.02639E-02
 -1       126 1.05771E-01
 -1       127 1.62296E-01
 -1       128 1.94288E-01
 -1       129 1.94288E-01
 -1       130 1.94217E-01
 -1       131 1.58422E-01
 -1       132 9.71199E-02
 -1       133 8.35825E-02
 -1       134 1.65872E-01
 -1       135 2.91176E-01
 -1       136 3.43496E-01
 -1       137 2.52262E+01
 -1       138 4.66967E+01
 -1       139 4.66967E+01
 -1       140 2.06015E+01
 -1       141 1.18924E+01
 -1       142 1.18924E+01
 -1       143 1.21072E+01
 -1       144 1.30986E+01
 -1       145 1.30986E+01
 -1       146 1.36803E+01
 -1       147 3.74284E+01
 -1       148 3.74284E+01
 -1       149 2.56981E+01
 -1       150 2.56981E+01
 -1       151 2.46569E+01
 -1       152 2.74738E+01
 -1       153 3.05924E+01
 -1       154 3.05924E+01
 -1       155 1.40048E+01
 -1       156 1.34918E+01
 -1       157 1.34918E+01
 -1       158 1.23999E+01
 -1       159 1.18315E+01
 -1       160 2.26029E+01
 -1       161 3.44115E+01
 -1       162 3.44115E+01
 -1       163 2.43418E+01
 -1       164 6.07761E+00
 -1       165 2.29781E+00
 -1       166 1.50671E+00
 -1       167 1.15722E+00
 -1       168 9.73155E-01
 -1       169 8.64513E-01
 -1       170 7.96279E-01
 -1       171 7.56356E-01
 -1       172 7.99699E-01
 -1       173 8.67166E-01
 -1       174 9.80597E-01
 -1       175 1.17177E+00
 -1       176 1.52661E+00
 -1       177 2.25985E+00
 -1       178 3.93098E+00
 -1       179 1.40416E+01
 -1       180 4.31985E+00
 -1       181 3.34387E+00
 -1       182 2.11492E+00
 -1       183 1.45078E+00
 -1       184 1.02982E+00
 -1       185 7.79365E-01
 -1       186 6.01117E-01
 -1       187 4.74794E-01
 -1       188 3.76864E-01
 -1       189 2.98849E-01
 -1       190 2.44136E-01
 -1       191 1.98247E-01
 -1       192 1.60902E-01
 -1       193 1.31281E-01
 -1       194 1.08231E-01
 -1       195 1.07697E-01
 -1       196 1.18967E-01
 -1       197 1.48059E-01
 -1       198 1.87225E-01
 -1       199 2.37194E-01
 -1       200 3.00034E-01
 -1       201 3.94344E-01
 -1       202 5.27687E-01
 -1       203 6.81838E-01
 -1       204 8.46422E-01
 -1       205 1.00002E+00
 -1       206 1.16441E+00
 -1       207 1.40532E+00
 -1       208 1.61549E+00
 -1       209 1.63499E+00
 -1       210 1.68059E+00
 -1       211 1.49823E+00
 -1       212 2.05695E+00
 -1       213 3.37055E+00
 -1       214 4.70737E+00
 -1       215 4.63214E+00
 -1       216 4.52988E+00
 -1       217 3.00082E+00
 -1       218 1.87762E+00
 -1       219 1.48816E+00
 -1       220 1.53861E+00
 -1       221 1.63524E+00
 -1       222 1.51964E+00
 -1       223 1.20775E+00
 -1       224 1.01479E+00
 -1       225 9.69479E-01
 -1       226 7.82474E-01
 -1       227 6.17327E-01
 -1       228 3.39621E+00
 -1       229 2.41521E+00
 -1       230 1.66843E+00
 -1       231 1.14785E+00
 -1       232 9.07814E-01
 -1       233 7.34111E-01
 -1       234 5.92087E-01
 -1       235 4.74617E-01
 -1       236 3.78039E-01
 -1       237 3.05404E-01
 -1       238 2.47782E-01
 -1       239 2.02185E-01
 -1       240 1.68047E-01
 -1       241 1.44592E-01
 -1       242 1.33243E-01
 -1       243 1.34931E-01
 -1       244 1.45586E-01
 -1       245 1.63864E-01
 -1       246 1.96236E-01
 -1       247 2.42349E-01
 -1       248 2.94008E-01
 -1       249 3.47143E-01
 -1       250 4.04451E-01
 -1       251 4.66154E-01
 -1       252 5.09751E-01
 -1       253 5.58003E-01
 -1       254 6.65808E-01
 -1       255 8.05866E-01
 -1       256 9.17933E-01
 -1       257 1.08213E+00
 -1       258 1.29525E+00
 -1       259 1.28826E+00
 -1       260 1.59703E+00
 -1       261 2.02651E+00
 -1       262 2.80563E+00
 -1       263 3.00519E+00
 -1       264 3.34221E+00
 -1       265 2.75294E+00
 -1       266 1.71292E+00
 -1       267 1.07753E+00
 -1       268 7.85247E-01
 -1       269 8.80181E-01
 -1       270 1.07423E+00
 -1       271 1.03793E+00
 -1       272 8.41550E-01
 -1       273 7.18989E-01
 -1       274 5.94114E-01
 -1       275 3.63842E-01
 -1       276 2.23466E-01
 -1       277 2.34540E-01
 -1       278 2.34540E-01
 -1       279 1.50053E-01
 -1       280 1.72344E-01
 -1       281 2.81314E-01
 -1       282 3.57595E-01
 -1       283 3.71372E-01
 -1       284 3.71372E-01
 -1       285 3.54888E-01
 -1       286 2.75080E-01
 -1       287 1.54702E-01
 -1       288 2.52678E-01
 -1       289 2.52678E-01
 -1       290 3.43496E-01
 -1       291 2.97157E+01
 -1       292 2.76091E+01
 -1       293 4.66967E+01
 -1       294 2.14472E+01
 -1       295 1.06600E+01
 -1       296 1.18924E+01
 -1       297 1.18644E+01
 -1       298 1.21072E+01
 -1       299 1.30986E+01
 -1       300 1.13910E+01
 -1       301 1.45704E+01
 -1       302 3.74284E+01
 -1       303 3.36708E+01
 -1       304 3.06246E+01
 -1       305 3.06246E+01
 -1       306 2.46569E+01
 -1       307 3.03303E+01
 -1       308 3.05924E+01
 -1       309 1.40048E+01
 -1       310 1.23147E+01
 -1       311 1.34918E+01
 -1       312 1.22134E+01
 -1       313 1.23999E+01
 -1       314 1.18315E+01
 -1       315 1.17972E+01
 -1       316 2.52046E+01
 -1       317 3.44115E+01
 -1       318 3.16286E+01
 -1       319 2.97157E+01
 -1       320 1.04682E+00
 -1       321 2.47922E+00
 -1       322 7.94613E-01
 -1       323 6.94613E-01
 -1       324 6.31738E-01
 -1       325 5.87754E-01
 -1       326 5.90945E-01
 -1       327 6.34373E-01
 -1       328 7.00834E-01
 -1       329 7.95810E-01
 -1       330 9.31033E-01
 -1       331 1.15876E+00
 -1       332 1.32790E+00
 -1       333 2.20196E+00
 -1       334 1.91571E+00
 -1       335 1.73209E+00
 -1       336 1.27078E+00
 -1       337 9.11131E-01
 -1       338 6.60830E-01
 -1       339 5.43253E-01
 -1       340 4.47611E-01
 -1       341 3.63940E-01
 -1       342 2.98849E-01
 -1       343 2.45056E-01
 -1       344 1.99452E-01
 -1       345 1.61753E-01
 -1       346 1.31299E-01
 -1       347 1.08231E-01
 -1       348 9.55772E-02
 -1       349 9.88843E-02
 -1       350 1.18967E-01
 -1       351 1.48059E-01
 -1       352 1.91681E-01
 -1       353 2.70338E-01
 -1       354 3.68110E-01
 -1       355 4.86150E-01
 -1       356 6.22670E-01
 -1       357 7.70714E-01
 -1       358 9.15263E-01
 -1       359 1.03033E+00
 -1       360 1.14733E+00
 -1       361 1.26240E+00
 -1       362 1.23608E+00
 -1       363 1.10599E+00
 -1       364 1.20478E+00
 -1       365 1.37679E+00
 -1       366 2.00884E+00
 -1       367 2.66597E+00
 -1       368 2.80154E+00
 -1       369 2.79613E+00
 -1       370 2.53968E+00
 -1       371 1.92657E+00
 -1       372 1.37313E+00
 -1       373 1.18339E+00
 -1       374 9.99009E-01
 -1       375 1.14183E+00
 -1       376 1.07371E+00
 -1       377 8.84157E-01
 -1       378 7.60703E-01
 -1       379 6.92845E-01
 -1       380 5.40980E-01
 -1       381 1.13240E+00
 -1       382 8.94452E-01
 -1       383 7.07544E-01
 -1       384 5.49410E-01
 -1       385 4.42582E-01
 -1       386 3.77327E-01
 -1       387 3.15105E-01
 -1       388 2.59600E-01
 -1       389 2.15459E-01
 -1       390 1.79213E-01
 -1       391 1.51068E-01
 -1       392 1.29515E-01
 -1       393 1.15315E-01
 -1       394 1.12070E-01
 -1       395 1.15106E-01
 -1       396 1.33279E-01
 -1       397 1.63762E-01
 -1       398 2.19787E-01
 -1       399 2.96753E-01
 -1       400 3.85707E-01
 -1       401 4.82399E-01
 -1       402 5.77931E-01
 -1       403 6.57217E-01
 -1       404 7.33561E-01
 -1       405 7.58843E-01
 -1       406 7.58843E-01
 -1       407 6.90741E-01
 -1       408 5.44138E-01
 -1       409 5.87888E-01
 -1       410 1.07597E+00
 -1       411 1.60068E+00
 -1       412 1.80093E+00
 -1       413 1.80093E+00
 -1       414 1.76398E+00
 -1       415 1.97441E+00
 -1       416 1.83978E+00
 -1       417 1.29285E+00
 -1       418 7.84520E-01
 -1       419 4.58318E-01
 -1       420 5.89001E-01
 -1       421 6.86152E-01
 -1       422 7.31966E-01
 -1       423 6.52174E-01
 -1       424 5.79102E-01
 -1       425 5.15996E-01
 -1       426 3.63842E-01
 -1       427 2.73245E-01
 -1       428 3.91140E-01
 -1       429 3.91140E-01
 -1       430 2.24907E-01
 -1       431 3.57719E-01
 -1       432 4.87972E-01
 -1       433 5.39813E-01
 -1       434 5.42102E-01
 -1       435 5.42102E-01
 -1       436 4.94778E-01
 -1       437 3.56626E-01
 -1       438 2.78817E-01
 -1       439 4.24639E-01
 -1       440 2.76091E+01
 -1       441 2.97157E+01
 -1       442 2.85719E+01
 -1       443 1.58310E+01
 -1       444 8.87280E+00
 -1       445 9.10100E-01
 -1       446 9.80595E+00
 -1       447 1.05020E+01
 -1       448 1.05168E+01
 -1       449 8.35129E+00
 -1       450 8.03383E+00
 -1       451 1.26348E+01
 -1       452 2.23787E+01
 -1       453 2.66176E+01
 -1       454 3.40667E+01
 -1       455 3.40667E+01
 -1       456 2.49034E+01
 -1       457 1.97704E+01
 -1       458 1.17329E+01
 -1       459 7.72538E+00
 -1       460 8.42842E+00
 -1       461 1.22134E+01
 -1       462 1.22133E+01
 -1       463 9.33046E+00
 -1       464 7.16921E+00
 -1       465 1.01936E+01
 -1       466 1.81640E+01
 -1       467 3.16286E+01
 -1       468 2.90350E+01
 -1       469 7.56604E+00
 -1       470 5.73842E+00
 -1       471 1.05046E+00
 -1       472 4.86231E-01
 -1       473 5.13999E-01
 -1       474 4.31743E-01
 -1       475 4.57428E-01
 -1       476 4.86705E-01
 -1       477 5.10682E-01
 -1       478 5.10682E-01
 -1       479 6.06667E-01
 -1       480 8.94452E-01
 -1       481 8.03983E-01
 -1       482 6.10274E+00
 -1       483 7.05264E-01
 -1       484 5.92531E-01
 -1       485 4.80680E-01
 -1       486 3.82529E-01
 -1       487 3.29049E-01
 -1       488 2.80361E-01
 -1       489 2.34523E-01
 -1       490 1.93778E-01
 -1       491 1.60284E-01
 -1       492 1.30753E-01
 -1       493 1.06030E-01
 -1       494 8.62861E-02
 -1       495 7.53006E-02
 -1       496 8.84947E-02
 -1       497 1.09057E-01
 -1       498 1.64152E-01
 -1       499 2.32614E-01
 -1       500 3.17179E-01
 -1       501 4.20026E-01
 -1       502 5.42039E-01
 -1       503 6.81628E-01
 -1       504 8.33000E-01
 -1       505 9.83878E-01
 -1       506 1.11297E+00
 -1       507 1.24442E+00
 -1       508 1.45592E+00
 -1       509 1.63466E+00
 -1       510 1.72469E+00
 -1       511 2.35808E+00
 -1       512 1.96197E+00
 -1       513 3.68321E+00
 -1       514 6.98621E+00
 -1       515 3.17688E+00
 -1       516 6.82041E+00
 -1       517 2.60916E+00
 -1       518 2.00949E+00
 -1       519 2.16422E+00
 -1       520 1.54409E+00
 -1       521 1.42255E+00
 -1       522 1.20843E+00
 -1       523 9.68150E-01
 -1       524 8.40280E-01
 -1       525 6.78320E-01
 -1       526 1.86638E+01
 -1       527 5.49410E-01
 -1       528 4.42582E-01
 -1       529 3.77327E-01
 -1       530 3.15105E-01
 -1       531 2.59600E-01
 -1       532 2.15459E-01
 -1       533 1.76826E-01
 -1       534 1.43978E-01
 -1       535 1.16476E-01
 -1       536 9.54561E-02
 -1       537 8.01572E-02
 -1       538 9.13158E-02
 -1       539 1.09162E-01
 -1       540 1.40960E-01
 -1       541 1.99152E-01
 -1       542 2.68478E-01
 -1       543 3.48681E-01
 -1       544 4.37322E-01
 -1       545 5.28649E-01
 -1       546 6.12364E-01
 -1       547 6.83766E-01
 -1       548 7.34821E-01
 -1       549 7.92566E-01
 -1       550 7.94889E-01
 -1       551 7.45472E-01
 -1       552 8.62677E-01
 -1       553 9.61867E-01
 -1       554 1.36299E+00
 -1       555 1.62944E+00
 -1       556 2.06815E+00
 -1       557 1.94869E+00
 -1       558 1.94334E+00
 -1       559 1.66522E+00
 -1       560 1.44096E+00
 -1       561 1.18170E+00
 -1       562 9.13231E-01
 -1       563 8.04183E-01
 -1       564 6.42445E-01
 -1       565 5.87316E-01
 -1       566 5.15041E-01
 -1       567 4.71325E-01
 -1       568 4.37979E-01
 -1       569 3.96222E-01
 -1       570 5.92875E-01
 -1       571 3.28169E-01
 -1       572 3.67424E-01
 -1       573 7.27453E-01
 -1       574 7.27453E-01
 -1       575 7.41918E-01
 -1       576 7.41918E-01
 -1       577 6.19236E-01
 -1       578 4.96299E-01
 -1       579 4.96299E-01
 -1       580 2.90350E+01
 -1       581 7.07544E-01
 -1       582 1.29557E+01
 -1       583 2.15682E+01
 -1       584 8.73374E-01
 -1       585 9.52618E+00
 -1       586 6.29436E+00
 -1       587 4.57297E-01
 -1       588 8.87256E+00
 -1       589 2.66176E+01
 -1       590 7.86094E+00
 -1       591 4.37830E+00
 -1       592 7.42798E+00
 -1       593 1.11497E+01
 -1       594 5.05534E+00
 -1       595 1.76377E+01
 -1       596 3.40667E+01
 -1       597 2.49034E+01
 -1       598 1.65836E+01
 -1       599 1.04830E+01
 -1       600 4.35436E+00
 -1       601 6.98621E+00
 -1       602 8.04209E+00
 -1       603 7.37398E+00
 -1       604 6.37704E+00
 -1       605 9.57438E+00
 -1       606 1.40468E+01
 -1       607 2.85719E+01
 -1       608 1.32903E+00
 -1       609 5.11245E+00
 -1       610 5.30678E-01
 -1       611 4.33067E-01
 -1       612 5.78274E+00
 -1       613 1.84846E+01
 -1       614 3.58515E-01
 -1       615 3.43187E-01
 -1       616 3.61466E-01
 -1       617 3.37551E-01
 -1       618 5.44438E-01
 -1       619 8.79159E+00
 -1       620 5.17867E-01
 -1       621 1.49261E+01
 -1       622 4.87085E+00
 -1       623 3.99907E-01
 -1       624 3.87356E-01
 -1       625 3.46623E-01
 -1       626 2.97128E-01
 -1       627 2.47337E-01
 -1       628 2.15156E-01
 -1       629 1.81738E-01
 -1       630 1.52109E-01
 -1       631 1.25013E-01
 -1       632 1.00282E-01
 -1       633 7.74624E-02
 -1       634 5.55808E-02
 -1       635 5.60873E-02
 -1       636 7.89103E-02
 -1       637 1.24719E-01
 -1       638 1.80750E-01
 -1       639 2.49707E-01
 -1       640 3.34499E-01
 -1       641 4.38182E-01
 -1       642 5.63884E-01
 -1       643 7.14615E-01
 -1       644 8.93894E-01
 -1       645 1.09845E+00
 -1       646 1.32482E+00
 -1       647 1.54797E+00
 -1       648 1.93855E+00
 -1       649 2.45351E+00
 -1       650 3.11332E+00
 -1       651 4.78855E+00
 -1       652 3.99564E+00
 -1       653 3.39174E+00
 -1       654 2.94437E+00
 -1       655 2.15296E+00
 -1       656 1.67982E+00
 -1       657 1.29587E+00
 -1       658 1.04766E+00
 -1       659 7.36461E-01
 -1       660 3.99988E-01
 -1       661 2.40059E-01
 -1       662 2.03700E-01
 -1       663 1.69870E-01
 -1       664 1.39647E-01
 -1       665 1.13174E-01
 -1       666 8.99577E-02
 -1       667 6.90529E-02
 -1       668 6.45039E-02
 -1       669 7.58192E-02
 -1       670 1.13201E-01
 -1       671 1.64318E-01
 -1       672 2.25354E-01
 -1       673 2.97309E-01
 -1       674 3.80148E-01
 -1       675 4.72137E-01
 -1       676 5.68919E-01
 -1       677 6.62383E-01
 -1       678 7.39429E-01
 -1       679 8.57099E-01
 -1       680 9.85819E-01
 -1       681 1.08384E+00
 -1       682 1.19954E+00
 -1       683 1.46923E+00
 -1       684 2.55516E+00
 -1       685 1.97752E+00
 -1       686 2.85825E+00
 -1       687 4.61896E+00
 -1       688 3.71346E+00
 -1       689 3.41074E+00
 -1       690 2.47999E+00
 -1       691 1.61439E+00
 -1       692 1.70416E+00
 -1       693 1.25809E+00
 -1       694 9.14095E-01
 -1       695 8.13212E-01
 -1       696 6.55201E-01
 -1       697 5.15041E-01
 -1       698 4.27577E-01
 -1       699 9.90043E-01
 -1       700 4.96299E-01
 -1       701 6.36954E-01
 -1       702 1.00092E+00
 -1       703 9.08948E-01
 -1       704 1.10065E+01
 -1       705 1.00092E+00
 -1       706 9.46993E-01
 -1       707 6.93112E-01
 -1       708 4.67090E-01
 -1       709 3.59062E+00
 -1       710 5.30678E-01
 -1       711 3.21265E+00
 -1       712 1.31314E+01
 -1       713 2.76508E-01
 -1       714 3.31868E-01
 -1       715 4.02798E-01
 -1       716 5.59530E+00
 -1       717 3.61466E-01
 -1       718 3.58645E-01
 -1       719 3.49254E+00
 -1       720 4.56587E+00
 -1       721 9.77298E+00
 -1       722 4.80843E+00
 -1       723 9.24268E+00
 -1       724 1.34842E+01
 -1       725 7.35099E+00
 -1       726 4.48590E+00
 -1       727 1.37059E+01
 -1       728 4.55250E+00
 -1       729 1.41888E+01
 -1       730 1.18830E+01
 -1       731 7.73625E+00
 -1       732 1.69299E+01
 -1       733 2.60861E+00
 -1       734 6.11852E+00
 -1       735 3.77366E-01
 -1       736 3.42630E-01
 -1       737 4.25351E+00
 -1       738 2.74377E+00
 -1       739 5.86116E-01
 -1       740 4.06571E-01
 -1       741 5.62771E+00
 -1       742 1.18852E+01
 -1       743 3.01138E+00
 -1       744 5.19364E+00
 -1       745 3.57369E-01
 -1       746 5.75924E-01
 -1       747 2.44477E-01
 -1       748 2.57910E-01
 -1       749 2.51015E-01
 -1       750 2.28933E-01
 -1       751 1.99952E-01
 -1       752 1.72727E-01
 -1       753 1.50138E-01
 -1       754 1.25570E-01
 -1       755 1.00566E-01
 -1       756 7.56847E-02
 -1       757 5.07544E-02
 -1       758 4.10019E-02
 -1       759 5.40669E-02
 -1       760 9.25607E-02
 -1       761 1.42114E-01
 -1       762 2.05374E-01
 -1       763 2.84206E-01
 -1       764 3.81583E-01
 -1       765 4.99997E-01
 -1       766 6.40548E-01
 -1       767 8.01192E-01
 -1       768 1.00035E+00
 -1       769 1.27175E+00
 -1       770 1.71173E+00
 -1       771 2.27220E+00
 -1       772 2.98487E+00
 -1       773 4.12013E+00
 -1       774 1.35421E-01
 -1       775 4.80535E+00
 -1       776 3.00887E+00
 -1       777 1.92890E+00
 -1       778 1.40668E+00
 -1       779 8.30521E-01
 -1       780 1.34427E+00
 -1       781 1.63342E-01
 -1       782 3.41074E+00
 -1       783 1.90281E-01
 -1       784 1.07938E-01
 -1       785 8.16842E-02
 -1       786 5.90544E-02
 -1       787 3.61073E-02
 -1       788 4.32379E-02
 -1       789 7.89184E-02
 -1       790 1.21238E-01
 -1       791 1.72064E-01
 -1       792 2.33366E-01
 -1       793 3.07134E-01
 -1       794 3.97915E-01
 -1       795 5.04339E-01
 -1       796 6.23972E-01
 -1       797 7.54184E-01
 -1       798 8.95465E-01
 -1       799 1.05829E+00
 -1       800 1.32611E+00
 -1       801 1.64088E+00
 -1       802 1.80506E+00
 -1       803 2.55516E+00
 -1       804 2.99835E+00
 -1       805 2.34396E+00
 -1       806 1.45173E+00
 -1       807 1.20717E+00
 -1       808 8.65516E-01
 -1       809 7.02889E-01
 -1       810 4.99567E-01
 -1       811 2.88841E-01
 -1       812 8.84074E+00
 -1       813 1.31932E+00
 -1       814 1.05888E+00
 -1       815 1.34427E+00
 -1       816 7.40841E+00
 -1       817 9.62741E+00
 -1       818 2.19528E-01
 -1       819 4.80013E+00
 -1       820 2.34757E-01
 -1       821 9.64105E+00
 -1       822 2.88706E-01
 -1       823 2.56708E-01
 -1       824 7.70447E+00
 -1       825 6.46899E+00
 -1       826 8.95283E+00
 -1       827 1.93757E+00
 -1       828 9.45528E+00
 -1       829 7.36304E+00
 -1       830 9.81123E+00
 -1       831 9.11758E+00
 -1       832 2.82140E-01
 -1       833 2.82204E-01
 -1       834 3.66978E+00
 -1       835 8.30521E-01
 -1       836 8.89127E-01
 -1       837 2.85825E+00
 -1       838 4.08564E+00
 -1       839 2.47999E+00
 -1       840 2.88841E-01
 -1       841 9.70517E-01
 -1       842 1.31932E+00
 -1       843 2.41790E-01
 -1       844 2.76827E-01
 -1       845 2.60023E-01
 -1       846 2.78933E-01
 -1       847 2.87917E-01
 -1       848 3.77139E+00
 -1       849 7.66594E+00
 -1       850 2.84261E-01
 -1       851 1.83995E-01
 -1       852 1.76235E-01
 -1       853 1.59568E-01
 -1       854 1.38303E-01
 -1       855 1.21824E-01
 -1       856 1.03086E-01
 -1       857 8.29979E-02
 -1       858 6.22387E-02
 -1       859 5.85212E-02
 -1       860 6.37349E-02
 -1       861 8.68541E-02
 -1       862 1.32474E-01
 -1       863 1.89523E-01
 -1       864 2.61114E-01
 -1       865 3.50956E-01
 -1       866 4.63550E-01
 -1       867 6.04476E-01
 -1       868 7.80660E-01
 -1       869 1.00035E+00
 -1       870 1.27175E+00
 -1       871 1.61873E+00
 -1       872 2.24131E+00
 -1       873 3.54680E+00
 -1       874 4.65843E+00
 -1       875 2.87917E-01
 -1       876 9.03251E-02
 -1       877 7.36770E+00
 -1       878 5.60867E+00
 -1       879 2.01011E+00
 -1       880 1.33801E-01
 -1       881 1.12589E-01
 -1       882 6.76361E-02
 -1       883 4.92785E-02
 -1       884 5.19471E-02
 -1       885 6.89495E-02
 -1       886 1.08630E-01
 -1       887 1.57625E-01
 -1       888 2.16579E-01
 -1       889 2.86604E-01
 -1       890 3.67961E-01
 -1       891 4.59309E-01
 -1       892 5.62620E-01
 -1       893 7.00380E-01
 -1       894 8.96867E-01
 -1       895 1.16700E+00
 -1       896 1.47111E+00
 -1       897 1.76179E+00
 -1       898 2.91569E+00
 -1       899 4.80582E+00
 -1       900 1.40991E+00
 -1       901 1.27276E+00
 -1       902 6.05175E-01
 -1       903 6.73555E+00
 -1       904 1.77423E+00
 -1       905 7.36770E+00
 -1       906 1.76407E-01
 -1       907 2.39375E+00
 -1       908 2.92084E+00
 -1       909 1.43426E-01
 -1       910 6.16669E+00
 -1       911 1.52449E-01
 -1       912 5.39836E+00
 -1       913 6.57775E+00
 -1       914 1.76623E-01
 -1       915 6.47765E+00
 -1       916 4.80582E+00
 -1       917 6.22930E+00
 -1       918 1.63865E-01
 -1       919 6.54298E+00
 -1       920 1.24065E+00
 -1       921 2.17805E-01
 -1       922 2.01289E-01
 -1       923 2.17805E-01
 -1       924 1.85787E+00
 -1       925 1.99375E+00
 -1       926 1.99375E+00
 -1       927 2.03012E-01
 -1       928 1.97940E-01
 -1       929 4.57401E+00
 -1       930 6.73555E+00
 -1       931 2.11522E-01
 -1       932 2.92084E+00
 -1       933 2.18737E-01
 -1       934 1.87123E+00
 -1       935 1.35598E-01
 -1       936 1.25754E-01
 -1       937 1.10886E-01
 -1       938 9.68890E-02
 -1       939 8.27488E-02
 -1       940 6.76672E-02
 -1       941 6.94187E-02
 -1       942 7.45075E-02
 -1       943 8.36353E-02
 -1       944 1.12128E-01
 -1       945 1.58864E-01
 -1       946 2.17789E-01
 -1       947 2.92362E-01
 -1       948 3.87301E-01
 -1       949 5.09529E-01
 -1       950 6.69893E-01
 -1       951 8.86012E-01
 -1       952 1.18663E+00
 -1       953 1.61873E+00
 -1       954 2.24131E+00
 -1       955 3.10490E+00
 -1       956 5.48620E+00
 -1       957 6.35504E-02
 -1       958 2.51650E+00
 -1       959 5.01994E+00
 -1       960 7.38002E-02
 -1       961 7.31856E-02
 -1       962 9.95113E-02
 -1       963 1.43736E-01
 -1       964 1.98205E-01
 -1       965 2.65052E-01
 -1       966 3.46558E-01
 -1       967 4.45042E-01
 -1       968 5.62620E-01
 -1       969 7.00380E-01
 -1       970 8.60916E-01
 -1       971 1.12680E+00
 -1       972 1.56127E+00
 -1       973 2.71697E+00
 -1       974 3.07752E+00
 -1       975 2.27799E+00
 -1       976 2.06835E-01
 -1       977 1.36781E-01
 -1       978 1.07615E-01
 -1       979 4.94103E+00
 -1       980 1.40100E-01
 -1       981 3.38710E+00
 -1       982 1.80511E-01
 -1       983 4.35765E+00
 -1       984 9.82108E-02
 -1       985 1.22559E-01
 -1       986 2.18737E-01
 -1       987 5.01994E+00
 -1       988 1.25216E-01
 -1       989 1.47133E-01
 -1       990 6.66434E-02
 -1       991 9.14156E-02
 -1       992 1.52734E-01
 -1       993 1.53761E-01
 -1       994 3.34184E+00
 -1       995 1.47476E-01
 -1       996 4.39597E+00
 -1       997 1.11018E-01
 -1       998 3.27092E+00
 -1       999 1.53761E-01
 -1      1000 1.57075E-01
 -1      1001 5.60867E+00
 -1      1002 1.52696E-01
 -1      1003 5.31607E+00
 -1      1004 9.72025E-02
 -1      1005 8.67844E-02
 -1      1006 7.51279E-02
 -1      1007 7.43627E-02
 -1      1008 7.53734E-02
 -1      1009 7.95005E-02
 -1      1010 8.56306E-02
 -1      1011 1.03056E-01
 -1      1012 1.29390E-01
 -1      1013 1.64622E-01
 -1      1014 2.18905E-01
 -1      1015 2.88305E-01
 -1      1016 3.77756E-01
 -1      1017 4.95955E-01
 -1      1018 6.58638E-01
 -1      1019 8.95552E-01
 -1      1020 1.25983E+00
 -1      1021 1.82984E+00
 -1      1022 2.78175E+00
 -1      1023 1.09586E-01
 -1      1024 3.51465E+00
 -1      1025 7.12420E-02
 -1      1026 1.19609E-01
 -1      1027 9.20174E-02
 -1      1028 2.22611E-01
 -1      1029 2.95354E-01
 -1      1030 3.87756E-01
 -1      1031 5.06018E-01
 -1      1032 6.59197E-01
 -1      1033 8.60916E-01
 -1      1034 1.12680E+00
 -1      1035 1.45340E+00
 -1      1036 2.34325E+00
 -1      1037 1.41215E-01
 -1      1038 1.02210E-01
 -1      1039 8.45976E-02
 -1      1040 2.61114E+00
 -1      1041 1.22937E-01
 -1      1042 9.82108E-02
 -1      1043 9.72129E-02
 -1      1044 8.91571E-02
 -1      1045 7.27036E-02
 -1      1046 9.13946E-02
 -1      1047 1.06662E-01
 -1      1048 1.65122E-01
 -1      1049 1.03275E-01
 -1      1050 7.46197E-02
 -1      1051 2.90833E+00
 -1      1052 1.17245E-01
 -1      1053 3.29451E+00
 -1      1054 7.93628E-02
 -1      1055 9.12382E-02
 -1      1056 1.17371E-01
 -1      1057 9.12682E-02
 -1      1058 8.17696E-02
 -1      1059 7.51279E-02
 -1      1060 7.53734E-02
 -1      1061 7.95005E-02
 -1      1062 8.56306E-02
 -1      1063 1.09344E-01
 -1      1064 1.27901E-01
 -1      1065 1.60637E-01
 -1      1066 2.03388E-01
 -1      1067 2.58486E-01
 -1      1068 3.29359E-01
 -1      1069 4.21547E-01
 -1      1070 5.44665E-01
 -1      1071 7.16474E-01
 -1      1072 1.00198E+00
 -1      1073 1.46320E+00
 -1      1074 3.96165E-01
 -1      1075 1.42850E-01
 -1      1076 6.83351E-02
 -1      1077 8.87033E-02
 -1      1078 2.97336E-01
 -1      1079 2.26588E-01
 -1      1080 5.30816E-01
 -1      1081 7.19544E-01
 -1      1082 1.00198E+00
 -1      1083 1.46320E+00
 -1      1084 1.92686E+00
 -1      1085 8.71617E-02
 -1      1086 1.79794E-01
 -1      1087 8.71617E-02
 -1      1088 8.36569E-02
 -1      1089 7.45863E-02
 -1      1090 8.17696E-02
 -1      1091 8.87033E-02
 -1      1092 1.14059E-01
 -1      1093 7.80314E-02
 -1      1094 7.20265E-02
 -1      1095 2.05835E+00
 -1      1096 2.61163E+00
 -1      1097 8.88522E-02
 -1      1098 1.12503E-01
 -1      1099 9.12682E-02
 -1      1100 8.76994E-02
 -1      1101 7.46197E-02
 -1      1102 1.12503E-01
 -1      1103 7.93628E-02
 -1      1104 7.20265E-02
 -1      1105 1.31459E+01
 -1      1106 8.40456E+00
 -1      1107 2.74351E+00
 -1      1108 1.55608E+00
 -1      1109 1.16702E+00
 -1      1110 9.72669E-01
 -1      1111 8.54229E-01
 -1      1112 7.81614E-01
 -1      1113 7.55374E-01
 -1      1114 7.84726E-01
 -1      1115 8.56796E-01
 -1      1116 9.76231E-01
 -1      1117 1.17944E+00
 -1      1118 1.57071E+00
 -1      1119 2.66975E+00
 -1      1120 6.07404E+00
 -1      1121 1.13424E+01
 -1      1122 1.31459E+01
 -1      1123 8.73289E+00
 -1      1124 3.83186E+00
 -1      1125 2.72939E+00
 -1      1126 1.74090E+00
 -1      1127 1.19206E+00
 -1      1128 8.98306E-01
 -1      1129 6.90241E-01
 -1      1130 5.32079E-01
 -1      1131 4.09951E-01
 -1      1132 3.18864E-01
 -1      1133 2.50958E-01
 -1      1134 1.98236E-01
 -1      1135 1.58736E-01
 -1      1136 1.30577E-01
 -1      1137 1.13400E-01
 -1      1138 1.11116E-01
 -1      1139 1.27927E-01
 -1      1140 1.60844E-01
 -1      1141 2.06662E-01
 -1      1142 2.66494E-01
 -1      1143 3.40762E-01
 -1      1144 4.28287E-01
 -1      1145 5.24994E-01
 -1      1146 6.36690E-01
 -1      1147 8.01546E-01
 -1      1148 1.01700E+00
 -1      1149 1.26735E+00
 -1      1150 1.51040E+00
 -1      1151 1.62524E+00
 -1      1152 1.65779E+00
 -1      1153 1.68059E+00
 -1      1154 1.86877E+00
 -1      1155 2.71375E+00
 -1      1156 4.03896E+00
 -1      1157 4.70737E+00
 -1      1158 4.66975E+00
 -1      1159 4.58101E+00
 -1      1160 3.76535E+00
 -1      1161 2.43922E+00
 -1      1162 1.70811E+00
 -1      1163 1.58693E+00
 -1      1164 1.63524E+00
 -1      1165 1.57744E+00
 -1      1166 1.36369E+00
 -1      1167 1.11127E+00
 -1      1168 9.92135E-01
 -1      1169 8.75977E-01
 -1      1170 6.99901E-01
 -1      1171 3.75521E-01
 -1      1172 1.40416E+01
 -1      1173 8.71892E+00
 -1      1174 2.90571E+00
 -1      1175 2.04182E+00
 -1      1176 1.40814E+00
 -1      1177 1.02783E+00
 -1      1178 8.20962E-01
 -1      1179 6.63099E-01
 -1      1180 5.33352E-01
 -1      1181 4.26328E-01
 -1      1182 3.41722E-01
 -1      1183 2.76593E-01
 -1      1184 2.24984E-01
 -1      1185 1.85116E-01
 -1      1186 1.56320E-01
 -1      1187 1.39762E-01
 -1      1188 1.40259E-01
 -1      1189 1.54725E-01
 -1      1190 1.75897E-01
 -1      1191 2.03206E-01
 -1      1192 2.46323E-01
 -1      1193 3.05931E-01
 -1      1194 3.71075E-01
 -1      1195 4.35302E-01
 -1      1196 4.87953E-01
 -1      1197 5.16308E-01
 -1      1198 5.82038E-01
 -1      1199 7.23539E-01
 -1      1200 8.61900E-01
 -1      1201 1.00003E+00
 -1      1202 1.18869E+00
 -1      1203 1.29525E+00
 -1      1204 1.44614E+00
 -1      1205 1.79791E+00
 -1      1206 2.40221E+00
 -1      1207 2.90541E+00
 -1      1208 3.17370E+00
 -1      1209 3.34221E+00
 -1      1210 3.04757E+00
 -1      1211 2.23293E+00
 -1      1212 1.39523E+00
 -1      1213 9.78856E-01
 -1      1214 9.77205E-01
 -1      1215 1.07423E+00
 -1      1216 1.05608E+00
 -1      1217 9.39738E-01
 -1      1218 7.80269E-01
 -1      1219 6.56551E-01
 -1      1220 4.70251E-01
 -1      1221 2.18909E-01
 -1      1222 1.32757E-01
 -1      1223 1.74085E-01
 -1      1224 1.60224E-01
 -1      1225 1.20796E-01
 -1      1226 6.77469E-02
 -1      1227 7.30176E-02
 -1      1228 1.34034E-01
 -1      1229 1.78292E-01
 -1      1230 1.94288E-01
 -1      1231 1.94252E-01
 -1      1232 1.76319E-01
 -1      1233 1.27771E-01
 -1      1234 9.03512E-02
 -1      1235 1.24727E-01
 -1      1236 2.28524E-01
 -1      1237 3.17336E-01
 -1      1238 2.38606E-01
 -1      1239 2.52262E+01
 -1      1240 3.59615E+01
 -1      1241 4.66967E+01
 -1      1242 3.36491E+01
 -1      1243 1.62469E+01
 -1      1244 1.18924E+01
 -1      1245 1.19998E+01
 -1      1246 1.26029E+01
 -1      1247 1.30986E+01
 -1      1248 1.33895E+01
 -1      1249 2.55543E+01
 -1      1250 3.74284E+01
 -1      1251 3.15632E+01
 -1      1252 2.56981E+01
 -1      1253 2.51775E+01
 -1      1254 2.60654E+01
 -1      1255 2.90331E+01
 -1      1256 3.05924E+01
 -1      1257 2.22986E+01
 -1      1258 1.37483E+01
 -1      1259 1.34918E+01
 -1      1260 1.29459E+01
 -1      1261 1.23999E+01
 -1      1262 1.21157E+01
 -1      1263 1.72172E+01
 -1      1264 2.85072E+01
 -1      1265 3.44115E+01
 -1      1266 2.93767E+01
 -1      1267 2.47840E+01
 -1      1268 1.31459E+01
 -1      1269 4.87041E+00
 -1      1270 9.61177E+00
 -1      1271 2.06082E+00
 -1      1272 2.98051E+00
 -1      1273 4.18771E+00
 -1      1274 1.39752E+00
 -1      1275 1.66526E+00
 -1      1276 1.90226E+00
 -1      1277 1.10147E+00
 -1      1278 1.22278E+00
 -1      1279 1.33196E+00
 -1      1280 9.36389E-01
 -1      1281 1.00944E+00
 -1      1282 1.06519E+00
 -1      1283 8.36675E-01
 -1      1284 8.82068E-01
 -1      1285 9.18834E-01
 -1      1286 7.75336E-01
 -1      1287 8.02557E-01
 -1      1288 8.30396E-01
 -1      1289 7.56356E-01
 -1      1290 7.55374E-01
 -1      1291 7.76317E-01
 -1      1292 8.06398E-01
 -1      1293 7.78027E-01
 -1      1294 7.78027E-01
 -1      1295 8.83830E-01
 -1      1296 8.40131E-01
 -1      1297 8.33432E-01
 -1      1298 1.01628E+00
 -1      1299 9.40546E-01
 -1      1300 9.23881E-01
 -1      1301 1.23934E+00
 -1      1302 1.11187E+00
 -1      1303 1.07618E+00
 -1      1304 1.68057E+00
 -1      1305 1.41676E+00
 -1      1306 1.34919E+00
 -1      1307 2.88241E+00
 -1      1308 2.04718E+00
 -1      1309 1.89323E+00
 -1      1310 6.28704E+00
 -1      1311 3.71798E+00
 -1      1312 3.09542E+00
 -1      1313 1.40416E+01
 -1      1314 1.13424E+01
 -1      1315 8.98631E+00
 -1      1316 1.40416E+01
 -1      1317 8.73289E+00
 -1      1318 4.31985E+00
 -1      1319 3.83186E+00
 -1      1320 3.34387E+00
 -1      1321 3.83186E+00
 -1      1322 2.72939E+00
 -1      1323 2.11492E+00
 -1      1324 2.72939E+00
 -1      1325 1.78285E+00
 -1      1326 1.40883E+00
 -1      1327 1.78285E+00
 -1      1328 1.19835E+00
 -1      1329 1.02353E+00
 -1      1330 1.24030E+00
 -1      1331 8.98306E-01
 -1      1332 7.79365E-01
 -1      1333 9.04592E-01
 -1      1334 6.90241E-01
 -1      1335 6.01117E-01
 -1      1336 6.90241E-01
 -1      1337 5.37955E-01
 -1      1338 4.68918E-01
 -1      1339 5.37955E-01
 -1      1340 4.19953E-01
 -1      1341 3.66863E-01
 -1      1342 4.25829E-01
 -1      1343 3.27855E-01
 -1      1344 2.89858E-01
 -1      1345 3.37856E-01
 -1      1346 2.62501E-01
 -1      1347 2.32593E-01
 -1      1348 2.71493E-01
 -1      1349 2.09648E-01
 -1      1350 1.86835E-01
 -1      1351 2.21191E-01
 -1      1352 1.68162E-01
 -1      1353 1.51475E-01
 -1      1354 1.79574E-01
 -1      1355 1.36665E-01
 -1      1356 1.25193E-01
 -1      1357 1.46091E-01
 -1      1358 1.13667E-01
 -1      1359 1.07964E-01
 -1      1360 1.19756E-01
 -1      1361 1.07697E-01
 -1      1362 1.11116E-01
 -1      1363 1.07964E-01
 -1      1364 1.16751E-01
 -1      1365 1.30142E-01
 -1      1366 1.13332E-01
 -1      1367 1.44689E-01
 -1      1368 1.64215E-01
 -1      1369 1.33513E-01
 -1      1370 1.83798E-01
 -1      1371 2.10090E-01
 -1      1372 1.67642E-01
 -1      1373 2.35075E-01
 -1      1374 2.68614E-01
 -1      1375 2.12210E-01
 -1      1376 3.00034E-01
 -1      1377 3.40762E-01
 -1      1378 2.68614E-01
 -1      1379 3.87917E-01
 -1      1380 4.34714E-01
 -1      1381 3.47189E-01
 -1      1382 5.01385E-01
 -1      1383 5.51296E-01
 -1      1384 4.61016E-01
 -1      1385 6.28372E-01
 -1      1386 6.90157E-01
 -1      1387 6.04763E-01
 -1      1388 7.72449E-01
 -1      1389 8.75519E-01
 -1      1390 7.64130E-01
 -1      1391 9.52317E-01
 -1      1392 1.06470E+00
 -1      1393 9.23220E-01
 -1      1394 1.14689E+00
 -1      1395 1.28486E+00
 -1      1396 1.08221E+00
 -1      1397 1.40532E+00
 -1      1398 1.51040E+00
 -1      1399 1.28486E+00
 -1      1400 1.61549E+00
 -1      1401 1.62524E+00
 -1      1402 1.51040E+00
 -1      1403 1.63499E+00
 -1      1404 1.65779E+00
 -1      1405 1.62524E+00
 -1      1406 1.68059E+00
 -1      1407 1.68059E+00
 -1      1408 1.65779E+00
 -1      1409 1.58941E+00
 -1      1410 1.77759E+00
 -1      1411 1.58941E+00
 -1      1412 2.05695E+00
 -1      1413 2.71375E+00
 -1      1414 1.77759E+00
 -1      1415 3.37055E+00
 -1      1416 4.03896E+00
 -1      1417 2.71375E+00
 -1      1418 4.70737E+00
 -1      1419 4.70737E+00
 -1      1420 4.03896E+00
 -1      1421 4.66975E+00
 -1      1422 4.63214E+00
 -1      1423 4.66975E+00
 -1      1424 4.58101E+00
 -1      1425 4.52988E+00
 -1      1426 4.58101E+00
 -1      1427 3.76535E+00
 -1      1428 3.00082E+00
 -1      1429 3.76535E+00
 -1      1430 2.43922E+00
 -1      1431 1.87762E+00
 -1      1432 2.43922E+00
 -1      1433 1.68289E+00
 -1      1434 1.51338E+00
 -1      1435 1.68289E+00
 -1      1436 1.53861E+00
 -1      1437 1.58693E+00
 -1      1438 1.51338E+00
 -1      1439 1.63524E+00
 -1      1440 1.63524E+00
 -1      1441 1.58693E+00
 -1      1442 1.57744E+00
 -1      1443 1.51964E+00
 -1      1444 1.57744E+00
 -1      1445 1.36369E+00
 -1      1446 1.20775E+00
 -1      1447 1.36369E+00
 -1      1448 1.11127E+00
 -1      1449 1.01479E+00
 -1      1450 1.11127E+00
 -1      1451 9.92135E-01
 -1      1452 9.69479E-01
 -1      1453 9.92135E-01
 -1      1454 8.75977E-01
 -1      1455 7.82474E-01
 -1      1456 8.75977E-01
 -1      1457 6.99901E-01
 -1      1458 6.17327E-01
 -1      1459 6.99901E-01
 -1      1460 4.80412E-01
 -1      1461 4.80412E-01
 -1      1462 3.39621E+00
 -1      1463 8.71892E+00
 -1      1464 8.71892E+00
 -1      1465 2.41521E+00
 -1      1466 2.90571E+00
 -1      1467 2.90571E+00
 -1      1468 1.66843E+00
 -1      1469 2.04182E+00
 -1      1470 2.04182E+00
 -1      1471 1.14785E+00
 -1      1472 1.40814E+00
 -1      1473 1.40814E+00
 -1      1474 9.07814E-01
 -1      1475 1.02783E+00
 -1      1476 1.02783E+00
 -1      1477 7.34111E-01
 -1      1478 8.20962E-01
 -1      1479 8.20962E-01
 -1      1480 5.92087E-01
 -1      1481 6.63099E-01
 -1      1482 6.63099E-01
 -1      1483 4.74617E-01
 -1      1484 5.33352E-01
 -1      1485 5.33352E-01
 -1      1486 3.78039E-01
 -1      1487 4.26328E-01
 -1      1488 4.26328E-01
 -1      1489 3.05404E-01
 -1      1490 3.41722E-01
 -1      1491 3.41722E-01
 -1      1492 2.47782E-01
 -1      1493 2.76593E-01
 -1      1494 2.76593E-01
 -1      1495 2.02185E-01
 -1      1496 2.24984E-01
 -1      1497 2.24984E-01
 -1      1498 1.68047E-01
 -1      1499 1.85116E-01
 -1      1500 1.85116E-01
 -1      1501 1.44592E-01
 -1      1502 1.56320E-01
 -1      1503 1.56320E-01
 -1      1504 1.34087E-01
 -1      1505 1.38918E-01
 -1      1506 1.38918E-01
 -1      1507 1.40259E-01
 -1      1508 1.34931E-01
 -1      1509 1.34087E-01
 -1      1510 1.54725E-01
 -1      1511 1.45586E-01
 -1      1512 1.40259E-01
 -1      1513 1.75897E-01
 -1      1514 1.63864E-01
 -1      1515 1.54725E-01
 -1      1516 2.07360E-01
 -1      1517 1.92083E-01
 -1      1518 1.80050E-01
 -1      1519 2.58256E-01
 -1      1520 2.30416E-01
 -1      1521 2.19293E-01
 -1      1522 3.15854E-01
 -1      1523 2.84085E-01
 -1      1524 2.68178E-01
 -1      1525 3.75797E-01
 -1      1526 3.42421E-01
 -1      1527 3.20575E-01
 -1      1528 4.35302E-01
 -1      1529 4.04451E-01
 -1      1530 3.75797E-01
 -1      1531 4.87953E-01
 -1      1532 4.66154E-01
 -1      1533 4.35302E-01
 -1      1534 5.16308E-01
 -1      1535 5.09751E-01
 -1      1536 4.87953E-01
 -1      1537 5.99607E-01
 -1      1538 5.40434E-01
 -1      1539 5.33877E-01
 -1      1540 7.35837E-01
 -1      1541 6.53509E-01
 -1      1542 6.11906E-01
 -1      1543 8.61900E-01
 -1      1544 8.05866E-01
 -1      1545 7.35837E-01
 -1      1546 1.00003E+00
 -1      1547 9.17933E-01
 -1      1548 8.61900E-01
 -1      1549 1.18869E+00
 -1      1550 1.08213E+00
 -1      1551 1.00003E+00
 -1      1552 1.29525E+00
 -1      1553 1.29525E+00
 -1      1554 1.18869E+00
 -1      1555 1.44264E+00
 -1      1556 1.29175E+00
 -1      1557 1.29175E+00
 -1      1558 1.79791E+00
 -1      1559 1.59703E+00
 -1      1560 1.44264E+00
 -1      1561 2.41607E+00
 -1      1562 2.01264E+00
 -1      1563 1.81177E+00
 -1      1564 2.90541E+00
 -1      1565 2.80563E+00
 -1      1566 2.41607E+00
 -1      1567 3.17370E+00
 -1      1568 3.00519E+00
 -1      1569 2.90541E+00
 -1      1570 3.34221E+00
 -1      1571 3.34221E+00
 -1      1572 3.17370E+00
 -1      1573 2.75294E+00
 -1      1574 3.04757E+00
 -1      1575 3.04757E+00
 -1      1576 1.71292E+00
 -1      1577 2.23293E+00
 -1      1578 2.23293E+00
 -1      1579 1.07753E+00
 -1      1580 1.39523E+00
 -1      1581 1.39523E+00
 -1      1582 8.32714E-01
 -1      1583 9.31389E-01
 -1      1584 9.31389E-01
 -1      1585 9.77205E-01
 -1      1586 8.80181E-01
 -1      1587 8.32714E-01
 -1      1588 1.07423E+00
 -1      1589 1.07423E+00
 -1      1590 9.77205E-01
 -1      1591 1.03793E+00
 -1      1592 1.05608E+00
 -1      1593 1.05608E+00
 -1      1594 8.41550E-01
 -1      1595 9.39738E-01
 -1      1596 9.39738E-01
 -1      1597 7.18989E-01
 -1      1598 7.80269E-01
 -1      1599 7.80269E-01
 -1      1600 5.94114E-01
 -1      1601 6.56551E-01
 -1      1602 6.56551E-01
 -1      1603 3.55115E-01
 -1      1604 4.78978E-01
 -1      1605 4.78978E-01
 -1      1606 2.60237E-01
 -1      1607 1.98776E-01
 -1      1608 1.98776E-01
 -1      1609 1.90451E-01
 -1      1610 2.04312E-01
 -1      1611 2.29003E-01
 -1      1612 1.64885E-01
 -1      1613 1.90451E-01
 -1      1614 2.34540E-01
 -1      1615 9.51584E-02
 -1      1616 1.22642E-01
 -1      1617 1.92297E-01
 -1      1618 1.39058E-01
 -1      1619 1.06304E-01
 -1      1620 1.61198E-01
 -1      1621 2.21805E-01
 -1      1622 1.93543E-01
 -1      1623 2.26829E-01
 -1      1624 2.75942E-01
 -1      1625 2.59946E-01
 -1      1626 3.19455E-01
 -1      1627 2.82830E-01
 -1      1628 2.82830E-01
 -1      1629 3.64484E-01
 -1      1630 2.82794E-01
 -1      1631 2.82830E-01
 -1      1632 3.71372E-01
 -1      1633 2.56655E-01
 -1      1634 2.74552E-01
 -1      1635 3.63130E-01
 -1      1636 1.86100E-01
 -1      1637 2.16751E-01
 -1      1638 3.14984E-01
 -1      1639 1.19142E-01
 -1      1640 1.25911E-01
 -1      1641 2.14891E-01
 -1      1642 2.09275E-01
 -1      1643 1.68130E-01
 -1      1644 2.03690E-01
 -1      1645 2.71927E-01
 -1      1646 2.09275E-01
 -1      1647 2.52678E-01
 -1      1648 3.43496E-01
 -1      1649 3.17336E-01
 -1      1650 2.98087E-01
 -1      1651 4.80412E-01
 -1      1652 2.74710E+01
 -1      1653 2.74710E+01
 -1      1654 3.71529E+01
 -1      1655 2.64177E+01
 -1      1656 4.66967E+01
 -1      1657 4.66967E+01
 -1      1658 2.10244E+01
 -1      1659 3.40720E+01
 -1      1660 1.12762E+01
 -1      1661 1.56308E+01
 -1      1662 1.18924E+01
 -1      1663 1.18924E+01
 -1      1664 1.19858E+01
 -1      1665 1.18784E+01
 -1      1666 1.26029E+01
 -1      1667 1.21072E+01
 -1      1668 1.30986E+01
 -1      1669 1.30986E+01
 -1      1670 1.25357E+01
 -1      1671 1.22448E+01
 -1      1672 2.59994E+01
 -1      1673 1.41253E+01
 -1      1674 3.74284E+01
 -1      1675 3.74284E+01
 -1      1676 2.96844E+01
 -1      1677 3.55496E+01
 -1      1678 2.81613E+01
 -1      1679 2.81613E+01
 -1      1680 2.76408E+01
 -1      1681 2.81613E+01
 -1      1682 2.60654E+01
 -1      1683 2.46569E+01
 -1      1684 3.04613E+01
 -1      1685 2.89020E+01
 -1      1686 3.05924E+01
 -1      1687 3.05924E+01
 -1      1688 1.40048E+01
 -1      1689 2.22986E+01
 -1      1690 1.29032E+01
 -1      1691 1.31597E+01
 -1      1692 1.34918E+01
 -1      1693 1.34918E+01
 -1      1694 1.23067E+01
 -1      1695 1.28526E+01
 -1      1696 1.23999E+01
 -1      1697 1.23999E+01
 -1      1698 1.18315E+01
 -1      1699 1.21157E+01
 -1      1700 1.72000E+01
 -1      1701 1.18143E+01
 -1      1702 2.98081E+01
 -1      1703 2.39038E+01
 -1      1704 3.44115E+01
 -1      1705 3.44115E+01
 -1      1706 2.79852E+01
 -1      1707 3.30201E+01
 -1      1708 2.74710E+01
 -1      1709 2.70288E+01
 -1      1710 1.60536E+01
 -1      1711 3.40720E+01
 -1      1712 2.68963E-01
 -1      1713 2.93654E-01
 -1      1714 2.86624E+01
 -1      1715 3.71529E+01
 -1      1716 2.97157E+01
 -1      1717 1.12762E+01
 -1      1718 1.18784E+01
 -1      1719 1.19858E+01
 -1      1720 1.26029E+01
 -1      1721 1.22448E+01
 -1      1722 1.29807E+01
 -1      1723 2.59994E+01
 -1      1724 3.55496E+01
 -1      1725 3.21477E+01
 -1      1726 3.06246E+01
 -1      1727 2.76408E+01
 -1      1728 2.74936E+01
 -1      1729 3.04613E+01
 -1      1730 2.22986E+01
 -1      1731 1.31597E+01
 -1      1732 1.29032E+01
 -1      1733 1.28526E+01
 -1      1734 1.23067E+01
 -1      1735 1.21157E+01
 -1      1736 1.18143E+01
 -1      1737 1.85009E+01
 -1      1738 2.98081E+01
 -1      1739 3.30201E+01
 -1      1740 3.06722E+01
 -1      1741 9.61177E+00
 -1      1742 1.27677E+00
 -1      1743 1.67232E+00
 -1      1744 2.38851E+00
 -1      1745 4.27841E+00
 -1      1746 1.76302E+00
 -1      1747 8.83884E-01
 -1      1748 9.75918E-01
 -1      1749 7.79563E-01
 -1      1750 8.33884E-01
 -1      1751 7.44613E-01
 -1      1752 7.14008E-01
 -1      1753 7.48126E-01
 -1      1754 6.63176E-01
 -1      1755 6.72055E-01
 -1      1756 6.92016E-01
 -1      1757 6.09746E-01
 -1      1758 6.95322E-01
 -1      1759 6.73650E-01
 -1      1760 5.89349E-01
 -1      1761 7.50769E-01
 -1      1762 7.17036E-01
 -1      1763 6.12659E-01
 -1      1764 8.40715E-01
 -1      1765 7.84000E-01
 -1      1766 6.67603E-01
 -1      1767 9.83788E-01
 -1      1768 8.88204E-01
 -1      1769 7.48322E-01
 -1      1770 1.22882E+00
 -1      1771 1.05140E+00
 -1      1772 8.63421E-01
 -1      1773 1.70930E+00
 -1      1774 1.34268E+00
 -1      1775 1.04490E+00
 -1      1776 2.62944E+00
 -1      1777 1.79387E+00
 -1      1778 1.24333E+00
 -1      1779 8.12179E+00
 -1      1780 3.06647E+00
 -1      1781 1.76493E+00
 -1      1782 2.79908E+00
 -1      1783 5.19873E+00
 -1      1784 2.16546E+00
 -1      1785 2.65596E+00
 -1      1786 2.05883E+00
 -1      1787 3.39953E+00
 -1      1788 2.53798E+00
 -1      1789 1.92350E+00
 -1      1790 1.69285E+00
 -1      1791 1.36078E+00
 -1      1792 1.50143E+00
 -1      1793 1.18096E+00
 -1      1794 9.70475E-01
 -1      1795 1.09095E+00
 -1      1796 8.45325E-01
 -1      1797 7.20097E-01
 -1      1798 7.85980E-01
 -1      1799 6.61309E-01
 -1      1800 5.72185E-01
 -1      1801 6.02041E-01
 -1      1802 5.24364E-01
 -1      1803 4.61202E-01
 -1      1804 4.95432E-01
 -1      1805 4.19367E-01
 -1      1806 3.70402E-01
 -1      1807 4.05776E-01
 -1      1808 3.37856E-01
 -1      1809 2.98849E-01
 -1      1810 3.31395E-01
 -1      1811 2.71952E-01
 -1      1812 2.44596E-01
 -1      1813 2.71952E-01
 -1      1814 2.21794E-01
 -1      1815 1.98849E-01
 -1      1816 2.22254E-01
 -1      1817 1.80000E-01
 -1      1818 1.61327E-01
 -1      1819 1.80602E-01
 -1      1820 1.46101E-01
 -1      1821 1.31290E-01
 -1      1822 1.46526E-01
 -1      1823 1.19756E-01
 -1      1824 1.08231E-01
 -1      1825 1.19765E-01
 -1      1826 1.01904E-01
 -1      1827 1.01637E-01
 -1      1828 1.01904E-01
 -1      1829 1.03290E-01
 -1      1830 1.08925E-01
 -1      1831 9.72307E-02
 -1      1832 1.18967E-01
 -1      1833 1.33513E-01
 -1      1834 1.08925E-01
 -1      1835 1.48059E-01
 -1      1836 1.67642E-01
 -1      1837 1.33513E-01
 -1      1838 1.89453E-01
 -1      1839 2.14438E-01
 -1      1840 1.69870E-01
 -1      1841 2.53766E-01
 -1      1842 2.85186E-01
 -1      1843 2.31010E-01
 -1      1844 3.34072E-01
 -1      1845 3.81227E-01
 -1      1846 3.19224E-01
 -1      1847 4.40247E-01
 -1      1848 5.06919E-01
 -1      1849 4.27130E-01
 -1      1850 5.75179E-01
 -1      1851 6.52254E-01
 -1      1852 5.54410E-01
 -1      1853 7.26276E-01
 -1      1854 8.08568E-01
 -1      1855 6.96692E-01
 -1      1856 8.80843E-01
 -1      1857 9.57641E-01
 -1      1858 8.42988E-01
 -1      1859 1.01518E+00
 -1      1860 1.09737E+00
 -1      1861 9.72797E-01
 -1      1862 1.15587E+00
 -1      1863 1.27633E+00
 -1      1864 1.08883E+00
 -1      1865 1.33386E+00
 -1      1866 1.43895E+00
 -1      1867 1.20487E+00
 -1      1868 1.42578E+00
 -1      1869 1.43554E+00
 -1      1870 1.24924E+00
 -1      1871 1.37049E+00
 -1      1872 1.39329E+00
 -1      1873 1.17103E+00
 -1      1874 1.44268E+00
 -1      1875 1.35151E+00
 -1      1876 1.15538E+00
 -1      1877 1.43751E+00
 -1      1878 1.71687E+00
 -1      1879 1.29079E+00
 -1      1880 2.03290E+00
 -1      1881 2.68969E+00
 -1      1882 1.69281E+00
 -1      1883 3.01826E+00
 -1      1884 3.68667E+00
 -1      1885 2.33741E+00
 -1      1886 3.75445E+00
 -1      1887 3.71684E+00
 -1      1888 2.73375E+00
 -1      1889 3.71413E+00
 -1      1890 3.66300E+00
 -1      1891 2.79883E+00
 -1      1892 3.53478E+00
 -1      1893 2.77025E+00
 -1      1894 2.66790E+00
 -1      1895 2.46370E+00
 -1      1896 1.90210E+00
 -1      1897 2.23313E+00
 -1      1898 1.62537E+00
 -1      1899 1.43064E+00
 -1      1900 1.64985E+00
 -1      1901 1.33577E+00
 -1      1902 1.36100E+00
 -1      1903 1.27826E+00
 -1      1904 1.26881E+00
 -1      1905 1.31713E+00
 -1      1906 1.09120E+00
 -1      1907 1.38854E+00
 -1      1908 1.33074E+00
 -1      1909 1.07042E+00
 -1      1910 1.29668E+00
 -1      1911 1.14073E+00
 -1      1912 1.10777E+00
 -1      1913 1.04595E+00
 -1      1914 9.49474E-01
 -1      1915 9.78933E-01
 -1      1916 8.87747E-01
 -1      1917 8.65091E-01
 -1      1918 8.22430E-01
 -1      1919 8.31162E-01
 -1      1920 7.37660E-01
 -1      1921 7.26774E-01
 -1      1922 6.61727E-01
 -1      1923 5.79154E-01
 -1      1924 4.42238E-01
 -1      1925 6.16912E-01
 -1      1926 1.40041E+00
 -1      1927 1.77381E+00
 -1      1928 1.52405E+00
 -1      1929 1.02115E+00
 -1      1930 1.28144E+00
 -1      1931 1.01342E+00
 -1      1932 8.07679E-01
 -1      1933 9.27696E-01
 -1      1934 8.00998E-01
 -1      1935 6.41760E-01
 -1      1936 7.28612E-01
 -1      1937 6.28477E-01
 -1      1938 5.17335E-01
 -1      1939 5.88347E-01
 -1      1940 4.95996E-01
 -1      1941 4.25972E-01
 -1      1942 4.84707E-01
 -1      1943 4.09954E-01
 -1      1944 3.46572E-01
 -1      1945 3.94861E-01
 -1      1946 3.46216E-01
 -1      1947 2.82502E-01
 -1      1948 3.18819E-01
 -1      1949 2.87353E-01
 -1      1950 2.31621E-01
 -1      1951 2.60432E-01
 -1      1952 2.37530E-01
 -1      1953 1.90699E-01
 -1      1954 2.13498E-01
 -1      1955 1.97336E-01
 -1      1956 1.59558E-01
 -1      1957 1.76627E-01
 -1      1958 1.65141E-01
 -1      1959 1.37054E-01
 -1      1960 1.48781E-01
 -1      1961 1.40292E-01
 -1      1962 1.24279E-01
 -1      1963 1.29954E-01
 -1      1964 1.22415E-01
 -1      1965 1.23500E-01
 -1      1966 1.22656E-01
 -1      1967 1.13692E-01
 -1      1968 1.30346E-01
 -1      1969 1.25018E-01
 -1      1970 1.13588E-01
 -1      1971 1.48571E-01
 -1      1972 1.39433E-01
 -1      1973 1.24192E-01
 -1      1974 1.79999E-01
 -1      1975 1.63813E-01
 -1      1976 1.48521E-01
 -1      1977 2.31068E-01
 -1      1978 2.08011E-01
 -1      1979 1.91774E-01
 -1      1980 2.95381E-01
 -1      1981 2.69551E-01
 -1      1982 2.58270E-01
 -1      1983 3.66425E-01
 -1      1984 3.39857E-01
 -1      1985 3.41230E-01
 -1      1986 4.43425E-01
 -1      1987 4.14771E-01
 -1      1988 4.34053E-01
 -1      1989 5.22042E-01
 -1      1990 4.91191E-01
 -1      1991 5.30165E-01
 -1      1992 5.83484E-01
 -1      1993 5.61686E-01
 -1      1994 6.17574E-01
 -1      1995 6.45782E-01
 -1      1996 6.21656E-01
 -1      1997 6.95389E-01
 -1      1998 7.12326E-01
 -1      1999 6.58423E-01
 -1      2000 7.46202E-01
 -1      2001 7.82355E-01
 -1      2002 7.12326E-01
 -1      2003 7.58843E-01
 -1      2004 8.04337E-01
 -1      2005 7.48304E-01
 -1      2006 7.24792E-01
 -1      2007 8.13132E-01
 -1      2008 7.31036E-01
 -1      2009 6.17440E-01
 -1      2010 9.41571E-01
 -1      2011 8.35007E-01
 -1      2012 5.66013E-01
 -1      2013 1.18211E+00
 -1      2014 1.18561E+00
 -1      2015 8.31929E-01
 -1      2016 1.59886E+00
 -1      2017 1.44447E+00
 -1      2018 1.33833E+00
 -1      2019 1.91372E+00
 -1      2020 1.69898E+00
 -1      2021 1.70080E+00
 -1      2022 2.30328E+00
 -1      2023 1.91372E+00
 -1      2024 1.80093E+00
 -1      2025 2.38458E+00
 -1      2026 2.28481E+00
 -1      2027 1.78245E+00
 -1      2028 2.65831E+00
 -1      2029 2.48980E+00
 -1      2030 1.86919E+00
 -1      2031 2.29636E+00
 -1      2032 2.59100E+00
 -1      2033 1.90709E+00
 -1      2034 1.50288E+00
 -1      2035 2.02289E+00
 -1      2036 1.56631E+00
 -1      2037 9.31026E-01
 -1      2038 1.24872E+00
 -1      2039 1.03868E+00
 -1      2040 6.21782E-01
 -1      2041 7.67925E-01
 -1      2042 6.21419E-01
 -1      2043 7.34591E-01
 -1      2044 6.87124E-01
 -1      2045 5.23659E-01
 -1      2046 8.80191E-01
 -1      2047 7.83166E-01
 -1      2048 6.37576E-01
 -1      2049 8.84946E-01
 -1      2050 9.03098E-01
 -1      2051 7.09059E-01
 -1      2052 7.46862E-01
 -1      2053 8.45050E-01
 -1      2054 6.92070E-01
 -1      2055 6.49045E-01
 -1      2056 7.10326E-01
 -1      2057 6.15638E-01
 -1      2058 5.55055E-01
 -1      2059 6.17492E-01
 -1      2060 5.47549E-01
 -1      2061 3.63842E-01
 -1      2062 4.78978E-01
 -1      2063 4.39919E-01
 -1      2064 2.93654E-01
 -1      2065 2.11649E-01
 -1      2066 2.53892E-01
 -1      2067 3.12840E-01
 -1      2068 3.12840E-01
 -1      2069 3.32193E-01
 -1      2070 3.12840E-01
 -1      2071 3.07303E-01
 -1      2072 3.77491E-01
 -1      2073 3.91140E-01
 -1      2074 1.98625E-01
 -1      2075 1.87480E-01
 -1      2076 2.49076E-01
 -1      2077 3.19517E-01
 -1      2078 2.65031E-01
 -1      2079 2.91313E-01
 -1      2080 4.22783E-01
 -1      2081 3.84643E-01
 -1      2082 4.22845E-01
 -1      2083 4.55592E-01
 -1      2084 4.48704E-01
 -1      2085 5.13892E-01
 -1      2086 4.56737E-01
 -1      2087 4.56737E-01
 -1      2088 5.40957E-01
 -1      2089 4.48495E-01
 -1      2090 4.56737E-01
 -1      2091 5.42102E-01
 -1      2092 3.84929E-01
 -1      2093 4.24833E-01
 -1      2094 5.18440E-01
 -1      2095 2.55664E-01
 -1      2096 3.15853E-01
 -1      2097 4.25702E-01
 -1      2098 2.65747E-01
 -1      2099 2.16759E-01
 -1      2100 3.17721E-01
 -1      2101 3.38659E-01
 -1      2102 3.38659E-01
 -1      2103 3.51728E-01
 -1      2104 3.71529E+01
 -1      2105 2.76091E+01
 -1      2106 2.97157E+01
 -1      2107 2.97157E+01
 -1      2108 2.80905E+01
 -1      2109 2.91438E+01
 -1      2110 2.80905E+01
 -1      2111 1.86391E+01
 -1      2112 3.12639E+01
 -1      2113 9.76641E+00
 -1      2114 1.51600E+01
 -1      2115 1.03366E+00
 -1      2116 1.20840E+00
 -1      2117 9.78463E-01
 -1      2118 8.52357E-01
 -1      2119 1.08352E+01
 -1      2120 1.08492E+01
 -1      2121 1.13046E+01
 -1      2122 1.11832E+01
 -1      2123 1.18077E+01
 -1      2124 1.13120E+01
 -1      2125 9.87115E+00
 -1      2126 1.07250E+01
 -1      2127 1.13021E+01
 -1      2128 9.71242E+00
 -1      2129 8.19256E+00
 -1      2130 2.50316E+01
 -1      2131 1.36026E+01
 -1      2132 2.80248E+01
 -1      2133 2.99036E+01
 -1      2134 1.75067E+01
 -1      2135 2.86211E+01
 -1      2136 3.01442E+01
 -1      2137 3.23457E+01
 -1      2138 3.23457E+01
 -1      2139 2.93618E+01
 -1      2140 3.23457E+01
 -1      2141 2.76168E+01
 -1      2142 2.47802E+01
 -1      2143 2.51814E+01
 -1      2144 2.50503E+01
 -1      2145 1.28688E+01
 -1      2146 2.11626E+01
 -1      2147 1.00200E+01
 -1      2148 1.08651E+01
 -1      2149 1.09601E+01
 -1      2150 1.03715E+01
 -1      2151 8.07690E+00
 -1      2152 1.22134E+01
 -1      2153 1.28526E+01
 -1      2154 1.23066E+01
 -1      2155 1.22134E+01
 -1      2156 1.22134E+01
 -1      2157 1.05810E+01
 -1      2158 1.08652E+01
 -1      2159 9.48321E+00
 -1      2160 9.50035E+00
 -1      2161 1.76991E+01
 -1      2162 1.09954E+01
 -1      2163 2.62878E+01
 -1      2164 2.16843E+01
 -1      2165 3.16286E+01
 -1      2166 3.30201E+01
 -1      2167 2.93754E+01
 -1      2168 3.03318E+01
 -1      2169 9.72921E+00
 -1      2170 9.11303E+00
 -1      2171 8.21942E+00
 -1      2172 2.91154E+00
 -1      2173 8.68600E+00
 -1      2174 2.10565E+00
 -1      2175 2.91438E+01
 -1      2176 2.17201E+01
 -1      2177 3.84068E-01
 -1      2178 2.93754E+01
 -1      2179 1.23519E+01
 -1      2180 3.03318E+01
 -1      2181 2.48963E+01
 -1      2182 1.41788E+01
 -1      2183 8.68142E+00
 -1      2184 1.07719E+01
 -1      2185 1.03209E+01
 -1      2186 9.87160E+00
 -1      2187 8.73564E+00
 -1      2188 6.73190E+00
 -1      2189 1.57516E+01
 -1      2190 2.23369E+01
 -1      2191 2.94851E+01
 -1      2192 3.40667E+01
 -1      2193 2.44982E+01
 -1      2194 1.03343E+01
 -1      2195 9.43403E+00
 -1      2196 1.01540E+01
 -1      2197 1.05094E+01
 -1      2198 3.03422E+01
 -1      2199 8.24984E+00
 -1      2200 1.09143E+00
 -1      2201 1.48308E+00
 -1      2202 5.58984E-01
 -1      2203 5.90422E-01
 -1      2204 6.04306E-01
 -1      2205 6.54306E-01
 -1      2206 5.00115E-01
 -1      2207 5.11344E-01
 -1      2208 5.09748E-01
 -1      2209 5.45901E-01
 -1      2210 5.24186E-01
 -1      2211 4.44586E-01
 -1      2212 5.93769E-01
 -1      2213 5.60539E-01
 -1      2214 4.72066E-01
 -1      2215 6.53246E-01
 -1      2216 6.05758E-01
 -1      2217 4.98694E-01
 -1      2218 7.20858E-01
 -1      2219 6.53246E-01
 -1      2220 5.10682E-01
 -1      2221 8.82712E-01
 -1      2222 7.68850E-01
 -1      2223 5.58675E-01
 -1      2224 8.94452E-01
 -1      2225 1.01342E+00
 -1      2226 9.72455E-01
 -1      2227 1.26804E+00
 -1      2228 1.03738E+00
 -1      2229 7.95434E+00
 -1      2230 6.83439E+00
 -1      2231 9.88020E-01
 -1      2232 8.08197E-01
 -1      2233 7.54623E-01
 -1      2234 7.51831E-01
 -1      2235 6.26680E-01
 -1      2236 6.48897E-01
 -1      2237 5.70755E-01
 -1      2238 5.11967E-01
 -1      2239 5.36605E-01
 -1      2240 4.62891E-01
 -1      2241 4.15070E-01
 -1      2242 4.31605E-01
 -1      2243 3.88330E-01
 -1      2244 3.46494E-01
 -1      2245 3.55789E-01
 -1      2246 3.22151E-01
 -1      2247 2.89605E-01
 -1      2248 3.04705E-01
 -1      2249 2.66686E-01
 -1      2250 2.39789E-01
 -1      2251 2.57442E-01
 -1      2252 2.19417E-01
 -1      2253 1.96615E-01
 -1      2254 2.14150E-01
 -1      2255 1.79868E-01
 -1      2256 1.61018E-01
 -1      2257 1.77031E-01
 -1      2258 1.46253E-01
 -1      2259 1.31026E-01
 -1      2260 1.45519E-01
 -1      2261 1.18665E-01
 -1      2262 1.07130E-01
 -1      2263 1.18392E-01
 -1      2264 9.72583E-02
 -1      2265 9.09316E-02
 -1      2266 9.61581E-02
 -1      2267 8.54389E-02
 -1      2268 8.70925E-02
 -1      2269 8.07934E-02
 -1      2270 9.36895E-02
 -1      2271 1.03731E-01
 -1      2272 8.18977E-02
 -1      2273 1.14012E-01
 -1      2274 1.28558E-01
 -1      2275 9.87761E-02
 -1      2276 1.56106E-01
 -1      2277 1.77916E-01
 -1      2278 1.36605E-01
 -1      2279 2.12147E-01
 -1      2280 2.51476E-01
 -1      2281 1.98383E-01
 -1      2282 2.93758E-01
 -1      2283 3.42644E-01
 -1      2284 2.74896E-01
 -1      2285 3.94068E-01
 -1      2286 4.53088E-01
 -1      2287 3.68602E-01
 -1      2288 5.14094E-01
 -1      2289 5.82354E-01
 -1      2290 4.81032E-01
 -1      2291 6.52149E-01
 -1      2292 7.26171E-01
 -1      2293 6.11833E-01
 -1      2294 8.01857E-01
 -1      2295 8.74131E-01
 -1      2296 7.57314E-01
 -1      2297 9.49571E-01
 -1      2298 1.00710E+00
 -1      2299 9.08439E-01
 -1      2300 1.07165E+00
 -1      2301 1.13015E+00
 -1      2302 1.04842E+00
 -1      2303 1.19587E+00
 -1      2304 1.25341E+00
 -1      2305 1.17869E+00
 -1      2306 1.35916E+00
 -1      2307 1.34600E+00
 -1      2308 1.35017E+00
 -1      2309 1.43537E+00
 -1      2310 1.37032E+00
 -1      2311 1.54529E+00
 -1      2312 1.41534E+00
 -1      2313 1.46474E+00
 -1      2314 1.67967E+00
 -1      2315 1.78143E+00
 -1      2316 1.86743E+00
 -1      2317 2.04138E+00
 -1      2318 1.66938E+00
 -1      2319 1.98540E+00
 -1      2320 2.16002E+00
 -1      2321 2.84602E+00
 -1      2322 3.17459E+00
 -1      2323 2.82259E+00
 -1      2324 4.82609E+00
 -1      2325 4.89387E+00
 -1      2326 5.33471E+00
 -1      2327 2.98921E+00
 -1      2328 2.98651E+00
 -1      2329 5.08155E+00
 -1      2330 4.80827E+00
 -1      2331 4.68005E+00
 -1      2332 4.99865E+00
 -1      2333 2.57442E+00
 -1      2334 2.26787E+00
 -1      2335 4.71479E+00
 -1      2336 1.96803E+00
 -1      2337 1.69131E+00
 -1      2338 2.30932E+00
 -1      2339 1.76867E+00
 -1      2340 1.67380E+00
 -1      2341 2.08685E+00
 -1      2342 1.36374E+00
 -1      2343 1.27155E+00
 -1      2344 1.85415E+00
 -1      2345 1.21078E+00
 -1      2346 1.28219E+00
 -1      2347 1.48332E+00
 -1      2348 1.17513E+00
 -1      2349 1.14107E+00
 -1      2350 1.31549E+00
 -1      2351 1.02093E+00
 -1      2352 9.26153E-01
 -1      2353 1.08829E+00
 -1      2354 8.62218E-01
 -1      2355 8.00492E-01
 -1      2356 9.04215E-01
 -1      2357 7.19512E-01
 -1      2358 6.85583E-01
 -1      2359 7.59300E-01
 -1      2360 2.31365E+01
 -1      2361 2.36179E+01
 -1      2362 5.49410E-01
 -1      2363 6.28477E-01
 -1      2364 4.42582E-01
 -1      2365 4.95996E-01
 -1      2366 4.95996E-01
 -1      2367 3.77327E-01
 -1      2368 4.09954E-01
 -1      2369 4.09954E-01
 -1      2370 3.15105E-01
 -1      2371 3.46216E-01
 -1      2372 3.46216E-01
 -1      2373 2.59600E-01
 -1      2374 2.87353E-01
 -1      2375 2.87353E-01
 -1      2376 2.15459E-01
 -1      2377 2.37530E-01
 -1      2378 2.37530E-01
 -1      2379 1.78019E-01
 -1      2380 1.96143E-01
 -1      2381 1.96143E-01
 -1      2382 1.47523E-01
 -1      2383 1.61595E-01
 -1      2384 1.60402E-01
 -1      2385 1.22996E-01
 -1      2386 1.33772E-01
 -1      2387 1.30227E-01
 -1      2388 1.05386E-01
 -1      2389 1.12486E-01
 -1      2390 1.05966E-01
 -1      2391 9.61134E-02
 -1      2392 9.77362E-02
 -1      2393 8.78066E-02
 -1      2394 1.03211E-01
 -1      2395 1.01693E-01
 -1      2396 8.57365E-02
 -1      2397 1.21220E-01
 -1      2398 1.12134E-01
 -1      2399 1.00239E-01
 -1      2400 1.52361E-01
 -1      2401 1.37120E-01
 -1      2402 1.25061E-01
 -1      2403 2.09469E-01
 -1      2404 1.81457E-01
 -1      2405 1.70056E-01
 -1      2406 2.82616E-01
 -1      2407 2.44132E-01
 -1      2408 2.33815E-01
 -1      2409 3.67194E-01
 -1      2410 3.22717E-01
 -1      2411 3.08580E-01
 -1      2412 4.59860E-01
 -1      2413 4.11514E-01
 -1      2414 3.93002E-01
 -1      2415 5.53290E-01
 -1      2416 5.05524E-01
 -1      2417 4.82986E-01
 -1      2418 6.34791E-01
 -1      2419 5.95148E-01
 -1      2420 5.70507E-01
 -1      2421 7.08664E-01
 -1      2422 6.70492E-01
 -1      2423 6.48065E-01
 -1      2424 7.46832E-01
 -1      2425 7.34191E-01
 -1      2426 7.09294E-01
 -1      2427 7.75705E-01
 -1      2428 7.75705E-01
 -1      2429 7.63693E-01
 -1      2430 7.42815E-01
 -1      2431 7.76866E-01
 -1      2432 7.93727E-01
 -1      2433 6.44805E-01
 -1      2434 7.18106E-01
 -1      2435 7.70181E-01
 -1      2436 7.25283E-01
 -1      2437 7.03408E-01
 -1      2438 8.04075E-01
 -1      2439 1.01892E+00
 -1      2440 7.74878E-01
 -1      2441 9.12272E-01
 -1      2442 1.48183E+00
 -1      2443 1.21948E+00
 -1      2444 1.16243E+00
 -1      2445 1.71518E+00
 -1      2446 1.61506E+00
 -1      2447 1.49621E+00
 -1      2448 1.93454E+00
 -1      2449 1.93454E+00
 -1      2450 1.84879E+00
 -1      2451 1.85633E+00
 -1      2452 1.87481E+00
 -1      2453 2.00842E+00
 -1      2454 1.95887E+00
 -1      2455 1.85366E+00
 -1      2456 1.94601E+00
 -1      2457 1.75250E+00
 -1      2458 1.81981E+00
 -1      2459 1.80428E+00
 -1      2460 1.36690E+00
 -1      2461 1.64037E+00
 -1      2462 1.55309E+00
 -1      2463 9.83111E-01
 -1      2464 1.23727E+00
 -1      2465 1.31133E+00
 -1      2466 6.85775E-01
 -1      2467 8.48876E-01
 -1      2468 1.04747E+00
 -1      2469 6.96592E-01
 -1      2470 6.31250E-01
 -1      2471 8.58707E-01
 -1      2472 6.64298E-01
 -1      2473 6.15723E-01
 -1      2474 7.23314E-01
 -1      2475 6.59641E-01
 -1      2476 6.36734E-01
 -1      2477 6.14880E-01
 -1      2478 5.83607E-01
 -1      2479 6.23503E-01
 -1      2480 5.51178E-01
 -1      2481 5.25213E-01
 -1      2482 5.61750E-01
 -1      2483 4.93183E-01
 -1      2484 4.76987E-01
 -1      2485 5.08541E-01
 -1      2486 4.54652E-01
 -1      2487 4.53568E-01
 -1      2488 3.76971E-01
 -1      2489 3.10565E-01
 -1      2490 5.40423E-01
 -1      2491 4.75297E-01
 -1      2492 4.94549E-01
 -1      2493 3.00707E-01
 -1      2494 3.59655E-01
 -1      2495 2.96165E-01
 -1      2496 3.20334E-01
 -1      2497 3.47797E-01
 -1      2498 3.81823E-01
 -1      2499 6.33633E-01
 -1      2500 6.07712E-01
 -1      2501 6.60164E-01
 -1      2502 6.34777E-01
 -1      2503 6.33633E-01
 -1      2504 7.27453E-01
 -1      2505 6.42010E-01
 -1      2506 6.42010E-01
 -1      2507 7.34686E-01
 -1      2508 6.18348E-01
 -1      2509 6.42010E-01
 -1      2510 7.41918E-01
 -1      2511 4.87931E-01
 -1      2512 5.57007E-01
 -1      2513 6.80577E-01
 -1      2514 3.87558E-01
 -1      2515 4.26462E-01
 -1      2516 5.57768E-01
 -1      2517 4.60469E-01
 -1      2518 3.87558E-01
 -1      2519 4.96299E-01
 -1      2520 4.82809E-01
 -1      2521 2.93754E+01
 -1      2522 2.90350E+01
 -1      2523 7.07544E-01
 -1      2524 8.00998E-01
 -1      2525 6.28477E-01
 -1      2526 1.43934E+01
 -1      2527 2.02824E+01
 -1      2528 2.53016E+01
 -1      2529 2.65984E+01
 -1      2530 1.67630E+00
 -1      2531 1.30273E+00
 -1      2532 8.38678E-01
 -1      2533 9.60099E-01
 -1      2534 9.19949E+00
 -1      2535 1.26786E+01
 -1      2536 7.32282E+00
 -1      2537 8.40557E+00
 -1      2538 5.22525E-01
 -1      2539 5.44518E-01
 -1      2540 4.71764E-01
 -1      2541 4.44520E-01
 -1      2542 9.69467E+00
 -1      2543 9.68726E+00
 -1      2544 3.03422E+01
 -1      2545 2.66176E+01
 -1      2546 9.18145E+00
 -1      2547 8.83345E+00
 -1      2548 6.98184E+00
 -1      2549 6.20606E+00
 -1      2550 6.36479E+00
 -1      2551 1.00314E+01
 -1      2552 7.73091E+00
 -1      2553 1.67642E+01
 -1      2554 1.18922E+01
 -1      2555 6.11228E+00
 -1      2556 7.19290E+00
 -1      2557 2.21277E+01
 -1      2558 2.00082E+01
 -1      2559 3.40667E+01
 -1      2560 3.40667E+01
 -1      2561 2.49034E+01
 -1      2562 2.94851E+01
 -1      2563 2.94851E+01
 -1      2564 1.81770E+01
 -1      2565 2.07435E+01
 -1      2566 1.11079E+01
 -1      2567 1.51267E+01
 -1      2568 6.39139E+00
 -1      2569 6.03987E+00
 -1      2570 9.59983E+00
 -1      2571 7.70731E+00
 -1      2572 1.01277E+01
 -1      2573 1.01278E+01
 -1      2574 8.35222E+00
 -1      2575 9.79364E+00
 -1      2576 6.21466E+00
 -1      2577 8.28534E+00
 -1      2578 6.77313E+00
 -1      2579 1.38692E+01
 -1      2580 9.88400E+00
 -1      2581 2.28377E+01
 -1      2582 1.61054E+01
 -1      2583 2.85719E+01
 -1      2584 2.91438E+01
 -1      2585 1.62237E+00
 -1      2586 1.76549E+00
 -1      2587 1.32846E+00
 -1      2588 1.18974E+00
 -1      2589 6.33924E+00
 -1      2590 6.99262E+00
 -1      2591 8.36675E+00
 -1      2592 5.22338E-01
 -1      2593 6.62646E-01
 -1      2594 7.20389E-01
 -1      2595 8.00998E-01
 -1      2596 1.24389E+00
 -1      2597 5.60759E+00
 -1      2598 2.36179E+01
 -1      2599 1.78075E+01
 -1      2600 7.31932E+00
 -1      2601 1.18106E+01
 -1      2602 2.53016E+01
 -1      2603 1.58098E+01
 -1      2604 4.14560E-01
 -1      2605 4.14560E-01
 -1      2606 7.70804E+00
 -1      2607 4.87023E-01
 -1      2608 4.28853E-01
 -1      2609 4.64683E-01
 -1      2610 5.62956E-01
 -1      2611 7.51415E+00
 -1      2612 5.67029E+00
 -1      2613 2.88035E+01
 -1      2614 9.67848E-01
 -1      2615 1.12410E+01
 -1      2616 8.75780E+00
 -1      2617 8.13288E+00
 -1      2618 5.76058E+00
 -1      2619 2.07435E+01
 -1      2620 5.33633E+00
 -1      2621 7.58346E+00
 -1      2622 2.21277E+01
 -1      2623 5.71619E+00
 -1      2624 1.43937E+01
 -1      2625 9.28884E+00
 -1      2626 5.04639E+00
 -1      2627 8.91737E-01
 -1      2628 2.62757E+01
 -1      2629 2.25511E+01
 -1      2630 2.62757E+01
 -1      2631 5.90314E+00
 -1      2632 1.35333E+01
 -1      2633 7.97571E+00
 -1      2634 3.83074E-01
 -1      2635 5.55694E-01
 -1      2636 4.22610E-01
 -1      2637 4.07972E-01
 -1      2638 4.00308E-01
 -1      2639 3.87465E-01
 -1      2640 3.50851E-01
 -1      2641 4.36074E-01
 -1      2642 4.36074E-01
 -1      2643 4.72109E-01
 -1      2644 4.24117E-01
 -1      2645 3.49509E-01
 -1      2646 7.19445E-01
 -1      2647 7.97448E-01
 -1      2648 9.15889E+00
 -1      2649 1.08737E+01
 -1      2650 6.12706E-01
 -1      2651 7.06159E-01
 -1      2652 5.31152E-01
 -1      2653 1.67950E+01
 -1      2654 2.17490E+01
 -1      2655 4.96310E+00
 -1      2656 6.12242E+00
 -1      2657 5.52586E-01
 -1      2658 4.96219E-01
 -1      2659 4.89944E-01
 -1      2660 4.34018E-01
 -1      2661 3.93632E-01
 -1      2662 4.13652E-01
 -1      2663 3.64576E-01
 -1      2664 3.66990E-01
 -1      2665 3.39829E-01
 -1      2666 3.13088E-01
 -1      2667 3.21876E-01
 -1      2668 2.88193E-01
 -1      2669 2.63849E-01
 -1      2670 2.72232E-01
 -1      2671 2.47759E-01
 -1      2672 2.24840E-01
 -1      2673 2.31246E-01
 -1      2674 2.08130E-01
 -1      2675 1.87758E-01
 -1      2676 1.98447E-01
 -1      2677 1.72943E-01
 -1      2678 1.56197E-01
 -1      2679 1.66923E-01
 -1      2680 1.42649E-01
 -1      2681 1.27883E-01
 -1      2682 1.38561E-01
 -1      2683 1.15518E-01
 -1      2684 1.03156E-01
 -1      2685 1.12648E-01
 -1      2686 9.17463E-02
 -1      2687 8.18742E-02
 -1      2688 8.88722E-02
 -1      2689 7.09334E-02
 -1      2690 6.54407E-02
 -1      2691 6.65216E-02
 -1      2692 6.56940E-02
 -1      2693 7.22910E-02
 -1      2694 5.58340E-02
 -1      2695 8.37025E-02
 -1      2696 9.39839E-02
 -1      2697 6.74988E-02
 -1      2698 1.16888E-01
 -1      2699 1.44436E-01
 -1      2700 1.01815E-01
 -1      2701 1.72451E-01
 -1      2702 2.06682E-01
 -1      2703 1.52734E-01
 -1      2704 2.41161E-01
 -1      2705 2.83443E-01
 -1      2706 2.15229E-01
 -1      2707 3.25839E-01
 -1      2708 3.77262E-01
 -1      2709 2.92103E-01
 -1      2710 4.29104E-01
 -1      2711 4.90110E-01
 -1      2712 3.86340E-01
 -1      2713 5.52961E-01
 -1      2714 6.22756E-01
 -1      2715 5.01033E-01
 -1      2716 6.98121E-01
 -1      2717 7.73807E-01
 -1      2718 6.39249E-01
 -1      2719 8.63447E-01
 -1      2720 9.38886E-01
 -1      2721 8.04255E-01
 -1      2722 1.04116E+00
 -1      2723 1.10571E+00
 -1      2724 9.96170E-01
 -1      2725 1.21890E+00
 -1      2726 1.28462E+00
 -1      2727 1.21163E+00
 -1      2728 1.39619E+00
 -1      2729 1.50194E+00
 -1      2730 1.43640E+00
 -1      2731 1.69724E+00
 -1      2732 1.78661E+00
 -1      2733 1.74326E+00
 -1      2734 2.04408E+00
 -1      2735 2.08910E+00
 -1      2736 2.19603E+00
 -1      2737 2.41900E+00
 -1      2738 2.73570E+00
 -1      2739 2.78341E+00
 -1      2740 3.57331E+00
 -1      2741 3.37526E+00
 -1      2742 3.95093E+00
 -1      2743 2.97881E+00
 -1      2744 3.83943E+00
 -1      2745 4.39209E+00
 -1      2746 5.33471E+00
 -1      2747 6.98621E+00
 -1      2748 7.51415E+00
 -1      2749 5.60949E+00
 -1      2750 7.43125E+00
 -1      2751 5.84563E+00
 -1      2752 3.74001E+00
 -1      2753 2.70061E+00
 -1      2754 2.77798E+00
 -1      2755 2.55429E+00
 -1      2756 2.24423E+00
 -1      2757 3.16805E+00
 -1      2758 1.84852E+00
 -1      2759 1.78776E+00
 -1      2760 2.54866E+00
 -1      2761 1.55118E+00
 -1      2762 1.44413E+00
 -1      2763 1.91639E+00
 -1      2764 1.25215E+00
 -1      2765 1.13201E+00
 -1      2766 1.48784E+00
 -1      2767 1.00791E+00
 -1      2768 9.43970E-01
 -1      2769 1.17177E+00
 -1      2770 7.88371E-01
 -1      2771 7.07391E-01
 -1      2772 8.92061E-01
 -1      2773 4.21285E-01
 -1      2774 4.74699E-01
 -1      2775 2.49830E-01
 -1      2776 2.77582E-01
 -1      2777 2.09580E-01
 -1      2778 2.31650E-01
 -1      2779 2.21880E-01
 -1      2780 1.73348E-01
 -1      2781 1.92665E-01
 -1      2782 1.86785E-01
 -1      2783 1.41813E-01
 -1      2784 1.58237E-01
 -1      2785 1.54759E-01
 -1      2786 1.14825E-01
 -1      2787 1.28576E-01
 -1      2788 1.26411E-01
 -1      2789 9.27069E-02
 -1      2790 1.03217E-01
 -1      2791 1.01566E-01
 -1      2792 7.46050E-02
 -1      2793 8.22545E-02
 -1      2794 7.95053E-02
 -1      2795 7.79098E-02
 -1      2796 7.23305E-02
 -1      2797 6.67784E-02
 -1      2798 9.24904E-02
 -1      2799 8.35675E-02
 -1      2800 7.01615E-02
 -1      2801 1.27080E-01
 -1      2802 1.11181E-01
 -1      2803 9.45099E-02
 -1      2804 1.81735E-01
 -1      2805 1.52639E-01
 -1      2806 1.38759E-01
 -1      2807 2.46916E-01
 -1      2808 2.12253E-01
 -1      2809 1.94836E-01
 -1      2810 3.22995E-01
 -1      2811 2.82893E-01
 -1      2812 2.61331E-01
 -1      2813 4.08735E-01
 -1      2814 3.64415E-01
 -1      2815 3.38728E-01
 -1      2816 5.00393E-01
 -1      2817 4.54729E-01
 -1      2818 4.26143E-01
 -1      2819 5.90642E-01
 -1      2820 5.48784E-01
 -1      2821 5.20528E-01
 -1      2822 6.73075E-01
 -1      2823 6.37374E-01
 -1      2824 6.15651E-01
 -1      2825 7.37125E-01
 -1      2826 7.11598E-01
 -1      2827 7.00906E-01
 -1      2828 8.24832E-01
 -1      2829 7.95960E-01
 -1      2830 7.98264E-01
 -1      2831 8.90354E-01
 -1      2832 8.89193E-01
 -1      2833 9.21459E-01
 -1      2834 9.14656E-01
 -1      2835 9.39365E-01
 -1      2836 1.03483E+00
 -1      2837 1.03111E+00
 -1      2838 9.72505E-01
 -1      2839 1.14169E+00
 -1      2840 1.21555E+00
 -1      2841 1.16596E+00
 -1      2842 1.33439E+00
 -1      2843 1.95907E+00
 -1      2844 1.75851E+00
 -1      2845 2.01220E+00
 -1      2846 1.80348E+00
 -1      2847 1.67025E+00
 -1      2848 2.26634E+00
 -1      2849 2.46320E+00
 -1      2850 2.24384E+00
 -1      2851 2.41788E+00
 -1      2852 3.28382E+00
 -1      2853 3.34355E+00
 -1      2854 3.73860E+00
 -1      2855 2.82840E+00
 -1      2856 2.83107E+00
 -1      2857 4.16621E+00
 -1      2858 2.53798E+00
 -1      2859 2.67704E+00
 -1      2860 3.56210E+00
 -1      2861 1.96047E+00
 -1      2862 2.07260E+00
 -1      2863 2.94536E+00
 -1      2864 1.39804E+00
 -1      2865 1.52767E+00
 -1      2866 2.04719E+00
 -1      2867 1.30870E+00
 -1      2868 1.44293E+00
 -1      2869 1.65927E+00
 -1      2870 1.03113E+00
 -1      2871 1.08566E+00
 -1      2872 1.48112E+00
 -1      2873 7.78270E-01
 -1      2874 8.59139E-01
 -1      2875 1.08609E+00
 -1      2876 7.00264E-01
 -1      2877 7.27829E-01
 -1      2878 8.63654E-01
 -1      2879 5.85121E-01
 -1      2880 6.21258E-01
 -1      2881 7.34206E-01
 -1      2882 4.93183E-01
 -1      2883 5.15041E-01
 -1      2884 5.85121E-01
 -1      2885 4.32778E-01
 -1      2886 4.49451E-01
 -1      2887 4.71309E-01
 -1      2888 3.77873E-01
 -1      2889 8.58748E-01
 -1      2890 8.58748E-01
 -1      2891 5.87310E-01
 -1      2892 4.64683E-01
 -1      2893 6.16380E-01
 -1      2894 6.14914E-01
 -1      2895 5.16588E-01
 -1      2896 8.71417E-01
 -1      2897 8.64184E-01
 -1      2898 9.95479E-01
 -1      2899 8.18201E-01
 -1      2900 7.50912E-01
 -1      2901 7.72951E-01
 -1      2902 9.49496E-01
 -1      2903 1.19811E+01
 -1      2904 1.48352E+01
 -1      2905 8.71417E-01
 -1      2906 8.71417E-01
 -1      2907 1.00092E+00
 -1      2908 7.83115E-01
 -1      2909 8.44456E-01
 -1      2910 9.73954E-01
 -1      2911 5.94705E-01
 -1      2912 6.56174E-01
 -1      2913 8.20053E-01
 -1      2914 5.08250E-01
 -1      2915 5.87317E-01
 -1      2916 4.92479E-01
 -1      2917 4.33539E-01
 -1      2918 4.35153E+00
 -1      2919 6.55840E+00
 -1      2920 7.02026E-01
 -1      2921 6.67330E-01
 -1      2922 8.28562E-01
 -1      2923 3.79548E+00
 -1      2924 4.75350E+00
 -1      2925 1.48575E+01
 -1      2926 1.90174E+01
 -1      2927 2.95807E-01
 -1      2928 3.26917E-01
 -1      2929 2.58284E-01
 -1      2930 3.54598E-01
 -1      2931 3.87225E-01
 -1      2932 3.04188E-01
 -1      2933 6.03391E-01
 -1      2934 5.54031E-01
 -1      2935 4.01353E-01
 -1      2936 4.66738E-01
 -1      2937 5.94483E+00
 -1      2938 7.23393E+00
 -1      2939 4.40398E+00
 -1      2940 4.36074E-01
 -1      2941 4.24085E-01
 -1      2942 3.59991E-01
 -1      2943 3.61466E-01
 -1      2944 4.22438E-01
 -1      2945 4.36322E-01
 -1      2946 4.93479E+00
 -1      2947 4.27394E+00
 -1      2948 4.18169E+00
 -1      2949 6.21340E+00
 -1      2950 5.33430E+00
 -1      2951 1.01280E+01
 -1      2952 1.31783E+01
 -1      2953 4.58139E+00
 -1      2954 5.27342E+00
 -1      2955 1.34402E+01
 -1      2956 1.01962E+01
 -1      2957 2.00509E+01
 -1      2958 1.55610E+01
 -1      2959 9.25034E+00
 -1      2960 7.38948E+00
 -1      2961 5.95694E+00
 -1      2962 4.43210E+00
 -1      2963 1.93046E+01
 -1      2964 2.38863E+01
 -1      2965 7.06344E+00
 -1      2966 5.46477E+00
 -1      2967 7.20389E-01
 -1      2968 2.13804E+01
 -1      2969 2.16119E+01
 -1      2970 4.96299E-01
 -1      2971 1.67256E+01
 -1      2972 1.29649E+01
 -1      2973 1.08915E+01
 -1      2974 8.65531E+00
 -1      2975 9.80964E+00
 -1      2976 2.29825E+01
 -1      2977 1.92490E+01
 -1      2978 4.35567E+00
 -1      2979 3.86053E+00
 -1      2980 7.49554E+00
 -1      2981 6.98973E+00
 -1      2982 5.34219E+00
 -1      2983 4.45683E-01
 -1      2984 4.54022E-01
 -1      2985 3.68006E-01
 -1      2986 3.42909E-01
 -1      2987 3.87186E-01
 -1      2988 3.99963E-01
 -1      2989 1.45575E+01
 -1      2990 9.89904E+00
 -1      2991 1.29663E+01
 -1      2992 3.92206E+00
 -1      2993 6.88985E+00
 -1      2994 6.52255E+00
 -1      2995 5.49093E+00
 -1      2996 3.80731E+00
 -1      2997 2.67646E+00
 -1      2998 2.37663E+00
 -1      2999 3.11815E+00
 -1      3000 7.09720E+00
 -1      3001 6.11535E-01
 -1      3002 4.91169E-01
 -1      3003 4.76770E-01
 -1      3004 3.65928E-01
 -1      3005 5.85691E+00
 -1      3006 1.44065E+01
 -1      3007 3.86998E-01
 -1      3008 3.67370E-01
 -1      3009 4.17074E-01
 -1      3010 4.96344E-01
 -1      3011 3.58724E+00
 -1      3012 4.96299E-01
 -1      3013 7.60104E+00
 -1      3014 5.09011E+00
 -1      3015 6.68198E+00
 -1      3016 1.55593E+01
 -1      3017 1.34187E+01
 -1      3018 5.91844E+00
 -1      3019 8.29683E+00
 -1      3020 1.92514E+01
 -1      3021 1.26847E+01
 -1      3022 1.51849E+01
 -1      3023 5.29558E+00
 -1      3024 1.13635E+01
 -1      3025 5.75552E-01
 -1      3026 3.69484E+00
 -1      3027 3.11202E+00
 -1      3028 3.74864E+00
 -1      3029 1.14522E+01
 -1      3030 3.06775E+00
 -1      3031 5.30678E-01
 -1      3032 1.60953E+01
 -1      3033 7.83833E+00
 -1      3034 7.48331E+00
 -1      3035 5.48819E+00
 -1      3036 4.07333E-01
 -1      3037 4.21800E-01
 -1      3038 3.58007E-01
 -1      3039 3.49999E-01
 -1      3040 5.36111E-01
 -1      3041 5.36111E-01
 -1      3042 6.34518E-01
 -1      3043 6.56192E-01
 -1      3044 4.02252E+00
 -1      3045 3.09961E+00
 -1      3046 4.40995E-01
 -1      3047 2.91014E-01
 -1      3048 3.02972E-01
 -1      3049 4.54022E-01
 -1      3050 3.22633E-01
 -1      3051 3.02267E-01
 -1      3052 2.98819E-01
 -1      3053 2.74072E-01
 -1      3054 2.54463E-01
 -1      3055 2.63031E-01
 -1      3056 2.38135E-01
 -1      3057 2.39974E-01
 -1      3058 2.23644E-01
 -1      3059 2.07554E-01
 -1      3060 2.14442E-01
 -1      3061 1.93941E-01
 -1      3062 1.77232E-01
 -1      3063 1.86339E-01
 -1      3064 1.65938E-01
 -1      3065 1.51124E-01
 -1      3066 1.61432E-01
 -1      3067 1.38840E-01
 -1      3068 1.25292E-01
 -1      3069 1.37854E-01
 -1      3070 1.12790E-01
 -1      3071 1.00424E-01
 -1      3072 1.13068E-01
 -1      3073 8.79834E-02
 -1      3074 7.65736E-02
 -1      3075 8.81254E-02
 -1      3076 6.41084E-02
 -1      3077 5.31676E-02
 -1      3078 6.32196E-02
 -1      3079 4.82914E-02
 -1      3080 4.85446E-02
 -1      3081 4.58781E-02
 -1      3082 5.50771E-02
 -1      3083 6.64886E-02
 -1      3084 4.75344E-02
 -1      3085 8.57355E-02
 -1      3086 1.08640E-01
 -1      3087 7.33138E-02
 -1      3088 1.33416E-01
 -1      3089 1.61432E-01
 -1      3090 1.17337E-01
 -1      3091 1.93062E-01
 -1      3092 2.27541E-01
 -1      3093 1.73744E-01
 -1      3094 2.66956E-01
 -1      3095 3.09352E-01
 -1      3096 2.44790E-01
 -1      3097 3.58041E-01
 -1      3098 4.09883E-01
 -1      3099 3.32894E-01
 -1      3100 4.69090E-01
 -1      3101 5.31940E-01
 -1      3102 4.40790E-01
 -1      3103 6.02216E-01
 -1      3104 6.77581E-01
 -1      3105 5.70273E-01
 -1      3106 7.57903E-01
 -1      3107 8.47543E-01
 -1      3108 7.20870E-01
 -1      3109 9.47121E-01
 -1      3110 1.04940E+00
 -1      3111 9.00769E-01
 -1      3112 1.18510E+00
 -1      3113 1.29829E+00
 -1      3114 1.13605E+00
 -1      3115 1.51828E+00
 -1      3116 1.62985E+00
 -1      3117 1.49174E+00
 -1      3118 1.91008E+00
 -1      3119 2.10538E+00
 -1      3120 1.99197E+00
 -1      3121 2.46171E+00
 -1      3122 2.71919E+00
 -1      3123 2.62854E+00
 -1      3124 3.28682E+00
 -1      3125 3.61672E+00
 -1      3126 3.55250E+00
 -1      3127 4.15348E+00
 -1      3128 4.99109E+00
 -1      3129 4.79849E+00
 -1      3130 4.40203E+00
 -1      3131 3.64814E+00
 -1      3132 1.37534E-01
 -1      3133 1.52646E-01
 -1      3134 3.87486E+00
 -1      3135 3.47916E+00
 -1      3136 2.58092E+00
 -1      3137 2.34434E+00
 -1      3138 3.90711E+00
 -1      3139 1.80436E+00
 -1      3140 1.61239E+00
 -1      3141 2.46888E+00
 -1      3142 1.35127E+00
 -1      3143 1.22717E+00
 -1      3144 1.66779E+00
 -1      3145 9.39091E-01
 -1      3146 7.83491E-01
 -1      3147 7.03222E-01
 -1      3148 1.11860E+00
 -1      3149 1.14563E+00
 -1      3150 1.17259E+00
 -1      3151 1.66606E-01
 -1      3152 1.83521E-01
 -1      3153 1.49381E-01
 -1      3154 3.98830E+00
 -1      3155 3.00968E+00
 -1      3156 1.96990E-01
 -1      3157 2.15170E-01
 -1      3158 1.76811E-01
 -1      3159 1.10556E-01
 -1      3160 1.23793E-01
 -1      3161 1.21679E-01
 -1      3162 8.58210E-02
 -1      3163 9.74290E-02
 -1      3164 9.48110E-02
 -1      3165 6.40536E-02
 -1      3166 7.45061E-02
 -1      3167 7.03693E-02
 -1      3168 5.03056E-02
 -1      3169 5.25801E-02
 -1      3170 4.75808E-02
 -1      3171 5.95285E-02
 -1      3172 5.38709E-02
 -1      3173 3.96726E-02
 -1      3174 9.60595E-02
 -1      3175 7.73688E-02
 -1      3176 6.10781E-02
 -1      3177 1.42778E-01
 -1      3178 1.17219E-01
 -1      3179 1.00078E-01
 -1      3180 1.98709E-01
 -1      3181 1.68191E-01
 -1      3182 1.46651E-01
 -1      3183 2.65337E-01
 -1      3184 2.29360E-01
 -1      3185 2.02715E-01
 -1      3186 3.43641E-01
 -1      3187 3.02221E-01
 -1      3188 2.70250E-01
 -1      3189 4.35026E-01
 -1      3190 3.89032E-01
 -1      3191 3.52524E-01
 -1      3192 5.36629E-01
 -1      3193 4.88238E-01
 -1      3194 4.51127E-01
 -1      3195 6.43178E-01
 -1      3196 5.96445E-01
 -1      3197 5.64155E-01
 -1      3198 7.46806E-01
 -1      3199 7.08283E-01
 -1      3200 6.89078E-01
 -1      3201 8.76282E-01
 -1      3202 8.17447E-01
 -1      3203 8.24824E-01
 -1      3204 1.02205E+00
 -1      3205 9.57693E-01
 -1      3206 9.76876E-01
 -1      3207 1.20497E+00
 -1      3208 1.15596E+00
 -1      3209 1.19220E+00
 -1      3210 1.42021E+00
 -1      3211 1.36236E+00
 -1      3212 1.48349E+00
 -1      3213 1.63715E+00
 -1      3214 1.50230E+00
 -1      3215 1.72297E+00
 -1      3216 2.55516E+00
 -1      3217 2.01220E+00
 -1      3218 2.18011E+00
 -1      3219 2.49445E+00
 -1      3220 2.78327E+00
 -1      3221 2.93481E+00
 -1      3222 5.10713E+00
 -1      3223 4.22677E+00
 -1      3224 4.91599E+00
 -1      3225 5.36874E+00
 -1      3226 2.94536E+00
 -1      3227 3.41074E+00
 -1      3228 2.35125E+00
 -1      3229 2.30637E+00
 -1      3230 1.80103E+00
 -1      3231 2.02406E+00
 -1      3232 2.67116E+00
 -1      3233 1.18291E+00
 -1      3234 1.35491E+00
 -1      3235 1.89785E+00
 -1      3236 1.01019E+00
 -1      3237 1.06063E+00
 -1      3238 1.32945E+00
 -1      3239 7.60358E-01
 -1      3240 8.39364E-01
 -1      3241 1.03634E+00
 -1      3242 6.08965E-01
 -1      3243 6.79045E-01
 -1      3244 7.84202E-01
 -1      3245 4.63572E-01
 -1      3246 5.07304E-01
 -1      3247 6.01228E-01
 -1      3248 4.53069E-01
 -1      3249 3.23678E-01
 -1      3250 3.16014E-01
 -1      3251 9.92362E+00
 -1      3252 1.18834E+01
 -1      3253 1.16012E+00
 -1      3254 1.15468E+00
 -1      3255 8.75997E-01
 -1      3256 1.00294E+00
 -1      3257 1.20158E+00
 -1      3258 1.17259E+00
 -1      3259 1.17259E+00
 -1      3260 1.33180E+00
 -1      3261 1.34427E+00
 -1      3262 9.64572E+00
 -1      3263 7.57233E+00
 -1      3264 1.32786E+01
 -1      3265 1.07552E+01
 -1      3266 4.17500E+00
 -1      3267 2.29793E-01
 -1      3268 2.48018E-01
 -1      3269 2.04904E-01
 -1      3270 6.07556E+00
 -1      3271 4.64302E+00
 -1      3272 4.50972E+00
 -1      3273 4.28604E+00
 -1      3274 3.17332E-01
 -1      3275 3.11057E-01
 -1      3276 2.46334E-01
 -1      3277 1.22836E+01
 -1      3278 1.19149E+01
 -1      3279 3.10287E-01
 -1      3280 3.44347E-01
 -1      3281 2.66608E-01
 -1      3282 2.94288E-01
 -1      3283 2.72707E-01
 -1      3284 2.38118E-01
 -1      3285 5.28564E+00
 -1      3286 3.97212E+00
 -1      3287 1.05943E+01
 -1      3288 8.47357E+00
 -1      3289 7.85584E+00
 -1      3290 6.90999E+00
 -1      3291 9.36291E+00
 -1      3292 1.10421E+01
 -1      3293 2.27309E+00
 -1      3294 2.76409E+00
 -1      3295 2.67416E+00
 -1      3296 1.15806E+01
 -1      3297 1.39700E+01
 -1      3298 8.07731E+00
 -1      3299 9.18477E+00
 -1      3300 1.20000E+01
 -1      3301 1.33706E+01
 -1      3302 9.71932E+00
 -1      3303 1.11245E+01
 -1      3304 1.14117E+01
 -1      3305 4.13289E-01
 -1      3306 3.09846E-01
 -1      3307 2.63309E-01
 -1      3308 4.00004E-01
 -1      3309 3.12696E-01
 -1      3310 3.12417E-01
 -1      3311 2.85523E-01
 -1      3312 3.90082E-01
 -1      3313 3.63020E+00
 -1      3314 3.96165E+00
 -1      3315 2.80368E+00
 -1      3316 7.08673E+00
 -1      3317 7.03222E-01
 -1      3318 7.61817E-01
 -1      3319 9.44702E-01
 -1      3320 8.30521E-01
 -1      3321 9.72614E+00
 -1      3322 4.65688E+00
 -1      3323 7.63040E-01
 -1      3324 7.37621E-01
 -1      3325 6.51806E+00
 -1      3326 3.90576E+00
 -1      3327 2.78327E+00
 -1      3328 4.22677E+00
 -1      3329 2.85825E+00
 -1      3330 3.74819E+00
 -1      3331 3.89955E+00
 -1      3332 2.04719E+00
 -1      3333 2.47999E+00
 -1      3334 3.23678E-01
 -1      3335 2.88841E-01
 -1      3336 3.25154E-01
 -1      3337 8.10189E+00
 -1      3338 9.39733E-01
 -1      3339 8.03735E-01
 -1      3340 9.29822E-01
 -1      3341 1.06702E+01
 -1      3342 9.24090E+00
 -1      3343 1.15468E+00
 -1      3344 1.11414E+00
 -1      3345 1.14492E+00
 -1      3346 1.31932E+00
 -1      3347 9.28643E+00
 -1      3348 3.54440E-01
 -1      3349 3.79828E-01
 -1      3350 2.61965E-01
 -1      3351 5.21653E+00
 -1      3352 3.38408E-01
 -1      3353 3.71959E-01
 -1      3354 2.59308E-01
 -1      3355 2.82767E-01
 -1      3356 8.51791E+00
 -1      3357 3.29965E-01
 -1      3358 2.47390E-01
 -1      3359 3.31411E-01
 -1      3360 5.63456E+00
 -1      3361 3.03545E+00
 -1      3362 5.10208E+00
 -1      3363 3.20200E-01
 -1      3364 3.20200E-01
 -1      3365 2.83887E-01
 -1      3366 2.61705E-01
 -1      3367 3.22643E-01
 -1      3368 3.23281E-01
 -1      3369 6.28149E+00
 -1      3370 5.56721E+00
 -1      3371 4.01245E+00
 -1      3372 1.05751E+01
 -1      3373 7.68520E+00
 -1      3374 9.77556E+00
 -1      3375 9.03521E+00
 -1      3376 2.86089E-01
 -1      3377 3.21453E-01
 -1      3378 3.30814E-01
 -1      3379 4.32575E+00
 -1      3380 3.74819E+00
 -1      3381 2.73917E+00
 -1      3382 2.93481E+00
 -1      3383 2.17505E-01
 -1      3384 2.06464E-01
 -1      3385 2.02584E-01
 -1      3386 1.88093E-01
 -1      3387 1.80115E-01
 -1      3388 1.79760E-01
 -1      3389 1.66147E-01
 -1      3390 1.67901E-01
 -1      3391 1.55515E-01
 -1      3392 1.44220E-01
 -1      3393 1.48936E-01
 -1      3394 1.35981E-01
 -1      3395 1.23697E-01
 -1      3396 1.30064E-01
 -1      3397 1.14328E-01
 -1      3398 1.01826E-01
 -1      3399 1.12455E-01
 -1      3400 9.17820E-02
 -1      3401 7.93413E-02
 -1      3402 9.30418E-02
 -1      3403 6.89617E-02
 -1      3404 5.64965E-02
 -1      3405 7.26183E-02
 -1      3406 5.46378E-02
 -1      3407 4.97615E-02
 -1      3408 6.03799E-02
 -1      3409 5.23684E-02
 -1      3410 5.89009E-02
 -1      3411 6.11280E-02
 -1      3412 7.04605E-02
 -1      3413 8.97074E-02
 -1      3414 7.52945E-02
 -1      3415 1.12517E-01
 -1      3416 1.37294E-01
 -1      3417 1.09664E-01
 -1      3418 1.65818E-01
 -1      3419 1.97448E-01
 -1      3420 1.60998E-01
 -1      3421 2.33244E-01
 -1      3422 2.72660E-01
 -1      3423 2.25318E-01
 -1      3424 3.17581E-01
 -1      3425 3.66270E-01
 -1      3426 3.06035E-01
 -1      3427 4.22567E-01
 -1      3428 4.81774E-01
 -1      3429 4.07253E-01
 -1      3430 5.52236E-01
 -1      3431 6.22512E-01
 -1      3432 5.34013E-01
 -1      3433 7.10604E-01
 -1      3434 7.90926E-01
 -1      3435 6.92568E-01
 -1      3436 9.00769E-01
 -1      3437 1.00035E+00
 -1      3438 8.90503E-01
 -1      3439 1.13605E+00
 -1      3440 1.27175E+00
 -1      3441 1.13605E+00
 -1      3442 1.44524E+00
 -1      3443 1.66523E+00
 -1      3444 1.44524E+00
 -1      3445 1.97652E+00
 -1      3446 2.25675E+00
 -1      3447 1.93002E+00
 -1      3448 2.90950E+00
 -1      3449 3.26584E+00
 -1      3450 2.89405E+00
 -1      3451 3.82165E+00
 -1      3452 4.38928E+00
 -1      3453 4.10262E+00
 -1      3454 3.22643E-01
 -1      3455 2.87917E-01
 -1      3456 3.15274E-01
 -1      3457 8.60047E-02
 -1      3458 9.91314E-02
 -1      3459 8.50437E+00
 -1      3460 8.58947E+00
 -1      3461 4.30877E+00
 -1      3462 3.76879E+00
 -1      3463 1.96950E+00
 -1      3464 1.70839E+00
 -1      3465 3.80939E+00
 -1      3466 1.34611E-01
 -1      3467 1.48571E-01
 -1      3468 1.10264E-01
 -1      3469 1.24005E-01
 -1      3470 1.01457E-01
 -1      3471 3.33407E+00
 -1      3472 3.07489E+00
 -1      3473 6.33453E-02
 -1      3474 7.46602E-02
 -1      3475 7.89806E-02
 -1      3476 4.26929E-02
 -1      3477 5.41665E-02
 -1      3478 5.84573E-02
 -1      3479 4.75925E-02
 -1      3480 4.40272E-02
 -1      3481 5.06128E-02
 -1      3482 7.39339E-02
 -1      3483 5.60937E-02
 -1      3484 6.04483E-02
 -1      3485 1.14934E-01
 -1      3486 9.37741E-02
 -1      3487 8.87896E-02
 -1      3488 1.64844E-01
 -1      3489 1.39431E-01
 -1      3490 1.33127E-01
 -1      3491 2.24973E-01
 -1      3492 1.94322E-01
 -1      3493 1.87102E-01
 -1      3494 2.96869E-01
 -1      3495 2.59985E-01
 -1      3496 2.51592E-01
 -1      3497 3.82938E-01
 -1      3498 3.37547E-01
 -1      3499 3.27282E-01
 -1      3500 4.81824E-01
 -1      3501 4.28612E-01
 -1      3502 4.13635E-01
 -1      3503 5.93296E-01
 -1      3504 5.33479E-01
 -1      3505 5.10964E-01
 -1      3506 7.27282E-01
 -1      3507 6.62176E-01
 -1      3508 6.31500E-01
 -1      3509 8.96166E-01
 -1      3510 8.25526E-01
 -1      3511 7.98624E-01
 -1      3512 1.11264E+00
 -1      3513 1.03123E+00
 -1      3514 1.03193E+00
 -1      3515 1.39861E+00
 -1      3516 1.26470E+00
 -1      3517 1.31905E+00
 -1      3518 1.70134E+00
 -1      3519 1.54395E+00
 -1      3520 1.61645E+00
 -1      3521 2.36038E+00
 -1      3522 2.27829E+00
 -1      3523 2.33874E+00
 -1      3524 3.68049E+00
 -1      3525 3.30544E+00
 -1      3526 3.86076E+00
 -1      3527 2.94536E+00
 -1      3528 3.05768E+00
 -1      3529 3.38487E+00
 -1      3530 1.13771E+00
 -1      3531 1.30854E+00
 -1      3532 9.87823E-01
 -1      3533 1.06914E+00
 -1      3534 1.34133E+00
 -1      3535 5.95646E-01
 -1      3536 5.05873E-01
 -1      3537 5.52371E-01
 -1      3538 7.47151E-01
 -1      3539 7.92656E+00
 -1      3540 8.09541E+00
 -1      3541 1.41656E+00
 -1      3542 1.55925E+00
 -1      3543 8.10422E+00
 -1      3544 8.50437E+00
 -1      3545 1.83344E-01
 -1      3546 1.97967E-01
 -1      3547 1.80046E+00
 -1      3548 1.92274E+00
 -1      3549 1.90183E+00
 -1      3550 2.18628E+00
 -1      3551 2.63240E+00
 -1      3552 3.34611E+00
 -1      3553 2.65729E+00
 -1      3554 1.89092E-01
 -1      3555 2.00668E-01
 -1      3556 7.89705E+00
 -1      3557 6.78755E+00
 -1      3558 6.10688E+00
 -1      3559 1.57895E-01
 -1      3560 1.71365E-01
 -1      3561 1.43125E-01
 -1      3562 5.48602E+00
 -1      3563 4.58778E+00
 -1      3564 7.58567E+00
 -1      3565 7.17559E+00
 -1      3566 8.01652E+00
 -1      3567 9.23147E+00
 -1      3568 2.17267E-01
 -1      3569 2.13819E-01
 -1      3570 1.80309E-01
 -1      3571 7.71524E+00
 -1      3572 7.79762E+00
 -1      3573 6.25515E+00
 -1      3574 5.63741E+00
 -1      3575 5.29600E+00
 -1      3576 5.63741E+00
 -1      3577 4.80298E+00
 -1      3578 8.02027E+00
 -1      3579 7.92836E+00
 -1      3580 3.18695E-01
 -1      3581 2.23002E-01
 -1      3582 2.04171E-01
 -1      3583 2.02827E-01
 -1      3584 6.95301E+00
 -1      3585 7.69186E+00
 -1      3586 5.02839E+00
 -1      3587 6.80563E+00
 -1      3588 6.60660E+00
 -1      3589 2.20878E+00
 -1      3590 2.85061E-01
 -1      3591 6.79850E+00
 -1      3592 1.64428E-01
 -1      3593 5.88768E+00
 -1      3594 1.23195E-01
 -1      3595 1.32366E+00
 -1      3596 1.03558E+00
 -1      3597 1.03558E+00
 -1      3598 1.62538E+00
 -1      3599 7.36770E+00
 -1      3600 3.67765E+00
 -1      3601 2.53323E-01
 -1      3602 2.50005E-01
 -1      3603 2.18023E-01
 -1      3604 1.72357E-01
 -1      3605 2.30656E-01
 -1      3606 2.53323E-01
 -1      3607 2.53323E-01
 -1      3608 2.17805E-01
 -1      3609 1.08094E+00
 -1      3610 9.38967E-01
 -1      3611 6.54032E-01
 -1      3612 1.58859E+00
 -1      3613 1.58859E+00
 -1      3614 1.88399E+00
 -1      3615 1.66901E+00
 -1      3616 1.66901E+00
 -1      3617 1.66901E+00
 -1      3618 1.65653E+00
 -1      3619 1.92581E+00
 -1      3620 1.99375E+00
 -1      3621 2.45859E-01
 -1      3622 2.39920E-01
 -1      3623 2.21399E-01
 -1      3624 2.08734E-01
 -1      3625 2.27324E-01
 -1      3626 1.87174E-01
 -1      3627 6.13924E+00
 -1      3628 4.68991E+00
 -1      3629 6.11997E+00
 -1      3630 8.09541E+00
 -1      3631 6.65665E+00
 -1      3632 6.73555E+00
 -1      3633 1.60025E-01
 -1      3634 6.19800E+00
 -1      3635 2.34115E-01
 -1      3636 2.50114E-01
 -1      3637 2.04731E-01
 -1      3638 5.56804E+00
 -1      3639 3.34611E+00
 -1      3640 5.14194E+00
 -1      3641 4.73191E+00
 -1      3642 2.92084E+00
 -1      3643 7.12184E+00
 -1      3644 6.95534E+00
 -1      3645 2.53327E-01
 -1      3646 2.53327E-01
 -1      3647 4.80582E+00
 -1      3648 2.10013E-01
 -1      3649 2.44603E-01
 -1      3650 2.07267E-01
 -1      3651 1.42087E+00
 -1      3652 1.38018E+00
 -1      3653 1.57199E+00
 -1      3654 1.55916E-01
 -1      3655 1.47583E-01
 -1      3656 1.42661E-01
 -1      3657 1.32029E-01
 -1      3658 1.30676E-01
 -1      3659 1.24594E-01
 -1      3660 1.16355E-01
 -1      3661 1.18320E-01
 -1      3662 1.09357E-01
 -1      3663 9.99874E-02
 -1      3664 1.03887E-01
 -1      3665 9.29172E-02
 -1      3666 8.28733E-02
 -1      3667 8.98189E-02
 -1      3668 7.53325E-02
 -1      3669 6.49529E-02
 -1      3670 7.52080E-02
 -1      3671 6.58287E-02
 -1      3672 6.39699E-02
 -1      3673 6.85429E-02
 -1      3674 6.65143E-02
 -1      3675 6.91212E-02
 -1      3676 7.19631E-02
 -1      3677 7.36851E-02
 -1      3678 8.52447E-02
 -1      3679 7.90714E-02
 -1      3680 9.94908E-02
 -1      3681 1.22301E-01
 -1      3682 9.78814E-02
 -1      3683 1.45669E-01
 -1      3684 1.74194E-01
 -1      3685 1.35496E-01
 -1      3686 2.03656E-01
 -1      3687 2.39452E-01
 -1      3688 1.88327E-01
 -1      3689 2.76738E-01
 -1      3690 3.21659E-01
 -1      3691 2.55076E-01
 -1      3692 3.69129E-01
 -1      3693 4.25426E-01
 -1      3694 3.39832E-01
 -1      3695 4.86540E-01
 -1      3696 5.57002E-01
 -1      3697 4.48415E-01
 -1      3698 6.37184E-01
 -1      3699 7.25277E-01
 -1      3700 5.89711E-01
 -1      3701 8.33336E-01
 -1      3702 9.43179E-01
 -1      3703 7.77953E-01
 -1      3704 1.09349E+00
 -1      3705 1.22919E+00
 -1      3706 1.03632E+00
 -1      3707 1.44524E+00
 -1      3708 1.61873E+00
 -1      3709 1.40268E+00
 -1      3710 1.93002E+00
 -1      3711 2.24131E+00
 -1      3712 1.93002E+00
 -1      3713 2.67310E+00
 -1      3714 3.32585E+00
 -1      3715 2.67310E+00
 -1      3716 4.51650E+00
 -1      3717 5.07232E+00
 -1      3718 5.98192E+00
 -1      3719 4.29555E+00
 -1      3720 5.64144E-02
 -1      3721 6.55933E-02
 -1      3722 1.14977E+00
 -1      3723 4.06258E+00
 -1      3724 2.26330E+00
 -1      3725 6.19382E+00
 -1      3726 6.19382E+00
 -1      3727 1.89217E+00
 -1      3728 1.50744E+00
 -1      3729 3.72059E+00
 -1      3730 7.07181E-02
 -1      3731 8.20626E-02
 -1      3732 6.86753E-02
 -1      3733 7.10675E-02
 -1      3734 6.25664E-02
 -1      3735 1.04071E-01
 -1      3736 8.42304E-02
 -1      3737 8.63485E-02
 -1      3738 1.50680E-01
 -1      3739 1.26183E-01
 -1      3740 1.21624E-01
 -1      3741 2.07392E-01
 -1      3742 1.77915E-01
 -1      3743 1.70970E-01
 -1      3744 2.75828E-01
 -1      3745 2.40815E-01
 -1      3746 2.31628E-01
 -1      3747 3.57259E-01
 -1      3748 3.16581E-01
 -1      3749 3.05805E-01
 -1      3750 4.52175E-01
 -1      3751 4.06501E-01
 -1      3752 3.95800E-01
 -1      3753 5.62620E-01
 -1      3754 5.10964E-01
 -1      3755 5.03831E-01
 -1      3756 7.00380E-01
 -1      3757 6.31500E-01
 -1      3758 6.31500E-01
 -1      3759 8.78892E-01
 -1      3760 7.80648E-01
 -1      3761 7.80648E-01
 -1      3762 1.14690E+00
 -1      3763 1.01183E+00
 -1      3764 9.93859E-01
 -1      3765 1.51619E+00
 -1      3766 1.36413E+00
 -1      3767 1.34404E+00
 -1      3768 2.23938E+00
 -1      3769 2.09404E+00
 -1      3770 2.13912E+00
 -1      3771 2.99661E+00
 -1      3772 2.41965E+00
 -1      3773 2.89724E+00
 -1      3774 3.86076E+00
 -1      3775 2.06793E+00
 -1      3776 1.79865E+00
 -1      3777 1.62425E+00
 -1      3778 2.42884E-01
 -1      3779 2.47838E-01
 -1      3780 2.12320E-01
 -1      3781 1.60388E-01
 -1      3782 1.56508E-01
 -1      3783 1.36190E-01
 -1      3784 1.10102E-01
 -1      3785 1.20708E-01
 -1      3786 2.14536E+00
 -1      3787 5.75939E+00
 -1      3788 6.30348E+00
 -1      3789 4.75752E+00
 -1      3790 1.64057E+00
 -1      3791 1.46275E-01
 -1      3792 1.58254E-01
 -1      3793 1.85350E-01
 -1      3794 2.39850E+00
 -1      3795 2.89042E+00
 -1      3796 2.28669E-01
 -1      3797 2.11150E-01
 -1      3798 1.72188E-01
 -1      3799 1.91761E-01
 -1      3800 5.86267E+00
 -1      3801 5.29348E+00
 -1      3802 5.91898E+00
 -1      3803 1.20818E-01
 -1      3804 1.37417E-01
 -1      3805 1.28180E-01
 -1      3806 1.37504E-01
 -1      3807 1.15087E-01
 -1      3808 2.50471E-01
 -1      3809 2.53327E-01
 -1      3810 2.18737E-01
 -1      3811 2.18271E-01
 -1      3812 6.11087E+00
 -1      3813 5.78146E+00
 -1      3814 6.19382E+00
 -1      3815 1.50920E-01
 -1      3816 1.54606E-01
 -1      3817 1.30999E-01
 -1      3818 2.42775E-01
 -1      3819 1.79327E-01
 -1      3820 1.75073E-01
 -1      3821 2.72142E-01
 -1      3822 5.92953E-02
 -1      3823 5.79610E-02
 -1      3824 6.50969E-02
 -1      3825 6.99145E-02
 -1      3826 9.08704E-02
 -1      3827 1.02002E-01
 -1      3828 8.26079E-02
 -1      3829 3.94167E+00
 -1      3830 5.01994E+00
 -1      3831 1.31330E-01
 -1      3832 4.68880E+00
 -1      3833 1.46417E-01
 -1      3834 1.64571E-01
 -1      3835 1.75337E-01
 -1      3836 1.85783E-01
 -1      3837 1.86249E-01
 -1      3838 2.59985E+00
 -1      3839 2.80991E+00
 -1      3840 2.25512E+00
 -1      3841 9.95153E-02
 -1      3842 3.15397E+00
 -1      3843 1.74383E-01
 -1      3844 1.45451E-01
 -1      3845 1.22844E-01
 -1      3846 1.83107E-01
 -1      3847 5.48686E+00
 -1      3848 4.66850E+00
 -1      3849 5.56576E+00
 -1      3850 1.57015E-01
 -1      3851 1.45764E-01
 -1      3852 1.29075E-01
 -1      3853 2.63233E+00
 -1      3854 2.56439E+00
 -1      3855 3.30638E+00
 -1      3856 2.62916E+00
 -1      3857 3.82576E+00
 -1      3858 1.85783E-01
 -1      3859 1.85783E-01
 -1      3860 1.53761E-01
 -1      3861 1.77508E-01
 -1      3862 1.84298E-01
 -1      3863 1.54905E-01
 -1      3864 5.91898E+00
 -1      3865 5.60867E+00
 -1      3866 1.11713E-01
 -1      3867 1.85716E-01
 -1      3868 1.85716E-01
 -1      3869 1.53228E-01
 -1      3870 4.96504E+00
 -1      3871 4.20352E+00
 -1      3872 1.50086E-01
 -1      3873 2.07461E+00
 -1      3874 1.52104E-01
 -1      3875 5.40113E+00
 -1      3876 6.02581E+00
 -1      3877 6.02581E+00
 -1      3878 4.21048E+00
 -1      3879 4.75924E+00
 -1      3880 1.11478E-01
 -1      3881 1.04044E-01
 -1      3882 9.88351E-02
 -1      3883 9.18367E-02
 -1      3884 9.19935E-02
 -1      3885 8.60084E-02
 -1      3886 7.89383E-02
 -1      3887 8.09561E-02
 -1      3888 7.85557E-02
 -1      3889 7.10149E-02
 -1      3890 7.47453E-02
 -1      3891 7.15203E-02
 -1      3892 7.23961E-02
 -1      3893 7.48680E-02
 -1      3894 7.44596E-02
 -1      3895 7.70040E-02
 -1      3896 7.74369E-02
 -1      3897 8.00690E-02
 -1      3898 8.46329E-02
 -1      3899 8.25655E-02
 -1      3900 9.33456E-02
 -1      3901 1.07592E-01
 -1      3902 9.43433E-02
 -1      3903 1.20759E-01
 -1      3904 1.44127E-01
 -1      3905 1.16223E-01
 -1      3906 1.61743E-01
 -1      3907 1.91206E-01
 -1      3908 1.47006E-01
 -1      3909 2.18347E-01
 -1      3910 2.55634E-01
 -1      3911 1.91764E-01
 -1      3912 2.90334E-01
 -1      3913 3.37803E-01
 -1      3914 2.53605E-01
 -1      3915 3.82529E-01
 -1      3916 4.43643E-01
 -1      3917 3.33031E-01
 -1      3918 5.02742E-01
 -1      3919 5.82924E-01
 -1      3920 4.36856E-01
 -1      3921 6.64266E-01
 -1      3922 7.72325E-01
 -1      3923 5.77297E-01
 -1      3924 8.90782E-01
 -1      3925 1.04109E+00
 -1      3926 7.77095E-01
 -1      3927 1.22323E+00
 -1      3928 1.43928E+00
 -1      3929 1.07769E+00
 -1      3930 1.72429E+00
 -1      3931 2.03558E+00
 -1      3932 1.54484E+00
 -1      3933 2.51153E+00
 -1      3934 2.94333E+00
 -1      3935 4.04891E+00
 -1      3936 2.30580E+00
 -1      3937 1.16072E-01
 -1      3938 1.24843E-01
 -1      3939 2.83254E+00
 -1      3940 4.22784E+00
 -1      3941 4.04433E+00
 -1      3942 6.73962E-02
 -1      3943 7.25211E-02
 -1      3944 1.31673E-01
 -1      3945 1.09560E-01
 -1      3946 9.57644E-02
 -1      3947 8.26015E-02
 -1      3948 1.05813E-01
 -1      3949 2.43831E-01
 -1      3950 2.10408E-01
 -1      3951 3.20956E-01
 -1      3952 2.80203E-01
 -1      3953 2.58983E-01
 -1      3954 4.16399E-01
 -1      3955 3.67157E-01
 -1      3956 3.41555E-01
 -1      3957 5.34319E-01
 -1      3958 4.75530E-01
 -1      3959 4.46887E-01
 -1      3960 6.79789E-01
 -1      3961 6.10909E-01
 -1      3962 5.82608E-01
 -1      3963 8.60916E-01
 -1      3964 7.80648E-01
 -1      3965 7.60057E-01
 -1      3966 1.12680E+00
 -1      3967 9.93859E-01
 -1      3968 9.93859E-01
 -1      3969 1.50734E+00
 -1      3970 1.29010E+00
 -1      3971 1.29010E+00
 -1      3972 2.53011E+00
 -1      3973 1.95226E+00
 -1      3974 1.89833E+00
 -1      3975 3.29608E+00
 -1      3976 3.11581E+00
 -1      3977 1.74025E-01
 -1      3978 1.79510E-01
 -1      3979 1.47488E-01
 -1      3980 1.19495E-01
 -1      3981 1.18904E-01
 -1      3982 8.80066E-02
 -1      3983 9.61062E-02
 -1      3984 2.30244E+00
 -1      3985 2.30244E+00
 -1      3986 2.94103E+00
 -1      3987 1.43401E-01
 -1      3988 1.64886E-01
 -1      3989 1.32076E-01
 -1      3990 1.51724E-01
 -1      3991 1.22844E-01
 -1      3992 9.82108E-02
 -1      3993 1.25453E-01
 -1      3994 1.02414E-01
 -1      3995 1.09886E-01
 -1      3996 9.09053E-02
 -1      3997 1.11713E-01
 -1      3998 1.21459E-01
 -1      3999 1.20926E-01
 -1      4000 9.36840E-02
 -1      4001 7.32519E-02
 -1      4002 8.20596E-02
 -1      4003 7.19728E-02
 -1      4004 1.08305E-01
 -1      4005 1.14088E-01
 -1      4006 9.68022E-02
 -1      4007 4.18089E+00
 -1      4008 4.18089E+00
 -1      4009 1.31868E-01
 -1      4010 1.26897E-01
 -1      4011 1.81663E-01
 -1      4012 1.54429E-01
 -1      4013 1.93867E-01
 -1      4014 1.19436E-01
 -1      4015 1.14515E-01
 -1      4016 1.00239E-01
 -1      4017 3.36447E+00
 -1      4018 1.42366E-01
 -1      4019 6.90851E-02
 -1      4020 7.29309E-02
 -1      4021 7.06316E-02
 -1      4022 3.92468E+00
 -1      4023 3.21149E+00
 -1      4024 3.65215E+00
 -1      4025 4.06258E+00
 -1      4026 1.28673E-01
 -1      4027 1.34990E-01
 -1      4028 1.13416E-01
 -1      4029 4.30529E+00
 -1      4030 5.01503E+00
 -1      4031 3.84524E+00
 -1      4032 3.03813E+00
 -1      4033 8.56901E-02
 -1      4034 7.62742E-02
 -1      4035 7.30031E-02
 -1      4036 2.92895E+00
 -1      4037 2.56382E+00
 -1      4038 7.86506E-02
 -1      4039 4.14543E+00
 -1      4040 9.48027E-02
 -1      4041 1.19186E-01
 -1      4042 1.01128E-01
 -1      4043 9.89498E-02
 -1      4044 4.98316E+00
 -1      4045 1.02742E-01
 -1      4046 1.35053E-01
 -1      4047 1.37223E-01
 -1      4048 1.17308E-01
 -1      4049 1.12016E-01
 -1      4050 1.22514E-01
 -1      4051 1.22514E-01
 -1      4052 9.02127E-02
 -1      4053 3.81554E+00
 -1      4054 3.48440E+00
 -1      4055 3.15397E+00
 -1      4056 1.03400E-01
 -1      4057 4.10991E+00
 -1      4058 8.42770E-02
 -1      4059 7.84487E-02
 -1      4060 7.51279E-02
 -1      4061 7.47453E-02
 -1      4062 7.84487E-02
 -1      4063 7.48680E-02
 -1      4064 7.53734E-02
 -1      4065 7.52507E-02
 -1      4066 7.74369E-02
 -1      4067 7.95005E-02
 -1      4068 7.74369E-02
 -1      4069 8.25655E-02
 -1      4070 8.56306E-02
 -1      4071 8.25655E-02
 -1      4072 9.74873E-02
 -1      4073 1.06200E-01
 -1      4074 9.74873E-02
 -1      4075 1.15479E-01
 -1      4076 1.28646E-01
 -1      4077 1.18623E-01
 -1      4078 1.45013E-01
 -1      4079 1.62630E-01
 -1      4080 1.44269E-01
 -1      4081 1.84005E-01
 -1      4082 2.11147E-01
 -1      4083 1.82012E-01
 -1      4084 2.38696E-01
 -1      4085 2.73396E-01
 -1      4086 2.30937E-01
 -1      4087 3.08832E-01
 -1      4088 3.53558E-01
 -1      4089 2.93922E-01
 -1      4090 3.99652E-01
 -1      4091 4.58751E-01
 -1      4092 3.75453E-01
 -1      4093 5.20310E-01
 -1      4094 6.01652E-01
 -1      4095 4.83106E-01
 -1      4096 6.87556E-01
 -1      4097 8.06013E-01
 -1      4098 6.30570E-01
 -1      4099 9.48764E-01
 -1      4100 1.13090E+00
 -1      4101 8.59226E-01
 -1      4102 1.36152E+00
 -1      4103 1.64652E+00
 -1      4104 1.23259E+00
 -1      4105 4.51092E-01
 -1      4106 3.91961E-01
 -1      4107 1.53986E-01
 -1      4108 1.31230E-01
 -1      4109 7.98648E-02
 -1      4110 8.52724E-02
 -1      4111 9.59891E-02
 -1      4112 9.29529E-02
 -1      4113 3.42546E-01
 -1      4114 2.96345E-01
 -1      4115 3.46750E-01
 -1      4116 2.60971E-01
 -1      4117 2.24599E-01
 -1      4118 2.61962E-01
 -1      4119 5.95007E-01
 -1      4120 5.18417E-01
 -1      4121 4.63491E-01
 -1      4122 7.90230E-01
 -1      4123 6.89371E-01
 -1      4124 6.25180E-01
 -1      4125 1.06439E+00
 -1      4126 9.31446E-01
 -1      4127 8.60761E-01
 -1      4128 1.45830E+00
 -1      4129 1.29500E+00
 -1      4130 1.23259E+00
 -1      4131 2.13506E+00
 -1      4132 1.69013E+00
 -1      4133 1.69503E+00
 -1      4134 9.02759E-02
 -1      4135 1.16977E-01
 -1      4136 9.21821E-02
 -1      4137 8.69730E-02
 -1      4138 8.79325E-02
 -1      4139 2.01202E-01
 -1      4140 1.72458E-01
 -1      4141 2.03191E-01
 -1      4142 8.58797E-02
 -1      4143 9.21873E-02
 -1      4144 9.29333E-02
 -1      4145 9.34658E-02
 -1      4146 7.59960E-02
 -1      4147 7.29141E-02
 -1      4148 7.36449E-02
 -1      4149 7.72366E-02
 -1      4150 8.31836E-02
 -1      4151 8.44656E-02
 -1      4152 7.81779E-02
 -1      4153 9.29581E-02
 -1      4154 9.91447E-02
 -1      4155 8.79325E-02
 -1      4156 1.16834E-01
 -1      4157 1.03038E-01
 -1      4158 1.28455E-01
 -1      4159 2.62579E+00
 -1      4160 9.77013E-02
 -1      4161 9.23464E-02
 -1      4162 8.05918E-02
 -1      4163 8.17105E-02
 -1      4164 7.01808E-02
 -1      4165 8.16474E-02
 -1      4166 7.69913E-02
 -1      4167 1.94410E+00
 -1      4168 2.42005E+00
 -1      4169 2.67643E+00
 -1      4170 1.76078E+00
 -1      4171 2.41759E+00
 -1      4172 3.50380E+00
 -1      4173 2.75998E+00
 -1      4174 2.26924E+00
 -1      4175 2.95307E+00
 -1      4176 9.92191E-02
 -1      4177 1.03049E-01
 -1      4178 8.87777E-02
 -1      4179 1.61322E-01
 -1      4180 1.13281E-01
 -1      4181 1.02260E-01
 -1      4182 9.59328E-02
 -1      4183 1.16242E-01
 -1      4184 1.22514E-01
 -1      4185 1.07088E-01
 -1      4186 1.16227E-01
 -1      4187 1.02472E-01
 -1      4188 1.02535E-01
 -1      4189 8.82758E-02
 -1      4190 8.61801E-02
 -1      4191 7.29309E-02
 -1      4192 7.46030E-02
 -1      4193 7.46197E-02
 -1      4194 9.12682E-02
 -1      4195 8.44656E-02
 -1      4196 8.28654E-02
 -1      4197 7.48571E-02
 -1      4198 7.49798E-02
 -1      4199 7.49966E-02
 -1      4200 7.70601E-02
 -1      4201 9.90667E-02
 -1      4202 1.10923E-01
 -1      4203 1.11702E-01
 -1      4204 1.20980E-01
 -1      4205 1.35376E-01
 -1      4206 1.51744E-01
 -1      4207 1.70215E-01
 -1      4208 1.91591E-01
 -1      4209 2.14988E-01
 -1      4210 2.42537E-01
 -1      4211 2.77911E-01
 -1      4212 3.13347E-01
 -1      4213 3.62762E-01
 -1      4214 4.08856E-01
 -1      4215 4.76182E-01
 -1      4216 5.37741E-01
 -1      4217 6.32105E-01
 -1      4218 7.18009E-01
 -1      4219 8.59226E-01
 -1      4220 1.00198E+00
 -1      4221 1.23259E+00
 -1      4222 1.46320E+00
 -1      4223 1.69503E+00
 -1      4224 9.12532E-02
 -1      4225 9.89649E-02
 -1      4226 8.17696E-02
 -1      4227 7.84487E-02
 -1      4228 8.87033E-02
 -1      4229 8.79325E-02
 -1      4230 8.62545E-02
 -1      4231 8.87777E-02
 -1      4232 8.71617E-02
 -1      4233 8.44656E-02
 -1      4234 7.80172E-02
 -1      4235 8.56781E-02
 -1      4236 7.93628E-02
 -1      4237 7.69913E-02
 -1      4238 7.69913E-02
 -1      4239 7.50289E-02
 -1      4240 8.93440E-02
 -1      4241 7.31832E-02
 -1      4242 8.16474E-02
 -1      4243 8.16474E-02
 -1      4244 7.20265E-02
 -1      4245 7.94316E-02
 -1      4246 8.24967E-02
 -1      4247 1.99261E+00
 -1      4248 9.59328E-02
 -1      4249 7.50289E-02
 -1      4250 1.13281E-01
 -1      4251 2.33499E+00
 -1      4252 9.59328E-02
 -1      4253 1.12503E-01
 -3
 9999
