    1C
    1UUSER                                                              
    1UDATE              26.october.2022                                 
    1UTIME              23:58:32                                        
    1UHOST                                                              
    1UPGM               CalculiX                                        
    1UVERSION           Version 2.17                             
    1UCOMPILETIME       Thu Jul 23 21:43:50 CEST 2020                    
    1UDIR                                                               
    1UDBN                                                               
    1UMAT    1SOLIDMATERIAL                                             
    2C                          4256                                     1
 -1         1 1.11818E+02 2.95868E+01 0.00000E+00
 -1         2 1.24116E+02 2.50121E+01 0.00000E+00
 -1         3 1.50000E+02 0.00000E+00 0.00000E+00
 -1         4 1.50000E+02 5.00000E+01 0.00000E+00
 -1         5 0.00000E+00 0.00000E+00 0.00000E+00
 -1         6 0.00000E+00 5.00000E+01 0.00000E+00
 -1         7 0.00000E+00 4.70500E+01 0.00000E+00
 -1         8 0.00000E+00 4.41000E+01 0.00000E+00
 -1         9 0.00000E+00 4.11500E+01 0.00000E+00
 -1        10 0.00000E+00 3.82000E+01 0.00000E+00
 -1        11 0.00000E+00 3.52500E+01 0.00000E+00
 -1        12 0.00000E+00 3.23500E+01 0.00000E+00
 -1        13 0.00000E+00 2.94000E+01 0.00000E+00
 -1        14 0.00000E+00 2.64500E+01 0.00000E+00
 -1        15 0.00000E+00 2.35000E+01 0.00000E+00
 -1        16 0.00000E+00 2.05500E+01 0.00000E+00
 -1        17 0.00000E+00 1.76000E+01 0.00000E+00
 -1        18 0.00000E+00 1.47000E+01 0.00000E+00
 -1        19 0.00000E+00 1.17500E+01 0.00000E+00
 -1        20 0.00000E+00 8.80000E+00 0.00000E+00
 -1        21 0.00000E+00 5.85000E+00 0.00000E+00
 -1        22 0.00000E+00 2.90000E+00 0.00000E+00
 -1        23 3.15000E+00 5.00000E+01 0.00000E+00
 -1        24 6.15000E+00 5.00000E+01 0.00000E+00
 -1        25 9.15000E+00 5.00000E+01 0.00000E+00
 -1        26 1.21500E+01 5.00000E+01 0.00000E+00
 -1        27 1.51500E+01 5.00000E+01 0.00000E+00
 -1        28 1.81500E+01 5.00000E+01 0.00000E+00
 -1        29 2.11500E+01 5.00000E+01 0.00000E+00
 -1        30 2.41500E+01 5.00000E+01 0.00000E+00
 -1        31 2.71500E+01 5.00000E+01 0.00000E+00
 -1        32 3.01500E+01 5.00000E+01 0.00000E+00
 -1        33 3.31500E+01 5.00000E+01 0.00000E+00
 -1        34 3.61500E+01 5.00000E+01 0.00000E+00
 -1        35 3.91500E+01 5.00000E+01 0.00000E+00
 -1        36 4.21500E+01 5.00000E+01 0.00000E+00
 -1        37 4.51500E+01 5.00000E+01 0.00000E+00
 -1        38 4.81500E+01 5.00000E+01 0.00000E+00
 -1        39 5.11500E+01 5.00000E+01 0.00000E+00
 -1        40 5.41500E+01 5.00000E+01 0.00000E+00
 -1        41 5.71500E+01 5.00000E+01 0.00000E+00
 -1        42 6.01500E+01 5.00000E+01 0.00000E+00
 -1        43 6.31500E+01 5.00000E+01 0.00000E+00
 -1        44 6.61500E+01 5.00000E+01 0.00000E+00
 -1        45 6.91500E+01 5.00000E+01 0.00000E+00
 -1        46 7.21500E+01 5.00000E+01 0.00000E+00
 -1        47 7.51500E+01 5.00000E+01 0.00000E+00
 -1        48 7.81500E+01 5.00000E+01 0.00000E+00
 -1        49 8.11500E+01 5.00000E+01 0.00000E+00
 -1        50 8.41500E+01 5.00000E+01 0.00000E+00
 -1        51 8.71500E+01 5.00000E+01 0.00000E+00
 -1        52 9.01500E+01 5.00000E+01 0.00000E+00
 -1        53 9.31500E+01 5.00000E+01 0.00000E+00
 -1        54 9.61500E+01 5.00000E+01 0.00000E+00
 -1        55 9.91500E+01 5.00000E+01 0.00000E+00
 -1        56 1.02150E+02 5.00000E+01 0.00000E+00
 -1        57 1.05150E+02 5.00000E+01 0.00000E+00
 -1        58 1.08150E+02 5.00000E+01 0.00000E+00
 -1        59 1.11150E+02 5.00000E+01 0.00000E+00
 -1        60 1.14150E+02 5.00000E+01 0.00000E+00
 -1        61 1.17150E+02 5.00000E+01 0.00000E+00
 -1        62 1.20150E+02 5.00000E+01 0.00000E+00
 -1        63 1.23150E+02 5.00000E+01 0.00000E+00
 -1        64 1.26150E+02 5.00000E+01 0.00000E+00
 -1        65 1.29150E+02 5.00000E+01 0.00000E+00
 -1        66 1.32150E+02 5.00000E+01 0.00000E+00
 -1        67 1.35150E+02 5.00000E+01 0.00000E+00
 -1        68 1.38150E+02 5.00000E+01 0.00000E+00
 -1        69 1.41150E+02 5.00000E+01 0.00000E+00
 -1        70 1.44150E+02 5.00000E+01 0.00000E+00
 -1        71 1.47150E+02 5.00000E+01 0.00000E+00
 -1        72 3.15000E+00 0.00000E+00 0.00000E+00
 -1        73 6.15000E+00 0.00000E+00 0.00000E+00
 -1        74 9.15000E+00 0.00000E+00 0.00000E+00
 -1        75 1.21500E+01 0.00000E+00 0.00000E+00
 -1        76 1.51500E+01 0.00000E+00 0.00000E+00
 -1        77 1.81500E+01 0.00000E+00 0.00000E+00
 -1        78 2.11500E+01 0.00000E+00 0.00000E+00
 -1        79 2.41500E+01 0.00000E+00 0.00000E+00
 -1        80 2.71500E+01 0.00000E+00 0.00000E+00
 -1        81 3.01500E+01 0.00000E+00 0.00000E+00
 -1        82 3.31500E+01 0.00000E+00 0.00000E+00
 -1        83 3.61500E+01 0.00000E+00 0.00000E+00
 -1        84 3.91500E+01 0.00000E+00 0.00000E+00
 -1        85 4.21500E+01 0.00000E+00 0.00000E+00
 -1        86 4.51500E+01 0.00000E+00 0.00000E+00
 -1        87 4.81500E+01 0.00000E+00 0.00000E+00
 -1        88 5.11500E+01 0.00000E+00 0.00000E+00
 -1        89 5.41500E+01 0.00000E+00 0.00000E+00
 -1        90 5.71500E+01 0.00000E+00 0.00000E+00
 -1        91 6.01500E+01 0.00000E+00 0.00000E+00
 -1        92 6.31500E+01 0.00000E+00 0.00000E+00
 -1        93 6.61500E+01 0.00000E+00 0.00000E+00
 -1        94 6.91500E+01 0.00000E+00 0.00000E+00
 -1        95 7.21500E+01 0.00000E+00 0.00000E+00
 -1        96 7.51500E+01 0.00000E+00 0.00000E+00
 -1        97 7.81500E+01 0.00000E+00 0.00000E+00
 -1        98 8.11500E+01 0.00000E+00 0.00000E+00
 -1        99 8.41500E+01 0.00000E+00 0.00000E+00
 -1       100 8.71500E+01 0.00000E+00 0.00000E+00
 -1       101 9.01500E+01 0.00000E+00 0.00000E+00
 -1       102 9.31500E+01 0.00000E+00 0.00000E+00
 -1       103 9.61500E+01 0.00000E+00 0.00000E+00
 -1       104 9.91500E+01 0.00000E+00 0.00000E+00
 -1       105 1.02150E+02 0.00000E+00 0.00000E+00
 -1       106 1.05150E+02 0.00000E+00 0.00000E+00
 -1       107 1.08150E+02 0.00000E+00 0.00000E+00
 -1       108 1.11150E+02 0.00000E+00 0.00000E+00
 -1       109 1.14150E+02 0.00000E+00 0.00000E+00
 -1       110 1.17150E+02 0.00000E+00 0.00000E+00
 -1       111 1.20150E+02 0.00000E+00 0.00000E+00
 -1       112 1.23150E+02 0.00000E+00 0.00000E+00
 -1       113 1.26150E+02 0.00000E+00 0.00000E+00
 -1       114 1.29150E+02 0.00000E+00 0.00000E+00
 -1       115 1.32150E+02 0.00000E+00 0.00000E+00
 -1       116 1.35150E+02 0.00000E+00 0.00000E+00
 -1       117 1.38150E+02 0.00000E+00 0.00000E+00
 -1       118 1.41150E+02 0.00000E+00 0.00000E+00
 -1       119 1.44150E+02 0.00000E+00 0.00000E+00
 -1       120 1.47150E+02 0.00000E+00 0.00000E+00
 -1       121 1.50000E+02 2.95000E+00 0.00000E+00
 -1       122 1.50000E+02 5.90000E+00 0.00000E+00
 -1       123 1.50000E+02 8.85000E+00 0.00000E+00
 -1       124 1.50000E+02 1.18000E+01 0.00000E+00
 -1       125 1.50000E+02 1.47500E+01 0.00000E+00
 -1       126 1.50000E+02 1.76500E+01 0.00000E+00
 -1       127 1.50000E+02 2.06000E+01 0.00000E+00
 -1       128 1.50000E+02 2.35500E+01 0.00000E+00
 -1       129 1.50000E+02 2.65000E+01 0.00000E+00
 -1       130 1.50000E+02 2.94500E+01 0.00000E+00
 -1       131 1.50000E+02 3.24000E+01 0.00000E+00
 -1       132 1.50000E+02 3.53000E+01 0.00000E+00
 -1       133 1.50000E+02 3.82500E+01 0.00000E+00
 -1       134 1.50000E+02 4.12000E+01 0.00000E+00
 -1       135 1.50000E+02 4.41500E+01 0.00000E+00
 -1       136 1.50000E+02 4.71000E+01 0.00000E+00
 -1       137 1.23961E+02 2.35464E+01 0.00000E+00
 -1       138 1.23509E+02 2.21607E+01 0.00000E+00
 -1       139 1.22774E+02 2.08895E+01 0.00000E+00
 -1       140 1.21698E+02 1.97196E+01 0.00000E+00
 -1       141 1.20536E+02 1.89041E+01 0.00000E+00
 -1       142 1.19073E+02 1.82912E+01 0.00000E+00
 -1       143 1.17621E+02 1.80303E+01 0.00000E+00
 -1       144 1.16059E+02 1.80925E+01 0.00000E+00
 -1       145 1.14564E+02 1.84941E+01 0.00000E+00
 -1       146 1.13246E+02 1.91792E+01 0.00000E+00
 -1       147 1.12097E+02 2.01327E+01 0.00000E+00
 -1       148 1.11120E+02 2.14004E+01 0.00000E+00
 -1       149 1.10500E+02 2.27278E+01 0.00000E+00
 -1       150 1.10169E+02 2.41550E+01 0.00000E+00
 -1       151 1.10143E+02 2.56250E+01 0.00000E+00
 -1       152 1.10415E+02 2.70346E+01 0.00000E+00
 -1       153 1.10977E+02 2.83751E+01 0.00000E+00
 -1       154 1.12818E+02 3.05370E+01 0.00000E+00
 -1       155 1.14059E+02 3.13088E+01 0.00000E+00
 -1       156 1.15365E+02 3.17894E+01 0.00000E+00
 -1       157 1.16803E+02 3.20051E+01 0.00000E+00
 -1       158 1.18228E+02 3.19232E+01 0.00000E+00
 -1       159 1.19604E+02 3.15550E+01 0.00000E+00
 -1       160 1.20930E+02 3.08823E+01 0.00000E+00
 -1       161 1.22000E+02 3.00273E+01 0.00000E+00
 -1       162 1.22871E+02 2.89978E+01 0.00000E+00
 -1       163 1.23543E+02 2.77880E+01 0.00000E+00
 -1       164 1.23958E+02 2.64923E+01 0.00000E+00
 -1       165 2.59800E+00 4.55750E+01 0.00000E+00
 -1       166 2.59800E+00 4.26250E+01 0.00000E+00
 -1       167 2.59800E+00 3.96750E+01 0.00000E+00
 -1       168 2.59800E+00 3.67250E+01 0.00000E+00
 -1       169 2.59800E+00 3.38250E+01 0.00000E+00
 -1       170 2.59800E+00 3.08750E+01 0.00000E+00
 -1       171 2.59800E+00 2.79250E+01 0.00000E+00
 -1       172 2.59800E+00 2.49750E+01 0.00000E+00
 -1       173 2.59800E+00 2.20250E+01 0.00000E+00
 -1       174 2.59800E+00 1.90750E+01 0.00000E+00
 -1       175 2.59800E+00 1.61750E+01 0.00000E+00
 -1       176 2.59800E+00 1.32250E+01 0.00000E+00
 -1       177 2.59800E+00 1.02750E+01 0.00000E+00
 -1       178 2.59800E+00 7.32500E+00 0.00000E+00
 -1       179 2.59800E+00 4.37500E+00 0.00000E+00
 -1       180 2.87400E+00 2.18750E+00 0.00000E+00
 -1       181 4.65000E+00 4.74020E+01 0.00000E+00
 -1       182 7.65000E+00 4.74020E+01 0.00000E+00
 -1       183 1.06500E+01 4.74020E+01 0.00000E+00
 -1       184 1.36500E+01 4.74020E+01 0.00000E+00
 -1       185 1.66500E+01 4.74020E+01 0.00000E+00
 -1       186 1.96500E+01 4.74020E+01 0.00000E+00
 -1       187 2.26500E+01 4.74020E+01 0.00000E+00
 -1       188 2.56500E+01 4.74020E+01 0.00000E+00
 -1       189 2.86500E+01 4.74020E+01 0.00000E+00
 -1       190 3.16500E+01 4.74020E+01 0.00000E+00
 -1       191 3.46500E+01 4.74020E+01 0.00000E+00
 -1       192 3.76500E+01 4.74020E+01 0.00000E+00
 -1       193 4.06500E+01 4.74020E+01 0.00000E+00
 -1       194 4.36500E+01 4.74020E+01 0.00000E+00
 -1       195 4.66500E+01 4.74020E+01 0.00000E+00
 -1       196 4.96500E+01 4.74020E+01 0.00000E+00
 -1       197 5.26500E+01 4.74020E+01 0.00000E+00
 -1       198 5.56500E+01 4.74020E+01 0.00000E+00
 -1       199 5.86500E+01 4.74020E+01 0.00000E+00
 -1       200 6.16500E+01 4.74020E+01 0.00000E+00
 -1       201 6.46500E+01 4.74020E+01 0.00000E+00
 -1       202 6.76500E+01 4.74020E+01 0.00000E+00
 -1       203 7.06500E+01 4.74020E+01 0.00000E+00
 -1       204 7.36500E+01 4.74020E+01 0.00000E+00
 -1       205 7.66500E+01 4.74020E+01 0.00000E+00
 -1       206 7.96500E+01 4.74020E+01 0.00000E+00
 -1       207 8.26500E+01 4.74020E+01 0.00000E+00
 -1       208 8.56500E+01 4.74020E+01 0.00000E+00
 -1       209 8.86500E+01 4.74020E+01 0.00000E+00
 -1       210 9.16500E+01 4.74020E+01 0.00000E+00
 -1       211 9.46500E+01 4.74020E+01 0.00000E+00
 -1       212 9.76500E+01 4.74020E+01 0.00000E+00
 -1       213 1.00650E+02 4.74020E+01 0.00000E+00
 -1       214 1.03650E+02 4.74020E+01 0.00000E+00
 -1       215 1.06650E+02 4.74020E+01 0.00000E+00
 -1       216 1.09650E+02 4.74020E+01 0.00000E+00
 -1       217 1.12650E+02 4.74020E+01 0.00000E+00
 -1       218 1.15650E+02 4.74020E+01 0.00000E+00
 -1       219 1.18650E+02 4.74020E+01 0.00000E+00
 -1       220 1.21650E+02 4.74020E+01 0.00000E+00
 -1       221 1.24650E+02 4.74020E+01 0.00000E+00
 -1       222 1.27650E+02 4.74020E+01 0.00000E+00
 -1       223 1.30650E+02 4.74020E+01 0.00000E+00
 -1       224 1.33650E+02 4.74020E+01 0.00000E+00
 -1       225 1.36650E+02 4.74020E+01 0.00000E+00
 -1       226 1.39650E+02 4.74020E+01 0.00000E+00
 -1       227 1.42650E+02 4.74020E+01 0.00000E+00
 -1       228 1.45650E+02 4.74020E+01 0.00000E+00
 -1       229 5.87400E+00 2.18750E+00 0.00000E+00
 -1       230 8.87400E+00 2.18750E+00 0.00000E+00
 -1       231 1.18740E+01 2.18750E+00 0.00000E+00
 -1       232 1.48740E+01 2.18750E+00 0.00000E+00
 -1       233 1.78740E+01 2.18750E+00 0.00000E+00
 -1       234 2.08740E+01 2.18750E+00 0.00000E+00
 -1       235 2.38740E+01 2.18750E+00 0.00000E+00
 -1       236 2.68740E+01 2.18750E+00 0.00000E+00
 -1       237 2.98740E+01 2.18750E+00 0.00000E+00
 -1       238 3.28740E+01 2.18750E+00 0.00000E+00
 -1       239 3.58740E+01 2.18750E+00 0.00000E+00
 -1       240 3.88740E+01 2.18750E+00 0.00000E+00
 -1       241 4.18740E+01 2.18750E+00 0.00000E+00
 -1       242 4.48740E+01 2.18750E+00 0.00000E+00
 -1       243 4.78740E+01 2.18750E+00 0.00000E+00
 -1       244 5.08740E+01 2.18750E+00 0.00000E+00
 -1       245 5.38740E+01 2.18750E+00 0.00000E+00
 -1       246 5.68740E+01 2.18750E+00 0.00000E+00
 -1       247 5.98740E+01 2.18750E+00 0.00000E+00
 -1       248 6.28740E+01 2.18750E+00 0.00000E+00
 -1       249 6.58740E+01 2.18750E+00 0.00000E+00
 -1       250 6.88740E+01 2.18750E+00 0.00000E+00
 -1       251 7.18740E+01 2.18750E+00 0.00000E+00
 -1       252 7.48740E+01 2.18750E+00 0.00000E+00
 -1       253 7.78740E+01 2.18750E+00 0.00000E+00
 -1       254 8.08740E+01 2.18750E+00 0.00000E+00
 -1       255 8.38740E+01 2.18750E+00 0.00000E+00
 -1       256 8.68740E+01 2.18750E+00 0.00000E+00
 -1       257 8.98740E+01 2.18750E+00 0.00000E+00
 -1       258 9.28740E+01 2.18750E+00 0.00000E+00
 -1       259 9.58740E+01 2.18750E+00 0.00000E+00
 -1       260 9.88740E+01 2.18750E+00 0.00000E+00
 -1       261 1.01874E+02 2.18750E+00 0.00000E+00
 -1       262 1.04874E+02 2.18750E+00 0.00000E+00
 -1       263 1.07874E+02 2.18750E+00 0.00000E+00
 -1       264 1.10874E+02 2.18750E+00 0.00000E+00
 -1       265 1.13874E+02 2.18750E+00 0.00000E+00
 -1       266 1.16874E+02 2.18750E+00 0.00000E+00
 -1       267 1.19874E+02 2.18750E+00 0.00000E+00
 -1       268 1.22874E+02 2.18750E+00 0.00000E+00
 -1       269 1.25874E+02 2.18750E+00 0.00000E+00
 -1       270 1.28874E+02 2.18750E+00 0.00000E+00
 -1       271 1.31874E+02 2.18750E+00 0.00000E+00
 -1       272 1.34874E+02 2.18750E+00 0.00000E+00
 -1       273 1.37874E+02 2.18750E+00 0.00000E+00
 -1       274 1.40874E+02 2.18750E+00 0.00000E+00
 -1       275 1.43874E+02 2.18750E+00 0.00000E+00
 -1       276 1.46874E+02 2.18750E+00 0.00000E+00
 -1       277 1.47402E+02 4.42500E+00 0.00000E+00
 -1       278 1.47402E+02 7.37500E+00 0.00000E+00
 -1       279 1.47402E+02 1.03250E+01 0.00000E+00
 -1       280 1.47402E+02 1.32750E+01 0.00000E+00
 -1       281 1.47402E+02 1.61750E+01 0.00000E+00
 -1       282 1.47402E+02 1.91250E+01 0.00000E+00
 -1       283 1.47402E+02 2.20750E+01 0.00000E+00
 -1       284 1.47402E+02 2.50250E+01 0.00000E+00
 -1       285 1.47402E+02 2.79750E+01 0.00000E+00
 -1       286 1.47402E+02 3.09250E+01 0.00000E+00
 -1       287 1.47402E+02 3.38250E+01 0.00000E+00
 -1       288 1.47402E+02 3.67750E+01 0.00000E+00
 -1       289 1.47402E+02 3.97250E+01 0.00000E+00
 -1       290 1.47402E+02 4.26750E+01 0.00000E+00
 -1       291 1.46526E+02 4.50385E+01 0.00000E+00
 -1       292 1.25245E+02 2.41516E+01 0.00000E+00
 -1       293 1.24888E+02 2.24776E+01 0.00000E+00
 -1       294 1.24191E+02 2.09178E+01 0.00000E+00
 -1       295 1.23252E+02 1.93705E+01 0.00000E+00
 -1       296 1.21862E+02 1.82509E+01 0.00000E+00
 -1       297 1.20370E+02 1.72477E+01 0.00000E+00
 -1       298 1.18561E+02 1.69674E+01 0.00000E+00
 -1       299 1.16785E+02 1.66825E+01 0.00000E+00
 -1       300 1.14997E+02 1.71224E+01 0.00000E+00
 -1       301 1.13346E+02 1.77610E+01 0.00000E+00
 -1       302 1.11898E+02 1.87229E+01 0.00000E+00
 -1       303 1.10516E+02 1.99241E+01 0.00000E+00
 -1       304 1.09712E+02 2.15507E+01 0.00000E+00
 -1       305 1.09153E+02 2.31679E+01 0.00000E+00
 -1       306 1.08944E+02 2.48687E+01 0.00000E+00
 -1       307 1.09089E+02 2.65592E+01 0.00000E+00
 -1       308 1.09578E+02 2.81738E+01 0.00000E+00
 -1       309 1.10333E+02 2.97200E+01 0.00000E+00
 -1       310 1.11425E+02 3.10016E+01 0.00000E+00
 -1       311 1.12754E+02 3.20234E+01 0.00000E+00
 -1       312 1.14293E+02 3.26870E+01 0.00000E+00
 -1       313 1.15904E+02 3.30962E+01 0.00000E+00
 -1       314 1.17585E+02 3.31746E+01 0.00000E+00
 -1       315 1.19230E+02 3.29103E+01 0.00000E+00
 -1       316 1.20892E+02 3.24492E+01 0.00000E+00
 -1       317 1.22222E+02 3.14020E+01 0.00000E+00
 -1       318 1.23361E+02 3.02956E+01 0.00000E+00
 -1       319 1.24267E+02 2.89813E+01 0.00000E+00
 -1       320 1.24905E+02 2.75105E+01 0.00000E+00
 -1       321 1.25409E+02 2.58989E+01 0.00000E+00
 -1       322 5.19600E+00 4.11500E+01 0.00000E+00
 -1       323 5.19600E+00 4.41000E+01 0.00000E+00
 -1       324 5.19600E+00 3.52750E+01 0.00000E+00
 -1       325 5.19600E+00 3.23250E+01 0.00000E+00
 -1       326 5.19600E+00 2.93750E+01 0.00000E+00
 -1       327 5.19600E+00 2.64250E+01 0.00000E+00
 -1       328 5.19600E+00 2.34750E+01 0.00000E+00
 -1       329 5.19600E+00 2.05250E+01 0.00000E+00
 -1       330 5.19600E+00 1.76250E+01 0.00000E+00
 -1       331 5.19600E+00 1.46750E+01 0.00000E+00
 -1       332 5.19600E+00 1.17250E+01 0.00000E+00
 -1       333 5.19600E+00 8.77500E+00 0.00000E+00
 -1       334 5.19600E+00 5.82500E+00 0.00000E+00
 -1       335 5.53500E+00 4.00625E+00 0.00000E+00
 -1       336 8.53500E+00 4.00625E+00 0.00000E+00
 -1       337 9.15000E+00 4.48040E+01 0.00000E+00
 -1       338 1.21500E+01 4.48040E+01 0.00000E+00
 -1       339 1.51500E+01 4.48040E+01 0.00000E+00
 -1       340 1.81500E+01 4.48040E+01 0.00000E+00
 -1       341 2.11500E+01 4.48040E+01 0.00000E+00
 -1       342 2.41500E+01 4.48040E+01 0.00000E+00
 -1       343 2.71500E+01 4.48040E+01 0.00000E+00
 -1       344 3.01500E+01 4.48040E+01 0.00000E+00
 -1       345 3.31500E+01 4.48040E+01 0.00000E+00
 -1       346 3.61500E+01 4.48040E+01 0.00000E+00
 -1       347 3.91500E+01 4.48040E+01 0.00000E+00
 -1       348 4.21500E+01 4.48040E+01 0.00000E+00
 -1       349 4.51500E+01 4.48040E+01 0.00000E+00
 -1       350 4.81500E+01 4.48040E+01 0.00000E+00
 -1       351 5.11500E+01 4.48040E+01 0.00000E+00
 -1       352 5.41500E+01 4.48040E+01 0.00000E+00
 -1       353 5.71500E+01 4.48040E+01 0.00000E+00
 -1       354 6.01500E+01 4.48040E+01 0.00000E+00
 -1       355 6.31500E+01 4.48040E+01 0.00000E+00
 -1       356 6.61500E+01 4.48040E+01 0.00000E+00
 -1       357 6.91500E+01 4.48040E+01 0.00000E+00
 -1       358 7.21500E+01 4.48040E+01 0.00000E+00
 -1       359 7.51500E+01 4.48040E+01 0.00000E+00
 -1       360 7.81500E+01 4.48040E+01 0.00000E+00
 -1       361 8.11500E+01 4.48040E+01 0.00000E+00
 -1       362 8.41500E+01 4.48040E+01 0.00000E+00
 -1       363 8.71500E+01 4.48040E+01 0.00000E+00
 -1       364 9.01500E+01 4.48040E+01 0.00000E+00
 -1       365 9.31500E+01 4.48040E+01 0.00000E+00
 -1       366 9.61500E+01 4.48040E+01 0.00000E+00
 -1       367 9.91500E+01 4.48040E+01 0.00000E+00
 -1       368 1.02150E+02 4.48040E+01 0.00000E+00
 -1       369 1.05150E+02 4.48040E+01 0.00000E+00
 -1       370 1.08150E+02 4.48040E+01 0.00000E+00
 -1       371 1.11150E+02 4.48040E+01 0.00000E+00
 -1       372 1.14150E+02 4.48040E+01 0.00000E+00
 -1       373 1.17150E+02 4.48040E+01 0.00000E+00
 -1       374 1.20150E+02 4.48040E+01 0.00000E+00
 -1       375 1.23150E+02 4.48040E+01 0.00000E+00
 -1       376 1.26150E+02 4.48040E+01 0.00000E+00
 -1       377 1.29150E+02 4.48040E+01 0.00000E+00
 -1       378 1.32150E+02 4.48040E+01 0.00000E+00
 -1       379 1.35150E+02 4.48040E+01 0.00000E+00
 -1       380 1.38150E+02 4.48040E+01 0.00000E+00
 -1       381 1.41150E+02 4.48040E+01 0.00000E+00
 -1       382 1.43838E+02 4.49212E+01 0.00000E+00
 -1       383 1.15350E+01 4.00625E+00 0.00000E+00
 -1       384 1.45350E+01 4.00625E+00 0.00000E+00
 -1       385 1.75350E+01 4.00625E+00 0.00000E+00
 -1       386 2.05350E+01 4.00625E+00 0.00000E+00
 -1       387 2.35350E+01 4.00625E+00 0.00000E+00
 -1       388 2.65350E+01 4.00625E+00 0.00000E+00
 -1       389 2.95350E+01 4.00625E+00 0.00000E+00
 -1       390 3.25350E+01 4.00625E+00 0.00000E+00
 -1       391 3.55350E+01 4.00625E+00 0.00000E+00
 -1       392 3.85350E+01 4.00625E+00 0.00000E+00
 -1       393 4.15350E+01 4.00625E+00 0.00000E+00
 -1       394 4.45350E+01 4.00625E+00 0.00000E+00
 -1       395 4.75350E+01 4.00625E+00 0.00000E+00
 -1       396 5.05350E+01 4.00625E+00 0.00000E+00
 -1       397 5.35350E+01 4.00625E+00 0.00000E+00
 -1       398 5.65350E+01 4.00625E+00 0.00000E+00
 -1       399 5.95350E+01 4.00625E+00 0.00000E+00
 -1       400 6.25350E+01 4.00625E+00 0.00000E+00
 -1       401 6.55350E+01 4.00625E+00 0.00000E+00
 -1       402 6.85350E+01 4.00625E+00 0.00000E+00
 -1       403 7.15350E+01 4.00625E+00 0.00000E+00
 -1       404 7.45350E+01 4.00625E+00 0.00000E+00
 -1       405 7.75350E+01 4.00625E+00 0.00000E+00
 -1       406 8.05350E+01 4.00625E+00 0.00000E+00
 -1       407 8.35350E+01 4.00625E+00 0.00000E+00
 -1       408 8.65350E+01 4.00625E+00 0.00000E+00
 -1       409 8.95350E+01 4.00625E+00 0.00000E+00
 -1       410 9.25350E+01 4.00625E+00 0.00000E+00
 -1       411 9.55350E+01 4.00625E+00 0.00000E+00
 -1       412 9.85350E+01 4.00625E+00 0.00000E+00
 -1       413 1.01535E+02 4.00625E+00 0.00000E+00
 -1       414 1.04535E+02 4.00625E+00 0.00000E+00
 -1       415 1.07535E+02 4.00625E+00 0.00000E+00
 -1       416 1.10535E+02 4.00625E+00 0.00000E+00
 -1       417 1.13535E+02 4.00625E+00 0.00000E+00
 -1       418 1.16535E+02 4.00625E+00 0.00000E+00
 -1       419 1.19535E+02 4.00625E+00 0.00000E+00
 -1       420 1.22535E+02 4.00625E+00 0.00000E+00
 -1       421 1.25535E+02 4.00625E+00 0.00000E+00
 -1       422 1.28535E+02 4.00625E+00 0.00000E+00
 -1       423 1.31535E+02 4.00625E+00 0.00000E+00
 -1       424 1.34535E+02 4.00625E+00 0.00000E+00
 -1       425 1.37535E+02 4.00625E+00 0.00000E+00
 -1       426 1.40535E+02 4.00625E+00 0.00000E+00
 -1       427 1.43535E+02 4.00625E+00 0.00000E+00
 -1       428 1.45469E+02 4.21562E+00 0.00000E+00
 -1       429 1.44804E+02 1.18000E+01 0.00000E+00
 -1       430 1.44804E+02 8.85000E+00 0.00000E+00
 -1       431 1.45136E+02 6.53281E+00 0.00000E+00
 -1       432 1.44804E+02 1.47000E+01 0.00000E+00
 -1       433 1.44804E+02 1.76500E+01 0.00000E+00
 -1       434 1.44804E+02 2.06000E+01 0.00000E+00
 -1       435 1.44804E+02 2.35500E+01 0.00000E+00
 -1       436 1.44804E+02 2.65000E+01 0.00000E+00
 -1       437 1.44804E+02 2.94500E+01 0.00000E+00
 -1       438 1.44804E+02 3.23500E+01 0.00000E+00
 -1       439 1.44804E+02 3.53000E+01 0.00000E+00
 -1       440 1.44804E+02 3.82500E+01 0.00000E+00
 -1       441 1.44804E+02 4.12000E+01 0.00000E+00
 -1       442 1.25876E+02 2.11005E+01 0.00000E+00
 -1       443 1.26868E+02 2.48798E+01 0.00000E+00
 -1       444 1.26416E+02 2.30272E+01 0.00000E+00
 -1       445 1.25116E+02 1.92976E+01 0.00000E+00
 -1       446 1.23527E+02 1.76055E+01 0.00000E+00
 -1       447 5.19600E+00 3.82125E+01 0.00000E+00
 -1       448 1.19677E+02 1.57438E+01 0.00000E+00
 -1       449 1.17901E+02 1.54589E+01 0.00000E+00
 -1       450 1.15521E+02 1.53997E+01 0.00000E+00
 -1       451 1.13704E+02 1.62328E+01 0.00000E+00
 -1       452 1.11858E+02 1.70925E+01 0.00000E+00
 -1       453 1.10082E+02 1.80290E+01 0.00000E+00
 -1       454 1.08726E+02 2.00515E+01 0.00000E+00
 -1       455 1.08128E+02 2.19089E+01 0.00000E+00
 -1       456 1.07762E+02 2.38600E+01 0.00000E+00
 -1       457 1.07641E+02 2.58316E+01 0.00000E+00
 -1       458 1.07852E+02 2.78154E+01 0.00000E+00
 -1       459 1.08715E+02 2.95522E+01 0.00000E+00
 -1       460 1.09829E+02 3.12560E+01 0.00000E+00
 -1       461 1.11146E+02 3.27390E+01 0.00000E+00
 -1       462 1.12944E+02 3.36994E+01 0.00000E+00
 -1       463 1.14717E+02 3.43915E+01 0.00000E+00
 -1       464 1.16680E+02 3.45139E+01 0.00000E+00
 -1       465 1.18666E+02 3.46531E+01 0.00000E+00
 -1       466 1.20328E+02 3.41920E+01 0.00000E+00
 -1       467 1.22514E+02 3.31414E+01 0.00000E+00
 -1       468 1.23694E+02 3.17788E+01 0.00000E+00
 -1       469 1.25019E+02 3.04691E+01 0.00000E+00
 -1       470 1.25775E+02 2.87617E+01 0.00000E+00
 -1       471 1.26634E+02 2.71672E+01 0.00000E+00
 -1       472 1.22036E+02 1.66022E+01 0.00000E+00
 -1       473 1.21343E+02 1.50984E+01 0.00000E+00
 -1       474 1.00350E+01 6.60425E+00 0.00000E+00
 -1       475 7.79400E+00 3.08500E+01 0.00000E+00
 -1       476 7.79400E+00 3.38000E+01 0.00000E+00
 -1       477 7.79400E+00 2.49500E+01 0.00000E+00
 -1       478 7.79400E+00 2.20000E+01 0.00000E+00
 -1       479 7.79400E+00 1.91000E+01 0.00000E+00
 -1       480 7.79400E+00 1.61500E+01 0.00000E+00
 -1       481 7.79400E+00 1.32000E+01 0.00000E+00
 -1       482 7.79400E+00 1.02500E+01 0.00000E+00
 -1       483 1.25816E+02 1.70483E+01 0.00000E+00
 -1       484 1.30350E+01 6.60425E+00 0.00000E+00
 -1       485 1.06500E+01 4.22060E+01 0.00000E+00
 -1       486 1.36500E+01 4.22060E+01 0.00000E+00
 -1       487 1.66500E+01 4.22060E+01 0.00000E+00
 -1       488 1.96500E+01 4.22060E+01 0.00000E+00
 -1       489 2.26500E+01 4.22060E+01 0.00000E+00
 -1       490 2.56500E+01 4.22060E+01 0.00000E+00
 -1       491 2.86500E+01 4.22060E+01 0.00000E+00
 -1       492 3.16500E+01 4.22060E+01 0.00000E+00
 -1       493 3.46500E+01 4.22060E+01 0.00000E+00
 -1       494 3.76500E+01 4.22060E+01 0.00000E+00
 -1       495 4.06500E+01 4.22060E+01 0.00000E+00
 -1       496 4.36500E+01 4.22060E+01 0.00000E+00
 -1       497 4.66500E+01 4.22060E+01 0.00000E+00
 -1       498 4.96500E+01 4.22060E+01 0.00000E+00
 -1       499 5.26500E+01 4.22060E+01 0.00000E+00
 -1       500 5.56500E+01 4.22060E+01 0.00000E+00
 -1       501 5.86500E+01 4.22060E+01 0.00000E+00
 -1       502 6.16500E+01 4.22060E+01 0.00000E+00
 -1       503 6.46500E+01 4.22060E+01 0.00000E+00
 -1       504 6.76500E+01 4.22060E+01 0.00000E+00
 -1       505 7.06500E+01 4.22060E+01 0.00000E+00
 -1       506 7.36500E+01 4.22060E+01 0.00000E+00
 -1       507 7.66500E+01 4.22060E+01 0.00000E+00
 -1       508 7.96500E+01 4.22060E+01 0.00000E+00
 -1       509 8.26500E+01 4.22060E+01 0.00000E+00
 -1       510 8.56500E+01 4.22060E+01 0.00000E+00
 -1       511 8.86500E+01 4.22060E+01 0.00000E+00
 -1       512 9.16500E+01 4.22060E+01 0.00000E+00
 -1       513 9.46500E+01 4.22060E+01 0.00000E+00
 -1       514 9.76500E+01 4.22060E+01 0.00000E+00
 -1       515 1.00650E+02 4.22060E+01 0.00000E+00
 -1       516 1.03650E+02 4.22060E+01 0.00000E+00
 -1       517 1.06650E+02 4.22060E+01 0.00000E+00
 -1       518 1.09650E+02 4.22060E+01 0.00000E+00
 -1       519 1.12650E+02 4.22060E+01 0.00000E+00
 -1       520 1.15650E+02 4.22060E+01 0.00000E+00
 -1       521 1.18650E+02 4.22060E+01 0.00000E+00
 -1       522 1.21650E+02 4.22060E+01 0.00000E+00
 -1       523 1.24650E+02 4.22060E+01 0.00000E+00
 -1       524 1.27650E+02 4.22060E+01 0.00000E+00
 -1       525 1.30650E+02 4.22060E+01 0.00000E+00
 -1       526 1.33650E+02 4.22060E+01 0.00000E+00
 -1       527 1.36650E+02 4.22060E+01 0.00000E+00
 -1       528 1.39650E+02 4.22060E+01 0.00000E+00
 -1       529 1.90350E+01 6.60425E+00 0.00000E+00
 -1       530 2.20350E+01 6.60425E+00 0.00000E+00
 -1       531 2.50350E+01 6.60425E+00 0.00000E+00
 -1       532 2.80350E+01 6.60425E+00 0.00000E+00
 -1       533 3.10350E+01 6.60425E+00 0.00000E+00
 -1       534 3.40350E+01 6.60425E+00 0.00000E+00
 -1       535 3.70350E+01 6.60425E+00 0.00000E+00
 -1       536 4.00350E+01 6.60425E+00 0.00000E+00
 -1       537 4.30350E+01 6.60425E+00 0.00000E+00
 -1       538 4.60350E+01 6.60425E+00 0.00000E+00
 -1       539 4.90350E+01 6.60425E+00 0.00000E+00
 -1       540 5.20350E+01 6.60425E+00 0.00000E+00
 -1       541 5.50350E+01 6.60425E+00 0.00000E+00
 -1       542 5.80350E+01 6.60425E+00 0.00000E+00
 -1       543 6.10350E+01 6.60425E+00 0.00000E+00
 -1       544 6.40350E+01 6.60425E+00 0.00000E+00
 -1       545 6.70350E+01 6.60425E+00 0.00000E+00
 -1       546 7.00350E+01 6.60425E+00 0.00000E+00
 -1       547 7.30350E+01 6.60425E+00 0.00000E+00
 -1       548 7.60350E+01 6.60425E+00 0.00000E+00
 -1       549 7.90350E+01 6.60425E+00 0.00000E+00
 -1       550 8.20350E+01 6.60425E+00 0.00000E+00
 -1       551 8.50350E+01 6.60425E+00 0.00000E+00
 -1       552 8.80350E+01 6.60425E+00 0.00000E+00
 -1       553 9.10350E+01 6.60425E+00 0.00000E+00
 -1       554 9.40350E+01 6.60425E+00 0.00000E+00
 -1       555 9.70350E+01 6.60425E+00 0.00000E+00
 -1       556 1.00035E+02 6.60425E+00 0.00000E+00
 -1       557 1.03035E+02 6.60425E+00 0.00000E+00
 -1       558 1.06035E+02 6.60425E+00 0.00000E+00
 -1       559 1.09035E+02 6.60425E+00 0.00000E+00
 -1       560 1.12035E+02 6.60425E+00 0.00000E+00
 -1       561 1.15035E+02 6.60425E+00 0.00000E+00
 -1       562 1.18035E+02 6.60425E+00 0.00000E+00
 -1       563 1.21035E+02 6.60425E+00 0.00000E+00
 -1       564 1.24035E+02 6.60425E+00 0.00000E+00
 -1       565 1.27035E+02 6.60425E+00 0.00000E+00
 -1       566 1.30035E+02 6.60425E+00 0.00000E+00
 -1       567 1.33035E+02 6.60425E+00 0.00000E+00
 -1       568 1.36035E+02 6.60425E+00 0.00000E+00
 -1       569 1.39035E+02 6.60425E+00 0.00000E+00
 -1       570 1.42035E+02 6.60425E+00 0.00000E+00
 -1       571 1.42206E+02 1.61750E+01 0.00000E+00
 -1       572 1.42206E+02 1.91250E+01 0.00000E+00
 -1       573 1.42206E+02 1.03250E+01 0.00000E+00
 -1       574 1.42206E+02 1.32500E+01 0.00000E+00
 -1       575 1.42206E+02 2.20750E+01 0.00000E+00
 -1       576 1.42206E+02 2.50250E+01 0.00000E+00
 -1       577 1.42206E+02 2.79750E+01 0.00000E+00
 -1       578 1.42206E+02 3.08750E+01 0.00000E+00
 -1       579 1.42206E+02 3.38250E+01 0.00000E+00
 -1       580 1.42206E+02 3.67750E+01 0.00000E+00
 -1       581 1.42206E+02 3.97250E+01 0.00000E+00
 -1       582 1.28308E+02 2.35472E+01 0.00000E+00
 -1       583 1.27385E+02 1.94026E+01 0.00000E+00
 -1       584 1.60350E+01 6.60425E+00 0.00000E+00
 -1       585 1.28790E+02 2.62319E+01 0.00000E+00
 -1       586 1.27768E+02 2.16205E+01 0.00000E+00
 -1       587 7.92300E+00 4.16780E+01 0.00000E+00
 -1       588 1.27567E+02 2.86984E+01 0.00000E+00
 -1       589 1.17577E+02 3.59601E+01 0.00000E+00
 -1       590 7.79400E+00 2.79000E+01 0.00000E+00
 -1       591 1.13898E+02 1.42571E+01 0.00000E+00
 -1       592 1.19034E+02 1.40733E+01 0.00000E+00
 -1       593 1.24527E+02 3.36926E+01 0.00000E+00
 -1       594 1.16751E+02 1.37985E+01 0.00000E+00
 -1       595 1.12052E+02 1.51168E+01 0.00000E+00
 -1       596 1.10276E+02 1.60534E+01 0.00000E+00
 -1       597 1.07840E+02 1.79923E+01 0.00000E+00
 -1       598 1.06954E+02 2.05057E+01 0.00000E+00
 -1       599 1.06259E+02 2.25684E+01 0.00000E+00
 -1       600 1.06139E+02 2.45400E+01 0.00000E+00
 -1       601 1.06375E+02 2.69694E+01 0.00000E+00
 -1       602 1.06898E+02 2.93724E+01 0.00000E+00
 -1       603 1.07977E+02 3.12508E+01 0.00000E+00
 -1       604 1.09205E+02 3.31363E+01 0.00000E+00
 -1       605 1.11079E+02 3.50277E+01 0.00000E+00
 -1       606 1.12852E+02 3.57198E+01 0.00000E+00
 -1       607 1.15608E+02 3.59136E+01 0.00000E+00
 -1       608 1.19911E+02 3.59137E+01 0.00000E+00
 -1       609 1.22128E+02 3.51371E+01 0.00000E+00
 -1       610 1.25852E+02 3.23830E+01 0.00000E+00
 -1       611 1.26811E+02 3.04058E+01 0.00000E+00
 -1       612 1.23646E+02 1.58199E+01 0.00000E+00
 -1       613 7.61550E+00 6.21462E+00 0.00000E+00
 -1       614 1.15128E+02 1.26559E+01 0.00000E+00
 -1       615 7.79400E+00 3.67375E+01 0.00000E+00
 -1       616 1.08034E+02 1.60167E+01 0.00000E+00
 -1       617 1.41678E+02 4.22645E+01 0.00000E+00
 -1       618 1.03920E+01 2.05500E+01 0.00000E+00
 -1       619 1.03920E+01 2.35000E+01 0.00000E+00
 -1       620 1.03920E+01 1.46750E+01 0.00000E+00
 -1       621 1.03920E+01 1.17250E+01 0.00000E+00
 -1       622 1.05463E+02 1.85676E+01 0.00000E+00
 -1       623 1.15350E+01 9.20225E+00 0.00000E+00
 -1       624 1.22982E+02 1.39024E+01 0.00000E+00
 -1       625 1.51500E+01 3.96080E+01 0.00000E+00
 -1       626 1.81500E+01 3.96080E+01 0.00000E+00
 -1       627 2.11500E+01 3.96080E+01 0.00000E+00
 -1       628 2.41500E+01 3.96080E+01 0.00000E+00
 -1       629 2.71500E+01 3.96080E+01 0.00000E+00
 -1       630 3.01500E+01 3.96080E+01 0.00000E+00
 -1       631 3.31500E+01 3.96080E+01 0.00000E+00
 -1       632 3.61500E+01 3.96080E+01 0.00000E+00
 -1       633 3.91500E+01 3.96080E+01 0.00000E+00
 -1       634 4.21500E+01 3.96080E+01 0.00000E+00
 -1       635 4.51500E+01 3.96080E+01 0.00000E+00
 -1       636 4.81500E+01 3.96080E+01 0.00000E+00
 -1       637 5.11500E+01 3.96080E+01 0.00000E+00
 -1       638 5.41500E+01 3.96080E+01 0.00000E+00
 -1       639 5.71500E+01 3.96080E+01 0.00000E+00
 -1       640 6.01500E+01 3.96080E+01 0.00000E+00
 -1       641 6.31500E+01 3.96080E+01 0.00000E+00
 -1       642 6.61500E+01 3.96080E+01 0.00000E+00
 -1       643 6.91500E+01 3.96080E+01 0.00000E+00
 -1       644 7.21500E+01 3.96080E+01 0.00000E+00
 -1       645 7.51500E+01 3.96080E+01 0.00000E+00
 -1       646 7.81500E+01 3.96080E+01 0.00000E+00
 -1       647 8.11500E+01 3.96080E+01 0.00000E+00
 -1       648 8.41500E+01 3.96080E+01 0.00000E+00
 -1       649 8.71500E+01 3.96080E+01 0.00000E+00
 -1       650 9.01500E+01 3.96080E+01 0.00000E+00
 -1       651 9.31500E+01 3.96080E+01 0.00000E+00
 -1       652 9.61500E+01 3.96080E+01 0.00000E+00
 -1       653 9.91500E+01 3.96080E+01 0.00000E+00
 -1       654 1.02150E+02 3.96080E+01 0.00000E+00
 -1       655 1.05150E+02 3.96080E+01 0.00000E+00
 -1       656 1.08150E+02 3.96080E+01 0.00000E+00
 -1       657 1.11150E+02 3.96080E+01 0.00000E+00
 -1       658 1.14150E+02 3.96080E+01 0.00000E+00
 -1       659 1.17150E+02 3.96080E+01 0.00000E+00
 -1       660 1.20150E+02 3.96080E+01 0.00000E+00
 -1       661 1.23150E+02 3.96080E+01 0.00000E+00
 -1       662 1.26150E+02 3.96080E+01 0.00000E+00
 -1       663 1.29150E+02 3.96080E+01 0.00000E+00
 -1       664 1.32150E+02 3.96080E+01 0.00000E+00
 -1       665 1.35150E+02 3.96080E+01 0.00000E+00
 -1       666 1.38150E+02 3.96080E+01 0.00000E+00
 -1       667 2.35350E+01 9.20225E+00 0.00000E+00
 -1       668 1.39206E+02 1.03250E+01 0.00000E+00
 -1       669 2.05350E+01 9.20225E+00 0.00000E+00
 -1       670 2.95350E+01 9.20225E+00 0.00000E+00
 -1       671 3.25350E+01 9.20225E+00 0.00000E+00
 -1       672 3.55350E+01 9.20225E+00 0.00000E+00
 -1       673 3.85350E+01 9.20225E+00 0.00000E+00
 -1       674 4.15350E+01 9.20225E+00 0.00000E+00
 -1       675 4.45350E+01 9.20225E+00 0.00000E+00
 -1       676 4.75350E+01 9.20225E+00 0.00000E+00
 -1       677 5.05350E+01 9.20225E+00 0.00000E+00
 -1       678 5.35350E+01 9.20225E+00 0.00000E+00
 -1       679 5.65350E+01 9.20225E+00 0.00000E+00
 -1       680 5.95350E+01 9.20225E+00 0.00000E+00
 -1       681 6.25350E+01 9.20225E+00 0.00000E+00
 -1       682 6.55350E+01 9.20225E+00 0.00000E+00
 -1       683 6.85350E+01 9.20225E+00 0.00000E+00
 -1       684 7.15350E+01 9.20225E+00 0.00000E+00
 -1       685 7.45350E+01 9.20225E+00 0.00000E+00
 -1       686 7.75350E+01 9.20225E+00 0.00000E+00
 -1       687 8.05350E+01 9.20225E+00 0.00000E+00
 -1       688 8.35350E+01 9.20225E+00 0.00000E+00
 -1       689 8.65350E+01 9.20225E+00 0.00000E+00
 -1       690 8.95350E+01 9.20225E+00 0.00000E+00
 -1       691 9.25350E+01 9.20225E+00 0.00000E+00
 -1       692 9.55350E+01 9.20225E+00 0.00000E+00
 -1       693 9.85350E+01 9.20225E+00 0.00000E+00
 -1       694 1.01535E+02 9.20225E+00 0.00000E+00
 -1       695 1.04535E+02 9.20225E+00 0.00000E+00
 -1       696 1.07535E+02 9.20225E+00 0.00000E+00
 -1       697 1.10535E+02 9.20225E+00 0.00000E+00
 -1       698 1.13535E+02 9.20225E+00 0.00000E+00
 -1       699 1.16535E+02 9.20225E+00 0.00000E+00
 -1       700 1.19535E+02 9.20225E+00 0.00000E+00
 -1       701 1.22535E+02 9.20225E+00 0.00000E+00
 -1       702 1.25535E+02 9.20225E+00 0.00000E+00
 -1       703 1.28535E+02 9.20225E+00 0.00000E+00
 -1       704 1.31535E+02 9.20225E+00 0.00000E+00
 -1       705 1.34535E+02 9.20225E+00 0.00000E+00
 -1       706 1.36870E+02 9.76363E+00 0.00000E+00
 -1       707 1.39608E+02 2.35500E+01 0.00000E+00
 -1       708 1.40178E+02 3.96665E+01 0.00000E+00
 -1       709 1.39608E+02 1.76500E+01 0.00000E+00
 -1       710 1.39608E+02 2.65000E+01 0.00000E+00
 -1       711 1.39608E+02 2.06000E+01 0.00000E+00
 -1       712 1.25576E+02 1.49414E+01 0.00000E+00
 -1       713 1.39608E+02 2.94000E+01 0.00000E+00
 -1       714 1.39608E+02 3.23500E+01 0.00000E+00
 -1       715 1.39608E+02 3.53000E+01 0.00000E+00
 -1       716 9.78035E+00 3.93914E+01 0.00000E+00
 -1       717 1.28026E+02 3.22160E+01 0.00000E+00
 -1       718 1.29927E+02 2.01057E+01 0.00000E+00
 -1       719 1.30467E+02 2.20324E+01 0.00000E+00
 -1       720 1.08567E+02 3.56431E+01 0.00000E+00
 -1       721 1.05140E+02 2.10430E+01 0.00000E+00
 -1       722 1.24298E+02 3.60279E+01 0.00000E+00
 -1       723 1.75350E+01 9.20225E+00 0.00000E+00
 -1       724 2.65350E+01 9.20225E+00 0.00000E+00
 -1       725 1.24652E+01 3.94997E+01 0.00000E+00
 -1       726 1.21697E+02 3.74603E+01 0.00000E+00
 -1       727 1.03920E+01 1.76125E+01 0.00000E+00
 -1       728 1.28446E+02 1.69957E+01 0.00000E+00
 -1       729 1.18776E+02 3.75679E+01 0.00000E+00
 -1       730 1.03920E+01 3.23250E+01 0.00000E+00
 -1       731 1.30015E+02 2.83763E+01 0.00000E+00
 -1       732 1.45350E+01 9.20225E+00 0.00000E+00
 -1       733 1.10208E+02 1.37714E+01 0.00000E+00
 -1       734 1.12053E+02 1.29117E+01 0.00000E+00
 -1       735 1.18088E+02 1.23163E+01 0.00000E+00
 -1       736 1.05042E+02 2.85180E+01 0.00000E+00
 -1       737 1.04654E+02 2.34596E+01 0.00000E+00
 -1       738 1.04216E+02 2.59530E+01 0.00000E+00
 -1       739 1.05659E+02 3.13326E+01 0.00000E+00
 -1       740 1.06888E+02 3.32182E+01 0.00000E+00
 -1       741 1.11342E+02 3.69715E+01 0.00000E+00
 -1       742 1.14086E+02 3.78619E+01 0.00000E+00
 -1       743 1.16554E+02 3.75677E+01 0.00000E+00
 -1       744 1.26631E+02 3.44960E+01 0.00000E+00
 -1       745 1.28781E+02 3.05086E+01 0.00000E+00
 -1       746 1.30950E+02 2.47171E+01 0.00000E+00
 -1       747 1.20673E+02 1.28774E+01 0.00000E+00
 -1       748 1.03920E+01 3.52625E+01 0.00000E+00
 -1       749 1.03920E+01 2.64500E+01 0.00000E+00
 -1       750 1.05657E+02 1.65919E+01 0.00000E+00
 -1       751 1.39608E+02 1.47250E+01 0.00000E+00
 -1       752 1.28206E+02 1.48888E+01 0.00000E+00
 -1       753 1.32174E+02 2.68615E+01 0.00000E+00
 -1       754 1.38879E+02 3.74540E+01 0.00000E+00
 -1       755 1.03920E+01 2.93875E+01 0.00000E+00
 -1       756 1.29900E+01 1.32000E+01 0.00000E+00
 -1       757 1.96500E+01 3.70100E+01 0.00000E+00
 -1       758 2.26500E+01 3.70100E+01 0.00000E+00
 -1       759 2.56500E+01 3.70100E+01 0.00000E+00
 -1       760 2.86500E+01 3.70100E+01 0.00000E+00
 -1       761 3.16500E+01 3.70100E+01 0.00000E+00
 -1       762 3.46500E+01 3.70100E+01 0.00000E+00
 -1       763 3.76500E+01 3.70100E+01 0.00000E+00
 -1       764 4.06500E+01 3.70100E+01 0.00000E+00
 -1       765 4.36500E+01 3.70100E+01 0.00000E+00
 -1       766 4.66500E+01 3.70100E+01 0.00000E+00
 -1       767 4.96500E+01 3.70100E+01 0.00000E+00
 -1       768 5.26500E+01 3.70100E+01 0.00000E+00
 -1       769 5.56500E+01 3.70100E+01 0.00000E+00
 -1       770 5.86500E+01 3.70100E+01 0.00000E+00
 -1       771 6.16500E+01 3.70100E+01 0.00000E+00
 -1       772 6.46500E+01 3.70100E+01 0.00000E+00
 -1       773 6.76500E+01 3.70100E+01 0.00000E+00
 -1       774 7.06500E+01 3.70100E+01 0.00000E+00
 -1       775 7.36500E+01 3.70100E+01 0.00000E+00
 -1       776 7.66500E+01 3.70100E+01 0.00000E+00
 -1       777 7.96500E+01 3.70100E+01 0.00000E+00
 -1       778 8.26500E+01 3.70100E+01 0.00000E+00
 -1       779 8.56500E+01 3.70100E+01 0.00000E+00
 -1       780 8.86500E+01 3.70100E+01 0.00000E+00
 -1       781 9.16500E+01 3.70100E+01 0.00000E+00
 -1       782 9.46500E+01 3.70100E+01 0.00000E+00
 -1       783 9.76500E+01 3.70100E+01 0.00000E+00
 -1       784 1.00650E+02 3.70100E+01 0.00000E+00
 -1       785 1.03650E+02 3.70100E+01 0.00000E+00
 -1       786 1.27650E+02 3.70100E+01 0.00000E+00
 -1       787 1.30650E+02 3.70100E+01 0.00000E+00
 -1       788 1.33650E+02 3.70100E+01 0.00000E+00
 -1       789 1.36264E+02 3.72320E+01 0.00000E+00
 -1       790 2.20350E+01 1.18003E+01 0.00000E+00
 -1       791 3.40350E+01 1.18003E+01 0.00000E+00
 -1       792 3.10350E+01 1.18003E+01 0.00000E+00
 -1       793 4.00350E+01 1.18003E+01 0.00000E+00
 -1       794 4.30350E+01 1.18003E+01 0.00000E+00
 -1       795 4.60350E+01 1.18003E+01 0.00000E+00
 -1       796 4.90350E+01 1.18003E+01 0.00000E+00
 -1       797 5.20350E+01 1.18003E+01 0.00000E+00
 -1       798 5.50350E+01 1.18003E+01 0.00000E+00
 -1       799 5.80350E+01 1.18003E+01 0.00000E+00
 -1       800 6.10350E+01 1.18003E+01 0.00000E+00
 -1       801 6.40350E+01 1.18003E+01 0.00000E+00
 -1       802 6.70350E+01 1.18003E+01 0.00000E+00
 -1       803 7.00350E+01 1.18003E+01 0.00000E+00
 -1       804 7.30350E+01 1.18003E+01 0.00000E+00
 -1       805 7.60350E+01 1.18003E+01 0.00000E+00
 -1       806 7.90350E+01 1.18003E+01 0.00000E+00
 -1       807 8.20350E+01 1.18003E+01 0.00000E+00
 -1       808 8.50350E+01 1.18003E+01 0.00000E+00
 -1       809 8.80350E+01 1.18003E+01 0.00000E+00
 -1       810 9.10350E+01 1.18003E+01 0.00000E+00
 -1       811 9.40350E+01 1.18003E+01 0.00000E+00
 -1       812 9.70350E+01 1.18003E+01 0.00000E+00
 -1       813 1.00035E+02 1.18003E+01 0.00000E+00
 -1       814 1.03035E+02 1.18003E+01 0.00000E+00
 -1       815 1.06035E+02 1.18003E+01 0.00000E+00
 -1       816 1.30035E+02 1.18003E+01 0.00000E+00
 -1       817 1.33035E+02 1.18003E+01 0.00000E+00
 -1       818 1.02887E+02 2.18471E+01 0.00000E+00
 -1       819 1.29900E+01 2.20250E+01 0.00000E+00
 -1       820 1.31340E+02 1.75252E+01 0.00000E+00
 -1       821 1.37010E+02 2.50250E+01 0.00000E+00
 -1       822 1.37010E+02 3.38250E+01 0.00000E+00
 -1       823 1.03512E+02 3.03285E+01 0.00000E+00
 -1       824 1.29363E+02 3.46006E+01 0.00000E+00
 -1       825 1.90350E+01 1.18003E+01 0.00000E+00
 -1       826 1.32333E+02 2.04703E+01 0.00000E+00
 -1       827 1.37010E+02 3.08750E+01 0.00000E+00
 -1       828 3.70350E+01 1.18003E+01 0.00000E+00
 -1       829 1.03210E+02 1.93717E+01 0.00000E+00
 -1       830 1.66500E+01 3.70100E+01 0.00000E+00
 -1       831 1.02449E+02 2.43405E+01 0.00000E+00
 -1       832 1.37010E+02 2.79500E+01 0.00000E+00
 -1       833 1.31028E+02 3.03854E+01 0.00000E+00
 -1       834 1.04556E+02 3.33944E+01 0.00000E+00
 -1       835 1.37625E+01 1.12011E+01 0.00000E+00
 -1       836 1.06041E+02 3.55978E+01 0.00000E+00
 -1       837 1.02686E+02 2.77635E+01 0.00000E+00
 -1       838 1.30272E+02 3.20928E+01 0.00000E+00
 -1       839 1.32815E+02 2.31550E+01 0.00000E+00
 -1       840 1.29900E+01 2.49750E+01 0.00000E+00
 -1       841 1.03404E+02 1.73961E+01 0.00000E+00
 -1       842 1.37010E+02 1.61875E+01 0.00000E+00
 -1       843 1.39652E+01 3.69017E+01 0.00000E+00
 -1       844 1.26843E+02 1.25302E+01 0.00000E+00
 -1       845 2.80350E+01 1.18003E+01 0.00000E+00
 -1       846 1.35370E+02 1.23616E+01 0.00000E+00
 -1       847 1.37010E+02 1.91375E+01 0.00000E+00
 -1       848 2.50350E+01 1.18003E+01 0.00000E+00
 -1       849 1.37010E+02 2.20812E+01 0.00000E+00
 -1       850 1.36940E+02 1.29756E+01 0.00000E+00
 -1       851 1.31100E+02 1.54183E+01 0.00000E+00
 -1       852 1.29900E+01 1.90875E+01 0.00000E+00
 -1       853 1.63988E+01 1.15007E+01 0.00000E+00
 -1       854 1.33187E+02 2.88706E+01 0.00000E+00
 -1       855 1.29900E+01 1.61437E+01 0.00000E+00
 -1       856 1.00918E+02 2.61510E+01 0.00000E+00
 -1       857 1.29900E+01 3.08563E+01 0.00000E+00
 -1       858 1.36637E+02 3.55285E+01 0.00000E+00
 -1       859 1.29900E+01 3.37938E+01 0.00000E+00
 -1       860 1.81500E+01 3.44120E+01 0.00000E+00
 -1       861 1.29900E+01 2.79188E+01 0.00000E+00
 -1       862 1.35010E+02 2.54430E+01 0.00000E+00
 -1       863 2.41500E+01 3.44120E+01 0.00000E+00
 -1       864 2.71500E+01 3.44120E+01 0.00000E+00
 -1       865 3.01500E+01 3.44120E+01 0.00000E+00
 -1       866 3.31500E+01 3.44120E+01 0.00000E+00
 -1       867 3.61500E+01 3.44120E+01 0.00000E+00
 -1       868 3.91500E+01 3.44120E+01 0.00000E+00
 -1       869 4.21500E+01 3.44120E+01 0.00000E+00
 -1       870 4.51500E+01 3.44120E+01 0.00000E+00
 -1       871 4.81500E+01 3.44120E+01 0.00000E+00
 -1       872 5.11500E+01 3.44120E+01 0.00000E+00
 -1       873 5.41500E+01 3.44120E+01 0.00000E+00
 -1       874 5.71500E+01 3.44120E+01 0.00000E+00
 -1       875 6.01500E+01 3.44120E+01 0.00000E+00
 -1       876 6.31500E+01 3.44120E+01 0.00000E+00
 -1       877 6.61500E+01 3.44120E+01 0.00000E+00
 -1       878 6.91500E+01 3.44120E+01 0.00000E+00
 -1       879 7.21500E+01 3.44120E+01 0.00000E+00
 -1       880 7.51500E+01 3.44120E+01 0.00000E+00
 -1       881 7.81500E+01 3.44120E+01 0.00000E+00
 -1       882 8.11500E+01 3.44120E+01 0.00000E+00
 -1       883 8.41500E+01 3.44120E+01 0.00000E+00
 -1       884 8.71500E+01 3.44120E+01 0.00000E+00
 -1       885 9.01500E+01 3.44120E+01 0.00000E+00
 -1       886 9.31500E+01 3.44120E+01 0.00000E+00
 -1       887 9.61500E+01 3.44120E+01 0.00000E+00
 -1       888 9.91500E+01 3.44120E+01 0.00000E+00
 -1       889 1.01853E+02 3.39032E+01 0.00000E+00
 -1       890 1.32363E+02 3.46006E+01 0.00000E+00
 -1       891 4.45350E+01 1.43982E+01 0.00000E+00
 -1       892 4.15350E+01 1.43982E+01 0.00000E+00
 -1       893 5.05350E+01 1.43982E+01 0.00000E+00
 -1       894 5.35350E+01 1.43982E+01 0.00000E+00
 -1       895 5.65350E+01 1.43982E+01 0.00000E+00
 -1       896 5.95350E+01 1.43982E+01 0.00000E+00
 -1       897 6.25350E+01 1.43982E+01 0.00000E+00
 -1       898 6.55350E+01 1.43982E+01 0.00000E+00
 -1       899 6.85350E+01 1.43982E+01 0.00000E+00
 -1       900 7.15350E+01 1.43982E+01 0.00000E+00
 -1       901 7.45350E+01 1.43982E+01 0.00000E+00
 -1       902 7.75350E+01 1.43982E+01 0.00000E+00
 -1       903 8.05350E+01 1.43982E+01 0.00000E+00
 -1       904 8.35350E+01 1.43982E+01 0.00000E+00
 -1       905 8.65350E+01 1.43982E+01 0.00000E+00
 -1       906 8.95350E+01 1.43982E+01 0.00000E+00
 -1       907 9.25350E+01 1.43982E+01 0.00000E+00
 -1       908 9.55350E+01 1.43982E+01 0.00000E+00
 -1       909 9.85350E+01 1.43982E+01 0.00000E+00
 -1       910 1.01535E+02 1.43982E+01 0.00000E+00
 -1       911 1.01182E+02 2.03658E+01 0.00000E+00
 -1       912 2.05350E+01 1.43982E+01 0.00000E+00
 -1       913 1.34412E+02 3.23500E+01 0.00000E+00
 -1       914 4.75350E+01 1.43982E+01 0.00000E+00
 -1       915 3.25350E+01 1.43982E+01 0.00000E+00
 -1       916 2.11500E+01 3.44120E+01 0.00000E+00
 -1       917 1.34256E+02 1.81827E+01 0.00000E+00
 -1       918 1.00744E+02 2.28591E+01 0.00000E+00
 -1       919 2.35350E+01 1.43982E+01 0.00000E+00
 -1       920 1.01147E+02 2.96747E+01 0.00000E+00
 -1       921 1.32775E+02 3.17356E+01 0.00000E+00
 -1       922 1.34922E+02 2.13909E+01 0.00000E+00
 -1       923 1.01376E+02 1.83901E+01 0.00000E+00
 -1       924 1.54652E+01 3.43037E+01 0.00000E+00
 -1       925 1.55880E+01 2.93875E+01 0.00000E+00
 -1       926 2.95350E+01 1.43982E+01 0.00000E+00
 -1       927 1.33355E+02 1.49434E+01 0.00000E+00
 -1       928 3.55350E+01 1.43982E+01 0.00000E+00
 -1       929 1.34500E+02 3.50646E+01 0.00000E+00
 -1       930 3.85350E+01 1.43982E+01 0.00000E+00
 -1       931 9.92132E+01 2.46696E+01 0.00000E+00
 -1       932 9.93802E+01 2.80622E+01 0.00000E+00
 -1       933 2.65350E+01 1.43982E+01 0.00000E+00
 -1       934 1.78988E+01 1.40987E+01 0.00000E+00
 -1       935 1.55880E+01 1.46719E+01 0.00000E+00
 -1       936 1.55880E+01 2.05562E+01 0.00000E+00
 -1       937 1.55880E+01 2.35063E+01 0.00000E+00
 -1       938 1.55880E+01 2.64469E+01 0.00000E+00
 -1       939 2.56500E+01 3.18140E+01 0.00000E+00
 -1       940 2.86500E+01 3.18140E+01 0.00000E+00
 -1       941 3.16500E+01 3.18140E+01 0.00000E+00
 -1       942 3.46500E+01 3.18140E+01 0.00000E+00
 -1       943 3.76500E+01 3.18140E+01 0.00000E+00
 -1       944 4.06500E+01 3.18140E+01 0.00000E+00
 -1       945 4.36500E+01 3.18140E+01 0.00000E+00
 -1       946 4.66500E+01 3.18140E+01 0.00000E+00
 -1       947 4.96500E+01 3.18140E+01 0.00000E+00
 -1       948 5.26500E+01 3.18140E+01 0.00000E+00
 -1       949 5.56500E+01 3.18140E+01 0.00000E+00
 -1       950 5.86500E+01 3.18140E+01 0.00000E+00
 -1       951 6.16500E+01 3.18140E+01 0.00000E+00
 -1       952 6.46500E+01 3.18140E+01 0.00000E+00
 -1       953 6.76500E+01 3.18140E+01 0.00000E+00
 -1       954 7.06500E+01 3.18140E+01 0.00000E+00
 -1       955 7.36500E+01 3.18140E+01 0.00000E+00
 -1       956 7.66500E+01 3.18140E+01 0.00000E+00
 -1       957 7.96500E+01 3.18140E+01 0.00000E+00
 -1       958 8.26500E+01 3.18140E+01 0.00000E+00
 -1       959 8.56500E+01 3.18140E+01 0.00000E+00
 -1       960 8.86500E+01 3.18140E+01 0.00000E+00
 -1       961 9.16500E+01 3.18140E+01 0.00000E+00
 -1       962 9.46500E+01 3.18140E+01 0.00000E+00
 -1       963 9.76500E+01 3.18140E+01 0.00000E+00
 -1       964 4.30350E+01 1.69963E+01 0.00000E+00
 -1       965 5.50350E+01 1.69963E+01 0.00000E+00
 -1       966 5.20350E+01 1.69963E+01 0.00000E+00
 -1       967 6.10350E+01 1.69963E+01 0.00000E+00
 -1       968 6.40350E+01 1.69963E+01 0.00000E+00
 -1       969 6.70350E+01 1.69963E+01 0.00000E+00
 -1       970 7.00350E+01 1.69963E+01 0.00000E+00
 -1       971 7.30350E+01 1.69963E+01 0.00000E+00
 -1       972 7.60350E+01 1.69963E+01 0.00000E+00
 -1       973 7.90350E+01 1.69963E+01 0.00000E+00
 -1       974 8.20350E+01 1.69963E+01 0.00000E+00
 -1       975 8.50350E+01 1.69963E+01 0.00000E+00
 -1       976 8.80350E+01 1.69963E+01 0.00000E+00
 -1       977 9.10350E+01 1.69963E+01 0.00000E+00
 -1       978 9.40350E+01 1.69963E+01 0.00000E+00
 -1       979 9.70350E+01 1.69963E+01 0.00000E+00
 -1       980 2.20350E+01 1.69963E+01 0.00000E+00
 -1       981 2.50350E+01 1.69963E+01 0.00000E+00
 -1       982 2.26500E+01 3.18140E+01 0.00000E+00
 -1       983 1.96500E+01 3.18140E+01 0.00000E+00
 -1       984 9.89436E+01 2.12575E+01 0.00000E+00
 -1       985 1.55880E+01 1.76141E+01 0.00000E+00
 -1       986 5.80350E+01 1.69963E+01 0.00000E+00
 -1       987 1.78988E+01 1.70409E+01 0.00000E+00
 -1       988 3.10350E+01 1.69963E+01 0.00000E+00
 -1       989 4.00350E+01 1.69963E+01 0.00000E+00
 -1       990 4.60350E+01 1.69963E+01 0.00000E+00
 -1       991 4.90350E+01 1.69963E+01 0.00000E+00
 -1       992 9.76749E+01 2.65808E+01 0.00000E+00
 -1       993 9.74131E+01 2.30679E+01 0.00000E+00
 -1       994 2.80350E+01 1.69963E+01 0.00000E+00
 -1       995 9.91375E+01 1.92818E+01 0.00000E+00
 -1       996 3.40350E+01 1.69963E+01 0.00000E+00
 -1       997 1.78988E+01 1.99831E+01 0.00000E+00
 -1       998 1.78988E+01 2.29331E+01 0.00000E+00
 -1       999 1.96500E+01 2.88734E+01 0.00000E+00
 -1      1000 2.65350E+01 1.95942E+01 0.00000E+00
 -1      1001 2.71500E+01 2.92160E+01 0.00000E+00
 -1      1002 5.65350E+01 1.95942E+01 0.00000E+00
 -1      1003 3.01500E+01 2.92160E+01 0.00000E+00
 -1      1004 3.31500E+01 2.92160E+01 0.00000E+00
 -1      1005 3.61500E+01 2.92160E+01 0.00000E+00
 -1      1006 3.91500E+01 2.92160E+01 0.00000E+00
 -1      1007 4.21500E+01 2.92160E+01 0.00000E+00
 -1      1008 4.51500E+01 2.92160E+01 0.00000E+00
 -1      1009 4.81500E+01 2.92160E+01 0.00000E+00
 -1      1010 5.11500E+01 2.92160E+01 0.00000E+00
 -1      1011 5.41500E+01 2.92160E+01 0.00000E+00
 -1      1012 5.71500E+01 2.92160E+01 0.00000E+00
 -1      1013 6.01500E+01 2.92160E+01 0.00000E+00
 -1      1014 6.31500E+01 2.92160E+01 0.00000E+00
 -1      1015 6.61500E+01 2.92160E+01 0.00000E+00
 -1      1016 6.91500E+01 2.92160E+01 0.00000E+00
 -1      1017 7.21500E+01 2.92160E+01 0.00000E+00
 -1      1018 7.51500E+01 2.92160E+01 0.00000E+00
 -1      1019 7.81500E+01 2.92160E+01 0.00000E+00
 -1      1020 8.11500E+01 2.92160E+01 0.00000E+00
 -1      1021 8.41500E+01 2.92160E+01 0.00000E+00
 -1      1022 8.71500E+01 2.92160E+01 0.00000E+00
 -1      1023 9.01500E+01 2.92160E+01 0.00000E+00
 -1      1024 9.31500E+01 2.92160E+01 0.00000E+00
 -1      1025 1.96500E+01 2.59328E+01 0.00000E+00
 -1      1026 5.35350E+01 1.95942E+01 0.00000E+00
 -1      1027 6.55350E+01 1.95942E+01 0.00000E+00
 -1      1028 6.25350E+01 1.95942E+01 0.00000E+00
 -1      1029 7.15350E+01 1.95942E+01 0.00000E+00
 -1      1030 7.45350E+01 1.95942E+01 0.00000E+00
 -1      1031 7.75350E+01 1.95942E+01 0.00000E+00
 -1      1032 8.05350E+01 1.95942E+01 0.00000E+00
 -1      1033 8.35350E+01 1.95942E+01 0.00000E+00
 -1      1034 8.65350E+01 1.95942E+01 0.00000E+00
 -1      1035 8.95350E+01 1.95942E+01 0.00000E+00
 -1      1036 9.25350E+01 1.95942E+01 0.00000E+00
 -1      1037 9.55350E+01 1.95942E+01 0.00000E+00
 -1      1038 2.95350E+01 1.95942E+01 0.00000E+00
 -1      1039 2.35350E+01 1.95942E+01 0.00000E+00
 -1      1040 2.41500E+01 2.92160E+01 0.00000E+00
 -1      1041 9.61624E+01 2.91974E+01 0.00000E+00
 -1      1042 5.95350E+01 1.95942E+01 0.00000E+00
 -1      1043 6.85350E+01 1.95942E+01 0.00000E+00
 -1      1044 3.70350E+01 1.69963E+01 0.00000E+00
 -1      1045 5.05350E+01 1.95942E+01 0.00000E+00
 -1      1046 2.07169E+01 2.12637E+01 0.00000E+00
 -1      1047 4.75350E+01 1.95942E+01 0.00000E+00
 -1      1048 3.25350E+01 1.95942E+01 0.00000E+00
 -1      1049 9.58748E+01 2.49792E+01 0.00000E+00
 -1      1050 4.15350E+01 1.95942E+01 0.00000E+00
 -1      1051 4.45350E+01 1.95942E+01 0.00000E+00
 -1      1052 6.70350E+01 2.21922E+01 0.00000E+00
 -1      1053 9.45124E+01 2.70976E+01 0.00000E+00
 -1      1054 3.16500E+01 2.66180E+01 0.00000E+00
 -1      1055 3.46500E+01 2.66180E+01 0.00000E+00
 -1      1056 3.76500E+01 2.66180E+01 0.00000E+00
 -1      1057 4.06500E+01 2.66180E+01 0.00000E+00
 -1      1058 4.36500E+01 2.66180E+01 0.00000E+00
 -1      1059 4.66500E+01 2.66180E+01 0.00000E+00
 -1      1060 4.96500E+01 2.66180E+01 0.00000E+00
 -1      1061 5.26500E+01 2.66180E+01 0.00000E+00
 -1      1062 5.56500E+01 2.66180E+01 0.00000E+00
 -1      1063 5.86500E+01 2.66180E+01 0.00000E+00
 -1      1064 6.16500E+01 2.66180E+01 0.00000E+00
 -1      1065 6.46500E+01 2.66180E+01 0.00000E+00
 -1      1066 6.76500E+01 2.66180E+01 0.00000E+00
 -1      1067 7.06500E+01 2.66180E+01 0.00000E+00
 -1      1068 7.36500E+01 2.66180E+01 0.00000E+00
 -1      1069 7.66500E+01 2.66180E+01 0.00000E+00
 -1      1070 7.96500E+01 2.66180E+01 0.00000E+00
 -1      1071 8.26500E+01 2.66180E+01 0.00000E+00
 -1      1072 8.56500E+01 2.66180E+01 0.00000E+00
 -1      1073 8.86500E+01 2.66180E+01 0.00000E+00
 -1      1074 9.16500E+01 2.66180E+01 0.00000E+00
 -1      1075 6.40350E+01 2.21922E+01 0.00000E+00
 -1      1076 5.50350E+01 2.21922E+01 0.00000E+00
 -1      1077 2.56500E+01 2.66180E+01 0.00000E+00
 -1      1078 7.60350E+01 2.21922E+01 0.00000E+00
 -1      1079 7.30350E+01 2.21922E+01 0.00000E+00
 -1      1080 8.20350E+01 2.21922E+01 0.00000E+00
 -1      1081 8.50350E+01 2.21922E+01 0.00000E+00
 -1      1082 8.80350E+01 2.21922E+01 0.00000E+00
 -1      1083 9.10350E+01 2.21922E+01 0.00000E+00
 -1      1084 9.42240E+01 2.26301E+01 0.00000E+00
 -1      1085 2.80350E+01 2.21922E+01 0.00000E+00
 -1      1086 5.20350E+01 2.21922E+01 0.00000E+00
 -1      1087 4.30350E+01 2.21922E+01 0.00000E+00
 -1      1088 2.50350E+01 2.21922E+01 0.00000E+00
 -1      1089 2.26500E+01 2.62754E+01 0.00000E+00
 -1      1090 7.00350E+01 2.21922E+01 0.00000E+00
 -1      1091 2.16834E+01 2.37695E+01 0.00000E+00
 -1      1092 7.90350E+01 2.21922E+01 0.00000E+00
 -1      1093 6.10350E+01 2.21922E+01 0.00000E+00
 -1      1094 3.85350E+01 1.95942E+01 0.00000E+00
 -1      1095 5.80350E+01 2.21922E+01 0.00000E+00
 -1      1096 2.86500E+01 2.66180E+01 0.00000E+00
 -1      1097 4.90350E+01 2.21922E+01 0.00000E+00
 -1      1098 4.60350E+01 2.21922E+01 0.00000E+00
 -1      1099 3.55350E+01 1.95942E+01 0.00000E+00
 -1      1100 3.10350E+01 2.21922E+01 0.00000E+00
 -1      1101 4.00350E+01 2.21922E+01 0.00000E+00
 -1      1102 9.29370E+01 2.46240E+01 0.00000E+00
 -1      1103 3.61500E+01 2.40200E+01 0.00000E+00
 -1      1104 2.53425E+01 2.42338E+01 0.00000E+00
 -1      1105 3.35925E+01 2.31061E+01 0.00000E+00
 -1      1106 0.00000E+00 4.85250E+01 0.00000E+00
 -1      1107 0.00000E+00 4.55750E+01 0.00000E+00
 -1      1108 0.00000E+00 4.26250E+01 0.00000E+00
 -1      1109 0.00000E+00 3.96750E+01 0.00000E+00
 -1      1110 0.00000E+00 3.67250E+01 0.00000E+00
 -1      1111 0.00000E+00 3.38000E+01 0.00000E+00
 -1      1112 0.00000E+00 3.08750E+01 0.00000E+00
 -1      1113 0.00000E+00 2.79250E+01 0.00000E+00
 -1      1114 0.00000E+00 2.49750E+01 0.00000E+00
 -1      1115 0.00000E+00 2.20250E+01 0.00000E+00
 -1      1116 0.00000E+00 1.90750E+01 0.00000E+00
 -1      1117 0.00000E+00 1.61500E+01 0.00000E+00
 -1      1118 0.00000E+00 1.32250E+01 0.00000E+00
 -1      1119 0.00000E+00 1.02750E+01 0.00000E+00
 -1      1120 0.00000E+00 7.32500E+00 0.00000E+00
 -1      1121 0.00000E+00 4.37500E+00 0.00000E+00
 -1      1122 0.00000E+00 1.45000E+00 0.00000E+00
 -1      1123 1.57500E+00 5.00000E+01 0.00000E+00
 -1      1124 4.65000E+00 5.00000E+01 0.00000E+00
 -1      1125 7.65000E+00 5.00000E+01 0.00000E+00
 -1      1126 1.06500E+01 5.00000E+01 0.00000E+00
 -1      1127 1.36500E+01 5.00000E+01 0.00000E+00
 -1      1128 1.66500E+01 5.00000E+01 0.00000E+00
 -1      1129 1.96500E+01 5.00000E+01 0.00000E+00
 -1      1130 2.26500E+01 5.00000E+01 0.00000E+00
 -1      1131 2.56500E+01 5.00000E+01 0.00000E+00
 -1      1132 2.86500E+01 5.00000E+01 0.00000E+00
 -1      1133 3.16500E+01 5.00000E+01 0.00000E+00
 -1      1134 3.46500E+01 5.00000E+01 0.00000E+00
 -1      1135 3.76500E+01 5.00000E+01 0.00000E+00
 -1      1136 4.06500E+01 5.00000E+01 0.00000E+00
 -1      1137 4.36500E+01 5.00000E+01 0.00000E+00
 -1      1138 4.66500E+01 5.00000E+01 0.00000E+00
 -1      1139 4.96500E+01 5.00000E+01 0.00000E+00
 -1      1140 5.26500E+01 5.00000E+01 0.00000E+00
 -1      1141 5.56500E+01 5.00000E+01 0.00000E+00
 -1      1142 5.86500E+01 5.00000E+01 0.00000E+00
 -1      1143 6.16500E+01 5.00000E+01 0.00000E+00
 -1      1144 6.46500E+01 5.00000E+01 0.00000E+00
 -1      1145 6.76500E+01 5.00000E+01 0.00000E+00
 -1      1146 7.06500E+01 5.00000E+01 0.00000E+00
 -1      1147 7.36500E+01 5.00000E+01 0.00000E+00
 -1      1148 7.66500E+01 5.00000E+01 0.00000E+00
 -1      1149 7.96500E+01 5.00000E+01 0.00000E+00
 -1      1150 8.26500E+01 5.00000E+01 0.00000E+00
 -1      1151 8.56500E+01 5.00000E+01 0.00000E+00
 -1      1152 8.86500E+01 5.00000E+01 0.00000E+00
 -1      1153 9.16500E+01 5.00000E+01 0.00000E+00
 -1      1154 9.46500E+01 5.00000E+01 0.00000E+00
 -1      1155 9.76500E+01 5.00000E+01 0.00000E+00
 -1      1156 1.00650E+02 5.00000E+01 0.00000E+00
 -1      1157 1.03650E+02 5.00000E+01 0.00000E+00
 -1      1158 1.06650E+02 5.00000E+01 0.00000E+00
 -1      1159 1.09650E+02 5.00000E+01 0.00000E+00
 -1      1160 1.12650E+02 5.00000E+01 0.00000E+00
 -1      1161 1.15650E+02 5.00000E+01 0.00000E+00
 -1      1162 1.18650E+02 5.00000E+01 0.00000E+00
 -1      1163 1.21650E+02 5.00000E+01 0.00000E+00
 -1      1164 1.24650E+02 5.00000E+01 0.00000E+00
 -1      1165 1.27650E+02 5.00000E+01 0.00000E+00
 -1      1166 1.30650E+02 5.00000E+01 0.00000E+00
 -1      1167 1.33650E+02 5.00000E+01 0.00000E+00
 -1      1168 1.36650E+02 5.00000E+01 0.00000E+00
 -1      1169 1.39650E+02 5.00000E+01 0.00000E+00
 -1      1170 1.42650E+02 5.00000E+01 0.00000E+00
 -1      1171 1.45650E+02 5.00000E+01 0.00000E+00
 -1      1172 1.48575E+02 5.00000E+01 0.00000E+00
 -1      1173 1.57500E+00 0.00000E+00 0.00000E+00
 -1      1174 4.65000E+00 0.00000E+00 0.00000E+00
 -1      1175 7.65000E+00 0.00000E+00 0.00000E+00
 -1      1176 1.06500E+01 0.00000E+00 0.00000E+00
 -1      1177 1.36500E+01 0.00000E+00 0.00000E+00
 -1      1178 1.66500E+01 0.00000E+00 0.00000E+00
 -1      1179 1.96500E+01 0.00000E+00 0.00000E+00
 -1      1180 2.26500E+01 0.00000E+00 0.00000E+00
 -1      1181 2.56500E+01 0.00000E+00 0.00000E+00
 -1      1182 2.86500E+01 0.00000E+00 0.00000E+00
 -1      1183 3.16500E+01 0.00000E+00 0.00000E+00
 -1      1184 3.46500E+01 0.00000E+00 0.00000E+00
 -1      1185 3.76500E+01 0.00000E+00 0.00000E+00
 -1      1186 4.06500E+01 0.00000E+00 0.00000E+00
 -1      1187 4.36500E+01 0.00000E+00 0.00000E+00
 -1      1188 4.66500E+01 0.00000E+00 0.00000E+00
 -1      1189 4.96500E+01 0.00000E+00 0.00000E+00
 -1      1190 5.26500E+01 0.00000E+00 0.00000E+00
 -1      1191 5.56500E+01 0.00000E+00 0.00000E+00
 -1      1192 5.86500E+01 0.00000E+00 0.00000E+00
 -1      1193 6.16500E+01 0.00000E+00 0.00000E+00
 -1      1194 6.46500E+01 0.00000E+00 0.00000E+00
 -1      1195 6.76500E+01 0.00000E+00 0.00000E+00
 -1      1196 7.06500E+01 0.00000E+00 0.00000E+00
 -1      1197 7.36500E+01 0.00000E+00 0.00000E+00
 -1      1198 7.66500E+01 0.00000E+00 0.00000E+00
 -1      1199 7.96500E+01 0.00000E+00 0.00000E+00
 -1      1200 8.26500E+01 0.00000E+00 0.00000E+00
 -1      1201 8.56500E+01 0.00000E+00 0.00000E+00
 -1      1202 8.86500E+01 0.00000E+00 0.00000E+00
 -1      1203 9.16500E+01 0.00000E+00 0.00000E+00
 -1      1204 9.46500E+01 0.00000E+00 0.00000E+00
 -1      1205 9.76500E+01 0.00000E+00 0.00000E+00
 -1      1206 1.00650E+02 0.00000E+00 0.00000E+00
 -1      1207 1.03650E+02 0.00000E+00 0.00000E+00
 -1      1208 1.06650E+02 0.00000E+00 0.00000E+00
 -1      1209 1.09650E+02 0.00000E+00 0.00000E+00
 -1      1210 1.12650E+02 0.00000E+00 0.00000E+00
 -1      1211 1.15650E+02 0.00000E+00 0.00000E+00
 -1      1212 1.18650E+02 0.00000E+00 0.00000E+00
 -1      1213 1.21650E+02 0.00000E+00 0.00000E+00
 -1      1214 1.24650E+02 0.00000E+00 0.00000E+00
 -1      1215 1.27650E+02 0.00000E+00 0.00000E+00
 -1      1216 1.30650E+02 0.00000E+00 0.00000E+00
 -1      1217 1.33650E+02 0.00000E+00 0.00000E+00
 -1      1218 1.36650E+02 0.00000E+00 0.00000E+00
 -1      1219 1.39650E+02 0.00000E+00 0.00000E+00
 -1      1220 1.42650E+02 0.00000E+00 0.00000E+00
 -1      1221 1.45650E+02 0.00000E+00 0.00000E+00
 -1      1222 1.48575E+02 0.00000E+00 0.00000E+00
 -1      1223 1.50000E+02 1.47500E+00 0.00000E+00
 -1      1224 1.50000E+02 4.42500E+00 0.00000E+00
 -1      1225 1.50000E+02 7.37500E+00 0.00000E+00
 -1      1226 1.50000E+02 1.03250E+01 0.00000E+00
 -1      1227 1.50000E+02 1.32750E+01 0.00000E+00
 -1      1228 1.50000E+02 1.62000E+01 0.00000E+00
 -1      1229 1.50000E+02 1.91250E+01 0.00000E+00
 -1      1230 1.50000E+02 2.20750E+01 0.00000E+00
 -1      1231 1.50000E+02 2.50250E+01 0.00000E+00
 -1      1232 1.50000E+02 2.79750E+01 0.00000E+00
 -1      1233 1.50000E+02 3.09250E+01 0.00000E+00
 -1      1234 1.50000E+02 3.38500E+01 0.00000E+00
 -1      1235 1.50000E+02 3.67750E+01 0.00000E+00
 -1      1236 1.50000E+02 3.97250E+01 0.00000E+00
 -1      1237 1.50000E+02 4.26750E+01 0.00000E+00
 -1      1238 1.50000E+02 4.56250E+01 0.00000E+00
 -1      1239 1.50000E+02 4.85500E+01 0.00000E+00
 -1      1240 1.24078E+02 2.42751E+01 0.00000E+00
 -1      1241 1.23772E+02 2.28418E+01 0.00000E+00
 -1      1242 1.23175E+02 2.15058E+01 0.00000E+00
 -1      1243 1.22269E+02 2.02739E+01 0.00000E+00
 -1      1244 1.21138E+02 1.92824E+01 0.00000E+00
 -1      1245 1.19822E+02 1.85561E+01 0.00000E+00
 -1      1246 1.18354E+02 1.81223E+01 0.00000E+00
 -1      1247 1.16838E+02 1.80176E+01 0.00000E+00
 -1      1248 1.15300E+02 1.82518E+01 0.00000E+00
 -1      1249 1.13887E+02 1.88016E+01 0.00000E+00
 -1      1250 1.12646E+02 1.96252E+01 0.00000E+00
 -1      1251 1.11572E+02 2.07385E+01 0.00000E+00
 -1      1252 1.10775E+02 2.20478E+01 0.00000E+00
 -1      1253 1.10297E+02 2.34327E+01 0.00000E+00
 -1      1254 1.10118E+02 2.48893E+01 0.00000E+00
 -1      1255 1.10243E+02 2.63368E+01 0.00000E+00
 -1      1256 1.10661E+02 2.77195E+01 0.00000E+00
 -1      1257 1.11366E+02 2.90032E+01 0.00000E+00
 -1      1258 1.12295E+02 3.00866E+01 0.00000E+00
 -1      1259 1.13418E+02 3.09554E+01 0.00000E+00
 -1      1260 1.14700E+02 3.15817E+01 0.00000E+00
 -1      1261 1.16078E+02 3.19347E+01 0.00000E+00
 -1      1262 1.17518E+02 3.20006E+01 0.00000E+00
 -1      1263 1.18926E+02 3.17742E+01 0.00000E+00
 -1      1264 1.20285E+02 3.12539E+01 0.00000E+00
 -1      1265 1.21486E+02 3.04810E+01 0.00000E+00
 -1      1266 1.22460E+02 2.95335E+01 0.00000E+00
 -1      1267 1.23237E+02 2.84095E+01 0.00000E+00
 -1      1268 1.23782E+02 2.71503E+01 0.00000E+00
 -1      1269 1.24077E+02 2.57564E+01 0.00000E+00
 -1      1270 1.57500E+00 4.85250E+01 0.00000E+00
 -1      1271 1.29900E+00 4.48375E+01 0.00000E+00
 -1      1272 1.29900E+00 4.63125E+01 0.00000E+00
 -1      1273 1.29900E+00 4.18875E+01 0.00000E+00
 -1      1274 1.29900E+00 4.33625E+01 0.00000E+00
 -1      1275 2.59800E+00 4.41000E+01 0.00000E+00
 -1      1276 1.29900E+00 3.89375E+01 0.00000E+00
 -1      1277 1.29900E+00 4.04125E+01 0.00000E+00
 -1      1278 2.59800E+00 4.11500E+01 0.00000E+00
 -1      1279 1.29900E+00 3.59875E+01 0.00000E+00
 -1      1280 1.29900E+00 3.74625E+01 0.00000E+00
 -1      1281 2.59800E+00 3.82000E+01 0.00000E+00
 -1      1282 1.29900E+00 3.30875E+01 0.00000E+00
 -1      1283 1.29900E+00 3.45375E+01 0.00000E+00
 -1      1284 2.59800E+00 3.52750E+01 0.00000E+00
 -1      1285 1.29900E+00 3.01375E+01 0.00000E+00
 -1      1286 1.29900E+00 3.16125E+01 0.00000E+00
 -1      1287 2.59800E+00 3.23500E+01 0.00000E+00
 -1      1288 1.29900E+00 2.71875E+01 0.00000E+00
 -1      1289 1.29900E+00 2.86625E+01 0.00000E+00
 -1      1290 2.59800E+00 2.94000E+01 0.00000E+00
 -1      1291 1.29900E+00 2.42375E+01 0.00000E+00
 -1      1292 1.29900E+00 2.57125E+01 0.00000E+00
 -1      1293 2.59800E+00 2.64500E+01 0.00000E+00
 -1      1294 1.29900E+00 2.12875E+01 0.00000E+00
 -1      1295 1.29900E+00 2.27625E+01 0.00000E+00
 -1      1296 2.59800E+00 2.35000E+01 0.00000E+00
 -1      1297 1.29900E+00 1.83375E+01 0.00000E+00
 -1      1298 1.29900E+00 1.98125E+01 0.00000E+00
 -1      1299 2.59800E+00 2.05500E+01 0.00000E+00
 -1      1300 1.29900E+00 1.54375E+01 0.00000E+00
 -1      1301 1.29900E+00 1.68875E+01 0.00000E+00
 -1      1302 2.59800E+00 1.76250E+01 0.00000E+00
 -1      1303 1.29900E+00 1.24875E+01 0.00000E+00
 -1      1304 1.29900E+00 1.39625E+01 0.00000E+00
 -1      1305 2.59800E+00 1.47000E+01 0.00000E+00
 -1      1306 1.29900E+00 9.53750E+00 0.00000E+00
 -1      1307 1.29900E+00 1.10125E+01 0.00000E+00
 -1      1308 2.59800E+00 1.17500E+01 0.00000E+00
 -1      1309 1.29900E+00 6.58750E+00 0.00000E+00
 -1      1310 1.29900E+00 8.06250E+00 0.00000E+00
 -1      1311 2.59800E+00 8.80000E+00 0.00000E+00
 -1      1312 1.29900E+00 3.63750E+00 0.00000E+00
 -1      1313 1.29900E+00 5.11250E+00 0.00000E+00
 -1      1314 2.59800E+00 5.85000E+00 0.00000E+00
 -1      1315 1.43700E+00 1.09375E+00 0.00000E+00
 -1      1316 1.43700E+00 2.54375E+00 0.00000E+00
 -1      1317 2.73600E+00 3.28125E+00 0.00000E+00
 -1      1318 3.01200E+00 1.09375E+00 0.00000E+00
 -1      1319 3.90000E+00 4.87010E+01 0.00000E+00
 -1      1320 5.40000E+00 4.87010E+01 0.00000E+00
 -1      1321 6.90000E+00 4.87010E+01 0.00000E+00
 -1      1322 8.40000E+00 4.87010E+01 0.00000E+00
 -1      1323 6.15000E+00 4.74020E+01 0.00000E+00
 -1      1324 9.90000E+00 4.87010E+01 0.00000E+00
 -1      1325 1.14000E+01 4.87010E+01 0.00000E+00
 -1      1326 9.15000E+00 4.74020E+01 0.00000E+00
 -1      1327 1.29000E+01 4.87010E+01 0.00000E+00
 -1      1328 1.44000E+01 4.87010E+01 0.00000E+00
 -1      1329 1.21500E+01 4.74020E+01 0.00000E+00
 -1      1330 1.59000E+01 4.87010E+01 0.00000E+00
 -1      1331 1.74000E+01 4.87010E+01 0.00000E+00
 -1      1332 1.51500E+01 4.74020E+01 0.00000E+00
 -1      1333 1.89000E+01 4.87010E+01 0.00000E+00
 -1      1334 2.04000E+01 4.87010E+01 0.00000E+00
 -1      1335 1.81500E+01 4.74020E+01 0.00000E+00
 -1      1336 2.19000E+01 4.87010E+01 0.00000E+00
 -1      1337 2.34000E+01 4.87010E+01 0.00000E+00
 -1      1338 2.11500E+01 4.74020E+01 0.00000E+00
 -1      1339 2.49000E+01 4.87010E+01 0.00000E+00
 -1      1340 2.64000E+01 4.87010E+01 0.00000E+00
 -1      1341 2.41500E+01 4.74020E+01 0.00000E+00
 -1      1342 2.79000E+01 4.87010E+01 0.00000E+00
 -1      1343 2.94000E+01 4.87010E+01 0.00000E+00
 -1      1344 2.71500E+01 4.74020E+01 0.00000E+00
 -1      1345 3.09000E+01 4.87010E+01 0.00000E+00
 -1      1346 3.24000E+01 4.87010E+01 0.00000E+00
 -1      1347 3.01500E+01 4.74020E+01 0.00000E+00
 -1      1348 3.39000E+01 4.87010E+01 0.00000E+00
 -1      1349 3.54000E+01 4.87010E+01 0.00000E+00
 -1      1350 3.31500E+01 4.74020E+01 0.00000E+00
 -1      1351 3.69000E+01 4.87010E+01 0.00000E+00
 -1      1352 3.84000E+01 4.87010E+01 0.00000E+00
 -1      1353 3.61500E+01 4.74020E+01 0.00000E+00
 -1      1354 3.99000E+01 4.87010E+01 0.00000E+00
 -1      1355 4.14000E+01 4.87010E+01 0.00000E+00
 -1      1356 3.91500E+01 4.74020E+01 0.00000E+00
 -1      1357 4.29000E+01 4.87010E+01 0.00000E+00
 -1      1358 4.44000E+01 4.87010E+01 0.00000E+00
 -1      1359 4.21500E+01 4.74020E+01 0.00000E+00
 -1      1360 4.59000E+01 4.87010E+01 0.00000E+00
 -1      1361 4.74000E+01 4.87010E+01 0.00000E+00
 -1      1362 4.51500E+01 4.74020E+01 0.00000E+00
 -1      1363 4.89000E+01 4.87010E+01 0.00000E+00
 -1      1364 5.04000E+01 4.87010E+01 0.00000E+00
 -1      1365 4.81500E+01 4.74020E+01 0.00000E+00
 -1      1366 5.19000E+01 4.87010E+01 0.00000E+00
 -1      1367 5.34000E+01 4.87010E+01 0.00000E+00
 -1      1368 5.11500E+01 4.74020E+01 0.00000E+00
 -1      1369 5.49000E+01 4.87010E+01 0.00000E+00
 -1      1370 5.64000E+01 4.87010E+01 0.00000E+00
 -1      1371 5.41500E+01 4.74020E+01 0.00000E+00
 -1      1372 5.79000E+01 4.87010E+01 0.00000E+00
 -1      1373 5.94000E+01 4.87010E+01 0.00000E+00
 -1      1374 5.71500E+01 4.74020E+01 0.00000E+00
 -1      1375 6.09000E+01 4.87010E+01 0.00000E+00
 -1      1376 6.24000E+01 4.87010E+01 0.00000E+00
 -1      1377 6.01500E+01 4.74020E+01 0.00000E+00
 -1      1378 6.39000E+01 4.87010E+01 0.00000E+00
 -1      1379 6.54000E+01 4.87010E+01 0.00000E+00
 -1      1380 6.31500E+01 4.74020E+01 0.00000E+00
 -1      1381 6.69000E+01 4.87010E+01 0.00000E+00
 -1      1382 6.84000E+01 4.87010E+01 0.00000E+00
 -1      1383 6.61500E+01 4.74020E+01 0.00000E+00
 -1      1384 6.99000E+01 4.87010E+01 0.00000E+00
 -1      1385 7.14000E+01 4.87010E+01 0.00000E+00
 -1      1386 6.91500E+01 4.74020E+01 0.00000E+00
 -1      1387 7.29000E+01 4.87010E+01 0.00000E+00
 -1      1388 7.44000E+01 4.87010E+01 0.00000E+00
 -1      1389 7.21500E+01 4.74020E+01 0.00000E+00
 -1      1390 7.59000E+01 4.87010E+01 0.00000E+00
 -1      1391 7.74000E+01 4.87010E+01 0.00000E+00
 -1      1392 7.51500E+01 4.74020E+01 0.00000E+00
 -1      1393 7.89000E+01 4.87010E+01 0.00000E+00
 -1      1394 8.04000E+01 4.87010E+01 0.00000E+00
 -1      1395 7.81500E+01 4.74020E+01 0.00000E+00
 -1      1396 8.19000E+01 4.87010E+01 0.00000E+00
 -1      1397 8.34000E+01 4.87010E+01 0.00000E+00
 -1      1398 8.11500E+01 4.74020E+01 0.00000E+00
 -1      1399 8.49000E+01 4.87010E+01 0.00000E+00
 -1      1400 8.64000E+01 4.87010E+01 0.00000E+00
 -1      1401 8.41500E+01 4.74020E+01 0.00000E+00
 -1      1402 8.79000E+01 4.87010E+01 0.00000E+00
 -1      1403 8.94000E+01 4.87010E+01 0.00000E+00
 -1      1404 8.71500E+01 4.74020E+01 0.00000E+00
 -1      1405 9.09000E+01 4.87010E+01 0.00000E+00
 -1      1406 9.24000E+01 4.87010E+01 0.00000E+00
 -1      1407 9.01500E+01 4.74020E+01 0.00000E+00
 -1      1408 9.39000E+01 4.87010E+01 0.00000E+00
 -1      1409 9.54000E+01 4.87010E+01 0.00000E+00
 -1      1410 9.31500E+01 4.74020E+01 0.00000E+00
 -1      1411 9.69000E+01 4.87010E+01 0.00000E+00
 -1      1412 9.84000E+01 4.87010E+01 0.00000E+00
 -1      1413 9.61500E+01 4.74020E+01 0.00000E+00
 -1      1414 9.99000E+01 4.87010E+01 0.00000E+00
 -1      1415 1.01400E+02 4.87010E+01 0.00000E+00
 -1      1416 9.91500E+01 4.74020E+01 0.00000E+00
 -1      1417 1.02900E+02 4.87010E+01 0.00000E+00
 -1      1418 1.04400E+02 4.87010E+01 0.00000E+00
 -1      1419 1.02150E+02 4.74020E+01 0.00000E+00
 -1      1420 1.05900E+02 4.87010E+01 0.00000E+00
 -1      1421 1.07400E+02 4.87010E+01 0.00000E+00
 -1      1422 1.05150E+02 4.74020E+01 0.00000E+00
 -1      1423 1.08900E+02 4.87010E+01 0.00000E+00
 -1      1424 1.10400E+02 4.87010E+01 0.00000E+00
 -1      1425 1.08150E+02 4.74020E+01 0.00000E+00
 -1      1426 1.11900E+02 4.87010E+01 0.00000E+00
 -1      1427 1.13400E+02 4.87010E+01 0.00000E+00
 -1      1428 1.11150E+02 4.74020E+01 0.00000E+00
 -1      1429 1.14900E+02 4.87010E+01 0.00000E+00
 -1      1430 1.16400E+02 4.87010E+01 0.00000E+00
 -1      1431 1.14150E+02 4.74020E+01 0.00000E+00
 -1      1432 1.17900E+02 4.87010E+01 0.00000E+00
 -1      1433 1.19400E+02 4.87010E+01 0.00000E+00
 -1      1434 1.17150E+02 4.74020E+01 0.00000E+00
 -1      1435 1.20900E+02 4.87010E+01 0.00000E+00
 -1      1436 1.22400E+02 4.87010E+01 0.00000E+00
 -1      1437 1.20150E+02 4.74020E+01 0.00000E+00
 -1      1438 1.23900E+02 4.87010E+01 0.00000E+00
 -1      1439 1.25400E+02 4.87010E+01 0.00000E+00
 -1      1440 1.23150E+02 4.74020E+01 0.00000E+00
 -1      1441 1.26900E+02 4.87010E+01 0.00000E+00
 -1      1442 1.28400E+02 4.87010E+01 0.00000E+00
 -1      1443 1.26150E+02 4.74020E+01 0.00000E+00
 -1      1444 1.29900E+02 4.87010E+01 0.00000E+00
 -1      1445 1.31400E+02 4.87010E+01 0.00000E+00
 -1      1446 1.29150E+02 4.74020E+01 0.00000E+00
 -1      1447 1.32900E+02 4.87010E+01 0.00000E+00
 -1      1448 1.34400E+02 4.87010E+01 0.00000E+00
 -1      1449 1.32150E+02 4.74020E+01 0.00000E+00
 -1      1450 1.35900E+02 4.87010E+01 0.00000E+00
 -1      1451 1.37400E+02 4.87010E+01 0.00000E+00
 -1      1452 1.35150E+02 4.74020E+01 0.00000E+00
 -1      1453 1.38900E+02 4.87010E+01 0.00000E+00
 -1      1454 1.40400E+02 4.87010E+01 0.00000E+00
 -1      1455 1.38150E+02 4.74020E+01 0.00000E+00
 -1      1456 1.41900E+02 4.87010E+01 0.00000E+00
 -1      1457 1.43400E+02 4.87010E+01 0.00000E+00
 -1      1458 1.41150E+02 4.74020E+01 0.00000E+00
 -1      1459 1.44900E+02 4.87010E+01 0.00000E+00
 -1      1460 1.46400E+02 4.87010E+01 0.00000E+00
 -1      1461 1.44150E+02 4.74020E+01 0.00000E+00
 -1      1462 1.48575E+02 4.85500E+01 0.00000E+00
 -1      1463 1.47825E+02 4.72510E+01 0.00000E+00
 -1      1464 6.01200E+00 1.09375E+00 0.00000E+00
 -1      1465 4.51200E+00 1.09375E+00 0.00000E+00
 -1      1466 4.37400E+00 2.18750E+00 0.00000E+00
 -1      1467 9.01200E+00 1.09375E+00 0.00000E+00
 -1      1468 7.51200E+00 1.09375E+00 0.00000E+00
 -1      1469 7.37400E+00 2.18750E+00 0.00000E+00
 -1      1470 1.20120E+01 1.09375E+00 0.00000E+00
 -1      1471 1.05120E+01 1.09375E+00 0.00000E+00
 -1      1472 1.03740E+01 2.18750E+00 0.00000E+00
 -1      1473 1.50120E+01 1.09375E+00 0.00000E+00
 -1      1474 1.35120E+01 1.09375E+00 0.00000E+00
 -1      1475 1.33740E+01 2.18750E+00 0.00000E+00
 -1      1476 1.80120E+01 1.09375E+00 0.00000E+00
 -1      1477 1.65120E+01 1.09375E+00 0.00000E+00
 -1      1478 1.63740E+01 2.18750E+00 0.00000E+00
 -1      1479 2.10120E+01 1.09375E+00 0.00000E+00
 -1      1480 1.95120E+01 1.09375E+00 0.00000E+00
 -1      1481 1.93740E+01 2.18750E+00 0.00000E+00
 -1      1482 2.40120E+01 1.09375E+00 0.00000E+00
 -1      1483 2.25120E+01 1.09375E+00 0.00000E+00
 -1      1484 2.23740E+01 2.18750E+00 0.00000E+00
 -1      1485 2.70120E+01 1.09375E+00 0.00000E+00
 -1      1486 2.55120E+01 1.09375E+00 0.00000E+00
 -1      1487 2.53740E+01 2.18750E+00 0.00000E+00
 -1      1488 3.00120E+01 1.09375E+00 0.00000E+00
 -1      1489 2.85120E+01 1.09375E+00 0.00000E+00
 -1      1490 2.83740E+01 2.18750E+00 0.00000E+00
 -1      1491 3.30120E+01 1.09375E+00 0.00000E+00
 -1      1492 3.15120E+01 1.09375E+00 0.00000E+00
 -1      1493 3.13740E+01 2.18750E+00 0.00000E+00
 -1      1494 3.60120E+01 1.09375E+00 0.00000E+00
 -1      1495 3.45120E+01 1.09375E+00 0.00000E+00
 -1      1496 3.43740E+01 2.18750E+00 0.00000E+00
 -1      1497 3.90120E+01 1.09375E+00 0.00000E+00
 -1      1498 3.75120E+01 1.09375E+00 0.00000E+00
 -1      1499 3.73740E+01 2.18750E+00 0.00000E+00
 -1      1500 4.20120E+01 1.09375E+00 0.00000E+00
 -1      1501 4.05120E+01 1.09375E+00 0.00000E+00
 -1      1502 4.03740E+01 2.18750E+00 0.00000E+00
 -1      1503 4.50120E+01 1.09375E+00 0.00000E+00
 -1      1504 4.35120E+01 1.09375E+00 0.00000E+00
 -1      1505 4.33740E+01 2.18750E+00 0.00000E+00
 -1      1506 4.80120E+01 1.09375E+00 0.00000E+00
 -1      1507 4.65120E+01 1.09375E+00 0.00000E+00
 -1      1508 4.63740E+01 2.18750E+00 0.00000E+00
 -1      1509 5.10120E+01 1.09375E+00 0.00000E+00
 -1      1510 4.95120E+01 1.09375E+00 0.00000E+00
 -1      1511 4.93740E+01 2.18750E+00 0.00000E+00
 -1      1512 5.40120E+01 1.09375E+00 0.00000E+00
 -1      1513 5.25120E+01 1.09375E+00 0.00000E+00
 -1      1514 5.23740E+01 2.18750E+00 0.00000E+00
 -1      1515 5.70120E+01 1.09375E+00 0.00000E+00
 -1      1516 5.55120E+01 1.09375E+00 0.00000E+00
 -1      1517 5.53740E+01 2.18750E+00 0.00000E+00
 -1      1518 6.00120E+01 1.09375E+00 0.00000E+00
 -1      1519 5.85120E+01 1.09375E+00 0.00000E+00
 -1      1520 5.83740E+01 2.18750E+00 0.00000E+00
 -1      1521 6.30120E+01 1.09375E+00 0.00000E+00
 -1      1522 6.15120E+01 1.09375E+00 0.00000E+00
 -1      1523 6.13740E+01 2.18750E+00 0.00000E+00
 -1      1524 6.60120E+01 1.09375E+00 0.00000E+00
 -1      1525 6.45120E+01 1.09375E+00 0.00000E+00
 -1      1526 6.43740E+01 2.18750E+00 0.00000E+00
 -1      1527 6.90120E+01 1.09375E+00 0.00000E+00
 -1      1528 6.75120E+01 1.09375E+00 0.00000E+00
 -1      1529 6.73740E+01 2.18750E+00 0.00000E+00
 -1      1530 7.20120E+01 1.09375E+00 0.00000E+00
 -1      1531 7.05120E+01 1.09375E+00 0.00000E+00
 -1      1532 7.03740E+01 2.18750E+00 0.00000E+00
 -1      1533 7.50120E+01 1.09375E+00 0.00000E+00
 -1      1534 7.35120E+01 1.09375E+00 0.00000E+00
 -1      1535 7.33740E+01 2.18750E+00 0.00000E+00
 -1      1536 7.80120E+01 1.09375E+00 0.00000E+00
 -1      1537 7.65120E+01 1.09375E+00 0.00000E+00
 -1      1538 7.63740E+01 2.18750E+00 0.00000E+00
 -1      1539 8.10120E+01 1.09375E+00 0.00000E+00
 -1      1540 7.95120E+01 1.09375E+00 0.00000E+00
 -1      1541 7.93740E+01 2.18750E+00 0.00000E+00
 -1      1542 8.40120E+01 1.09375E+00 0.00000E+00
 -1      1543 8.25120E+01 1.09375E+00 0.00000E+00
 -1      1544 8.23740E+01 2.18750E+00 0.00000E+00
 -1      1545 8.70120E+01 1.09375E+00 0.00000E+00
 -1      1546 8.55120E+01 1.09375E+00 0.00000E+00
 -1      1547 8.53740E+01 2.18750E+00 0.00000E+00
 -1      1548 9.00120E+01 1.09375E+00 0.00000E+00
 -1      1549 8.85120E+01 1.09375E+00 0.00000E+00
 -1      1550 8.83740E+01 2.18750E+00 0.00000E+00
 -1      1551 9.30120E+01 1.09375E+00 0.00000E+00
 -1      1552 9.15120E+01 1.09375E+00 0.00000E+00
 -1      1553 9.13740E+01 2.18750E+00 0.00000E+00
 -1      1554 9.60120E+01 1.09375E+00 0.00000E+00
 -1      1555 9.45120E+01 1.09375E+00 0.00000E+00
 -1      1556 9.43740E+01 2.18750E+00 0.00000E+00
 -1      1557 9.90120E+01 1.09375E+00 0.00000E+00
 -1      1558 9.75120E+01 1.09375E+00 0.00000E+00
 -1      1559 9.73740E+01 2.18750E+00 0.00000E+00
 -1      1560 1.02012E+02 1.09375E+00 0.00000E+00
 -1      1561 1.00512E+02 1.09375E+00 0.00000E+00
 -1      1562 1.00374E+02 2.18750E+00 0.00000E+00
 -1      1563 1.05012E+02 1.09375E+00 0.00000E+00
 -1      1564 1.03512E+02 1.09375E+00 0.00000E+00
 -1      1565 1.03374E+02 2.18750E+00 0.00000E+00
 -1      1566 1.08012E+02 1.09375E+00 0.00000E+00
 -1      1567 1.06512E+02 1.09375E+00 0.00000E+00
 -1      1568 1.06374E+02 2.18750E+00 0.00000E+00
 -1      1569 1.11012E+02 1.09375E+00 0.00000E+00
 -1      1570 1.09512E+02 1.09375E+00 0.00000E+00
 -1      1571 1.09374E+02 2.18750E+00 0.00000E+00
 -1      1572 1.14012E+02 1.09375E+00 0.00000E+00
 -1      1573 1.12512E+02 1.09375E+00 0.00000E+00
 -1      1574 1.12374E+02 2.18750E+00 0.00000E+00
 -1      1575 1.17012E+02 1.09375E+00 0.00000E+00
 -1      1576 1.15512E+02 1.09375E+00 0.00000E+00
 -1      1577 1.15374E+02 2.18750E+00 0.00000E+00
 -1      1578 1.20012E+02 1.09375E+00 0.00000E+00
 -1      1579 1.18512E+02 1.09375E+00 0.00000E+00
 -1      1580 1.18374E+02 2.18750E+00 0.00000E+00
 -1      1581 1.23012E+02 1.09375E+00 0.00000E+00
 -1      1582 1.21512E+02 1.09375E+00 0.00000E+00
 -1      1583 1.21374E+02 2.18750E+00 0.00000E+00
 -1      1584 1.26012E+02 1.09375E+00 0.00000E+00
 -1      1585 1.24512E+02 1.09375E+00 0.00000E+00
 -1      1586 1.24374E+02 2.18750E+00 0.00000E+00
 -1      1587 1.29012E+02 1.09375E+00 0.00000E+00
 -1      1588 1.27512E+02 1.09375E+00 0.00000E+00
 -1      1589 1.27374E+02 2.18750E+00 0.00000E+00
 -1      1590 1.32012E+02 1.09375E+00 0.00000E+00
 -1      1591 1.30512E+02 1.09375E+00 0.00000E+00
 -1      1592 1.30374E+02 2.18750E+00 0.00000E+00
 -1      1593 1.35012E+02 1.09375E+00 0.00000E+00
 -1      1594 1.33512E+02 1.09375E+00 0.00000E+00
 -1      1595 1.33374E+02 2.18750E+00 0.00000E+00
 -1      1596 1.38012E+02 1.09375E+00 0.00000E+00
 -1      1597 1.36512E+02 1.09375E+00 0.00000E+00
 -1      1598 1.36374E+02 2.18750E+00 0.00000E+00
 -1      1599 1.41012E+02 1.09375E+00 0.00000E+00
 -1      1600 1.39512E+02 1.09375E+00 0.00000E+00
 -1      1601 1.39374E+02 2.18750E+00 0.00000E+00
 -1      1602 1.44012E+02 1.09375E+00 0.00000E+00
 -1      1603 1.42512E+02 1.09375E+00 0.00000E+00
 -1      1604 1.42374E+02 2.18750E+00 0.00000E+00
 -1      1605 1.47012E+02 1.09375E+00 0.00000E+00
 -1      1606 1.45512E+02 1.09375E+00 0.00000E+00
 -1      1607 1.45374E+02 2.18750E+00 0.00000E+00
 -1      1608 1.48575E+02 1.47500E+00 0.00000E+00
 -1      1609 1.48701E+02 5.16250E+00 0.00000E+00
 -1      1610 1.48701E+02 3.68750E+00 0.00000E+00
 -1      1611 1.48701E+02 8.11250E+00 0.00000E+00
 -1      1612 1.48701E+02 6.63750E+00 0.00000E+00
 -1      1613 1.47402E+02 5.90000E+00 0.00000E+00
 -1      1614 1.48701E+02 1.10625E+01 0.00000E+00
 -1      1615 1.48701E+02 9.58750E+00 0.00000E+00
 -1      1616 1.47402E+02 8.85000E+00 0.00000E+00
 -1      1617 1.48701E+02 1.40125E+01 0.00000E+00
 -1      1618 1.48701E+02 1.25375E+01 0.00000E+00
 -1      1619 1.47402E+02 1.18000E+01 0.00000E+00
 -1      1620 1.48701E+02 1.69125E+01 0.00000E+00
 -1      1621 1.48701E+02 1.54625E+01 0.00000E+00
 -1      1622 1.47402E+02 1.47250E+01 0.00000E+00
 -1      1623 1.48701E+02 1.98625E+01 0.00000E+00
 -1      1624 1.48701E+02 1.83875E+01 0.00000E+00
 -1      1625 1.47402E+02 1.76500E+01 0.00000E+00
 -1      1626 1.48701E+02 2.28125E+01 0.00000E+00
 -1      1627 1.48701E+02 2.13375E+01 0.00000E+00
 -1      1628 1.47402E+02 2.06000E+01 0.00000E+00
 -1      1629 1.48701E+02 2.57625E+01 0.00000E+00
 -1      1630 1.48701E+02 2.42875E+01 0.00000E+00
 -1      1631 1.47402E+02 2.35500E+01 0.00000E+00
 -1      1632 1.48701E+02 2.87125E+01 0.00000E+00
 -1      1633 1.48701E+02 2.72375E+01 0.00000E+00
 -1      1634 1.47402E+02 2.65000E+01 0.00000E+00
 -1      1635 1.48701E+02 3.16625E+01 0.00000E+00
 -1      1636 1.48701E+02 3.01875E+01 0.00000E+00
 -1      1637 1.47402E+02 2.94500E+01 0.00000E+00
 -1      1638 1.48701E+02 3.45625E+01 0.00000E+00
 -1      1639 1.48701E+02 3.31125E+01 0.00000E+00
 -1      1640 1.47402E+02 3.23750E+01 0.00000E+00
 -1      1641 1.48701E+02 3.75125E+01 0.00000E+00
 -1      1642 1.48701E+02 3.60375E+01 0.00000E+00
 -1      1643 1.47402E+02 3.53000E+01 0.00000E+00
 -1      1644 1.48701E+02 4.04625E+01 0.00000E+00
 -1      1645 1.48701E+02 3.89875E+01 0.00000E+00
 -1      1646 1.47402E+02 3.82500E+01 0.00000E+00
 -1      1647 1.48701E+02 4.34125E+01 0.00000E+00
 -1      1648 1.48701E+02 4.19375E+01 0.00000E+00
 -1      1649 1.47402E+02 4.12000E+01 0.00000E+00
 -1      1650 1.48263E+02 4.60692E+01 0.00000E+00
 -1      1651 1.48263E+02 4.45942E+01 0.00000E+00
 -1      1652 1.46964E+02 4.38568E+01 0.00000E+00
 -1      1653 1.46088E+02 4.62202E+01 0.00000E+00
 -1      1654 1.24603E+02 2.38490E+01 0.00000E+00
 -1      1655 1.24680E+02 2.45818E+01 0.00000E+00
 -1      1656 1.24199E+02 2.23192E+01 0.00000E+00
 -1      1657 1.24425E+02 2.30120E+01 0.00000E+00
 -1      1658 1.23482E+02 2.09037E+01 0.00000E+00
 -1      1659 1.23850E+02 2.15393E+01 0.00000E+00
 -1      1660 1.22475E+02 1.95451E+01 0.00000E+00
 -1      1661 1.23013E+02 2.01300E+01 0.00000E+00
 -1      1662 1.21199E+02 1.85775E+01 0.00000E+00
 -1      1663 1.21780E+02 1.89853E+01 0.00000E+00
 -1      1664 1.19722E+02 1.77694E+01 0.00000E+00
 -1      1665 1.20453E+02 1.80759E+01 0.00000E+00
 -1      1666 1.18091E+02 1.74988E+01 0.00000E+00
 -1      1667 1.18817E+02 1.76293E+01 0.00000E+00
 -1      1668 1.16422E+02 1.73875E+01 0.00000E+00
 -1      1669 1.17203E+02 1.73564E+01 0.00000E+00
 -1      1670 1.14780E+02 1.78082E+01 0.00000E+00
 -1      1671 1.15528E+02 1.76074E+01 0.00000E+00
 -1      1672 1.13296E+02 1.84701E+01 0.00000E+00
 -1      1673 1.13955E+02 1.81275E+01 0.00000E+00
 -1      1674 1.11997E+02 1.94278E+01 0.00000E+00
 -1      1675 1.12572E+02 1.89511E+01 0.00000E+00
 -1      1676 1.10818E+02 2.06622E+01 0.00000E+00
 -1      1677 1.11307E+02 2.00284E+01 0.00000E+00
 -1      1678 1.10106E+02 2.21393E+01 0.00000E+00
 -1      1679 1.10416E+02 2.14756E+01 0.00000E+00
 -1      1680 1.09661E+02 2.36614E+01 0.00000E+00
 -1      1681 1.09826E+02 2.29479E+01 0.00000E+00
 -1      1682 1.09544E+02 2.52469E+01 0.00000E+00
 -1      1683 1.09557E+02 2.45119E+01 0.00000E+00
 -1      1684 1.09752E+02 2.67969E+01 0.00000E+00
 -1      1685 1.09616E+02 2.60921E+01 0.00000E+00
 -1      1686 1.10278E+02 2.82744E+01 0.00000E+00
 -1      1687 1.09997E+02 2.76042E+01 0.00000E+00
 -1      1688 1.11076E+02 2.96534E+01 0.00000E+00
 -1      1689 1.10655E+02 2.90476E+01 0.00000E+00
 -1      1690 1.12122E+02 3.07693E+01 0.00000E+00
 -1      1691 1.11622E+02 3.02942E+01 0.00000E+00
 -1      1692 1.13406E+02 3.16661E+01 0.00000E+00
 -1      1693 1.12786E+02 3.12802E+01 0.00000E+00
 -1      1694 1.14829E+02 3.22382E+01 0.00000E+00
 -1      1695 1.14176E+02 3.19979E+01 0.00000E+00
 -1      1696 1.16353E+02 3.25506E+01 0.00000E+00
 -1      1697 1.15634E+02 3.24428E+01 0.00000E+00
 -1      1698 1.17907E+02 3.25489E+01 0.00000E+00
 -1      1699 1.17194E+02 3.25898E+01 0.00000E+00
 -1      1700 1.19417E+02 3.22327E+01 0.00000E+00
 -1      1701 1.18729E+02 3.24168E+01 0.00000E+00
 -1      1702 1.20911E+02 3.16658E+01 0.00000E+00
 -1      1703 1.20248E+02 3.20021E+01 0.00000E+00
 -1      1704 1.22111E+02 3.07146E+01 0.00000E+00
 -1      1705 1.21576E+02 3.11422E+01 0.00000E+00
 -1      1706 1.23116E+02 2.96467E+01 0.00000E+00
 -1      1707 1.22680E+02 3.01614E+01 0.00000E+00
 -1      1708 1.23905E+02 2.83847E+01 0.00000E+00
 -1      1709 1.23569E+02 2.89896E+01 0.00000E+00
 -1      1710 1.24431E+02 2.70014E+01 0.00000E+00
 -1      1711 1.24224E+02 2.76493E+01 0.00000E+00
 -1      1712 1.24763E+02 2.54555E+01 0.00000E+00
 -1      1713 1.24684E+02 2.61956E+01 0.00000E+00
 -1      1714 1.22557E+02 1.88107E+01 0.00000E+00
 -1      1715 1.23721E+02 2.01442E+01 0.00000E+00
 -1      1716 1.48437E+02 2.56875E+00 0.00000E+00
 -1      1717 1.47138E+02 3.30625E+00 0.00000E+00
 -1      1718 1.25066E+02 2.33146E+01 0.00000E+00
 -1      1719 1.24539E+02 2.16977E+01 0.00000E+00
 -1      1720 1.25327E+02 2.50252E+01 0.00000E+00
 -1      1721 1.21116E+02 1.77493E+01 0.00000E+00
 -1      1722 1.19466E+02 1.71075E+01 0.00000E+00
 -1      1723 1.17673E+02 1.68250E+01 0.00000E+00
 -1      1724 1.15891E+02 1.69024E+01 0.00000E+00
 -1      1725 1.14171E+02 1.74417E+01 0.00000E+00
 -1      1726 1.12622E+02 1.82420E+01 0.00000E+00
 -1      1727 1.11207E+02 1.93235E+01 0.00000E+00
 -1      1728 1.10114E+02 2.07374E+01 0.00000E+00
 -1      1729 1.09432E+02 2.23593E+01 0.00000E+00
 -1      1730 1.09049E+02 2.40183E+01 0.00000E+00
 -1      1731 1.09016E+02 2.57140E+01 0.00000E+00
 -1      1732 1.09333E+02 2.73665E+01 0.00000E+00
 -1      1733 1.09955E+02 2.89469E+01 0.00000E+00
 -1      1734 1.10879E+02 3.03608E+01 0.00000E+00
 -1      1735 1.12089E+02 3.15125E+01 0.00000E+00
 -1      1736 1.13523E+02 3.23552E+01 0.00000E+00
 -1      1737 1.15099E+02 3.28916E+01 0.00000E+00
 -1      1738 1.16744E+02 3.31354E+01 0.00000E+00
 -1      1739 1.18407E+02 3.30424E+01 0.00000E+00
 -1      1740 1.20061E+02 3.26798E+01 0.00000E+00
 -1      1741 1.21557E+02 3.19256E+01 0.00000E+00
 -1      1742 1.22791E+02 3.08488E+01 0.00000E+00
 -1      1743 1.23814E+02 2.96385E+01 0.00000E+00
 -1      1744 1.24586E+02 2.82459E+01 0.00000E+00
 -1      1745 1.25157E+02 2.67047E+01 0.00000E+00
 -1      1746 2.87400E+00 4.77875E+01 0.00000E+00
 -1      1747 3.89700E+00 4.04125E+01 0.00000E+00
 -1      1748 3.89700E+00 4.18875E+01 0.00000E+00
 -1      1749 3.89700E+00 4.33625E+01 0.00000E+00
 -1      1750 3.89700E+00 4.48375E+01 0.00000E+00
 -1      1751 5.19600E+00 4.26250E+01 0.00000E+00
 -1      1752 3.89700E+00 3.45500E+01 0.00000E+00
 -1      1753 3.89700E+00 3.60000E+01 0.00000E+00
 -1      1754 3.89700E+00 3.16000E+01 0.00000E+00
 -1      1755 3.89700E+00 3.30750E+01 0.00000E+00
 -1      1756 5.19600E+00 3.38000E+01 0.00000E+00
 -1      1757 3.89700E+00 2.86500E+01 0.00000E+00
 -1      1758 3.89700E+00 3.01250E+01 0.00000E+00
 -1      1759 5.19600E+00 3.08500E+01 0.00000E+00
 -1      1760 3.89700E+00 2.57000E+01 0.00000E+00
 -1      1761 3.89700E+00 2.71750E+01 0.00000E+00
 -1      1762 5.19600E+00 2.79000E+01 0.00000E+00
 -1      1763 3.89700E+00 2.27500E+01 0.00000E+00
 -1      1764 3.89700E+00 2.42250E+01 0.00000E+00
 -1      1765 5.19600E+00 2.49500E+01 0.00000E+00
 -1      1766 3.89700E+00 1.98000E+01 0.00000E+00
 -1      1767 3.89700E+00 2.12750E+01 0.00000E+00
 -1      1768 5.19600E+00 2.20000E+01 0.00000E+00
 -1      1769 3.89700E+00 1.69000E+01 0.00000E+00
 -1      1770 3.89700E+00 1.83500E+01 0.00000E+00
 -1      1771 5.19600E+00 1.90750E+01 0.00000E+00
 -1      1772 3.89700E+00 1.39500E+01 0.00000E+00
 -1      1773 3.89700E+00 1.54250E+01 0.00000E+00
 -1      1774 5.19600E+00 1.61500E+01 0.00000E+00
 -1      1775 3.89700E+00 1.10000E+01 0.00000E+00
 -1      1776 3.89700E+00 1.24750E+01 0.00000E+00
 -1      1777 5.19600E+00 1.32000E+01 0.00000E+00
 -1      1778 3.89700E+00 8.05000E+00 0.00000E+00
 -1      1779 3.89700E+00 9.52500E+00 0.00000E+00
 -1      1780 5.19600E+00 1.02500E+01 0.00000E+00
 -1      1781 3.89700E+00 5.10000E+00 0.00000E+00
 -1      1782 3.89700E+00 6.57500E+00 0.00000E+00
 -1      1783 5.19600E+00 7.30000E+00 0.00000E+00
 -1      1784 4.20450E+00 3.09687E+00 0.00000E+00
 -1      1785 4.06650E+00 4.19063E+00 0.00000E+00
 -1      1786 5.36550E+00 4.91563E+00 0.00000E+00
 -1      1787 5.70450E+00 3.09687E+00 0.00000E+00
 -1      1788 3.62400E+00 4.64885E+01 0.00000E+00
 -1      1789 8.70450E+00 3.09687E+00 0.00000E+00
 -1      1790 7.20450E+00 3.09687E+00 0.00000E+00
 -1      1791 7.03500E+00 4.00625E+00 0.00000E+00
 -1      1792 4.92300E+00 4.57510E+01 0.00000E+00
 -1      1793 8.40000E+00 4.61030E+01 0.00000E+00
 -1      1794 9.90000E+00 4.61030E+01 0.00000E+00
 -1      1795 1.14000E+01 4.61030E+01 0.00000E+00
 -1      1796 1.29000E+01 4.61030E+01 0.00000E+00
 -1      1797 1.06500E+01 4.48040E+01 0.00000E+00
 -1      1798 1.44000E+01 4.61030E+01 0.00000E+00
 -1      1799 1.59000E+01 4.61030E+01 0.00000E+00
 -1      1800 1.36500E+01 4.48040E+01 0.00000E+00
 -1      1801 1.74000E+01 4.61030E+01 0.00000E+00
 -1      1802 1.89000E+01 4.61030E+01 0.00000E+00
 -1      1803 1.66500E+01 4.48040E+01 0.00000E+00
 -1      1804 2.04000E+01 4.61030E+01 0.00000E+00
 -1      1805 2.19000E+01 4.61030E+01 0.00000E+00
 -1      1806 1.96500E+01 4.48040E+01 0.00000E+00
 -1      1807 2.34000E+01 4.61030E+01 0.00000E+00
 -1      1808 2.49000E+01 4.61030E+01 0.00000E+00
 -1      1809 2.26500E+01 4.48040E+01 0.00000E+00
 -1      1810 2.64000E+01 4.61030E+01 0.00000E+00
 -1      1811 2.79000E+01 4.61030E+01 0.00000E+00
 -1      1812 2.56500E+01 4.48040E+01 0.00000E+00
 -1      1813 2.94000E+01 4.61030E+01 0.00000E+00
 -1      1814 3.09000E+01 4.61030E+01 0.00000E+00
 -1      1815 2.86500E+01 4.48040E+01 0.00000E+00
 -1      1816 3.24000E+01 4.61030E+01 0.00000E+00
 -1      1817 3.39000E+01 4.61030E+01 0.00000E+00
 -1      1818 3.16500E+01 4.48040E+01 0.00000E+00
 -1      1819 3.54000E+01 4.61030E+01 0.00000E+00
 -1      1820 3.69000E+01 4.61030E+01 0.00000E+00
 -1      1821 3.46500E+01 4.48040E+01 0.00000E+00
 -1      1822 3.84000E+01 4.61030E+01 0.00000E+00
 -1      1823 3.99000E+01 4.61030E+01 0.00000E+00
 -1      1824 3.76500E+01 4.48040E+01 0.00000E+00
 -1      1825 4.14000E+01 4.61030E+01 0.00000E+00
 -1      1826 4.29000E+01 4.61030E+01 0.00000E+00
 -1      1827 4.06500E+01 4.48040E+01 0.00000E+00
 -1      1828 4.44000E+01 4.61030E+01 0.00000E+00
 -1      1829 4.59000E+01 4.61030E+01 0.00000E+00
 -1      1830 4.36500E+01 4.48040E+01 0.00000E+00
 -1      1831 4.74000E+01 4.61030E+01 0.00000E+00
 -1      1832 4.89000E+01 4.61030E+01 0.00000E+00
 -1      1833 4.66500E+01 4.48040E+01 0.00000E+00
 -1      1834 5.04000E+01 4.61030E+01 0.00000E+00
 -1      1835 5.19000E+01 4.61030E+01 0.00000E+00
 -1      1836 4.96500E+01 4.48040E+01 0.00000E+00
 -1      1837 5.34000E+01 4.61030E+01 0.00000E+00
 -1      1838 5.49000E+01 4.61030E+01 0.00000E+00
 -1      1839 5.26500E+01 4.48040E+01 0.00000E+00
 -1      1840 5.64000E+01 4.61030E+01 0.00000E+00
 -1      1841 5.79000E+01 4.61030E+01 0.00000E+00
 -1      1842 5.56500E+01 4.48040E+01 0.00000E+00
 -1      1843 5.94000E+01 4.61030E+01 0.00000E+00
 -1      1844 6.09000E+01 4.61030E+01 0.00000E+00
 -1      1845 5.86500E+01 4.48040E+01 0.00000E+00
 -1      1846 6.24000E+01 4.61030E+01 0.00000E+00
 -1      1847 6.39000E+01 4.61030E+01 0.00000E+00
 -1      1848 6.16500E+01 4.48040E+01 0.00000E+00
 -1      1849 6.54000E+01 4.61030E+01 0.00000E+00
 -1      1850 6.69000E+01 4.61030E+01 0.00000E+00
 -1      1851 6.46500E+01 4.48040E+01 0.00000E+00
 -1      1852 6.84000E+01 4.61030E+01 0.00000E+00
 -1      1853 6.99000E+01 4.61030E+01 0.00000E+00
 -1      1854 6.76500E+01 4.48040E+01 0.00000E+00
 -1      1855 7.14000E+01 4.61030E+01 0.00000E+00
 -1      1856 7.29000E+01 4.61030E+01 0.00000E+00
 -1      1857 7.06500E+01 4.48040E+01 0.00000E+00
 -1      1858 7.44000E+01 4.61030E+01 0.00000E+00
 -1      1859 7.59000E+01 4.61030E+01 0.00000E+00
 -1      1860 7.36500E+01 4.48040E+01 0.00000E+00
 -1      1861 7.74000E+01 4.61030E+01 0.00000E+00
 -1      1862 7.89000E+01 4.61030E+01 0.00000E+00
 -1      1863 7.66500E+01 4.48040E+01 0.00000E+00
 -1      1864 8.04000E+01 4.61030E+01 0.00000E+00
 -1      1865 8.19000E+01 4.61030E+01 0.00000E+00
 -1      1866 7.96500E+01 4.48040E+01 0.00000E+00
 -1      1867 8.34000E+01 4.61030E+01 0.00000E+00
 -1      1868 8.49000E+01 4.61030E+01 0.00000E+00
 -1      1869 8.26500E+01 4.48040E+01 0.00000E+00
 -1      1870 8.64000E+01 4.61030E+01 0.00000E+00
 -1      1871 8.79000E+01 4.61030E+01 0.00000E+00
 -1      1872 8.56500E+01 4.48040E+01 0.00000E+00
 -1      1873 8.94000E+01 4.61030E+01 0.00000E+00
 -1      1874 9.09000E+01 4.61030E+01 0.00000E+00
 -1      1875 8.86500E+01 4.48040E+01 0.00000E+00
 -1      1876 9.24000E+01 4.61030E+01 0.00000E+00
 -1      1877 9.39000E+01 4.61030E+01 0.00000E+00
 -1      1878 9.16500E+01 4.48040E+01 0.00000E+00
 -1      1879 9.54000E+01 4.61030E+01 0.00000E+00
 -1      1880 9.69000E+01 4.61030E+01 0.00000E+00
 -1      1881 9.46500E+01 4.48040E+01 0.00000E+00
 -1      1882 9.84000E+01 4.61030E+01 0.00000E+00
 -1      1883 9.99000E+01 4.61030E+01 0.00000E+00
 -1      1884 9.76500E+01 4.48040E+01 0.00000E+00
 -1      1885 1.01400E+02 4.61030E+01 0.00000E+00
 -1      1886 1.02900E+02 4.61030E+01 0.00000E+00
 -1      1887 1.00650E+02 4.48040E+01 0.00000E+00
 -1      1888 1.04400E+02 4.61030E+01 0.00000E+00
 -1      1889 1.05900E+02 4.61030E+01 0.00000E+00
 -1      1890 1.03650E+02 4.48040E+01 0.00000E+00
 -1      1891 1.07400E+02 4.61030E+01 0.00000E+00
 -1      1892 1.08900E+02 4.61030E+01 0.00000E+00
 -1      1893 1.06650E+02 4.48040E+01 0.00000E+00
 -1      1894 1.10400E+02 4.61030E+01 0.00000E+00
 -1      1895 1.11900E+02 4.61030E+01 0.00000E+00
 -1      1896 1.09650E+02 4.48040E+01 0.00000E+00
 -1      1897 1.13400E+02 4.61030E+01 0.00000E+00
 -1      1898 1.14900E+02 4.61030E+01 0.00000E+00
 -1      1899 1.12650E+02 4.48040E+01 0.00000E+00
 -1      1900 1.16400E+02 4.61030E+01 0.00000E+00
 -1      1901 1.17900E+02 4.61030E+01 0.00000E+00
 -1      1902 1.15650E+02 4.48040E+01 0.00000E+00
 -1      1903 1.19400E+02 4.61030E+01 0.00000E+00
 -1      1904 1.20900E+02 4.61030E+01 0.00000E+00
 -1      1905 1.18650E+02 4.48040E+01 0.00000E+00
 -1      1906 1.22400E+02 4.61030E+01 0.00000E+00
 -1      1907 1.23900E+02 4.61030E+01 0.00000E+00
 -1      1908 1.21650E+02 4.48040E+01 0.00000E+00
 -1      1909 1.25400E+02 4.61030E+01 0.00000E+00
 -1      1910 1.26900E+02 4.61030E+01 0.00000E+00
 -1      1911 1.24650E+02 4.48040E+01 0.00000E+00
 -1      1912 1.28400E+02 4.61030E+01 0.00000E+00
 -1      1913 1.29900E+02 4.61030E+01 0.00000E+00
 -1      1914 1.27650E+02 4.48040E+01 0.00000E+00
 -1      1915 1.31400E+02 4.61030E+01 0.00000E+00
 -1      1916 1.32900E+02 4.61030E+01 0.00000E+00
 -1      1917 1.30650E+02 4.48040E+01 0.00000E+00
 -1      1918 1.34400E+02 4.61030E+01 0.00000E+00
 -1      1919 1.35900E+02 4.61030E+01 0.00000E+00
 -1      1920 1.33650E+02 4.48040E+01 0.00000E+00
 -1      1921 1.37400E+02 4.61030E+01 0.00000E+00
 -1      1922 1.38900E+02 4.61030E+01 0.00000E+00
 -1      1923 1.36650E+02 4.48040E+01 0.00000E+00
 -1      1924 1.40400E+02 4.61030E+01 0.00000E+00
 -1      1925 1.41900E+02 4.61030E+01 0.00000E+00
 -1      1926 1.39650E+02 4.48040E+01 0.00000E+00
 -1      1927 1.43244E+02 4.61616E+01 0.00000E+00
 -1      1928 1.44744E+02 4.61616E+01 0.00000E+00
 -1      1929 1.45182E+02 4.49799E+01 0.00000E+00
 -1      1930 1.42494E+02 4.48626E+01 0.00000E+00
 -1      1931 1.17045E+01 3.09687E+00 0.00000E+00
 -1      1932 1.02045E+01 3.09687E+00 0.00000E+00
 -1      1933 1.00350E+01 4.00625E+00 0.00000E+00
 -1      1934 1.47045E+01 3.09687E+00 0.00000E+00
 -1      1935 1.32045E+01 3.09687E+00 0.00000E+00
 -1      1936 1.30350E+01 4.00625E+00 0.00000E+00
 -1      1937 1.77045E+01 3.09687E+00 0.00000E+00
 -1      1938 1.62045E+01 3.09687E+00 0.00000E+00
 -1      1939 1.60350E+01 4.00625E+00 0.00000E+00
 -1      1940 2.07045E+01 3.09687E+00 0.00000E+00
 -1      1941 1.92045E+01 3.09687E+00 0.00000E+00
 -1      1942 1.90350E+01 4.00625E+00 0.00000E+00
 -1      1943 2.37045E+01 3.09687E+00 0.00000E+00
 -1      1944 2.22045E+01 3.09687E+00 0.00000E+00
 -1      1945 2.20350E+01 4.00625E+00 0.00000E+00
 -1      1946 2.67045E+01 3.09687E+00 0.00000E+00
 -1      1947 2.52045E+01 3.09687E+00 0.00000E+00
 -1      1948 2.50350E+01 4.00625E+00 0.00000E+00
 -1      1949 2.97045E+01 3.09687E+00 0.00000E+00
 -1      1950 2.82045E+01 3.09687E+00 0.00000E+00
 -1      1951 2.80350E+01 4.00625E+00 0.00000E+00
 -1      1952 3.27045E+01 3.09687E+00 0.00000E+00
 -1      1953 3.12045E+01 3.09687E+00 0.00000E+00
 -1      1954 3.10350E+01 4.00625E+00 0.00000E+00
 -1      1955 3.57045E+01 3.09687E+00 0.00000E+00
 -1      1956 3.42045E+01 3.09687E+00 0.00000E+00
 -1      1957 3.40350E+01 4.00625E+00 0.00000E+00
 -1      1958 3.87045E+01 3.09687E+00 0.00000E+00
 -1      1959 3.72045E+01 3.09687E+00 0.00000E+00
 -1      1960 3.70350E+01 4.00625E+00 0.00000E+00
 -1      1961 4.17045E+01 3.09687E+00 0.00000E+00
 -1      1962 4.02045E+01 3.09687E+00 0.00000E+00
 -1      1963 4.00350E+01 4.00625E+00 0.00000E+00
 -1      1964 4.47045E+01 3.09687E+00 0.00000E+00
 -1      1965 4.32045E+01 3.09687E+00 0.00000E+00
 -1      1966 4.30350E+01 4.00625E+00 0.00000E+00
 -1      1967 4.77045E+01 3.09687E+00 0.00000E+00
 -1      1968 4.62045E+01 3.09687E+00 0.00000E+00
 -1      1969 4.60350E+01 4.00625E+00 0.00000E+00
 -1      1970 5.07045E+01 3.09687E+00 0.00000E+00
 -1      1971 4.92045E+01 3.09687E+00 0.00000E+00
 -1      1972 4.90350E+01 4.00625E+00 0.00000E+00
 -1      1973 5.37045E+01 3.09687E+00 0.00000E+00
 -1      1974 5.22045E+01 3.09687E+00 0.00000E+00
 -1      1975 5.20350E+01 4.00625E+00 0.00000E+00
 -1      1976 5.67045E+01 3.09687E+00 0.00000E+00
 -1      1977 5.52045E+01 3.09687E+00 0.00000E+00
 -1      1978 5.50350E+01 4.00625E+00 0.00000E+00
 -1      1979 5.97045E+01 3.09687E+00 0.00000E+00
 -1      1980 5.82045E+01 3.09687E+00 0.00000E+00
 -1      1981 5.80350E+01 4.00625E+00 0.00000E+00
 -1      1982 6.27045E+01 3.09687E+00 0.00000E+00
 -1      1983 6.12045E+01 3.09687E+00 0.00000E+00
 -1      1984 6.10350E+01 4.00625E+00 0.00000E+00
 -1      1985 6.57045E+01 3.09687E+00 0.00000E+00
 -1      1986 6.42045E+01 3.09687E+00 0.00000E+00
 -1      1987 6.40350E+01 4.00625E+00 0.00000E+00
 -1      1988 6.87045E+01 3.09687E+00 0.00000E+00
 -1      1989 6.72045E+01 3.09687E+00 0.00000E+00
 -1      1990 6.70350E+01 4.00625E+00 0.00000E+00
 -1      1991 7.17045E+01 3.09687E+00 0.00000E+00
 -1      1992 7.02045E+01 3.09687E+00 0.00000E+00
 -1      1993 7.00350E+01 4.00625E+00 0.00000E+00
 -1      1994 7.47045E+01 3.09687E+00 0.00000E+00
 -1      1995 7.32045E+01 3.09687E+00 0.00000E+00
 -1      1996 7.30350E+01 4.00625E+00 0.00000E+00
 -1      1997 7.77045E+01 3.09687E+00 0.00000E+00
 -1      1998 7.62045E+01 3.09687E+00 0.00000E+00
 -1      1999 7.60350E+01 4.00625E+00 0.00000E+00
 -1      2000 8.07045E+01 3.09687E+00 0.00000E+00
 -1      2001 7.92045E+01 3.09687E+00 0.00000E+00
 -1      2002 7.90350E+01 4.00625E+00 0.00000E+00
 -1      2003 8.37045E+01 3.09687E+00 0.00000E+00
 -1      2004 8.22045E+01 3.09687E+00 0.00000E+00
 -1      2005 8.20350E+01 4.00625E+00 0.00000E+00
 -1      2006 8.67045E+01 3.09687E+00 0.00000E+00
 -1      2007 8.52045E+01 3.09687E+00 0.00000E+00
 -1      2008 8.50350E+01 4.00625E+00 0.00000E+00
 -1      2009 8.97045E+01 3.09687E+00 0.00000E+00
 -1      2010 8.82045E+01 3.09687E+00 0.00000E+00
 -1      2011 8.80350E+01 4.00625E+00 0.00000E+00
 -1      2012 9.27045E+01 3.09687E+00 0.00000E+00
 -1      2013 9.12045E+01 3.09687E+00 0.00000E+00
 -1      2014 9.10350E+01 4.00625E+00 0.00000E+00
 -1      2015 9.57045E+01 3.09687E+00 0.00000E+00
 -1      2016 9.42045E+01 3.09687E+00 0.00000E+00
 -1      2017 9.40350E+01 4.00625E+00 0.00000E+00
 -1      2018 9.87045E+01 3.09687E+00 0.00000E+00
 -1      2019 9.72045E+01 3.09687E+00 0.00000E+00
 -1      2020 9.70350E+01 4.00625E+00 0.00000E+00
 -1      2021 1.01704E+02 3.09687E+00 0.00000E+00
 -1      2022 1.00204E+02 3.09687E+00 0.00000E+00
 -1      2023 1.00035E+02 4.00625E+00 0.00000E+00
 -1      2024 1.04704E+02 3.09687E+00 0.00000E+00
 -1      2025 1.03204E+02 3.09687E+00 0.00000E+00
 -1      2026 1.03035E+02 4.00625E+00 0.00000E+00
 -1      2027 1.07704E+02 3.09687E+00 0.00000E+00
 -1      2028 1.06204E+02 3.09687E+00 0.00000E+00
 -1      2029 1.06035E+02 4.00625E+00 0.00000E+00
 -1      2030 1.10704E+02 3.09687E+00 0.00000E+00
 -1      2031 1.09204E+02 3.09687E+00 0.00000E+00
 -1      2032 1.09035E+02 4.00625E+00 0.00000E+00
 -1      2033 1.13704E+02 3.09687E+00 0.00000E+00
 -1      2034 1.12204E+02 3.09687E+00 0.00000E+00
 -1      2035 1.12035E+02 4.00625E+00 0.00000E+00
 -1      2036 1.16704E+02 3.09687E+00 0.00000E+00
 -1      2037 1.15204E+02 3.09687E+00 0.00000E+00
 -1      2038 1.15035E+02 4.00625E+00 0.00000E+00
 -1      2039 1.19704E+02 3.09687E+00 0.00000E+00
 -1      2040 1.18204E+02 3.09687E+00 0.00000E+00
 -1      2041 1.18035E+02 4.00625E+00 0.00000E+00
 -1      2042 1.22704E+02 3.09687E+00 0.00000E+00
 -1      2043 1.21204E+02 3.09687E+00 0.00000E+00
 -1      2044 1.21035E+02 4.00625E+00 0.00000E+00
 -1      2045 1.25704E+02 3.09687E+00 0.00000E+00
 -1      2046 1.24204E+02 3.09687E+00 0.00000E+00
 -1      2047 1.24035E+02 4.00625E+00 0.00000E+00
 -1      2048 1.28704E+02 3.09687E+00 0.00000E+00
 -1      2049 1.27204E+02 3.09687E+00 0.00000E+00
 -1      2050 1.27035E+02 4.00625E+00 0.00000E+00
 -1      2051 1.31704E+02 3.09687E+00 0.00000E+00
 -1      2052 1.30204E+02 3.09687E+00 0.00000E+00
 -1      2053 1.30035E+02 4.00625E+00 0.00000E+00
 -1      2054 1.34704E+02 3.09687E+00 0.00000E+00
 -1      2055 1.33204E+02 3.09687E+00 0.00000E+00
 -1      2056 1.33035E+02 4.00625E+00 0.00000E+00
 -1      2057 1.37704E+02 3.09687E+00 0.00000E+00
 -1      2058 1.36204E+02 3.09687E+00 0.00000E+00
 -1      2059 1.36035E+02 4.00625E+00 0.00000E+00
 -1      2060 1.40704E+02 3.09687E+00 0.00000E+00
 -1      2061 1.39204E+02 3.09687E+00 0.00000E+00
 -1      2062 1.39035E+02 4.00625E+00 0.00000E+00
 -1      2063 1.43704E+02 3.09687E+00 0.00000E+00
 -1      2064 1.42204E+02 3.09687E+00 0.00000E+00
 -1      2065 1.42035E+02 4.00625E+00 0.00000E+00
 -1      2066 1.46171E+02 3.20156E+00 0.00000E+00
 -1      2067 1.44671E+02 3.20156E+00 0.00000E+00
 -1      2068 1.44502E+02 4.11094E+00 0.00000E+00
 -1      2069 1.46435E+02 4.32031E+00 0.00000E+00
 -1      2070 1.46103E+02 1.25375E+01 0.00000E+00
 -1      2071 1.46103E+02 1.10625E+01 0.00000E+00
 -1      2072 1.46103E+02 9.58750E+00 0.00000E+00
 -1      2073 1.46103E+02 8.11250E+00 0.00000E+00
 -1      2074 1.44804E+02 1.03250E+01 0.00000E+00
 -1      2075 1.46269E+02 6.95391E+00 0.00000E+00
 -1      2076 1.46269E+02 5.47891E+00 0.00000E+00
 -1      2077 1.45302E+02 5.37422E+00 0.00000E+00
 -1      2078 1.44970E+02 7.69141E+00 0.00000E+00
 -1      2079 1.46103E+02 1.54375E+01 0.00000E+00
 -1      2080 1.46103E+02 1.39875E+01 0.00000E+00
 -1      2081 1.44804E+02 1.32500E+01 0.00000E+00
 -1      2082 1.46103E+02 1.83875E+01 0.00000E+00
 -1      2083 1.46103E+02 1.69125E+01 0.00000E+00
 -1      2084 1.44804E+02 1.61750E+01 0.00000E+00
 -1      2085 1.46103E+02 2.13375E+01 0.00000E+00
 -1      2086 1.46103E+02 1.98625E+01 0.00000E+00
 -1      2087 1.44804E+02 1.91250E+01 0.00000E+00
 -1      2088 1.46103E+02 2.42875E+01 0.00000E+00
 -1      2089 1.46103E+02 2.28125E+01 0.00000E+00
 -1      2090 1.44804E+02 2.20750E+01 0.00000E+00
 -1      2091 1.46103E+02 2.72375E+01 0.00000E+00
 -1      2092 1.46103E+02 2.57625E+01 0.00000E+00
 -1      2093 1.44804E+02 2.50250E+01 0.00000E+00
 -1      2094 1.46103E+02 3.01875E+01 0.00000E+00
 -1      2095 1.46103E+02 2.87125E+01 0.00000E+00
 -1      2096 1.44804E+02 2.79750E+01 0.00000E+00
 -1      2097 1.46103E+02 3.30875E+01 0.00000E+00
 -1      2098 1.46103E+02 3.16375E+01 0.00000E+00
 -1      2099 1.44804E+02 3.09000E+01 0.00000E+00
 -1      2100 1.46103E+02 3.60375E+01 0.00000E+00
 -1      2101 1.46103E+02 3.45625E+01 0.00000E+00
 -1      2102 1.44804E+02 3.38250E+01 0.00000E+00
 -1      2103 1.46103E+02 3.89875E+01 0.00000E+00
 -1      2104 1.46103E+02 3.75125E+01 0.00000E+00
 -1      2105 1.44804E+02 3.67750E+01 0.00000E+00
 -1      2106 1.46103E+02 4.19375E+01 0.00000E+00
 -1      2107 1.46103E+02 4.04625E+01 0.00000E+00
 -1      2108 1.44804E+02 3.97250E+01 0.00000E+00
 -1      2109 1.25033E+02 2.10092E+01 0.00000E+00
 -1      2110 1.25382E+02 2.17891E+01 0.00000E+00
 -1      2111 1.26056E+02 2.45157E+01 0.00000E+00
 -1      2112 1.26139E+02 2.53894E+01 0.00000E+00
 -1      2113 1.25652E+02 2.27524E+01 0.00000E+00
 -1      2114 1.25830E+02 2.35894E+01 0.00000E+00
 -1      2115 1.24184E+02 1.93341E+01 0.00000E+00
 -1      2116 1.24653E+02 2.01077E+01 0.00000E+00
 -1      2117 1.22694E+02 1.79282E+01 0.00000E+00
 -1      2118 1.23389E+02 1.84880E+01 0.00000E+00
 -1      2119 3.89700E+00 3.74688E+01 0.00000E+00
 -1      2120 3.89700E+00 3.89437E+01 0.00000E+00
 -1      2121 5.19600E+00 3.96813E+01 0.00000E+00
 -1      2122 5.19600E+00 3.67438E+01 0.00000E+00
 -1      2123 1.19119E+02 1.63556E+01 0.00000E+00
 -1      2124 1.20024E+02 1.64957E+01 0.00000E+00
 -1      2125 1.17343E+02 1.60707E+01 0.00000E+00
 -1      2126 1.18231E+02 1.62132E+01 0.00000E+00
 -1      2127 1.18789E+02 1.56014E+01 0.00000E+00
 -1      2128 1.15259E+02 1.62610E+01 0.00000E+00
 -1      2129 1.16153E+02 1.60411E+01 0.00000E+00
 -1      2130 1.13525E+02 1.69969E+01 0.00000E+00
 -1      2131 1.14350E+02 1.66776E+01 0.00000E+00
 -1      2132 1.11878E+02 1.79077E+01 0.00000E+00
 -1      2133 1.12602E+02 1.74267E+01 0.00000E+00
 -1      2134 1.10299E+02 1.89766E+01 0.00000E+00
 -1      2135 1.10990E+02 1.83760E+01 0.00000E+00
 -1      2136 1.09219E+02 2.08011E+01 0.00000E+00
 -1      2137 1.09621E+02 1.99878E+01 0.00000E+00
 -1      2138 1.08641E+02 2.25384E+01 0.00000E+00
 -1      2139 1.08920E+02 2.17298E+01 0.00000E+00
 -1      2140 1.08353E+02 2.43644E+01 0.00000E+00
 -1      2141 1.08458E+02 2.35140E+01 0.00000E+00
 -1      2142 1.08365E+02 2.61954E+01 0.00000E+00
 -1      2143 1.08293E+02 2.53502E+01 0.00000E+00
 -1      2144 1.08715E+02 2.79946E+01 0.00000E+00
 -1      2145 1.08471E+02 2.71873E+01 0.00000E+00
 -1      2146 1.09524E+02 2.96361E+01 0.00000E+00
 -1      2147 1.09147E+02 2.88630E+01 0.00000E+00
 -1      2148 1.10627E+02 3.11288E+01 0.00000E+00
 -1      2149 1.10081E+02 3.04880E+01 0.00000E+00
 -1      2150 1.11950E+02 3.23812E+01 0.00000E+00
 -1      2151 1.11286E+02 3.18703E+01 0.00000E+00
 -1      2152 1.13619E+02 3.31932E+01 0.00000E+00
 -1      2153 1.12849E+02 3.28614E+01 0.00000E+00
 -1      2154 1.15311E+02 3.37438E+01 0.00000E+00
 -1      2155 1.14505E+02 3.35392E+01 0.00000E+00
 -1      2156 1.17133E+02 3.38442E+01 0.00000E+00
 -1      2157 1.16292E+02 3.38050E+01 0.00000E+00
 -1      2158 1.18948E+02 3.37817E+01 0.00000E+00
 -1      2159 1.18125E+02 3.39138E+01 0.00000E+00
 -1      2160 1.20610E+02 3.33206E+01 0.00000E+00
 -1      2161 1.19779E+02 3.35512E+01 0.00000E+00
 -1      2162 1.19497E+02 3.44225E+01 0.00000E+00
 -1      2163 1.22368E+02 3.22717E+01 0.00000E+00
 -1      2164 1.21703E+02 3.27953E+01 0.00000E+00
 -1      2165 1.23528E+02 3.10372E+01 0.00000E+00
 -1      2166 1.22958E+02 3.15904E+01 0.00000E+00
 -1      2167 1.24643E+02 2.97252E+01 0.00000E+00
 -1      2168 1.24190E+02 3.03824E+01 0.00000E+00
 -1      2169 1.25340E+02 2.81361E+01 0.00000E+00
 -1      2170 1.25021E+02 2.88715E+01 0.00000E+00
 -1      2171 1.26022E+02 2.65330E+01 0.00000E+00
 -1      2172 1.25769E+02 2.73388E+01 0.00000E+00
 -1      2173 1.21203E+02 1.69249E+01 0.00000E+00
 -1      2174 1.21949E+02 1.74266E+01 0.00000E+00
 -1      2175 1.22782E+02 1.71038E+01 0.00000E+00
 -1      2176 1.24322E+02 1.84516E+01 0.00000E+00
 -1      2177 6.42300E+00 4.57510E+01 0.00000E+00
 -1      2178 1.20510E+02 1.54211E+01 0.00000E+00
 -1      2179 1.20857E+02 1.61730E+01 0.00000E+00
 -1      2180 1.21690E+02 1.58503E+01 0.00000E+00
 -1      2181 7.17300E+00 4.44520E+01 0.00000E+00
 -1      2182 1.26146E+02 2.20638E+01 0.00000E+00
 -1      2183 1.26642E+02 2.39535E+01 0.00000E+00
 -1      2184 1.45665E+02 4.31193E+01 0.00000E+00
 -1      2185 1.25496E+02 2.01991E+01 0.00000E+00
 -1      2186 1.26751E+02 2.60235E+01 0.00000E+00
 -1      2187 1.26204E+02 2.79645E+01 0.00000E+00
 -1      2188 1.25397E+02 2.96154E+01 0.00000E+00
 -1      2189 1.24357E+02 3.11239E+01 0.00000E+00
 -1      2190 1.21421E+02 3.36667E+01 0.00000E+00
 -1      2191 1.17673E+02 3.45835E+01 0.00000E+00
 -1      2192 1.15699E+02 3.44527E+01 0.00000E+00
 -1      2193 1.13831E+02 3.40455E+01 0.00000E+00
 -1      2194 1.12045E+02 3.32192E+01 0.00000E+00
 -1      2195 1.10487E+02 3.19975E+01 0.00000E+00
 -1      2196 1.09272E+02 3.04041E+01 0.00000E+00
 -1      2197 1.08284E+02 2.86838E+01 0.00000E+00
 -1      2198 1.07747E+02 2.68235E+01 0.00000E+00
 -1      2199 1.07702E+02 2.48458E+01 0.00000E+00
 -1      2200 1.07945E+02 2.28845E+01 0.00000E+00
 -1      2201 1.08427E+02 2.09802E+01 0.00000E+00
 -1      2202 1.09404E+02 1.90403E+01 0.00000E+00
 -1      2203 1.10970E+02 1.75608E+01 0.00000E+00
 -1      2204 1.12781E+02 1.66626E+01 0.00000E+00
 -1      2205 1.16711E+02 1.54293E+01 0.00000E+00
 -1      2206 1.14612E+02 1.58162E+01 0.00000E+00
 -1      2207 1.23104E+02 3.24601E+01 0.00000E+00
 -1      2208 1.07850E+01 5.30525E+00 0.00000E+00
 -1      2209 9.28500E+00 5.30525E+00 0.00000E+00
 -1      2210 6.49500E+00 3.01125E+01 0.00000E+00
 -1      2211 6.49500E+00 3.15875E+01 0.00000E+00
 -1      2212 6.49500E+00 3.30625E+01 0.00000E+00
 -1      2213 6.49500E+00 3.45375E+01 0.00000E+00
 -1      2214 7.79400E+00 3.23250E+01 0.00000E+00
 -1      2215 6.49500E+00 2.42125E+01 0.00000E+00
 -1      2216 6.49500E+00 2.56875E+01 0.00000E+00
 -1      2217 6.49500E+00 2.12625E+01 0.00000E+00
 -1      2218 6.49500E+00 2.27375E+01 0.00000E+00
 -1      2219 7.79400E+00 2.34750E+01 0.00000E+00
 -1      2220 6.49500E+00 1.83625E+01 0.00000E+00
 -1      2221 6.49500E+00 1.98125E+01 0.00000E+00
 -1      2222 7.79400E+00 2.05500E+01 0.00000E+00
 -1      2223 6.49500E+00 1.54125E+01 0.00000E+00
 -1      2224 6.49500E+00 1.68875E+01 0.00000E+00
 -1      2225 7.79400E+00 1.76250E+01 0.00000E+00
 -1      2226 6.49500E+00 1.24625E+01 0.00000E+00
 -1      2227 6.49500E+00 1.39375E+01 0.00000E+00
 -1      2228 7.79400E+00 1.46750E+01 0.00000E+00
 -1      2229 6.49500E+00 9.51250E+00 0.00000E+00
 -1      2230 6.49500E+00 1.09875E+01 0.00000E+00
 -1      2231 7.79400E+00 1.17250E+01 0.00000E+00
 -1      2232 1.24672E+02 1.73269E+01 0.00000E+00
 -1      2233 1.25466E+02 1.81730E+01 0.00000E+00
 -1      2234 1.37850E+01 5.30525E+00 0.00000E+00
 -1      2235 1.22850E+01 5.30525E+00 0.00000E+00
 -1      2236 1.15350E+01 6.60425E+00 0.00000E+00
 -1      2237 9.90000E+00 4.35050E+01 0.00000E+00
 -1      2238 1.14000E+01 4.35050E+01 0.00000E+00
 -1      2239 1.29000E+01 4.35050E+01 0.00000E+00
 -1      2240 1.44000E+01 4.35050E+01 0.00000E+00
 -1      2241 1.21500E+01 4.22060E+01 0.00000E+00
 -1      2242 1.59000E+01 4.35050E+01 0.00000E+00
 -1      2243 1.74000E+01 4.35050E+01 0.00000E+00
 -1      2244 1.51500E+01 4.22060E+01 0.00000E+00
 -1      2245 1.89000E+01 4.35050E+01 0.00000E+00
 -1      2246 2.04000E+01 4.35050E+01 0.00000E+00
 -1      2247 1.81500E+01 4.22060E+01 0.00000E+00
 -1      2248 2.19000E+01 4.35050E+01 0.00000E+00
 -1      2249 2.34000E+01 4.35050E+01 0.00000E+00
 -1      2250 2.11500E+01 4.22060E+01 0.00000E+00
 -1      2251 2.49000E+01 4.35050E+01 0.00000E+00
 -1      2252 2.64000E+01 4.35050E+01 0.00000E+00
 -1      2253 2.41500E+01 4.22060E+01 0.00000E+00
 -1      2254 2.79000E+01 4.35050E+01 0.00000E+00
 -1      2255 2.94000E+01 4.35050E+01 0.00000E+00
 -1      2256 2.71500E+01 4.22060E+01 0.00000E+00
 -1      2257 3.09000E+01 4.35050E+01 0.00000E+00
 -1      2258 3.24000E+01 4.35050E+01 0.00000E+00
 -1      2259 3.01500E+01 4.22060E+01 0.00000E+00
 -1      2260 3.39000E+01 4.35050E+01 0.00000E+00
 -1      2261 3.54000E+01 4.35050E+01 0.00000E+00
 -1      2262 3.31500E+01 4.22060E+01 0.00000E+00
 -1      2263 3.69000E+01 4.35050E+01 0.00000E+00
 -1      2264 3.84000E+01 4.35050E+01 0.00000E+00
 -1      2265 3.61500E+01 4.22060E+01 0.00000E+00
 -1      2266 3.99000E+01 4.35050E+01 0.00000E+00
 -1      2267 4.14000E+01 4.35050E+01 0.00000E+00
 -1      2268 3.91500E+01 4.22060E+01 0.00000E+00
 -1      2269 4.29000E+01 4.35050E+01 0.00000E+00
 -1      2270 4.44000E+01 4.35050E+01 0.00000E+00
 -1      2271 4.21500E+01 4.22060E+01 0.00000E+00
 -1      2272 4.59000E+01 4.35050E+01 0.00000E+00
 -1      2273 4.74000E+01 4.35050E+01 0.00000E+00
 -1      2274 4.51500E+01 4.22060E+01 0.00000E+00
 -1      2275 4.89000E+01 4.35050E+01 0.00000E+00
 -1      2276 5.04000E+01 4.35050E+01 0.00000E+00
 -1      2277 4.81500E+01 4.22060E+01 0.00000E+00
 -1      2278 5.19000E+01 4.35050E+01 0.00000E+00
 -1      2279 5.34000E+01 4.35050E+01 0.00000E+00
 -1      2280 5.11500E+01 4.22060E+01 0.00000E+00
 -1      2281 5.49000E+01 4.35050E+01 0.00000E+00
 -1      2282 5.64000E+01 4.35050E+01 0.00000E+00
 -1      2283 5.41500E+01 4.22060E+01 0.00000E+00
 -1      2284 5.79000E+01 4.35050E+01 0.00000E+00
 -1      2285 5.94000E+01 4.35050E+01 0.00000E+00
 -1      2286 5.71500E+01 4.22060E+01 0.00000E+00
 -1      2287 6.09000E+01 4.35050E+01 0.00000E+00
 -1      2288 6.24000E+01 4.35050E+01 0.00000E+00
 -1      2289 6.01500E+01 4.22060E+01 0.00000E+00
 -1      2290 6.39000E+01 4.35050E+01 0.00000E+00
 -1      2291 6.54000E+01 4.35050E+01 0.00000E+00
 -1      2292 6.31500E+01 4.22060E+01 0.00000E+00
 -1      2293 6.69000E+01 4.35050E+01 0.00000E+00
 -1      2294 6.84000E+01 4.35050E+01 0.00000E+00
 -1      2295 6.61500E+01 4.22060E+01 0.00000E+00
 -1      2296 6.99000E+01 4.35050E+01 0.00000E+00
 -1      2297 7.14000E+01 4.35050E+01 0.00000E+00
 -1      2298 6.91500E+01 4.22060E+01 0.00000E+00
 -1      2299 7.29000E+01 4.35050E+01 0.00000E+00
 -1      2300 7.44000E+01 4.35050E+01 0.00000E+00
 -1      2301 7.21500E+01 4.22060E+01 0.00000E+00
 -1      2302 7.59000E+01 4.35050E+01 0.00000E+00
 -1      2303 7.74000E+01 4.35050E+01 0.00000E+00
 -1      2304 7.51500E+01 4.22060E+01 0.00000E+00
 -1      2305 7.89000E+01 4.35050E+01 0.00000E+00
 -1      2306 8.04000E+01 4.35050E+01 0.00000E+00
 -1      2307 7.81500E+01 4.22060E+01 0.00000E+00
 -1      2308 8.19000E+01 4.35050E+01 0.00000E+00
 -1      2309 8.34000E+01 4.35050E+01 0.00000E+00
 -1      2310 8.11500E+01 4.22060E+01 0.00000E+00
 -1      2311 8.49000E+01 4.35050E+01 0.00000E+00
 -1      2312 8.64000E+01 4.35050E+01 0.00000E+00
 -1      2313 8.41500E+01 4.22060E+01 0.00000E+00
 -1      2314 8.79000E+01 4.35050E+01 0.00000E+00
 -1      2315 8.94000E+01 4.35050E+01 0.00000E+00
 -1      2316 8.71500E+01 4.22060E+01 0.00000E+00
 -1      2317 9.09000E+01 4.35050E+01 0.00000E+00
 -1      2318 9.24000E+01 4.35050E+01 0.00000E+00
 -1      2319 9.01500E+01 4.22060E+01 0.00000E+00
 -1      2320 9.39000E+01 4.35050E+01 0.00000E+00
 -1      2321 9.54000E+01 4.35050E+01 0.00000E+00
 -1      2322 9.31500E+01 4.22060E+01 0.00000E+00
 -1      2323 9.69000E+01 4.35050E+01 0.00000E+00
 -1      2324 9.84000E+01 4.35050E+01 0.00000E+00
 -1      2325 9.61500E+01 4.22060E+01 0.00000E+00
 -1      2326 9.99000E+01 4.35050E+01 0.00000E+00
 -1      2327 1.01400E+02 4.35050E+01 0.00000E+00
 -1      2328 9.91500E+01 4.22060E+01 0.00000E+00
 -1      2329 1.02900E+02 4.35050E+01 0.00000E+00
 -1      2330 1.04400E+02 4.35050E+01 0.00000E+00
 -1      2331 1.02150E+02 4.22060E+01 0.00000E+00
 -1      2332 1.05900E+02 4.35050E+01 0.00000E+00
 -1      2333 1.07400E+02 4.35050E+01 0.00000E+00
 -1      2334 1.05150E+02 4.22060E+01 0.00000E+00
 -1      2335 1.08900E+02 4.35050E+01 0.00000E+00
 -1      2336 1.10400E+02 4.35050E+01 0.00000E+00
 -1      2337 1.08150E+02 4.22060E+01 0.00000E+00
 -1      2338 1.11900E+02 4.35050E+01 0.00000E+00
 -1      2339 1.13400E+02 4.35050E+01 0.00000E+00
 -1      2340 1.11150E+02 4.22060E+01 0.00000E+00
 -1      2341 1.14900E+02 4.35050E+01 0.00000E+00
 -1      2342 1.16400E+02 4.35050E+01 0.00000E+00
 -1      2343 1.14150E+02 4.22060E+01 0.00000E+00
 -1      2344 1.17900E+02 4.35050E+01 0.00000E+00
 -1      2345 1.19400E+02 4.35050E+01 0.00000E+00
 -1      2346 1.17150E+02 4.22060E+01 0.00000E+00
 -1      2347 1.20900E+02 4.35050E+01 0.00000E+00
 -1      2348 1.22400E+02 4.35050E+01 0.00000E+00
 -1      2349 1.20150E+02 4.22060E+01 0.00000E+00
 -1      2350 1.23900E+02 4.35050E+01 0.00000E+00
 -1      2351 1.25400E+02 4.35050E+01 0.00000E+00
 -1      2352 1.23150E+02 4.22060E+01 0.00000E+00
 -1      2353 1.26900E+02 4.35050E+01 0.00000E+00
 -1      2354 1.28400E+02 4.35050E+01 0.00000E+00
 -1      2355 1.26150E+02 4.22060E+01 0.00000E+00
 -1      2356 1.29900E+02 4.35050E+01 0.00000E+00
 -1      2357 1.31400E+02 4.35050E+01 0.00000E+00
 -1      2358 1.29150E+02 4.22060E+01 0.00000E+00
 -1      2359 1.32900E+02 4.35050E+01 0.00000E+00
 -1      2360 1.34400E+02 4.35050E+01 0.00000E+00
 -1      2361 1.32150E+02 4.22060E+01 0.00000E+00
 -1      2362 1.35900E+02 4.35050E+01 0.00000E+00
 -1      2363 1.37400E+02 4.35050E+01 0.00000E+00
 -1      2364 1.35150E+02 4.22060E+01 0.00000E+00
 -1      2365 1.38900E+02 4.35050E+01 0.00000E+00
 -1      2366 1.40400E+02 4.35050E+01 0.00000E+00
 -1      2367 1.38150E+02 4.22060E+01 0.00000E+00
 -1      2368 1.97850E+01 5.30525E+00 0.00000E+00
 -1      2369 1.82850E+01 5.30525E+00 0.00000E+00
 -1      2370 2.27850E+01 5.30525E+00 0.00000E+00
 -1      2371 2.12850E+01 5.30525E+00 0.00000E+00
 -1      2372 2.05350E+01 6.60425E+00 0.00000E+00
 -1      2373 2.57850E+01 5.30525E+00 0.00000E+00
 -1      2374 2.42850E+01 5.30525E+00 0.00000E+00
 -1      2375 2.35350E+01 6.60425E+00 0.00000E+00
 -1      2376 2.87850E+01 5.30525E+00 0.00000E+00
 -1      2377 2.72850E+01 5.30525E+00 0.00000E+00
 -1      2378 2.65350E+01 6.60425E+00 0.00000E+00
 -1      2379 3.17850E+01 5.30525E+00 0.00000E+00
 -1      2380 3.02850E+01 5.30525E+00 0.00000E+00
 -1      2381 2.95350E+01 6.60425E+00 0.00000E+00
 -1      2382 3.47850E+01 5.30525E+00 0.00000E+00
 -1      2383 3.32850E+01 5.30525E+00 0.00000E+00
 -1      2384 3.25350E+01 6.60425E+00 0.00000E+00
 -1      2385 3.77850E+01 5.30525E+00 0.00000E+00
 -1      2386 3.62850E+01 5.30525E+00 0.00000E+00
 -1      2387 3.55350E+01 6.60425E+00 0.00000E+00
 -1      2388 4.07850E+01 5.30525E+00 0.00000E+00
 -1      2389 3.92850E+01 5.30525E+00 0.00000E+00
 -1      2390 3.85350E+01 6.60425E+00 0.00000E+00
 -1      2391 4.37850E+01 5.30525E+00 0.00000E+00
 -1      2392 4.22850E+01 5.30525E+00 0.00000E+00
 -1      2393 4.15350E+01 6.60425E+00 0.00000E+00
 -1      2394 4.67850E+01 5.30525E+00 0.00000E+00
 -1      2395 4.52850E+01 5.30525E+00 0.00000E+00
 -1      2396 4.45350E+01 6.60425E+00 0.00000E+00
 -1      2397 4.97850E+01 5.30525E+00 0.00000E+00
 -1      2398 4.82850E+01 5.30525E+00 0.00000E+00
 -1      2399 4.75350E+01 6.60425E+00 0.00000E+00
 -1      2400 5.27850E+01 5.30525E+00 0.00000E+00
 -1      2401 5.12850E+01 5.30525E+00 0.00000E+00
 -1      2402 5.05350E+01 6.60425E+00 0.00000E+00
 -1      2403 5.57850E+01 5.30525E+00 0.00000E+00
 -1      2404 5.42850E+01 5.30525E+00 0.00000E+00
 -1      2405 5.35350E+01 6.60425E+00 0.00000E+00
 -1      2406 5.87850E+01 5.30525E+00 0.00000E+00
 -1      2407 5.72850E+01 5.30525E+00 0.00000E+00
 -1      2408 5.65350E+01 6.60425E+00 0.00000E+00
 -1      2409 6.17850E+01 5.30525E+00 0.00000E+00
 -1      2410 6.02850E+01 5.30525E+00 0.00000E+00
 -1      2411 5.95350E+01 6.60425E+00 0.00000E+00
 -1      2412 6.47850E+01 5.30525E+00 0.00000E+00
 -1      2413 6.32850E+01 5.30525E+00 0.00000E+00
 -1      2414 6.25350E+01 6.60425E+00 0.00000E+00
 -1      2415 6.77850E+01 5.30525E+00 0.00000E+00
 -1      2416 6.62850E+01 5.30525E+00 0.00000E+00
 -1      2417 6.55350E+01 6.60425E+00 0.00000E+00
 -1      2418 7.07850E+01 5.30525E+00 0.00000E+00
 -1      2419 6.92850E+01 5.30525E+00 0.00000E+00
 -1      2420 6.85350E+01 6.60425E+00 0.00000E+00
 -1      2421 7.37850E+01 5.30525E+00 0.00000E+00
 -1      2422 7.22850E+01 5.30525E+00 0.00000E+00
 -1      2423 7.15350E+01 6.60425E+00 0.00000E+00
 -1      2424 7.67850E+01 5.30525E+00 0.00000E+00
 -1      2425 7.52850E+01 5.30525E+00 0.00000E+00
 -1      2426 7.45350E+01 6.60425E+00 0.00000E+00
 -1      2427 7.97850E+01 5.30525E+00 0.00000E+00
 -1      2428 7.82850E+01 5.30525E+00 0.00000E+00
 -1      2429 7.75350E+01 6.60425E+00 0.00000E+00
 -1      2430 8.27850E+01 5.30525E+00 0.00000E+00
 -1      2431 8.12850E+01 5.30525E+00 0.00000E+00
 -1      2432 8.05350E+01 6.60425E+00 0.00000E+00
 -1      2433 8.57850E+01 5.30525E+00 0.00000E+00
 -1      2434 8.42850E+01 5.30525E+00 0.00000E+00
 -1      2435 8.35350E+01 6.60425E+00 0.00000E+00
 -1      2436 8.87850E+01 5.30525E+00 0.00000E+00
 -1      2437 8.72850E+01 5.30525E+00 0.00000E+00
 -1      2438 8.65350E+01 6.60425E+00 0.00000E+00
 -1      2439 9.17850E+01 5.30525E+00 0.00000E+00
 -1      2440 9.02850E+01 5.30525E+00 0.00000E+00
 -1      2441 8.95350E+01 6.60425E+00 0.00000E+00
 -1      2442 9.47850E+01 5.30525E+00 0.00000E+00
 -1      2443 9.32850E+01 5.30525E+00 0.00000E+00
 -1      2444 9.25350E+01 6.60425E+00 0.00000E+00
 -1      2445 9.77850E+01 5.30525E+00 0.00000E+00
 -1      2446 9.62850E+01 5.30525E+00 0.00000E+00
 -1      2447 9.55350E+01 6.60425E+00 0.00000E+00
 -1      2448 1.00785E+02 5.30525E+00 0.00000E+00
 -1      2449 9.92850E+01 5.30525E+00 0.00000E+00
 -1      2450 9.85350E+01 6.60425E+00 0.00000E+00
 -1      2451 1.03785E+02 5.30525E+00 0.00000E+00
 -1      2452 1.02285E+02 5.30525E+00 0.00000E+00
 -1      2453 1.01535E+02 6.60425E+00 0.00000E+00
 -1      2454 1.06785E+02 5.30525E+00 0.00000E+00
 -1      2455 1.05285E+02 5.30525E+00 0.00000E+00
 -1      2456 1.04535E+02 6.60425E+00 0.00000E+00
 -1      2457 1.09785E+02 5.30525E+00 0.00000E+00
 -1      2458 1.08285E+02 5.30525E+00 0.00000E+00
 -1      2459 1.07535E+02 6.60425E+00 0.00000E+00
 -1      2460 1.12785E+02 5.30525E+00 0.00000E+00
 -1      2461 1.11285E+02 5.30525E+00 0.00000E+00
 -1      2462 1.10535E+02 6.60425E+00 0.00000E+00
 -1      2463 1.15785E+02 5.30525E+00 0.00000E+00
 -1      2464 1.14285E+02 5.30525E+00 0.00000E+00
 -1      2465 1.13535E+02 6.60425E+00 0.00000E+00
 -1      2466 1.18785E+02 5.30525E+00 0.00000E+00
 -1      2467 1.17285E+02 5.30525E+00 0.00000E+00
 -1      2468 1.16535E+02 6.60425E+00 0.00000E+00
 -1      2469 1.21785E+02 5.30525E+00 0.00000E+00
 -1      2470 1.20285E+02 5.30525E+00 0.00000E+00
 -1      2471 1.19535E+02 6.60425E+00 0.00000E+00
 -1      2472 1.24785E+02 5.30525E+00 0.00000E+00
 -1      2473 1.23285E+02 5.30525E+00 0.00000E+00
 -1      2474 1.22535E+02 6.60425E+00 0.00000E+00
 -1      2475 1.27785E+02 5.30525E+00 0.00000E+00
 -1      2476 1.26285E+02 5.30525E+00 0.00000E+00
 -1      2477 1.25535E+02 6.60425E+00 0.00000E+00
 -1      2478 1.30785E+02 5.30525E+00 0.00000E+00
 -1      2479 1.29285E+02 5.30525E+00 0.00000E+00
 -1      2480 1.28535E+02 6.60425E+00 0.00000E+00
 -1      2481 1.33785E+02 5.30525E+00 0.00000E+00
 -1      2482 1.32285E+02 5.30525E+00 0.00000E+00
 -1      2483 1.31535E+02 6.60425E+00 0.00000E+00
 -1      2484 1.36785E+02 5.30525E+00 0.00000E+00
 -1      2485 1.35285E+02 5.30525E+00 0.00000E+00
 -1      2486 1.34535E+02 6.60425E+00 0.00000E+00
 -1      2487 1.39785E+02 5.30525E+00 0.00000E+00
 -1      2488 1.38285E+02 5.30525E+00 0.00000E+00
 -1      2489 1.37535E+02 6.60425E+00 0.00000E+00
 -1      2490 1.42785E+02 5.30525E+00 0.00000E+00
 -1      2491 1.41285E+02 5.30525E+00 0.00000E+00
 -1      2492 1.40535E+02 6.60425E+00 0.00000E+00
 -1      2493 1.44336E+02 5.26953E+00 0.00000E+00
 -1      2494 1.43505E+02 1.69125E+01 0.00000E+00
 -1      2495 1.43505E+02 1.54375E+01 0.00000E+00
 -1      2496 1.43505E+02 1.98625E+01 0.00000E+00
 -1      2497 1.43505E+02 1.83875E+01 0.00000E+00
 -1      2498 1.42206E+02 1.76500E+01 0.00000E+00
 -1      2499 1.43505E+02 1.10625E+01 0.00000E+00
 -1      2500 1.43505E+02 9.58750E+00 0.00000E+00
 -1      2501 1.43505E+02 1.39750E+01 0.00000E+00
 -1      2502 1.43505E+02 1.25250E+01 0.00000E+00
 -1      2503 1.42206E+02 1.17875E+01 0.00000E+00
 -1      2504 1.42206E+02 1.47125E+01 0.00000E+00
 -1      2505 1.43505E+02 2.28125E+01 0.00000E+00
 -1      2506 1.43505E+02 2.13375E+01 0.00000E+00
 -1      2507 1.42206E+02 2.06000E+01 0.00000E+00
 -1      2508 1.43505E+02 2.57625E+01 0.00000E+00
 -1      2509 1.43505E+02 2.42875E+01 0.00000E+00
 -1      2510 1.42206E+02 2.35500E+01 0.00000E+00
 -1      2511 1.43505E+02 2.87125E+01 0.00000E+00
 -1      2512 1.43505E+02 2.72375E+01 0.00000E+00
 -1      2513 1.42206E+02 2.65000E+01 0.00000E+00
 -1      2514 1.43505E+02 3.16125E+01 0.00000E+00
 -1      2515 1.43505E+02 3.01625E+01 0.00000E+00
 -1      2516 1.42206E+02 2.94250E+01 0.00000E+00
 -1      2517 1.43505E+02 3.45625E+01 0.00000E+00
 -1      2518 1.43505E+02 3.30875E+01 0.00000E+00
 -1      2519 1.42206E+02 3.23500E+01 0.00000E+00
 -1      2520 1.43505E+02 3.75125E+01 0.00000E+00
 -1      2521 1.43505E+02 3.60375E+01 0.00000E+00
 -1      2522 1.42206E+02 3.53000E+01 0.00000E+00
 -1      2523 1.43505E+02 4.04625E+01 0.00000E+00
 -1      2524 1.43505E+02 3.89875E+01 0.00000E+00
 -1      2525 1.42206E+02 3.82500E+01 0.00000E+00
 -1      2526 1.27362E+02 2.32872E+01 0.00000E+00
 -1      2527 1.27588E+02 2.42135E+01 0.00000E+00
 -1      2528 1.26250E+02 1.93501E+01 0.00000E+00
 -1      2529 1.26630E+02 2.02515E+01 0.00000E+00
 -1      2530 1.67850E+01 5.30525E+00 0.00000E+00
 -1      2531 1.52850E+01 5.30525E+00 0.00000E+00
 -1      2532 1.75350E+01 6.60425E+00 0.00000E+00
 -1      2533 1.44321E+02 4.30606E+01 0.00000E+00
 -1      2534 1.27829E+02 2.55559E+01 0.00000E+00
 -1      2535 1.27712E+02 2.66995E+01 0.00000E+00
 -1      2536 1.26822E+02 2.13605E+01 0.00000E+00
 -1      2537 1.27092E+02 2.23238E+01 0.00000E+00
 -1      2538 1.28038E+02 2.25839E+01 0.00000E+00
 -1      2539 6.55950E+00 4.28890E+01 0.00000E+00
 -1      2540 8.53650E+00 4.32410E+01 0.00000E+00
 -1      2541 9.28650E+00 4.19420E+01 0.00000E+00
 -1      2542 6.55950E+00 4.14140E+01 0.00000E+00
 -1      2543 1.27100E+02 2.79328E+01 0.00000E+00
 -1      2544 1.26671E+02 2.87301E+01 0.00000E+00
 -1      2545 1.18121E+02 3.53066E+01 0.00000E+00
 -1      2546 1.17128E+02 3.52370E+01 0.00000E+00
 -1      2547 6.49500E+00 2.71625E+01 0.00000E+00
 -1      2548 6.49500E+00 2.86375E+01 0.00000E+00
 -1      2549 7.79400E+00 2.93750E+01 0.00000E+00
 -1      2550 7.79400E+00 2.64250E+01 0.00000E+00
 -1      2551 1.13801E+02 1.52450E+01 0.00000E+00
 -1      2552 1.14709E+02 1.48284E+01 0.00000E+00
 -1      2553 1.18467E+02 1.47661E+01 0.00000E+00
 -1      2554 1.19355E+02 1.49086E+01 0.00000E+00
 -1      2555 1.24111E+02 3.27357E+01 0.00000E+00
 -1      2556 1.23521E+02 3.34170E+01 0.00000E+00
 -1      2557 1.16136E+02 1.45991E+01 0.00000E+00
 -1      2558 1.17326E+02 1.46287E+01 0.00000E+00
 -1      2559 1.11955E+02 1.61047E+01 0.00000E+00
 -1      2560 1.12878E+02 1.56748E+01 0.00000E+00
 -1      2561 1.12975E+02 1.46870E+01 0.00000E+00
 -1      2562 1.10179E+02 1.70412E+01 0.00000E+00
 -1      2563 1.11067E+02 1.65729E+01 0.00000E+00
 -1      2564 1.11164E+02 1.55851E+01 0.00000E+00
 -1      2565 1.08283E+02 1.90219E+01 0.00000E+00
 -1      2566 1.08961E+02 1.80107E+01 0.00000E+00
 -1      2567 1.07541E+02 2.12073E+01 0.00000E+00
 -1      2568 1.07840E+02 2.02786E+01 0.00000E+00
 -1      2569 1.07011E+02 2.32142E+01 0.00000E+00
 -1      2570 1.07194E+02 2.22387E+01 0.00000E+00
 -1      2571 1.06890E+02 2.51858E+01 0.00000E+00
 -1      2572 1.06950E+02 2.42000E+01 0.00000E+00
 -1      2573 1.06199E+02 2.35542E+01 0.00000E+00
 -1      2574 1.07114E+02 2.73924E+01 0.00000E+00
 -1      2575 1.07008E+02 2.64005E+01 0.00000E+00
 -1      2576 1.07807E+02 2.94623E+01 0.00000E+00
 -1      2577 1.07375E+02 2.85939E+01 0.00000E+00
 -1      2578 1.08903E+02 3.12534E+01 0.00000E+00
 -1      2579 1.08346E+02 3.04015E+01 0.00000E+00
 -1      2580 1.10175E+02 3.29377E+01 0.00000E+00
 -1      2581 1.09517E+02 3.21962E+01 0.00000E+00
 -1      2582 1.12011E+02 3.43636E+01 0.00000E+00
 -1      2583 1.11112E+02 3.38834E+01 0.00000E+00
 -1      2584 1.13785E+02 3.50556E+01 0.00000E+00
 -1      2585 1.12898E+02 3.47096E+01 0.00000E+00
 -1      2586 1.11966E+02 3.53737E+01 0.00000E+00
 -1      2587 1.16144E+02 3.52137E+01 0.00000E+00
 -1      2588 1.15163E+02 3.51525E+01 0.00000E+00
 -1      2589 1.20119E+02 3.50529E+01 0.00000E+00
 -1      2590 1.19288E+02 3.52834E+01 0.00000E+00
 -1      2591 1.22321E+02 3.41392E+01 0.00000E+00
 -1      2592 1.21228E+02 3.46645E+01 0.00000E+00
 -1      2593 1.25436E+02 3.14261E+01 0.00000E+00
 -1      2594 1.24773E+02 3.20809E+01 0.00000E+00
 -1      2595 1.25190E+02 3.30378E+01 0.00000E+00
 -1      2596 1.26293E+02 2.95838E+01 0.00000E+00
 -1      2597 1.25915E+02 3.04375E+01 0.00000E+00
 -1      2598 1.27189E+02 2.95521E+01 0.00000E+00
 -1      2599 1.22841E+02 1.62110E+01 0.00000E+00
 -1      2600 1.23586E+02 1.67127E+01 0.00000E+00
 -1      2601 8.07525E+00 5.11044E+00 0.00000E+00
 -1      2602 6.57525E+00 5.11044E+00 0.00000E+00
 -1      2603 6.40575E+00 6.01981E+00 0.00000E+00
 -1      2604 8.82525E+00 6.40944E+00 0.00000E+00
 -1      2605 1.14513E+02 1.34565E+01 0.00000E+00
 -1      2606 1.15324E+02 1.40278E+01 0.00000E+00
 -1      2607 1.15940E+02 1.32272E+01 0.00000E+00
 -1      2608 7.79400E+00 3.52687E+01 0.00000E+00
 -1      2609 6.49500E+00 3.60062E+01 0.00000E+00
 -1      2610 6.49500E+00 3.74750E+01 0.00000E+00
 -1      2611 1.26601E+02 1.82255E+01 0.00000E+00
 -1      2612 1.24731E+02 1.64341E+01 0.00000E+00
 -1      2613 6.40575E+00 7.49481E+00 0.00000E+00
 -1      2614 1.20188E+02 1.45859E+01 0.00000E+00
 -1      2615 1.28179E+02 2.74652E+01 0.00000E+00
 -1      2616 1.22494E+02 1.54591E+01 0.00000E+00
 -1      2617 1.43586E+02 6.56853E+00 0.00000E+00
 -1      2618 1.43419E+02 7.72713E+00 0.00000E+00
 -1      2619 1.28549E+02 2.48896E+01 0.00000E+00
 -1      2620 1.27576E+02 2.05116E+01 0.00000E+00
 -1      2621 1.26332E+02 3.13944E+01 0.00000E+00
 -1      2622 1.23327E+02 3.44149E+01 0.00000E+00
 -1      2623 1.45350E+01 6.60425E+00 0.00000E+00
 -1      2624 1.21019E+02 3.55254E+01 0.00000E+00
 -1      2625 6.55950E+00 3.99453E+01 0.00000E+00
 -1      2626 1.18744E+02 3.59369E+01 0.00000E+00
 -1      2627 1.16592E+02 3.59368E+01 0.00000E+00
 -1      2628 1.14230E+02 3.58167E+01 0.00000E+00
 -1      2629 1.10142E+02 3.40820E+01 0.00000E+00
 -1      2630 1.08591E+02 3.21936E+01 0.00000E+00
 -1      2631 1.07437E+02 3.03116E+01 0.00000E+00
 -1      2632 1.06257E+02 2.57547E+01 0.00000E+00
 -1      2633 1.06607E+02 2.15370E+01 0.00000E+00
 -1      2634 1.07937E+02 1.70045E+01 0.00000E+00
 -1      2635 1.09058E+02 1.70229E+01 0.00000E+00
 -1      2636 1.09155E+02 1.60350E+01 0.00000E+00
 -1      2637 1.17893E+02 1.39359E+01 0.00000E+00
 -1      2638 7.70475E+00 8.23231E+00 0.00000E+00
 -1      2639 1.07397E+02 1.92490E+01 0.00000E+00
 -1      2640 1.06636E+02 2.81709E+01 0.00000E+00
 -1      2641 1.42758E+02 4.35929E+01 0.00000E+00
 -1      2642 1.43241E+02 4.17323E+01 0.00000E+00
 -1      2643 1.41942E+02 4.09948E+01 0.00000E+00
 -1      2644 1.41414E+02 4.35342E+01 0.00000E+00
 -1      2645 1.42120E+02 8.46463E+00 0.00000E+00
 -1      2646 1.40664E+02 4.22352E+01 0.00000E+00
 -1      2647 9.09300E+00 1.98250E+01 0.00000E+00
 -1      2648 9.09300E+00 2.12750E+01 0.00000E+00
 -1      2649 9.09300E+00 2.27500E+01 0.00000E+00
 -1      2650 9.09300E+00 2.42250E+01 0.00000E+00
 -1      2651 1.03920E+01 2.20250E+01 0.00000E+00
 -1      2652 9.09300E+00 1.39375E+01 0.00000E+00
 -1      2653 9.09300E+00 1.54125E+01 0.00000E+00
 -1      2654 9.09300E+00 1.09875E+01 0.00000E+00
 -1      2655 9.09300E+00 1.24625E+01 0.00000E+00
 -1      2656 1.03920E+01 1.32000E+01 0.00000E+00
 -1      2657 1.06209E+02 1.95366E+01 0.00000E+00
 -1      2658 1.06652E+02 1.82800E+01 0.00000E+00
 -1      2659 1.22850E+01 7.90325E+00 0.00000E+00
 -1      2660 1.07850E+01 7.90325E+00 0.00000E+00
 -1      2661 1.22162E+02 1.45004E+01 0.00000E+00
 -1      2662 1.23314E+02 1.48611E+01 0.00000E+00
 -1      2663 1.44000E+01 4.09070E+01 0.00000E+00
 -1      2664 1.59000E+01 4.09070E+01 0.00000E+00
 -1      2665 1.74000E+01 4.09070E+01 0.00000E+00
 -1      2666 1.89000E+01 4.09070E+01 0.00000E+00
 -1      2667 1.66500E+01 3.96080E+01 0.00000E+00
 -1      2668 2.04000E+01 4.09070E+01 0.00000E+00
 -1      2669 2.19000E+01 4.09070E+01 0.00000E+00
 -1      2670 1.96500E+01 3.96080E+01 0.00000E+00
 -1      2671 2.34000E+01 4.09070E+01 0.00000E+00
 -1      2672 2.49000E+01 4.09070E+01 0.00000E+00
 -1      2673 2.26500E+01 3.96080E+01 0.00000E+00
 -1      2674 2.64000E+01 4.09070E+01 0.00000E+00
 -1      2675 2.79000E+01 4.09070E+01 0.00000E+00
 -1      2676 2.56500E+01 3.96080E+01 0.00000E+00
 -1      2677 2.94000E+01 4.09070E+01 0.00000E+00
 -1      2678 3.09000E+01 4.09070E+01 0.00000E+00
 -1      2679 2.86500E+01 3.96080E+01 0.00000E+00
 -1      2680 3.24000E+01 4.09070E+01 0.00000E+00
 -1      2681 3.39000E+01 4.09070E+01 0.00000E+00
 -1      2682 3.16500E+01 3.96080E+01 0.00000E+00
 -1      2683 3.54000E+01 4.09070E+01 0.00000E+00
 -1      2684 3.69000E+01 4.09070E+01 0.00000E+00
 -1      2685 3.46500E+01 3.96080E+01 0.00000E+00
 -1      2686 3.84000E+01 4.09070E+01 0.00000E+00
 -1      2687 3.99000E+01 4.09070E+01 0.00000E+00
 -1      2688 3.76500E+01 3.96080E+01 0.00000E+00
 -1      2689 4.14000E+01 4.09070E+01 0.00000E+00
 -1      2690 4.29000E+01 4.09070E+01 0.00000E+00
 -1      2691 4.06500E+01 3.96080E+01 0.00000E+00
 -1      2692 4.44000E+01 4.09070E+01 0.00000E+00
 -1      2693 4.59000E+01 4.09070E+01 0.00000E+00
 -1      2694 4.36500E+01 3.96080E+01 0.00000E+00
 -1      2695 4.74000E+01 4.09070E+01 0.00000E+00
 -1      2696 4.89000E+01 4.09070E+01 0.00000E+00
 -1      2697 4.66500E+01 3.96080E+01 0.00000E+00
 -1      2698 5.04000E+01 4.09070E+01 0.00000E+00
 -1      2699 5.19000E+01 4.09070E+01 0.00000E+00
 -1      2700 4.96500E+01 3.96080E+01 0.00000E+00
 -1      2701 5.34000E+01 4.09070E+01 0.00000E+00
 -1      2702 5.49000E+01 4.09070E+01 0.00000E+00
 -1      2703 5.26500E+01 3.96080E+01 0.00000E+00
 -1      2704 5.64000E+01 4.09070E+01 0.00000E+00
 -1      2705 5.79000E+01 4.09070E+01 0.00000E+00
 -1      2706 5.56500E+01 3.96080E+01 0.00000E+00
 -1      2707 5.94000E+01 4.09070E+01 0.00000E+00
 -1      2708 6.09000E+01 4.09070E+01 0.00000E+00
 -1      2709 5.86500E+01 3.96080E+01 0.00000E+00
 -1      2710 6.24000E+01 4.09070E+01 0.00000E+00
 -1      2711 6.39000E+01 4.09070E+01 0.00000E+00
 -1      2712 6.16500E+01 3.96080E+01 0.00000E+00
 -1      2713 6.54000E+01 4.09070E+01 0.00000E+00
 -1      2714 6.69000E+01 4.09070E+01 0.00000E+00
 -1      2715 6.46500E+01 3.96080E+01 0.00000E+00
 -1      2716 6.84000E+01 4.09070E+01 0.00000E+00
 -1      2717 6.99000E+01 4.09070E+01 0.00000E+00
 -1      2718 6.76500E+01 3.96080E+01 0.00000E+00
 -1      2719 7.14000E+01 4.09070E+01 0.00000E+00
 -1      2720 7.29000E+01 4.09070E+01 0.00000E+00
 -1      2721 7.06500E+01 3.96080E+01 0.00000E+00
 -1      2722 7.44000E+01 4.09070E+01 0.00000E+00
 -1      2723 7.59000E+01 4.09070E+01 0.00000E+00
 -1      2724 7.36500E+01 3.96080E+01 0.00000E+00
 -1      2725 7.74000E+01 4.09070E+01 0.00000E+00
 -1      2726 7.89000E+01 4.09070E+01 0.00000E+00
 -1      2727 7.66500E+01 3.96080E+01 0.00000E+00
 -1      2728 8.04000E+01 4.09070E+01 0.00000E+00
 -1      2729 8.19000E+01 4.09070E+01 0.00000E+00
 -1      2730 7.96500E+01 3.96080E+01 0.00000E+00
 -1      2731 8.34000E+01 4.09070E+01 0.00000E+00
 -1      2732 8.49000E+01 4.09070E+01 0.00000E+00
 -1      2733 8.26500E+01 3.96080E+01 0.00000E+00
 -1      2734 8.64000E+01 4.09070E+01 0.00000E+00
 -1      2735 8.79000E+01 4.09070E+01 0.00000E+00
 -1      2736 8.56500E+01 3.96080E+01 0.00000E+00
 -1      2737 8.94000E+01 4.09070E+01 0.00000E+00
 -1      2738 9.09000E+01 4.09070E+01 0.00000E+00
 -1      2739 8.86500E+01 3.96080E+01 0.00000E+00
 -1      2740 9.24000E+01 4.09070E+01 0.00000E+00
 -1      2741 9.39000E+01 4.09070E+01 0.00000E+00
 -1      2742 9.16500E+01 3.96080E+01 0.00000E+00
 -1      2743 9.54000E+01 4.09070E+01 0.00000E+00
 -1      2744 9.69000E+01 4.09070E+01 0.00000E+00
 -1      2745 9.46500E+01 3.96080E+01 0.00000E+00
 -1      2746 9.84000E+01 4.09070E+01 0.00000E+00
 -1      2747 9.99000E+01 4.09070E+01 0.00000E+00
 -1      2748 9.76500E+01 3.96080E+01 0.00000E+00
 -1      2749 1.01400E+02 4.09070E+01 0.00000E+00
 -1      2750 1.02900E+02 4.09070E+01 0.00000E+00
 -1      2751 1.00650E+02 3.96080E+01 0.00000E+00
 -1      2752 1.04400E+02 4.09070E+01 0.00000E+00
 -1      2753 1.05900E+02 4.09070E+01 0.00000E+00
 -1      2754 1.03650E+02 3.96080E+01 0.00000E+00
 -1      2755 1.07400E+02 4.09070E+01 0.00000E+00
 -1      2756 1.08900E+02 4.09070E+01 0.00000E+00
 -1      2757 1.06650E+02 3.96080E+01 0.00000E+00
 -1      2758 1.10400E+02 4.09070E+01 0.00000E+00
 -1      2759 1.11900E+02 4.09070E+01 0.00000E+00
 -1      2760 1.09650E+02 3.96080E+01 0.00000E+00
 -1      2761 1.13400E+02 4.09070E+01 0.00000E+00
 -1      2762 1.14900E+02 4.09070E+01 0.00000E+00
 -1      2763 1.12650E+02 3.96080E+01 0.00000E+00
 -1      2764 1.16400E+02 4.09070E+01 0.00000E+00
 -1      2765 1.17900E+02 4.09070E+01 0.00000E+00
 -1      2766 1.15650E+02 3.96080E+01 0.00000E+00
 -1      2767 1.19400E+02 4.09070E+01 0.00000E+00
 -1      2768 1.20900E+02 4.09070E+01 0.00000E+00
 -1      2769 1.18650E+02 3.96080E+01 0.00000E+00
 -1      2770 1.22400E+02 4.09070E+01 0.00000E+00
 -1      2771 1.23900E+02 4.09070E+01 0.00000E+00
 -1      2772 1.21650E+02 3.96080E+01 0.00000E+00
 -1      2773 1.25400E+02 4.09070E+01 0.00000E+00
 -1      2774 1.26900E+02 4.09070E+01 0.00000E+00
 -1      2775 1.24650E+02 3.96080E+01 0.00000E+00
 -1      2776 1.28400E+02 4.09070E+01 0.00000E+00
 -1      2777 1.29900E+02 4.09070E+01 0.00000E+00
 -1      2778 1.27650E+02 3.96080E+01 0.00000E+00
 -1      2779 1.31400E+02 4.09070E+01 0.00000E+00
 -1      2780 1.32900E+02 4.09070E+01 0.00000E+00
 -1      2781 1.30650E+02 3.96080E+01 0.00000E+00
 -1      2782 1.34400E+02 4.09070E+01 0.00000E+00
 -1      2783 1.35900E+02 4.09070E+01 0.00000E+00
 -1      2784 1.33650E+02 3.96080E+01 0.00000E+00
 -1      2785 1.37400E+02 4.09070E+01 0.00000E+00
 -1      2786 1.38900E+02 4.09070E+01 0.00000E+00
 -1      2787 1.36650E+02 3.96080E+01 0.00000E+00
 -1      2788 2.42850E+01 7.90325E+00 0.00000E+00
 -1      2789 2.27850E+01 7.90325E+00 0.00000E+00
 -1      2790 1.40706E+02 1.03250E+01 0.00000E+00
 -1      2791 1.40620E+02 8.46463E+00 0.00000E+00
 -1      2792 1.39120E+02 8.46463E+00 0.00000E+00
 -1      2793 2.12850E+01 7.90325E+00 0.00000E+00
 -1      2794 1.97850E+01 7.90325E+00 0.00000E+00
 -1      2795 2.20350E+01 9.20225E+00 0.00000E+00
 -1      2796 3.02850E+01 7.90325E+00 0.00000E+00
 -1      2797 2.87850E+01 7.90325E+00 0.00000E+00
 -1      2798 3.32850E+01 7.90325E+00 0.00000E+00
 -1      2799 3.17850E+01 7.90325E+00 0.00000E+00
 -1      2800 3.10350E+01 9.20225E+00 0.00000E+00
 -1      2801 3.62850E+01 7.90325E+00 0.00000E+00
 -1      2802 3.47850E+01 7.90325E+00 0.00000E+00
 -1      2803 3.40350E+01 9.20225E+00 0.00000E+00
 -1      2804 3.92850E+01 7.90325E+00 0.00000E+00
 -1      2805 3.77850E+01 7.90325E+00 0.00000E+00
 -1      2806 3.70350E+01 9.20225E+00 0.00000E+00
 -1      2807 4.22850E+01 7.90325E+00 0.00000E+00
 -1      2808 4.07850E+01 7.90325E+00 0.00000E+00
 -1      2809 4.00350E+01 9.20225E+00 0.00000E+00
 -1      2810 4.52850E+01 7.90325E+00 0.00000E+00
 -1      2811 4.37850E+01 7.90325E+00 0.00000E+00
 -1      2812 4.30350E+01 9.20225E+00 0.00000E+00
 -1      2813 4.82850E+01 7.90325E+00 0.00000E+00
 -1      2814 4.67850E+01 7.90325E+00 0.00000E+00
 -1      2815 4.60350E+01 9.20225E+00 0.00000E+00
 -1      2816 5.12850E+01 7.90325E+00 0.00000E+00
 -1      2817 4.97850E+01 7.90325E+00 0.00000E+00
 -1      2818 4.90350E+01 9.20225E+00 0.00000E+00
 -1      2819 5.42850E+01 7.90325E+00 0.00000E+00
 -1      2820 5.27850E+01 7.90325E+00 0.00000E+00
 -1      2821 5.20350E+01 9.20225E+00 0.00000E+00
 -1      2822 5.72850E+01 7.90325E+00 0.00000E+00
 -1      2823 5.57850E+01 7.90325E+00 0.00000E+00
 -1      2824 5.50350E+01 9.20225E+00 0.00000E+00
 -1      2825 6.02850E+01 7.90325E+00 0.00000E+00
 -1      2826 5.87850E+01 7.90325E+00 0.00000E+00
 -1      2827 5.80350E+01 9.20225E+00 0.00000E+00
 -1      2828 6.32850E+01 7.90325E+00 0.00000E+00
 -1      2829 6.17850E+01 7.90325E+00 0.00000E+00
 -1      2830 6.10350E+01 9.20225E+00 0.00000E+00
 -1      2831 6.62850E+01 7.90325E+00 0.00000E+00
 -1      2832 6.47850E+01 7.90325E+00 0.00000E+00
 -1      2833 6.40350E+01 9.20225E+00 0.00000E+00
 -1      2834 6.92850E+01 7.90325E+00 0.00000E+00
 -1      2835 6.77850E+01 7.90325E+00 0.00000E+00
 -1      2836 6.70350E+01 9.20225E+00 0.00000E+00
 -1      2837 7.22850E+01 7.90325E+00 0.00000E+00
 -1      2838 7.07850E+01 7.90325E+00 0.00000E+00
 -1      2839 7.00350E+01 9.20225E+00 0.00000E+00
 -1      2840 7.52850E+01 7.90325E+00 0.00000E+00
 -1      2841 7.37850E+01 7.90325E+00 0.00000E+00
 -1      2842 7.30350E+01 9.20225E+00 0.00000E+00
 -1      2843 7.82850E+01 7.90325E+00 0.00000E+00
 -1      2844 7.67850E+01 7.90325E+00 0.00000E+00
 -1      2845 7.60350E+01 9.20225E+00 0.00000E+00
 -1      2846 8.12850E+01 7.90325E+00 0.00000E+00
 -1      2847 7.97850E+01 7.90325E+00 0.00000E+00
 -1      2848 7.90350E+01 9.20225E+00 0.00000E+00
 -1      2849 8.42850E+01 7.90325E+00 0.00000E+00
 -1      2850 8.27850E+01 7.90325E+00 0.00000E+00
 -1      2851 8.20350E+01 9.20225E+00 0.00000E+00
 -1      2852 8.72850E+01 7.90325E+00 0.00000E+00
 -1      2853 8.57850E+01 7.90325E+00 0.00000E+00
 -1      2854 8.50350E+01 9.20225E+00 0.00000E+00
 -1      2855 9.02850E+01 7.90325E+00 0.00000E+00
 -1      2856 8.87850E+01 7.90325E+00 0.00000E+00
 -1      2857 8.80350E+01 9.20225E+00 0.00000E+00
 -1      2858 9.32850E+01 7.90325E+00 0.00000E+00
 -1      2859 9.17850E+01 7.90325E+00 0.00000E+00
 -1      2860 9.10350E+01 9.20225E+00 0.00000E+00
 -1      2861 9.62850E+01 7.90325E+00 0.00000E+00
 -1      2862 9.47850E+01 7.90325E+00 0.00000E+00
 -1      2863 9.40350E+01 9.20225E+00 0.00000E+00
 -1      2864 9.92850E+01 7.90325E+00 0.00000E+00
 -1      2865 9.77850E+01 7.90325E+00 0.00000E+00
 -1      2866 9.70350E+01 9.20225E+00 0.00000E+00
 -1      2867 1.02285E+02 7.90325E+00 0.00000E+00
 -1      2868 1.00785E+02 7.90325E+00 0.00000E+00
 -1      2869 1.00035E+02 9.20225E+00 0.00000E+00
 -1      2870 1.05285E+02 7.90325E+00 0.00000E+00
 -1      2871 1.03785E+02 7.90325E+00 0.00000E+00
 -1      2872 1.03035E+02 9.20225E+00 0.00000E+00
 -1      2873 1.08285E+02 7.90325E+00 0.00000E+00
 -1      2874 1.06785E+02 7.90325E+00 0.00000E+00
 -1      2875 1.06035E+02 9.20225E+00 0.00000E+00
 -1      2876 1.11285E+02 7.90325E+00 0.00000E+00
 -1      2877 1.09785E+02 7.90325E+00 0.00000E+00
 -1      2878 1.09035E+02 9.20225E+00 0.00000E+00
 -1      2879 1.14285E+02 7.90325E+00 0.00000E+00
 -1      2880 1.12785E+02 7.90325E+00 0.00000E+00
 -1      2881 1.12035E+02 9.20225E+00 0.00000E+00
 -1      2882 1.17285E+02 7.90325E+00 0.00000E+00
 -1      2883 1.15785E+02 7.90325E+00 0.00000E+00
 -1      2884 1.15035E+02 9.20225E+00 0.00000E+00
 -1      2885 1.20285E+02 7.90325E+00 0.00000E+00
 -1      2886 1.18785E+02 7.90325E+00 0.00000E+00
 -1      2887 1.18035E+02 9.20225E+00 0.00000E+00
 -1      2888 1.23285E+02 7.90325E+00 0.00000E+00
 -1      2889 1.21785E+02 7.90325E+00 0.00000E+00
 -1      2890 1.21035E+02 9.20225E+00 0.00000E+00
 -1      2891 1.26285E+02 7.90325E+00 0.00000E+00
 -1      2892 1.24785E+02 7.90325E+00 0.00000E+00
 -1      2893 1.24035E+02 9.20225E+00 0.00000E+00
 -1      2894 1.29285E+02 7.90325E+00 0.00000E+00
 -1      2895 1.27785E+02 7.90325E+00 0.00000E+00
 -1      2896 1.27035E+02 9.20225E+00 0.00000E+00
 -1      2897 1.32285E+02 7.90325E+00 0.00000E+00
 -1      2898 1.30785E+02 7.90325E+00 0.00000E+00
 -1      2899 1.30035E+02 9.20225E+00 0.00000E+00
 -1      2900 1.35285E+02 7.90325E+00 0.00000E+00
 -1      2901 1.33785E+02 7.90325E+00 0.00000E+00
 -1      2902 1.33035E+02 9.20225E+00 0.00000E+00
 -1      2903 1.37953E+02 8.18394E+00 0.00000E+00
 -1      2904 1.36453E+02 8.18394E+00 0.00000E+00
 -1      2905 1.35703E+02 9.48294E+00 0.00000E+00
 -1      2906 1.38038E+02 1.00443E+01 0.00000E+00
 -1      2907 1.40907E+02 2.42875E+01 0.00000E+00
 -1      2908 1.40907E+02 2.28125E+01 0.00000E+00
 -1      2909 1.39914E+02 4.09362E+01 0.00000E+00
 -1      2910 1.40928E+02 4.09655E+01 0.00000E+00
 -1      2911 1.39164E+02 3.96372E+01 0.00000E+00
 -1      2912 1.40907E+02 1.83875E+01 0.00000E+00
 -1      2913 1.40907E+02 1.69125E+01 0.00000E+00
 -1      2914 1.40907E+02 2.72375E+01 0.00000E+00
 -1      2915 1.40907E+02 2.57625E+01 0.00000E+00
 -1      2916 1.39608E+02 2.50250E+01 0.00000E+00
 -1      2917 1.40907E+02 2.13375E+01 0.00000E+00
 -1      2918 1.40907E+02 1.98625E+01 0.00000E+00
 -1      2919 1.39608E+02 1.91250E+01 0.00000E+00
 -1      2920 1.39608E+02 2.20750E+01 0.00000E+00
 -1      2921 1.24611E+02 1.53806E+01 0.00000E+00
 -1      2922 1.25696E+02 1.59949E+01 0.00000E+00
 -1      2923 8.91450E+00 8.42712E+00 0.00000E+00
 -1      2924 1.40907E+02 3.01375E+01 0.00000E+00
 -1      2925 1.40907E+02 2.86875E+01 0.00000E+00
 -1      2926 1.39608E+02 2.79500E+01 0.00000E+00
 -1      2927 1.40907E+02 3.30875E+01 0.00000E+00
 -1      2928 1.40907E+02 3.16125E+01 0.00000E+00
 -1      2929 1.39608E+02 3.08750E+01 0.00000E+00
 -1      2930 1.40907E+02 3.60375E+01 0.00000E+00
 -1      2931 1.40907E+02 3.45625E+01 0.00000E+00
 -1      2932 1.39608E+02 3.38250E+01 0.00000E+00
 -1      2933 8.85168E+00 4.05347E+01 0.00000E+00
 -1      2934 1.02152E+01 4.07987E+01 0.00000E+00
 -1      2935 1.27418E+02 3.13109E+01 0.00000E+00
 -1      2936 1.26939E+02 3.22995E+01 0.00000E+00
 -1      2937 1.28656E+02 1.97541E+01 0.00000E+00
 -1      2938 1.28848E+02 2.08631E+01 0.00000E+00
 -1      2939 1.29118E+02 2.18264E+01 0.00000E+00
 -1      2940 1.29388E+02 2.27898E+01 0.00000E+00
 -1      2941 1.30197E+02 2.10690E+01 0.00000E+00
 -1      2942 1.09823E+02 3.53354E+01 0.00000E+00
 -1      2943 1.08886E+02 3.43897E+01 0.00000E+00
 -1      2944 1.05700E+02 2.18057E+01 0.00000E+00
 -1      2945 1.06047E+02 2.07743E+01 0.00000E+00
 -1      2946 1.24413E+02 3.48603E+01 0.00000E+00
 -1      2947 1.23213E+02 3.55825E+01 0.00000E+00
 -1      2948 1.82850E+01 7.90325E+00 0.00000E+00
 -1      2949 1.67850E+01 7.90325E+00 0.00000E+00
 -1      2950 1.90350E+01 9.20225E+00 0.00000E+00
 -1      2951 2.72850E+01 7.90325E+00 0.00000E+00
 -1      2952 2.57850E+01 7.90325E+00 0.00000E+00
 -1      2953 2.50350E+01 9.20225E+00 0.00000E+00
 -1      2954 2.80350E+01 9.20225E+00 0.00000E+00
 -1      2955 1.15576E+01 4.08528E+01 0.00000E+00
 -1      2956 1.30576E+01 4.08528E+01 0.00000E+00
 -1      2957 1.38076E+01 3.95538E+01 0.00000E+00
 -1      2958 1.11228E+01 3.94455E+01 0.00000E+00
 -1      2959 1.21912E+02 3.62987E+01 0.00000E+00
 -1      2960 1.20804E+02 3.66870E+01 0.00000E+00
 -1      2961 9.09300E+00 1.68813E+01 0.00000E+00
 -1      2962 9.09300E+00 1.83563E+01 0.00000E+00
 -1      2963 1.03920E+01 1.90812E+01 0.00000E+00
 -1      2964 1.03920E+01 1.61437E+01 0.00000E+00
 -1      2965 1.27131E+02 1.70220E+01 0.00000E+00
 -1      2966 1.27916E+02 1.81991E+01 0.00000E+00
 -1      2967 1.19343E+02 3.67408E+01 0.00000E+00
 -1      2968 1.18176E+02 3.67640E+01 0.00000E+00
 -1      2969 9.09300E+00 3.15875E+01 0.00000E+00
 -1      2970 9.09300E+00 3.30625E+01 0.00000E+00
 -1      2971 1.29403E+02 2.73041E+01 0.00000E+00
 -1      2972 1.28791E+02 2.85374E+01 0.00000E+00
 -1      2973 1.52850E+01 7.90325E+00 0.00000E+00
 -1      2974 1.37850E+01 7.90325E+00 0.00000E+00
 -1      2975 1.30350E+01 9.20225E+00 0.00000E+00
 -1      2976 1.60350E+01 9.20225E+00 0.00000E+00
 -1      2977 1.10242E+02 1.49124E+01 0.00000E+00
 -1      2978 1.11130E+02 1.44441E+01 0.00000E+00
 -1      2979 1.12053E+02 1.40143E+01 0.00000E+00
 -1      2980 1.12975E+02 1.35844E+01 0.00000E+00
 -1      2981 1.11130E+02 1.33416E+01 0.00000E+00
 -1      2982 1.17419E+02 1.30574E+01 0.00000E+00
 -1      2983 1.18561E+02 1.31948E+01 0.00000E+00
 -1      2984 1.05970E+02 2.89452E+01 0.00000E+00
 -1      2985 1.05709E+02 2.77437E+01 0.00000E+00
 -1      2986 1.05396E+02 2.39998E+01 0.00000E+00
 -1      2987 1.05457E+02 2.30140E+01 0.00000E+00
 -1      2988 1.41192E+02 3.96958E+01 0.00000E+00
 -1      2989 1.05295E+02 2.64612E+01 0.00000E+00
 -1      2990 1.05177E+02 2.52465E+01 0.00000E+00
 -1      2991 1.06818E+02 3.12917E+01 0.00000E+00
 -1      2992 1.06279E+02 3.03525E+01 0.00000E+00
 -1      2993 1.08046E+02 3.31773E+01 0.00000E+00
 -1      2994 1.07432E+02 3.22345E+01 0.00000E+00
 -1      2995 1.06273E+02 3.22754E+01 0.00000E+00
 -1      2996 1.12097E+02 3.63456E+01 0.00000E+00
 -1      2997 1.11211E+02 3.59996E+01 0.00000E+00
 -1      2998 1.14847E+02 3.68877E+01 0.00000E+00
 -1      2999 1.13469E+02 3.67908E+01 0.00000E+00
 -1      3000 1.17065E+02 3.67639E+01 0.00000E+00
 -1      3001 1.16081E+02 3.67406E+01 0.00000E+00
 -1      3002 7.48818E+00 3.88019E+01 0.00000E+00
 -1      3003 1.26242E+02 3.34395E+01 0.00000E+00
 -1      3004 1.25579E+02 3.40943E+01 0.00000E+00
 -1      3005 1.28174E+02 2.96035E+01 0.00000E+00
 -1      3006 1.27796E+02 3.04572E+01 0.00000E+00
 -1      3007 1.28403E+02 3.13623E+01 0.00000E+00
 -1      3008 1.29629E+02 2.41321E+01 0.00000E+00
 -1      3009 1.29870E+02 2.54745E+01 0.00000E+00
 -1      3010 1.30708E+02 2.33747E+01 0.00000E+00
 -1      3011 1.19853E+02 1.34754E+01 0.00000E+00
 -1      3012 1.21008E+02 1.39879E+01 0.00000E+00
 -1      3013 1.21827E+02 1.33899E+01 0.00000E+00
 -1      3014 9.09300E+00 3.45313E+01 0.00000E+00
 -1      3015 9.09300E+00 3.60000E+01 0.00000E+00
 -1      3016 1.03920E+01 3.37938E+01 0.00000E+00
 -1      3017 1.03920E+01 2.49750E+01 0.00000E+00
 -1      3018 9.09300E+00 2.57000E+01 0.00000E+00
 -1      3019 9.09300E+00 2.71750E+01 0.00000E+00
 -1      3020 1.05560E+02 1.75798E+01 0.00000E+00
 -1      3021 1.06749E+02 1.72921E+01 0.00000E+00
 -1      3022 1.06846E+02 1.63043E+01 0.00000E+00
 -1      3023 1.05302E+02 1.98053E+01 0.00000E+00
 -1      3024 1.13591E+02 1.27838E+01 0.00000E+00
 -1      3025 1.24279E+02 1.44219E+01 0.00000E+00
 -1      3026 1.29187E+02 1.85507E+01 0.00000E+00
 -1      3027 1.39608E+02 1.61875E+01 0.00000E+00
 -1      3028 1.40907E+02 1.54500E+01 0.00000E+00
 -1      3029 1.40907E+02 1.39875E+01 0.00000E+00
 -1      3030 1.26891E+02 1.49151E+01 0.00000E+00
 -1      3031 1.27011E+02 1.59686E+01 0.00000E+00
 -1      3032 1.28326E+02 1.59422E+01 0.00000E+00
 -1      3033 1.29398E+02 2.94424E+01 0.00000E+00
 -1      3034 1.04435E+02 2.47063E+01 0.00000E+00
 -1      3035 1.40706E+02 1.17875E+01 0.00000E+00
 -1      3036 1.31562E+02 2.57893E+01 0.00000E+00
 -1      3037 1.30482E+02 2.65467E+01 0.00000E+00
 -1      3038 1.31095E+02 2.76189E+01 0.00000E+00
 -1      3039 9.66450E+00 9.72612E+00 0.00000E+00
 -1      3040 1.17665E+02 3.75678E+01 0.00000E+00
 -1      3041 1.20237E+02 3.75141E+01 0.00000E+00
 -1      3042 1.25465E+02 3.52619E+01 0.00000E+00
 -1      3043 1.41192E+02 3.82207E+01 0.00000E+00
 -1      3044 1.15320E+02 3.77148E+01 0.00000E+00
 -1      3045 1.09635E+01 1.04636E+01 0.00000E+00
 -1      3046 1.27328E+02 3.33560E+01 0.00000E+00
 -1      3047 1.07727E+02 3.44306E+01 0.00000E+00
 -1      3048 1.09954E+02 3.63073E+01 0.00000E+00
 -1      3049 1.05351E+02 2.99253E+01 0.00000E+00
 -1      3050 1.39529E+02 3.85602E+01 0.00000E+00
 -1      3051 1.40542E+02 3.71145E+01 0.00000E+00
 -1      3052 1.39243E+02 3.63770E+01 0.00000E+00
 -1      3053 1.38514E+02 3.85310E+01 0.00000E+00
 -1      3054 1.04897E+02 2.22513E+01 0.00000E+00
 -1      3055 9.09300E+00 2.86437E+01 0.00000E+00
 -1      3056 9.09300E+00 3.01187E+01 0.00000E+00
 -1      3057 1.03920E+01 3.08563E+01 0.00000E+00
 -1      3058 1.03920E+01 2.79188E+01 0.00000E+00
 -1      3059 1.22998E+02 3.67441E+01 0.00000E+00
 -1      3060 8.78718E+00 3.80644E+01 0.00000E+00
 -1      3061 1.19380E+02 1.25968E+01 0.00000E+00
 -1      3062 1.16608E+02 1.24861E+01 0.00000E+00
 -1      3063 1.04629E+02 2.72355E+01 0.00000E+00
 -1      3064 1.09121E+02 1.48941E+01 0.00000E+00
 -1      3065 1.12714E+02 3.74167E+01 0.00000E+00
 -1      3066 1.16910E+01 1.24625E+01 0.00000E+00
 -1      3067 1.16910E+01 1.39375E+01 0.00000E+00
 -1      3068 1.17963E+02 3.85880E+01 0.00000E+00
 -1      3069 1.16852E+02 3.85879E+01 0.00000E+00
 -1      3070 1.89000E+01 3.83090E+01 0.00000E+00
 -1      3071 2.04000E+01 3.83090E+01 0.00000E+00
 -1      3072 2.19000E+01 3.83090E+01 0.00000E+00
 -1      3073 2.34000E+01 3.83090E+01 0.00000E+00
 -1      3074 2.11500E+01 3.70100E+01 0.00000E+00
 -1      3075 2.49000E+01 3.83090E+01 0.00000E+00
 -1      3076 2.64000E+01 3.83090E+01 0.00000E+00
 -1      3077 2.41500E+01 3.70100E+01 0.00000E+00
 -1      3078 2.79000E+01 3.83090E+01 0.00000E+00
 -1      3079 2.94000E+01 3.83090E+01 0.00000E+00
 -1      3080 2.71500E+01 3.70100E+01 0.00000E+00
 -1      3081 3.09000E+01 3.83090E+01 0.00000E+00
 -1      3082 3.24000E+01 3.83090E+01 0.00000E+00
 -1      3083 3.01500E+01 3.70100E+01 0.00000E+00
 -1      3084 3.39000E+01 3.83090E+01 0.00000E+00
 -1      3085 3.54000E+01 3.83090E+01 0.00000E+00
 -1      3086 3.31500E+01 3.70100E+01 0.00000E+00
 -1      3087 3.69000E+01 3.83090E+01 0.00000E+00
 -1      3088 3.84000E+01 3.83090E+01 0.00000E+00
 -1      3089 3.61500E+01 3.70100E+01 0.00000E+00
 -1      3090 3.99000E+01 3.83090E+01 0.00000E+00
 -1      3091 4.14000E+01 3.83090E+01 0.00000E+00
 -1      3092 3.91500E+01 3.70100E+01 0.00000E+00
 -1      3093 4.29000E+01 3.83090E+01 0.00000E+00
 -1      3094 4.44000E+01 3.83090E+01 0.00000E+00
 -1      3095 4.21500E+01 3.70100E+01 0.00000E+00
 -1      3096 4.59000E+01 3.83090E+01 0.00000E+00
 -1      3097 4.74000E+01 3.83090E+01 0.00000E+00
 -1      3098 4.51500E+01 3.70100E+01 0.00000E+00
 -1      3099 4.89000E+01 3.83090E+01 0.00000E+00
 -1      3100 5.04000E+01 3.83090E+01 0.00000E+00
 -1      3101 4.81500E+01 3.70100E+01 0.00000E+00
 -1      3102 5.19000E+01 3.83090E+01 0.00000E+00
 -1      3103 5.34000E+01 3.83090E+01 0.00000E+00
 -1      3104 5.11500E+01 3.70100E+01 0.00000E+00
 -1      3105 5.49000E+01 3.83090E+01 0.00000E+00
 -1      3106 5.64000E+01 3.83090E+01 0.00000E+00
 -1      3107 5.41500E+01 3.70100E+01 0.00000E+00
 -1      3108 5.79000E+01 3.83090E+01 0.00000E+00
 -1      3109 5.94000E+01 3.83090E+01 0.00000E+00
 -1      3110 5.71500E+01 3.70100E+01 0.00000E+00
 -1      3111 6.09000E+01 3.83090E+01 0.00000E+00
 -1      3112 6.24000E+01 3.83090E+01 0.00000E+00
 -1      3113 6.01500E+01 3.70100E+01 0.00000E+00
 -1      3114 6.39000E+01 3.83090E+01 0.00000E+00
 -1      3115 6.54000E+01 3.83090E+01 0.00000E+00
 -1      3116 6.31500E+01 3.70100E+01 0.00000E+00
 -1      3117 6.69000E+01 3.83090E+01 0.00000E+00
 -1      3118 6.84000E+01 3.83090E+01 0.00000E+00
 -1      3119 6.61500E+01 3.70100E+01 0.00000E+00
 -1      3120 6.99000E+01 3.83090E+01 0.00000E+00
 -1      3121 7.14000E+01 3.83090E+01 0.00000E+00
 -1      3122 6.91500E+01 3.70100E+01 0.00000E+00
 -1      3123 7.29000E+01 3.83090E+01 0.00000E+00
 -1      3124 7.44000E+01 3.83090E+01 0.00000E+00
 -1      3125 7.21500E+01 3.70100E+01 0.00000E+00
 -1      3126 7.59000E+01 3.83090E+01 0.00000E+00
 -1      3127 7.74000E+01 3.83090E+01 0.00000E+00
 -1      3128 7.51500E+01 3.70100E+01 0.00000E+00
 -1      3129 7.89000E+01 3.83090E+01 0.00000E+00
 -1      3130 8.04000E+01 3.83090E+01 0.00000E+00
 -1      3131 7.81500E+01 3.70100E+01 0.00000E+00
 -1      3132 8.19000E+01 3.83090E+01 0.00000E+00
 -1      3133 8.34000E+01 3.83090E+01 0.00000E+00
 -1      3134 8.11500E+01 3.70100E+01 0.00000E+00
 -1      3135 8.49000E+01 3.83090E+01 0.00000E+00
 -1      3136 8.64000E+01 3.83090E+01 0.00000E+00
 -1      3137 8.41500E+01 3.70100E+01 0.00000E+00
 -1      3138 8.79000E+01 3.83090E+01 0.00000E+00
 -1      3139 8.94000E+01 3.83090E+01 0.00000E+00
 -1      3140 8.71500E+01 3.70100E+01 0.00000E+00
 -1      3141 9.09000E+01 3.83090E+01 0.00000E+00
 -1      3142 9.24000E+01 3.83090E+01 0.00000E+00
 -1      3143 9.01500E+01 3.70100E+01 0.00000E+00
 -1      3144 9.39000E+01 3.83090E+01 0.00000E+00
 -1      3145 9.54000E+01 3.83090E+01 0.00000E+00
 -1      3146 9.31500E+01 3.70100E+01 0.00000E+00
 -1      3147 9.69000E+01 3.83090E+01 0.00000E+00
 -1      3148 9.84000E+01 3.83090E+01 0.00000E+00
 -1      3149 9.61500E+01 3.70100E+01 0.00000E+00
 -1      3150 9.99000E+01 3.83090E+01 0.00000E+00
 -1      3151 1.01400E+02 3.83090E+01 0.00000E+00
 -1      3152 9.91500E+01 3.70100E+01 0.00000E+00
 -1      3153 1.02900E+02 3.83090E+01 0.00000E+00
 -1      3154 1.04400E+02 3.83090E+01 0.00000E+00
 -1      3155 1.02150E+02 3.70100E+01 0.00000E+00
 -1      3156 1.15352E+02 3.85879E+01 0.00000E+00
 -1      3157 1.19463E+02 3.85880E+01 0.00000E+00
 -1      3158 1.20924E+02 3.85342E+01 0.00000E+00
 -1      3159 1.22424E+02 3.85342E+01 0.00000E+00
 -1      3160 1.26900E+02 3.83090E+01 0.00000E+00
 -1      3161 1.28400E+02 3.83090E+01 0.00000E+00
 -1      3162 1.29900E+02 3.83090E+01 0.00000E+00
 -1      3163 1.31400E+02 3.83090E+01 0.00000E+00
 -1      3164 1.29150E+02 3.70100E+01 0.00000E+00
 -1      3165 1.32900E+02 3.83090E+01 0.00000E+00
 -1      3166 1.34400E+02 3.83090E+01 0.00000E+00
 -1      3167 1.32150E+02 3.70100E+01 0.00000E+00
 -1      3168 1.35707E+02 3.84200E+01 0.00000E+00
 -1      3169 1.37207E+02 3.84200E+01 0.00000E+00
 -1      3170 1.37572E+02 3.73430E+01 0.00000E+00
 -1      3171 1.34957E+02 3.71210E+01 0.00000E+00
 -1      3172 2.27850E+01 1.05013E+01 0.00000E+00
 -1      3173 2.12850E+01 1.05013E+01 0.00000E+00
 -1      3174 3.47850E+01 1.05013E+01 0.00000E+00
 -1      3175 3.32850E+01 1.05013E+01 0.00000E+00
 -1      3176 3.17850E+01 1.05013E+01 0.00000E+00
 -1      3177 3.02850E+01 1.05013E+01 0.00000E+00
 -1      3178 3.25350E+01 1.18003E+01 0.00000E+00
 -1      3179 4.07850E+01 1.05013E+01 0.00000E+00
 -1      3180 3.92850E+01 1.05013E+01 0.00000E+00
 -1      3181 4.37850E+01 1.05013E+01 0.00000E+00
 -1      3182 4.22850E+01 1.05013E+01 0.00000E+00
 -1      3183 4.15350E+01 1.18003E+01 0.00000E+00
 -1      3184 4.67850E+01 1.05013E+01 0.00000E+00
 -1      3185 4.52850E+01 1.05013E+01 0.00000E+00
 -1      3186 4.45350E+01 1.18003E+01 0.00000E+00
 -1      3187 4.97850E+01 1.05013E+01 0.00000E+00
 -1      3188 4.82850E+01 1.05013E+01 0.00000E+00
 -1      3189 4.75350E+01 1.18003E+01 0.00000E+00
 -1      3190 5.27850E+01 1.05013E+01 0.00000E+00
 -1      3191 5.12850E+01 1.05013E+01 0.00000E+00
 -1      3192 5.05350E+01 1.18003E+01 0.00000E+00
 -1      3193 5.57850E+01 1.05013E+01 0.00000E+00
 -1      3194 5.42850E+01 1.05013E+01 0.00000E+00
 -1      3195 5.35350E+01 1.18003E+01 0.00000E+00
 -1      3196 5.87850E+01 1.05013E+01 0.00000E+00
 -1      3197 5.72850E+01 1.05013E+01 0.00000E+00
 -1      3198 5.65350E+01 1.18003E+01 0.00000E+00
 -1      3199 6.17850E+01 1.05013E+01 0.00000E+00
 -1      3200 6.02850E+01 1.05013E+01 0.00000E+00
 -1      3201 5.95350E+01 1.18003E+01 0.00000E+00
 -1      3202 6.47850E+01 1.05013E+01 0.00000E+00
 -1      3203 6.32850E+01 1.05013E+01 0.00000E+00
 -1      3204 6.25350E+01 1.18003E+01 0.00000E+00
 -1      3205 6.77850E+01 1.05013E+01 0.00000E+00
 -1      3206 6.62850E+01 1.05013E+01 0.00000E+00
 -1      3207 6.55350E+01 1.18003E+01 0.00000E+00
 -1      3208 7.07850E+01 1.05013E+01 0.00000E+00
 -1      3209 6.92850E+01 1.05013E+01 0.00000E+00
 -1      3210 6.85350E+01 1.18003E+01 0.00000E+00
 -1      3211 7.37850E+01 1.05013E+01 0.00000E+00
 -1      3212 7.22850E+01 1.05013E+01 0.00000E+00
 -1      3213 7.15350E+01 1.18003E+01 0.00000E+00
 -1      3214 7.67850E+01 1.05013E+01 0.00000E+00
 -1      3215 7.52850E+01 1.05013E+01 0.00000E+00
 -1      3216 7.45350E+01 1.18003E+01 0.00000E+00
 -1      3217 7.97850E+01 1.05013E+01 0.00000E+00
 -1      3218 7.82850E+01 1.05013E+01 0.00000E+00
 -1      3219 7.75350E+01 1.18003E+01 0.00000E+00
 -1      3220 8.27850E+01 1.05013E+01 0.00000E+00
 -1      3221 8.12850E+01 1.05013E+01 0.00000E+00
 -1      3222 8.05350E+01 1.18003E+01 0.00000E+00
 -1      3223 8.57850E+01 1.05013E+01 0.00000E+00
 -1      3224 8.42850E+01 1.05013E+01 0.00000E+00
 -1      3225 8.35350E+01 1.18003E+01 0.00000E+00
 -1      3226 8.87850E+01 1.05013E+01 0.00000E+00
 -1      3227 8.72850E+01 1.05013E+01 0.00000E+00
 -1      3228 8.65350E+01 1.18003E+01 0.00000E+00
 -1      3229 9.17850E+01 1.05013E+01 0.00000E+00
 -1      3230 9.02850E+01 1.05013E+01 0.00000E+00
 -1      3231 8.95350E+01 1.18003E+01 0.00000E+00
 -1      3232 9.47850E+01 1.05013E+01 0.00000E+00
 -1      3233 9.32850E+01 1.05013E+01 0.00000E+00
 -1      3234 9.25350E+01 1.18003E+01 0.00000E+00
 -1      3235 9.77850E+01 1.05013E+01 0.00000E+00
 -1      3236 9.62850E+01 1.05013E+01 0.00000E+00
 -1      3237 9.55350E+01 1.18003E+01 0.00000E+00
 -1      3238 1.00785E+02 1.05013E+01 0.00000E+00
 -1      3239 9.92850E+01 1.05013E+01 0.00000E+00
 -1      3240 9.85350E+01 1.18003E+01 0.00000E+00
 -1      3241 1.03785E+02 1.05013E+01 0.00000E+00
 -1      3242 1.02285E+02 1.05013E+01 0.00000E+00
 -1      3243 1.01535E+02 1.18003E+01 0.00000E+00
 -1      3244 1.06785E+02 1.05013E+01 0.00000E+00
 -1      3245 1.05285E+02 1.05013E+01 0.00000E+00
 -1      3246 1.04535E+02 1.18003E+01 0.00000E+00
 -1      3247 1.10371E+02 1.14868E+01 0.00000E+00
 -1      3248 1.08871E+02 1.14868E+01 0.00000E+00
 -1      3249 1.15831E+02 1.09291E+01 0.00000E+00
 -1      3250 1.14331E+02 1.09291E+01 0.00000E+00
 -1      3251 1.18811E+02 1.07593E+01 0.00000E+00
 -1      3252 1.17311E+02 1.07593E+01 0.00000E+00
 -1      3253 1.21604E+02 1.10398E+01 0.00000E+00
 -1      3254 1.20104E+02 1.10398E+01 0.00000E+00
 -1      3255 1.24258E+02 1.15523E+01 0.00000E+00
 -1      3256 1.22758E+02 1.15523E+01 0.00000E+00
 -1      3257 1.30785E+02 1.05013E+01 0.00000E+00
 -1      3258 1.29285E+02 1.05013E+01 0.00000E+00
 -1      3259 1.33785E+02 1.05013E+01 0.00000E+00
 -1      3260 1.32285E+02 1.05013E+01 0.00000E+00
 -1      3261 1.31535E+02 1.18003E+01 0.00000E+00
 -1      3262 1.03771E+02 2.26534E+01 0.00000E+00
 -1      3263 1.04014E+02 2.14451E+01 0.00000E+00
 -1      3264 1.16910E+01 2.12875E+01 0.00000E+00
 -1      3265 1.16910E+01 2.27625E+01 0.00000E+00
 -1      3266 1.29893E+02 1.72605E+01 0.00000E+00
 -1      3267 1.30634E+02 1.88155E+01 0.00000E+00
 -1      3268 1.38309E+02 2.57625E+01 0.00000E+00
 -1      3269 1.38309E+02 2.42875E+01 0.00000E+00
 -1      3270 1.38309E+02 3.45625E+01 0.00000E+00
 -1      3271 1.38309E+02 3.30875E+01 0.00000E+00
 -1      3272 1.39407E+02 1.25250E+01 0.00000E+00
 -1      3273 1.04586E+02 3.08306E+01 0.00000E+00
 -1      3274 1.04277E+02 2.94233E+01 0.00000E+00
 -1      3275 1.28694E+02 3.34083E+01 0.00000E+00
 -1      3276 1.27997E+02 3.45483E+01 0.00000E+00
 -1      3277 1.97850E+01 1.05013E+01 0.00000E+00
 -1      3278 1.82850E+01 1.05013E+01 0.00000E+00
 -1      3279 2.05350E+01 1.18003E+01 0.00000E+00
 -1      3280 1.12794E+02 1.10570E+01 0.00000E+00
 -1      3281 1.31130E+02 2.02880E+01 0.00000E+00
 -1      3282 1.31400E+02 2.12513E+01 0.00000E+00
 -1      3283 1.38309E+02 3.16125E+01 0.00000E+00
 -1      3284 1.38309E+02 3.01375E+01 0.00000E+00
 -1      3285 1.37010E+02 3.23500E+01 0.00000E+00
 -1      3286 3.77850E+01 1.05013E+01 0.00000E+00
 -1      3287 3.62850E+01 1.05013E+01 0.00000E+00
 -1      3288 3.55350E+01 1.18003E+01 0.00000E+00
 -1      3289 3.85350E+01 1.18003E+01 0.00000E+00
 -1      3290 1.04175E+02 2.02074E+01 0.00000E+00
 -1      3291 1.04337E+02 1.89697E+01 0.00000E+00
 -1      3292 1.03049E+02 2.06094E+01 0.00000E+00
 -1      3293 1.27140E+02 3.57530E+01 0.00000E+00
 -1      3294 1.25974E+02 3.65189E+01 0.00000E+00
 -1      3295 1.59000E+01 3.83090E+01 0.00000E+00
 -1      3296 1.74000E+01 3.83090E+01 0.00000E+00
 -1      3297 1.81500E+01 3.70100E+01 0.00000E+00
 -1      3298 1.00862E+01 3.73269E+01 0.00000E+00
 -1      3299 1.23724E+02 3.78179E+01 0.00000E+00
 -1      3300 1.03332E+02 2.51468E+01 0.00000E+00
 -1      3301 1.03552E+02 2.39001E+01 0.00000E+00
 -1      3302 1.02668E+02 2.30938E+01 0.00000E+00
 -1      3303 1.38309E+02 2.86750E+01 0.00000E+00
 -1      3304 1.38309E+02 2.72250E+01 0.00000E+00
 -1      3305 1.37010E+02 2.64875E+01 0.00000E+00
 -1      3306 1.37010E+02 2.94125E+01 0.00000E+00
 -1      3307 1.25224E+02 3.78179E+01 0.00000E+00
 -1      3308 1.14118E+02 3.87349E+01 0.00000E+00
 -1      3309 1.30522E+02 2.93809E+01 0.00000E+00
 -1      3310 1.29905E+02 3.04470E+01 0.00000E+00
 -1      3311 1.07034E+02 1.39085E+01 0.00000E+00
 -1      3312 1.08121E+02 1.27858E+01 0.00000E+00
 -1      3313 1.05722E+02 3.33063E+01 0.00000E+00
 -1      3314 1.05107E+02 3.23635E+01 0.00000E+00
 -1      3315 1.26488E+01 1.02017E+01 0.00000E+00
 -1      3316 1.20772E+01 1.14631E+01 0.00000E+00
 -1      3317 1.33763E+01 1.22006E+01 0.00000E+00
 -1      3318 1.41488E+01 1.02017E+01 0.00000E+00
 -1      3319 1.07304E+02 3.56204E+01 0.00000E+00
 -1      3320 1.06464E+02 3.44080E+01 0.00000E+00
 -1      3321 1.03864E+02 2.81408E+01 0.00000E+00
 -1      3322 1.03451E+02 2.68582E+01 0.00000E+00
 -1      3323 1.03099E+02 2.90460E+01 0.00000E+00
 -1      3324 1.29527E+02 3.13007E+01 0.00000E+00
 -1      3325 1.29149E+02 3.21544E+01 0.00000E+00
 -1      3326 1.30650E+02 3.12391E+01 0.00000E+00
 -1      3327 1.31641E+02 2.25937E+01 0.00000E+00
 -1      3328 1.31882E+02 2.39361E+01 0.00000E+00
 -1      3329 1.32574E+02 2.18127E+01 0.00000E+00
 -1      3330 1.16910E+01 2.42375E+01 0.00000E+00
 -1      3331 1.16910E+01 2.57125E+01 0.00000E+00
 -1      3332 1.29900E+01 2.35000E+01 0.00000E+00
 -1      3333 1.04434E+02 1.79818E+01 0.00000E+00
 -1      3334 1.04531E+02 1.69940E+01 0.00000E+00
 -1      3335 1.03307E+02 1.83839E+01 0.00000E+00
 -1      3336 1.04846E+02 3.63039E+01 0.00000E+00
 -1      3337 1.05596E+02 3.76029E+01 0.00000E+00
 -1      3338 1.38309E+02 1.69188E+01 0.00000E+00
 -1      3339 1.38309E+02 1.54563E+01 0.00000E+00
 -1      3340 1.32152E+01 3.82007E+01 0.00000E+00
 -1      3341 1.45576E+01 3.82548E+01 0.00000E+00
 -1      3342 1.53076E+01 3.69558E+01 0.00000E+00
 -1      3343 1.26209E+02 1.37358E+01 0.00000E+00
 -1      3344 1.27524E+02 1.37095E+01 0.00000E+00
 -1      3345 1.32495E+02 2.50083E+01 0.00000E+00
 -1      3346 1.07096E+02 3.76029E+01 0.00000E+00
 -1      3347 1.08358E+02 3.76255E+01 0.00000E+00
 -1      3348 1.09858E+02 3.76255E+01 0.00000E+00
 -1      3349 1.11246E+02 3.82898E+01 0.00000E+00
 -1      3350 1.12746E+02 3.82898E+01 0.00000E+00
 -1      3351 1.11294E+02 1.10570E+01 0.00000E+00
 -1      3352 1.14286E+01 3.73811E+01 0.00000E+00
 -1      3353 2.95350E+01 1.18003E+01 0.00000E+00
 -1      3354 2.87850E+01 1.05013E+01 0.00000E+00
 -1      3355 2.72850E+01 1.05013E+01 0.00000E+00
 -1      3356 1.28507E+02 3.58053E+01 0.00000E+00
 -1      3357 1.28439E+02 1.21652E+01 0.00000E+00
 -1      3358 1.27689E+02 1.08662E+01 0.00000E+00
 -1      3359 1.26189E+02 1.08662E+01 0.00000E+00
 -1      3360 1.36120E+02 1.10626E+01 0.00000E+00
 -1      3361 1.34953E+02 1.07819E+01 0.00000E+00
 -1      3362 1.34203E+02 1.20809E+01 0.00000E+00
 -1      3363 1.38309E+02 1.98687E+01 0.00000E+00
 -1      3364 1.38309E+02 1.83937E+01 0.00000E+00
 -1      3365 1.37010E+02 1.76625E+01 0.00000E+00
 -1      3366 2.57850E+01 1.05013E+01 0.00000E+00
 -1      3367 2.42850E+01 1.05013E+01 0.00000E+00
 -1      3368 2.65350E+01 1.18003E+01 0.00000E+00
 -1      3369 1.31837E+02 1.89978E+01 0.00000E+00
 -1      3370 1.38309E+02 2.28156E+01 0.00000E+00
 -1      3371 1.38309E+02 2.13406E+01 0.00000E+00
 -1      3372 1.37010E+02 2.06094E+01 0.00000E+00
 -1      3373 1.37010E+02 2.35531E+01 0.00000E+00
 -1      3374 1.38274E+02 1.38503E+01 0.00000E+00
 -1      3375 1.38073E+02 1.16503E+01 0.00000E+00
 -1      3376 1.36905E+02 1.13696E+01 0.00000E+00
 -1      3377 1.36975E+02 1.45815E+01 0.00000E+00
 -1      3378 1.24912E+02 1.32163E+01 0.00000E+00
 -1      3379 1.29818E+02 3.33467E+01 0.00000E+00
 -1      3380 1.05298E+02 3.44961E+01 0.00000E+00
 -1      3381 1.29773E+02 1.62070E+01 0.00000E+00
 -1      3382 1.31220E+02 1.64718E+01 0.00000E+00
 -1      3383 1.29653E+02 1.51536E+01 0.00000E+00
 -1      3384 1.16910E+01 1.98188E+01 0.00000E+00
 -1      3385 1.29900E+01 2.05562E+01 0.00000E+00
 -1      3386 1.16910E+01 1.83500E+01 0.00000E+00
 -1      3387 1.04034E+02 3.18615E+01 0.00000E+00
 -1      3388 2.35350E+01 1.18003E+01 0.00000E+00
 -1      3389 1.69669E+01 1.03515E+01 0.00000E+00
 -1      3390 1.54669E+01 1.03515E+01 0.00000E+00
 -1      3391 1.50806E+01 1.13509E+01 0.00000E+00
 -1      3392 1.77169E+01 1.16505E+01 0.00000E+00
 -1      3393 1.32681E+02 2.78660E+01 0.00000E+00
 -1      3394 1.31601E+02 2.86235E+01 0.00000E+00
 -1      3395 1.32107E+02 2.96280E+01 0.00000E+00
 -1      3396 1.16910E+01 1.54094E+01 0.00000E+00
 -1      3397 1.16910E+01 1.68781E+01 0.00000E+00
 -1      3398 1.29900E+01 1.76156E+01 0.00000E+00
 -1      3399 1.29900E+01 1.46719E+01 0.00000E+00
 -1      3400 1.02567E+02 2.60520E+01 0.00000E+00
 -1      3401 1.01684E+02 2.52458E+01 0.00000E+00
 -1      3402 1.01802E+02 2.69572E+01 0.00000E+00
 -1      3403 1.16910E+01 3.01219E+01 0.00000E+00
 -1      3404 1.16910E+01 3.15906E+01 0.00000E+00
 -1      3405 1.37758E+02 3.64912E+01 0.00000E+00
 -1      3406 1.38123E+02 3.54142E+01 0.00000E+00
 -1      3407 1.36824E+02 3.46768E+01 0.00000E+00
 -1      3408 1.36451E+02 3.63802E+01 0.00000E+00
 -1      3409 1.29900E+01 3.23250E+01 0.00000E+00
 -1      3410 1.16910E+01 3.30594E+01 0.00000E+00
 -1      3411 1.16910E+01 3.45281E+01 0.00000E+00
 -1      3412 1.04103E+02 3.52022E+01 0.00000E+00
 -1      3413 1.74000E+01 3.57110E+01 0.00000E+00
 -1      3414 1.89000E+01 3.57110E+01 0.00000E+00
 -1      3415 1.16910E+01 2.86531E+01 0.00000E+00
 -1      3416 1.29900E+01 2.93875E+01 0.00000E+00
 -1      3417 1.16910E+01 2.71844E+01 0.00000E+00
 -1      3418 1.33913E+02 2.42990E+01 0.00000E+00
 -1      3419 1.33592E+02 2.61522E+01 0.00000E+00
 -1      3420 2.34000E+01 3.57110E+01 0.00000E+00
 -1      3421 2.49000E+01 3.57110E+01 0.00000E+00
 -1      3422 2.64000E+01 3.57110E+01 0.00000E+00
 -1      3423 2.79000E+01 3.57110E+01 0.00000E+00
 -1      3424 2.56500E+01 3.44120E+01 0.00000E+00
 -1      3425 2.94000E+01 3.57110E+01 0.00000E+00
 -1      3426 3.09000E+01 3.57110E+01 0.00000E+00
 -1      3427 2.86500E+01 3.44120E+01 0.00000E+00
 -1      3428 3.24000E+01 3.57110E+01 0.00000E+00
 -1      3429 3.39000E+01 3.57110E+01 0.00000E+00
 -1      3430 3.16500E+01 3.44120E+01 0.00000E+00
 -1      3431 3.54000E+01 3.57110E+01 0.00000E+00
 -1      3432 3.69000E+01 3.57110E+01 0.00000E+00
 -1      3433 3.46500E+01 3.44120E+01 0.00000E+00
 -1      3434 3.84000E+01 3.57110E+01 0.00000E+00
 -1      3435 3.99000E+01 3.57110E+01 0.00000E+00
 -1      3436 3.76500E+01 3.44120E+01 0.00000E+00
 -1      3437 4.14000E+01 3.57110E+01 0.00000E+00
 -1      3438 4.29000E+01 3.57110E+01 0.00000E+00
 -1      3439 4.06500E+01 3.44120E+01 0.00000E+00
 -1      3440 4.44000E+01 3.57110E+01 0.00000E+00
 -1      3441 4.59000E+01 3.57110E+01 0.00000E+00
 -1      3442 4.36500E+01 3.44120E+01 0.00000E+00
 -1      3443 4.74000E+01 3.57110E+01 0.00000E+00
 -1      3444 4.89000E+01 3.57110E+01 0.00000E+00
 -1      3445 4.66500E+01 3.44120E+01 0.00000E+00
 -1      3446 5.04000E+01 3.57110E+01 0.00000E+00
 -1      3447 5.19000E+01 3.57110E+01 0.00000E+00
 -1      3448 4.96500E+01 3.44120E+01 0.00000E+00
 -1      3449 5.34000E+01 3.57110E+01 0.00000E+00
 -1      3450 5.49000E+01 3.57110E+01 0.00000E+00
 -1      3451 5.26500E+01 3.44120E+01 0.00000E+00
 -1      3452 5.64000E+01 3.57110E+01 0.00000E+00
 -1      3453 5.79000E+01 3.57110E+01 0.00000E+00
 -1      3454 5.56500E+01 3.44120E+01 0.00000E+00
 -1      3455 5.94000E+01 3.57110E+01 0.00000E+00
 -1      3456 6.09000E+01 3.57110E+01 0.00000E+00
 -1      3457 5.86500E+01 3.44120E+01 0.00000E+00
 -1      3458 6.24000E+01 3.57110E+01 0.00000E+00
 -1      3459 6.39000E+01 3.57110E+01 0.00000E+00
 -1      3460 6.16500E+01 3.44120E+01 0.00000E+00
 -1      3461 6.54000E+01 3.57110E+01 0.00000E+00
 -1      3462 6.69000E+01 3.57110E+01 0.00000E+00
 -1      3463 6.46500E+01 3.44120E+01 0.00000E+00
 -1      3464 6.84000E+01 3.57110E+01 0.00000E+00
 -1      3465 6.99000E+01 3.57110E+01 0.00000E+00
 -1      3466 6.76500E+01 3.44120E+01 0.00000E+00
 -1      3467 7.14000E+01 3.57110E+01 0.00000E+00
 -1      3468 7.29000E+01 3.57110E+01 0.00000E+00
 -1      3469 7.06500E+01 3.44120E+01 0.00000E+00
 -1      3470 7.44000E+01 3.57110E+01 0.00000E+00
 -1      3471 7.59000E+01 3.57110E+01 0.00000E+00
 -1      3472 7.36500E+01 3.44120E+01 0.00000E+00
 -1      3473 7.74000E+01 3.57110E+01 0.00000E+00
 -1      3474 7.89000E+01 3.57110E+01 0.00000E+00
 -1      3475 7.66500E+01 3.44120E+01 0.00000E+00
 -1      3476 8.04000E+01 3.57110E+01 0.00000E+00
 -1      3477 8.19000E+01 3.57110E+01 0.00000E+00
 -1      3478 7.96500E+01 3.44120E+01 0.00000E+00
 -1      3479 8.34000E+01 3.57110E+01 0.00000E+00
 -1      3480 8.49000E+01 3.57110E+01 0.00000E+00
 -1      3481 8.26500E+01 3.44120E+01 0.00000E+00
 -1      3482 8.64000E+01 3.57110E+01 0.00000E+00
 -1      3483 8.79000E+01 3.57110E+01 0.00000E+00
 -1      3484 8.56500E+01 3.44120E+01 0.00000E+00
 -1      3485 8.94000E+01 3.57110E+01 0.00000E+00
 -1      3486 9.09000E+01 3.57110E+01 0.00000E+00
 -1      3487 8.86500E+01 3.44120E+01 0.00000E+00
 -1      3488 9.24000E+01 3.57110E+01 0.00000E+00
 -1      3489 9.39000E+01 3.57110E+01 0.00000E+00
 -1      3490 9.16500E+01 3.44120E+01 0.00000E+00
 -1      3491 9.54000E+01 3.57110E+01 0.00000E+00
 -1      3492 9.69000E+01 3.57110E+01 0.00000E+00
 -1      3493 9.46500E+01 3.44120E+01 0.00000E+00
 -1      3494 9.84000E+01 3.57110E+01 0.00000E+00
 -1      3495 9.99000E+01 3.57110E+01 0.00000E+00
 -1      3496 9.76500E+01 3.44120E+01 0.00000E+00
 -1      3497 1.01251E+02 3.54566E+01 0.00000E+00
 -1      3498 1.02751E+02 3.54566E+01 0.00000E+00
 -1      3499 1.03204E+02 3.36488E+01 0.00000E+00
 -1      3500 1.00501E+02 3.41576E+01 0.00000E+00
 -1      3501 1.30007E+02 3.58053E+01 0.00000E+00
 -1      3502 1.29120E+02 1.33445E+01 0.00000E+00
 -1      3503 1.30567E+02 1.36093E+01 0.00000E+00
 -1      3504 1.31507E+02 3.58053E+01 0.00000E+00
 -1      3505 1.33007E+02 3.58053E+01 0.00000E+00
 -1      3506 1.30863E+02 3.46006E+01 0.00000E+00
 -1      3507 4.52850E+01 1.30992E+01 0.00000E+00
 -1      3508 4.37850E+01 1.30992E+01 0.00000E+00
 -1      3509 4.22850E+01 1.30992E+01 0.00000E+00
 -1      3510 4.07850E+01 1.30992E+01 0.00000E+00
 -1      3511 4.30350E+01 1.43982E+01 0.00000E+00
 -1      3512 5.12850E+01 1.30992E+01 0.00000E+00
 -1      3513 4.97850E+01 1.30992E+01 0.00000E+00
 -1      3514 5.42850E+01 1.30992E+01 0.00000E+00
 -1      3515 5.27850E+01 1.30992E+01 0.00000E+00
 -1      3516 5.20350E+01 1.43982E+01 0.00000E+00
 -1      3517 5.72850E+01 1.30992E+01 0.00000E+00
 -1      3518 5.57850E+01 1.30992E+01 0.00000E+00
 -1      3519 5.50350E+01 1.43982E+01 0.00000E+00
 -1      3520 6.02850E+01 1.30992E+01 0.00000E+00
 -1      3521 5.87850E+01 1.30992E+01 0.00000E+00
 -1      3522 5.80350E+01 1.43982E+01 0.00000E+00
 -1      3523 6.32850E+01 1.30992E+01 0.00000E+00
 -1      3524 6.17850E+01 1.30992E+01 0.00000E+00
 -1      3525 6.10350E+01 1.43982E+01 0.00000E+00
 -1      3526 6.62850E+01 1.30992E+01 0.00000E+00
 -1      3527 6.47850E+01 1.30992E+01 0.00000E+00
 -1      3528 6.40350E+01 1.43982E+01 0.00000E+00
 -1      3529 6.92850E+01 1.30992E+01 0.00000E+00
 -1      3530 6.77850E+01 1.30992E+01 0.00000E+00
 -1      3531 6.70350E+01 1.43982E+01 0.00000E+00
 -1      3532 7.22850E+01 1.30992E+01 0.00000E+00
 -1      3533 7.07850E+01 1.30992E+01 0.00000E+00
 -1      3534 7.00350E+01 1.43982E+01 0.00000E+00
 -1      3535 7.52850E+01 1.30992E+01 0.00000E+00
 -1      3536 7.37850E+01 1.30992E+01 0.00000E+00
 -1      3537 7.30350E+01 1.43982E+01 0.00000E+00
 -1      3538 7.82850E+01 1.30992E+01 0.00000E+00
 -1      3539 7.67850E+01 1.30992E+01 0.00000E+00
 -1      3540 7.60350E+01 1.43982E+01 0.00000E+00
 -1      3541 8.12850E+01 1.30992E+01 0.00000E+00
 -1      3542 7.97850E+01 1.30992E+01 0.00000E+00
 -1      3543 7.90350E+01 1.43982E+01 0.00000E+00
 -1      3544 8.42850E+01 1.30992E+01 0.00000E+00
 -1      3545 8.27850E+01 1.30992E+01 0.00000E+00
 -1      3546 8.20350E+01 1.43982E+01 0.00000E+00
 -1      3547 8.72850E+01 1.30992E+01 0.00000E+00
 -1      3548 8.57850E+01 1.30992E+01 0.00000E+00
 -1      3549 8.50350E+01 1.43982E+01 0.00000E+00
 -1      3550 9.02850E+01 1.30992E+01 0.00000E+00
 -1      3551 8.87850E+01 1.30992E+01 0.00000E+00
 -1      3552 8.80350E+01 1.43982E+01 0.00000E+00
 -1      3553 9.32850E+01 1.30992E+01 0.00000E+00
 -1      3554 9.17850E+01 1.30992E+01 0.00000E+00
 -1      3555 9.10350E+01 1.43982E+01 0.00000E+00
 -1      3556 9.62850E+01 1.30992E+01 0.00000E+00
 -1      3557 9.47850E+01 1.30992E+01 0.00000E+00
 -1      3558 9.40350E+01 1.43982E+01 0.00000E+00
 -1      3559 9.92850E+01 1.30992E+01 0.00000E+00
 -1      3560 9.77850E+01 1.30992E+01 0.00000E+00
 -1      3561 9.70350E+01 1.43982E+01 0.00000E+00
 -1      3562 1.02285E+02 1.30992E+01 0.00000E+00
 -1      3563 1.00785E+02 1.30992E+01 0.00000E+00
 -1      3564 1.00035E+02 1.43982E+01 0.00000E+00
 -1      3565 1.05846E+02 1.41961E+01 0.00000E+00
 -1      3566 1.04346E+02 1.41961E+01 0.00000E+00
 -1      3567 1.21786E+01 3.60821E+01 0.00000E+00
 -1      3568 1.02035E+02 2.11065E+01 0.00000E+00
 -1      3569 1.02196E+02 1.98687E+01 0.00000E+00
 -1      3570 1.31318E+02 3.33467E+01 0.00000E+00
 -1      3571 1.32067E+02 1.36093E+01 0.00000E+00
 -1      3572 2.12850E+01 1.30992E+01 0.00000E+00
 -1      3573 1.97850E+01 1.30992E+01 0.00000E+00
 -1      3574 1.35711E+02 3.30875E+01 0.00000E+00
 -1      3575 1.35711E+02 3.16125E+01 0.00000E+00
 -1      3576 4.82850E+01 1.30992E+01 0.00000E+00
 -1      3577 4.67850E+01 1.30992E+01 0.00000E+00
 -1      3578 4.60350E+01 1.43982E+01 0.00000E+00
 -1      3579 4.90350E+01 1.43982E+01 0.00000E+00
 -1      3580 3.32850E+01 1.30992E+01 0.00000E+00
 -1      3581 3.17850E+01 1.30992E+01 0.00000E+00
 -1      3582 1.02682E+02 3.21159E+01 0.00000E+00
 -1      3583 2.04000E+01 3.57110E+01 0.00000E+00
 -1      3584 2.19000E+01 3.57110E+01 0.00000E+00
 -1      3585 2.26500E+01 3.44120E+01 0.00000E+00
 -1      3586 1.32798E+02 1.78540E+01 0.00000E+00
 -1      3587 1.33294E+02 1.93265E+01 0.00000E+00
 -1      3588 1.01596E+02 2.35998E+01 0.00000E+00
 -1      3589 1.01815E+02 2.23531E+01 0.00000E+00
 -1      3590 1.00963E+02 2.16124E+01 0.00000E+00
 -1      3591 2.42850E+01 1.30992E+01 0.00000E+00
 -1      3592 2.27850E+01 1.30992E+01 0.00000E+00
 -1      3593 2.20350E+01 1.43982E+01 0.00000E+00
 -1      3594 1.02330E+02 3.00016E+01 0.00000E+00
 -1      3595 1.01916E+02 2.87191E+01 0.00000E+00
 -1      3596 1.31901E+02 3.10605E+01 0.00000E+00
 -1      3597 1.31524E+02 3.19142E+01 0.00000E+00
 -1      3598 1.32569E+02 3.31681E+01 0.00000E+00
 -1      3599 1.32981E+02 3.03031E+01 0.00000E+00
 -1      3600 1.33627E+02 2.09306E+01 0.00000E+00
 -1      3601 1.33868E+02 2.22730E+01 0.00000E+00
 -1      3602 1.02293E+02 1.88809E+01 0.00000E+00
 -1      3603 1.02390E+02 1.78931E+01 0.00000E+00
 -1      3604 1.01279E+02 1.93779E+01 0.00000E+00
 -1      3605 1.60576E+01 3.56568E+01 0.00000E+00
 -1      3606 1.68076E+01 3.43578E+01 0.00000E+00
 -1      3607 1.47152E+01 3.56027E+01 0.00000E+00
 -1      3608 1.42890E+01 2.86531E+01 0.00000E+00
 -1      3609 1.42890E+01 3.01219E+01 0.00000E+00
 -1      3610 1.34966E+02 2.34170E+01 0.00000E+00
 -1      3611 1.55266E+01 3.18456E+01 0.00000E+00
 -1      3612 1.42276E+01 3.25800E+01 0.00000E+00
 -1      3613 1.29900E+01 2.64469E+01 0.00000E+00
 -1      3614 3.10350E+01 1.43982E+01 0.00000E+00
 -1      3615 3.02850E+01 1.30992E+01 0.00000E+00
 -1      3616 2.87850E+01 1.30992E+01 0.00000E+00
 -1      3617 1.36155E+02 1.26686E+01 0.00000E+00
 -1      3618 1.33195E+02 1.33718E+01 0.00000E+00
 -1      3619 1.32228E+02 1.51809E+01 0.00000E+00
 -1      3620 1.32348E+02 1.62343E+01 0.00000E+00
 -1      3621 1.34363E+02 1.36525E+01 0.00000E+00
 -1      3622 3.47850E+01 1.30992E+01 0.00000E+00
 -1      3623 3.40350E+01 1.43982E+01 0.00000E+00
 -1      3624 3.62850E+01 1.30992E+01 0.00000E+00
 -1      3625 1.34075E+02 3.60373E+01 0.00000E+00
 -1      3626 1.35382E+02 3.61483E+01 0.00000E+00
 -1      3627 1.35569E+02 3.52965E+01 0.00000E+00
 -1      3628 1.33432E+02 3.48326E+01 0.00000E+00
 -1      3629 4.00350E+01 1.43982E+01 0.00000E+00
 -1      3630 3.92850E+01 1.30992E+01 0.00000E+00
 -1      3631 3.77850E+01 1.30992E+01 0.00000E+00
 -1      3632 1.03596E+02 1.54951E+01 0.00000E+00
 -1      3633 1.00831E+02 2.45051E+01 0.00000E+00
 -1      3634 9.99784E+01 2.37644E+01 0.00000E+00
 -1      3635 1.00066E+02 2.54103E+01 0.00000E+00
 -1      3636 1.34589E+02 1.97868E+01 0.00000E+00
 -1      3637 1.33806E+02 1.65631E+01 0.00000E+00
 -1      3638 1.00264E+02 2.88684E+01 0.00000E+00
 -1      3639 1.01033E+02 2.79128E+01 0.00000E+00
 -1      3640 1.00149E+02 2.71066E+01 0.00000E+00
 -1      3641 1.36010E+02 2.66965E+01 0.00000E+00
 -1      3642 1.36010E+02 2.52340E+01 0.00000E+00
 -1      3643 2.72850E+01 1.30992E+01 0.00000E+00
 -1      3644 2.57850E+01 1.30992E+01 0.00000E+00
 -1      3645 2.80350E+01 1.43982E+01 0.00000E+00
 -1      3646 1.35633E+02 1.86601E+01 0.00000E+00
 -1      3647 1.35633E+02 1.71851E+01 0.00000E+00
 -1      3648 1.84669E+01 1.29495E+01 0.00000E+00
 -1      3649 1.71488E+01 1.27997E+01 0.00000E+00
 -1      3650 1.92169E+01 1.42485E+01 0.00000E+00
 -1      3651 1.34099E+02 2.71568E+01 0.00000E+00
 -1      3652 1.96500E+01 3.44120E+01 0.00000E+00
 -1      3653 1.42890E+01 1.39359E+01 0.00000E+00
 -1      3654 1.42890E+01 1.54078E+01 0.00000E+00
 -1      3655 1.42890E+01 1.98219E+01 0.00000E+00
 -1      3656 1.42890E+01 2.12906E+01 0.00000E+00
 -1      3657 1.01500E+02 3.17889E+01 0.00000E+00
 -1      3658 1.35755E+02 3.44448E+01 0.00000E+00
 -1      3659 2.50350E+01 1.43982E+01 0.00000E+00
 -1      3660 1.34456E+02 3.37073E+01 0.00000E+00
 -1      3661 1.42890E+01 2.27656E+01 0.00000E+00
 -1      3662 1.42890E+01 2.42406E+01 0.00000E+00
 -1      3663 1.55880E+01 2.20313E+01 0.00000E+00
 -1      3664 1.35183E+02 1.55655E+01 0.00000E+00
 -1      3665 1.42890E+01 2.57109E+01 0.00000E+00
 -1      3666 1.42890E+01 2.71828E+01 0.00000E+00
 -1      3667 1.55880E+01 2.79172E+01 0.00000E+00
 -1      3668 1.55880E+01 2.49766E+01 0.00000E+00
 -1      3669 2.49000E+01 3.31130E+01 0.00000E+00
 -1      3670 2.64000E+01 3.31130E+01 0.00000E+00
 -1      3671 2.79000E+01 3.31130E+01 0.00000E+00
 -1      3672 2.94000E+01 3.31130E+01 0.00000E+00
 -1      3673 2.71500E+01 3.18140E+01 0.00000E+00
 -1      3674 3.09000E+01 3.31130E+01 0.00000E+00
 -1      3675 3.24000E+01 3.31130E+01 0.00000E+00
 -1      3676 3.01500E+01 3.18140E+01 0.00000E+00
 -1      3677 3.39000E+01 3.31130E+01 0.00000E+00
 -1      3678 3.54000E+01 3.31130E+01 0.00000E+00
 -1      3679 3.31500E+01 3.18140E+01 0.00000E+00
 -1      3680 3.69000E+01 3.31130E+01 0.00000E+00
 -1      3681 3.84000E+01 3.31130E+01 0.00000E+00
 -1      3682 3.61500E+01 3.18140E+01 0.00000E+00
 -1      3683 3.99000E+01 3.31130E+01 0.00000E+00
 -1      3684 4.14000E+01 3.31130E+01 0.00000E+00
 -1      3685 3.91500E+01 3.18140E+01 0.00000E+00
 -1      3686 4.29000E+01 3.31130E+01 0.00000E+00
 -1      3687 4.44000E+01 3.31130E+01 0.00000E+00
 -1      3688 4.21500E+01 3.18140E+01 0.00000E+00
 -1      3689 4.59000E+01 3.31130E+01 0.00000E+00
 -1      3690 4.74000E+01 3.31130E+01 0.00000E+00
 -1      3691 4.51500E+01 3.18140E+01 0.00000E+00
 -1      3692 4.89000E+01 3.31130E+01 0.00000E+00
 -1      3693 5.04000E+01 3.31130E+01 0.00000E+00
 -1      3694 4.81500E+01 3.18140E+01 0.00000E+00
 -1      3695 5.19000E+01 3.31130E+01 0.00000E+00
 -1      3696 5.34000E+01 3.31130E+01 0.00000E+00
 -1      3697 5.11500E+01 3.18140E+01 0.00000E+00
 -1      3698 5.49000E+01 3.31130E+01 0.00000E+00
 -1      3699 5.64000E+01 3.31130E+01 0.00000E+00
 -1      3700 5.41500E+01 3.18140E+01 0.00000E+00
 -1      3701 5.79000E+01 3.31130E+01 0.00000E+00
 -1      3702 5.94000E+01 3.31130E+01 0.00000E+00
 -1      3703 5.71500E+01 3.18140E+01 0.00000E+00
 -1      3704 6.09000E+01 3.31130E+01 0.00000E+00
 -1      3705 6.24000E+01 3.31130E+01 0.00000E+00
 -1      3706 6.01500E+01 3.18140E+01 0.00000E+00
 -1      3707 6.39000E+01 3.31130E+01 0.00000E+00
 -1      3708 6.54000E+01 3.31130E+01 0.00000E+00
 -1      3709 6.31500E+01 3.18140E+01 0.00000E+00
 -1      3710 6.69000E+01 3.31130E+01 0.00000E+00
 -1      3711 6.84000E+01 3.31130E+01 0.00000E+00
 -1      3712 6.61500E+01 3.18140E+01 0.00000E+00
 -1      3713 6.99000E+01 3.31130E+01 0.00000E+00
 -1      3714 7.14000E+01 3.31130E+01 0.00000E+00
 -1      3715 6.91500E+01 3.18140E+01 0.00000E+00
 -1      3716 7.29000E+01 3.31130E+01 0.00000E+00
 -1      3717 7.44000E+01 3.31130E+01 0.00000E+00
 -1      3718 7.21500E+01 3.18140E+01 0.00000E+00
 -1      3719 7.59000E+01 3.31130E+01 0.00000E+00
 -1      3720 7.74000E+01 3.31130E+01 0.00000E+00
 -1      3721 7.51500E+01 3.18140E+01 0.00000E+00
 -1      3722 7.89000E+01 3.31130E+01 0.00000E+00
 -1      3723 8.04000E+01 3.31130E+01 0.00000E+00
 -1      3724 7.81500E+01 3.18140E+01 0.00000E+00
 -1      3725 8.19000E+01 3.31130E+01 0.00000E+00
 -1      3726 8.34000E+01 3.31130E+01 0.00000E+00
 -1      3727 8.11500E+01 3.18140E+01 0.00000E+00
 -1      3728 8.49000E+01 3.31130E+01 0.00000E+00
 -1      3729 8.64000E+01 3.31130E+01 0.00000E+00
 -1      3730 8.41500E+01 3.18140E+01 0.00000E+00
 -1      3731 8.79000E+01 3.31130E+01 0.00000E+00
 -1      3732 8.94000E+01 3.31130E+01 0.00000E+00
 -1      3733 8.71500E+01 3.18140E+01 0.00000E+00
 -1      3734 9.09000E+01 3.31130E+01 0.00000E+00
 -1      3735 9.24000E+01 3.31130E+01 0.00000E+00
 -1      3736 9.01500E+01 3.18140E+01 0.00000E+00
 -1      3737 9.39000E+01 3.31130E+01 0.00000E+00
 -1      3738 9.54000E+01 3.31130E+01 0.00000E+00
 -1      3739 9.31500E+01 3.18140E+01 0.00000E+00
 -1      3740 9.69000E+01 3.31130E+01 0.00000E+00
 -1      3741 9.84000E+01 3.31130E+01 0.00000E+00
 -1      3742 9.61500E+01 3.18140E+01 0.00000E+00
 -1      3743 4.37850E+01 1.56973E+01 0.00000E+00
 -1      3744 4.22850E+01 1.56973E+01 0.00000E+00
 -1      3745 1.34776E+01 3.53477E+01 0.00000E+00
 -1      3746 1.33388E+02 3.34753E+01 0.00000E+00
 -1      3747 5.57850E+01 1.56973E+01 0.00000E+00
 -1      3748 5.42850E+01 1.56973E+01 0.00000E+00
 -1      3749 5.27850E+01 1.56973E+01 0.00000E+00
 -1      3750 5.12850E+01 1.56973E+01 0.00000E+00
 -1      3751 5.35350E+01 1.69963E+01 0.00000E+00
 -1      3752 6.17850E+01 1.56973E+01 0.00000E+00
 -1      3753 6.02850E+01 1.56973E+01 0.00000E+00
 -1      3754 6.47850E+01 1.56973E+01 0.00000E+00
 -1      3755 6.32850E+01 1.56973E+01 0.00000E+00
 -1      3756 6.25350E+01 1.69963E+01 0.00000E+00
 -1      3757 6.77850E+01 1.56973E+01 0.00000E+00
 -1      3758 6.62850E+01 1.56973E+01 0.00000E+00
 -1      3759 6.55350E+01 1.69963E+01 0.00000E+00
 -1      3760 7.07850E+01 1.56973E+01 0.00000E+00
 -1      3761 6.92850E+01 1.56973E+01 0.00000E+00
 -1      3762 6.85350E+01 1.69963E+01 0.00000E+00
 -1      3763 7.37850E+01 1.56973E+01 0.00000E+00
 -1      3764 7.22850E+01 1.56973E+01 0.00000E+00
 -1      3765 7.15350E+01 1.69963E+01 0.00000E+00
 -1      3766 7.67850E+01 1.56973E+01 0.00000E+00
 -1      3767 7.52850E+01 1.56973E+01 0.00000E+00
 -1      3768 7.45350E+01 1.69963E+01 0.00000E+00
 -1      3769 7.97850E+01 1.56973E+01 0.00000E+00
 -1      3770 7.82850E+01 1.56973E+01 0.00000E+00
 -1      3771 7.75350E+01 1.69963E+01 0.00000E+00
 -1      3772 8.27850E+01 1.56973E+01 0.00000E+00
 -1      3773 8.12850E+01 1.56973E+01 0.00000E+00
 -1      3774 8.05350E+01 1.69963E+01 0.00000E+00
 -1      3775 8.57850E+01 1.56973E+01 0.00000E+00
 -1      3776 8.42850E+01 1.56973E+01 0.00000E+00
 -1      3777 8.35350E+01 1.69963E+01 0.00000E+00
 -1      3778 8.87850E+01 1.56973E+01 0.00000E+00
 -1      3779 8.72850E+01 1.56973E+01 0.00000E+00
 -1      3780 8.65350E+01 1.69963E+01 0.00000E+00
 -1      3781 9.17850E+01 1.56973E+01 0.00000E+00
 -1      3782 9.02850E+01 1.56973E+01 0.00000E+00
 -1      3783 8.95350E+01 1.69963E+01 0.00000E+00
 -1      3784 9.47850E+01 1.56973E+01 0.00000E+00
 -1      3785 9.32850E+01 1.56973E+01 0.00000E+00
 -1      3786 9.25350E+01 1.69963E+01 0.00000E+00
 -1      3787 9.77850E+01 1.56973E+01 0.00000E+00
 -1      3788 9.62850E+01 1.56973E+01 0.00000E+00
 -1      3789 9.55350E+01 1.69963E+01 0.00000E+00
 -1      3790 1.33594E+02 3.20428E+01 0.00000E+00
 -1      3791 2.27850E+01 1.56973E+01 0.00000E+00
 -1      3792 2.12850E+01 1.56973E+01 0.00000E+00
 -1      3793 1.35098E+02 2.84103E+01 0.00000E+00
 -1      3794 1.35966E+02 2.02642E+01 0.00000E+00
 -1      3795 1.02470E+02 1.58972E+01 0.00000E+00
 -1      3796 1.36010E+02 2.37621E+01 0.00000E+00
 -1      3797 2.57850E+01 1.56973E+01 0.00000E+00
 -1      3798 2.42850E+01 1.56973E+01 0.00000E+00
 -1      3799 2.35350E+01 1.69963E+01 0.00000E+00
 -1      3800 1.42276E+01 3.40487E+01 0.00000E+00
 -1      3801 2.19000E+01 3.31130E+01 0.00000E+00
 -1      3802 2.34000E+01 3.31130E+01 0.00000E+00
 -1      3803 2.41500E+01 3.18140E+01 0.00000E+00
 -1      3804 1.35966E+02 2.17361E+01 0.00000E+00
 -1      3805 1.46944E+01 1.23503E+01 0.00000E+00
 -1      3806 1.59934E+01 1.30863E+01 0.00000E+00
 -1      3807 1.35148E+02 1.39595E+01 0.00000E+00
 -1      3808 1.35098E+02 2.98728E+01 0.00000E+00
 -1      3809 1.89000E+01 3.31130E+01 0.00000E+00
 -1      3810 2.04000E+01 3.31130E+01 0.00000E+00
 -1      3811 2.11500E+01 3.18140E+01 0.00000E+00
 -1      3812 9.98436E+01 2.20583E+01 0.00000E+00
 -1      3813 1.00063E+02 2.08116E+01 0.00000E+00
 -1      3814 1.42890E+01 1.68789E+01 0.00000E+00
 -1      3815 1.42890E+01 1.83508E+01 0.00000E+00
 -1      3816 1.55880E+01 1.90852E+01 0.00000E+00
 -1      3817 1.55880E+01 1.61430E+01 0.00000E+00
 -1      3818 1.67434E+01 1.43853E+01 0.00000E+00
 -1      3819 1.33799E+02 3.06103E+01 0.00000E+00
 -1      3820 1.01455E+02 1.63942E+01 0.00000E+00
 -1      3821 5.87850E+01 1.56973E+01 0.00000E+00
 -1      3822 5.72850E+01 1.56973E+01 0.00000E+00
 -1      3823 5.95350E+01 1.69963E+01 0.00000E+00
 -1      3824 1.78988E+01 1.55698E+01 0.00000E+00
 -1      3825 1.67434E+01 1.58564E+01 0.00000E+00
 -1      3826 1.67434E+01 1.73275E+01 0.00000E+00
 -1      3827 1.76190E+01 3.06007E+01 0.00000E+00
 -1      3828 1.75576E+01 3.30588E+01 0.00000E+00
 -1      3829 3.17850E+01 1.56973E+01 0.00000E+00
 -1      3830 3.02850E+01 1.56973E+01 0.00000E+00
 -1      3831 4.15350E+01 1.69963E+01 0.00000E+00
 -1      3832 4.07850E+01 1.56973E+01 0.00000E+00
 -1      3833 3.92850E+01 1.56973E+01 0.00000E+00
 -1      3834 4.52850E+01 1.56973E+01 0.00000E+00
 -1      3835 4.45350E+01 1.69963E+01 0.00000E+00
 -1      3836 4.67850E+01 1.56973E+01 0.00000E+00
 -1      3837 1.00149E+02 3.20433E+01 0.00000E+00
 -1      3838 4.97850E+01 1.56973E+01 0.00000E+00
 -1      3839 4.82850E+01 1.56973E+01 0.00000E+00
 -1      3840 4.75350E+01 1.69963E+01 0.00000E+00
 -1      3841 5.65350E+01 1.69963E+01 0.00000E+00
 -1      3842 5.05350E+01 1.69963E+01 0.00000E+00
 -1      3843 9.99555E+01 1.63942E+01 0.00000E+00
 -1      3844 9.92967E+01 2.63659E+01 0.00000E+00
 -1      3845 9.84440E+01 2.56252E+01 0.00000E+00
 -1      3846 9.85275E+01 2.73215E+01 0.00000E+00
 -1      3847 9.83131E+01 2.38688E+01 0.00000E+00
 -1      3848 9.90784E+01 2.29635E+01 0.00000E+00
 -1      3849 9.81783E+01 2.21627E+01 0.00000E+00
 -1      3850 1.92169E+01 1.57196E+01 0.00000E+00
 -1      3851 2.87850E+01 1.56973E+01 0.00000E+00
 -1      3852 2.72850E+01 1.56973E+01 0.00000E+00
 -1      3853 2.95350E+01 1.69963E+01 0.00000E+00
 -1      3854 9.93986E+01 3.07443E+01 0.00000E+00
 -1      3855 9.85151E+01 2.99381E+01 0.00000E+00
 -1      3856 2.65350E+01 1.69963E+01 0.00000E+00
 -1      3857 9.90406E+01 2.02696E+01 0.00000E+00
 -1      3858 1.00160E+02 1.98238E+01 0.00000E+00
 -1      3859 1.00257E+02 1.88360E+01 0.00000E+00
 -1      3860 3.70350E+01 1.43982E+01 0.00000E+00
 -1      3861 3.47850E+01 1.56973E+01 0.00000E+00
 -1      3862 3.32850E+01 1.56973E+01 0.00000E+00
 -1      3863 3.25350E+01 1.69963E+01 0.00000E+00
 -1      3864 1.99669E+01 1.70186E+01 0.00000E+00
 -1      3865 1.67434E+01 1.87986E+01 0.00000E+00
 -1      3866 1.67434E+01 2.02697E+01 0.00000E+00
 -1      3867 1.78988E+01 1.85120E+01 0.00000E+00
 -1      3868 1.67434E+01 2.17447E+01 0.00000E+00
 -1      3869 1.67434E+01 2.32197E+01 0.00000E+00
 -1      3870 1.78988E+01 2.14581E+01 0.00000E+00
 -1      3871 1.76190E+01 2.76601E+01 0.00000E+00
 -1      3872 1.76190E+01 2.91304E+01 0.00000E+00
 -1      3873 1.96500E+01 3.03437E+01 0.00000E+00
 -1      3874 2.72850E+01 1.82952E+01 0.00000E+00
 -1      3875 2.57850E+01 1.82952E+01 0.00000E+00
 -1      3876 2.64000E+01 3.05150E+01 0.00000E+00
 -1      3877 2.79000E+01 3.05150E+01 0.00000E+00
 -1      3878 5.72850E+01 1.82952E+01 0.00000E+00
 -1      3879 5.57850E+01 1.82952E+01 0.00000E+00
 -1      3880 2.94000E+01 3.05150E+01 0.00000E+00
 -1      3881 3.09000E+01 3.05150E+01 0.00000E+00
 -1      3882 2.86500E+01 2.92160E+01 0.00000E+00
 -1      3883 3.24000E+01 3.05150E+01 0.00000E+00
 -1      3884 3.39000E+01 3.05150E+01 0.00000E+00
 -1      3885 3.16500E+01 2.92160E+01 0.00000E+00
 -1      3886 3.54000E+01 3.05150E+01 0.00000E+00
 -1      3887 3.69000E+01 3.05150E+01 0.00000E+00
 -1      3888 3.46500E+01 2.92160E+01 0.00000E+00
 -1      3889 3.84000E+01 3.05150E+01 0.00000E+00
 -1      3890 3.99000E+01 3.05150E+01 0.00000E+00
 -1      3891 3.76500E+01 2.92160E+01 0.00000E+00
 -1      3892 4.14000E+01 3.05150E+01 0.00000E+00
 -1      3893 4.29000E+01 3.05150E+01 0.00000E+00
 -1      3894 4.06500E+01 2.92160E+01 0.00000E+00
 -1      3895 4.44000E+01 3.05150E+01 0.00000E+00
 -1      3896 4.59000E+01 3.05150E+01 0.00000E+00
 -1      3897 4.36500E+01 2.92160E+01 0.00000E+00
 -1      3898 4.74000E+01 3.05150E+01 0.00000E+00
 -1      3899 4.89000E+01 3.05150E+01 0.00000E+00
 -1      3900 4.66500E+01 2.92160E+01 0.00000E+00
 -1      3901 5.04000E+01 3.05150E+01 0.00000E+00
 -1      3902 5.19000E+01 3.05150E+01 0.00000E+00
 -1      3903 4.96500E+01 2.92160E+01 0.00000E+00
 -1      3904 5.34000E+01 3.05150E+01 0.00000E+00
 -1      3905 5.49000E+01 3.05150E+01 0.00000E+00
 -1      3906 5.26500E+01 2.92160E+01 0.00000E+00
 -1      3907 5.64000E+01 3.05150E+01 0.00000E+00
 -1      3908 5.79000E+01 3.05150E+01 0.00000E+00
 -1      3909 5.56500E+01 2.92160E+01 0.00000E+00
 -1      3910 5.94000E+01 3.05150E+01 0.00000E+00
 -1      3911 6.09000E+01 3.05150E+01 0.00000E+00
 -1      3912 5.86500E+01 2.92160E+01 0.00000E+00
 -1      3913 6.24000E+01 3.05150E+01 0.00000E+00
 -1      3914 6.39000E+01 3.05150E+01 0.00000E+00
 -1      3915 6.16500E+01 2.92160E+01 0.00000E+00
 -1      3916 6.54000E+01 3.05150E+01 0.00000E+00
 -1      3917 6.69000E+01 3.05150E+01 0.00000E+00
 -1      3918 6.46500E+01 2.92160E+01 0.00000E+00
 -1      3919 6.84000E+01 3.05150E+01 0.00000E+00
 -1      3920 6.99000E+01 3.05150E+01 0.00000E+00
 -1      3921 6.76500E+01 2.92160E+01 0.00000E+00
 -1      3922 7.14000E+01 3.05150E+01 0.00000E+00
 -1      3923 7.29000E+01 3.05150E+01 0.00000E+00
 -1      3924 7.06500E+01 2.92160E+01 0.00000E+00
 -1      3925 7.44000E+01 3.05150E+01 0.00000E+00
 -1      3926 7.59000E+01 3.05150E+01 0.00000E+00
 -1      3927 7.36500E+01 2.92160E+01 0.00000E+00
 -1      3928 7.74000E+01 3.05150E+01 0.00000E+00
 -1      3929 7.89000E+01 3.05150E+01 0.00000E+00
 -1      3930 7.66500E+01 2.92160E+01 0.00000E+00
 -1      3931 8.04000E+01 3.05150E+01 0.00000E+00
 -1      3932 8.19000E+01 3.05150E+01 0.00000E+00
 -1      3933 7.96500E+01 2.92160E+01 0.00000E+00
 -1      3934 8.34000E+01 3.05150E+01 0.00000E+00
 -1      3935 8.49000E+01 3.05150E+01 0.00000E+00
 -1      3936 8.26500E+01 2.92160E+01 0.00000E+00
 -1      3937 8.64000E+01 3.05150E+01 0.00000E+00
 -1      3938 8.79000E+01 3.05150E+01 0.00000E+00
 -1      3939 8.56500E+01 2.92160E+01 0.00000E+00
 -1      3940 8.94000E+01 3.05150E+01 0.00000E+00
 -1      3941 9.09000E+01 3.05150E+01 0.00000E+00
 -1      3942 8.86500E+01 2.92160E+01 0.00000E+00
 -1      3943 9.24000E+01 3.05150E+01 0.00000E+00
 -1      3944 9.39000E+01 3.05150E+01 0.00000E+00
 -1      3945 9.16500E+01 2.92160E+01 0.00000E+00
 -1      3946 9.92055E+01 1.76932E+01 0.00000E+00
 -1      3947 1.76190E+01 2.47195E+01 0.00000E+00
 -1      3948 1.76190E+01 2.61898E+01 0.00000E+00
 -1      3949 1.96500E+01 2.74031E+01 0.00000E+00
 -1      3950 5.42850E+01 1.82952E+01 0.00000E+00
 -1      3951 5.27850E+01 1.82952E+01 0.00000E+00
 -1      3952 5.50350E+01 1.95942E+01 0.00000E+00
 -1      3953 6.62850E+01 1.82952E+01 0.00000E+00
 -1      3954 6.47850E+01 1.82952E+01 0.00000E+00
 -1      3955 6.32850E+01 1.82952E+01 0.00000E+00
 -1      3956 6.17850E+01 1.82952E+01 0.00000E+00
 -1      3957 6.40350E+01 1.95942E+01 0.00000E+00
 -1      3958 7.22850E+01 1.82952E+01 0.00000E+00
 -1      3959 7.07850E+01 1.82952E+01 0.00000E+00
 -1      3960 7.52850E+01 1.82952E+01 0.00000E+00
 -1      3961 7.37850E+01 1.82952E+01 0.00000E+00
 -1      3962 7.30350E+01 1.95942E+01 0.00000E+00
 -1      3963 7.82850E+01 1.82952E+01 0.00000E+00
 -1      3964 7.67850E+01 1.82952E+01 0.00000E+00
 -1      3965 7.60350E+01 1.95942E+01 0.00000E+00
 -1      3966 8.12850E+01 1.82952E+01 0.00000E+00
 -1      3967 7.97850E+01 1.82952E+01 0.00000E+00
 -1      3968 7.90350E+01 1.95942E+01 0.00000E+00
 -1      3969 8.42850E+01 1.82952E+01 0.00000E+00
 -1      3970 8.27850E+01 1.82952E+01 0.00000E+00
 -1      3971 8.20350E+01 1.95942E+01 0.00000E+00
 -1      3972 8.72850E+01 1.82952E+01 0.00000E+00
 -1      3973 8.57850E+01 1.82952E+01 0.00000E+00
 -1      3974 8.50350E+01 1.95942E+01 0.00000E+00
 -1      3975 9.02850E+01 1.82952E+01 0.00000E+00
 -1      3976 8.87850E+01 1.82952E+01 0.00000E+00
 -1      3977 8.80350E+01 1.95942E+01 0.00000E+00
 -1      3978 9.32850E+01 1.82952E+01 0.00000E+00
 -1      3979 9.17850E+01 1.82952E+01 0.00000E+00
 -1      3980 9.10350E+01 1.95942E+01 0.00000E+00
 -1      3981 9.62850E+01 1.82952E+01 0.00000E+00
 -1      3982 9.47850E+01 1.82952E+01 0.00000E+00
 -1      3983 9.40350E+01 1.95942E+01 0.00000E+00
 -1      3984 3.02850E+01 1.82952E+01 0.00000E+00
 -1      3985 2.87850E+01 1.82952E+01 0.00000E+00
 -1      3986 2.80350E+01 1.95942E+01 0.00000E+00
 -1      3987 2.11500E+01 3.03437E+01 0.00000E+00
 -1      3988 2.42850E+01 1.82952E+01 0.00000E+00
 -1      3989 2.27850E+01 1.82952E+01 0.00000E+00
 -1      3990 2.50350E+01 1.95942E+01 0.00000E+00
 -1      3991 2.34000E+01 3.05150E+01 0.00000E+00
 -1      3992 2.49000E+01 3.05150E+01 0.00000E+00
 -1      3993 2.56500E+01 2.92160E+01 0.00000E+00
 -1      3994 9.69062E+01 3.05057E+01 0.00000E+00
 -1      3995 9.77713E+01 2.86298E+01 0.00000E+00
 -1      3996 9.69187E+01 2.78891E+01 0.00000E+00
 -1      3997 9.54062E+01 3.05057E+01 0.00000E+00
 -1      3998 1.99669E+01 1.84897E+01 0.00000E+00
 -1      3999 6.02850E+01 1.82952E+01 0.00000E+00
 -1      4000 5.87850E+01 1.82952E+01 0.00000E+00
 -1      4001 5.80350E+01 1.95942E+01 0.00000E+00
 -1      4002 6.92850E+01 1.82952E+01 0.00000E+00
 -1      4003 6.77850E+01 1.82952E+01 0.00000E+00
 -1      4004 6.70350E+01 1.95942E+01 0.00000E+00
 -1      4005 3.77850E+01 1.56973E+01 0.00000E+00
 -1      4006 3.62850E+01 1.56973E+01 0.00000E+00
 -1      4007 3.55350E+01 1.69963E+01 0.00000E+00
 -1      4008 3.85350E+01 1.69963E+01 0.00000E+00
 -1      4009 5.12850E+01 1.82952E+01 0.00000E+00
 -1      4010 4.97850E+01 1.82952E+01 0.00000E+00
 -1      4011 5.20350E+01 1.95942E+01 0.00000E+00
 -1      4012 2.13759E+01 1.91300E+01 0.00000E+00
 -1      4013 1.93078E+01 2.06234E+01 0.00000E+00
 -1      4014 1.93078E+01 2.20984E+01 0.00000E+00
 -1      4015 2.21259E+01 2.04290E+01 0.00000E+00
 -1      4016 9.46562E+01 2.92067E+01 0.00000E+00
 -1      4017 7.00350E+01 1.95942E+01 0.00000E+00
 -1      4018 4.90350E+01 1.95942E+01 0.00000E+00
 -1      4019 4.82850E+01 1.82952E+01 0.00000E+00
 -1      4020 4.67850E+01 1.82952E+01 0.00000E+00
 -1      4021 6.10350E+01 1.95942E+01 0.00000E+00
 -1      4022 3.17850E+01 1.82952E+01 0.00000E+00
 -1      4023 3.10350E+01 1.95942E+01 0.00000E+00
 -1      4024 3.32850E+01 1.82952E+01 0.00000E+00
 -1      4025 9.75440E+01 2.48244E+01 0.00000E+00
 -1      4026 9.66439E+01 2.40235E+01 0.00000E+00
 -1      4027 9.67748E+01 2.57800E+01 0.00000E+00
 -1      4028 9.72393E+01 2.04259E+01 0.00000E+00
 -1      4029 9.73363E+01 1.94380E+01 0.00000E+00
 -1      4030 2.19000E+01 2.90447E+01 0.00000E+00
 -1      4031 4.22850E+01 1.82952E+01 0.00000E+00
 -1      4032 4.07850E+01 1.82952E+01 0.00000E+00
 -1      4033 4.52850E+01 1.82952E+01 0.00000E+00
 -1      4034 4.37850E+01 1.82952E+01 0.00000E+00
 -1      4035 4.60350E+01 1.95942E+01 0.00000E+00
 -1      4036 9.64740E+01 2.13311E+01 0.00000E+00
 -1      4037 4.30350E+01 1.95942E+01 0.00000E+00
 -1      4038 6.77850E+01 2.08932E+01 0.00000E+00
 -1      4039 6.62850E+01 2.08932E+01 0.00000E+00
 -1      4040 9.53374E+01 2.81475E+01 0.00000E+00
 -1      4041 9.60936E+01 2.68392E+01 0.00000E+00
 -1      4042 9.51936E+01 2.60384E+01 0.00000E+00
 -1      4043 9.38312E+01 2.81568E+01 0.00000E+00
 -1      4044 9.80863E+01 1.81390E+01 0.00000E+00
 -1      4045 3.09000E+01 2.79170E+01 0.00000E+00
 -1      4046 3.24000E+01 2.79170E+01 0.00000E+00
 -1      4047 3.39000E+01 2.79170E+01 0.00000E+00
 -1      4048 3.54000E+01 2.79170E+01 0.00000E+00
 -1      4049 3.31500E+01 2.66180E+01 0.00000E+00
 -1      4050 3.69000E+01 2.79170E+01 0.00000E+00
 -1      4051 3.84000E+01 2.79170E+01 0.00000E+00
 -1      4052 3.61500E+01 2.66180E+01 0.00000E+00
 -1      4053 3.99000E+01 2.79170E+01 0.00000E+00
 -1      4054 4.14000E+01 2.79170E+01 0.00000E+00
 -1      4055 3.91500E+01 2.66180E+01 0.00000E+00
 -1      4056 4.29000E+01 2.79170E+01 0.00000E+00
 -1      4057 4.44000E+01 2.79170E+01 0.00000E+00
 -1      4058 4.21500E+01 2.66180E+01 0.00000E+00
 -1      4059 4.59000E+01 2.79170E+01 0.00000E+00
 -1      4060 4.74000E+01 2.79170E+01 0.00000E+00
 -1      4061 4.51500E+01 2.66180E+01 0.00000E+00
 -1      4062 4.89000E+01 2.79170E+01 0.00000E+00
 -1      4063 5.04000E+01 2.79170E+01 0.00000E+00
 -1      4064 4.81500E+01 2.66180E+01 0.00000E+00
 -1      4065 5.19000E+01 2.79170E+01 0.00000E+00
 -1      4066 5.34000E+01 2.79170E+01 0.00000E+00
 -1      4067 5.11500E+01 2.66180E+01 0.00000E+00
 -1      4068 5.49000E+01 2.79170E+01 0.00000E+00
 -1      4069 5.64000E+01 2.79170E+01 0.00000E+00
 -1      4070 5.41500E+01 2.66180E+01 0.00000E+00
 -1      4071 5.79000E+01 2.79170E+01 0.00000E+00
 -1      4072 5.94000E+01 2.79170E+01 0.00000E+00
 -1      4073 5.71500E+01 2.66180E+01 0.00000E+00
 -1      4074 6.09000E+01 2.79170E+01 0.00000E+00
 -1      4075 6.24000E+01 2.79170E+01 0.00000E+00
 -1      4076 6.01500E+01 2.66180E+01 0.00000E+00
 -1      4077 6.39000E+01 2.79170E+01 0.00000E+00
 -1      4078 6.54000E+01 2.79170E+01 0.00000E+00
 -1      4079 6.31500E+01 2.66180E+01 0.00000E+00
 -1      4080 6.69000E+01 2.79170E+01 0.00000E+00
 -1      4081 6.84000E+01 2.79170E+01 0.00000E+00
 -1      4082 6.61500E+01 2.66180E+01 0.00000E+00
 -1      4083 6.99000E+01 2.79170E+01 0.00000E+00
 -1      4084 7.14000E+01 2.79170E+01 0.00000E+00
 -1      4085 6.91500E+01 2.66180E+01 0.00000E+00
 -1      4086 7.29000E+01 2.79170E+01 0.00000E+00
 -1      4087 7.44000E+01 2.79170E+01 0.00000E+00
 -1      4088 7.21500E+01 2.66180E+01 0.00000E+00
 -1      4089 7.59000E+01 2.79170E+01 0.00000E+00
 -1      4090 7.74000E+01 2.79170E+01 0.00000E+00
 -1      4091 7.51500E+01 2.66180E+01 0.00000E+00
 -1      4092 7.89000E+01 2.79170E+01 0.00000E+00
 -1      4093 8.04000E+01 2.79170E+01 0.00000E+00
 -1      4094 7.81500E+01 2.66180E+01 0.00000E+00
 -1      4095 8.19000E+01 2.79170E+01 0.00000E+00
 -1      4096 8.34000E+01 2.79170E+01 0.00000E+00
 -1      4097 8.11500E+01 2.66180E+01 0.00000E+00
 -1      4098 8.49000E+01 2.79170E+01 0.00000E+00
 -1      4099 8.64000E+01 2.79170E+01 0.00000E+00
 -1      4100 8.41500E+01 2.66180E+01 0.00000E+00
 -1      4101 8.79000E+01 2.79170E+01 0.00000E+00
 -1      4102 8.94000E+01 2.79170E+01 0.00000E+00
 -1      4103 8.71500E+01 2.66180E+01 0.00000E+00
 -1      4104 9.09000E+01 2.79170E+01 0.00000E+00
 -1      4105 9.24000E+01 2.79170E+01 0.00000E+00
 -1      4106 9.01500E+01 2.66180E+01 0.00000E+00
 -1      4107 6.47850E+01 2.08932E+01 0.00000E+00
 -1      4108 6.32850E+01 2.08932E+01 0.00000E+00
 -1      4109 6.55350E+01 2.21922E+01 0.00000E+00
 -1      4110 1.87744E+01 2.44329E+01 0.00000E+00
 -1      4111 5.57850E+01 2.08932E+01 0.00000E+00
 -1      4112 5.42850E+01 2.08932E+01 0.00000E+00
 -1      4113 2.49000E+01 2.79170E+01 0.00000E+00
 -1      4114 2.64000E+01 2.79170E+01 0.00000E+00
 -1      4115 7.67850E+01 2.08932E+01 0.00000E+00
 -1      4116 7.52850E+01 2.08932E+01 0.00000E+00
 -1      4117 7.37850E+01 2.08932E+01 0.00000E+00
 -1      4118 7.22850E+01 2.08932E+01 0.00000E+00
 -1      4119 7.45350E+01 2.21922E+01 0.00000E+00
 -1      4120 8.27850E+01 2.08932E+01 0.00000E+00
 -1      4121 8.12850E+01 2.08932E+01 0.00000E+00
 -1      4122 8.57850E+01 2.08932E+01 0.00000E+00
 -1      4123 8.42850E+01 2.08932E+01 0.00000E+00
 -1      4124 8.35350E+01 2.21922E+01 0.00000E+00
 -1      4125 8.87850E+01 2.08932E+01 0.00000E+00
 -1      4126 8.72850E+01 2.08932E+01 0.00000E+00
 -1      4127 8.65350E+01 2.21922E+01 0.00000E+00
 -1      4128 9.17850E+01 2.08932E+01 0.00000E+00
 -1      4129 9.02850E+01 2.08932E+01 0.00000E+00
 -1      4130 8.95350E+01 2.21922E+01 0.00000E+00
 -1      4131 9.48795E+01 2.11122E+01 0.00000E+00
 -1      4132 9.33795E+01 2.11122E+01 0.00000E+00
 -1      4133 9.26295E+01 2.24112E+01 0.00000E+00
 -1      4134 9.58186E+01 2.28490E+01 0.00000E+00
 -1      4135 2.87850E+01 2.08932E+01 0.00000E+00
 -1      4136 2.72850E+01 2.08932E+01 0.00000E+00
 -1      4137 5.27850E+01 2.08932E+01 0.00000E+00
 -1      4138 5.12850E+01 2.08932E+01 0.00000E+00
 -1      4139 5.35350E+01 2.21922E+01 0.00000E+00
 -1      4140 4.37850E+01 2.08932E+01 0.00000E+00
 -1      4141 4.22850E+01 2.08932E+01 0.00000E+00
 -1      4142 2.57850E+01 2.08932E+01 0.00000E+00
 -1      4143 2.42850E+01 2.08932E+01 0.00000E+00
 -1      4144 2.65350E+01 2.21922E+01 0.00000E+00
 -1      4145 2.11500E+01 2.75744E+01 0.00000E+00
 -1      4146 2.34000E+01 2.77457E+01 0.00000E+00
 -1      4147 2.41500E+01 2.64467E+01 0.00000E+00
 -1      4148 2.11500E+01 2.61041E+01 0.00000E+00
 -1      4149 7.07850E+01 2.08932E+01 0.00000E+00
 -1      4150 6.92850E+01 2.08932E+01 0.00000E+00
 -1      4151 6.85350E+01 2.21922E+01 0.00000E+00
 -1      4152 1.97911E+01 2.33513E+01 0.00000E+00
 -1      4153 2.06667E+01 2.48511E+01 0.00000E+00
 -1      4154 2.21667E+01 2.50224E+01 0.00000E+00
 -1      4155 2.12002E+01 2.25166E+01 0.00000E+00
 -1      4156 7.97850E+01 2.08932E+01 0.00000E+00
 -1      4157 7.82850E+01 2.08932E+01 0.00000E+00
 -1      4158 8.05350E+01 2.21922E+01 0.00000E+00
 -1      4159 6.17850E+01 2.08932E+01 0.00000E+00
 -1      4160 6.02850E+01 2.08932E+01 0.00000E+00
 -1      4161 6.25350E+01 2.21922E+01 0.00000E+00
 -1      4162 4.00350E+01 1.95942E+01 0.00000E+00
 -1      4163 3.92850E+01 1.82952E+01 0.00000E+00
 -1      4164 3.77850E+01 1.82952E+01 0.00000E+00
 -1      4165 5.87850E+01 2.08932E+01 0.00000E+00
 -1      4166 5.72850E+01 2.08932E+01 0.00000E+00
 -1      4167 5.95350E+01 2.21922E+01 0.00000E+00
 -1      4168 2.79000E+01 2.79170E+01 0.00000E+00
 -1      4169 2.94000E+01 2.79170E+01 0.00000E+00
 -1      4170 3.01500E+01 2.66180E+01 0.00000E+00
 -1      4171 7.75350E+01 2.21922E+01 0.00000E+00
 -1      4172 4.97850E+01 2.08932E+01 0.00000E+00
 -1      4173 4.82850E+01 2.08932E+01 0.00000E+00
 -1      4174 5.05350E+01 2.21922E+01 0.00000E+00
 -1      4175 4.67850E+01 2.08932E+01 0.00000E+00
 -1      4176 4.52850E+01 2.08932E+01 0.00000E+00
 -1      4177 4.45350E+01 2.21922E+01 0.00000E+00
 -1      4178 4.75350E+01 2.21922E+01 0.00000E+00
 -1      4179 7.15350E+01 2.21922E+01 0.00000E+00
 -1      4180 5.65350E+01 2.21922E+01 0.00000E+00
 -1      4181 2.71500E+01 2.66180E+01 0.00000E+00
 -1      4182 3.62850E+01 1.82952E+01 0.00000E+00
 -1      4183 3.47850E+01 1.82952E+01 0.00000E+00
 -1      4184 3.40350E+01 1.95942E+01 0.00000E+00
 -1      4185 3.70350E+01 1.95942E+01 0.00000E+00
 -1      4186 3.02850E+01 2.08932E+01 0.00000E+00
 -1      4187 2.95350E+01 2.21922E+01 0.00000E+00
 -1      4188 3.17850E+01 2.08932E+01 0.00000E+00
 -1      4189 9.50494E+01 2.38046E+01 0.00000E+00
 -1      4190 2.33592E+01 2.29809E+01 0.00000E+00
 -1      4191 2.26092E+01 2.16819E+01 0.00000E+00
 -1      4192 4.15350E+01 2.21922E+01 0.00000E+00
 -1      4193 4.07850E+01 2.08932E+01 0.00000E+00
 -1      4194 3.92850E+01 2.08932E+01 0.00000E+00
 -1      4195 9.30812E+01 2.68578E+01 0.00000E+00
 -1      4196 9.37247E+01 2.58608E+01 0.00000E+00
 -1      4197 9.44059E+01 2.48016E+01 0.00000E+00
 -1      4198 9.35805E+01 2.36271E+01 0.00000E+00
 -1      4199 9.22935E+01 2.56210E+01 0.00000E+00
 -1      4200 8.98425E+01 2.44051E+01 0.00000E+00
 -1      4201 8.83425E+01 2.44051E+01 0.00000E+00
 -1      4202 7.78425E+01 2.44051E+01 0.00000E+00
 -1      4203 7.63425E+01 2.44051E+01 0.00000E+00
 -1      4204 3.54000E+01 2.53190E+01 0.00000E+00
 -1      4205 3.69000E+01 2.53190E+01 0.00000E+00
 -1      4206 3.88425E+01 2.44051E+01 0.00000E+00
 -1      4207 4.03425E+01 2.44051E+01 0.00000E+00
 -1      4208 4.18425E+01 2.44051E+01 0.00000E+00
 -1      4209 4.33425E+01 2.44051E+01 0.00000E+00
 -1      4210 4.48425E+01 2.44051E+01 0.00000E+00
 -1      4211 4.63425E+01 2.44051E+01 0.00000E+00
 -1      4212 4.78425E+01 2.44051E+01 0.00000E+00
 -1      4213 4.93425E+01 2.44051E+01 0.00000E+00
 -1      4214 5.08425E+01 2.44051E+01 0.00000E+00
 -1      4215 5.23425E+01 2.44051E+01 0.00000E+00
 -1      4216 5.38425E+01 2.44051E+01 0.00000E+00
 -1      4217 5.53425E+01 2.44051E+01 0.00000E+00
 -1      4218 5.68425E+01 2.44051E+01 0.00000E+00
 -1      4219 5.83425E+01 2.44051E+01 0.00000E+00
 -1      4220 5.98425E+01 2.44051E+01 0.00000E+00
 -1      4221 6.13425E+01 2.44051E+01 0.00000E+00
 -1      4222 6.28425E+01 2.44051E+01 0.00000E+00
 -1      4223 6.43425E+01 2.44051E+01 0.00000E+00
 -1      4224 6.58425E+01 2.44051E+01 0.00000E+00
 -1      4225 6.73425E+01 2.44051E+01 0.00000E+00
 -1      4226 6.88425E+01 2.44051E+01 0.00000E+00
 -1      4227 7.03425E+01 2.44051E+01 0.00000E+00
 -1      4228 7.18425E+01 2.44051E+01 0.00000E+00
 -1      4229 7.33425E+01 2.44051E+01 0.00000E+00
 -1      4230 7.48425E+01 2.44051E+01 0.00000E+00
 -1      4231 7.93425E+01 2.44051E+01 0.00000E+00
 -1      4232 8.08425E+01 2.44051E+01 0.00000E+00
 -1      4233 8.23425E+01 2.44051E+01 0.00000E+00
 -1      4234 8.38425E+01 2.44051E+01 0.00000E+00
 -1      4235 8.53425E+01 2.44051E+01 0.00000E+00
 -1      4236 8.68425E+01 2.44051E+01 0.00000E+00
 -1      4237 9.13425E+01 2.44051E+01 0.00000E+00
 -1      4238 2.98425E+01 2.44051E+01 0.00000E+00
 -1      4239 3.13425E+01 2.44051E+01 0.00000E+00
 -1      4240 2.51887E+01 2.32130E+01 0.00000E+00
 -1      4241 2.35130E+01 2.40017E+01 0.00000E+00
 -1      4242 2.39963E+01 2.52546E+01 0.00000E+00
 -1      4243 2.66887E+01 2.32130E+01 0.00000E+00
 -1      4244 3.26213E+01 2.48621E+01 0.00000E+00
 -1      4245 3.41213E+01 2.48621E+01 0.00000E+00
 -1      4246 3.48713E+01 2.35631E+01 0.00000E+00
 -1      4247 3.23138E+01 2.26492E+01 0.00000E+00
 -1      4248 2.54963E+01 2.54259E+01 0.00000E+00
 -1      4249 2.69963E+01 2.54259E+01 0.00000E+00
 -1      4250 3.80925E+01 2.31061E+01 0.00000E+00
 -1      4251 3.30638E+01 2.13502E+01 0.00000E+00
 -1      4252 9.19860E+01 2.34081E+01 0.00000E+00
 -1      4253 3.45638E+01 2.13502E+01 0.00000E+00
 -1      4254 3.73425E+01 2.18071E+01 0.00000E+00
 -1      4255 3.58425E+01 2.18071E+01 0.00000E+00
 -1      4256 2.83425E+01 2.44051E+01 0.00000E+00
 -3
    3C                          2046                                     1
 -1       165    8    0    1
 -2         6         7        23      1106      1270      1123
 -1       166    8    0    1
 -2         7         8       165      1107      1271      1272
 -1       167    8    0    1
 -2         8         9       166      1108      1273      1274
 -1       168    8    0    1
 -2         8       166       165      1274      1275      1271
 -1       169    8    0    1
 -2         9        10       167      1109      1276      1277
 -1       170    8    0    1
 -2         9       167       166      1277      1278      1273
 -1       171    8    0    1
 -2        10        11       168      1110      1279      1280
 -1       172    8    0    1
 -2        10       168       167      1280      1281      1276
 -1       173    8    0    1
 -2        11        12       169      1111      1282      1283
 -1       174    8    0    1
 -2        11       169       168      1283      1284      1279
 -1       175    8    0    1
 -2        12        13       170      1112      1285      1286
 -1       176    8    0    1
 -2        12       170       169      1286      1287      1282
 -1       177    8    0    1
 -2        13        14       171      1113      1288      1289
 -1       178    8    0    1
 -2        13       171       170      1289      1290      1285
 -1       179    8    0    1
 -2        14        15       172      1114      1291      1292
 -1       180    8    0    1
 -2        14       172       171      1292      1293      1288
 -1       181    8    0    1
 -2        15        16       173      1115      1294      1295
 -1       182    8    0    1
 -2        15       173       172      1295      1296      1291
 -1       183    8    0    1
 -2        16        17       174      1116      1297      1298
 -1       184    8    0    1
 -2        16       174       173      1298      1299      1294
 -1       185    8    0    1
 -2        17        18       175      1117      1300      1301
 -1       186    8    0    1
 -2        17       175       174      1301      1302      1297
 -1       187    8    0    1
 -2        18        19       176      1118      1303      1304
 -1       188    8    0    1
 -2        18       176       175      1304      1305      1300
 -1       189    8    0    1
 -2        19        20       177      1119      1306      1307
 -1       190    8    0    1
 -2        19       177       176      1307      1308      1303
 -1       191    8    0    1
 -2        20        21       178      1120      1309      1310
 -1       192    8    0    1
 -2        20       178       177      1310      1311      1306
 -1       193    8    0    1
 -2        21        22       179      1121      1312      1313
 -1       194    8    0    1
 -2        21       179       178      1313      1314      1309
 -1       195    8    0    1
 -2        22         5       180      1122      1315      1316
 -1       196    8    0    1
 -2       179        22       180      1312      1316      1317
 -1       197    8    0    1
 -2         5        72       180      1173      1318      1315
 -1       198    8    0    1
 -2        24        23       181      1124      1319      1320
 -1       199    8    0    1
 -2        25        24       182      1125      1321      1322
 -1       200    8    0    1
 -2        24       181       182      1320      1323      1321
 -1       201    8    0    1
 -2        26        25       183      1126      1324      1325
 -1       202    8    0    1
 -2        25       182       183      1322      1326      1324
 -1       203    8    0    1
 -2        27        26       184      1127      1327      1328
 -1       204    8    0    1
 -2        26       183       184      1325      1329      1327
 -1       205    8    0    1
 -2        28        27       185      1128      1330      1331
 -1       206    8    0    1
 -2        27       184       185      1328      1332      1330
 -1       207    8    0    1
 -2        29        28       186      1129      1333      1334
 -1       208    8    0    1
 -2        28       185       186      1331      1335      1333
 -1       209    8    0    1
 -2        30        29       187      1130      1336      1337
 -1       210    8    0    1
 -2        29       186       187      1334      1338      1336
 -1       211    8    0    1
 -2        31        30       188      1131      1339      1340
 -1       212    8    0    1
 -2        30       187       188      1337      1341      1339
 -1       213    8    0    1
 -2        32        31       189      1132      1342      1343
 -1       214    8    0    1
 -2        31       188       189      1340      1344      1342
 -1       215    8    0    1
 -2        33        32       190      1133      1345      1346
 -1       216    8    0    1
 -2        32       189       190      1343      1347      1345
 -1       217    8    0    1
 -2        34        33       191      1134      1348      1349
 -1       218    8    0    1
 -2        33       190       191      1346      1350      1348
 -1       219    8    0    1
 -2        35        34       192      1135      1351      1352
 -1       220    8    0    1
 -2        34       191       192      1349      1353      1351
 -1       221    8    0    1
 -2        36        35       193      1136      1354      1355
 -1       222    8    0    1
 -2        35       192       193      1352      1356      1354
 -1       223    8    0    1
 -2        37        36       194      1137      1357      1358
 -1       224    8    0    1
 -2        36       193       194      1355      1359      1357
 -1       225    8    0    1
 -2        38        37       195      1138      1360      1361
 -1       226    8    0    1
 -2        37       194       195      1358      1362      1360
 -1       227    8    0    1
 -2        39        38       196      1139      1363      1364
 -1       228    8    0    1
 -2        38       195       196      1361      1365      1363
 -1       229    8    0    1
 -2        40        39       197      1140      1366      1367
 -1       230    8    0    1
 -2        39       196       197      1364      1368      1366
 -1       231    8    0    1
 -2        41        40       198      1141      1369      1370
 -1       232    8    0    1
 -2        40       197       198      1367      1371      1369
 -1       233    8    0    1
 -2        42        41       199      1142      1372      1373
 -1       234    8    0    1
 -2        41       198       199      1370      1374      1372
 -1       235    8    0    1
 -2        43        42       200      1143      1375      1376
 -1       236    8    0    1
 -2        42       199       200      1373      1377      1375
 -1       237    8    0    1
 -2        44        43       201      1144      1378      1379
 -1       238    8    0    1
 -2        43       200       201      1376      1380      1378
 -1       239    8    0    1
 -2        45        44       202      1145      1381      1382
 -1       240    8    0    1
 -2        44       201       202      1379      1383      1381
 -1       241    8    0    1
 -2        46        45       203      1146      1384      1385
 -1       242    8    0    1
 -2        45       202       203      1382      1386      1384
 -1       243    8    0    1
 -2        47        46       204      1147      1387      1388
 -1       244    8    0    1
 -2        46       203       204      1385      1389      1387
 -1       245    8    0    1
 -2        48        47       205      1148      1390      1391
 -1       246    8    0    1
 -2        47       204       205      1388      1392      1390
 -1       247    8    0    1
 -2        49        48       206      1149      1393      1394
 -1       248    8    0    1
 -2        48       205       206      1391      1395      1393
 -1       249    8    0    1
 -2        50        49       207      1150      1396      1397
 -1       250    8    0    1
 -2        49       206       207      1394      1398      1396
 -1       251    8    0    1
 -2        51        50       208      1151      1399      1400
 -1       252    8    0    1
 -2        50       207       208      1397      1401      1399
 -1       253    8    0    1
 -2        52        51       209      1152      1402      1403
 -1       254    8    0    1
 -2        51       208       209      1400      1404      1402
 -1       255    8    0    1
 -2        53        52       210      1153      1405      1406
 -1       256    8    0    1
 -2        52       209       210      1403      1407      1405
 -1       257    8    0    1
 -2        54        53       211      1154      1408      1409
 -1       258    8    0    1
 -2        53       210       211      1406      1410      1408
 -1       259    8    0    1
 -2        55        54       212      1155      1411      1412
 -1       260    8    0    1
 -2        54       211       212      1409      1413      1411
 -1       261    8    0    1
 -2        56        55       213      1156      1414      1415
 -1       262    8    0    1
 -2        55       212       213      1412      1416      1414
 -1       263    8    0    1
 -2        57        56       214      1157      1417      1418
 -1       264    8    0    1
 -2        56       213       214      1415      1419      1417
 -1       265    8    0    1
 -2        58        57       215      1158      1420      1421
 -1       266    8    0    1
 -2        57       214       215      1418      1422      1420
 -1       267    8    0    1
 -2        59        58       216      1159      1423      1424
 -1       268    8    0    1
 -2        58       215       216      1421      1425      1423
 -1       269    8    0    1
 -2        60        59       217      1160      1426      1427
 -1       270    8    0    1
 -2        59       216       217      1424      1428      1426
 -1       271    8    0    1
 -2        61        60       218      1161      1429      1430
 -1       272    8    0    1
 -2        60       217       218      1427      1431      1429
 -1       273    8    0    1
 -2        62        61       219      1162      1432      1433
 -1       274    8    0    1
 -2        61       218       219      1430      1434      1432
 -1       275    8    0    1
 -2        63        62       220      1163      1435      1436
 -1       276    8    0    1
 -2        62       219       220      1433      1437      1435
 -1       277    8    0    1
 -2        64        63       221      1164      1438      1439
 -1       278    8    0    1
 -2        63       220       221      1436      1440      1438
 -1       279    8    0    1
 -2        65        64       222      1165      1441      1442
 -1       280    8    0    1
 -2        64       221       222      1439      1443      1441
 -1       281    8    0    1
 -2        66        65       223      1166      1444      1445
 -1       282    8    0    1
 -2        65       222       223      1442      1446      1444
 -1       283    8    0    1
 -2        67        66       224      1167      1447      1448
 -1       284    8    0    1
 -2        66       223       224      1445      1449      1447
 -1       285    8    0    1
 -2        68        67       225      1168      1450      1451
 -1       286    8    0    1
 -2        67       224       225      1448      1452      1450
 -1       287    8    0    1
 -2        69        68       226      1169      1453      1454
 -1       288    8    0    1
 -2        68       225       226      1451      1455      1453
 -1       289    8    0    1
 -2        70        69       227      1170      1456      1457
 -1       290    8    0    1
 -2        69       226       227      1454      1458      1456
 -1       291    8    0    1
 -2        71        70       228      1171      1459      1460
 -1       292    8    0    1
 -2        70       227       228      1457      1461      1459
 -1       293    8    0    1
 -2         4        71       136      1172      1462      1239
 -1       294    8    0    1
 -2       136        71       228      1462      1460      1463
 -1       295    8    0    1
 -2        72        73       229      1174      1464      1465
 -1       296    8    0    1
 -2        72       229       180      1465      1466      1318
 -1       297    8    0    1
 -2        73        74       230      1175      1467      1468
 -1       298    8    0    1
 -2        73       230       229      1468      1469      1464
 -1       299    8    0    1
 -2        74        75       231      1176      1470      1471
 -1       300    8    0    1
 -2        74       231       230      1471      1472      1467
 -1       301    8    0    1
 -2        75        76       232      1177      1473      1474
 -1       302    8    0    1
 -2        75       232       231      1474      1475      1470
 -1       303    8    0    1
 -2        76        77       233      1178      1476      1477
 -1       304    8    0    1
 -2        76       233       232      1477      1478      1473
 -1       305    8    0    1
 -2        77        78       234      1179      1479      1480
 -1       306    8    0    1
 -2        77       234       233      1480      1481      1476
 -1       307    8    0    1
 -2        78        79       235      1180      1482      1483
 -1       308    8    0    1
 -2        78       235       234      1483      1484      1479
 -1       309    8    0    1
 -2        79        80       236      1181      1485      1486
 -1       310    8    0    1
 -2        79       236       235      1486      1487      1482
 -1       311    8    0    1
 -2        80        81       237      1182      1488      1489
 -1       312    8    0    1
 -2        80       237       236      1489      1490      1485
 -1       313    8    0    1
 -2        81        82       238      1183      1491      1492
 -1       314    8    0    1
 -2        81       238       237      1492      1493      1488
 -1       315    8    0    1
 -2        82        83       239      1184      1494      1495
 -1       316    8    0    1
 -2        82       239       238      1495      1496      1491
 -1       317    8    0    1
 -2        83        84       240      1185      1497      1498
 -1       318    8    0    1
 -2        83       240       239      1498      1499      1494
 -1       319    8    0    1
 -2        84        85       241      1186      1500      1501
 -1       320    8    0    1
 -2        84       241       240      1501      1502      1497
 -1       321    8    0    1
 -2        85        86       242      1187      1503      1504
 -1       322    8    0    1
 -2        85       242       241      1504      1505      1500
 -1       323    8    0    1
 -2        86        87       243      1188      1506      1507
 -1       324    8    0    1
 -2        86       243       242      1507      1508      1503
 -1       325    8    0    1
 -2        87        88       244      1189      1509      1510
 -1       326    8    0    1
 -2        87       244       243      1510      1511      1506
 -1       327    8    0    1
 -2        88        89       245      1190      1512      1513
 -1       328    8    0    1
 -2        88       245       244      1513      1514      1509
 -1       329    8    0    1
 -2        89        90       246      1191      1515      1516
 -1       330    8    0    1
 -2        89       246       245      1516      1517      1512
 -1       331    8    0    1
 -2        90        91       247      1192      1518      1519
 -1       332    8    0    1
 -2        90       247       246      1519      1520      1515
 -1       333    8    0    1
 -2        91        92       248      1193      1521      1522
 -1       334    8    0    1
 -2        91       248       247      1522      1523      1518
 -1       335    8    0    1
 -2        92        93       249      1194      1524      1525
 -1       336    8    0    1
 -2        92       249       248      1525      1526      1521
 -1       337    8    0    1
 -2        93        94       250      1195      1527      1528
 -1       338    8    0    1
 -2        93       250       249      1528      1529      1524
 -1       339    8    0    1
 -2        94        95       251      1196      1530      1531
 -1       340    8    0    1
 -2        94       251       250      1531      1532      1527
 -1       341    8    0    1
 -2        95        96       252      1197      1533      1534
 -1       342    8    0    1
 -2        95       252       251      1534      1535      1530
 -1       343    8    0    1
 -2        96        97       253      1198      1536      1537
 -1       344    8    0    1
 -2        96       253       252      1537      1538      1533
 -1       345    8    0    1
 -2        97        98       254      1199      1539      1540
 -1       346    8    0    1
 -2        97       254       253      1540      1541      1536
 -1       347    8    0    1
 -2        98        99       255      1200      1542      1543
 -1       348    8    0    1
 -2        98       255       254      1543      1544      1539
 -1       349    8    0    1
 -2        99       100       256      1201      1545      1546
 -1       350    8    0    1
 -2        99       256       255      1546      1547      1542
 -1       351    8    0    1
 -2       100       101       257      1202      1548      1549
 -1       352    8    0    1
 -2       100       257       256      1549      1550      1545
 -1       353    8    0    1
 -2       101       102       258      1203      1551      1552
 -1       354    8    0    1
 -2       101       258       257      1552      1553      1548
 -1       355    8    0    1
 -2       102       103       259      1204      1554      1555
 -1       356    8    0    1
 -2       102       259       258      1555      1556      1551
 -1       357    8    0    1
 -2       103       104       260      1205      1557      1558
 -1       358    8    0    1
 -2       103       260       259      1558      1559      1554
 -1       359    8    0    1
 -2       104       105       261      1206      1560      1561
 -1       360    8    0    1
 -2       104       261       260      1561      1562      1557
 -1       361    8    0    1
 -2       105       106       262      1207      1563      1564
 -1       362    8    0    1
 -2       105       262       261      1564      1565      1560
 -1       363    8    0    1
 -2       106       107       263      1208      1566      1567
 -1       364    8    0    1
 -2       106       263       262      1567      1568      1563
 -1       365    8    0    1
 -2       107       108       264      1209      1569      1570
 -1       366    8    0    1
 -2       107       264       263      1570      1571      1566
 -1       367    8    0    1
 -2       108       109       265      1210      1572      1573
 -1       368    8    0    1
 -2       108       265       264      1573      1574      1569
 -1       369    8    0    1
 -2       109       110       266      1211      1575      1576
 -1       370    8    0    1
 -2       109       266       265      1576      1577      1572
 -1       371    8    0    1
 -2       110       111       267      1212      1578      1579
 -1       372    8    0    1
 -2       110       267       266      1579      1580      1575
 -1       373    8    0    1
 -2       111       112       268      1213      1581      1582
 -1       374    8    0    1
 -2       111       268       267      1582      1583      1578
 -1       375    8    0    1
 -2       112       113       269      1214      1584      1585
 -1       376    8    0    1
 -2       112       269       268      1585      1586      1581
 -1       377    8    0    1
 -2       113       114       270      1215      1587      1588
 -1       378    8    0    1
 -2       113       270       269      1588      1589      1584
 -1       379    8    0    1
 -2       114       115       271      1216      1590      1591
 -1       380    8    0    1
 -2       114       271       270      1591      1592      1587
 -1       381    8    0    1
 -2       115       116       272      1217      1593      1594
 -1       382    8    0    1
 -2       115       272       271      1594      1595      1590
 -1       383    8    0    1
 -2       116       117       273      1218      1596      1597
 -1       384    8    0    1
 -2       116       273       272      1597      1598      1593
 -1       385    8    0    1
 -2       117       118       274      1219      1599      1600
 -1       386    8    0    1
 -2       117       274       273      1600      1601      1596
 -1       387    8    0    1
 -2       118       119       275      1220      1602      1603
 -1       388    8    0    1
 -2       118       275       274      1603      1604      1599
 -1       389    8    0    1
 -2       119       120       276      1221      1605      1606
 -1       390    8    0    1
 -2       119       276       275      1606      1607      1602
 -1       391    8    0    1
 -2       120         3       121      1222      1223      1608
 -1       392    8    0    1
 -2       121       122       277      1224      1609      1610
 -1       393    8    0    1
 -2       122       123       278      1225      1611      1612
 -1       394    8    0    1
 -2       122       278       277      1612      1613      1609
 -1       395    8    0    1
 -2       123       124       279      1226      1614      1615
 -1       396    8    0    1
 -2       123       279       278      1615      1616      1611
 -1       397    8    0    1
 -2       124       125       280      1227      1617      1618
 -1       398    8    0    1
 -2       124       280       279      1618      1619      1614
 -1       399    8    0    1
 -2       125       126       281      1228      1620      1621
 -1       400    8    0    1
 -2       125       281       280      1621      1622      1617
 -1       401    8    0    1
 -2       126       127       282      1229      1623      1624
 -1       402    8    0    1
 -2       126       282       281      1624      1625      1620
 -1       403    8    0    1
 -2       127       128       283      1230      1626      1627
 -1       404    8    0    1
 -2       127       283       282      1627      1628      1623
 -1       405    8    0    1
 -2       128       129       284      1231      1629      1630
 -1       406    8    0    1
 -2       128       284       283      1630      1631      1626
 -1       407    8    0    1
 -2       129       130       285      1232      1632      1633
 -1       408    8    0    1
 -2       129       285       284      1633      1634      1629
 -1       409    8    0    1
 -2       130       131       286      1233      1635      1636
 -1       410    8    0    1
 -2       130       286       285      1636      1637      1632
 -1       411    8    0    1
 -2       131       132       287      1234      1638      1639
 -1       412    8    0    1
 -2       131       287       286      1639      1640      1635
 -1       413    8    0    1
 -2       132       133       288      1235      1641      1642
 -1       414    8    0    1
 -2       132       288       287      1642      1643      1638
 -1       415    8    0    1
 -2       133       134       289      1236      1644      1645
 -1       416    8    0    1
 -2       133       289       288      1645      1646      1641
 -1       417    8    0    1
 -2       134       135       290      1237      1647      1648
 -1       418    8    0    1
 -2       134       290       289      1648      1649      1644
 -1       419    8    0    1
 -2       135       136       291      1238      1650      1651
 -1       420    8    0    1
 -2       290       135       291      1647      1651      1652
 -1       421    8    0    1
 -2       136       228       291      1463      1653      1650
 -1       422    8    0    1
 -2         2       137       292      1240      1654      1655
 -1       423    8    0    1
 -2       137       138       293      1241      1656      1657
 -1       424    8    0    1
 -2       138       139       294      1242      1658      1659
 -1       425    8    0    1
 -2       139       140       295      1243      1660      1661
 -1       426    8    0    1
 -2       140       141       296      1244      1662      1663
 -1       427    8    0    1
 -2       141       142       297      1245      1664      1665
 -1       428    8    0    1
 -2       142       143       298      1246      1666      1667
 -1       429    8    0    1
 -2       143       144       299      1247      1668      1669
 -1       430    8    0    1
 -2       144       145       300      1248      1670      1671
 -1       431    8    0    1
 -2       145       146       301      1249      1672      1673
 -1       432    8    0    1
 -2       146       147       302      1250      1674      1675
 -1       433    8    0    1
 -2       147       148       303      1251      1676      1677
 -1       434    8    0    1
 -2       148       149       304      1252      1678      1679
 -1       435    8    0    1
 -2       149       150       305      1253      1680      1681
 -1       436    8    0    1
 -2       150       151       306      1254      1682      1683
 -1       437    8    0    1
 -2       151       152       307      1255      1684      1685
 -1       438    8    0    1
 -2       152       153       308      1256      1686      1687
 -1       439    8    0    1
 -2       153         1       309      1257      1688      1689
 -1       440    8    0    1
 -2         1       154       310      1258      1690      1691
 -1       441    8    0    1
 -2       154       155       311      1259      1692      1693
 -1       442    8    0    1
 -2       155       156       312      1260      1694      1695
 -1       443    8    0    1
 -2       156       157       313      1261      1696      1697
 -1       444    8    0    1
 -2       157       158       314      1262      1698      1699
 -1       445    8    0    1
 -2       158       159       315      1263      1700      1701
 -1       446    8    0    1
 -2       159       160       316      1264      1702      1703
 -1       447    8    0    1
 -2       160       161       317      1265      1704      1705
 -1       448    8    0    1
 -2       161       162       318      1266      1706      1707
 -1       449    8    0    1
 -2       162       163       319      1267      1708      1709
 -1       450    8    0    1
 -2       163       164       320      1268      1710      1711
 -1       451    8    0    1
 -2       164         2       321      1269      1712      1713
 -1       452    8    0    1
 -2       295       140       296      1660      1663      1714
 -1       453    8    0    1
 -2       294       139       295      1658      1661      1715
 -1       454    8    0    1
 -2       120       121       276      1608      1716      1605
 -1       455    8    0    1
 -2       121       277       276      1610      1717      1716
 -1       456    8    0    1
 -2       292       137       293      1654      1657      1718
 -1       457    8    0    1
 -2       293       138       294      1656      1659      1719
 -1       458    8    0    1
 -2         2       292       321      1655      1720      1712
 -1       459    8    0    1
 -2       141       297       296      1665      1721      1662
 -1       460    8    0    1
 -2       142       298       297      1667      1722      1664
 -1       461    8    0    1
 -2       143       299       298      1669      1723      1666
 -1       462    8    0    1
 -2       144       300       299      1671      1724      1668
 -1       463    8    0    1
 -2       145       301       300      1673      1725      1670
 -1       464    8    0    1
 -2       146       302       301      1675      1726      1672
 -1       465    8    0    1
 -2       147       303       302      1677      1727      1674
 -1       466    8    0    1
 -2       148       304       303      1679      1728      1676
 -1       467    8    0    1
 -2       149       305       304      1681      1729      1678
 -1       468    8    0    1
 -2       150       306       305      1683      1730      1680
 -1       469    8    0    1
 -2       151       307       306      1685      1731      1682
 -1       470    8    0    1
 -2       152       308       307      1687      1732      1684
 -1       471    8    0    1
 -2       153       309       308      1689      1733      1686
 -1       472    8    0    1
 -2         1       310       309      1691      1734      1688
 -1       473    8    0    1
 -2       154       311       310      1693      1735      1690
 -1       474    8    0    1
 -2       155       312       311      1695      1736      1692
 -1       475    8    0    1
 -2       156       313       312      1697      1737      1694
 -1       476    8    0    1
 -2       157       314       313      1699      1738      1696
 -1       477    8    0    1
 -2       158       315       314      1701      1739      1698
 -1       478    8    0    1
 -2       159       316       315      1703      1740      1700
 -1       479    8    0    1
 -2       160       317       316      1705      1741      1702
 -1       480    8    0    1
 -2       161       318       317      1707      1742      1704
 -1       481    8    0    1
 -2       162       319       318      1709      1743      1706
 -1       482    8    0    1
 -2       163       320       319      1711      1744      1708
 -1       483    8    0    1
 -2       164       321       320      1713      1745      1710
 -1       484    8    0    1
 -2        23         7       165      1270      1272      1746
 -1       485    8    0    1
 -2       166       167       322      1278      1747      1748
 -1       486    8    0    1
 -2       165       166       323      1275      1749      1750
 -1       487    8    0    1
 -2       166       322       323      1748      1751      1749
 -1       488    8    0    1
 -2       168       169       324      1284      1752      1753
 -1       489    8    0    1
 -2       169       170       325      1287      1754      1755
 -1       490    8    0    1
 -2       169       325       324      1755      1756      1752
 -1       491    8    0    1
 -2       170       171       326      1290      1757      1758
 -1       492    8    0    1
 -2       170       326       325      1758      1759      1754
 -1       493    8    0    1
 -2       171       172       327      1293      1760      1761
 -1       494    8    0    1
 -2       171       327       326      1761      1762      1757
 -1       495    8    0    1
 -2       172       173       328      1296      1763      1764
 -1       496    8    0    1
 -2       172       328       327      1764      1765      1760
 -1       497    8    0    1
 -2       173       174       329      1299      1766      1767
 -1       498    8    0    1
 -2       173       329       328      1767      1768      1763
 -1       499    8    0    1
 -2       174       175       330      1302      1769      1770
 -1       500    8    0    1
 -2       174       330       329      1770      1771      1766
 -1       501    8    0    1
 -2       175       176       331      1305      1772      1773
 -1       502    8    0    1
 -2       175       331       330      1773      1774      1769
 -1       503    8    0    1
 -2       176       177       332      1308      1775      1776
 -1       504    8    0    1
 -2       176       332       331      1776      1777      1772
 -1       505    8    0    1
 -2       177       178       333      1311      1778      1779
 -1       506    8    0    1
 -2       177       333       332      1779      1780      1775
 -1       507    8    0    1
 -2       178       179       334      1314      1781      1782
 -1       508    8    0    1
 -2       178       334       333      1782      1783      1778
 -1       509    8    0    1
 -2       179       180       335      1317      1784      1785
 -1       510    8    0    1
 -2       334       179       335      1781      1785      1786
 -1       511    8    0    1
 -2       180       229       335      1466      1787      1784
 -1       512    8    0    1
 -2       181        23       165      1319      1746      1788
 -1       513    8    0    1
 -2       229       230       336      1469      1789      1790
 -1       514    8    0    1
 -2       229       336       335      1790      1791      1787
 -1       515    8    0    1
 -2       181       165       323      1788      1750      1792
 -1       516    8    0    1
 -2       183       182       337      1326      1793      1794
 -1       517    8    0    1
 -2       184       183       338      1329      1795      1796
 -1       518    8    0    1
 -2       183       337       338      1794      1797      1795
 -1       519    8    0    1
 -2       185       184       339      1332      1798      1799
 -1       520    8    0    1
 -2       184       338       339      1796      1800      1798
 -1       521    8    0    1
 -2       186       185       340      1335      1801      1802
 -1       522    8    0    1
 -2       185       339       340      1799      1803      1801
 -1       523    8    0    1
 -2       187       186       341      1338      1804      1805
 -1       524    8    0    1
 -2       186       340       341      1802      1806      1804
 -1       525    8    0    1
 -2       188       187       342      1341      1807      1808
 -1       526    8    0    1
 -2       187       341       342      1805      1809      1807
 -1       527    8    0    1
 -2       189       188       343      1344      1810      1811
 -1       528    8    0    1
 -2       188       342       343      1808      1812      1810
 -1       529    8    0    1
 -2       190       189       344      1347      1813      1814
 -1       530    8    0    1
 -2       189       343       344      1811      1815      1813
 -1       531    8    0    1
 -2       191       190       345      1350      1816      1817
 -1       532    8    0    1
 -2       190       344       345      1814      1818      1816
 -1       533    8    0    1
 -2       192       191       346      1353      1819      1820
 -1       534    8    0    1
 -2       191       345       346      1817      1821      1819
 -1       535    8    0    1
 -2       193       192       347      1356      1822      1823
 -1       536    8    0    1
 -2       192       346       347      1820      1824      1822
 -1       537    8    0    1
 -2       194       193       348      1359      1825      1826
 -1       538    8    0    1
 -2       193       347       348      1823      1827      1825
 -1       539    8    0    1
 -2       195       194       349      1362      1828      1829
 -1       540    8    0    1
 -2       194       348       349      1826      1830      1828
 -1       541    8    0    1
 -2       196       195       350      1365      1831      1832
 -1       542    8    0    1
 -2       195       349       350      1829      1833      1831
 -1       543    8    0    1
 -2       197       196       351      1368      1834      1835
 -1       544    8    0    1
 -2       196       350       351      1832      1836      1834
 -1       545    8    0    1
 -2       198       197       352      1371      1837      1838
 -1       546    8    0    1
 -2       197       351       352      1835      1839      1837
 -1       547    8    0    1
 -2       199       198       353      1374      1840      1841
 -1       548    8    0    1
 -2       198       352       353      1838      1842      1840
 -1       549    8    0    1
 -2       200       199       354      1377      1843      1844
 -1       550    8    0    1
 -2       199       353       354      1841      1845      1843
 -1       551    8    0    1
 -2       201       200       355      1380      1846      1847
 -1       552    8    0    1
 -2       200       354       355      1844      1848      1846
 -1       553    8    0    1
 -2       202       201       356      1383      1849      1850
 -1       554    8    0    1
 -2       201       355       356      1847      1851      1849
 -1       555    8    0    1
 -2       203       202       357      1386      1852      1853
 -1       556    8    0    1
 -2       202       356       357      1850      1854      1852
 -1       557    8    0    1
 -2       204       203       358      1389      1855      1856
 -1       558    8    0    1
 -2       203       357       358      1853      1857      1855
 -1       559    8    0    1
 -2       205       204       359      1392      1858      1859
 -1       560    8    0    1
 -2       204       358       359      1856      1860      1858
 -1       561    8    0    1
 -2       206       205       360      1395      1861      1862
 -1       562    8    0    1
 -2       205       359       360      1859      1863      1861
 -1       563    8    0    1
 -2       207       206       361      1398      1864      1865
 -1       564    8    0    1
 -2       206       360       361      1862      1866      1864
 -1       565    8    0    1
 -2       208       207       362      1401      1867      1868
 -1       566    8    0    1
 -2       207       361       362      1865      1869      1867
 -1       567    8    0    1
 -2       209       208       363      1404      1870      1871
 -1       568    8    0    1
 -2       208       362       363      1868      1872      1870
 -1       569    8    0    1
 -2       210       209       364      1407      1873      1874
 -1       570    8    0    1
 -2       209       363       364      1871      1875      1873
 -1       571    8    0    1
 -2       211       210       365      1410      1876      1877
 -1       572    8    0    1
 -2       210       364       365      1874      1878      1876
 -1       573    8    0    1
 -2       212       211       366      1413      1879      1880
 -1       574    8    0    1
 -2       211       365       366      1877      1881      1879
 -1       575    8    0    1
 -2       213       212       367      1416      1882      1883
 -1       576    8    0    1
 -2       212       366       367      1880      1884      1882
 -1       577    8    0    1
 -2       214       213       368      1419      1885      1886
 -1       578    8    0    1
 -2       213       367       368      1883      1887      1885
 -1       579    8    0    1
 -2       215       214       369      1422      1888      1889
 -1       580    8    0    1
 -2       214       368       369      1886      1890      1888
 -1       581    8    0    1
 -2       216       215       370      1425      1891      1892
 -1       582    8    0    1
 -2       215       369       370      1889      1893      1891
 -1       583    8    0    1
 -2       217       216       371      1428      1894      1895
 -1       584    8    0    1
 -2       216       370       371      1892      1896      1894
 -1       585    8    0    1
 -2       218       217       372      1431      1897      1898
 -1       586    8    0    1
 -2       217       371       372      1895      1899      1897
 -1       587    8    0    1
 -2       219       218       373      1434      1900      1901
 -1       588    8    0    1
 -2       218       372       373      1898      1902      1900
 -1       589    8    0    1
 -2       220       219       374      1437      1903      1904
 -1       590    8    0    1
 -2       219       373       374      1901      1905      1903
 -1       591    8    0    1
 -2       221       220       375      1440      1906      1907
 -1       592    8    0    1
 -2       220       374       375      1904      1908      1906
 -1       593    8    0    1
 -2       222       221       376      1443      1909      1910
 -1       594    8    0    1
 -2       221       375       376      1907      1911      1909
 -1       595    8    0    1
 -2       223       222       377      1446      1912      1913
 -1       596    8    0    1
 -2       222       376       377      1910      1914      1912
 -1       597    8    0    1
 -2       224       223       378      1449      1915      1916
 -1       598    8    0    1
 -2       223       377       378      1913      1917      1915
 -1       599    8    0    1
 -2       225       224       379      1452      1918      1919
 -1       600    8    0    1
 -2       224       378       379      1916      1920      1918
 -1       601    8    0    1
 -2       226       225       380      1455      1921      1922
 -1       602    8    0    1
 -2       225       379       380      1919      1923      1921
 -1       603    8    0    1
 -2       227       226       381      1458      1924      1925
 -1       604    8    0    1
 -2       226       380       381      1922      1926      1924
 -1       605    8    0    1
 -2       228       227       382      1461      1927      1928
 -1       606    8    0    1
 -2       291       228       382      1653      1928      1929
 -1       607    8    0    1
 -2       227       381       382      1925      1930      1927
 -1       608    8    0    1
 -2       230       231       383      1472      1931      1932
 -1       609    8    0    1
 -2       230       383       336      1932      1933      1789
 -1       610    8    0    1
 -2       231       232       384      1475      1934      1935
 -1       611    8    0    1
 -2       231       384       383      1935      1936      1931
 -1       612    8    0    1
 -2       232       233       385      1478      1937      1938
 -1       613    8    0    1
 -2       232       385       384      1938      1939      1934
 -1       614    8    0    1
 -2       233       234       386      1481      1940      1941
 -1       615    8    0    1
 -2       233       386       385      1941      1942      1937
 -1       616    8    0    1
 -2       234       235       387      1484      1943      1944
 -1       617    8    0    1
 -2       234       387       386      1944      1945      1940
 -1       618    8    0    1
 -2       235       236       388      1487      1946      1947
 -1       619    8    0    1
 -2       235       388       387      1947      1948      1943
 -1       620    8    0    1
 -2       236       237       389      1490      1949      1950
 -1       621    8    0    1
 -2       236       389       388      1950      1951      1946
 -1       622    8    0    1
 -2       237       238       390      1493      1952      1953
 -1       623    8    0    1
 -2       237       390       389      1953      1954      1949
 -1       624    8    0    1
 -2       238       239       391      1496      1955      1956
 -1       625    8    0    1
 -2       238       391       390      1956      1957      1952
 -1       626    8    0    1
 -2       239       240       392      1499      1958      1959
 -1       627    8    0    1
 -2       239       392       391      1959      1960      1955
 -1       628    8    0    1
 -2       240       241       393      1502      1961      1962
 -1       629    8    0    1
 -2       240       393       392      1962      1963      1958
 -1       630    8    0    1
 -2       241       242       394      1505      1964      1965
 -1       631    8    0    1
 -2       241       394       393      1965      1966      1961
 -1       632    8    0    1
 -2       242       243       395      1508      1967      1968
 -1       633    8    0    1
 -2       242       395       394      1968      1969      1964
 -1       634    8    0    1
 -2       243       244       396      1511      1970      1971
 -1       635    8    0    1
 -2       243       396       395      1971      1972      1967
 -1       636    8    0    1
 -2       244       245       397      1514      1973      1974
 -1       637    8    0    1
 -2       244       397       396      1974      1975      1970
 -1       638    8    0    1
 -2       245       246       398      1517      1976      1977
 -1       639    8    0    1
 -2       245       398       397      1977      1978      1973
 -1       640    8    0    1
 -2       246       247       399      1520      1979      1980
 -1       641    8    0    1
 -2       246       399       398      1980      1981      1976
 -1       642    8    0    1
 -2       247       248       400      1523      1982      1983
 -1       643    8    0    1
 -2       247       400       399      1983      1984      1979
 -1       644    8    0    1
 -2       248       249       401      1526      1985      1986
 -1       645    8    0    1
 -2       248       401       400      1986      1987      1982
 -1       646    8    0    1
 -2       249       250       402      1529      1988      1989
 -1       647    8    0    1
 -2       249       402       401      1989      1990      1985
 -1       648    8    0    1
 -2       250       251       403      1532      1991      1992
 -1       649    8    0    1
 -2       250       403       402      1992      1993      1988
 -1       650    8    0    1
 -2       251       252       404      1535      1994      1995
 -1       651    8    0    1
 -2       251       404       403      1995      1996      1991
 -1       652    8    0    1
 -2       252       253       405      1538      1997      1998
 -1       653    8    0    1
 -2       252       405       404      1998      1999      1994
 -1       654    8    0    1
 -2       253       254       406      1541      2000      2001
 -1       655    8    0    1
 -2       253       406       405      2001      2002      1997
 -1       656    8    0    1
 -2       254       255       407      1544      2003      2004
 -1       657    8    0    1
 -2       254       407       406      2004      2005      2000
 -1       658    8    0    1
 -2       255       256       408      1547      2006      2007
 -1       659    8    0    1
 -2       255       408       407      2007      2008      2003
 -1       660    8    0    1
 -2       256       257       409      1550      2009      2010
 -1       661    8    0    1
 -2       256       409       408      2010      2011      2006
 -1       662    8    0    1
 -2       257       258       410      1553      2012      2013
 -1       663    8    0    1
 -2       257       410       409      2013      2014      2009
 -1       664    8    0    1
 -2       258       259       411      1556      2015      2016
 -1       665    8    0    1
 -2       258       411       410      2016      2017      2012
 -1       666    8    0    1
 -2       259       260       412      1559      2018      2019
 -1       667    8    0    1
 -2       259       412       411      2019      2020      2015
 -1       668    8    0    1
 -2       260       261       413      1562      2021      2022
 -1       669    8    0    1
 -2       260       413       412      2022      2023      2018
 -1       670    8    0    1
 -2       261       262       414      1565      2024      2025
 -1       671    8    0    1
 -2       261       414       413      2025      2026      2021
 -1       672    8    0    1
 -2       262       263       415      1568      2027      2028
 -1       673    8    0    1
 -2       262       415       414      2028      2029      2024
 -1       674    8    0    1
 -2       263       264       416      1571      2030      2031
 -1       675    8    0    1
 -2       263       416       415      2031      2032      2027
 -1       676    8    0    1
 -2       264       265       417      1574      2033      2034
 -1       677    8    0    1
 -2       264       417       416      2034      2035      2030
 -1       678    8    0    1
 -2       265       266       418      1577      2036      2037
 -1       679    8    0    1
 -2       265       418       417      2037      2038      2033
 -1       680    8    0    1
 -2       266       267       419      1580      2039      2040
 -1       681    8    0    1
 -2       266       419       418      2040      2041      2036
 -1       682    8    0    1
 -2       267       268       420      1583      2042      2043
 -1       683    8    0    1
 -2       267       420       419      2043      2044      2039
 -1       684    8    0    1
 -2       268       269       421      1586      2045      2046
 -1       685    8    0    1
 -2       268       421       420      2046      2047      2042
 -1       686    8    0    1
 -2       269       270       422      1589      2048      2049
 -1       687    8    0    1
 -2       269       422       421      2049      2050      2045
 -1       688    8    0    1
 -2       270       271       423      1592      2051      2052
 -1       689    8    0    1
 -2       270       423       422      2052      2053      2048
 -1       690    8    0    1
 -2       271       272       424      1595      2054      2055
 -1       691    8    0    1
 -2       271       424       423      2055      2056      2051
 -1       692    8    0    1
 -2       272       273       425      1598      2057      2058
 -1       693    8    0    1
 -2       272       425       424      2058      2059      2054
 -1       694    8    0    1
 -2       273       274       426      1601      2060      2061
 -1       695    8    0    1
 -2       273       426       425      2061      2062      2057
 -1       696    8    0    1
 -2       274       275       427      1604      2063      2064
 -1       697    8    0    1
 -2       274       427       426      2064      2065      2060
 -1       698    8    0    1
 -2       275       276       428      1607      2066      2067
 -1       699    8    0    1
 -2       427       275       428      2063      2067      2068
 -1       700    8    0    1
 -2       276       277       428      1717      2069      2066
 -1       701    8    0    1
 -2       279       280       429      1619      2070      2071
 -1       702    8    0    1
 -2       278       279       430      1616      2072      2073
 -1       703    8    0    1
 -2       279       429       430      2071      2074      2072
 -1       704    8    0    1
 -2       277       278       431      1613      2075      2076
 -1       705    8    0    1
 -2       428       277       431      2069      2076      2077
 -1       706    8    0    1
 -2       278       430       431      2073      2078      2075
 -1       707    8    0    1
 -2       280       281       432      1622      2079      2080
 -1       708    8    0    1
 -2       280       432       429      2080      2081      2070
 -1       709    8    0    1
 -2       281       282       433      1625      2082      2083
 -1       710    8    0    1
 -2       281       433       432      2083      2084      2079
 -1       711    8    0    1
 -2       282       283       434      1628      2085      2086
 -1       712    8    0    1
 -2       282       434       433      2086      2087      2082
 -1       713    8    0    1
 -2       283       284       435      1631      2088      2089
 -1       714    8    0    1
 -2       283       435       434      2089      2090      2085
 -1       715    8    0    1
 -2       284       285       436      1634      2091      2092
 -1       716    8    0    1
 -2       284       436       435      2092      2093      2088
 -1       717    8    0    1
 -2       285       286       437      1637      2094      2095
 -1       718    8    0    1
 -2       285       437       436      2095      2096      2091
 -1       719    8    0    1
 -2       286       287       438      1640      2097      2098
 -1       720    8    0    1
 -2       286       438       437      2098      2099      2094
 -1       721    8    0    1
 -2       287       288       439      1643      2100      2101
 -1       722    8    0    1
 -2       287       439       438      2101      2102      2097
 -1       723    8    0    1
 -2       288       289       440      1646      2103      2104
 -1       724    8    0    1
 -2       288       440       439      2104      2105      2100
 -1       725    8    0    1
 -2       289       290       441      1649      2106      2107
 -1       726    8    0    1
 -2       289       441       440      2107      2108      2103
 -1       727    8    0    1
 -2       293       294       442      1719      2109      2110
 -1       728    8    0    1
 -2       321       292       443      1720      2111      2112
 -1       729    8    0    1
 -2       292       293       444      1718      2113      2114
 -1       730    8    0    1
 -2       294       295       445      1715      2115      2116
 -1       731    8    0    1
 -2       295       296       446      1714      2117      2118
 -1       732    8    0    1
 -2       167       168       447      1281      2119      2120
 -1       733    8    0    1
 -2       322       167       447      1747      2120      2121
 -1       734    8    0    1
 -2       168       324       447      1753      2122      2119
 -1       735    8    0    1
 -2       297       298       448      1722      2123      2124
 -1       736    8    0    1
 -2       298       299       449      1723      2125      2126
 -1       737    8    0    1
 -2       298       449       448      2126      2127      2123
 -1       738    8    0    1
 -2       299       300       450      1724      2128      2129
 -1       739    8    0    1
 -2       300       301       451      1725      2130      2131
 -1       740    8    0    1
 -2       301       302       452      1726      2132      2133
 -1       741    8    0    1
 -2       302       303       453      1727      2134      2135
 -1       742    8    0    1
 -2       303       304       454      1728      2136      2137
 -1       743    8    0    1
 -2       304       305       455      1729      2138      2139
 -1       744    8    0    1
 -2       305       306       456      1730      2140      2141
 -1       745    8    0    1
 -2       306       307       457      1731      2142      2143
 -1       746    8    0    1
 -2       307       308       458      1732      2144      2145
 -1       747    8    0    1
 -2       308       309       459      1733      2146      2147
 -1       748    8    0    1
 -2       309       310       460      1734      2148      2149
 -1       749    8    0    1
 -2       310       311       461      1735      2150      2151
 -1       750    8    0    1
 -2       311       312       462      1736      2152      2153
 -1       751    8    0    1
 -2       312       313       463      1737      2154      2155
 -1       752    8    0    1
 -2       313       314       464      1738      2156      2157
 -1       753    8    0    1
 -2       314       315       465      1739      2158      2159
 -1       754    8    0    1
 -2       315       316       466      1740      2160      2161
 -1       755    8    0    1
 -2       315       466       465      2161      2162      2158
 -1       756    8    0    1
 -2       316       317       467      1741      2163      2164
 -1       757    8    0    1
 -2       317       318       468      1742      2165      2166
 -1       758    8    0    1
 -2       318       319       469      1743      2167      2168
 -1       759    8    0    1
 -2       319       320       470      1744      2169      2170
 -1       760    8    0    1
 -2       320       321       471      1745      2171      2172
 -1       761    8    0    1
 -2       296       297       472      1721      2173      2174
 -1       762    8    0    1
 -2       296       472       446      2174      2175      2117
 -1       763    8    0    1
 -2       445       295       446      2115      2118      2176
 -1       764    8    0    1
 -2       181       323       182      1792      2177      1323
 -1       765    8    0    1
 -2       297       448       473      2124      2178      2179
 -1       766    8    0    1
 -2       297       473       472      2179      2180      2173
 -1       767    8    0    1
 -2       337       182       323      1793      2177      2181
 -1       768    8    0    1
 -2       444       293       442      2113      2110      2182
 -1       769    8    0    1
 -2       443       292       444      2111      2114      2183
 -1       770    8    0    1
 -2       441       290       291      2106      1652      2184
 -1       771    8    0    1
 -2       442       294       445      2109      2116      2185
 -1       772    8    0    1
 -2       321       443       471      2112      2186      2171
 -1       773    8    0    1
 -2       470       320       471      2169      2172      2187
 -1       774    8    0    1
 -2       469       319       470      2167      2170      2188
 -1       775    8    0    1
 -2       468       318       469      2165      2168      2189
 -1       776    8    0    1
 -2       466       316       467      2160      2164      2190
 -1       777    8    0    1
 -2       464       314       465      2156      2159      2191
 -1       778    8    0    1
 -2       463       313       464      2154      2157      2192
 -1       779    8    0    1
 -2       462       312       463      2152      2155      2193
 -1       780    8    0    1
 -2       461       311       462      2150      2153      2194
 -1       781    8    0    1
 -2       460       310       461      2148      2151      2195
 -1       782    8    0    1
 -2       459       309       460      2146      2149      2196
 -1       783    8    0    1
 -2       458       308       459      2144      2147      2197
 -1       784    8    0    1
 -2       457       307       458      2142      2145      2198
 -1       785    8    0    1
 -2       456       306       457      2140      2143      2199
 -1       786    8    0    1
 -2       455       305       456      2138      2141      2200
 -1       787    8    0    1
 -2       454       304       455      2136      2139      2201
 -1       788    8    0    1
 -2       453       303       454      2134      2137      2202
 -1       789    8    0    1
 -2       452       302       453      2132      2135      2203
 -1       790    8    0    1
 -2       451       301       452      2130      2133      2204
 -1       791    8    0    1
 -2       299       450       449      2129      2205      2125
 -1       792    8    0    1
 -2       450       300       451      2128      2131      2206
 -1       793    8    0    1
 -2       467       317       468      2163      2166      2207
 -1       794    8    0    1
 -2       336       383       474      1933      2208      2209
 -1       795    8    0    1
 -2       325       326       475      1759      2210      2211
 -1       796    8    0    1
 -2       324       325       476      1756      2212      2213
 -1       797    8    0    1
 -2       325       475       476      2211      2214      2212
 -1       798    8    0    1
 -2       327       328       477      1765      2215      2216
 -1       799    8    0    1
 -2       328       329       478      1768      2217      2218
 -1       800    8    0    1
 -2       328       478       477      2218      2219      2215
 -1       801    8    0    1
 -2       329       330       479      1771      2220      2221
 -1       802    8    0    1
 -2       329       479       478      2221      2222      2217
 -1       803    8    0    1
 -2       330       331       480      1774      2223      2224
 -1       804    8    0    1
 -2       330       480       479      2224      2225      2220
 -1       805    8    0    1
 -2       331       332       481      1777      2226      2227
 -1       806    8    0    1
 -2       331       481       480      2227      2228      2223
 -1       807    8    0    1
 -2       332       333       482      1780      2229      2230
 -1       808    8    0    1
 -2       332       482       481      2230      2231      2226
 -1       809    8    0    1
 -2       445       446       483      2176      2232      2233
 -1       810    8    0    1
 -2       383       384       484      1936      2234      2235
 -1       811    8    0    1
 -2       383       484       474      2235      2236      2208
 -1       812    8    0    1
 -2       338       337       485      1797      2237      2238
 -1       813    8    0    1
 -2       339       338       486      1800      2239      2240
 -1       814    8    0    1
 -2       338       485       486      2238      2241      2239
 -1       815    8    0    1
 -2       340       339       487      1803      2242      2243
 -1       816    8    0    1
 -2       339       486       487      2240      2244      2242
 -1       817    8    0    1
 -2       341       340       488      1806      2245      2246
 -1       818    8    0    1
 -2       340       487       488      2243      2247      2245
 -1       819    8    0    1
 -2       342       341       489      1809      2248      2249
 -1       820    8    0    1
 -2       341       488       489      2246      2250      2248
 -1       821    8    0    1
 -2       343       342       490      1812      2251      2252
 -1       822    8    0    1
 -2       342       489       490      2249      2253      2251
 -1       823    8    0    1
 -2       344       343       491      1815      2254      2255
 -1       824    8    0    1
 -2       343       490       491      2252      2256      2254
 -1       825    8    0    1
 -2       345       344       492      1818      2257      2258
 -1       826    8    0    1
 -2       344       491       492      2255      2259      2257
 -1       827    8    0    1
 -2       346       345       493      1821      2260      2261
 -1       828    8    0    1
 -2       345       492       493      2258      2262      2260
 -1       829    8    0    1
 -2       347       346       494      1824      2263      2264
 -1       830    8    0    1
 -2       346       493       494      2261      2265      2263
 -1       831    8    0    1
 -2       348       347       495      1827      2266      2267
 -1       832    8    0    1
 -2       347       494       495      2264      2268      2266
 -1       833    8    0    1
 -2       349       348       496      1830      2269      2270
 -1       834    8    0    1
 -2       348       495       496      2267      2271      2269
 -1       835    8    0    1
 -2       350       349       497      1833      2272      2273
 -1       836    8    0    1
 -2       349       496       497      2270      2274      2272
 -1       837    8    0    1
 -2       351       350       498      1836      2275      2276
 -1       838    8    0    1
 -2       350       497       498      2273      2277      2275
 -1       839    8    0    1
 -2       352       351       499      1839      2278      2279
 -1       840    8    0    1
 -2       351       498       499      2276      2280      2278
 -1       841    8    0    1
 -2       353       352       500      1842      2281      2282
 -1       842    8    0    1
 -2       352       499       500      2279      2283      2281
 -1       843    8    0    1
 -2       354       353       501      1845      2284      2285
 -1       844    8    0    1
 -2       353       500       501      2282      2286      2284
 -1       845    8    0    1
 -2       355       354       502      1848      2287      2288
 -1       846    8    0    1
 -2       354       501       502      2285      2289      2287
 -1       847    8    0    1
 -2       356       355       503      1851      2290      2291
 -1       848    8    0    1
 -2       355       502       503      2288      2292      2290
 -1       849    8    0    1
 -2       357       356       504      1854      2293      2294
 -1       850    8    0    1
 -2       356       503       504      2291      2295      2293
 -1       851    8    0    1
 -2       358       357       505      1857      2296      2297
 -1       852    8    0    1
 -2       357       504       505      2294      2298      2296
 -1       853    8    0    1
 -2       359       358       506      1860      2299      2300
 -1       854    8    0    1
 -2       358       505       506      2297      2301      2299
 -1       855    8    0    1
 -2       360       359       507      1863      2302      2303
 -1       856    8    0    1
 -2       359       506       507      2300      2304      2302
 -1       857    8    0    1
 -2       361       360       508      1866      2305      2306
 -1       858    8    0    1
 -2       360       507       508      2303      2307      2305
 -1       859    8    0    1
 -2       362       361       509      1869      2308      2309
 -1       860    8    0    1
 -2       361       508       509      2306      2310      2308
 -1       861    8    0    1
 -2       363       362       510      1872      2311      2312
 -1       862    8    0    1
 -2       362       509       510      2309      2313      2311
 -1       863    8    0    1
 -2       364       363       511      1875      2314      2315
 -1       864    8    0    1
 -2       363       510       511      2312      2316      2314
 -1       865    8    0    1
 -2       365       364       512      1878      2317      2318
 -1       866    8    0    1
 -2       364       511       512      2315      2319      2317
 -1       867    8    0    1
 -2       366       365       513      1881      2320      2321
 -1       868    8    0    1
 -2       365       512       513      2318      2322      2320
 -1       869    8    0    1
 -2       367       366       514      1884      2323      2324
 -1       870    8    0    1
 -2       366       513       514      2321      2325      2323
 -1       871    8    0    1
 -2       368       367       515      1887      2326      2327
 -1       872    8    0    1
 -2       367       514       515      2324      2328      2326
 -1       873    8    0    1
 -2       369       368       516      1890      2329      2330
 -1       874    8    0    1
 -2       368       515       516      2327      2331      2329
 -1       875    8    0    1
 -2       370       369       517      1893      2332      2333
 -1       876    8    0    1
 -2       369       516       517      2330      2334      2332
 -1       877    8    0    1
 -2       371       370       518      1896      2335      2336
 -1       878    8    0    1
 -2       370       517       518      2333      2337      2335
 -1       879    8    0    1
 -2       372       371       519      1899      2338      2339
 -1       880    8    0    1
 -2       371       518       519      2336      2340      2338
 -1       881    8    0    1
 -2       373       372       520      1902      2341      2342
 -1       882    8    0    1
 -2       372       519       520      2339      2343      2341
 -1       883    8    0    1
 -2       374       373       521      1905      2344      2345
 -1       884    8    0    1
 -2       373       520       521      2342      2346      2344
 -1       885    8    0    1
 -2       375       374       522      1908      2347      2348
 -1       886    8    0    1
 -2       374       521       522      2345      2349      2347
 -1       887    8    0    1
 -2       376       375       523      1911      2350      2351
 -1       888    8    0    1
 -2       375       522       523      2348      2352      2350
 -1       889    8    0    1
 -2       377       376       524      1914      2353      2354
 -1       890    8    0    1
 -2       376       523       524      2351      2355      2353
 -1       891    8    0    1
 -2       378       377       525      1917      2356      2357
 -1       892    8    0    1
 -2       377       524       525      2354      2358      2356
 -1       893    8    0    1
 -2       379       378       526      1920      2359      2360
 -1       894    8    0    1
 -2       378       525       526      2357      2361      2359
 -1       895    8    0    1
 -2       380       379       527      1923      2362      2363
 -1       896    8    0    1
 -2       379       526       527      2360      2364      2362
 -1       897    8    0    1
 -2       381       380       528      1926      2365      2366
 -1       898    8    0    1
 -2       380       527       528      2363      2367      2365
 -1       899    8    0    1
 -2       385       386       529      1942      2368      2369
 -1       900    8    0    1
 -2       386       387       530      1945      2370      2371
 -1       901    8    0    1
 -2       386       530       529      2371      2372      2368
 -1       902    8    0    1
 -2       387       388       531      1948      2373      2374
 -1       903    8    0    1
 -2       387       531       530      2374      2375      2370
 -1       904    8    0    1
 -2       388       389       532      1951      2376      2377
 -1       905    8    0    1
 -2       388       532       531      2377      2378      2373
 -1       906    8    0    1
 -2       389       390       533      1954      2379      2380
 -1       907    8    0    1
 -2       389       533       532      2380      2381      2376
 -1       908    8    0    1
 -2       390       391       534      1957      2382      2383
 -1       909    8    0    1
 -2       390       534       533      2383      2384      2379
 -1       910    8    0    1
 -2       391       392       535      1960      2385      2386
 -1       911    8    0    1
 -2       391       535       534      2386      2387      2382
 -1       912    8    0    1
 -2       392       393       536      1963      2388      2389
 -1       913    8    0    1
 -2       392       536       535      2389      2390      2385
 -1       914    8    0    1
 -2       393       394       537      1966      2391      2392
 -1       915    8    0    1
 -2       393       537       536      2392      2393      2388
 -1       916    8    0    1
 -2       394       395       538      1969      2394      2395
 -1       917    8    0    1
 -2       394       538       537      2395      2396      2391
 -1       918    8    0    1
 -2       395       396       539      1972      2397      2398
 -1       919    8    0    1
 -2       395       539       538      2398      2399      2394
 -1       920    8    0    1
 -2       396       397       540      1975      2400      2401
 -1       921    8    0    1
 -2       396       540       539      2401      2402      2397
 -1       922    8    0    1
 -2       397       398       541      1978      2403      2404
 -1       923    8    0    1
 -2       397       541       540      2404      2405      2400
 -1       924    8    0    1
 -2       398       399       542      1981      2406      2407
 -1       925    8    0    1
 -2       398       542       541      2407      2408      2403
 -1       926    8    0    1
 -2       399       400       543      1984      2409      2410
 -1       927    8    0    1
 -2       399       543       542      2410      2411      2406
 -1       928    8    0    1
 -2       400       401       544      1987      2412      2413
 -1       929    8    0    1
 -2       400       544       543      2413      2414      2409
 -1       930    8    0    1
 -2       401       402       545      1990      2415      2416
 -1       931    8    0    1
 -2       401       545       544      2416      2417      2412
 -1       932    8    0    1
 -2       402       403       546      1993      2418      2419
 -1       933    8    0    1
 -2       402       546       545      2419      2420      2415
 -1       934    8    0    1
 -2       403       404       547      1996      2421      2422
 -1       935    8    0    1
 -2       403       547       546      2422      2423      2418
 -1       936    8    0    1
 -2       404       405       548      1999      2424      2425
 -1       937    8    0    1
 -2       404       548       547      2425      2426      2421
 -1       938    8    0    1
 -2       405       406       549      2002      2427      2428
 -1       939    8    0    1
 -2       405       549       548      2428      2429      2424
 -1       940    8    0    1
 -2       406       407       550      2005      2430      2431
 -1       941    8    0    1
 -2       406       550       549      2431      2432      2427
 -1       942    8    0    1
 -2       407       408       551      2008      2433      2434
 -1       943    8    0    1
 -2       407       551       550      2434      2435      2430
 -1       944    8    0    1
 -2       408       409       552      2011      2436      2437
 -1       945    8    0    1
 -2       408       552       551      2437      2438      2433
 -1       946    8    0    1
 -2       409       410       553      2014      2439      2440
 -1       947    8    0    1
 -2       409       553       552      2440      2441      2436
 -1       948    8    0    1
 -2       410       411       554      2017      2442      2443
 -1       949    8    0    1
 -2       410       554       553      2443      2444      2439
 -1       950    8    0    1
 -2       411       412       555      2020      2445      2446
 -1       951    8    0    1
 -2       411       555       554      2446      2447      2442
 -1       952    8    0    1
 -2       412       413       556      2023      2448      2449
 -1       953    8    0    1
 -2       412       556       555      2449      2450      2445
 -1       954    8    0    1
 -2       413       414       557      2026      2451      2452
 -1       955    8    0    1
 -2       413       557       556      2452      2453      2448
 -1       956    8    0    1
 -2       414       415       558      2029      2454      2455
 -1       957    8    0    1
 -2       414       558       557      2455      2456      2451
 -1       958    8    0    1
 -2       415       416       559      2032      2457      2458
 -1       959    8    0    1
 -2       415       559       558      2458      2459      2454
 -1       960    8    0    1
 -2       416       417       560      2035      2460      2461
 -1       961    8    0    1
 -2       416       560       559      2461      2462      2457
 -1       962    8    0    1
 -2       417       418       561      2038      2463      2464
 -1       963    8    0    1
 -2       417       561       560      2464      2465      2460
 -1       964    8    0    1
 -2       418       419       562      2041      2466      2467
 -1       965    8    0    1
 -2       418       562       561      2467      2468      2463
 -1       966    8    0    1
 -2       419       420       563      2044      2469      2470
 -1       967    8    0    1
 -2       419       563       562      2470      2471      2466
 -1       968    8    0    1
 -2       420       421       564      2047      2472      2473
 -1       969    8    0    1
 -2       420       564       563      2473      2474      2469
 -1       970    8    0    1
 -2       421       422       565      2050      2475      2476
 -1       971    8    0    1
 -2       421       565       564      2476      2477      2472
 -1       972    8    0    1
 -2       422       423       566      2053      2478      2479
 -1       973    8    0    1
 -2       422       566       565      2479      2480      2475
 -1       974    8    0    1
 -2       423       424       567      2056      2481      2482
 -1       975    8    0    1
 -2       423       567       566      2482      2483      2478
 -1       976    8    0    1
 -2       424       425       568      2059      2484      2485
 -1       977    8    0    1
 -2       424       568       567      2485      2486      2481
 -1       978    8    0    1
 -2       425       426       569      2062      2487      2488
 -1       979    8    0    1
 -2       425       569       568      2488      2489      2484
 -1       980    8    0    1
 -2       426       427       570      2065      2490      2491
 -1       981    8    0    1
 -2       426       570       569      2491      2492      2487
 -1       982    8    0    1
 -2       427       428       431      2068      2077      2493
 -1       983    8    0    1
 -2       432       433       571      2084      2494      2495
 -1       984    8    0    1
 -2       433       434       572      2087      2496      2497
 -1       985    8    0    1
 -2       433       572       571      2497      2498      2494
 -1       986    8    0    1
 -2       430       429       573      2074      2499      2500
 -1       987    8    0    1
 -2       429       432       574      2081      2501      2502
 -1       988    8    0    1
 -2       573       429       574      2499      2502      2503
 -1       989    8    0    1
 -2       432       571       574      2495      2504      2501
 -1       990    8    0    1
 -2       434       435       575      2090      2505      2506
 -1       991    8    0    1
 -2       434       575       572      2506      2507      2496
 -1       992    8    0    1
 -2       435       436       576      2093      2508      2509
 -1       993    8    0    1
 -2       435       576       575      2509      2510      2505
 -1       994    8    0    1
 -2       436       437       577      2096      2511      2512
 -1       995    8    0    1
 -2       436       577       576      2512      2513      2508
 -1       996    8    0    1
 -2       437       438       578      2099      2514      2515
 -1       997    8    0    1
 -2       437       578       577      2515      2516      2511
 -1       998    8    0    1
 -2       438       439       579      2102      2517      2518
 -1       999    8    0    1
 -2       438       579       578      2518      2519      2514
 -1      1000    8    0    1
 -2       439       440       580      2105      2520      2521
 -1      1001    8    0    1
 -2       439       580       579      2521      2522      2517
 -1      1002    8    0    1
 -2       440       441       581      2108      2523      2524
 -1      1003    8    0    1
 -2       440       581       580      2524      2525      2520
 -1      1004    8    0    1
 -2       443       444       582      2183      2526      2527
 -1      1005    8    0    1
 -2       442       445       583      2185      2528      2529
 -1      1006    8    0    1
 -2       384       385       584      1939      2530      2531
 -1      1007    8    0    1
 -2       385       529       584      2369      2532      2530
 -1      1008    8    0    1
 -2       441       291       382      2184      1929      2533
 -1      1009    8    0    1
 -2       471       443       585      2186      2534      2535
 -1      1010    8    0    1
 -2       444       442       586      2182      2536      2537
 -1      1011    8    0    1
 -2       444       586       582      2537      2538      2526
 -1      1012    8    0    1
 -2       337       323       587      2181      2539      2540
 -1      1013    8    0    1
 -2       485       337       587      2237      2540      2541
 -1      1014    8    0    1
 -2       323       322       587      1751      2542      2539
 -1      1015    8    0    1
 -2       470       471       588      2187      2543      2544
 -1      1016    8    0    1
 -2       464       465       589      2191      2545      2546
 -1      1017    8    0    1
 -2       326       327       590      1762      2547      2548
 -1      1018    8    0    1
 -2       475       326       590      2210      2548      2549
 -1      1019    8    0    1
 -2       327       477       590      2216      2550      2547
 -1      1020    8    0    1
 -2       450       451       591      2206      2551      2552
 -1      1021    8    0    1
 -2       448       449       592      2127      2553      2554
 -1      1022    8    0    1
 -2       467       468       593      2207      2555      2556
 -1      1023    8    0    1
 -2       449       450       594      2205      2557      2558
 -1      1024    8    0    1
 -2       451       452       595      2204      2559      2560
 -1      1025    8    0    1
 -2       451       595       591      2560      2561      2551
 -1      1026    8    0    1
 -2       452       453       596      2203      2562      2563
 -1      1027    8    0    1
 -2       452       596       595      2563      2564      2559
 -1      1028    8    0    1
 -2       453       454       597      2202      2565      2566
 -1      1029    8    0    1
 -2       454       455       598      2201      2567      2568
 -1      1030    8    0    1
 -2       455       456       599      2200      2569      2570
 -1      1031    8    0    1
 -2       456       457       600      2199      2571      2572
 -1      1032    8    0    1
 -2       456       600       599      2572      2573      2569
 -1      1033    8    0    1
 -2       457       458       601      2198      2574      2575
 -1      1034    8    0    1
 -2       458       459       602      2197      2576      2577
 -1      1035    8    0    1
 -2       459       460       603      2196      2578      2579
 -1      1036    8    0    1
 -2       460       461       604      2195      2580      2581
 -1      1037    8    0    1
 -2       461       462       605      2194      2582      2583
 -1      1038    8    0    1
 -2       462       463       606      2193      2584      2585
 -1      1039    8    0    1
 -2       462       606       605      2585      2586      2582
 -1      1040    8    0    1
 -2       463       464       607      2192      2587      2588
 -1      1041    8    0    1
 -2       465       466       608      2162      2589      2590
 -1      1042    8    0    1
 -2       466       467       609      2190      2591      2592
 -1      1043    8    0    1
 -2       468       469       610      2189      2593      2594
 -1      1044    8    0    1
 -2       468       610       593      2594      2595      2555
 -1      1045    8    0    1
 -2       469       470       611      2188      2596      2597
 -1      1046    8    0    1
 -2       470       588       611      2544      2598      2596
 -1      1047    8    0    1
 -2       446       472       612      2175      2599      2600
 -1      1048    8    0    1
 -2       335       336       613      1791      2601      2602
 -1      1049    8    0    1
 -2       334       335       613      1786      2602      2603
 -1      1050    8    0    1
 -2       336       474       613      2209      2604      2601
 -1      1051    8    0    1
 -2       450       591       614      2552      2605      2606
 -1      1052    8    0    1
 -2       450       614       594      2606      2607      2557
 -1      1053    8    0    1
 -2       324       476       615      2213      2608      2609
 -1      1054    8    0    1
 -2       324       615       447      2609      2610      2122
 -1      1055    8    0    1
 -2       445       483       583      2233      2611      2528
 -1      1056    8    0    1
 -2       483       446       612      2232      2600      2612
 -1      1057    8    0    1
 -2       333       334       613      1783      2603      2613
 -1      1058    8    0    1
 -2       473       448       592      2178      2554      2614
 -1      1059    8    0    1
 -2       588       471       585      2543      2535      2615
 -1      1060    8    0    1
 -2       472       473       612      2180      2616      2599
 -1      1061    8    0    1
 -2       427       431       570      2493      2617      2490
 -1      1062    8    0    1
 -2       431       430       570      2078      2618      2617
 -1      1063    8    0    1
 -2       443       582       585      2527      2619      2534
 -1      1064    8    0    1
 -2       442       583       586      2529      2620      2536
 -1      1065    8    0    1
 -2       610       469       611      2593      2597      2621
 -1      1066    8    0    1
 -2       609       467       593      2591      2556      2622
 -1      1067    8    0    1
 -2       384       584       484      2531      2623      2234
 -1      1068    8    0    1
 -2       608       466       609      2589      2592      2624
 -1      1069    8    0    1
 -2       587       322       447      2542      2121      2625
 -1      1070    8    0    1
 -2       589       465       608      2545      2590      2626
 -1      1071    8    0    1
 -2       464       589       607      2546      2627      2587
 -1      1072    8    0    1
 -2       606       463       607      2584      2588      2628
 -1      1073    8    0    1
 -2       604       461       605      2580      2583      2629
 -1      1074    8    0    1
 -2       603       460       604      2578      2581      2630
 -1      1075    8    0    1
 -2       602       459       603      2576      2579      2631
 -1      1076    8    0    1
 -2       600       457       601      2571      2575      2632
 -1      1077    8    0    1
 -2       598       455       599      2567      2570      2633
 -1      1078    8    0    1
 -2       453       597       616      2566      2634      2635
 -1      1079    8    0    1
 -2       453       616       596      2635      2636      2562
 -1      1080    8    0    1
 -2       592       449       594      2553      2558      2637
 -1      1081    8    0    1
 -2       333       613       482      2613      2638      2229
 -1      1082    8    0    1
 -2       597       454       598      2565      2568      2639
 -1      1083    8    0    1
 -2       601       458       602      2574      2577      2640
 -1      1084    8    0    1
 -2       441       382       617      2533      2641      2642
 -1      1085    8    0    1
 -2       581       441       617      2523      2642      2643
 -1      1086    8    0    1
 -2       382       381       617      1930      2644      2641
 -1      1087    8    0    1
 -2       570       430       573      2618      2500      2645
 -1      1088    8    0    1
 -2       617       381       528      2644      2366      2646
 -1      1089    8    0    1
 -2       478       479       618      2222      2647      2648
 -1      1090    8    0    1
 -2       477       478       619      2219      2649      2650
 -1      1091    8    0    1
 -2       478       618       619      2648      2651      2649
 -1      1092    8    0    1
 -2       480       481       620      2228      2652      2653
 -1      1093    8    0    1
 -2       481       482       621      2231      2654      2655
 -1      1094    8    0    1
 -2       481       621       620      2655      2656      2652
 -1      1095    8    0    1
 -2       597       598       622      2639      2657      2658
 -1      1096    8    0    1
 -2       474       484       623      2236      2659      2660
 -1      1097    8    0    1
 -2       612       473       624      2616      2661      2662
 -1      1098    8    0    1
 -2       487       486       625      2244      2663      2664
 -1      1099    8    0    1
 -2       488       487       626      2247      2665      2666
 -1      1100    8    0    1
 -2       487       625       626      2664      2667      2665
 -1      1101    8    0    1
 -2       489       488       627      2250      2668      2669
 -1      1102    8    0    1
 -2       488       626       627      2666      2670      2668
 -1      1103    8    0    1
 -2       490       489       628      2253      2671      2672
 -1      1104    8    0    1
 -2       489       627       628      2669      2673      2671
 -1      1105    8    0    1
 -2       491       490       629      2256      2674      2675
 -1      1106    8    0    1
 -2       490       628       629      2672      2676      2674
 -1      1107    8    0    1
 -2       492       491       630      2259      2677      2678
 -1      1108    8    0    1
 -2       491       629       630      2675      2679      2677
 -1      1109    8    0    1
 -2       493       492       631      2262      2680      2681
 -1      1110    8    0    1
 -2       492       630       631      2678      2682      2680
 -1      1111    8    0    1
 -2       494       493       632      2265      2683      2684
 -1      1112    8    0    1
 -2       493       631       632      2681      2685      2683
 -1      1113    8    0    1
 -2       495       494       633      2268      2686      2687
 -1      1114    8    0    1
 -2       494       632       633      2684      2688      2686
 -1      1115    8    0    1
 -2       496       495       634      2271      2689      2690
 -1      1116    8    0    1
 -2       495       633       634      2687      2691      2689
 -1      1117    8    0    1
 -2       497       496       635      2274      2692      2693
 -1      1118    8    0    1
 -2       496       634       635      2690      2694      2692
 -1      1119    8    0    1
 -2       498       497       636      2277      2695      2696
 -1      1120    8    0    1
 -2       497       635       636      2693      2697      2695
 -1      1121    8    0    1
 -2       499       498       637      2280      2698      2699
 -1      1122    8    0    1
 -2       498       636       637      2696      2700      2698
 -1      1123    8    0    1
 -2       500       499       638      2283      2701      2702
 -1      1124    8    0    1
 -2       499       637       638      2699      2703      2701
 -1      1125    8    0    1
 -2       501       500       639      2286      2704      2705
 -1      1126    8    0    1
 -2       500       638       639      2702      2706      2704
 -1      1127    8    0    1
 -2       502       501       640      2289      2707      2708
 -1      1128    8    0    1
 -2       501       639       640      2705      2709      2707
 -1      1129    8    0    1
 -2       503       502       641      2292      2710      2711
 -1      1130    8    0    1
 -2       502       640       641      2708      2712      2710
 -1      1131    8    0    1
 -2       504       503       642      2295      2713      2714
 -1      1132    8    0    1
 -2       503       641       642      2711      2715      2713
 -1      1133    8    0    1
 -2       505       504       643      2298      2716      2717
 -1      1134    8    0    1
 -2       504       642       643      2714      2718      2716
 -1      1135    8    0    1
 -2       506       505       644      2301      2719      2720
 -1      1136    8    0    1
 -2       505       643       644      2717      2721      2719
 -1      1137    8    0    1
 -2       507       506       645      2304      2722      2723
 -1      1138    8    0    1
 -2       506       644       645      2720      2724      2722
 -1      1139    8    0    1
 -2       508       507       646      2307      2725      2726
 -1      1140    8    0    1
 -2       507       645       646      2723      2727      2725
 -1      1141    8    0    1
 -2       509       508       647      2310      2728      2729
 -1      1142    8    0    1
 -2       508       646       647      2726      2730      2728
 -1      1143    8    0    1
 -2       510       509       648      2313      2731      2732
 -1      1144    8    0    1
 -2       509       647       648      2729      2733      2731
 -1      1145    8    0    1
 -2       511       510       649      2316      2734      2735
 -1      1146    8    0    1
 -2       510       648       649      2732      2736      2734
 -1      1147    8    0    1
 -2       512       511       650      2319      2737      2738
 -1      1148    8    0    1
 -2       511       649       650      2735      2739      2737
 -1      1149    8    0    1
 -2       513       512       651      2322      2740      2741
 -1      1150    8    0    1
 -2       512       650       651      2738      2742      2740
 -1      1151    8    0    1
 -2       514       513       652      2325      2743      2744
 -1      1152    8    0    1
 -2       513       651       652      2741      2745      2743
 -1      1153    8    0    1
 -2       515       514       653      2328      2746      2747
 -1      1154    8    0    1
 -2       514       652       653      2744      2748      2746
 -1      1155    8    0    1
 -2       516       515       654      2331      2749      2750
 -1      1156    8    0    1
 -2       515       653       654      2747      2751      2749
 -1      1157    8    0    1
 -2       517       516       655      2334      2752      2753
 -1      1158    8    0    1
 -2       516       654       655      2750      2754      2752
 -1      1159    8    0    1
 -2       518       517       656      2337      2755      2756
 -1      1160    8    0    1
 -2       517       655       656      2753      2757      2755
 -1      1161    8    0    1
 -2       519       518       657      2340      2758      2759
 -1      1162    8    0    1
 -2       518       656       657      2756      2760      2758
 -1      1163    8    0    1
 -2       520       519       658      2343      2761      2762
 -1      1164    8    0    1
 -2       519       657       658      2759      2763      2761
 -1      1165    8    0    1
 -2       521       520       659      2346      2764      2765
 -1      1166    8    0    1
 -2       520       658       659      2762      2766      2764
 -1      1167    8    0    1
 -2       522       521       660      2349      2767      2768
 -1      1168    8    0    1
 -2       521       659       660      2765      2769      2767
 -1      1169    8    0    1
 -2       523       522       661      2352      2770      2771
 -1      1170    8    0    1
 -2       522       660       661      2768      2772      2770
 -1      1171    8    0    1
 -2       524       523       662      2355      2773      2774
 -1      1172    8    0    1
 -2       523       661       662      2771      2775      2773
 -1      1173    8    0    1
 -2       525       524       663      2358      2776      2777
 -1      1174    8    0    1
 -2       524       662       663      2774      2778      2776
 -1      1175    8    0    1
 -2       526       525       664      2361      2779      2780
 -1      1176    8    0    1
 -2       525       663       664      2777      2781      2779
 -1      1177    8    0    1
 -2       527       526       665      2364      2782      2783
 -1      1178    8    0    1
 -2       526       664       665      2780      2784      2782
 -1      1179    8    0    1
 -2       528       527       666      2367      2785      2786
 -1      1180    8    0    1
 -2       527       665       666      2783      2787      2785
 -1      1181    8    0    1
 -2       530       531       667      2375      2788      2789
 -1      1182    8    0    1
 -2       570       573       668      2645      2790      2791
 -1      1183    8    0    1
 -2       570       668       569      2791      2792      2492
 -1      1184    8    0    1
 -2       529       530       669      2372      2793      2794
 -1      1185    8    0    1
 -2       530       667       669      2789      2795      2793
 -1      1186    8    0    1
 -2       532       533       670      2381      2796      2797
 -1      1187    8    0    1
 -2       533       534       671      2384      2798      2799
 -1      1188    8    0    1
 -2       533       671       670      2799      2800      2796
 -1      1189    8    0    1
 -2       534       535       672      2387      2801      2802
 -1      1190    8    0    1
 -2       534       672       671      2802      2803      2798
 -1      1191    8    0    1
 -2       535       536       673      2390      2804      2805
 -1      1192    8    0    1
 -2       535       673       672      2805      2806      2801
 -1      1193    8    0    1
 -2       536       537       674      2393      2807      2808
 -1      1194    8    0    1
 -2       536       674       673      2808      2809      2804
 -1      1195    8    0    1
 -2       537       538       675      2396      2810      2811
 -1      1196    8    0    1
 -2       537       675       674      2811      2812      2807
 -1      1197    8    0    1
 -2       538       539       676      2399      2813      2814
 -1      1198    8    0    1
 -2       538       676       675      2814      2815      2810
 -1      1199    8    0    1
 -2       539       540       677      2402      2816      2817
 -1      1200    8    0    1
 -2       539       677       676      2817      2818      2813
 -1      1201    8    0    1
 -2       540       541       678      2405      2819      2820
 -1      1202    8    0    1
 -2       540       678       677      2820      2821      2816
 -1      1203    8    0    1
 -2       541       542       679      2408      2822      2823
 -1      1204    8    0    1
 -2       541       679       678      2823      2824      2819
 -1      1205    8    0    1
 -2       542       543       680      2411      2825      2826
 -1      1206    8    0    1
 -2       542       680       679      2826      2827      2822
 -1      1207    8    0    1
 -2       543       544       681      2414      2828      2829
 -1      1208    8    0    1
 -2       543       681       680      2829      2830      2825
 -1      1209    8    0    1
 -2       544       545       682      2417      2831      2832
 -1      1210    8    0    1
 -2       544       682       681      2832      2833      2828
 -1      1211    8    0    1
 -2       545       546       683      2420      2834      2835
 -1      1212    8    0    1
 -2       545       683       682      2835      2836      2831
 -1      1213    8    0    1
 -2       546       547       684      2423      2837      2838
 -1      1214    8    0    1
 -2       546       684       683      2838      2839      2834
 -1      1215    8    0    1
 -2       547       548       685      2426      2840      2841
 -1      1216    8    0    1
 -2       547       685       684      2841      2842      2837
 -1      1217    8    0    1
 -2       548       549       686      2429      2843      2844
 -1      1218    8    0    1
 -2       548       686       685      2844      2845      2840
 -1      1219    8    0    1
 -2       549       550       687      2432      2846      2847
 -1      1220    8    0    1
 -2       549       687       686      2847      2848      2843
 -1      1221    8    0    1
 -2       550       551       688      2435      2849      2850
 -1      1222    8    0    1
 -2       550       688       687      2850      2851      2846
 -1      1223    8    0    1
 -2       551       552       689      2438      2852      2853
 -1      1224    8    0    1
 -2       551       689       688      2853      2854      2849
 -1      1225    8    0    1
 -2       552       553       690      2441      2855      2856
 -1      1226    8    0    1
 -2       552       690       689      2856      2857      2852
 -1      1227    8    0    1
 -2       553       554       691      2444      2858      2859
 -1      1228    8    0    1
 -2       553       691       690      2859      2860      2855
 -1      1229    8    0    1
 -2       554       555       692      2447      2861      2862
 -1      1230    8    0    1
 -2       554       692       691      2862      2863      2858
 -1      1231    8    0    1
 -2       555       556       693      2450      2864      2865
 -1      1232    8    0    1
 -2       555       693       692      2865      2866      2861
 -1      1233    8    0    1
 -2       556       557       694      2453      2867      2868
 -1      1234    8    0    1
 -2       556       694       693      2868      2869      2864
 -1      1235    8    0    1
 -2       557       558       695      2456      2870      2871
 -1      1236    8    0    1
 -2       557       695       694      2871      2872      2867
 -1      1237    8    0    1
 -2       558       559       696      2459      2873      2874
 -1      1238    8    0    1
 -2       558       696       695      2874      2875      2870
 -1      1239    8    0    1
 -2       559       560       697      2462      2876      2877
 -1      1240    8    0    1
 -2       559       697       696      2877      2878      2873
 -1      1241    8    0    1
 -2       560       561       698      2465      2879      2880
 -1      1242    8    0    1
 -2       560       698       697      2880      2881      2876
 -1      1243    8    0    1
 -2       561       562       699      2468      2882      2883
 -1      1244    8    0    1
 -2       561       699       698      2883      2884      2879
 -1      1245    8    0    1
 -2       562       563       700      2471      2885      2886
 -1      1246    8    0    1
 -2       562       700       699      2886      2887      2882
 -1      1247    8    0    1
 -2       563       564       701      2474      2888      2889
 -1      1248    8    0    1
 -2       563       701       700      2889      2890      2885
 -1      1249    8    0    1
 -2       564       565       702      2477      2891      2892
 -1      1250    8    0    1
 -2       564       702       701      2892      2893      2888
 -1      1251    8    0    1
 -2       565       566       703      2480      2894      2895
 -1      1252    8    0    1
 -2       565       703       702      2895      2896      2891
 -1      1253    8    0    1
 -2       566       567       704      2483      2897      2898
 -1      1254    8    0    1
 -2       566       704       703      2898      2899      2894
 -1      1255    8    0    1
 -2       567       568       705      2486      2900      2901
 -1      1256    8    0    1
 -2       567       705       704      2901      2902      2897
 -1      1257    8    0    1
 -2       568       569       706      2489      2903      2904
 -1      1258    8    0    1
 -2       705       568       706      2900      2904      2905
 -1      1259    8    0    1
 -2       569       668       706      2792      2906      2903
 -1      1260    8    0    1
 -2       575       576       707      2510      2907      2908
 -1      1261    8    0    1
 -2       617       528       708      2646      2909      2910
 -1      1262    8    0    1
 -2       528       666       708      2786      2911      2909
 -1      1263    8    0    1
 -2       571       572       709      2498      2912      2913
 -1      1264    8    0    1
 -2       576       577       710      2513      2914      2915
 -1      1265    8    0    1
 -2       576       710       707      2915      2916      2907
 -1      1266    8    0    1
 -2       572       575       711      2507      2917      2918
 -1      1267    8    0    1
 -2       709       572       711      2912      2918      2919
 -1      1268    8    0    1
 -2       575       707       711      2908      2920      2917
 -1      1269    8    0    1
 -2       483       612       712      2612      2921      2922
 -1      1270    8    0    1
 -2       613       474       482      2604      2923      2638
 -1      1271    8    0    1
 -2       577       578       713      2516      2924      2925
 -1      1272    8    0    1
 -2       577       713       710      2925      2926      2914
 -1      1273    8    0    1
 -2       578       579       714      2519      2927      2928
 -1      1274    8    0    1
 -2       578       714       713      2928      2929      2924
 -1      1275    8    0    1
 -2       579       580       715      2522      2930      2931
 -1      1276    8    0    1
 -2       579       715       714      2931      2932      2927
 -1      1277    8    0    1
 -2       485       587       716      2541      2933      2934
 -1      1278    8    0    1
 -2       610       611       717      2621      2935      2936
 -1      1279    8    0    1
 -2       586       583       718      2620      2937      2938
 -1      1280    8    0    1
 -2       582       586       719      2538      2939      2940
 -1      1281    8    0    1
 -2       586       718       719      2938      2941      2939
 -1      1282    8    0    1
 -2       604       605       720      2629      2942      2943
 -1      1283    8    0    1
 -2       598       599       721      2633      2944      2945
 -1      1284    8    0    1
 -2       609       593       722      2622      2946      2947
 -1      1285    8    0    1
 -2       584       529       723      2532      2948      2949
 -1      1286    8    0    1
 -2       529       669       723      2794      2950      2948
 -1      1287    8    0    1
 -2       531       532       724      2378      2951      2952
 -1      1288    8    0    1
 -2       667       531       724      2788      2952      2953
 -1      1289    8    0    1
 -2       532       670       724      2797      2954      2951
 -1      1290    8    0    1
 -2       486       485       725      2241      2955      2956
 -1      1291    8    0    1
 -2       625       486       725      2663      2956      2957
 -1      1292    8    0    1
 -2       485       716       725      2934      2958      2955
 -1      1293    8    0    1
 -2       608       609       726      2624      2959      2960
 -1      1294    8    0    1
 -2       479       480       727      2225      2961      2962
 -1      1295    8    0    1
 -2       618       479       727      2647      2962      2963
 -1      1296    8    0    1
 -2       480       620       727      2653      2964      2961
 -1      1297    8    0    1
 -2       583       483       728      2611      2965      2966
 -1      1298    8    0    1
 -2       589       608       729      2626      2967      2968
 -1      1299    8    0    1
 -2       476       475       730      2214      2969      2970
 -1      1300    8    0    1
 -2       588       585       731      2615      2971      2972
 -1      1301    8    0    1
 -2       484       584       732      2623      2973      2974
 -1      1302    8    0    1
 -2       623       484       732      2659      2974      2975
 -1      1303    8    0    1
 -2       584       723       732      2949      2976      2973
 -1      1304    8    0    1
 -2       595       596       733      2564      2977      2978
 -1      1305    8    0    1
 -2       591       595       734      2561      2979      2980
 -1      1306    8    0    1
 -2       595       733       734      2978      2981      2979
 -1      1307    8    0    1
 -2       592       594       735      2637      2982      2983
 -1      1308    8    0    1
 -2       601       602       736      2640      2984      2985
 -1      1309    8    0    1
 -2       599       600       737      2573      2986      2987
 -1      1310    8    0    1
 -2       581       617       708      2643      2910      2988
 -1      1311    8    0    1
 -2       600       601       738      2632      2989      2990
 -1      1312    8    0    1
 -2       602       603       739      2631      2991      2992
 -1      1313    8    0    1
 -2       603       604       740      2630      2993      2994
 -1      1314    8    0    1
 -2       603       740       739      2994      2995      2991
 -1      1315    8    0    1
 -2       605       606       741      2586      2996      2997
 -1      1316    8    0    1
 -2       606       607       742      2628      2998      2999
 -1      1317    8    0    1
 -2       607       589       743      2627      3000      3001
 -1      1318    8    0    1
 -2       587       447       716      2625      3002      2933
 -1      1319    8    0    1
 -2       593       610       744      2595      3003      3004
 -1      1320    8    0    1
 -2       611       588       745      2598      3005      3006
 -1      1321    8    0    1
 -2       611       745       717      3006      3007      2935
 -1      1322    8    0    1
 -2       585       582       746      2619      3008      3009
 -1      1323    8    0    1
 -2       582       719       746      2940      3010      3008
 -1      1324    8    0    1
 -2       473       592       747      2614      3011      3012
 -1      1325    8    0    1
 -2       473       747       624      3012      3013      2661
 -1      1326    8    0    1
 -2       615       476       748      2608      3014      3015
 -1      1327    8    0    1
 -2       476       730       748      2970      3016      3014
 -1      1328    8    0    1
 -2       477       619       749      2650      3017      3018
 -1      1329    8    0    1
 -2       477       749       590      3018      3019      2550
 -1      1330    8    0    1
 -2       597       622       750      2658      3020      3021
 -1      1331    8    0    1
 -2       597       750       616      3021      3022      2634
 -1      1332    8    0    1
 -2       622       598       721      2657      2945      3023
 -1      1333    8    0    1
 -2       614       591       734      2605      2980      3024
 -1      1334    8    0    1
 -2       612       624       712      2662      3025      2921
 -1      1335    8    0    1
 -2       583       728       718      2966      3026      2937
 -1      1336    8    0    1
 -2       571       709       751      2913      3027      3028
 -1      1337    8    0    1
 -2       571       751       574      3028      3029      2504
 -1      1338    8    0    1
 -2       483       712       752      2922      3030      3031
 -1      1339    8    0    1
 -2       483       752       728      3031      3032      2965
 -1      1340    8    0    1
 -2       745       588       731      3005      2972      3033
 -1      1341    8    0    1
 -2       600       738       737      2990      3034      2986
 -1      1342    8    0    1
 -2       573       574       668      2503      3035      2790
 -1      1343    8    0    1
 -2       585       746       753      3009      3036      3037
 -1      1344    8    0    1
 -2       585       753       731      3037      3038      2971
 -1      1345    8    0    1
 -2       482       474       623      2923      2660      3039
 -1      1346    8    0    1
 -2       743       589       729      3000      2968      3040
 -1      1347    8    0    1
 -2       608       726       729      2960      3041      2967
 -1      1348    8    0    1
 -2       593       744       722      3004      3042      2946
 -1      1349    8    0    1
 -2       580       581       708      2525      2988      3043
 -1      1350    8    0    1
 -2       742       607       743      2998      3001      3044
 -1      1351    8    0    1
 -2       621       482       623      2654      3039      3045
 -1      1352    8    0    1
 -2       610       717       744      2936      3046      3003
 -1      1353    8    0    1
 -2       740       604       720      2993      2943      3047
 -1      1354    8    0    1
 -2       605       741       720      2997      3048      2942
 -1      1355    8    0    1
 -2       736       602       739      2984      2992      3049
 -1      1356    8    0    1
 -2       580       708       754      3043      3050      3051
 -1      1357    8    0    1
 -2       715       580       754      2930      3051      3052
 -1      1358    8    0    1
 -2       708       666       754      2911      3053      3050
 -1      1359    8    0    1
 -2       721       599       737      2944      2987      3054
 -1      1360    8    0    1
 -2       475       590       755      2549      3055      3056
 -1      1361    8    0    1
 -2       730       475       755      2969      3056      3057
 -1      1362    8    0    1
 -2       590       749       755      3019      3058      3055
 -1      1363    8    0    1
 -2       609       722       726      2947      3059      2959
 -1      1364    8    0    1
 -2       447       615       716      2610      3060      3002
 -1      1365    8    0    1
 -2       592       735       747      2983      3061      3011
 -1      1366    8    0    1
 -2       735       594       614      2982      2607      3062
 -1      1367    8    0    1
 -2       601       736       738      2985      3063      2989
 -1      1368    8    0    1
 -2       596       616       733      2636      3064      2977
 -1      1369    8    0    1
 -2       741       606       742      2996      2999      3065
 -1      1370    8    0    1
 -2       620       621       756      2656      3066      3067
 -1      1371    8    0    1
 -2       743       729       659      3040      3068      3069
 -1      1372    8    0    1
 -2       627       626       757      2670      3070      3071
 -1      1373    8    0    1
 -2       628       627       758      2673      3072      3073
 -1      1374    8    0    1
 -2       627       757       758      3071      3074      3072
 -1      1375    8    0    1
 -2       629       628       759      2676      3075      3076
 -1      1376    8    0    1
 -2       628       758       759      3073      3077      3075
 -1      1377    8    0    1
 -2       630       629       760      2679      3078      3079
 -1      1378    8    0    1
 -2       629       759       760      3076      3080      3078
 -1      1379    8    0    1
 -2       631       630       761      2682      3081      3082
 -1      1380    8    0    1
 -2       630       760       761      3079      3083      3081
 -1      1381    8    0    1
 -2       632       631       762      2685      3084      3085
 -1      1382    8    0    1
 -2       631       761       762      3082      3086      3084
 -1      1383    8    0    1
 -2       633       632       763      2688      3087      3088
 -1      1384    8    0    1
 -2       632       762       763      3085      3089      3087
 -1      1385    8    0    1
 -2       634       633       764      2691      3090      3091
 -1      1386    8    0    1
 -2       633       763       764      3088      3092      3090
 -1      1387    8    0    1
 -2       635       634       765      2694      3093      3094
 -1      1388    8    0    1
 -2       634       764       765      3091      3095      3093
 -1      1389    8    0    1
 -2       636       635       766      2697      3096      3097
 -1      1390    8    0    1
 -2       635       765       766      3094      3098      3096
 -1      1391    8    0    1
 -2       637       636       767      2700      3099      3100
 -1      1392    8    0    1
 -2       636       766       767      3097      3101      3099
 -1      1393    8    0    1
 -2       638       637       768      2703      3102      3103
 -1      1394    8    0    1
 -2       637       767       768      3100      3104      3102
 -1      1395    8    0    1
 -2       639       638       769      2706      3105      3106
 -1      1396    8    0    1
 -2       638       768       769      3103      3107      3105
 -1      1397    8    0    1
 -2       640       639       770      2709      3108      3109
 -1      1398    8    0    1
 -2       639       769       770      3106      3110      3108
 -1      1399    8    0    1
 -2       641       640       771      2712      3111      3112
 -1      1400    8    0    1
 -2       640       770       771      3109      3113      3111
 -1      1401    8    0    1
 -2       642       641       772      2715      3114      3115
 -1      1402    8    0    1
 -2       641       771       772      3112      3116      3114
 -1      1403    8    0    1
 -2       643       642       773      2718      3117      3118
 -1      1404    8    0    1
 -2       642       772       773      3115      3119      3117
 -1      1405    8    0    1
 -2       644       643       774      2721      3120      3121
 -1      1406    8    0    1
 -2       643       773       774      3118      3122      3120
 -1      1407    8    0    1
 -2       645       644       775      2724      3123      3124
 -1      1408    8    0    1
 -2       644       774       775      3121      3125      3123
 -1      1409    8    0    1
 -2       646       645       776      2727      3126      3127
 -1      1410    8    0    1
 -2       645       775       776      3124      3128      3126
 -1      1411    8    0    1
 -2       647       646       777      2730      3129      3130
 -1      1412    8    0    1
 -2       646       776       777      3127      3131      3129
 -1      1413    8    0    1
 -2       648       647       778      2733      3132      3133
 -1      1414    8    0    1
 -2       647       777       778      3130      3134      3132
 -1      1415    8    0    1
 -2       649       648       779      2736      3135      3136
 -1      1416    8    0    1
 -2       648       778       779      3133      3137      3135
 -1      1417    8    0    1
 -2       650       649       780      2739      3138      3139
 -1      1418    8    0    1
 -2       649       779       780      3136      3140      3138
 -1      1419    8    0    1
 -2       651       650       781      2742      3141      3142
 -1      1420    8    0    1
 -2       650       780       781      3139      3143      3141
 -1      1421    8    0    1
 -2       652       651       782      2745      3144      3145
 -1      1422    8    0    1
 -2       651       781       782      3142      3146      3144
 -1      1423    8    0    1
 -2       653       652       783      2748      3147      3148
 -1      1424    8    0    1
 -2       652       782       783      3145      3149      3147
 -1      1425    8    0    1
 -2       654       653       784      2751      3150      3151
 -1      1426    8    0    1
 -2       653       783       784      3148      3152      3150
 -1      1427    8    0    1
 -2       655       654       785      2754      3153      3154
 -1      1428    8    0    1
 -2       654       784       785      3151      3155      3153
 -1      1429    8    0    1
 -2       659       658       743      2766      3156      3069
 -1      1430    8    0    1
 -2       660       659       729      2769      3068      3157
 -1      1431    8    0    1
 -2       661       660       726      2772      3158      3159
 -1      1432    8    0    1
 -2       663       662       786      2778      3160      3161
 -1      1433    8    0    1
 -2       664       663       787      2781      3162      3163
 -1      1434    8    0    1
 -2       663       786       787      3161      3164      3162
 -1      1435    8    0    1
 -2       665       664       788      2784      3165      3166
 -1      1436    8    0    1
 -2       664       787       788      3163      3167      3165
 -1      1437    8    0    1
 -2       666       665       789      2787      3168      3169
 -1      1438    8    0    1
 -2       754       666       789      3053      3169      3170
 -1      1439    8    0    1
 -2       665       788       789      3166      3171      3168
 -1      1440    8    0    1
 -2       669       667       790      2795      3172      3173
 -1      1441    8    0    1
 -2       671       672       791      2803      3174      3175
 -1      1442    8    0    1
 -2       670       671       792      2800      3176      3177
 -1      1443    8    0    1
 -2       671       791       792      3175      3178      3176
 -1      1444    8    0    1
 -2       673       674       793      2809      3179      3180
 -1      1445    8    0    1
 -2       674       675       794      2812      3181      3182
 -1      1446    8    0    1
 -2       674       794       793      3182      3183      3179
 -1      1447    8    0    1
 -2       675       676       795      2815      3184      3185
 -1      1448    8    0    1
 -2       675       795       794      3185      3186      3181
 -1      1449    8    0    1
 -2       676       677       796      2818      3187      3188
 -1      1450    8    0    1
 -2       676       796       795      3188      3189      3184
 -1      1451    8    0    1
 -2       677       678       797      2821      3190      3191
 -1      1452    8    0    1
 -2       677       797       796      3191      3192      3187
 -1      1453    8    0    1
 -2       678       679       798      2824      3193      3194
 -1      1454    8    0    1
 -2       678       798       797      3194      3195      3190
 -1      1455    8    0    1
 -2       679       680       799      2827      3196      3197
 -1      1456    8    0    1
 -2       679       799       798      3197      3198      3193
 -1      1457    8    0    1
 -2       680       681       800      2830      3199      3200
 -1      1458    8    0    1
 -2       680       800       799      3200      3201      3196
 -1      1459    8    0    1
 -2       681       682       801      2833      3202      3203
 -1      1460    8    0    1
 -2       681       801       800      3203      3204      3199
 -1      1461    8    0    1
 -2       682       683       802      2836      3205      3206
 -1      1462    8    0    1
 -2       682       802       801      3206      3207      3202
 -1      1463    8    0    1
 -2       683       684       803      2839      3208      3209
 -1      1464    8    0    1
 -2       683       803       802      3209      3210      3205
 -1      1465    8    0    1
 -2       684       685       804      2842      3211      3212
 -1      1466    8    0    1
 -2       684       804       803      3212      3213      3208
 -1      1467    8    0    1
 -2       685       686       805      2845      3214      3215
 -1      1468    8    0    1
 -2       685       805       804      3215      3216      3211
 -1      1469    8    0    1
 -2       686       687       806      2848      3217      3218
 -1      1470    8    0    1
 -2       686       806       805      3218      3219      3214
 -1      1471    8    0    1
 -2       687       688       807      2851      3220      3221
 -1      1472    8    0    1
 -2       687       807       806      3221      3222      3217
 -1      1473    8    0    1
 -2       688       689       808      2854      3223      3224
 -1      1474    8    0    1
 -2       688       808       807      3224      3225      3220
 -1      1475    8    0    1
 -2       689       690       809      2857      3226      3227
 -1      1476    8    0    1
 -2       689       809       808      3227      3228      3223
 -1      1477    8    0    1
 -2       690       691       810      2860      3229      3230
 -1      1478    8    0    1
 -2       690       810       809      3230      3231      3226
 -1      1479    8    0    1
 -2       691       692       811      2863      3232      3233
 -1      1480    8    0    1
 -2       691       811       810      3233      3234      3229
 -1      1481    8    0    1
 -2       692       693       812      2866      3235      3236
 -1      1482    8    0    1
 -2       692       812       811      3236      3237      3232
 -1      1483    8    0    1
 -2       693       694       813      2869      3238      3239
 -1      1484    8    0    1
 -2       693       813       812      3239      3240      3235
 -1      1485    8    0    1
 -2       694       695       814      2872      3241      3242
 -1      1486    8    0    1
 -2       694       814       813      3242      3243      3238
 -1      1487    8    0    1
 -2       695       696       815      2875      3244      3245
 -1      1488    8    0    1
 -2       695       815       814      3245      3246      3241
 -1      1489    8    0    1
 -2       696       697       733      2878      3247      3248
 -1      1490    8    0    1
 -2       698       699       614      2884      3249      3250
 -1      1491    8    0    1
 -2       699       700       735      2887      3251      3252
 -1      1492    8    0    1
 -2       700       701       747      2890      3253      3254
 -1      1493    8    0    1
 -2       701       702       624      2893      3255      3256
 -1      1494    8    0    1
 -2       703       704       816      2899      3257      3258
 -1      1495    8    0    1
 -2       704       705       817      2902      3259      3260
 -1      1496    8    0    1
 -2       704       817       816      3260      3261      3257
 -1      1497    8    0    1
 -2       721       737       818      3054      3262      3263
 -1      1498    8    0    1
 -2       619       618       819      2651      3264      3265
 -1      1499    8    0    1
 -2       718       728       820      3026      3266      3267
 -1      1500    8    0    1
 -2       707       710       821      2916      3268      3269
 -1      1501    8    0    1
 -2       714       715       822      2932      3270      3271
 -1      1502    8    0    1
 -2       668       574       751      3035      3029      3272
 -1      1503    8    0    1
 -2       736       739       823      3049      3273      3274
 -1      1504    8    0    1
 -2       744       717       824      3046      3275      3276
 -1      1505    8    0    1
 -2       723       669       825      2950      3277      3278
 -1      1506    8    0    1
 -2       669       790       825      3173      3279      3277
 -1      1507    8    0    1
 -2       614       734       698      3024      3280      3250
 -1      1508    8    0    1
 -2       719       718       826      2941      3281      3282
 -1      1509    8    0    1
 -2       713       714       827      2929      3283      3284
 -1      1510    8    0    1
 -2       714       822       827      3271      3285      3283
 -1      1511    8    0    1
 -2       672       673       828      2806      3286      3287
 -1      1512    8    0    1
 -2       791       672       828      3174      3287      3288
 -1      1513    8    0    1
 -2       673       793       828      3180      3289      3286
 -1      1514    8    0    1
 -2       614       699       735      3249      3252      3062
 -1      1515    8    0    1
 -2       622       721       829      3023      3290      3291
 -1      1516    8    0    1
 -2       721       818       829      3263      3292      3290
 -1      1517    8    0    1
 -2       735       700       747      3251      3254      3061
 -1      1518    8    0    1
 -2       722       744       786      3042      3293      3294
 -1      1519    8    0    1
 -2       729       726       660      3041      3158      3157
 -1      1520    8    0    1
 -2       626       625       830      2667      3295      3296
 -1      1521    8    0    1
 -2       626       830       757      3296      3297      3070
 -1      1522    8    0    1
 -2       716       615       748      3060      3015      3298
 -1      1523    8    0    1
 -2       726       722       661      3059      3299      3159
 -1      1524    8    0    1
 -2       737       738       831      3034      3300      3301
 -1      1525    8    0    1
 -2       737       831       818      3301      3302      3262
 -1      1526    8    0    1
 -2       710       713       832      2926      3303      3304
 -1      1527    8    0    1
 -2       821       710       832      3268      3304      3305
 -1      1528    8    0    1
 -2       713       827       832      3284      3306      3303
 -1      1529    8    0    1
 -2       661       722       662      3299      3307      2775
 -1      1530    8    0    1
 -2       742       743       658      3044      3156      3308
 -1      1531    8    0    1
 -2       745       731       833      3033      3309      3310
 -1      1532    8    0    1
 -2       733       616       815      3064      3311      3312
 -1      1533    8    0    1
 -2       739       740       834      2995      3313      3314
 -1      1534    8    0    1
 -2       621       623       835      3045      3315      3316
 -1      1535    8    0    1
 -2       756       621       835      3066      3316      3317
 -1      1536    8    0    1
 -2       623       732       835      2975      3318      3315
 -1      1537    8    0    1
 -2       740       720       836      3047      3319      3320
 -1      1538    8    0    1
 -2       738       736       837      3063      3321      3322
 -1      1539    8    0    1
 -2       736       823       837      3274      3323      3321
 -1      1540    8    0    1
 -2       717       745       838      3007      3324      3325
 -1      1541    8    0    1
 -2       745       833       838      3310      3326      3324
 -1      1542    8    0    1
 -2       746       719       839      3010      3327      3328
 -1      1543    8    0    1
 -2       719       826       839      3282      3329      3327
 -1      1544    8    0    1
 -2       696       733       815      3248      3312      3244
 -1      1545    8    0    1
 -2       662       722       786      3307      3294      3160
 -1      1546    8    0    1
 -2       749       619       840      3017      3330      3331
 -1      1547    8    0    1
 -2       619       819       840      3265      3332      3330
 -1      1548    8    0    1
 -2       750       622       841      3020      3333      3334
 -1      1549    8    0    1
 -2       622       829       841      3291      3335      3333
 -1      1550    8    0    1
 -2       655       785       836      3154      3336      3337
 -1      1551    8    0    1
 -2       751       709       842      3027      3338      3339
 -1      1552    8    0    1
 -2       625       725       843      2957      3340      3341
 -1      1553    8    0    1
 -2       625       843       830      3341      3342      3295
 -1      1554    8    0    1
 -2       752       712       844      3030      3343      3344
 -1      1555    8    0    1
 -2       746       839       753      3328      3345      3036
 -1      1556    8    0    1
 -2       656       655       836      2757      3337      3346
 -1      1557    8    0    1
 -2       657       656       720      2760      3347      3348
 -1      1558    8    0    1
 -2       658       657       741      2763      3349      3350
 -1      1559    8    0    1
 -2       698       734       697      3280      3351      2881
 -1      1560    8    0    1
 -2       725       716       748      2958      3298      3352
 -1      1561    8    0    1
 -2       670       792       845      3177      3353      3354
 -1      1562    8    0    1
 -2       670       845       724      3354      3355      2954
 -1      1563    8    0    1
 -2       733       697       734      3247      3351      2981
 -1      1564    8    0    1
 -2       786       744       824      3293      3276      3356
 -1      1565    8    0    1
 -2       701       624       747      3256      3013      3253
 -1      1566    8    0    1
 -2       703       816       844      3258      3357      3358
 -1      1567    8    0    1
 -2       702       703       844      2896      3358      3359
 -1      1568    8    0    1
 -2       705       706       846      2905      3360      3361
 -1      1569    8    0    1
 -2       705       846       817      3361      3362      3259
 -1      1570    8    0    1
 -2       709       711       847      2919      3363      3364
 -1      1571    8    0    1
 -2       709       847       842      3364      3365      3338
 -1      1572    8    0    1
 -2       667       724       848      2953      3366      3367
 -1      1573    8    0    1
 -2       724       845       848      3355      3368      3366
 -1      1574    8    0    1
 -2       718       820       826      3267      3369      3281
 -1      1575    8    0    1
 -2       711       707       849      2920      3370      3371
 -1      1576    8    0    1
 -2       847       711       849      3363      3371      3372
 -1      1577    8    0    1
 -2       707       821       849      3269      3373      3370
 -1      1578    8    0    1
 -2       656       836       720      3346      3319      3347
 -1      1579    8    0    1
 -2       668       751       850      3272      3374      3375
 -1      1580    8    0    1
 -2       706       668       850      2906      3375      3376
 -1      1581    8    0    1
 -2       751       842       850      3339      3377      3374
 -1      1582    8    0    1
 -2       624       702       844      3255      3359      3378
 -1      1583    8    0    1
 -2       824       717       838      3275      3325      3379
 -1      1584    8    0    1
 -2       834       740       836      3313      3320      3380
 -1      1585    8    0    1
 -2       820       728       851      3266      3381      3382
 -1      1586    8    0    1
 -2       728       752       851      3032      3383      3381
 -1      1587    8    0    1
 -2       819       618       852      3264      3384      3385
 -1      1588    8    0    1
 -2       618       727       852      2963      3386      3384
 -1      1589    8    0    1
 -2       823       739       834      3273      3314      3387
 -1      1590    8    0    1
 -2       790       667       848      3172      3367      3388
 -1      1591    8    0    1
 -2       732       723       853      2976      3389      3390
 -1      1592    8    0    1
 -2       835       732       853      3318      3390      3391
 -1      1593    8    0    1
 -2       723       825       853      3278      3392      3389
 -1      1594    8    0    1
 -2       731       753       854      3038      3393      3394
 -1      1595    8    0    1
 -2       731       854       833      3394      3395      3309
 -1      1596    8    0    1
 -2       727       620       855      2964      3396      3397
 -1      1597    8    0    1
 -2       852       727       855      3386      3397      3398
 -1      1598    8    0    1
 -2       620       756       855      3067      3399      3396
 -1      1599    8    0    1
 -2       831       738       856      3300      3400      3401
 -1      1600    8    0    1
 -2       738       837       856      3322      3402      3400
 -1      1601    8    0    1
 -2       712       624       844      3025      3378      3343
 -1      1602    8    0    1
 -2       730       755       857      3057      3403      3404
 -1      1603    8    0    1
 -2       715       754       858      3052      3405      3406
 -1      1604    8    0    1
 -2       822       715       858      3270      3406      3407
 -1      1605    8    0    1
 -2       754       789       858      3170      3408      3405
 -1      1606    8    0    1
 -2       730       857       859      3404      3409      3410
 -1      1607    8    0    1
 -2       730       859       748      3410      3411      3016
 -1      1608    8    0    1
 -2       836       785       834      3336      3412      3380
 -1      1609    8    0    1
 -2       757       830       860      3297      3413      3414
 -1      1610    8    0    1
 -2       857       755       861      3403      3415      3416
 -1      1611    8    0    1
 -2       755       749       861      3058      3417      3415
 -1      1612    8    0    1
 -2       753       839       862      3345      3418      3419
 -1      1613    8    0    1
 -2       741       657       720      3349      3348      3048
 -1      1614    8    0    1
 -2       759       758       863      3077      3420      3421
 -1      1615    8    0    1
 -2       760       759       864      3080      3422      3423
 -1      1616    8    0    1
 -2       759       863       864      3421      3424      3422
 -1      1617    8    0    1
 -2       761       760       865      3083      3425      3426
 -1      1618    8    0    1
 -2       760       864       865      3423      3427      3425
 -1      1619    8    0    1
 -2       762       761       866      3086      3428      3429
 -1      1620    8    0    1
 -2       761       865       866      3426      3430      3428
 -1      1621    8    0    1
 -2       763       762       867      3089      3431      3432
 -1      1622    8    0    1
 -2       762       866       867      3429      3433      3431
 -1      1623    8    0    1
 -2       764       763       868      3092      3434      3435
 -1      1624    8    0    1
 -2       763       867       868      3432      3436      3434
 -1      1625    8    0    1
 -2       765       764       869      3095      3437      3438
 -1      1626    8    0    1
 -2       764       868       869      3435      3439      3437
 -1      1627    8    0    1
 -2       766       765       870      3098      3440      3441
 -1      1628    8    0    1
 -2       765       869       870      3438      3442      3440
 -1      1629    8    0    1
 -2       767       766       871      3101      3443      3444
 -1      1630    8    0    1
 -2       766       870       871      3441      3445      3443
 -1      1631    8    0    1
 -2       768       767       872      3104      3446      3447
 -1      1632    8    0    1
 -2       767       871       872      3444      3448      3446
 -1      1633    8    0    1
 -2       769       768       873      3107      3449      3450
 -1      1634    8    0    1
 -2       768       872       873      3447      3451      3449
 -1      1635    8    0    1
 -2       770       769       874      3110      3452      3453
 -1      1636    8    0    1
 -2       769       873       874      3450      3454      3452
 -1      1637    8    0    1
 -2       771       770       875      3113      3455      3456
 -1      1638    8    0    1
 -2       770       874       875      3453      3457      3455
 -1      1639    8    0    1
 -2       772       771       876      3116      3458      3459
 -1      1640    8    0    1
 -2       771       875       876      3456      3460      3458
 -1      1641    8    0    1
 -2       773       772       877      3119      3461      3462
 -1      1642    8    0    1
 -2       772       876       877      3459      3463      3461
 -1      1643    8    0    1
 -2       774       773       878      3122      3464      3465
 -1      1644    8    0    1
 -2       773       877       878      3462      3466      3464
 -1      1645    8    0    1
 -2       775       774       879      3125      3467      3468
 -1      1646    8    0    1
 -2       774       878       879      3465      3469      3467
 -1      1647    8    0    1
 -2       776       775       880      3128      3470      3471
 -1      1648    8    0    1
 -2       775       879       880      3468      3472      3470
 -1      1649    8    0    1
 -2       777       776       881      3131      3473      3474
 -1      1650    8    0    1
 -2       776       880       881      3471      3475      3473
 -1      1651    8    0    1
 -2       778       777       882      3134      3476      3477
 -1      1652    8    0    1
 -2       777       881       882      3474      3478      3476
 -1      1653    8    0    1
 -2       779       778       883      3137      3479      3480
 -1      1654    8    0    1
 -2       778       882       883      3477      3481      3479
 -1      1655    8    0    1
 -2       780       779       884      3140      3482      3483
 -1      1656    8    0    1
 -2       779       883       884      3480      3484      3482
 -1      1657    8    0    1
 -2       781       780       885      3143      3485      3486
 -1      1658    8    0    1
 -2       780       884       885      3483      3487      3485
 -1      1659    8    0    1
 -2       782       781       886      3146      3488      3489
 -1      1660    8    0    1
 -2       781       885       886      3486      3490      3488
 -1      1661    8    0    1
 -2       783       782       887      3149      3491      3492
 -1      1662    8    0    1
 -2       782       886       887      3489      3493      3491
 -1      1663    8    0    1
 -2       784       783       888      3152      3494      3495
 -1      1664    8    0    1
 -2       783       887       888      3492      3496      3494
 -1      1665    8    0    1
 -2       785       784       889      3155      3497      3498
 -1      1666    8    0    1
 -2       834       785       889      3412      3498      3499
 -1      1667    8    0    1
 -2       784       888       889      3495      3500      3497
 -1      1668    8    0    1
 -2       787       786       824      3164      3356      3501
 -1      1669    8    0    1
 -2       658       741       742      3350      3065      3308
 -1      1670    8    0    1
 -2       752       844       816      3344      3357      3502
 -1      1671    8    0    1
 -2       752       816       851      3502      3503      3383
 -1      1672    8    0    1
 -2       788       787       890      3167      3504      3505
 -1      1673    8    0    1
 -2       787       824       890      3501      3506      3504
 -1      1674    8    0    1
 -2       794       795       891      3186      3507      3508
 -1      1675    8    0    1
 -2       793       794       892      3183      3509      3510
 -1      1676    8    0    1
 -2       794       891       892      3508      3511      3509
 -1      1677    8    0    1
 -2       796       797       893      3192      3512      3513
 -1      1678    8    0    1
 -2       797       798       894      3195      3514      3515
 -1      1679    8    0    1
 -2       797       894       893      3515      3516      3512
 -1      1680    8    0    1
 -2       798       799       895      3198      3517      3518
 -1      1681    8    0    1
 -2       798       895       894      3518      3519      3514
 -1      1682    8    0    1
 -2       799       800       896      3201      3520      3521
 -1      1683    8    0    1
 -2       799       896       895      3521      3522      3517
 -1      1684    8    0    1
 -2       800       801       897      3204      3523      3524
 -1      1685    8    0    1
 -2       800       897       896      3524      3525      3520
 -1      1686    8    0    1
 -2       801       802       898      3207      3526      3527
 -1      1687    8    0    1
 -2       801       898       897      3527      3528      3523
 -1      1688    8    0    1
 -2       802       803       899      3210      3529      3530
 -1      1689    8    0    1
 -2       802       899       898      3530      3531      3526
 -1      1690    8    0    1
 -2       803       804       900      3213      3532      3533
 -1      1691    8    0    1
 -2       803       900       899      3533      3534      3529
 -1      1692    8    0    1
 -2       804       805       901      3216      3535      3536
 -1      1693    8    0    1
 -2       804       901       900      3536      3537      3532
 -1      1694    8    0    1
 -2       805       806       902      3219      3538      3539
 -1      1695    8    0    1
 -2       805       902       901      3539      3540      3535
 -1      1696    8    0    1
 -2       806       807       903      3222      3541      3542
 -1      1697    8    0    1
 -2       806       903       902      3542      3543      3538
 -1      1698    8    0    1
 -2       807       808       904      3225      3544      3545
 -1      1699    8    0    1
 -2       807       904       903      3545      3546      3541
 -1      1700    8    0    1
 -2       808       809       905      3228      3547      3548
 -1      1701    8    0    1
 -2       808       905       904      3548      3549      3544
 -1      1702    8    0    1
 -2       809       810       906      3231      3550      3551
 -1      1703    8    0    1
 -2       809       906       905      3551      3552      3547
 -1      1704    8    0    1
 -2       810       811       907      3234      3553      3554
 -1      1705    8    0    1
 -2       810       907       906      3554      3555      3550
 -1      1706    8    0    1
 -2       811       812       908      3237      3556      3557
 -1      1707    8    0    1
 -2       811       908       907      3557      3558      3553
 -1      1708    8    0    1
 -2       812       813       909      3240      3559      3560
 -1      1709    8    0    1
 -2       812       909       908      3560      3561      3556
 -1      1710    8    0    1
 -2       813       814       910      3243      3562      3563
 -1      1711    8    0    1
 -2       813       910       909      3563      3564      3559
 -1      1712    8    0    1
 -2       814       815       750      3246      3565      3566
 -1      1713    8    0    1
 -2       725       748       843      3352      3567      3340
 -1      1714    8    0    1
 -2       829       818       911      3292      3568      3569
 -1      1715    8    0    1
 -2       824       838       890      3379      3570      3506
 -1      1716    8    0    1
 -2       816       817       851      3261      3571      3503
 -1      1717    8    0    1
 -2       825       790       912      3279      3572      3573
 -1      1718    8    0    1
 -2       827       822       913      3285      3574      3575
 -1      1719    8    0    1
 -2       795       796       914      3189      3576      3577
 -1      1720    8    0    1
 -2       891       795       914      3507      3577      3578
 -1      1721    8    0    1
 -2       796       893       914      3513      3579      3576
 -1      1722    8    0    1
 -2       792       791       915      3178      3580      3581
 -1      1723    8    0    1
 -2       616       750       815      3022      3565      3311
 -1      1724    8    0    1
 -2       823       834       889      3387      3499      3582
 -1      1725    8    0    1
 -2       758       757       916      3074      3583      3584
 -1      1726    8    0    1
 -2       758       916       863      3584      3585      3420
 -1      1727    8    0    1
 -2       826       820       917      3369      3586      3587
 -1      1728    8    0    1
 -2       818       831       918      3302      3588      3589
 -1      1729    8    0    1
 -2       818       918       911      3589      3590      3568
 -1      1730    8    0    1
 -2       790       848       919      3388      3591      3592
 -1      1731    8    0    1
 -2       790       919       912      3592      3593      3572
 -1      1732    8    0    1
 -2       837       823       920      3323      3594      3595
 -1      1733    8    0    1
 -2       838       833       921      3326      3596      3597
 -1      1734    8    0    1
 -2       890       838       921      3570      3597      3598
 -1      1735    8    0    1
 -2       833       854       921      3395      3599      3596
 -1      1736    8    0    1
 -2       839       826       922      3329      3600      3601
 -1      1737    8    0    1
 -2       841       829       923      3335      3602      3603
 -1      1738    8    0    1
 -2       829       911       923      3569      3604      3602
 -1      1739    8    0    1
 -2       860       830       924      3413      3605      3606
 -1      1740    8    0    1
 -2       830       843       924      3342      3607      3605
 -1      1741    8    0    1
 -2       857       861       925      3416      3608      3609
 -1      1742    8    0    1
 -2       862       839       922      3418      3601      3610
 -1      1743    8    0    1
 -2       857       925       924      3609      3611      3612
 -1      1744    8    0    1
 -2       861       749       840      3417      3331      3613
 -1      1745    8    0    1
 -2       792       915       926      3581      3614      3615
 -1      1746    8    0    1
 -2       792       926       845      3615      3616      3353
 -1      1747    8    0    1
 -2       706       850       846      3376      3617      3360
 -1      1748    8    0    1
 -2       851       817       927      3571      3618      3619
 -1      1749    8    0    1
 -2       820       851       927      3382      3619      3620
 -1      1750    8    0    1
 -2       817       846       927      3362      3621      3618
 -1      1751    8    0    1
 -2       915       791       928      3580      3622      3623
 -1      1752    8    0    1
 -2       791       828       928      3288      3624      3622
 -1      1753    8    0    1
 -2       789       788       929      3171      3625      3626
 -1      1754    8    0    1
 -2       858       789       929      3408      3626      3627
 -1      1755    8    0    1
 -2       788       890       929      3505      3628      3625
 -1      1756    8    0    1
 -2       793       892       930      3510      3629      3630
 -1      1757    8    0    1
 -2       793       930       828      3630      3631      3289
 -1      1758    8    0    1
 -2       814       750       910      3566      3632      3562
 -1      1759    8    0    1
 -2       918       831       931      3588      3633      3634
 -1      1760    8    0    1
 -2       831       856       931      3401      3635      3633
 -1      1761    8    0    1
 -2       922       826       917      3600      3587      3636
 -1      1762    8    0    1
 -2       820       927       917      3620      3637      3586
 -1      1763    8    0    1
 -2       837       920       932      3595      3638      3639
 -1      1764    8    0    1
 -2       837       932       856      3639      3640      3402
 -1      1765    8    0    1
 -2       821       832       862      3305      3641      3642
 -1      1766    8    0    1
 -2       848       845       933      3368      3643      3644
 -1      1767    8    0    1
 -2       845       926       933      3616      3645      3643
 -1      1768    8    0    1
 -2       842       847       917      3365      3646      3647
 -1      1769    8    0    1
 -2       853       825       934      3392      3648      3649
 -1      1770    8    0    1
 -2       825       912       934      3573      3650      3648
 -1      1771    8    0    1
 -2       753       862       854      3419      3651      3393
 -1      1772    8    0    1
 -2       757       860       916      3414      3652      3583
 -1      1773    8    0    1
 -2       855       756       935      3399      3653      3654
 -1      1774    8    0    1
 -2       819       852       936      3385      3655      3656
 -1      1775    8    0    1
 -2       823       889       920      3582      3657      3594
 -1      1776    8    0    1
 -2       822       858       929      3407      3627      3658
 -1      1777    8    0    1
 -2       919       848       933      3591      3644      3659
 -1      1778    8    0    1
 -2       822       929       913      3658      3660      3574
 -1      1779    8    0    1
 -2       840       819       937      3332      3661      3662
 -1      1780    8    0    1
 -2       819       936       937      3656      3663      3661
 -1      1781    8    0    1
 -2       842       917       927      3647      3637      3664
 -1      1782    8    0    1
 -2       861       840       938      3613      3665      3666
 -1      1783    8    0    1
 -2       925       861       938      3608      3666      3667
 -1      1784    8    0    1
 -2       840       937       938      3662      3668      3665
 -1      1785    8    0    1
 -2       864       863       939      3424      3669      3670
 -1      1786    8    0    1
 -2       865       864       940      3427      3671      3672
 -1      1787    8    0    1
 -2       864       939       940      3670      3673      3671
 -1      1788    8    0    1
 -2       866       865       941      3430      3674      3675
 -1      1789    8    0    1
 -2       865       940       941      3672      3676      3674
 -1      1790    8    0    1
 -2       867       866       942      3433      3677      3678
 -1      1791    8    0    1
 -2       866       941       942      3675      3679      3677
 -1      1792    8    0    1
 -2       868       867       943      3436      3680      3681
 -1      1793    8    0    1
 -2       867       942       943      3678      3682      3680
 -1      1794    8    0    1
 -2       869       868       944      3439      3683      3684
 -1      1795    8    0    1
 -2       868       943       944      3681      3685      3683
 -1      1796    8    0    1
 -2       870       869       945      3442      3686      3687
 -1      1797    8    0    1
 -2       869       944       945      3684      3688      3686
 -1      1798    8    0    1
 -2       871       870       946      3445      3689      3690
 -1      1799    8    0    1
 -2       870       945       946      3687      3691      3689
 -1      1800    8    0    1
 -2       872       871       947      3448      3692      3693
 -1      1801    8    0    1
 -2       871       946       947      3690      3694      3692
 -1      1802    8    0    1
 -2       873       872       948      3451      3695      3696
 -1      1803    8    0    1
 -2       872       947       948      3693      3697      3695
 -1      1804    8    0    1
 -2       874       873       949      3454      3698      3699
 -1      1805    8    0    1
 -2       873       948       949      3696      3700      3698
 -1      1806    8    0    1
 -2       875       874       950      3457      3701      3702
 -1      1807    8    0    1
 -2       874       949       950      3699      3703      3701
 -1      1808    8    0    1
 -2       876       875       951      3460      3704      3705
 -1      1809    8    0    1
 -2       875       950       951      3702      3706      3704
 -1      1810    8    0    1
 -2       877       876       952      3463      3707      3708
 -1      1811    8    0    1
 -2       876       951       952      3705      3709      3707
 -1      1812    8    0    1
 -2       878       877       953      3466      3710      3711
 -1      1813    8    0    1
 -2       877       952       953      3708      3712      3710
 -1      1814    8    0    1
 -2       879       878       954      3469      3713      3714
 -1      1815    8    0    1
 -2       878       953       954      3711      3715      3713
 -1      1816    8    0    1
 -2       880       879       955      3472      3716      3717
 -1      1817    8    0    1
 -2       879       954       955      3714      3718      3716
 -1      1818    8    0    1
 -2       881       880       956      3475      3719      3720
 -1      1819    8    0    1
 -2       880       955       956      3717      3721      3719
 -1      1820    8    0    1
 -2       882       881       957      3478      3722      3723
 -1      1821    8    0    1
 -2       881       956       957      3720      3724      3722
 -1      1822    8    0    1
 -2       883       882       958      3481      3725      3726
 -1      1823    8    0    1
 -2       882       957       958      3723      3727      3725
 -1      1824    8    0    1
 -2       884       883       959      3484      3728      3729
 -1      1825    8    0    1
 -2       883       958       959      3726      3730      3728
 -1      1826    8    0    1
 -2       885       884       960      3487      3731      3732
 -1      1827    8    0    1
 -2       884       959       960      3729      3733      3731
 -1      1828    8    0    1
 -2       886       885       961      3490      3734      3735
 -1      1829    8    0    1
 -2       885       960       961      3732      3736      3734
 -1      1830    8    0    1
 -2       887       886       962      3493      3737      3738
 -1      1831    8    0    1
 -2       886       961       962      3735      3739      3737
 -1      1832    8    0    1
 -2       888       887       963      3496      3740      3741
 -1      1833    8    0    1
 -2       887       962       963      3738      3742      3740
 -1      1834    8    0    1
 -2       892       891       964      3511      3743      3744
 -1      1835    8    0    1
 -2       748       859       843      3411      3745      3567
 -1      1836    8    0    1
 -2       929       890       913      3628      3746      3660
 -1      1837    8    0    1
 -2       894       895       965      3519      3747      3748
 -1      1838    8    0    1
 -2       893       894       966      3516      3749      3750
 -1      1839    8    0    1
 -2       894       965       966      3748      3751      3749
 -1      1840    8    0    1
 -2       896       897       967      3525      3752      3753
 -1      1841    8    0    1
 -2       897       898       968      3528      3754      3755
 -1      1842    8    0    1
 -2       897       968       967      3755      3756      3752
 -1      1843    8    0    1
 -2       898       899       969      3531      3757      3758
 -1      1844    8    0    1
 -2       898       969       968      3758      3759      3754
 -1      1845    8    0    1
 -2       899       900       970      3534      3760      3761
 -1      1846    8    0    1
 -2       899       970       969      3761      3762      3757
 -1      1847    8    0    1
 -2       900       901       971      3537      3763      3764
 -1      1848    8    0    1
 -2       900       971       970      3764      3765      3760
 -1      1849    8    0    1
 -2       901       902       972      3540      3766      3767
 -1      1850    8    0    1
 -2       901       972       971      3767      3768      3763
 -1      1851    8    0    1
 -2       902       903       973      3543      3769      3770
 -1      1852    8    0    1
 -2       902       973       972      3770      3771      3766
 -1      1853    8    0    1
 -2       903       904       974      3546      3772      3773
 -1      1854    8    0    1
 -2       903       974       973      3773      3774      3769
 -1      1855    8    0    1
 -2       904       905       975      3549      3775      3776
 -1      1856    8    0    1
 -2       904       975       974      3776      3777      3772
 -1      1857    8    0    1
 -2       905       906       976      3552      3778      3779
 -1      1858    8    0    1
 -2       905       976       975      3779      3780      3775
 -1      1859    8    0    1
 -2       906       907       977      3555      3781      3782
 -1      1860    8    0    1
 -2       906       977       976      3782      3783      3778
 -1      1861    8    0    1
 -2       907       908       978      3558      3784      3785
 -1      1862    8    0    1
 -2       907       978       977      3785      3786      3781
 -1      1863    8    0    1
 -2       908       909       979      3561      3787      3788
 -1      1864    8    0    1
 -2       908       979       978      3788      3789      3784
 -1      1865    8    0    1
 -2       913       890       921      3746      3598      3790
 -1      1866    8    0    1
 -2       912       919       980      3593      3791      3792
 -1      1867    8    0    1
 -2       862       832       854      3641      3793      3651
 -1      1868    8    0    1
 -2       917       847       922      3646      3794      3636
 -1      1869    8    0    1
 -2       750       841       910      3334      3795      3632
 -1      1870    8    0    1
 -2       849       821       862      3373      3642      3796
 -1      1871    8    0    1
 -2       919       933       981      3659      3797      3798
 -1      1872    8    0    1
 -2       919       981       980      3798      3799      3791
 -1      1873    8    0    1
 -2       859       857       924      3409      3612      3800
 -1      1874    8    0    1
 -2       863       916       982      3585      3801      3802
 -1      1875    8    0    1
 -2       863       982       939      3802      3803      3669
 -1      1876    8    0    1
 -2       922       847       849      3794      3372      3804
 -1      1877    8    0    1
 -2       935       756       853      3653      3805      3806
 -1      1878    8    0    1
 -2       849       862       922      3796      3610      3804
 -1      1879    8    0    1
 -2       842       927       850      3664      3807      3377
 -1      1880    8    0    1
 -2       832       827       854      3306      3808      3793
 -1      1881    8    0    1
 -2       916       860       983      3652      3809      3810
 -1      1882    8    0    1
 -2       916       983       982      3810      3811      3801
 -1      1883    8    0    1
 -2       911       918       984      3590      3812      3813
 -1      1884    8    0    1
 -2       852       855       985      3398      3814      3815
 -1      1885    8    0    1
 -2       936       852       985      3655      3815      3816
 -1      1886    8    0    1
 -2       855       935       985      3654      3817      3814
 -1      1887    8    0    1
 -2       756       835       853      3317      3391      3805
 -1      1888    8    0    1
 -2       843       859       924      3745      3800      3607
 -1      1889    8    0    1
 -2       935       853       934      3806      3649      3818
 -1      1890    8    0    1
 -2       854       827       913      3808      3575      3819
 -1      1891    8    0    1
 -2       910       841       923      3795      3603      3820
 -1      1892    8    0    1
 -2       895       896       986      3522      3821      3822
 -1      1893    8    0    1
 -2       896       967       986      3753      3823      3821
 -1      1894    8    0    1
 -2       935       934       987      3818      3824      3825
 -1      1895    8    0    1
 -2       935       987       985      3825      3826      3817
 -1      1896    8    0    1
 -2       924       925       983      3611      3827      3828
 -1      1897    8    0    1
 -2       926       915       988      3614      3829      3830
 -1      1898    8    0    1
 -2       892       964       989      3744      3831      3832
 -1      1899    8    0    1
 -2       892       989       930      3832      3833      3629
 -1      1900    8    0    1
 -2       964       891       990      3743      3834      3835
 -1      1901    8    0    1
 -2       891       914       990      3578      3836      3834
 -1      1902    8    0    1
 -2       889       888       920      3500      3837      3657
 -1      1903    8    0    1
 -2       914       893       991      3579      3838      3839
 -1      1904    8    0    1
 -2       914       991       990      3839      3840      3836
 -1      1905    8    0    1
 -2       965       895       986      3747      3822      3841
 -1      1906    8    0    1
 -2       893       966       991      3750      3842      3838
 -1      1907    8    0    1
 -2       909       910       923      3564      3820      3843
 -1      1908    8    0    1
 -2       931       856       992      3635      3844      3845
 -1      1909    8    0    1
 -2       856       932       992      3640      3846      3844
 -1      1910    8    0    1
 -2       918       931       993      3634      3847      3848
 -1      1911    8    0    1
 -2       918       993       984      3848      3849      3812
 -1      1912    8    0    1
 -2       934       912       987      3650      3850      3824
 -1      1913    8    0    1
 -2       933       926       994      3645      3851      3852
 -1      1914    8    0    1
 -2       926       988       994      3830      3853      3851
 -1      1915    8    0    1
 -2       888       963       920      3741      3854      3837
 -1      1916    8    0    1
 -2       932       920       963      3638      3854      3855
 -1      1917    8    0    1
 -2       981       933       994      3797      3852      3856
 -1      1918    8    0    1
 -2       911       984       995      3813      3857      3858
 -1      1919    8    0    1
 -2       911       995       923      3858      3859      3604
 -1      1920    8    0    1
 -2       828       930       928      3631      3860      3624
 -1      1921    8    0    1
 -2       854       913       921      3819      3790      3599
 -1      1922    8    0    1
 -2       915       928       996      3623      3861      3862
 -1      1923    8    0    1
 -2       915       996       988      3862      3863      3829
 -1      1924    8    0    1
 -2       987       912       980      3850      3792      3864
 -1      1925    8    0    1
 -2       936       985       997      3816      3865      3866
 -1      1926    8    0    1
 -2       985       987       997      3826      3867      3865
 -1      1927    8    0    1
 -2       937       936       998      3663      3868      3869
 -1      1928    8    0    1
 -2       936       997       998      3866      3870      3868
 -1      1929    8    0    1
 -2       925       938       999      3667      3871      3872
 -1      1930    8    0    1
 -2       925       999       983      3872      3873      3827
 -1      1931    8    0    1
 -2       850       927       846      3807      3621      3617
 -1      1932    8    0    1
 -2       981       994      1000      3856      3874      3875
 -1      1933    8    0    1
 -2       940       939      1001      3673      3876      3877
 -1      1934    8    0    1
 -2       965       986      1002      3841      3878      3879
 -1      1935    8    0    1
 -2       941       940      1003      3676      3880      3881
 -1      1936    8    0    1
 -2       940      1001      1003      3877      3882      3880
 -1      1937    8    0    1
 -2       942       941      1004      3679      3883      3884
 -1      1938    8    0    1
 -2       941      1003      1004      3881      3885      3883
 -1      1939    8    0    1
 -2       943       942      1005      3682      3886      3887
 -1      1940    8    0    1
 -2       942      1004      1005      3884      3888      3886
 -1      1941    8    0    1
 -2       944       943      1006      3685      3889      3890
 -1      1942    8    0    1
 -2       943      1005      1006      3887      3891      3889
 -1      1943    8    0    1
 -2       945       944      1007      3688      3892      3893
 -1      1944    8    0    1
 -2       944      1006      1007      3890      3894      3892
 -1      1945    8    0    1
 -2       946       945      1008      3691      3895      3896
 -1      1946    8    0    1
 -2       945      1007      1008      3893      3897      3895
 -1      1947    8    0    1
 -2       947       946      1009      3694      3898      3899
 -1      1948    8    0    1
 -2       946      1008      1009      3896      3900      3898
 -1      1949    8    0    1
 -2       948       947      1010      3697      3901      3902
 -1      1950    8    0    1
 -2       947      1009      1010      3899      3903      3901
 -1      1951    8    0    1
 -2       949       948      1011      3700      3904      3905
 -1      1952    8    0    1
 -2       948      1010      1011      3902      3906      3904
 -1      1953    8    0    1
 -2       950       949      1012      3703      3907      3908
 -1      1954    8    0    1
 -2       949      1011      1012      3905      3909      3907
 -1      1955    8    0    1
 -2       951       950      1013      3706      3910      3911
 -1      1956    8    0    1
 -2       950      1012      1013      3908      3912      3910
 -1      1957    8    0    1
 -2       952       951      1014      3709      3913      3914
 -1      1958    8    0    1
 -2       951      1013      1014      3911      3915      3913
 -1      1959    8    0    1
 -2       953       952      1015      3712      3916      3917
 -1      1960    8    0    1
 -2       952      1014      1015      3914      3918      3916
 -1      1961    8    0    1
 -2       954       953      1016      3715      3919      3920
 -1      1962    8    0    1
 -2       953      1015      1016      3917      3921      3919
 -1      1963    8    0    1
 -2       955       954      1017      3718      3922      3923
 -1      1964    8    0    1
 -2       954      1016      1017      3920      3924      3922
 -1      1965    8    0    1
 -2       956       955      1018      3721      3925      3926
 -1      1966    8    0    1
 -2       955      1017      1018      3923      3927      3925
 -1      1967    8    0    1
 -2       957       956      1019      3724      3928      3929
 -1      1968    8    0    1
 -2       956      1018      1019      3926      3930      3928
 -1      1969    8    0    1
 -2       958       957      1020      3727      3931      3932
 -1      1970    8    0    1
 -2       957      1019      1020      3929      3933      3931
 -1      1971    8    0    1
 -2       959       958      1021      3730      3934      3935
 -1      1972    8    0    1
 -2       958      1020      1021      3932      3936      3934
 -1      1973    8    0    1
 -2       960       959      1022      3733      3937      3938
 -1      1974    8    0    1
 -2       959      1021      1022      3935      3939      3937
 -1      1975    8    0    1
 -2       961       960      1023      3736      3940      3941
 -1      1976    8    0    1
 -2       960      1022      1023      3938      3942      3940
 -1      1977    8    0    1
 -2       962       961      1024      3739      3943      3944
 -1      1978    8    0    1
 -2       961      1023      1024      3941      3945      3943
 -1      1979    8    0    1
 -2       909       923       979      3843      3946      3787
 -1      1980    8    0    1
 -2       938       937      1025      3668      3947      3948
 -1      1981    8    0    1
 -2       938      1025       999      3948      3949      3871
 -1      1982    8    0    1
 -2       966       965      1026      3751      3950      3951
 -1      1983    8    0    1
 -2       965      1002      1026      3879      3952      3950
 -1      1984    8    0    1
 -2       968       969      1027      3759      3953      3954
 -1      1985    8    0    1
 -2       967       968      1028      3756      3955      3956
 -1      1986    8    0    1
 -2       968      1027      1028      3954      3957      3955
 -1      1987    8    0    1
 -2       970       971      1029      3765      3958      3959
 -1      1988    8    0    1
 -2       971       972      1030      3768      3960      3961
 -1      1989    8    0    1
 -2       971      1030      1029      3961      3962      3958
 -1      1990    8    0    1
 -2       972       973      1031      3771      3963      3964
 -1      1991    8    0    1
 -2       972      1031      1030      3964      3965      3960
 -1      1992    8    0    1
 -2       973       974      1032      3774      3966      3967
 -1      1993    8    0    1
 -2       973      1032      1031      3967      3968      3963
 -1      1994    8    0    1
 -2       974       975      1033      3777      3969      3970
 -1      1995    8    0    1
 -2       974      1033      1032      3970      3971      3966
 -1      1996    8    0    1
 -2       975       976      1034      3780      3972      3973
 -1      1997    8    0    1
 -2       975      1034      1033      3973      3974      3969
 -1      1998    8    0    1
 -2       976       977      1035      3783      3975      3976
 -1      1999    8    0    1
 -2       976      1035      1034      3976      3977      3972
 -1      2000    8    0    1
 -2       977       978      1036      3786      3978      3979
 -1      2001    8    0    1
 -2       977      1036      1035      3979      3980      3975
 -1      2002    8    0    1
 -2       978       979      1037      3789      3981      3982
 -1      2003    8    0    1
 -2       978      1037      1036      3982      3983      3978
 -1      2004    8    0    1
 -2       994       988      1038      3853      3984      3985
 -1      2005    8    0    1
 -2       994      1038      1000      3985      3986      3874
 -1      2006    8    0    1
 -2       860       924       983      3606      3828      3809
 -1      2007    8    0    1
 -2       982       983       999      3811      3873      3987
 -1      2008    8    0    1
 -2       980       981      1039      3799      3988      3989
 -1      2009    8    0    1
 -2       981      1000      1039      3875      3990      3988
 -1      2010    8    0    1
 -2       939       982      1040      3803      3991      3992
 -1      2011    8    0    1
 -2       939      1040      1001      3992      3993      3876
 -1      2012    8    0    1
 -2       932       963      1041      3855      3994      3995
 -1      2013    8    0    1
 -2       992       932      1041      3846      3995      3996
 -1      2014    8    0    1
 -2       963       962      1041      3742      3997      3994
 -1      2015    8    0    1
 -2       997       987       980      3867      3864      3998
 -1      2016    8    0    1
 -2       986       967      1042      3823      3999      4000
 -1      2017    8    0    1
 -2       986      1042      1002      4000      4001      3878
 -1      2018    8    0    1
 -2       969       970      1043      3762      4002      4003
 -1      2019    8    0    1
 -2       969      1043      1027      4003      4004      3953
 -1      2020    8    0    1
 -2       928       930      1044      3860      4005      4006
 -1      2021    8    0    1
 -2       996       928      1044      3861      4006      4007
 -1      2022    8    0    1
 -2       930       989      1044      3833      4008      4005
 -1      2023    8    0    1
 -2       991       966      1045      3842      4009      4010
 -1      2024    8    0    1
 -2       966      1026      1045      3951      4011      4009
 -1      2025    8    0    1
 -2       997       980      1046      3998      4012      4013
 -1      2026    8    0    1
 -2       998       997      1046      3870      4013      4014
 -1      2027    8    0    1
 -2       980      1039      1046      3989      4015      4012
 -1      2028    8    0    1
 -2       962      1024      1041      3944      4016      3997
 -1      2029    8    0    1
 -2       970      1029      1043      3959      4017      4002
 -1      2030    8    0    1
 -2       991      1045      1047      4010      4018      4019
 -1      2031    8    0    1
 -2       991      1047       990      4019      4020      3840
 -1      2032    8    0    1
 -2       967      1028      1042      3956      4021      3999
 -1      2033    8    0    1
 -2      1038       988      1048      3984      4022      4023
 -1      2034    8    0    1
 -2       988       996      1048      3863      4024      4022
 -1      2035    8    0    1
 -2       993       931      1049      3847      4025      4026
 -1      2036    8    0    1
 -2       931       992      1049      3845      4027      4025
 -1      2037    8    0    1
 -2       995       984      1037      3857      4028      4029
 -1      2038    8    0    1
 -2      1040       982       999      3991      3987      4030
 -1      2039    8    0    1
 -2       989       964      1050      3831      4031      4032
 -1      2040    8    0    1
 -2       964       990      1051      3835      4033      4034
 -1      2041    8    0    1
 -2       990      1047      1051      4020      4035      4033
 -1      2042    8    0    1
 -2       984       993      1037      3849      4036      4028
 -1      2043    8    0    1
 -2      1050       964      1051      4031      4034      4037
 -1      2044    8    0    1
 -2      1027      1043      1052      4004      4038      4039
 -1      2045    8    0    1
 -2       992      1041      1053      3996      4040      4041
 -1      2046    8    0    1
 -2      1049       992      1053      4027      4041      4042
 -1      2047    8    0    1
 -2      1041      1024      1053      4016      4043      4040
 -1      2048    8    0    1
 -2       979       923       995      3946      3859      4044
 -1      2049    8    0    1
 -2      1004      1003      1054      3885      4045      4046
 -1      2050    8    0    1
 -2      1005      1004      1055      3888      4047      4048
 -1      2051    8    0    1
 -2      1004      1054      1055      4046      4049      4047
 -1      2052    8    0    1
 -2      1006      1005      1056      3891      4050      4051
 -1      2053    8    0    1
 -2      1005      1055      1056      4048      4052      4050
 -1      2054    8    0    1
 -2      1007      1006      1057      3894      4053      4054
 -1      2055    8    0    1
 -2      1006      1056      1057      4051      4055      4053
 -1      2056    8    0    1
 -2      1008      1007      1058      3897      4056      4057
 -1      2057    8    0    1
 -2      1007      1057      1058      4054      4058      4056
 -1      2058    8    0    1
 -2      1009      1008      1059      3900      4059      4060
 -1      2059    8    0    1
 -2      1008      1058      1059      4057      4061      4059
 -1      2060    8    0    1
 -2      1010      1009      1060      3903      4062      4063
 -1      2061    8    0    1
 -2      1009      1059      1060      4060      4064      4062
 -1      2062    8    0    1
 -2      1011      1010      1061      3906      4065      4066
 -1      2063    8    0    1
 -2      1010      1060      1061      4063      4067      4065
 -1      2064    8    0    1
 -2      1012      1011      1062      3909      4068      4069
 -1      2065    8    0    1
 -2      1011      1061      1062      4066      4070      4068
 -1      2066    8    0    1
 -2      1013      1012      1063      3912      4071      4072
 -1      2067    8    0    1
 -2      1012      1062      1063      4069      4073      4071
 -1      2068    8    0    1
 -2      1014      1013      1064      3915      4074      4075
 -1      2069    8    0    1
 -2      1013      1063      1064      4072      4076      4074
 -1      2070    8    0    1
 -2      1015      1014      1065      3918      4077      4078
 -1      2071    8    0    1
 -2      1014      1064      1065      4075      4079      4077
 -1      2072    8    0    1
 -2      1016      1015      1066      3921      4080      4081
 -1      2073    8    0    1
 -2      1015      1065      1066      4078      4082      4080
 -1      2074    8    0    1
 -2      1017      1016      1067      3924      4083      4084
 -1      2075    8    0    1
 -2      1016      1066      1067      4081      4085      4083
 -1      2076    8    0    1
 -2      1018      1017      1068      3927      4086      4087
 -1      2077    8    0    1
 -2      1017      1067      1068      4084      4088      4086
 -1      2078    8    0    1
 -2      1019      1018      1069      3930      4089      4090
 -1      2079    8    0    1
 -2      1018      1068      1069      4087      4091      4089
 -1      2080    8    0    1
 -2      1020      1019      1070      3933      4092      4093
 -1      2081    8    0    1
 -2      1019      1069      1070      4090      4094      4092
 -1      2082    8    0    1
 -2      1021      1020      1071      3936      4095      4096
 -1      2083    8    0    1
 -2      1020      1070      1071      4093      4097      4095
 -1      2084    8    0    1
 -2      1022      1021      1072      3939      4098      4099
 -1      2085    8    0    1
 -2      1021      1071      1072      4096      4100      4098
 -1      2086    8    0    1
 -2      1023      1022      1073      3942      4101      4102
 -1      2087    8    0    1
 -2      1022      1072      1073      4099      4103      4101
 -1      2088    8    0    1
 -2      1024      1023      1074      3945      4104      4105
 -1      2089    8    0    1
 -2      1023      1073      1074      4102      4106      4104
 -1      2090    8    0    1
 -2      1028      1027      1075      3957      4107      4108
 -1      2091    8    0    1
 -2      1027      1052      1075      4039      4109      4107
 -1      2092    8    0    1
 -2      1025       937       998      3947      3869      4110
 -1      2093    8    0    1
 -2      1026      1002      1076      3952      4111      4112
 -1      2094    8    0    1
 -2      1001      1040      1077      3993      4113      4114
 -1      2095    8    0    1
 -2      1030      1031      1078      3965      4115      4116
 -1      2096    8    0    1
 -2      1029      1030      1079      3962      4117      4118
 -1      2097    8    0    1
 -2      1030      1078      1079      4116      4119      4117
 -1      2098    8    0    1
 -2      1032      1033      1080      3971      4120      4121
 -1      2099    8    0    1
 -2      1033      1034      1081      3974      4122      4123
 -1      2100    8    0    1
 -2      1033      1081      1080      4123      4124      4120
 -1      2101    8    0    1
 -2      1034      1035      1082      3977      4125      4126
 -1      2102    8    0    1
 -2      1034      1082      1081      4126      4127      4122
 -1      2103    8    0    1
 -2      1035      1036      1083      3980      4128      4129
 -1      2104    8    0    1
 -2      1035      1083      1082      4129      4130      4125
 -1      2105    8    0    1
 -2      1036      1037      1084      3983      4131      4132
 -1      2106    8    0    1
 -2      1083      1036      1084      4128      4132      4133
 -1      2107    8    0    1
 -2      1037       993      1084      4036      4134      4131
 -1      2108    8    0    1
 -2      1000      1038      1085      3986      4135      4136
 -1      2109    8    0    1
 -2      1037       979       995      3981      4044      4029
 -1      2110    8    0    1
 -2      1045      1026      1086      4011      4137      4138
 -1      2111    8    0    1
 -2      1026      1076      1086      4112      4139      4137
 -1      2112    8    0    1
 -2      1050      1051      1087      4037      4140      4141
 -1      2113    8    0    1
 -2      1039      1000      1088      3990      4142      4143
 -1      2114    8    0    1
 -2      1000      1085      1088      4136      4144      4142
 -1      2115    8    0    1
 -2      1040       999      1089      4030      4145      4146
 -1      2116    8    0    1
 -2      1077      1040      1089      4113      4146      4147
 -1      2117    8    0    1
 -2       999      1025      1089      3949      4148      4145
 -1      2118    8    0    1
 -2      1043      1029      1090      4017      4149      4150
 -1      2119    8    0    1
 -2      1043      1090      1052      4150      4151      4038
 -1      2120    8    0    1
 -2      1025       998      1091      4110      4152      4153
 -1      2121    8    0    1
 -2      1089      1025      1091      4148      4153      4154
 -1      2122    8    0    1
 -2       998      1046      1091      4014      4155      4152
 -1      2123    8    0    1
 -2      1031      1032      1092      3968      4156      4157
 -1      2124    8    0    1
 -2      1032      1080      1092      4121      4158      4156
 -1      2125    8    0    1
 -2      1042      1028      1093      4021      4159      4160
 -1      2126    8    0    1
 -2      1028      1075      1093      4108      4161      4159
 -1      2127    8    0    1
 -2       989      1050      1094      4032      4162      4163
 -1      2128    8    0    1
 -2       989      1094      1044      4163      4164      4008
 -1      2129    8    0    1
 -2      1002      1042      1095      4001      4165      4166
 -1      2130    8    0    1
 -2      1042      1093      1095      4160      4167      4165
 -1      2131    8    0    1
 -2      1003      1001      1096      3882      4168      4169
 -1      2132    8    0    1
 -2      1003      1096      1054      4169      4170      4045
 -1      2133    8    0    1
 -2      1078      1031      1092      4115      4157      4171
 -1      2134    8    0    1
 -2      1047      1045      1097      4018      4172      4173
 -1      2135    8    0    1
 -2      1045      1086      1097      4138      4174      4172
 -1      2136    8    0    1
 -2      1051      1047      1098      4035      4175      4176
 -1      2137    8    0    1
 -2      1087      1051      1098      4140      4176      4177
 -1      2138    8    0    1
 -2      1047      1097      1098      4173      4178      4175
 -1      2139    8    0    1
 -2      1090      1029      1079      4149      4118      4179
 -1      2140    8    0    1
 -2      1076      1002      1095      4111      4166      4180
 -1      2141    8    0    1
 -2      1001      1077      1096      4114      4181      4168
 -1      2142    8    0    1
 -2       996      1044      1099      4007      4182      4183
 -1      2143    8    0    1
 -2      1048       996      1099      4024      4183      4184
 -1      2144    8    0    1
 -2      1044      1094      1099      4164      4185      4182
 -1      2145    8    0    1
 -2      1085      1038      1100      4135      4186      4187
 -1      2146    8    0    1
 -2      1038      1048      1100      4023      4188      4186
 -1      2147    8    0    1
 -2      1084       993      1049      4134      4026      4189
 -1      2148    8    0    1
 -2      1039      1088      1091      4143      4190      4191
 -1      2149    8    0    1
 -2      1050      1087      1101      4141      4192      4193
 -1      2150    8    0    1
 -2      1050      1101      1094      4193      4194      4162
 -1      2151    8    0    1
 -2      1053      1024      1074      4043      4105      4195
 -1      2152    8    0    1
 -2      1049      1053      1102      4042      4196      4197
 -1      2153    8    0    1
 -2      1084      1049      1102      4189      4197      4198
 -1      2154    8    0    1
 -2      1053      1074      1102      4195      4199      4196
 -1      2155    8    0    1
 -2      1082      1083      1073      4130      4200      4201
 -1      2156    8    0    1
 -2      1078      1092      1069      4171      4202      4203
 -1      2157    8    0    1
 -2      1056      1055      1103      4052      4204      4205
 -1      2158    8    0    1
 -2      1057      1056      1101      4055      4206      4207
 -1      2159    8    0    1
 -2      1058      1057      1087      4058      4208      4209
 -1      2160    8    0    1
 -2      1059      1058      1098      4061      4210      4211
 -1      2161    8    0    1
 -2      1060      1059      1097      4064      4212      4213
 -1      2162    8    0    1
 -2      1061      1060      1086      4067      4214      4215
 -1      2163    8    0    1
 -2      1062      1061      1076      4070      4216      4217
 -1      2164    8    0    1
 -2      1063      1062      1095      4073      4218      4219
 -1      2165    8    0    1
 -2      1064      1063      1093      4076      4220      4221
 -1      2166    8    0    1
 -2      1065      1064      1075      4079      4222      4223
 -1      2167    8    0    1
 -2      1066      1065      1052      4082      4224      4225
 -1      2168    8    0    1
 -2      1067      1066      1090      4085      4226      4227
 -1      2169    8    0    1
 -2      1068      1067      1079      4088      4228      4229
 -1      2170    8    0    1
 -2      1069      1068      1078      4091      4230      4203
 -1      2171    8    0    1
 -2      1070      1069      1092      4094      4202      4231
 -1      2172    8    0    1
 -2      1071      1070      1080      4097      4232      4233
 -1      2173    8    0    1
 -2      1072      1071      1081      4100      4234      4235
 -1      2174    8    0    1
 -2      1073      1072      1082      4103      4236      4201
 -1      2175    8    0    1
 -2      1074      1073      1083      4106      4200      4237
 -1      2176    8    0    1
 -2      1075      1052      1065      4109      4224      4223
 -1      2177    8    0    1
 -2      1079      1067      1090      4228      4227      4179
 -1      2178    8    0    1
 -2      1087      1057      1101      4208      4207      4192
 -1      2179    8    0    1
 -2      1054      1096      1100      4170      4238      4239
 -1      2180    8    0    1
 -2      1076      1095      1062      4180      4218      4217
 -1      2181    8    0    1
 -2      1081      1082      1072      4127      4236      4235
 -1      2182    8    0    1
 -2      1080      1081      1071      4124      4234      4233
 -1      2183    8    0    1
 -2      1091      1088      1104      4190      4240      4241
 -1      2184    8    0    1
 -2      1089      1091      1104      4154      4241      4242
 -1      2185    8    0    1
 -2      1088      1085      1104      4144      4243      4240
 -1      2186    8    0    1
 -2      1075      1064      1093      4222      4221      4161
 -1      2187    8    0    1
 -2      1055      1054      1105      4049      4244      4245
 -1      2188    8    0    1
 -2      1103      1055      1105      4204      4245      4246
 -1      2189    8    0    1
 -2      1054      1100      1105      4239      4247      4244
 -1      2190    8    0    1
 -2      1052      1090      1066      4151      4226      4225
 -1      2191    8    0    1
 -2      1092      1080      1070      4158      4232      4231
 -1      2192    8    0    1
 -2      1093      1063      1095      4220      4219      4167
 -1      2193    8    0    1
 -2      1039      1091      1046      4191      4155      4015
 -1      2194    8    0    1
 -2      1079      1078      1068      4119      4230      4229
 -1      2195    8    0    1
 -2      1077      1089      1104      4147      4242      4248
 -1      2196    8    0    1
 -2      1086      1076      1061      4139      4216      4215
 -1      2197    8    0    1
 -2      1096      1077      1104      4181      4248      4249
 -1      2198    8    0    1
 -2      1086      1060      1097      4214      4213      4174
 -1      2199    8    0    1
 -2      1058      1087      1098      4209      4177      4210
 -1      2200    8    0    1
 -2      1056      1103      1101      4205      4250      4206
 -1      2201    8    0    1
 -2      1059      1098      1097      4211      4178      4212
 -1      2202    8    0    1
 -2      1100      1048      1105      4188      4251      4247
 -1      2203    8    0    1
 -2      1083      1084      1102      4133      4198      4252
 -1      2204    8    0    1
 -2      1105      1048      1099      4251      4184      4253
 -1      2205    8    0    1
 -2      1094      1101      1103      4194      4250      4254
 -1      2206    8    0    1
 -2      1074      1083      1102      4237      4252      4199
 -1      2207    8    0    1
 -2      1094      1103      1099      4254      4255      4185
 -1      2208    8    0    1
 -2      1085      1100      1096      4187      4238      4256
 -1      2209    8    0    1
 -2      1096      1104      1085      4249      4243      4256
 -1      2210    8    0    1
 -2      1103      1105      1099      4246      4253      4255
 -3
    1PSTEP                         1           1           1          
  100CL  101 1.000000000        4256                     0    1           1
 -4  DISP        4    1
 -5  D1          1    2    1    0
 -5  D2          1    2    2    0
 -5  D3          1    2    3    0
 -5  ALL         1    2    0    0    1ALL
 -1         1 9.91401E-03-5.59391E-04-5.34797E-14
 -1         2 1.38689E-02 1.38986E-06-6.34990E-14
 -1         3 1.47989E-02 3.59606E-04-8.35388E-14
 -1         4 1.48003E-02-3.55485E-04-9.00658E-14
 -1         5 0.00000E+00 0.00000E+00 0.00000E+00
 -1         6 0.00000E+00 0.00000E+00 0.00000E+00
 -1         7 0.00000E+00 0.00000E+00 0.00000E+00
 -1         8 0.00000E+00 0.00000E+00 0.00000E+00
 -1         9 0.00000E+00 0.00000E+00 0.00000E+00
 -1        10 0.00000E+00 0.00000E+00 0.00000E+00
 -1        11 0.00000E+00 0.00000E+00 0.00000E+00
 -1        12 0.00000E+00 0.00000E+00 0.00000E+00
 -1        13 0.00000E+00 0.00000E+00 0.00000E+00
 -1        14 0.00000E+00 0.00000E+00 0.00000E+00
 -1        15 0.00000E+00 0.00000E+00 0.00000E+00
 -1        16 0.00000E+00 0.00000E+00 0.00000E+00
 -1        17 0.00000E+00 0.00000E+00 0.00000E+00
 -1        18 0.00000E+00 0.00000E+00 0.00000E+00
 -1        19 0.00000E+00 0.00000E+00 0.00000E+00
 -1        20 0.00000E+00 0.00000E+00 0.00000E+00
 -1        21 0.00000E+00 0.00000E+00 0.00000E+00
 -1        22 0.00000E+00 0.00000E+00 0.00000E+00
 -1        23 4.11401E-04-2.60756E-04 1.87296E-17
 -1        24 7.03397E-04-4.01022E-04-6.87181E-17
 -1        25 9.73474E-04-4.98422E-04-2.59473E-16
 -1        26 1.23797E-03-5.67192E-04-5.50409E-16
 -1        27 1.50149E-03-6.16471E-04-9.38939E-16
 -1        28 1.76615E-03-6.51643E-04-1.42396E-15
 -1        29 2.03288E-03-6.76417E-04-2.00473E-15
 -1        30 2.30205E-03-6.93484E-04-2.67819E-15
 -1        31 2.57371E-03-7.04859E-04-3.44392E-15
 -1        32 2.84772E-03-7.12060E-04-4.30143E-15
 -1        33 3.12385E-03-7.16229E-04-5.24366E-15
 -1        34 3.40182E-03-7.18211E-04-6.26499E-15
 -1        35 3.68134E-03-7.18621E-04-7.36853E-15
 -1        36 3.96217E-03-7.17887E-04-8.55066E-15
 -1        37 4.24407E-03-7.16293E-04-9.81009E-15
 -1        38 4.52688E-03-7.14009E-04-1.11472E-14
 -1        39 4.81048E-03-7.11120E-04-1.25661E-14
 -1        40 5.09482E-03-7.07643E-04-1.40654E-14
 -1        41 5.37993E-03-7.03558E-04-1.56343E-14
 -1        42 5.66592E-03-6.98819E-04-1.72685E-14
 -1        43 5.95301E-03-6.93386E-04-1.89724E-14
 -1        44 6.24153E-03-6.87250E-04-2.07513E-14
 -1        45 6.53197E-03-6.80471E-04-2.26091E-14
 -1        46 6.82496E-03-6.73232E-04-2.45497E-14
 -1        47 7.12132E-03-6.65898E-04-2.65642E-14
 -1        48 7.42205E-03-6.59110E-04-2.86507E-14
 -1        49 7.72834E-03-6.53896E-04-3.07947E-14
 -1        50 8.04147E-03-6.51799E-04-3.29925E-14
 -1        51 8.36277E-03-6.55029E-04-3.52404E-14
 -1        52 8.69325E-03-6.66569E-04-3.75408E-14
 -1        53 9.03327E-03-6.90174E-04-3.98858E-14
 -1        54 9.38186E-03-7.30102E-04-4.22697E-14
 -1        55 9.73591E-03-7.90310E-04-4.46930E-14
 -1        56 1.00894E-02-8.72880E-04-4.71476E-14
 -1        57 1.04336E-02-9.75588E-04-4.96339E-14
 -1        58 1.07582E-02-1.08928E-03-5.21421E-14
 -1        59 1.10554E-02-1.19680E-03-5.46890E-14
 -1        60 1.13244E-02-1.27592E-03-5.72639E-14
 -1        61 1.15745E-02-1.30687E-03-5.98681E-14
 -1        62 1.18221E-02-1.28131E-03-6.24924E-14
 -1        63 1.20837E-02-1.20633E-03-6.51484E-14
 -1        64 1.23684E-02-1.10041E-03-6.78323E-14
 -1        65 1.26751E-02-9.84418E-04-7.05570E-14
 -1        66 1.29957E-02-8.73836E-04-7.33213E-14
 -1        67 1.33197E-02-7.75685E-04-7.61122E-14
 -1        68 1.36382E-02-6.89494E-04-7.89139E-14
 -1        69 1.39460E-02-6.10011E-04-8.17240E-14
 -1        70 1.42421E-02-5.30114E-04-8.45290E-14
 -1        71 1.45296E-02-4.43941E-04-8.73585E-14
 -1        72 4.13847E-04 2.61461E-04 4.96395E-17
 -1        73 7.03221E-04 4.03729E-04 1.67882E-17
 -1        74 9.74010E-04 5.00197E-04-1.00285E-16
 -1        75 1.23879E-03 5.68904E-04-3.03787E-16
 -1        76 1.50245E-03 6.18231E-04-5.93997E-16
 -1        77 1.76717E-03 6.53495E-04-9.72370E-16
 -1        78 2.03394E-03 6.78379E-04-1.43964E-15
 -1        79 2.30314E-03 6.95568E-04-1.99256E-15
 -1        80 2.57482E-03 7.07071E-04-2.62922E-15
 -1        81 2.84884E-03 7.14403E-04-3.34820E-15
 -1        82 3.12497E-03 7.18705E-04-4.15164E-15
 -1        83 3.40294E-03 7.20821E-04-5.03583E-15
 -1        84 3.68247E-03 7.21365E-04-6.00240E-15
 -1        85 3.96329E-03 7.20765E-04-7.05820E-15
 -1        86 4.24520E-03 7.19305E-04-8.20106E-15
 -1        87 4.52801E-03 7.17156E-04-9.43064E-15
 -1        88 4.81161E-03 7.14401E-04-1.07446E-14
 -1        89 5.09595E-03 7.11059E-04-1.21369E-14
 -1        90 5.38106E-03 7.07108E-04-1.36076E-14
 -1        91 5.66705E-03 7.02505E-04-1.51549E-14
 -1        92 5.95414E-03 6.97207E-04-1.67739E-14
 -1        93 6.24267E-03 6.91208E-04-1.84606E-14
 -1        94 6.53311E-03 6.84568E-04-2.02254E-14
 -1        95 6.82610E-03 6.77468E-04-2.20583E-14
 -1        96 7.12245E-03 6.70277E-04-2.39573E-14
 -1        97 7.42318E-03 6.63635E-04-2.59196E-14
 -1        98 7.72945E-03 6.58570E-04-2.79378E-14
 -1        99 8.04256E-03 6.56627E-04-2.99966E-14
 -1       100 8.36381E-03 6.60012E-04-3.20993E-14
 -1       101 8.69422E-03 6.71704E-04-3.42424E-14
 -1       102 9.03414E-03 6.95451E-04-3.64167E-14
 -1       103 9.38259E-03 7.35492E-04-3.86147E-14
 -1       104 9.73644E-03 7.95761E-04-4.08316E-14
 -1       105 1.00897E-02 8.78303E-04-4.30918E-14
 -1       106 1.04337E-02 9.80850E-04-4.54093E-14
 -1       107 1.07581E-02 1.09424E-03-4.77717E-14
 -1       108 1.10552E-02 1.20138E-03-5.01741E-14
 -1       109 1.13242E-02 1.28018E-03-5.26197E-14
 -1       110 1.15743E-02 1.31100E-03-5.51021E-14
 -1       111 1.18218E-02 1.28556E-03-5.76048E-14
 -1       112 1.20832E-02 1.21086E-03-6.01562E-14
 -1       113 1.23677E-02 1.10524E-03-6.27442E-14
 -1       114 1.26742E-02 9.89414E-04-6.53632E-14
 -1       115 1.29946E-02 8.78830E-04-6.79989E-14
 -1       116 1.33185E-02 7.80551E-04-7.06278E-14
 -1       117 1.36369E-02 6.94165E-04-7.32378E-14
 -1       118 1.39446E-02 6.14469E-04-7.58435E-14
 -1       119 1.42407E-02 5.34390E-04-7.84534E-14
 -1       120 1.45281E-02 4.47972E-04-8.10622E-14
 -1       121 1.48924E-02 2.74624E-04-8.39226E-14
 -1       122 1.49928E-02 1.92160E-04-8.43305E-14
 -1       123 1.51005E-02 1.18662E-04-8.47316E-14
 -1       124 1.52107E-02 5.94643E-05-8.51642E-14
 -1       125 1.53160E-02 1.80430E-05-8.55894E-14
 -1       126 1.54059E-02-4.21149E-06-8.59904E-14
 -1       127 1.54739E-02-9.87939E-06-8.63846E-14
 -1       128 1.55103E-02-3.50528E-06-8.67882E-14
 -1       129 1.55101E-02 7.19013E-06-8.71981E-14
 -1       130 1.54735E-02 1.34824E-05-8.76063E-14
 -1       131 1.54053E-02 7.67083E-06-8.79786E-14
 -1       132 1.53153E-02-1.47713E-05-8.83353E-14
 -1       133 1.52100E-02-5.63891E-05-8.86891E-14
 -1       134 1.50998E-02-1.15788E-04-8.90501E-14
 -1       135 1.49924E-02-1.89641E-04-8.94087E-14
 -1       136 1.48922E-02-2.71875E-04-8.97479E-14
 -1       137 1.38179E-02 1.87150E-04-6.32140E-14
 -1       138 1.36695E-02 3.63033E-04-6.26814E-14
 -1       139 1.34285E-02 5.25795E-04-6.19251E-14
 -1       140 1.30777E-02 6.76959E-04-6.09005E-14
 -1       141 1.26994E-02 7.83099E-04-5.98353E-14
 -1       142 1.22274E-02 8.63295E-04-5.85405E-14
 -1       143 1.17570E-02 8.94806E-04-5.72808E-14
 -1       144 1.12576E-02 8.81774E-04-5.59640E-14
 -1       145 1.07800E-02 8.23167E-04-5.47506E-14
 -1       146 1.03627E-02 7.28742E-04-5.37155E-14
 -1       147 1.00014E-02 6.02858E-04-5.28507E-14
 -1       148 9.69625E-03 4.42275E-04-5.21544E-14
 -1       149 9.50335E-03 2.78373E-04-5.17560E-14
 -1       150 9.40092E-03 1.05370E-04-5.15999E-14
 -1       151 9.39297E-03-7.15812E-05-5.17153E-14
 -1       152 9.47708E-03-2.42007E-04-5.20714E-14
 -1       153 9.65160E-03-4.06808E-04-5.26653E-14
 -1       154 1.02278E-02-6.83204E-04-5.44081E-14
 -1       155 1.06192E-02-7.87887E-04-5.55282E-14
 -1       156 1.10348E-02-8.56183E-04-5.66817E-14
 -1       157 1.14950E-02-8.89874E-04-5.79262E-14
 -1       158 1.19537E-02-8.82654E-04-5.91336E-14
 -1       159 1.23988E-02-8.36051E-04-6.02735E-14
 -1       160 1.28273E-02-7.48089E-04-6.13389E-14
 -1       161 1.31761E-02-6.36925E-04-6.21755E-14
 -1       162 1.34605E-02-5.03949E-04-6.28246E-14
 -1       163 1.36805E-02-3.49182E-04-6.32826E-14
 -1       164 1.38168E-02-1.84196E-04-6.35131E-14
 -1       165 2.40410E-04-1.25533E-04-2.36187E-17
 -1       166 2.25275E-04-9.46318E-05-3.61446E-17
 -1       167 2.19513E-04-7.27908E-05-4.25380E-17
 -1       168 2.16714E-04-5.51150E-05-4.56381E-17
 -1       169 2.15219E-04-3.99754E-05-4.66986E-17
 -1       170 2.14384E-04-2.59229E-05-4.69697E-17
 -1       171 2.13965E-04-1.26483E-05-4.64547E-17
 -1       172 2.13844E-04 2.72652E-07-4.56415E-17
 -1       173 2.13985E-04 1.32060E-05-4.44455E-17
 -1       174 2.14425E-04 2.65205E-05-4.26667E-17
 -1       175 2.15268E-04 4.04034E-05-4.00613E-17
 -1       176 2.16816E-04 5.59258E-05-3.60192E-17
 -1       177 2.19673E-04 7.38296E-05-2.95818E-17
 -1       178 2.25446E-04 9.60316E-05-1.93598E-17
 -1       179 2.39339E-04 1.27610E-04-2.57837E-18
 -1       180 2.97718E-04 1.85517E-04 1.59208E-17
 -1       181 4.68637E-04-2.63580E-04-6.31412E-17
 -1       182 7.66785E-04-3.82192E-04-2.19727E-16
 -1       183 1.05063E-03-4.65097E-04-4.72018E-16
 -1       184 1.32802E-03-5.23895E-04-8.19569E-16
 -1       185 1.60261E-03-5.65604E-04-1.26097E-15
 -1       186 1.87648E-03-5.94911E-04-1.79655E-15
 -1       187 2.15076E-03-6.15117E-04-2.42454E-15
 -1       188 2.42605E-03-6.28640E-04-3.14318E-15
 -1       189 2.70259E-03-6.37284E-04-3.95168E-15
 -1       190 2.98047E-03-6.42399E-04-4.84700E-15
 -1       191 3.25962E-03-6.44986E-04-5.82420E-15
 -1       192 3.53995E-03-6.45773E-04-6.88111E-15
 -1       193 3.82131E-03-6.45274E-04-8.01882E-15
 -1       194 4.10359E-03-6.43834E-04-9.23341E-15
 -1       195 4.38666E-03-6.41668E-04-1.05254E-14
 -1       196 4.67046E-03-6.38886E-04-1.18963E-14
 -1       197 4.95494E-03-6.35522E-04-1.33469E-14
 -1       198 5.24012E-03-6.31556E-04-1.48725E-14
 -1       199 5.52607E-03-6.26931E-04-1.64664E-14
 -1       200 5.81295E-03-6.21579E-04-1.81279E-14
 -1       201 6.10099E-03-6.15442E-04-1.98626E-14
 -1       202 6.39052E-03-6.08511E-04-2.16728E-14
 -1       203 6.68198E-03-6.00864E-04-2.35649E-14
 -1       204 6.97591E-03-5.92726E-04-2.55326E-14
 -1       205 7.27301E-03-5.84546E-04-2.75698E-14
 -1       206 7.57406E-03-5.77107E-04-2.96705E-14
 -1       207 7.87993E-03-5.71648E-04-3.18270E-14
 -1       208 8.19151E-03-5.70028E-04-3.40360E-14
 -1       209 8.50959E-03-5.74883E-04-3.62949E-14
 -1       210 8.83463E-03-5.89728E-04-3.86051E-14
 -1       211 9.16650E-03-6.18891E-04-4.09557E-14
 -1       212 9.50405E-03-6.67057E-04-4.33453E-14
 -1       213 9.84470E-03-7.38106E-04-4.57705E-14
 -1       214 1.01842E-02-8.32990E-04-4.82253E-14
 -1       215 1.05169E-02-9.46747E-04-5.07088E-14
 -1       216 1.08371E-02-1.06584E-03-5.32248E-14
 -1       217 1.11416E-02-1.16836E-03-5.57739E-14
 -1       218 1.14320E-02-1.22976E-03-5.83509E-14
 -1       219 1.17157E-02-1.23312E-03-6.09547E-14
 -1       220 1.20022E-02-1.17778E-03-6.35867E-14
 -1       221 1.22990E-02-1.07943E-03-6.62526E-14
 -1       222 1.26076E-02-9.61380E-04-6.89517E-14
 -1       223 1.29247E-02-8.44036E-04-7.16852E-14
 -1       224 1.32444E-02-7.39051E-04-7.44554E-14
 -1       225 1.35612E-02-6.48920E-04-7.72431E-14
 -1       226 1.38712E-02-5.69587E-04-8.00434E-14
 -1       227 1.41727E-02-4.93665E-04-8.28478E-14
 -1       228 1.44661E-02-4.13356E-04-8.56615E-14
 -1       229 6.04582E-04 3.31074E-04-3.36814E-17
 -1       230 8.93679E-04 4.32712E-04-1.61956E-16
 -1       231 1.17257E-03 5.04479E-04-3.73579E-16
 -1       232 1.44691E-03 5.55586E-04-6.70095E-16
 -1       233 1.71971E-03 5.91851E-04-1.05254E-15
 -1       234 1.99258E-03 6.17251E-04-1.52193E-15
 -1       235 2.26638E-03 6.34656E-04-2.07785E-15
 -1       236 2.54149E-03 6.46190E-04-2.71677E-15
 -1       237 2.81806E-03 6.53448E-04-3.43807E-15
 -1       238 3.09606E-03 6.57620E-04-4.24225E-15
 -1       239 3.37540E-03 6.59584E-04-5.12816E-15
 -1       240 3.65593E-03 6.59975E-04-6.09640E-15
 -1       241 3.93750E-03 6.59233E-04-7.15191E-15
 -1       242 4.21997E-03 6.57645E-04-8.29105E-15
 -1       243 4.50324E-03 6.55384E-04-9.51435E-15
 -1       244 4.78723E-03 6.52526E-04-1.08218E-14
 -1       245 5.07191E-03 6.49084E-04-1.22096E-14
 -1       246 5.35734E-03 6.45022E-04-1.36746E-14
 -1       247 5.64360E-03 6.40279E-04-1.52137E-14
 -1       248 5.93090E-03 6.34791E-04-1.68296E-14
 -1       249 6.21952E-03 6.28521E-04-1.85153E-14
 -1       250 6.50983E-03 6.21493E-04-2.02731E-14
 -1       251 6.80236E-03 6.13843E-04-2.20982E-14
 -1       252 7.09772E-03 6.05882E-04-2.39888E-14
 -1       253 7.39670E-03 5.98188E-04-2.59423E-14
 -1       254 7.70016E-03 5.91717E-04-2.79506E-14
 -1       255 8.00904E-03 5.87946E-04-3.00061E-14
 -1       256 8.32424E-03 5.89030E-04-3.21034E-14
 -1       257 8.64649E-03 5.97945E-04-3.42430E-14
 -1       258 8.97600E-03 6.18540E-04-3.64170E-14
 -1       259 9.31217E-03 6.55326E-04-3.86188E-14
 -1       260 9.65306E-03 7.12769E-04-4.08460E-14
 -1       261 9.99505E-03 7.93752E-04-4.31106E-14
 -1       262 1.03328E-02 8.97043E-04-4.54269E-14
 -1       263 1.06600E-02 1.01430E-03-4.77883E-14
 -1       264 1.09714E-02 1.12839E-03-5.01908E-14
 -1       265 1.12659E-02 1.21569E-03-5.26327E-14
 -1       266 1.15479E-02 1.25393E-03-5.51086E-14
 -1       267 1.18270E-02 1.23252E-03-5.76169E-14
 -1       268 1.21130E-02 1.15790E-03-6.01701E-14
 -1       269 1.24115E-02 1.04970E-03-6.27536E-14
 -1       270 1.27223E-02 9.30632E-04-6.53711E-14
 -1       271 1.30403E-02 8.17705E-04-6.80044E-14
 -1       272 1.33593E-02 7.18701E-04-7.06377E-14
 -1       273 1.36739E-02 6.33212E-04-7.32581E-14
 -1       274 1.39807E-02 5.55605E-04-7.58764E-14
 -1       275 1.42787E-02 4.78112E-04-7.84909E-14
 -1       276 1.45694E-02 3.93828E-04-8.11056E-14
 -1       277 1.46945E-02 3.15960E-04-8.18606E-14
 -1       278 1.48012E-02 2.39400E-04-8.22555E-14
 -1       279 1.49142E-02 1.71545E-04-8.26543E-14
 -1       280 1.50272E-02 1.14855E-04-8.30542E-14
 -1       281 1.51294E-02 7.14484E-05-8.34424E-14
 -1       282 1.52144E-02 3.96073E-05-8.38350E-14
 -1       283 1.52702E-02 1.78469E-05-8.42324E-14
 -1       284 1.52896E-02 1.75422E-06-8.46283E-14
 -1       285 1.52699E-02-1.43671E-05-8.50119E-14
 -1       286 1.52138E-02-3.62051E-05-8.53873E-14
 -1       287 1.51303E-02-6.75218E-05-8.57424E-14
 -1       288 1.50264E-02-1.11701E-04-8.60928E-14
 -1       289 1.49135E-02-1.68523E-04-8.64388E-14
 -1       290 1.48006E-02-2.36510E-04-8.67824E-14
 -1       291 1.46309E-02-3.23033E-04-8.62258E-14
 -1       292 1.38798E-02 5.30210E-05-6.44337E-14
 -1       293 1.37395E-02 1.65608E-04-6.39515E-14
 -1       294 1.34808E-02 3.04667E-04-6.31871E-14
 -1       295 1.31117E-02 4.70126E-04-6.22243E-14
 -1       296 1.27198E-02 6.63499E-04-6.09190E-14
 -1       297 1.23043E-02 8.33316E-04-5.95494E-14
 -1       298 1.19182E-02 9.44464E-04-5.79814E-14
 -1       299 1.15271E-02 9.75733E-04-5.64531E-14
 -1       300 1.11233E-02 8.99007E-04-5.49962E-14
 -1       301 1.07238E-02 7.56565E-04-5.36835E-14
 -1       302 1.03321E-02 5.78557E-04-5.25760E-14
 -1       303 9.96085E-03 3.81076E-04-5.15532E-14
 -1       304 9.63800E-03 2.32635E-04-5.10377E-14
 -1       305 9.43592E-03 1.11079E-04-5.07226E-14
 -1       306 9.35730E-03 1.01667E-05-5.07014E-14
 -1       307 9.41233E-03-8.77899E-05-5.09701E-14
 -1       308 9.59066E-03-2.02573E-04-5.15148E-14
 -1       309 9.87706E-03-3.42537E-04-5.22782E-14
 -1       310 1.02194E-02-5.11255E-04-5.33008E-14
 -1       311 1.05884E-02-6.88003E-04-5.45031E-14
 -1       312 1.09587E-02-8.43065E-04-5.58634E-14
 -1       313 1.13290E-02-9.42676E-04-5.72699E-14
 -1       314 1.17008E-02-9.66500E-04-5.87119E-14
 -1       315 1.20713E-02-9.07330E-04-6.00960E-14
 -1       316 1.24457E-02-7.75908E-04-6.14820E-14
 -1       317 1.28434E-02-6.09317E-04-6.25264E-14
 -1       318 1.31954E-02-4.41248E-04-6.34063E-14
 -1       319 1.35069E-02-2.87294E-04-6.40654E-14
 -1       320 1.37442E-02-1.58131E-04-6.44776E-14
 -1       321 1.38815E-02-4.59371E-05-6.47601E-14
 -1       322 4.55391E-04-1.64839E-04-1.44802E-16
 -1       323 4.74265E-04-2.13015E-04-1.24948E-16
 -1       324 4.40441E-04-9.40432E-05-1.61123E-16
 -1       325 4.37483E-04-6.49325E-05-1.63006E-16
 -1       326 4.35863E-04-3.79180E-05-1.62796E-16
 -1       327 4.35154E-04-1.20216E-05-1.60902E-16
 -1       328 4.35185E-04 1.35400E-05-1.57768E-16
 -1       329 4.35961E-04 3.94934E-05-1.53083E-16
 -1       330 4.37626E-04 6.61567E-05-1.46574E-16
 -1       331 4.40680E-04 9.54371E-05-1.37057E-16
 -1       332 4.46067E-04 1.28353E-04-1.23403E-16
 -1       333 4.55901E-04 1.67335E-04-1.03375E-16
 -1       334 4.75895E-04 2.17077E-04-7.36343E-17
 -1       335 5.32026E-04 2.70006E-04-5.86215E-17
 -1       336 8.24507E-04 3.73561E-04-1.93571E-16
 -1       337 8.63279E-04-3.57457E-04-3.85962E-16
 -1       338 1.14963E-03-4.26237E-04-6.95363E-16
 -1       339 1.43241E-03-4.75427E-04-1.09671E-15
 -1       340 1.71312E-03-5.10176E-04-1.58941E-15
 -1       341 1.99289E-03-5.34282E-04-2.17366E-15
 -1       342 2.27246E-03-5.50561E-04-2.84749E-15
 -1       343 2.55232E-03-5.61122E-04-3.60837E-15
 -1       344 2.83273E-03-5.67546E-04-4.45681E-15
 -1       345 3.11379E-03-5.71010E-04-5.38879E-15
 -1       346 3.39555E-03-5.72375E-04-6.40163E-15
 -1       347 3.67798E-03-5.72256E-04-7.49418E-15
 -1       348 3.96104E-03-5.71077E-04-8.66433E-15
 -1       349 4.24467E-03-5.69106E-04-9.91198E-15
 -1       350 4.52885E-03-5.66496E-04-1.12378E-14
 -1       351 4.81355E-03-5.63308E-04-1.26405E-14
 -1       352 5.09877E-03-5.59534E-04-1.41194E-14
 -1       353 5.38458E-03-5.55121E-04-1.56710E-14
 -1       354 5.67104E-03-5.49990E-04-1.72921E-14
 -1       355 5.95832E-03-5.44057E-04-1.89849E-14
 -1       356 6.24660E-03-5.37265E-04-2.07489E-14
 -1       357 6.53617E-03-5.29618E-04-2.25917E-14
 -1       358 6.82735E-03-5.21228E-04-2.45144E-14
 -1       359 7.12057E-03-5.12388E-04-2.65044E-14
 -1       360 7.41633E-03-5.03656E-04-2.85608E-14
 -1       361 7.71521E-03-4.95973E-04-3.06775E-14
 -1       362 8.01788E-03-4.90809E-04-3.28479E-14
 -1       363 8.32503E-03-4.90325E-04-3.50707E-14
 -1       364 8.63739E-03-4.97532E-04-3.73401E-14
 -1       365 8.95562E-03-5.16371E-04-3.96559E-14
 -1       366 9.28021E-03-5.51573E-04-4.20121E-14
 -1       367 9.61115E-03-6.08060E-04-4.44057E-14
 -1       368 9.94745E-03-6.89506E-04-4.68316E-14
 -1       369 1.02864E-02-7.95730E-04-4.92881E-14
 -1       370 1.06233E-02-9.19049E-04-5.17734E-14
 -1       371 1.09521E-02-1.04112E-03-5.42920E-14
 -1       372 1.12693E-02-1.13443E-03-5.68490E-14
 -1       373 1.15770E-02-1.17198E-03-5.94286E-14
 -1       374 1.18833E-02-1.14181E-03-6.20380E-14
 -1       375 1.21964E-02-1.05455E-03-6.46785E-14
 -1       376 1.25187E-02-9.36031E-04-6.73573E-14
 -1       377 1.28464E-02-8.12496E-04-7.00687E-14
 -1       378 1.31735E-02-7.00675E-04-7.28114E-14
 -1       379 1.34953E-02-6.06151E-04-7.55827E-14
 -1       380 1.38089E-02-5.26306E-04-7.83712E-14
 -1       381 1.41137E-02-4.54055E-04-8.11658E-14
 -1       382 1.43751E-02-3.91987E-04-8.36914E-14
 -1       383 1.10999E-03 4.47901E-04-4.09188E-16
 -1       384 1.39073E-03 5.00982E-04-7.08187E-16
 -1       385 1.66903E-03 5.38609E-04-1.09156E-15
 -1       386 1.94642E-03 5.64902E-04-1.56059E-15
 -1       387 2.22382E-03 5.82864E-04-2.11513E-15
 -1       388 2.50178E-03 5.94725E-04-2.75314E-15
 -1       389 2.78056E-03 6.02155E-04-3.47322E-15
 -1       390 3.06027E-03 6.06399E-04-4.27595E-15
 -1       391 3.34091E-03 6.08375E-04-5.16006E-15
 -1       392 3.62244E-03 6.08743E-04-6.12545E-15
 -1       393 3.90477E-03 6.07962E-04-7.17635E-15
 -1       394 4.18782E-03 6.06333E-04-8.31101E-15
 -1       395 4.47153E-03 6.04031E-04-9.52722E-15
 -1       396 4.75584E-03 6.01139E-04-1.08275E-14
 -1       397 5.04077E-03 5.97665E-04-1.22092E-14
 -1       398 5.32634E-03 5.93568E-04-1.36658E-14
 -1       399 5.61265E-03 5.88779E-04-1.51985E-14
 -1       400 5.89984E-03 5.83218E-04-1.68074E-14
 -1       401 6.18814E-03 5.76829E-04-1.84883E-14
 -1       402 6.47785E-03 5.69609E-04-2.02386E-14
 -1       403 6.76937E-03 5.61656E-04-2.20566E-14
 -1       404 7.06319E-03 5.53236E-04-2.39389E-14
 -1       405 7.35988E-03 5.44863E-04-2.58822E-14
 -1       406 7.66013E-03 5.37416E-04-2.78833E-14
 -1       407 7.96467E-03 5.32277E-04-2.99331E-14
 -1       408 8.27426E-03 5.31495E-04-3.20245E-14
 -1       409 8.58957E-03 5.37945E-04-3.41611E-14
 -1       410 8.91108E-03 5.55409E-04-3.63345E-14
 -1       411 9.23884E-03 5.88462E-04-3.85375E-14
 -1       412 9.57220E-03 6.41893E-04-4.07692E-14
 -1       413 9.90932E-03 7.19360E-04-4.30353E-14
 -1       414 1.02469E-02 8.20960E-04-4.53498E-14
 -1       415 1.05800E-02 9.39947E-04-4.77097E-14
 -1       416 1.09035E-02 1.06012E-03-5.01106E-14
 -1       417 1.12142E-02 1.15681E-03-5.25483E-14
 -1       418 1.15142E-02 1.20452E-03-5.50204E-14
 -1       419 1.18108E-02 1.18907E-03-5.75283E-14
 -1       420 1.21124E-02 1.11572E-03-6.00802E-14
 -1       421 1.24234E-02 1.00559E-03-6.26630E-14
 -1       422 1.27427E-02 8.83757E-04-6.52791E-14
 -1       423 1.30653E-02 7.68867E-04-6.79134E-14
 -1       424 1.33859E-02 6.69307E-04-7.05477E-14
 -1       425 1.37007E-02 5.84682E-04-7.31776E-14
 -1       426 1.40075E-02 5.09115E-04-7.58034E-14
 -1       427 1.43060E-02 4.34473E-04-7.84251E-14
 -1       428 1.45016E-02 3.77283E-04-8.01448E-14
 -1       429 1.47286E-02 2.02788E-04-8.05424E-14
 -1       430 1.46110E-02 2.72278E-04-8.01622E-14
 -1       431 1.45535E-02 3.23475E-04-8.01545E-14
 -1       432 1.48408E-02 1.43161E-04-8.09144E-14
 -1       433 1.49415E-02 9.24630E-05-8.12929E-14
 -1       434 1.50174E-02 5.13921E-05-8.16779E-14
 -1       435 1.50583E-02 1.74003E-05-8.20621E-14
 -1       436 1.50581E-02-1.39876E-05-8.24414E-14
 -1       437 1.50169E-02-4.80248E-05-8.28092E-14
 -1       438 1.49424E-02-8.84077E-05-8.31612E-14
 -1       439 1.48419E-02-1.39026E-04-8.35055E-14
 -1       440 1.47277E-02-1.99688E-04-8.38436E-14
 -1       441 1.46103E-02-2.69289E-04-8.41812E-14
 -1       442 1.36047E-02 1.64135E-04-6.47057E-14
 -1       443 1.39204E-02 5.68713E-06-6.59675E-14
 -1       444 1.38349E-02 6.76438E-05-6.53753E-14
 -1       445 1.32808E-02 3.00153E-04-6.38592E-14
 -1       446 1.28360E-02 5.24792E-04-6.23082E-14
 -1       447 4.45679E-04-1.26448E-04-1.55668E-16
 -1       448 1.20312E-02 9.26355E-04-5.88201E-14
 -1       449 1.17264E-02 1.00189E-03-5.72844E-14
 -1       450 1.13353E-02 9.72643E-04-5.52849E-14
 -1       451 1.09854E-02 8.38906E-04-5.38518E-14
 -1       452 1.06016E-02 6.39861E-04-5.24087E-14
 -1       453 1.02338E-02 4.29877E-04-5.10464E-14
 -1       454 9.80098E-03 2.23866E-04-5.01278E-14
 -1       455 9.52845E-03 1.13550E-04-4.98049E-14
 -1       456 9.36695E-03 3.70769E-05-4.96804E-14
 -1       457 9.35277E-03-2.11431E-05-4.97565E-14
 -1       458 9.48743E-03-8.84989E-05-5.01018E-14
 -1       459 9.74062E-03-1.98981E-04-5.09534E-14
 -1       460 1.00949E-02-3.64267E-04-5.20162E-14
 -1       461 1.04752E-02-5.59623E-04-5.32379E-14
 -1       462 1.08557E-02-7.68260E-04-5.48264E-14
 -1       463 1.11945E-02-9.22674E-04-5.63894E-14
 -1       464 1.15231E-02-9.99194E-04-5.80734E-14
 -1       465 1.18487E-02-9.78822E-04-5.97906E-14
 -1       466 1.21432E-02-8.77865E-04-6.11800E-14
 -1       467 1.25941E-02-6.51602E-04-6.29749E-14
 -1       468 1.29555E-02-4.70860E-04-6.38664E-14
 -1       469 1.33117E-02-2.89391E-04-6.48996E-14
 -1       470 1.36209E-02-1.58136E-04-6.53914E-14
 -1       471 1.38278E-02-6.42216E-05-6.59946E-14
 -1       472 1.24883E-02 7.12078E-04-6.09222E-14
 -1       473 1.22459E-02 8.30984E-04-6.01850E-14
 -1       474 9.31257E-04 3.46096E-04-3.57600E-16
 -1       475 6.65849E-04-7.51606E-05-3.47304E-16
 -1       476 6.69811E-04-1.15932E-04-3.45739E-16
 -1       477 6.63184E-04 1.10509E-06-3.40318E-16
 -1       478 6.63902E-04 3.87808E-05-3.32576E-16
 -1       479 6.66037E-04 7.68468E-05-3.21754E-16
 -1       480 6.70122E-04 1.17769E-04-3.06545E-16
 -1       481 6.77122E-04 1.62394E-04-2.85769E-16
 -1       482 6.89028E-04 2.12763E-04-2.56651E-16
 -1       483 1.30648E-02 3.90643E-04-6.42609E-14
 -1       484 1.21714E-03 4.06603E-04-6.32490E-16
 -1       485 9.76301E-04-3.28691E-04-5.68976E-16
 -1       486 1.26221E-03-3.83595E-04-9.32051E-16
 -1       487 1.54723E-03-4.23359E-04-1.38436E-15
 -1       488 1.83135E-03-4.51428E-04-1.92601E-15
 -1       489 2.11488E-03-4.70696E-04-2.55651E-15
 -1       490 2.39815E-03-4.83449E-04-3.27238E-15
 -1       491 2.68138E-03-4.91446E-04-4.07415E-15
 -1       492 2.96476E-03-4.96020E-04-4.95990E-15
 -1       493 3.24837E-03-4.98163E-04-5.92868E-15
 -1       494 3.53227E-03-4.98592E-04-6.97749E-15
 -1       495 3.81646E-03-4.97811E-04-8.10318E-15
 -1       496 4.10095E-03-4.96153E-04-9.30620E-15
 -1       497 4.38573E-03-4.93818E-04-1.05863E-14
 -1       498 4.67081E-03-4.90904E-04-1.19435E-14
 -1       499 4.95618E-03-4.87428E-04-1.33764E-14
 -1       500 5.24188E-03-4.83354E-04-1.48839E-14
 -1       501 5.52795E-03-4.78605E-04-1.64624E-14
 -1       502 5.81445E-03-4.73091E-04-1.81145E-14
 -1       503 6.10148E-03-4.66725E-04-1.98382E-14
 -1       504 6.38917E-03-4.59463E-04-2.16343E-14
 -1       505 6.67769E-03-4.51335E-04-2.35080E-14
 -1       506 6.96725E-03-4.42501E-04-2.54548E-14
 -1       507 7.25811E-03-4.33325E-04-2.74651E-14
 -1       508 7.55061E-03-4.24463E-04-2.95417E-14
 -1       509 7.84520E-03-4.16984E-04-3.16740E-14
 -1       510 8.14245E-03-4.12510E-04-3.38579E-14
 -1       511 8.44317E-03-4.13376E-04-3.60946E-14
 -1       512 8.74848E-03-4.22783E-04-3.83756E-14
 -1       513 9.05989E-03-4.44889E-04-4.06969E-14
 -1       514 9.37929E-03-4.84732E-04-4.30575E-14
 -1       515 9.70857E-03-5.47718E-04-4.54533E-14
 -1       516 1.00485E-02-6.38163E-04-4.78774E-14
 -1       517 1.03969E-02-7.56015E-04-5.03330E-14
 -1       518 1.07473E-02-8.91357E-04-5.28245E-14
 -1       519 1.10901E-02-1.01869E-03-5.53523E-14
 -1       520 1.14203E-02-1.09991E-03-5.79120E-14
 -1       521 1.17438E-02-1.10395E-03-6.05004E-14
 -1       522 1.20725E-02-1.03008E-03-6.31169E-14
 -1       523 1.24124E-02-9.08057E-04-6.57710E-14
 -1       524 1.27586E-02-7.74961E-04-6.84576E-14
 -1       525 1.31016E-02-6.55016E-04-7.11809E-14
 -1       526 1.34345E-02-5.56560E-04-7.39325E-14
 -1       527 1.37551E-02-4.77267E-04-7.67045E-14
 -1       528 1.40637E-02-4.09745E-04-7.94857E-14
 -1       529 1.78398E-03 4.81191E-04-1.43049E-15
 -1       530 2.06596E-03 5.02544E-04-1.95496E-15
 -1       531 2.34769E-03 5.16846E-04-2.56292E-15
 -1       532 2.62951E-03 5.25999E-04-3.25361E-15
 -1       533 2.91164E-03 5.31438E-04-4.02601E-15
 -1       534 3.19417E-03 5.34231E-04-4.87943E-15
 -1       535 3.47715E-03 5.35154E-04-5.81448E-15
 -1       536 3.76059E-03 5.34758E-04-6.83065E-15
 -1       537 4.04448E-03 5.33412E-04-7.93006E-15
 -1       538 4.32878E-03 5.31343E-04-9.11139E-15
 -1       539 4.61348E-03 5.28672E-04-1.03748E-14
 -1       540 4.89859E-03 5.25433E-04-1.17193E-14
 -1       541 5.18413E-03 5.21600E-04-1.31420E-14
 -1       542 5.47013E-03 5.17106E-04-1.46404E-14
 -1       543 5.75670E-03 5.11863E-04-1.62148E-14
 -1       544 6.04395E-03 5.05787E-04-1.78638E-14
 -1       545 6.33204E-03 4.98825E-04-1.95802E-14
 -1       546 6.62120E-03 4.90997E-04-2.13657E-14
 -1       547 6.91170E-03 4.82447E-04-2.32164E-14
 -1       548 7.20388E-03 4.73512E-04-2.51297E-14
 -1       549 7.49815E-03 4.64815E-04-2.70995E-14
 -1       550 7.79502E-03 4.57387E-04-2.91252E-14
 -1       551 8.09507E-03 4.52810E-04-3.11960E-14
 -1       552 8.39905E-03 4.53380E-04-3.33116E-14
 -1       553 8.70783E-03 4.62259E-04-3.54725E-14
 -1       554 9.02248E-03 4.83546E-04-3.76662E-14
 -1       555 9.34416E-03 5.22139E-04-3.98897E-14
 -1       556 9.67381E-03 5.83113E-04-4.21465E-14
 -1       557 1.00113E-02 6.70250E-04-4.44435E-14
 -1       558 1.03543E-02 7.82994E-04-4.67877E-14
 -1       559 1.06973E-02 9.12037E-04-4.91715E-14
 -1       560 1.10328E-02 1.03561E-03-5.15928E-14
 -1       561 1.13564E-02 1.12136E-03-5.40451E-14
 -1       562 1.16722E-02 1.14061E-03-5.65416E-14
 -1       563 1.19900E-02 1.08685E-03-5.90774E-14
 -1       564 1.23172E-02 9.80210E-04-6.16507E-14
 -1       565 1.26525E-02 8.52749E-04-6.42534E-14
 -1       566 1.29890E-02 7.30148E-04-6.68816E-14
 -1       567 1.33198E-02 6.24948E-04-6.95213E-14
 -1       568 1.36413E-02 5.38388E-04-7.21623E-14
 -1       569 1.39524E-02 4.65090E-04-7.48042E-14
 -1       570 1.42537E-02 3.96673E-04-7.74386E-14
 -1       571 1.46560E-02 1.48364E-04-7.87712E-14
 -1       572 1.47531E-02 9.11709E-05-7.91385E-14
 -1       573 1.44203E-02 2.89693E-04-7.80528E-14
 -1       574 1.45412E-02 2.14989E-04-7.84120E-14
 -1       575 1.48186E-02 4.34876E-05-7.95112E-14
 -1       576 1.48416E-02 1.69641E-06-7.98809E-14
 -1       577 1.48182E-02-4.01222E-05-8.02399E-14
 -1       578 1.47539E-02-8.69988E-05-8.05839E-14
 -1       579 1.46570E-02-1.44105E-04-8.09233E-14
 -1       580 1.45414E-02-2.11253E-04-8.12588E-14
 -1       581 1.44194E-02-2.86657E-04-8.15898E-14
 -1       582 1.39213E-02 2.95802E-05-6.71262E-14
 -1       583 1.35077E-02 1.86681E-04-6.58805E-14
 -1       584 1.50124E-03 4.50291E-04-9.89606E-16
 -1       585 1.39466E-02-1.91475E-05-6.78379E-14
 -1       586 1.37686E-02 8.59519E-05-6.64458E-14
 -1       587 7.12650E-04-2.51782E-04-3.21805E-16
 -1       588 1.37295E-02-9.58483E-05-6.69966E-14
 -1       589 1.16582E-02-1.02026E-03-5.89846E-14
 -1       590 6.63791E-04-3.65354E-05-3.45237E-16
 -1       591 1.11349E-02 9.10331E-04-5.38403E-14
 -1       592 1.18626E-02 9.90471E-04-5.81184E-14
 -1       593 1.28177E-02-5.14328E-04-6.48105E-14
 -1       594 1.15434E-02 1.02555E-03-5.61688E-14
 -1       595 1.08224E-02 7.47728E-04-5.23997E-14
 -1       596 1.04915E-02 5.58506E-04-5.10373E-14
 -1       597 9.97808E-03 2.88670E-04-4.92500E-14
 -1       598 9.61580E-03 1.30671E-04-4.87590E-14
 -1       599 9.39931E-03 5.14854E-05-4.83851E-14
 -1       600 9.31570E-03 1.03201E-05-4.84580E-14
 -1       601 9.37370E-03-3.66845E-05-4.88547E-14
 -1       602 9.59719E-03-1.19001E-04-4.94817E-14
 -1       603 9.90129E-03-2.46849E-04-5.05144E-14
 -1       604 1.02629E-02-4.27799E-04-5.16817E-14
 -1       605 1.06913E-02-6.72823E-04-5.33985E-14
 -1       606 1.09847E-02-8.35136E-04-5.49437E-14
 -1       607 1.13814E-02-9.93060E-04-5.72959E-14
 -1       608 1.19872E-02-9.46619E-04-6.09953E-14
 -1       609 1.23466E-02-7.75459E-04-6.28477E-14
 -1       610 1.31373E-02-3.48076E-04-6.58490E-14
 -1       611 1.34828E-02-1.91085E-04-6.64988E-14
 -1       612 1.26424E-02 6.14634E-04-6.22430E-14
 -1       613 7.03818E-04 2.90944E-04-1.88004E-16
 -1       614 1.13383E-02 1.00276E-03-5.47111E-14
 -1       615 6.76597E-04-1.60171E-04-3.39548E-16
 -1       616 1.01966E-02 4.14748E-04-4.92379E-14
 -1       617 1.42641E-02-3.67802E-04-8.13791E-14
 -1       618 8.99810E-04 7.41438E-05-5.65567E-16
 -1       619 8.97726E-04 2.51908E-05-5.80194E-16
 -1       620 9.11855E-04 1.78291E-04-5.17402E-16
 -1       621 9.24212E-04 2.36864E-04-4.80451E-16
 -1       622 9.68296E-03 1.82027E-04-4.74233E-14
 -1       623 1.04888E-03 3.14003E-04-5.44910E-16
 -1       624 1.24065E-02 7.59628E-04-6.14832E-14
 -1       625 1.38330E-03-3.37154E-04-1.18252E-15
 -1       626 1.66950E-03-3.68079E-04-1.68288E-15
 -1       627 1.95571E-03-3.89866E-04-2.27024E-15
 -1       628 2.24175E-03-4.04654E-04-2.94289E-15
 -1       629 2.52761E-03-4.14227E-04-3.69914E-15
 -1       630 2.81333E-03-4.19992E-04-4.53950E-15
 -1       631 3.09895E-03-4.23027E-04-5.46326E-15
 -1       632 3.38453E-03-4.24128E-04-6.46717E-15
 -1       633 3.67009E-03-4.23869E-04-7.54998E-15
 -1       634 3.95567E-03-4.22641E-04-8.70874E-15
 -1       635 4.24127E-03-4.20694E-04-9.94345E-15
 -1       636 4.52691E-03-4.18164E-04-1.12561E-14
 -1       637 4.81260E-03-4.15103E-04-1.26442E-14
 -1       638 5.09834E-03-4.11497E-04-1.41068E-14
 -1       639 5.38415E-03-4.07285E-04-1.56430E-14
 -1       640 5.67004E-03-4.02384E-04-1.72520E-14
 -1       641 5.95602E-03-3.96700E-04-1.89361E-14
 -1       642 6.24211E-03-3.90159E-04-2.06905E-14
 -1       643 6.52835E-03-3.82735E-04-2.25168E-14
 -1       644 6.81477E-03-3.74492E-04-2.44178E-14
 -1       645 7.10143E-03-3.65633E-04-2.63844E-14
 -1       646 7.38845E-03-3.56570E-04-2.84172E-14
 -1       647 7.67603E-03-3.48008E-04-3.05115E-14
 -1       648 7.96453E-03-3.41048E-04-3.26606E-14
 -1       649 8.25457E-03-3.37311E-04-3.48612E-14
 -1       650 8.54724E-03-3.39084E-04-3.71085E-14
 -1       651 8.84434E-03-3.49493E-04-3.93983E-14
 -1       652 9.14861E-03-3.72729E-04-4.17256E-14
 -1       653 9.46386E-03-4.14292E-04-4.40892E-14
 -1       654 9.79451E-03-4.81041E-04-4.64846E-14
 -1       655 1.01431E-02-5.80119E-04-4.89096E-14
 -1       656 1.05089E-02-7.14230E-04-5.13664E-14
 -1       657 1.08799E-02-8.69962E-04-5.38634E-14
 -1       658 1.12410E-02-1.00650E-03-5.63985E-14
 -1       659 1.15888E-02-1.06535E-03-5.89678E-14
 -1       660 1.19362E-02-1.01488E-03-6.15649E-14
 -1       661 1.22973E-02-8.84236E-04-6.41941E-14
 -1       662 1.26673E-02-7.32246E-04-6.68568E-14
 -1       663 1.30320E-02-5.98731E-04-6.95539E-14
 -1       664 1.33801E-02-4.95735E-04-7.22909E-14
 -1       665 1.37090E-02-4.18648E-04-7.50489E-14
 -1       666 1.40214E-02-3.57871E-04-7.78157E-14
 -1       667 2.19066E-03 4.37555E-04-2.36538E-15
 -1       668 1.41239E-02 3.45125E-04-7.53974E-14
 -1       669 1.90567E-03 4.20808E-04-1.78620E-15
 -1       670 2.76010E-03 4.55340E-04-3.76744E-15
 -1       671 3.04477E-03 4.59115E-04-4.59065E-15
 -1       672 3.32952E-03 4.60752E-04-5.49503E-15
 -1       673 3.61437E-03 4.60885E-04-6.48038E-15
 -1       674 3.89937E-03 4.59950E-04-7.54518E-15
 -1       675 4.18450E-03 4.58231E-04-8.69097E-15
 -1       676 4.46979E-03 4.55891E-04-9.92028E-15
 -1       677 4.75524E-03 4.52999E-04-1.12290E-14
 -1       678 5.04086E-03 4.49552E-04-1.26162E-14
 -1       679 5.32668E-03 4.45501E-04-1.40820E-14
 -1       680 5.61271E-03 4.40760E-04-1.56225E-14
 -1       681 5.89901E-03 4.35238E-04-1.72369E-14
 -1       682 6.18563E-03 4.28855E-04-1.89210E-14
 -1       683 6.47264E-03 4.21577E-04-2.06749E-14
 -1       684 6.76016E-03 4.13454E-04-2.24945E-14
 -1       685 7.04832E-03 4.04678E-04-2.43768E-14
 -1       686 7.33729E-03 3.95648E-04-2.63201E-14
 -1       687 7.62736E-03 3.87064E-04-2.83200E-14
 -1       688 7.91889E-03 3.80040E-04-3.03685E-14
 -1       689 8.21252E-03 3.76234E-04-3.24627E-14
 -1       690 8.50919E-03 3.78005E-04-3.46056E-14
 -1       691 8.81038E-03 3.88566E-04-3.67908E-14
 -1       692 9.11827E-03 4.12136E-04-3.90038E-14
 -1       693 9.43572E-03 4.53969E-04-4.12525E-14
 -1       694 9.76585E-03 5.20048E-04-4.35379E-14
 -1       695 1.01106E-02 6.15837E-04-4.58606E-14
 -1       696 1.04672E-02 7.42071E-04-4.82266E-14
 -1       697 1.08275E-02 8.86867E-04-5.06321E-14
 -1       698 1.11789E-02 1.01738E-03-5.30713E-14
 -1       699 1.15170E-02 1.08636E-03-5.55481E-14
 -1       700 1.18515E-02 1.06212E-03-5.80709E-14
 -1       701 1.21962E-02 9.57858E-04-6.06296E-14
 -1       702 1.25522E-02 8.18198E-04-6.32222E-14
 -1       703 1.29094E-02 6.82861E-04-6.58463E-14
 -1       704 1.32566E-02 5.70816E-04-6.84831E-14
 -1       705 1.35885E-02 4.83505E-04-7.11313E-14
 -1       706 1.38607E-02 4.09008E-04-7.32625E-14
 -1       707 1.46217E-02 2.48053E-05-7.73335E-14
 -1       708 1.42227E-02-3.22602E-04-7.96984E-14
 -1       709 1.44744E-02 1.37009E-04-7.66192E-14
 -1       710 1.46215E-02-2.14038E-05-7.76856E-14
 -1       711 1.45689E-02 7.54167E-05-7.69777E-14
 -1       712 1.28359E-02 5.32780E-04-6.38415E-14
 -1       713 1.45696E-02-7.11708E-05-7.80195E-14
 -1       714 1.44754E-02-1.32648E-04-7.83591E-14
 -1       715 1.43560E-02-2.06633E-04-7.86891E-14
 -1       716 8.72354E-04-2.47222E-04-5.06766E-16
 -1       717 1.34017E-02-2.46849E-04-6.77829E-14
 -1       718 1.37825E-02 1.13130E-04-6.82166E-14
 -1       719 1.39460E-02 5.49979E-05-6.89023E-14
 -1       720 1.03880E-02-5.35709E-04-5.13805E-14
 -1       721 9.45203E-03 8.24386E-05-4.73785E-14
 -1       722 1.25950E-02-6.62011E-04-6.48510E-14
 -1       723 1.62032E-03 3.96324E-04-1.28998E-15
 -1       724 2.47542E-03 4.48547E-04-3.02513E-15
 -1       725 1.12693E-03-2.97197E-04-8.09564E-16
 -1       726 1.21752E-02-8.88957E-04-6.27084E-14
 -1       727 9.04249E-04 1.24666E-04-5.44883E-16
 -1       728 1.33707E-02 2.82657E-04-6.65779E-14
 -1       729 1.17976E-02-1.01876E-03-6.01770E-14
 -1       730 9.03879E-04-1.22254E-04-5.96901E-16
 -1       731 1.38976E-02-6.15397E-05-6.91725E-14
 -1       732 1.33462E-03 3.61647E-04-8.76266E-16
 -1       733 1.06450E-02 6.76212E-04-5.07858E-14
 -1       734 1.09303E-02 8.35374E-04-5.22069E-14
 -1       735 1.17100E-02 1.03844E-03-5.71533E-14
 -1       736 9.41320E-03-6.41844E-05-4.79342E-14
 -1       737 9.29519E-03 2.54025E-05-4.72003E-14
 -1       738 9.26263E-03-1.08897E-05-4.70653E-14
 -1       739 9.68996E-03-1.75613E-04-4.86626E-14
 -1       740 9.98788E-03-3.11303E-04-4.98069E-14
 -1       741 1.08296E-02-7.79717E-04-5.37920E-14
 -1       742 1.12129E-02-9.65934E-04-5.61851E-14
 -1       743 1.15197E-02-1.03454E-03-5.82637E-14
 -1       744 1.30226E-02-4.35934E-04-6.67686E-14
 -1       745 1.36404E-02-1.46064E-04-6.82830E-14
 -1       746 1.40507E-02 6.02331E-06-6.96221E-14
 -1       747 1.20509E-02 9.39944E-04-5.93996E-14
 -1       748 9.11257E-04-1.75656E-04-5.91571E-16
 -1       749 8.97664E-04-2.31666E-05-5.90480E-16
 -1       750 9.86743E-03 2.85044E-04-4.74082E-14
 -1       751 1.43560E-02 2.10448E-04-7.62708E-14
 -1       752 1.31701E-02 4.08189E-04-6.61487E-14
 -1       753 1.40886E-02-2.78091E-05-7.09625E-14
 -1       754 1.41906E-02-2.77752E-04-7.82544E-14
 -1       755 8.99602E-04-7.18571E-05-5.96176E-16
 -1       756 1.16155E-03 2.43708E-04-7.74825E-16
 -1       757 1.79734E-03-3.09594E-04-1.99099E-15
 -1       758 2.08501E-03-3.25670E-04-2.62074E-15
 -1       759 2.37282E-03-3.36422E-04-3.33319E-15
 -1       760 2.66054E-03-3.43194E-04-4.12818E-15
 -1       761 2.94805E-03-3.47063E-04-5.00605E-15
 -1       762 3.23532E-03-3.48853E-04-5.96620E-15
 -1       763 3.52235E-03-3.49174E-04-7.00464E-15
 -1       764 3.80914E-03-3.48457E-04-8.12021E-15
 -1       765 4.09571E-03-3.46988E-04-9.31049E-15
 -1       766 4.38208E-03-3.44940E-04-1.05779E-14
 -1       767 4.66825E-03-3.42395E-04-1.19220E-14
 -1       768 4.95422E-03-3.39368E-04-1.33401E-14
 -1       769 5.23998E-03-3.35823E-04-1.48345E-14
 -1       770 5.52550E-03-3.31691E-04-1.64013E-14
 -1       771 5.81075E-03-3.26887E-04-1.80424E-14
 -1       772 6.09567E-03-3.21329E-04-1.97571E-14
 -1       773 6.38017E-03-3.14961E-04-2.15412E-14
 -1       774 6.66416E-03-3.07780E-04-2.33963E-14
 -1       775 6.94754E-03-2.99876E-04-2.53198E-14
 -1       776 7.23023E-03-2.91472E-04-2.73089E-14
 -1       777 7.51217E-03-2.82986E-04-2.93629E-14
 -1       778 7.79344E-03-2.75085E-04-3.14762E-14
 -1       779 8.07430E-03-2.68769E-04-3.36394E-14
 -1       780 8.35542E-03-2.65456E-04-3.58507E-14
 -1       781 8.63814E-03-2.67119E-04-3.81095E-14
 -1       782 8.92487E-03-2.76527E-04-4.04089E-14
 -1       783 9.21963E-03-2.97757E-04-4.27413E-14
 -1       784 9.52832E-03-3.37087E-04-4.51070E-14
 -1       785 9.85904E-03-4.04272E-04-4.75015E-14
 -1       786 1.29779E-02-5.31302E-04-6.79386E-14
 -1       787 1.33409E-02-4.20999E-04-7.06523E-14
 -1       788 1.36756E-02-3.47850E-04-7.33970E-14
 -1       789 1.39382E-02-3.10016E-04-7.58247E-14
 -1       790 2.03276E-03 3.57743E-04-2.16034E-15
 -1       791 3.18008E-03 3.85490E-04-5.16915E-15
 -1       792 2.89350E-03 3.83081E-04-4.29562E-15
 -1       793 3.75277E-03 3.85814E-04-7.15669E-15
 -1       794 4.03893E-03 3.84549E-04-8.26960E-15
 -1       795 4.32499E-03 3.82645E-04-9.46291E-15
 -1       796 4.61095E-03 3.80208E-04-1.07373E-14
 -1       797 4.89683E-03 3.77264E-04-1.20901E-14
 -1       798 5.18263E-03 3.73787E-04-1.35202E-14
 -1       799 5.46833E-03 3.69709E-04-1.50279E-14
 -1       800 5.75392E-03 3.64944E-04-1.66085E-14
 -1       801 6.03939E-03 3.59404E-04-1.82599E-14
 -1       802 6.32469E-03 3.53024E-04-1.99827E-14
 -1       803 6.60980E-03 3.45794E-04-2.17717E-14
 -1       804 6.89467E-03 3.37796E-04-2.36243E-14
 -1       805 7.17930E-03 3.29251E-04-2.55391E-14
 -1       806 7.46371E-03 3.20587E-04-2.75149E-14
 -1       807 7.74804E-03 3.12508E-04-2.95443E-14
 -1       808 8.03262E-03 3.06087E-04-3.16184E-14
 -1       809 8.31812E-03 3.02875E-04-3.37402E-14
 -1       810 8.60581E-03 3.05037E-04-3.59092E-14
 -1       811 8.89788E-03 3.15568E-04-3.81142E-14
 -1       812 9.19783E-03 3.38664E-04-4.03525E-14
 -1       813 9.51066E-03 3.80244E-04-4.26280E-14
 -1       814 9.84182E-03 4.48764E-04-4.49362E-14
 -1       815 1.01978E-02 5.53327E-04-4.72819E-14
 -1       816 1.32028E-02 5.03778E-04-6.74407E-14
 -1       817 1.35458E-02 4.16397E-04-7.00927E-14
 -1       818 9.27281E-03 5.33812E-05-4.56857E-14
 -1       819 1.13833E-03 5.90848E-05-8.76527E-16
 -1       820 1.37122E-02 1.98966E-04-6.92038E-14
 -1       821 1.44285E-02 1.70075E-06-7.51447E-14
 -1       822 1.41757E-02-1.89244E-04-7.61401E-14
 -1       823 9.43475E-03-1.08714E-04-4.68702E-14
 -1       824 1.33475E-02-3.35965E-04-6.92379E-14
 -1       825 1.74571E-03 3.39183E-04-1.60994E-15
 -1       826 1.39863E-02 9.04343E-05-7.04063E-14
 -1       827 1.43035E-02-1.09748E-04-7.58099E-14
 -1       828 3.46649E-03 3.86238E-04-6.12353E-15
 -1       829 9.43209E-03 1.22063E-04-4.57327E-14
 -1       830 1.51024E-03-2.86613E-04-1.44618E-15
 -1       831 9.18155E-03 1.13113E-05-4.55490E-14
 -1       832 1.43950E-02-4.75677E-05-7.54797E-14
 -1       833 1.38345E-02-1.16995E-04-7.03019E-14
 -1       834 9.74674E-03-2.50516E-04-4.79477E-14
 -1       835 1.24622E-03 3.00940E-04-8.29100E-16
 -1       836 1.00641E-02-4.11699E-04-4.93190E-14
 -1       837 9.24421E-03-4.03013E-05-4.60137E-14
 -1       838 1.36396E-02-1.92063E-04-6.97989E-14
 -1       839 1.41265E-02 3.14646E-05-7.11311E-14
 -1       840 1.13697E-03 1.20098E-06-8.94436E-16
 -1       841 9.57869E-03 1.99190E-04-4.57167E-14
 -1       842 1.41751E-02 1.93632E-04-7.41192E-14
 -1       843 1.25391E-03-2.56313E-04-1.03088E-15
 -1       844 1.28486E-02 5.98602E-04-6.47076E-14
 -1       845 2.60675E-03 3.78321E-04-3.50316E-15
 -1       846 1.38245E-02 3.44865E-04-7.22257E-14
 -1       847 1.43031E-02 1.13693E-04-7.44599E-14
 -1       848 2.31982E-03 3.70280E-04-2.79153E-15
 -1       849 1.43951E-02 5.13072E-05-7.48036E-14
 -1       850 1.40155E-02 2.97054E-04-7.36903E-14
 -1       851 1.35414E-02 2.97098E-04-6.87675E-14
 -1       852 1.14243E-03 1.17859E-04-8.51583E-16
 -1       853 1.49561E-03 3.24242E-04-1.18654E-15
 -1       854 1.40823E-02-6.79959E-05-7.21030E-14
 -1       855 1.14983E-03 1.79048E-04-8.18207E-16
 -1       856 9.10652E-03-1.43008E-05-4.45072E-14
 -1       857 1.14206E-03-1.15246E-04-9.11594E-16
 -1       858 1.40585E-02-2.46463E-04-7.59829E-14
 -1       859 1.14929E-03-1.76215E-04-9.09331E-16
 -1       860 1.64168E-03-2.31836E-04-1.72140E-15
 -1       861 1.13817E-03-5.65390E-05-9.06376E-16
 -1       862 1.42869E-02-4.86999E-06-7.33741E-14
 -1       863 2.21845E-03-2.58930E-04-2.97703E-15
 -1       864 2.50755E-03-2.66190E-04-3.72749E-15
 -1       865 2.79658E-03-2.70598E-04-4.56064E-15
 -1       866 3.08536E-03-2.72928E-04-5.47503E-15
 -1       867 3.37377E-03-2.73776E-04-6.46886E-15
 -1       868 3.66179E-03-2.73574E-04-7.54021E-15
 -1       869 3.94939E-03-2.72623E-04-8.68782E-15
 -1       870 4.23658E-03-2.71115E-04-9.91128E-15
 -1       871 4.52337E-03-2.69157E-04-1.12102E-14
 -1       872 4.80973E-03-2.66788E-04-1.25843E-14
 -1       873 5.09566E-03-2.63999E-04-1.40346E-14
 -1       874 5.38110E-03-2.60742E-04-1.55604E-14
 -1       875 5.66598E-03-2.56952E-04-1.71597E-14
 -1       876 5.95018E-03-2.52552E-04-1.88322E-14
 -1       877 6.23355E-03-2.47479E-04-2.05776E-14
 -1       878 6.51591E-03-2.41697E-04-2.23900E-14
 -1       879 6.79704E-03-2.35223E-04-2.42715E-14
 -1       880 7.07668E-03-2.28157E-04-2.62193E-14
 -1       881 7.35457E-03-2.20711E-04-2.82303E-14
 -1       882 7.63049E-03-2.13248E-04-3.03041E-14
 -1       883 7.90431E-03-2.06308E-04-3.24315E-14
 -1       884 8.17612E-03-2.00651E-04-3.46090E-14
 -1       885 8.44641E-03-1.97303E-04-3.68329E-14
 -1       886 8.71640E-03-1.97673E-04-3.91018E-14
 -1       887 8.98855E-03-2.03860E-04-4.14084E-14
 -1       888 9.26751E-03-2.19494E-04-4.37444E-14
 -1       889 9.50415E-03-2.27172E-04-4.58350E-14
 -1       890 1.36765E-02-2.69541E-04-7.19667E-14
 -1       891 4.17933E-03 3.08811E-04-9.00518E-15
 -1       892 3.89239E-03 3.10204E-04-7.84575E-15
 -1       893 4.75226E-03 3.04562E-04-1.15630E-14
 -1       894 5.03824E-03 3.01762E-04-1.29594E-14
 -1       895 5.32386E-03 2.98466E-04-1.44318E-14
 -1       896 5.60906E-03 2.94605E-04-1.59804E-14
 -1       897 5.89377E-03 2.90098E-04-1.75997E-14
 -1       898 6.17789E-03 2.84873E-04-1.92902E-14
 -1       899 6.46127E-03 2.78885E-04-2.10492E-14
 -1       900 6.74375E-03 2.72145E-04-2.28728E-14
 -1       901 7.02515E-03 2.64753E-04-2.47602E-14
 -1       902 7.30530E-03 2.56935E-04-2.67095E-14
 -1       903 7.58406E-03 2.49087E-04-2.87190E-14
 -1       904 7.86141E-03 2.41825E-04-3.07745E-14
 -1       905 8.13755E-03 2.36039E-04-3.28776E-14
 -1       906 8.41312E-03 2.32966E-04-3.50263E-14
 -1       907 8.68950E-03 2.34318E-04-3.72196E-14
 -1       908 8.96927E-03 2.42570E-04-3.94496E-14
 -1       909 9.25688E-03 2.61829E-04-4.17143E-14
 -1       910 9.56072E-03 2.98471E-04-4.40100E-14
 -1       911 9.22736E-03 8.62532E-05-4.42425E-14
 -1       912 1.87598E-03 2.78836E-04-1.94981E-15
 -1       913 1.40080E-02-1.61848E-04-7.35987E-14
 -1       914 4.46595E-03 3.06912E-04-1.02442E-14
 -1       915 3.02957E-03 3.09502E-04-4.83834E-15
 -1       916 1.92963E-03-2.47853E-04-2.30816E-15
 -1       917 1.40213E-02 1.50833E-04-7.18776E-14
 -1       918 9.11419E-03 3.49305E-05-4.41068E-14
 -1       919 2.16430E-03 2.92111E-04-2.55204E-15
 -1       920 9.22505E-03-8.18538E-05-4.49616E-14
 -1       921 1.38959E-02-1.52547E-04-7.20378E-14
 -1       922 1.42179E-02 6.59698E-05-7.28351E-14
 -1       923 9.33852E-03 1.43821E-04-4.42304E-14
 -1       924 1.38499E-03-2.09790E-04-1.26697E-15
 -1       925 1.38401E-03-9.71325E-05-1.28659E-15
 -1       926 2.74132E-03 3.06430E-04-3.99580E-15
 -1       927 1.37510E-02 2.77625E-04-7.07195E-14
 -1       928 3.31751E-03 3.10842E-04-5.76151E-15
 -1       929 1.38690E-02-2.56627E-04-7.39709E-14
 -1       930 3.60511E-03 3.10958E-04-6.76417E-15
 -1       931 8.99988E-03 7.36565E-06-4.30723E-14
 -1       932 9.04876E-03-4.77355E-05-4.34639E-14
 -1       933 2.45285E-03 3.00934E-04-3.23427E-15
 -1       934 1.62456E-03 2.70174E-04-1.48026E-15
 -1       935 1.40133E-03 2.37076E-04-1.13865E-15
 -1       936 1.38429E-03 1.00020E-04-1.22613E-15
 -1       937 1.38113E-03 3.40204E-05-1.25448E-15
 -1       938 1.38105E-03-3.13423E-05-1.27463E-15
 -1       939 2.35545E-03-1.89780E-04-3.33860E-15
 -1       940 2.64548E-03-1.94163E-04-4.12712E-15
 -1       941 2.93540E-03-1.96685E-04-4.99548E-15
 -1       942 3.22499E-03-1.97859E-04-5.94405E-15
 -1       943 3.51411E-03-1.98072E-04-6.97071E-15
 -1       944 3.80270E-03-1.97602E-04-8.07492E-15
 -1       945 4.09074E-03-1.96637E-04-9.25490E-15
 -1       946 4.37821E-03-1.95289E-04-1.05101E-14
 -1       947 4.66509E-03-1.93614E-04-1.18400E-14
 -1       948 4.95136E-03-1.91622E-04-1.32459E-14
 -1       949 5.23697E-03-1.89291E-04-1.47286E-14
 -1       950 5.52180E-03-1.86576E-04-1.62867E-14
 -1       951 5.80573E-03-1.83421E-04-1.79185E-14
 -1       952 6.08858E-03-1.79769E-04-1.96226E-14
 -1       953 6.37009E-03-1.75576E-04-2.13953E-14
 -1       954 6.64996E-03-1.70827E-04-2.32359E-14
 -1       955 6.92785E-03-1.65549E-04-2.51439E-14
 -1       956 7.20333E-03-1.59833E-04-2.71166E-14
 -1       957 7.47596E-03-1.53847E-04-2.91498E-14
 -1       958 7.74529E-03-1.47849E-04-3.12398E-14
 -1       959 8.01088E-03-1.42190E-04-3.33787E-14
 -1       960 8.27240E-03-1.37305E-04-3.55685E-14
 -1       961 8.52975E-03-1.33722E-04-3.78064E-14
 -1       962 8.78328E-03-1.32110E-04-4.00870E-14
 -1       963 9.03475E-03-1.33801E-04-4.23973E-14
 -1       964 4.03314E-03 2.34323E-04-8.54511E-15
 -1       965 5.17947E-03 2.26793E-04-1.38367E-14
 -1       966 4.89371E-03 2.29236E-04-1.23973E-14
 -1       967 5.74897E-03 2.20560E-04-1.69388E-14
 -1       968 6.03244E-03 2.16642E-04-1.85979E-14
 -1       969 6.31481E-03 2.12116E-04-2.03274E-14
 -1       970 6.59582E-03 2.06955E-04-2.21220E-14
 -1       971 6.87518E-03 2.01187E-04-2.39833E-14
 -1       972 7.15255E-03 1.94910E-04-2.59062E-14
 -1       973 7.42758E-03 1.88318E-04-2.78909E-14
 -1       974 7.69992E-03 1.81723E-04-2.99282E-14
 -1       975 7.96931E-03 1.75566E-04-3.20129E-14
 -1       976 8.23566E-03 1.70438E-04-3.41443E-14
 -1       977 8.49923E-03 1.67103E-04-3.63233E-14
 -1       978 8.76092E-03 1.66607E-04-3.85419E-14
 -1       979 9.02310E-03 1.70620E-04-4.07948E-14
 -1       980 2.01029E-03 2.15276E-04-2.30932E-15
 -1       981 2.29963E-03 2.24016E-04-2.96188E-15
 -1       982 2.06574E-03-1.82899E-04-2.63221E-15
 -1       983 1.77693E-03-1.72791E-04-2.00666E-15
 -1       984 9.03752E-03 6.62044E-05-4.25953E-14
 -1       985 1.39081E-03 1.67355E-04-1.18799E-15
 -1       986 5.46460E-03 2.23922E-04-1.53504E-14
 -1       987 1.61282E-03 1.95395E-04-1.54156E-15
 -1       988 2.87882E-03 2.33117E-04-4.50365E-15
 -1       989 3.74527E-03 2.35186E-04-7.41737E-15
 -1       990 4.32051E-03 2.33002E-04-9.75046E-15
 -1       991 4.60737E-03 2.31300E-04-1.10350E-14
 -1       992 8.90906E-03-2.31644E-05-4.20368E-14
 -1       993 8.89551E-03 3.41775E-05-4.15682E-14
 -1       994 2.58926E-03 2.29706E-04-3.69334E-15
 -1       995 9.11700E-03 1.11910E-04-4.25840E-14
 -1       996 3.16807E-03 2.34871E-04-5.39564E-15
 -1       997 1.60512E-03 1.22450E-04-1.59007E-15
 -1       998 1.60111E-03 5.07228E-05-1.62713E-15
 -1       999 1.77071E-03-9.72946E-05-1.99752E-15
 -1      1000 2.43827E-03 1.53636E-04-3.38810E-15
 -1      1001 2.49560E-03-1.18433E-04-3.70621E-15
 -1      1002 5.32060E-03 1.52637E-04-1.47207E-14
 -1      1003 2.78623E-03-1.20594E-04-4.52909E-15
 -1      1004 3.07666E-03-1.21734E-04-5.43127E-15
 -1      1005 3.36666E-03-1.22140E-04-6.41401E-15
 -1      1006 3.65609E-03-1.22022E-04-7.47314E-15
 -1      1007 3.94490E-03-1.21530E-04-8.60868E-15
 -1      1008 4.23304E-03-1.20759E-04-9.82065E-15
 -1      1009 4.52049E-03-1.19761E-04-1.11074E-14
 -1      1010 4.80721E-03-1.18559E-04-1.24700E-14
 -1      1011 5.09315E-03-1.17147E-04-1.39080E-14
 -1      1012 5.37822E-03-1.15503E-04-1.54239E-14
 -1      1013 5.66226E-03-1.13593E-04-1.70144E-14
 -1      1014 5.94509E-03-1.11381E-04-1.86765E-14
 -1      1015 6.22643E-03-1.08832E-04-2.04104E-14
 -1      1016 6.50596E-03-1.05923E-04-2.22115E-14
 -1      1017 6.78327E-03-1.02651E-04-2.40783E-14
 -1      1018 7.05787E-03-9.90454E-05-2.60146E-14
 -1      1019 7.32918E-03-9.51695E-05-2.80105E-14
 -1      1020 7.59656E-03-9.11290E-05-3.00639E-14
 -1      1021 7.85926E-03-8.70628E-05-3.21675E-14
 -1      1022 8.11641E-03-8.31234E-05-3.43186E-14
 -1      1023 8.36701E-03-7.94573E-05-3.65223E-14
 -1      1024 8.60979E-03-7.61355E-05-3.87727E-14
 -1      1025 1.76804E-03-2.26380E-05-1.97729E-15
 -1      1026 5.03529E-03 1.54497E-04-1.32404E-14
 -1      1027 6.17032E-03 1.44921E-04-1.96043E-14
 -1      1028 5.88832E-03 1.47896E-04-1.79049E-14
 -1      1029 6.72914E-03 1.37616E-04-2.32053E-14
 -1      1030 7.00517E-03 1.33306E-04-2.51038E-14
 -1      1031 7.27830E-03 1.28648E-04-2.70641E-14
 -1      1032 7.54798E-03 1.23775E-04-2.90798E-14
 -1      1033 7.81359E-03 1.18882E-04-3.11470E-14
 -1      1034 8.07450E-03 1.14203E-04-3.32599E-14
 -1      1035 8.33002E-03 1.09981E-04-3.54232E-14
 -1      1036 8.57956E-03 1.06489E-04-3.76307E-14
 -1      1037 8.82256E-03 1.04147E-04-3.98733E-14
 -1      1038 2.72866E-03 1.56827E-04-4.16806E-15
 -1      1039 2.14811E-03 1.48583E-04-2.68639E-15
 -1      1040 2.20515E-03-1.14891E-04-2.96263E-15
 -1      1041 8.84397E-03-7.28450E-05-4.10672E-14
 -1      1042 5.60500E-03 1.50453E-04-1.62772E-14
 -1      1043 6.45072E-03 1.41497E-04-2.13719E-14
 -1      1044 3.45691E-03 2.35446E-04-6.36782E-15
 -1      1045 4.74919E-03 1.56071E-04-1.18344E-14
 -1      1046 1.87329E-03 9.80115E-05-2.12836E-15
 -1      1047 4.46238E-03 1.57384E-04-1.05066E-14
 -1      1048 3.01890E-03 1.58646E-04-5.02822E-15
 -1      1049 8.77724E-03 2.77049E-06-4.05408E-14
 -1      1050 3.88680E-03 1.59195E-04-8.08319E-15
 -1      1051 4.17491E-03 1.58437E-04-9.25544E-15
 -1      1052 6.30799E-03 7.51553E-05-2.06198E-14
 -1      1053 8.68879E-03-3.43729E-05-3.96590E-14
 -1      1054 2.92940E-03-4.58098E-05-4.93303E-15
 -1      1055 3.21998E-03-4.60606E-05-5.86845E-15
 -1      1056 3.51002E-03-4.60707E-05-6.88283E-15
 -1      1057 3.79943E-03-4.59044E-05-7.97467E-15
 -1      1058 4.08814E-03-4.56141E-05-9.14071E-15
 -1      1059 4.37611E-03-4.52251E-05-1.03855E-14
 -1      1060 4.66331E-03-4.47526E-05-1.17043E-14
 -1      1061 4.94969E-03-4.41996E-05-1.31000E-14
 -1      1062 5.23515E-03-4.35607E-05-1.45720E-14
 -1      1063 5.51958E-03-4.28246E-05-1.61182E-14
 -1      1064 5.80278E-03-4.19771E-05-1.77397E-14
 -1      1065 6.08450E-03-4.10035E-05-1.94346E-14
 -1      1066 6.36441E-03-3.98920E-05-2.11968E-14
 -1      1067 6.64211E-03-3.86364E-05-2.30244E-14
 -1      1068 6.91709E-03-3.72399E-05-2.49214E-14
 -1      1069 7.18876E-03-3.57176E-05-2.68818E-14
 -1      1070 7.45640E-03-3.40981E-05-2.88983E-14
 -1      1071 7.71918E-03-3.24214E-05-3.09671E-14
 -1      1072 7.97606E-03-3.07325E-05-3.30849E-14
 -1      1073 8.22567E-03-2.90661E-05-3.52521E-14
 -1      1074 8.46603E-03-2.74556E-05-3.74709E-14
 -1      1075 6.02749E-03 7.68383E-05-1.88813E-14
 -1      1076 5.17706E-03 8.05693E-05-1.40906E-14
 -1      1077 2.34763E-03-4.41691E-05-3.29845E-15
 -1      1078 7.13522E-03 6.86402E-05-2.62352E-14
 -1      1079 6.86237E-03 7.10449E-05-2.42988E-14
 -1      1080 7.66901E-03 6.33562E-05-3.02763E-14
 -1      1081 7.92828E-03 6.06275E-05-3.23719E-14
 -1      1082 8.18101E-03 5.79483E-05-3.45174E-14
 -1      1083 8.42560E-03 5.52752E-05-3.67120E-14
 -1      1084 8.67010E-03 4.44231E-05-3.91195E-14
 -1      1085 2.57985E-03 8.12447E-05-3.83138E-15
 -1      1086 4.89138E-03 8.14545E-05-1.26433E-14
 -1      1087 4.02947E-03 8.32518E-05-8.76004E-15
 -1      1088 2.28913E-03 7.90539E-05-3.08192E-15
 -1      1089 2.05715E-03-3.32821E-05-2.59728E-15
 -1      1090 6.58644E-03 7.32237E-05-2.24270E-14
 -1      1091 1.96389E-03 3.34838E-05-2.36110E-15
 -1      1092 7.40436E-03 6.60547E-05-2.82297E-14
 -1      1093 5.74531E-03 7.82862E-05-1.72117E-14
 -1      1094 3.59807E-03 1.59586E-04-6.98689E-15
 -1      1095 5.46175E-03 7.95213E-05-1.56148E-14
 -1      1096 2.63850E-03-4.52241E-05-4.07660E-15
 -1      1097 4.60485E-03 8.21945E-05-1.12723E-14
 -1      1098 4.31753E-03 8.27964E-05-9.97725E-15
 -1      1099 3.30874E-03 1.59467E-04-5.96789E-15
 -1      1100 2.87066E-03 8.25917E-05-4.65936E-15
 -1      1101 3.74070E-03 8.35284E-05-7.61796E-15
 -1      1102 8.56178E-03 9.16548E-06-3.82969E-14
 -1      1103 3.36496E-03 3.00140E-05-6.30511E-15
 -1      1104 2.31752E-03 2.24033E-05-3.19070E-15
 -1      1105 3.11781E-03 5.65532E-05-5.45209E-15
 -1      1106 0.00000E+00 0.00000E+00 0.00000E+00
 -1      1107 0.00000E+00 0.00000E+00 0.00000E+00
 -1      1108 0.00000E+00 0.00000E+00 0.00000E+00
 -1      1109 0.00000E+00 0.00000E+00 0.00000E+00
 -1      1110 0.00000E+00 0.00000E+00 0.00000E+00
 -1      1111 0.00000E+00 0.00000E+00 0.00000E+00
 -1      1112 0.00000E+00 0.00000E+00 0.00000E+00
 -1      1113 0.00000E+00 0.00000E+00 0.00000E+00
 -1      1114 0.00000E+00 0.00000E+00 0.00000E+00
 -1      1115 0.00000E+00 0.00000E+00 0.00000E+00
 -1      1116 0.00000E+00 0.00000E+00 0.00000E+00
 -1      1117 0.00000E+00 0.00000E+00 0.00000E+00
 -1      1118 0.00000E+00 0.00000E+00 0.00000E+00
 -1      1119 0.00000E+00 0.00000E+00 0.00000E+00
 -1      1120 0.00000E+00 0.00000E+00 0.00000E+00
 -1      1121 0.00000E+00 0.00000E+00 0.00000E+00
 -1      1122 0.00000E+00 0.00000E+00 0.00000E+00
 -1      1123 2.11673E-04-1.48338E-04 7.48099E-18
 -1      1124 5.51651E-04-3.37534E-04-3.90990E-17
 -1      1125 8.33476E-04-4.59041E-04-1.75885E-16
 -1      1126 1.10305E-03-5.40740E-04-4.17445E-16
 -1      1127 1.36846E-03-5.98006E-04-7.57925E-16
 -1      1128 1.63327E-03-6.38730E-04-1.19509E-15
 -1      1129 1.89931E-03-6.67560E-04-1.72837E-15
 -1      1130 2.16745E-03-6.87613E-04-2.35524E-15
 -1      1131 2.43796E-03-7.01170E-04-3.07397E-15
 -1      1132 2.71084E-03-7.09949E-04-3.88459E-15
 -1      1133 2.98593E-03-7.15246E-04-4.78399E-15
 -1      1134 3.26298E-03-7.18031E-04-5.76641E-15
 -1      1135 3.54172E-03-7.19015E-04-6.82793E-15
 -1      1136 3.82188E-03-7.18703E-04-7.97115E-15
 -1      1137 4.10324E-03-7.17437E-04-9.19273E-15
 -1      1138 4.38559E-03-7.15435E-04-1.04905E-14
 -1      1139 4.66880E-03-7.12813E-04-1.18694E-14
 -1      1140 4.95277E-03-7.09614E-04-1.33268E-14
 -1      1141 5.23751E-03-7.05828E-04-1.48599E-14
 -1      1142 5.52309E-03-7.01410E-04-1.64615E-14
 -1      1143 5.80966E-03-6.96308E-04-1.81308E-14
 -1      1144 6.09752E-03-6.90483E-04-1.98730E-14
 -1      1145 6.38706E-03-6.83943E-04-2.16920E-14
 -1      1146 6.67885E-03-6.76786E-04-2.35905E-14
 -1      1147 6.97361E-03-6.69257E-04-2.55670E-14
 -1      1148 7.27225E-03-6.61827E-04-2.76166E-14
 -1      1149 7.57584E-03-6.55287E-04-2.97307E-14
 -1      1150 7.88562E-03-6.50885E-04-3.18989E-14
 -1      1151 8.20286E-03-6.50472E-04-3.41244E-14
 -1      1152 8.52869E-03-6.56655E-04-3.64010E-14
 -1      1153 8.86379E-03-6.72900E-04-3.87207E-14
 -1      1154 9.20784E-03-7.03451E-04-4.10842E-14
 -1      1155 9.55884E-03-7.52859E-04-4.34853E-14
 -1      1156 9.91236E-03-8.24796E-04-4.59220E-14
 -1      1157 1.02611E-02-9.19909E-04-4.83930E-14
 -1      1158 1.05957E-02-1.03289E-03-5.08922E-14
 -1      1159 1.09068E-02-1.15008E-03-5.34191E-14
 -1      1160 1.11901E-02-1.25006E-03-5.59802E-14
 -1      1161 1.14494E-02-1.30946E-03-5.85708E-14
 -1      1162 1.16979E-02-1.31242E-03-6.11855E-14
 -1      1163 1.19522E-02-1.25831E-03-6.38250E-14
 -1      1164 1.22255E-02-1.16174E-03-6.64950E-14
 -1      1165 1.25214E-02-1.04484E-03-6.92023E-14
 -1      1166 1.28353E-02-9.27520E-04-7.19483E-14
 -1      1167 1.31576E-02-8.21577E-04-7.47247E-14
 -1      1168 1.34788E-02-7.29876E-04-7.75165E-14
 -1      1169 1.37918E-02-6.48706E-04-8.03221E-14
 -1      1170 1.40936E-02-5.70930E-04-8.31286E-14
 -1      1171 1.43851E-02-4.88992E-04-8.59438E-14
 -1      1172 1.46636E-02-4.01464E-04-8.87158E-14
 -1      1173 2.28433E-04 1.60717E-04 2.50044E-17
 -1      1174 5.53824E-04 3.42167E-04 2.36627E-17
 -1      1175 8.34406E-04 4.61211E-04-5.17164E-17
 -1      1176 1.10395E-03 5.42429E-04-2.12992E-16
 -1      1177 1.36937E-03 5.99687E-04-4.60434E-16
 -1      1178 1.63422E-03 6.40500E-04-7.95344E-16
 -1      1179 1.90032E-03 6.69435E-04-1.21920E-15
 -1      1180 2.16849E-03 6.89607E-04-1.72795E-15
 -1      1181 2.43903E-03 7.03292E-04-2.32279E-15
 -1      1182 2.71193E-03 7.12204E-04-3.00037E-15
 -1      1183 2.98703E-03 7.17636E-04-3.76114E-15
 -1      1184 3.26409E-03 7.20558E-04-4.60604E-15
 -1      1185 3.54283E-03 7.21679E-04-5.53175E-15
 -1      1186 3.82300E-03 7.21503E-04-6.54244E-15
 -1      1187 4.10436E-03 7.20375E-04-7.64068E-15
 -1      1188 4.38672E-03 7.18510E-04-8.82757E-15
 -1      1189 4.66992E-03 7.16025E-04-1.00995E-14
 -1      1190 4.95390E-03 7.12962E-04-1.14517E-14
 -1      1191 5.23864E-03 7.09312E-04-1.28831E-14
 -1      1192 5.52421E-03 7.05032E-04-1.43940E-14
 -1      1193 5.81079E-03 7.00067E-04-1.59778E-14
 -1      1194 6.09864E-03 6.94379E-04-1.76275E-14
 -1      1195 6.38819E-03 6.87977E-04-1.93513E-14
 -1      1196 6.67998E-03 6.80959E-04-2.11517E-14
 -1      1197 6.97473E-03 6.73572E-04-2.30170E-14
 -1      1198 7.27336E-03 6.66283E-04-2.49457E-14
 -1      1199 7.57695E-03 6.59887E-04-2.69354E-14
 -1      1200 7.88670E-03 6.55629E-04-2.89722E-14
 -1      1201 8.20391E-03 6.55360E-04-3.10531E-14
 -1      1202 8.52969E-03 6.61684E-04-3.31771E-14
 -1      1203 8.86471E-03 6.78062E-04-3.53338E-14
 -1      1204 9.20865E-03 7.08728E-04-3.75215E-14
 -1      1205 9.55950E-03 7.58217E-04-3.97291E-14
 -1      1206 9.91282E-03 8.30175E-04-4.19666E-14
 -1      1207 1.02614E-02 9.25213E-04-4.42570E-14
 -1      1208 1.05957E-02 1.03801E-03-4.65970E-14
 -1      1209 1.09067E-02 1.15496E-03-4.89764E-14
 -1      1210 1.11899E-02 1.25475E-03-5.14023E-14
 -1      1211 1.14492E-02 1.31403E-03-5.38684E-14
 -1      1212 1.16976E-02 1.31693E-03-5.63610E-14
 -1      1213 1.19518E-02 1.26281E-03-5.88821E-14
 -1      1214 1.22249E-02 1.16627E-03-6.14538E-14
 -1      1215 1.25206E-02 1.04944E-03-6.40572E-14
 -1      1216 1.28343E-02 9.32202E-04-6.66843E-14
 -1      1217 1.31564E-02 8.26291E-04-6.93109E-14
 -1      1218 1.34774E-02 7.34552E-04-7.19267E-14
 -1      1219 1.37904E-02 6.53275E-04-7.45390E-14
 -1      1220 1.40922E-02 5.75344E-04-7.71511E-14
 -1      1221 1.43836E-02 4.93308E-04-7.97572E-14
 -1      1222 1.46622E-02 4.05595E-04-8.23025E-14
 -1      1223 1.48439E-02 3.18607E-04-8.37295E-14
 -1      1224 1.49405E-02 2.34453E-04-8.41234E-14
 -1      1225 1.50457E-02 1.56401E-04-8.45288E-14
 -1      1226 1.51568E-02 9.01372E-05-8.49443E-14
 -1      1227 1.52675E-02 3.98374E-05-8.53821E-14
 -1      1228 1.53682E-02 7.93945E-06-8.57976E-14
 -1      1229 1.54502E-02-6.35586E-06-8.61932E-14
 -1      1230 1.55045E-02-6.33451E-06-8.65854E-14
 -1      1231 1.55234E-02 1.84052E-06-8.69934E-14
 -1      1232 1.55042E-02 9.97489E-06-8.74054E-14
 -1      1233 1.54497E-02 9.88410E-06-8.77933E-14
 -1      1234 1.53675E-02-4.57791E-06-8.81559E-14
 -1      1235 1.52668E-02-3.66666E-05-8.85095E-14
 -1      1236 1.51561E-02-8.71701E-05-8.88673E-14
 -1      1237 1.50450E-02-1.53690E-04-8.92256E-14
 -1      1238 1.49402E-02-2.31834E-04-8.95782E-14
 -1      1239 1.48445E-02-3.15232E-04-8.99162E-14
 -1      1240 1.38977E-02 8.11590E-05-6.33923E-14
 -1      1241 1.37814E-02 2.40758E-04-6.29791E-14
 -1      1242 1.35598E-02 4.02642E-04-6.23336E-14
 -1      1243 1.32369E-02 5.70093E-04-6.14483E-14
 -1      1244 1.28531E-02 7.22267E-04-6.03987E-14
 -1      1245 1.24284E-02 8.44129E-04-5.92191E-14
 -1      1246 1.19724E-02 9.21366E-04-5.79335E-14
 -1      1247 1.15122E-02 9.35446E-04-5.66312E-14
 -1      1248 1.10456E-02 8.87068E-04-5.53533E-14
 -1      1249 1.06080E-02 7.84617E-04-5.42248E-14
 -1      1250 1.02111E-02 6.47078E-04-5.32704E-14
 -1      1251 9.85407E-03 4.85055E-04-5.24775E-14
 -1      1252 9.57802E-03 3.20196E-04-5.19299E-14
 -1      1253 9.40779E-03 1.65648E-04-5.16495E-14
 -1      1254 9.34308E-03 1.46644E-05-5.16275E-14
 -1      1255 9.38841E-03-1.34381E-04-5.18702E-14
 -1      1256 9.53781E-03-2.85863E-04-5.23499E-14
 -1      1257 9.78312E-03-4.43033E-04-5.30596E-14
 -1      1258 1.00958E-02-5.94662E-04-5.39394E-14
 -1      1259 1.04599E-02-7.33495E-04-5.49715E-14
 -1      1260 1.08612E-02-8.46266E-04-5.61140E-14
 -1      1261 1.12822E-02-9.16540E-04-5.73168E-14
 -1      1262 1.17179E-02-9.34108E-04-5.85459E-14
 -1      1263 1.21485E-02-8.94974E-04-5.97228E-14
 -1      1264 1.25759E-02-8.03074E-04-6.08348E-14
 -1      1265 1.29693E-02-6.76599E-04-6.17881E-14
 -1      1266 1.33043E-02-5.35152E-04-6.25359E-14
 -1      1267 1.35831E-02-3.84537E-04-6.30896E-14
 -1      1268 1.37856E-02-2.32591E-04-6.34323E-14
 -1      1269 1.38966E-02-7.81162E-05-6.35431E-14
 -1      1270 1.66703E-04-1.10348E-04-6.74916E-18
 -1      1271 1.12542E-04-5.69806E-05-2.22804E-17
 -1      1272 1.17624E-04-6.75882E-05-1.79300E-17
 -1      1273 1.08422E-04-4.34975E-05-2.92328E-17
 -1      1274 1.10286E-04-4.96121E-05-2.72270E-17
 -1      1275 2.26332E-04-1.07638E-04-6.42932E-17
 -1      1276 1.06841E-04-3.36200E-05-3.28107E-17
 -1      1277 1.07686E-04-3.83417E-05-3.18349E-17
 -1      1278 2.19103E-04-8.24722E-05-7.64769E-17
 -1      1279 1.06063E-04-2.53586E-05-3.46809E-17
 -1      1280 1.06493E-04-2.93920E-05-3.43014E-17
 -1      1281 2.15868E-04-6.32929E-05-8.31583E-17
 -1      1282 1.05659E-04-1.80975E-05-3.53450E-17
 -1      1283 1.05889E-04-2.16657E-05-3.51688E-17
 -1      1284 2.14209E-04-4.72008E-05-8.62889E-17
 -1      1285 1.05439E-04-1.12437E-05-3.57651E-17
 -1      1286 1.05562E-04-1.46298E-05-3.57922E-17
 -1      1287 2.13293E-04-3.27646E-05-8.76984E-17
 -1      1288 1.05339E-04-4.69131E-06-3.53721E-17
 -1      1289 1.05392E-04-7.94583E-06-3.55483E-17
 -1      1290 2.12798E-04-1.91978E-05-8.78746E-17
 -1      1291 1.05328E-04 1.74350E-06-3.48707E-17
 -1      1292 1.05326E-04-1.47123E-06-3.51010E-17
 -1      1293 2.12584E-04-6.16314E-06-8.70343E-17
 -1      1294 1.05401E-04 8.22795E-06-3.38813E-17
 -1      1295 1.05344E-04 4.96688E-06-3.41253E-17
 -1      1296 2.12592E-04 6.71092E-06-8.52318E-17
 -1      1297 1.05578E-04 1.49376E-05-3.26209E-17
 -1      1298 1.05451E-04 1.15365E-05-3.30004E-17
 -1      1299 2.12824E-04 1.97716E-05-8.25484E-17
 -1      1300 1.05911E-04 2.19582E-05-3.04254E-17
 -1      1301 1.05676E-04 1.83662E-05-3.10217E-17
 -1      1302 2.13334E-04 3.32782E-05-7.87944E-17
 -1      1303 1.06535E-04 2.98261E-05-2.74710E-17
 -1      1304 1.06096E-04 2.57487E-05-2.84739E-17
 -1      1305 2.14275E-04 4.78091E-05-7.33327E-17
 -1      1306 1.07725E-04 3.89253E-05-2.29851E-17
 -1      1307 1.06874E-04 3.41316E-05-2.47063E-17
 -1      1308 2.15979E-04 6.42238E-05-6.56891E-17
 -1      1309 1.10265E-04 5.03517E-05-1.60868E-17
 -1      1310 1.08427E-04 4.41682E-05-1.90955E-17
 -1      1311 2.19205E-04 8.37221E-05-5.43727E-17
 -1      1312 1.16939E-04 6.76236E-05-5.24483E-18
 -1      1313 1.12188E-04 5.77796E-05-1.03812E-17
 -1      1314 2.26319E-04 1.09457E-04-3.78251E-17
 -1      1315 1.57583E-04 1.09864E-04 1.11402E-17
 -1      1316 1.35664E-04 8.60953E-05 1.13841E-18
 -1      1317 2.56042E-04 1.52103E-04-1.80926E-17
 -1      1318 3.35092E-04 2.20748E-04 9.47322E-18
 -1      1319 4.21548E-04-2.61754E-04-4.74338E-17
 -1      1320 5.74647E-04-3.36820E-04-9.36751E-17
 -1      1321 7.21836E-04-3.97429E-04-1.67591E-16
 -1      1322 8.65005E-04-4.46732E-04-2.66958E-16
 -1      1323 6.12079E-04-3.30917E-04-1.55908E-16
 -1      1324 1.00503E-03-4.87813E-04-3.90055E-16
 -1      1325 1.14287E-03-5.21811E-04-5.37697E-16
 -1      1326 9.05313E-04-4.31631E-04-3.60050E-16
 -1      1327 1.27936E-03-5.50592E-04-7.09570E-16
 -1      1328 1.41500E-03-5.74637E-04-9.05539E-16
 -1      1329 1.18774E-03-5.01070E-04-6.60008E-16
 -1      1330 1.55024E-03-5.95009E-04-1.12537E-15
 -1      1331 1.68533E-03-6.12042E-04-1.36886E-15
 -1      1332 1.46466E-03-5.49859E-04-1.05478E-15
 -1      1333 1.82051E-03-6.26363E-04-1.63584E-15
 -1      1334 1.95588E-03-6.38266E-04-1.92629E-15
 -1      1335 1.73934E-03-5.84175E-04-1.54331E-15
 -1      1336 2.09158E-03-6.48153E-04-2.23970E-15
 -1      1337 2.22765E-03-6.56271E-04-2.57643E-15
 -1      1338 2.01363E-03-6.07998E-04-2.12491E-15
 -1      1339 2.36414E-03-6.62896E-04-2.93575E-15
 -1      1340 2.50105E-03-6.68231E-04-3.31752E-15
 -1      1341 2.28851E-03-6.24137E-04-2.79804E-15
 -1      1342 2.63842E-03-6.72470E-04-3.72251E-15
 -1      1343 2.77622E-03-6.75777E-04-4.14893E-15
 -1      1344 2.56448E-03-6.34658E-04-3.56082E-15
 -1      1345 2.91444E-03-6.78288E-04-4.59672E-15
 -1      1346 3.05308E-03-6.80132E-04-5.06626E-15
 -1      1347 2.84170E-03-6.41105E-04-4.41193E-15
 -1      1348 3.19211E-03-6.81404E-04-5.55621E-15
 -1      1349 3.33151E-03-6.82202E-04-6.06638E-15
 -1      1350 3.12022E-03-6.44628E-04-5.34779E-15
 -1      1351 3.47125E-03-6.82591E-04-6.59618E-15
 -1      1352 3.61131E-03-6.82644E-04-7.14549E-15
 -1      1353 3.39995E-03-6.46070E-04-6.36471E-15
 -1      1354 3.75167E-03-6.82401E-04-7.71547E-15
 -1      1355 3.89230E-03-6.81916E-04-8.30565E-15
 -1      1356 3.68078E-03-6.46037E-04-7.46240E-15
 -1      1357 4.03319E-03-6.81212E-04-8.91459E-15
 -1      1358 4.17431E-03-6.80324E-04-9.54282E-15
 -1      1359 3.96258E-03-6.44944E-04-8.63810E-15
 -1      1360 4.31565E-03-6.79263E-04-1.01902E-14
 -1      1361 4.45720E-03-6.78051E-04-1.08577E-14
 -1      1362 4.24525E-03-6.43061E-04-9.89173E-15
 -1      1363 4.59894E-03-6.76687E-04-1.15452E-14
 -1      1364 4.74087E-03-6.75185E-04-1.22521E-14
 -1      1365 4.52868E-03-6.40538E-04-1.12230E-14
 -1      1366 4.88299E-03-6.73535E-04-1.29788E-14
 -1      1367 5.02529E-03-6.71746E-04-1.37245E-14
 -1      1368 4.81282E-03-6.37439E-04-1.26335E-14
 -1      1369 5.16778E-03-6.69801E-04-1.44888E-14
 -1      1370 5.31048E-03-6.67704E-04-1.52705E-14
 -1      1371 5.09766E-03-6.33763E-04-1.41204E-14
 -1      1372 5.45338E-03-6.65436E-04-1.60689E-14
 -1      1373 5.59653E-03-6.63001E-04-1.68850E-14
 -1      1374 5.38324E-03-6.29461E-04-1.56792E-14
 -1      1375 5.73993E-03-6.60375E-04-1.77178E-14
 -1      1376 5.88363E-03-6.57569E-04-1.85690E-14
 -1      1377 5.66969E-03-6.24461E-04-1.73071E-14
 -1      1378 6.02766E-03-6.54560E-04-1.94392E-14
 -1      1379 6.17207E-03-6.51365E-04-2.03274E-14
 -1      1380 5.95720E-03-6.18687E-04-1.90064E-14
 -1      1381 6.31692E-03-6.47967E-04-2.12363E-14
 -1      1382 6.46226E-03-6.44398E-04-2.21632E-14
 -1      1383 6.24604E-03-6.12092E-04-2.07812E-14
 -1      1384 6.60817E-03-6.40649E-04-2.31096E-14
 -1      1385 6.75472E-03-6.36776E-04-2.40763E-14
 -1      1386 6.53661E-03-6.04689E-04-2.26323E-14
 -1      1387 6.90202E-03-6.32788E-04-2.50617E-14
 -1      1388 7.05015E-03-6.28772E-04-2.60662E-14
 -1      1389 6.82940E-03-5.96605E-04-2.45602E-14
 -1      1390 7.19922E-03-6.24767E-04-2.70871E-14
 -1      1391 7.34935E-03-6.20904E-04-2.81243E-14
 -1      1392 7.12502E-03-5.88147E-04-2.65608E-14
 -1      1393 7.50066E-03-6.17268E-04-2.91777E-14
 -1      1394 7.65328E-03-6.14046E-04-3.02447E-14
 -1      1395 7.42421E-03-5.79894E-04-2.86282E-14
 -1      1396 7.80734E-03-6.11395E-04-3.13262E-14
 -1      1397 7.96298E-03-6.09571E-04-3.24210E-14
 -1      1398 7.72777E-03-5.72818E-04-3.07569E-14
 -1      1399 8.12031E-03-6.08830E-04-3.35288E-14
 -1      1400 8.27944E-03-6.09509E-04-3.46522E-14
 -1      1401 8.03657E-03-5.68432E-04-3.29395E-14
 -1      1402 8.44048E-03-6.11999E-04-3.57865E-14
 -1      1403 8.60347E-03-6.16716E-04-3.69310E-14
 -1      1404 8.35141E-03-5.68973E-04-3.51745E-14
 -1      1405 8.76844E-03-6.24209E-04-3.80883E-14
 -1      1406 8.93534E-03-6.34958E-04-3.92563E-14
 -1      1407 8.67288E-03-5.77555E-04-3.74593E-14
 -1      1408 9.10407E-03-6.49656E-04-4.04344E-14
 -1      1409 9.27439E-03-6.68786E-04-4.16222E-14
 -1      1410 9.00111E-03-5.98244E-04-3.97877E-14
 -1      1411 9.44602E-03-6.93099E-04-4.28194E-14
 -1      1412 9.61849E-03-7.22941E-04-4.40243E-14
 -1      1413 9.33544E-03-6.35861E-04-4.21560E-14
 -1      1414 9.79126E-03-7.58895E-04-4.52404E-14
 -1      1415 9.96360E-03-8.00934E-04-4.64646E-14
 -1      1416 9.67408E-03-6.95225E-04-4.45621E-14
 -1      1417 1.01347E-02-8.49074E-04-4.76952E-14
 -1      1418 1.03037E-02-9.02579E-04-4.89346E-14
 -1      1419 1.00137E-02-7.79485E-04-4.70021E-14
 -1      1420 1.04697E-02-9.60406E-04-5.01804E-14
 -1      1421 1.06318E-02-1.02080E-03-5.14319E-14
 -1      1422 1.03497E-02-8.87336E-04-4.94708E-14
 -1      1423 1.07893E-02-1.08138E-03-5.26935E-14
 -1      1424 1.09418E-02-1.13941E-03-5.39629E-14
 -1      1425 1.06763E-02-1.00966E-03-5.19700E-14
 -1      1426 1.10891E-02-1.19154E-03-5.52407E-14
 -1      1427 1.12316E-02-1.23474E-03-5.65270E-14
 -1      1428 1.09889E-02-1.12769E-03-5.45039E-14
 -1      1429 1.13702E-02-1.26591E-03-5.78169E-14
 -1      1430 1.15060E-02-1.28297E-03-5.91140E-14
 -1      1431 1.12865E-02-1.21587E-03-5.70669E-14
 -1      1432 1.16404E-02-1.28462E-03-6.04205E-14
 -1      1433 1.17751E-02-1.27075E-03-6.17326E-14
 -1      1434 1.15736E-02-1.25088E-03-5.96576E-14
 -1      1435 1.19115E-02-1.24256E-03-6.30495E-14
 -1      1436 1.20507E-02-1.20193E-03-6.43751E-14
 -1      1437 1.18586E-02-1.22277E-03-6.22765E-14
 -1      1438 1.21936E-02-1.15185E-03-6.57103E-14
 -1      1439 1.23405E-02-1.09515E-03-6.70536E-14
 -1      1440 1.21505E-02-1.14024E-03-6.49260E-14
 -1      1441 1.24912E-02-1.03506E-03-6.84048E-14
 -1      1442 1.26454E-02-9.74094E-04-6.97661E-14
 -1      1443 1.24535E-02-1.02540E-03-6.76103E-14
 -1      1444 1.28023E-02-9.14470E-04-7.11361E-14
 -1      1445 1.29610E-02-8.57684E-04-7.25148E-14
 -1      1446 1.27664E-02-9.02470E-04-7.03275E-14
 -1      1447 1.31206E-02-8.04521E-04-7.38989E-14
 -1      1448 1.32802E-02-7.55410E-04-7.52878E-14
 -1      1449 1.30847E-02-7.88583E-04-7.30772E-14
 -1      1450 1.34390E-02-7.09972E-04-7.66846E-14
 -1      1451 1.35963E-02-6.67866E-04-7.80804E-14
 -1      1452 1.34027E-02-6.90685E-04-7.58531E-14
 -1      1453 1.37517E-02-6.28040E-04-7.94802E-14
 -1      1454 1.39050E-02-5.89736E-04-8.08839E-14
 -1      1455 1.37158E-02-6.07240E-04-7.86451E-14
 -1      1456 1.40559E-02-5.51697E-04-8.22888E-14
 -1      1457 1.42045E-02-5.13047E-04-8.36909E-14
 -1      1458 1.40214E-02-5.31622E-04-8.14464E-14
 -1      1459 1.43511E-02-4.72763E-04-8.50999E-14
 -1      1460 1.44960E-02-4.30200E-04-8.65152E-14
 -1      1461 1.43188E-02-4.55373E-04-8.42566E-14
 -1      1462 1.47087E-02-3.60173E-04-8.85571E-14
 -1      1463 1.46787E-02-3.46662E-04-8.77045E-14
 -1      1464 6.43091E-04 3.72038E-04-3.11979E-17
 -1      1465 4.92963E-04 3.03708E-04-5.55654E-19
 -1      1466 4.44890E-04 2.65911E-04-2.11148E-17
 -1      1467 9.28677E-04 4.72018E-04-1.55312E-16
 -1      1468 7.87814E-04 4.26519E-04-8.28737E-17
 -1      1469 7.44752E-04 3.90748E-04-1.09247E-16
 -1      1470 1.20356E-03 5.41454E-04-3.63411E-16
 -1      1471 1.06690E-03 5.09767E-04-2.48526E-16
 -1      1472 1.03080E-03 4.76204E-04-2.79887E-16
 -1      1473 1.47410E-03 5.90665E-04-6.57040E-16
 -1      1474 1.33905E-03 5.68199E-04-4.99505E-16
 -1      1475 1.30870E-03 5.36044E-04-5.34227E-16
 -1      1476 1.74362E-03 6.25571E-04-1.03856E-15
 -1      1477 1.60882E-03 6.09665E-04-8.36435E-16
 -1      1478 1.58292E-03 5.78345E-04-8.73962E-16
 -1      1479 2.01380E-03 6.50037E-04-1.50643E-15
 -1      1480 1.87854E-03 6.38937E-04-1.26193E-15
 -1      1481 1.85607E-03 6.08081E-04-1.30028E-15
 -1      1482 2.28544E-03 6.66805E-04-2.05918E-15
 -1      1483 2.14940E-03 6.59252E-04-1.77243E-15
 -1      1484 2.12955E-03 6.28633E-04-1.81256E-15
 -1      1485 2.55887E-03 6.77912E-04-2.69739E-15
 -1      1486 2.42192E-03 6.72966E-04-2.36759E-15
 -1      1487 2.40408E-03 6.42443E-04-2.40949E-15
 -1      1488 2.83414E-03 6.84887E-04-3.41741E-15
 -1      1489 2.69628E-03 6.81840E-04-3.04729E-15
 -1      1490 2.67995E-03 6.51329E-04-3.08939E-15
 -1      1491 3.11115E-03 6.88879E-04-4.22049E-15
 -1      1492 2.97243E-03 6.87199E-04-3.80854E-15
 -1      1493 2.95724E-03 6.56654E-04-3.85224E-15
 -1      1494 3.38973E-03 6.90736E-04-5.10675E-15
 -1      1495 3.25025E-03 6.90033E-04-4.65270E-15
 -1      1496 3.23590E-03 6.59429E-04-4.69714E-15
 -1      1497 3.66968E-03 6.91069E-04-6.07499E-15
 -1      1498 3.52955E-03 6.91063E-04-5.58025E-15
 -1      1499 3.51582E-03 6.60391E-04-5.62416E-15
 -1      1500 3.95082E-03 6.90302E-04-7.12890E-15
 -1      1501 3.81011E-03 6.90803E-04-6.59127E-15
 -1      1502 3.79686E-03 6.60061E-04-6.63583E-15
 -1      1503 4.23295E-03 6.88714E-04-8.26970E-15
 -1      1504 4.09177E-03 6.89598E-04-7.68852E-15
 -1      1505 4.07887E-03 6.58791E-04-7.73245E-15
 -1      1506 4.51596E-03 6.86468E-04-9.49720E-15
 -1      1507 4.37436E-03 6.87666E-04-8.87295E-15
 -1      1508 4.36173E-03 6.56800E-04-8.91443E-15
 -1      1509 4.79974E-03 6.83636E-04-1.08065E-14
 -1      1510 4.65776E-03 6.85122E-04-1.01414E-14
 -1      1511 4.64535E-03 6.54202E-04-1.01803E-14
 -1      1512 5.08427E-03 6.80230E-04-1.21952E-14
 -1      1513 4.94192E-03 6.82004E-04-1.14911E-14
 -1      1514 4.92969E-03 6.51034E-04-1.15270E-14
 -1      1515 5.36959E-03 6.76211E-04-1.36637E-14
 -1      1516 5.22683E-03 6.78297E-04-1.29198E-14
 -1      1517 5.21476E-03 6.47274E-04-1.29533E-14
 -1      1518 5.65580E-03 6.71520E-04-1.52092E-14
 -1      1519 5.51258E-03 6.73949E-04-1.44266E-14
 -1      1520 5.50063E-03 6.42865E-04-1.44573E-14
 -1      1521 5.94313E-03 6.66096E-04-1.68226E-14
 -1      1522 5.79931E-03 6.68896E-04-1.60068E-14
 -1      1523 5.78745E-03 6.37733E-04-1.60340E-14
 -1      1524 6.23187E-03 6.59903E-04-1.85087E-14
 -1      1525 6.08730E-03 6.63086E-04-1.76571E-14
 -1      1526 6.07546E-03 6.31814E-04-1.76830E-14
 -1      1527 6.52247E-03 6.52971E-04-2.02683E-14
 -1      1528 6.37691E-03 6.56512E-04-1.93794E-14
 -1      1529 6.36499E-03 6.25085E-04-1.94040E-14
 -1      1530 6.81551E-03 6.45440E-04-2.20979E-14
 -1      1531 6.66865E-03 6.49249E-04-2.11741E-14
 -1      1532 6.65649E-03 6.17605E-04-2.11952E-14
 -1      1533 7.11169E-03 6.37627E-04-2.39918E-14
 -1      1534 6.96316E-03 6.41519E-04-2.30377E-14
 -1      1535 6.95054E-03 6.09569E-04-2.30535E-14
 -1      1536 7.41191E-03 6.30117E-04-2.59464E-14
 -1      1537 7.26124E-03 6.33759E-04-2.49609E-14
 -1      1538 7.24782E-03 6.01389E-04-2.49748E-14
 -1      1539 7.71715E-03 6.23877E-04-2.79571E-14
 -1      1540 7.56384E-03 6.26731E-04-2.69454E-14
 -1      1541 7.54915E-03 5.93793E-04-2.69537E-14
 -1      1542 8.02848E-03 6.20400E-04-3.00125E-14
 -1      1543 7.87198E-03 6.21647E-04-2.89793E-14
 -1      1544 7.85541E-03 5.87960E-04-2.89844E-14
 -1      1545 8.34691E-03 6.21868E-04-3.21141E-14
 -1      1546 8.18674E-03 6.20325E-04-3.10581E-14
 -1      1547 8.16751E-03 5.85679E-04-3.10615E-14
 -1      1548 8.67319E-03 6.31307E-04-3.42528E-14
 -1      1549 8.50903E-03 6.25360E-04-3.31790E-14
 -1      1550 8.48622E-03 5.89521E-04-3.31799E-14
 -1      1551 9.00743E-03 6.52639E-04-3.64253E-14
 -1      1552 8.83932E-03 6.40233E-04-3.53350E-14
 -1      1553 8.81196E-03 6.02977E-04-3.53350E-14
 -1      1554 9.34869E-03 6.90480E-04-3.86256E-14
 -1      1555 9.17727E-03 6.69268E-04-3.75224E-14
 -1      1556 9.14452E-03 6.30431E-04-3.75223E-14
 -1      1557 9.69435E-03 7.49404E-04-4.08500E-14
 -1      1558 9.52119E-03 7.17194E-04-3.97346E-14
 -1      1559 9.48264E-03 6.76768E-04-3.97379E-14
 -1      1560 1.00398E-02 8.32322E-04-4.31182E-14
 -1      1561 9.86747E-03 7.88005E-04-4.19774E-14
 -1      1562 9.82361E-03 7.46279E-04-4.19851E-14
 -1      1563 1.03784E-02 9.37824E-04-4.54309E-14
 -1      1564 1.02104E-02 8.82805E-04-4.42676E-14
 -1      1565 1.01631E-02 8.40527E-04-4.42759E-14
 -1      1566 1.07028E-02 1.05709E-03-4.77898E-14
 -1      1567 1.05429E-02 9.96799E-04-4.66054E-14
 -1      1568 1.04954E-02 9.55252E-04-4.66129E-14
 -1      1569 1.10073E-02 1.17228E-03-5.01928E-14
 -1      1570 1.08578E-02 1.11664E-03-4.89854E-14
 -1      1571 1.08149E-02 1.07746E-03-4.89927E-14
 -1      1572 1.12913E-02 1.25912E-03-5.26363E-14
 -1      1573 1.11517E-02 1.22064E-03-5.14109E-14
 -1      1574 1.11181E-02 1.18524E-03-5.14169E-14
 -1      1575 1.15608E-02 1.29535E-03-5.51162E-14
 -1      1576 1.14272E-02 1.28431E-03-5.38709E-14
 -1      1577 1.14065E-02 1.25308E-03-5.38756E-14
 -1      1578 1.18275E-02 1.27085E-03-5.76242E-14
 -1      1579 1.16937E-02 1.29038E-03-5.63672E-14
 -1      1580 1.16872E-02 1.26234E-03-5.63686E-14
 -1      1581 1.21031E-02 1.19289E-03-6.01689E-14
 -1      1582 1.19636E-02 1.23734E-03-5.88907E-14
 -1      1583 1.19699E-02 1.21062E-03-5.88973E-14
 -1      1584 1.23944E-02 1.08182E-03-6.27587E-14
 -1      1585 1.22466E-02 1.13998E-03-6.14608E-14
 -1      1586 1.22625E-02 1.11283E-03-6.14655E-14
 -1      1587 1.27012E-02 9.60817E-04-6.53718E-14
 -1      1588 1.25462E-02 1.02137E-03-6.40601E-14
 -1      1589 1.25673E-02 9.92870E-04-6.40645E-14
 -1      1590 1.30180E-02 8.46956E-04-6.80011E-14
 -1      1591 1.28589E-02 9.02417E-04-6.66876E-14
 -1      1592 1.28816E-02 8.72552E-04-6.66891E-14
 -1      1593 1.33372E-02 7.47767E-04-7.06265E-14
 -1      1594 1.31778E-02 7.95512E-04-6.93153E-14
 -1      1595 1.31998E-02 7.64846E-04-6.93191E-14
 -1      1596 1.36524E-02 6.62428E-04-7.32438E-14
 -1      1597 1.34957E-02 7.03706E-04-7.19360E-14
 -1      1598 1.35163E-02 6.73001E-04-7.19441E-14
 -1      1599 1.39593E-02 5.84909E-04-7.58610E-14
 -1      1600 1.38071E-02 6.23173E-04-7.45518E-14
 -1      1601 1.38267E-02 5.93127E-04-7.45659E-14
 -1      1602 1.42570E-02 5.07159E-04-7.84721E-14
 -1      1603 1.41093E-02 5.46514E-04-7.71664E-14
 -1      1604 1.41290E-02 5.17613E-04-7.71825E-14
 -1      1605 1.45469E-02 4.22255E-04-8.10819E-14
 -1      1606 1.44027E-02 4.65823E-04-7.97775E-14
 -1      1607 1.44233E-02 4.38240E-04-7.97974E-14
 -1      1608 1.47081E-02 3.63585E-04-8.24913E-14
 -1      1609 1.48427E-02 2.57565E-04-8.30918E-14
 -1      1610 1.47919E-02 2.97473E-04-8.28929E-14
 -1      1611 1.49512E-02 1.83654E-04-8.34907E-14
 -1      1612 1.48959E-02 2.19464E-04-8.32914E-14
 -1      1613 1.47460E-02 2.78722E-04-8.20558E-14
 -1      1614 1.50648E-02 1.20638E-04-8.39021E-14
 -1      1615 1.50077E-02 1.50583E-04-8.36936E-14
 -1      1616 1.48577E-02 2.06735E-04-8.24501E-14
 -1      1617 1.51763E-02 7.12691E-05-8.43210E-14
 -1      1618 1.51214E-02 9.41282E-05-8.41135E-14
 -1      1619 1.49733E-02 1.44604E-04-8.28527E-14
 -1      1620 1.52748E-02 3.72168E-05-8.47180E-14
 -1      1621 1.52275E-02 5.24507E-05-8.45195E-14
 -1      1622 1.50839E-02 9.45659E-05-8.32499E-14
 -1      1623 1.53533E-02 1.63562E-05-8.51113E-14
 -1      1624 1.53173E-02 2.52003E-05-8.49163E-14
 -1      1625 1.51807E-02 5.66470E-05-8.36393E-14
 -1      1626 1.54005E-02 5.98149E-06-8.55076E-14
 -1      1627 1.53812E-02 1.01579E-05-8.53064E-14
 -1      1628 1.52538E-02 2.94554E-05-8.40305E-14
 -1      1629 1.54101E-02 5.32282E-07-8.59056E-14
 -1      1630 1.54102E-02 3.03917E-06-8.57096E-14
 -1      1631 1.52930E-02 1.00507E-05-8.44247E-14
 -1      1632 1.53809E-02-6.63480E-06-8.63043E-14
 -1      1633 1.54003E-02-2.42658E-06-8.61076E-14
 -1      1634 1.52928E-02-6.56178E-06-8.48185E-14
 -1      1635 1.53167E-02-2.17810E-05-8.66804E-14
 -1      1636 1.53528E-02-1.28789E-05-8.64940E-14
 -1      1637 1.52534E-02-2.60201E-05-8.51999E-14
 -1      1638 1.52276E-02-4.88778E-05-8.70334E-14
 -1      1639 1.52748E-02-3.36316E-05-8.68595E-14
 -1      1640 1.51808E-02-5.30357E-05-8.55629E-14
 -1      1641 1.51206E-02-9.10056E-05-8.73874E-14
 -1      1642 1.51755E-02-6.80673E-05-8.72127E-14
 -1      1643 1.50840E-02-9.09686E-05-8.59154E-14
 -1      1644 1.50070E-02-1.47623E-04-8.77414E-14
 -1      1645 1.50640E-02-1.17593E-04-8.75656E-14
 -1      1646 1.49724E-02-1.41511E-04-8.62659E-14
 -1      1647 1.48954E-02-2.16608E-04-8.80903E-14
 -1      1648 1.49505E-02-1.80766E-04-8.79179E-14
 -1      1649 1.48569E-02-2.03770E-04-8.66127E-14
 -1      1650 1.47599E-02-3.00488E-04-8.79872E-14
 -1      1651 1.48111E-02-2.60913E-04-8.78154E-14
 -1      1652 1.47146E-02-2.81195E-04-8.65092E-14
 -1      1653 1.45466E-02-3.69248E-04-8.59495E-14
 -1      1654 1.38920E-02 8.16243E-05-6.38260E-14
 -1      1655 1.39255E-02 3.11192E-05-6.39680E-14
 -1      1656 1.37214E-02 2.03959E-04-6.33176E-14
 -1      1657 1.38161E-02 1.44840E-04-6.35847E-14
 -1      1658 1.34386E-02 3.54330E-04-6.25597E-14
 -1      1659 1.35818E-02 2.81029E-04-6.29373E-14
 -1      1660 1.30484E-02 5.33311E-04-6.15716E-14
 -1      1661 1.32358E-02 4.42054E-04-6.20859E-14
 -1      1662 1.26568E-02 7.19727E-04-6.03917E-14
 -1      1663 1.28350E-02 6.38798E-04-6.09247E-14
 -1      1664 1.22289E-02 8.82403E-04-5.90615E-14
 -1      1665 1.24240E-02 8.10051E-04-5.97106E-14
 -1      1666 1.18367E-02 9.72012E-04-5.76492E-14
 -1      1667 1.20178E-02 9.40783E-04-5.82799E-14
 -1      1668 1.14328E-02 9.77893E-04-5.62234E-14
 -1      1669 1.16185E-02 9.89061E-04-5.68833E-14
 -1      1670 1.10158E-02 8.84408E-04-5.48829E-14
 -1      1671 1.12066E-02 9.36628E-04-5.54897E-14
 -1      1672 1.06118E-02 7.30957E-04-5.37118E-14
 -1      1673 1.07967E-02 8.07529E-04-5.42257E-14
 -1      1674 1.02172E-02 5.49467E-04-5.27254E-14
 -1      1675 1.03977E-02 6.35313E-04-5.31574E-14
 -1      1676 9.84599E-03 3.54484E-04-5.18617E-14
 -1      1677 1.00176E-02 4.39902E-04-5.22098E-14
 -1      1678 9.55039E-03 2.10783E-04-5.14041E-14
 -1      1679 9.66932E-03 2.75473E-04-5.16007E-14
 -1      1680 9.37477E-03 9.10055E-05-5.11661E-14
 -1      1681 9.44142E-03 1.43110E-04-5.12431E-14
 -1      1682 9.32716E-03-1.27015E-05-5.12124E-14
 -1      1683 9.33244E-03 3.40442E-05-5.11541E-14
 -1      1684 9.41225E-03-1.17458E-04-5.15264E-14
 -1      1685 9.35707E-03-6.80337E-05-5.13506E-14
 -1      1686 9.61714E-03-2.43253E-04-5.21007E-14
 -1      1687 9.50827E-03-1.81803E-04-5.18038E-14
 -1      1688 9.92397E-03-3.94855E-04-5.28899E-14
 -1      1689 9.77291E-03-3.18912E-04-5.24858E-14
 -1      1690 1.02731E-02-5.65686E-04-5.38672E-14
 -1      1691 1.01106E-02-4.86329E-04-5.34032E-14
 -1      1692 1.06552E-02-7.41969E-04-5.50319E-14
 -1      1693 1.04751E-02-6.61094E-04-5.44729E-14
 -1      1694 1.10298E-02-8.84646E-04-5.62868E-14
 -1      1695 1.08574E-02-8.25346E-04-5.57125E-14
 -1      1696 1.14115E-02-9.68706E-04-5.76119E-14
 -1      1697 1.12339E-02-9.38233E-04-5.69905E-14
 -1      1698 1.17906E-02-9.73258E-04-5.89321E-14
 -1      1699 1.16165E-02-9.81611E-04-5.83307E-14
 -1      1700 1.21722E-02-8.97463E-04-6.01950E-14
 -1      1701 1.19954E-02-9.41944E-04-5.96222E-14
 -1      1702 1.25621E-02-7.51415E-04-6.14228E-14
 -1      1703 1.23765E-02-8.26676E-04-6.08871E-14
 -1      1704 1.29548E-02-5.84705E-04-6.23629E-14
 -1      1705 1.27837E-02-6.63720E-04-6.19428E-14
 -1      1706 1.33017E-02-4.17766E-04-6.31294E-14
 -1      1707 1.31460E-02-4.93733E-04-6.28019E-14
 -1      1708 1.36025E-02-2.65690E-04-6.36849E-14
 -1      1709 1.34707E-02-3.33637E-04-6.34564E-14
 -1      1710 1.38176E-02-1.39694E-04-6.39985E-14
 -1      1711 1.37307E-02-1.94373E-04-6.38839E-14
 -1      1712 1.39258E-02-2.61307E-05-6.41318E-14
 -1      1713 1.38912E-02-7.42049E-05-6.41393E-14
 -1      1714 1.28830E-02 5.41228E-04-6.15810E-14
 -1      1715 1.32884E-02 3.43267E-04-6.27089E-14
 -1      1716 1.47298E-02 3.36917E-04-8.25142E-14
 -1      1717 1.46300E-02 3.56115E-04-8.14809E-14
 -1      1718 1.38567E-02 8.16293E-05-6.41918E-14
 -1      1719 1.36329E-02 1.90355E-04-6.35683E-14
 -1      1720 1.39365E-02 1.19055E-06-6.45967E-14
 -1      1721 1.24668E-02 7.51718E-04-6.02472E-14
 -1      1722 1.20835E-02 9.22858E-04-5.87806E-14
 -1      1723 1.17107E-02 1.00725E-03-5.72318E-14
 -1      1724 1.13488E-02 9.79936E-04-5.57354E-14
 -1      1725 1.09616E-02 8.48583E-04-5.43488E-14
 -1      1726 1.05680E-02 6.58176E-04-5.31399E-14
 -1      1727 1.01692E-02 4.44481E-04-5.20736E-14
 -1      1728 9.79436E-03 2.61218E-04-5.13027E-14
 -1      1729 9.50417E-03 1.33374E-04-5.08849E-14
 -1      1730 9.34622E-03 4.42816E-05-5.07146E-14
 -1      1731 9.33341E-03-2.70878E-05-5.08400E-14
 -1      1732 9.46519E-03-1.09909E-04-5.12512E-14
 -1      1733 9.72322E-03-2.27077E-04-5.19079E-14
 -1      1734 1.00660E-02-3.86693E-04-5.28011E-14
 -1      1735 1.04413E-02-5.79830E-04-5.39147E-14
 -1      1736 1.08144E-02-7.74187E-04-5.51965E-14
 -1      1737 1.11742E-02-9.26284E-04-5.65801E-14
 -1      1738 1.15215E-02-1.00134E-03-5.80029E-14
 -1      1739 1.18662E-02-9.79475E-04-5.94136E-14
 -1      1740 1.22229E-02-8.64468E-04-6.07987E-14
 -1      1741 1.26004E-02-6.85037E-04-6.20148E-14
 -1      1742 1.29900E-02-4.93579E-04-6.29774E-14
 -1      1743 1.33459E-02-3.18471E-04-6.37479E-14
 -1      1744 1.36485E-02-1.78468E-04-6.42772E-14
 -1      1745 1.38583E-02-7.25235E-05-6.46191E-14
 -1      1746 2.85245E-04-1.76241E-04-4.14436E-17
 -1      1747 3.32169E-04-1.16790E-04-1.20848E-16
 -1      1748 3.36320E-04-1.33036E-04-1.14410E-16
 -1      1749 3.42212E-04-1.52023E-04-1.06401E-16
 -1      1750 3.51765E-04-1.74024E-04-9.47457E-17
 -1      1751 4.58329E-04-1.88108E-04-1.66344E-16
 -1      1752 3.24557E-04-6.53944E-05-1.32625E-16
 -1      1753 3.25702E-04-7.66851E-05-1.31283E-16
 -1      1754 3.23074E-04-4.38982E-05-1.34251E-16
 -1      1755 3.23724E-04-5.43889E-05-1.33533E-16
 -1      1756 4.36503E-04-7.93093E-05-1.96674E-16
 -1      1757 3.22294E-04-2.37765E-05-1.33709E-16
 -1      1758 3.22624E-04-3.36916E-05-1.34197E-16
 -1      1759 4.34518E-04-5.13281E-05-1.97799E-16
 -1      1760 3.22002E-04-4.33835E-06-1.32205E-16
 -1      1761 3.22098E-04-1.39925E-05-1.33113E-16
 -1      1762 4.33501E-04-2.49289E-05-1.96715E-16
 -1      1763 3.22124E-04 1.49833E-05-1.29061E-16
 -1      1764 3.22010E-04 5.31907E-06-1.30890E-16
 -1      1765 4.33206E-04 7.57124E-07-1.93937E-16
 -1      1766 3.22687E-04 3.47355E-05-1.24927E-16
 -1      1767 3.22337E-04 2.47881E-05-1.27231E-16
 -1      1768 4.33560E-04 2.64717E-05-1.89261E-16
 -1      1769 3.23812E-04 5.51752E-05-1.18734E-16
 -1      1770 3.23151E-04 4.48116E-05-1.22217E-16
 -1      1771 4.34633E-04 5.27309E-05-1.82607E-16
 -1      1772 3.25865E-04 7.78273E-05-1.10155E-16
 -1      1773 3.24669E-04 6.62461E-05-1.14885E-16
 -1      1774 4.36681E-04 8.06130E-05-1.73283E-16
 -1      1775 3.29549E-04 1.03665E-04-9.76053E-17
 -1      1776 3.27403E-04 9.03151E-05-1.04585E-16
 -1      1777 4.40323E-04 1.11583E-04-1.60055E-16
 -1      1778 3.36579E-04 1.35122E-04-7.93772E-17
 -1      1779 3.32399E-04 1.18624E-04-8.95009E-17
 -1      1780 4.46786E-04 1.47352E-04-1.41244E-16
 -1      1781 3.52302E-04 1.77615E-04-5.27193E-17
 -1      1782 3.42808E-04 1.54770E-04-6.75729E-17
 -1      1783 4.59316E-04 1.91473E-04-1.14261E-16
 -1      1784 4.07703E-04 2.33698E-04-3.31224E-17
 -1      1785 3.78091E-04 2.02673E-04-4.56720E-17
 -1      1786 4.95857E-04 2.44011E-04-8.95822E-17
 -1      1787 5.58551E-04 3.02521E-04-6.88333E-17
 -1      1788 3.40025E-04-1.90921E-04-7.03241E-17
 -1      1789 8.53574E-04 4.07145E-04-2.02014E-16
 -1      1790 7.07169E-04 3.59399E-04-1.25347E-16
 -1      1791 6.73403E-04 3.28831E-04-1.38588E-16
 -1      1792 4.58957E-04-2.36733E-04-1.23531E-16
 -1      1793 8.07234E-04-3.74139E-04-3.27836E-16
 -1      1794 9.52501E-04-4.15329E-04-4.56747E-16
 -1      1795 1.09534E-03-4.50023E-04-6.08807E-16
 -1      1796 1.23701E-03-4.78924E-04-7.84529E-16
 -1      1797 1.00393E-03-3.97949E-04-5.56778E-16
 -1      1798 1.37741E-03-5.03412E-04-9.83317E-16
 -1      1799 1.51709E-03-5.23786E-04-1.20558E-15
 -1      1800 1.28961E-03-4.55924E-04-9.11624E-16
 -1      1801 1.65625E-03-5.40965E-04-1.45114E-15
 -1      1802 1.79509E-03-5.55188E-04-1.71942E-15
 -1      1803 1.57201E-03-4.96873E-04-1.35855E-15
 -1      1804 1.93380E-03-5.67063E-04-2.01037E-15
 -1      1805 2.07245E-03-5.76791E-04-2.32435E-15
 -1      1806 1.85262E-03-5.25414E-04-1.89678E-15
 -1      1807 2.21119E-03-5.84791E-04-2.66097E-15
 -1      1808 2.35002E-03-5.91232E-04-3.01988E-15
 -1      1809 2.13251E-03-5.44881E-04-2.52494E-15
 -1      1810 2.48905E-03-5.96409E-04-3.40080E-15
 -1      1811 2.62825E-03-6.00461E-04-3.80365E-15
 -1      1812 2.41235E-03-5.57721E-04-3.24224E-15
 -1      1813 2.76769E-03-6.03600E-04-4.22843E-15
 -1      1814 2.90735E-03-6.05934E-04-4.67402E-15
 -1      1815 2.69256E-03-5.65756E-04-4.04620E-15
 -1      1816 3.04726E-03-6.07615E-04-5.14064E-15
 -1      1817 3.18739E-03-6.08728E-04-5.62790E-15
 -1      1818 2.97334E-03-5.70344E-04-4.93594E-15
 -1      1819 3.32777E-03-6.09377E-04-6.13535E-15
 -1      1820 3.46835E-03-6.09627E-04-6.66284E-15
 -1      1821 3.25477E-03-5.72488E-04-5.90747E-15
 -1      1822 3.60917E-03-6.09547E-04-7.21008E-15
 -1      1823 3.75017E-03-6.09185E-04-7.77717E-15
 -1      1824 3.53687E-03-5.72910E-04-6.96005E-15
 -1      1825 3.89139E-03-6.08585E-04-8.36355E-15
 -1      1826 4.03278E-03-6.07779E-04-8.96958E-15
 -1      1827 3.81961E-03-5.72115E-04-8.09112E-15
 -1      1828 4.17435E-03-6.06791E-04-9.59514E-15
 -1      1829 4.31608E-03-6.05641E-04-1.02399E-14
 -1      1830 4.10296E-03-5.70439E-04-9.30030E-15
 -1      1831 4.45798E-03-6.04339E-04-1.09039E-14
 -1      1832 4.60004E-03-6.02896E-04-1.15876E-14
 -1      1833 4.38687E-03-5.68082E-04-1.05868E-14
 -1      1834 4.74225E-03-6.01309E-04-1.22912E-14
 -1      1835 4.88462E-03-5.99584E-04-1.30135E-14
 -1      1836 4.67131E-03-5.65142E-04-1.19510E-14
 -1      1837 5.02714E-03-5.97707E-04-1.37544E-14
 -1      1838 5.16983E-03-5.95683E-04-1.45138E-14
 -1      1839 4.95628E-03-5.61637E-04-1.33912E-14
 -1      1840 5.31270E-03-5.93489E-04-1.52914E-14
 -1      1841 5.45575E-03-5.91129E-04-1.60863E-14
 -1      1842 5.24181E-03-5.57528E-04-1.49057E-14
 -1      1843 5.59901E-03-5.88579E-04-1.68988E-14
 -1      1844 5.74249E-03-5.85840E-04-1.77286E-14
 -1      1845 5.52797E-03-5.52740E-04-1.64922E-14
 -1      1846 5.88623E-03-5.82889E-04-1.85768E-14
 -1      1847 6.03025E-03-5.79734E-04-1.94435E-14
 -1      1848 5.81488E-03-5.47180E-04-1.81492E-14
 -1      1849 6.17457E-03-5.76353E-04-2.03291E-14
 -1      1850 6.31928E-03-5.72763E-04-2.12341E-14
 -1      1851 6.10271E-03-5.40764E-04-1.98807E-14
 -1      1852 6.46436E-03-5.68953E-04-2.21575E-14
 -1      1853 6.60993E-03-5.64952E-04-2.31000E-14
 -1      1854 6.39168E-03-5.33448E-04-2.16847E-14
 -1      1855 6.75599E-03-5.60767E-04-2.40603E-14
 -1      1856 6.90265E-03-5.56449E-04-2.50403E-14
 -1      1857 6.68212E-03-5.25272E-04-2.35653E-14
 -1      1858 7.04993E-03-5.52034E-04-2.60383E-14
 -1      1859 7.19798E-03-5.47603E-04-2.70526E-14
 -1      1860 6.97438E-03-5.16411E-04-2.55187E-14
 -1      1861 7.34679E-03-5.43238E-04-2.80841E-14
 -1      1862 7.49653E-03-5.39060E-04-2.91296E-14
 -1      1863 7.26894E-03-5.07260E-04-2.75422E-14
 -1      1864 7.64721E-03-5.35220E-04-3.01901E-14
 -1      1865 7.79902E-03-5.31892E-04-3.12649E-14
 -1      1866 7.56631E-03-4.98535E-04-2.96277E-14
 -1      1867 7.95194E-03-5.29323E-04-3.23534E-14
 -1      1868 8.10617E-03-5.27758E-04-3.34551E-14
 -1      1869 7.86711E-03-4.91407E-04-3.17705E-14
 -1      1870 8.26170E-03-5.27569E-04-3.45688E-14
 -1      1871 8.41867E-03-5.29084E-04-3.56959E-14
 -1      1872 8.17199E-03-4.87669E-04-3.39676E-14
 -1      1873 8.57712E-03-5.32826E-04-3.68342E-14
 -1      1874 8.73708E-03-5.39220E-04-3.79836E-14
 -1      1875 8.48164E-03-4.89917E-04-3.62134E-14
 -1      1876 8.89864E-03-5.48935E-04-3.91451E-14
 -1      1877 9.06164E-03-5.62487E-04-4.03161E-14
 -1      1878 8.79674E-03-5.01698E-04-3.85059E-14
 -1      1879 9.22628E-03-5.80626E-04-4.14979E-14
 -1      1880 9.39206E-03-6.03907E-04-4.26873E-14
 -1      1881 9.11788E-03-5.27534E-04-4.08425E-14
 -1      1882 9.55934E-03-6.32996E-04-4.38868E-14
 -1      1883 9.72719E-03-6.68328E-04-4.50954E-14
 -1      1884 9.44541E-03-5.72617E-04-4.32158E-14
 -1      1885 9.89610E-03-7.10168E-04-4.63112E-14
 -1      1886 1.00647E-02-7.58530E-04-4.75344E-14
 -1      1887 9.77899E-03-6.41830E-04-4.56241E-14
 -1      1888 1.02334E-02-8.12838E-04-4.87653E-14
 -1      1889 1.04005E-02-8.72180E-04-5.00037E-14
 -1      1890 1.01170E-02-7.37709E-04-4.80627E-14
 -1      1891 1.05665E-02-9.34741E-04-5.12511E-14
 -1      1892 1.07297E-02-9.98219E-04-5.25062E-14
 -1      1893 1.04559E-02-8.57039E-04-5.05342E-14
 -1      1894 1.08901E-02-1.05953E-03-5.37676E-14
 -1      1895 1.10473E-02-1.11519E-03-5.50401E-14
 -1      1896 1.07898E-02-9.86716E-04-5.30371E-14
 -1      1897 1.12008E-02-1.16159E-03-5.63200E-14
 -1      1898 1.13522E-02-1.19535E-03-5.76043E-14
 -1      1899 1.11129E-02-1.10210E-03-5.55736E-14
 -1      1900 1.15005E-02-1.21392E-03-5.88989E-14
 -1      1901 1.16489E-02-1.21581E-03-6.01998E-14
 -1      1902 1.14240E-02-1.17284E-03-5.81434E-14
 -1      1903 1.17963E-02-1.20094E-03-6.15073E-14
 -1      1904 1.19460E-02-1.17064E-03-6.28212E-14
 -1      1905 1.17289E-02-1.17680E-03-6.07391E-14
 -1      1906 1.20971E-02-1.12729E-03-6.41451E-14
 -1      1907 1.22511E-02-1.07415E-03-6.54768E-14
 -1      1908 1.20372E-02-1.11329E-03-6.33660E-14
 -1      1909 1.24074E-02-1.01467E-03-6.68151E-14
 -1      1910 1.25658E-02-9.52176E-04-6.81648E-14
 -1      1911 1.23551E-02-1.00323E-03-6.60247E-14
 -1      1912 1.27260E-02-8.89566E-04-6.95215E-14
 -1      1913 1.28867E-02-8.28956E-04-7.08865E-14
 -1      1914 1.26811E-02-8.75823E-04-6.87171E-14
 -1      1915 1.30481E-02-7.71903E-04-7.22620E-14
 -1      1916 1.32084E-02-7.19094E-04-7.36408E-14
 -1      1917 1.30095E-02-7.54287E-04-7.14453E-14
 -1      1918 1.33683E-02-6.70743E-04-7.50253E-14
 -1      1919 1.35264E-02-6.26542E-04-7.64167E-14
 -1      1920 1.33345E-02-6.49901E-04-7.42031E-14
 -1      1921 1.36831E-02-5.85763E-04-7.78110E-14
 -1      1922 1.38375E-02-5.47581E-04-7.92073E-14
 -1      1923 1.36524E-02-5.63433E-04-7.69768E-14
 -1      1924 1.39902E-02-5.10819E-04-8.06088E-14
 -1      1925 1.41407E-02-4.74462E-04-8.20105E-14
 -1      1926 1.39615E-02-4.89150E-04-7.97712E-14
 -1      1927 1.42717E-02-4.42975E-04-8.32726E-14
 -1      1928 1.44186E-02-4.04269E-04-8.46785E-14
 -1      1929 1.45027E-02-3.59880E-04-8.49590E-14
 -1      1930 1.42443E-02-4.23923E-04-8.24294E-14
 -1      1931 1.13862E-03 4.80119E-04-4.15886E-16
 -1      1932 9.96855E-04 4.46863E-04-2.98481E-16
 -1      1933 9.64471E-04 4.17408E-04-3.14256E-16
 -1      1934 1.41773E-03 5.31608E-04-7.13974E-16
 -1      1935 1.27858E-03 5.08156E-04-5.54366E-16
 -1      1936 1.24894E-03 4.80019E-04-5.71740E-16
 -1      1937 1.69410E-03 5.67905E-04-1.09720E-15
 -1      1938 1.55607E-03 5.51411E-04-8.94697E-16
 -1      1939 1.52920E-03 5.24239E-04-9.12952E-16
 -1      1940 1.96965E-03 5.93187E-04-1.56632E-15
 -1      1941 1.83188E-03 5.81753E-04-1.32095E-15
 -1      1942 1.80743E-03 5.55221E-04-1.33913E-15
 -1      1943 2.24546E-03 6.10404E-04-2.12075E-15
 -1      1944 2.10748E-03 6.02679E-04-1.83320E-15
 -1      1945 2.08503E-03 5.76553E-04-1.85077E-15
 -1      1946 2.52209E-03 6.21725E-04-2.75874E-15
 -1      1947 2.38365E-03 6.16708E-04-2.42943E-15
 -1      1948 2.36283E-03 5.90831E-04-2.44691E-15
 -1      1949 2.79978E-03 6.28770E-04-3.47939E-15
 -1      1950 2.66080E-03 6.25713E-04-3.10827E-15
 -1      1951 2.64126E-03 5.99979E-04-3.12528E-15
 -1      1952 3.07863E-03 6.32744E-04-4.28222E-15
 -1      1953 2.93907E-03 6.31089E-04-3.87052E-15
 -1      1954 2.92053E-03 6.05431E-04-3.88621E-15
 -1      1955 3.35858E-03 6.34534E-04-5.16762E-15
 -1      1956 3.21847E-03 6.33875E-04-4.71484E-15
 -1      1957 3.20072E-03 6.08246E-04-4.72968E-15
 -1      1958 3.63957E-03 6.34779E-04-6.13557E-15
 -1      1959 3.49895E-03 6.34824E-04-5.64082E-15
 -1      1960 3.48181E-03 6.09198E-04-5.65509E-15
 -1      1961 3.92147E-03 6.33918E-04-7.18733E-15
 -1      1962 3.78041E-03 6.34470E-04-6.65070E-15
 -1      1963 3.76373E-03 6.08833E-04-6.66276E-15
 -1      1964 4.20420E-03 6.32240E-04-8.32366E-15
 -1      1965 4.06274E-03 6.33171E-04-7.74522E-15
 -1      1966 4.04641E-03 6.07517E-04-7.75504E-15
 -1      1967 4.48767E-03 6.29910E-04-9.54506E-15
 -1      1968 4.34585E-03 6.31151E-04-8.92392E-15
 -1      1969 4.32979E-03 6.05479E-04-8.93114E-15
 -1      1970 4.77181E-03 6.27002E-04-1.08474E-14
 -1      1971 4.62966E-03 6.28527E-04-1.01858E-14
 -1      1972 4.61380E-03 6.02838E-04-1.01893E-14
 -1      1973 5.05664E-03 6.23520E-04-1.22307E-14
 -1      1974 4.91414E-03 6.25334E-04-1.15295E-14
 -1      1975 4.89843E-03 5.99629E-04-1.15297E-14
 -1      1976 5.34217E-03 6.19419E-04-1.36923E-14
 -1      1977 5.19931E-03 6.21549E-04-1.29517E-14
 -1      1978 5.18369E-03 5.95830E-04-1.29485E-14
 -1      1979 5.62852E-03 6.14625E-04-1.52302E-14
 -1      1980 5.48524E-03 6.17110E-04-1.44516E-14
 -1      1981 5.46965E-03 5.91375E-04-1.44443E-14
 -1      1982 5.91586E-03 6.09059E-04-1.68392E-14
 -1      1983 5.77206E-03 6.11938E-04-1.60257E-14
 -1      1984 5.75643E-03 5.86178E-04-1.60150E-14
 -1      1985 6.20445E-03 6.02662E-04-1.85225E-14
 -1      1986 6.05998E-03 6.05960E-04-1.76722E-14
 -1      1987 6.04423E-03 5.80161E-04-1.76593E-14
 -1      1988 6.49463E-03 5.95432E-04-2.02748E-14
 -1      1989 6.34931E-03 5.99140E-04-1.93898E-14
 -1      1990 6.33329E-03 5.73275E-04-1.93739E-14
 -1      1991 6.78685E-03 5.87469E-04-2.20957E-14
 -1      1992 6.64045E-03 5.91521E-04-2.11773E-14
 -1      1993 6.62398E-03 5.65550E-04-2.11573E-14
 -1      1994 7.08168E-03 5.79043E-04-2.39834E-14
 -1      1995 6.93389E-03 5.83278E-04-2.30312E-14
 -1      1996 6.91673E-03 5.57140E-04-2.30079E-14
 -1      1997 7.37977E-03 5.70679E-04-2.59280E-14
 -1      1998 7.23026E-03 5.74797E-04-2.49484E-14
 -1      1999 7.21207E-03 5.48406E-04-2.49207E-14
 -1      2000 7.68188E-03 5.63274E-04-2.79311E-14
 -1      2001 7.53025E-03 5.66773E-04-2.69231E-14
 -1      2002 7.51062E-03 5.40007E-04-2.68915E-14
 -1      2003 7.98880E-03 5.58246E-04-2.99807E-14
 -1      2004 7.83467E-03 5.60345E-04-2.89502E-14
 -1      2005 7.81308E-03 5.33039E-04-2.89157E-14
 -1      2006 8.30132E-03 5.57705E-04-3.20783E-14
 -1      2007 8.14430E-03 5.57255E-04-3.10245E-14
 -1      2008 8.12015E-03 5.29190E-04-3.09859E-14
 -1      2009 8.62005E-03 5.64623E-04-3.42133E-14
 -1      2010 8.45986E-03 5.60026E-04-3.31404E-14
 -1      2011 8.43254E-03 5.30920E-04-3.31004E-14
 -1      2012 8.94525E-03 5.82931E-04-3.63842E-14
 -1      2013 8.78183E-03 5.72109E-04-3.52943E-14
 -1      2014 8.75079E-03 5.41620E-04-3.52536E-14
 -1      2015 9.27657E-03 6.17385E-04-3.85871E-14
 -1      2016 9.11022E-03 5.97885E-04-3.74820E-14
 -1      2017 9.07516E-03 5.65643E-04-3.74407E-14
 -1      2018 9.61271E-03 6.72934E-04-4.08180E-14
 -1      2019 9.44424E-03 6.42327E-04-3.96990E-14
 -1      2020 9.40539E-03 6.08021E-04-3.96594E-14
 -1      2021 9.95108E-03 7.53240E-04-4.30890E-14
 -1      2022 9.78197E-03 7.09987E-04-4.19476E-14
 -1      2023 9.74037E-03 6.73559E-04-4.19086E-14
 -1      2024 1.02876E-02 8.58034E-04-4.54020E-14
 -1      2025 1.01201E-02 8.02945E-04-4.42400E-14
 -1      2026 1.00777E-02 7.64888E-04-4.42010E-14
 -1      2027 1.06171E-02 9.79734E-04-4.77596E-14
 -1      2028 1.04538E-02 9.17681E-04-4.65760E-14
 -1      2029 1.04135E-02 8.79333E-04-4.65378E-14
 -1      2030 1.09347E-02 1.10102E-03-5.01602E-14
 -1      2031 1.07778E-02 1.04185E-03-4.89541E-14
 -1      2032 1.07424E-02 1.00537E-03-4.89154E-14
 -1      2033 1.12382E-02 1.19650E-03-5.25999E-14
 -1      2034 1.10881E-02 1.15350E-03-5.13757E-14
 -1      2035 1.10598E-02 1.12113E-03-5.13343E-14
 -1      2036 1.15307E-02 1.24113E-03-5.50740E-14
 -1      2037 1.13851E-02 1.22610E-03-5.38330E-14
 -1      2038 1.13647E-02 1.19886E-03-5.37884E-14
 -1      2039 1.18199E-02 1.22194E-03-5.75866E-14
 -1      2040 1.16748E-02 1.23931E-03-5.63255E-14
 -1      2041 1.16619E-02 1.21623E-03-5.62813E-14
 -1      2042 1.21147E-02 1.14521E-03-6.01318E-14
 -1      2043 1.19660E-02 1.18955E-03-5.88551E-14
 -1      2044 1.19602E-02 1.16831E-03-5.88104E-14
 -1      2045 1.24196E-02 1.03241E-03-6.27189E-14
 -1      2046 1.22657E-02 1.09176E-03-6.14209E-14
 -1      2047 1.22665E-02 1.07019E-03-6.13775E-14
 -1      2048 1.27338E-02 9.08695E-04-6.53296E-14
 -1      2049 1.25758E-02 9.70716E-04-6.40207E-14
 -1      2050 1.25823E-02 9.47821E-04-6.39746E-14
 -1      2051 1.30529E-02 7.92684E-04-6.79576E-14
 -1      2052 1.28932E-02 8.49168E-04-6.66424E-14
 -1      2053 1.29038E-02 8.25047E-04-6.65974E-14
 -1      2054 1.33715E-02 6.92645E-04-7.05869E-14
 -1      2055 1.32127E-02 7.40675E-04-6.92736E-14
 -1      2056 1.32257E-02 7.15949E-04-6.92264E-14
 -1      2057 1.36853E-02 6.07886E-04-7.32138E-14
 -1      2058 1.35293E-02 6.48709E-04-7.19008E-14
 -1      2059 1.35433E-02 6.24095E-04-7.18575E-14
 -1      2060 1.39918E-02 5.32162E-04-7.58379E-14
 -1      2061 1.38396E-02 5.69392E-04-7.45261E-14
 -1      2062 1.38541E-02 5.45534E-04-7.44865E-14
 -1      2063 1.42903E-02 4.57000E-04-7.84580E-14
 -1      2064 1.41421E-02 4.94988E-04-7.71482E-14
 -1      2065 1.41566E-02 4.72402E-04-7.71120E-14
 -1      2066 1.45337E-02 3.87102E-04-8.06233E-14
 -1      2067 1.43883E-02 4.28556E-04-7.93145E-14
 -1      2068 1.44031E-02 4.07255E-04-7.92834E-14
 -1      2069 1.45973E-02 3.48692E-04-8.10009E-14
 -1      2070 1.48816E-02 1.61704E-04-8.17989E-14
 -1      2071 1.48231E-02 1.91969E-04-8.16018E-14
 -1      2072 1.47643E-02 2.24784E-04-8.14036E-14
 -1      2073 1.47062E-02 2.59657E-04-8.12101E-14
 -1      2074 1.46710E-02 2.38001E-04-8.03539E-14
 -1      2075 1.46774E-02 2.84090E-04-8.12024E-14
 -1      2076 1.46227E-02 3.22196E-04-8.10080E-14
 -1      2077 1.45259E-02 3.51322E-04-8.01468E-14
 -1      2078 1.45817E-02 2.98897E-04-8.01565E-14
 -1      2079 1.49909E-02 1.09723E-04-8.21781E-14
 -1      2080 1.49375E-02 1.34403E-04-8.19879E-14
 -1      2081 1.47886E-02 1.73327E-04-8.07328E-14
 -1      2082 1.50856E-02 6.74683E-05-8.25653E-14
 -1      2083 1.50410E-02 8.73470E-05-8.23722E-14
 -1      2084 1.48983E-02 1.17898E-04-8.11085E-14
 -1      2085 1.51527E-02 3.46250E-05-8.29509E-14
 -1      2086 1.51232E-02 5.01573E-05-8.27578E-14
 -1      2087 1.49895E-02 7.18393E-05-8.14872E-14
 -1      2088 1.51832E-02 7.89871E-06-8.33412E-14
 -1      2089 1.51729E-02 2.09510E-05-8.31460E-14
 -1      2090 1.50501E-02 3.42863E-05-8.18692E-14
 -1      2091 1.51727E-02-1.75199E-05-8.37254E-14
 -1      2092 1.51831E-02-4.45490E-06-8.35342E-14
 -1      2093 1.50713E-02 1.70698E-06-8.22510E-14
 -1      2094 1.51227E-02-4.67865E-05-8.40931E-14
 -1      2095 1.51523E-02-3.12187E-05-8.39109E-14
 -1      2096 1.50498E-02-3.08975E-05-8.26231E-14
 -1      2097 1.50418E-02-8.33525E-05-8.44477E-14
 -1      2098 1.50857E-02-6.38277E-05-8.42717E-14
 -1      2099 1.49896E-02-6.81673E-05-8.29822E-14
 -1      2100 1.49376E-02-1.30777E-04-8.47960E-14
 -1      2101 1.49919E-02-1.05690E-04-8.46226E-14
 -1      2102 1.48992E-02-1.13801E-04-8.33300E-14
 -1      2103 1.48222E-02-1.88904E-04-8.51408E-14
 -1      2104 1.48807E-02-1.58583E-04-8.49680E-14
 -1      2105 1.47888E-02-1.69667E-04-8.36726E-14
 -1      2106 1.47055E-02-2.56681E-04-8.54802E-14
 -1      2107 1.47635E-02-2.21770E-04-8.53113E-14
 -1      2108 1.46701E-02-2.34951E-04-8.40123E-14
 -1      2109 1.35439E-02 1.77328E-04-6.39467E-14
 -1      2110 1.36860E-02 1.22577E-04-6.43305E-14
 -1      2111 1.39394E-02 1.31745E-05-6.52039E-14
 -1      2112 1.39416E-02-5.22950E-06-6.53678E-14
 -1      2113 1.38147E-02 7.33891E-05-6.46634E-14
 -1      2114 1.38939E-02 4.34250E-05-6.49050E-14
 -1      2115 1.31710E-02 3.34393E-04-6.30476E-14
 -1      2116 1.33608E-02 2.50215E-04-6.35286E-14
 -1      2117 1.27325E-02 5.68789E-04-6.16239E-14
 -1      2118 1.29257E-02 4.59873E-04-6.22777E-14
 -1      2119 3.27171E-04-8.89798E-05-1.28885E-16
 -1      2120 3.29252E-04-1.02150E-04-1.25374E-16
 -1      2121 4.46289E-04-1.45123E-04-1.82959E-16
 -1      2122 4.39999E-04-1.09955E-04-1.92148E-16
 -1      2123 1.19539E-02 9.69365E-04-5.84158E-14
 -1      2124 1.21162E-02 9.00005E-04-5.91997E-14
 -1      2125 1.16376E-02 1.03134E-03-5.68847E-14
 -1      2126 1.17913E-02 1.01270E-03-5.76493E-14
 -1      2127 1.18593E-02 1.00083E-03-5.80653E-14
 -1      2128 1.12752E-02 9.68680E-04-5.51511E-14
 -1      2129 1.14340E-02 1.01527E-03-5.58808E-14
 -1      2130 1.09144E-02 8.04077E-04-5.37767E-14
 -1      2131 1.10867E-02 8.92973E-04-5.44307E-14
 -1      2132 1.05245E-02 5.85937E-04-5.25066E-14
 -1      2133 1.07084E-02 6.91604E-04-5.30577E-14
 -1      2134 1.01360E-02 3.60959E-04-5.13116E-14
 -1      2135 1.03261E-02 4.66149E-04-5.18231E-14
 -1      2136 9.72472E-03 1.79153E-04-5.05930E-14
 -1      2137 9.89468E-03 2.48363E-04-5.08493E-14
 -1      2138 9.45810E-03 8.02086E-05-5.02726E-14
 -1      2139 9.57063E-03 1.21555E-04-5.04294E-14
 -1      2140 9.32307E-03 1.97057E-05-5.01958E-14
 -1      2141 9.36759E-03 4.27234E-05-5.02064E-14
 -1      2142 9.34709E-03-2.76187E-05-5.03701E-14
 -1      2143 9.31579E-03-7.23805E-06-5.02356E-14
 -1      2144 9.52264E-03-9.52502E-05-5.08191E-14
 -1      2145 9.42304E-03-5.99393E-05-5.05466E-14
 -1      2146 9.81728E-03-2.16390E-04-5.16270E-14
 -1      2147 9.66342E-03-1.54577E-04-5.12477E-14
 -1      2148 1.01904E-02-3.95172E-04-5.26699E-14
 -1      2149 1.00139E-02-3.06361E-04-5.21619E-14
 -1      2150 1.05783E-02-6.05133E-04-5.38848E-14
 -1      2151 1.04010E-02-5.03238E-04-5.32840E-14
 -1      2152 1.09489E-02-8.17827E-04-5.53589E-14
 -1      2153 1.07842E-02-7.23582E-04-5.46810E-14
 -1      2154 1.12814E-02-9.67680E-04-5.68423E-14
 -1      2155 1.11318E-02-9.05087E-04-5.61390E-14
 -1      2156 1.15994E-02-1.02652E-03-5.84017E-14
 -1      2157 1.14547E-02-1.01169E-03-5.76820E-14
 -1      2158 1.19150E-02-9.76936E-04-5.99530E-14
 -1      2159 1.17711E-02-1.01484E-03-5.92598E-14
 -1      2160 1.22339E-02-8.37295E-04-6.13430E-14
 -1      2161 1.20738E-02-9.18577E-04-6.06468E-14
 -1      2162 1.19680E-02-9.58806E-04-6.04931E-14
 -1      2163 1.26571E-02-6.08116E-04-6.27635E-14
 -1      2164 1.24756E-02-7.08489E-04-6.22386E-14
 -1      2165 1.30350E-02-4.14260E-04-6.36499E-14
 -1      2166 1.28581E-02-5.08241E-04-6.32074E-14
 -1      2167 1.33947E-02-2.37214E-04-6.44957E-14
 -1      2168 1.32297E-02-3.12584E-04-6.41650E-14
 -1      2169 1.36985E-02-1.17170E-04-6.49389E-14
 -1      2170 1.35674E-02-1.67614E-04-6.47375E-14
 -1      2171 1.38894E-02-3.79037E-05-6.53816E-14
 -1      2172 1.38112E-02-6.73225E-05-6.52397E-14
 -1      2173 1.23565E-02 7.78501E-04-6.02462E-14
 -1      2174 1.25425E-02 6.74461E-04-6.09318E-14
 -1      2175 1.26245E-02 6.05594E-04-6.16231E-14
 -1      2176 1.30391E-02 3.76926E-04-6.30891E-14
 -1      2177 6.07880E-04-2.98145E-04-1.99425E-16
 -1      2178 1.21122E-02 8.96174E-04-5.95127E-14
 -1      2179 1.22203E-02 8.41452E-04-5.98802E-14
 -1      2180 1.23214E-02 7.76392E-04-6.05620E-14
 -1      2181 6.63597E-04-2.92433E-04-2.65413E-16
 -1      2182 1.37530E-02 8.01515E-05-6.50401E-14
 -1      2183 1.39251E-02 2.08282E-05-6.56738E-14
 -1      2184 1.46183E-02-2.97775E-04-8.52047E-14
 -1      2185 1.34474E-02 1.89181E-04-6.42844E-14
 -1      2186 1.39281E-02-1.54185E-05-6.59873E-14
 -1      2187 1.37551E-02-7.38859E-05-6.56997E-14
 -1      2188 1.34731E-02-1.79889E-04-6.51546E-14
 -1      2189 1.31165E-02-3.41182E-04-6.43944E-14
 -1      2190 1.23290E-02-7.75597E-04-6.20860E-14
 -1      2191 1.16829E-02-1.03330E-03-5.89370E-14
 -1      2192 1.13754E-02-1.00051E-03-5.72384E-14
 -1      2193 1.10617E-02-8.65780E-04-5.56184E-14
 -1      2194 1.07036E-02-6.58598E-04-5.40444E-14
 -1      2195 1.03140E-02-4.32834E-04-5.26395E-14
 -1      2196 9.92177E-03-2.38636E-04-5.14968E-14
 -1      2197 9.59203E-03-1.02894E-04-5.05391E-14
 -1      2198 9.37814E-03-3.27221E-05-4.99384E-14
 -1      2199 9.31043E-03 4.68892E-06-4.97251E-14
 -1      2200 9.40770E-03 4.83055E-05-4.97513E-14
 -1      2201 9.64876E-03 1.28233E-04-4.99781E-14
 -1      2202 1.00263E-02 2.86221E-04-5.06000E-14
 -1      2203 1.04481E-02 5.12112E-04-5.17401E-14
 -1      2204 1.08331E-02 7.44489E-04-5.31389E-14
 -1      2205 1.15343E-02 1.03582E-03-5.62941E-14
 -1      2206 1.11951E-02 9.36340E-04-5.45755E-14
 -1      2207 1.27360E-02-5.41691E-04-6.34330E-14
 -1      2208 1.01658E-03 3.99851E-04-4.08893E-16
 -1      2209 8.72121E-04 3.63463E-04-2.96285E-16
 -1      2210 5.47794E-04-5.53169E-05-2.80795E-16
 -1      2211 5.48829E-04-7.20388E-05-2.80890E-16
 -1      2212 5.50248E-04-8.93668E-05-2.80198E-16
 -1      2213 5.52106E-04-1.07358E-04-2.78437E-16
 -1      2214 6.65300E-04-9.55182E-05-3.80135E-16
 -1      2215 5.46414E-04 8.85895E-06-2.74073E-16
 -1      2216 5.46394E-04-6.98363E-06-2.76743E-16
 -1      2217 5.47168E-04 4.08796E-05-2.66890E-16
 -1      2218 5.46669E-04 2.48004E-05-2.70766E-16
 -1      2219 6.61356E-04 1.99368E-05-3.69442E-16
 -1      2220 5.48992E-04 7.35095E-05-2.57146E-16
 -1      2221 5.47931E-04 5.70133E-05-2.62621E-16
 -1      2222 6.62680E-04 5.78035E-05-3.59481E-16
 -1      2223 5.52381E-04 1.08988E-04-2.43444E-16
 -1      2224 5.50459E-04 9.09106E-05-2.50830E-16
 -1      2225 6.65538E-04 9.72816E-05-3.45549E-16
 -1      2226 5.58256E-04 1.48326E-04-2.24186E-16
 -1      2227 5.54940E-04 1.28100E-04-2.34648E-16
 -1      2228 6.70623E-04 1.40059E-04-3.26358E-16
 -1      2229 5.68583E-04 1.93925E-04-1.97189E-16
 -1      2230 5.62745E-04 1.70207E-04-2.11812E-16
 -1      2231 6.79269E-04 1.87606E-04-2.99728E-16
 -1      2232 1.29247E-02 4.24599E-04-6.32915E-14
 -1      2233 1.31428E-02 3.11742E-04-6.40685E-14
 -1      2234 1.30204E-03 4.56798E-04-6.95895E-16
 -1      2235 1.15972E-03 4.30855E-04-5.42020E-16
 -1      2236 1.07176E-03 3.81375E-04-5.09019E-16
 -1      2237 9.15175E-04-3.46407E-04-5.03598E-16
 -1      2238 1.05927E-03-3.79734E-04-6.60293E-16
 -1      2239 1.20252E-03-4.08130E-04-8.39511E-16
 -1      2240 1.34532E-03-4.32004E-04-1.04161E-15
 -1      2241 1.11695E-03-3.60561E-04-7.67466E-16
 -1      2242 1.48750E-03-4.52219E-04-1.26633E-15
 -1      2243 1.62927E-03-4.69054E-04-1.51409E-15
 -1      2244 1.40328E-03-4.07325E-04-1.17479E-15
 -1      2245 1.77069E-03-4.83181E-04-1.78372E-15
 -1      2246 1.91186E-03-4.94812E-04-2.07576E-15
 -1      2247 1.68840E-03-4.40554E-04-1.67134E-15
 -1      2248 2.05288E-03-5.04442E-04-2.39002E-15
 -1      2249 2.19379E-03-5.12245E-04-2.72643E-15
 -1      2250 1.97258E-03-4.63584E-04-2.25636E-15
 -1      2251 2.33468E-03-5.18580E-04-3.08434E-15
 -1      2252 2.47555E-03-5.23590E-04-3.46436E-15
 -1      2253 2.25620E-03-4.79047E-04-2.92847E-15
 -1      2254 2.61649E-03-5.27537E-04-3.86617E-15
 -1      2255 2.75747E-03-5.30533E-04-4.28872E-15
 -1      2256 2.53960E-03-4.88971E-04-3.68717E-15
 -1      2257 2.89856E-03-5.32768E-04-4.73269E-15
 -1      2258 3.03972E-03-5.34330E-04-5.19700E-15
 -1      2259 2.82301E-03-4.94895E-04-4.53110E-15
 -1      2260 3.18102E-03-5.35353E-04-5.68125E-15
 -1      2261 3.32240E-03-5.35904E-04-6.18672E-15
 -1      2262 3.10656E-03-4.97970E-04-5.45763E-15
 -1      2263 3.46392E-03-5.36076E-04-6.71182E-15
 -1      2264 3.60554E-03-5.35918E-04-7.25666E-15
 -1      2265 3.39036E-03-4.99039E-04-6.46511E-15
 -1      2266 3.74729E-03-5.35491E-04-7.82042E-15
 -1      2267 3.88913E-03-5.34829E-04-8.40414E-15
 -1      2268 3.67443E-03-4.98702E-04-7.55201E-15
 -1      2269 4.03110E-03-5.33968E-04-9.00702E-15
 -1      2270 4.17317E-03-5.32931E-04-9.62953E-15
 -1      2271 3.95878E-03-4.97365E-04-8.71586E-15
 -1      2272 4.31535E-03-5.31736E-04-1.02715E-14
 -1      2273 4.45763E-03-5.30395E-04-1.09328E-14
 -1      2274 4.24343E-03-4.95288E-04-9.95757E-15
 -1      2275 4.60001E-03-5.28912E-04-1.16127E-14
 -1      2276 4.74250E-03-5.27293E-04-1.23122E-14
 -1      2277 4.52837E-03-4.92609E-04-1.12767E-14
 -1      2278 4.88510E-03-5.25531E-04-1.30313E-14
 -1      2279 5.02780E-03-5.23625E-04-1.37674E-14
 -1      2280 4.81361E-03-4.89378E-04-1.26722E-14
 -1      2281 5.17062E-03-5.21561E-04-1.45225E-14
 -1      2282 5.31357E-03-5.19338E-04-1.52962E-14
 -1      2283 5.09917E-03-4.85579E-04-1.41423E-14
 -1      2284 5.45664E-03-5.16933E-04-1.60876E-14
 -1      2285 5.59986E-03-5.14344E-04-1.68968E-14
 -1      2286 5.38507E-03-4.81145E-04-1.56849E-14
 -1      2287 5.74324E-03-5.11550E-04-1.77238E-14
 -1      2288 5.88679E-03-5.08549E-04-1.85694E-14
 -1      2289 5.67138E-03-4.75985E-04-1.73000E-14
 -1      2290 6.03053E-03-5.05319E-04-1.94327E-14
 -1      2291 6.17450E-03-5.01867E-04-2.03152E-14
 -1      2292 5.95818E-03-4.69997E-04-1.89881E-14
 -1      2293 6.31870E-03-4.98177E-04-2.12164E-14
 -1      2294 6.46319E-03-4.94264E-04-2.21351E-14
 -1      2295 6.24558E-03-4.63105E-04-2.07492E-14
 -1      2296 6.60796E-03-4.90127E-04-2.30738E-14
 -1      2297 6.75310E-03-4.85794E-04-2.40294E-14
 -1      2298 6.53373E-03-4.55281E-04-2.25840E-14
 -1      2299 6.89859E-03-4.81291E-04-2.50033E-14
 -1      2300 7.04454E-03-4.76666E-04-2.59956E-14
 -1      2301 6.82280E-03-4.46602E-04-2.44922E-14
 -1      2302 7.19092E-03-4.71981E-04-2.70050E-14
 -1      2303 7.33788E-03-4.67318E-04-2.80294E-14
 -1      2304 7.11304E-03-4.37305E-04-2.64704E-14
 -1      2305 7.48537E-03-4.62792E-04-2.90696E-14
 -1      2306 7.63356E-03-4.58529E-04-3.01240E-14
 -1      2307 7.40473E-03-4.27870E-04-2.85139E-14
 -1      2308 7.78243E-03-4.54722E-04-3.11913E-14
 -1      2309 7.93213E-03-4.51557E-04-3.22737E-14
 -1      2310 7.69825E-03-4.19131E-04-3.06171E-14
 -1      2311 8.08266E-03-4.49325E-04-3.33692E-14
 -1      2312 8.23421E-03-4.48299E-04-3.44772E-14
 -1      2313 7.99408E-03-4.12406E-04-3.27741E-14
 -1      2314 8.38679E-03-4.48885E-04-3.55967E-14
 -1      2315 8.54058E-03-4.51471E-04-3.67284E-14
 -1      2316 8.29291E-03-4.09658E-04-3.49838E-14
 -1      2317 8.69568E-03-4.56582E-04-3.78716E-14
 -1      2318 8.85218E-03-4.64753E-04-3.90254E-14
 -1      2319 8.59568E-03-4.13671E-04-3.72410E-14
 -1      2320 9.01036E-03-4.76598E-04-4.01903E-14
 -1      2321 9.17015E-03-4.92810E-04-4.13649E-14
 -1      2322 8.90374E-03-4.28194E-04-3.95422E-14
 -1      2323 9.33202E-03-5.14004E-04-4.25480E-14
 -1      2324 9.49562E-03-5.40992E-04-4.37400E-14
 -1      2325 9.21891E-03-4.57999E-04-4.18838E-14
 -1      2326 9.66164E-03-5.74206E-04-4.49412E-14
 -1      2327 9.82926E-03-6.14365E-04-4.61493E-14
 -1      2328 9.54331E-03-5.08676E-04-4.42614E-14
 -1      2329 9.99927E-03-6.61408E-04-4.73654E-14
 -1      2330 1.01702E-02-7.15520E-04-4.85889E-14
 -1      2331 9.87862E-03-5.85733E-04-4.66712E-14
 -1      2332 1.03427E-02-7.75790E-04-4.98218E-14
 -1      2333 1.05147E-02-8.40854E-04-5.10620E-14
 -1      2334 1.02246E-02-6.92388E-04-4.91125E-14
 -1      2335 1.06863E-02-9.08632E-04-5.23094E-14
 -1      2336 1.08555E-02-9.75288E-04-5.35664E-14
 -1      2337 1.05766E-02-8.24987E-04-5.15845E-14
 -1      2338 1.10218E-02-1.03760E-03-5.48315E-14
 -1      2339 1.11849E-02-1.08998E-03-5.61066E-14
 -1      2340 1.09249E-02-9.65575E-04-5.40924E-14
 -1      2341 1.13438E-02-1.12905E-03-5.73865E-14
 -1      2342 1.15015E-02-1.15042E-03-5.86761E-14
 -1      2343 1.12600E-02-1.07917E-03-5.66341E-14
 -1      2344 1.16565E-02-1.15252E-03-5.99744E-14
 -1      2345 1.18136E-02-1.13519E-03-6.12787E-14
 -1      2346 1.15819E-02-1.12610E-03-5.92099E-14
 -1      2347 1.19715E-02-1.09980E-03-6.25883E-14
 -1      2348 1.21331E-02-1.05075E-03-6.39077E-14
 -1      2349 1.19031E-02-1.08741E-03-6.18146E-14
 -1      2350 1.22973E-02-9.91296E-04-6.52378E-14
 -1      2351 1.24640E-02-9.26745E-04-6.65730E-14
 -1      2352 1.22360E-02-9.80548E-04-6.44500E-14
 -1      2353 1.26326E-02-8.60248E-04-6.79179E-14
 -1      2354 1.28011E-02-7.95467E-04-6.92723E-14
 -1      2355 1.25808E-02-8.44333E-04-6.71214E-14
 -1      2356 1.29697E-02-7.34268E-04-7.06333E-14
 -1      2357 1.31362E-02-6.77843E-04-7.20056E-14
 -1      2358 1.29281E-02-7.12441E-04-6.98253E-14
 -1      2359 1.33013E-02-6.26795E-04-7.33836E-14
 -1      2360 1.34635E-02-5.80721E-04-7.47624E-14
 -1      2361 1.32680E-02-6.01405E-04-7.25632E-14
 -1      2362 1.36235E-02-5.39280E-04-7.61473E-14
 -1      2363 1.37805E-02-5.01374E-04-7.75385E-14
 -1      2364 1.35957E-02-5.13034E-04-7.53221E-14
 -1      2365 1.39352E-02-4.66120E-04-7.89312E-14
 -1      2366 1.40872E-02-4.32208E-04-8.03283E-14
 -1      2367 1.39106E-02-4.41356E-04-7.80961E-14
 -1      2368 1.86517E-03 5.25281E-04-1.52070E-15
 -1      2369 1.72495E-03 5.12544E-04-1.28277E-15
 -1      2370 2.14522E-03 5.44516E-04-2.06000E-15
 -1      2371 2.00524E-03 5.35878E-04-1.77988E-15
 -1      2372 1.92450E-03 4.94657E-04-1.70643E-15
 -1      2373 2.42524E-03 5.57227E-04-2.68238E-15
 -1      2374 2.28522E-03 5.51582E-04-2.36073E-15
 -1      2375 2.20658E-03 5.11867E-04-2.27265E-15
 -1      2376 2.70561E-03 5.65208E-04-3.38710E-15
 -1      2377 2.56538E-03 5.61728E-04-3.02457E-15
 -1      2378 2.48849E-03 5.23092E-04-2.92145E-15
 -1      2379 2.98653E-03 5.69796E-04-4.17407E-15
 -1      2380 2.84600E-03 5.67865E-04-3.77006E-15
 -1      2381 2.77055E-03 5.29987E-04-3.65203E-15
 -1      2382 3.26809E-03 5.71980E-04-5.04357E-15
 -1      2383 3.12723E-03 5.71143E-04-4.59878E-15
 -1      2384 3.05293E-03 5.33790E-04-4.46516E-15
 -1      2385 3.55030E-03 5.72469E-04-5.99363E-15
 -1      2386 3.40912E-03 5.72403E-04-5.50800E-15
 -1      2387 3.33572E-03 5.35409E-04-5.35955E-15
 -1      2388 3.83313E-03 5.71761E-04-7.02650E-15
 -1      2389 3.69164E-03 5.72241E-04-6.49967E-15
 -1      2390 3.61895E-03 5.35495E-04-6.33451E-15
 -1      2391 4.11655E-03 5.70184E-04-8.14285E-15
 -1      2392 3.97477E-03 5.71066E-04-7.57421E-15
 -1      2393 3.90262E-03 5.34495E-04-7.39208E-15
 -1      2394 4.40052E-03 5.67934E-04-9.34279E-15
 -1      2395 4.25847E-03 5.69134E-04-8.73238E-15
 -1      2396 4.18672E-03 5.32699E-04-8.53266E-15
 -1      2397 4.68501E-03 5.65102E-04-1.06229E-14
 -1      2398 4.54271E-03 5.66586E-04-9.97279E-15
 -1      2399 4.47123E-03 5.30270E-04-9.75514E-15
 -1      2400 4.97003E-03 5.61705E-04-1.19852E-14
 -1      2401 4.82746E-03 5.63473E-04-1.12944E-14
 -1      2402 4.75615E-03 5.27278E-04-1.10587E-14
 -1      2403 5.25560E-03 5.57702E-04-1.34251E-14
 -1      2404 5.11274E-03 5.59781E-04-1.26958E-14
 -1      2405 5.04149E-03 5.23718E-04-1.24426E-14
 -1      2406 5.54179E-03 5.53015E-04-1.49411E-14
 -1      2407 5.39861E-03 5.55446E-04-1.41731E-14
 -1      2408 5.32728E-03 5.19536E-04-1.39034E-14
 -1      2409 5.82873E-03 5.47551E-04-1.65322E-14
 -1      2410 5.68515E-03 5.50382E-04-1.57283E-14
 -1      2411 5.61359E-03 5.14644E-04-1.54399E-14
 -1      2412 6.11657E-03 5.41229E-04-1.81954E-14
 -1      2413 5.97252E-03 5.44497E-04-1.73545E-14
 -1      2414 5.90053E-03 5.08945E-04-1.70508E-14
 -1      2415 6.40557E-03 5.34005E-04-1.99277E-14
 -1      2416 6.26090E-03 5.37725E-04-1.90530E-14
 -1      2417 6.18825E-03 5.02357E-04-1.87322E-14
 -1      2418 6.69601E-03 5.25923E-04-2.17289E-14
 -1      2419 6.55057E-03 5.30060E-04-2.08193E-14
 -1      2420 6.47692E-03 4.94848E-04-2.04826E-14
 -1      2421 6.98827E-03 5.17167E-04-2.35951E-14
 -1      2422 6.84187E-03 5.21607E-04-2.26537E-14
 -1      2423 6.76680E-03 4.86477E-04-2.23004E-14
 -1      2424 7.28280E-03 5.08142E-04-2.55207E-14
 -1      2425 7.13520E-03 5.12650E-04-2.45506E-14
 -1      2426 7.05819E-03 4.77459E-04-2.41808E-14
 -1      2427 7.58012E-03 4.99577E-04-2.75066E-14
 -1      2428 7.43105E-03 5.03741E-04-2.65076E-14
 -1      2429 7.35145E-03 4.68245E-04-2.61236E-14
 -1      2430 7.88083E-03 4.92665E-04-2.95404E-14
 -1      2431 7.72999E-03 4.95823E-04-2.85172E-14
 -1      2432 7.64703E-03 4.59630E-04-2.81208E-14
 -1      2433 8.18559E-03 4.89224E-04-3.16244E-14
 -1      2434 8.03264E-03 4.90378E-04-3.05765E-14
 -1      2435 7.94545E-03 4.52890E-04-3.01684E-14
 -1      2436 8.49507E-03 4.91878E-04-3.37492E-14
 -1      2437 8.33968E-03 4.89605E-04-3.26819E-14
 -1      2438 8.24736E-03 4.49950E-04-3.22623E-14
 -1      2439 8.80997E-03 5.04205E-04-3.59129E-14
 -1      2440 8.65181E-03 4.96588E-04-3.48261E-14
 -1      2441 8.55356E-03 4.53554E-04-3.43991E-14
 -1      2442 9.13091E-03 5.30749E-04-3.81112E-14
 -1      2443 8.96971E-03 5.15398E-04-3.70077E-14
 -1      2444 8.86502E-03 4.67411E-04-3.65755E-14
 -1      2445 9.45827E-03 5.76699E-04-4.03396E-14
 -1      2446 9.29391E-03 5.50971E-04-3.92214E-14
 -1      2447 9.18293E-03 4.96212E-04-3.87829E-14
 -1      2448 9.79181E-03 6.46907E-04-4.26058E-14
 -1      2449 9.62452E-03 6.08508E-04-4.14680E-14
 -1      2450 9.50850E-03 5.45313E-04-4.10249E-14
 -1      2451 1.01300E-02 7.43795E-04-4.49117E-14
 -1      2452 9.96075E-03 6.92013E-04-4.37530E-14
 -1      2453 9.84244E-03 6.19780E-04-4.33038E-14
 -1      2454 1.04690E-02 8.63865E-04-4.72600E-14
 -1      2455 1.03000E-02 8.01486E-04-4.60805E-14
 -1      2456 1.01838E-02 7.22149E-04-4.56228E-14
 -1      2457 1.08032E-02 9.93698E-04-4.96505E-14
 -1      2458 1.06373E-02 9.28928E-04-4.84502E-14
 -1      2459 1.05285E-02 8.48340E-04-4.79845E-14
 -1      2460 1.11266E-02 1.10818E-03-5.20782E-14
 -1      2461 1.09664E-02 1.05486E-03-5.08601E-14
 -1      2462 1.08692E-02 9.82608E-04-5.03861E-14
 -1      2463 1.14378E-02 1.17670E-03-5.45429E-14
 -1      2464 1.12831E-02 1.15003E-03-5.33063E-14
 -1      2465 1.11982E-02 1.09557E-03-5.28231E-14
 -1      2466 1.17430E-02 1.17745E-03-5.70498E-14
 -1      2467 1.15899E-02 1.18614E-03-5.57912E-14
 -1      2468 1.15149E-02 1.15282E-03-5.52998E-14
 -1      2469 1.20521E-02 1.11069E-03-5.95873E-14
 -1      2470 1.18960E-02 1.15138E-03-5.83129E-14
 -1      2471 1.18281E-02 1.13387E-03-5.78151E-14
 -1      2472 1.23710E-02 9.98664E-04-6.21667E-14
 -1      2473 1.22102E-02 1.05840E-03-6.08727E-14
 -1      2474 1.21490E-02 1.04679E-03-6.03672E-14
 -1      2475 1.26979E-02 8.70804E-04-6.47726E-14
 -1      2476 1.25339E-02 9.34993E-04-6.34660E-14
 -1      2477 1.24811E-02 9.21783E-04-6.29548E-14
 -1      2478 1.30268E-02 7.49867E-04-6.73962E-14
 -1      2479 1.28628E-02 8.08526E-04-6.60835E-14
 -1      2480 1.28188E-02 7.90794E-04-6.55687E-14
 -1      2481 1.33518E-02 6.46524E-04-7.00324E-14
 -1      2482 1.31903E-02 6.95824E-04-6.87156E-14
 -1      2483 1.31540E-02 6.74076E-04-6.81997E-14
 -1      2484 1.36693E-02 5.60959E-04-7.26688E-14
 -1      2485 1.35117E-02 6.01781E-04-7.13503E-14
 -1      2486 1.34810E-02 5.77947E-04-7.08405E-14
 -1      2487 1.39780E-02 4.87205E-04-7.53028E-14
 -1      2488 1.38249E-02 5.23101E-04-7.39854E-14
 -1      2489 1.37976E-02 4.99346E-04-7.34820E-14
 -1      2490 1.42780E-02 4.16538E-04-7.79318E-14
 -1      2491 1.41291E-02 4.52059E-04-7.66164E-14
 -1      2492 1.41038E-02 4.30552E-04-7.61191E-14
 -1      2493 1.44284E-02 3.79304E-04-7.92861E-14
 -1      2494 1.48055E-02 1.20398E-04-8.00346E-14
 -1      2495 1.47524E-02 1.48838E-04-7.98478E-14
 -1      2496 1.48934E-02 7.08772E-05-8.04078E-14
 -1      2497 1.48530E-02 9.45384E-05-8.02217E-14
 -1      2498 1.47131E-02 1.18261E-04-7.89588E-14
 -1      2499 1.45773E-02 2.46803E-04-7.92970E-14
 -1      2500 1.45167E-02 2.83650E-04-7.91079E-14
 -1      2501 1.46959E-02 1.79408E-04-7.96621E-14
 -1      2502 1.46374E-02 2.11932E-04-7.94797E-14
 -1      2503 1.44829E-02 2.51649E-04-7.82326E-14
 -1      2504 1.46038E-02 1.80461E-04-7.85928E-14
 -1      2505 1.49470E-02 2.95690E-05-8.07835E-14
 -1      2506 1.49251E-02 4.95460E-05-8.05960E-14
 -1      2507 1.47974E-02 6.60400E-05-7.93274E-14
 -1      2508 1.49581E-02-7.59687E-06-8.11578E-14
 -1      2509 1.49582E-02 1.09933E-05-8.09711E-14
 -1      2510 1.48435E-02 2.20813E-05-7.96974E-14
 -1      2511 1.49247E-02-4.61894E-05-8.15190E-14
 -1      2512 1.49468E-02-2.61855E-05-8.13390E-14
 -1      2513 1.48433E-02-1.86940E-05-8.00590E-14
 -1      2514 1.48538E-02-9.04214E-05-8.18687E-14
 -1      2515 1.48934E-02-6.71797E-05-8.16965E-14
 -1      2516 1.47974E-02-6.23105E-05-8.04111E-14
 -1      2517 1.47535E-02-1.44642E-04-8.22138E-14
 -1      2518 1.48065E-02-1.16241E-04-8.20433E-14
 -1      2519 1.47140E-02-1.14048E-04-8.07567E-14
 -1      2520 1.46370E-02-2.08517E-04-8.25529E-14
 -1      2521 1.46965E-02-1.75454E-04-8.23840E-14
 -1      2522 1.46044E-02-1.76451E-04-8.10979E-14
 -1      2523 1.45158E-02-2.80602E-04-8.28856E-14
 -1      2524 1.45764E-02-2.43729E-04-8.27178E-14
 -1      2525 1.44825E-02-2.48252E-04-8.14314E-14
 -1      2526 1.39051E-02 2.52616E-05-6.62511E-14
 -1      2527 1.39532E-02 1.28055E-05-6.65519E-14
 -1      2528 1.33902E-02 1.99053E-04-6.48728E-14
 -1      2529 1.35504E-02 1.37133E-04-6.52963E-14
 -1      2530 1.58444E-03 4.97121E-04-1.06622E-15
 -1      2531 1.44351E-03 4.78800E-04-8.70614E-16
 -1      2532 1.64179E-03 4.69264E-04-1.22382E-15
 -1      2533 1.44912E-02-3.30093E-04-8.39374E-14
 -1      2534 1.39646E-02-5.12969E-06-6.69074E-14
 -1      2535 1.39168E-02-1.84081E-05-6.69210E-14
 -1      2536 1.37024E-02 8.48230E-05-6.55754E-14
 -1      2537 1.38211E-02 5.10818E-05-6.59118E-14
 -1      2538 1.38787E-02 3.61314E-05-6.67862E-14
 -1      2539 5.88473E-04-2.38004E-04-2.42617E-16
 -1      2540 7.81295E-04-3.04828E-04-3.84634E-16
 -1      2541 8.40715E-04-2.93639E-04-4.65909E-16
 -1      2542 5.78958E-04-2.10233E-04-2.55194E-16
 -1      2543 1.37990E-02-5.34837E-05-6.65008E-14
 -1      2544 1.36867E-02-8.65780E-05-6.61994E-14
 -1      2545 1.17351E-02-1.03321E-03-5.93945E-14
 -1      2546 1.15985E-02-1.04454E-03-5.85351E-14
 -1      2547 5.46607E-04-2.29085E-05-2.78599E-16
 -1      2548 5.47064E-04-3.89544E-05-2.80022E-16
 -1      2549 6.62530E-04-5.58330E-05-3.79986E-16
 -1      2550 6.61303E-04-1.77111E-05-3.76327E-16
 -1      2551 1.11046E-02 8.90920E-04-5.38542E-14
 -1      2552 1.12526E-02 9.66937E-04-5.45709E-14
 -1      2553 1.17866E-02 1.02768E-03-5.77159E-14
 -1      2554 1.19156E-02 9.84727E-04-5.84821E-14
 -1      2555 1.28423E-02-4.65919E-04-6.43494E-14
 -1      2556 1.26735E-02-5.63751E-04-6.39010E-14
 -1      2557 1.14605E-02 1.03358E-03-5.57381E-14
 -1      2558 1.16230E-02 1.04851E-03-5.67400E-14
 -1      2559 1.07632E-02 6.89874E-04-5.24177E-14
 -1      2560 1.09382E-02 7.98772E-04-5.31332E-14
 -1      2561 1.10102E-02 8.44125E-04-5.31281E-14
 -1      2562 1.04018E-02 4.72522E-04-5.10569E-14
 -1      2563 1.05842E-02 5.81297E-04-5.17363E-14
 -1      2564 1.06879E-02 6.47810E-04-5.17298E-14
 -1      2565 9.90916E-03 2.19516E-04-4.97022E-14
 -1      2566 1.01222E-02 3.21095E-04-5.01600E-14
 -1      2567 9.56523E-03 8.80839E-05-4.92941E-14
 -1      2568 9.70360E-03 1.35092E-04-4.94542E-14
 -1      2569 9.35825E-03 2.74907E-05-4.90408E-14
 -1      2570 9.44185E-03 4.85362E-05-4.91051E-14
 -1      2571 9.29962E-03 1.71734E-06-4.91151E-14
 -1      2572 9.31142E-03 1.10756E-05-4.90771E-14
 -1      2573 9.32092E-03 1.79948E-05-4.84317E-14
 -1      2574 9.40465E-03-3.39016E-05-4.94885E-14
 -1      2575 9.33521E-03-1.65609E-05-4.93148E-14
 -1      2576 9.66394E-03-1.16384E-04-5.02264E-14
 -1      2577 9.53057E-03-7.23161E-05-4.98026E-14
 -1      2578 1.00125E-02-2.64147E-04-5.12755E-14
 -1      2579 9.83310E-03-1.84186E-04-5.07470E-14
 -1      2580 1.03980E-02-4.66952E-04-5.24713E-14
 -1      2581 1.02145E-02-3.64537E-04-5.18634E-14
 -1      2582 1.08095E-02-7.16161E-04-5.41241E-14
 -1      2583 1.06334E-02-6.05076E-04-5.33314E-14
 -1      2584 1.11141E-02-8.95860E-04-5.56765E-14
 -1      2585 1.09663E-02-8.09445E-04-5.48999E-14
 -1      2586 1.08670E-02-7.59685E-04-5.41796E-14
 -1      2587 1.14575E-02-1.02907E-03-5.76922E-14
 -1      2588 1.13183E-02-9.86239E-04-5.68518E-14
 -1      2589 1.20282E-02-9.32789E-04-6.10977E-14
 -1      2590 1.19015E-02-9.89232E-04-6.04004E-14
 -1      2591 1.24211E-02-7.12290E-04-6.29231E-14
 -1      2592 1.22153E-02-8.36161E-04-6.20216E-14
 -1      2593 1.31981E-02-2.81583E-04-6.53867E-14
 -1      2594 1.30202E-02-3.70788E-04-6.48672E-14
 -1      2595 1.29570E-02-4.07560E-04-6.53379E-14
 -1      2596 1.35497E-02-1.35741E-04-6.59510E-14
 -1      2597 1.33919E-02-1.96206E-04-6.57062E-14
 -1      2598 1.36211E-02-1.09552E-04-6.67522E-14
 -1      2599 1.25301E-02 6.52668E-04-6.15905E-14
 -1      2600 1.26963E-02 5.52452E-04-6.22858E-14
 -1      2601 7.57882E-04 3.34253E-04-2.16054E-16
 -1      2602 6.11469E-04 2.84885E-04-1.39632E-16
 -1      2603 5.84746E-04 2.58116E-04-1.47465E-16
 -1      2604 8.13706E-04 3.22929E-04-2.89861E-16
 -1      2605 1.12612E-02 9.80567E-04-5.42871E-14
 -1      2606 1.13580E-02 1.01279E-03-5.50124E-14
 -1      2607 1.14444E-02 1.04203E-03-5.54517E-14
 -1      2608 6.70210E-04-1.38014E-04-3.75961E-16
 -1      2609 5.54557E-04-1.26272E-04-2.75686E-16
 -1      2610 5.57745E-04-1.46274E-04-2.71376E-16
 -1      2611 1.32847E-02 2.54473E-04-6.50737E-14
 -1      2612 1.28331E-02 4.81704E-04-6.32562E-14
 -1      2613 5.72248E-04 2.27920E-04-1.68973E-16
 -1      2614 1.20237E-02 9.40917E-04-5.91590E-14
 -1      2615 1.38818E-02-3.16307E-05-6.74211E-14
 -1      2616 1.24137E-02 7.25004E-04-6.12194E-14
 -1      2617 1.44042E-02 3.62020E-04-7.87931E-14
 -1      2618 1.44334E-02 3.34501E-04-7.87951E-14
 -1      2619 1.39840E-02 2.53893E-06-6.74840E-14
 -1      2620 1.36542E-02 1.05046E-04-6.61640E-14
 -1      2621 1.33048E-02-2.35831E-04-6.61809E-14
 -1      2622 1.25503E-02-6.40931E-04-6.38348E-14
 -1      2623 1.35778E-03 4.32783E-04-8.25024E-16
 -1      2624 1.21377E-02-8.81762E-04-6.19280E-14
 -1      2625 5.71729E-04-1.85355E-04-2.64722E-16
 -1      2626 1.18103E-02-1.02055E-03-5.99952E-14
 -1      2627 1.15249E-02-1.04393E-03-5.81459E-14
 -1      2628 1.12037E-02-9.44783E-04-5.61255E-14
 -1      2629 1.05082E-02-5.38032E-04-5.25474E-14
 -1      2630 1.00968E-02-3.06846E-04-5.11078E-14
 -1      2631 9.74081E-03-1.46397E-04-5.00058E-14
 -1      2632 9.29842E-03-4.75125E-06-4.86654E-14
 -1      2633 9.48102E-03 6.13945E-05-4.85838E-14
 -1      2634 1.01069E-02 3.29506E-04-4.92577E-14
 -1      2635 1.02514E-02 3.91348E-04-5.01541E-14
 -1      2636 1.03624E-02 4.65021E-04-5.01488E-14
 -1      2637 1.16948E-02 1.04733E-03-5.71524E-14
 -1      2638 6.89530E-04 2.51279E-04-2.50302E-16
 -1      2639 9.79310E-03 1.74052E-04-4.90177E-14
 -1      2640 9.45310E-03-4.92830E-05-4.91765E-14
 -1      2641 1.43183E-02-3.81493E-04-8.25361E-14
 -1      2642 1.44387E-02-3.19584E-04-8.27819E-14
 -1      2643 1.43419E-02-3.26601E-04-8.14893E-14
 -1      2644 1.41876E-02-4.10405E-04-8.12774E-14
 -1      2645 1.43361E-02 3.42409E-04-7.77446E-14
 -1      2646 1.41644E-02-3.88478E-04-8.04349E-14
 -1      2647 7.80221E-04 7.73593E-05-4.66139E-16
 -1      2648 7.78963E-04 5.54911E-05-4.73403E-16
 -1      2649 7.78118E-04 3.35720E-05-4.79705E-16
 -1      2650 7.77696E-04 1.19006E-05-4.85221E-16
 -1      2651 8.96536E-04 4.96985E-05-6.04443E-16
 -1      2652 7.91544E-04 1.73176E-04-4.21199E-16
 -1      2653 7.87545E-04 1.47758E-04-4.35185E-16
 -1      2654 8.03396E-04 2.28379E-04-3.86355E-16
 -1      2655 7.96779E-04 1.99986E-04-4.05343E-16
 -1      2656 9.14843E-04 2.07880E-04-5.27844E-16
 -1      2657 9.65475E-03 1.28877E-04-4.81022E-14
 -1      2658 9.82860E-03 2.02582E-04-4.83453E-14
 -1      2659 1.12979E-03 3.62016E-04-6.14688E-16
 -1      2660 9.86193E-04 3.32944E-04-4.73092E-16
 -1      2661 1.23001E-02 7.98685E-04-6.08426E-14
 -1      2662 1.24897E-02 6.86765E-04-6.18730E-14
 -1      2663 1.32011E-03-3.62833E-04-1.08359E-15
 -1      2664 1.46334E-03-3.81815E-04-1.31091E-15
 -1      2665 1.60638E-03-3.97894E-04-1.55980E-15
 -1      2666 1.74931E-03-4.11300E-04-1.83095E-15
 -1      2667 1.52496E-03-3.55482E-04-1.44967E-15
 -1      2668 1.89208E-03-4.22501E-04-2.12399E-15
 -1      2669 2.03473E-03-4.31681E-04-2.43844E-15
 -1      2670 1.81164E-03-3.81379E-04-1.99270E-15
 -1      2671 2.17728E-03-4.39217E-04-2.77435E-15
 -1      2672 2.31974E-03-4.45259E-04-3.13147E-15
 -1      2673 2.09810E-03-3.99210E-04-2.62189E-15
 -1      2674 2.46215E-03-4.50095E-04-3.51017E-15
 -1      2675 2.60451E-03-4.53846E-04-3.91066E-15
 -1      2676 2.38428E-03-4.10983E-04-3.33545E-15
 -1      2677 2.74686E-03-4.56728E-04-4.33204E-15
 -1      2678 2.88919E-03-4.58834E-04-4.77353E-15
 -1      2679 2.67022E-03-4.18310E-04-4.13429E-15
 -1      2680 3.03153E-03-4.60322E-04-5.23545E-15
 -1      2681 3.17388E-03-4.61263E-04-5.71784E-15
 -1      2682 2.95600E-03-4.22431E-04-5.01545E-15
 -1      2683 3.31626E-03-4.61771E-04-6.22052E-15
 -1      2684 3.45865E-03-4.61895E-04-6.74353E-15
 -1      2685 3.24168E-03-4.24280E-04-5.97837E-15
 -1      2686 3.60109E-03-4.61715E-04-7.28578E-15
 -1      2687 3.74354E-03-4.61266E-04-7.84693E-15
 -1      2688 3.52731E-03-4.24532E-04-7.02114E-15
 -1      2689 3.88605E-03-4.60599E-04-8.42805E-15
 -1      2690 4.02858E-03-4.59736E-04-9.02795E-15
 -1      2691 3.81292E-03-4.23663E-04-8.14205E-15
 -1      2692 4.17115E-03-4.58707E-04-9.64653E-15
 -1      2693 4.31376E-03-4.57525E-04-1.02854E-14
 -1      2694 4.09853E-03-4.21984E-04-9.33879E-15
 -1      2695 4.45642E-03-4.56202E-04-1.09437E-14
 -1      2696 4.59912E-03-4.54745E-04-1.16202E-14
 -1      2697 4.38418E-03-4.19682E-04-1.06122E-14
 -1      2698 4.74186E-03-4.53154E-04-1.23156E-14
 -1      2699 4.88465E-03-4.51427E-04-1.30304E-14
 -1      2700 4.66986E-03-4.16842E-04-1.19625E-14
 -1      2701 5.02748E-03-4.49557E-04-1.37637E-14
 -1      2702 5.17037E-03-4.47538E-04-1.45149E-14
 -1      2703 4.95560E-03-4.13477E-04-1.33874E-14
 -1      2704 5.31331E-03-4.45356E-04-1.52849E-14
 -1      2705 5.45631E-03-4.43004E-04-1.60725E-14
 -1      2706 5.24140E-03-4.09542E-04-1.48876E-14
 -1      2707 5.59937E-03-4.40464E-04-1.68793E-14
 -1      2708 5.74251E-03-4.37728E-04-1.77041E-14
 -1      2709 5.52727E-03-4.04957E-04-1.64610E-14
 -1      2710 5.88572E-03-4.34779E-04-1.85456E-14
 -1      2711 6.02903E-03-4.31612E-04-1.94065E-14
 -1      2712 5.81323E-03-3.99623E-04-1.81065E-14
 -1      2713 6.17241E-03-4.28213E-04-2.02857E-14
 -1      2714 6.31592E-03-4.24583E-04-2.11836E-14
 -1      2715 6.09930E-03-3.93446E-04-1.98257E-14
 -1      2716 6.45953E-03-4.20719E-04-2.20992E-14
 -1      2717 6.60328E-03-4.16629E-04-2.30320E-14
 -1      2718 6.38549E-03-3.86363E-04-2.16163E-14
 -1      2719 6.74716E-03-4.12331E-04-2.39844E-14
 -1      2720 6.89123E-03-4.07846E-04-2.49535E-14
 -1      2721 6.67183E-03-3.78377E-04-2.34795E-14
 -1      2722 7.03546E-03-4.03220E-04-2.59401E-14
 -1      2723 7.17993E-03-3.98497E-04-2.69429E-14
 -1      2724 6.95838E-03-3.69599E-04-2.54139E-14
 -1      2725 7.32460E-03-3.93764E-04-2.79613E-14
 -1      2726 7.46958E-03-3.89097E-04-2.89958E-14
 -1      2727 7.24520E-03-3.60317E-04-2.74125E-14
 -1      2728 7.61483E-03-3.84637E-04-3.00452E-14
 -1      2729 7.76050E-03-3.80510E-04-3.11071E-14
 -1      2730 7.53244E-03-3.51062E-04-2.94755E-14
 -1      2731 7.90655E-03-3.76928E-04-3.21827E-14
 -1      2732 8.05316E-03-3.74086E-04-3.32723E-14
 -1      2733 7.82035E-03-3.42712E-04-3.15958E-14
 -1      2734 8.20034E-03-3.72277E-04-3.43754E-14
 -1      2735 8.34830E-03-3.71802E-04-3.54893E-14
 -1      2736 8.10942E-03-3.36602E-04-3.37686E-14
 -1      2737 8.49714E-03-3.73037E-04-3.66153E-14
 -1      2738 8.64711E-03-3.76435E-04-3.77523E-14
 -1      2739 8.40048E-03-3.34664E-04-3.59926E-14
 -1      2740 8.79844E-03-3.82442E-04-3.88998E-14
 -1      2741 8.95140E-03-3.91731E-04-4.00571E-14
 -1      2742 8.69498E-03-3.39595E-04-3.82600E-14
 -1      2743 9.10645E-03-4.04773E-04-4.12237E-14
 -1      2744 9.26378E-03-4.22535E-04-4.23993E-14
 -1      2745 8.99528E-03-3.55067E-04-4.05676E-14
 -1      2746 9.42414E-03-4.45430E-04-4.35854E-14
 -1      2747 9.58750E-03-4.74758E-04-4.47788E-14
 -1      2748 9.30488E-03-3.86002E-04-4.29129E-14
 -1      2749 9.75486E-03-5.10752E-04-4.59800E-14
 -1      2750 9.92549E-03-5.54751E-04-4.71882E-14
 -1      2751 9.62833E-03-4.38867E-04-4.52922E-14
 -1      2752 1.01005E-02-6.06540E-04-4.84059E-14
 -1      2753 1.02780E-02-6.66876E-04-4.96309E-14
 -1      2754 9.96987E-03-5.21480E-04-4.77038E-14
 -1      2755 1.04592E-02-7.34981E-04-5.08650E-14
 -1      2756 1.06400E-02-8.08266E-04-5.21061E-14
 -1      2757 1.03306E-02-6.40223E-04-5.01475E-14
 -1      2758 1.08212E-02-8.84994E-04-5.33566E-14
 -1      2759 1.09984E-02-9.57834E-04-5.46167E-14
 -1      2760 1.07039E-02-7.93766E-04-5.26235E-14
 -1      2761 1.11711E-02-1.02318E-03-5.58840E-14
 -1      2762 1.13401E-02-1.07136E-03-5.71602E-14
 -1      2763 1.10722E-02-9.55186E-04-5.51365E-14
 -1      2764 1.15031E-02-1.09922E-03-5.84448E-14
 -1      2765 1.16673E-02-1.10134E-03-5.97417E-14
 -1      2766 1.14203E-02-1.06582E-03-5.76853E-14
 -1      2767 1.18304E-02-1.07775E-03-6.10420E-14
 -1      2768 1.19988E-02-1.03339E-03-6.23486E-14
 -1      2769 1.17572E-02-1.07004E-03-6.02680E-14
 -1      2770 1.21707E-02-9.71390E-04-6.36657E-14
 -1      2771 1.23472E-02-9.01341E-04-6.49911E-14
 -1      2772 1.21052E-02-9.67139E-04-6.28829E-14
 -1      2773 1.25271E-02-8.27174E-04-6.63259E-14
 -1      2774 1.27068E-02-7.55090E-04-6.76668E-14
 -1      2775 1.24724E-02-8.11790E-04-6.55307E-14
 -1      2776 1.28864E-02-6.87457E-04-6.90178E-14
 -1      2777 1.30626E-02-6.26376E-04-7.03779E-14
 -1      2778 1.28449E-02-6.60994E-04-6.82121E-14
 -1      2779 1.32360E-02-5.72514E-04-7.17446E-14
 -1      2780 1.34047E-02-5.25039E-04-7.31198E-14
 -1      2781 1.32052E-02-5.40415E-04-7.09300E-14
 -1      2782 1.35699E-02-4.83800E-04-7.44967E-14
 -1      2783 1.37307E-02-4.47095E-04-7.58778E-14
 -1      2784 1.35459E-02-4.51336E-04-7.36729E-14
 -1      2785 1.38881E-02-4.14314E-04-7.72628E-14
 -1      2786 1.40419E-02-3.83701E-04-7.86507E-14
 -1      2787 1.38674E-02-3.84623E-04-7.64332E-14
 -1      2788 2.26910E-03 4.78576E-04-2.48861E-15
 -1      2789 2.12729E-03 4.71756E-04-2.18216E-15
 -1      2790 1.42744E-02 3.17191E-04-7.67244E-14
 -1      2791 1.41875E-02 3.73106E-04-7.64206E-14
 -1      2792 1.40366E-02 4.03744E-04-7.50983E-14
 -1      2793 1.98538E-03 4.63304E-04-1.89622E-15
 -1      2794 1.84334E-03 4.53061E-04-1.63048E-15
 -1      2795 2.04758E-03 4.31365E-04-2.08981E-15
 -1      2796 2.83612E-03 4.94304E-04-3.92060E-15
 -1      2797 2.69436E-03 4.91778E-04-3.53230E-15
 -1      2798 3.11978E-03 4.97403E-04-4.75951E-15
 -1      2799 2.97794E-03 4.96153E-04-4.32954E-15
 -1      2800 2.90233E-03 4.58249E-04-4.19280E-15
 -1      2801 3.40367E-03 4.98531E-04-5.67809E-15
 -1      2802 3.26170E-03 4.98176E-04-5.20856E-15
 -1      2803 3.18711E-03 4.60710E-04-5.05601E-15
 -1      2804 3.68781E-03 4.98276E-04-6.67878E-15
 -1      2805 3.54571E-03 4.98550E-04-6.16839E-15
 -1      2806 3.47196E-03 4.61406E-04-6.00054E-15
 -1      2807 3.97224E-03 4.97039E-04-7.76011E-15
 -1      2808 3.83000E-03 4.97763E-04-7.20962E-15
 -1      2809 3.75692E-03 4.60864E-04-7.02554E-15
 -1      2810 4.25694E-03 4.95070E-04-8.92517E-15
 -1      2811 4.11456E-03 4.96135E-04-8.33213E-15
 -1      2812 4.04200E-03 4.59435E-04-8.13164E-15
 -1      2813 4.54193E-03 4.92504E-04-1.01701E-14
 -1      2814 4.39940E-03 4.93856E-04-9.53731E-15
 -1      2815 4.32724E-03 4.57335E-04-9.31887E-15
 -1      2816 4.82720E-03 4.89389E-04-1.14961E-14
 -1      2817 4.68453E-03 4.91014E-04-1.08235E-14
 -1      2818 4.61262E-03 4.54671E-04-1.05875E-14
 -1      2819 5.11278E-03 4.85703E-04-1.29015E-14
 -1      2820 4.96995E-03 4.87619E-04-1.21887E-14
 -1      2821 4.89818E-03 4.51469E-04-1.19349E-14
 -1      2822 5.39871E-03 4.81380E-04-1.43823E-14
 -1      2823 5.25570E-03 4.83625E-04-1.36323E-14
 -1      2824 5.18391E-03 4.47695E-04-1.33609E-14
 -1      2825 5.68502E-03 4.76326E-04-1.59401E-14
 -1      2826 5.54181E-03 4.78949E-04-1.51514E-14
 -1      2827 5.46986E-03 4.43273E-04-1.48630E-14
 -1      2828 5.97182E-03 4.70442E-04-1.75687E-14
 -1      2829 5.82835E-03 4.73491E-04-1.67454E-14
 -1      2830 5.75605E-03 4.38105E-04-1.64396E-14
 -1      2831 6.25920E-03 4.63652E-04-1.92696E-14
 -1      2832 6.11542E-03 4.67162E-04-1.84107E-14
 -1      2833 6.04254E-03 4.32095E-04-1.80886E-14
 -1      2834 6.54731E-03 4.55932E-04-2.10381E-14
 -1      2835 6.40314E-03 4.59904E-04-2.01455E-14
 -1      2836 6.32939E-03 4.25172E-04-1.98080E-14
 -1      2837 6.83633E-03 4.47363E-04-2.28733E-14
 -1      2838 6.69168E-03 4.51743E-04-2.19484E-14
 -1      2839 6.61669E-03 4.17327E-04-2.15952E-14
 -1      2840 7.12648E-03 4.38190E-04-2.47684E-14
 -1      2841 6.98123E-03 4.42830E-04-2.38125E-14
 -1      2842 6.90455E-03 4.08661E-04-2.34455E-14
 -1      2843 7.41806E-03 4.28905E-04-2.67264E-14
 -1      2844 7.27205E-03 4.33522E-04-2.57397E-14
 -1      2845 7.19311E-03 3.99444E-04-2.53572E-14
 -1      2846 7.71142E-03 4.20354E-04-2.87357E-14
 -1      2847 7.56447E-03 4.24473E-04-2.77250E-14
 -1      2848 7.48260E-03 3.90202E-04-2.73282E-14
 -1      2849 8.00707E-03 4.13871E-04-3.07960E-14
 -1      2850 7.85891E-03 4.16754E-04-2.97595E-14
 -1      2851 7.77332E-03 3.81811E-04-2.93531E-14
 -1      2852 8.30569E-03 4.11442E-04-3.29023E-14
 -1      2853 8.15594E-03 4.12003E-04-3.18438E-14
 -1      2854 8.06575E-03 3.75633E-04-3.14254E-14
 -1      2855 8.60824E-03 4.15869E-04-3.50506E-14
 -1      2856 8.45639E-03 4.12588E-04-3.39709E-14
 -1      2857 8.36067E-03 3.73662E-04-3.35426E-14
 -1      2858 8.91612E-03 4.30922E-04-3.72383E-14
 -1      2859 8.76143E-03 4.21777E-04-3.61408E-14
 -1      2860 8.65928E-03 3.78690E-04-3.57045E-14
 -1      2861 9.23119E-03 4.61390E-04-3.94568E-14
 -1      2862 9.07269E-03 4.43849E-04-3.83435E-14
 -1      2863 8.96348E-03 3.94482E-04-3.79029E-14
 -1      2864 9.55565E-03 5.12850E-04-4.17134E-14
 -1      2865 9.39225E-03 4.84050E-04-4.05799E-14
 -1      2866 9.27596E-03 4.25926E-04-4.01352E-14
 -1      2867 9.89133E-03 5.90847E-04-4.40030E-14
 -1      2868 9.72226E-03 5.48111E-04-4.28532E-14
 -1      2869 9.60004E-03 4.78959E-04-4.24018E-14
 -1      2870 1.02379E-02 6.98585E-04-4.63354E-14
 -1      2871 1.00637E-02 6.40940E-04-4.51643E-14
 -1      2872 9.93872E-03 5.60149E-04-4.47046E-14
 -1      2873 1.05904E-02 8.31963E-04-4.87082E-14
 -1      2874 1.04142E-02 7.62900E-04-4.75168E-14
 -1      2875 1.02920E-02 6.74105E-04-4.70483E-14
 -1      2876 1.09397E-02 9.72477E-04-5.11197E-14
 -1      2877 1.07666E-02 9.03326E-04-4.99103E-14
 -1      2878 1.06543E-02 8.16404E-04-4.94318E-14
 -1      2879 1.12751E-02 1.08512E-03-5.35677E-14
 -1      2880 1.11092E-02 1.03551E-03-5.23390E-14
 -1      2881 1.10122E-02 9.65827E-04-5.18553E-14
 -1      2882 1.15968E-02 1.12907E-03-5.60573E-14
 -1      2883 1.14360E-02 1.11786E-03-5.48071E-14
 -1      2884 1.13534E-02 1.07680E-03-5.43142E-14
 -1      2885 1.19184E-02 1.08615E-03-5.85841E-14
 -1      2886 1.17557E-02 1.11784E-03-5.73176E-14
 -1      2887 1.16818E-02 1.10172E-03-5.68155E-14
 -1      2888 1.22522E-02 9.75759E-04-6.11492E-14
 -1      2889 1.20830E-02 1.03653E-03-5.98620E-14
 -1      2890 1.20156E-02 1.02950E-03-5.93559E-14
 -1      2891 1.25984E-02 8.38540E-04-6.37463E-14
 -1      2892 1.24247E-02 9.07894E-04-6.24441E-14
 -1      2893 1.23658E-02 8.95545E-04-6.19310E-14
 -1      2894 1.29463E-02 7.07073E-04-6.63640E-14
 -1      2895 1.27733E-02 7.70542E-04-6.50530E-14
 -1      2896 1.27261E-02 7.49463E-04-6.45366E-14
 -1      2897 1.32861E-02 5.97362E-04-6.90027E-14
 -1      2898 1.31179E-02 6.49287E-04-6.76824E-14
 -1      2899 1.30816E-02 6.21923E-04-6.71635E-14
 -1      2900 1.36133E-02 5.10243E-04-7.16486E-14
 -1      2901 1.34516E-02 5.51373E-04-7.03255E-14
 -1      2902 1.34232E-02 5.21932E-04-6.98087E-14
 -1      2903 1.39052E-02 4.37461E-04-7.40345E-14
 -1      2904 1.37491E-02 4.71461E-04-7.27103E-14
 -1      2905 1.37256E-02 4.42393E-04-7.21948E-14
 -1      2906 1.39940E-02 3.74432E-04-7.43278E-14
 -1      2907 1.47403E-02 1.23559E-05-7.86039E-14
 -1      2908 1.47276E-02 3.45935E-05-7.84245E-14
 -1      2909 1.41432E-02-3.64757E-04-7.95961E-14
 -1      2910 1.42431E-02-3.45770E-04-8.05430E-14
 -1      2911 1.41236E-02-3.38881E-04-7.87596E-14
 -1      2912 1.46217E-02 1.12061E-04-7.78797E-14
 -1      2913 1.45694E-02 1.43427E-04-7.77000E-14
 -1      2914 1.47273E-02-3.12215E-05-7.89578E-14
 -1      2915 1.47402E-02-8.95195E-06-7.87842E-14
 -1      2916 1.46369E-02 1.71682E-06-7.75089E-14
 -1      2917 1.47026E-02 5.79134E-05-7.82430E-14
 -1      2918 1.46669E-02 8.37565E-05-7.80614E-14
 -1      2919 1.45322E-02 1.02937E-04-7.67986E-14
 -1      2920 1.46092E-02 4.79650E-05-7.71552E-14
 -1      2921 1.27161E-02 5.58778E-04-6.30493E-14
 -1      2922 1.29249E-02 4.46530E-04-6.40593E-14
 -1      2923 8.03075E-04 2.78286E-04-3.34002E-16
 -1      2924 1.46676E-02-7.95518E-05-7.93023E-14
 -1      2925 1.47026E-02-5.41690E-05-7.91316E-14
 -1      2926 1.46093E-02-4.41969E-05-7.78560E-14
 -1      2927 1.45705E-02-1.39112E-04-7.96421E-14
 -1      2928 1.46227E-02-1.07799E-04-7.94712E-14
 -1      2929 1.45331E-02-9.86395E-05-7.81942E-14
 -1      2930 1.44515E-02-2.09953E-04-7.99775E-14
 -1      2931 1.45127E-02-1.73233E-04-7.98103E-14
 -1      2932 1.44223E-02-1.66442E-04-7.85281E-14
 -1      2933 7.88841E-04-2.52554E-04-4.40227E-16
 -1      2934 9.20024E-04-2.88343E-04-5.68664E-16
 -1      2935 1.34316E-02-1.90782E-04-6.71470E-14
 -1      2936 1.32638E-02-2.66621E-04-6.68234E-14
 -1      2937 1.36573E-02 1.19433E-04-6.70483E-14
 -1      2938 1.37795E-02 7.62808E-05-6.73324E-14
 -1      2939 1.38739E-02 4.72019E-05-6.76740E-14
 -1      2940 1.39501E-02 2.91711E-05-6.80167E-14
 -1      2941 1.38845E-02 6.59249E-05-6.85594E-14
 -1      2942 1.05597E-02-5.91912E-04-5.23973E-14
 -1      2943 1.03588E-02-4.67377E-04-5.15455E-14
 -1      2944 9.41103E-03 4.68263E-05-4.78904E-14
 -1      2945 9.52097E-03 7.78820E-05-4.80781E-14
 -1      2946 1.26709E-02-5.81212E-04-6.48398E-14
 -1      2947 1.24474E-02-7.14946E-04-6.38552E-14
 -1      2948 1.70114E-03 4.40606E-04-1.38572E-15
 -1      2949 1.55869E-03 4.25737E-04-1.16205E-15
 -1      2950 1.76208E-03 4.11280E-04-1.55251E-15
 -1      2951 2.55261E-03 4.88405E-04-3.16378E-15
 -1      2952 2.41087E-03 4.84083E-04-2.81607E-15
 -1      2953 2.33268E-03 4.44772E-04-2.70881E-15
 -1      2954 2.61755E-03 4.53278E-04-3.41001E-15
 -1      2955 1.04823E-03-3.15916E-04-7.14801E-16
 -1      2956 1.19150E-03-3.41567E-04-8.99820E-16
 -1      2957 1.25304E-03-3.20001E-04-1.01611E-15
 -1      2958 9.96729E-04-2.74918E-04-6.79348E-16
 -1      2959 1.22269E-02-8.43369E-04-6.27871E-14
 -1      2960 1.20636E-02-9.32610E-04-6.18580E-14
 -1      2961 7.84403E-04 1.23498E-04-4.46867E-16
 -1      2962 7.82021E-04 1.00056E-04-4.57127E-16
 -1      2963 8.99641E-04 9.94822E-05-5.85957E-16
 -1      2964 9.05368E-04 1.51634E-04-5.60912E-16
 -1      2965 1.32121E-02 3.07472E-04-6.54244E-14
 -1      2966 1.34276E-02 2.10159E-04-6.62345E-14
 -1      2967 1.18713E-02-1.00840E-03-6.05937E-14
 -1      2968 1.17250E-02-1.04610E-03-5.95867E-14
 -1      2969 7.81753E-04-9.79970E-05-4.96510E-16
 -1      2970 7.84063E-04-1.21354E-04-4.95467E-16
 -1      2971 1.39464E-02-2.74915E-05-6.85086E-14
 -1      2972 1.38290E-02-5.35969E-05-6.80879E-14
 -1      2973 1.41602E-03 4.07917E-04-9.59194E-16
 -1      2974 1.27298E-03 3.86885E-04-7.76573E-16
 -1      2975 1.18964E-03 3.41563E-04-7.25751E-16
 -1      2976 1.47607E-03 3.82267E-04-1.09792E-15
 -1      2977 1.06031E-02 6.10967E-04-5.09259E-14
 -1      2978 1.07596E-02 7.07608E-04-5.16022E-14
 -1      2979 1.09109E-02 7.98119E-04-5.23140E-14
 -1      2980 1.10527E-02 8.83473E-04-5.30303E-14
 -1      2981 1.08093E-02 7.60464E-04-5.15051E-14
 -1      2982 1.16299E-02 1.05991E-03-5.66725E-14
 -1      2983 1.17709E-02 1.04113E-03-5.76476E-14
 -1      2984 9.48821E-03-6.29057E-05-4.87140E-14
 -1      2985 9.37654E-03-3.20936E-05-4.84037E-14
 -1      2986 9.28213E-03 1.17839E-05-4.78372E-14
 -1      2987 9.32359E-03 2.20975E-05-4.78017E-14
 -1      2988 1.43227E-02-3.04590E-04-8.06482E-14
 -1      2989 9.29367E-03-1.01673E-05-4.79673E-14
 -1      2990 9.26361E-03-6.12956E-07-4.77704E-14
 -1      2991 9.79741E-03-1.77736E-04-4.95937E-14
 -1      2992 9.64613E-03-1.19872E-04-4.90798E-14
 -1      2993 1.01379E-02-3.41450E-04-5.07512E-14
 -1      2994 9.96400E-03-2.52325E-04-5.01700E-14
 -1      2995 9.83966E-03-2.17382E-04-4.92387E-14
 -1      2996 1.09296E-02-8.12428E-04-5.43810E-14
 -1      2997 1.07919E-02-7.28839E-04-5.36079E-14
 -1      2998 1.13081E-02-1.00025E-03-5.67494E-14
 -1      2999 1.11288E-02-9.20650E-04-5.55740E-14
 -1      3000 1.15850E-02-1.05529E-03-5.86304E-14
 -1      3001 1.14640E-02-1.04126E-03-5.77860E-14
 -1      3002 6.52861E-04-1.88442E-04-3.38258E-16
 -1      3003 1.30556E-02-3.71654E-04-6.63198E-14
 -1      3004 1.29009E-02-4.54489E-04-6.57968E-14
 -1      3005 1.36900E-02-9.46434E-05-6.76465E-14
 -1      3006 1.35647E-02-1.37116E-04-6.73969E-14
 -1      3007 1.35251E-02-1.71230E-04-6.80409E-14
 -1      3008 1.40087E-02 9.39354E-06-6.83765E-14
 -1      3009 1.40245E-02-1.44929E-06-6.87366E-14
 -1      3010 1.40332E-02 2.11013E-05-6.92651E-14
 -1      3011 1.19428E-02 9.86442E-04-5.87694E-14
 -1      3012 1.21128E-02 9.02424E-04-5.98017E-14
 -1      3013 1.22042E-02 8.66000E-04-6.04485E-14
 -1      3014 7.87113E-04-1.45500E-04-4.93027E-16
 -1      3015 7.90968E-04-1.70659E-04-4.88894E-16
 -1      3016 9.04900E-04-1.49101E-04-6.26547E-16
 -1      3017 8.95514E-04 1.01171E-06-6.17399E-16
 -1      3018 7.77667E-04-9.72399E-06-4.89544E-16
 -1      3019 7.78029E-04-3.13793E-05-4.92838E-16
 -1      3020 9.77940E-03 2.12982E-04-4.74267E-14
 -1      3021 9.93731E-03 2.61623E-04-4.83394E-14
 -1      3022 1.00373E-02 3.26839E-04-4.83317E-14
 -1      3023 9.55619E-03 1.06975E-04-4.74101E-14
 -1      3024 1.11516E-02 9.44687E-04-5.34659E-14
 -1      3025 1.25997E-02 6.41154E-04-6.26681E-14
 -1      3026 1.35905E-02 1.68393E-04-6.73986E-14
 -1      3027 1.44216E-02 1.70536E-04-7.64456E-14
 -1      3028 1.45121E-02 1.77297E-04-7.75223E-14
 -1      3029 1.44514E-02 2.13686E-04-7.73442E-14
 -1      3030 1.29941E-02 4.52625E-04-6.50007E-14
 -1      3031 1.30966E-02 3.78617E-04-6.52127E-14
 -1      3032 1.32602E-02 3.29929E-04-6.63698E-14
 -1      3033 1.37917E-02-7.94468E-05-6.87336E-14
 -1      3034 9.24263E-03 4.31337E-06-4.71412E-14
 -1      3035 1.43376E-02 2.75765E-04-7.69006E-14
 -1      3036 1.40941E-02-7.86857E-06-7.02961E-14
 -1      3037 1.40279E-02-1.53089E-05-6.94015E-14
 -1      3038 1.40159E-02-3.25262E-05-7.00712E-14
 -1      3039 8.64842E-04 2.66609E-04-4.13203E-16
 -1      3040 1.16560E-02-1.05908E-03-5.92237E-14
 -1      3041 1.19714E-02-9.81779E-04-6.14449E-14
 -1      3042 1.27900E-02-5.37527E-04-6.58165E-14
 -1      3043 1.43857E-02-2.63816E-04-8.04863E-14
 -1      3044 1.13744E-02-1.02970E-03-5.72290E-14
 -1      3045 9.82939E-04 2.75852E-04-5.39987E-16
 -1      3046 1.32033E-02-3.18677E-04-6.72839E-14
 -1      3047 1.02056E-02-4.05978E-04-5.06008E-14
 -1      3048 1.06307E-02-6.55557E-04-5.25938E-14
 -1      3049 9.53403E-03-9.23372E-05-4.83033E-14
 -1      3050 1.42076E-02-2.99733E-04-7.89801E-14
 -1      3051 1.43703E-02-2.43302E-04-7.97602E-14
 -1      3052 1.42768E-02-2.39292E-04-7.84763E-14
 -1      3053 1.41075E-02-3.15133E-04-7.80380E-14
 -1      3054 9.34363E-03 3.55298E-05-4.72978E-14
 -1      3055 7.78805E-04-5.31719E-05-4.95114E-16
 -1      3056 7.80020E-04-7.53675E-05-4.96416E-16
 -1      3057 8.99355E-04-9.71293E-05-6.28946E-16
 -1      3058 8.96407E-04-4.75444E-05-6.25693E-16
 -1      3059 1.23591E-02-7.85650E-04-6.37838E-14
 -1      3060 7.69983E-04-2.02449E-04-4.51502E-16
 -1      3061 1.18663E-02 1.02077E-03-5.82828E-14
 -1      3062 1.15291E-02 1.06017E-03-5.59393E-14
 -1      3063 9.30319E-03-2.15332E-05-4.75067E-14
 -1      3064 1.04442E-02 5.35418E-04-5.00224E-14
 -1      3065 1.10426E-02-8.92156E-04-5.49954E-14
 -1      3066 1.04028E-03 2.43331E-04-6.45751E-16
 -1      3067 1.03367E-03 2.11604E-04-6.67936E-16
 -1      3068 1.16841E-02-1.06723E-03-5.95777E-14
 -1      3069 1.15577E-02-1.07070E-03-5.86211E-14
 -1      3070 1.73168E-03-3.40538E-04-1.86303E-15
 -1      3071 1.87535E-03-3.50743E-04-2.15630E-15
 -1      3072 2.01901E-03-3.59222E-04-2.47096E-15
 -1      3073 2.16265E-03-3.66131E-04-2.80640E-15
 -1      3074 1.94019E-03-3.19422E-04-2.32190E-15
 -1      3075 2.30625E-03-3.71748E-04-3.16275E-15
 -1      3076 2.44980E-03-3.76197E-04-3.54015E-15
 -1      3077 2.22824E-03-3.32507E-04-2.99245E-15
 -1      3078 2.59330E-03-3.79698E-04-3.93904E-15
 -1      3079 2.73674E-03-3.82350E-04-4.35848E-15
 -1      3080 2.51622E-03-3.40972E-04-3.74618E-15
 -1      3081 2.88013E-03-3.84321E-04-4.79820E-15
 -1      3082 3.02345E-03-3.85684E-04-5.25804E-15
 -1      3083 2.80400E-03-3.46039E-04-4.58290E-15
 -1      3084 3.16674E-03-3.86567E-04-5.73799E-15
 -1      3085 3.30998E-03-3.87021E-04-6.23850E-15
 -1      3086 3.09151E-03-3.48661E-04-5.50051E-15
 -1      3087 3.45318E-03-3.87139E-04-6.75844E-15
 -1      3088 3.59633E-03-3.86957E-04-7.29790E-15
 -1      3089 3.37875E-03-3.49552E-04-6.49836E-15
 -1      3090 3.73946E-03-3.86538E-04-7.85739E-15
 -1      3091 3.88255E-03-3.85904E-04-8.43549E-15
 -1      3092 3.66572E-03-3.49228E-04-7.57498E-15
 -1      3093 4.02562E-03-3.85097E-04-9.03219E-15
 -1      3094 4.16866E-03-3.84128E-04-9.64788E-15
 -1      3095 3.95245E-03-3.48041E-04-8.72796E-15
 -1      3096 4.31168E-03-3.83022E-04-1.02834E-14
 -1      3097 4.45467E-03-3.81782E-04-1.09382E-14
 -1      3098 4.23896E-03-3.46214E-04-9.95716E-15
 -1      3099 4.59765E-03-3.80419E-04-1.16109E-14
 -1      3100 4.74061E-03-3.78929E-04-1.23029E-14
 -1      3101 4.52525E-03-3.43869E-04-1.12623E-14
 -1      3102 4.88354E-03-3.77314E-04-1.30150E-14
 -1      3103 5.02646E-03-3.75565E-04-1.37449E-14
 -1      3104 4.81135E-03-3.41047E-04-1.26438E-14
 -1      3105 5.16936E-03-3.73677E-04-1.44922E-14
 -1      3106 5.31224E-03-3.71637E-04-1.52593E-14
 -1      3107 5.09724E-03-3.37733E-04-1.41007E-14
 -1      3108 5.45510E-03-3.69437E-04-1.60443E-14
 -1      3109 5.59794E-03-3.67062E-04-1.68481E-14
 -1      3110 5.38291E-03-3.33867E-04-1.56306E-14
 -1      3111 5.74075E-03-3.64501E-04-1.76699E-14
 -1      3112 5.88353E-03-3.61742E-04-1.85091E-14
 -1      3113 5.66832E-03-3.29365E-04-1.72345E-14
 -1      3114 6.02628E-03-3.58775E-04-1.93665E-14
 -1      3115 6.16900E-03-3.55590E-04-2.02435E-14
 -1      3116 5.95343E-03-3.24135E-04-1.89118E-14
 -1      3117 6.31167E-03-3.52184E-04-2.11380E-14
 -1      3118 6.45431E-03-3.48552E-04-2.20494E-14
 -1      3119 6.23815E-03-3.18096E-04-2.06613E-14
 -1      3120 6.59688E-03-3.44706E-04-2.29792E-14
 -1      3121 6.73942E-03-3.40646E-04-2.39261E-14
 -1      3122 6.52240E-03-3.11207E-04-2.24819E-14
 -1      3123 6.88188E-03-3.36406E-04-2.48898E-14
 -1      3124 7.02431E-03-3.31999E-04-2.58706E-14
 -1      3125 6.80608E-03-3.03498E-04-2.43708E-14
 -1      3126 7.16665E-03-3.27490E-04-2.68690E-14
 -1      3127 7.30898E-03-3.22911E-04-2.78817E-14
 -1      3128 7.08908E-03-2.95107E-04-2.63274E-14
 -1      3129 7.45122E-03-3.18365E-04-2.89096E-14
 -1      3130 7.59348E-03-3.13916E-04-2.99535E-14
 -1      3131 7.37132E-03-2.86335E-04-2.83484E-14
 -1      3132 7.73571E-03-3.09716E-04-3.10112E-14
 -1      3133 7.87803E-03-3.05873E-04-3.20822E-14
 -1      3134 7.65279E-03-2.77700E-04-3.04296E-14
 -1      3135 8.02043E-03-3.02595E-04-3.31649E-14
 -1      3136 8.16310E-03-3.00063E-04-3.42619E-14
 -1      3137 7.93362E-03-2.70012E-04-3.25662E-14
 -1      3138 8.30606E-03-2.98536E-04-3.53716E-14
 -1      3139 8.44961E-03-2.98311E-04-3.64914E-14
 -1      3140 8.21429E-03-2.64445E-04-3.47529E-14
 -1      3141 8.59387E-03-2.99687E-04-3.76219E-14
 -1      3142 8.73927E-03-3.03155E-04-3.87643E-14
 -1      3143 8.49576E-03-2.62648E-04-3.69869E-14
 -1      3144 8.88610E-03-3.09026E-04-3.99155E-14
 -1      3145 9.03493E-03-3.18118E-04-4.10748E-14
 -1      3146 8.77996E-03-2.66914E-04-3.92651E-14
 -1      3147 9.18635E-03-3.30717E-04-4.22444E-14
 -1      3148 9.34101E-03-3.48182E-04-4.34227E-14
 -1      3149 9.07023E-03-2.80524E-04-4.15797E-14
 -1      3150 9.49994E-03-3.70645E-04-4.46083E-14
 -1      3151 9.66357E-03-4.00433E-04-4.58022E-14
 -1      3152 9.37197E-03-3.08513E-04-4.39283E-14
 -1      3153 9.83353E-03-4.37575E-04-4.70028E-14
 -1      3154 1.00092E-02-4.84940E-04-4.82135E-14
 -1      3155 9.69288E-03-3.59041E-04-4.63076E-14
 -1      3156 1.13828E-02-1.04397E-03-5.73369E-14
 -1      3157 1.18599E-02-1.03430E-03-6.08763E-14
 -1      3158 1.20352E-02-9.72158E-04-6.21440E-14
 -1      3159 1.22214E-02-8.93568E-04-6.34587E-14
 -1      3160 1.28063E-02-6.30993E-04-6.74084E-14
 -1      3161 1.29946E-02-5.61809E-04-6.87566E-14
 -1      3162 1.31788E-02-5.04026E-04-7.01156E-14
 -1      3163 1.33551E-02-4.55138E-04-7.14798E-14
 -1      3164 1.31568E-02-4.63875E-04-6.93019E-14
 -1      3165 1.35258E-02-4.15145E-04-7.28512E-14
 -1      3166 1.36901E-02-3.80901E-04-7.42258E-14
 -1      3167 1.35099E-02-3.74906E-04-7.20310E-14
 -1      3168 1.38240E-02-3.59681E-04-7.54385E-14
 -1      3169 1.39797E-02-3.32928E-04-7.68196E-14
 -1      3170 1.40671E-02-2.91119E-04-7.70406E-14
 -1      3171 1.38091E-02-3.23670E-04-7.46115E-14
 -1      3172 2.11105E-03 3.98797E-04-2.28788E-15
 -1      3173 1.96783E-03 3.90890E-04-1.99569E-15
 -1      3174 3.25492E-03 4.23711E-04-5.35592E-15
 -1      3175 3.11206E-03 4.23002E-04-4.90180E-15
 -1      3176 2.96917E-03 4.21817E-04-4.46790E-15
 -1      3177 2.82626E-03 4.20093E-04-4.05383E-15
 -1      3178 3.03663E-03 3.85081E-04-4.74628E-15
 -1      3179 3.82627E-03 4.23267E-04-7.37434E-15
 -1      3180 3.68344E-03 4.23772E-04-6.83978E-15
 -1      3181 4.11193E-03 4.21699E-04-8.50424E-15
 -1      3182 3.96910E-03 4.22571E-04-7.92935E-15
 -1      3183 3.89588E-03 3.85538E-04-7.72647E-15
 -1      3184 4.39761E-03 4.19515E-04-9.71474E-15
 -1      3185 4.25477E-03 4.20678E-04-9.09937E-15
 -1      3186 4.18202E-03 3.83876E-04-8.87909E-15
 -1      3187 4.68332E-03 4.16796E-04-1.10059E-14
 -1      3188 4.54046E-03 4.18220E-04-1.03502E-14
 -1      3189 4.46806E-03 3.81650E-04-1.01132E-14
 -1      3190 4.96907E-03 4.13553E-04-1.23757E-14
 -1      3191 4.82618E-03 4.15242E-04-1.16810E-14
 -1      3192 4.75401E-03 3.78921E-04-1.14266E-14
 -1      3193 5.25487E-03 4.09739E-04-1.38222E-14
 -1      3194 5.11196E-03 4.11721E-04-1.30895E-14
 -1      3195 5.03987E-03 3.75681E-04-1.28177E-14
 -1      3196 5.54073E-03 4.05272E-04-1.53457E-14
 -1      3197 5.39779E-03 4.07592E-04-1.45740E-14
 -1      3198 5.32564E-03 3.71876E-04-1.42855E-14
 -1      3199 5.82667E-03 4.00055E-04-1.69414E-14
 -1      3200 5.68369E-03 4.02763E-04-1.61351E-14
 -1      3201 5.61131E-03 3.67423E-04-1.58291E-14
 -1      3202 6.11270E-03 3.93993E-04-1.86103E-14
 -1      3203 5.96967E-03 3.97134E-04-1.77671E-14
 -1      3204 5.89687E-03 3.62223E-04-1.74453E-14
 -1      3205 6.39882E-03 3.87027E-04-2.03473E-14
 -1      3206 6.25574E-03 3.90626E-04-1.94701E-14
 -1      3207 6.18227E-03 3.56191E-04-1.91324E-14
 -1      3208 6.68508E-03 3.79161E-04-2.21513E-14
 -1      3209 6.54192E-03 3.83204E-04-2.12405E-14
 -1      3210 6.46749E-03 3.49277E-04-2.08874E-14
 -1      3211 6.97151E-03 3.70514E-04-2.40175E-14
 -1      3212 6.82826E-03 3.74925E-04-2.30780E-14
 -1      3213 6.75249E-03 3.41499E-04-2.27079E-14
 -1      3214 7.25817E-03 3.61379E-04-2.59469E-14
 -1      3215 7.11479E-03 3.65986E-04-2.49745E-14
 -1      3216 7.03722E-03 3.32991E-04-2.45921E-14
 -1      3217 7.54522E-03 3.52295E-04-2.79329E-14
 -1      3218 7.40162E-03 3.56791E-04-2.69326E-14
 -1      3219 7.32169E-03 3.24057E-04-2.65366E-14
 -1      3220 7.83290E-03 3.44150E-04-2.99694E-14
 -1      3221 7.68893E-03 3.48041E-04-2.89451E-14
 -1      3222 7.60596E-03 3.15238E-04-2.85382E-14
 -1      3223 8.12170E-03 3.38288E-04-3.20559E-14
 -1      3224 7.97710E-03 3.40834E-04-3.10061E-14
 -1      3225 7.89023E-03 3.07397E-04-3.05883E-14
 -1      3226 8.41248E-03 3.36653E-04-3.41870E-14
 -1      3227 8.26675E-03 3.36792E-04-3.31169E-14
 -1      3228 8.17499E-03 3.01818E-04-3.26886E-14
 -1      3229 8.70673E-03 3.41953E-04-3.63600E-14
 -1      3230 8.55904E-03 3.38212E-04-3.52678E-14
 -1      3231 8.46121E-03 3.00327E-04-3.48328E-14
 -1      3232 9.00685E-03 3.57873E-04-3.85693E-14
 -1      3233 8.85587E-03 3.48253E-04-3.74602E-14
 -1      3234 8.75064E-03 3.05462E-04-3.70171E-14
 -1      3235 9.31643E-03 3.89376E-04-4.08159E-14
 -1      3236 9.16024E-03 3.71185E-04-3.96880E-14
 -1      3237 9.04621E-03 3.20749E-04-3.92397E-14
 -1      3238 9.64004E-03 4.42898E-04-4.30937E-14
 -1      3239 9.47631E-03 4.12736E-04-4.19503E-14
 -1      3240 9.35252E-03 3.51303E-04-4.14968E-14
 -1      3241 9.98211E-03 5.26577E-04-4.54095E-14
 -1      3242 9.80885E-03 4.80226E-04-4.42471E-14
 -1      3243 9.67541E-03 4.04402E-04-4.37884E-14
 -1      3244 1.03450E-02 6.46727E-04-4.77629E-14
 -1      3245 1.01621E-02 5.81461E-04-4.65821E-14
 -1      3246 1.00220E-02 4.89786E-04-4.61145E-14
 -1      3247 1.07695E-02 7.91861E-04-5.07228E-14
 -1      3248 1.05773E-02 7.05455E-04-4.95165E-14
 -1      3249 1.14416E-02 1.06671E-03-5.51451E-14
 -1      3250 1.12668E-02 1.02287E-03-5.39019E-14
 -1      3251 1.17780E-02 1.06695E-03-5.76237E-14
 -1      3252 1.16066E-02 1.08348E-03-5.63619E-14
 -1      3253 1.21095E-02 9.56233E-04-6.00259E-14
 -1      3254 1.19288E-02 1.02181E-03-5.87460E-14
 -1      3255 1.24574E-02 7.87315E-04-6.23641E-14
 -1      3256 1.22652E-02 8.73806E-04-6.10689E-14
 -1      3257 1.32245E-02 5.35494E-04-6.79658E-14
 -1      3258 1.30472E-02 5.90627E-04-6.66441E-14
 -1      3259 1.35646E-02 4.48243E-04-7.06154E-14
 -1      3260 1.33975E-02 4.88702E-04-6.92885E-14
 -1      3261 1.33746E-02 4.51627E-04-6.87690E-14
 -1      3262 9.26953E-03 2.87647E-05-4.64513E-14
 -1      3263 9.34643E-03 5.03366E-05-4.65410E-14
 -1      3264 1.01661E-03 6.82310E-05-7.42800E-16
 -1      3265 1.01545E-03 4.12404E-05-7.52152E-16
 -1      3266 1.35476E-02 2.18249E-04-6.78946E-14
 -1      3267 1.37473E-02 1.39884E-04-6.87127E-14
 -1      3268 1.45339E-02-9.80083E-06-7.64121E-14
 -1      3269 1.45341E-02 1.32064E-05-7.62383E-14
 -1      3270 1.42687E-02-1.96721E-04-7.74146E-14
 -1      3271 1.43336E-02-1.56274E-04-7.72494E-14
 -1      3272 1.42426E-02 2.73791E-04-7.58342E-14
 -1      3273 9.55140E-03-1.18080E-04-4.77709E-14
 -1      3274 9.41827E-03-6.84215E-05-4.74121E-14
 -1      3275 1.33617E-02-2.74935E-04-6.85180E-14
 -1      3276 1.31805E-02-3.66069E-04-6.80096E-14
 -1      3277 1.82455E-03 3.81229E-04-1.72411E-15
 -1      3278 1.68119E-03 3.69644E-04-1.47281E-15
 -1      3279 1.88827E-03 3.50506E-04-1.90008E-15
 -1      3280 1.10827E-02 9.46732E-04-5.26508E-14
 -1      3281 1.38961E-02 8.62035E-05-6.93147E-14
 -1      3282 1.39762E-02 6.11559E-05-6.96605E-14
 -1      3283 1.43939E-02-1.19483E-04-7.70837E-14
 -1      3284 1.44464E-02-8.66074E-05-7.69166E-14
 -1      3285 1.42481E-02-1.43598E-04-7.59752E-14
 -1      3286 3.54061E-03 4.24039E-04-6.32537E-15
 -1      3287 3.39777E-03 4.24042E-04-5.83055E-15
 -1      3288 3.32321E-03 3.86472E-04-5.65936E-15
 -1      3289 3.60962E-03 3.86490E-04-6.65317E-15
 -1      3290 9.43961E-03 8.42417E-05-4.65624E-14
 -1      3291 9.54789E-03 1.29227E-04-4.65856E-14
 -1      3292 9.33595E-03 7.12700E-05-4.57196E-14
 -1      3293 1.29808E-02-4.74726E-04-6.73649E-14
 -1      3294 1.27758E-02-5.82942E-04-6.63994E-14
 -1      3295 1.44458E-03-3.13818E-04-1.34078E-15
 -1      3296 1.58809E-03-3.28290E-04-1.59107E-15
 -1      3297 1.65240E-03-3.00208E-04-1.73539E-15
 -1      3298 8.87896E-04-2.11880E-04-5.81661E-16
 -1      3299 1.24123E-02-7.84991E-04-6.45334E-14
 -1      3300 9.20061E-03 1.88507E-06-4.63159E-14
 -1      3301 9.22055E-03 1.23523E-05-4.63832E-14
 -1      3302 9.20173E-03 2.40523E-05-4.56287E-14
 -1      3303 1.44887E-02-5.82299E-05-7.67512E-14
 -1      3304 1.45181E-02-3.28160E-05-7.65827E-14
 -1      3305 1.44297E-02-2.11819E-05-7.53118E-14
 -1      3306 1.43630E-02-7.36479E-05-7.56455E-14
 -1      3307 1.26095E-02-6.95263E-04-6.58632E-14
 -1      3308 1.12398E-02-1.00214E-03-5.63003E-14
 -1      3309 1.38768E-02-7.41127E-05-6.97416E-14
 -1      3310 1.37457E-02-1.11044E-04-6.92971E-14
 -1      3311 1.02294E-02 4.76344E-04-4.82740E-14
 -1      3312 1.04305E-02 5.98454E-04-4.90366E-14
 -1      3313 9.87048E-03-2.58809E-04-4.88837E-14
 -1      3314 9.72505E-03-1.94259E-04-4.83127E-14
 -1      3315 1.14499E-03 3.10640E-04-7.05843E-16
 -1      3316 1.08236E-03 2.71711E-04-6.69454E-16
 -1      3317 1.20147E-03 2.73148E-04-8.29293E-16
 -1      3318 1.28815E-03 3.32613E-04-8.79369E-16
 -1      3319 1.02358E-02-4.58283E-04-5.03582E-14
 -1      3320 1.00443E-02-3.46876E-04-4.95730E-14
 -1      3321 9.31256E-03-3.65574E-05-4.69786E-14
 -1      3322 9.23571E-03-1.79913E-05-4.65487E-14
 -1      3323 9.31847E-03-5.75008E-05-4.64515E-14
 -1      3324 1.36390E-02-1.50039E-04-6.90469E-14
 -1      3325 1.35232E-02-1.97062E-04-6.87956E-14
 -1      3326 1.37460E-02-1.37380E-04-7.00560E-14
 -1      3327 1.40547E-02 3.37381E-05-7.00190E-14
 -1      3328 1.41065E-02 1.58924E-05-7.03848E-14
 -1      3329 1.40800E-02 5.06477E-05-7.07762E-14
 -1      3330 1.01485E-03 1.44557E-05-7.59782E-16
 -1      3331 1.01481E-03-1.22307E-05-7.66328E-16
 -1      3332 1.13554E-03 3.01798E-05-9.16408E-16
 -1      3333 9.63379E-03 1.71986E-04-4.65774E-14
 -1      3334 9.71974E-03 2.21660E-04-4.65696E-14
 -1      3335 9.50072E-03 1.44061E-04-4.57327E-14
 -1      3336 9.96846E-03-3.96802E-04-4.84186E-14
 -1      3337 1.01240E-02-4.92421E-04-4.91285E-14
 -1      3338 1.43327E-02 1.60543E-04-7.53709E-14
 -1      3339 1.42683E-02 2.00642E-04-7.52000E-14
 -1      3340 1.18783E-03-2.78840E-04-9.47647E-16
 -1      3341 1.31608E-03-2.97372E-04-1.13581E-15
 -1      3342 1.38020E-03-2.73508E-04-1.25845E-15
 -1      3343 1.28215E-02 5.58426E-04-6.42828E-14
 -1      3344 1.29948E-02 4.94776E-04-6.54345E-14
 -1      3345 1.41469E-02 2.58925E-06-7.10530E-14
 -1      3346 1.03109E-02-5.59318E-04-5.03509E-14
 -1      3347 1.04765E-02-6.25533E-04-5.13904E-14
 -1      3348 1.06725E-02-7.14621E-04-5.26276E-14
 -1      3349 1.08760E-02-8.31915E-04-5.38424E-14
 -1      3350 1.10657E-02-9.19929E-04-5.51005E-14
 -1      3351 1.08970E-02 8.65131E-04-5.14286E-14
 -1      3352 1.01426E-03-2.34461E-04-7.29451E-16
 -1      3353 2.74985E-03 3.81733E-04-3.91324E-15
 -1      3354 2.68331E-03 4.17693E-04-3.65981E-15
 -1      3355 2.54033E-03 4.14533E-04-3.28620E-15
 -1      3356 1.31531E-02-4.20898E-04-6.85972E-14
 -1      3357 1.30214E-02 5.41176E-04-6.60784E-14
 -1      3358 1.28671E-02 6.39908E-04-6.52823E-14
 -1      3359 1.26800E-02 7.12928E-04-6.39725E-14
 -1      3360 1.38416E-02 3.75493E-04-7.27468E-14
 -1      3361 1.37048E-02 4.10031E-04-7.16817E-14
 -1      3362 1.36869E-02 3.74473E-04-7.11633E-14
 -1      3363 1.44457E-02 9.08157E-05-7.57197E-14
 -1      3364 1.43931E-02 1.23699E-04-7.55441E-14
 -1      3365 1.42474E-02 1.47714E-04-7.42934E-14
 -1      3366 2.39730E-03 4.10426E-04-2.93307E-15
 -1      3367 2.25421E-03 4.05263E-04-2.60024E-15
 -1      3368 2.46285E-03 3.75623E-04-3.16126E-15
 -1      3369 1.38649E-02 1.27173E-04-6.98094E-14
 -1      3370 1.45184E-02 3.62474E-05-7.60642E-14
 -1      3371 1.44885E-02 6.20974E-05-7.58908E-14
 -1      3372 1.43628E-02 7.75115E-05-7.46318E-14
 -1      3373 1.44301E-02 2.46581E-05-7.49721E-14
 -1      3374 1.41912E-02 2.48798E-04-7.49801E-14
 -1      3375 1.40699E-02 3.21056E-04-7.45472E-14
 -1      3376 1.39377E-02 3.50266E-04-7.34767E-14
 -1      3377 1.40986E-02 2.40319E-04-7.39080E-14
 -1      3378 1.26162E-02 6.67287E-04-6.30990E-14
 -1      3379 1.34932E-02-2.46169E-04-6.95264E-14
 -1      3380 9.91040E-03-3.13346E-04-4.86411E-14
 -1      3381 1.34499E-02 2.74516E-04-6.76772E-14
 -1      3382 1.36276E-02 2.35362E-04-6.89892E-14
 -1      3383 1.33567E-02 3.35388E-04-6.74610E-14
 -1      3384 1.01841E-03 9.55003E-05-7.31931E-16
 -1      3385 1.13820E-03 8.85926E-05-8.94602E-16
 -1      3386 1.02088E-03 1.23277E-04-7.19002E-16
 -1      3387 9.58169E-03-1.56065E-04-4.74172E-14
 -1      3388 2.17563E-03 3.65677E-04-2.49032E-15
 -1      3389 1.55629E-03 3.61576E-04-1.26467E-15
 -1      3390 1.41293E-03 3.45394E-04-1.05252E-15
 -1      3391 1.36910E-03 3.15146E-04-1.02567E-15
 -1      3392 1.61929E-03 3.33964E-04-1.41597E-15
 -1      3393 1.41015E-02-4.02302E-05-7.15333E-14
 -1      3394 1.39973E-02-5.34897E-05-7.06377E-14
 -1      3395 1.39752E-02-7.89240E-05-7.12061E-14
 -1      3396 1.02833E-03 1.81158E-04-6.87371E-16
 -1      3397 1.02417E-03 1.51825E-04-7.04311E-16
 -1      3398 1.14377E-03 1.48690E-04-8.64638E-16
 -1      3399 1.15308E-03 2.11806E-04-8.25349E-16
 -1      3400 9.17551E-03-8.49595E-06-4.57908E-14
 -1      3401 9.12648E-03-7.33392E-07-4.50381E-14
 -1      3402 9.15752E-03-2.06984E-05-4.52669E-14
 -1      3403 1.01813E-03-9.30260E-05-7.77305E-16
 -1      3404 1.02051E-03-1.20739E-04-7.77725E-16
 -1      3405 1.41259E-02-2.60929E-04-7.71199E-14
 -1      3406 1.42118E-02-2.23480E-04-7.73377E-14
 -1      3407 1.41212E-02-2.13373E-04-7.60614E-14
 -1      3408 1.40005E-02-2.74180E-04-7.59042E-14
 -1      3409 1.14334E-03-1.45956E-04-9.42117E-16
 -1      3410 1.02371E-03-1.49161E-04-7.76506E-16
 -1      3411 1.02775E-03-1.78406E-04-7.73321E-16
 -1      3412 9.81745E-03-3.17050E-04-4.77351E-14
 -1      3413 1.57406E-03-2.60753E-04-1.61003E-15
 -1      3414 1.71787E-03-2.71241E-04-1.88236E-15
 -1      3415 1.01643E-03-6.57972E-05-7.75083E-16
 -1      3416 1.13795E-03-8.60065E-05-9.40654E-16
 -1      3417 1.01534E-03-3.89462E-05-7.71559E-16
 -1      3418 1.42265E-02 1.13465E-05-7.22568E-14
 -1      3419 1.42025E-02-1.30777E-05-7.21726E-14
 -1      3420 2.15047E-03-2.93431E-04-2.82403E-15
 -1      3421 2.29483E-03-2.98315E-04-3.17923E-15
 -1      3422 2.43919E-03-3.02239E-04-3.55578E-15
 -1      3423 2.58351E-03-3.05297E-04-3.95299E-15
 -1      3424 2.36231E-03-2.63605E-04-3.36810E-15
 -1      3425 2.72779E-03-3.07651E-04-4.36965E-15
 -1      3426 2.87199E-03-3.09375E-04-4.80750E-15
 -1      3427 2.65159E-03-2.69229E-04-4.15987E-15
 -1      3428 3.01613E-03-3.10595E-04-5.26577E-15
 -1      3429 3.16017E-03-3.11366E-04-5.74295E-15
 -1      3430 2.94066E-03-2.72418E-04-5.03260E-15
 -1      3431 3.30413E-03-3.11782E-04-6.24078E-15
 -1      3432 3.44800E-03-3.11881E-04-6.75808E-15
 -1      3433 3.22938E-03-2.73859E-04-5.98593E-15
 -1      3434 3.59178E-03-3.11732E-04-7.29462E-15
 -1      3435 3.73548E-03-3.11358E-04-7.85132E-15
 -1      3436 3.51769E-03-2.74065E-04-7.01770E-15
 -1      3437 3.87909E-03-3.10807E-04-8.42679E-15
 -1      3438 4.02261E-03-3.10091E-04-9.02053E-15
 -1      3439 3.80557E-03-2.73399E-04-8.12726E-15
 -1      3440 4.16606E-03-3.09242E-04-9.63334E-15
 -1      3441 4.30942E-03-3.08263E-04-1.02658E-14
 -1      3442 4.09302E-03-2.72103E-04-9.31270E-15
 -1      3443 4.45271E-03-3.07173E-04-1.09165E-14
 -1      3444 4.59592E-03-3.05968E-04-1.15861E-14
 -1      3445 4.38004E-03-2.70321E-04-1.05733E-14
 -1      3446 4.73905E-03-3.04656E-04-1.22755E-14
 -1      3447 4.88209E-03-3.03229E-04-1.29843E-14
 -1      3448 4.66665E-03-2.68122E-04-1.19106E-14
 -1      3449 5.02506E-03-3.01688E-04-1.37106E-14
 -1      3450 5.16793E-03-3.00020E-04-1.44551E-14
 -1      3451 4.95283E-03-2.65515E-04-1.33229E-14
 -1      3452 5.31072E-03-2.98223E-04-1.52197E-14
 -1      3453 5.45340E-03-2.96280E-04-1.60023E-14
 -1      3454 5.23854E-03-2.62468E-04-1.48107E-14
 -1      3455 5.59597E-03-2.94186E-04-1.68021E-14
 -1      3456 5.73843E-03-2.91925E-04-1.76217E-14
 -1      3457 5.52372E-03-2.58917E-04-1.63728E-14
 -1      3458 5.88075E-03-2.89492E-04-1.84595E-14
 -1      3459 6.02294E-03-2.86870E-04-1.93140E-14
 -1      3460 5.80828E-03-2.54785E-04-1.80080E-14
 -1      3461 6.16495E-03-2.84061E-04-2.01874E-14
 -1      3462 6.30679E-03-2.81046E-04-2.10794E-14
 -1      3463 6.09208E-03-2.49996E-04-1.97170E-14
 -1      3464 6.44842E-03-2.77838E-04-2.19873E-14
 -1      3465 6.58985E-03-2.74422E-04-2.29132E-14
 -1      3466 6.37496E-03-2.44489E-04-2.14956E-14
 -1      3467 6.73101E-03-2.70824E-04-2.38556E-14
 -1      3468 6.87193E-03-2.67036E-04-2.48139E-14
 -1      3469 6.65669E-03-2.38245E-04-2.33428E-14
 -1      3470 7.01253E-03-2.63106E-04-2.57901E-14
 -1      3471 7.15285E-03-2.59034E-04-2.67828E-14
 -1      3472 6.93703E-03-2.31310E-04-2.52572E-14
 -1      3473 7.29281E-03-2.54896E-04-2.77911E-14
 -1      3474 7.43245E-03-2.50705E-04-2.88134E-14
 -1      3475 7.21572E-03-2.23827E-04-2.72368E-14
 -1      3476 7.57170E-03-2.46574E-04-2.98520E-14
 -1      3477 7.71062E-03-2.42536E-04-3.09049E-14
 -1      3478 7.49248E-03-2.16064E-04-2.92784E-14
 -1      3479 7.84916E-03-2.38739E-04-3.19703E-14
 -1      3480 7.98744E-03-2.35254E-04-3.30480E-14
 -1      3481 7.76714E-03-2.08452E-04-3.13779E-14
 -1      3482 8.12540E-03-2.32262E-04-3.41387E-14
 -1      3483 8.26328E-03-2.29892E-04-3.52425E-14
 -1      3484 8.03962E-03-2.01611E-04-3.35285E-14
 -1      3485 8.40106E-03-2.28347E-04-3.63569E-14
 -1      3486 8.53912E-03-2.27868E-04-3.74822E-14
 -1      3487 8.31022E-03-1.96385E-04-3.57294E-14
 -1      3488 8.67754E-03-2.28652E-04-3.86175E-14
 -1      3489 8.81694E-03-2.31159E-04-3.97637E-14
 -1      3490 8.57976E-03-1.93896E-04-3.79742E-14
 -1      3491 8.95755E-03-2.35538E-04-4.09179E-14
 -1      3492 9.10036E-03-2.42721E-04-4.20816E-14
 -1      3493 8.85013E-03-1.95712E-04-4.02601E-14
 -1      3494 9.24596E-03-2.52719E-04-4.32523E-14
 -1      3495 9.39576E-03-2.67611E-04-4.44303E-14
 -1      3496 9.12508E-03-2.04261E-04-4.25803E-14
 -1      3497 9.52249E-03-2.74155E-04-4.54826E-14
 -1      3498 9.68203E-03-3.00370E-04-4.66749E-14
 -1      3499 9.62498E-03-2.23598E-04-4.68983E-14
 -1      3500 9.38442E-03-2.13455E-04-4.47962E-14
 -1      3501 1.33353E-02-3.70457E-04-6.99544E-14
 -1      3502 1.31731E-02 4.50141E-04-6.68021E-14
 -1      3503 1.33636E-02 3.90971E-04-6.81076E-14
 -1      3504 1.35084E-02-3.33210E-04-7.13194E-14
 -1      3505 1.36732E-02-3.03122E-04-7.26874E-14
 -1      3506 1.35144E-02-2.87822E-04-7.06071E-14
 -1      3507 4.25228E-03 3.45986E-04-9.25762E-15
 -1      3508 4.10905E-03 3.46910E-04-8.65925E-15
 -1      3509 3.96576E-03 3.47691E-04-8.08134E-15
 -1      3510 3.82241E-03 3.48322E-04-7.52266E-15
 -1      3511 4.03588E-03 3.09777E-04-8.43868E-15
 -1      3512 4.82469E-03 3.41076E-04-1.18497E-14
 -1      3513 4.68167E-03 3.42482E-04-1.11717E-14
 -1      3514 5.11058E-03 3.37892E-04-1.32616E-14
 -1      3515 4.96766E-03 3.39549E-04-1.25463E-14
 -1      3516 4.89538E-03 3.03303E-04-1.22740E-14
 -1      3517 5.39623E-03 3.34157E-04-1.47508E-14
 -1      3518 5.25343E-03 3.36099E-04-1.39968E-14
 -1      3519 5.18120E-03 3.00229E-04-1.37079E-14
 -1      3520 5.68161E-03 3.29784E-04-1.63142E-14
 -1      3521 5.53895E-03 3.32057E-04-1.55233E-14
 -1      3522 5.46664E-03 2.96622E-04-1.52178E-14
 -1      3523 5.96666E-03 3.24683E-04-1.79500E-14
 -1      3524 5.82417E-03 3.27332E-04-1.71231E-14
 -1      3525 5.75162E-03 2.92403E-04-1.68007E-14
 -1      3526 6.25130E-03 3.18776E-04-1.96555E-14
 -1      3527 6.10903E-03 3.21836E-04-1.87937E-14
 -1      3528 6.03605E-03 2.87484E-04-1.84559E-14
 -1      3529 6.53545E-03 3.12022E-04-2.14284E-14
 -1      3530 6.39344E-03 3.15508E-04-2.05344E-14
 -1      3531 6.31981E-03 2.81798E-04-2.01808E-14
 -1      3532 6.81900E-03 3.04454E-04-2.32669E-14
 -1      3533 6.67730E-03 3.08339E-04-2.23392E-14
 -1      3534 6.60274E-03 2.75317E-04-2.19715E-14
 -1      3535 7.10182E-03 2.96215E-04-2.51680E-14
 -1      3536 6.96049E-03 3.00410E-04-2.42099E-14
 -1      3537 6.88465E-03 2.68082E-04-2.38278E-14
 -1      3538 7.38384E-03 2.87610E-04-2.71297E-14
 -1      3539 7.24292E-03 2.91940E-04-2.61415E-14
 -1      3540 7.16537E-03 2.60240E-04-2.57464E-14
 -1      3541 7.66504E-03 2.79162E-04-2.91448E-14
 -1      3542 7.52452E-03 2.83333E-04-2.81306E-14
 -1      3543 7.44471E-03 2.52085E-04-2.77236E-14
 -1      3544 7.94557E-03 2.71681E-04-3.12107E-14
 -1      3545 7.80534E-03 2.75246E-04-3.01713E-14
 -1      3546 7.72258E-03 2.44100E-04-2.97549E-14
 -1      3547 8.22589E-03 2.66344E-04-3.33228E-14
 -1      3548 8.08568E-03 2.68659E-04-3.22601E-14
 -1      3549 7.99904E-03 2.37010E-04-3.18339E-14
 -1      3550 8.50702E-03 2.64800E-04-3.54799E-14
 -1      3551 8.36622E-03 2.64964E-04-3.43984E-14
 -1      3552 8.27450E-03 2.31837E-04-3.39596E-14
 -1      3553 8.79088E-03 2.69347E-04-3.76783E-14
 -1      3554 8.64839E-03 2.66096E-04-3.65741E-14
 -1      3555 8.54995E-03 2.29983E-04-3.61320E-14
 -1      3556 9.08087E-03 2.83272E-04-3.99128E-14
 -1      3557 8.93478E-03 2.74775E-04-3.87894E-14
 -1      3558 8.82741E-03 2.33410E-04-3.83416E-14
 -1      3559 9.38250E-03 3.11778E-04-4.21805E-14
 -1      3560 9.22976E-03 2.95045E-04-4.10430E-14
 -1      3561 9.11051E-03 2.45048E-04-4.05867E-14
 -1      3562 9.70378E-03 3.63104E-04-4.44830E-14
 -1      3563 9.54016E-03 3.33560E-04-4.33266E-14
 -1      3564 9.40598E-03 2.70129E-04-4.28657E-14
 -1      3565 1.00611E-02 4.10304E-04-4.73596E-14
 -1      3566 9.88261E-03 3.59594E-04-4.61844E-14
 -1      3567 1.07917E-03-2.16848E-04-8.27084E-16
 -1      3568 9.24260E-03 5.95462E-05-4.49733E-14
 -1      3569 9.31814E-03 8.99409E-05-4.49950E-14
 -1      3570 1.36525E-02-2.19932E-04-7.08888E-14
 -1      3571 1.35346E-02 3.52742E-04-6.94356E-14
 -1      3572 1.95320E-03 3.19077E-04-2.08069E-15
 -1      3573 1.80921E-03 3.10492E-04-1.80297E-15
 -1      3574 1.40945E-02-1.71428E-04-7.48688E-14
 -1      3575 1.41665E-02-1.27876E-04-7.47068E-14
 -1      3576 4.53859E-03 3.43767E-04-1.05133E-14
 -1      3577 4.39547E-03 3.44938E-04-9.87529E-15
 -1      3578 4.32271E-03 3.08074E-04-9.63765E-15
 -1      3579 4.60921E-03 3.05909E-04-1.09165E-14
 -1      3580 3.10471E-03 3.48041E-04-5.02846E-15
 -1      3581 2.96096E-03 3.46973E-04-4.58967E-15
 -1      3582 9.47486E-03-1.53081E-04-4.63665E-14
 -1      3583 1.86191E-03-2.80069E-04-2.17540E-15
 -1      3584 2.00615E-03-2.87388E-04-2.48929E-15
 -1      3585 2.07307E-03-2.54665E-04-2.65823E-15
 -1      3586 1.38755E-02 1.61910E-04-7.05440E-14
 -1      3587 1.40083E-02 1.11837E-04-7.11517E-14
 -1      3588 9.13472E-03 1.93070E-05-4.48370E-14
 -1      3589 9.17940E-03 3.59530E-05-4.49051E-14
 -1      3590 9.15392E-03 5.12600E-05-4.41845E-14
 -1      3591 2.24129E-03 3.31975E-04-2.69659E-15
 -1      3592 2.09723E-03 3.26193E-04-2.37844E-15
 -1      3593 2.01917E-03 2.86969E-04-2.26590E-15
 -1      3594 9.31950E-03-8.11651E-05-4.59224E-14
 -1      3595 9.22609E-03-5.11844E-05-4.54961E-14
 -1      3596 1.38689E-02-1.23486E-04-7.11727E-14
 -1      3597 1.37752E-02-1.57222E-04-7.09207E-14
 -1      3598 1.37904E-02-1.98518E-04-7.20076E-14
 -1      3599 1.40047E-02-9.75017E-05-7.20721E-14
 -1      3600 1.41150E-02 6.97726E-05-7.16248E-14
 -1      3601 1.41834E-02 4.37984E-05-7.19898E-14
 -1      3602 9.38261E-03 1.20500E-04-4.49867E-14
 -1      3603 9.45152E-03 1.56195E-04-4.49791E-14
 -1      3604 9.27428E-03 1.03585E-04-4.42444E-14
 -1      3605 1.44544E-03-2.48486E-04-1.38476E-15
 -1      3606 1.51163E-03-2.22188E-04-1.51422E-15
 -1      3607 1.31725E-03-2.34730E-04-1.17644E-15
 -1      3608 1.25879E-03-7.63640E-05-1.11868E-15
 -1      3609 1.26089E-03-1.07827E-04-1.12196E-15
 -1      3610 1.42830E-02 2.56527E-05-7.31111E-14
 -1      3611 1.38157E-03-1.53415E-04-1.30957E-15
 -1      3612 1.26052E-03-1.61148E-04-1.11335E-15
 -1      3613 1.13547E-03-2.77034E-05-9.31763E-16
 -1      3614 2.88515E-03 3.08729E-04-4.43170E-15
 -1      3615 2.81715E-03 3.45390E-04-4.17059E-15
 -1      3616 2.67327E-03 3.43229E-04-3.77187E-15
 -1      3617 1.39221E-02 3.16818E-04-7.29611E-14
 -1      3618 1.36456E-02 3.40405E-04-7.04096E-14
 -1      3619 1.36475E-02 2.78113E-04-6.97476E-14
 -1      3620 1.37282E-02 2.29884E-04-6.99667E-14
 -1      3621 1.37857E-02 3.07801E-04-7.14780E-14
 -1      3622 3.24838E-03 3.48702E-04-5.48721E-15
 -1      3623 3.17336E-03 3.10762E-04-5.31404E-15
 -1      3624 3.39199E-03 3.49000E-04-5.96643E-15
 -1      3625 1.37736E-02-2.95379E-04-7.36892E-14
 -1      3626 1.39035E-02-2.80188E-04-7.48984E-14
 -1      3627 1.39665E-02-2.47036E-04-7.49789E-14
 -1      3628 1.37748E-02-2.55687E-04-7.29727E-14
 -1      3629 3.74873E-03 3.10929E-04-7.31774E-15
 -1      3630 3.67900E-03 3.48768E-04-6.98367E-15
 -1      3631 3.53553E-03 3.49012E-04-6.46521E-15
 -1      3632 9.72128E-03 2.76360E-04-4.57117E-14
 -1      3633 9.08307E-03 8.27368E-06-4.43165E-14
 -1      3634 9.04260E-03 1.84494E-05-4.35977E-14
 -1      3635 9.04035E-03-2.57262E-06-4.37954E-14
 -1      3636 1.41367E-02 9.79492E-05-7.23623E-14
 -1      3637 1.38932E-02 2.02470E-04-7.13028E-14
 -1      3638 9.12429E-03-5.64794E-05-4.42182E-14
 -1      3639 9.14073E-03-3.70274E-05-4.47426E-14
 -1      3640 9.06641E-03-2.63807E-05-4.39932E-14
 -1      3641 1.43547E-02-2.43134E-05-7.44301E-14
 -1      3642 1.43676E-02-1.46324E-06-7.42621E-14
 -1      3643 2.52932E-03 3.40345E-04-3.39324E-15
 -1      3644 2.38532E-03 3.36656E-04-3.03494E-15
 -1      3645 2.59662E-03 3.04656E-04-3.62949E-15
 -1      3646 1.41714E-02 1.25242E-04-7.31719E-14
 -1      3647 1.40997E-02 1.67993E-04-7.30063E-14
 -1      3648 1.68358E-03 3.05503E-04-1.57211E-15
 -1      3649 1.55813E-03 2.98908E-04-1.35714E-15
 -1      3650 1.74896E-03 2.76145E-04-1.73302E-15
 -1      3651 1.42139E-02-2.94239E-05-7.27443E-14
 -1      3652 1.78431E-03-2.41357E-04-2.03154E-15
 -1      3653 1.27930E-03 2.42931E-04-9.75267E-16
 -1      3654 1.27317E-03 2.08652E-04-1.00039E-15
 -1      3655 1.26120E-03 1.10593E-04-1.05912E-15
 -1      3656 1.25901E-03 7.90989E-05-1.07396E-15
 -1      3657 9.35289E-03-1.35615E-04-4.54080E-14
 -1      3658 1.40290E-02-2.15581E-04-7.50574E-14
 -1      3659 2.30789E-03 2.97743E-04-2.90744E-15
 -1      3660 1.39424E-02-2.01468E-04-7.37889E-14
 -1      3661 1.25754E-03 4.78117E-05-1.08648E-15
 -1      3662 1.25681E-03 1.67374E-05-1.09702E-15
 -1      3663 1.38072E-03 6.71273E-05-1.26976E-15
 -1      3664 1.39720E-02 2.25306E-04-7.24192E-14
 -1      3665 1.25677E-03-1.41851E-05-1.10606E-15
 -1      3666 1.25742E-03-4.51875E-05-1.11334E-15
 -1      3667 1.38055E-03-6.43494E-05-1.31103E-15
 -1      3668 1.37914E-03 1.33903E-06-1.29424E-15
 -1      3669 2.28578E-03-2.25213E-04-3.18307E-15
 -1      3670 2.43067E-03-2.28371E-04-3.55830E-15
 -1      3671 2.57557E-03-2.30869E-04-3.95282E-15
 -1      3672 2.72044E-03-2.32770E-04-4.36759E-15
 -1      3673 2.49981E-03-1.92661E-04-3.74872E-15
 -1      3674 2.86526E-03-2.34189E-04-4.80327E-15
 -1      3675 3.00998E-03-2.35175E-04-5.25895E-15
 -1      3676 2.78999E-03-1.95974E-04-4.57682E-15
 -1      3677 3.15462E-03-2.35818E-04-5.73360E-15
 -1      3678 3.29913E-03-2.36152E-04-6.22840E-15
 -1      3679 3.07990E-03-1.97703E-04-5.48445E-15
 -1      3680 3.44354E-03-2.36246E-04-6.74309E-15
 -1      3681 3.58781E-03-2.36119E-04-7.27681E-15
 -1      3682 3.36938E-03-1.98300E-04-6.47120E-15
 -1      3683 3.73196E-03-2.35824E-04-7.83041E-15
 -1      3684 3.87599E-03-2.35370E-04-8.40293E-15
 -1      3685 3.65833E-03-1.98096E-04-7.53642E-15
 -1      3686 4.01989E-03-2.34794E-04-8.99418E-15
 -1      3687 4.16366E-03-2.34098E-04-9.60454E-15
 -1      3688 3.94671E-03-1.97320E-04-8.67816E-15
 -1      3689 4.30730E-03-2.33305E-04-1.02333E-14
 -1      3690 4.45082E-03-2.32412E-04-1.08808E-14
 -1      3691 4.23451E-03-1.96120E-04-9.89564E-15
 -1      3692 4.59421E-03-2.31433E-04-1.15472E-14
 -1      3693 4.73747E-03-2.30359E-04-1.22337E-14
 -1      3694 4.52173E-03-1.94576E-04-1.11877E-14
 -1      3695 4.88059E-03-2.29199E-04-1.29388E-14
 -1      3696 5.02357E-03-2.27939E-04-1.36618E-14
 -1      3697 4.80835E-03-1.92718E-04-1.25565E-14
 -1      3698 5.16641E-03-2.26582E-04-1.44046E-14
 -1      3699 5.30908E-03-2.25113E-04-1.51665E-14
 -1      3700 5.09431E-03-1.90537E-04-1.40013E-14
 -1      3701 5.45159E-03-2.23533E-04-1.59462E-14
 -1      3702 5.59391E-03-2.21823E-04-1.67441E-14
 -1      3703 5.37956E-03-1.87993E-04-1.55214E-14
 -1      3704 5.73602E-03-2.19984E-04-1.75602E-14
 -1      3705 5.87792E-03-2.17996E-04-1.83952E-14
 -1      3706 5.66397E-03-1.85033E-04-1.71156E-14
 -1      3707 6.01956E-03-2.15865E-04-1.92487E-14
 -1      3708 6.16094E-03-2.13567E-04-2.01195E-14
 -1      3709 5.94737E-03-1.81595E-04-1.87822E-14
 -1      3710 6.30201E-03-2.11116E-04-2.10063E-14
 -1      3711 6.44275E-03-2.08487E-04-2.19108E-14
 -1      3712 6.22955E-03-1.77623E-04-2.05205E-14
 -1      3713 6.58311E-03-2.05705E-04-2.28343E-14
 -1      3714 6.72307E-03-2.02745E-04-2.37733E-14
 -1      3715 6.51023E-03-1.73079E-04-2.23273E-14
 -1      3716 6.86256E-03-1.99649E-04-2.47282E-14
 -1      3717 7.00158E-03-1.96393E-04-2.57005E-14
 -1      3718 6.78908E-03-1.67961E-04-2.42024E-14
 -1      3719 7.14003E-03-1.93038E-04-2.66875E-14
 -1      3720 7.27792E-03-1.89562E-04-2.76906E-14
 -1      3721 7.06569E-03-1.62319E-04-2.61421E-14
 -1      3722 7.41515E-03-1.86053E-04-2.87093E-14
 -1      3723 7.55174E-03-1.82492E-04-2.97428E-14
 -1      3724 7.33962E-03-1.56271E-04-2.81438E-14
 -1      3725 7.68757E-03-1.78994E-04-3.07897E-14
 -1      3726 7.82271E-03-1.75545E-04-3.18488E-14
 -1      3727 7.61040E-03-1.50016E-04-3.02055E-14
 -1      3728 7.95702E-03-1.72287E-04-3.29221E-14
 -1      3729 8.09062E-03-1.69218E-04-3.40070E-14
 -1      3730 7.87756E-03-1.43838E-04-3.23191E-14
 -1      3731 8.22339E-03-1.66499E-04-3.51049E-14
 -1      3732 8.35555E-03-1.64149E-04-3.62146E-14
 -1      3733 8.14069E-03-1.38093E-04-3.44837E-14
 -1      3734 8.48695E-03-1.62336E-04-3.73343E-14
 -1      3735 8.61803E-03-1.61141E-04-3.84645E-14
 -1      3736 8.39952E-03-1.33196E-04-3.66961E-14
 -1      3737 8.74862E-03-1.60715E-04-3.96041E-14
 -1      3738 8.87959E-03-1.61341E-04-4.07539E-14
 -1      3739 8.65414E-03-1.29592E-04-3.89521E-14
 -1      3740 9.01060E-03-1.63135E-04-4.19111E-14
 -1      3741 9.14330E-03-1.66665E-04-4.30754E-14
 -1      3742 8.90542E-03-1.27904E-04-4.12450E-14
 -1      3743 4.10626E-03 2.71816E-04-8.79875E-15
 -1      3744 3.96258E-03 2.72472E-04-8.21714E-15
 -1      3745 1.19877E-03-2.16012E-04-1.00043E-15
 -1      3746 1.38513E-02-2.02535E-04-7.27879E-14
 -1      3747 5.25174E-03 2.62729E-04-1.41561E-14
 -1      3748 5.10896E-03 2.64242E-04-1.34194E-14
 -1      3749 4.96606E-03 2.65636E-04-1.27008E-14
 -1      3750 4.82303E-03 2.66923E-04-1.20014E-14
 -1      3751 5.03673E-03 2.28113E-04-1.31298E-14
 -1      3752 5.82138E-03 2.55332E-04-1.72897E-14
 -1      3753 5.67922E-03 2.57406E-04-1.64790E-14
 -1      3754 6.10510E-03 2.50688E-04-1.89643E-14
 -1      3755 5.96335E-03 2.53100E-04-1.81182E-14
 -1      3756 5.89092E-03 2.18614E-04-1.77805E-14
 -1      3757 6.38787E-03 2.45331E-04-2.07070E-14
 -1      3758 6.24661E-03 2.48105E-04-1.98268E-14
 -1      3759 6.17385E-03 2.14339E-04-1.94738E-14
 -1      3760 6.66946E-03 2.39242E-04-2.25167E-14
 -1      3761 6.52882E-03 2.42383E-04-2.16038E-14
 -1      3762 6.45553E-03 2.09418E-04-2.12360E-14
 -1      3763 6.94962E-03 2.32471E-04-2.43908E-14
 -1      3764 6.80973E-03 2.35943E-04-2.34459E-14
 -1      3765 6.73569E-03 2.03842E-04-2.30643E-14
 -1      3766 7.22809E-03 2.25160E-04-2.63266E-14
 -1      3767 7.08907E-03 2.28880E-04-2.53509E-14
 -1      3768 7.01400E-03 1.97662E-04-2.49563E-14
 -1      3769 7.50458E-03 2.17581E-04-2.83200E-14
 -1      3770 7.36658E-03 2.21394E-04-2.73166E-14
 -1      3771 7.29009E-03 1.91012E-04-2.69088E-14
 -1      3772 7.77891E-03 2.10161E-04-3.03659E-14
 -1      3773 7.64200E-03 2.13832E-04-2.93363E-14
 -1      3774 7.56360E-03 1.84130E-04-2.89186E-14
 -1      3775 8.05102E-03 2.03518E-04-3.24587E-14
 -1      3776 7.91520E-03 2.06711E-04-3.14071E-14
 -1      3777 7.83421E-03 1.77371E-04-3.09791E-14
 -1      3778 8.32118E-03 1.98485E-04-3.46003E-14
 -1      3779 8.18626E-03 2.00748E-04-3.35227E-14
 -1      3780 8.10169E-03 1.71216E-04-3.30867E-14
 -1      3781 8.59025E-03 1.96181E-04-3.67837E-14
 -1      3782 8.45570E-03 1.96904E-04-3.56866E-14
 -1      3783 8.36611E-03 1.66282E-04-3.52409E-14
 -1      3784 8.86011E-03 1.98180E-04-3.90055E-14
 -1      3785 8.72479E-03 1.96473E-04-3.78900E-14
 -1      3786 8.62802E-03 1.63348E-04-3.74387E-14
 -1      3787 9.13435E-03 2.07019E-04-4.12637E-14
 -1      3788 8.99616E-03 2.01464E-04-4.01308E-14
 -1      3789 8.88891E-03 1.63520E-04-3.96734E-14
 -1      3790 1.39565E-02-1.49187E-04-7.28207E-14
 -1      3791 2.08614E-03 2.54159E-04-2.45593E-15
 -1      3792 1.94164E-03 2.48232E-04-2.15275E-15
 -1      3793 1.42483E-02-5.29490E-05-7.37917E-14
 -1      3794 1.42675E-02 8.54705E-05-7.36545E-14
 -1      3795 9.57724E-03 2.38562E-04-4.48703E-14
 -1      3796 1.43602E-02 2.14111E-05-7.40933E-14
 -1      3797 2.37542E-03 2.62970E-04-3.12271E-15
 -1      3798 2.23075E-03 2.59037E-04-2.77914E-15
 -1      3799 2.15402E-03 2.20671E-04-2.65048E-15
 -1      3800 1.26495E-03-1.94034E-04-1.11064E-15
 -1      3801 1.99624E-03-2.16411E-04-2.49579E-15
 -1      3802 2.14095E-03-2.21253E-04-2.82912E-15
 -1      3803 2.20967E-03-1.87185E-04-3.00186E-15
 -1      3804 1.43164E-02 5.50977E-05-7.38206E-14
 -1      3805 1.32614E-03 2.85670E-04-9.97032E-16
 -1      3806 1.44605E-03 2.81013E-04-1.19176E-15
 -1      3807 1.38834E-02 2.84188E-04-7.22071E-14
 -1      3808 1.41945E-02-8.42748E-05-7.39544E-14
 -1      3809 1.70755E-03-2.03564E-04-1.89029E-15
 -1      3810 1.85175E-03-2.10538E-04-2.18274E-15
 -1      3811 1.92006E-03-1.78811E-04-2.33614E-15
 -1      3812 9.06814E-03 4.50654E-05-4.33580E-14
 -1      3813 9.12264E-03 6.82181E-05-4.34263E-14
 -1      3814 1.26818E-03 1.75276E-04-1.02223E-15
 -1      3815 1.26424E-03 1.42616E-04-1.04203E-15
 -1      3816 1.38547E-03 1.33935E-04-1.23618E-15
 -1      3817 1.39387E-03 2.02652E-04-1.19231E-15
 -1      3818 1.51129E-03 2.54935E-04-1.33106E-15
 -1      3819 1.40548E-02-1.05132E-04-7.28524E-14
 -1      3820 9.44885E-03 2.07306E-04-4.41290E-14
 -1      3821 5.53688E-03 2.59320E-04-1.56862E-14
 -1      3822 5.39438E-03 2.61094E-04-1.49119E-14
 -1      3823 5.60698E-03 2.22290E-04-1.61572E-14
 -1      3824 1.61680E-03 2.33361E-04-1.53962E-15
 -1      3825 1.50511E-03 2.18247E-04-1.36066E-15
 -1      3826 1.50007E-03 1.82171E-04-1.38669E-15
 -1      3827 1.57795E-03-1.34361E-04-1.65627E-15
 -1      3828 1.57869E-03-1.94776E-04-1.64625E-15
 -1      3829 2.95383E-03 2.71753E-04-4.69648E-15
 -1      3830 2.80932E-03 2.70410E-04-4.27291E-15
 -1      3831 3.88919E-03 2.34997E-04-7.99474E-15
 -1      3832 3.81880E-03 2.72989E-04-7.65479E-15
 -1      3833 3.67491E-03 2.73360E-04-7.11177E-15
 -1      3834 4.24983E-03 2.71047E-04-9.39976E-15
 -1      3835 4.17686E-03 2.33852E-04-9.16088E-15
 -1      3836 4.39329E-03 2.70165E-04-1.00201E-14
 -1      3837 9.24967E-03-1.38959E-04-4.43655E-14
 -1      3838 4.67989E-03 2.68103E-04-1.13217E-14
 -1      3839 4.53665E-03 2.69186E-04-1.06611E-14
 -1      3840 4.46402E-03 2.32302E-04-1.04057E-14
 -1      3841 5.32221E-03 2.25433E-04-1.46061E-14
 -1      3842 4.75065E-03 2.30390E-04-1.17283E-14
 -1      3843 9.30689E-03 1.94686E-04-4.29773E-14
 -1      3844 9.00237E-03-1.63721E-05-4.32766E-14
 -1      3845 8.94368E-03-6.69206E-06-4.25621E-14
 -1      3846 8.96848E-03-3.18822E-05-4.27553E-14
 -1      3847 8.93895E-03 1.89261E-05-4.23260E-14
 -1      3848 8.99929E-03 3.12937E-05-4.28431E-14
 -1      3849 8.95577E-03 4.58671E-05-4.20902E-14
 -1      3850 1.74264E-03 2.37367E-04-1.76802E-15
 -1      3851 2.66474E-03 2.68550E-04-3.86965E-15
 -1      3852 2.52009E-03 2.66115E-04-3.48616E-15
 -1      3853 2.73358E-03 2.32083E-04-4.11337E-15
 -1      3854 9.13158E-03-1.00388E-04-4.36852E-14
 -1      3855 9.03488E-03-8.22925E-05-4.29397E-14
 -1      3856 2.44378E-03 2.27703E-04-3.34231E-15
 -1      3857 9.06823E-03 8.16918E-05-4.25989E-14
 -1      3858 9.16812E-03 9.10241E-05-4.34214E-14
 -1      3859 9.21958E-03 1.17492E-04-4.34136E-14
 -1      3860 3.46122E-03 3.11353E-04-6.27635E-15
 -1      3861 3.24258E-03 2.73252E-04-5.60320E-15
 -1      3862 3.09826E-03 2.72687E-04-5.14007E-15
 -1      3863 3.02315E-03 2.34521E-04-4.96478E-15
 -1      3864 1.81000E-03 2.07018E-04-1.93255E-15
 -1      3865 1.49602E-03 1.46655E-04-1.40984E-15
 -1      3866 1.49293E-03 1.11604E-04-1.43046E-15
 -1      3867 1.60715E-03 1.59279E-04-1.59485E-15
 -1      3868 1.49072E-03 7.68286E-05-1.44798E-15
 -1      3869 1.48933E-03 4.22824E-05-1.46309E-15
 -1      3870 1.60130E-03 8.67641E-05-1.63771E-15
 -1      3871 1.57339E-03-6.30313E-05-1.64517E-15
 -1      3872 1.57524E-03-9.85528E-05-1.65216E-15
 -1      3873 1.77210E-03-1.35334E-04-2.03082E-15
 -1      3874 2.51294E-03 1.91946E-04-3.56562E-15
 -1      3875 2.36783E-03 1.89546E-04-3.19746E-15
 -1      3876 2.42444E-03-1.54719E-04-3.54804E-15
 -1      3877 2.56971E-03-1.56486E-04-3.94057E-15
 -1      3878 5.39262E-03 1.88375E-04-1.50578E-14
 -1      3879 5.25011E-03 1.89620E-04-1.43001E-14
 -1      3880 2.71498E-03-1.57854E-04-4.35294E-15
 -1      3881 2.86021E-03-1.58856E-04-4.78547E-15
 -1      3882 2.64031E-03-1.19903E-04-4.13298E-15
 -1      3883 3.00535E-03-1.59570E-04-5.23876E-15
 -1      3884 3.15039E-03-1.60020E-04-5.71076E-15
 -1      3885 2.93103E-03-1.21471E-04-4.99512E-15
 -1      3886 3.29531E-03-1.60266E-04-6.20218E-15
 -1      3887 3.44009E-03-1.60322E-04-6.71407E-15
 -1      3888 3.22139E-03-1.22178E-04-5.93720E-15
 -1      3889 3.58473E-03-1.60236E-04-7.24553E-15
 -1      3890 3.72921E-03-1.60014E-04-7.79581E-15
 -1      3891 3.51123E-03-1.22269E-04-6.95737E-15
 -1      3892 3.87354E-03-1.59691E-04-8.36496E-15
 -1      3893 4.01771E-03-1.59268E-04-8.95329E-15
 -1      3894 3.80043E-03-1.21921E-04-8.05471E-15
 -1      3895 4.16173E-03-1.58769E-04-9.56033E-15
 -1      3896 4.30558E-03-1.58190E-04-1.01865E-14
 -1      3897 4.08897E-03-1.21257E-04-9.22783E-15
 -1      3898 4.44926E-03-1.57549E-04-1.08310E-14
 -1      3899 4.59278E-03-1.56837E-04-1.14943E-14
 -1      3900 4.37682E-03-1.20349E-04-1.04770E-14
 -1      3901 4.73613E-03-1.56066E-04-1.21776E-14
 -1      3902 4.87930E-03-1.55224E-04-1.28797E-14
 -1      3903 4.66395E-03-1.19231E-04-1.18018E-14
 -1      3904 5.02228E-03-1.54319E-04-1.36007E-14
 -1      3905 5.16507E-03-1.53336E-04-1.43405E-14
 -1      3906 4.95032E-03-1.17909E-04-1.32029E-14
 -1      3907 5.30765E-03-1.52281E-04-1.50990E-14
 -1      3908 5.45000E-03-1.51138E-04-1.58769E-14
 -1      3909 5.23585E-03-1.16368E-04-1.46793E-14
 -1      3910 5.59211E-03-1.49911E-04-1.66727E-14
 -1      3911 5.73395E-03-1.48582E-04-1.74863E-14
 -1      3912 5.52043E-03-1.14577E-04-1.62318E-14
 -1      3913 5.87549E-03-1.47158E-04-1.83185E-14
 -1      3914 6.01671E-03-1.45617E-04-1.91691E-14
 -1      3915 5.80388E-03-1.12497E-04-1.78572E-14
 -1      3916 6.15756E-03-1.43973E-04-2.00365E-14
 -1      3917 6.29802E-03-1.42199E-04-2.09207E-14
 -1      3918 6.08598E-03-1.10089E-04-1.95547E-14
 -1      3919 6.43803E-03-1.40318E-04-2.18229E-14
 -1      3920 6.57755E-03-1.38300E-04-2.27422E-14
 -1      3921 6.36641E-03-1.07321E-04-2.13221E-14
 -1      3922 6.71653E-03-1.36181E-04-2.36785E-14
 -1      3923 6.85491E-03-1.33925E-04-2.46308E-14
 -1      3924 6.64480E-03-1.04174E-04-2.31562E-14
 -1      3925 6.99262E-03-1.31584E-04-2.55978E-14
 -1      3926 7.12962E-03-1.29120E-04-2.65816E-14
 -1      3927 6.92069E-03-1.00657E-04-2.50569E-14
 -1      3928 7.26581E-03-1.26601E-04-2.75817E-14
 -1      3929 7.40115E-03-1.23983E-04-2.85962E-14
 -1      3930 7.19354E-03-9.68094E-05-2.70216E-14
 -1      3931 7.53552E-03-1.21359E-04-2.96234E-14
 -1      3932 7.66890E-03-1.18672E-04-3.06640E-14
 -1      3933 7.46271E-03-9.27078E-05-2.90448E-14
 -1      3934 7.80113E-03-1.16041E-04-3.17190E-14
 -1      3935 7.93223E-03-1.13388E-04-3.27858E-14
 -1      3936 7.72749E-03-8.84639E-05-3.11218E-14
 -1      3937 8.06199E-03-1.10864E-04-3.38662E-14
 -1      3938 8.19047E-03-1.08360E-04-3.49577E-14
 -1      3939 7.98704E-03-8.42050E-05-3.32516E-14
 -1      3940 8.31741E-03-1.06062E-04-3.60607E-14
 -1      3941 8.44295E-03-1.03806E-04-3.71759E-14
 -1      3942 8.24038E-03-8.00403E-05-3.54295E-14
 -1      3943 8.56671E-03-1.01810E-04-3.83015E-14
 -1      3944 8.68905E-03-9.98555E-05-3.94366E-14
 -1      3945 8.48630E-03-7.60246E-05-3.76539E-14
 -1      3946 9.18166E-03 1.48971E-04-4.25121E-14
 -1      3947 1.57216E-03 7.54836E-06-1.62411E-15
 -1      3948 1.57237E-03-2.76961E-05-1.63603E-15
 -1      3949 1.76768E-03-6.00959E-05-2.01628E-15
 -1      3950 5.10742E-03 1.90765E-04-1.35607E-14
 -1      3951 4.96453E-03 1.91825E-04-1.28396E-14
 -1      3952 5.17811E-03 1.53627E-04-1.39935E-14
 -1      3953 6.24237E-03 1.78483E-04-1.99859E-14
 -1      3954 6.10150E-03 1.80461E-04-1.91205E-14
 -1      3955 5.96029E-03 1.82292E-04-1.82725E-14
 -1      3956 5.81877E-03 1.83998E-04-1.74423E-14
 -1      3957 6.02954E-03 1.46397E-04-1.87669E-14
 -1      3958 6.80160E-03 1.69167E-04-2.36141E-14
 -1      3959 6.66251E-03 1.71716E-04-2.26826E-14
 -1      3960 7.07800E-03 1.63708E-04-2.55239E-14
 -1      3961 6.94010E-03 1.66508E-04-2.45612E-14
 -1      3962 6.86730E-03 1.35245E-04-2.41662E-14
 -1      3963 7.35168E-03 1.57851E-04-2.74928E-14
 -1      3964 7.21520E-03 1.60834E-04-2.65004E-14
 -1      3965 7.14178E-03 1.30634E-04-2.60931E-14
 -1      3966 7.62215E-03 1.51793E-04-2.95181E-14
 -1      3967 7.48733E-03 1.54851E-04-2.84993E-14
 -1      3968 7.41303E-03 1.25696E-04-2.80793E-14
 -1      3969 7.88893E-03 1.45810E-04-3.15945E-14
 -1      3970 7.75601E-03 1.48795E-04-3.05507E-14
 -1      3971 7.68045E-03 1.20585E-04-3.01216E-14
 -1      3972 8.15161E-03 1.40246E-04-3.37169E-14
 -1      3973 8.02077E-03 1.42980E-04-3.26493E-14
 -1      3974 7.94336E-03 1.15495E-04-3.22117E-14
 -1      3975 8.40991E-03 1.35496E-04-3.58848E-14
 -1      3976 8.28126E-03 1.37772E-04-3.47947E-14
 -1      3977 8.20109E-03 1.10628E-04-3.43484E-14
 -1      3978 8.66393E-03 1.32020E-04-3.80952E-14
 -1      3979 8.53734E-03 1.33592E-04-3.69858E-14
 -1      3980 8.45294E-03 1.06153E-04-3.65317E-14
 -1      3981 8.91425E-03 1.30404E-04-4.03438E-14
 -1      3982 8.78931E-03 1.30968E-04-3.92155E-14
 -1      3983 8.69828E-03 1.02267E-04-3.87564E-14
 -1      3984 2.80314E-03 1.95264E-04-4.36115E-15
 -1      3985 2.65806E-03 1.93837E-04-3.95325E-15
 -1      3986 2.58284E-03 1.55749E-04-3.79299E-15
 -1      3987 1.91650E-03-1.39709E-04-2.33239E-15
 -1      3988 2.22277E-03 1.86523E-04-2.84931E-15
 -1      3989 2.07783E-03 1.82813E-04-2.52107E-15
 -1      3990 2.29231E-03 1.51748E-04-3.05238E-15
 -1      3991 2.13411E-03-1.49678E-04-2.82321E-15
 -1      3992 2.27922E-03-1.52463E-04-3.17552E-15
 -1      3993 2.34953E-03-1.17140E-04-3.35024E-15
 -1      3994 8.92854E-03-9.64560E-05-4.17365E-14
 -1      3995 8.94373E-03-5.59868E-05-4.22686E-14
 -1      3996 8.86831E-03-4.40957E-05-4.15592E-14
 -1      3997 8.80964E-03-9.80196E-05-4.05850E-14
 -1      3998 1.80566E-03 1.68518E-04-1.96227E-15
 -1      3999 5.67697E-03 1.85570E-04-1.66290E-14
 -1      4000 5.53491E-03 1.87031E-04-1.58341E-14
 -1      4001 5.46299E-03 1.51587E-04-1.55114E-14
 -1      4002 6.52292E-03 1.74108E-04-2.17667E-14
 -1      4003 6.38285E-03 1.76374E-04-2.08677E-14
 -1      4004 6.31073E-03 1.43152E-04-2.04999E-14
 -1      4005 3.53091E-03 2.73546E-04-6.58970E-15
 -1      4006 3.38680E-03 2.73529E-04-6.08677E-15
 -1      4007 3.31231E-03 2.35567E-04-5.89601E-15
 -1      4008 3.60101E-03 2.35631E-04-6.90615E-15
 -1      4009 4.82148E-03 1.92797E-04-1.21383E-14
 -1      4010 4.67826E-03 1.93693E-04-1.14563E-14
 -1      4011 4.89237E-03 1.55360E-04-1.25503E-14
 -1      4012 1.93973E-03 1.56257E-04-2.24805E-15
 -1      4013 1.73761E-03 1.11426E-04-1.87692E-15
 -1      4014 1.73548E-03 7.40280E-05-1.89775E-15
 -1      4015 2.00939E-03 1.23338E-04-2.42661E-15
 -1      4016 8.72365E-03-7.17684E-05-3.99238E-14
 -1      4017 6.59012E-03 1.39433E-04-2.23001E-14
 -1      4018 4.60588E-03 1.56822E-04-1.11841E-14
 -1      4019 4.53489E-03 1.94508E-04-1.07938E-14
 -1      4020 4.39136E-03 1.95251E-04-1.01501E-14
 -1      4021 5.74686E-03 1.49194E-04-1.71034E-14
 -1      4022 2.94816E-03 1.96323E-04-4.78902E-15
 -1      4023 2.87335E-03 1.58149E-04-4.61297E-15
 -1      4024 3.09307E-03 1.97043E-04-5.23670E-15
 -1      4025 8.88420E-03 4.98096E-06-4.18111E-14
 -1      4026 8.82729E-03 1.74861E-05-4.10638E-14
 -1      4027 8.83489E-03-9.44831E-06-4.12950E-14
 -1      4028 8.92895E-03 8.06398E-05-4.12369E-14
 -1      4029 8.96481E-03 1.02033E-04-4.12326E-14
 -1      4030 1.98649E-03-1.06810E-04-2.48446E-15
 -1      4031 3.95988E-03 1.96975E-04-8.33692E-15
 -1      4032 3.81577E-03 1.97363E-04-7.77091E-15
 -1      4033 4.24768E-03 1.95910E-04-9.52648E-15
 -1      4034 4.10386E-03 1.96491E-04-8.92228E-15
 -1      4035 4.31870E-03 1.58029E-04-9.89469E-15
 -1      4036 8.85135E-03 6.40925E-05-4.07279E-14
 -1      4037 4.03085E-03 1.58967E-04-8.68278E-15
 -1      4038 6.37905E-03 1.08366E-04-2.10154E-14
 -1      4039 6.23913E-03 1.09712E-04-2.01308E-14
 -1      4040 8.75777E-03-5.06764E-05-4.03693E-14
 -1      4041 8.79556E-03-2.69649E-05-4.08532E-14
 -1      4042 8.72572E-03-1.45748E-05-4.01103E-14
 -1      4043 8.64428E-03-5.28948E-05-3.92264E-14
 -1      4044 9.06904E-03 1.34882E-04-4.16970E-14
 -1      4045 2.85704E-03-8.34762E-05-4.75549E-15
 -1      4046 3.00243E-03-8.38472E-05-5.20557E-15
 -1      4047 3.14772E-03-8.40879E-05-5.67534E-15
 -1      4048 3.29288E-03-8.42028E-05-6.16361E-15
 -1      4049 3.07433E-03-4.60357E-05-5.41558E-15
 -1      4050 3.43789E-03-8.42286E-05-6.67177E-15
 -1      4051 3.58275E-03-8.41622E-05-7.20009E-15
 -1      4052 3.36478E-03-4.61466E-05-6.39018E-15
 -1      4053 3.72744E-03-8.40326E-05-7.74685E-15
 -1      4054 3.87196E-03-8.38376E-05-8.31243E-15
 -1      4055 3.65461E-03-4.60436E-05-7.44165E-15
 -1      4056 4.01630E-03-8.35984E-05-8.89902E-15
 -1      4057 4.16046E-03-8.33080E-05-9.50291E-15
 -1      4058 3.94375E-03-4.58034E-05-8.57149E-15
 -1      4059 4.30444E-03-8.29825E-05-1.01259E-14
 -1      4060 4.44823E-03-8.26144E-05-1.07678E-14
 -1      4061 4.23215E-03-4.54540E-05-9.77767E-15
 -1      4062 4.59183E-03-8.22151E-05-1.14284E-14
 -1      4063 4.73523E-03-8.17760E-05-1.21090E-14
 -1      4064 4.51979E-03-4.50161E-05-1.10589E-14
 -1      4065 4.87843E-03-8.13052E-05-1.28085E-14
 -1      4066 5.02141E-03-8.07928E-05-1.35263E-14
 -1      4067 4.80662E-03-4.44980E-05-1.24162E-14
 -1      4068 5.16416E-03-8.02452E-05-1.42630E-14
 -1      4069 5.30667E-03-7.96509E-05-1.50191E-14
 -1      4070 5.09257E-03-4.38974E-05-1.38495E-14
 -1      4071 5.44892E-03-7.90160E-05-1.57943E-14
 -1      4072 5.59088E-03-7.83271E-05-1.65869E-14
 -1      4073 5.37755E-03-4.32052E-05-1.53590E-14
 -1      4074 5.73253E-03-7.75917E-05-1.73988E-14
 -1      4075 5.87384E-03-7.67938E-05-1.82285E-14
 -1      4076 5.66138E-03-4.24076E-05-1.69426E-14
 -1      4077 6.01477E-03-7.59442E-05-1.90756E-14
 -1      4078 6.15528E-03-7.50238E-05-1.99403E-14
 -1      4079 5.94386E-03-4.14891E-05-1.85992E-14
 -1      4080 6.29532E-03-7.40488E-05-2.08228E-14
 -1      4081 6.43486E-03-7.29959E-05-2.17219E-14
 -1      4082 6.22467E-03-4.04352E-05-2.03263E-14
 -1      4083 6.57382E-03-7.18896E-05-2.26386E-14
 -1      4084 6.71216E-03-7.07008E-05-2.35714E-14
 -1      4085 6.50346E-03-3.92353E-05-2.21230E-14
 -1      4086 6.84979E-03-6.94655E-05-2.45194E-14
 -1      4087 6.98666E-03-6.81469E-05-2.54841E-14
 -1      4088 6.77975E-03-3.78862E-05-2.39837E-14
 -1      4089 7.12267E-03-6.67958E-05-2.64647E-14
 -1      4090 7.25776E-03-6.53650E-05-2.74609E-14
 -1      4091 7.05299E-03-3.63952E-05-2.59117E-14
 -1      4092 7.39180E-03-6.39238E-05-2.84709E-14
 -1      4093 7.52474E-03-6.24091E-05-2.94931E-14
 -1      4094 7.32250E-03-3.47816E-05-2.78978E-14
 -1      4095 7.65640E-03-6.09140E-05-3.05289E-14
 -1      4096 7.78674E-03-5.93500E-05-3.15789E-14
 -1      4097 7.58749E-03-3.30768E-05-2.99401E-14
 -1      4098 7.91554E-03-5.78417E-05-3.26413E-14
 -1      4099 8.04274E-03-5.62547E-05-3.37157E-14
 -1      4100 7.84700E-03-3.13183E-05-3.20341E-14
 -1      4101 8.16804E-03-5.47625E-05-3.48030E-14
 -1      4102 8.29141E-03-5.31472E-05-3.59012E-14
 -1      4103 8.09979E-03-2.95356E-05-3.41779E-14
 -1      4104 8.41239E-03-5.16955E-05-3.70110E-14
 -1      4105 8.53100E-03-5.00086E-05-3.81310E-14
 -1      4106 8.34412E-03-2.77339E-05-3.63712E-14
 -1      4107 6.09874E-03 1.10952E-04-1.92636E-14
 -1      4108 5.95792E-03 1.12116E-04-1.84132E-14
 -1      4109 6.16795E-03 7.59814E-05-1.97622E-14
 -1      4110 1.68269E-03 1.49849E-05-1.82677E-15
 -1      4111 5.24882E-03 1.16720E-04-1.44287E-14
 -1      4112 5.10619E-03 1.17441E-04-1.36867E-14
 -1      4113 2.27519E-03-8.00416E-05-3.15660E-15
 -1      4114 2.42058E-03-8.12494E-05-3.52660E-15
 -1      4115 7.20563E-03 9.84419E-05-2.66648E-14
 -1      4116 7.06973E-03 1.00316E-04-2.56851E-14
 -1      4117 6.93301E-03 1.02088E-04-2.47204E-14
 -1      4118 6.79550E-03 1.03804E-04-2.37702E-14
 -1      4119 6.99888E-03 6.97099E-05-2.52755E-14
 -1      4120 7.73899E-03 9.05066E-05-3.07258E-14
 -1      4121 7.60735E-03 9.25601E-05-2.96908E-14
 -1      4122 7.99814E-03 8.64476E-05-3.28316E-14
 -1      4123 7.86926E-03 8.85045E-05-3.17735E-14
 -1      4124 7.79810E-03 6.15645E-05-3.13329E-14
 -1      4125 8.25096E-03 8.24542E-05-3.49839E-14
 -1      4126 8.12537E-03 8.44890E-05-3.39022E-14
 -1      4127 8.05367E-03 5.86857E-05-3.34535E-14
 -1      4128 8.49621E-03 7.85361E-05-3.71815E-14
 -1      4129 8.37453E-03 8.05416E-05-3.60767E-14
 -1      4130 8.30176E-03 5.57824E-05-3.56209E-14
 -1      4131 8.73583E-03 7.02810E-05-3.95077E-14
 -1      4132 8.61964E-03 7.23640E-05-3.83833E-14
 -1      4133 8.54580E-03 4.85259E-05-3.79201E-14
 -1      4134 8.77966E-03 3.74025E-05-4.03481E-14
 -1      4135 2.65345E-03 1.19133E-04-4.02467E-15
 -1      4136 2.50803E-03 1.17924E-04-3.63248E-15
 -1      4137 4.96333E-03 1.18100E-04-1.29644E-14
 -1      4138 4.82027E-03 1.18711E-04-1.22611E-14
 -1      4139 5.03436E-03 8.10458E-05-1.33806E-14
 -1      4140 4.10207E-03 1.20993E-04-9.03182E-15
 -1      4141 3.95790E-03 1.21293E-04-8.44286E-15
 -1      4142 2.36265E-03 1.16372E-04-3.26013E-15
 -1      4143 2.21737E-03 1.14445E-04-2.90752E-15
 -1      4144 2.43369E-03 8.04391E-05-3.47202E-15
 -1      4145 1.91223E-03-6.66051E-05-2.31644E-15
 -1      4146 2.12977E-03-7.38427E-05-2.80471E-15
 -1      4147 2.20136E-03-3.87906E-05-2.96395E-15
 -1      4148 1.91122E-03-2.79976E-05-2.30393E-15
 -1      4149 6.65730E-03 1.05409E-04-2.28353E-14
 -1      4150 6.51846E-03 1.06943E-04-2.19164E-14
 -1      4151 6.44741E-03 7.41474E-05-2.15345E-14
 -1      4152 1.78075E-03 4.29485E-05-2.00483E-15
 -1      4153 1.86444E-03 4.82155E-06-2.19344E-15
 -1      4154 2.00914E-03 3.81129E-07-2.50523E-15
 -1      4155 1.91711E-03 6.62422E-05-2.27101E-15
 -1      4156 7.47454E-03 9.45455E-05-2.86689E-14
 -1      4157 7.34058E-03 9.65374E-05-2.76598E-14
 -1      4158 7.53644E-03 6.44058E-05-2.92604E-14
 -1      4159 5.81673E-03 1.13184E-04-1.75801E-14
 -1      4160 5.67519E-03 1.14181E-04-1.67647E-14
 -1      4161 5.88661E-03 7.75654E-05-1.80590E-14
 -1      4162 3.74236E-03 1.59584E-04-7.54799E-15
 -1      4163 3.67150E-03 1.97627E-04-7.22564E-15
 -1      4164 3.52710E-03 1.97762E-04-6.69947E-15
 -1      4165 5.53335E-03 1.15094E-04-1.59668E-14
 -1      4166 5.39122E-03 1.15943E-04-1.51883E-14
 -1      4167 5.60373E-03 7.89198E-05-1.64256E-14
 -1      4168 2.56607E-03-8.22114E-05-3.91619E-15
 -1      4169 2.71157E-03-8.29363E-05-4.32567E-15
 -1      4170 2.78343E-03-4.56364E-05-4.51966E-15
 -1      4171 7.26974E-03 6.71434E-05-2.72404E-14
 -1      4172 4.67700E-03 1.19265E-04-1.15767E-14
 -1      4173 4.53354E-03 1.19775E-04-1.09112E-14
 -1      4174 4.74823E-03 8.18670E-05-1.19715E-14
 -1      4175 4.38990E-03 1.20231E-04-1.02650E-14
 -1      4176 4.24608E-03 1.20641E-04-9.63857E-15
 -1      4177 4.17352E-03 8.30909E-05-9.38218E-15
 -1      4178 4.46126E-03 8.25484E-05-1.06382E-14
 -1      4179 6.72456E-03 7.20542E-05-2.33728E-14
 -1      4180 5.31958E-03 8.00710E-05-1.48655E-14
 -1      4181 2.49231E-03-4.48424E-05-3.70316E-15
 -1      4182 3.38255E-03 1.97723E-04-6.19211E-15
 -1      4183 3.23787E-03 1.97503E-04-5.70461E-15
 -1      4184 3.16354E-03 1.59376E-04-5.51252E-15
 -1      4185 3.45324E-03 1.59769E-04-6.49190E-15
 -1      4186 2.79885E-03 1.20073E-04-4.43632E-15
 -1      4187 2.72469E-03 8.21503E-05-4.25998E-15
 -1      4188 2.94418E-03 1.20757E-04-4.86841E-15
 -1      4189 8.71632E-03 2.21971E-05-3.98381E-14
 -1      4190 2.12527E-03 5.60166E-05-2.73700E-15
 -1      4191 2.05412E-03 9.04345E-05-2.55140E-15
 -1      4192 3.88504E-03 8.34771E-05-8.20273E-15
 -1      4193 3.81355E-03 1.21519E-04-7.87310E-15
 -1      4194 3.66904E-03 1.21681E-04-7.32404E-15
 -1      4195 8.57429E-03-2.99621E-05-3.85716E-14
 -1      4196 8.61762E-03-1.21185E-05-3.89876E-14
 -1      4197 8.66625E-03 5.77707E-06-3.94258E-14
 -1      4198 8.60934E-03 2.59093E-05-3.87207E-14
 -1      4199 8.50883E-03-8.54754E-06-3.78972E-14
 -1      4200 8.31689E-03 1.34134E-05-3.59972E-14
 -1      4201 8.19567E-03 1.38604E-05-3.49028E-14
 -1      4202 7.29419E-03 1.58486E-05-2.75731E-14
 -1      4203 7.15986E-03 1.61433E-05-2.65779E-14
 -1      4204 3.29196E-03-8.06578E-06-6.11163E-15
 -1      4205 3.43707E-03-8.03491E-06-6.61610E-15
 -1      4206 3.62479E-03 1.88016E-05-7.27474E-15
 -1      4207 3.76950E-03 1.88156E-05-7.82276E-15
 -1      4208 3.91403E-03 1.88065E-05-8.39079E-15
 -1      4209 4.05838E-03 1.88002E-05-8.97858E-15
 -1      4210 4.20254E-03 1.87735E-05-9.58405E-15
 -1      4211 4.34651E-03 1.87493E-05-1.02087E-14
 -1      4212 4.49028E-03 1.87075E-05-1.08531E-14
 -1      4213 4.63384E-03 1.86678E-05-1.15157E-14
 -1      4214 4.77720E-03 1.86117E-05-1.21977E-14
 -1      4215 4.92034E-03 1.85571E-05-1.28995E-14
 -1      4216 5.06325E-03 1.84855E-05-1.36198E-14
 -1      4217 5.20591E-03 1.84150E-05-1.43584E-14
 -1      4218 5.34831E-03 1.83255E-05-1.51157E-14
 -1      4219 5.49044E-03 1.82372E-05-1.58925E-14
 -1      4220 5.63225E-03 1.81267E-05-1.66883E-14
 -1      4221 5.77372E-03 1.80182E-05-1.75014E-14
 -1      4222 5.91482E-03 1.78829E-05-1.83333E-14
 -1      4223 6.05552E-03 1.77521E-05-1.91819E-14
 -1      4224 6.19575E-03 1.75884E-05-2.00479E-14
 -1      4225 6.33549E-03 1.74334E-05-2.09319E-14
 -1      4226 6.47467E-03 1.72384E-05-2.18321E-14
 -1      4227 6.61323E-03 1.70588E-05-2.27500E-14
 -1      4228 6.75110E-03 1.68306E-05-2.36834E-14
 -1      4229 6.88822E-03 1.66277E-05-2.46320E-14
 -1      4230 7.02450E-03 1.63658E-05-2.55968E-14
 -1      4231 7.42741E-03 1.56130E-05-2.85821E-14
 -1      4232 7.55938E-03 1.52871E-05-2.96046E-14
 -1      4233 7.69000E-03 1.50473E-05-3.06383E-14
 -1      4234 7.81910E-03 1.46903E-05-3.16859E-14
 -1      4235 7.94655E-03 1.44583E-05-3.27458E-14
 -1      4236 8.07213E-03 1.40645E-05-3.38166E-14
 -1      4237 8.43551E-03 1.33235E-05-3.71039E-14
 -1      4238 2.75329E-03 1.83444E-05-4.39321E-15
 -1      4239 2.89883E-03 1.84936E-05-4.82469E-15
 -1      4240 2.30230E-03 5.08917E-05-3.16258E-15
 -1      4241 2.13953E-03 2.82770E-05-2.78704E-15
 -1      4242 2.18612E-03-5.96162E-06-2.91378E-15
 -1      4243 2.44776E-03 5.16494E-05-3.53069E-15
 -1      4244 3.02278E-03 5.24554E-06-5.21752E-15
 -1      4245 3.16814E-03 5.30000E-06-5.68590E-15
 -1      4246 3.24105E-03 4.33824E-05-5.89523E-15
 -1      4247 2.99378E-03 6.97676E-05-5.07262E-15
 -1      4248 2.33151E-03-1.08562E-05-3.27173E-15
 -1      4249 2.47701E-03-1.09760E-05-3.64620E-15
 -1      4250 3.55270E-03 5.68861E-05-6.97122E-15
 -1      4251 3.06753E-03 1.07844E-04-5.26556E-15
 -1      4252 8.48882E-03 3.09495E-05-3.75131E-14
 -1      4253 3.21271E-03 1.08138E-04-5.73489E-15
 -1      4254 3.48095E-03 9.49577E-05-6.67096E-15
 -1      4255 3.33601E-03 9.49054E-05-6.16469E-15
 -1      4256 2.60772E-03 1.81805E-05-3.98215E-15
 -3
    1PSTEP                         2           1           1          
  100CL  101 1.000000000        4256                     0    1           1
 -4  STRESS      6    1
 -5  SXX         1    4    1    1
 -5  SYY         1    4    2    2
 -5  SZZ         1    4    3    3
 -5  SXY         1    4    1    2
 -5  SYZ         1    4    2    3
 -5  SZX         1    4    3    1
 -1         1 6.23239E+00 6.26532E+00-6.41889E-01 6.38105E+00-8.53762E-13-8.22342E-13
 -1         2-7.85862E-01-2.65173E+01-3.61542E+00 1.15111E-01-4.96274E-14 2.67356E-14
 -1         3 1.99647E+01-3.72474E-02 5.42926E-02-3.67928E-02-2.53448E-13-2.23069E-13
 -1         4 1.99680E+01-3.25439E-02 5.82609E-02 3.28134E-02 1.70172E-13 1.51585E-13
 -1         5 3.27683E+01 6.14276E+00 2.74253E+00 6.22437E+00-3.11556E-14 2.12268E-12
 -1         6 3.57525E+01 1.22635E+01 5.12557E+00-8.64679E+00-1.28508E-13 1.76770E-12
 -1         7 2.08186E+01 6.09966E+00-1.28685E-01-4.72571E+00-1.97481E-14 2.21479E-13
 -1         8 1.96717E+01 5.93492E+00 5.09597E-02-3.27501E+00-2.14065E-14-2.22332E-13
 -1         9 1.91368E+01 5.77184E+00 4.90902E-02-2.52686E+00-1.80776E-14-4.46769E-13
 -1        10 1.88953E+01 5.69212E+00 5.10647E-02-1.95171E+00-1.02522E-14-5.46521E-13
 -1        11 1.87739E+01 5.65128E+00 5.02750E-02-1.45643E+00-8.18486E-15-5.77347E-13
 -1        12 1.87104E+01 5.62966E+00 4.87618E-02-1.01544E+00-3.16587E-15-5.92350E-13
 -1        13 1.86769E+01 5.61827E+00 4.74424E-02-5.95563E-01-7.09719E-16-5.84476E-13
 -1        14 1.86629E+01 5.61345E+00 4.67272E-02-1.91285E-01 4.31493E-15-5.66802E-13
 -1        15 1.86634E+01 5.61361E+00 4.67698E-02 2.08268E-01 8.58791E-15-5.50459E-13
 -1        16 1.86785E+01 5.61876E+00 4.75882E-02 6.13386E-01 1.10795E-14-5.35587E-13
 -1        17 1.87132E+01 5.63043E+00 4.90979E-02 1.03527E+00 1.00133E-14-5.02484E-13
 -1        18 1.87779E+01 5.65242E+00 5.08394E-02 1.47943E+00 1.43067E-14-4.37851E-13
 -1        19 1.89009E+01 5.69375E+00 5.15399E-02 1.98059E+00 2.27865E-14-3.37054E-13
 -1        20 1.91423E+01 5.77444E+00 4.87815E-02 2.56418E+00 2.95979E-14-1.58866E-13
 -1        21 1.96672E+01 5.94952E+00 4.59099E-02 3.30909E+00 2.84980E-14 1.77500E-13
 -1        22 2.12014E+01 6.38143E+00 1.39682E-01 4.52323E+00 5.27356E-15 8.02899E-13
 -1        23 2.30294E+01-1.37919E+00-9.38334E-01-7.11218E-01-8.00714E-14 1.32867E-12
 -1        24 1.93665E+01-9.94917E-02-3.09842E-01 6.32188E-02-1.83117E-14 9.64602E-13
 -1        25 1.86779E+01-5.63192E-02-6.87753E-02 6.07183E-02-1.26745E-14 5.77533E-13
 -1        26 1.84750E+01-2.20810E-02-6.46381E-03 3.29595E-02-4.79976E-15 2.62016E-13
 -1        27 1.84858E+01-1.17925E-02 1.59920E-03 2.25958E-02-8.97318E-15 1.11524E-13
 -1        28 1.85994E+01-6.22691E-03 1.81193E-03 1.62895E-02-7.30015E-15-4.02022E-15
 -1        29 1.87584E+01-3.07220E-03 1.75231E-03 1.21291E-02-5.02473E-16-8.26561E-14
 -1        30 1.89315E+01-1.21971E-03 1.93461E-03 9.16106E-03 1.61625E-14-9.01393E-14
 -1        31 1.91011E+01-1.30402E-04 2.09511E-03 6.92448E-03-2.37273E-14-1.92632E-13
 -1        32 1.92574E+01 4.84569E-04 2.12267E-03 5.18525E-03-3.80488E-14-3.49357E-13
 -1        33 1.93957E+01 7.92238E-04 2.02145E-03 3.81299E-03 5.05626E-14-4.78334E-13
 -1        34 1.95145E+01 8.95377E-04 1.82638E-03 2.72550E-03-7.88279E-15-4.19418E-13
 -1        35 1.96143E+01 8.59407E-04 1.56928E-03 1.86525E-03-1.07225E-14-5.46966E-13
 -1        36 1.96972E+01 7.25877E-04 1.27118E-03 1.18950E-03 9.67051E-15-5.65318E-13
 -1        37 1.97661E+01 5.19902E-04 9.42322E-04 6.66170E-04-2.88860E-14-5.66669E-13
 -1        38 1.98249E+01 2.54717E-04 5.83765E-04 2.72391E-04-4.48045E-14-5.57025E-13
 -1        39 1.98779E+01-6.52091E-05 1.88850E-04-5.60769E-06-2.27286E-14-6.40241E-13
 -1        40 1.99301E+01-4.41742E-04-2.55497E-04-1.71818E-04 3.32820E-14-7.32872E-13
 -1        41 1.99871E+01-8.80851E-04-7.67538E-04-2.19153E-04 3.49676E-14-7.39108E-13
 -1        42 2.00556E+01-1.39014E-03-1.36926E-03-1.27565E-04 8.68553E-15-7.09520E-13
 -1        43 2.01434E+01-1.97563E-03-2.08418E-03 1.38387E-04-7.31847E-14-6.25396E-13
 -1        44 2.02595E+01-2.63705E-03-2.93353E-03 6.32438E-04 1.24791E-14-6.42912E-13
 -1        45 2.04145E+01-3.36058E-03-3.92917E-03 1.42949E-03 4.70617E-15-7.12957E-13
 -1        46 2.06201E+01-4.10748E-03-5.06030E-03 2.62717E-03-1.54083E-14-8.35132E-13
 -1        47 2.08893E+01-4.79671E-03-6.26898E-03 4.34285E-03-1.77030E-14-8.62197E-13
 -1        48 2.12351E+01-5.27952E-03-7.40668E-03 6.69934E-03-2.45480E-15-9.68577E-13
 -1        49 2.16683E+01-5.30606E-03-8.16155E-03 9.78539E-03 6.02560E-14-9.78417E-13
 -1        50 2.21937E+01-4.48986E-03-7.94954E-03 1.35662E-02-3.47966E-14-1.12885E-12
 -1        51 2.28034E+01-2.29216E-03-5.78473E-03 1.77054E-02 3.17040E-14-9.99215E-13
 -1        52 2.34663E+01 1.92078E-03-2.13424E-04 2.12563E-02-4.32876E-14-6.68426E-13
 -1        53 2.41144E+01 8.64684E-03 1.04578E-02 2.22273E-02-2.14057E-14-7.33828E-13
 -1        54 2.46281E+01 1.77230E-02 2.72216E-02 1.72106E-02 2.29214E-14-5.48306E-13
 -1        55 2.48307E+01 2.74536E-02 4.82641E-02 1.67718E-03-2.45966E-14-6.49549E-13
 -1        56 2.45115E+01 3.38435E-02 6.62531E-02-2.79435E-02 1.82770E-14-8.50325E-13
 -1        57 2.35027E+01 3.10236E-02 6.71121E-02-6.92618E-02 1.72954E-14-8.75622E-13
 -1        58 2.18167E+01 1.44126E-02 3.60411E-02-1.07818E-01 2.68087E-14-8.29229E-13
 -1        59 1.97828E+01-1.38091E-02-2.68157E-02-1.18196E-01-3.00225E-14-9.68566E-13
 -1        60 1.80348E+01-4.17310E-02-9.41004E-02-8.05322E-02-6.04287E-14-9.56499E-13
 -1        61 1.72393E+01-5.34921E-02-1.23657E-01-3.39431E-03 5.94707E-14-1.09625E-12
 -1        62 1.76865E+01-4.15219E-02-9.38913E-02 7.38585E-02 5.33193E-14-9.09304E-13
 -1        63 1.90833E+01-1.32994E-02-2.57211E-02 1.11367E-01-1.35730E-13-8.16527E-13
 -1        64 2.07544E+01 1.51667E-02 3.82433E-02 9.98954E-02-2.87182E-14-9.63982E-13
 -1        65 2.20566E+01 3.16390E-02 7.01016E-02 5.93594E-02 1.03986E-14-9.40838E-13
 -1        66 2.26574E+01 3.34609E-02 6.88262E-02 1.53062E-02 4.59756E-14-7.56542E-13
 -1        67 2.25546E+01 2.47953E-02 4.79769E-02-1.71944E-02 6.34755E-14-2.30232E-13
 -1        68 2.19503E+01 1.11801E-02 2.01318E-02-3.43372E-02 1.09320E-13-2.34148E-13
 -1        69 2.11244E+01-3.15627E-03-8.35616E-03-3.68821E-02 8.76470E-14 1.54148E-13
 -1        70 2.03725E+01-1.16342E-02-2.97627E-02-2.06841E-02-1.46186E-14 4.84565E-13
 -1        71 1.99740E+01 6.41567E-03-1.36603E-02 1.00262E-02-6.25238E-14 3.56241E-13
 -1        72 2.10420E+01-4.04888E-01-9.80402E-01-3.11588E-01 3.19640E-14 1.99549E-12
 -1        73 1.93310E+01-6.58820E-02-2.91134E-01-5.38248E-02 1.53319E-14 1.59842E-12
 -1        74 1.86873E+01-2.05030E-02-6.42696E-02-2.03412E-02 1.27422E-14 1.30177E-12
 -1        75 1.84841E+01-9.87409E-03-9.30223E-03-1.54426E-02 6.06362E-15 1.10839E-12
 -1        76 1.84949E+01-5.16000E-03 6.94360E-04-1.23720E-02 2.73935E-15 9.16990E-13
 -1        77 1.86076E+01-2.60878E-03 1.76206E-03-1.00952E-02 1.01877E-14 7.86240E-13
 -1        78 1.87655E+01-1.14007E-03 1.89874E-03-8.34666E-03-1.64303E-14 8.08732E-13
 -1        79 1.89377E+01-2.79121E-04 2.09081E-03-6.90239E-03 1.59371E-14 7.03950E-13
 -1        80 1.91063E+01 2.14373E-04 2.22878E-03-5.65517E-03-1.22242E-14 6.13859E-13
 -1        81 1.92617E+01 4.74361E-04 2.23319E-03-4.56089E-03 3.28741E-14 5.60554E-13
 -1        82 1.93992E+01 5.81135E-04 2.11130E-03-3.59963E-03 1.05181E-14 4.00267E-13
 -1        83 1.95172E+01 5.84893E-04 1.89751E-03-2.75846E-03-2.75630E-15 4.51555E-13
 -1        84 1.96164E+01 5.17425E-04 1.62321E-03-2.02503E-03 2.22648E-14 4.94929E-13
 -1        85 1.96987E+01 3.98270E-04 1.30903E-03-1.38611E-03 2.01169E-14 3.59963E-13
 -1        86 1.97672E+01 2.38276E-04 9.64824E-04-8.27996E-04-4.81450E-15 3.05259E-14
 -1        87 1.98255E+01 4.18979E-05 5.91177E-04-3.37663E-04-3.36862E-14-1.19869E-13
 -1        88 1.98781E+01-1.91129E-04 1.80909E-04 9.57671E-05-5.68382E-15-5.51745E-14
 -1        89 1.99299E+01-4.64347E-04-2.79612E-04 4.79172E-04 4.50901E-14-2.75563E-13
 -1        90 1.99866E+01-7.83087E-04-8.09183E-04 8.13133E-04-1.27102E-14-4.37021E-13
 -1        91 2.00549E+01-1.15262E-03-1.43020E-03 1.08894E-03-4.02691E-14-9.15813E-14
 -1        92 2.01426E+01-1.57548E-03-2.16630E-03 1.28453E-03-1.64264E-14 1.16712E-13
 -1        93 2.02586E+01-2.04742E-03-3.03829E-03 1.35892E-03-3.02122E-15-1.45280E-14
 -1        94 2.04136E+01-2.55088E-03-4.05666E-03 1.24447E-03-7.21473E-15-3.10851E-13
 -1        95 2.06194E+01-3.04485E-03-5.20751E-03 8.36810E-04-1.93982E-14-7.42684E-14
 -1        96 2.08891E+01-3.44947E-03-6.42703E-03-1.69939E-05 7.73529E-14 6.72138E-14
 -1        97 2.12357E+01-3.62443E-03-7.55623E-03-1.52849E-03-3.32647E-14-1.11562E-13
 -1        98 2.16701E+01-3.34271E-03-8.26601E-03-3.96593E-03 7.45275E-15-4.98069E-14
 -1        99 2.21971E+01-2.26899E-03-7.94571E-03-7.61620E-03-1.70560E-14-2.40459E-13
 -1       100 2.28086E+01 3.07573E-05-5.57276E-03-1.26613E-02 2.37513E-14-3.25486E-14
 -1       101 2.34733E+01 3.99127E-03 3.48398E-04-1.88879E-02-3.10384E-14-1.89380E-13
 -1       102 2.41222E+01 9.77077E-03 1.15362E-02-2.51397E-02 2.22868E-14-7.33805E-14
 -1       103 2.46340E+01 1.66937E-02 2.89177E-02-2.85246E-02-1.15850E-14 3.08446E-13
 -1       104 2.48296E+01 2.25292E-02 5.03749E-02-2.38244E-02 4.01480E-15 5.24636E-13
 -1       105 2.44959E+01 2.33359E-02 6.78674E-02-4.58229E-03 8.73227E-14 1.30394E-13
 -1       106 2.34661E+01 1.49670E-02 6.69241E-02 3.23015E-02-9.17658E-14 2.74052E-13
 -1       107 2.17579E+01-3.07664E-03 3.33859E-02 7.88990E-02 5.31079E-14 2.25125E-13
 -1       108 1.97092E+01-2.39045E-02-3.12776E-02 1.11674E-01 2.67602E-14 1.23221E-13
 -1       109 1.79649E+01-3.59913E-02-9.85746E-02 1.02635E-01 5.00329E-14 2.20563E-13
 -1       110 1.71972E+01-3.19698E-02-1.25340E-01 4.52269E-02-3.08685E-14 3.17421E-13
 -1       111 1.76864E+01-1.51599E-02-9.22136E-02-3.19065E-02 4.50560E-14 7.48401E-13
 -1       112 1.91188E+01 4.36068E-03-2.24320E-02-8.63211E-02-5.39098E-14 3.44186E-13
 -1       113 2.08041E+01 1.79342E-02 4.12248E-02-9.68794E-02 1.36105E-13 1.74635E-13
 -1       114 2.20992E+01 2.22809E-02 7.20278E-02-7.27011E-02-1.22423E-13 7.58942E-14
 -1       115 2.26809E+01 1.88605E-02 6.97306E-02-3.53292E-02 6.17620E-14 2.64186E-13
 -1       116 2.25572E+01 1.09539E-02 4.81496E-02-1.26323E-03-1.38214E-15 1.85554E-13
 -1       117 2.19366E+01 1.47479E-03 1.95869E-02 2.26599E-02-2.31596E-15-1.04972E-13
 -1       118 2.11029E+01-7.31473E-03-9.63372E-03 3.50721E-02-1.01940E-14-5.91029E-13
 -1       119 2.03535E+01-1.24666E-02-3.21180E-02 3.24315E-02-7.00526E-14-2.37864E-13
 -1       120 1.99813E+01 1.38992E-02-8.56132E-03-6.11725E-04 1.52609E-13-5.73689E-13
 -1       121 1.99960E+01 4.84064E-03-1.21411E-02-1.33693E-02-5.54458E-13 6.30639E-14
 -1       122 1.99785E+01 3.90580E-01-3.96163E-02 1.59803E-02-6.26122E-13-4.06023E-14
 -1       123 1.99831E+01 1.23684E+00-3.11180E-02 3.44826E-02-8.59547E-13 3.00136E-13
 -1       124 1.99909E+01 2.39568E+00-1.75608E-02 4.64055E-02-1.76733E-12 6.00718E-14
 -1       125 2.00019E+01 3.72376E+00 2.11908E-04 5.28238E-02-8.98641E-13-2.17823E-13
 -1       126 2.00152E+01 5.01467E+00 2.16751E-02 5.06567E-02-5.11355E-13 1.61228E-13
 -1       127 2.00270E+01 6.08145E+00 4.25196E-02 3.71399E-02-8.37611E-14-2.48399E-14
 -1       128 2.00342E+01 6.68194E+00 5.56361E-02 1.36187E-02-8.39568E-13-2.12330E-13
 -1       129 2.00342E+01 6.67895E+00 5.55732E-02-1.38655E-02-1.22028E-12 2.17976E-13
 -1       130 2.00270E+01 6.07309E+00 4.23848E-02-3.72818E-02-2.98780E-13 1.57618E-13
 -1       131 2.00149E+01 5.00299E+00 2.13949E-02-5.09950E-02 1.00052E-13-8.57575E-14
 -1       132 2.00020E+01 3.71061E+00 2.04724E-04-5.28039E-02-3.16292E-14 2.36936E-13
 -1       133 1.99911E+01 2.38150E+00-1.74817E-02-4.63936E-02-5.09624E-13-2.81754E-14
 -1       134 1.99807E+01 1.22182E+00-3.26199E-02-3.69103E-02-9.28424E-13 6.51486E-15
 -1       135 1.99818E+01 3.97158E-01-3.45636E-02-2.63549E-02-8.93962E-13-4.47962E-14
 -1       136 1.99813E+01 1.95108E-02-1.07521E-02 2.96504E-02-6.41702E-13 1.03800E-13
 -1       137-1.46023E+00-2.16766E+01-3.29715E+00-4.16754E+00-5.55112E-17-2.76494E-13
 -1       138-1.75265E+00-9.67071E+00-2.41523E+00-3.50743E+00 9.63118E-13 4.70179E-13
 -1       139 2.84126E+00 3.19891E+00-1.09529E+00 3.33161E+00 1.83265E-12 1.33621E-12
 -1       140 1.66088E+01 1.08385E+01 5.11085E-01 1.32354E+01 1.52822E-12 1.75276E-12
 -1       141 3.55959E+01 1.03352E+01 1.93182E+00 1.85481E+01 9.19848E-13 1.87789E-12
 -1       142 5.59346E+01 5.26828E+00 3.11541E+00 1.57817E+01 1.98577E-13 6.25555E-13
 -1       143 6.69028E+01 1.16677E+00 3.66601E+00 4.44355E+00-6.50452E-14-7.97057E-13
 -1       144 6.36805E+01 2.16444E+00 3.47418E+00-9.14735E+00 8.80372E-17-1.04200E-12
 -1       145 4.73413E+01 7.25336E+00 2.55563E+00-1.77491E+01 2.96263E-13-5.21694E-13
 -1       146 2.67380E+01 1.09416E+01 1.23879E+00-1.68210E+01 2.68952E-13-5.12590E-13
 -1       147 9.52495E+00 8.33296E+00-2.61693E-01-8.98946E+00 7.38298E-13-5.82867E-13
 -1       148-1.14867E-01-1.99398E+00-1.69877E+00 2.95853E-01 9.68892E-13-5.29465E-13
 -1       149-1.89229E+00-1.46908E+01-2.73405E+00 4.43833E+00 1.20270E-12-3.05742E-13
 -1       150-9.47248E-01-2.37631E+01-3.30294E+00 2.67644E+00 5.38375E-13-2.58344E-13
 -1       151-8.08800E-01-2.45323E+01-3.34665E+00-1.96415E+00-1.01129E-12-7.82326E-14
 -1       152-1.79301E+00-1.68287E+01-2.88129E+00-4.50789E+00-1.16535E-12-5.18932E-13
 -1       153-8.89846E-01-4.50739E+00-1.94104E+00-1.60578E+00-9.79605E-13-4.47392E-13
 -1       154 2.01085E+01 1.07792E+01 7.26976E-01 1.45507E+01-8.53206E-13-1.08785E-12
 -1       155 3.96677E+01 9.09946E+00 2.09384E+00 1.83606E+01-3.38146E-13-4.55913E-13
 -1       156 5.74265E+01 4.21376E+00 3.11687E+00 1.42047E+01-2.66870E-14-1.45495E-13
 -1       157 6.71613E+01 9.29192E-01 3.64592E+00 2.88762E+00-8.20975E-14 7.43142E-13
 -1       158 6.39318E+01 2.29575E+00 3.51097E+00-9.90225E+00-1.35825E-13 1.12635E-12
 -1       159 4.92542E+01 7.32106E+00 2.76151E+00-1.79840E+01-3.64181E-13 8.99836E-13
 -1       160 2.91091E+01 1.12198E+01 1.52178E+00-1.76456E+01-5.63105E-13 8.85347E-13
 -1       161 1.21389E+01 9.80053E+00 1.06461E-01-1.08752E+01-6.37101E-13 5.48450E-13
 -1       162 1.90050E+00 1.86785E+00-1.26363E+00-2.24004E+00-9.95759E-13 6.65967E-13
 -1       163-1.78746E+00-1.04305E+01-2.46424E+00 3.67538E+00-3.16636E-13 2.91239E-13
 -1       164-1.45004E+00-2.15820E+01-3.28933E+00 3.98101E+00-3.94407E-13 8.22051E-14
 -1       165 2.10131E+01 3.69404E+00-5.73764E-02-3.61076E+00-2.75408E-13-2.68188E-15
 -1       166 1.99908E+01 4.20734E+00-4.58040E-02-2.80958E+00-2.43808E-13-2.67182E-13
 -1       167 1.95067E+01 4.47792E+00-3.17261E-02-2.19551E+00-1.78880E-13-4.04749E-13
 -1       168 1.92682E+01 4.61443E+00-2.38264E-02-1.67515E+00-1.29213E-13-4.78750E-13
 -1       169 1.91373E+01 4.69705E+00-1.95888E-02-1.21939E+00-7.11605E-14-4.89036E-13
 -1       170 1.90637E+01 4.74779E+00-1.74527E-02-7.92412E-01-2.59358E-14-4.85527E-13
 -1       171 1.90267E+01 4.77561E+00-1.64299E-02-3.87055E-01 2.38169E-14-4.78148E-13
 -1       172 1.90158E+01 4.78414E+00-1.61361E-02 8.26304E-03 6.26094E-14-4.57615E-13
 -1       173 1.90284E+01 4.77434E+00-1.64684E-02 4.03913E-01 1.11757E-13-4.43366E-13
 -1       174 1.90674E+01 4.74480E+00-1.75217E-02 8.10308E-01 1.56810E-13-4.24775E-13
 -1       175 1.91418E+01 4.69239E+00-1.96891E-02 1.23191E+00 1.92644E-13-3.86784E-13
 -1       176 1.92771E+01 4.60526E+00-2.40080E-02 1.69868E+00 2.42244E-13-3.06996E-13
 -1       177 1.95238E+01 4.45949E+00-3.28521E-02 2.22706E+00 2.83585E-13-1.80947E-13
 -1       178 2.00131E+01 4.18380E+00-4.72150E-02 2.84727E+00 3.07006E-13 3.94788E-14
 -1       179 2.11347E+01 3.46368E+00-5.97837E-02 3.53712E+00 2.84588E-13 4.19872E-13
 -1       180 2.24191E+01 1.14340E+00-3.36473E-01 3.01511E+00 1.94062E-13 9.23789E-13
 -1       181 2.19711E+01 8.58329E-01 6.06604E-04-1.95916E+00-2.46622E-13 3.56409E-13
 -1       182 2.04467E+01 1.90051E-01-9.99016E-03-7.64435E-01-2.23706E-13 2.21655E-13
 -1       183 1.96708E+01 1.01644E-01 1.35705E-02-2.86086E-01-1.84419E-13 1.24732E-13
 -1       184 1.93306E+01 4.71891E-02 1.00099E-02-6.83835E-02-1.04048E-13 2.57602E-14
 -1       185 1.92005E+01 2.25221E-02 5.16873E-03 3.88402E-02-7.02191E-14-3.20401E-14
 -1       186 1.91866E+01 9.47085E-03 2.43351E-03 9.13447E-02-6.68610E-14-6.26835E-14
 -1       187 1.92347E+01 2.08606E-03 1.12865E-03 1.13629E-01-1.78684E-14-9.92933E-14
 -1       188 1.93132E+01-2.13029E-03 4.95901E-04 1.18501E-01-3.14848E-14-1.12891E-13
 -1       189 1.94036E+01-4.40358E-03 1.63808E-04 1.13402E-01-1.07460E-13-9.97199E-14
 -1       190 1.94948E+01-5.42349E-03-1.78963E-05 1.02985E-01-6.82622E-14-1.17069E-13
 -1       191 1.95806E+01-5.61815E-03-1.11866E-04 9.02753E-02-2.97214E-14-2.48827E-13
 -1       192 1.96581E+01-5.26418E-03-1.48816E-04 7.72842E-02-5.59952E-14-2.98966E-13
 -1       193 1.97265E+01-4.53918E-03-1.46448E-04 6.53660E-02-3.02068E-14-3.13452E-13
 -1       194 1.97865E+01-3.55065E-03-1.15700E-04 5.54621E-02-7.07076E-14-3.31292E-13
 -1       195 1.98399E+01-2.35388E-03-6.32040E-05 4.82716E-02-1.96757E-15-3.05119E-13
 -1       196 1.98892E+01-9.64059E-04 7.38793E-06 4.43793E-02-1.50829E-14-2.02865E-13
 -1       197 1.99379E+01 6.34597E-04 9.44895E-05 4.43525E-02-1.57207E-14-1.45500E-13
 -1       198 1.99898E+01 2.48102E-03 1.97799E-04 4.88128E-02-1.15005E-14-2.31691E-13
 -1       199 2.00498E+01 4.62932E-03 3.17497E-04 5.84868E-02-4.44153E-14-3.81921E-13
 -1       200 2.01232E+01 7.13886E-03 4.53255E-04 7.42299E-02-5.09293E-15-5.45372E-13
 -1       201 2.02163E+01 1.00597E-02 6.02856E-04 9.70182E-02-9.01048E-15-5.81233E-13
 -1       202 2.03364E+01 1.34092E-02 7.60172E-04 1.27888E-01-5.09681E-14-4.69078E-13
 -1       203 2.04912E+01 1.71325E-02 9.12194E-04 1.67793E-01 1.13838E-14-4.75197E-13
 -1       204 2.06892E+01 2.10373E-02 1.03489E-03 2.17331E-01-2.72049E-14-3.64712E-13
 -1       205 2.09385E+01 2.46857E-02 1.08809E-03 2.76251E-01-6.33410E-14-3.80718E-13
 -1       206 2.12457E+01 2.72272E-02 1.01083E-03 3.42630E-01-3.13487E-14-4.66542E-13
 -1       207 2.16141E+01 2.71592E-02 7.21060E-04 4.11564E-01-5.96674E-14-5.67927E-13
 -1       208 2.20398E+01 2.20429E-02 1.28079E-04 4.73269E-01 1.49587E-13-5.01788E-13
 -1       209 2.25078E+01 8.30925E-03-8.29813E-04 5.10668E-01 1.63568E-13-2.69168E-13
 -1       210 2.29851E+01-1.84533E-02-2.11249E-03 4.97192E-01-1.95756E-14-2.07784E-13
 -1       211 2.34153E+01-6.19190E-02-3.48230E-03 3.96896E-01-1.46719E-14-1.15936E-13
 -1       212 2.37147E+01-1.20970E-01-4.43726E-03 1.71245E-01-3.15668E-14-2.02834E-13
 -1       213 2.37781E+01-1.82754E-01-4.36737E-03-2.01215E-01-1.53256E-13-2.41682E-13
 -1       214 2.35037E+01-2.15600E-01-2.74059E-03-6.88944E-01 1.33057E-13-2.45051E-13
 -1       215 2.28431E+01-1.72903E-01 1.83474E-05-1.16708E+00-6.73376E-15-3.26563E-13
 -1       216 2.18737E+01-2.51088E-02 2.07691E-03-1.41680E+00-1.13232E-13-4.02628E-13
 -1       217 2.08463E+01 1.89423E-01 1.89536E-03-1.22569E+00-1.36909E-13-6.17661E-13
 -1       218 2.01246E+01 3.54081E-01 5.34110E-04-5.68193E-01 2.80678E-14-4.13966E-13
 -1       219 1.99897E+01 3.53968E-01 3.60085E-04 2.93429E-01-4.44913E-14-4.03497E-13
 -1       220 2.04418E+01 1.87661E-01 1.61841E-03 9.49088E-01-1.89328E-14-6.62491E-13
 -1       221 2.11970E+01-2.99951E-02 1.78877E-03 1.13252E+00-8.63050E-14-7.70354E-13
 -1       222 2.18880E+01-1.79812E-01 6.82733E-05 8.69348E-01 2.31115E-13-5.31966E-13
 -1       223 2.22634E+01-2.21867E-01-2.22780E-03 3.76906E-01 1.65007E-13-5.74844E-14
 -1       224 2.22517E+01-1.82979E-01-3.33185E-03-1.15957E-01 1.75230E-13-4.60216E-14
 -1       225 2.19183E+01-1.06604E-01-2.85981E-03-4.67131E-01 1.37285E-13-9.00989E-14
 -1       226 2.13963E+01-2.15967E-02-1.62647E-03-6.21907E-01 2.82642E-13 3.63563E-14
 -1       227 2.08338E+01 6.34107E-02-2.16623E-04-5.75184E-01 3.21393E-13 4.07235E-14
 -1       228 2.03468E+01 1.39095E-01 3.38785E-04-3.50695E-01-3.57751E-14 2.15611E-13
 -1       229 2.09629E+01 2.77029E-01-5.13369E-02 1.16513E+00 1.91857E-13 7.86311E-13
 -1       230 1.98678E+01 1.26837E-01 8.30819E-03 4.43435E-01 1.47667E-13 6.55512E-13
 -1       231 1.93611E+01 5.80480E-02 1.27341E-02 1.50425E-01 1.07368E-13 5.22278E-13
 -1       232 1.91511E+01 2.76924E-02 7.62891E-03 1.12167E-02 9.36660E-14 4.14522E-13
 -1       233 1.91008E+01 1.30394E-02 3.82407E-03-5.78282E-02 3.85022E-14 3.65550E-13
 -1       234 1.91360E+01 5.09523E-03 1.90729E-03-9.01696E-02 3.47210E-15 3.36260E-13
 -1       235 1.92144E+01 5.63274E-04 1.00535E-03-1.01870E-01 6.94387E-14 2.85815E-13
 -1       236 1.93114E+01-2.00561E-03 5.47278E-04-1.01667E-01 4.69559E-14 2.45145E-13
 -1       237 1.94124E+01-3.35063E-03 2.87736E-04-9.47980E-02 7.28581E-14 1.47212E-13
 -1       238 1.95090E+01-3.90009E-03 1.32251E-04-8.45893E-02 4.51442E-14 1.73189E-13
 -1       239 1.95971E+01-3.92354E-03 4.11841E-05-7.32227E-02-1.55835E-14 1.59542E-13
 -1       240 1.96748E+01-3.59547E-03-6.08243E-06-6.21512E-02 1.49444E-14 1.44011E-13
 -1       241 1.97425E+01-3.02663E-03-2.22306E-05-5.23608E-02 1.34068E-13 5.80269E-14
 -1       242 1.98014E+01-2.28180E-03-1.55965E-05-4.45480E-02 1.19142E-13 1.89147E-14
 -1       243 1.98541E+01-1.39115E-03 8.29881E-06-3.92502E-02 5.76481E-14 1.71783E-14
 -1       244 1.99035E+01-3.58062E-04 4.58252E-05-3.69427E-02 3.12206E-14-1.18240E-13
 -1       245 1.99536E+01 8.34772E-04 9.45275E-05-3.81132E-02 1.17290E-13-1.57846E-13
 -1       246 2.00087E+01 2.21996E-03 1.52486E-04-4.33170E-02-1.44228E-14-1.66632E-13
 -1       247 2.00742E+01 3.83949E-03 2.17625E-04-5.32127E-02-1.47433E-13-7.38517E-14
 -1       248 2.01562E+01 5.73691E-03 2.86844E-04-6.85752E-02-7.69032E-14-1.27709E-13
 -1       249 2.02617E+01 7.94552E-03 3.54869E-04-9.02761E-02 5.42568E-14-2.82871E-14
 -1       250 2.03987E+01 1.04687E-02 4.12683E-04-1.19214E-01 5.49364E-14 3.85200E-15
 -1       251 2.05758E+01 1.32468E-02 4.45582E-04-1.56161E-01-6.87388E-14-9.08235E-14
 -1       252 2.08021E+01 1.61010E-02 4.31201E-04-2.01473E-01-3.44851E-14-7.45910E-14
 -1       253 2.10860E+01 1.86428E-02 3.38828E-04-2.54581E-01 4.77407E-14 1.54535E-13
 -1       254 2.14338E+01 2.01328E-02 1.33179E-04-3.13147E-01-7.52946E-15 9.88146E-14
 -1       255 2.18466E+01 1.92866E-02-2.11361E-04-3.71748E-01 4.96452E-14 2.38220E-13
 -1       256 2.23160E+01 1.40596E-02-6.77634E-04-4.20014E-01-5.54797E-14 1.42026E-14
 -1       257 2.28182E+01 1.55495E-03-1.15031E-03-4.40423E-01 3.31597E-14-4.43569E-14
 -1       258 2.33064E+01-2.15688E-02-1.35366E-03-4.06688E-01-3.57724E-14-6.90086E-14
 -1       259 2.37043E+01-5.74779E-02-8.62545E-04-2.85217E-01-1.73695E-13 2.36638E-15
 -1       260 2.39058E+01-1.03333E-01 6.80785E-04-4.42290E-02 5.61443E-14 6.54229E-15
 -1       261 2.37899E+01-1.45256E-01 3.05539E-03 3.23336E-01 1.40700E-13 4.04078E-14
 -1       262 2.32629E+01-1.55091E-01 4.89966E-03 7.63722E-01-1.26533E-13 9.76797E-14
 -1       263 2.23298E+01-9.95223E-02 3.83208E-03 1.13461E+00 6.51900E-14 8.54412E-14
 -1       264 2.11665E+01 3.10041E-02-1.74306E-03 1.23042E+00-2.03099E-14-6.06789E-14
 -1       265 2.01254E+01 1.86757E-01-9.30195E-03 9.03105E-01-1.00985E-13 9.26091E-14
 -1       266 1.95966E+01 2.72702E-01-1.21523E-02 2.21014E-01-1.35985E-13 1.76279E-13
 -1       267 1.97691E+01 2.26345E-01-7.24922E-03-5.10321E-01-6.18854E-14 3.41571E-13
 -1       268 2.04915E+01 8.18829E-02 1.22486E-03-9.47558E-01 1.89828E-13 4.45855E-13
 -1       269 2.13790E+01-6.55736E-02 6.64185E-03-9.49637E-01 9.57496E-14 1.15719E-13
 -1       270 2.20584E+01-1.47481E-01 6.69802E-03-6.20238E-01-1.18506E-13 2.54308E-13
 -1       271 2.23311E+01-1.55094E-01 3.69766E-03-1.69832E-01 9.87700E-14 2.00223E-13
 -1       272 2.21882E+01-1.15446E-01 7.59341E-04 2.25015E-01 1.29918E-13 1.09097E-14
 -1       273 2.17421E+01-5.69956E-02-1.09955E-03 4.71454E-01 1.81057E-13-1.81000E-13
 -1       274 2.11563E+01 4.09516E-03-2.68906E-03 5.41289E-01 1.19855E-13-3.56431E-13
 -1       275 2.05969E+01 6.60334E-02-2.99075E-03 4.36570E-01-1.82509E-13-3.30400E-13
 -1       276 2.01874E+01 1.06285E-01 2.74535E-04 1.93722E-01 4.78383E-14-2.44948E-13
 -1       277 2.01427E+01 3.72267E-01 2.28082E-03 3.65482E-01-6.15663E-14 8.21014E-14
 -1       278 2.01143E+01 8.80041E-01 2.06322E-03 6.58804E-01-2.93262E-13-1.51133E-13
 -1       279 2.00750E+01 1.57756E+00 1.02801E-03 8.86355E-01-3.15186E-13-1.61795E-13
 -1       280 2.00266E+01 2.41540E+00-2.85738E-04 1.01113E+00-3.62427E-13 4.16540E-13
 -1       281 1.99612E+01 3.28221E+00-2.31548E-03 9.95530E-01-3.84757E-13-4.03487E-14
 -1       282 1.98877E+01 4.07480E+00-3.94925E-03 8.07410E-01-4.00074E-13 3.76734E-14
 -1       283 1.98281E+01 4.62906E+00-5.08422E-03 4.53813E-01-4.99203E-13-4.30699E-13
 -1       284 1.98052E+01 4.82759E+00-5.46326E-03-2.27369E-03-1.33848E-13-2.53990E-14
 -1       285 1.98285E+01 4.62521E+00-5.09170E-03-4.57842E-01 1.49112E-13 4.61055E-13
 -1       286 1.98884E+01 4.06782E+00-3.96721E-03-8.10213E-01-8.19748E-14 1.08132E-13
 -1       287 1.99608E+01 3.28883E+00-2.13085E-03-9.95387E-01 5.91276E-14-1.15468E-13
 -1       288 2.00270E+01 2.40617E+00-2.57045E-04-1.01158E+00-3.64296E-14-2.82792E-13
 -1       289 2.00754E+01 1.56883E+00 1.44851E-03-8.85665E-01-3.50644E-14-1.76068E-13
 -1       290 2.01158E+01 8.72831E-01 2.31580E-03-6.48835E-01-2.13562E-13 5.15102E-14
 -1       291 2.02240E+01 4.56348E-01 3.46902E-03-5.54157E-01-7.23240E-14 8.13642E-14
 -1       292-9.76916E-01-1.19701E+01-1.06680E+00 1.10267E+00 1.11994E-14-1.17739E-13
 -1       293 2.51055E+00-9.65852E+00-8.91395E-01 3.34568E+00 2.77584E-13 7.93261E-13
 -1       294 9.27247E+00-5.70725E+00-5.41061E-01 5.61857E+00 5.49671E-13 7.86093E-13
 -1       295 1.98231E+01-1.95458E+00-7.74308E-02 7.23136E+00 7.64527E-13 7.88120E-13
 -1       296 2.98891E+01 2.08169E+00 3.19141E-01 7.41371E+00 5.68601E-13 7.41407E-13
 -1       297 3.84312E+01 4.67367E+00 5.58414E-01 4.93778E+00 7.46396E-13 6.13398E-15
 -1       298 4.61147E+01 6.51339E+00 1.03197E+00 3.50289E+00 5.34961E-13 5.26801E-14
 -1       299 4.60565E+01 7.09948E+00 9.18029E-01-3.53628E-01 1.73250E-13 1.06075E-13
 -1       300 4.38284E+01 5.84304E+00 9.38126E-01-4.46607E+00 5.70238E-14-2.42611E-13
 -1       301 3.53622E+01 3.98038E+00 5.86042E-01-6.96065E+00 3.66054E-13-3.89355E-13
 -1       302 2.48831E+01 9.76688E-01 1.38615E-01-7.46574E+00 3.15858E-13-3.59518E-13
 -1       303 1.50859E+01-3.51675E+00-2.59665E-01-6.51581E+00 1.27176E-13-6.18811E-14
 -1       304 5.69218E+00-7.16753E+00-6.83324E-01-4.36037E+00 2.30621E-13-1.13163E-13
 -1       305 5.14242E-01-1.04340E+01-9.42609E-01-2.15616E+00 1.10634E-13-1.93692E-13
 -1       306-1.38386E+00-1.18070E+01-1.03660E+00-1.62661E-01-7.57606E-14-7.94920E-13
 -1       307-5.42105E-02-1.07862E+01-9.61809E-01 1.81599E+00-3.19328E-13-2.24903E-13
 -1       308 4.44816E+00-7.90314E+00-7.46032E-01 3.92720E+00-3.51469E-13-1.61329E-15
 -1       309 1.24721E+01-4.15581E+00-3.65882E-01 6.10383E+00-4.22162E-13-4.99517E-13
 -1       310 2.19905E+01-5.81160E-01 4.30693E-03 7.10455E+00-4.44700E-13-4.27103E-13
 -1       311 3.17288E+01 2.65092E+00 3.80622E-01 6.80916E+00-5.49116E-13 2.93099E-14
 -1       312 4.06162E+01 5.17766E+00 7.87556E-01 5.57800E+00-2.42445E-13-1.07719E-13
 -1       313 4.64419E+01 6.43241E+00 1.04240E+00 2.53463E+00-4.01526E-13 1.99452E-13
 -1       314 4.76832E+01 6.77095E+00 1.09826E+00-1.36261E+00-3.04423E-13 4.58668E-13
 -1       315 4.40800E+01 6.11771E+00 9.43587E-01-4.77480E+00-2.10026E-13 5.92193E-13
 -1       316 3.61137E+01 3.96609E+00 5.42731E-01-6.19608E+00-2.61258E-13 3.96239E-13
 -1       317 2.66818E+01 1.55022E+00 2.43400E-01-7.88806E+00-3.53856E-13 4.15834E-13
 -1       318 1.70086E+01-2.08558E+00-1.85378E-01-7.08647E+00-3.84026E-13 2.46025E-13
 -1       319 8.58858E+00-6.08807E+00-5.72036E-01-5.40077E+00-9.90319E-14 6.06293E-13
 -1       320 2.45576E+00-9.68590E+00-8.73167E-01-3.32594E+00 1.75054E-13 1.54488E-13
 -1       321-7.83511E-01-1.07909E+01-8.83539E-01-1.40606E+00 3.01259E-13 1.45273E-13
 -1       322 2.01457E+01 3.01490E+00-1.78012E-02-2.11075E+00-2.44496E-13-2.36924E-13
 -1       323 2.07545E+01 2.20991E+00-1.78590E-02-2.36390E+00-2.82935E-13-8.60353E-14
 -1       324 1.95829E+01 3.69189E+00-1.56082E-02-1.31903E+00-1.25087E-13-3.62941E-13
 -1       325 1.94609E+01 3.84803E+00-1.36984E-02-9.24212E-01-6.66346E-14-3.77903E-13
 -1       326 1.93920E+01 3.93906E+00-1.27097E-02-5.44113E-01-4.45874E-15-3.61937E-13
 -1       327 1.93615E+01 3.98041E+00-1.22953E-02-1.73326E-01 6.86986E-14-3.51682E-13
 -1       328 1.93628E+01 3.97881E+00-1.23138E-02 1.94482E-01 1.13368E-13-3.35773E-13
 -1       329 1.93962E+01 3.93394E+00-1.27603E-02 5.65607E-01 1.64881E-13-3.26855E-13
 -1       330 1.94668E+01 3.84069E+00-1.37673E-02 9.39685E-01 2.13406E-13-3.04799E-13
 -1       331 1.95935E+01 3.67849E+00-1.56544E-02 1.33382E+00 2.69422E-13-2.51744E-13
 -1       332 1.98087E+01 3.40985E+00-1.88310E-02 1.73915E+00 3.17283E-13-1.60096E-13
 -1       333 2.01790E+01 2.95514E+00-2.29403E-02 2.12772E+00 3.41444E-13-3.63234E-14
 -1       334 2.07486E+01 2.12941E+00-3.04703E-02 2.32264E+00 3.32053E-13 2.14603E-13
 -1       335 2.10950E+01 1.18773E+00-2.49251E-02 1.92232E+00 2.78466E-13 4.35586E-13
 -1       336 2.03911E+01 4.89255E-01 8.33092E-03 9.27774E-01 2.16632E-13 3.32060E-13
 -1       337 2.04580E+01 6.75065E-01 1.25578E-02-1.02632E+00-2.52078E-13-3.29747E-14
 -1       338 2.00357E+01 3.37138E-01 7.18419E-03-4.58580E-01-1.87168E-13-3.15126E-14
 -1       339 1.97815E+01 1.76395E-01 4.16620E-03-1.49523E-01-1.20198E-13-6.00767E-14
 -1       340 1.96457E+01 9.02946E-02 1.90398E-03 2.14548E-02-9.48992E-14-9.43784E-14
 -1       341 1.95900E+01 4.12164E-02 7.89306E-04 1.12473E-01-4.54121E-14-9.29623E-14
 -1       342 1.95844E+01 1.23259E-02 2.70954E-04 1.55593E-01-2.48183E-14-9.91764E-14
 -1       343 1.96081E+01-4.54126E-03 1.53941E-05 1.69741E-01-4.34564E-14-1.18511E-13
 -1       344 1.96475E+01-1.37934E-02-1.16059E-04 1.66749E-01-8.97858E-14-9.41474E-14
 -1       345 1.96936E+01-1.80549E-02-1.78816E-04 1.54327E-01-1.37397E-13-1.83389E-13
 -1       346 1.97410E+01-1.89845E-02-1.98294E-04 1.37620E-01-7.61555E-14-2.06813E-13
 -1       347 1.97869E+01-1.76549E-02-1.88687E-04 1.20124E-01-3.91286E-14-2.06160E-13
 -1       348 1.98300E+01-1.47486E-02-1.58713E-04 1.04261E-01-1.24683E-14-1.42190E-13
 -1       349 1.98703E+01-1.06716E-02-1.13605E-04 9.17741E-02-1.23917E-14-1.01136E-13
 -1       350 1.99088E+01-5.62456E-03-5.60874E-05 8.40123E-02 6.87165E-14-8.12532E-14
 -1       351 1.99473E+01 3.46392E-04 1.29674E-05 8.21394E-02-1.34535E-14-8.75216E-14
 -1       352 1.99879E+01 7.30989E-03 9.40033E-05 8.72888E-02-8.85403E-14-1.26838E-13
 -1       353 2.00337E+01 1.54126E-02 1.88278E-04 1.00672E-01-1.63131E-13-1.96402E-13
 -1       354 2.00879E+01 2.48391E-02 2.97283E-04 1.23640E-01-1.30508E-13-3.32312E-13
 -1       355 2.01546E+01 3.57584E-02 4.21947E-04 1.57695E-01-1.51658E-14-3.72222E-13
 -1       356 2.02380E+01 4.82464E-02 5.61439E-04 2.04421E-01 1.23390E-13-4.26923E-13
 -1       357 2.03432E+01 6.21622E-02 7.11276E-04 2.65317E-01 3.88714E-14-2.50976E-13
 -1       358 2.04752E+01 7.69503E-02 8.60379E-04 3.41462E-01-8.39542E-14-1.97468E-13
 -1       359 2.06392E+01 9.13257E-02 9.86684E-04 4.32924E-01 5.95602E-14-2.21869E-13
 -1       360 2.08401E+01 1.02791E-01 1.05115E-03 5.37801E-01-7.07011E-14-1.31479E-13
 -1       361 2.10817E+01 1.06947E-01 9.90978E-04 6.50715E-01-1.71665E-14-1.25997E-13
 -1       362 2.13660E+01 9.66279E-02 7.15022E-04 7.60621E-01 4.56020E-14-1.30458E-13
 -1       363 2.16924E+01 6.11370E-02 1.09109E-04 8.47897E-01 1.76702E-13-2.71956E-13
 -1       364 2.20558E+01-1.35930E-02-9.35025E-04 8.81127E-01 1.07425E-13-2.86809E-13
 -1       365 2.24452E+01-1.42006E-01-2.45137E-03 8.15087E-01-8.17797E-15-1.64754E-13
 -1       366 2.28386E+01-3.29812E-01-4.28548E-03 5.93614E-01 1.79121E-15-1.80947E-13
 -1       367 2.31962E+01-5.55337E-01-5.92688E-03 1.64387E-01-4.15902E-14-1.54013E-14
 -1       368 2.34498E+01-7.43865E-01-6.68329E-03-4.84989E-01-1.17405E-13 1.31323E-13
 -1       369 2.35006E+01-7.53987E-01-5.03072E-03-1.26666E+00 1.52792E-14 3.46585E-14
 -1       370 2.32499E+01-4.24575E-01-9.83386E-04-1.93074E+00-1.90987E-13-2.73544E-13
 -1       371 2.27044E+01 2.59365E-01 1.36581E-03-2.09476E+00-2.17427E-13-4.30704E-13
 -1       372 2.20850E+01 1.01211E+00-2.54109E-04-1.47838E+00 1.00512E-13-3.55647E-13
 -1       373 2.17518E+01 1.35030E+00-1.67963E-03-2.36936E-01 1.36537E-13-3.46791E-13
 -1       374 2.18961E+01 1.01088E+00-8.47532E-04 1.00515E+00 2.68258E-14 1.23599E-14
 -1       375 2.23316E+01 2.47863E-01 1.08776E-04 1.61742E+00-1.87058E-13 2.06285E-13
 -1       376 2.26943E+01-4.44626E-01-1.67159E-03 1.44019E+00 8.90794E-14 1.35764E-13
 -1       377 2.27619E+01-7.74709E-01-4.89456E-03 7.58735E-01 3.00957E-13-1.20488E-13
 -1       378 2.25280E+01-7.51154E-01-6.16979E-03-3.40112E-02 4.61044E-13 6.84992E-14
 -1       379 2.20952E+01-5.23193E-01-5.10254E-03-6.66584E-01 2.05841E-13 3.96476E-13
 -1       380 2.15734E+01-2.24922E-01-2.72632E-03-1.02264E+00 1.56945E-13 4.36639E-13
 -1       381 2.10451E+01 7.49922E-02-1.28256E-04-1.08472E+00 1.09436E-13 4.65317E-13
 -1       382 2.06154E+01 2.98571E-01 3.30550E-03-8.98889E-01 1.80500E-13 3.02570E-13
 -1       383 1.98892E+01 2.28423E-01 1.07945E-02 3.99194E-01 1.79353E-13 2.78364E-13
 -1       384 1.96003E+01 1.15243E-01 6.17429E-03 1.20625E-01 1.56857E-13 2.13242E-13
 -1       385 1.94653E+01 5.75286E-02 2.80689E-03-2.80464E-02 6.88173E-14 1.34607E-13
 -1       386 1.94251E+01 2.56385E-02 1.17629E-03-1.04744E-01 1.59475E-14 7.70132E-14
 -1       387 1.94404E+01 7.21542E-03 4.47784E-04-1.39811E-01 6.29924E-14 5.90545E-14
 -1       388 1.94860E+01-3.43390E-03 1.01610E-04-1.50225E-01 9.03608E-14 9.57425E-14
 -1       389 1.95460E+01-9.25011E-03-7.70984E-05-1.46248E-01 1.11771E-13 8.98279E-14
 -1       390 1.96105E+01-1.19299E-02-1.68175E-04-1.34431E-01 4.29326E-14 4.79092E-14
 -1       391 1.96737E+01-1.25310E-02-2.04801E-04-1.19088E-01 5.99316E-15 5.29805E-14
 -1       392 1.97326E+01-1.17352E-02-2.04815E-04-1.03121E-01 6.26654E-15 8.88672E-15
 -1       393 1.97863E+01-9.97744E-03-1.79237E-04-8.85132E-02 2.02662E-13-1.56538E-14
 -1       394 1.98349E+01-7.51862E-03-1.34940E-04-7.66747E-02 1.05481E-13-5.45390E-15
 -1       395 1.98799E+01-4.49078E-03-7.58175E-05-6.86769E-02 5.10144E-14 1.79945E-14
 -1       396 1.99233E+01-9.28227E-04-3.55202E-06-6.54319E-02 1.24274E-13 6.65569E-15
 -1       397 1.99680E+01 3.20866E-03 8.17427E-05-6.78251E-02 1.19426E-13-1.66846E-13
 -1       398 2.00173E+01 8.01219E-03 1.80951E-04-7.68107E-02 5.49873E-16-1.25838E-13
 -1       399 2.00753E+01 1.36045E-02 2.95301E-04-9.34722E-02-1.16365E-13-1.47269E-13
 -1       400 2.01467E+01 2.01084E-02 4.25508E-04-1.19041E-01-5.91715E-14-1.35669E-13
 -1       401 2.02367E+01 2.76043E-02 5.70496E-04-1.54862E-01-2.60699E-14-9.18686E-14
 -1       402 2.03514E+01 3.60618E-02 7.25437E-04-2.02271E-01 1.06673E-13 1.55382E-14
 -1       403 2.04972E+01 4.52277E-02 8.78741E-04-2.62350E-01 3.18664E-14 1.09648E-14
 -1       404 2.06805E+01 5.44447E-02 1.00769E-03-3.35475E-01-8.90283E-14-9.55505E-14
 -1       405 2.09075E+01 6.23653E-02 1.07275E-03-4.20545E-01-1.35704E-14 8.73085E-14
 -1       406 2.11829E+01 6.65283E-02 1.01178E-03-5.13756E-01-3.42882E-14 1.39567E-13
 -1       407 2.15081E+01 6.27990E-02 7.37818E-04-6.06737E-01 3.13602E-14 1.34368E-13
 -1       408 2.18796E+01 4.47987E-02 1.48503E-04-6.84008E-01 6.66564E-14 1.55304E-13
 -1       409 2.22856E+01 3.76717E-03-8.40107E-04-7.20033E-01 1.23444E-13 1.96983E-13
 -1       410 2.27022E+01-7.00551E-02-2.22476E-03-6.77113E-01-6.03033E-16 1.63610E-13
 -1       411 2.30895E+01-1.82514E-01-3.79341E-03-5.07246E-01-9.18235E-14 1.07320E-13
 -1       412 2.33876E+01-3.24761E-01-5.06762E-03-1.63704E-01 8.54410E-14-2.13392E-13
 -1       413 2.35159E+01-4.55794E-01-5.33219E-03 3.69475E-01-6.56363E-14-4.94718E-14
 -1       414 2.33849E+01-4.91934E-01-3.98293E-03 1.02676E+00-9.92986E-14 2.86921E-13
 -1       415 2.29379E+01-3.31248E-01-1.17792E-03 1.61496E+00 1.38479E-14 3.26334E-13
 -1       416 2.22226E+01 6.47766E-02 1.02303E-03 1.83214E+00-2.24098E-14 4.20160E-13
 -1       417 2.14626E+01 5.57346E-01 5.70003E-04 1.42398E+00-3.24580E-14 2.42396E-13
 -1       418 2.09992E+01 8.52528E-01 1.11408E-03 4.45402E-01-6.62404E-14 4.41815E-14
 -1       419 2.10513E+01 7.33302E-01 2.88065E-03-6.60118E-01-2.95395E-13 3.39607E-14
 -1       420 2.15189E+01 2.85752E-01 4.01317E-03-1.34759E+00 2.41393E-13 6.85684E-14
 -1       421 2.20704E+01-1.89999E-01 1.91936E-03-1.37373E+00-1.29024E-14 1.68099E-13
 -1       422 2.24128E+01-4.65098E-01-2.50867E-03-8.88731E-01-1.58719E-13 5.61251E-13
 -1       423 2.24320E+01-5.00318E-01-5.66186E-03-2.12777E-01 1.95327E-13 3.61159E-13
 -1       424 2.21645E+01-3.78277E-01-5.80683E-03 3.84671E-01 2.87565E-13 1.20166E-13
 -1       425 2.17108E+01-1.91174E-01-3.75404E-03 7.63692E-01 2.07304E-13-2.28151E-13
 -1       426 2.11806E+01 4.65286E-03-1.14355E-03 8.83396E-01 1.46700E-13-3.14547E-13
 -1       427 2.06674E+01 1.82748E-01 5.59478E-04 7.56308E-01-2.27864E-13-1.80669E-13
 -1       428 2.03830E+01 2.94684E-01 1.87630E-03 5.93653E-01-1.79186E-13-1.12456E-13
 -1       429 2.01995E+01 1.41275E+00 1.44922E-03 1.58258E+00-1.13329E-13-1.45695E-13
 -1       430 2.03462E+01 8.86541E-01 3.09664E-03 1.30042E+00-1.83070E-13-1.95576E-13
 -1       431 2.03813E+01 5.78268E-01 3.36710E-03 9.55518E-01-2.28550E-13-2.41799E-13
 -1       432 1.99828E+01 2.01701E+00-1.08782E-03 1.68793E+00-4.27294E-13-2.04107E-13
 -1       433 1.97066E+01 2.65091E+00-3.14504E-03 1.53292E+00-4.54312E-13 2.84101E-13
 -1       434 1.94387E+01 3.18736E+00-5.11382E-03 1.08205E+00-4.26487E-13-3.68067E-13
 -1       435 1.92711E+01 3.49805E+00-6.22151E-03 3.89373E-01-2.46728E-13 1.46850E-13
 -1       436 1.92720E+01 3.49642E+00-6.22302E-03-3.96729E-01-1.57648E-13 2.00839E-13
 -1       437 1.94409E+01 3.18300E+00-5.14543E-03-1.08767E+00-9.82297E-14 7.16181E-14
 -1       438 1.97043E+01 2.65540E+00-3.12379E-03-1.53107E+00 1.58608E-13 2.73250E-13
 -1       439 1.99806E+01 2.02193E+00-8.29475E-04-1.68810E+00 2.75243E-13 9.00522E-14
 -1       440 2.02028E+01 1.40662E+00 1.80795E-03-1.58418E+00 2.73054E-13-3.12248E-13
 -1       441 2.03510E+01 8.84269E-01 4.38393E-03-1.30035E+00-2.73268E-15-3.33167E-13
 -1       442 1.05794E+01-6.20753E+00-3.93788E-02 7.21517E+00 1.82743E-13 6.72559E-13
 -1       443 1.51307E+00-4.52363E+00-1.87418E-02 3.21201E-01 4.57644E-13-1.60982E-15
 -1       444 3.61399E+00-5.68563E+00-8.91390E-02 4.49807E+00 5.12562E-13 6.26166E-13
 -1       445 1.93132E+01-6.21103E+00-9.16373E-03 7.06603E+00 1.29757E-13 6.28966E-13
 -1       446 2.77434E+01-3.77648E+00 1.70969E-02 4.25682E+00 2.52166E-13 5.21944E-14
 -1       447 1.98031E+01 3.43103E+00-1.76715E-02-1.73864E+00-1.88550E-13-3.29041E-13
 -1       448 3.54592E+01 5.82728E+00 5.35150E-02 2.31403E-01 4.36484E-13 2.81580E-14
 -1       449 3.66089E+01 7.98675E+00 9.40871E-02 2.01123E-01 4.31349E-13-5.96051E-14
 -1       450 3.54633E+01 7.04741E+00 2.01070E-02 7.95606E-01 3.34968E-13-1.38563E-13
 -1       451 3.50748E+01 3.58285E+00 9.50892E-02-6.28561E-01 2.58238E-13-1.94261E-13
 -1       452 3.05905E+01-1.09741E+00 2.33939E-02-2.61372E+00 1.44350E-13-2.14356E-13
 -1       453 2.48616E+01-5.04511E+00 3.37672E-03-4.82239E+00 9.60482E-14-3.64375E-13
 -1       454 1.48708E+01-6.04235E+00-2.77320E-02-7.06225E+00-2.22877E-14-1.19731E-14
 -1       455 6.68239E+00-5.77045E+00-7.25601E-02-5.92521E+00-2.33674E-13-3.69427E-14
 -1       456 1.53481E+00-5.45173E+00-1.18301E-01-2.51618E+00-3.07879E-13-5.42955E-13
 -1       457 1.23621E+00-5.12376E+00-9.55616E-02 1.82316E+00 3.89064E-14-4.01901E-13
 -1       458 5.84740E+00-5.33155E+00-2.66660E-02 5.57841E+00-5.62606E-14-2.02602E-13
 -1       459 1.27840E+01-6.05978E+00-5.70888E-02 6.94550E+00-3.50192E-13-4.28983E-13
 -1       460 2.15604E+01-5.27096E+00-2.15533E-02 5.98740E+00-2.02241E-13-1.89626E-13
 -1       461 2.87109E+01-2.84319E+00-8.00670E-03 3.12697E+00-4.04426E-13 3.92825E-13
 -1       462 3.33207E+01 1.62846E+00 1.41517E-02 7.07247E-01-2.95076E-13 1.89820E-13
 -1       463 3.52903E+01 5.77919E+00 3.55245E-02-5.87036E-01-2.55032E-13 4.02386E-13
 -1       464 3.69521E+01 8.00173E+00 8.56315E-02-3.93257E-01-3.57797E-13 1.09534E-13
 -1       465 3.54376E+01 7.28876E+00 4.57087E-03 1.17829E-01-2.91628E-13 6.49966E-14
 -1       466 3.48468E+01 4.30316E+00 4.07255E-02-1.96889E-01-2.56600E-13 3.38271E-13
 -1       467 3.10161E+01-1.23381E+00-5.03902E-03-2.48733E+00-2.02288E-13 5.34531E-13
 -1       468 2.54272E+01-4.12965E+00-3.54308E-03-5.48323E+00-3.55938E-13 3.58200E-13
 -1       469 1.81386E+01-6.13424E+00-2.19853E-02-7.18567E+00-2.60902E-15 3.00961E-13
 -1       470 9.72039E+00-6.35499E+00-8.26753E-02-6.94939E+00 3.33178E-13 6.65426E-13
 -1       471 4.42070E+00-5.11761E+00-9.91909E-03-4.90276E+00 3.43295E-13 6.23945E-14
 -1       472 3.19525E+01 1.66246E-02-2.58648E-02 1.86844E+00 3.36725E-13-4.26131E-13
 -1       473 3.18025E+01 1.95292E+00-8.93861E-02-1.07594E+00 1.26225E-13-1.73195E-13
 -1       474 2.03726E+01 8.31875E-01 4.00967E-03 9.72621E-01 2.32882E-13 4.50446E-14
 -1       475 1.97335E+01 3.10355E+00-5.35331E-03-6.34101E-01-2.58860E-14-3.20075E-13
 -1       476 1.98302E+01 2.92980E+00-5.72442E-03-9.50121E-01-7.77869E-14-3.19282E-13
 -1       477 1.96662E+01 3.22612E+00-5.02093E-03 8.84262E-03 8.44158E-14-3.01349E-13
 -1       478 1.96846E+01 3.19315E+00-5.10328E-03 3.30638E-01 1.33863E-13-3.06385E-13
 -1       479 1.97382E+01 3.09639E+00-5.41449E-03 6.46214E-01 1.70776E-13-2.81364E-13
 -1       480 1.98365E+01 2.91861E+00-5.94612E-03 9.61984E-01 2.41318E-13-2.42456E-13
 -1       481 1.99915E+01 2.63363E+00-6.52782E-03 1.25728E+00 2.73384E-13-1.84230E-13
 -1       482 2.02334E+01 2.18759E+00-5.70397E-03 1.50210E+00 2.99879E-13-9.83306E-14
 -1       483 2.51692E+01-5.94541E+00 1.85396E-02 4.36086E+00-1.35385E-13-4.80827E-13
 -1       484 2.01108E+01 4.53412E-01 5.07327E-03 4.64843E-01 2.15738E-13 1.86455E-14
 -1       485 2.03434E+01 9.72717E-01 2.77810E-03-9.40746E-01-2.00770E-13-1.34666E-13
 -1       486 2.01712E+01 5.45204E-01 2.33782E-03-4.68567E-01-1.58250E-13-1.27151E-13
 -1       487 2.00236E+01 3.03332E-01 1.11593E-03-1.67493E-01-1.02951E-13-1.08006E-13
 -1       488 1.99227E+01 1.61381E-01 4.64857E-04 1.37806E-02-8.43586E-14-5.91315E-14
 -1       489 1.98638E+01 7.52746E-02 1.59199E-04 1.16351E-01-4.29407E-14-7.00992E-14
 -1       490 1.98364E+01 2.27773E-02 2.10809E-05 1.67804E-01-7.04133E-14-1.15811E-13
 -1       491 1.98304E+01-8.32599E-03-4.62692E-05 1.86793E-01-5.36809E-14-1.59440E-13
 -1       492 1.98379E+01-2.53494E-02-7.95505E-05 1.86045E-01-1.37411E-13-1.19088E-13
 -1       493 1.98534E+01-3.29198E-02-9.23710E-05 1.74287E-01-8.79246E-14-5.90614E-14
 -1       494 1.98732E+01-3.40527E-02-9.14110E-05 1.57557E-01-3.64001E-14-8.88577E-15
 -1       495 1.98949E+01-3.07206E-02-8.08517E-05 1.40077E-01 4.24647E-14-2.41116E-14
 -1       496 1.99175E+01-2.41727E-02-6.33661E-05 1.24861E-01-1.48877E-14-3.49856E-14
 -1       497 1.99406E+01-1.51331E-02-4.04835E-05 1.14154E-01 7.08263E-15-5.61198E-14
 -1       498 1.99646E+01-3.93446E-03-1.28374E-05 1.09757E-01-3.80195E-14-1.43733E-13
 -1       499 1.99904E+01 9.38137E-03 1.96079E-05 1.13266E-01-1.17517E-13-2.05848E-13
 -1       500 2.00193E+01 2.49780E-02 5.73543E-05 1.26248E-01-1.93645E-13-2.22536E-13
 -1       501 2.00527E+01 4.31404E-02 1.01160E-04 1.50349E-01-2.39259E-13-2.25613E-13
 -1       502 2.00927E+01 6.41759E-02 1.51767E-04 1.87347E-01-1.55836E-13-2.53582E-13
 -1       503 2.01415E+01 8.82815E-02 2.09515E-04 2.39117E-01-6.65168E-15-3.36496E-13
 -1       504 2.02014E+01 1.15347E-01 2.73728E-04 3.07508E-01 2.06493E-13-2.75930E-13
 -1       505 2.02750E+01 1.44654E-01 3.41739E-04 3.94072E-01 7.77195E-14-1.47701E-13
 -1       506 2.03652E+01 1.74408E-01 4.07353E-04 4.99593E-01-5.99686E-14-1.35740E-13
 -1       507 2.04752E+01 2.01026E-01 4.58546E-04 6.23328E-01-2.49162E-14-3.09077E-13
 -1       508 2.06088E+01 2.18110E-01 4.74322E-04 7.61847E-01-6.06955E-14-2.71005E-13
 -1       509 2.07710E+01 2.15073E-01 4.21136E-04 9.07322E-01 3.34647E-14-2.93647E-13
 -1       510 2.09694E+01 1.75627E-01 2.50249E-04 1.04514E+00 4.31326E-14-2.31389E-13
 -1       511 2.12161E+01 7.68812E-02-9.89988E-05 1.15079E+00 1.45025E-13-1.99229E-13
 -1       512 2.15291E+01-1.08964E-01-6.83378E-04 1.18617E+00 1.00804E-13-2.89127E-13
 -1       513 2.19318E+01-4.06086E-01-1.53271E-03 1.09645E+00 3.77564E-14-2.72940E-13
 -1       514 2.24452E+01-8.12766E-01-2.61712E-03 8.10938E-01 3.63332E-14-1.52519E-13
 -1       515 2.30628E+01-1.25885E+00-3.81290E-03 2.57292E-01 2.84585E-14-9.01693E-14
 -1       516 2.37090E+01-1.55434E+00-5.67356E-03-5.90178E-01-6.29883E-14 6.96277E-14
 -1       517 2.41974E+01-1.37181E+00-6.04275E-03-1.61776E+00-2.33962E-13 1.30028E-13
 -1       518 2.42817E+01-4.08189E-01-7.37220E-03-2.42066E+00-2.15385E-13 2.52648E-13
 -1       519 2.38780E+01 1.20297E+00-1.77565E-02-2.38385E+00-8.62786E-14 1.15848E-13
 -1       520 2.33813E+01 2.53212E+00-2.96463E-02-1.19198E+00 8.10550E-14-4.50817E-14
 -1       521 2.33314E+01 2.52834E+00-2.90064E-02 5.87514E-01 2.63969E-13 1.28502E-13
 -1       522 2.37146E+01 1.19976E+00-2.04275E-02 1.79102E+00 1.98202E-13 1.45455E-13
 -1       523 2.40238E+01-4.26452E-01-7.95578E-03 1.81799E+00-1.12351E-13 4.51241E-13
 -1       524 2.38526E+01-1.40470E+00-5.09950E-03 9.98432E-01 1.62725E-14 2.06619E-13
 -1       525 2.32738E+01-1.58138E+00-4.40137E-03-4.53533E-02 3.86326E-13-6.15806E-14
 -1       526 2.25289E+01-1.23465E+00-3.46745E-03-8.93560E-01 3.34727E-13-1.97329E-13
 -1       527 2.18100E+01-6.81502E-01-1.92040E-03-1.39985E+00 3.18411E-13 4.64337E-14
 -1       528 2.11987E+01-1.05842E-01-4.26796E-06-1.55739E+00 1.37495E-13-1.13637E-13
 -1       529 1.98081E+01 1.28695E-01 1.00185E-03-1.85596E-02 9.89917E-14-4.42324E-14
 -1       530 1.97500E+01 5.93902E-02 3.66388E-04-1.16941E-01 6.04340E-14-9.41289E-14
 -1       531 1.97310E+01 1.78100E-02 8.35906E-05-1.65108E-01 4.57655E-14-9.31561E-14
 -1       532 1.97369E+01-6.66552E-03-5.07806E-05-1.82001E-01 6.94420E-14-5.27893E-14
 -1       533 1.97575E+01-2.00700E-02-1.17972E-04-1.80082E-01 8.18697E-14 5.98600E-15
 -1       534 1.97857E+01-2.61209E-02-1.46407E-04-1.67731E-01 6.19256E-14-4.27689E-14
 -1       535 1.98171E+01-2.72087E-02-1.49699E-04-1.50659E-01 6.27194E-14-3.69309E-14
 -1       536 1.98491E+01-2.48882E-02-1.35849E-04-1.32810E-01 8.34269E-14-1.35974E-14
 -1       537 1.98805E+01-2.01460E-02-1.09931E-04-1.16966E-01 1.59613E-13 4.17607E-15
 -1       538 1.99112E+01-1.35599E-02-7.49633E-05-1.05172E-01 8.17264E-14-2.84236E-14
 -1       539 1.99419E+01-5.40436E-03-3.23939E-05-9.90424E-02 6.10477E-14 1.98670E-14
 -1       540 1.99737E+01 4.27329E-03 1.74461E-05-9.99986E-02 1.88990E-13-4.98967E-14
 -1       541 2.00086E+01 1.55901E-02 7.50193E-05-1.09431E-01 6.06236E-14 1.91016E-14
 -1       542 2.00485E+01 2.87666E-02 1.41219E-04-1.28812E-01-5.13164E-14-2.36884E-14
 -1       543 2.00963E+01 4.40574E-02 2.16954E-04-1.59754E-01-6.94807E-14-4.32489E-14
 -1       544 2.01548E+01 6.16580E-02 3.02552E-04-2.03994E-01-3.11201E-14-1.12509E-13
 -1       545 2.02275E+01 8.15672E-02 3.96860E-04-2.63288E-01-5.94473E-14-1.62135E-13
 -1       546 2.03179E+01 1.03373E-01 4.95831E-04-3.39181E-01 5.96270E-14-2.96558E-14
 -1       547 2.04298E+01 1.25916E-01 5.90364E-04-4.32574E-01 6.48554E-14-5.76162E-14
 -1       548 2.05673E+01 1.46768E-01 6.63153E-04-5.43007E-01-9.08888E-14-2.14076E-13
 -1       549 2.07342E+01 1.61455E-01 6.84594E-04-6.67532E-01-4.15339E-14-2.34266E-13
 -1       550 2.09346E+01 1.62408E-01 6.08565E-04-7.99007E-01-3.31015E-15-1.34706E-13
 -1       551 2.11729E+01 1.37739E-01 3.70497E-04-9.23695E-01-8.19238E-15-1.01430E-13
 -1       552 2.14542E+01 7.03925E-02-1.07399E-04-1.01817E+00 3.44537E-14-8.90988E-15
 -1       553 2.17849E+01-6.08740E-02-8.93750E-04-1.04594E+00 6.27403E-15 9.24480E-14
 -1       554 2.21711E+01-2.75557E-01-2.00320E-03-9.55372E-01 7.90756E-14 1.81272E-13
 -1       555 2.26132E+01-5.75490E-01-3.21390E-03-6.83028E-01 1.48336E-13 1.92436E-14
 -1       556 2.30909E+01-9.15418E-01-4.10835E-03-1.68714E-01-1.26271E-13 3.42446E-13
 -1       557 2.35316E+01-1.15714E+00-4.07077E-03 6.00730E-01-1.94730E-13 4.70758E-13
 -1       558 2.37966E+01-1.07155E+00-3.01231E-03 1.50729E+00-7.10254E-14 4.92541E-13
 -1       559 2.37246E+01-4.40227E-01-2.12127E-03 2.22749E+00-2.78709E-14 4.35784E-13
 -1       560 2.32741E+01 7.02231E-01-7.15780E-03 2.27239E+00 2.07841E-13 2.70406E-13
 -1       561 2.27401E+01 1.77234E+00-1.25976E-02 1.34781E+00 1.02356E-13 2.26587E-13
 -1       562 2.25644E+01 1.99920E+00-1.21032E-02-1.93328E-01-3.52990E-14 2.97793E-13
 -1       563 2.28517E+01 1.19448E+00-9.60134E-03-1.45913E+00-2.53565E-14-1.59786E-14
 -1       564 2.32559E+01-3.22733E-02-3.87040E-03-1.79919E+00 7.33554E-14 9.95936E-14
 -1       565 2.33610E+01-9.17205E-01-3.39732E-03-1.28416E+00-1.65933E-13 2.73170E-13
 -1       566 2.30846E+01-1.20643E+00-5.42717E-03-3.81393E-01 2.04603E-13-4.91294E-14
 -1       567 2.25605E+01-1.03271E+00-4.90215E-03 4.73525E-01 4.52930E-13-1.88088E-14
 -1       568 2.19561E+01-6.36622E-01-3.22956E-03 1.05909E+00 2.43706E-13-1.85419E-13
 -1       569 2.13724E+01-1.85725E-01-1.28645E-03 1.32252E+00 1.75140E-13 9.66804E-14
 -1       570 2.08425E+01 2.35150E-01 7.81916E-04 1.28488E+00-2.47122E-14 2.05079E-13
 -1       571 1.97118E+01 1.46858E+00-8.84277E-04 2.16426E+00-3.58802E-14 2.26420E-13
 -1       572 1.91113E+01 2.02241E+00-1.67976E-03 1.80632E+00-1.82821E-13-4.17775E-14
 -1       573 2.05716E+01 5.64478E-01-1.27905E-03 1.84305E+00-2.95773E-14-2.94152E-13
 -1       574 2.02330E+01 9.54164E-01 1.77732E-03 2.13650E+00-1.72467E-14-9.89713E-14
 -1       575 1.86140E+01 2.46430E+00-2.53905E-03 1.03603E+00-2.50435E-13-2.48959E-13
 -1       576 1.84207E+01 2.63330E+00-2.97273E-03-5.34607E-03-2.94275E-13 2.63259E-13
 -1       577 1.86179E+01 2.46093E+00-2.58351E-03-1.04446E+00-8.00613E-15 5.99799E-13
 -1       578 1.91064E+01 2.02684E+00-1.73446E-03-1.80226E+00 3.20885E-13 4.07515E-13
 -1       579 1.97076E+01 1.47258E+00-9.44777E-04-2.16501E+00 1.01598E-13 1.30385E-14
 -1       580 2.02258E+01 9.55547E-01 7.99867E-04-2.14073E+00-3.26759E-14-1.97269E-13
 -1       581 2.05758E+01 5.62543E-01-1.43298E-03-1.83137E+00-1.08113E-13-4.50343E-13
 -1       582 6.05060E+00-2.03141E+00 1.83164E-01 3.11185E+00 4.30597E-13 1.31423E-13
 -1       583 1.73971E+01-5.34937E+00 9.92095E-02 7.06649E+00-7.00828E-15 2.65506E-13
 -1       584 1.99232E+01 2.46095E-01 2.45734E-03 1.59676E-01 1.56058E-13-7.06520E-16
 -1       585 6.58761E+00-1.38144E+00 2.11838E-01-2.53889E+00 3.44381E-13 3.30541E-13
 -1       586 1.00901E+01-3.72966E+00 1.50962E-01 6.34798E+00 1.61975E-13 5.13048E-13
 -1       587 2.03969E+01 1.75559E+00-5.96367E-03-1.53764E+00-2.41424E-13-1.96909E-13
 -1       588 1.08058E+01-4.13657E+00 1.45500E-01-6.69836E+00-4.31183E-14 6.81469E-13
 -1       589 3.12351E+01 7.44107E+00-1.57270E-01 1.25622E-02-2.85605E-13 1.00988E-13
 -1       590 1.96817E+01 3.19750E+00-5.10106E-03-3.13058E-01 3.14890E-14-3.03620E-13
 -1       591 3.06909E+01 3.94468E+00-1.64699E-01 2.18104E+00 2.94334E-13-9.59510E-14
 -1       592 3.10267E+01 6.24247E+00-1.60088E-01-1.11271E+00 4.21954E-13-1.79148E-13
 -1       593 2.79293E+01-4.72661E+00-5.65085E-02-2.39548E+00-1.87454E-14 1.92825E-13
 -1       594 3.03745E+01 7.32304E+00-1.90718E-01 6.24293E-01 4.12448E-13-2.03887E-13
 -1       595 3.06086E+01-1.09586E-01-1.03719E-01 1.17623E+00 3.01523E-13-1.49394E-13
 -1       596 2.83392E+01-3.63251E+00-3.56005E-02-1.19433E+00 2.78291E-13-2.51847E-13
 -1       597 2.16108E+01-5.79545E+00 5.96352E-02-5.42884E+00 1.82104E-13-3.84791E-13
 -1       598 1.29586E+01-4.69077E+00 1.02103E-01-6.77873E+00-1.39166E-13-2.30066E-13
 -1       599 6.98292E+00-2.75072E+00 1.59618E-01-4.69967E+00-3.06200E-13-2.12427E-13
 -1       600 4.07453E+00-1.94576E+00 1.68139E-01-9.93600E-01-1.32627E-13-3.31735E-13
 -1       601 5.63943E+00-2.70674E+00 1.44765E-01 3.98051E+00-8.40925E-14-2.92391E-13
 -1       602 1.23739E+01-4.51193E+00 1.21043E-01 6.72801E+00-1.48277E-13-5.36363E-13
 -1       603 1.95317E+01-5.90422E+00 6.11878E-02 6.22310E+00-8.89844E-14-7.16992E-14
 -1       604 2.59521E+01-5.35218E+00-1.59566E-02 3.23208E+00-1.27509E-13 2.52888E-13
 -1       605 2.95152E+01-1.88364E+00-7.76380E-02-7.68689E-01-3.47847E-13 4.16167E-13
 -1       606 3.02059E+01 1.85315E+00-1.56055E-01-2.24987E+00-3.65742E-13 3.53315E-13
 -1       607 3.11616E+01 6.58864E+00-1.53092E-01-1.53073E+00-2.18936E-13 2.51833E-13
 -1       608 3.07889E+01 4.88296E+00-1.57516E-01 1.52052E+00-1.70627E-13-1.59990E-13
 -1       609 3.07399E+01 2.92037E-01-1.07187E-01 9.91101E-01-2.04184E-13-5.70932E-14
 -1       610 2.38995E+01-6.04237E+00 4.33900E-02-5.21400E+00 1.20071E-13 4.23109E-13
 -1       611 1.69515E+01-5.69142E+00 9.25828E-02-7.25088E+00 1.73167E-13 4.30208E-13
 -1       612 2.93979E+01-3.16662E+00-7.21736E-02 1.06083E+00 7.85769E-14-7.01085E-13
 -1       613 2.05846E+01 1.30518E+00-1.00023E-03 1.54845E+00 2.83804E-13 1.11840E-13
 -1       614 2.80316E+01 5.18236E+00-1.53399E-01 2.08191E+00 1.86157E-13-2.87718E-13
 -1       615 1.99730E+01 2.64896E+00-9.81857E-03-1.23977E+00-1.44986E-13-3.06553E-13
 -1       616 2.54534E+01-5.34877E+00-1.87778E-02-2.49543E+00 2.59095E-13-3.17007E-13
 -1       617 2.08454E+01 2.53363E-01 7.25348E-04-1.48653E+00 1.57266E-14-1.12082E-13
 -1       618 1.99614E+01 2.44865E+00-1.58677E-03 3.94549E-01 1.47430E-13-2.61337E-13
 -1       619 1.99296E+01 2.52349E+00-1.52131E-03 1.35929E-01 1.04643E-13-2.62230E-13
 -1       620 2.01208E+01 2.04548E+00-1.58056E-03 8.51106E-01 1.99965E-13-1.81959E-13
 -1       621 2.02395E+01 1.67498E+00-2.21878E-03 9.92635E-01 2.42474E-13-1.21105E-13
 -1       622 1.80996E+01-4.21862E+00 8.83286E-02-5.57480E+00 3.77025E-14-3.63045E-13
 -1       623 2.03187E+01 1.03657E+00 2.85924E-03 8.32390E-01 2.31812E-13-8.18741E-14
 -1       624 2.89464E+01-8.67752E-01-9.35438E-02-1.37680E+00 5.23193E-15-4.46622E-13
 -1       625 2.02392E+01 6.74498E-01 6.02655E-04-3.95447E-01-1.13791E-13-1.59241E-13
 -1       626 2.01672E+01 3.91158E-01 1.96367E-04-1.41280E-01-7.22378E-14-1.36787E-13
 -1       627 2.01017E+01 2.12205E-01 6.34407E-05 2.06229E-02-7.22721E-14-1.22613E-13
 -1       628 2.00516E+01 9.82030E-02 3.57166E-06 1.15752E-01-8.47352E-14-1.34745E-13
 -1       629 2.00168E+01 2.70627E-02-1.64408E-05 1.64787E-01-8.15177E-14-1.36864E-13
 -1       630 1.99947E+01-1.53025E-02-2.58906E-05 1.83573E-01-4.65460E-14-8.12221E-14
 -1       631 1.99823E+01-3.80759E-02-3.04492E-05 1.83648E-01-6.06218E-14 3.89508E-14
 -1       632 1.99768E+01-4.73687E-02-3.11099E-05 1.73322E-01-3.05641E-14 2.48805E-14
 -1       633 1.99764E+01-4.72851E-02-2.86977E-05 1.58552E-01-6.87671E-14-2.48321E-14
 -1       634 1.99795E+01-4.05367E-02-2.39622E-05 1.43629E-01-8.43204E-15-5.51506E-14
 -1       635 1.99851E+01-2.88246E-02-1.74582E-05 1.31702E-01 1.93399E-14-4.96986E-14
 -1       636 1.99928E+01-1.30984E-02-9.48278E-06 1.25197E-01-9.20657E-14-3.99811E-14
 -1       637 2.00022E+01 6.25296E-03-1.10726E-07 1.26123E-01-1.19023E-13-9.67177E-14
 -1       638 2.00134E+01 2.92483E-02 1.07665E-05 1.36310E-01-1.50059E-13-9.48056E-14
 -1       639 2.00266E+01 5.61750E-02 2.33970E-05 1.57562E-01-1.68009E-13-5.14615E-14
 -1       640 2.00421E+01 8.74415E-02 3.80920E-05 1.91757E-01-1.57637E-13 2.63584E-14
 -1       641 2.00601E+01 1.23398E-01 5.51441E-05 2.40867E-01-9.81540E-14 6.66150E-14
 -1       642 2.00811E+01 1.64095E-01 7.47094E-05 3.06898E-01 1.50113E-13 2.54908E-14
 -1       643 2.01055E+01 2.08926E-01 9.66192E-05 3.91734E-01 2.06461E-13-7.99132E-14
 -1       644 2.01340E+01 2.56104E-01 1.20074E-04 4.96846E-01 2.88850E-14-6.66529E-15
 -1       645 2.01677E+01 3.01874E-01 1.43150E-04 6.22849E-01-1.43377E-13 8.64394E-14
 -1       646 2.02090E+01 3.39366E-01 1.62009E-04 7.68846E-01-7.61300E-14 4.20208E-14
 -1       647 2.02625E+01 3.57015E-01 1.69723E-04 9.31503E-01-1.55505E-14 1.27326E-14
 -1       648 2.03373E+01 3.36563E-01 1.54948E-04 1.10375E+00 6.73492E-14 7.76120E-14
 -1       649 2.04505E+01 2.51023E-01 1.00686E-04 1.27287E+00 1.11021E-13 1.45727E-13
 -1       650 2.06316E+01 6.37895E-02-8.11085E-06 1.41756E+00-8.88013E-14-5.29407E-14
 -1       651 2.09282E+01-2.68042E-01-1.66482E-04 1.50270E+00 8.39309E-14-9.08329E-14
 -1       652 2.14071E+01-7.79183E-01-4.43578E-04 1.47046E+00 9.08999E-14-7.64119E-15
 -1       653 2.21435E+01-1.45878E+00-1.04296E-03 1.22987E+00 1.08124E-13-1.08835E-14
 -1       654 2.31770E+01-2.16920E+00-1.56769E-03 6.45015E-01-5.83916E-14 1.06006E-13
 -1       655 2.44128E+01-2.52049E+00-9.09681E-03-4.02949E-01-5.87542E-14 1.85387E-13
 -1       656 2.55637E+01-1.90380E+00-1.15498E-02-1.79915E+00-2.01085E-13 5.59087E-13
 -1       657 2.59174E+01 2.02105E-01-6.14971E-02-2.83530E+00-3.61827E-13 5.44716E-13
 -1       658 2.54705E+01 3.13463E+00-1.03996E-01-2.40031E+00-6.67869E-15 5.22266E-13
 -1       659 2.52153E+01 4.49303E+00-1.01830E-01-3.30641E-01 2.68188E-13 2.80134E-13
 -1       660 2.54843E+01 3.08282E+00-8.51632E-02 1.70330E+00 8.99558E-14 1.63178E-13
 -1       661 2.57671E+01 1.75035E-01-6.58561E-02 2.15135E+00-7.94156E-15-2.03177E-13
 -1       662 2.54263E+01-1.99637E+00-1.37050E-02 1.10236E+00-1.19048E-13-2.01598E-13
 -1       663 2.43381E+01-2.60401E+00-5.90999E-03-3.02144E-01-2.91579E-14-3.81041E-14
 -1       664 2.30897E+01-2.17862E+00-2.38101E-03-1.34613E+00 2.46585E-13-2.14350E-13
 -1       665 2.20292E+01-1.34384E+00-7.59742E-04-1.90483E+00 2.81574E-13-2.61757E-13
 -1       666 2.12575E+01-4.70136E-01-4.24075E-04-2.06595E+00 2.43739E-13-4.19980E-13
 -1       667 1.99724E+01 8.78177E-02 5.61144E-05-1.18028E-01 5.67255E-14-1.08863E-13
 -1       668 2.10684E+01-1.86918E-01 1.51812E-03 2.05383E+00-7.14594E-14-3.53265E-13
 -1       669 2.00262E+01 1.88965E-01 1.85520E-04-1.95239E-02 1.11470E-13-1.16483E-13
 -1       670 1.99253E+01-1.21289E-02-2.81252E-05-1.87029E-01 5.62098E-14-7.24020E-14
 -1       671 1.99213E+01-3.23355E-02-4.28729E-05-1.86588E-01 6.96712E-14-9.73990E-15
 -1       672 1.99247E+01-4.09140E-02-4.82504E-05-1.75421E-01 3.09697E-14 4.01461E-14
 -1       673 1.99329E+01-4.14730E-02-4.68448E-05-1.59561E-01 7.61751E-14-2.28063E-15
 -1       674 1.99440E+01-3.63906E-02-4.05697E-05-1.43301E-01 8.01871E-14 5.64871E-15
 -1       675 1.99571E+01-2.71634E-02-3.07008E-05-1.29756E-01 8.87493E-14 1.45660E-13
 -1       676 1.99717E+01-1.46414E-02-1.79126E-05-1.21294E-01 3.56869E-14 1.57849E-13
 -1       677 1.99879E+01 8.08212E-04-2.49839E-06-1.19852E-01 1.50477E-13 1.11467E-13
 -1       678 2.00061E+01 1.91745E-02 1.56245E-05-1.27178E-01 8.79770E-14 2.35362E-13
 -1       679 2.00270E+01 4.06882E-02 3.67391E-05-1.44993E-01 5.84155E-14 2.22870E-13
 -1       680 2.00514E+01 6.57045E-02 6.12486E-05-1.75097E-01-3.11771E-14 1.26829E-13
 -1       681 2.00805E+01 9.45610E-02 8.95195E-05-2.19399E-01 8.19820E-14 2.65251E-14
 -1       682 2.01155E+01 1.27386E-01 1.21656E-04-2.79868E-01 7.03092E-15-3.47514E-14
 -1       683 2.01576E+01 1.63818E-01 1.57151E-04-3.58374E-01-3.26315E-14-1.39437E-13
 -1       684 2.02085E+01 2.02578E-01 1.94346E-04-4.56397E-01 8.99218E-14-2.94291E-14
 -1       685 2.02701E+01 2.40822E-01 2.29586E-04-5.74534E-01 7.25968E-15 1.11771E-13
 -1       686 2.03448E+01 2.73187E-01 2.55995E-04-7.11751E-01 2.92885E-14 1.91208E-14
 -1       687 2.04370E+01 2.90436E-01 2.61826E-04-8.64281E-01-1.69903E-13 3.96085E-14
 -1       688 2.05537E+01 2.77734E-01 2.28505E-04-1.02403E+00-1.85334E-15-3.44869E-14
 -1       689 2.07078E+01 2.12872E-01 1.28504E-04-1.17637E+00-4.42636E-14 5.18241E-14
 -1       690 2.09207E+01 6.54849E-02-7.74649E-05-1.29705E+00 2.12379E-14-4.71567E-14
 -1       691 2.12262E+01-2.00081E-01-4.36064E-04-1.34784E+00 5.87461E-15 3.33533E-14
 -1       692 2.16700E+01-6.12226E-01-1.02197E-03-1.27075E+00 8.20333E-14 1.53664E-13
 -1       693 2.22967E+01-1.15965E+00-1.58598E-03-9.87219E-01-9.29824E-14 3.16918E-13
 -1       694 2.31294E+01-1.74634E+00-1.98660E-03-3.97326E-01-3.62440E-13 2.34509E-13
 -1       695 2.40643E+01-2.06305E+00-1.48470E-03 5.57875E-01-2.68661E-14 1.59948E-13
 -1       696 2.48303E+01-1.68930E+00-1.96838E-03 1.76440E+00 1.41191E-13 1.19999E-13
 -1       697 2.49457E+01-9.37978E-02-4.42719E-02 2.68467E+00 2.05950E-13-4.05717E-14
 -1       698 2.45697E+01 2.14880E+00-5.56963E-02 2.42408E+00 4.92523E-14 8.69660E-15
 -1       699 2.41530E+01 3.58657E+00-6.67481E-02 7.63947E-01-7.72889E-14 2.61568E-14
 -1       700 2.42924E+01 2.92664E+00-6.66313E-02-1.24629E+00 3.73312E-14-4.90948E-15
 -1       701 2.46987E+01 7.88472E-01-5.21199E-02-2.13435E+00 6.55951E-14 1.09950E-14
 -1       702 2.48471E+01-1.23178E+00-5.13666E-03-1.58221E+00 6.94614E-14-2.23389E-13
 -1       703 2.42231E+01-2.06863E+00-7.62523E-03-3.91823E-01 2.26307E-13-6.76680E-13
 -1       704 2.32587E+01-1.94825E+00-2.51770E-03 7.24716E-01 1.81878E-13-6.72397E-13
 -1       705 2.23164E+01-1.34233E+00-1.27682E-03 1.44884E+00 2.78574E-13-3.83362E-13
 -1       706 2.16426E+01-8.00684E-01-3.65181E-04 1.86936E+00 2.17056E-13-3.36244E-13
 -1       707 1.73970E+01 1.91092E+00-1.08044E-03 7.03898E-01 1.29965E-13 8.99622E-14
 -1       708 2.08808E+01 7.60162E-02 1.62553E-03-2.00107E+00 1.75352E-13-4.88898E-13
 -1       709 1.90999E+01 8.89014E-01 8.56858E-04 2.55239E+00-9.43874E-14-1.78941E-13
 -1       710 1.74076E+01 1.90422E+00-1.14662E-03-7.16485E-01 3.34440E-13 4.67353E-13
 -1       711 1.80785E+01 1.49696E+00 1.66692E-03 1.90219E+00-1.23773E-13-2.64281E-13
 -1       712 2.71135E+01-4.49288E+00-6.00946E-02 1.39749E+00 1.62977E-14-5.40554E-13
 -1       713 1.80662E+01 1.50464E+00 1.53221E-03-1.89470E+00 8.29880E-14 6.28149E-13
 -1       714 1.90920E+01 8.90549E-01-3.91815E-04-2.54932E+00-3.05490E-14 1.51413E-13
 -1       715 2.00684E+01 3.46972E-01-1.92222E-04-2.61143E+00 5.67181E-14-2.10126E-13
 -1       716 2.02805E+01 1.67872E+00 7.27100E-05-1.14133E+00-1.71098E-13-2.16223E-13
 -1       717 2.10332E+01-5.24325E+00 4.82254E-02-5.66814E+00-2.59168E-15 5.71234E-13
 -1       718 1.52079E+01-2.80893E+00 8.91829E-02 5.84473E+00-1.97654E-14-4.80345E-14
 -1       719 1.17112E+01-1.06971E+00 1.35829E-01 4.25991E+00 2.85896E-13-5.45779E-14
 -1       720 2.69577E+01-4.07427E+00-3.47684E-02 2.44995E-01-8.74513E-14 4.48551E-13
 -1       721 1.19286E+01-2.60021E+00 1.32930E-01-5.53431E+00 7.97973E-16-3.18717E-13
 -1       722 2.82440E+01-2.67578E+00-5.91360E-02 5.05072E-01-4.73233E-14-1.19450E-13
 -1       723 2.01047E+01 3.52675E-01 6.37516E-04 1.50238E-01 1.49797E-13-7.70508E-14
 -1       724 1.99407E+01 2.51454E-02 8.55941E-07-1.68209E-01 2.61435E-14-1.03113E-13
 -1       725 2.02906E+01 1.07605E+00-1.39747E-04-7.24045E-01-1.60688E-13-1.86434E-13
 -1       726 2.79689E+01 1.67280E+00-1.19835E-01 2.21355E+00-1.60864E-13-2.75668E-13
 -1       727 2.00249E+01 2.29420E+00-1.65389E-03 6.38417E-01 1.72340E-13-2.21806E-13
 -1       728 2.20609E+01-4.97692E+00 5.28542E-02 5.02500E+00-1.92324E-13-2.89636E-13
 -1       729 2.77712E+01 5.48538E+00-1.54867E-01 1.07320E+00-2.78319E-14 6.19400E-14
 -1       730 2.00198E+01 2.30449E+00-1.53316E-03-6.29642E-01-5.23535E-14-2.84365E-13
 -1       731 1.19811E+01-1.65391E+00 1.30511E-01-4.90264E+00 3.52884E-13 4.55608E-13
 -1       732 2.02053E+01 6.13498E-01 9.75209E-04 4.21335E-01 2.12394E-13-7.46754E-14
 -1       733 2.80195E+01-2.26951E+00-5.26082E-02 1.34052E+00 2.88149E-13 1.44849E-14
 -1       734 2.81604E+01 7.70652E-01-1.14932E-01 2.72844E+00 2.69784E-13-9.99999E-14
 -1       735 2.74994E+01 5.81788E+00-1.75417E-01-4.89358E-01 2.19949E-13-5.04421E-13
 -1       736 1.08403E+01-2.24116E+00 1.33245E-01 5.18963E+00 1.17857E-14-5.36911E-13
 -1       737 7.73427E+00-8.53563E-01 1.56831E-01-2.60459E+00-3.05918E-14-2.35721E-13
 -1       738 7.83967E+00-3.41951E-01 1.66068E-01 1.53311E+00-5.46689E-14-3.70724E-13
 -1       739 1.79267E+01-4.35949E+00 9.35222E-02 5.74508E+00 7.94365E-14 2.21441E-13
 -1       740 2.29338E+01-5.36466E+00 2.78702E-02 4.05526E+00 8.06091E-14 3.29298E-13
 -1       741 2.82622E+01-2.38872E-01-5.08564E-02-2.46563E+00-2.59997E-13 7.05450E-13
 -1       742 2.75025E+01 3.65910E+00-1.38802E-01-2.58614E+00-1.45127E-13 6.46264E-13
 -1       743 2.77000E+01 6.06009E+00-1.65712E-01-8.93552E-01-3.82333E-15 3.96570E-13
 -1       744 2.57900E+01-5.18020E+00-4.97969E-03-2.79006E+00-5.70568E-14 8.58202E-14
 -1       745 1.65520E+01-4.01932E+00 1.05165E-01-6.43073E+00 6.79179E-14 4.60389E-13
 -1       746 9.66705E+00 1.11248E-01 1.21305E-01 4.56201E-01 1.70009E-13 3.05984E-13
 -1       747 2.84194E+01 3.29371E+00-1.37736E-01-2.07828E+00 1.26496E-13-7.60728E-13
 -1       748 2.01195E+01 2.06292E+00-1.14164E-03-8.55250E-01-1.02370E-13-2.61030E-13
 -1       749 1.99287E+01 2.52509E+00-1.51221E-03-1.26614E-01 4.48746E-14-2.54178E-13
 -1       750 2.20860E+01-4.75587E+00 3.15648E-02-3.90436E+00 5.35839E-14-3.95539E-13
 -1       751 2.00805E+01 3.31226E-01-5.89417E-04 2.63010E+00 3.45667E-13-2.53514E-14
 -1       752 2.45593E+01-4.66235E+00 8.95151E-03 2.81304E+00 9.25150E-14-3.12346E-13
 -1       753 1.20987E+01 1.92990E-01 6.51523E-02-2.22578E+00-2.92557E-14 3.59513E-13
 -1       754 2.07160E+01-1.51090E-01 1.67514E-03-2.45106E+00 4.35766E-14-4.25039E-13
 -1       755 1.99584E+01 2.45417E+00-1.53796E-03-3.85013E-01-7.56983E-15-2.59743E-13
 -1       756 2.02720E+01 1.30078E+00 8.17115E-04 6.31788E-01 1.83558E-13-1.05439E-13
 -1       757 2.02622E+01 4.32912E-01 8.28939E-06-9.53259E-02-3.66637E-14-1.74759E-13
 -1       758 2.02228E+01 2.34133E-01-1.18748E-05 3.45959E-02-8.03274E-14-1.03361E-13
 -1       759 2.01816E+01 1.04295E-01-1.45325E-05 1.11875E-01-8.62659E-14-1.03552E-13
 -1       760 2.01444E+01 2.23878E-02-1.03703E-05 1.52000E-01-1.96325E-14-1.08666E-13
 -1       761 2.01129E+01-2.60629E-02-8.91561E-06 1.67148E-01 3.97705E-15-6.25148E-14
 -1       762 2.00873E+01-5.10649E-02-8.44193E-06 1.66797E-01-5.26961E-14-2.35972E-14
 -1       763 2.00672E+01-5.95830E-02-7.91993E-06 1.58065E-01-6.36177E-14-2.34822E-14
 -1       764 2.00517E+01-5.64026E-02-7.02009E-06 1.46198E-01-2.94681E-14 3.27468E-14
 -1       765 2.00400E+01-4.46881E-02-5.66484E-06 1.35065E-01 4.33507E-15 1.04670E-14
 -1       766 2.00313E+01-2.63859E-02-3.91548E-06 1.27591E-01-3.98351E-14-4.61353E-14
 -1       767 2.00246E+01-2.52510E-03-1.87096E-06 1.26099E-01-1.62959E-13-1.39652E-14
 -1       768 2.00192E+01 2.65486E-02 4.28111E-07 1.32574E-01-1.26143E-13-2.64484E-14
 -1       769 2.00141E+01 6.09690E-02 3.05414E-06 1.48862E-01-1.93292E-13 5.71052E-14
 -1       770 2.00084E+01 1.01152E-01 6.11433E-06 1.76803E-01-1.27950E-13 7.48068E-14
 -1       771 2.00010E+01 1.47575E-01 9.74282E-06 2.18295E-01-2.06274E-14 7.60150E-14
 -1       772 1.99906E+01 2.00511E-01 1.41035E-05 2.75306E-01-1.81961E-14 7.36926E-14
 -1       773 1.99760E+01 2.59661E-01 1.93966E-05 3.49807E-01 1.06670E-13 7.24514E-14
 -1       774 1.99557E+01 3.23643E-01 2.58734E-05 4.43654E-01 1.78449E-13-8.92997E-15
 -1       775 1.99288E+01 3.89255E-01 3.38660E-05 5.58405E-01-8.01537E-15-1.45565E-14
 -1       776 1.98951E+01 4.50421E-01 4.38343E-05 6.95103E-01-1.06189E-13 1.42245E-13
 -1       777 1.98562E+01 4.96715E-01 5.63832E-05 8.54054E-01-1.15174E-13 2.76535E-13
 -1       778 1.98180E+01 5.11388E-01 7.22700E-05 1.03461E+00 1.79902E-14 1.80712E-13
 -1       779 1.97931E+01 4.68933E-01 9.41728E-05 1.23488E+00 9.74048E-14 1.10572E-13
 -1       780 1.98070E+01 3.32511E-01 1.34669E-04 1.45107E+00-4.09229E-14 1.16682E-13
 -1       781 1.99054E+01 5.23137E-02 2.74004E-04 1.67506E+00-1.28540E-13 3.09379E-13
 -1       782 2.01655E+01-4.32198E-01 7.97504E-04 1.88727E+00 5.17759E-14 1.78078E-13
 -1       783 2.07094E+01-1.17579E+00 2.20464E-03 2.03318E+00 8.43819E-14 1.24458E-13
 -1       784 2.16863E+01-2.17272E+00 9.45512E-04 1.99879E+00 4.66181E-14 4.71680E-14
 -1       785 2.32825E+01-3.25679E+00-1.76900E-03 1.56480E+00 2.82682E-14 1.59407E-13
 -1       786 2.54969E+01-3.80516E+00 9.74130E-04-1.02434E+00 1.57127E-13-2.87965E-13
 -1       787 2.34932E+01-3.29250E+00 4.69335E-03-2.22879E+00 9.06780E-14-1.24933E-13
 -1       788 2.19804E+01-2.11089E+00 2.83750E-03-2.67714E+00 1.51310E-13-4.89886E-14
 -1       789 2.12009E+01-1.06051E+00 1.87025E-03-2.63248E+00 3.91215E-14-9.46834E-14
 -1       790 2.01709E+01 2.23895E-01 2.39502E-05-3.08147E-02 9.34170E-14-4.73187E-14
 -1       791 2.00431E+01-4.53974E-02-1.28828E-05-1.75786E-01 4.00059E-14-3.71805E-14
 -1       792 2.00630E+01-2.13429E-02-1.18359E-05-1.76140E-01 4.22958E-14-9.76056E-15
 -1       793 2.00203E+01-5.26240E-02-1.16701E-05-1.52875E-01 6.53492E-14 9.91262E-15
 -1       794 2.00151E+01-4.32381E-02-9.77414E-06-1.39978E-01 8.35682E-15-5.71999E-14
 -1       795 2.00128E+01-2.80072E-02-6.87701E-06-1.30522E-01 2.69472E-14 4.07456E-14
 -1       796 2.00126E+01-7.93142E-03-3.28156E-06-1.26896E-01 7.09304E-14 4.11144E-14
 -1       797 2.00140E+01 1.66230E-02 1.09114E-06-1.31117E-01 5.16451E-14 1.77546E-13
 -1       798 2.00167E+01 4.57386E-02 6.24526E-06-1.45046E-01 8.00180E-14 1.36823E-13
 -1       799 2.00200E+01 7.97742E-02 1.22853E-05-1.70532E-01 5.32534E-14 1.37662E-13
 -1       800 2.00235E+01 1.19180E-01 1.93729E-05-2.09490E-01 5.67919E-14 7.82418E-14
 -1       801 2.00268E+01 1.64267E-01 2.76863E-05-2.63910E-01 1.07702E-13 6.92396E-14
 -1       802 2.00293E+01 2.14896E-01 3.73796E-05-3.35786E-01 1.53139E-14 5.75372E-14
 -1       803 2.00305E+01 2.70029E-01 4.85312E-05-4.26974E-01-3.95813E-16 2.90305E-14
 -1       804 2.00301E+01 3.27075E-01 6.10735E-05-5.38932E-01 1.62553E-14-1.21534E-14
 -1       805 2.00286E+01 3.80942E-01 7.47072E-05-6.72381E-01 1.14694E-13-1.01024E-14
 -1       806 2.00282E+01 4.22674E-01 8.87887E-05-8.26834E-01 5.56326E-15-1.14903E-14
 -1       807 2.00342E+01 4.37614E-01 1.02018E-04-9.99996E-01-9.90031E-14-1.98276E-13
 -1       808 2.00584E+01 4.03132E-01 1.11217E-04-1.18691E+00-7.98553E-14-8.60271E-14
 -1       809 2.01233E+01 2.86385E-01 1.07419E-04-1.37858E+00-1.29002E-13 8.50674E-14
 -1       810 2.02683E+01 4.33256E-02 6.44712E-05-1.55912E+00 6.83603E-14 1.69364E-13
 -1       811 2.05580E+01-3.78058E-01-7.71914E-05-1.69954E+00-1.07452E-13 3.64113E-14
 -1       812 2.10905E+01-1.02170E+00-2.79469E-04-1.73865E+00-1.17578E-13 1.90703E-13
 -1       813 2.19621E+01-1.85822E+00 3.63211E-04-1.57498E+00-1.19050E-13 3.44897E-13
 -1       814 2.33063E+01-2.75462E+00-1.26497E-02-9.74132E-01-2.37813E-13 1.16521E-13
 -1       815 2.49668E+01-3.15101E+00-1.81637E-03 1.43738E-01-3.74067E-14 2.27780E-13
 -1       816 2.40628E+01-3.07048E+00 4.21125E-03 1.32867E+00-1.19488E-14-2.28173E-13
 -1       817 2.26165E+01-2.22214E+00 9.02517E-04 2.08869E+00 1.35261E-14-2.61823E-13
 -1       818 1.18964E+01-6.84979E-01 8.96911E-02-3.60422E+00 1.78787E-13-3.97290E-13
 -1       819 2.01406E+01 1.88780E+00-3.41670E-04 1.99540E-01 1.15939E-13-2.14353E-13
 -1       820 1.94805E+01-2.91270E+00 4.61982E-02 4.81560E+00 1.78406E-13-3.21151E-13
 -1       821 1.58816E+01 1.42815E+00 1.75242E-02-5.09638E-03 1.69543E-13 6.00328E-13
 -1       822 1.96299E+01-3.67383E-01 7.19379E-04-3.14146E+00 2.19215E-15 4.59794E-14
 -1       823 1.52751E+01-2.32561E+00 5.59652E-02 4.94668E+00 3.26177E-13-6.03337E-14
 -1       824 2.31548E+01-4.34824E+00 2.00793E-02-3.66402E+00 1.00441E-13-1.17465E-13
 -1       825 2.02199E+01 4.13335E-01-1.80862E-04 1.12451E-01 1.50912E-13-2.56055E-14
 -1       826 1.53237E+01-1.02654E+00 4.85717E-02 4.32150E+00 2.41737E-13-1.49616E-13
 -1       827 1.79955E+01 3.61330E-01 1.54112E-03-2.91492E+00-8.70408E-14 5.76743E-13
 -1       828 2.00293E+01-5.43321E-02-1.27538E-05-1.66168E-01 5.65569E-14-4.91183E-14
 -1       829 1.58679E+01-2.26036E+00 6.43974E-02-4.73999E+00-5.11743E-17-1.46157E-13
 -1       830 2.02899E+01 7.28693E-01-2.27908E-04-2.92111E-01-7.32981E-14-1.96051E-13
 -1       831 1.01556E+01 3.30467E-01 9.27718E-02-8.34428E-01-6.95529E-14-3.14682E-13
 -1       832 1.64516E+01 1.12500E+00 6.91401E-03-1.82203E+00-7.00880E-14 2.86057E-13
 -1       833 1.62129E+01-2.22068E+00 6.61654E-02-5.19330E+00 1.03766E-13 1.08687E-12
 -1       834 2.10118E+01-4.08053E+00 4.70172E-02 4.08347E+00 9.71428E-14 4.69760E-13
 -1       835 2.02761E+01 9.43313E-01 2.48772E-05 5.54012E-01 1.92731E-13-7.65593E-14
 -1       836 2.45140E+01-4.33844E+00 1.63448E-02 1.74895E+00 2.37457E-13 2.18897E-13
 -1       837 1.15495E+01-3.98568E-01 8.64852E-02 3.15713E+00 1.34835E-13-3.18821E-13
 -1       838 1.93237E+01-3.56123E+00 4.36461E-02-5.25907E+00-2.18327E-13 4.50463E-13
 -1       839 1.27091E+01 4.14465E-01 7.22280E-02 2.08311E+00 1.59640E-13 2.13215E-14
 -1       840 2.01287E+01 1.92618E+00-3.67638E-04 3.45738E-03 5.42639E-14-2.21841E-13
 -1       841 1.90968E+01-3.18930E+00 3.69019E-02-4.23301E+00-4.93728E-14-4.28351E-13
 -1       842 1.96482E+01-3.70942E-01 3.75776E-03 3.15723E+00 1.01321E-13-4.36511E-13
 -1       843 2.02884E+01 1.12350E+00 2.04313E-04-5.36671E-01-1.29215E-13-2.00891E-13
 -1       844 2.59194E+01-3.37147E+00-1.65609E-03 2.33313E-01 1.98885E-13-3.03257E-13
 -1       845 2.00904E+01 2.43862E-02-9.07948E-06-1.59580E-01 8.69511E-15-6.15628E-14
 -1       846 2.15890E+01-1.40526E+00-1.79586E-03 2.48709E+00 2.06867E-13-1.18251E-13
 -1       847 1.79823E+01 3.63303E-01 5.77959E-03 2.92833E+00 3.37181E-14-6.64414E-14
 -1       848 2.01264E+01 1.01403E-01-4.68481E-06-1.15761E-01 3.71405E-14-4.25545E-14
 -1       849 1.64199E+01 1.11175E+00 7.97933E-04 1.83272E+00 5.08742E-14 8.09205E-14
 -1       850 2.10059E+01-8.32163E-01-2.36499E-03 2.65686E+00 3.09558E-13 1.20025E-13
 -1       851 2.19706E+01-3.47037E+00 1.31749E-02 3.76911E+00-5.82642E-14-7.40916E-14
 -1       852 2.01722E+01 1.77513E+00-3.51739E-04 3.81837E-01 1.27646E-13-2.26884E-13
 -1       853 2.02536E+01 6.29967E-01-4.56731E-04 2.97801E-01 1.70099E-13-4.94678E-14
 -1       854 1.49475E+01-3.13661E-01 3.36877E-02-3.54166E+00-2.25618E-14 4.96189E-13
 -1       855 2.02200E+01 1.58197E+00-2.71070E-04 5.34677E-01 1.43808E-13-1.83076E-13
 -1       856 1.19884E+01 5.75481E-01 5.16394E-02 1.08870E+00 6.64838E-15-1.85668E-13
 -1       857 2.01715E+01 1.78126E+00-3.71015E-04-3.78394E-01-3.20499E-14-2.50527E-13
 -1       858 2.04827E+01-7.92668E-01 3.76260E-04-2.98965E+00-1.43091E-13-3.49921E-13
 -1       859 2.02165E+01 1.59482E+00 1.11646E-04-5.33047E-01-8.10328E-14-2.18522E-13
 -1       860 2.03333E+01 7.29355E-01 8.53218E-04-1.92135E-01-4.12450E-14-1.47792E-13
 -1       861 2.01396E+01 1.89073E+00-3.19227E-04-1.92579E-01 2.12133E-14-1.99210E-13
 -1       862 1.42470E+01 1.11986E+00 2.76692E-02-3.31308E-01-1.97482E-13 7.22636E-13
 -1       863 2.03064E+01 2.27724E-01-1.40418E-05 4.63589E-02-6.88222E-14-1.39068E-13
 -1       864 2.02704E+01 9.36670E-02-8.39989E-06 1.02538E-01-5.42023E-14-1.11785E-13
 -1       865 2.02314E+01 9.14496E-03-3.68017E-06 1.31116E-01-3.64115E-16-2.97005E-14
 -1       866 2.01935E+01-3.96913E-02-2.29680E-06 1.41141E-01-1.83781E-14-6.74058E-14
 -1       867 2.01587E+01-6.29961E-02-2.00111E-06 1.39861E-01-6.85165E-14-8.05307E-14
 -1       868 2.01279E+01-6.80620E-02-2.25777E-06 1.32832E-01-3.69526E-14-9.95323E-14
 -1       869 2.01010E+01-5.99271E-02-2.22617E-06 1.24220E-01-2.99523E-14-1.23515E-13
 -1       870 2.00775E+01-4.18868E-02-1.88670E-06 1.17178E-01-3.79657E-14-8.27108E-14
 -1       871 2.00563E+01-1.59080E-02-1.48116E-06 1.14149E-01-7.86362E-14-1.56545E-13
 -1       872 2.00364E+01 1.70562E-02-1.26206E-06 1.17132E-01-1.12398E-13-7.35910E-14
 -1       873 2.00160E+01 5.67973E-02-1.17626E-06 1.27887E-01-9.14663E-14-7.22105E-14
 -1       874 1.99934E+01 1.03599E-01-1.17353E-06 1.48086E-01-1.34160E-13 3.21537E-14
 -1       875 1.99664E+01 1.57983E-01-1.21385E-06 1.79414E-01-4.48583E-14 5.80036E-14
 -1       876 1.99328E+01 2.20422E-01-1.24610E-06 2.23612E-01-9.37154E-14 7.53350E-14
 -1       877 1.98897E+01 2.90984E-01-1.18525E-06 2.82486E-01 9.27075E-14 1.56309E-13
 -1       878 1.98342E+01 3.68871E-01-8.78942E-07 3.57888E-01 4.04123E-14 1.19757E-13
 -1       879 1.97632E+01 4.51790E-01-3.80832E-08 4.51693E-01 5.44624E-14 6.86638E-14
 -1       880 1.96739E+01 5.35095E-01 1.91972E-06 5.65843E-01 1.66514E-14-1.25107E-14
 -1       881 1.95644E+01 6.10629E-01 6.17104E-06 7.02527E-01-5.53830E-15 2.37553E-14
 -1       882 1.94348E+01 6.65163E-01 1.48598E-05 8.64645E-01 6.34714E-14 1.21447E-13
 -1       883 1.92895E+01 6.78346E-01 3.16897E-05 1.05668E+00 6.05629E-14 2.45557E-13
 -1       884 1.91403E+01 6.20118E-01 6.94224E-05 1.28600E+00-6.88918E-14 2.52932E-13
 -1       885 1.90129E+01 4.47495E-01 1.84815E-04 1.56444E+00 2.51129E-14 1.33986E-13
 -1       886 1.89578E+01 1.00506E-01 8.05154E-04 1.90763E+00-6.02973E-14 1.08262E-13
 -1       887 1.90599E+01-4.96862E-01 1.99169E-03 2.33302E+00 1.02836E-13 1.57106E-13
 -1       888 1.95429E+01-1.48406E+00-4.01802E-03 2.84005E+00 1.75129E-13 1.90182E-13
 -1       889 2.00653E+01-2.63976E+00 1.85582E-02 3.47593E+00 1.28314E-13 2.31647E-13
 -1       890 2.12442E+01-2.74891E+00 8.65525E-03-3.74967E+00 1.54778E-13-3.20080E-13
 -1       891 2.00626E+01-4.35600E-02-2.72628E-08-1.26212E-01-1.44440E-14 4.73674E-14
 -1       892 2.00810E+01-5.87395E-02 1.81091E-07-1.35050E-01 3.29154E-14 2.76431E-14
 -1       893 2.00330E+01 7.78470E-03 1.95457E-07-1.22586E-01 1.64899E-14-1.27351E-13
 -1       894 2.00195E+01 4.27010E-02 7.55995E-07-1.31834E-01 6.20771E-14-1.03516E-14
 -1       895 2.00050E+01 8.39088E-02 1.52795E-06-1.50859E-01 8.67824E-14 1.31394E-14
 -1       896 1.99879E+01 1.31884E-01 2.55850E-06-1.81436E-01 2.76158E-14-2.27016E-15
 -1       897 1.99664E+01 1.87102E-01 3.94266E-06-2.25401E-01 4.33249E-14 8.82565E-14
 -1       898 1.99386E+01 2.49719E-01 5.82265E-06-2.84649E-01 5.95244E-14 5.29971E-14
 -1       899 1.99021E+01 3.19143E-01 8.41069E-06-3.61094E-01 6.36354E-14-4.76324E-14
 -1       900 1.98547E+01 3.93447E-01 1.20404E-05-4.56589E-01-7.89462E-15-8.91716E-14
 -1       901 1.97945E+01 4.68547E-01 1.72888E-05-5.72856E-01-1.01794E-14-5.89195E-14
 -1       902 1.97206E+01 5.37052E-01 2.52839E-05-7.11478E-01 6.55281E-15 2.07517E-14
 -1       903 1.96341E+01 5.86701E-01 3.83647E-05-8.74030E-01 9.63937E-15 1.52020E-13
 -1       904 1.95407E+01 5.98256E-01 6.07864E-05-1.06243E+00-1.62784E-13 5.52182E-14
 -1       905 1.94540E+01 5.42886E-01 9.59562E-05-1.27941E+00-2.06276E-13-1.15684E-16
 -1       906 1.94017E+01 3.79387E-01 1.29825E-04-1.52865E+00-7.07594E-14-5.03688E-14
 -1       907 1.94348E+01 5.17843E-02 1.47362E-04-1.81329E+00-5.01201E-14 1.76745E-13
 -1       908 1.96382E+01-5.08717E-01-4.23638E-04-2.13075E+00-2.23186E-13 1.74760E-13
 -1       909 2.02050E+01-1.39613E+00-6.73510E-03-2.42896E+00-1.25227E-13 5.89214E-14
 -1       910 2.13639E+01-2.56290E+00 2.16398E-02-2.63415E+00-7.11289E-14 4.62215E-14
 -1       911 1.47637E+01-7.43828E-01 3.88766E-02-3.52991E+00 1.99099E-13-2.27271E-13
 -1       912 2.03033E+01 4.26082E-01-3.28933E-04 6.65060E-02 1.36264E-13-5.13051E-14
 -1       913 1.87873E+01-1.17223E+00 1.09355E-02-3.88650E+00 2.48175E-13 3.69479E-13
 -1       914 2.00470E+01-2.10581E-02-1.22473E-07-1.21339E-01 3.06564E-14-6.26498E-14
 -1       915 2.01597E+01-3.39083E-02-1.23394E-06-1.54240E-01 2.45758E-14-6.10943E-14
 -1       916 2.03333E+01 4.29465E-01 8.92447E-05-4.68449E-02-3.05888E-15-1.56829E-13
 -1       917 1.83172E+01-1.07469E+00 1.30692E-02 3.94246E+00 1.59016E-13-2.60183E-13
 -1       918 1.26064E+01 3.61577E-01 4.25332E-02-1.91275E+00 4.25463E-15-5.22776E-13
 -1       919 2.02707E+01 2.29770E-01 2.53551E-05-4.42409E-02 8.78912E-14-1.11367E-13
 -1       920 1.49024E+01-8.05322E-01 2.72816E-02 3.60671E+00 2.69911E-13-1.19450E-13
 -1       921 1.82614E+01-1.78513E+00 4.59417E-02-4.47850E+00 7.42488E-14 5.89024E-13
 -1       922 1.56745E+01 3.92029E-01 2.20022E-02 2.77725E+00 1.56795E-14-9.49072E-14
 -1       923 1.73170E+01-1.72951E+00 2.63990E-02-3.85834E+00 1.27211E-13-1.56384E-13
 -1       924 2.03036E+01 1.10100E+00-9.38872E-04-3.60832E-01-6.78224E-14-1.68530E-13
 -1       925 2.02877E+01 1.33735E+00-6.77444E-04-1.96226E-01 1.01165E-14-1.58839E-13
 -1       926 2.01947E+01 1.47317E-02-3.39539E-06-1.42239E-01-2.03159E-14-1.06480E-13
 -1       927 2.11558E+01-2.24361E+00-9.40197E-04 3.46935E+00 2.20103E-13-3.17662E-13
 -1       928 2.01290E+01-5.79965E-02 2.21037E-06-1.53129E-01 5.58957E-14-4.26598E-15
 -1       929 2.07459E+01-1.67985E+00 3.78873E-03-3.36020E+00 1.13570E-13-2.43102E-13
 -1       930 2.01029E+01-6.46138E-02 3.05531E-06-1.45175E-01 5.12256E-14-4.33550E-14
 -1       931 1.32023E+01 8.55294E-01 2.47366E-02-2.45616E-01-2.22137E-14-3.57221E-13
 -1       932 1.41571E+01 3.49810E-01 1.90415E-02 2.13862E+00 1.05904E-13-1.89224E-14
 -1       933 2.02327E+01 9.79355E-02-6.73998E-06-1.08930E-01 2.02389E-14-1.42454E-13
 -1       934 2.03065E+01 6.66824E-01 2.33458E-04 2.06595E-01 1.37577E-13-4.38222E-14
 -1       935 2.03038E+01 1.00302E+00-2.87489E-04 3.67244E-01 1.37145E-13-1.01995E-13
 -1       936 2.02859E+01 1.33827E+00-1.85933E-04 1.96254E-01 1.11957E-13-2.38802E-13
 -1       937 2.02782E+01 1.40364E+00-5.98529E-05 6.50043E-02 9.59576E-14-1.63522E-13
 -1       938 2.02804E+01 1.40116E+00 8.62079E-05-6.87499E-02 2.99952E-14-1.93873E-13
 -1       939 2.03620E+01 1.98424E-01 1.09637E-05 5.02040E-02-3.35776E-14-1.21870E-13
 -1       940 2.03270E+01 6.96524E-02 4.10678E-07 8.54445E-02 4.41624E-14-9.35934E-14
 -1       941 2.02854E+01-1.01698E-02-2.06642E-07 1.02626E-01-3.51408E-14-7.48779E-14
 -1       942 2.02424E+01-5.41820E-02 4.00499E-07 1.07726E-01-2.53142E-14-5.56581E-14
 -1       943 2.02008E+01-7.22725E-02 4.55355E-07 1.05784E-01-1.55004E-14-2.16729E-14
 -1       944 2.01623E+01-7.16304E-02-2.97528E-07 1.00624E-01-6.77559E-14-3.72490E-14
 -1       945 2.01268E+01-5.71122E-02-3.78880E-07 9.52090E-02-2.27118E-14-2.61791E-15
 -1       946 2.00939E+01-3.18748E-02-6.70309E-07 9.18285E-02-2.42125E-14 1.28026E-14
 -1       947 2.00623E+01 2.29730E-03-1.64004E-06 9.22834E-02-8.10252E-14 3.02515E-14
 -1       948 2.00302E+01 4.46648E-02-3.19992E-06 9.80928E-02-9.38433E-14 9.86588E-16
 -1       949 1.99953E+01 9.52233E-02-5.31211E-06 1.10639E-01-6.84921E-14 4.92941E-14
 -1       950 1.99550E+01 1.54413E-01-8.03034E-06 1.31267E-01-2.76066E-15 1.42130E-13
 -1       951 1.99061E+01 2.22816E-01-1.14678E-05 1.61347E-01-9.81983E-16 2.35897E-13
 -1       952 1.98448E+01 3.00816E-01-1.57837E-05 2.02314E-01-4.88892E-15 2.01306E-13
 -1       953 1.97673E+01 3.88182E-01-2.11960E-05 2.55688E-01 7.69205E-14 2.32151E-13
 -1       954 1.96687E+01 4.83550E-01-2.80157E-05 3.23121E-01 1.43927E-14 1.44519E-13
 -1       955 1.95444E+01 5.83768E-01-3.66868E-05 4.06512E-01-6.45759E-14 1.28559E-13
 -1       956 1.93892E+01 6.83072E-01-4.77988E-05 5.08294E-01 5.78832E-14 1.98241E-13
 -1       957 1.91984E+01 7.72057E-01-6.21714E-05 6.32056E-01 1.67422E-13 1.57177E-13
 -1       958 1.89679E+01 8.36385E-01-8.21029E-05 7.83746E-01 8.83593E-14 1.70153E-13
 -1       959 1.86956E+01 8.55091E-01-1.14225E-04 9.73710E-01-1.02376E-13-6.18899E-14
 -1       960 1.83832E+01 7.98456E-01-1.65555E-04 1.21974E+00-1.80292E-13-9.23375E-14
 -1       961 1.80399E+01 6.24663E-01-1.79996E-04 1.55278E+00 9.75579E-15 2.29337E-15
 -1       962 1.76932E+01 2.67066E-01-5.99934E-04 2.02323E+00 7.70966E-14 2.38656E-13
 -1       963 1.74933E+01-3.65111E-01 1.28021E-02 2.70879E+00 1.35616E-13 1.32627E-13
 -1       964 2.01169E+01-5.87168E-02 5.85541E-06-1.09099E-01 2.53795E-14-5.50350E-14
 -1       965 2.00059E+01 7.79700E-02 1.14249E-07-1.20579E-01 4.13248E-14 2.55708E-14
 -1       966 2.00343E+01 3.21593E-02 1.83965E-06-1.08286E-01 7.92243E-14-3.38319E-14
 -1       967 1.99345E+01 1.93989E-01-3.48076E-06-1.73310E-01 5.36573E-15 4.30034E-14
 -1       968 1.98857E+01 2.65174E-01-5.37730E-06-2.16877E-01 7.71896E-14 6.25714E-14
 -1       969 1.98236E+01 3.45172E-01-7.35729E-06-2.74116E-01 4.61655E-14 1.13093E-13
 -1       970 1.97445E+01 4.32834E-01-9.44332E-06-3.46788E-01 1.62799E-14 1.35137E-13
 -1       971 1.96443E+01 5.25318E-01-1.16860E-05-4.36803E-01 2.77444E-15 3.91700E-14
 -1       972 1.95191E+01 6.17222E-01-1.41418E-05-5.46393E-01-2.11444E-14 1.24212E-13
 -1       973 1.93657E+01 6.99464E-01-1.65696E-05-6.78560E-01-5.31598E-14 9.70022E-15
 -1       974 1.91825E+01 7.57824E-01-1.74338E-05-8.37977E-01-4.78811E-14 1.16576E-13
 -1       975 1.89712E+01 7.70941E-01-1.20245E-05-1.03263E+00-1.08519E-13 1.32065E-13
 -1       976 1.87404E+01 7.07522E-01 1.59487E-05-1.27597E+00-2.06819E-13 1.06469E-14
 -1       977 1.85103E+01 5.23585E-01-6.46815E-06-1.58941E+00-1.69567E-13 1.72362E-13
 -1       978 1.83233E+01 1.54955E-01-1.00437E-03-2.00721E+00-9.18697E-14 1.92419E-13
 -1       979 1.83096E+01-4.76528E-01 2.72281E-03-2.56329E+00-1.19933E-13 7.43416E-14
 -1       980 2.03655E+01 4.01117E-01-1.62446E-04 2.48591E-02 1.41151E-13-9.24085E-14
 -1       981 2.03382E+01 2.10381E-01-3.35134E-05-5.12814E-02 9.01750E-14-1.42250E-13
 -1       982 2.03831E+01 3.89874E-01-4.30942E-04-1.11070E-02-2.58204E-14-1.44869E-13
 -1       983 2.03805E+01 6.70677E-01 9.07777E-04-1.01574E-01-8.60820E-15-1.51889E-13
 -1       984 1.48350E+01 2.19260E-01 1.53786E-02-2.30744E+00 7.92604E-14-4.51287E-13
 -1       985 2.03005E+01 1.20336E+00 1.03604E-04 3.02053E-01 9.31731E-14-2.01043E-13
 -1       986 1.99736E+01 1.31727E-01-1.65451E-06-1.41742E-01 7.07482E-14 1.24741E-13
 -1       987 2.03492E+01 8.33371E-01 8.24682E-04 1.90294E-01 1.09782E-13-1.48471E-13
 -1       988 2.02631E+01-2.15464E-03 1.09276E-06-1.17043E-01-6.48561E-15-1.55387E-13
 -1       989 2.01487E+01-7.04987E-02 8.59256E-06-1.15961E-01 1.14884E-14-3.84062E-14
 -1       990 2.00881E+01-3.66473E-02 5.34457E-06-1.04211E-01 2.54443E-14-3.29617E-14
 -1       991 2.00611E+01-6.07789E-03 3.55328E-06-1.03353E-01 2.85236E-14 6.54467E-14
 -1       992 1.44135E+01 8.79270E-01 8.35010E-03 9.26012E-01 1.70675E-15 8.22346E-15
 -1       993 1.46638E+01 8.49933E-01 9.15589E-03-1.10719E+00-1.60783E-14-5.95093E-13
 -1       994 2.03034E+01 7.95176E-02 2.06258E-06-9.53417E-02-6.63941E-15-1.92507E-13
 -1       995 1.64009E+01-4.63235E-01 1.58321E-02-2.96774E+00 2.92531E-14-8.82610E-14
 -1       996 2.02225E+01-4.83327E-02 1.03889E-06-1.24010E-01 1.43651E-14-1.29652E-13
 -1       997 2.03638E+01 9.52395E-01 3.42672E-04 1.37589E-01 1.01363E-13-2.37637E-13
 -1       998 2.03625E+01 1.02104E+00-6.44788E-04 6.12823E-02 1.09938E-13-1.63634E-13
 -1       999 2.04038E+01 7.51408E-01 3.84432E-04-6.87363E-02-9.42759E-15-1.52158E-13
 -1      1000 2.03812E+01 1.71214E-01-6.27599E-05-4.82722E-02 6.16784E-14-1.57831E-13
 -1      1001 2.03937E+01 1.52418E-01-7.42218E-05 4.14973E-02 2.83471E-14-7.76176E-14
 -1      1002 1.99775E+01 1.19832E-01-1.28517E-05-9.60090E-02 3.36094E-14 7.52518E-14
 -1      1003 2.03560E+01 3.71732E-02-2.23466E-05 5.94382E-02 1.46512E-14-8.24400E-14
 -1      1004 2.03109E+01-3.19274E-02-1.07957E-05 6.72549E-02-1.22933E-14-4.90071E-15
 -1      1005 2.02638E+01-6.70729E-02 7.74023E-07 6.88294E-02-3.85462E-14-6.08080E-14
 -1      1006 2.02177E+01-7.74909E-02-5.34507E-06 6.69834E-02-1.52566E-14-1.00673E-13
 -1      1007 2.01740E+01-6.96678E-02-8.46625E-07 6.38040E-02-3.65218E-16 4.59094E-14
 -1      1008 2.01326E+01-4.80358E-02-2.88204E-06 6.11838E-02-4.86260E-14-6.74973E-14
 -1      1009 2.00927E+01-1.54358E-02-5.46803E-06 6.04297E-02 1.04488E-15-1.08478E-13
 -1      1010 2.00527E+01 2.67217E-02-1.01842E-05 6.26344E-02-5.36636E-14-2.14404E-14
 -1      1011 2.00102E+01 7.80024E-02-1.66694E-05 6.87623E-02-1.85634E-14 6.72794E-14
 -1      1012 1.99623E+01 1.38632E-01-2.48344E-05 7.97152E-02 8.15591E-14 1.81364E-13
 -1      1013 1.99055E+01 2.09182E-01-3.47407E-05 9.63892E-02-4.73845E-15 1.44515E-13
 -1      1014 1.98356E+01 2.90233E-01-4.65595E-05 1.19713E-01-7.39199E-14 5.89234E-14
 -1      1015 1.97480E+01 3.81996E-01-6.05998E-05 1.50679E-01 5.32958E-14-5.55707E-15
 -1      1016 1.96372E+01 4.83870E-01-7.74292E-05 1.90383E-01 5.49140E-15-5.79189E-14
 -1      1017 1.94972E+01 5.93925E-01-9.81481E-05 2.40114E-01 5.59929E-16 2.76597E-14
 -1      1018 1.93211E+01 7.08311E-01-1.24939E-04 3.01553E-01 4.43200E-14 1.99619E-14
 -1      1019 1.91012E+01 8.20627E-01-1.62176E-04 3.77191E-01 7.23097E-14 6.29219E-14
 -1      1020 1.88283E+01 9.21283E-01-2.19148E-04 4.71174E-01 3.92605E-14-4.84567E-14
 -1      1021 1.84908E+01 9.96877E-01-3.20879E-04 5.90912E-01-4.14005E-14-1.54739E-13
 -1      1022 1.80737E+01 1.02917E+00-5.44482E-04 7.50020E-01-1.62507E-13-2.70513E-14
 -1      1023 1.75594E+01 9.93473E-01-5.17583E-04 9.70328E-01 1.24418E-13 5.12837E-14
 -1      1024 1.69137E+01 8.58111E-01-1.25888E-03 1.29453E+00 1.39494E-13 1.38337E-13
 -1      1025 2.04071E+01 7.96157E-01 5.22615E-04-1.85001E-02 3.31293E-14-1.14306E-13
 -1      1026 2.00198E+01 6.34495E-02-6.16738E-06-8.37077E-02 4.22152E-14 8.83449E-14
 -1      1027 1.97906E+01 3.47315E-01-3.79079E-05-1.79328E-01 3.02204E-14-1.05761E-14
 -1      1028 1.98669E+01 2.61330E-01-2.87217E-05-1.42635E-01 5.88187E-14-3.20965E-14
 -1      1029 1.95721E+01 5.46957E-01-5.96172E-05-2.86168E-01 4.65788E-14 1.15596E-13
 -1      1030 1.94186E+01 6.55274E-01-7.36256E-05-3.59677E-01-4.30857E-14 7.62742E-14
 -1      1031 1.92271E+01 7.61792E-01-9.25815E-05-4.49800E-01-6.33319E-14 9.75277E-14
 -1      1032 1.89907E+01 8.56789E-01-1.21068E-04-5.60668E-01-1.08234E-13 1.12548E-13
 -1      1033 1.87018E+01 9.26187E-01-1.63995E-04-6.99451E-01-4.29648E-14 1.24490E-13
 -1      1034 1.83513E+01 9.50304E-01-2.51508E-04-8.79435E-01-1.69247E-13 1.75244E-13
 -1      1035 1.79325E+01 8.99594E-01-1.84407E-04-1.12457E+00-1.74177E-13-1.41191E-14
 -1      1036 1.74351E+01 7.40196E-01 7.56062E-04-1.47494E+00-1.66895E-13-1.98922E-13
 -1      1037 1.68657E+01 4.19932E-01 2.30534E-03-1.99061E+00-1.41856E-13-1.62295E-13
 -1      1038 2.03449E+01 5.02801E-02-1.87793E-05-7.29579E-02-3.44475E-14-1.85323E-13
 -1      1039 2.04050E+01 3.55866E-01 1.73740E-04-2.06355E-03 1.14440E-13-2.21444E-13
 -1      1040 2.04175E+01 3.28257E-01 2.45444E-04 9.63963E-03-7.52365E-15-1.59516E-13
 -1      1041 1.61142E+01 5.74377E-01 4.81652E-03 1.79960E+00-3.02557E-14-3.62817E-15
 -1      1042 1.99277E+01 1.85597E-01-2.03784E-05-1.15268E-01 8.47609E-14 7.50914E-14
 -1      1043 1.96942E+01 4.43097E-01-4.80701E-05-2.26672E-01 3.96043E-14-5.47080E-15
 -1      1044 2.01839E+01-6.86826E-02 3.61245E-06-1.22028E-01 4.77543E-14-3.08063E-14
 -1      1045 2.00578E+01 1.59300E-02-4.13207E-07-7.72488E-02 1.86738E-14-3.71376E-14
 -1      1046 2.04105E+01 6.40512E-01-5.75879E-04 4.53738E-02 9.58070E-14-2.28373E-13
 -1      1047 2.00943E+01-2.28587E-02 4.22367E-06-7.55035E-02-3.10696E-15-6.39565E-15
 -1      1048 2.03015E+01-2.27318E-02 3.27049E-05-8.43529E-02-4.09279E-14-1.79159E-13
 -1      1049 1.51389E+01 1.08082E+00 3.22766E-03-1.78425E-02 3.03258E-14-2.83230E-13
 -1      1050 2.01701E+01-7.09039E-02 1.18452E-05-8.11271E-02 1.34077E-14-7.01576E-14
 -1      1051 2.01313E+01-5.23507E-02 7.39953E-06-7.72612E-02-3.93157E-15-4.82672E-14
 -1      1052 1.96914E+01 4.27289E-01-3.66777E-05-1.09755E-01-6.67405E-14 1.74528E-13
 -1      1053 1.59463E+01 1.02666E+00 3.90134E-04 8.06501E-01 2.58101E-14-2.95701E-14
 -1      1054 2.03599E+01 3.48188E-03 2.27625E-05 2.48904E-02 7.58617E-14-1.13024E-13
 -1      1055 2.03112E+01-5.16451E-02 1.69896E-05 2.68199E-02-4.86151E-14-9.57787E-14
 -1      1056 2.02623E+01-7.63806E-02 1.08851E-05 2.63963E-02-5.07414E-14-5.25754E-14
 -1      1057 2.02141E+01-7.73770E-02 1.85167E-05 2.54007E-02 2.39407E-14-1.25701E-13
 -1      1058 2.01677E+01-6.18056E-02 3.80404E-05 2.45588E-02-6.32998E-14-1.19792E-13
 -1      1059 2.01230E+01-3.32901E-02 3.12694E-05 2.40270E-02-3.06463E-14-7.71646E-14
 -1      1060 2.00786E+01 6.09157E-03 2.74786E-05 2.44411E-02 4.39292E-14-9.70145E-14
 -1      1061 2.00325E+01 5.53503E-02 2.60939E-05 2.62268E-02 4.76653E-14-2.07246E-14
 -1      1062 1.99819E+01 1.14376E-01 2.71674E-05 2.97566E-02 8.78210E-14 2.03174E-14
 -1      1063 1.99231E+01 1.83602E-01 3.07734E-05 3.53879E-02 3.14833E-14-7.08824E-14
 -1      1064 1.98521E+01 2.63669E-01 3.70493E-05 4.34838E-02-6.10946E-14 2.55880E-14
 -1      1065 1.97640E+01 3.55068E-01 4.62591E-05 5.44289E-02-5.95333E-14 5.26393E-14
 -1      1066 1.96531E+01 4.57737E-01 5.88754E-05 6.86472E-02-1.36270E-14-5.74118E-14
 -1      1067 1.95131E+01 5.70619E-01 7.57048E-05 8.66344E-02 9.36150E-14-1.03841E-13
 -1      1068 1.93365E+01 6.91180E-01 9.80069E-05 1.09028E-01 1.38253E-14-7.28025E-14
 -1      1069 1.91144E+01 8.14952E-01 1.27165E-04 1.36747E-01 1.35998E-14-6.58159E-14
 -1      1070 1.88361E+01 9.35162E-01 1.61884E-04 1.71260E-01 8.00427E-14-1.45021E-13
 -1      1071 1.84869E+01 1.04259E+00 1.85293E-04 2.15023E-01 1.36209E-14-2.69321E-13
 -1      1072 1.80462E+01 1.12581E+00 1.13895E-04 2.72092E-01-3.85544E-14-3.01105E-13
 -1      1073 1.74808E+01 1.17073E+00-6.25730E-04 3.49298E-01 1.82839E-14-1.81943E-13
 -1      1074 1.67752E+01 1.15110E+00 2.25474E-03 4.59830E-01 3.03422E-13-1.68766E-13
 -1      1075 1.97931E+01 3.28816E-01-2.44269E-05-8.70754E-02 2.89575E-14 8.61132E-14
 -1      1076 1.99942E+01 9.91871E-02-9.00620E-06-4.88050E-02 7.93230E-14-1.31556E-14
 -1      1077 2.04284E+01 2.54180E-01 3.47174E-04 9.24027E-03 3.62935E-14-6.47402E-14
 -1      1078 1.91968E+01 7.72859E-01-1.07725E-04-2.19655E-01-3.15104E-14 2.17438E-13
 -1      1079 1.94006E+01 6.52578E-01-7.69133E-05-1.74842E-01 5.18673E-14 1.95362E-13
 -1      1080 1.86234E+01 9.94951E-01-2.17892E-04-3.45337E-01-1.09317E-13 2.68749E-14
 -1      1081 1.82253E+01 1.07504E+00-3.15542E-04-4.35972E-01-1.40791E-14 5.55175E-14
 -1      1082 1.77219E+01 1.11727E+00-1.51039E-04-5.56992E-01 2.83679E-14-1.37034E-13
 -1      1083 1.70742E+01 1.10616E+00 9.83713E-04-7.41620E-01 1.08455E-13-2.96061E-13
 -1      1084 1.61159E+01 1.01160E+00 2.34945E-03-9.01122E-01-7.62431E-14-5.19120E-13
 -1      1085 2.03995E+01 1.20887E-01-3.14674E-04-3.10892E-02-7.78255E-15-5.88444E-14
 -1      1086 2.00418E+01 4.31912E-02-8.56360E-06-4.37668E-02 3.61171E-14 3.54890E-14
 -1      1087 2.01722E+01-6.57591E-02-4.45599E-06-4.28534E-02 2.85431E-14-7.77746E-14
 -1      1088 2.04257E+01 2.84883E-01 3.86203E-04-1.17381E-02 4.48448E-14-8.15294E-14
 -1      1089 2.04368E+01 4.76051E-01-2.78022E-04-3.33710E-03 2.37724E-14-8.22991E-14
 -1      1090 1.95628E+01 5.35974E-01-5.38318E-05-1.38674E-01-9.75021E-14 1.84318E-13
 -1      1091 2.04330E+01 5.67192E-01-2.11732E-05 9.12949E-03 4.51609E-14-9.65331E-14
 -1      1092 1.89417E+01 8.90139E-01-1.50886E-04-2.75281E-01-1.08100E-13-1.54396E-14
 -1      1093 1.98741E+01 2.41424E-01-1.62394E-05-6.98220E-02 1.56064E-13 6.57022E-15
 -1      1094 2.02124E+01-7.62481E-02-7.34370E-05-8.55161E-02 2.01206E-14-1.25785E-13
 -1      1095 1.99396E+01 1.65059E-01-1.13396E-05-5.72829E-02 3.09148E-14-4.83082E-16
 -1      1096 2.04033E+01 9.81237E-02-1.47035E-04 1.89803E-02 1.42010E-14-9.37609E-14
 -1      1097 2.00856E+01-3.27905E-03-9.35406E-06-4.15499E-02-3.15335E-15 3.33981E-14
 -1      1098 2.01284E+01-3.99811E-02-1.06146E-05-4.14969E-02-6.20593E-14-1.10798E-14
 -1      1099 2.02566E+01-6.19256E-02-4.31181E-05-8.75018E-02-2.83670E-14-1.75858E-13
 -1      1100 2.03620E+01 1.67267E-02 4.58485E-05-4.17382E-02-7.10117E-15-9.02697E-14
 -1      1101 2.02179E+01-7.81865E-02 4.96855E-05-4.45326E-02-2.14057E-14-9.85921E-14
 -1      1102 1.62645E+01 1.16833E+00-7.63271E-03-1.33902E-01 2.16061E-13-1.72715E-13
 -1      1103 2.02906E+01-6.76112E-02 6.07744E-05-1.66878E-02-6.04117E-14-9.12256E-14
 -1      1104 2.04360E+01 2.71928E-01 4.12560E-04-4.18363E-03 2.59720E-14-8.33876E-14
 -1      1105 2.03287E+01-3.69079E-02-4.11442E-05-3.12951E-02 3.01649E-15-1.46272E-13
 -1      1106 2.79633E+01 9.08665E+00 2.32537E+00-6.69852E+00-3.75810E-14 9.73471E-13
 -1      1107 2.05474E+01 6.22716E+00 2.09735E-01-3.90438E+00-1.89015E-14 4.79478E-14
 -1      1108 1.94342E+01 5.85285E+00 7.52830E-02-2.88837E+00-1.14353E-14-3.22997E-13
 -1      1109 1.90259E+01 5.72590E+00 6.03968E-02-2.23564E+00-7.32400E-15-4.86190E-13
 -1      1110 1.88397E+01 5.66919E+00 5.75551E-02-1.70203E+00-3.65506E-15-5.51417E-13
 -1      1111 1.87462E+01 5.64054E+00 5.55321E-02-1.23455E+00-2.05305E-15-5.74677E-13
 -1      1112 1.86973E+01 5.62532E+00 5.37693E-02-8.04667E-01-7.65880E-16-5.77831E-13
 -1      1113 1.86733E+01 5.61777E+00 5.25508E-02-3.93032E-01 4.56883E-16-5.61830E-13
 -1      1114 1.86665E+01 5.61561E+00 5.21621E-02 8.47140E-03 1.66121E-15-5.48220E-13
 -1      1115 1.86744E+01 5.61813E+00 5.26745E-02 4.10387E-01 3.82485E-15-5.33458E-13
 -1      1116 1.86995E+01 5.62607E+00 5.40587E-02 8.23394E-01 4.59268E-15-5.11150E-13
 -1      1117 1.87500E+01 5.64189E+00 5.62588E-02 1.25595E+00 6.51389E-15-4.58488E-13
 -1      1118 1.88451E+01 5.67107E+00 5.84597E-02 1.72782E+00 8.11851E-15-3.75209E-13
 -1      1119 1.90314E+01 5.72754E+00 6.03984E-02 2.26890E+00 1.15533E-14-2.35294E-13
 -1      1120 1.94309E+01 5.85004E+00 6.92005E-02 2.92901E+00 1.64591E-14 1.76300E-14
 -1      1121 2.04534E+01 6.18202E+00 1.53259E-01 3.87894E+00 1.54599E-14 4.97331E-13
 -1      1122 2.52175E+01 7.99442E+00 1.43045E+00 5.84666E+00 2.77556E-14 1.41576E-12
 -1      1123 2.88130E+01 3.61645E+00 1.27134E+00-4.21724E+00-1.44967E-13 1.55820E-12
 -1      1124 2.02275E+01-1.77759E-01-6.16351E-01-1.09913E-01-3.98917E-14 1.23346E-12
 -1      1125 1.88331E+01-9.63520E-02-2.36346E-01 6.25227E-02-2.09069E-14 7.65131E-13
 -1      1126 1.84987E+01-4.80554E-02-5.95773E-02 4.04988E-02-1.19045E-14 4.20768E-13
 -1      1127 1.84431E+01-2.46145E-02-1.51869E-02 2.67834E-02-1.09314E-14 1.79905E-13
 -1      1128 1.85244E+01-1.30385E-02-4.95078E-03 1.90567E-02-9.40502E-15 7.14671E-14
 -1      1129 1.86706E+01-6.59443E-03-1.44259E-03 1.41032E-02-4.51592E-15-5.63282E-14
 -1      1130 1.88423E+01-2.82745E-03 5.92118E-04 1.06628E-02 3.06005E-15-8.18026E-14
 -1      1131 1.90168E+01-6.00313E-04 1.90643E-03 8.11396E-03-1.11157E-14-1.28703E-13
 -1      1132 1.91816E+01 6.82046E-04 2.64312E-03 6.14562E-03-1.36428E-14-2.85509E-13
 -1      1133 1.93297E+01 1.35756E-03 2.93227E-03 4.59287E-03-6.28588E-15-4.30924E-13
 -1      1134 1.94585E+01 1.63230E-03 2.90284E-03 3.35813E-03 3.15139E-14-4.33974E-13
 -1      1135 1.95676E+01 1.63742E-03 2.65692E-03 2.37619E-03-1.43991E-14-4.97997E-13
 -1      1136 1.96585E+01 1.45717E-03 2.26474E-03 1.59959E-03-3.75736E-15-5.82745E-13
 -1      1137 1.97339E+01 1.14398E-03 1.76893E-03 9.92613E-04-1.11196E-14-5.60968E-13
 -1      1138 1.97970E+01 7.27440E-04 1.19002E-03 5.28950E-04-2.87144E-14-5.56831E-13
 -1      1139 1.98520E+01 2.20150E-04 5.31040E-04 1.91188E-04-2.39547E-14-5.98026E-13
 -1      1140 1.99035E+01-3.77928E-04-2.18865E-04-2.87751E-05-1.33942E-14-6.91722E-13
 -1      1141 1.99569E+01-1.07580E-03-1.08124E-03-1.28661E-04 3.47990E-14-7.64964E-13
 -1      1142 2.00182E+01-1.88779E-03-2.08507E-03-9.42045E-05 6.73772E-15-7.40198E-13
 -1      1143 2.00948E+01-2.82908E-03-3.26260E-03 1.02953E-04-6.01090E-15-6.51479E-13
 -1      1144 2.01948E+01-3.90957E-03-4.64301E-03 5.07766E-04-2.26937E-14-6.22791E-13
 -1      1145 2.03282E+01-5.12448E-03-6.24188E-03 1.18435E-03 5.83116E-15-6.34555E-13
 -1      1146 2.05061E+01-6.43953E-03-8.04276E-03 2.21763E-03-2.38174E-14-7.69834E-13
 -1      1147 2.07410E+01-7.76753E-03-9.96513E-03 3.71169E-03-5.40019E-15-8.61948E-13
 -1      1148 2.10464E+01-8.93239E-03-1.18099E-02 5.77978E-03-1.85433E-14-9.39168E-13
 -1      1149 2.14345E+01-9.61675E-03-1.31706E-02 8.51568E-03 4.18812E-14-9.85037E-13
 -1      1150 2.19142E+01-9.29378E-03-1.33022E-02 1.19277E-02 2.86143E-15-1.09951E-12
 -1      1151 2.24856E+01-7.15761E-03-1.09579E-02 1.58053E-02-7.67908E-15-1.11433E-12
 -1      1152 2.31312E+01-2.10247E-03-4.27257E-03 1.94812E-02 4.73819E-14-8.68704E-13
 -1      1153 2.38041E+01 7.12858E-03 9.07984E-03 2.14754E-02-8.36513E-14-7.05568E-13
 -1      1154 2.44124E+01 2.13960E-02 3.09948E-02 1.91171E-02 4.72159E-14-6.44009E-13
 -1      1155 2.48061E+01 3.99470E-02 6.06935E-02 8.53482E-03-2.84538E-15-5.99287E-13
 -1      1156 2.47829E+01 5.84244E-02 9.11228E-02-1.41836E-02 1.06902E-14-7.49241E-13
 -1      1157 2.41341E+01 6.72906E-02 1.05944E-01-4.95608E-02-1.04612E-14-9.10383E-13
 -1      1158 2.27567E+01 5.31863E-02 8.26830E-02-8.92983E-02 8.24471E-15-7.14165E-13
 -1      1159 2.08088E+01 8.02148E-03 9.11464E-03-1.13643E-01 3.53416E-14-9.60662E-13
 -1      1160 1.87968E+01-5.64712E-02-9.40378E-02-9.99433E-02-7.51482E-15-1.01985E-12
 -1      1161 1.74348E+01-1.05694E-01-1.71510E-01-4.23123E-02-2.12131E-14-9.98340E-13
 -1      1162 1.72609E+01-1.05687E-01-1.71400E-01 3.52917E-02 4.47420E-14-1.04729E-12
 -1      1163 1.82741E+01-5.59344E-02-9.30696E-02 9.29245E-02-2.27231E-14-8.03843E-13
 -1      1164 1.99307E+01 9.32020E-03 1.15534E-02 1.05998E-01-2.51042E-14-8.73426E-13
 -1      1165 2.15064E+01 5.49037E-02 8.63576E-02 8.01264E-02-2.99079E-14-9.08496E-13
 -1      1166 2.24870E+01 6.84091E-02 1.09529E-01 3.80891E-02 1.64608E-14-8.07299E-13
 -1      1167 2.27164E+01 5.70782E-02 9.17495E-02-7.81361E-06 5.52440E-14-3.99505E-13
 -1      1168 2.23183E+01 3.34662E-02 5.36283E-02-2.48305E-02 4.42324E-14-1.62665E-13
 -1      1169 2.15513E+01 6.76607E-03 9.94916E-03-3.48726E-02 4.95184E-14-2.03615E-13
 -1      1170 2.07113E+01-1.78331E-02-3.03780E-02-2.94201E-02 6.44745E-14 5.36352E-13
 -1      1171 2.01035E+01-3.82724E-02-4.79305E-02-4.06740E-03-3.46396E-14 1.82240E-13
 -1      1172 1.99568E+01 1.45198E-02 2.52994E-02 1.53949E-02 6.20450E-14 2.96867E-13
 -1      1173 2.77927E+01 5.25757E-01 3.77105E-01 1.96670E+00-2.09832E-14 2.15655E-12
 -1      1174 2.00851E+01-6.62406E-02-5.73626E-01 1.29478E-01 1.04083E-14 1.82535E-12
 -1      1175 1.89076E+01-4.06072E-02-1.93235E-01 1.94164E-02 1.20581E-14 1.45679E-12
 -1      1176 1.85276E+01-2.14191E-02-5.05615E-02 1.45781E-03 7.50962E-15 1.21528E-12
 -1      1177 1.84559E+01-1.24049E-02-1.34059E-02-4.08161E-03 2.47068E-15 1.03780E-12
 -1      1178 1.85308E+01-7.39817E-03-4.65520E-03-5.53728E-03 1.02982E-14 8.41348E-13
 -1      1179 1.86739E+01-4.32016E-03-1.92185E-03-5.72328E-03-9.25415E-15 8.06745E-13
 -1      1180 1.88438E+01-2.34832E-03-3.33731E-04-5.43794E-03 8.34619E-16 7.87289E-13
 -1      1181 1.90175E+01-1.07709E-03 7.85737E-04-4.93307E-03 3.74801E-15 6.33802E-13
 -1      1182 1.91817E+01-2.76528E-04 1.49457E-03-4.32133E-03 5.81046E-15 6.28407E-13
 -1      1183 1.93295E+01 1.97747E-04 1.85307E-03-3.66804E-03 2.47152E-14 4.78319E-13
 -1      1184 1.94581E+01 4.40989E-04 1.94460E-03-3.01379E-03 9.55307E-15 3.89635E-13
 -1      1185 1.95672E+01 5.16580E-04 1.84357E-03-2.38236E-03-3.45782E-15 5.15228E-13
 -1      1186 1.96582E+01 4.65627E-04 1.60347E-03-1.78519E-03-5.91730E-15 4.53462E-13
 -1      1187 1.97335E+01 3.12673E-04 1.25680E-03-1.22492E-03 2.43360E-14 2.09537E-13
 -1      1188 1.97967E+01 6.93891E-05 8.18008E-04-6.98330E-04 1.85638E-15-7.70978E-14
 -1      1189 1.98518E+01-2.62867E-04 2.86378E-04-1.98803E-04-2.76894E-14-9.30730E-14
 -1      1190 1.99034E+01-6.91030E-04-3.51572E-04 2.81249E-04 2.41898E-14-1.21445E-13
 -1      1191 1.99569E+01-1.22837E-03-1.11998E-03 7.47882E-04 2.29923E-14-3.65678E-13
 -1      1192 2.00183E+01-1.89214E-03-2.05123E-03 1.20265E-03-2.35496E-14-3.03094E-13
 -1      1193 2.00949E+01-2.70014E-03-3.18265E-03 1.63878E-03-1.79585E-14 1.80660E-14
 -1      1194 2.01950E+01-3.66505E-03-4.55077E-03 2.03576E-03-7.72494E-16 1.33057E-13
 -1      1195 2.03283E+01-4.78495E-03-6.18123E-03 2.35176E-03-5.88781E-15-1.62559E-13
 -1      1196 2.05061E+01-6.02702E-03-8.07006E-03 2.51245E-03-2.52419E-15-2.69538E-13
 -1      1197 2.07410E+01-7.30076E-03-1.01500E-02 2.39578E-03-1.34818E-14 4.09286E-14
 -1      1198 2.10460E+01-8.41546E-03-1.22320E-02 1.81250E-03 4.07475E-14-4.06966E-14
 -1      1199 2.14335E+01-9.01825E-03-1.39082E-02 4.86649E-04-1.66460E-14-8.47707E-14
 -1      1200 2.19124E+01-8.51597E-03-1.44070E-02-1.95097E-03 9.95265E-15-2.34038E-13
 -1      1201 2.24825E+01-6.00721E-03-1.24123E-02-5.92325E-03-1.25475E-15-7.41230E-14
 -1      1202 2.31264E+01-3.04762E-04-5.93159E-03-1.17535E-02 7.37832E-15-1.19176E-13
 -1      1203 2.37971E+01 9.77956E-03 7.53680E-03-1.92907E-02-3.54914E-15-2.02276E-13
 -1      1204 2.44025E+01 2.46151E-02 3.00382E-02-2.72087E-02 2.10647E-14 8.01616E-14
 -1      1205 2.47929E+01 4.21524E-02 6.07205E-02-3.20672E-02-4.48704E-14 5.15584E-13
 -1      1206 2.47660E+01 5.60787E-02 9.20074E-02-2.79100E-02 1.86665E-14 2.84998E-13
 -1      1207 2.41148E+01 5.59575E-02 1.07069E-01-8.12719E-03-2.45160E-14 2.10963E-13
 -1      1208 2.27393E+01 3.22864E-02 8.43333E-02 2.89833E-02 3.18005E-14 2.41585E-13
 -1      1209 2.07991E+01-1.29255E-02 1.37172E-02 7.28103E-02 5.18348E-14 1.77691E-13
 -1      1210 1.87979E+01-5.89744E-02-8.34333E-02 9.95565E-02-1.90893E-14 2.06932E-13
 -1      1211 1.74448E+01-7.78464E-02-1.54907E-01 8.70197E-02 6.57278E-14 1.08601E-13
 -1      1212 1.72720E+01-5.90425E-02-1.55234E-01 3.54207E-02-6.54598E-14 6.19969E-13
 -1      1213 1.82762E+01-1.88998E-02-8.69440E-02-2.81841E-02 2.44271E-14 5.75207E-13
 -1      1214 1.99182E+01 1.72306E-02 3.66839E-03-7.13417E-02 1.68261E-14 3.09225E-13
 -1      1215 2.14820E+01 3.57150E-02 6.89909E-02-8.00091E-02 4.76607E-14 6.19782E-14
 -1      1216 2.24589E+01 3.68520E-02 9.08600E-02-6.15567E-02-2.85787E-14 1.65305E-13
 -1      1217 2.26921E+01 2.70779E-02 7.78683E-02-3.16224E-02 1.50305E-14 2.63594E-13
 -1      1218 2.23013E+01 1.19673E-02 4.64786E-02-2.55303E-03-4.12391E-14 7.86524E-14
 -1      1219 2.15423E+01-5.43586E-03 8.22718E-03 1.96496E-02 6.04474E-14-3.49921E-13
 -1      1220 2.07093E+01-2.23435E-02-2.90638E-02 3.14597E-02-3.55586E-14-4.56434E-13
 -1      1221 2.01012E+01-2.79990E-02-4.40822E-02 2.37250E-02 1.01688E-13-4.14088E-13
 -1      1222 1.99629E+01 1.35138E-02 2.63567E-02-1.31997E-02-1.69825E-14-3.99889E-13
 -1      1223 2.00130E+01-3.81627E-02 2.28258E-02-1.22298E-02-3.94423E-13-3.62251E-14
 -1      1224 1.99643E+01 1.06842E-01-5.39279E-02-2.30565E-03-7.75336E-13-4.51644E-14
 -1      1225 1.99647E+01 7.45605E-01-5.58235E-02 2.56351E-02-4.43499E-13 1.25563E-13
 -1      1226 1.99751E+01 1.77056E+00-3.84681E-02 4.06432E-02-1.51559E-12-2.99433E-14
 -1      1227 1.99919E+01 3.04561E+00-1.32719E-02 4.95959E-02-1.39307E-12 3.04741E-14
 -1      1228 2.00142E+01 4.39553E+00 1.91460E-02 5.13358E-02-7.74304E-13 5.23128E-15
 -1      1229 2.00390E+01 5.61783E+00 5.40456E-02 4.38222E-02-1.82049E-13 3.43367E-14
 -1      1230 2.00588E+01 6.48683E+00 8.24361E-02 2.52825E-02-5.06799E-13-1.88228E-13
 -1      1231 2.00665E+01 6.79898E+00 9.32930E-02-1.22244E-04-9.38583E-13-9.40159E-14
 -1      1232 2.00587E+01 6.48092E+00 8.22482E-02-2.55026E-02-1.01769E-12 2.02289E-13
 -1      1233 2.00385E+01 5.60741E+00 5.37292E-02-4.38991E-02 2.99274E-14-6.68996E-14
 -1      1234 2.00146E+01 4.38193E+00 1.87689E-02-5.17274E-02 1.92485E-14 1.62801E-13
 -1      1235 1.99916E+01 3.03158E+00-1.33141E-02-4.97100E-02-1.38521E-13-1.13311E-13
 -1      1236 1.99747E+01 1.75588E+00-3.89806E-02-4.10529E-02-8.20261E-13-2.57034E-14
 -1      1237 1.99631E+01 7.18336E-01-6.08790E-02-3.24497E-02-9.99714E-13 5.58776E-14
 -1      1238 1.99504E+01 1.18908E-01-5.35920E-02 9.72957E-03-7.61709E-13 6.61034E-14
 -1      1239 2.00160E+01-4.15422E-02 2.44830E-02 1.28229E-02-2.69452E-13 5.90411E-14
 -1      1240-1.10614E+00-2.60352E+01-3.97540E+00-2.33371E+00-2.96430E-14-9.23775E-14
 -1      1241-1.89933E+00-1.68000E+01-3.23608E+00-4.50738E+00 4.62075E-13 5.32352E-14
 -1      1242 4.85934E-03-3.44358E+00-1.94406E+00-7.09420E-01 1.44063E-12 1.00342E-12
 -1      1243 9.25618E+00 7.67854E+00-2.28626E-01 8.28633E+00 1.84275E-12 1.75082E-12
 -1      1244 2.64796E+01 1.15370E+01 1.60390E+00 1.65918E+01 1.17861E-12 1.78368E-12
 -1      1245 4.70501E+01 8.51671E+00 3.06711E+00 1.80376E+01 6.90392E-13 1.41753E-12
 -1      1246 6.39739E+01 3.32442E+00 4.13310E+00 1.07764E+01-1.09496E-14-2.11609E-13
 -1      1247 6.77149E+01 1.88464E+00 4.29280E+00-2.47611E+00 5.28952E-14-1.13679E-12
 -1      1248 5.75074E+01 4.95981E+00 3.63428E+00-1.42838E+01 1.46994E-13-6.19171E-13
 -1      1249 3.77608E+01 9.77993E+00 2.28915E+00-1.80646E+01 2.15494E-13-5.72875E-13
 -1      1250 1.79399E+01 1.03561E+01 6.31841E-01-1.32651E+01 5.20028E-13-4.36540E-13
 -1      1251 4.09695E+00 3.45090E+00-1.05633E+00-4.01629E+00 9.33920E-13-6.96110E-13
 -1      1252-1.42875E+00-8.98127E+00-2.49449E+00 3.07352E+00 1.05072E-12-4.66072E-13
 -1      1253-1.56421E+00-2.06020E+01-3.42547E+00 4.08558E+00 1.18083E-12-2.97845E-13
 -1      1254-8.51795E-01-2.58822E+01-3.78219E+00 3.98858E-01-5.25496E-13-1.60538E-13
 -1      1255-1.42007E+00-2.21455E+01-3.54284E+00-3.68944E+00-1.04372E-12-2.49828E-13
 -1      1256-1.73593E+00-1.14584E+01-2.72603E+00-3.73935E+00-1.18683E-12-5.09648E-13
 -1      1257 2.09337E+00 9.92975E-01-1.40853E+00 1.99017E+00-8.99281E-13-5.81979E-13
 -1      1258 1.28785E+01 9.17716E+00 1.50840E-01 1.05888E+01-9.27258E-13-1.06182E-12
 -1      1259 3.02684E+01 1.07169E+01 1.73250E+00 1.71124E+01-5.81646E-13-7.48956E-13
 -1      1260 4.99271E+01 7.17978E+00 3.13932E+00 1.70834E+01-2.03004E-13-2.55351E-13
 -1      1261 6.44602E+01 2.73714E+00 4.02473E+00 9.03640E+00-1.73125E-14 2.64788E-13
 -1      1262 6.78958E+01 1.73784E+00 4.26536E+00-3.69942E+00-1.04791E-13 1.07087E-12
 -1      1263 5.85451E+01 5.13119E+00 3.76743E+00-1.47074E+01-2.08944E-13 8.70193E-13
 -1      1264 4.00676E+01 1.00653E+01 2.60897E+00-1.85867E+01-5.69544E-13 1.00719E-12
 -1      1265 2.06928E+01 1.13466E+01 1.08257E+00-1.47057E+01-6.10845E-13 6.95444E-13
 -1      1266 6.55111E+00 6.23677E+00-5.91614E-01-6.42684E+00-7.37188E-13 6.02407E-13
 -1      1267-4.76115E-01-4.58801E+00-2.08803E+00 1.28774E+00-7.85594E-13 5.22693E-13
 -1      1268-1.96151E+00-1.72824E+01-3.32837E+00 4.49899E+00-3.37508E-13 1.12854E-13
 -1      1269-1.28641E+00-2.57909E+01-3.96607E+00 2.34820E+00-2.91489E-13 1.24747E-13
 -1      1270 2.22666E+01 1.83818E+00-7.25903E-01-2.79083E+00-5.44009E-14 7.59670E-13
 -1      1271 2.03592E+01 4.69019E+00-4.86518E-02-3.30748E+00-1.39513E-13-1.31430E-13
 -1      1272 2.08666E+01 4.81068E+00-1.13394E-01-4.16167E+00-1.83964E-13 6.63636E-14
 -1      1273 1.95312E+01 4.99316E+00-1.96974E-02-2.65495E+00-1.32394E-13-3.96825E-13
 -1      1274 1.98296E+01 5.09007E+00 2.35794E-04-3.04602E+00-1.53856E-13-2.84578E-13
 -1      1275 2.05259E+01 3.95272E+00-2.59069E-02-3.07553E+00-2.42729E-13-1.12868E-13
 -1      1276 1.91839E+01 5.08436E+00-3.54584E-03-2.07132E+00-9.64819E-14-5.17916E-13
 -1      1277 1.93325E+01 5.13954E+00 1.05462E-02-2.36413E+00-1.14624E-13-4.64573E-13
 -1      1278 1.97530E+01 4.36580E+00-2.45231E-02-2.48984E+00-2.01686E-13-3.29826E-13
 -1      1279 1.90093E+01 5.13078E+00 3.28468E-03-1.56511E+00-6.97550E-14-5.70700E-13
 -1      1280 1.90869E+01 5.16032E+00 1.25436E-02-1.81519E+00-7.89629E-14-5.52749E-13
 -1      1281 1.93916E+01 4.55476E+00-2.00485E-02-1.93251E+00-1.45355E-13-4.38344E-13
 -1      1282 1.89158E+01 5.16070E+00 6.52478E-03-1.11742E+00-3.35986E-14-5.82347E-13
 -1      1283 1.89581E+01 5.17700E+00 1.26763E-02-1.33890E+00-4.64281E-14-5.71976E-13
 -1      1284 1.92060E+01 4.66143E+00-1.61259E-02-1.44496E+00-1.00212E-13-4.77375E-13
 -1      1285 1.88645E+01 5.18045E+00 8.19294E-03-6.94129E-01-1.05848E-14-5.79176E-13
 -1      1286 1.88873E+01 5.18925E+00 1.19637E-02-9.04402E-01-1.67722E-14-5.82472E-13
 -1      1287 1.91031E+01 4.72676E+00-1.40401E-02-1.00468E+00-4.24001E-14-4.84231E-13
 -1      1288 1.88407E+01 5.19235E+00 9.29473E-03-2.89305E-01 1.82720E-14-5.66928E-13
 -1      1289 1.88505E+01 5.19616E+00 1.10656E-02-4.91487E-01 7.20691E-15-5.72924E-13
 -1      1290 1.90476E+01 4.76559E+00-1.29358E-02-5.89057E-01-4.21386E-15-4.73187E-13
 -1      1291 1.88370E+01 5.19729E+00 1.02273E-02 1.08245E-01 4.21218E-14-5.45466E-13
 -1      1292 1.88366E+01 5.19715E+00 1.01551E-02-9.14942E-02 3.18404E-14-5.55916E-13
 -1      1293 1.90235E+01 4.78359E+00-1.24795E-02-1.89193E-01 4.09985E-14-4.66779E-13
 -1      1294 1.88523E+01 5.19580E+00 1.11648E-02 5.08824E-01 6.92055E-14-5.29445E-13
 -1      1295 1.88417E+01 5.19171E+00 9.23293E-03 3.06220E-01 6.28296E-14-5.40488E-13
 -1      1296 1.90244E+01 4.78296E+00-1.24950E-02 2.05849E-01 8.36728E-14-4.46462E-13
 -1      1297 1.88907E+01 5.18811E+00 1.20965E-02 9.23227E-01 9.16463E-14-5.03380E-13
 -1      1298 1.88670E+01 5.17910E+00 8.14191E-03 7.11989E-01 8.74333E-14-5.19673E-13
 -1      1299 1.90503E+01 4.76353E+00-1.29806E-02 6.06390E-01 1.27923E-13-4.29715E-13
 -1      1300 1.89624E+01 5.17510E+00 1.28995E-02 1.35655E+00 1.17233E-13-4.48535E-13
 -1      1301 1.89193E+01 5.15839E+00 6.45562E-03 1.13361E+00 1.06375E-13-4.83091E-13
 -1      1302 1.91075E+01 4.72312E+00-1.40030E-02 1.01984E+00 1.65695E-13-4.02813E-13
 -1      1303 1.90949E+01 5.15663E+00 1.28247E-02 1.84127E+00 1.49443E-13-3.57020E-13
 -1      1304 1.90155E+01 5.12632E+00 3.14789E-03 1.58845E+00 1.33348E-13-4.11476E-13
 -1      1305 1.92128E+01 4.65477E+00-1.61469E-02 1.46305E+00 2.06868E-13-3.42094E-13
 -1      1306 1.93434E+01 5.13338E+00 1.01654E-02 2.39839E+00 1.78198E-13-2.01332E-13
 -1      1307 1.91934E+01 5.07629E+00-4.37666E-03 2.10111E+00 1.59883E-13-2.94955E-13
 -1      1308 1.94052E+01 4.54235E+00-1.99858E-02 1.95879E+00 2.49455E-13-2.37962E-13
 -1      1309 1.98548E+01 5.09934E+00 6.04013E-03 3.08445E+00 1.90015E-13 7.57935E-14
 -1      1310 1.95429E+01 4.98436E+00-2.05465E-02 2.69711E+00 1.74909E-13-8.98309E-14
 -1      1311 1.97743E+01 4.34636E+00-2.45644E-02 2.52866E+00 2.82902E-13-6.20060E-14
 -1      1312 2.11026E+01 4.90695E+00 8.30078E-03 4.05440E+00 1.62398E-13 5.73278E-13
 -1      1313 2.03336E+01 4.73380E+00-4.79775E-02 3.41681E+00 1.58235E-13 2.70735E-13
 -1      1314 2.05639E+01 3.91591E+00-2.24176E-02 3.17897E+00 2.83232E-13 2.34826E-13
 -1      1315 2.72025E+01 3.20542E+00 9.29080E-01 4.58255E+00 7.08045E-14 1.47404E-12
 -1      1316 2.20195E+01 3.52217E+00-1.82008E-01 3.88537E+00 7.54952E-14 8.55371E-13
 -1      1317 2.21117E+01 2.56181E+00-3.25586E-02 3.45706E+00 2.50838E-13 6.87589E-13
 -1      1318 2.14263E+01 3.59602E-01-7.63536E-01 1.18408E+00 1.34212E-13 1.43968E-12
 -1      1319 2.20005E+01 1.31433E-01-4.00898E-01-1.28589E+00-1.49158E-13 8.22453E-13
 -1      1320 2.06776E+01 3.06720E-01-1.64853E-01-8.05906E-01-1.37723E-13 6.54796E-13
 -1      1321 2.00799E+01 1.53473E-01-7.35286E-02-4.02311E-01-1.12202E-13 5.68018E-13
 -1      1322 1.96098E+01 9.11656E-02-1.49321E-02-3.30159E-01-1.14592E-13 3.96270E-13
 -1      1323 2.09715E+01 3.69051E-01-1.04293E-01-1.27419E+00-2.49481E-13 2.98199E-13
 -1      1324 1.92522E+01 6.44921E-02 3.03842E-03-1.35578E-01-9.99981E-14 3.40891E-13
 -1      1325 1.90976E+01 4.12610E-02 1.32204E-02-1.17783E-01-9.33593E-14 1.96412E-13
 -1      1326 1.99205E+01 1.33890E-01-3.51400E-02-5.04389E-01-2.08625E-13 1.82829E-13
 -1      1327 1.89370E+01 3.15264E-02 1.32433E-02-2.82753E-02-5.06197E-14 1.38053E-13
 -1      1328 1.89173E+01 1.93809E-02 1.10582E-02-1.88952E-02-5.07389E-14 5.99833E-14
 -1      1329 1.94428E+01 5.54404E-02-8.51385E-03-1.70494E-01-1.48676E-13 8.10654E-14
 -1      1330 1.88609E+01 1.59929E-02 8.78214E-03 2.47208E-02-3.67805E-14 3.40023E-14
 -1      1331 1.89029E+01 9.05300E-03 6.44130E-03 2.93377E-02-3.88413E-14-1.59352E-14
 -1      1332 1.92334E+01 2.43945E-02-3.49146E-03-1.16999E-02-8.76573E-14-1.15472E-14
 -1      1333 1.89026E+01 7.82868E-03 4.67923E-03 5.04466E-02-4.06324E-14-4.66710E-14
 -1      1334 1.89725E+01 3.48030E-03 3.64601E-03 5.23219E-02-3.08259E-14-8.32008E-14
 -1      1335 1.91760E+01 1.01521E-02-2.20651E-03 6.68732E-02-7.65939E-14-4.26876E-14
 -1      1336 1.90016E+01 3.16386E-03 2.44988E-03 6.10684E-02-3.79693E-15-8.05389E-14
 -1      1337 1.90816E+01 3.15142E-04 2.21596E-03 6.13240E-02-8.23885E-16-1.02088E-13
 -1      1338 1.92014E+01 2.73224E-03-1.31670E-03 1.03579E-01-3.40275E-14-7.91253E-14
 -1      1339 1.91247E+01 4.26172E-04 1.34217E-03 6.29752E-02-6.10569E-15-9.90510E-14
 -1      1340 1.92049E+01-1.46855E-03 1.44743E-03 6.22844E-02-3.82166E-14-1.48942E-13
 -1      1341 1.92697E+01-1.33944E-03-5.55884E-04 1.16753E-01-2.10135E-14-1.09904E-13
 -1      1342 1.92531E+01-1.14581E-03 7.61480E-04 5.98942E-02-6.67280E-14-1.48452E-13
 -1      1343 1.93280E+01-2.39260E-03 9.83637E-04 5.86920E-02-6.46150E-14-2.14898E-13
 -1      1344 1.93572E+01-3.52598E-03-1.18106E-06 1.16379E-01-8.04938E-14-1.22310E-13
 -1      1345 1.93758E+01-1.97061E-03 4.30458E-04 5.41662E-02-6.78589E-14-2.26331E-13
 -1      1346 1.94428E+01-2.75964E-03 6.78769E-04 5.27424E-02-2.04202E-14-3.12183E-13
 -1      1347 1.94497E+01-4.55441E-03 3.43865E-04 1.08443E-01-8.56598E-14-1.09109E-13
 -1      1348 1.94873E+01-2.30210E-03 2.33115E-04 4.73186E-02 1.84657E-14-3.55910E-13
 -1      1349 1.95453E+01-2.76045E-03 4.72183E-04 4.58673E-02-1.50102E-14-3.44652E-13
 -1      1350 1.95391E+01-4.83927E-03 5.22043E-04 9.67553E-02-4.76028E-14-1.80517E-13
 -1      1351 1.95852E+01-2.30268E-03 1.17201E-04 4.03653E-02-4.74055E-14-3.48404E-13
 -1      1352 1.96342E+01-2.51846E-03 3.34180E-04 3.90163E-02-4.49425E-14-4.10781E-13
 -1      1353 1.96212E+01-4.63882E-03 5.79818E-04 8.38177E-02-4.11108E-14-2.98533E-13
 -1      1354 1.96693E+01-2.07734E-03 5.50116E-05 3.39876E-02-9.54383E-15-4.03964E-13
 -1      1355 1.97103E+01-2.11219E-03 2.47259E-04 3.28286E-02-1.05302E-14-4.18211E-13
 -1      1356 1.96941E+01-4.11786E-03 5.53249E-04 7.13004E-02-3.79788E-14-3.10332E-13
 -1      1357 1.97408E+01-1.69169E-03 2.95446E-05 2.86559E-02-2.44864E-14-4.43918E-13
 -1      1358 1.97752E+01-1.58812E-03 1.99878E-04 2.77493E-02-5.04540E-14-4.46978E-13
 -1      1359 1.97581E+01-3.37823E-03 4.66940E-04 6.03430E-02-6.35368E-14-3.35910E-13
 -1      1360 1.98023E+01-1.18260E-03 2.93617E-05 2.47167E-02-8.90447E-15-4.38083E-13
 -1      1361 1.98318E+01-9.68897E-04 1.84018E-04 2.41121E-02-2.45000E-14-4.35420E-13
 -1      1362 1.98143E+01-2.47614E-03 3.36129E-04 5.17594E-02-2.74274E-14-3.12302E-13
 -1      1363 1.98567E+01-5.65086E-04 4.62218E-05 2.24580E-02-3.85203E-14-3.91087E-13
 -1      1364 1.98835E+01-2.59043E-04 1.93897E-04 2.22016E-02-2.84042E-14-4.12783E-13
 -1      1365 1.98650E+01-1.43312E-03 1.68851E-04 4.61868E-02-6.09766E-15-2.69500E-13
 -1      1366 1.99079E+01 1.62700E-04 7.36577E-05 2.21586E-02-1.34050E-14-4.24537E-13
 -1      1367 1.99345E+01 5.50528E-04 2.25066E-04 2.23012E-02 5.42113E-15-4.38636E-13
 -1      1368 1.99133E+01-2.43708E-04-3.23373E-05 4.41976E-02-2.56257E-14-1.89241E-13
 -1      1369 1.99605E+01 1.01547E-03 1.05904E-04 2.41259E-02 2.43842E-14-4.95526E-13
 -1      1370 1.99897E+01 1.47850E-03 2.73599E-04 2.47289E-02 1.36935E-14-4.71148E-13
 -1      1371 1.99627E+01 1.11834E-03-2.68954E-04 4.63837E-02-1.46150E-14-1.91526E-13
 -1      1372 2.00196E+01 2.01691E-03 1.36928E-04 2.87226E-02-6.34746E-16-5.60579E-13
 -1      1373 2.00546E+01 2.54882E-03 3.35194E-04 2.98615E-02-2.71170E-14-5.84686E-13
 -1      1374 2.00176E+01 2.69433E-03-5.45335E-04 5.34177E-02-4.33811E-14-3.16368E-13
 -1      1375 2.00914E+01 3.19514E-03 1.59426E-04 3.63808E-02 2.28247E-14-6.28685E-13
 -1      1376 2.01361E+01 3.78520E-03 4.04051E-04 3.81472E-02-3.57345E-14-6.41487E-13
 -1      1377 2.00830E+01 4.53398E-03-8.67299E-04 6.60906E-02-2.35848E-14-4.37185E-13
 -1      1378 2.01828E+01 4.57626E-03 1.63691E-04 4.76001E-02-4.67179E-14-5.65232E-13
 -1      1379 2.02416E+01 5.20281E-03 4.71392E-04 5.00998E-02-1.23286E-14-6.07880E-13
 -1      1380 2.01649E+01 6.68601E-03-1.24051E-03 8.53201E-02-2.64946E-15-5.76942E-13
 -1      1381 2.03020E+01 6.17432E-03 1.36368E-04 6.29211E-02-2.32771E-14-5.49686E-13
 -1      1382 2.03800E+01 6.79524E-03 5.23548E-04 6.62670E-02-2.32115E-14-6.10408E-13
 -1      1383 2.02700E+01 9.18320E-03-1.66821E-03 1.12117E-01-4.01484E-14-5.12593E-13
 -1      1384 2.04582E+01 7.97449E-03 5.92930E-05 8.28591E-02 1.83425E-15-6.18782E-13
 -1      1385 2.05612E+01 8.51301E-03 5.39797E-04 8.71550E-02-1.34374E-14-6.62698E-13
 -1      1386 2.04057E+01 1.20171E-02-2.14770E-03 1.47486E-01-2.70959E-14-4.81924E-13
 -1      1387 2.06615E+01 9.90510E-03-9.08895E-05 1.07773E-01-5.62853E-15-6.03045E-13
 -1      1388 2.07956E+01 1.02286E-02 4.90681E-04 1.13081E-01-1.14882E-14-6.03444E-13
 -1      1389 2.05805E+01 1.50946E-02-2.66481E-03 1.92219E-01 5.42296E-15-4.20070E-13
 -1      1390 2.09223E+01 1.17915E-02-3.40627E-04 1.37624E-01-3.58591E-14-6.35401E-13
 -1      1391 2.10936E+01 1.16811E-02 3.38923E-04 1.43908E-01-2.63834E-14-6.58691E-13
 -1      1392 2.08025E+01 1.81658E-02-3.18485E-03 2.46519E-01-6.89351E-14-3.90421E-13
 -1      1393 2.12502E+01 1.32836E-02-7.11231E-04 1.71576E-01-2.79850E-14-7.12599E-13
 -1      1394 2.14635E+01 1.23943E-02 4.74752E-05 1.78598E-01 2.78586E-14-7.47361E-13
 -1      1395 2.10797E+01 2.07070E-02-3.63799E-03 3.09345E-01-4.06411E-14-3.90627E-13
 -1      1396 2.16518E+01 1.37496E-02-1.19795E-03 2.07337E-01-1.82404E-14-7.71571E-13
 -1      1397 2.19087E+01 1.15676E-02-3.97317E-04 2.14497E-01-6.61016E-14-8.24525E-13
 -1      1398 2.14175E+01 2.17460E-02-3.89610E-03 3.77354E-01-4.14003E-14-5.75307E-13
 -1      1399 2.21270E+01 1.21423E-02-1.72720E-03 2.40190E-01 7.66160E-14-8.23223E-13
 -1      1400 2.24225E+01 7.96613E-03-9.37530E-04 2.46282E-01 8.72133E-14-7.32022E-13
 -1      1401 2.18164E+01 1.96355E-02-3.73919E-03 4.43302E-01 5.59195E-14-5.84930E-13
 -1      1402 2.26632E+01 6.88483E-03-2.08621E-03 2.61730E-01 8.13656E-14-6.13244E-13
 -1      1403 2.29808E+01-1.02417E-04-1.36832E-03 2.64621E-01 5.99505E-14-4.93194E-13
 -1      1404 2.22682E+01 1.18433E-02-2.81484E-03 4.93874E-01 1.38644E-13-3.53122E-13
 -1      1405 2.32270E+01-4.07578E-03-1.84295E-03 2.58615E-01-1.37631E-14-4.43054E-13
 -1      1406 2.35325E+01-1.45027E-02-1.26600E-03 2.54957E-01-2.19234E-14-4.18887E-13
 -1      1407 2.27500E+01-5.00816E-03-6.14037E-04 5.07328E-01 7.32437E-14-3.26462E-13
 -1      1408 2.37548E+01-2.27192E-02-3.35475E-04 2.12338E-01 1.26982E-14-3.72358E-13
 -1      1409 2.39900E+01-3.62807E-02-1.79136E-05 1.97623E-01 3.43219E-14-3.00296E-13
 -1      1410 2.32183E+01-3.43223E-02 3.46888E-03 4.52306E-01-3.15060E-14-1.23889E-13
 -1      1411 2.41440E+01-4.93658E-02 3.09747E-03 1.02215E-01-6.51909E-15-3.65727E-13
 -1      1412 2.42262E+01-6.35085E-02 2.84537E-03 7.18562E-02-1.51866E-14-4.21370E-13
 -1      1413 2.36026E+01-7.70748E-02 9.85454E-03 2.91005E-01-2.21359E-14-1.40912E-13
 -1      1414 2.42559E+01-7.97075E-02 8.40253E-03-8.51280E-02-7.47059E-14-4.31022E-13
 -1      1415 2.40907E+01-8.81237E-02 6.95256E-03-1.32778E-01-6.83507E-14-5.44193E-13
 -1      1416 2.38055E+01-1.27029E-01 1.80942E-02-7.93736E-03-6.02348E-14-2.36507E-13
 -1      1417 2.39409E+01-1.01177E-01 1.38591E-02-3.37511E-01 4.24357E-14-5.79821E-13
 -1      1418 2.34592E+01-9.38173E-02 1.01571E-02-3.95776E-01 5.93171E-14-5.56506E-13
 -1      1419 2.37155E+01-1.65039E-01 2.58020E-02-4.41709E-01-6.87245E-14-3.04423E-13
 -1      1420 2.31028E+01-9.28817E-02 1.53435E-02-5.95073E-01-6.00301E-15-5.98480E-13
 -1      1421 2.23214E+01-6.07624E-02 8.42998E-03-6.43890E-01-2.83809E-14-5.63272E-13
 -1      1422 2.32450E+01-1.57945E-01 2.79786E-02-9.34046E-01 8.31973E-14-2.61138E-13
 -1      1423 2.17990E+01-3.70478E-02 8.23541E-03-7.46077E-01-2.64777E-14-6.58806E-13
 -1      1424 2.08740E+01 1.71779E-02-1.30549E-03-7.55583E-01-8.89692E-14-6.80261E-13
 -1      1425 2.23962E+01-7.58385E-02 1.78164E-02-1.31128E+00-5.82390E-14-3.67905E-13
 -1      1426 2.03205E+01 5.78938E-02-7.16041E-03-6.73265E-01-4.32501E-14-7.84338E-13
 -1      1427 1.95341E+01 1.12507E-01-1.61475E-02-6.23004E-01-4.81021E-14-8.00207E-13
 -1      1428 2.13349E+01 7.38454E-02-7.01764E-03-1.34928E+00-1.29844E-13-5.46755E-13
 -1      1429 1.91464E+01 1.45580E-01-2.22246E-02-3.47308E-01-5.71522E-14-6.40460E-13
 -1      1430 1.87860E+01 1.69259E-01-2.62634E-02-2.50130E-01 1.64781E-14-7.44943E-13
 -1      1431 2.03942E+01 2.26055E-01-3.62790E-02-9.18637E-01-7.45688E-14-5.07424E-13
 -1      1432 1.87171E+01 1.68773E-01-2.59186E-02 1.09684E-01 9.07087E-15-8.21537E-13
 -1      1433 1.89059E+01 1.45866E-01-2.27632E-02 2.06878E-01-6.67869E-16-7.46694E-13
 -1      1434 1.99370E+01 2.90856E-01-4.98770E-02-1.37496E-01 1.42664E-14-4.25805E-13
 -1      1435 1.91558E+01 1.11481E-01-1.58040E-02 4.81718E-01 6.18151E-14-8.14251E-13
 -1      1436 1.97690E+01 5.72838E-02-7.60318E-03 5.31610E-01-1.12047E-13-8.79623E-13
 -1      1437 2.01247E+01 2.25071E-01-3.64673E-02 6.42935E-01 2.03657E-15-4.85391E-13
 -1      1438 2.01834E+01 1.47802E-02-6.77431E-04 6.10661E-01-1.37621E-13-8.45130E-13
 -1      1439 2.09295E+01-3.89661E-02 8.12580E-03 5.99867E-01-4.35641E-14-9.00315E-13
 -1      1440 2.07952E+01 7.09089E-02-6.94671E-03 1.06902E+00-9.80535E-14-7.45650E-13
 -1      1441 2.13093E+01-6.42995E-02 9.56534E-03 4.91957E-01 7.24490E-14-7.38125E-13
 -1      1442 2.19026E+01-9.53074E-02 1.58121E-02 4.41224E-01 1.02621E-13-7.22054E-13
 -1      1443 2.15818E+01-8.09565E-02 1.83109E-02 1.02030E+00 6.44467E-14-6.61993E-13
 -1      1444 2.21122E+01-9.74535E-02 1.18909E-02 2.35811E-01 6.22974E-14-4.90198E-13
 -1      1445 2.23958E+01-1.02527E-01 1.49195E-02 1.75628E-01 8.84848E-14-4.04714E-13
 -1      1446 2.21482E+01-1.63732E-01 2.87731E-02 6.28860E-01 2.16847E-13-2.51692E-13
 -1      1447 2.23974E+01-8.96462E-02 9.10118E-03-3.13729E-02 1.19800E-13-4.33951E-13
 -1      1448 2.23606E+01-7.70842E-02 9.76090E-03-7.95720E-02 1.51382E-13-1.99411E-13
 -1      1449 2.23307E+01-1.68215E-01 2.62933E-02 1.26141E-01 1.32207E-13-3.40711E-14
 -1      1450 2.21901E+01-5.92428E-02 4.82897E-03-2.27753E-01 6.02079E-14-2.54645E-13
 -1      1451 2.19193E+01-3.86049E-02 3.98913E-03-2.55087E-01 1.18179E-13-1.39451E-13
 -1      1452 2.21375E+01-1.21932E-01 1.72200E-02-3.00552E-01 1.46220E-13-1.24433E-13
 -1      1453 2.16483E+01-2.12752E-02 5.26032E-04-3.20786E-01 1.80741E-13-1.93057E-13
 -1      1454 2.12716E+01 1.28450E-03-1.19873E-03-3.25864E-01 1.58759E-13 2.73392E-14
 -1      1455 2.16804E+01-5.51352E-02 6.36088E-03-5.54680E-01 2.00204E-13-5.44547E-14
 -1      1456 2.09793E+01 1.74054E-02-4.12870E-03-3.06568E-01 2.22891E-13 1.55705E-13
 -1      1457 2.06325E+01 3.85085E-02-4.76407E-03-2.89634E-01 1.51869E-13 3.06127E-13
 -1      1458 2.11093E+01 1.58968E-02-3.63949E-03-6.08202E-01 3.11695E-13 5.22386E-14
 -1      1459 2.03856E+01 5.61833E-02-6.88222E-03-1.91387E-01-5.77240E-14 3.87163E-13
 -1      1460 2.01862E+01 6.13783E-02-1.85029E-03-1.58550E-01-9.02980E-14 3.50825E-13
 -1      1461 2.05675E+01 8.85541E-02-9.56786E-03-4.70799E-01 1.75254E-13 1.44699E-13
 -1      1462 2.00055E+01 2.69870E-02-1.61390E-03-3.50744E-05-3.07757E-13 2.83521E-13
 -1      1463 2.01259E+01 1.15143E-01-6.43155E-03-1.55534E-01-2.70132E-13 2.02487E-13
 -1      1464 2.02586E+01 7.54782E-02-1.52101E-01 4.84048E-01 1.09857E-13 1.18006E-12
 -1      1465 2.15291E+01 2.16129E-01-2.29289E-01 7.21049E-01 9.71445E-14 1.35364E-12
 -1      1466 2.17277E+01 8.81799E-01-8.54627E-02 2.06521E+00 1.94636E-13 8.99961E-13
 -1      1467 1.93298E+01 3.23784E-02-2.13360E-02 1.86209E-01 8.46649E-14 9.69475E-13
 -1      1468 1.97507E+01 1.13614E-01-6.27060E-02 2.38217E-01 8.06161E-14 1.09695E-12
 -1      1469 2.03021E+01 1.87684E-01-5.51899E-02 7.86546E-01 1.68796E-13 7.35783E-13
 -1      1470 1.89475E+01 1.50984E-02 5.66725E-03 5.37255E-02 5.53411E-14 8.03590E-13
 -1      1471 1.90864E+01 5.16161E-02 9.74778E-04 8.00321E-02 5.37782E-14 8.97966E-13
 -1      1472 1.95566E+01 7.18326E-02-1.21531E-02 2.99378E-01 1.28654E-13 6.06182E-13
 -1      1473 1.88364E+01 7.11016E-03 6.97919E-03-8.73287E-03 5.62467E-14 6.65393E-13
 -1      1474 1.88513E+01 2.58429E-02 1.10885E-02 5.65419E-03 5.17104E-14 7.48290E-13
 -1      1475 1.92207E+01 3.10196E-02-2.45773E-03 8.39355E-02 9.62511E-14 4.75429E-13
 -1      1476 1.88617E+01 3.19671E-03 4.78690E-03-3.89328E-02 2.51093E-14 5.66117E-13
 -1      1477 1.88183E+01 1.37858E-02 8.52087E-03-3.08308E-02 2.14720E-14 6.18120E-13
 -1      1478 1.91036E+01 1.32388E-02-1.61096E-03-2.09607E-02 7.07377E-14 3.92323E-13
 -1      1479 1.89549E+01 1.04049E-03 3.29809E-03-5.23040E-02-2.17122E-15 5.64261E-13
 -1      1480 1.88850E+01 7.25428E-03 5.36833E-03-4.78519E-02 9.04940E-15 5.61948E-13
 -1      1481 1.91041E+01 4.51105E-03-1.62463E-03-7.23457E-02 2.00640E-14 3.70900E-13
 -1      1482 1.90782E+01-2.03588E-04 2.51476E-03-5.62017E-02 3.66639E-14 4.86014E-13
 -1      1483 1.89987E+01 3.42212E-03 3.43183E-03-5.40081E-02 2.45669E-14 5.32693E-13
 -1      1484 1.91660E+01-1.38147E-04-1.36891E-03-9.48811E-02 3.53974E-14 3.13677E-13
 -1      1485 1.92097E+01-9.03081E-04 2.04913E-03-5.46713E-02 1.81111E-14 4.09682E-13
 -1      1486 1.91302E+01 1.09712E-03 2.33040E-03-5.38952E-02 2.76730E-14 4.55201E-13
 -1      1487 1.92570E+01-2.64447E-03-9.93422E-04-1.00995E-01 5.02612E-14 2.69078E-13
 -1      1488 1.93372E+01-1.25186E-03 1.70356E-03-5.01636E-02 4.60050E-14 3.57969E-13
 -1      1489 1.92630E+01-2.96039E-04 1.65429E-03-5.02594E-02 2.83069E-14 3.90694E-13
 -1      1490 1.93582E+01-3.89367E-03-6.51913E-04-9.77165E-02 6.60146E-14 2.04641E-13
 -1      1491 1.94538E+01-1.36769E-03 1.41059E-03-4.42466E-02 2.65678E-14 2.97473E-13
 -1      1492 1.93876E+01-1.07746E-03 1.19730E-03-4.48462E-02 4.08955E-14 3.57128E-13
 -1      1493 1.94586E+01-4.35980E-03-3.91385E-04-8.93560E-02 6.18416E-14 1.59818E-13
 -1      1494 1.95566E+01-1.32731E-03 1.15178E-03-3.79492E-02 4.40828E-15 2.75305E-13
 -1      1495 1.94994E+01-1.44435E-03 8.70173E-04-3.87990E-02 5.86326E-15 2.68109E-13
 -1      1496 1.95519E+01-4.32651E-03-2.09706E-04-7.86893E-02 2.25834E-14 1.75755E-13
 -1      1497 1.96450E+01-1.18109E-03 9.22008E-04-3.19556E-02 3.41854E-14 3.16237E-13
 -1      1498 1.95966E+01-1.52455E-03 6.31650E-04-3.28773E-02 7.94015E-16 2.88831E-13
 -1      1499 1.96355E+01-3.97399E-03-9.33597E-05-6.75474E-02-1.98393E-14 1.51511E-13
 -1      1500 1.97200E+01-9.60655E-04 7.18363E-04-2.67282E-02 5.00933E-14 2.12168E-13
 -1      1501 1.96796E+01-1.40111E-03 4.58918E-04-2.75931E-02 5.84327E-14 2.60096E-13
 -1      1502 1.97085E+01-3.41713E-03-3.00850E-05-5.71588E-02 8.70115E-14 1.24338E-13
 -1      1503 1.97839E+01-6.83609E-04 5.37407E-04-2.25941E-02 5.94115E-14 2.46954E-14
 -1      1504 1.97500E+01-1.12550E-03 3.37210E-04-2.33042E-02 9.16945E-14 1.53766E-13
 -1      1505 1.97719E+01-2.72570E-03-1.15092E-05-4.83705E-02 1.21997E-13 4.08726E-14
 -1      1506 1.98396E+01-3.56770E-04 3.74694E-04-1.98082E-02 1.34343E-14-7.68566E-14
 -1      1507 1.98105E+01-7.25499E-04 2.56095E-04-2.02813E-02 3.41539E-14-1.60694E-14
 -1      1508 1.98277E+01-1.93650E-03-3.32194E-05-4.18024E-02 8.53226E-14 2.84789E-14
 -1      1509 1.98909E+01 2.14674E-05 2.24778E-04-1.86015E-02 2.36543E-14-1.18631E-13
 -1      1510 1.98645E+01-2.10416E-04 2.07901E-04-1.87597E-02-1.10864E-14-1.03745E-13
 -1      1511 1.98785E+01-1.06149E-03-9.44478E-05-3.79615E-02 3.04951E-14-3.48433E-14
 -1      1512 1.99422E+01 4.59189E-04 8.13088E-05-1.92181E-02 9.34285E-14-2.27444E-13
 -1      1513 1.99160E+01 4.25176E-04 1.86835E-04-1.89777E-02 6.33879E-14-1.19329E-13
 -1      1514 1.99278E+01-9.37209E-05-1.97816E-04-3.73285E-02 7.04067E-14-1.67977E-13
 -1      1515 1.99986E+01 9.69069E-04-6.28469E-05-2.19428E-02-3.68761E-14-2.94562E-13
 -1      1516 1.99698E+01 1.19828E-03 1.88339E-04-2.12064E-02 6.85948E-15-2.53603E-13
 -1      1517 1.99799E+01 9.87779E-04-3.49114E-04-4.04224E-02 6.70133E-14-1.69054E-13
 -1      1518 2.00660E+01 1.56616E-03-2.15479E-04-2.71192E-02-1.03017E-13-7.79246E-14
 -1      1519 2.00315E+01 2.13426E-03 2.08492E-04-2.57690E-02-9.02582E-14-2.65605E-13
 -1      1520 2.00394E+01 2.21329E-03-5.57029E-04-4.78464E-02-1.01800E-13-1.21862E-13
 -1      1521 2.01515E+01 2.26477E-03-3.84845E-04-3.51568E-02-6.19406E-14-2.24901E-14
 -1      1522 2.01073E+01 3.26265E-03 2.43331E-04-3.30502E-02-6.59350E-14-9.18615E-14
 -1      1523 2.01122E+01 3.61684E-03-8.32663E-04-6.03133E-02-9.43669E-14-6.50346E-14
 -1      1524 2.02630E+01 3.07365E-03-5.79276E-04-4.65205E-02 4.16701E-14-2.61750E-14
 -1      1525 2.02048E+01 4.61087E-03 2.87951E-04-4.34898E-02 2.01022E-14 1.76348E-14
 -1      1526 2.02047E+01 5.22849E-03-1.18857E-03-7.86430E-02-3.35667E-14-8.89879E-14
 -1      1527 2.04099E+01 3.98785E-03-8.06181E-04-6.16943E-02 2.54683E-14-1.31982E-13
 -1      1528 2.03324E+01 6.19362E-03 3.35339E-04-5.75519E-02 2.04134E-14-3.38480E-14
 -1      1529 2.03244E+01 7.06217E-03-1.63677E-03-1.03719E-01 6.21498E-14 1.28451E-15
 -1      1530 2.06024E+01 4.97519E-03-1.06964E-03-8.11006E-02-4.58236E-14-1.14183E-13
 -1      1531 2.04999E+01 7.99476E-03 3.74941E-04-7.56566E-02-3.61638E-14-1.86710E-13
 -1      1532 2.04797E+01 9.09544E-03-2.18490E-03-1.36383E-01 1.74535E-14-5.41903E-15
 -1      1533 2.08514E+01 5.95378E-03-1.36481E-03-1.04946E-01 5.71808E-16 1.19973E-14
 -1      1534 2.07178E+01 9.93615E-03 3.91383E-04-9.80457E-02-6.17613E-14-3.21743E-14
 -1      1535 2.06794E+01 1.12354E-02-2.82863E-03-1.77213E-01-6.81202E-14-9.26204E-14
 -1      1536 2.11676E+01 6.75623E-03-1.66596E-03-1.32947E-01-1.33921E-14 4.36448E-14
 -1      1537 2.09967E+01 1.18261E-02 3.64530E-04-1.24545E-01 7.54024E-14 1.10677E-13
 -1      1538 2.09325E+01 1.32622E-02-3.53781E-03-2.26141E-01 2.50362E-14 4.82626E-14
 -1      1539 2.15592E+01 7.07653E-03-1.90246E-03-1.63872E-01 2.18185E-14 3.13126E-14
 -1      1540 2.13461E+01 1.32783E-02 2.73774E-04-1.54166E-01-1.09483E-14-3.59608E-15
 -1      1541 2.12466E+01 1.47387E-02-4.23189E-03-2.81785E-01 1.81712E-14 1.45755E-13
 -1      1542 2.20288E+01 6.40077E-03-1.91608E-03-1.94817E-01-4.64255E-16-3.19710E-14
 -1      1543 2.17718E+01 1.35956E-02 1.12096E-04-1.84469E-01 4.15783E-14 7.86992E-14
 -1      1544 2.16258E+01 1.48787E-02-4.73956E-03-3.40390E-01 3.58322E-14 1.54675E-13
 -1      1545 2.25673E+01 3.94148E-03-1.39735E-03-2.20177E-01-2.17049E-14 1.60861E-14
 -1      1546 2.22712E+01 1.16322E-02-8.21619E-05-2.10654E-01-6.52503E-14-5.81826E-14
 -1      1547 2.20676E+01 1.23805E-02-4.74073E-03-3.94259E-01-3.50640E-14 1.31730E-13
 -1      1548 2.31463E+01-1.35831E-03 1.76889E-04-2.30404E-01 1.68493E-15-6.56246E-14
 -1      1549 2.28273E+01 5.70328E-03-1.71124E-04-2.24429E-01 3.36855E-14-1.08351E-14
 -1      1550 2.25572E+01 5.29125E-03-3.70406E-03-4.29721E-01 2.33657E-14-3.27160E-14
 -1      1551 2.37069E+01-1.05945E-02 3.51932E-03-2.11094E-01-6.40980E-15-7.75768E-14
 -1      1552 2.33992E+01-6.26725E-03 1.44061E-04-2.13060E-01-1.45420E-14-1.47994E-13
 -1      1553 2.30609E+01-8.90180E-03-8.76484E-04-4.25166E-01 1.03890E-14-5.33601E-14
 -1      1554 2.41500E+01-2.41827E-02 9.22565E-03-1.43783E-01-8.99936E-14 1.45151E-13
 -1      1555 2.39121E+01-2.59843E-02 1.31860E-03-1.59711E-01-5.88787E-14-7.41594E-14
 -1      1556 2.35189E+01-3.25122E-02 4.54654E-03-3.50790E-01-6.44380E-14-1.32375E-13
 -1      1557 2.43346E+01-4.03235E-02 1.69132E-02-1.11125E-02 3.31948E-14 2.58850E-13
 -1      1558 2.42504E+01-5.28574E-02 3.73621E-03-4.72606E-02-3.90157E-14 1.73058E-13
 -1      1559 2.38400E+01-6.55475E-02 1.28419E-02-1.73515E-01-1.42501E-13 6.93499E-14
 -1      1560 2.40985E+01-5.29675E-02 2.38507E-02 1.90217E-01 1.13074E-13 3.85351E-14
 -1      1561 2.42647E+01-8.07880E-02 7.07631E-03 1.31346E-01 8.70909E-14 2.01289E-13
 -1      1562 2.39073E+01-1.01692E-01 2.26552E-02 1.27533E-01 1.51110E-13 3.48226E-14
 -1      1563 2.33194E+01-5.14798E-02 2.41930E-02 4.29321E-01-1.42601E-13 1.73542E-13
 -1      1564 2.38076E+01-9.57090E-02 9.46364E-03 3.55468E-01-2.91867E-14 1.19696E-13
 -1      1565 2.36046E+01-1.23999E-01 2.99475E-02 5.31551E-01-3.18981E-14 7.70183E-14
 -1      1566 2.20161E+01-2.53350E-02 1.11135E-02 6.26303E-01 7.74827E-14 1.70045E-13
 -1      1567 2.28109E+01-7.86724E-02 7.33358E-03 5.60586E-01 2.65647E-14 1.95885E-13
 -1      1568 2.28746E+01-1.06251E-01 2.85579E-02 9.42849E-01-1.79978E-14 8.68854E-14
 -1      1569 2.04445E+01 2.44415E-02-1.65781E-02 6.68167E-01 3.83404E-14-9.77690E-15
 -1      1570 2.13866E+01-1.90856E-02-2.47575E-03 6.44613E-01 2.96632E-14 5.39568E-14
 -1      1571 2.17978E+01-2.78666E-02 1.39792E-02 1.18679E+00 3.82937E-14 4.86416E-15
 -1      1572 1.90890E+01 7.53375E-02-4.71988E-02 4.77168E-01-5.50575E-14 1.81632E-13
 -1      1573 1.98858E+01 6.63588E-02-1.80006E-02 5.19653E-01-7.37049E-14 1.24518E-13
 -1      1574 2.06438E+01 9.82949E-02-1.01233E-02 1.08015E+00-8.61654E-14 1.01308E-14
 -1      1575 1.84600E+01 9.46665E-02-5.92966E-02 9.67564E-02-9.01414E-14 2.74071E-13
 -1      1576 1.88114E+01 1.32362E-01-2.97905E-02 1.94453E-01-4.23481E-14 2.21437E-13
 -1      1577 1.98077E+01 2.10548E-01-3.01833E-02 5.75901E-01-7.66123E-14 1.04729E-13
 -1      1578 1.87814E+01 6.80200E-02-4.17395E-02-3.01592E-01 2.51769E-14 5.39908E-13
 -1      1579 1.85633E+01 1.37070E-01-2.75379E-02-1.95023E-01-4.60725E-14 3.50376E-13
 -1      1580 1.96051E+01 2.32646E-01-3.41001E-02-1.39355E-01-1.58377E-13 2.18240E-13
 -1      1581 1.98287E+01 1.45998E-02-5.87709E-03-5.31260E-01 4.71940E-14 4.21836E-13
 -1      1582 1.91816E+01 8.01833E-02-1.12854E-02-4.65263E-01 1.16630E-13 5.62765E-13
 -1      1583 2.00626E+01 1.44117E-01-2.23372E-02-7.32868E-01 8.56190E-14 4.30340E-13
 -1      1584 2.10830E+01-3.23609E-02 2.54768E-02-5.20922E-01 9.82855E-14 1.91992E-13
 -1      1585 2.03166E+01 1.67867E-03 8.12398E-03-5.14286E-01 2.17795E-15 1.84491E-13
 -1      1586 2.08987E+01 3.62414E-03-5.62848E-03-9.55749E-01 1.33307E-13 2.21007E-13
 -1      1587 2.20501E+01-5.38872E-02 3.85406E-02-3.33436E-01-1.49028E-13 1.22312E-13
 -1      1588 2.14565E+01-5.63355E-02 1.97470E-02-3.71496E-01 3.15104E-14 1.40776E-13
 -1      1589 2.17155E+01-1.06758E-01 6.77427E-03-7.90200E-01 2.74936E-14 2.26378E-13
 -1      1590 2.24724E+01-5.11765E-02 3.45090E-02-8.62633E-02 8.39051E-14 2.23165E-13
 -1      1591 2.22030E+01-7.74679E-02 2.06601E-02-1.41335E-01 5.53724E-15 1.67196E-13
 -1      1592 2.22150E+01-1.47852E-01 1.20123E-02-3.97176E-01-2.19737E-14 2.24367E-13
 -1      1593 2.23455E+01-3.47588E-02 2.19897E-02 1.25560E-01 6.55205E-14 7.13492E-14
 -1      1594 2.24015E+01-6.83646E-02 1.47077E-02 7.59631E-02 1.05331E-13 1.17441E-13
 -1      1595 2.22895E+01-1.29657E-01 1.17340E-02 2.76071E-02 1.37845E-13 6.93425E-14
 -1      1596 2.18252E+01-1.37911E-02 7.78431E-03 2.54299E-01 8.27966E-14-9.13575E-14
 -1      1597 2.21128E+01-4.27164E-02 6.91376E-03 2.22183E-01 5.52531E-14 4.55400E-14
 -1      1598 2.19920E+01-8.11964E-02 8.11687E-03 3.49715E-01 7.08530E-14-3.80529E-14
 -1      1599 2.11315E+01 7.25677E-03-5.16805E-03 2.86891E-01-1.27936E-16-3.92179E-13
 -1      1600 2.15189E+01-1.05855E-02-2.17562E-04 2.76967E-01 7.28099E-14-3.01280E-13
 -1      1601 2.14638E+01-2.47617E-02 2.23638E-03 5.09491E-01 2.39886E-13-3.62120E-13
 -1      1602 2.04922E+01 2.66986E-02-1.38724E-02 2.25118E-01-1.66536E-13-2.82985E-13
 -1      1603 2.08403E+01 2.35290E-02-5.89465E-03 2.39999E-01-1.20929E-13-4.24570E-13
 -1      1604 2.08727E+01 3.12604E-02-4.67432E-03 4.95017E-01-9.81524E-14-2.37852E-13
 -1      1605 2.01059E+01 4.32111E-02-2.45362E-03 9.00042E-02 6.34147E-14-3.93419E-13
 -1      1606 2.02856E+01 5.21280E-02-6.60778E-03 1.24727E-01 5.31769E-14-2.40326E-13
 -1      1607 2.03706E+01 8.23616E-02-8.42162E-03 3.20852E-01 3.90870E-14-3.62317E-13
 -1      1608 2.00138E+01 3.06022E-02 1.22247E-03 7.00957E-03-1.68600E-13-2.19562E-13
 -1      1609 2.00590E+01 4.12643E-01-7.71073E-03 2.02288E-01-3.37333E-13 3.41498E-14
 -1      1610 2.00651E+01 2.06186E-01 5.18010E-04 1.61960E-01-3.05852E-13 5.89433E-14
 -1      1611 2.00461E+01 1.08108E+00-4.35488E-03 3.55238E-01-4.97914E-13 1.51184E-13
 -1      1612 2.00564E+01 6.74513E-01-6.14981E-03 3.27177E-01-4.16752E-13-6.07864E-14
 -1      1613 2.01125E+01 5.84111E-01-1.32033E-02 5.13032E-01-2.04718E-13-1.11831E-13
 -1      1614 2.00278E+01 1.99376E+00-2.35833E-03 4.69494E-01-9.53747E-13-9.28125E-14
 -1      1615 2.00416E+01 1.44229E+00-5.26398E-03 4.50098E-01-6.99055E-13 6.53652E-14
 -1      1616 2.00774E+01 1.19320E+00-1.23147E-02 7.77165E-01-3.23036E-13-2.07718E-13
 -1      1617 2.00028E+01 3.05747E+00-1.04057E-03 5.29088E-01-6.04319E-13 1.67741E-13
 -1      1618 2.00207E+01 2.42934E+00-3.91058E-03 5.21564E-01-1.06683E-12 3.21562E-13
 -1      1619 2.00407E+01 1.97623E+00-7.90303E-03 9.55033E-01-3.70690E-13 1.11678E-13
 -1      1620 1.99707E+01 4.11500E+00 4.84510E-04 5.13205E-01-4.36828E-13 8.59295E-14
 -1      1621 1.99912E+01 3.50912E+00-2.08671E-03 5.22230E-01-6.16698E-13-1.56828E-13
 -1      1622 1.99941E+01 2.85387E+00-3.38980E-06 1.01152E+00-4.11651E-13 1.89071E-13
 -1      1623 1.99372E+01 5.02740E+00 2.72452E-03 4.05965E-01-2.59619E-13-9.90093E-15
 -1      1624 1.99569E+01 4.52966E+00 6.85381E-04 4.34429E-01-4.62096E-13 1.31835E-13
 -1      1625 1.99390E+01 3.71365E+00 1.00736E-02 9.11019E-01-3.52668E-13 1.21981E-13
 -1      1626 1.99137E+01 5.59655E+00 4.57703E-03 2.14085E-01-6.16155E-13-3.04256E-13
 -1      1627 1.99257E+01 5.31762E+00 3.42141E-03 2.58421E-01-3.36706E-13-2.05981E-13
 -1      1628 1.98864E+01 4.41562E+00 2.02241E-02 6.38269E-01-4.92598E-13-2.76226E-13
 -1      1629 1.99092E+01 5.69921E+00 4.94076E-03-2.64241E-02-5.31719E-13 1.40001E-13
 -1      1630 1.99092E+01 5.70060E+00 4.94724E-03 2.40629E-02-4.91605E-13-1.31176E-13
 -1      1631 1.98541E+01 4.80964E+00 2.66719E-02 2.28707E-01-3.69619E-13-2.24112E-13
 -1      1632 1.99258E+01 5.31166E+00 3.36486E-03-2.60450E-01-1.42331E-13 3.42769E-13
 -1      1633 1.99138E+01 5.59318E+00 4.56821E-03-2.16242E-01-5.13955E-13 3.23039E-13
 -1      1634 1.98543E+01 4.80764E+00 2.66337E-02-2.33065E-01 8.29206E-14 2.19144E-13
 -1      1635 1.99569E+01 4.52045E+00 5.68201E-04-4.35716E-01 1.38778E-14-4.64299E-14
 -1      1636 1.99378E+01 5.01994E+00 2.80464E-03-4.07551E-01-1.11015E-13 1.92748E-13
 -1      1637 1.98866E+01 4.41013E+00 2.01008E-02-6.41762E-01-6.42715E-15 4.07193E-13
 -1      1638 1.99911E+01 3.50689E+00-1.91052E-03-5.22225E-01 1.21431E-16 7.98053E-14
 -1      1639 1.99706E+01 4.11337E+00 6.42093E-04-5.13377E-01 1.34840E-13-1.17680E-13
 -1      1640 1.99396E+01 3.71276E+00 1.01864E-02-9.11957E-01-8.99975E-15-8.92611E-14
 -1      1641 2.00210E+01 2.41774E+00-3.75776E-03-5.21719E-01-2.30975E-13-2.11896E-13
 -1      1642 2.00028E+01 3.04634E+00-9.85718E-04-5.29344E-01-2.65378E-14 1.00753E-14
 -1      1643 1.99941E+01 2.85221E+00-9.27522E-06-1.01208E+00-4.28026E-14-5.97849E-14
 -1      1644 2.00421E+01 1.43211E+00-4.87355E-03-4.50577E-01-4.92828E-13-1.03150E-13
 -1      1645 2.00280E+01 1.98233E+00-2.19909E-03-4.69155E-01-3.30423E-13-1.89362E-14
 -1      1646 2.00408E+01 1.96691E+00-7.87086E-03-9.54782E-01-7.91658E-14-3.30468E-13
 -1      1647 2.00610E+01 6.82072E-01-3.16974E-04-3.28879E-01-5.68273E-13 6.04456E-14
 -1      1648 2.00427E+01 1.07489E+00-4.39242E-03-3.53366E-01-5.34565E-13 2.58335E-14
 -1      1649 2.00789E+01 1.18435E+00-1.18659E-02-7.74632E-01-1.75407E-13-1.88141E-13
 -1      1650 2.01041E+01 2.67054E-01 6.40182E-03-2.37550E-01-3.93939E-13 6.84171E-14
 -1      1651 2.00967E+01 4.71417E-01-2.71661E-03-2.96754E-01-4.07350E-13-2.32006E-14
 -1      1652 2.01524E+01 6.30718E-01-1.20640E-02-5.98205E-01-1.24515E-13 1.66333E-13
 -1      1653 2.02797E+01 2.75770E-01-6.14099E-03-4.53473E-01-5.26224E-14 1.55423E-14
 -1      1654-7.26627E-01-1.63136E+01-1.86149E+00-1.20495E+00-5.86753E-14-2.07445E-13
 -1      1655-6.79085E-01-1.83826E+01-2.02345E+00 2.89826E-01 4.46865E-15-8.38773E-14
 -1      1656 1.04697E+00-9.46058E+00-1.35497E+00 4.48595E-02 5.88085E-13 5.82312E-13
 -1      1657 4.06839E-01-1.48120E+01-1.89750E+00-4.44576E-01 2.08278E-13 2.27353E-13
 -1      1658 6.45749E+00-1.17567E+00-6.22448E-01 4.23257E+00 1.15086E-12 9.52682E-13
 -1      1659 3.45397E+00-7.14193E+00-1.44206E+00 1.28689E+00 8.56648E-13 6.76181E-13
 -1      1660 1.81795E+01 4.38940E+00 2.54187E-01 9.74349E+00 1.20315E-12 1.20726E-12
 -1      1661 1.12643E+01 5.50236E-01-6.91818E-01 5.76450E+00 1.30518E-12 1.06803E-12
 -1      1662 3.19331E+01 6.32689E+00 9.65343E-01 1.25830E+01 7.31859E-13 1.29674E-12
 -1      1663 2.30722E+01 5.88320E+00 1.33235E-01 1.05442E+01 1.01485E-12 1.21370E-12
 -1      1664 4.59421E+01 5.12253E+00 1.53712E+00 1.02406E+01 5.45244E-13 3.89022E-13
 -1      1665 3.69272E+01 6.57563E+00 8.69436E-01 1.16230E+01 8.46156E-13 9.24594E-13
 -1      1666 5.53000E+01 3.70685E+00 1.95404E+00 4.32105E+00 2.10110E-13-2.72948E-13
 -1      1667 5.03235E+01 5.14886E+00 1.61732E+00 9.26388E+00 3.37952E-13 2.77556E-13
 -1      1668 5.39771E+01 4.06882E+00 1.74452E+00-4.14980E+00 5.80647E-14-5.19251E-13
 -1      1669 5.53784E+01 3.73633E+00 1.84108E+00 1.55483E+00 9.33142E-14-3.80106E-13
 -1      1670 4.52161E+01 5.74827E+00 1.36260E+00-1.08489E+01 1.94164E-13-3.50497E-13
 -1      1671 5.24835E+01 3.97444E+00 1.83733E+00-7.07250E+00 8.21565E-15-6.15286E-13
 -1      1672 3.09322E+01 6.70457E+00 6.03857E-01-1.19430E+01 3.07643E-13-5.46896E-13
 -1      1673 4.04320E+01 5.81152E+00 1.39498E+00-1.21582E+01 3.35676E-13-4.82059E-13
 -1      1674 1.70275E+01 4.41327E+00-2.42177E-01-8.57226E+00 5.20695E-13-3.99902E-13
 -1      1675 2.54457E+01 6.20876E+00 6.98471E-01-1.17520E+01 3.34066E-13-3.98792E-13
 -1      1676 7.39136E+00-2.52443E+00-9.93218E-01-3.58799E+00 5.19584E-13-3.28737E-13
 -1      1677 1.26276E+01 2.35975E+00-1.12055E-01-7.36874E+00 4.07230E-13-3.53717E-13
 -1      1678 1.64900E+00-1.02545E+01-1.61062E+00-8.24184E-02 6.81011E-13-2.37782E-13
 -1      1679 3.33761E+00-4.46487E+00-9.47122E-01-1.94998E+00 5.77982E-13-2.44749E-13
 -1      1680-2.33744E-01-1.62713E+01-1.89524E+00 4.03865E-01 4.01901E-13-2.90323E-13
 -1      1681-8.36586E-02-1.22446E+01-1.53441E+00 9.00806E-01 6.23057E-13-1.94220E-13
 -1      1682-8.00375E-01-1.74963E+01-1.89578E+00-7.31115E-01-5.08954E-13-3.79419E-13
 -1      1683-8.15925E-01-1.71672E+01-1.87117E+00 9.21816E-01 1.39277E-13-4.96936E-13
 -1      1684-3.37012E-01-1.34275E+01-1.60741E+00-1.06805E+00-7.19980E-13-3.43725E-13
 -1      1685-3.92485E-01-1.68545E+01-1.91252E+00-2.66188E-01-6.21614E-13-1.78663E-13
 -1      1686 2.37691E+00-6.07059E+00-1.08409E+00 1.14403E+00-6.88782E-13-2.44804E-13
 -1      1687 1.12296E+00-1.16320E+01-1.68285E+00-2.28179E-01-7.23865E-13-2.55199E-13
 -1      1688 9.69879E+00 1.02592E+00-3.55709E-01 5.95765E+00-6.23279E-13-5.50227E-13
 -1      1689 5.63331E+00-3.98184E+00-1.14257E+00 2.64554E+00-6.51923E-13-4.52860E-13
 -1      1690 2.08784E+01 5.15199E+00 3.84219E-01 1.03876E+01-6.81788E-13-6.83453E-13
 -1      1691 1.40415E+01 2.63951E+00-4.52017E-01 7.13611E+00-6.33382E-13-7.00329E-13
 -1      1692 3.49867E+01 6.03368E+00 1.11569E+00 1.22452E+01-4.23939E-13-2.45803E-13
 -1      1693 2.58594E+01 6.04721E+00 2.81724E-01 1.08377E+01-6.45706E-13-5.32463E-13
 -1      1694 4.79497E+01 4.82190E+00 1.69686E+00 9.92830E+00-1.49762E-13-1.30118E-13
 -1      1695 3.98344E+01 6.30058E+00 1.05883E+00 1.18263E+01-3.03535E-13-2.77556E-13
 -1      1696 5.57403E+01 3.49268E+00 1.97620E+00 3.05960E+00-3.18801E-13 4.65294E-13
 -1      1697 5.13357E+01 4.59939E+00 1.65763E+00 7.93068E+00-1.96287E-13-5.32907E-14
 -1      1698 5.49885E+01 3.94674E+00 1.87002E+00-5.12587E+00-2.27124E-13 8.34111E-13
 -1      1699 5.64799E+01 3.46709E+00 1.97072E+00 3.36865E-01-2.51438E-13 5.99576E-13
 -1      1700 4.61730E+01 5.90236E+00 1.42648E+00-1.11074E+01-2.68230E-13 7.08322E-13
 -1      1701 5.28892E+01 4.25393E+00 1.92185E+00-7.56833E+00-1.27051E-13 7.38298E-13
 -1      1702 3.25619E+01 6.66830E+00 6.86741E-01-1.18646E+01-4.11338E-13 6.43041E-13
 -1      1703 4.16474E+01 5.72628E+00 1.41313E+00-1.18020E+01-3.90493E-13 6.62470E-13
 -1      1704 1.92373E+01 5.27532E+00-4.13756E-02-9.66790E+00-4.95382E-13 4.72955E-13
 -1      1705 2.72853E+01 6.49691E+00 7.82787E-01-1.23654E+01-4.22329E-13 5.67990E-13
 -1      1706 9.32000E+00-3.15838E-02-7.90265E-01-5.04981E+00-6.08846E-13 4.06564E-13
 -1      1707 1.46828E+01 3.87862E+00 4.78263E-02-8.59980E+00-5.00044E-13 3.84026E-13
 -1      1708 3.22196E+00-7.68160E+00-1.43468E+00-1.13437E+00-2.42029E-13 5.06539E-13
 -1      1709 5.74950E+00-2.05723E+00-7.03435E-01-3.67686E+00-5.53779E-13 5.72875E-13
 -1      1710 4.27908E-01-1.46740E+01-1.84020E+00 3.71471E-01-1.47216E-13-1.39264E-14
 -1      1711 9.63066E-01-9.77831E+00-1.36430E+00 5.00010E-02-6.81677E-14 1.81827E-13
 -1      1712-5.98876E-01-1.77102E+01-1.91423E+00-3.53918E-01 5.65936E-14 1.05083E-13
 -1      1713-5.69075E-01-1.55806E+01-1.71805E+00 9.00514E-01 1.27676E-15 1.73139E-13
 -1      1714 2.51389E+01 3.22579E-01 2.86647E-01 7.35141E+00 7.64611E-13 7.30416E-13
 -1      1715 1.45419E+01-3.83289E+00-3.15410E-01 6.55531E+00 6.15175E-13 8.21621E-13
 -1      1716 2.00688E+01 8.09441E-02-7.13006E-03 8.67090E-02-2.95585E-13-6.96470E-14
 -1      1717 2.01568E+01 2.24233E-01-6.75937E-03 2.75300E-01-5.27330E-14-2.31792E-14
 -1      1718 2.75804E-01-1.17207E+01-1.35134E+00 2.13756E+00 1.15685E-13 3.23186E-13
 -1      1719 5.52389E+00-8.21783E+00-9.49530E-01 4.36637E+00 4.47975E-13 9.05914E-13
 -1      1720-1.43117E+00-1.23533E+01-1.38402E+00-1.43461E-01 1.23630E-13 2.94209E-15
 -1      1721 3.51988E+01 3.93219E+00 8.56827E-01 6.55436E+00 5.89945E-13 4.69513E-13
 -1      1722 4.31550E+01 6.22223E+00 1.20783E+00 4.39816E+00 6.82121E-13-1.99840E-15
 -1      1723 4.75249E+01 7.48905E+00 1.55564E+00 1.57633E+00 3.93185E-13 8.70137E-14
 -1      1724 4.63195E+01 7.17875E+00 1.49534E+00-2.43589E+00 4.44089E-14-8.21565E-14
 -1      1725 4.06116E+01 5.44573E+00 1.19053E+00-5.91445E+00 2.24421E-13-2.22600E-13
 -1      1726 3.06074E+01 2.84779E+00 5.95589E-01-7.39214E+00 3.28571E-13-4.47087E-13
 -1      1727 1.99707E+01-1.33276E+00-6.00156E-02-6.87662E+00 2.59126E-13-2.05391E-13
 -1      1728 1.02020E+01-5.51063E+00-5.69631E-01-5.50582E+00 1.92291E-13-1.48492E-13
 -1      1729 2.68864E+00-9.44965E+00-1.09135E+00-3.14271E+00 2.12830E-13-1.19765E-13
 -1      1730-8.94403E-01-1.19893E+01-1.34261E+00-1.10713E+00 3.60822E-14-6.73239E-13
 -1      1731-1.19255E+00-1.21947E+01-1.36595E+00 7.84062E-01-2.23710E-13-4.49085E-13
 -1      1732 1.75691E+00-1.00584E+01-1.16217E+00 2.77357E+00-3.06977E-13-8.09353E-14
 -1      1733 8.18877E+00-6.34125E+00-7.13119E-01 4.98857E+00-4.44977E-13-3.17607E-13
 -1      1734 1.72488E+01-2.36654E+00-1.65917E-01 6.62120E+00-4.09783E-13-5.59552E-13
 -1      1735 2.72360E+01 1.31948E+00 3.80884E-01 7.05937E+00-5.44842E-13-1.17018E-13
 -1      1736 3.69190E+01 4.43769E+00 9.44883E-01 6.36229E+00-4.10824E-13-6.01741E-14
 -1      1737 4.47169E+01 6.45491E+00 1.42570E+00 4.19708E+00-2.58515E-13-5.24025E-14
 -1      1738 4.85467E+01 7.24382E+00 1.65628E+00 6.22856E-01-4.69180E-13 4.17083E-13
 -1      1739 4.72310E+01 7.16830E+00 1.59637E+00-3.18608E+00-1.49214E-13 5.47562E-13
 -1      1740 4.09855E+01 5.67017E+00 1.17548E+00-5.60397E+00-2.90171E-13 4.84168E-13
 -1      1741 3.22039E+01 3.20379E+00 7.35811E-01-7.28564E+00-2.59348E-13 4.04454E-13
 -1      1742 2.20041E+01-6.69512E-02 1.38873E-01-7.57743E+00-4.04454E-13 4.28324E-13
 -1      1743 1.26476E+01-4.26040E+00-4.62227E-01-6.20384E+00-2.29039E-13 3.22353E-13
 -1      1744 5.12630E+00-8.48136E+00-9.91015E-01-4.24117E+00 6.26166E-14 5.31408E-13
 -1      1745 3.43625E-01-1.11919E+01-1.26745E+00-2.28912E+00 2.41918E-13 1.41775E-13
 -1      1746 2.28594E+01 1.98501E+00-2.35740E-02-2.72273E+00-1.83735E-13 6.08291E-13
 -1      1747 1.98232E+01 3.71434E+00-3.55585E-02-2.15261E+00-2.05492E-13-2.85574E-13
 -1      1748 2.00583E+01 3.56212E+00-4.02629E-02-2.44560E+00-2.48503E-13-2.18745E-13
 -1      1749 2.03636E+01 3.18181E+00-4.57163E-02-2.58549E+00-2.56324E-13-1.30548E-13
 -1      1750 2.05835E+01 2.81006E+00-1.42535E-01-2.85387E+00-2.77233E-13-9.99201E-15
 -1      1751 2.04235E+01 2.69340E+00-4.44353E-03-2.22656E+00-2.63930E-13-1.57173E-13
 -1      1752 1.93546E+01 4.18935E+00-2.02060E-02-1.27122E+00-1.01009E-13-3.86143E-13
 -1      1753 1.94277E+01 4.14902E+00-1.75138E-02-1.49552E+00-1.32808E-13-3.76399E-13
 -1      1754 1.92586E+01 4.29446E+00-1.68011E-02-8.60075E-01-4.34477E-14-3.83311E-13
 -1      1755 1.93012E+01 4.27072E+00-1.43418E-02-1.07087E+00-6.95477E-14-3.91801E-13
 -1      1756 1.95270E+01 3.78259E+00-9.22238E-03-1.12067E+00-9.65200E-14-3.75686E-13
 -1      1757 1.92072E+01 4.35486E+00-1.48083E-02-4.66969E-01 1.02901E-14-3.77110E-13
 -1      1758 1.92291E+01 4.34206E+00-1.33172E-02-6.67333E-01-1.77918E-14-3.82234E-13
 -1      1759 1.94301E+01 3.90287E+00-9.19875E-03-7.33546E-01-3.27224E-14-3.68365E-13
 -1      1760 1.91878E+01 4.38048E+00-1.36728E-02-8.36633E-02 6.62880E-14-3.60743E-13
 -1      1761 1.91942E+01 4.37656E+00-1.32218E-02-2.79177E-01 4.62344E-14-3.74234E-13
 -1      1762 1.93799E+01 3.96742E+00-9.16176E-03-3.58434E-01 2.97849E-14-3.60274E-13
 -1      1763 1.91959E+01 4.37520E+00-1.31740E-02 2.98228E-01 1.16260E-13-3.49385E-13
 -1      1764 1.91883E+01 4.37966E+00-1.37553E-02 1.02557E-01 8.72675E-14-3.54397E-13
 -1      1765 1.93651E+01 3.98684E+00-9.14763E-03 1.05660E-02 8.58922E-14-3.41820E-13
 -1      1766 1.92331E+01 4.33803E+00-1.33327E-02 6.87092E-01 1.64256E-13-3.36276E-13
 -1      1767 1.92100E+01 4.35172E+00-1.49183E-02 4.86230E-01 1.38451E-13-3.45658E-13
 -1      1768 1.93826E+01 3.96415E+00-9.18938E-03 3.79749E-01 1.37015E-13-3.35175E-13
 -1      1769 1.93066E+01 4.26466E+00-1.44141E-02 1.08486E+00 2.05651E-13-3.11622E-13
 -1      1770 1.92632E+01 4.28912E+00-1.69726E-02 8.76842E-01 1.85386E-13-3.30175E-13
 -1      1771 1.94353E+01 3.89669E+00-9.19466E-03 7.52038E-01 1.86895E-13-3.14859E-13
 -1      1772 1.94380E+01 4.13750E+00-1.74071E-02 1.51493E+00 2.59970E-13-2.43590E-13
 -1      1773 1.93616E+01 4.18007E+00-2.05004E-02 1.28537E+00 2.29604E-13-2.86039E-13
 -1      1774 1.95348E+01 3.77284E+00-9.24069E-03 1.13590E+00 2.35932E-13-2.80467E-13
 -1      1775 1.96671E+01 3.92100E+00-2.51971E-02 1.98002E+00 3.03805E-13-1.41068E-13
 -1      1776 1.95343E+01 3.99776E+00-2.69009E-02 1.72268E+00 2.76674E-13-1.98914E-13
 -1      1777 1.97081E+01 3.56583E+00-8.69696E-03 1.53566E+00 2.87664E-13-2.00732E-13
 -1      1778 2.00757E+01 3.52273E+00-4.51890E-02 2.47244E+00 3.30637E-13 2.62498E-14
 -1      1779 1.98357E+01 3.68318E+00-3.97212E-02 2.18335E+00 3.09262E-13-7.90201E-14
 -1      1780 2.00044E+01 3.22277E+00-5.27209E-03 1.93500E+00 3.23651E-13-9.85757E-14
 -1      1781 2.09211E+01 2.68181E+00-5.76527E-02 2.85809E+00 3.08312E-13 3.35225E-13
 -1      1782 2.04137E+01 3.09692E+00-5.04279E-02 2.61633E+00 3.13751E-13 1.51233E-13
 -1      1783 2.05175E+01 2.60989E+00 3.18752E-03 2.24495E+00 3.30195E-13 9.05560E-14
 -1      1784 2.17314E+01 1.21299E+00-1.22096E-01 2.33009E+00 2.43326E-13 7.00023E-13
 -1      1785 2.12749E+01 2.26307E+00 1.18418E-04 2.74073E+00 2.74071E-13 4.60645E-13
 -1      1786 2.09376E+01 1.68502E+00-2.29637E-02 2.14052E+00 3.03750E-13 3.29427E-13
 -1      1787 2.09527E+01 7.78685E-01-6.24544E-02 1.52440E+00 2.46407E-13 6.14215E-13
 -1      1788 2.17972E+01 2.45832E+00 9.08584E-02-3.04847E+00-2.48565E-13 2.21156E-13
 -1      1789 2.01017E+01 2.97930E-01-8.92022E-03 6.57269E-01 1.83967E-13 4.98972E-13
 -1      1790 2.06539E+01 4.40405E-01-1.24697E-02 1.03430E+00 1.95871E-13 5.55063E-13
 -1      1791 2.07450E+01 8.45125E-01 2.24984E-03 1.41543E+00 2.42577E-13 3.85462E-13
 -1      1792 2.15075E+01 1.74278E+00 7.94499E-02-2.33743E+00-2.63463E-13 1.33185E-13
 -1      1793 2.05215E+01 5.00432E-01 3.25302E-02-9.21925E-01-2.28938E-13 9.52250E-14
 -1      1794 2.00893E+01 3.51811E-01 7.57486E-03-6.30163E-01-2.07119E-13 4.13593E-14
 -1      1795 1.98946E+01 2.57326E-01 2.74162E-02-3.91820E-01-1.93518E-13 4.14625E-14
 -1      1796 1.97034E+01 1.78064E-01 1.04004E-02-2.53984E-01-1.51024E-13 5.81132E-17
 -1      1797 2.01993E+01 4.83753E-01-5.72362E-03-7.23505E-01-2.28308E-13-3.11530E-14
 -1      1798 1.95814E+01 1.32658E-01 1.66812E-02-1.20456E-01-1.16830E-13-1.12098E-14
 -1      1799 1.95030E+01 9.29239E-02 6.97159E-03-4.97501E-02-8.96566E-14-4.95975E-14
 -1      1800 1.98728E+01 2.44000E-01-5.70348E-03-2.96316E-01-1.54855E-13-3.98457E-14
 -1      1801 1.94380E+01 6.82134E-02 8.69253E-03 2.36258E-02-8.72627E-14-5.59188E-14
 -1      1802 1.94232E+01 4.65015E-02 4.10637E-03 5.96797E-02-7.83770E-14-7.69838E-14
 -1      1803 1.96899E+01 1.24981E-01-4.60643E-03-5.97287E-02-1.11231E-13-7.64666E-14
 -1      1804 1.93969E+01 3.21623E-02 4.23447E-03 9.82310E-02-6.30049E-14-6.18472E-14
 -1      1805 1.94162E+01 1.97232E-02 2.42363E-03 1.14874E-01-3.39561E-14-9.81013E-14
 -1      1806 1.96030E+01 6.06057E-02-3.45027E-03 6.95099E-02-7.66972E-14-1.03330E-13
 -1      1807 1.94142E+01 1.10944E-02 1.85336E-03 1.32646E-01-2.40742E-14-9.26658E-14
 -1      1808 1.94508E+01 3.92487E-03 1.44126E-03 1.37948E-01-1.54534E-14-1.01660E-13
 -1      1809 1.95782E+01 2.37262E-02-2.33630E-03 1.35582E-01-3.27960E-14-9.27953E-14
 -1      1810 1.94630E+01-1.24788E-03 5.56068E-04 1.43211E-01-4.07842E-14-1.00611E-13
 -1      1811 1.95067E+01-5.19935E-03 8.34270E-04 1.41898E-01-6.89298E-14-1.02531E-13
 -1      1812 1.95912E+01 2.23789E-03-1.44044E-03 1.63607E-01-4.50623E-14-1.08011E-13
 -1      1813 1.95264E+01-8.14281E-03-1.59795E-04 1.39812E-01-9.62700E-14-7.92652E-14
 -1      1814 1.95713E+01-1.00385E-02 4.50124E-04 1.34853E-01-6.35104E-14-9.24951E-14
 -1      1815 1.96253E+01-9.92298E-03-8.01243E-04 1.68790E-01-6.07281E-14-1.18189E-13
 -1      1816 1.95942E+01-1.14950E-02-5.37793E-04 1.28771E-01-1.02499E-13-1.47153E-13
 -1      1817 1.96368E+01-1.20476E-02 2.15765E-04 1.22105E-01-9.16498E-14-1.97120E-13
 -1      1818 1.96696E+01-1.61207E-02-3.78438E-04 1.60820E-01-1.21457E-13-1.42509E-13
 -1      1819 1.96604E+01-1.24946E-02-7.06704E-04 1.14264E-01-6.73308E-14-2.24297E-13
 -1      1820 1.96992E+01-1.21576E-02 9.07227E-05 1.07185E-01-4.89834E-14-2.77552E-13
 -1      1821 1.97173E+01-1.83958E-02-1.18981E-04 1.46077E-01-1.08408E-13-1.89456E-13
 -1      1822 1.97218E+01-1.19090E-02-7.42183E-04 9.90982E-02-4.50099E-14-2.62367E-13
 -1      1823 1.97563E+01-1.09714E-02 4.98201E-05 9.24855E-02-4.49785E-14-2.68902E-13
 -1      1824 1.97644E+01-1.80446E-02 2.14051E-05 1.28852E-01-4.80242E-14-2.35760E-13
 -1      1825 1.97775E+01-1.02307E-02-6.91970E-04 8.52009E-02-3.60334E-14-2.69392E-13
 -1      1826 1.98080E+01-8.86798E-03 7.72856E-05 7.96683E-02-5.44079E-14-2.46479E-13
 -1      1827 1.98090E+01-1.58969E-02 7.52679E-05 1.12085E-01-2.40445E-14-1.64678E-13
 -1      1828 1.98278E+01-7.75914E-03-5.87013E-04 7.39388E-02-4.28429E-14-2.06057E-13
 -1      1829 1.98550E+01-6.06463E-03 1.64259E-04 6.99425E-02-2.64681E-15-1.84577E-13
 -1      1830 1.98506E+01-1.24647E-02 6.53075E-05 9.78440E-02-1.60193E-14-1.25483E-13
 -1      1831 1.98740E+01-4.65249E-03-4.47221E-04 6.63513E-02 3.16679E-14-1.78925E-13
 -1      1832 1.98993E+01-2.65757E-03 3.07243E-04 6.42684E-02 5.91555E-14-1.16899E-13
 -1      1833 1.98897E+01-8.03056E-03 6.75372E-06 8.76661E-02 2.98267E-14-1.12003E-13
 -1      1834 1.99181E+01-9.62103E-04-2.84988E-04 6.33216E-02 1.19157E-15-1.27164E-13
 -1      1835 1.99432E+01 1.34858E-03 5.06860E-04 6.35095E-02-8.55840E-15-7.87386E-14
 -1      1836 1.99278E+01-2.70541E-03-9.06464E-05 8.27998E-02 2.83292E-14-1.05410E-13
 -1      1837 1.99631E+01 3.34053E-03-1.07663E-04 6.57040E-02-5.15212E-14-1.15304E-13
 -1      1838 1.99899E+01 6.01648E-03 7.66617E-04 6.85442E-02-4.23211E-14-1.46673E-13
 -1      1839 1.99668E+01 3.52828E-03-2.21043E-04 8.43878E-02-6.51996E-14-1.23870E-13
 -1      1840 2.00124E+01 8.34032E-03 8.05296E-05 7.44161E-02-9.43058E-14-2.20310E-13
 -1      1841 2.00433E+01 1.14526E-02 1.09146E-03 8.03435E-02-9.99957E-14-2.82706E-13
 -1      1842 2.00093E+01 1.07804E-02-3.81134E-04 9.35991E-02-1.23543E-13-1.50534E-13
 -1      1843 2.00699E+01 1.41539E-02 2.76829E-04 9.04961E-02-8.57332E-14-3.24395E-13
 -1      1844 2.01078E+01 1.77802E-02 1.48574E-03 1.00013E-01-7.96768E-14-3.99250E-13
 -1      1845 2.00585E+01 1.92168E-02-5.68916E-04 1.11713E-01-1.47260E-13-2.75448E-13
 -1      1846 2.01404E+01 2.08988E-02 4.78339E-04 1.15121E-01-2.57340E-14-4.51677E-13
 -1      1847 2.01884E+01 2.51013E-02 1.95018E-03 1.28790E-01 1.78692E-14-4.82484E-13
 -1      1848 2.01180E+01 2.90145E-02-7.82443E-04 1.40158E-01-8.43314E-14-3.72351E-13
 -1      1849 2.02293E+01 2.86484E-02 6.80367E-04 1.49573E-01 6.27809E-14-5.08702E-13
 -1      1850 2.02909E+01 3.34409E-02 2.47708E-03 1.67979E-01 2.97711E-14-4.22729E-13
 -1      1851 2.01921E+01 4.02990E-02-1.01857E-03 1.80480E-01 7.09991E-14-3.48792E-13
 -1      1852 2.03425E+01 3.73625E-02 8.74627E-04 1.95123E-01-2.33614E-14-3.30637E-13
 -1      1853 2.04216E+01 4.26552E-02 3.04278E-03 2.18789E-01 2.87020E-14-3.17930E-13
 -1      1854 2.02853E+01 5.30466E-02-1.27171E-03 2.34233E-01 6.12816E-14-3.49394E-13
 -1      1855 2.04866E+01 4.67743E-02 1.04739E-03 2.52799E-01-1.14761E-14-3.35078E-13
 -1      1856 2.05873E+01 5.22858E-02 3.59621E-03 2.82023E-01-3.28904E-14-3.22489E-13
 -1      1857 2.04028E+01 6.69278E-02-1.53276E-03 3.02724E-01-8.65497E-15-2.09807E-13
 -1      1858 2.06682E+01 5.62100E-02 1.17795E-03 3.22959E-01-1.30675E-14-2.87906E-13
 -1      1859 2.07945E+01 6.13278E-02 4.04240E-03 3.57527E-01-1.76027E-14-2.75731E-13
 -1      1860 2.05499E+01 8.10566E-02-1.78857E-03 3.86559E-01-1.67134E-14-2.31102E-13
 -1      1861 2.08937E+01 6.43072E-02 1.23833E-03 4.04565E-01-7.48403E-14-2.53785E-13
 -1      1862 2.10487E+01 6.78775E-02 4.22092E-03 4.43285E-01-4.78695E-14-2.52206E-13
 -1      1863 2.07316E+01 9.35975E-02-2.02246E-03 4.84874E-01 3.73605E-15-1.85824E-13
 -1      1864 2.11684E+01 6.86013E-02 1.19616E-03 4.94029E-01-4.43250E-14-3.00583E-13
 -1      1865 2.13530E+01 6.86419E-02 3.88294E-03 5.34004E-01-2.43497E-14-3.36723E-13
 -1      1866 2.09525E+01 1.01185E-01-2.21605E-03 5.94112E-01-6.06781E-14-1.23379E-13
 -1      1867 2.14945E+01 6.49805E-02 1.02329E-03 5.83468E-01 1.49443E-14-3.38726E-13
 -1      1868 2.17062E+01 5.83586E-02 2.67895E-03 6.19054E-01 9.83534E-14-2.96980E-13
 -1      1869 2.12158E+01 9.81523E-02-2.35186E-03 7.06178E-01 1.47688E-14-1.47097E-13
 -1      1870 2.18698E+01 4.71309E-02 7.12028E-04 6.58299E-01 1.85118E-13-3.55179E-13
 -1      1871 2.21000E+01 2.93812E-02 1.85143E-04 6.79823E-01 2.38069E-13-2.19733E-13
 -1      1872 2.15225E+01 7.57121E-02-2.41209E-03 8.05890E-01 8.67504E-14-2.38259E-13
 -1      1873 2.22839E+01 6.39334E-03 2.93037E-04 6.94431E-01 1.27329E-13-2.60598E-13
 -1      1874 2.25150E+01-2.78562E-02-3.97931E-03 6.87061E-01 3.79102E-15-2.67641E-13
 -1      1875 2.18702E+01 2.16460E-02-2.36123E-03 8.67884E-01 1.42724E-13-2.77987E-13
 -1      1876 2.27144E+01-6.69248E-02-1.71776E-04 6.56156E-01-4.09820E-14-1.79933E-13
 -1      1877 2.29172E+01-1.21981E-01-9.87002E-03 6.00067E-01-8.71135E-15-1.65660E-13
 -1      1878 2.22510E+01-7.81374E-02-2.09010E-03 8.53900E-01 4.25480E-14-2.59198E-13
 -1      1879 2.31220E+01-1.78835E-01-6.76043E-04 4.97655E-01-1.75892E-14-1.81723E-13
 -1      1880 2.32548E+01-2.53087E-01-1.66991E-02 3.71749E-01-2.10075E-14-1.55844E-13
 -1      1881 2.26487E+01-2.33550E-01-1.30246E-03 7.12980E-01 1.63884E-14-1.56167E-13
 -1      1882 2.34447E+01-3.21115E-01-1.44859E-03 1.73762E-01-6.75441E-14-1.25711E-13
 -1      1883 2.34579E+01-3.98814E-01-2.22389E-02-3.37641E-02-6.66541E-14-1.16019E-13
 -1      1884 2.30328E+01-4.36455E-01 6.16313E-04 3.89843E-01-4.39869E-14-1.11737E-13
 -1      1885 2.35961E+01-4.55142E-01-3.24926E-03-3.32283E-01-1.76081E-13-3.76817E-14
 -1      1886 2.34461E+01-4.98130E-01-2.25283E-02-6.04778E-01 2.40780E-15-4.19630E-14
 -1      1887 2.33492E+01-6.38330E-01 4.44784E-03-1.50169E-01-7.32591E-14 7.74655E-14
 -1      1888 2.34771E+01-4.99213E-01-6.52455E-03-9.61476E-01 8.86149E-14-1.15126E-13
 -1      1889 2.31517E+01-4.50974E-01-1.31631E-02-1.23180E+00 3.28956E-14-1.43647E-13
 -1      1890 2.35125E+01-7.32264E-01 1.02378E-02-8.72907E-01-5.00979E-14 5.73909E-14
 -1      1891 2.30185E+01-3.46840E-01-1.06717E-02-1.52966E+00-2.99509E-14-2.49902E-13
 -1      1892 2.25657E+01-1.69955E-01 4.90048E-03-1.67662E+00-1.05668E-13-2.66722E-13
 -1      1893 2.34173E+01-5.68096E-01 1.60559E-02-1.61280E+00-5.75755E-14-9.47098E-14
 -1      1894 2.22694E+01 4.44416E-02-1.25781E-02-1.74239E+00-2.03697E-13-3.44938E-13
 -1      1895 2.18074E+01 3.05158E-01 2.08784E-02-1.64364E+00-2.60730E-13-5.11266E-13
 -1      1896 2.30043E+01-6.55145E-02 1.31692E-02-2.04791E+00-2.11682E-13-3.26955E-13
 -1      1897 2.14696E+01 5.40786E-01-6.57374E-03-1.35704E+00-3.82108E-14-4.67839E-13
 -1      1898 2.11501E+01 7.42376E-01 2.18444E-02-9.92731E-01 1.10221E-13-3.59463E-13
 -1      1899 2.23831E+01 6.30740E-01-5.58049E-03-1.82923E+00-6.94670E-14-4.77605E-13
 -1      1900 2.09708E+01 8.48324E-01 8.85936E-03-4.28447E-01 1.17873E-13-3.39427E-13
 -1      1901 2.09029E+01 8.47887E-01 7.52595E-03 5.39466E-02 3.46650E-14-2.63599E-13
 -1      1902 2.18698E+01 1.15171E+00-2.63553E-02-8.78055E-01 1.08883E-13-3.32450E-13
 -1      1903 2.09887E+01 7.42249E-01 2.28135E-02 6.18484E-01-6.84348E-15-1.11372E-13
 -1      1904 2.11723E+01 5.38110E-01-8.44045E-03 9.82070E-01 2.01505E-14-2.18764E-13
 -1      1905 2.17753E+01 1.15174E+00-2.64508E-02 4.04298E-01 8.66876E-14-2.33661E-13
 -1      1906 2.14195E+01 3.00068E-01 2.18077E-02 1.26662E+00-1.59023E-13-1.43054E-13
 -1      1907 2.17437E+01 3.50995E-02-1.49091E-02 1.36120E+00-1.34395E-13-2.14141E-13
 -1      1908 2.21019E+01 6.23647E-01-6.92551E-03 1.35468E+00-9.08197E-14 8.75333E-14
 -1      1909 2.19500E+01-1.81294E-01 5.94080E-03 1.28912E+00-7.09892E-15-2.87041E-13
 -1      1910 2.22625E+01-3.60884E-01-1.24980E-02 1.13506E+00 1.53392E-13-1.62188E-13
 -1      1911 2.25395E+01-8.15277E-02 1.20298E-02 1.56449E+00-5.02020E-14 1.12729E-13
 -1      1912 2.23052E+01-4.64741E-01-1.17259E-02 8.28887E-01 3.04720E-13-3.38223E-13
 -1      1913 2.24880E+01-5.12020E-01-7.28878E-03 5.51414E-01 3.22161E-13-1.46108E-13
 -1      1914 2.27695E+01-5.88226E-01 1.57952E-02 1.11354E+00 1.82159E-13 8.19917E-15
 -1      1915 2.23658E+01-5.06409E-01-2.08786E-02 1.89207E-01 2.80945E-13 2.65820E-14
 -1      1916 2.23746E+01-4.55324E-01-2.47315E-03-8.48191E-02 2.72734E-13 1.67329E-13
 -1      1917 2.26809E+01-7.46063E-01 1.04837E-02 3.58814E-01 4.26040E-13-5.81895E-14
 -1      1918 2.21458E+01-3.86570E-01-2.04668E-02-3.76564E-01 1.76224E-13 2.63979E-13
 -1      1919 2.20018E+01-2.90230E-01 1.46638E-03-5.70159E-01 1.91866E-13 2.54285E-13
 -1      1920 2.23339E+01-6.27400E-01 3.96025E-03-3.62332E-01 2.62948E-13 2.76900E-13
 -1      1921 2.17273E+01-1.99664E-01-1.46954E-02-7.35893E-01 1.70681E-13 2.30080E-13
 -1      1922 2.14890E+01-9.42448E-02 4.80598E-03-8.19902E-01 2.57988E-13 3.12472E-13
 -1      1923 2.18426E+01-3.70850E-01-5.26358E-04-8.58885E-01 1.78977E-13 3.35121E-13
 -1      1924 2.12119E+01-3.15608E-03-8.02824E-03-8.51668E-01 2.38517E-13 2.22515E-13
 -1      1925 2.09484E+01 9.61249E-02 7.30068E-03-8.24680E-01 2.34280E-13 2.21172E-13
 -1      1926 2.13068E+01-7.94519E-02-2.75548E-03-1.06741E+00 1.21470E-13 4.03764E-13
 -1      1927 2.07196E+01 1.63668E-01-3.18001E-03-7.35881E-01 2.87603E-13 1.22864E-13
 -1      1928 2.04933E+01 2.43875E-01 1.04687E-02-6.17812E-01 1.47048E-13 1.18891E-13
 -1      1929 2.04205E+01 3.61853E-01-1.57740E-03-7.35372E-01 2.44758E-14 2.48336E-13
 -1      1930 2.08194E+01 1.92968E-01-7.12715E-04-9.99554E-01 1.68583E-13 3.85846E-13
 -1      1931 1.96187E+01 1.42003E-01 7.87883E-03 2.59684E-01 1.52302E-13 4.06095E-13
 -1      1932 1.98909E+01 2.04072E-01 1.64321E-02 4.32663E-01 1.64575E-13 4.68228E-13
 -1      1933 2.01025E+01 3.50524E-01-1.53031E-03 6.55294E-01 2.05809E-13 3.15259E-13
 -1      1934 1.93761E+01 7.18596E-02 6.94483E-03 5.67843E-02 1.24682E-13 3.06031E-13
 -1      1935 1.94913E+01 1.01752E-01 1.41948E-02 1.45263E-01 1.29286E-13 3.62954E-13
 -1      1936 1.97096E+01 1.65129E-01-1.94103E-03 2.56608E-01 1.63867E-13 2.55243E-13
 -1      1937 1.92853E+01 3.60874E-02 4.42783E-03-4.85785E-02 6.07452E-14 2.43435E-13
 -1      1938 1.93156E+01 5.19011E-02 8.33580E-03-1.41935E-03 7.74101E-14 2.70870E-13
 -1      1939 1.95091E+01 8.05996E-02-2.82026E-03 4.47255E-02 1.16102E-13 1.74503E-13
 -1      1940 1.92831E+01 1.61562E-02 2.85939E-03-1.00978E-01 1.10862E-14 2.05882E-13
 -1      1941 1.92682E+01 2.50111E-02 4.35155E-03-7.64040E-02 2.47038E-14 2.39097E-13
 -1      1942 1.94297E+01 3.73983E-02-2.83716E-03-6.70636E-02 3.75279E-14 1.04163E-13
 -1      1943 1.93299E+01 4.55150E-03 1.98498E-03-1.23014E-01 7.04010E-14 1.86695E-13
 -1      1944 1.92918E+01 9.57046E-03 2.14777E-03-1.11619E-01 2.85717E-14 1.93741E-13
 -1      1945 1.94228E+01 1.35898E-02-2.31046E-03-1.22527E-01 4.33949E-14 6.50428E-14
 -1      1946 1.94009E+01-2.19061E-03 1.44485E-03-1.27240E-01 6.59921E-14 1.62803E-13
 -1      1947 1.93527E+01 5.33416E-04 9.52506E-04-1.23747E-01 7.99806E-14 2.00146E-13
 -1      1948 1.94570E+01 5.76788E-05-1.69341E-03-1.45056E-01 7.40112E-14 8.91150E-14
 -1      1949 1.94811E+01-5.88157E-03 1.06884E-03-1.21239E-01 9.14200E-14 9.03877E-14
 -1      1950 1.94303E+01-4.59484E-03 2.85342E-04-1.22417E-01 8.54964E-14 1.56992E-13
 -1      1951 1.95123E+01-7.45940E-03-1.17445E-03-1.48164E-01 1.03849E-13 9.94424E-14
 -1      1952 1.95613E+01-7.57853E-03 7.92784E-04-1.09852E-01 3.70884E-14 9.61312E-14
 -1      1953 1.95125E+01-7.20903E-03-8.88813E-05-1.13610E-01 5.56382E-14 8.64252E-14
 -1      1954 1.95761E+01-1.12180E-02-7.87914E-04-1.40208E-01 7.01743E-14 7.66767E-14
 -1      1955 1.96367E+01-7.94613E-03 5.90952E-04-9.62676E-02-1.41200E-14 1.24977E-13
 -1      1956 1.95920E+01-8.16099E-03-2.84470E-04-1.01206E-01 2.97378E-14 9.35539E-14
 -1      1957 1.96410E+01-1.25394E-02-5.15580E-04-1.26597E-01 4.19528E-14 4.17452E-14
 -1      1958 1.97048E+01-7.41419E-03 4.49821E-04-8.26224E-02 6.53142E-15 8.94715E-14
 -1      1959 1.96652E+01-7.99679E-03-3.63575E-04-8.77859E-02-3.15701E-14 1.01062E-13
 -1      1960 1.97027E+01-1.22510E-02-3.32368E-04-1.10925E-01-1.82197E-14 5.10526E-14
 -1      1961 1.97653E+01-6.25672E-03 3.60857E-04-7.03764E-02 1.99236E-13 3.72336E-14
 -1      1962 1.97308E+01-7.06831E-03-3.63840E-04-7.50972E-02 1.09334E-13 7.95483E-14
 -1      1963 1.97594E+01-1.08800E-02-2.17753E-04-9.56260E-02 1.15753E-13-7.66722E-15
 -1      1964 1.98189E+01-4.63671E-03 3.18714E-04-6.05659E-02 9.59298E-14-4.01400E-15
 -1      1965 1.97888E+01-5.59333E-03-3.09137E-04-6.43562E-02 1.25495E-13 2.25674E-14
 -1      1966 1.98106E+01-8.75262E-03-1.56831E-04-8.23897E-02 1.58798E-13 1.19640E-14
 -1      1967 1.98677E+01-2.63448E-03 3.20674E-04-5.39857E-02 5.72310E-14 5.12205E-14
 -1      1968 1.98407E+01-3.69171E-03-2.14401E-04-5.64590E-02 7.04430E-14 4.02001E-14
 -1      1969 1.98573E+01-6.05112E-03-1.39414E-04-7.24515E-02 6.84096E-14-4.27979E-15
 -1      1970 1.99142E+01-2.67350E-04 3.66304E-04-5.13256E-02 7.84401E-14-4.42785E-14
 -1      1971 1.98888E+01-1.40939E-03-8.83340E-05-5.21366E-02 7.97738E-14 3.36124E-14
 -1      1972 1.99013E+01-2.85056E-03-1.58966E-04-6.67986E-02 8.43779E-14 3.03882E-14
 -1      1973 1.99616E+01 2.49506E-03 4.57073E-04-5.32723E-02 9.18170E-14-1.38217E-13
 -1      1974 1.99359E+01 1.26399E-03 6.47332E-05-5.20709E-02 5.07865E-14-1.25970E-13
 -1      1975 1.99449E+01 8.55063E-04-2.11836E-04-6.63260E-02 1.26707E-13-1.02657E-13
 -1      1976 2.00140E+01 5.71694E-03 5.95834E-04-6.05841E-02 8.68714E-15-1.18412E-13
 -1      1977 1.99858E+01 4.38019E-03 2.43370E-04-5.69805E-02 4.90764E-14-1.18181E-13
 -1      1978 1.99914E+01 5.13141E-03-2.96592E-04-7.19495E-02 6.50577E-14-1.59948E-13
 -1      1979 2.00761E+01 9.48099E-03 7.85988E-04-7.41380E-02-1.43298E-13-1.21222E-13
 -1      1980 2.00426E+01 8.01752E-03 4.47668E-04-6.76793E-02-6.86772E-14-1.19876E-13
 -1      1981 2.00444E+01 1.00829E-02-4.13428E-04-8.46849E-02-5.70473E-14-9.88669E-14
 -1      1982 2.01532E+01 1.38685E-02 1.03005E-03-9.49441E-02-3.91451E-14-1.36211E-13
 -1      1983 2.01114E+01 1.22626E-02 6.77721E-04-8.51047E-02-8.87015E-14-1.05960E-13
 -1      1984 2.01082E+01 1.58280E-02-5.63567E-04-1.05688E-01-9.10602E-14-1.54334E-13
 -1      1985 2.02515E+01 1.89293E-02 1.32712E-03-1.24116E-01 2.80689E-15-6.84643E-14
 -1      1986 2.01978E+01 1.71849E-02 9.31700E-04-1.10308E-01-4.68409E-14-1.36446E-13
 -1      1987 2.01880E+01 2.24647E-02-7.48622E-04-1.36246E-01-3.18379E-14-1.14937E-13
 -1      1988 2.03779E+01 2.46342E-02 1.66872E-03-1.62772E-01 6.59335E-14-3.19148E-14
 -1      1989 2.03085E+01 2.27963E-02 1.20320E-03-1.44387E-01 7.88304E-14 1.28838E-14
 -1      1990 2.02893E+01 3.00173E-02-9.69852E-04-1.77702E-01 4.32539E-14-9.12660E-15
 -1      1991 2.05401E+01 3.07959E-02 2.03186E-03-2.11829E-01-2.10650E-14-7.42189E-14
 -1      1992 2.04505E+01 2.89859E-02 1.47751E-03-1.88331E-01 6.06271E-14-1.67836E-14
 -1      1993 2.04183E+01 3.83497E-02-1.22724E-03-2.31279E-01 8.76538E-14-2.95887E-14
 -1      1994 2.07457E+01 3.69420E-02 2.36873E-03-2.71625E-01-7.51712E-14-1.23941E-13
 -1      1995 2.06315E+01 3.54138E-02 1.72635E-03-2.42729E-01-1.04769E-13-1.44919E-13
 -1      1996 2.05816E+01 4.70243E-02-1.51831E-03-2.97728E-01-4.28555E-14-5.96059E-14
 -1      1997 2.10019E+01 4.21141E-02 2.59243E-03-3.41263E-01 3.53623E-15 9.71419E-14
 -1      1998 2.08590E+01 4.13404E-02 1.90129E-03-3.07246E-01-1.64545E-14-3.34173E-15
 -1      1999 2.07857E+01 5.50765E-02-1.83622E-03-3.76732E-01-5.76086E-14 5.06749E-14
 -1      2000 2.13138E+01 4.45736E-02 2.56099E-03-4.17552E-01-5.25899E-14 1.30306E-13
 -1      2001 2.11395E+01 4.53691E-02 1.92676E-03-3.79779E-01 1.48846E-14 1.00298E-13
 -1      2002 2.10360E+01 6.06715E-02-2.16626E-03-4.65918E-01-5.27139E-15 6.23900E-14
 -1      2003 2.16824E+01 4.14198E-02 2.06767E-03-4.93395E-01 1.90785E-14 1.98312E-13
 -1      2004 2.14767E+01 4.50892E-02 1.69610E-03-4.55126E-01-2.76168E-14 1.22738E-13
 -1      2005 2.13361E+01 6.06297E-02-2.47835E-03-5.59324E-01-8.43076E-15 1.68795E-13
 -1      2006 2.21012E+01 2.82197E-02 8.56956E-04-5.55551E-01 3.12012E-15 6.82501E-14
 -1      2007 2.18690E+01 3.66702E-02 1.07818E-03-5.23096E-01 8.45845E-14 1.72250E-13
 -1      2008 2.16853E+01 4.98809E-02-2.71145E-03-6.45215E-01 6.04307E-14 9.20921E-14
 -1      2009 2.25516E+01-1.01177E-03-1.29800E-03-5.82051E-01 4.60496E-14 3.76574E-14
 -1      2010 2.23058E+01 1.46199E-02-5.37637E-05-5.66136E-01 3.26238E-14 1.15415E-13
 -1      2011 2.20767E+01 2.11298E-02-2.74355E-03-7.03318E-01 6.62808E-14 2.07151E-13
 -1      2012 2.29977E+01-5.26891E-02-4.40856E-03-5.40386E-01-3.06222E-14 2.78146E-14
 -1      2013 2.27625E+01-2.77158E-02-1.76105E-03-5.57191E-01 7.63539E-15 3.90313E-17
 -1      2014 2.24931E+01-3.45151E-02-2.34408E-03-7.02230E-01 5.96073E-14 1.58545E-13
 -1      2015 2.33817E+01-1.29989E-01-7.96139E-03-3.89388E-01-1.22609E-13 5.48858E-14
 -1      2016 2.31950E+01-9.57413E-02-3.93805E-03-4.59739E-01-7.09550E-14-9.32848E-16
 -1      2017 2.29032E+01-1.24440E-01-1.12296E-03-5.99076E-01-1.99818E-14 5.79038E-14
 -1      2018 2.36227E+01-2.25069E-01-1.05905E-02-8.99941E-02 5.79788E-14-1.63475E-13
 -1      2019 2.35347E+01-1.87707E-01-6.23992E-03-2.34044E-01-1.16381E-13-4.25346E-14
 -1      2020 2.32570E+01-2.46879E-01 1.43219E-03-3.45845E-01-1.87801E-14 5.96138E-15
 -1      2021 2.36244E+01-3.07590E-01-1.02265E-02 3.67615E-01 6.91426E-14 3.70888E-14
 -1      2022 2.36892E+01-2.83977E-01-8.07794E-03 1.44286E-01 8.70658E-14-4.61505E-14
 -1      2023 2.34832E+01-3.76878E-01 5.76397E-03 9.08264E-02 3.72801E-14-2.17159E-13
 -1      2024 2.33007E+01-3.19841E-01-5.45389E-03 9.20092E-01-1.19418E-13 2.04304E-13
 -1      2025 2.35564E+01-3.37010E-01-8.68342E-03 6.48724E-01-8.21565E-15 2.68305E-13
 -1      2026 2.34930E+01-4.53535E-01 1.12692E-02 6.89532E-01-1.08719E-13 2.14752E-13
 -1      2027 2.26271E+01-1.97129E-01 2.08411E-03 1.39499E+00 2.64649E-14 2.01995E-13
 -1      2028 2.30663E+01-2.78557E-01-7.29082E-03 1.16101E+00-4.65999E-14 2.33469E-13
 -1      2029 2.32066E+01-3.87887E-01 1.53216E-02 1.32360E+00-6.56610E-14 2.55652E-13
 -1      2030 2.17067E+01 7.43598E-02 5.84108E-03 1.53624E+00-2.26418E-14 1.86202E-13
 -1      2031 2.22503E+01-6.19601E-02-3.68867E-03 1.46466E+00 1.63788E-14 1.97375E-13
 -1      2032 2.26120E+01-1.15025E-01 1.31075E-02 1.74340E+00 2.66150E-14 3.29471E-13
 -1      2033 2.08122E+01 3.89194E-01-9.35912E-05 1.14969E+00-9.02750E-14 1.08042E-13
 -1      2034 2.13091E+01 2.62749E-01 1.83279E-03 1.32903E+00-6.83533E-14 9.53404E-14
 -1      2035 2.18438E+01 3.09037E-01 2.38905E-04 1.65816E+00 1.25438E-14 3.74107E-13
 -1      2036 2.03040E+01 5.55965E-01-1.04724E-02 3.08687E-01-7.71345E-14 1.35663E-13
 -1      2037 2.05809E+01 5.24277E-01 8.69116E-03 6.95284E-01-1.01363E-13 1.07938E-13
 -1      2038 2.12010E+01 6.80190E-01-1.43740E-02 9.54540E-01-8.67188E-14 7.14871E-14
 -1      2039 2.04004E+01 4.53199E-01-1.46322E-02-6.06927E-01-2.08136E-13 1.90721E-13
 -1      2040 2.03573E+01 5.44818E-01 1.31667E-02-1.94787E-01-2.09496E-13 7.52532E-14
 -1      2041 2.09860E+01 7.64235E-01-1.64178E-02-1.14112E-01-1.75563E-13 6.59227E-14
 -1      2042 2.09920E+01 1.55611E-01-7.81641E-03-1.15860E+00 2.19785E-13 3.14509E-13
 -1      2043 2.06761E+01 3.09073E-01 1.11612E-02-9.14730E-01 7.06397E-14 2.97840E-13
 -1      2044 2.12617E+01 4.97909E-01-5.44715E-03-1.03052E+00-3.00801E-14 9.50637E-14
 -1      2045 2.17219E+01-1.43172E-01 3.09087E-03-1.16244E+00 5.30218E-14 1.55719E-13
 -1      2046 2.12998E+01-1.95563E-02 2.98883E-03-1.15830E+00 1.11887E-13 2.36706E-13
 -1      2047 2.17943E+01 5.72038E-02 6.44118E-03-1.38585E+00 1.45303E-13 5.97127E-14
 -1      2048 2.22451E+01-3.06631E-01 9.62334E-03-7.48232E-01-1.39963E-13 4.13725E-13
 -1      2049 2.18996E+01-2.58857E-01-6.18057E-03-9.22627E-01-3.89506E-14 3.63765E-13
 -1      2050 2.22548E+01-3.11353E-01 8.38612E-03-1.14249E+00-9.30332E-14 3.46433E-13
 -1      2051 2.23967E+01-3.18880E-01 1.00369E-02-1.81980E-01 8.72392E-14 2.08551E-13
 -1      2052 2.22383E+01-3.37896E-01-1.15513E-02-4.21202E-01 9.05873E-15 3.00703E-13
 -1      2053 2.24389E+01-4.69810E-01 3.90983E-03-5.48896E-01 6.99102E-14 5.12598E-13
 -1      2054 2.21908E+01-2.34846E-01 7.45611E-03 3.13890E-01 2.45057E-13 8.99393E-14
 -1      2055 2.22363E+01-2.88746E-01-1.18244E-02 1.03008E-01 2.33452E-13 1.83789E-13
 -1      2056 2.23123E+01-4.32145E-01-3.68572E-04 9.42935E-02 2.33982E-13 2.02163E-13
 -1      2057 2.17381E+01-1.12062E-01 4.85614E-03 6.23519E-01 1.84102E-13-2.50014E-13
 -1      2058 2.19384E+01-1.74909E-01-8.49311E-03 4.90860E-01 9.84855E-14-7.00464E-14
 -1      2059 2.19468E+01-2.82567E-01-2.18074E-03 5.84320E-01 1.81592E-13-3.61794E-14
 -1      2060 2.11782E+01 1.57185E-02 3.15496E-03 7.13221E-01 1.86193E-13-3.69385E-13
 -1      2061 2.14544E+01-4.31947E-02-3.92960E-03 6.75938E-01 2.12728E-13-3.47919E-13
 -1      2062 2.14482E+01-9.53942E-02-2.60766E-03 8.33366E-01 2.41090E-13-3.69906E-13
 -1      2063 2.06428E+01 1.35885E-01 3.52863E-03 5.91517E-01-1.79755E-13-2.82056E-13
 -1      2064 2.09111E+01 8.27154E-02-5.44865E-04 6.51845E-01-7.15823E-14-2.52430E-13
 -1      2065 2.09193E+01 8.78951E-02-3.24012E-03 8.29975E-01-1.14217E-13-2.01695E-13
 -1      2066 2.02898E+01 2.15476E-01 5.77896E-03 3.85799E-01-7.29127E-14-1.45119E-13
 -1      2067 2.04976E+01 1.74891E-01 5.49289E-04 5.14967E-01-1.40931E-13-2.37176E-13
 -1      2068 2.05193E+01 2.23529E-01-4.59312E-03 6.75061E-01-1.32472E-13-1.77976E-13
 -1      2069 2.02646E+01 3.35836E-01 1.34677E-03 4.79577E-01-1.79710E-13 6.06542E-14
 -1      2070 2.00967E+01 1.91398E+00 7.15227E-04 1.29876E+00-1.52879E-13 2.30408E-14
 -1      2071 2.01561E+01 1.50756E+00 4.98527E-03 1.22672E+00-1.75201E-13-1.37368E-13
 -1      2072 2.02031E+01 1.23928E+00 5.09420E-03 1.10084E+00-2.39583E-13-2.19681E-13
 -1      2073 2.02447E+01 8.97052E-01 5.54055E-03 9.71045E-01-1.80059E-13-1.26761E-13
 -1      2074 2.02633E+01 1.13166E+00-5.64733E-03 1.44856E+00-1.61006E-13-1.70700E-13
 -1      2075 2.02476E+01 7.43841E-01 6.18909E-03 8.08355E-01-3.02215E-13-1.80047E-13
 -1      2076 2.02725E+01 4.86146E-01 5.75230E-03 6.47845E-01-2.17427E-13-1.70576E-13
 -1      2077 2.03850E+01 4.36638E-01 3.21017E-03 7.68270E-01-1.76445E-13-2.91113E-13
 -1      2078 2.03576E+01 7.25187E-01-1.14830E-03 1.12669E+00-2.31896E-13-7.16636E-14
 -1      2079 1.99448E+01 2.63675E+00-7.34510E-03 1.33611E+00-4.73231E-13-1.63166E-13
 -1      2080 2.00280E+01 2.22268E+00 2.83580E-03 1.34483E+00-3.47485E-13 7.74763E-14
 -1      2081 2.00843E+01 1.70584E+00-4.65397E-03 1.64561E+00-2.51769E-13-1.55876E-13
 -1      2082 1.97631E+01 3.33700E+00-1.48185E-02 1.15691E+00-3.85610E-13 1.48233E-13
 -1      2083 1.98577E+01 2.96423E+00-1.00184E-03 1.26566E+00-4.08917E-13 2.06417E-13
 -1      2084 1.98478E+01 2.34380E+00 1.01699E-03 1.62447E+00-4.54669E-13 1.41979E-13
 -1      2085 1.96027E+01 3.87400E+00-1.89584E-02 7.48750E-01-4.84623E-13-5.08139E-13
 -1      2086 1.96794E+01 3.61602E+00-6.74618E-03 9.53873E-01-4.16221E-13-1.84367E-13
 -1      2087 1.95870E+01 2.95194E+00 8.62664E-03 1.32165E+00-4.92801E-13-5.11782E-14
 -1      2088 1.95209E+01 4.12819E+00-1.81410E-02 1.73067E-01-2.25351E-13-9.57567E-16
 -1      2089 1.95504E+01 4.03634E+00-1.32815E-02 4.38138E-01-3.39709E-13-1.54031E-13
 -1      2090 1.93796E+01 3.39502E+00 1.55536E-02 7.44758E-01-2.59828E-13-2.47032E-13
 -1      2091 1.95511E+01 4.03367E+00-1.32701E-02-4.43771E-01 4.15206E-14 3.42420E-13
 -1      2092 1.95211E+01 4.12736E+00-1.81656E-02-1.79020E-01-7.14025E-14 1.24790E-13
 -1      2093 1.93004E+01 3.55723E+00 1.83837E-02-3.75335E-03-2.31862E-13 1.83758E-13
 -1      2094 1.96804E+01 3.61030E+00-6.96132E-03-9.57967E-01-7.93371E-14 9.66761E-15
 -1      2095 1.96041E+01 3.87013E+00-1.88367E-02-7.53765E-01-4.88585E-15 2.64939E-13
 -1      2096 1.93807E+01 3.39207E+00 1.54351E-02-7.51400E-01-1.60604E-13 1.78122E-13
 -1      2097 1.98559E+01 2.96930E+00-1.07520E-03-1.26446E+00 7.25644E-14 6.81425E-14
 -1      2098 1.97630E+01 3.33610E+00-1.46835E-02-1.15743E+00-8.63281E-14 2.21719E-13
 -1      2099 1.95881E+01 2.95172E+00 8.86548E-03-1.32310E+00 1.38542E-14 1.54687E-13
 -1      2100 2.00275E+01 2.22124E+00 3.05956E-03-1.34533E+00 1.57553E-13-6.36442E-14
 -1      2101 1.99431E+01 2.64224E+00-7.29589E-03-1.33640E+00 1.58800E-13 2.87204E-14
 -1      2102 1.98453E+01 2.34872E+00 1.13755E-03-1.62380E+00 2.54947E-13 8.76768E-14
 -1      2103 2.01587E+01 1.50021E+00 5.65246E-03-1.22646E+00 1.58445E-13-1.48648E-13
 -1      2104 2.00974E+01 1.90611E+00 5.97169E-04-1.29952E+00 1.67894E-13-3.04154E-13
 -1      2105 2.00856E+01 1.70596E+00-3.85367E-03-1.64689E+00 2.84026E-13-8.05697E-14
 -1      2106 2.02481E+01 8.84588E-01 4.42072E-03-9.70609E-01-1.12519E-13-1.28790E-13
 -1      2107 2.02002E+01 1.23145E+00 4.17631E-03-1.09836E+00 3.08763E-14-2.28849E-13
 -1      2108 2.02663E+01 1.12481E+00-5.60711E-03-1.44679E+00 7.87443E-14-3.82840E-13
 -1      2109 1.01335E+01-5.94106E+00-1.85806E-01 6.53775E+00 3.22409E-13 6.78221E-13
 -1      2110 6.48683E+00-7.66748E+00-4.55904E-01 5.25139E+00 2.26263E-13 7.00745E-13
 -1      2111 4.49537E-01-7.92775E+00-4.22696E-01 9.86294E-01 2.53825E-13-1.06803E-13
 -1      2112 4.65397E-01-7.30371E+00-3.27102E-01-7.41006E-01 3.13430E-13-1.85962E-14
 -1      2113 3.26469E+00-7.46230E+00-3.53759E-01 4.15213E+00 3.89855E-13 7.17149E-13
 -1      2114 1.33719E+00-8.43458E+00-4.90863E-01 2.65630E+00 2.59653E-13 2.44638E-13
 -1      2115 1.95037E+01-4.12963E+00-6.86435E-03 7.15846E+00 3.83582E-13 7.25198E-13
 -1      2116 1.44000E+01-6.00727E+00-3.28405E-01 6.40070E+00 2.94320E-13 6.40793E-13
 -1      2117 2.86487E+01-9.05680E-01 1.66632E-01 5.76947E+00 4.94382E-13 3.25906E-13
 -1      2118 2.37706E+01-3.04903E+00-1.55913E-01 5.64298E+00 5.06151E-13 4.20719E-13
 -1      2119 1.95240E+01 4.01749E+00-2.49843E-02-1.70033E+00-1.54993E-13-3.60958E-13
 -1      2120 1.96480E+01 3.94376E+00-2.46611E-02-1.95668E+00-1.88849E-13-3.21704E-13
 -1      2121 1.99640E+01 3.23732E+00-1.87418E-02-1.92622E+00-2.10582E-13-2.88006E-13
 -1      2122 1.96953E+01 3.58932E+00-6.67807E-03-1.52067E+00-1.50209E-13-3.48057E-13
 -1      2123 4.05477E+01 6.23286E+00 5.37167E-01 2.10670E+00 4.66405E-13-1.79856E-14
 -1      2124 3.69247E+01 5.05017E+00 2.16144E-01 2.45110E+00 5.85948E-13-4.44089E-14
 -1      2125 4.07732E+01 7.40828E+00 3.15888E-01 2.08369E-01 3.11362E-13 3.58463E-14
 -1      2126 4.10612E+01 6.98010E+00 4.12000E-01 1.45024E+00 4.54747E-13 8.32667E-16
 -1      2127 3.66418E+01 7.24421E+00 3.33001E-01 1.75219E-01 4.43590E-13 3.58047E-15
 -1      2128 3.94227E+01 6.17074E+00 3.22446E-01-1.37229E+00 2.17160E-13-2.73115E-13
 -1      2129 4.01752E+01 6.95084E+00 2.79324E-01-1.20579E-01 2.73448E-13-1.21847E-14
 -1      2130 3.50394E+01 3.44683E+00 1.55403E-01-3.54609E+00 3.52267E-13-1.92846E-13
 -1      2131 3.88551E+01 4.66787E+00 3.73615E-01-2.65911E+00 2.08944E-13-2.04448E-13
 -1      2132 2.76756E+01-3.45848E-01-6.91239E-02-4.98158E+00 1.25233E-13-3.19966E-13
 -1      2133 3.26953E+01 1.54062E+00 3.09095E-01-4.80707E+00 2.19935E-13-2.78555E-13
 -1      2134 2.00725E+01-4.29143E+00-1.83576E-01-5.68965E+00 6.68354E-14-1.35836E-13
 -1      2135 2.49585E+01-2.14161E+00 1.33191E-01-6.07686E+00 1.73861E-13-3.85525E-13
 -1      2136 1.03202E+01-6.51825E+00-3.79194E-01-5.74731E+00 4.38538E-14-1.21847E-13
 -1      2137 1.49728E+01-4.75747E+00-8.69972E-02-6.84410E+00 9.58122E-14-7.43849E-15
 -1      2138 3.54680E+00-7.82079E+00-4.83195E-01-3.94735E+00-1.06526E-13-6.58917E-14
 -1      2139 6.41732E+00-6.40150E+00-2.68100E-01-5.29856E+00 1.79856E-14-1.16296E-13
 -1      2140 1.16575E-01-8.32899E+00-4.99016E-01-1.14200E+00-2.40613E-13-7.94920E-13
 -1      2141 1.20230E+00-7.71810E+00-4.10152E-01-2.56480E+00-4.28546E-14-3.30957E-13
 -1      2142 7.53877E-01-7.67010E+00-4.05738E-01 2.04302E+00-1.53183E-13-2.87548E-13
 -1      2143 8.11817E-03-8.11201E+00-4.64527E-01 6.24490E-01-3.58394E-14-6.25278E-13
 -1      2144 5.43063E+00-6.49173E+00-2.48356E-01 4.98850E+00-1.96343E-13-8.01581E-14
 -1      2145 2.91282E+00-7.66626E+00-4.25230E-01 3.66001E+00-1.14020E-13-1.54932E-13
 -1      2146 1.27439E+01-5.04270E+00-1.18369E-01 6.58452E+00-3.92131E-13-4.89594E-13
 -1      2147 8.59432E+00-6.81613E+00-4.12438E-01 5.44717E+00-3.20965E-13-2.09797E-13
 -1      2148 2.17218E+01-2.91509E+00 2.74786E-02 6.52916E+00-2.95319E-13-3.25628E-13
 -1      2149 1.69666E+01-4.77346E+00-2.79883E-01 6.02143E+00-2.76001E-13-4.43867E-13
 -1      2150 2.99926E+01-1.12782E-01 1.81193E-01 4.93599E+00-4.89969E-13 2.81553E-13
 -1      2151 2.53691E+01-1.99373E+00-1.35795E-01 5.04337E+00-3.46667E-13 2.40363E-14
 -1      2152 3.65531E+01 3.44903E+00 3.40327E-01 3.16443E+00-2.35062E-13 1.11688E-13
 -1      2153 3.23430E+01 1.80129E+00-4.18445E-03 3.56646E+00-3.83839E-13 1.73417E-13
 -1      2154 4.02263E+01 6.05844E+00 3.83134E-01 1.12061E+00-2.48412E-13 2.98983E-13
 -1      2155 3.76474E+01 5.06836E+00 1.79766E-01 2.09629E+00-1.84158E-13 1.71307E-13
 -1      2156 4.16877E+01 7.23624E+00 3.80984E-01-5.91180E-01-3.40061E-13 2.25132E-13
 -1      2157 4.11490E+01 7.01321E+00 3.49081E-01 7.27097E-01-3.83471E-13 2.35506E-13
 -1      2158 3.92868E+01 6.34260E+00 2.28048E-01-1.89769E+00-2.09888E-13 3.76255E-13
 -1      2159 4.08435E+01 6.99802E+00 3.68621E-01-8.54059E-01-1.79745E-13 2.23765E-13
 -1      2160 3.52749E+01 3.86448E+00 1.02362E-01-2.93146E+00-2.44471E-13 4.32321E-13
 -1      2161 3.89387E+01 5.18264E+00 3.85327E-01-2.52709E+00-2.74003E-13 5.09148E-13
 -1      2162 3.56825E+01 6.14315E+00 2.74698E-01-3.76808E-02-2.51021E-13 1.22402E-13
 -1      2163 2.89417E+01-2.74507E-01-2.05870E-02-4.99689E+00-3.05395E-13 3.27960E-13
 -1      2164 3.30977E+01 1.30628E+00 1.77916E-01-4.35605E+00-2.42070E-13 4.46643E-13
 -1      2165 2.10787E+01-3.22618E+00-2.21744E-01-6.25450E+00-4.09617E-13 3.65152E-13
 -1      2166 2.58899E+01-1.27978E+00 1.20801E-01-6.62456E+00-4.09117E-13 3.77920E-13
 -1      2167 1.33802E+01-6.08076E+00-3.44820E-01-6.34692E+00-2.77556E-14 4.56579E-13
 -1      2168 1.77271E+01-4.12222E+00-8.98867E-03-7.16900E+00-1.86406E-13 2.70839E-13
 -1      2169 6.03538E+00-7.75094E+00-4.56631E-01-5.10256E+00 3.25351E-13 5.59608E-13
 -1      2170 9.34509E+00-6.09760E+00-2.04456E-01-6.28986E+00 1.14575E-13 7.09127E-13
 -1      2171 1.87629E+00-7.54854E+00-3.52308E-01-3.02667E+00 3.83138E-13 3.85247E-14
 -1      2172 3.74765E+00-7.24557E+00-3.08160E-01-4.38624E+00 2.60958E-13 9.26481E-14
 -1      2173 3.46108E+01 2.35554E+00 1.65788E-01 3.35602E+00 5.19515E-13-1.26676E-13
 -1      2174 3.09494E+01 7.00685E-01 1.32245E-02 4.36580E+00 4.22717E-13 1.84963E-13
 -1      2175 3.02200E+01-1.69430E+00 1.43902E-01 3.03694E+00 2.98206E-13-1.75804E-13
 -1      2176 2.38030E+01-5.09833E+00 6.24786E-02 5.71359E+00 1.92013E-13 3.96683E-13
 -1      2177 2.07352E+01 1.10846E+00-2.09128E-02-1.61602E+00-2.54571E-13 6.42125E-14
 -1      2178 3.32828E+01 3.66635E+00-1.58171E-01-4.64869E-01 3.02147E-13-6.52811E-14
 -1      2179 3.47183E+01 3.09822E+00 1.39822E-01 1.54226E+00 4.11268E-13-1.16129E-13
 -1      2180 3.21955E+01 1.21754E+00 9.19746E-02 3.76548E-01 1.78496E-13-2.84661E-13
 -1      2181 2.06267E+01 1.33217E+00-1.78568E-02-1.67781E+00-2.68644E-13-4.86035E-14
 -1      2182 6.86226E+00-6.25896E+00-1.82065E-01 5.91503E+00 3.76199E-13 6.97220E-13
 -1      2183 2.30189E+00-5.50407E+00-2.14219E-01 2.38286E+00 4.59244E-13 2.00284E-13
 -1      2184 2.03012E+01 6.79568E-01 6.12908E-03-9.17676E-01-3.52903E-14-4.09846E-14
 -1      2185 1.50247E+01-6.30148E+00-2.52294E-02 7.26213E+00 1.60594E-13 6.68913E-13
 -1      2186 2.70274E+00-5.20710E+00-1.40895E-01-2.32634E+00 3.93088E-13 6.03961E-14
 -1      2187 6.87123E+00-6.12081E+00-1.82706E-01-5.86774E+00 3.48999E-13 4.08534E-13
 -1      2188 1.38942E+01-6.38088E+00-9.35854E-02-7.16116E+00 1.51934E-13 5.15324E-13
 -1      2189 2.18659E+01-5.22724E+00 9.52267E-03-6.32466E+00-1.73639E-13 3.21243E-13
 -1      2190 3.35119E+01 1.70663E+00 1.86811E-01-1.34778E+00-2.04392E-13 6.01630E-13
 -1      2191 3.68864E+01 8.06465E+00 3.29546E-01-1.45751E-01-3.10585E-13 7.46486E-14
 -1      2192 3.67921E+01 7.28717E+00 3.37388E-01-4.91845E-01-3.43836E-13 2.84023E-13
 -1      2193 3.49202E+01 4.00976E+00 2.65794E-01 1.16431E-01-2.49079E-13 2.87215E-13
 -1      2194 3.14291E+01-4.44288E-01 1.61377E-01 1.88928E+00-3.77337E-13 3.01204E-13
 -1      2195 2.54574E+01-4.01965E+00 7.73070E-02 4.66321E+00-2.93765E-13 1.77358E-13
 -1      2196 1.72190E+01-5.77158E+00-3.77970E-02 6.54264E+00-2.94376E-13-3.57769E-13
 -1      2197 9.21581E+00-5.98648E+00-1.22697E-01 6.25760E+00-2.28262E-13-3.85803E-13
 -1      2198 3.34315E+00-5.52816E+00-1.78095E-01 3.74850E+00-3.05311E-16-1.69476E-13
 -1      2199 1.09346E+00-5.65740E+00-2.55954E-01-3.16688E-01-1.59744E-13-6.18450E-13
 -1      2200 3.85110E+00-5.92423E+00-2.22086E-01-4.26013E+00-2.78777E-13-1.77303E-13
 -1      2201 1.07318E+01-6.02205E+00-8.37751E-02-6.58273E+00-1.01363E-13-9.12048E-14
 -1      2202 2.01007E+01-5.61635E+00 3.92382E-02-6.12125E+00 5.95635E-14-1.22402E-13
 -1      2203 2.77139E+01-3.13356E+00 1.86270E-02-3.61719E+00 1.68032E-13-3.29847E-13
 -1      2204 3.33266E+01 1.46277E+00 2.44772E-01-1.66386E+00 2.38958E-13-1.67755E-13
 -1      2205 3.67545E+01 7.87706E+00 2.81156E-01 4.79710E-01 3.34899E-13-7.56339E-14
 -1      2206 3.60186E+01 5.70885E+00 3.38416E-01 6.23348E-02 2.88713E-13-2.17215E-13
 -1      2207 2.86800E+01-2.50090E+00 1.59307E-01-4.12726E+00-2.82080E-13 3.63209E-13
 -1      2208 2.01472E+01 5.06374E-01 3.72543E-03 6.78480E-01 2.01119E-13 1.58319E-13
 -1      2209 2.04152E+01 6.99929E-01 2.07824E-02 9.70055E-01 2.24007E-13 1.93899E-13
 -1      2210 1.95606E+01 3.51563E+00-1.11175E-02-5.91754E-01-1.63201E-14-3.39247E-13
 -1      2211 1.95961E+01 3.46960E+00-1.05126E-02-7.76260E-01-4.94080E-14-3.55488E-13
 -1      2212 1.96429E+01 3.38106E+00-1.27981E-02-9.40609E-01-7.05680E-14-3.56416E-13
 -1      2213 1.97037E+01 3.30047E+00-1.27781E-02-1.13060E+00-1.01117E-13-3.44401E-13
 -1      2214 1.97875E+01 3.03281E+00 2.90901E-04-7.92268E-01-5.12714E-14-3.23208E-13
 -1      2215 1.95134E+01 3.59818E+00-9.62036E-03 9.95157E-02 9.98221E-14-3.18558E-13
 -1      2216 1.95127E+01 3.59900E+00-9.62619E-03-8.00838E-02 7.64555E-14-3.27001E-13
 -1      2217 1.95395E+01 3.55881E+00-9.72325E-03 4.45810E-01 1.53448E-13-3.20161E-13
 -1      2218 1.95221E+01 3.58136E+00-1.01393E-02 2.64863E-01 1.23145E-13-3.25498E-13
 -1      2219 1.96796E+01 3.22084E+00-8.98720E-04 1.69730E-01 1.04311E-13-3.05543E-13
 -1      2220 1.96012E+01 3.46233E+00-1.06100E-02 7.90009E-01 1.92530E-13-2.94790E-13
 -1      2221 1.95650E+01 3.50931E+00-1.12092E-02 6.08468E-01 1.65550E-13-3.12190E-13
 -1      2222 1.97164E+01 3.15736E+00-5.01026E-04 4.88421E-01 1.54447E-13-2.93773E-13
 -1      2223 1.97117E+01 3.28865E+00-1.29519E-02 1.14356E+00 2.57346E-13-2.52044E-13
 -1      2224 1.96491E+01 3.37195E+00-1.28716E-02 9.54202E-01 2.23018E-13-2.77090E-13
 -1      2225 1.97933E+01 3.02376E+00 2.71394E-04 8.04331E-01 2.03086E-13-2.60696E-13
 -1      2226 1.98907E+01 3.00317E+00-1.81703E-02 1.49069E+00 2.99693E-13-1.74925E-13
 -1      2227 1.97912E+01 3.14442E+00-1.51764E-02 1.30025E+00 2.69588E-13-2.22708E-13
 -1      2228 1.99222E+01 2.79872E+00 1.95879E-03 1.11077E+00 2.54766E-13-2.15296E-13
 -1      2229 2.01689E+01 2.54370E+00-2.84021E-02 1.79509E+00 3.26920E-13-6.66515E-14
 -1      2230 2.00178E+01 2.78304E+00-1.70899E-02 1.62059E+00 3.01758E-13-1.29809E-13
 -1      2231 2.01166E+01 2.44814E+00 5.81735E-03 1.37658E+00 2.74990E-13-1.40646E-13
 -1      2232 2.61644E+01-5.06942E+00-6.50201E-02 4.41630E+00 6.99441E-15-1.61759E-13
 -1      2233 2.25147E+01-5.93056E+00 5.51256E-02 5.61240E+00-3.65541E-14 1.29077E-13
 -1      2234 1.98699E+01 2.68093E-01 4.72479E-03 2.86035E-01 1.86748E-13 1.15371E-13
 -1      2235 2.00308E+01 3.67889E-01 2.01705E-02 4.43134E-01 1.91845E-13 1.44346E-13
 -1      2236 2.02100E+01 6.34472E-01-2.24592E-03 7.05477E-01 2.26767E-13 3.15165E-14
 -1      2237 2.04013E+01 8.55521E-01 1.35226E-02-1.00017E+00-2.29422E-13-8.72050E-14
 -1      2238 2.01887E+01 6.26820E-01-4.68531E-03-6.92380E-01-1.90755E-13-8.74639E-14
 -1      2239 2.01235E+01 4.69669E-01 1.62035E-02-4.75535E-01-1.65654E-13-7.08135E-14
 -1      2240 1.99827E+01 3.44237E-01 8.11407E-05-3.04198E-01-1.34918E-13-9.21340E-14
 -1      2241 2.02445E+01 7.49165E-01-6.71158E-04-6.94665E-01-1.84116E-13-1.25847E-13
 -1      2242 1.99191E+01 2.59197E-01 1.08831E-02-1.67016E-01-1.11423E-13-8.02134E-14
 -1      2243 1.98402E+01 1.87696E-01 7.24308E-04-6.99341E-02-9.14240E-14-8.69076E-14
 -1      2244 2.00799E+01 4.15773E-01-3.62690E-03-3.11463E-01-1.31535E-13-1.28510E-13
 -1      2245 1.97957E+01 1.38215E-01 6.40478E-03 1.19878E-02-9.12318E-14-5.99383E-14
 -1      2246 1.97604E+01 9.59029E-02 7.19767E-04 6.51694E-02-6.12313E-14-7.06458E-14
 -1      2247 1.99587E+01 2.26817E-01-3.60929E-03-7.27208E-02-9.30773E-14-7.67856E-14
 -1      2248 1.97344E+01 6.60392E-02 3.58142E-03 1.10775E-01-3.05850E-14-9.38132E-14
 -1      2249 1.97268E+01 4.05503E-02 6.17865E-04 1.37246E-01-2.11732E-14-8.90517E-14
 -1      2250 1.98827E+01 1.14457E-01-2.93316E-03 6.77231E-02-6.69206E-14-8.02523E-14
 -1      2251 1.97151E+01 2.23484E-02 1.86004E-03 1.59432E-01-5.76278E-14-1.11790E-13
 -1      2252 1.97240E+01 7.17939E-03 5.02407E-04 1.69515E-01-5.98662E-14-1.12015E-13
 -1      2253 1.98429E+01 4.64570E-02-2.12837E-03 1.43784E-01-5.98946E-14-8.37276E-14
 -1      2254 1.97220E+01-3.62632E-03 7.98736E-04 1.76923E-01-3.88969E-14-1.45394E-13
 -1      2255 1.97400E+01-1.21543E-02 3.97874E-04 1.77165E-01-5.72035E-14-1.44772E-13
 -1      2256 1.98287E+01 5.59020E-03-1.44750E-03 1.78361E-01-5.85475E-14-1.38655E-13
 -1      2257 1.97442E+01-1.80877E-02 1.50629E-04 1.75665E-01-1.29681E-13-1.14182E-13
 -1      2258 1.97664E+01-2.22287E-02 3.17778E-04 1.70363E-01-1.42420E-13-1.33570E-13
 -1      2259 1.98312E+01-1.78196E-02-9.36250E-04 1.87043E-01-9.04855E-14-1.52406E-13
 -1      2260 1.97742E+01-2.48816E-02-2.30164E-04 1.63971E-01-1.07863E-13-1.32134E-13
 -1      2261 1.97976E+01-2.60781E-02 2.69539E-04 1.56011E-01-7.44833E-14-1.24314E-13
 -1      2262 1.98440E+01-2.96789E-02-5.78136E-04 1.80487E-01-1.25961E-13-8.33346E-14
 -1      2263 1.98072E+01-2.64897E-02-4.34666E-04 1.47495E-01-5.18685E-14-1.11772E-13
 -1      2264 1.98303E+01-2.56807E-02 2.55824E-04 1.38851E-01-2.35297E-14-1.12356E-13
 -1      2265 1.98624E+01-3.37562E-02-3.42526E-04 1.66032E-01-6.21261E-14-4.26247E-14
 -1      2266 1.98408E+01-2.45324E-02-5.23233E-04 1.30141E-01-4.76453E-15-9.22440E-14
 -1      2267 1.98627E+01-2.23203E-02 2.77560E-04 1.22186E-01 1.15844E-14-4.11410E-14
 -1      2268 1.98835E+01-3.25039E-02-2.00778E-04 1.48777E-01 5.28438E-15-8.81477E-16
 -1      2269 1.98735E+01-2.00451E-02-5.37270E-04 1.14658E-01-1.00342E-14-5.63237E-14
 -1      2270 1.98942E+01-1.67930E-02 3.35992E-04 1.08384E-01-2.34500E-14-5.09750E-14
 -1      2271 1.99059E+01-2.75023E-02-1.30040E-04 1.32321E-01 2.09465E-14-3.87425E-14
 -1      2272 1.99052E+01-1.36425E-02-5.05485E-04 1.03061E-01-7.25391E-15-7.68753E-14
 -1      2273 1.99252E+01-9.53695E-03 4.33489E-04 9.92344E-02 3.82656E-14-7.22947E-14
 -1      2274 1.99288E+01-1.97157E-02-1.13171E-04 1.19277E-01-2.12973E-14-5.12314E-14
 -1      2275 1.99365E+01-5.62746E-03-4.47747E-04 9.69388E-02-4.27387E-15-1.01566E-13
 -1      2276 1.99566E+01-7.22928E-04 5.73645E-04 9.62142E-02-2.74657E-14-1.17939E-13
 -1      2277 1.99522E+01-9.65702E-03-1.37632E-04 1.11654E-01-1.33470E-14-9.45477E-14
 -1      2278 1.99688E+01 3.93026E-03-3.77706E-04 9.76826E-02-6.81152E-14-1.38457E-13
 -1      2279 1.99901E+01 9.67652E-03 7.60936E-04 1.00686E-01-9.84899E-14-1.39758E-13
 -1      2280 1.99769E+01 2.49720E-03-1.94336E-04 1.11144E-01-8.05436E-14-2.08889E-13
 -1      2281 2.00037E+01 1.51295E-02-3.04641E-04 1.06648E-01-1.18769E-13-1.85128E-13
 -1      2282 2.00278E+01 2.18256E-02 1.00000E-03 1.14038E-01-1.62723E-13-1.86332E-13
 -1      2283 2.00039E+01 1.68151E-02-2.76574E-04 1.19322E-01-1.57697E-13-2.13055E-13
 -1      2284 2.00435E+01 2.81763E-02-2.34741E-04 1.25269E-01-2.13107E-13-2.09130E-13
 -1      2285 2.00720E+01 3.59614E-02 1.29446E-03 1.37767E-01-1.96625E-13-2.86403E-13
 -1      2286 2.00346E+01 3.35264E-02-3.79018E-04 1.37791E-01-2.16378E-13-2.13504E-13
 -1      2287 2.00909E+01 4.33150E-02-1.71941E-04 1.55111E-01-1.37084E-13-3.18045E-13
 -1      2288 2.01258E+01 5.23156E-02 1.64502E-03 1.73507E-01-7.15665E-14-3.67566E-13
 -1      2289 2.00709E+01 5.29320E-02-4.96856E-04 1.68262E-01-2.05764E-13-2.31069E-13
 -1      2290 2.01488E+01 6.07370E-02-1.18243E-04 1.97865E-01-2.32810E-14-3.55529E-13
 -1      2291 2.01924E+01 7.10038E-02 2.04662E-03 2.22980E-01 4.98697E-14-4.07022E-13
 -1      2292 2.01148E+01 7.52900E-02-6.25169E-04 2.12566E-01-6.54422E-14-2.77066E-13
 -1      2293 2.02208E+01 8.04471E-02-7.33441E-05 2.55252E-01 1.69175E-13-3.91792E-13
 -1      2294 2.02754E+01 9.18591E-02 2.48397E-03 2.87847E-01 1.45326E-13-3.31558E-13
 -1      2295 2.01686E+01 1.00651E-01-7.58776E-04 2.72572E-01 7.52110E-14-3.36381E-13
 -1      2296 2.03104E+01 1.02058E-01-3.31960E-05 3.28798E-01 8.12832E-14-2.32019E-13
 -1      2297 2.03787E+01 1.14172E-01 2.92507E-03 3.69398E-01-1.10865E-14-1.39783E-13
 -1      2298 2.02348E+01 1.28612E-01-8.93070E-04 3.49995E-01 1.75420E-13-1.90901E-13
 -1      2299 2.04218E+01 1.24470E-01 1.31345E-05 4.19438E-01-7.53803E-14-1.19070E-13
 -1      2300 2.05061E+01 1.36282E-01 3.31194E-03 4.68027E-01 3.01924E-14-1.36075E-13
 -1      2301 2.03163E+01 1.57928E-01-1.02667E-03 4.46030E-01-1.84527E-14-1.71604E-13
 -1      2302 2.05591E+01 1.45371E-01 8.91615E-05 5.26837E-01 1.55334E-14-2.36487E-13
 -1      2303 2.06617E+01 1.54970E-01 3.54832E-03 5.82366E-01-2.51669E-14-1.94673E-13
 -1      2304 2.04160E+01 1.85922E-01-1.16720E-03 5.60738E-01-5.35549E-14-1.82519E-13
 -1      2305 2.07267E+01 1.60505E-01 2.40113E-04 6.48319E-01-4.08133E-14-1.95352E-13
 -1      2306 2.08490E+01 1.64568E-01 3.48500E-03 7.07957E-01-8.32125E-15-1.64329E-13
 -1      2307 2.05374E+01 2.07609E-01-1.34184E-03 6.92092E-01-1.56795E-14-3.38622E-13
 -1      2308 2.09291E+01 1.62660E-01 5.45492E-04 7.77257E-01 2.17776E-14-2.52929E-13
 -1      2309 2.10717E+01 1.55840E-01 2.90552E-03 8.35307E-01 5.71571E-14-1.92028E-13
 -1      2310 2.06848E+01 2.14477E-01-1.61328E-03 8.34554E-01-3.62314E-14-3.09427E-13
 -1      2311 2.11713E+01 1.40490E-01 1.13142E-03 9.00766E-01 2.64158E-14-1.92999E-13
 -1      2312 2.13329E+01 1.14850E-01 1.51977E-03 9.47267E-01 5.75035E-14-2.22099E-13
 -1      2313 2.08645E+01 1.93027E-01-2.09859E-03 9.77025E-01 3.01114E-14-2.52829E-13
 -1      2314 2.14592E+01 7.76341E-02 2.16970E-03 9.96673E-01 1.37547E-13-2.77669E-13
 -1      2315 2.16361E+01 2.26794E-02-1.01807E-03 1.01588E+00 1.54226E-13-1.91726E-13
 -1      2316 2.10859E+01 1.23530E-01-2.97674E-03 1.10010E+00 8.93065E-14-2.48286E-13
 -1      2317 2.17995E+01-4.65364E-02 3.82660E-03 1.03010E+00 1.35884E-13-3.23228E-13
 -1      2318 2.19846E+01-1.41961E-01-5.03092E-03 9.99542E-01 7.90091E-14-2.67543E-13
 -1      2319 2.13633E+01-1.95857E-02-4.44539E-03 1.17264E+00 1.13203E-13-2.14020E-13
 -1      2320 2.21982E+01-2.51655E-01 6.07922E-03 9.51002E-01-3.41741E-15-2.52652E-13
 -1      2321 2.23789E+01-3.93268E-01-1.06016E-02 8.42842E-01 1.72997E-14-1.59699E-13
 -1      2322 2.17174E+01-2.62556E-01-6.55384E-03 1.14835E+00 7.73989E-14-2.80756E-13
 -1      2323 2.26537E+01-5.41702E-01 8.29387E-03 6.96409E-01 1.32897E-14-1.74247E-13
 -1      2324 2.28097E+01-7.16572E-01-1.70145E-02 4.84208E-01 2.02538E-14-8.09500E-14
 -1      2325 2.21712E+01-6.16533E-01-8.82042E-03 9.64338E-01 1.98521E-14-1.70457E-13
 -1      2326 2.31401E+01-8.76098E-01 8.67055E-03 2.05566E-01 1.39420E-14-6.97962E-14
 -1      2327 2.32405E+01-1.03235E+00-2.19114E-02-1.18954E-01-2.96334E-15-2.76472E-16
 -1      2328 2.27356E+01-1.04482E+00-9.70279E-03 5.48114E-01 3.40249E-14-1.43013E-13
 -1      2329 2.35799E+01-1.13063E+00 3.58232E-03-5.37305E-01-7.11759E-14 7.59245E-14
 -1      2330 2.35866E+01-1.16322E+00-2.05324E-02-9.34650E-01-3.43900E-14 3.67267E-14
 -1      2331 2.33743E+01-1.41230E+00-6.65484E-03-1.52059E-01 9.89156E-15-2.67584E-15
 -1      2332 2.38320E+01-1.08257E+00-8.25415E-03-1.42843E+00-1.23174E-13 4.27977E-14
 -1      2333 2.37138E+01-8.55666E-01-6.09166E-03-1.78102E+00-2.61935E-13-1.11843E-13
 -1      2334 2.39632E+01-1.46762E+00-3.53157E-05-1.09851E+00-1.84743E-13 8.62875E-14
 -1      2335 2.37254E+01-4.90945E-01-2.56722E-02-2.14744E+00-2.35051E-13-9.14507E-14
 -1      2336 2.35036E+01 3.04884E-02 1.59159E-02-2.25817E+00-1.61935E-13-9.17430E-14
 -1      2337 2.42752E+01-8.76413E-01 1.02869E-02-2.03841E+00-2.02140E-13 2.02456E-13
 -1      2338 2.32473E+01 6.15559E-01-3.98391E-02-2.21235E+00-1.23322E-13-1.55851E-13
 -1      2339 2.30119E+01 1.21705E+00 2.11860E-02-1.91453E+00-9.86190E-15-1.06332E-13
 -1      2340 2.41236E+01 4.26163E-01 6.37495E-03-2.46263E+00-1.71376E-13 2.10035E-13
 -1      2341 2.27190E+01 1.69202E+00-3.09554E-02-1.33089E+00 5.22724E-14-2.42748E-13
 -1      2342 2.25868E+01 1.96910E+00-1.60491E-03-6.94011E-01 1.15487E-13-2.66005E-13
 -1      2343 2.36534E+01 1.87639E+00-2.20099E-02-1.84721E+00-7.90167E-15 1.66343E-14
 -1      2344 2.25624E+01 1.96987E+00 5.10476E-04 1.56089E-01 2.58054E-13-2.02182E-13
 -1      2345 2.25968E+01 1.69142E+00-3.24762E-02 7.92574E-01 1.49585E-13 4.93013E-14
 -1      2346 2.33575E+01 2.52769E+00-4.05589E-02-3.00018E-01 2.19082E-13-3.90985E-15
 -1      2347 2.28393E+01 1.21511E+00 2.18576E-02 1.38010E+00 6.27987E-14 4.04459E-14
 -1      2348 2.29798E+01 6.03185E-01-4.38463E-02 1.67646E+00 4.50421E-14 1.54833E-13
 -1      2349 2.35448E+01 1.87213E+00-2.41067E-02 1.24657E+00 1.67078E-13 1.97707E-13
 -1      2350 2.31927E+01 1.46545E-02 1.69840E-02 1.71651E+00-1.15209E-13 2.46458E-13
 -1      2351 2.33170E+01-5.15300E-01-2.92678E-02 1.60177E+00 3.04253E-14 3.32445E-13
 -1      2352 2.39188E+01 4.12676E-01 5.89124E-03 1.86681E+00 4.89296E-14 1.90141E-13
 -1      2353 2.32665E+01-8.82407E-01-4.13963E-03 1.22615E+00 9.96386E-14 1.31545E-13
 -1      2354 2.32892E+01-1.11094E+00-9.72393E-03 8.66259E-01 1.37450E-13 7.41367E-14
 -1      2355 2.39774E+01-8.95188E-01 1.40407E-02 1.43182E+00-3.01071E-14 3.58426E-13
 -1      2356 2.30013E+01-1.18822E+00-1.86793E-02 3.63943E-01 3.43408E-13-1.22734E-14
 -1      2357 2.29039E+01-1.14577E+00 4.19919E-03-3.85011E-02 5.64254E-13-6.99048E-14
 -1      2358 2.35746E+01-1.49068E+00 3.73762E-03 4.72120E-01 1.72560E-13 8.46704E-14
 -1      2359 2.25129E+01-1.02777E+00-2.13161E-02-4.58807E-01 4.00749E-13-1.51112E-13
 -1      2360 2.23264E+01-8.41166E-01 1.05183E-02-7.72672E-01 2.92715E-13 1.24679E-13
 -1      2361 2.28883E+01-1.41637E+00-6.53992E-03-4.85215E-01 3.46953E-13-2.13009E-13
 -1      2362 2.19417E+01-6.41867E-01-1.70462E-02-1.02999E+00 3.20911E-13 1.37172E-13
 -1      2363 2.17090E+01-4.13122E-01 1.21282E-02-1.20241E+00 2.46443E-13 1.97845E-13
 -1      2364 2.21472E+01-9.68551E-01-1.00272E-02-1.16355E+00 3.67818E-13-7.29690E-14
 -1      2365 2.13770E+01-2.00624E-01-1.08839E-02-1.29119E+00 1.10621E-13 1.91133E-13
 -1      2366 2.11337E+01 1.30043E-02 9.08628E-03-1.31350E+00 6.04203E-14 2.06442E-13
 -1      2367 2.14831E+01-4.03326E-01-8.19627E-03-1.49577E+00 2.10726E-13 1.84460E-14
 -1      2368 1.96218E+01 7.24198E-02 2.06950E-03-6.51392E-02 4.53448E-14 1.35637E-14
 -1      2369 1.96494E+01 1.04136E-01 6.91399E-03-1.90578E-02 7.01169E-14 6.17462E-14
 -1      2370 1.95980E+01 3.06443E-02 1.33922E-03-1.30735E-01 5.07436E-14-3.87083E-14
 -1      2371 1.95951E+01 4.95182E-02 3.68452E-03-1.08261E-01 3.93203E-14-2.17217E-14
 -1      2372 1.97668E+01 8.96718E-02-3.17263E-03-7.03542E-02 8.40115E-14-7.89464E-14
 -1      2373 1.96097E+01 5.72684E-03 8.76979E-04-1.59209E-01 7.24086E-14-1.52152E-15
 -1      2374 1.95899E+01 1.69091E-02 1.81956E-03-1.50951E-01 5.75456E-14-1.92270E-14
 -1      2375 1.97325E+01 3.58122E-02-2.29116E-03-1.42658E-01 4.88739E-14-8.23497E-14
 -1      2376 1.96418E+01-8.68458E-03 5.67207E-04-1.65097E-01 8.99721E-14 4.36291E-14
 -1      2377 1.96135E+01-2.36564E-03 7.24156E-04-1.65300E-01 7.82176E-14 2.69415E-14
 -1      2378 1.97290E+01 3.89219E-03-1.52575E-03-1.74570E-01 6.35009E-14-7.95469E-14
 -1      2379 1.96838E+01-1.62543E-02 3.60066E-04-1.57844E-01 6.17449E-14 2.71097E-14
 -1      2380 1.96525E+01-1.31208E-02 7.57500E-05-1.62796E-01 9.07043E-14 5.50072E-14
 -1      2381 1.97444E+01-1.42999E-02-9.56725E-04-1.81640E-01 7.46871E-14-1.54524E-14
 -1      2382 1.97292E+01-1.92631E-02 2.32945E-04-1.43751E-01 3.94315E-14-3.62880E-15
 -1      2383 1.96980E+01-1.82553E-02-2.93154E-04-1.50985E-01 6.53516E-14 3.79166E-15
 -1      2384 1.97701E+01-2.35396E-02-5.64018E-04-1.74221E-01 7.76348E-14-7.25320E-15
 -1      2385 1.97743E+01-1.91839E-02 1.71518E-04-1.27091E-01 3.43411E-14-2.59721E-14
 -1      2386 1.97449E+01-1.96156E-02-4.80325E-04-1.34935E-01 2.58362E-14 1.52535E-14
 -1      2387 1.98007E+01-2.68125E-02-3.09670E-04-1.59312E-01 6.39706E-14-4.53918E-14
 -1      2388 1.98172E+01-1.69708E-02 1.65959E-04-1.10806E-01 1.45718E-13-4.79988E-14
 -1      2389 1.97902E+01-1.84014E-02-5.47897E-04-1.18104E-01 6.23782E-14-3.85347E-14
 -1      2390 1.98329E+01-2.60402E-02-1.59715E-04-1.41713E-01 6.54146E-14-3.33349E-14
 -1      2391 1.98574E+01-1.32187E-02 2.10288E-04-9.69748E-02 1.40854E-13 7.03203E-16
 -1      2392 1.98327E+01-1.53801E-02-5.37212E-04-1.02901E-01 1.76408E-13-2.86406E-15
 -1      2393 1.98648E+01-2.24563E-02-8.78694E-05-1.24767E-01 1.29083E-13 3.76397E-14
 -1      2394 1.98956E+01-8.26081E-03 3.02012E-04-8.71461E-02 7.70564E-14-4.43421E-14
 -1      2395 1.98725E+01-1.10118E-02-4.76126E-04-9.10680E-02 1.07255E-13-6.45415E-15
 -1      2396 1.98958E+01-1.68174E-02-7.51385E-05-1.10871E-01 1.22806E-13-1.77445E-14
 -1      2397 1.99330E+01-2.23477E-03 4.41650E-04-8.25798E-02 8.53062E-14-1.47093E-14
 -1      2398 1.99106E+01-5.52945E-03-3.83184E-04-8.39612E-02 5.84807E-14 8.09523E-16
 -1      2399 1.99263E+01-9.53224E-03-1.08127E-04-1.01846E-01 7.51752E-14-1.88195E-14
 -1      2400 1.99716E+01 4.86838E-03 6.32015E-04-8.44275E-02 1.69882E-13-1.15985E-13
 -1      2401 1.99485E+01 1.00491E-03-2.70458E-04-8.27544E-02 1.64841E-13-1.75367E-14
 -1      2402 1.99573E+01-7.50572E-04-1.77638E-04-9.92004E-02 1.22313E-13-1.23576E-14
 -1      2403 2.00142E+01 1.31620E-02 8.77282E-04-9.38631E-02 1.96405E-14-8.85639E-14
 -1      2404 1.99886E+01 8.65487E-03-1.45529E-04-8.85907E-02 1.17577E-13-4.79367E-14
 -1      2405 1.99902E+01 9.56907E-03-2.77467E-04-1.04334E-01 1.36939E-13-1.53629E-14
 -1      2406 2.00637E+01 2.28209E-02 1.18168E-03-1.12168E-01-7.12677E-14-1.02981E-13
 -1      2407 2.00336E+01 1.75682E-02-1.30036E-05-1.02688E-01-2.63351E-14-7.46771E-14
 -1      2408 2.00270E+01 2.15994E-02-4.03231E-04-1.18676E-01-2.07121E-14-1.52368E-14
 -1      2409 2.01238E+01 3.40297E-02 1.54755E-03-1.40764E-01-8.23412E-14-1.00575E-13
 -1      2410 2.00870E+01 2.79310E-02 1.24246E-04-1.26396E-01-8.09671E-14-1.32255E-13
 -1      2411 2.00703E+01 3.55810E-02-5.51340E-04-1.43768E-01-5.35305E-14-5.14646E-14
 -1      2412 2.01987E+01 4.69108E-02 1.97229E-03-1.81192E-01-5.60587E-14-9.88388E-14
 -1      2413 2.01524E+01 3.99078E-02 2.64081E-04-1.61203E-01-6.42433E-14-1.28221E-13
 -1      2414 2.01228E+01 5.17423E-02-7.18086E-04-1.81285E-01-5.39289E-14-8.26709E-14
 -1      2415 2.02930E+01 6.14148E-02 2.44366E-03-2.34989E-01 3.61161E-14-6.90595E-14
 -1      2416 2.02343E+01 5.35545E-02 4.04303E-04-2.08662E-01-2.88003E-14-1.21641E-13
 -1      2417 2.01876E+01 7.01864E-02-8.98945E-04-2.32981E-01-4.46794E-14-1.43352E-13
 -1      2418 2.04116E+01 7.71476E-02 2.93258E-03-3.03447E-01 3.56330E-14-2.34922E-14
 -1      2419 2.03374E+01 6.86827E-02 5.42205E-04-2.70218E-01 8.05433E-14-1.04171E-14
 -1      2420 2.02684E+01 9.07172E-02-1.08838E-03-3.00521E-01 1.37336E-15-9.88060E-14
 -1      2421 2.05597E+01 9.30963E-02 3.38247E-03-3.87164E-01 1.07770E-15-8.85463E-14
 -1      2422 2.04667E+01 8.46439E-02 6.74730E-04-3.46869E-01 3.39312E-14-7.75749E-15
 -1      2423 2.03688E+01 1.12566E-01-1.28066E-03-3.85150E-01 6.93364E-14-4.17180E-14
 -1      2424 2.07420E+01 1.07206E-01 3.69465E-03-4.85289E-01-7.74364E-14-2.10551E-14
 -1      2425 2.06275E+01 9.99918E-02 7.99797E-04-4.38575E-01-9.67827E-14-9.03093E-14
 -1      2426 2.04929E+01 1.33961E-01-1.47263E-03-4.87129E-01-3.53331E-14-1.30203E-13
 -1      2427 2.09627E+01 1.15759E-01 3.71043E-03-5.94331E-01-3.97090E-14 9.50387E-15
 -1      2428 2.08248E+01 1.11970E-01 9.19642E-04-5.43309E-01 5.63330E-15-5.12168E-14
 -1      2429 2.06446E+01 1.51483E-01-1.66932E-03-6.04812E-01-3.75675E-14-2.47338E-13
 -1      2430 2.12245E+01 1.12553E-01 3.19417E-03-7.06363E-01 3.62492E-14-5.12979E-15
 -1      2431 2.10627E+01 1.15789E-01 1.04708E-03-6.55581E-01-1.98925E-14 2.73888E-14
 -1      2432 2.08279E+01 1.59139E-01-1.89305E-03-7.33243E-01-5.56890E-14-1.67088E-13
 -1      2433 2.15274E+01 8.80228E-02 1.82864E-03-8.06546E-01 8.07590E-15 1.63064E-14
 -1      2434 2.13442E+01 1.03743E-01 1.21442E-03-7.64293E-01 2.40026E-14-4.32835E-14
 -1      2435 2.10472E+01 1.47223E-01-2.19404E-03-8.62105E-01 2.38646E-14-1.46605E-13
 -1      2436 2.18679E+01 2.88542E-02-7.53294E-04-8.70122E-01 6.48197E-14 1.22219E-13
 -1      2437 2.16700E+01 6.44604E-02 1.47945E-03-8.49900E-01 1.86907E-14 1.07938E-13
 -1      2438 2.13072E+01 1.01256E-01-2.65381E-03-9.72969E-01 8.86997E-15-6.10888E-14
 -1      2439 2.22371E+01-8.05294E-02-4.85483E-03-8.59731E-01-2.21244E-14 2.28792E-13
 -1      2440 2.20373E+01-1.68471E-02 1.90967E-03-8.81262E-01 9.81320E-14 1.34659E-13
 -1      2441 2.16134E+01 2.04144E-03-3.35578E-03-1.03603E+00 1.81540E-14 5.39642E-14
 -1      2442 2.26185E+01-2.51859E-01-1.04159E-02-7.25407E-01-1.10311E-14 1.59305E-13
 -1      2443 2.24371E+01-1.55139E-01 2.49735E-03-8.13617E-01 3.46914E-14 2.27414E-13
 -1      2444 2.19722E+01-1.70844E-01-4.26859E-03-1.00730E+00 2.37078E-14 1.48976E-13
 -1      2445 2.29828E+01-4.78772E-01-1.65984E-02-4.12384E-01 1.83667E-13-2.93361E-14
 -1      2446 2.28492E+01-3.55868E-01 3.01308E-03-5.91362E-01 2.61362E-14 1.44246E-13
 -1      2447 2.23871E+01-4.27902E-01-4.95700E-03-8.28895E-01 9.08997E-14 1.08700E-13
 -1      2448 2.32815E+01-7.11365E-01-2.08481E-02 1.16800E-01-1.18853E-13 1.55014E-13
 -1      2449 2.32328E+01-5.95916E-01 2.59557E-03-1.61912E-01 4.80076E-14 9.95328E-14
 -1      2450 2.28499E+01-7.47251E-01-4.36060E-03-4.38279E-01 6.42672E-14 1.15574E-13
 -1      2451 2.34380E+01-8.30340E-01-1.88886E-02 8.33359E-01-1.30507E-13 3.22896E-13
 -1      2452 2.35104E+01-7.93290E-01-4.35846E-04 4.87222E-01-1.74772E-13 2.48891E-13
 -1      2453 2.33184E+01-1.03482E+00-1.41812E-04 2.04749E-01-1.96183E-13 4.50737E-13
 -1      2454 2.33590E+01-6.65685E-01-7.01293E-03 1.57726E+00-7.22269E-14 4.05939E-13
 -1      2455 2.35682E+01-7.96534E-01-7.53665E-03 1.26220E+00-9.30723E-14 3.50962E-13
 -1      2456 2.36871E+01-1.10400E+00 8.33858E-03 1.05165E+00-9.03353E-14 4.50464E-13
 -1      2457 2.29905E+01-1.03239E-01 1.21151E-02 2.03277E+00-5.38545E-14 5.14717E-13
 -1      2458 2.33027E+01-4.41527E-01-1.73317E-02 1.90649E+00-1.02288E-14 4.55818E-13
 -1      2459 2.37971E+01-7.35631E-01 1.59709E-02 1.88595E+00-9.15925E-14 4.31170E-13
 -1      2460 2.24097E+01 7.21175E-01 2.10995E-02 1.82952E+00 1.18676E-13 3.41987E-13
 -1      2461 2.27302E+01 2.95057E-01-2.42016E-02 2.03539E+00 6.87241E-14 4.24950E-13
 -1      2462 2.35329E+01 1.50494E-01 9.83118E-03 2.29853E+00 7.78952E-14 3.46578E-13
 -1      2463 2.19124E+01 1.34359E+00 1.07210E-02 8.67640E-01 5.01318E-14 1.19931E-13
 -1      2464 2.21125E+01 1.09288E+00-1.67861E-02 1.38029E+00 5.82000E-14 2.97729E-13
 -1      2465 2.30149E+01 1.23965E+00-1.11818E-02 1.86184E+00 1.90918E-13 2.73530E-13
 -1      2466 2.18213E+01 1.30869E+00-1.13682E-02-4.39341E-01-1.71082E-13 1.42393E-13
 -1      2467 2.18217E+01 1.42524E+00 5.71610E-03 1.36697E-01-1.18516E-14 8.87829E-14
 -1      2468 2.26348E+01 1.86737E+00-2.93392E-02 5.88344E-01 3.50570E-14 1.81952E-13
 -1      2469 2.21632E+01 6.37084E-01-2.57999E-02-1.39063E+00 9.97761E-14 3.18495E-14
 -1      2470 2.19951E+01 1.03210E+00 2.18469E-02-1.04641E+00-1.88655E-13-1.69786E-15
 -1      2471 2.27029E+01 1.58765E+00-2.05742E-02-8.65830E-01-9.41972E-14 2.10495E-13
 -1      2472 2.26219E+01-1.88837E-01-2.17991E-02-1.56353E+00 1.69829E-14 1.92205E-13
 -1      2473 2.24037E+01 2.11211E-01 1.86895E-02-1.56998E+00 1.66134E-13-4.14078E-15
 -1      2474 2.30789E+01 5.93975E-01 1.99917E-03-1.68578E+00 5.96892E-14 2.21711E-14
 -1      2475 2.28512E+01-7.19468E-01-1.08056E-02-1.07071E+00-1.79788E-13 3.71888E-13
 -1      2476 2.26997E+01-5.03886E-01 5.85145E-04-1.33252E+00-8.04296E-14 2.12183E-13
 -1      2477 2.33441E+01-4.51293E-01 1.48230E-02-1.57228E+00-3.33253E-14 2.16359E-13
 -1      2478 2.27373E+01-8.40900E-01-1.73682E-03-2.92777E-01 2.72384E-13 2.32393E-13
 -1      2479 2.27170E+01-8.28398E-01-1.52032E-02-6.41217E-01 7.15339E-14 3.42073E-13
 -1      2480 2.32498E+01-1.04912E+00 9.55210E-03-8.36618E-01 5.43467E-15 1.36419E-13
 -1      2481 2.23558E+01-6.72481E-01 4.04405E-03 4.26083E-01 3.39208E-13 3.55258E-14
 -1      2482 2.24647E+01-7.85067E-01-2.03238E-02 1.24715E-01 3.30637E-13 2.01123E-13
 -1      2483 2.28317E+01-1.11625E+00 6.88557E-04 5.64333E-02 3.29334E-13-4.09550E-14
 -1      2484 2.18378E+01-3.76640E-01 7.31060E-03 9.07195E-01 2.41296E-13-1.54630E-13
 -1      2485 2.20365E+01-5.37707E-01-1.80537E-02 7.18251E-01 2.31130E-13 2.71814E-14
 -1      2486 2.22523E+01-8.37829E-01-4.93457E-03 7.81255E-01 3.51096E-13-4.98136E-14
 -1      2487 2.12863E+01-5.71095E-02 9.18576E-03 1.09793E+00 1.34659E-13-3.24788E-14
 -1      2488 2.15263E+01-2.21009E-01-1.24272E-02 1.04028E+00 1.84567E-13-1.04135E-14
 -1      2489 2.16537E+01-4.09367E-01-3.54300E-03 1.20506E+00 1.71977E-13-1.07964E-13
 -1      2490 2.07649E+01 2.34319E-01 8.18897E-03 1.01214E+00-2.17095E-13-4.23394E-14
 -1      2491 2.10068E+01 9.17547E-02-6.45396E-03 1.07899E+00-9.92251E-15 5.14875E-14
 -1      2492 2.10976E+01 3.18729E-02-1.83789E-03 1.31553E+00 1.15648E-13 2.53339E-13
 -1      2493 2.05283E+01 3.62977E-01 4.53891E-04 8.56968E-01-1.89262E-13-2.79789E-13
 -1      2494 1.96647E+01 2.04030E+00-1.54694E-02 1.84034E+00-2.58286E-13 2.35898E-13
 -1      2495 1.98848E+01 1.75591E+00 9.20480E-03 1.91822E+00-2.52890E-13-1.31140E-14
 -1      2496 1.92290E+01 2.57629E+00-2.08928E-02 1.42941E+00-3.53315E-13-8.44585E-14
 -1      2497 1.94478E+01 2.34257E+00 6.73386E-03 1.66668E+00-3.70678E-13 3.81381E-14
 -1      2498 1.94132E+01 1.75205E+00 8.95529E-04 2.00622E+00-1.11575E-13 5.87890E-14
 -1      2499 2.03704E+01 9.98133E-01 2.38317E-03 1.70857E+00-9.12217E-14-1.91287E-13
 -1      2500 2.04756E+01 7.33248E-01 4.39395E-03 1.56295E+00-1.29311E-13-2.18857E-13
 -1      2501 2.00783E+01 1.48035E+00-6.06734E-03 1.90912E+00-2.52350E-13-1.67990E-13
 -1      2502 2.02455E+01 1.19722E+00 8.50383E-03 1.84735E+00-1.50012E-13-1.06634E-13
 -1      2503 2.03911E+01 7.51776E-01-4.06173E-03 1.99255E+00 2.34287E-14-2.52129E-13
 -1      2504 1.99629E+01 1.20216E+00-6.75171E-03 2.16776E+00-3.53268E-14 4.42631E-14
 -1      2505 1.89122E+01 2.95171E+00-1.95327E-02 6.95389E-01-2.10812E-13-5.04735E-14
 -1      2506 1.90506E+01 2.81889E+00-1.16015E-03 1.06425E+00-3.09420E-13-3.12148E-13
 -1      2507 1.88762E+01 2.27193E+00 1.04875E-02 1.43938E+00-2.43428E-13-9.28081E-14
 -1      2508 1.88436E+01 3.04402E+00-1.15880E-02-2.14402E-01-2.54493E-13 1.94552E-13
 -1      2509 1.88430E+01 3.04475E+00-1.16554E-02 2.05559E-01-3.59109E-13 3.34380E-13
 -1      2510 1.85405E+01 2.59400E+00 1.78055E-02 5.22538E-01-2.51019E-13 1.59295E-14
 -1      2511 1.90529E+01 2.81471E+00-1.51286E-03-1.07124E+00-1.05940E-13 3.59155E-13
 -1      2512 1.89145E+01 2.94942E+00-1.94455E-02-7.03596E-01-1.51240E-13 2.97289E-13
 -1      2513 1.85412E+01 2.59215E+00 1.74247E-02-5.32421E-01-9.94997E-14 3.27122E-13
 -1      2514 1.94435E+01 2.34666E+00 6.43434E-03-1.66371E+00 2.79600E-13 3.71270E-13
 -1      2515 1.92287E+01 2.57640E+00-2.07628E-02-1.43004E+00 1.37083E-13 2.63049E-13
 -1      2516 1.88775E+01 2.27231E+00 1.09287E-02-1.44091E+00 1.56422E-13 5.64312E-13
 -1      2517 1.98828E+01 1.76022E+00 9.67768E-03-1.91877E+00 1.89475E-13 3.81214E-14
 -1      2518 1.96614E+01 2.04445E+00-1.55056E-02-1.83936E+00 1.88181E-13 1.59521E-13
 -1      2519 1.94079E+01 1.75670E+00 7.74936E-04-2.00439E+00 1.75957E-13 1.41270E-13
 -1      2520 2.02437E+01 1.19476E+00 8.11153E-03-1.85170E+00 1.39109E-13-2.29921E-13
 -1      2521 2.00714E+01 1.48238E+00-7.21882E-03-1.90834E+00 1.11655E-13 8.97397E-14
 -1      2522 1.99620E+01 1.20553E+00-5.55594E-03-2.16518E+00 3.93829E-14 3.13787E-14
 -1      2523 2.04840E+01 7.41406E-01 8.78755E-03-1.55893E+00-7.77587E-14-3.95613E-13
 -1      2524 2.03753E+01 9.93444E-01 2.46220E-03-1.70607E+00 2.84611E-14-4.02218E-13
 -1      2525 2.04084E+01 7.53760E-01 5.59211E-05-1.99117E+00-7.15478E-14-4.60818E-13
 -1      2526 4.92471E+00-3.81487E+00 6.96713E-02 3.92330E+00 4.67126E-13 3.56548E-13
 -1      2527 3.73165E+00-3.15118E+00 8.43927E-02 1.67731E+00 4.71373E-13 9.59233E-14
 -1      2528 1.80377E+01-5.89688E+00-3.84737E-02 7.14750E+00 8.76799E-14 5.16080E-13
 -1      2529 1.42611E+01-5.64861E+00 8.12551E-02 7.05428E+00 6.11455E-14 5.39915E-13
 -1      2530 1.97032E+01 1.43177E-01 3.26692E-03 6.08124E-02 1.06658E-13 7.58212E-14
 -1      2531 1.97819E+01 1.98000E-01 1.23834E-02 1.46962E-01 1.54620E-13 1.08008E-13
 -1      2532 1.98480E+01 1.80708E-01-3.86223E-03 6.64059E-02 1.25051E-13-2.18840E-14
 -1      2533 2.04772E+01 5.57210E-01-3.12125E-03-1.10033E+00 7.86991E-14 6.92927E-14
 -1      2534 4.09801E+00-2.78389E+00 1.35343E-01-1.06170E+00 4.73102E-13 2.74614E-13
 -1      2535 5.44969E+00-3.15248E+00 1.22705E-01-3.79828E+00 2.96513E-13 1.86906E-13
 -1      2536 1.01726E+01-5.00667E+00 2.77572E-02 6.84236E+00 1.96954E-13 6.45095E-13
 -1      2537 6.93616E+00-4.57134E+00 5.78412E-02 5.35799E+00 3.16386E-13 5.40845E-13
 -1      2538 8.04949E+00-3.01770E+00 1.47275E-01 4.75762E+00 2.61804E-13 2.38420E-13
 -1      2539 2.05470E+01 1.95507E+00-1.37215E-02-1.89623E+00-2.53292E-13-1.48215E-13
 -1      2540 2.04089E+01 1.20892E+00-8.82072E-03-1.28993E+00-2.56280E-13-1.19287E-13
 -1      2541 2.03818E+01 1.38485E+00 9.19305E-03-1.23888E+00-2.23789E-13-1.60282E-13
 -1      2542 2.02948E+01 2.39747E+00 7.05279E-04-1.83650E+00-2.41561E-13-2.08574E-13
 -1      2543 7.59304E+00-4.50848E+00 6.59715E-02-5.75203E+00 1.25927E-13 4.95715E-13
 -1      2544 1.03456E+01-5.27269E+00 4.48190E-02-6.91124E+00 1.20681E-13 6.34465E-13
 -1      2545 3.32448E+01 7.32996E+00-1.19996E-01 1.42086E-01-3.38118E-13 1.30049E-13
 -1      2546 3.39780E+01 7.62420E+00-7.53175E-02-3.43816E-01-2.49745E-13 1.77584E-13
 -1      2547 1.95200E+01 3.58436E+00-1.00953E-02-2.45438E-01 5.16755E-14-3.33533E-13
 -1      2548 1.95360E+01 3.56365E+00-9.67536E-03-4.26284E-01 8.64071E-15-3.33625E-13
 -1      2549 1.97123E+01 3.16306E+00-5.73553E-04-4.73617E-01-1.11402E-15-3.07454E-13
 -1      2550 1.96782E+01 3.22292E+00-9.15776E-04-1.52097E-01 5.95585E-14-3.10029E-13
 -1      2551 3.28871E+01 3.71374E+00-5.52864E-02 1.01949E+00 2.60653E-13-1.54432E-13
 -1      2552 3.26964E+01 5.41468E+00-1.60192E-01 1.46968E+00 3.34455E-13-1.33615E-13
 -1      2553 3.35103E+01 6.97760E+00-1.13174E-01-3.09291E-01 4.72178E-13-1.09454E-13
 -1      2554 3.32861E+01 5.96470E+00-6.49641E-02-6.74216E-01 4.31599E-13-5.77316E-15
 -1      2555 2.68266E+01-4.45897E+00-2.53397E-02-3.80898E+00-1.77303E-13 2.38143E-13
 -1      2556 2.90878E+01-3.21053E+00-1.47361E-01-2.52330E+00-8.03246E-14 3.97460E-13
 -1      2557 3.28098E+01 7.17880E+00-1.15232E-01 7.94815E-01 3.62044E-13-1.59123E-13
 -1      2558 3.34140E+01 7.62846E+00-6.78867E-02 2.56345E-01 4.57079E-13-1.58686E-13
 -1      2559 3.06472E+01-5.95722E-01-7.41658E-02-5.90981E-01 2.68924E-13-1.42109E-13
 -1      2560 3.25132E+01 1.58157E+00-8.84420E-02 2.20610E-01 2.54352E-13-1.65590E-13
 -1      2561 3.09978E+01 2.01728E+00-2.89812E-02 1.68920E+00 2.98483E-13-1.49269E-13
 -1      2562 2.66625E+01-4.20201E+00-1.28207E-02-3.03784E+00 2.54990E-13-3.35898E-13
 -1      2563 2.94313E+01-2.49120E+00-7.27169E-03-2.00814E+00 2.59820E-13-2.58515E-13
 -1      2564 2.97544E+01-1.89630E+00-3.18512E-03 4.37842E-02 2.85223E-13-2.07973E-13
 -1      2565 1.85580E+01-5.86045E+00 6.10399E-02-6.12829E+00 9.95870E-14-1.85244E-13
 -1      2566 2.28603E+01-5.58300E+00-6.37253E-02-5.12665E+00 1.10134E-13-3.65499E-13
 -1      2567 9.98776E+00-5.11088E+00 5.72707E-02-6.25033E+00-1.84519E-13-1.25955E-13
 -1      2568 1.36244E+01-5.44103E+00-4.32510E-02-6.97112E+00-8.74856E-14-9.41192E-14
 -1      2569 4.34899E+00-3.91727E+00 5.39250E-02-3.57481E+00-3.40450E-13-3.12861E-13
 -1      2570 6.74046E+00-4.22887E+00 3.70403E-02-5.38568E+00-2.88047E-13-9.18710E-14
 -1      2571 2.57876E+00-3.44586E+00 3.56325E-02 4.59064E-01-5.07025E-14-3.95572E-13
 -1      2572 2.90142E+00-3.58868E+00 5.74742E-02-1.84931E+00-2.84578E-13-4.49418E-13
 -1      2573 5.52908E+00-2.44925E+00 1.47448E-01-2.87378E+00-2.84384E-13-3.11473E-13
 -1      2574 5.62226E+00-4.04250E+00 2.11973E-02 4.82187E+00-7.23033E-14-1.66644E-13
 -1      2575 3.56304E+00-3.83673E+00 5.39652E-02 2.80383E+00-3.40977E-14-2.26985E-13
 -1      2576 1.24897E+01-5.34064E+00 2.10020E-03 6.91347E+00-2.73503E-13-4.76147E-13
 -1      2577 9.24982E+00-4.79616E+00 8.56664E-02 6.08794E+00-1.23762E-13-4.91746E-13
 -1      2578 2.03115E+01-5.70867E+00-4.31916E-02 6.16063E+00-1.68476E-13-1.28189E-13
 -1      2579 1.62949E+01-5.87030E+00 2.60670E-02 6.51202E+00-2.31037E-13-2.73738E-13
 -1      2580 2.69791E+01-4.26511E+00-1.15347E-01 3.24506E+00-2.66329E-13 2.55185E-13
 -1      2581 2.39347E+01-5.24113E+00 1.08560E-02 4.48166E+00-1.89349E-13 1.04555E-13
 -1      2582 3.10824E+01-3.16973E-01-1.14450E-01-1.07761E-02-3.92610E-13 2.55074E-13
 -1      2583 2.92355E+01-2.29893E+00-4.09537E-02 9.78272E-01-4.64292E-13 2.89435E-13
 -1      2584 3.24248E+01 3.64252E+00-1.47633E-01-1.32328E+00-3.57381E-13 3.64764E-13
 -1      2585 3.16308E+01 1.66197E+00-1.25302E-01-9.32474E-01-3.71023E-13 2.13940E-13
 -1      2586 3.00687E+01 5.95412E-02-2.37700E-02-1.51118E+00-2.98192E-13 3.85303E-13
 -1      2587 3.38849E+01 7.15732E+00-9.48529E-02-7.99018E-01-2.54241E-13 2.24848E-13
 -1      2588 3.31200E+01 6.20696E+00-9.51371E-02-1.18463E+00-2.93432E-13 3.09863E-13
 -1      2589 3.27130E+01 4.60370E+00-7.36392E-02 8.22338E-01-2.11664E-13 3.63598E-15
 -1      2590 3.29191E+01 5.91841E+00-1.45210E-01 6.81300E-01-2.66176E-13-4.98768E-14
 -1      2591 3.09931E+01-3.43061E-01-2.70039E-02-5.96013E-01-1.63036E-13 3.67373E-13
 -1      2592 3.24522E+01 2.11607E+00-1.37673E-01 2.64210E-01-2.51382E-13 9.77829E-14
 -1      2593 2.11643E+01-6.01308E+00 1.89805E-02-6.11686E+00 8.97338E-14 3.53190E-13
 -1      2594 2.44868E+01-5.28809E+00-2.72229E-02-5.36954E+00-1.07025E-13 4.23800E-13
 -1      2595 2.60944E+01-5.36255E+00 6.35899E-02-3.82041E+00-3.81362E-14 2.46331E-13
 -1      2596 1.34601E+01-5.91997E+00 1.88093E-02-7.06907E+00 2.67120E-13 4.72844E-13
 -1      2597 1.73672E+01-5.93957E+00 4.06675E-03-7.27455E+00 7.62168E-14 4.24830E-13
 -1      2598 1.39285E+01-4.99425E+00 1.19198E-01-6.99309E+00 8.28781E-14 5.09606E-13
 -1      2599 3.05569E+01-1.69387E+00-8.82728E-02 1.63685E+00 1.88145E-13-6.73295E-13
 -1      2600 2.86013E+01-3.35259E+00-1.58413E-02 2.54328E+00 9.35085E-14-5.08676E-13
 -1      2601 2.04897E+01 8.74902E-01-7.31860E-03 1.22725E+00 2.52369E-13 2.17897E-13
 -1      2602 2.08404E+01 1.25691E+00-6.05412E-03 1.72793E+00 2.71446E-13 2.70598E-13
 -1      2603 2.06463E+01 1.71559E+00-1.57941E-02 1.92213E+00 3.05600E-13 1.68462E-13
 -1      2604 2.04485E+01 1.05796E+00-9.39882E-03 1.24212E+00 2.64110E-13 8.49301E-14
 -1      2605 2.95056E+01 4.73505E+00-7.89652E-02 2.16976E+00 2.11831E-13-2.14828E-13
 -1      2606 3.13627E+01 5.92468E+00-1.33182E-01 1.52127E+00 2.62262E-13-1.77330E-13
 -1      2607 2.91140E+01 6.23554E+00-1.92685E-01 1.34738E+00 2.61124E-13-2.31495E-13
 -1      2608 1.99136E+01 2.81016E+00 1.14861E-03-1.09804E+00-1.12615E-13-3.08257E-13
 -1      2609 1.97805E+01 3.15604E+00-1.61739E-02-1.28772E+00-1.31945E-13-3.42759E-13
 -1      2610 1.98832E+01 3.01265E+00-1.85413E-02-1.47768E+00-1.63804E-13-3.26168E-13
 -1      2611 2.15539E+01-5.75130E+00 1.18348E-01 5.83733E+00-4.08562E-14 4.13211E-15
 -1      2612 2.73796E+01-4.69287E+00-9.86698E-03 2.71124E+00-1.19349E-15-6.60944E-13
 -1      2613 2.04221E+01 2.11571E+00-1.27776E-02 1.87517E+00 3.09639E-13 3.81223E-14
 -1      2614 3.17490E+01 4.29648E+00-4.29238E-02-1.05866E+00 2.99372E-13-1.01280E-13
 -1      2615 8.40645E+00-2.89679E+00 1.43001E-01-4.67695E+00 1.05166E-13 5.11119E-13
 -1      2616 3.07372E+01-6.45948E-01-5.58602E-02-5.52254E-02 2.25514E-14-3.43170E-13
 -1      2617 2.06064E+01 4.01056E-01 3.67750E-04 1.13198E+00-1.42958E-13-6.19223E-14
 -1      2618 2.05854E+01 5.47695E-01 3.19957E-03 1.30188E+00-1.18857E-13-5.02636E-14
 -1      2619 6.06195E+00-1.76028E+00 1.76901E-01 2.60637E-01 4.55335E-13 2.56573E-13
 -1      2620 1.37845E+01-4.57307E+00 1.34758E-01 6.87828E+00 5.72320E-14 5.26482E-13
 -1      2621 2.05593E+01-5.94052E+00 8.27359E-02-6.37037E+00 1.64063E-13 4.34399E-13
 -1      2622 2.96984E+01-2.25128E+00-6.01189E-03-6.83966E-01-3.40786E-14 2.01894E-13
 -1      2623 1.99939E+01 3.40052E-01-3.53292E-03 3.05435E-01 1.90526E-13 9.04485E-15
 -1      2624 3.10045E+01 2.67066E+00-6.05688E-02 1.29700E+00-2.15550E-13-1.84464E-13
 -1      2625 2.01187E+01 2.61285E+00-9.99638E-03-1.67681E+00-2.16324E-13-2.65035E-13
 -1      2626 3.12372E+01 6.34509E+00-8.16440E-02 8.22893E-01-2.47025E-13-7.86871E-14
 -1      2627 3.14537E+01 7.17799E+00-5.70153E-02-7.51659E-01-1.72751E-13 2.35145E-13
 -1      2628 3.09742E+01 4.40819E+00-5.72275E-02-1.99922E+00-3.52801E-13 2.56045E-13
 -1      2629 2.81086E+01-3.67677E+00 5.63450E-03 1.24740E+00-2.51257E-13 2.87714E-13
 -1      2630 2.29206E+01-5.65853E+00 6.54106E-02 4.84008E+00-1.47965E-13 1.18981E-13
 -1      2631 1.60509E+01-5.30379E+00 1.09354E-01 6.49981E+00-1.34448E-13-2.91295E-13
 -1      2632 4.69355E+00-2.38204E+00 1.46861E-01 1.50527E+00-9.03236E-14-3.27960E-13
 -1      2633 9.93445E+00-3.77891E+00 1.42737E-01-5.78863E+00-2.17382E-13-2.53325E-13
 -1      2634 2.35693E+01-5.42238E+00 5.74604E-02-4.06645E+00 2.29525E-13-4.41839E-13
 -1      2635 2.52435E+01-5.20160E+00 2.26089E-02-3.56435E+00 1.65562E-13-3.94490E-13
 -1      2636 2.65856E+01-4.75885E+00-1.58600E-01-1.86481E+00 2.64663E-13-2.56753E-13
 -1      2637 3.09752E+01 6.94348E+00-8.43851E-02-2.34609E-01 4.42812E-13-2.19234E-13
 -1      2638 2.04361E+01 1.80791E+00 1.25387E-02 1.56297E+00 2.94375E-13 5.26922E-15
 -1      2639 1.75056E+01-5.31996E+00 1.19106E-01-6.25985E+00 5.98410E-14-2.71623E-13
 -1      2640 8.92207E+00-3.66362E+00 1.31709E-01 5.48745E+00-9.74776E-14-4.62463E-13
 -1      2641 2.07430E+01 3.01919E-01 9.79886E-03-1.18863E+00 1.21112E-13 1.73046E-13
 -1      2642 2.05859E+01 5.66215E-01 2.33993E-03-1.40812E+00 1.53552E-14-2.37339E-13
 -1      2643 2.07098E+01 3.87314E-01-6.02085E-03-1.66094E+00-5.01478E-14-2.93264E-13
 -1      2644 2.09442E+01 1.41773E-01-6.20659E-03-1.28035E+00 9.33695E-14 2.97375E-13
 -1      2645 2.07201E+01 3.78975E-01-4.06658E-03 1.56412E+00-2.46627E-14 3.31506E-15
 -1      2646 2.10142E+01 7.43229E-02-2.00278E-03-1.52417E+00 7.45926E-14-1.83218E-13
 -1      2647 1.98460E+01 2.76443E+00-6.30085E-03 5.16668E-01 1.55686E-13-2.75244E-13
 -1      2648 1.98213E+01 2.81416E+00-5.69900E-03 3.65697E-01 1.40551E-13-2.90588E-13
 -1      2649 1.98044E+01 2.85164E+00-5.61933E-03 2.30068E-01 1.14931E-13-2.87520E-13
 -1      2650 1.97959E+01 2.86852E+00-5.43399E-03 7.53410E-02 9.36259E-14-2.78754E-13
 -1      2651 1.99509E+01 2.50033E+00 3.64286E-03 2.65517E-01 1.27944E-13-2.67685E-13
 -1      2652 2.00439E+01 2.32357E+00-1.07319E-02 1.04671E+00 2.45233E-13-1.83485E-13
 -1      2653 1.99800E+01 2.47247E+00-6.30627E-03 9.11073E-01 2.23977E-13-2.11195E-13
 -1      2654 2.02169E+01 1.90788E+00-1.20297E-02 1.22807E+00 2.68884E-13-1.17127E-13
 -1      2655 2.01246E+01 2.14595E+00-4.79544E-03 1.13461E+00 2.51065E-13-1.50547E-13
 -1      2656 2.01897E+01 1.88613E+00 6.44358E-03 9.27303E-01 2.19131E-13-1.52492E-13
 -1      2657 1.58636E+01-4.35650E+00 1.69723E-01-6.13490E+00-5.98688E-14-3.27530E-13
 -1      2658 1.95447E+01-5.12993E+00-8.73070E-03-5.52499E+00 1.14728E-13-3.47319E-13
 -1      2659 2.02120E+01 7.26716E-01-3.49744E-03 6.43574E-01 2.21612E-13-2.14033E-14
 -1      2660 2.03541E+01 9.51627E-01 9.14585E-03 9.07344E-01 2.25086E-13-1.95436E-14
 -1      2661 3.00870E+01 3.65364E-01-2.07022E-01-1.02910E+00 4.36734E-14-2.76446E-13
 -1      2662 2.93083E+01-1.73683E+00-1.90118E-02-1.69942E-01 4.20844E-14-3.57464E-13
 -1      2663 2.02150E+01 6.26798E-01 7.83043E-03-4.38327E-01-1.34036E-13-1.46570E-13
 -1      2664 2.01319E+01 4.75535E-01-3.10990E-03-2.79294E-01-1.02138E-13-1.45046E-13
 -1      2665 2.01058E+01 3.62017E-01 6.62131E-03-1.59883E-01-8.53993E-14-1.27404E-13
 -1      2666 2.00466E+01 2.67439E-01-1.73945E-03-6.22848E-02-7.21454E-14-1.22285E-13
 -1      2667 2.01956E+01 5.28291E-01-1.45852E-03-2.63181E-01-9.04845E-14-1.36029E-13
 -1      2668 2.00204E+01 1.97371E-01 4.53470E-03 1.30163E-02-7.34722E-14-9.66150E-14
 -1      2669 1.99845E+01 1.37976E-01-8.24650E-04 6.96272E-02-6.31023E-14-8.75262E-14
 -1      2670 2.01262E+01 2.98343E-01-2.09585E-03-5.69167E-02-7.36080E-14-1.25167E-13
 -1      2671 1.99636E+01 9.39585E-02 2.90557E-03 1.13094E-01-6.48491E-14-7.39690E-14
 -1      2672 1.99455E+01 5.68516E-02-2.84684E-04 1.42627E-01-7.09669E-14-1.13440E-13
 -1      2673 2.00698E+01 1.52625E-01-1.89639E-03 7.05675E-02-7.46587E-14-1.35479E-13
 -1      2674 1.99306E+01 2.96251E-02 1.73240E-03 1.64270E-01-8.10898E-14-1.24061E-13
 -1      2675 1.99248E+01 7.18748E-03 2.63853E-05 1.76403E-01-7.64057E-14-1.45375E-13
 -1      2676 2.00289E+01 6.06764E-02-1.53292E-03 1.41846E-01-9.48868E-14-1.23731E-13
 -1      2677 1.99152E+01-8.90646E-03 9.24626E-04 1.83848E-01-5.51391E-14-1.20453E-13
 -1      2678 1.99173E+01-2.15097E-02 1.99617E-04 1.85246E-01-7.17006E-14-1.00190E-13
 -1      2679 2.00018E+01 4.46492E-03-1.15814E-03 1.75183E-01-5.80444E-14-1.35723E-13
 -1      2680 1.99117E+01-3.00718E-02 3.81570E-04 1.84005E-01-8.98452E-14-7.39616E-14
 -1      2681 1.99186E+01-3.59891E-02 2.97808E-04 1.79284E-01-6.45616E-14-2.25016E-14
 -1      2682 1.99857E+01-2.76859E-02-8.43668E-04 1.84202E-01-5.49906E-14-2.25746E-14
 -1      2683 1.99161E+01-3.93882E-02 2.81659E-05 1.73305E-01-5.61066E-14-2.19377E-14
 -1      2684 1.99257E+01-4.07112E-02 3.59178E-04 1.65684E-01-3.52576E-14-6.94186E-15
 -1      2685 1.99776E+01-4.34128E-02-6.02856E-04 1.78782E-01-4.42274E-14 5.20043E-14
 -1      2686 1.99252E+01-4.05266E-02-1.92632E-04 1.57783E-01-5.90330E-14 3.83274E-15
 -1      2687 1.99362E+01-3.86429E-02 4.07065E-04 1.49526E-01 4.44133E-15-4.35031E-14
 -1      2688 1.99752E+01-4.78045E-02-4.29183E-04 1.66023E-01-6.10665E-14 5.68657E-15
 -1      2689 1.99373E+01-3.59132E-02-3.24238E-04 1.41727E-01 3.25315E-14-8.23637E-14
 -1      2690 1.99490E+01-3.17133E-02 4.56924E-04 1.34457E-01 2.20750E-15-7.04915E-14
 -1      2691 1.99769E+01-4.42496E-02-3.11029E-04 1.51024E-01-3.05700E-14-5.33826E-14
 -1      2692 1.99513E+01-2.70869E-02-3.99345E-04 1.28241E-01-7.73677E-16-6.32222E-14
 -1      2693 1.99635E+01-2.10966E-02 5.19885E-04 1.23167E-01 7.91494E-15-7.71724E-14
 -1      2694 1.99815E+01-3.49383E-02-2.36968E-04 1.37484E-01 1.06767E-14-4.34827E-14
 -1      2695 1.99666E+01-1.49325E-02-4.42366E-04 1.19676E-01-3.70424E-14-6.11658E-14
 -1      2696 1.99794E+01-7.40549E-03 6.04541E-04 1.17765E-01-4.83221E-14-9.22590E-14
 -1      2697 1.99883E+01-2.11825E-02-1.96930E-04 1.28176E-01-3.61239E-14-7.56376E-14
 -1      2698 1.99833E+01 1.53439E-04-4.71524E-04 1.17951E-01-7.52704E-14-1.37505E-13
 -1      2699 1.99972E+01 9.16542E-03 7.17769E-04 1.20054E-01-1.16590E-13-1.64624E-13
 -1      2700 1.99969E+01-3.64044E-03-1.82344E-04 1.25308E-01-1.06289E-13-7.35082E-14
 -1      2701 2.00018E+01 1.81335E-02-5.00390E-04 1.24787E-01-1.25853E-13-1.70821E-13
 -1      2702 2.00174E+01 2.87211E-02 8.64915E-04 1.31725E-01-1.82347E-13-1.75180E-13
 -1      2703 2.00072E+01 1.75117E-02-1.85928E-04 1.30789E-01-1.17004E-13-9.34407E-14
 -1      2704 2.00228E+01 3.92160E-02-5.38888E-04 1.41879E-01-2.02619E-13-1.60915E-13
 -1      2705 2.00410E+01 5.15537E-02 1.04953E-03 1.54503E-01-1.90797E-13-1.57250E-13
 -1      2706 2.00193E+01 4.24349E-02-2.01253E-04 1.46431E-01-1.77345E-13-8.00083E-14
 -1      2707 2.00473E+01 6.37394E-02-5.93808E-04 1.70994E-01-1.86286E-13-1.18267E-13
 -1      2708 2.00689E+01 7.80189E-02 1.27267E-03 1.90209E-01-1.79784E-13-9.23480E-14
 -1      2709 2.00335E+01 7.14844E-02-2.22365E-04 1.74073E-01-1.48568E-13-1.11861E-14
 -1      2710 2.00763E+01 9.20340E-02-6.68695E-04 2.14011E-01-1.19285E-13-7.69946E-14
 -1      2711 2.01026E+01 1.08376E-01 1.53180E-03 2.40759E-01-2.30313E-14-1.35897E-13
 -1      2712 2.00502E+01 1.05047E-01-2.43697E-04 2.15642E-01-1.37250E-13 5.55590E-14
 -1      2713 2.01112E+01 1.24237E-01-7.62873E-04 2.72874E-01 8.29082E-14-1.28880E-13
 -1      2714 2.01432E+01 1.42568E-01 1.81927E-03 3.08071E-01 1.71771E-13-1.19025E-13
 -1      2715 2.00696E+01 1.43331E-01-2.60557E-04 2.73129E-01 1.36875E-14 1.47122E-14
 -1      2716 2.01533E+01 1.60022E-01-8.69207E-04 3.49449E-01 2.05710E-13-1.24189E-13
 -1      2717 2.01925E+01 1.79883E-01 2.12028E-03 3.93847E-01 1.58789E-13-1.59277E-13
 -1      2718 2.00922E+01 1.86065E-01-2.70739E-04 3.48490E-01 1.68261E-13-3.32724E-14
 -1      2719 2.02044E+01 1.98194E-01-9.69954E-04 4.45245E-01 5.35984E-14-1.64182E-13
 -1      2720 2.02520E+01 2.18458E-01 2.41073E-03 4.99202E-01-1.01496E-14-1.10159E-13
 -1      2721 2.01186E+01 2.32056E-01-2.78177E-04 4.43418E-01 1.32920E-13-1.15945E-13
 -1      2722 2.02665E+01 2.36069E-01-1.02977E-03 5.60948E-01-1.13087E-13-4.25089E-14
 -1      2723 2.03240E+01 2.54518E-01 2.65477E-03 6.24059E-01-9.58004E-14-1.02150E-13
 -1      2724 2.01498E+01 2.78528E-01-3.00048E-04 5.58978E-01-7.16964E-14 5.53740E-14
 -1      2725 2.03423E+01 2.68573E-01-9.84699E-04 6.95706E-01-4.24809E-14-1.93274E-13
 -1      2726 2.04115E+01 2.81286E-01 2.80247E-03 7.66254E-01-6.18860E-14-1.62292E-13
 -1      2727 2.01872E+01 3.20142E-01-3.79335E-04 6.95064E-01-1.15206E-13 8.64909E-14
 -1      2728 2.04364E+01 2.86948E-01-7.26114E-04 8.46069E-01-7.67738E-14-1.42840E-13
 -1      2729 2.05194E+01 2.87493E-01 2.78648E-03 9.20232E-01 9.90999E-15-1.49569E-13
 -1      2730 2.02343E+01 3.47614E-01-6.04940E-04 8.49606E-01-4.97302E-14 2.40820E-15
 -1      2731 2.05561E+01 2.77110E-01-7.93850E-05 1.00446E+00 4.47480E-14-1.13975E-13
 -1      2732 2.06562E+01 2.55612E-01 2.51378E-03 1.07523E+00 5.61445E-14-1.04580E-13
 -1      2733 2.02973E+01 3.45894E-01-1.14005E-03 1.01746E+00 3.50252E-14 3.50127E-14
 -1      2734 2.07141E+01 2.17911E-01 1.21887E-03 1.15699E+00 1.02897E-13-7.22040E-14
 -1      2735 2.08367E+01 1.60357E-01 1.84141E-03 1.21280E+00 1.35128E-13-3.77903E-14
 -1      2736 2.03888E+01 2.92104E-01-2.25430E-03 1.18884E+00 8.10484E-14 9.70153E-14
 -1      2737 2.09320E+01 8.02685E-02 3.53208E-03 1.28040E+00 6.28727E-14-1.10900E-13
 -1      2738 2.10847E+01-3.09720E-02 5.17870E-04 1.30346E+00 1.77259E-14-1.55805E-13
 -1      2739 2.05309E+01 1.54022E-01-4.33787E-03 1.34688E+00 1.67600E-14 6.23389E-14
 -1      2740 2.12430E+01-1.70364E-01 7.26620E-03 1.33765E+00 6.32265E-14-1.82033E-13
 -1      2741 2.14358E+01-3.52572E-01-1.93046E-03 1.30249E+00 7.75426E-14-1.97974E-13
 -1      2742 2.07608E+01-1.08726E-01-7.83177E-03 1.46367E+00-2.09124E-15-1.30304E-13
 -1      2743 2.16924E+01-5.62992E-01 1.25404E-02 1.27215E+00 4.86092E-14-1.75478E-13
 -1      2744 2.19327E+01-8.21207E-01-6.25299E-03 1.14552E+00 5.90274E-14-7.50757E-14
 -1      2745 2.11348E+01-5.35718E-01-1.29879E-02 1.49328E+00 6.78479E-14-5.48617E-14
 -1      2746 2.23252E+01-1.09221E+00 1.83172E-02 1.00359E+00 6.26261E-14-7.98552E-14
 -1      2747 2.26065E+01-1.39492E+00-1.34269E-02 7.50066E-01 4.21811E-14-1.94254E-14
 -1      2748 2.17245E+01-1.13810E+00-1.91508E-02 1.36193E+00 1.16201E-13-1.83976E-14
 -1      2749 2.31504E+01-1.66142E+00 2.11720E-02 4.32621E-01-1.83900E-14 7.36407E-14
 -1      2750 2.34392E+01-1.89604E+00-2.01077E-02 3.37088E-02-1.44528E-14 1.01983E-13
 -1      2751 2.25950E+01-1.84503E+00-2.43816E-02 9.57512E-01 4.00366E-14 6.60973E-14
 -1      2752 2.40548E+01-1.99812E+00 1.14280E-02-4.85875E-01-4.30793E-14 1.24352E-13
 -1      2753 2.42692E+01-1.97121E+00-2.88472E-02-9.69752E-01-1.13876E-13 2.10114E-13
 -1      2754 2.36947E+01-2.38476E+00-3.25253E-02 1.42408E-01-3.84207E-14 9.64211E-14
 -1      2755 2.48387E+01-1.64447E+00 3.68425E-03-1.67975E+00-1.85674E-13 3.45958E-13
 -1      2756 2.48302E+01-1.09253E+00-1.82880E-02-2.06396E+00-2.24862E-13 4.43776E-13
 -1      2757 2.49147E+01-2.33540E+00-5.03230E-02-1.07326E+00-1.27520E-13 3.26808E-13
 -1      2758 2.50459E+01-2.27438E-01-4.21460E-02-2.56978E+00-2.97607E-13 3.26859E-13
 -1      2759 2.48542E+01 8.61582E-01-3.23973E-03-2.57903E+00-1.99299E-13 3.01373E-13
 -1      2760 2.56952E+01-9.19134E-01-5.63047E-02-2.30762E+00-3.13326E-13 5.32409E-13
 -1      2761 2.46315E+01 1.96146E+00-9.30552E-02-2.32621E+00-7.32470E-14 2.33783E-13
 -1      2762 2.44272E+01 2.91062E+00-3.62109E-02-1.76622E+00 8.41688E-15 2.69658E-13
 -1      2763 2.57726E+01 1.74282E+00-3.96480E-02-2.68768E+00-2.09471E-13 5.20270E-13
 -1      2764 2.42687E+01 3.47903E+00-6.59079E-02-7.55864E-01 1.80356E-13 1.25718E-13
 -1      2765 2.42215E+01 3.46451E+00-7.59938E-02 1.23578E-01 2.59515E-13 1.60282E-13
 -1      2766 2.54245E+01 3.87442E+00-7.58968E-02-1.37994E+00 1.08816E-13 4.31438E-13
 -1      2767 2.44108E+01 2.92822E+00-2.19750E-02 1.13099E+00 1.34115E-13 2.44600E-13
 -1      2768 2.45171E+01 1.96579E+00-9.90870E-02 1.70494E+00 1.63803E-13 2.32944E-13
 -1      2769 2.53920E+01 3.86575E+00-8.53230E-02 7.42322E-01 1.70440E-13 1.98858E-13
 -1      2770 2.47765E+01 8.41477E-01 9.53162E-04 1.95484E+00 1.42830E-13 6.37372E-14
 -1      2771 2.48390E+01-2.74861E-01-7.01551E-02 1.91932E+00-1.26175E-14 1.30935E-13
 -1      2772 2.57466E+01 1.66318E+00-3.08518E-02 2.02042E+00 3.26406E-14 5.43905E-14
 -1      2773 2.47127E+01-1.11969E+00-5.25603E-03 1.45369E+00-1.10533E-13 1.89891E-13
 -1      2774 2.46031E+01-1.71428E+00-1.72124E-02 1.02583E+00-6.66138E-14 1.12329E-13
 -1      2775 2.56566E+01-8.86294E-01-8.16979E-03 1.68558E+00-1.23929E-14-3.16785E-13
 -1      2776 2.40817E+01-2.00985E+00-2.17516E-02 3.48683E-01-5.28178E-14 2.52927E-14
 -1      2777 2.38224E+01-2.05150E+00 1.27295E-02-1.61909E-01 1.46855E-13-1.71120E-13
 -1      2778 2.48482E+01-2.31760E+00-1.60224E-02 3.88583E-01-1.22562E-13-4.41539E-14
 -1      2779 2.31782E+01-1.92057E+00-2.07430E-02-7.01404E-01 2.97247E-13-1.70336E-13
 -1      2780 2.28453E+01-1.64978E+00 2.20240E-02-1.09895E+00 2.97662E-13-1.96654E-13
 -1      2781 2.36519E+01-2.42385E+00-2.23741E-02-8.51053E-01 1.53088E-13-1.55532E-13
 -1      2782 2.22838E+01-1.33441E+00-1.39580E-02-1.40724E+00 3.57891E-13-1.09179E-13
 -1      2783 2.19542E+01-9.64772E-01 1.96722E-02-1.63661E+00 3.66365E-13-1.23539E-13
 -1      2784 2.24957E+01-1.79175E+00-2.30288E-02-1.64662E+00 2.51322E-13-2.12782E-13
 -1      2785 2.15366E+01-6.09962E-01-7.63538E-03-1.74087E+00 2.41897E-13-9.69290E-14
 -1      2786 2.12534E+01-2.57103E-01 1.28193E-02-1.80146E+00 1.70745E-13-2.46653E-13
 -1      2787 2.15936E+01-9.19423E-01-1.52644E-02-2.00079E+00 3.13053E-13-3.54237E-13
 -1      2788 1.98537E+01 4.93411E-02 5.59535E-05-1.42569E-01 4.04880E-14-9.46423E-14
 -1      2789 1.98678E+01 8.10952E-02 3.16429E-03-1.14221E-01 5.98590E-14-8.44161E-14
 -1      2790 2.08098E+01 2.04841E-01 4.25168E-03 1.95892E+00-6.41120E-14-3.14217E-13
 -1      2791 2.09797E+01 7.11936E-02 8.65146E-03 1.64143E+00 4.83988E-15-1.00626E-13
 -1      2792 2.12204E+01-2.08927E-01-9.57615E-03 1.67318E+00 5.34493E-14-2.28581E-13
 -1      2793 1.98908E+01 1.18565E-01-2.44874E-04-6.97102E-02 8.65654E-14-1.00308E-13
 -1      2794 1.99265E+01 1.70074E-01 5.20474E-03-1.42608E-02 1.18997E-13-8.36245E-14
 -1      2795 1.99910E+01 1.35270E-01-2.34764E-03-7.12702E-02 8.08439E-14-1.25079E-13
 -1      2796 1.98424E+01-1.72152E-02 2.75320E-04-1.83965E-01 6.19811E-14-3.92073E-14
 -1      2797 1.98338E+01-6.46728E-03 8.80694E-04-1.83175E-01 6.21279E-14-7.34884E-14
 -1      2798 1.98542E+01-2.96993E-02 3.04557E-04-1.77412E-01 6.89031E-14-2.40988E-14
 -1      2799 1.98410E+01-2.45691E-02 2.94942E-04-1.82543E-01 8.16560E-14-8.52445E-15
 -1      2800 1.99204E+01-2.32237E-02-8.76988E-04-1.87417E-01 5.71903E-14-5.64215E-14
 -1      2801 1.98714E+01-3.40791E-02 3.23483E-04-1.63203E-01 4.86041E-14-2.62446E-15
 -1      2802 1.98560E+01-3.27734E-02-7.02006E-05-1.71150E-01 4.51562E-14-1.49942E-15
 -1      2803 1.99211E+01-3.72556E-02-5.86732E-04-1.81313E-01 5.10645E-14 2.51772E-14
 -1      2804 1.98914E+01-3.28658E-02 3.47893E-04-1.46313E-01 4.99453E-14 1.62136E-14
 -1      2805 1.98753E+01-3.42030E-02-2.84687E-04-1.54919E-01 5.51776E-14 9.19900E-15
 -1      2806 1.99276E+01-4.15869E-02-3.88080E-04-1.67588E-01 5.60725E-14 1.04845E-14
 -1      2807 1.99127E+01-2.76919E-02 3.87751E-04-1.30266E-01 1.11074E-13 2.01449E-14
 -1      2808 1.98966E+01-3.09135E-02-3.98494E-04-1.38004E-01 8.45655E-14 3.57945E-14
 -1      2809 1.99376E+01-3.91825E-02-2.62164E-04-1.51375E-01 8.05439E-14-1.10025E-14
 -1      2810 1.99346E+01-1.95585E-02 4.50410E-04-1.17636E-01 8.90273E-14 4.62340E-14
 -1      2811 1.99186E+01-2.42125E-02-4.47932E-04-1.23380E-01 1.29554E-13 5.41627E-14
 -1      2812 1.99499E+01-3.19569E-02-1.92454E-04-1.36360E-01 8.14109E-14 9.79224E-14
 -1      2813 1.99574E+01-9.00065E-03 5.42106E-04-1.10408E-01 3.95246E-14 1.07609E-13
 -1      2814 1.99413E+01-1.48624E-02-4.59158E-04-1.13273E-01 4.38499E-14 8.70822E-14
 -1      2815 1.99639E+01-2.10669E-02-1.66011E-04-1.25267E-01 6.25013E-14 1.35661E-13
 -1      2816 1.99816E+01 3.79482E-03 6.68521E-04-1.10258E-01 1.54732E-13 5.06524E-14
 -1      2817 1.99647E+01-3.21984E-03-4.51116E-04-1.09472E-01 9.65438E-14 9.80281E-14
 -1      2818 1.99792E+01-7.10804E-03-1.72474E-04-1.20239E-01 9.52655E-14 9.83010E-14
 -1      2819 2.00083E+01 1.88951E-02 8.34746E-04-1.18752E-01 8.41861E-14 1.15214E-13
 -1      2820 1.99898E+01 1.06600E-02-4.37508E-04-1.13572E-01 1.50385E-13 6.98112E-14
 -1      2821 1.99963E+01 9.74002E-03-2.03894E-04-1.23109E-01 1.22744E-13 1.74856E-13
 -1      2822 2.00391E+01 3.65335E-02 1.04476E-03-1.37485E-01-6.12946E-15 1.26778E-13
 -1      2823 2.00178E+01 2.69338E-02-4.28093E-04-1.27134E-01 6.16593E-14 1.25971E-13
 -1      2824 2.00156E+01 2.95949E-02-2.53759E-04-1.35606E-01 7.79466E-14 2.46146E-13
 -1      2825 2.00755E+01 5.70142E-02 1.30051E-03-1.68158E-01-5.69906E-14 5.06506E-14
 -1      2826 2.00501E+01 4.58806E-02-4.29573E-04-1.51802E-01-3.68475E-14 4.21045E-14
 -1      2827 2.00381E+01 5.27560E-02-3.16379E-04-1.59487E-01 1.08998E-14 1.36051E-13
 -1      2828 2.01197E+01 8.05925E-02 1.60035E-03-2.12588E-01 2.89310E-14-2.74847E-14
 -1      2829 2.00886E+01 6.77969E-02-4.45863E-04-1.89338E-01-3.05311E-15 1.92717E-14
 -1      2830 2.00646E+01 7.95764E-02-3.86422E-04-1.96608E-01 2.19136E-14 1.03922E-13
 -1      2831 2.01738E+01 1.07306E-01 1.93679E-03-2.72627E-01-2.97165E-14-6.37219E-14
 -1      2832 2.01355E+01 9.28570E-02-4.77640E-04-2.41598E-01 2.23336E-14-4.46565E-14
 -1      2833 2.00963E+01 1.10296E-01-4.58877E-04-2.48911E-01 3.67066E-14-1.40843E-14
 -1      2834 2.02404E+01 1.36720E-01 2.29313E-03-3.49967E-01 4.82440E-15-5.59935E-14
 -1      2835 2.01930E+01 1.20908E-01-5.20813E-04-3.10399E-01-6.88157E-14-1.20157E-13
 -1      2836 2.01346E+01 1.44807E-01-5.29841E-04-3.18326E-01 6.23260E-16-1.18476E-13
 -1      2837 2.03222E+01 1.67538E-01 2.63909E-03-4.45779E-01 7.37702E-14-1.63426E-14
 -1      2838 2.02638E+01 1.51157E-01-5.63369E-04-3.97251E-01 7.53904E-14-4.87567E-14
 -1      2839 2.01809E+01 1.82294E-01-5.98884E-04-4.06543E-01 3.26408E-14-1.25480E-13
 -1      2840 2.04218E+01 1.97004E-01 2.92501E-03-5.60107E-01-2.59908E-14-5.01649E-14
 -1      2841 2.03507E+01 1.81695E-01-5.79703E-04-5.02898E-01 2.65767E-14 3.04325E-14
 -1      2842 2.02369E+01 2.20702E-01-6.74192E-04-5.14627E-01 3.21765E-14 9.38967E-14
 -1      2843 2.05427E+01 2.20030E-01 3.07482E-03-6.90937E-01-3.71799E-14-1.83482E-13
 -1      2844 2.04571E+01 2.08767E-01-5.21381E-04-6.26578E-01 4.53674E-15-1.54877E-13
 -1      2845 2.03048E+01 2.55917E-01-7.82170E-04-6.42399E-01 3.94870E-14 7.11068E-14
 -1      2846 2.06888E+01 2.27970E-01 2.97799E-03-8.32800E-01-9.91805E-14-4.88215E-14
 -1      2847 2.05870E+01 2.25741E-01-3.03462E-04-7.64889E-01-9.74587E-14-1.39410E-13
 -1      2848 2.03879E+01 2.80605E-01-9.83306E-04-7.87515E-01-8.26231E-14 2.94662E-14
 -1      2849 2.08661E+01 2.07148E-01 2.48056E-03-9.74800E-01 1.27384E-14-7.45283E-14
 -1      2850 2.07465E+01 2.21738E-01 2.12874E-04-9.10134E-01 1.52061E-14-9.20919E-14
 -1      2851 2.04917E+01 2.82643E-01-1.39465E-03-9.44126E-01-6.66306E-14 2.89981E-14
 -1      2852 2.10834E+01 1.37541E-01 1.37288E-03-1.09798E+00 2.49837E-14-6.97986E-15
 -1      2853 2.09442E+01 1.80151E-01 1.23577E-03-1.04798E+00-1.84821E-15 3.74054E-14
 -1      2854 2.06255E+01 2.43339E-01-2.21438E-03-1.10098E+00-2.71383E-14-2.30137E-15
 -1      2855 2.13548E+01-7.08996E-03-6.31479E-04-1.17210E+00 2.88650E-14-3.96869E-14
 -1      2856 2.11941E+01 7.78105E-02 3.03713E-03-1.15435E+00 5.73643E-14-7.66168E-15
 -1      2857 2.08057E+01 1.36111E-01-3.73308E-03-1.23879E+00-1.17979E-14-1.70448E-14
 -1      2858 2.16999E+01-2.54627E-01-3.91883E-03-1.15240E+00 4.42656E-14 6.86743E-14
 -1      2859 2.15165E+01-1.13236E-01 5.87704E-03-1.19161E+00 2.75163E-14 2.55182E-14
 -1      2860 2.10590E+01-7.24945E-02-6.28189E-03-1.32654E+00 1.48181E-15-6.11559E-14
 -1      2861 2.21416E+01-6.19429E-01-8.62622E-03-9.78031E-01 1.16496E-13 8.52228E-14
 -1      2862 2.19371E+01-4.17102E-01 9.71430E-03-1.10492E+00 1.16702E-13 1.66217E-13
 -1      2863 2.14247E+01-4.15040E-01-9.99385E-03-1.31653E+00 3.36054E-14 1.26833E-13
 -1      2864 2.26905E+01-1.07211E+00-1.48693E-02-5.79838E-01-1.21302E-13 2.59643E-13
 -1      2865 2.24771E+01-8.31094E-01 1.39139E-02-8.23661E-01 4.66001E-14 1.07242E-13
 -1      2866 2.19496E+01-8.99534E-01-1.39773E-02-1.13994E+00 3.17418E-14 2.24684E-13
 -1      2867 2.33187E+01-1.48243E+00-2.00443E-02 1.00947E-01-2.95303E-13 4.23519E-13
 -1      2868 2.31303E+01-1.28780E+00 1.58793E-02-2.71492E-01-2.62363E-13 3.08943E-13
 -1      2869 2.26692E+01-1.47132E+00-1.66492E-02-7.10809E-01-2.30831E-13 2.61215E-13
 -1      2870 2.39139E+01-1.57001E+00-1.75730E-02 1.03614E+00 1.36540E-14 3.17521E-13
 -1      2871 2.38039E+01-1.58313E+00 1.03344E-02 5.83743E-01-9.16361E-14 3.04878E-13
 -1      2872 2.35585E+01-1.92890E+00-1.38321E-02 6.19630E-02-2.09255E-13 2.25358E-13
 -1      2873 2.42709E+01-9.79902E-01 1.82931E-04 1.97876E+00 7.50081E-14 1.87568E-13
 -1      2874 2.42764E+01-1.37973E+00-1.20829E-02 1.60612E+00 6.14756E-14 3.17990E-13
 -1      2875 2.44197E+01-1.86921E+00-9.74277E-03 1.15835E+00 7.77755E-14 1.89534E-13
 -1      2876 2.41712E+01 4.33687E-01 1.42244E-02 2.45290E+00 1.95625E-13 1.39192E-14
 -1      2877 2.43163E+01-3.88875E-01-4.73232E-02 2.39890E+00 1.50805E-13 1.23424E-13
 -1      2878 2.49739E+01-8.83844E-01 9.33912E-03 2.28870E+00 1.89878E-13 2.25757E-14
 -1      2879 2.37175E+01 2.06586E+00 2.63392E-03 1.86063E+00 9.22040E-14 1.55453E-13
 -1      2880 2.38892E+01 1.25634E+00-7.46474E-02 2.29014E+00 1.50316E-13 1.16539E-13
 -1      2881 2.49217E+01 1.09674E+00 9.34568E-03 2.64619E+00 6.78103E-14-5.31103E-14
 -1      2882 2.33901E+01 2.76925E+00-3.62126E-02 2.77447E-01-2.14932E-14 1.90379E-13
 -1      2883 2.34527E+01 2.59435E+00-5.54773E-02 1.03663E+00 2.96221E-14 1.41098E-13
 -1      2884 2.44924E+01 2.90778E+00-2.15831E-02 1.66032E+00 2.17500E-14 4.80605E-14
 -1      2885 2.35561E+01 1.91598E+00-7.37389E-02-1.30724E+00 1.12410E-15 7.29200E-14
 -1      2886 2.34914E+01 2.53276E+00-7.87148E-03-6.95251E-01-1.08663E-14 2.57075E-13
 -1      2887 2.43600E+01 3.30979E+00-3.11101E-02-2.72316E-01-3.49790E-14-3.33024E-14
 -1      2888 2.39559E+01 2.22420E-01-6.76309E-02-1.89936E+00 5.86631E-14 1.17371E-13
 -1      2889 2.38651E+01 1.13243E+00 1.71892E-02-1.76260E+00 1.67956E-14 6.01142E-14
 -1      2890 2.46734E+01 1.89758E+00-3.67092E-03-1.77633E+00 1.99840E-14 1.12632E-13
 -1      2891 2.40546E+01-1.10695E+00-2.63250E-02-1.39476E+00-1.12376E-13 8.02917E-14
 -1      2892 2.40560E+01-5.07351E-01 1.07726E-02-1.67068E+00 6.41796E-14 5.90760E-14
 -1      2893 2.48677E+01-2.07891E-01 4.82567E-03-1.94395E+00 1.27495E-13-6.32654E-14
 -1      2894 2.36448E+01-1.61961E+00 7.89058E-04-3.78645E-01 1.64855E-13-3.46278E-13
 -1      2895 2.37719E+01-1.47002E+00-1.45070E-02-8.32396E-01 1.30188E-14-1.16435E-13
 -1      2896 2.45254E+01-1.63404E+00-1.09976E-02-1.00779E+00 1.04920E-13-4.59357E-13
 -1      2897 2.29296E+01-1.44677E+00 1.48587E-02 5.87543E-01 3.57312E-13-4.17068E-13
 -1      2898 2.31574E+01-1.60479E+00-2.17402E-02 1.71184E-01 2.35256E-13-4.40217E-13
 -1      2899 2.37058E+01-2.02779E+00-1.33107E-02 1.85850E-01 2.03798E-13-6.62380E-13
 -1      2900 2.21625E+01-9.46087E-01 1.66968E-02 1.23896E+00 3.25943E-13-3.50611E-13
 -1      2901 2.24258E+01-1.22642E+00-1.84143E-02 9.65037E-01 3.72898E-13-2.61302E-13
 -1      2902 2.27395E+01-1.66485E+00-1.56878E-02 1.10938E+00 2.07162E-13-5.36838E-13
 -1      2903 2.15287E+01-4.58524E-01 1.11670E-02 1.57838E+00 2.00536E-13-2.82318E-13
 -1      2904 2.17919E+01-7.55839E-01-1.42320E-02 1.46185E+00 2.23978E-13-3.26805E-13
 -1      2905 2.19425E+01-1.08805E+00-1.27332E-02 1.67425E+00 2.70731E-13-2.79523E-13
 -1      2906 2.13172E+01-4.85528E-01-6.83558E-03 1.96086E+00 5.67275E-14-4.89763E-13
 -1      2907 1.78913E+01 2.24802E+00-1.44739E-02 3.33392E-01-7.76072E-14 1.30127E-13
 -1      2908 1.80323E+01 2.18142E+00 1.32642E-03 8.77565E-01-4.78788E-14-8.85917E-14
 -1      2909 2.10451E+01-2.70127E-02-2.00639E-03-1.77316E+00 1.88743E-13-2.29006E-13
 -1      2910 2.08802E+01 1.87714E-01 8.24284E-03-1.72863E+00 4.77064E-14-2.68388E-13
 -1      2911 2.10394E+01-2.03395E-01-1.05799E-02-2.03936E+00 1.69886E-13-4.52219E-13
 -1      2912 1.90419E+01 1.42945E+00-2.19743E-02 2.16775E+00-9.69824E-14-1.48571E-13
 -1      2913 1.94652E+01 1.20266E+00 1.94798E-02 2.34473E+00-2.59992E-15-1.23108E-14
 -1      2914 1.80372E+01 2.17694E+00 9.06588E-04-8.87558E-01 1.84539E-13 5.35643E-13
 -1      2915 1.78945E+01 2.24489E+00-1.48147E-02-3.45953E-01 2.01930E-14 3.49335E-13
 -1      2916 1.74193E+01 1.95094E+00 1.98095E-02-8.25414E-03 1.63146E-13 2.58522E-13
 -1      2917 1.82906E+01 1.94832E+00-2.34513E-02 1.45260E+00-2.53917E-13-2.33774E-13
 -1      2918 1.86494E+01 1.77303E+00 1.53335E-02 1.84786E+00-1.32790E-13-1.54535E-13
 -1      2919 1.85934E+01 1.19734E+00 5.03006E-03 2.25624E+00-1.65939E-13-8.97511E-14
 -1      2920 1.77566E+01 1.73579E+00 1.78867E-02 1.32546E+00 3.01513E-14-9.08518E-14
 -1      2921 2.81669E+01-4.02326E+00-1.21558E-01 1.35892E+00 9.74706E-14-5.61023E-13
 -1      2922 2.62150E+01-5.01369E+00 1.61357E-02 2.83932E+00-3.72757E-14-6.44956E-13
 -1      2923 2.03376E+01 1.50012E+00-1.89947E-03 1.26778E+00 2.73190E-13-2.26438E-14
 -1      2924 1.86419E+01 1.77816E+00 1.51524E-02-1.84199E+00 1.69697E-13 5.34363E-13
 -1      2925 1.82898E+01 1.94928E+00-2.32361E-02-1.45235E+00 9.55465E-14 7.73668E-13
 -1      2926 1.77585E+01 1.73539E+00 1.81859E-02-1.32515E+00 2.92194E-13 6.30759E-13
 -1      2927 1.94583E+01 1.20631E+00 1.88519E-02-2.34344E+00 4.24723E-14 8.06157E-14
 -1      2928 1.90347E+01 1.43357E+00-2.24522E-02-2.16480E+00 9.58964E-14 1.89627E-13
 -1      2929 1.85789E+01 1.20065E+00 2.70866E-03-2.25357E+00-1.11976E-13 2.58762E-13
 -1      2930 2.01884E+01 6.82287E-01 1.68685E-02-2.36007E+00 1.34243E-14-1.69388E-13
 -1      2931 1.98399E+01 8.97056E-01-1.28554E-02-2.38810E+00 1.08115E-13-1.05883E-13
 -1      2932 1.95706E+01 6.00642E-01-8.48534E-03-2.60584E+00 5.87694E-14 9.71262E-14
 -1      2933 2.03196E+01 1.70956E+00-9.82770E-03-1.33248E+00-2.00661E-13-2.10318E-13
 -1      2934 2.02870E+01 1.32793E+00-7.05994E-03-1.03540E+00-1.87617E-13-1.77095E-13
 -1      2935 1.91683E+01-5.35990E+00 1.17068E-01-6.37297E+00 6.70297E-14 3.82683E-13
 -1      2936 2.21497E+01-5.77401E+00-5.11262E-02-5.50143E+00 8.66252E-14 4.19423E-13
 -1      2937 1.58710E+01-4.17049E+00-2.79516E-02 6.49986E+00-4.13419E-14 9.34808E-14
 -1      2938 1.28943E+01-3.15136E+00 1.71220E-01 5.98718E+00 5.27356E-14 3.15165E-13
 -1      2939 1.07978E+01-2.38581E+00 1.03288E-01 5.29386E+00 2.12233E-13 2.50550E-13
 -1      2940 8.98536E+00-1.48294E+00 1.57043E-01 3.68399E+00 2.96617E-13 6.42819E-14
 -1      2941 1.35587E+01-1.93484E+00 1.49502E-01 5.04660E+00 1.27016E-13-8.91232E-14
 -1      2942 2.78685E+01-3.23898E+00-1.71840E-01-9.06842E-02-2.22592E-13 4.75148E-13
 -1      2943 2.66523E+01-4.51844E+00 7.17755E-02 1.63705E+00-9.59580E-14 4.13142E-13
 -1      2944 9.57732E+00-2.63230E+00 1.77533E-01-5.06220E+00-1.51434E-13-2.62818E-13
 -1      2945 1.21865E+01-3.72850E+00 2.92236E-02-6.17373E+00-1.00364E-13-3.19300E-13
 -1      2946 2.82536E+01-3.46584E+00 1.44990E-02-8.81995E-01 8.74648E-15 2.53131E-13
 -1      2947 2.91958E+01-1.45200E+00-2.01065E-01 6.21833E-01-1.27336E-13-8.93730E-15
 -1      2948 1.99602E+01 2.30918E-01-7.72950E-04 6.37616E-02 1.26858E-13-6.72558E-14
 -1      2949 2.00258E+01 3.14776E-01 7.82329E-03 1.61486E-01 1.50682E-13-4.03977E-14
 -1      2950 2.00557E+01 2.65605E-01-2.68929E-03 6.17716E-02 1.34093E-13-1.00919E-13
 -1      2951 1.98403E+01 7.17996E-03 2.08051E-04-1.75757E-01 6.02081E-14-8.52625E-14
 -1      2952 1.98402E+01 2.62857E-02 1.78814E-03-1.64526E-01 4.95799E-14-1.04725E-13
 -1      2953 1.99505E+01 5.42801E-02-1.78042E-03-1.44762E-01 4.54740E-14-1.02790E-13
 -1      2954 1.99288E+01 5.00140E-03-1.27481E-03-1.78653E-01 4.37021E-14-8.42222E-14
 -1      2955 2.03184E+01 1.03567E+00 5.04276E-03-8.34378E-01-1.73676E-13-1.59303E-13
 -1      2956 2.02246E+01 7.98552E-01-5.16978E-03-5.94102E-01-1.59357E-13-1.58563E-13
 -1      2957 2.02615E+01 8.78301E-01 2.17753E-03-5.55014E-01-1.42147E-13-1.72700E-13
 -1      2958 2.02794E+01 1.38583E+00 1.93066E-03-9.20618E-01-1.69526E-13-1.95486E-13
 -1      2959 2.94158E+01 1.17372E+00-4.73523E-02 1.74025E+00-2.52978E-13-1.66533E-13
 -1      2960 2.91639E+01 3.03893E+00-2.24879E-01 1.78259E+00-1.89349E-13-2.14245E-13
 -1      2961 1.99243E+01 2.59542E+00-7.88519E-03 7.95081E-01 2.14685E-13-2.25368E-13
 -1      2962 1.98806E+01 2.68754E+00-6.12170E-03 6.45997E-01 1.74136E-13-2.42814E-13
 -1      2963 1.99994E+01 2.38785E+00 4.33772E-03 5.17263E-01 1.48800E-13-2.40560E-13
 -1      2964 2.00805E+01 2.19012E+00 5.58700E-03 7.46428E-01 1.85674E-13-2.05930E-13
 -1      2965 2.32621E+01-5.56075E+00-5.73696E-02 4.74426E+00-1.32588E-13-3.40932E-13
 -1      2966 2.00474E+01-5.06330E+00 1.51718E-01 5.94355E+00-7.28168E-14-2.14898E-14
 -1      2967 2.92648E+01 5.33587E+00-1.25516E-01 1.34927E+00-1.06110E-13-2.24404E-14
 -1      2968 2.93738E+01 6.33392E+00-2.06862E-01 4.74626E-01-1.96759E-13 5.02966E-14
 -1      2969 1.98756E+01 2.69641E+00-6.00972E-03-6.35549E-01-3.32628E-14-3.05131E-13
 -1      2970 1.99187E+01 2.60672E+00-7.56851E-03-7.84776E-01-6.88043E-14-3.02827E-13
 -1      2971 9.25060E+00-1.53255E+00 1.41683E-01-3.84031E+00 2.67814E-13 4.21441E-13
 -1      2972 1.13582E+01-2.85583E+00 1.48709E-01-5.82698E+00 1.72667E-13 5.17725E-13
 -1      2973 2.00692E+01 4.15214E-01-1.54796E-03 2.88864E-01 1.92305E-13-3.77330E-14
 -1      2974 2.01705E+01 5.53512E-01 1.04315E-02 4.51498E-01 2.12424E-13-2.31131E-14
 -1      2975 2.02531E+01 8.21240E-01 6.07674E-04 6.18205E-01 2.23832E-13-7.57945E-14
 -1      2976 2.01454E+01 4.76682E-01-2.14886E-03 2.81545E-01 1.87727E-13-7.82975E-14
 -1      2977 2.84397E+01-2.86398E+00 1.53163E-02 1.79447E-01 2.68226E-13-1.31631E-13
 -1      2978 2.90392E+01-1.36938E+00-1.77109E-01 1.12147E+00 3.02029E-13-8.85264E-14
 -1      2979 2.94001E+01 3.95648E-01-8.74440E-02 2.02142E+00 3.31374E-13-1.42109E-13
 -1      2980 2.92852E+01 2.14666E+00-2.14039E-01 2.34070E+00 2.87700E-13-1.42816E-13
 -1      2981 2.83019E+01-6.40925E-01-3.94459E-03 2.11173E+00 2.94070E-13 2.48412E-15
 -1      2982 2.89507E+01 6.51557E+00-2.02311E-01 1.98910E-01 3.29570E-13-3.14504E-13
 -1      2983 2.92720E+01 6.07225E+00-1.46483E-01-9.06753E-01 3.49248E-13-3.95198E-13
 -1      2984 1.13342E+01-3.47966E+00 3.25947E-02 6.00337E+00-7.57727E-14-4.63879E-13
 -1      2985 8.36662E+00-2.39690E+00 1.67003E-01 4.53726E+00-9.03166E-14-4.55802E-13
 -1      2986 5.96537E+00-1.40470E+00 1.51629E-01-1.74969E+00-7.31464E-14-2.50577E-13
 -1      2987 7.24580E+00-1.85067E+00 1.09557E-01-3.66226E+00-1.88224E-13-2.26069E-13
 -1      2988 2.07223E+01 3.11378E-01-2.89282E-03-1.92049E+00 3.18605E-14-5.18311E-13
 -1      2989 6.62912E+00-1.47539E+00 1.30087E-01 2.77162E+00-6.91391E-14-3.87940E-13
 -1      2990 5.92231E+00-1.06678E+00 1.66532E-01 2.82863E-01-6.02409E-14-2.98123E-13
 -1      2991 1.84640E+01-5.21534E+00-4.21028E-03 6.02323E+00 4.24938E-14 1.04930E-13
 -1      2992 1.54133E+01-4.31921E+00 1.69962E-01 6.16441E+00-2.79499E-14-1.36210E-13
 -1      2993 2.40858E+01-5.53233E+00-1.05633E-01 3.73560E+00-3.27932E-14 2.17021E-13
 -1      2994 2.14214E+01-5.49873E+00 1.04263E-01 5.02050E+00 1.35170E-14 1.53171E-13
 -1      2995 2.05467E+01-4.89079E+00 9.67345E-02 4.90449E+00 1.26871E-13 2.84057E-13
 -1      2996 2.90692E+01 5.56212E-01-1.78146E-01-2.19500E+00-2.67952E-13 4.69513E-13
 -1      2997 2.88278E+01-9.27726E-01-2.72090E-02-1.67898E+00-2.26430E-13 5.60038E-13
 -1      2998 2.91686E+01 4.94761E+00-1.91776E-01-1.98880E+00-2.11497E-13 4.11268E-13
 -1      2999 2.88830E+01 2.99150E+00-1.05730E-01-2.49443E+00-2.43083E-13 5.27356E-13
 -1      3000 2.93789E+01 6.71252E+00-1.79883E-01-3.61520E-01-1.35975E-13 2.51609E-13
 -1      3001 2.93036E+01 6.35228E+00-1.77369E-01-1.25044E+00-8.60978E-14 3.48034E-13
 -1      3002 2.00853E+01 2.52655E+00-2.10695E-03-1.45826E+00-1.84719E-13-2.68358E-13
 -1      3003 2.50054E+01-5.42649E+00 8.56472E-02-3.86613E+00-9.45077E-15 2.56059E-13
 -1      3004 2.65849E+01-5.09844E+00-1.25185E-01-2.71595E+00-7.87218E-14 1.11224E-13
 -1      3005 1.37564E+01-4.03711E+00 1.12020E-01-6.53745E+00 3.47222E-14 4.74704E-13
 -1      3006 1.66126E+01-4.89841E+00 5.15287E-02-6.86446E+00 1.01780E-13 3.56382E-13
 -1      3007 1.88847E+01-4.63698E+00 1.05714E-01-6.09230E+00 1.61676E-14 4.59008E-13
 -1      3008 7.84899E+00-9.03412E-01 1.43351E-01 1.74946E+00 3.19078E-13 2.00950E-13
 -1      3009 8.05262E+00-5.99351E-01 1.29464E-01-9.44117E-01 2.50551E-13 3.08531E-13
 -1      3010 1.07106E+01-4.76722E-01 1.71340E-01 2.40178E+00 2.44426E-13 5.12090E-15
 -1      3011 2.95318E+01 4.62880E+00-2.31650E-01-1.53326E+00 2.10693E-13-4.66918E-13
 -1      3012 3.02150E+01 2.83330E+00-5.90503E-02-1.65444E+00 1.52156E-13-3.94601E-13
 -1      3013 2.89879E+01 1.32555E+00-4.19610E-02-1.89512E+00 5.76206E-14-6.01269E-13
 -1      3014 1.99730E+01 2.48912E+00-5.42177E-03-9.02528E-01-8.97265E-14-2.88021E-13
 -1      3015 2.00336E+01 2.35973E+00-6.73355E-03-1.03688E+00-1.26196E-13-2.80009E-13
 -1      3016 2.00741E+01 2.20439E+00 5.98075E-03-7.40232E-01-7.83026E-14-2.69954E-13
 -1      3017 1.99344E+01 2.53780E+00 3.42847E-03 4.66514E-03 7.32993E-14-2.47499E-13
 -1      3018 1.97953E+01 2.86932E+00-5.48958E-03-6.19129E-02 6.56860E-14-2.79892E-13
 -1      3019 1.98027E+01 2.85470E+00-5.53579E-03-2.16733E-01 4.13323E-14-2.85423E-13
 -1      3020 2.00064E+01-4.49309E+00 4.80476E-02-4.84046E+00 9.62772E-14-3.99666E-13
 -1      3021 2.19372E+01-5.24314E+00 9.57810E-02-4.63864E+00 1.12674E-13-4.50301E-13
 -1      3022 2.35167E+01-5.13060E+00-6.17136E-02-3.22842E+00 1.60434E-13-3.54616E-13
 -1      3023 1.51730E+01-3.47166E+00 1.32732E-01-5.66886E+00 2.79499E-14-3.45737E-13
 -1      3024 2.83328E+01 3.05403E+00-8.14283E-02 2.55944E+00 1.99216E-13-3.10599E-13
 -1      3025 2.82834E+01-2.87852E+00-6.50513E-02 5.00861E-02 2.49896E-14-3.46251E-13
 -1      3026 1.87633E+01-3.96853E+00 1.16301E-01 5.62084E+00-1.24692E-13-6.21621E-14
 -1      3027 1.95771E+01 5.96810E-01-8.31179E-03 2.60817E+00 1.12975E-13-1.40555E-13
 -1      3028 1.98398E+01 8.94816E-01-1.37262E-02 2.38497E+00 1.77474E-13 2.06920E-16
 -1      3029 2.01975E+01 6.67339E-01 1.56864E-02 2.37359E+00 2.34260E-13-9.89326E-14
 -1      3030 2.56836E+01-4.60753E+00-5.23435E-02 2.10155E+00 2.92422E-14-3.92276E-13
 -1      3031 2.48914E+01-5.23250E+00 3.52295E-02 3.49305E+00-2.73462E-14-5.04714E-13
 -1      3032 2.33047E+01-4.78673E+00 2.24278E-02 3.95171E+00-2.00499E-14-3.68681E-13
 -1      3033 1.42249E+01-2.87341E+00 1.37049E-01-5.72186E+00 2.80206E-13 4.58897E-13
 -1      3034 7.69383E+00-5.75960E-01 1.80478E-01-5.16189E-01-1.79431E-14-3.06033E-13
 -1      3035 2.06097E+01 3.49636E-01-5.93935E-03 2.12456E+00-2.08782E-14-1.56165E-13
 -1      3036 1.07844E+01 6.72043E-02 3.69954E-02-9.93885E-01 7.58543E-14 4.49502E-13
 -1      3037 9.78709E+00-5.69963E-01 1.68533E-01-2.34237E+00 1.71411E-13 3.41921E-13
 -1      3038 1.19816E+01-6.85902E-01 8.56962E-02-3.45676E+00 1.01306E-13 4.07979E-13
 -1      3039 2.02902E+01 1.58769E+00-1.13049E-03 1.16678E+00 2.67202E-13-8.70467E-14
 -1      3040 2.78677E+01 5.84650E+00-1.26056E-01 1.11560E-01 1.13243E-14 2.63610E-13
 -1      3041 2.79724E+01 3.65699E+00-1.06613E-01 1.73896E+00-6.97914E-14-1.66520E-13
 -1      3042 2.72019E+01-4.05182E+00-7.24138E-03-1.15875E+00-9.08995E-15 1.06595E-13
 -1      3043 2.05419E+01 4.88356E-01-1.05220E-03-2.08745E+00 5.68549E-14-5.75295E-13
 -1      3044 2.76712E+01 4.86660E+00-1.31944E-01-1.72267E+00-9.82825E-14 4.86514E-13
 -1      3045 2.02802E+01 1.36627E+00 2.30795E-03 9.20817E-01 2.44647E-13-1.01041E-13
 -1      3046 2.35664E+01-5.28016E+00 4.40209E-02-4.33140E+00 4.98213E-15 4.31648E-13
 -1      3047 2.50990E+01-4.80133E+00 1.66860E-02 2.29155E+00-2.22669E-14 3.33608E-13
 -1      3048 2.77299E+01-2.23260E+00-1.24576E-02-1.16053E+00-2.11917E-13 5.17475E-13
 -1      3049 1.44093E+01-3.33114E+00 1.26427E-01 5.64570E+00 4.31877E-14-1.65673E-13
 -1      3050 2.08223E+01-2.01587E-02 1.22102E-02-2.22151E+00 1.01514E-13-5.72013E-13
 -1      3051 2.04274E+01 3.94235E-01-8.40128E-03-2.30727E+00 1.37082E-14-3.97446E-13
 -1      3052 2.03890E+01 7.44652E-02-5.28622E-03-2.54526E+00 7.16037E-14-2.53912E-13
 -1      3053 2.10052E+01-3.28129E-01 9.40920E-04-2.25671E+00 1.24005E-13-5.07397E-13
 -1      3054 9.78110E+00-1.70506E+00 1.74236E-01-4.14232E+00-7.85760E-14-3.27127E-13
 -1      3055 1.98182E+01 2.81921E+00-5.69265E-03-3.52099E-01 1.61743E-14-2.74229E-13
 -1      3056 1.98422E+01 2.77105E+00-6.18520E-03-5.05806E-01-1.44255E-14-2.92391E-13
 -1      3057 1.99955E+01 2.39568E+00 4.45008E-03-5.08122E-01-2.81947E-14-2.79497E-13
 -1      3058 1.99491E+01 2.50374E+00 3.65883E-03-2.56020E-01 2.01958E-14-2.57327E-13
 -1      3059 2.83806E+01-4.66604E-01-3.60036E-02 1.46907E+00-1.84130E-13-2.33827E-13
 -1      3060 2.01444E+01 2.17288E+00 5.11442E-04-1.20752E+00-1.55416E-13-2.57340E-13
 -1      3061 2.81488E+01 4.68867E+00-9.91803E-02-1.34667E+00 1.32561E-13-6.27665E-13
 -1      3062 2.79242E+01 5.72642E+00-1.26921E-01 7.71302E-01 2.24099E-13-3.40981E-13
 -1      3063 9.23919E+00-1.26618E+00 1.77250E-01 3.37864E+00-5.79883E-14-4.76535E-13
 -1      3064 2.71692E+01-3.94386E+00 1.73629E-02-6.33583E-01 2.85189E-13-1.41151E-13
 -1      3065 2.80731E+01 1.86595E+00-2.96246E-02-2.61511E+00-1.87628E-13 7.15067E-13
 -1      3066 2.02399E+01 1.47486E+00-8.02099E-03 8.01968E-01 2.11163E-13-1.16141E-13
 -1      3067 2.02007E+01 1.66938E+00-4.47013E-04 7.47128E-01 1.80608E-13-1.35782E-13
 -1      3068 2.64462E+01 5.11929E+00-1.01222E-01 3.68547E-01 1.20862E-13 1.55806E-13
 -1      3069 2.64028E+01 5.19561E+00-1.57258E-01-6.65291E-01 1.16573E-13 3.46230E-13
 -1      3070 2.02210E+01 4.22438E-01 4.02458E-03-1.21889E-01-6.62746E-14-1.34926E-13
 -1      3071 2.01817E+01 3.15075E-01-2.29322E-03-3.68866E-02-6.66193E-14-1.53318E-13
 -1      3072 2.01679E+01 2.31503E-01 3.20725E-03 2.47609E-02-8.03415E-14-1.19305E-13
 -1      3073 2.01376E+01 1.60991E-01-1.30542E-03 7.57072E-02-8.73792E-14-1.30272E-13
 -1      3074 2.02383E+01 3.31968E-01-7.87819E-04-2.75804E-02-5.71875E-14-1.53521E-13
 -1      3075 2.01210E+01 1.07184E-01 2.22627E-03 1.11574E-01-8.45661E-14-1.30476E-13
 -1      3076 2.01000E+01 6.23351E-02-6.12620E-04 1.38873E-01-7.43552E-14-1.22307E-13
 -1      3077 2.01980E+01 1.67543E-01-1.02711E-03 7.51112E-02-8.37445E-14-9.41379E-14
 -1      3078 2.00838E+01 2.87617E-02 1.45740E-03 1.56736E-01-4.59781E-14-1.25893E-13
 -1      3079 2.00704E+01 1.53524E-03-1.65975E-04 1.68283E-01-3.25255E-14-1.01054E-13
 -1      3080 2.01592E+01 6.19311E-02-9.81937E-04 1.33235E-01-7.11355E-14-1.08472E-13
 -1      3081 2.00561E+01-1.81034E-02 8.67706E-04 1.74177E-01-3.02390E-14-5.35037E-14
 -1      3082 2.00484E+01-3.31109E-02 1.15172E-04 1.75839E-01-3.56200E-14-1.01017E-14
 -1      3083 2.01255E+01-2.99588E-03-8.54380E-04 1.60409E-01-1.21137E-15-9.01890E-14
 -1      3084 2.00364E+01-4.30754E-02 4.37152E-04 1.74404E-01-6.57132E-14 2.22412E-14
 -1      3085 2.00329E+01-4.95680E-02 2.90468E-04 1.70451E-01-3.47967E-14 6.75416E-15
 -1      3086 2.00976E+01-3.94891E-02-7.09801E-04 1.67458E-01-1.96606E-14-5.63673E-14
 -1      3087 2.00230E+01-5.27729E-02 1.32654E-04 1.65148E-01-4.71128E-14 9.21132E-15
 -1      3088 2.00226E+01-5.32914E-02 4.00713E-04 1.58662E-01-6.50429E-14-7.09270E-15
 -1      3089 2.00753E+01-5.60520E-02-5.74417E-04 1.62660E-01-5.89679E-14-2.11375E-14
 -1      3090 2.00146E+01-5.17166E-02-7.98711E-05 1.52029E-01-5.29052E-14 2.17594E-15
 -1      3091 2.00164E+01-4.79653E-02 4.74640E-04 1.45241E-01-1.92487E-14 2.12045E-14
 -1      3092 2.00579E+01-5.85600E-02-4.56204E-04 1.52173E-01-5.37014E-14-4.88966E-15
 -1      3093 2.00100E+01-4.29099E-02-2.30466E-04 1.39146E-01-1.29443E-14 3.21701E-14
 -1      3094 2.00133E+01-3.59728E-02 5.32712E-04 1.33699E-01 1.01707E-14 2.38092E-14
 -1      3095 2.00447E+01-5.09846E-02-3.56402E-04 1.40533E-01-6.36860E-16 3.95392E-14
 -1      3096 2.00083E+01-2.82292E-02-3.43689E-04 1.29549E-01-1.11377E-14-1.10105E-14
 -1      3097 2.00128E+01-1.87247E-02 5.89586E-04 1.26711E-01-7.15819E-14-1.26264E-14
 -1      3098 2.00347E+01-3.58758E-02-2.72744E-04 1.31122E-01-1.87879E-14-7.45003E-14
 -1      3099 2.00086E+01-8.70494E-03-4.39271E-04 1.25626E-01-1.34441E-13-1.08423E-14
 -1      3100 2.00142E+01 3.09775E-03 6.55854E-04 1.26439E-01-1.39594E-13-6.26906E-14
 -1      3101 2.00273E+01-1.47138E-02-2.00891E-04 1.26550E-01-9.20075E-14-9.93031E-15
 -1      3102 2.00105E+01 1.52639E-02-5.32912E-04 1.29386E-01-1.38701E-13-5.14463E-14
 -1      3103 2.00172E+01 2.93501E-02 7.38987E-04 1.34790E-01-1.41207E-13-4.17524E-14
 -1      3104 2.00214E+01 1.18214E-02-1.35795E-04 1.28963E-01-1.59057E-13-4.37395E-14
 -1      3105 2.00134E+01 4.37309E-02-6.36842E-04 1.42674E-01-1.75313E-13-3.42150E-15
 -1      3106 2.00213E+01 6.02539E-02 8.43765E-04 1.53584E-01-1.68926E-13 2.94940E-14
 -1      3107 2.00163E+01 4.36315E-02-7.19168E-05 1.40268E-01-1.44345E-13 1.89302E-14
 -1      3108 2.00170E+01 7.70329E-02-7.60200E-04 1.67320E-01-1.55154E-13 2.53828E-14
 -1      3109 2.00262E+01 9.62239E-02 9.72411E-04 1.84675E-01-1.40256E-13 6.97680E-14
 -1      3110 2.00111E+01 8.09994E-02-3.35996E-06 1.62304E-01-1.64950E-13 6.02253E-14
 -1      3111 2.00209E+01 1.15607E-01-9.09017E-04 2.05220E-01-8.43711E-14 6.57867E-14
 -1      3112 2.00316E+01 1.37669E-01 1.12463E-03 2.29993E-01-7.56553E-14 1.21251E-13
 -1      3113 2.00047E+01 1.24380E-01 7.57718E-05 1.96940E-01-6.98327E-14 7.15722E-14
 -1      3114 2.00245E+01 1.59769E-01-1.08555E-03 2.58346E-01-7.62112E-14 1.16564E-13
 -1      3115 2.00369E+01 1.84734E-01 1.29775E-03 2.91515E-01 6.47163E-14 8.85490E-14
 -1      3116 1.99961E+01 1.74158E-01 1.70615E-04 2.46109E-01-3.53498E-14 7.54498E-14
 -1      3117 2.00275E+01 2.09408E-01-1.28675E-03 3.28692E-01 1.18282E-13 5.27478E-14
 -1      3118 2.00419E+01 2.36944E-01 1.48735E-03 3.71159E-01 1.53421E-13-3.09546E-15
 -1      3119 1.99839E+01 2.30327E-01 2.83927E-04 3.11785E-01 3.26286E-14 7.44645E-14
 -1      3120 2.00293E+01 2.63562E-01-1.50158E-03 4.18122E-01 1.88530E-13-1.00644E-14
 -1      3121 2.00460E+01 2.92679E-01 1.68896E-03 4.70584E-01 1.03800E-13 2.30796E-14
 -1      3122 1.99669E+01 2.92051E-01 4.12906E-04 3.95888E-01 1.38518E-13 4.43187E-14
 -1      3123 2.00299E+01 3.19786E-01-1.70637E-03 5.28143E-01-1.70260E-14 7.45871E-14
 -1      3124 2.00494E+01 3.48421E-01 1.90164E-03 5.90878E-01-8.03347E-14 5.79446E-14
 -1      3125 1.99438E+01 3.57031E-01 5.43296E-04 5.00135E-01 1.07477E-13-3.14377E-14
 -1      3126 2.00298E+01 3.73239E-01-1.85745E-03 6.59555E-01-1.26272E-13 1.68767E-13
 -1      3127 2.00532E+01 3.97659E-01 2.13421E-03 7.32134E-01-1.07832E-13 2.03305E-13
 -1      3128 1.99139E+01 4.20605E-01 6.39075E-04 6.25836E-01-6.30279E-14 2.33060E-14
 -1      3129 2.00312E+01 4.15392E-01-1.87910E-03 8.12002E-01-1.33966E-13 1.62176E-13
 -1      3130 2.00608E+01 4.29361E-01 2.41374E-03 8.92895E-01-7.50355E-14 1.51956E-13
 -1      3131 1.98778E+01 4.74461E-01 6.25224E-04 7.73675E-01-1.23275E-13 2.12031E-13
 -1      3132 2.00394E+01 4.32270E-01-1.64390E-03 9.83376E-01 1.51059E-14 7.91446E-14
 -1      3133 2.00797E+01 4.25993E-01 2.79313E-03 1.06941E+00 7.35561E-14 1.35650E-13
 -1      3134 1.98388E+01 5.04890E-01 3.60602E-04 9.43486E-01-4.38223E-14 1.97292E-13
 -1      3135 2.00661E+01 4.02293E-01-9.38751E-04 1.16899E+00 8.92546E-14 1.13258E-13
 -1      3136 2.01254E+01 3.61239E-01 3.34561E-03 1.25462E+00 9.40386E-14 1.05771E-13
 -1      3137 1.98056E+01 4.90533E-01-4.01115E-04 1.13401E+00 7.19725E-14 1.64125E-13
 -1      3138 2.01331E+01 2.94095E-01 5.96198E-04 1.36020E+00-1.48595E-14 1.49091E-13
 -1      3139 2.02259E+01 1.98115E-01 4.11665E-03 1.43630E+00-1.38749E-13 6.63298E-14
 -1      3140 1.97961E+01 3.99817E-01-2.06179E-03 1.34244E+00 3.69437E-14 7.90438E-14
 -1      3141 2.02792E+01 6.55048E-02 3.58546E-03 1.54168E+00-1.58311E-13 1.10966E-13
 -1      3142 2.04286E+01-1.10555E-01 4.99309E-03 1.59330E+00-1.73046E-14 1.38846E-13
 -1      3143 1.98438E+01 1.88733E-01-5.22009E-03 1.56294E+00-1.12056E-13 1.97011E-13
 -1      3144 2.05683E+01-3.33166E-01 9.05035E-03 1.68501E+00 7.41509E-14 6.70151E-14
 -1      3145 2.08052E+01-6.14765E-01 5.10519E-03 1.68751E+00 9.34812E-14 1.12290E-13
 -1      3146 2.00073E+01-1.98752E-01-1.05812E-02 1.78204E+00-2.97170E-14 2.30230E-13
 -1      3147 2.10947E+01-9.43985E-01 1.79876E-02 1.73340E+00 7.49734E-14 5.36062E-14
 -1      3148 2.14538E+01-1.33658E+00 4.01101E-03 1.64547E+00 9.38956E-14 1.93682E-14
 -1      3149 2.03828E+01-8.23156E-01-1.89076E-02 1.96507E+00 5.22105E-14 1.36353E-13
 -1      3150 2.19673E+01-1.75859E+00 2.85639E-02 1.58795E+00 1.01104E-13 1.54904E-14
 -1      3151 2.24693E+01-2.21324E+00-1.63704E-03 1.34609E+00-1.80368E-14 4.32589E-14
 -1      3152 2.10988E+01-1.69996E+00-3.03544E-02 2.02576E+00 9.42228E-14 8.39329E-14
 -1      3153 2.33018E+01-2.63016E+00 4.37356E-02 1.06490E+00-4.84205E-14 1.24390E-13
 -1      3154 2.39805E+01-2.89313E+00 2.19938E-02 5.52848E-01-2.51756E-14 1.52215E-13
 -1      3155 2.23246E+01-2.77693E+00-4.82075E-02 1.81833E+00 1.27277E-14 1.14252E-13
 -1      3156 2.65013E+01 4.59475E+00-1.24154E-01-1.66477E+00-1.54599E-14 4.65829E-13
 -1      3157 2.65148E+01 4.10213E+00-1.79898E-01 1.35761E+00 1.73056E-14 4.83988E-15
 -1      3158 2.67089E+01 2.61553E+00-5.82579E-02 1.95263E+00 8.13238E-15-1.18947E-13
 -1      3159 2.67163E+01 7.08458E-01-1.78865E-01 2.11193E+00-1.04833E-13-2.34295E-13
 -1      3160 2.54987E+01-2.93441E+00-2.14650E-02 2.17232E-02-1.49342E-14-2.64795E-13
 -1      3161 2.49861E+01-3.12658E+00 3.09359E-02-6.26812E-01 3.14878E-14-1.29209E-13
 -1      3162 2.39457E+01-3.00857E+00-1.71512E-02-1.28548E+00-2.67043E-14 4.60699E-15
 -1      3163 2.33650E+01-2.64681E+00 4.02281E-02-1.74211E+00 1.20566E-13-1.26018E-13
 -1      3164 2.43549E+01-3.62803E+00-4.60170E-02-1.67064E+00 9.66267E-14-2.60673E-13
 -1      3165 2.25656E+01-2.20019E+00-6.97276E-03-2.03910E+00 1.76181E-13-8.29020E-14
 -1      3166 2.20623E+01-1.67334E+00 2.72967E-02-2.26572E+00 1.50111E-13-1.33251E-13
 -1      3167 2.26145E+01-2.75459E+00-3.55454E-02-2.48557E+00 1.61131E-13-1.03951E-13
 -1      3168 2.16375E+01-1.23180E+00-4.44233E-04-2.28225E+00 1.04343E-13-1.76237E-13
 -1      3169 2.12640E+01-7.31488E-01 1.65264E-02-2.33684E+00 2.08285E-13-2.64791E-13
 -1      3170 2.09180E+01-6.07663E-01-9.97855E-03-2.53832E+00 9.44600E-15-2.24047E-13
 -1      3171 2.15170E+01-1.60195E+00-2.05406E-02-2.65964E+00 1.07476E-13-9.66198E-14
 -1      3172 2.00726E+01 1.50458E-01-1.11889E-03-7.51893E-02 7.61833E-14-8.70576E-14
 -1      3173 2.01051E+01 2.15607E-01 3.69292E-03-2.17051E-02 9.87385E-14-6.94940E-14
 -1      3174 1.99847E+01-4.35711E-02 2.97791E-04-1.75963E-01 2.73409E-14-9.14343E-15
 -1      3175 1.99838E+01-3.73049E-02 4.23545E-04-1.80358E-01 4.92009E-14-2.47505E-14
 -1      3176 1.99930E+01-2.79522E-02 1.50726E-04-1.81801E-01 3.77936E-14-1.13358E-14
 -1      3177 1.99966E+01-1.40099E-02 9.01312E-04-1.80337E-01 4.91874E-14-4.27495E-14
 -1      3178 2.00504E+01-3.43242E-02-7.60513E-04-1.76497E-01 4.33761E-14-1.77543E-14
 -1      3179 1.99829E+01-4.40587E-02 4.55404E-04-1.48371E-01 6.88623E-14-2.18901E-14
 -1      3180 1.99771E+01-4.69165E-02-1.20005E-04-1.55902E-01 9.95652E-14-1.36970E-14
 -1      3181 1.99868E+01-3.44675E-02 5.11466E-04-1.35145E-01 3.98851E-14 7.59860E-14
 -1      3182 1.99798E+01-4.01096E-02-2.63701E-04-1.41466E-01 3.70367E-14-1.57264E-15
 -1      3183 2.00166E+01-4.83332E-02-3.38284E-04-1.46339E-01 2.13372E-14-2.10453E-14
 -1      3184 1.99929E+01-2.03501E-02 5.72278E-04-1.26200E-01 4.07536E-14 9.70791E-14
 -1      3185 1.99849E+01-2.81987E-02-3.61883E-04-1.30060E-01 6.02082E-14 1.19315E-13
 -1      3186 2.00131E+01-3.59352E-02-2.61864E-04-1.35050E-01 1.83966E-14-1.56420E-14
 -1      3187 2.00010E+01-2.36156E-03 6.47817E-04-1.23696E-01 1.22729E-13 6.71839E-14
 -1      3188 1.99920E+01-1.21524E-02-4.36120E-04-1.24076E-01 6.26285E-14 9.19347E-14
 -1      3189 2.00120E+01-1.82223E-02-2.06650E-04-1.28419E-01 5.59620E-14 3.41657E-14
 -1      3190 2.00109E+01 1.93297E-02 7.45524E-04-1.29513E-01 4.29949E-14 2.06355E-13
 -1      3191 2.00008E+01 7.62857E-03-5.03372E-04-1.25503E-01 9.20609E-14 1.71730E-13
 -1      3192 2.00127E+01 4.13041E-03-1.66560E-04-1.28637E-01 5.53296E-14 1.21876E-13
 -1      3193 2.00228E+01 4.48924E-02 8.70391E-04-1.45440E-01 6.96548E-14 1.79290E-13
 -1      3194 2.00111E+01 3.11558E-02-5.76459E-04-1.36152E-01 9.13841E-14 2.00998E-13
 -1      3195 2.00148E+01 3.09893E-02-1.35313E-04-1.37635E-01 8.07343E-14 1.53932E-13
 -1      3196 2.00368E+01 7.46876E-02 1.02508E-03-1.73295E-01 1.45266E-14 1.30174E-13
 -1      3197 2.00231E+01 5.87086E-02-6.64957E-04-1.57819E-01 6.25915E-14 1.74761E-13
 -1      3198 2.00179E+01 6.25831E-02-1.06823E-04-1.57264E-01 5.82064E-14 1.41192E-13
 -1      3199 2.00533E+01 1.09104E-01 1.20959E-03-2.14984E-01 7.92083E-14 4.87152E-14
 -1      3200 2.00371E+01 9.06828E-02-7.75273E-04-1.92365E-01 1.59207E-14 1.52562E-13
 -1      3201 2.00214E+01 9.93245E-02-7.52008E-05-1.89404E-01 4.78125E-14 1.18094E-13
 -1      3202 2.00726E+01 1.48346E-01 1.42075E-03-2.72479E-01 5.47897E-14 1.25487E-14
 -1      3203 2.00532E+01 1.27406E-01-9.10121E-04-2.41745E-01 1.23956E-13 5.02633E-14
 -1      3204 2.00249E+01 1.41602E-01-3.51360E-05-2.36009E-01 9.39881E-14 7.45338E-14
 -1      3205 2.00951E+01 1.92135E-01 1.65179E-03-3.47703E-01 5.27626E-15-6.44263E-14
 -1      3206 2.00718E+01 1.68889E-01-1.06711E-03-3.07943E-01 1.57669E-14 1.66595E-15
 -1      3207 2.00279E+01 1.89509E-01 1.69291E-05-2.99075E-01 6.57062E-14 6.57974E-14
 -1      3208 2.01212E+01 2.39268E-01 1.89230E-03-4.42311E-01 4.29766E-14-2.73862E-14
 -1      3209 2.00934E+01 2.14465E-01-1.23597E-03-3.92821E-01-1.22468E-14-6.32059E-14
 -1      3210 2.00300E+01 2.42462E-01 8.02007E-05-3.80537E-01 1.26292E-14 1.61499E-14
 -1      3211 2.01518E+01 2.86970E-01 2.12915E-03-5.57327E-01 3.43164E-15 6.21559E-14
 -1      3212 2.01185E+01 2.62256E-01-1.39375E-03-4.97841E-01 5.13190E-14 2.25455E-14
 -1      3213 2.00306E+01 2.98645E-01 1.44433E-04-4.82064E-01 9.67713E-15-8.56479E-16
 -1      3214 2.01885E+01 3.29936E-01 2.34887E-03-6.92599E-01 9.67959E-14 4.36827E-14
 -1      3215 2.01485E+01 3.08385E-01-1.49698E-03-6.23637E-01 8.58016E-14 3.56457E-14
 -1      3216 2.00299E+01 3.54200E-01 1.80680E-04-6.04764E-01 6.17930E-14-2.89378E-14
 -1      3217 2.02345E+01 3.58977E-01 2.54105E-03-8.46030E-01-1.26596E-13-1.00448E-14
 -1      3218 2.01858E+01 3.45833E-01-1.46912E-03-7.69400E-01 3.98171E-14 6.58609E-15
 -1      3219 2.00290E+01 4.02054E-01 1.25599E-04-7.48775E-01 6.99381E-14 3.47262E-15
 -1      3220 2.02963E+01 3.59227E-01 2.70009E-03-1.01251E+00-5.73829E-14-6.19265E-14
 -1      3221 2.02356E+01 3.62871E-01-1.18167E-03-9.31999E-01-1.28508E-13-9.07213E-14
 -1      3222 2.00313E+01 4.30297E-01-1.43293E-04-9.12735E-01-4.99194E-14-1.38749E-13
 -1      3223 2.03863E+01 3.08102E-01 2.81696E-03-1.18240E+00-6.70353E-14-3.27018E-14
 -1      3224 2.03076E+01 3.41104E-01-4.27519E-04-1.10473E+00-2.29004E-14-7.23561E-14
 -1      3225 2.00449E+01 4.20085E-01-8.42473E-04-1.09306E+00-9.64239E-14-1.38319E-13
 -1      3226 2.05270E+01 1.73694E-01 2.83475E-03-1.33932E+00-5.24408E-14 7.08121E-14
 -1      3227 2.04201E+01 2.53535E-01 1.11310E-03-1.27546E+00-6.49968E-14 5.94125E-14
 -1      3228 2.00859E+01 3.43336E-01-2.32323E-03-1.28283E+00-8.52201E-14-4.48097E-14
 -1      3229 2.07555E+01-8.45203E-02 2.51263E-03-1.45660E+00 2.93288E-15 5.44888E-14
 -1      3230 2.06045E+01 6.38155E-02 3.90765E-03-1.42364E+00 3.05243E-14 1.02563E-13
 -1      3231 2.01837E+01 1.61047E-01-5.11445E-03-1.46976E+00-4.74608E-14 1.80525E-13
 -1      3232 2.11263E+01-5.08435E-01 9.16739E-04-1.49125E+00-2.73468E-14 1.26345E-13
 -1      3233 2.09109E+01-2.70436E-01 8.56957E-03-1.51486E+00-3.04637E-14 9.73615E-14
 -1      3234 2.03883E+01-1.75608E-01-9.92375E-03-1.63173E+00-4.25885E-14 3.85776E-14
 -1      3235 2.17082E+01-1.11314E+00-2.54024E-03-1.37241E+00-7.27088E-14 2.69034E-13
 -1      3236 2.14101E+01-7.83374E-01 1.54574E-02-1.48974E+00 1.36734E-14 1.78902E-13
 -1      3237 2.07780E+01-7.16329E-01-1.75467E-02-1.72589E+00-7.94767E-14 1.04430E-13
 -1      3238 2.25637E+01-1.84326E+00-8.70859E-03-1.00273E+00-2.44870E-13 2.52291E-13
 -1      3239 2.21739E+01-1.45762E+00 2.47453E-02-1.25768E+00-1.09529E-13 3.77053E-13
 -1      3240 2.14553E+01-1.47108E+00-2.70023E-02-1.66672E+00-1.24290E-13 2.60901E-13
 -1      3241 2.36891E+01-2.43579E+00-8.47254E-03-2.75580E-01-1.46046E-13 9.49223E-14
 -1      3242 2.32380E+01-2.16300E+00 3.25518E-02-6.91369E-01-2.76147E-13 1.23956E-13
 -1      3243 2.24716E+01-2.36224E+00-5.27822E-02-1.30528E+00-1.60302E-13 2.44393E-13
 -1      3244 2.48879E+01-2.46426E+00-5.66930E-03 9.02796E-01 6.23650E-14 2.27651E-13
 -1      3245 2.45693E+01-2.55381E+00 3.68703E-02 3.45456E-01-5.68790E-14 1.60981E-13
 -1      3246 2.40297E+01-3.02798E+00-6.11999E-02-4.38442E-01-1.51023E-13 1.28529E-13
 -1      3247 2.64041E+01-9.56299E-01-5.52995E-02 2.12359E+00 2.32328E-13 7.30388E-14
 -1      3248 2.62129E+01-2.01323E+00-4.07490E-02 1.62122E+00 1.77133E-13 9.51877E-14
 -1      3249 2.58941E+01 4.47607E+00-1.19452E-01 1.38942E+00 3.82333E-14-1.61447E-13
 -1      3250 2.60518E+01 3.45049E+00-1.70206E-01 2.19038E+00 1.16809E-13-1.83369E-13
 -1      3251 2.56577E+01 4.25352E+00-1.67334E-01-8.33631E-01 8.17679E-14-3.95545E-13
 -1      3252 2.56128E+01 4.72098E+00-1.40134E-01 1.38053E-01 3.41116E-14-2.92960E-13
 -1      3253 2.62590E+01 1.80030E+00-1.80465E-01-2.01568E+00 1.26454E-13-4.87204E-13
 -1      3254 2.61537E+01 3.25490E+00-1.06377E-01-1.64981E+00 1.08108E-13-4.76924E-13
 -1      3255 2.67021E+01-1.18964E+00-6.43773E-02-1.51941E+00 1.16313E-13-5.05297E-13
 -1      3256 2.67359E+01 2.28045E-01-6.27537E-02-1.87750E+00 9.47575E-14-4.76445E-13
 -1      3257 2.37136E+01-2.43535E+00 3.71785E-02 9.97830E-01 2.12677E-14-4.27253E-13
 -1      3258 2.41539E+01-2.61206E+00-1.56581E-02 4.80871E-01 1.37784E-13-5.56664E-13
 -1      3259 2.25053E+01-1.71981E+00 3.01163E-02 1.75704E+00 1.36669E-13-3.92777E-13
 -1      3260 2.29345E+01-2.13676E+00-1.29925E-02 1.43867E+00 6.97758E-14-4.46186E-13
 -1      3261 2.32151E+01-2.70879E+00-4.11880E-02 1.73877E+00-5.69640E-15-2.30090E-13
 -1      3262 9.87701E+00-7.47660E-01 1.21592E-01-3.11633E+00 9.38520E-14-3.00621E-13
 -1      3263 1.17242E+01-1.68044E+00 4.81630E-02-4.55388E+00 9.61731E-14-3.66776E-13
 -1      3264 2.00463E+01 2.15988E+00-4.29909E-03 2.93074E-01 1.40507E-13-2.39585E-13
 -1      3265 2.00332E+01 2.19862E+00-3.34044E-03 1.71205E-01 1.05675E-13-2.46212E-13
 -1      3266 2.04970E+01-4.05466E+00-2.92583E-02 4.94790E+00-8.66286E-14-3.51531E-13
 -1      3267 1.75546E+01-2.79162E+00 1.21446E-01 5.33740E+00 9.28806E-14-2.12504E-13
 -1      3268 1.66440E+01 1.64657E+00-2.65261E-03-3.68628E-01 2.88351E-13 4.77325E-13
 -1      3269 1.66317E+01 1.64425E+00-5.66111E-03 3.47837E-01 1.23613E-13 2.97945E-13
 -1      3270 1.99066E+01 2.69898E-02 2.26215E-02-2.85225E+00-2.06307E-14-4.54614E-14
 -1      3271 1.92911E+01 2.39115E-01-2.08734E-02-2.84977E+00-1.47235E-16 2.40458E-13
 -1      3272 2.05866E+01 2.08764E-02-9.80837E-03 2.37190E+00 2.17304E-13-7.50724E-14
 -1      3273 1.62256E+01-3.46335E+00-4.53089E-02 5.37099E+00 1.54536E-13 1.14755E-13
 -1      3274 1.32380E+01-2.19646E+00 1.41588E-01 5.03623E+00 2.36172E-13-3.20161E-13
 -1      3275 2.23133E+01-4.65794E+00 1.07068E-01-4.57824E+00 4.60049E-14 4.32100E-13
 -1      3276 2.41967E+01-4.87382E+00-7.50840E-02-3.29877E+00 4.89192E-14 3.18218E-14
 -1      3277 2.01241E+01 2.93023E-01-1.98707E-03 4.55381E-02 1.24518E-13-7.19619E-14
 -1      3278 2.01694E+01 3.93966E-01 4.35943E-03 1.35736E-01 1.51003E-13-5.94886E-14
 -1      3279 2.01899E+01 3.15271E-01-1.56195E-03 3.75940E-02 1.24168E-13-2.98231E-14
 -1      3280 2.62477E+01 1.69606E+00-8.39668E-02 2.59112E+00 9.38138E-14-7.02147E-14
 -1      3281 1.50505E+01-2.00656E+00-2.55948E-02 5.06878E+00 1.08271E-13-2.24598E-13
 -1      3282 1.36275E+01-1.03172E+00 1.10535E-01 4.21840E+00 3.10724E-13-1.30673E-13
 -1      3283 1.86222E+01 6.65924E-01 3.29948E-02-2.71174E+00-7.82911E-14 2.21481E-13
 -1      3284 1.79295E+01 8.92675E-01-3.07303E-02-2.38762E+00-3.19044E-14 4.75917E-13
 -1      3285 1.87837E+01-2.68068E-02-9.60974E-03-3.07871E+00-4.25246E-14 3.28834E-13
 -1      3286 1.99818E+01-4.78196E-02 3.90545E-04-1.63175E-01 9.10973E-14-4.17820E-14
 -1      3287 1.99780E+01-4.68968E-02 9.72222E-05-1.70267E-01 5.91947E-14-1.54321E-14
 -1      3288 2.00342E+01-5.05762E-02-5.81665E-04-1.71236E-01 3.74376E-14-6.50624E-14
 -1      3289 2.00233E+01-5.40107E-02-4.43183E-04-1.59581E-01 7.54757E-14 1.00220E-14
 -1      3290 1.41373E+01-2.35972E+00 1.49745E-01-5.10128E+00 6.86950E-14-1.66388E-13
 -1      3291 1.67548E+01-3.30284E+00 9.57935E-03-5.15113E+00 7.00134E-15-2.14384E-13
 -1      3292 1.39491E+01-1.49429E+00 9.93361E-02-4.25378E+00 5.77316E-14-2.72768E-13
 -1      3293 2.57724E+01-4.33774E+00 6.97893E-02-1.78960E+00 7.80001E-14-9.60343E-14
 -1      3294 2.66600E+01-3.40641E+00-6.31563E-02-3.37050E-01 9.82877E-14-2.19375E-13
 -1      3295 2.02685E+01 7.12049E-01 3.59218E-03-3.46970E-01-9.57823E-14-1.75588E-13
 -1      3296 2.02269E+01 5.50263E-01-3.52865E-03-2.16392E-01-6.89396E-14-1.68826E-13
 -1      3297 2.02729E+01 5.77902E-01-5.77541E-04-1.90502E-01-5.29827E-14-1.66199E-13
 -1      3298 2.01969E+01 1.89100E+00 1.11182E-03-1.00774E+00-1.29215E-13-2.41562E-13
 -1      3299 2.70921E+01-1.01767E+00-4.03003E-02 1.43736E+00-1.28036E-13-3.15668E-13
 -1      3300 8.91626E+00-2.36489E-02 9.60897E-02 2.62308E-01-6.15315E-14-3.59546E-13
 -1      3301 8.93205E+00-2.41449E-01 1.17388E-01-1.70328E+00-3.37924E-14-2.50328E-13
 -1      3302 1.10025E+01-1.42163E-01 1.23557E-01-2.23325E+00 7.69870E-14-3.21201E-13
 -1      3303 1.73327E+01 1.32336E+00 2.23581E-02-1.85122E+00 7.08678E-14 4.31551E-13
 -1      3304 1.68738E+01 1.49169E+00-1.86822E-02-1.24414E+00 2.29136E-13 4.58220E-13
 -1      3305 1.61419E+01 1.32944E+00 2.96695E-02-9.15915E-01 9.61319E-14 5.10857E-13
 -1      3306 1.72902E+01 7.41277E-01 2.21301E-02-2.40513E+00-1.07568E-13 4.80962E-13
 -1      3307 2.67580E+01-2.36881E+00-4.33626E-02 8.34265E-01-6.68805E-14-2.90858E-13
 -1      3308 2.63477E+01 3.31130E+00-1.87445E-01-2.47892E+00-3.31679E-14 6.30961E-13
 -1      3309 1.41044E+01-1.96776E+00 7.78676E-02-5.08463E+00 2.80373E-13 7.35884E-13
 -1      3310 1.62985E+01-3.13514E+00 6.62108E-02-5.80972E+00 6.13537E-14 8.06431E-13
 -1      3311 2.54603E+01-4.06410E+00 7.68604E-02-1.00221E+00 8.72271E-14 3.68108E-14
 -1      3312 2.61575E+01-2.92730E+00-8.35434E-02 6.78375E-01 1.35215E-13 1.47465E-13
 -1      3313 2.16089E+01-4.79490E+00-6.82493E-02 4.13554E+00 1.20591E-13 4.46271E-13
 -1      3314 1.96800E+01-4.12669E+00 1.41408E-01 4.82975E+00 9.07677E-14 3.83485E-13
 -1      3315 2.02894E+01 9.89442E-01-7.78880E-04 6.90971E-01 2.13750E-13-9.27368E-14
 -1      3316 2.02686E+01 1.31102E+00 4.57521E-03 7.74251E-01 2.17430E-13-9.27430E-14
 -1      3317 2.02834E+01 1.13050E+00 5.35138E-03 5.98305E-01 1.93185E-13-8.44470E-14
 -1      3318 2.02317E+01 7.75456E-01-3.85092E-03 4.83880E-01 1.96807E-13-7.83506E-14
 -1      3319 2.54314E+01-4.36847E+00-1.02268E-01 1.12988E+00 8.60111E-14 2.41423E-13
 -1      3320 2.39264E+01-4.69653E+00 1.12325E-01 2.83256E+00 1.86400E-13 3.47840E-13
 -1      3321 1.10452E+01-1.30757E+00 7.40469E-02 4.15131E+00 9.11424E-14-4.70818E-13
 -1      3322 9.69123E+00-3.92106E-01 1.07384E-01 2.40373E+00 6.35256E-14-3.68344E-13
 -1      3323 1.34427E+01-1.31201E+00 1.27123E-01 4.11429E+00 2.20900E-13-2.60625E-13
 -1      3324 1.80331E+01-3.71492E+00 1.03855E-01-5.76141E+00-1.14034E-13 4.79276E-13
 -1      3325 1.99208E+01-4.46690E+00-3.20529E-02-5.48605E+00-1.38958E-13 4.96825E-13
 -1      3326 1.78242E+01-2.91632E+00 7.29298E-02-5.26030E+00-1.40277E-13 7.91062E-13
 -1      3327 1.20720E+01-4.18659E-01 3.66660E-02 3.13527E+00 2.79068E-13-7.70495E-14
 -1      3328 1.12856E+01 3.04232E-01 1.35382E-01 1.30965E+00 1.44834E-13 1.96010E-13
 -1      3329 1.40963E+01-2.97674E-01 9.72196E-02 3.22337E+00 2.76640E-13-7.68274E-14
 -1      3330 2.00262E+01 2.21736E+00-3.70518E-03 6.61771E-02 8.34622E-14-2.31971E-13
 -1      3331 2.00258E+01 2.21818E+00-3.66482E-03-5.80415E-02 4.30978E-14-2.31759E-13
 -1      3332 2.01404E+01 1.92163E+00 4.98884E-03 1.01622E-01 8.48032E-14-2.16648E-13
 -1      3333 1.87254E+01-3.63308E+00 1.09906E-01-4.84861E+00-2.65586E-14-3.78961E-13
 -1      3334 2.04574E+01-3.96594E+00 3.30271E-02-4.07099E+00-6.49827E-15-4.28848E-13
 -1      3335 1.74328E+01-2.76862E+00 2.66634E-02-4.56819E+00-2.94747E-14-3.01568E-13
 -1      3336 2.36414E+01-3.87567E+00-7.76767E-02 1.68743E+00 1.26997E-13 1.51804E-13
 -1      3337 2.45737E+01-3.32532E+00 2.98315E-02 5.63605E-01 2.85032E-14 2.63616E-13
 -1      3338 1.92947E+01 2.32204E-01-2.28122E-02 2.84212E+00 3.23808E-15-3.70023E-13
 -1      3339 1.99460E+01 2.85638E-02 3.42723E-02 2.86800E+00 1.72629E-13-1.21274E-13
 -1      3340 2.02865E+01 1.10350E+00-2.63044E-04-6.32661E-01-1.40805E-13-1.96717E-13
 -1      3341 2.02556E+01 8.92239E-01-4.72425E-03-4.64390E-01-1.25237E-13-1.89248E-13
 -1      3342 2.02873E+01 9.28368E-01 1.35404E-03-4.09603E-01-1.02168E-13-2.02146E-13
 -1      3343 2.66332E+01-3.85750E+00 3.06554E-02 7.23786E-01 3.70294E-14-3.19363E-13
 -1      3344 2.53852E+01-4.06429E+00 7.73906E-03 1.56166E+00 1.08103E-13-2.05275E-13
 -1      3345 1.22460E+01 3.90081E-01 1.02052E-01-3.74466E-02 5.36481E-14 3.25302E-13
 -1      3346 2.52563E+01-3.19287E+00-7.35300E-03-9.62933E-02 8.48627E-15 3.94698E-13
 -1      3347 2.64360E+01-2.78541E+00 4.39690E-02-9.57805E-01-1.10436E-13 5.82832E-13
 -1      3348 2.67348E+01-1.83222E+00-4.06970E-02-1.52316E+00-2.09423E-13 6.06279E-13
 -1      3349 2.70385E+01-6.01084E-02-9.71397E-02-2.65482E+00-3.40519E-13 7.26183E-13
 -1      3350 2.69433E+01 1.63053E+00-9.04534E-02-2.50982E+00-1.24595E-13 7.28417E-13
 -1      3351 2.63393E+01 1.71571E-01-1.52750E-01 2.60946E+00 1.88946E-13 5.17641E-15
 -1      3352 2.02172E+01 1.56774E+00-2.13983E-03-8.08509E-01-1.33136E-13-2.23628E-13
 -1      3353 2.00732E+01 2.60419E-04-9.73997E-04-1.68769E-01 3.55652E-14-4.50134E-14
 -1      3354 2.00089E+01 4.03083E-03-9.08399E-05-1.73844E-01 3.35346E-14-5.62102E-14
 -1      3355 2.00191E+01 2.90935E-02 1.57984E-03-1.62086E-01-3.49384E-15-7.98059E-14
 -1      3356 2.44225E+01-4.17718E+00 1.46144E-03-2.37312E+00 1.57091E-13-2.33483E-13
 -1      3357 2.48297E+01-3.26564E+00-4.35010E-02 8.24794E-01 9.83779E-14-2.47930E-13
 -1      3358 2.51146E+01-2.67508E+00 6.63138E-03-1.09969E-01 2.81891E-13-5.66605E-13
 -1      3359 2.54187E+01-2.28047E+00-9.82435E-03-6.83256E-01 2.24209E-13-4.61768E-13
 -1      3360 2.16694E+01-1.07320E+00 2.03344E-02 2.17243E+00 1.92117E-13-1.19035E-13
 -1      3361 2.19719E+01-1.41483E+00-8.91452E-03 1.98578E+00 1.48986E-13-2.28745E-13
 -1      3362 2.20154E+01-1.84560E+00-2.81260E-02 2.30659E+00 9.76558E-14-2.57769E-13
 -1      3363 1.79377E+01 9.02338E-01-2.64438E-02 2.39055E+00-4.57728E-14-1.62637E-13
 -1      3364 1.86229E+01 6.61260E-01 3.14573E-02 2.72301E+00-7.62915E-14 5.08773E-15
 -1      3365 1.88400E+01-3.78153E-02 5.28395E-04 3.08202E+00 1.02671E-13-2.57647E-13
 -1      3366 2.00346E+01 5.97801E-02-4.89596E-04-1.42641E-01 1.72046E-14-7.78106E-14
 -1      3367 2.00544E+01 1.01106E-01 2.51485E-03-1.14371E-01 5.02787E-14-7.58364E-14
 -1      3368 2.01040E+01 6.12576E-02-1.20178E-03-1.39086E-01 2.26218E-14-5.48240E-14
 -1      3369 1.75076E+01-1.97577E+00 8.93057E-02 4.66180E+00 1.40620E-13-2.44558E-13
 -1      3370 1.68662E+01 1.50025E+00-1.63612E-02 1.24201E+00 7.76503E-14 1.10741E-13
 -1      3371 1.73395E+01 1.30913E+00 1.98025E-02 1.85661E+00 8.13271E-15-1.48648E-13
 -1      3372 1.72751E+01 7.50904E-01 2.91785E-02 2.40065E+00 8.16378E-14-8.69578E-14
 -1      3373 1.60823E+01 1.30472E+00 8.89856E-03 9.20885E-01 5.33666E-14 3.30991E-13
 -1      3374 2.04723E+01-2.63048E-01-1.70082E-02 2.66481E+00 2.99311E-13 9.12333E-14
 -1      3375 2.10976E+01-4.71501E-01 2.27902E-02 2.33715E+00 1.91489E-13-9.94510E-14
 -1      3376 2.13467E+01-8.40498E-01-4.80689E-03 2.26391E+00 3.08099E-13-8.62292E-14
 -1      3377 2.02900E+01-6.35631E-01-1.82611E-02 2.94760E+00 1.40782E-13-1.48250E-13
 -1      3378 2.72901E+01-2.39105E+00-6.45311E-02-5.79844E-01 1.13645E-13-3.84380E-13
 -1      3379 2.13736E+01-3.99287E+00 5.40454E-02-4.53121E+00-1.15637E-14 2.18977E-13
 -1      3380 2.28839E+01-4.18124E+00 8.84084E-02 2.93522E+00 2.15092E-13 3.53848E-13
 -1      3381 2.20876E+01-4.13196E+00 7.91729E-02 4.31552E+00-1.19543E-13-2.19399E-13
 -1      3382 2.07699E+01-3.17915E+00 4.78048E-02 4.32355E+00 6.50660E-14-2.28473E-13
 -1      3383 2.30643E+01-4.11076E+00-3.66758E-02 3.32194E+00 2.18055E-14-2.04500E-13
 -1      3384 2.00665E+01 2.10454E+00-3.05937E-03 3.91762E-01 1.37387E-13-2.32545E-13
 -1      3385 2.01624E+01 1.84694E+00 5.24230E-03 2.91655E-01 1.21620E-13-2.23643E-13
 -1      3386 2.00916E+01 2.02432E+00-5.40041E-03 5.05150E-01 1.52752E-13-2.22128E-13
 -1      3387 1.82943E+01-3.21519E+00 1.05684E-01 4.61921E+00 1.51171E-13 2.36252E-13
 -1      3388 2.01433E+01 1.60667E-01-1.37375E-03-7.54116E-02 6.19105E-14-5.31608E-14
 -1      3389 2.01760E+01 4.88335E-01-2.08327E-03 2.22176E-01 1.61020E-13-6.53566E-14
 -1      3390 2.02322E+01 6.34519E-01 4.14279E-03 3.63472E-01 1.92289E-13-7.14732E-14
 -1      3391 2.02561E+01 7.76422E-01-4.84398E-03 4.20718E-01 1.89475E-13-6.35120E-14
 -1      3392 2.02290E+01 5.23401E-01-1.38692E-03 2.00896E-01 1.59100E-13-3.78474E-14
 -1      3393 1.33688E+01-1.22427E-01-1.00912E-02-2.90822E+00-1.07787E-13 2.37692E-13
 -1      3394 1.36794E+01-9.57196E-01 1.15529E-01-4.13339E+00 1.32307E-13 4.50515E-13
 -1      3395 1.54551E+01-1.25579E+00 3.14733E-02-4.33857E+00 1.04238E-13 8.06057E-13
 -1      3396 2.01595E+01 1.80078E+00-6.98224E-03 6.86216E-01 1.67140E-13-1.81165E-13
 -1      3397 2.01245E+01 1.93036E+00-2.50256E-03 5.90522E-01 1.51712E-13-2.07489E-13
 -1      3398 2.02028E+01 1.69544E+00 5.70702E-03 4.59958E-01 1.34786E-13-2.02129E-13
 -1      3399 2.02516E+01 1.46195E+00 6.24951E-03 5.87172E-01 1.64321E-13-1.46858E-13
 -1      3400 1.01662E+01 1.30694E-01 1.26493E-01 1.28730E+00-4.46414E-14-2.60202E-13
 -1      3401 1.10416E+01 4.57870E-01 6.33776E-02 2.26491E-01-2.25766E-14-2.77389E-13
 -1      3402 1.17105E+01 1.05633E-01 5.90242E-02 2.01790E+00 6.40386E-14-2.22738E-13
 -1      3403 2.00624E+01 2.10998E+00-3.52822E-03-3.84749E-01-2.08824E-14-2.54790E-13
 -1      3404 2.00869E+01 2.03213E+00-5.68435E-03-4.97586E-01-4.35664E-14-2.71086E-13
 -1      3405 2.06324E+01-4.40002E-01 1.41116E-02-2.70069E+00-6.83617E-14-2.52877E-13
 -1      3406 2.02323E+01-2.19669E-01-9.54786E-03-2.79839E+00-5.02408E-14-2.10395E-13
 -1      3407 2.00320E+01-6.00213E-01-9.62967E-03-3.07536E+00-2.10899E-14-2.01839E-13
 -1      3408 2.08705E+01-9.37757E-01 4.91844E-03-2.80728E+00-1.11718E-13-2.40475E-13
 -1      3409 2.02009E+01 1.70102E+00 4.82686E-03-4.58237E-01-5.64215E-14-2.32426E-13
 -1      3410 2.01221E+01 1.93911E+00-2.32143E-03-5.85110E-01-6.33335E-14-2.51201E-13
 -1      3411 2.01582E+01 1.81118E+00-6.32748E-03-6.84330E-01-9.08130E-14-2.48100E-13
 -1      3412 2.22552E+01-3.61649E+00 3.58170E-02 2.71437E+00 7.85691E-14 2.97197E-13
 -1      3413 2.03133E+01 7.32383E-01 1.06215E-03-2.45340E-01-5.96816E-14-1.73235E-13
 -1      3414 2.02956E+01 5.73510E-01-2.81125E-03-1.43768E-01-2.87476E-14-1.71357E-13
 -1      3415 2.00447E+01 2.16410E+00-4.14830E-03-2.84712E-01 1.54656E-15-2.28067E-13
 -1      3416 2.01622E+01 1.85191E+00 5.84968E-03-2.86264E-01-1.15061E-14-2.17232E-13
 -1      3417 2.00321E+01 2.20073E+00-3.39684E-03-1.63024E-01 3.87906E-14-2.28076E-13
 -1      3418 1.33015E+01 7.21581E-01-1.35558E-02 8.11357E-01-4.75037E-14 4.39440E-13
 -1      3419 1.32596E+01 7.18631E-01 9.22686E-02-1.24841E+00-1.58221E-13 5.43818E-13
 -1      3420 2.02683E+01 2.36921E-01 2.11344E-03 3.84952E-02-7.84128E-14-1.15286E-13
 -1      3421 2.02439E+01 1.61918E-01-1.27041E-03 7.93516E-02-8.07196E-14-1.09842E-13
 -1      3422 2.02292E+01 1.03484E-01 1.61099E-03 1.05582E-01-8.18732E-14-1.09442E-13
 -1      3423 2.02078E+01 5.53273E-02-6.34616E-04 1.27638E-01-4.28053E-14-9.78644E-14
 -1      3424 2.02857E+01 1.59760E-01-4.38252E-04 7.58469E-02-6.56927E-14-1.37394E-13
 -1      3425 2.01904E+01 1.89138E-02 1.11341E-03 1.40263E-01-2.86808E-15-5.26329E-14
 -1      3426 2.01728E+01-1.00382E-02-1.91057E-04 1.49560E-01 2.29620E-15-4.39252E-14
 -1      3427 2.02482E+01 5.03883E-02-5.91273E-04 1.17795E-01-2.27902E-14-5.61057E-14
 -1      3428 2.01551E+01-3.08295E-02 7.04253E-04 1.53151E-01-4.59652E-15-5.77049E-14
 -1      3429 2.01412E+01-4.61250E-02 1.03095E-04 1.54411E-01-2.88129E-14-5.80579E-14
 -1      3430 2.02099E+01-1.62196E-02-6.24692E-04 1.36747E-01-1.49200E-14-6.14362E-14
 -1      3431 2.01244E+01-5.58375E-02 3.84645E-04 1.52591E-01-6.85062E-14-3.18299E-14
 -1      3432 2.01138E+01-6.14354E-02 2.90552E-04 1.49395E-01-6.78928E-14-6.68058E-14
 -1      3433 2.01739E+01-5.21822E-02-5.94649E-04 1.40848E-01-4.19483E-14-7.37999E-14
 -1      3434 2.00985E+01-6.32779E-02 1.40922E-04 1.44920E-01-5.44344E-14-6.05559E-14
 -1      3435 2.00907E+01-6.19479E-02 4.06701E-04 1.39922E-01-3.14873E-14-5.20421E-14
 -1      3436 2.01414E+01-6.62421E-02-5.29005E-04 1.36491E-01-5.16456E-14-8.00183E-14
 -1      3437 2.00770E+01-5.81145E-02-4.72068E-05 1.34852E-01-2.56082E-14-5.96872E-14
 -1      3438 2.00713E+01-5.17097E-02 4.79262E-04 1.30020E-01-4.93345E-15-3.98040E-14
 -1      3439 2.01129E+01-6.45765E-02-4.43016E-04 1.28520E-01-3.31076E-14-1.32319E-13
 -1      3440 2.00591E+01-4.36238E-02-1.99056E-04 1.25905E-01-1.81823E-14-7.96560E-14
 -1      3441 2.00552E+01-3.33001E-02 5.27995E-04 1.22731E-01-2.40836E-14-9.15002E-14
 -1      3442 2.00880E+01-5.13620E-02-3.47271E-04 1.20577E-01-3.99183E-14-1.00990E-13
 -1      3443 2.00439E+01-2.18019E-02-3.31939E-04 1.20774E-01-5.83323E-14-1.17184E-13
 -1      3444 2.00412E+01-8.18533E-03 5.67153E-04 1.20439E-01-1.25486E-13-8.43422E-14
 -1      3445 2.00660E+01-2.92266E-02-2.43812E-04 1.15450E-01-3.81442E-14-9.74480E-14
 -1      3446 2.00303E+01 6.32742E-03-4.61149E-04 1.21627E-01-1.64411E-13-8.97801E-14
 -1      3447 2.00285E+01 2.30089E-02 6.06754E-04 1.25136E-01-1.15204E-13-7.64033E-14
 -1      3448 2.00458E+01 3.72261E-04-1.32365E-04 1.15351E-01-1.23180E-13-1.58852E-13
 -1      3449 2.00172E+01 4.04615E-02-5.99270E-04 1.30347E-01-1.01457E-13-4.64429E-14
 -1      3450 2.00157E+01 6.02601E-02 6.53360E-04 1.38621E-01-1.62215E-13-9.69023E-15
 -1      3451 2.00260E+01 3.68590E-02-1.03561E-05 1.22149E-01-8.77042E-14-5.87531E-14
 -1      3452 2.00031E+01 8.07909E-02-7.56390E-04 1.48700E-01-1.87524E-13 1.24583E-14
 -1      3453 2.00014E+01 1.03925E-01 7.10564E-04 1.62647E-01-1.33941E-13 2.94072E-14
 -1      3454 2.00048E+01 8.02783E-02 1.26722E-04 1.37556E-01-1.14034E-13-4.20384E-14
 -1      3455 1.99865E+01 1.27772E-01-9.40280E-04 1.78456E-01-8.09435E-14 5.90365E-14
 -1      3456 1.99842E+01 1.54505E-01 7.79647E-04 1.98999E-01-1.66202E-14 3.55432E-14
 -1      3457 1.99805E+01 1.31041E-01 2.84442E-04 1.63248E-01-1.03134E-13 6.36547E-14
 -1      3458 1.99656E+01 1.81876E-01-1.15618E-03 2.21443E-01-8.10363E-14 7.28704E-14
 -1      3459 1.99621E+01 2.12366E-01 8.60476E-04 2.49523E-01-7.91854E-14 4.30811E-14
 -1      3460 1.99508E+01 1.89655E-01 4.68571E-04 2.00938E-01-5.64014E-14 5.24398E-14
 -1      3461 1.99385E+01 2.43274E-01-1.40623E-03 2.79551E-01 5.32129E-14 6.50463E-14
 -1      3462 1.99330E+01 2.77383E-01 9.53079E-04 3.16102E-01 1.07022E-13 9.51192E-14
 -1      3463 1.99130E+01 2.56397E-01 6.83825E-04 2.52398E-01-6.26821E-16 1.16779E-13
 -1      3464 1.99030E+01 3.11426E-01-1.68863E-03 3.54695E-01 8.10667E-14 1.01614E-13
 -1      3465 1.98950E+01 3.48457E-01 1.06067E-03 4.00584E-01 9.02340E-14 4.13654E-14
 -1      3466 1.98644E+01 3.30912E-01 9.31803E-04 3.19461E-01 7.33517E-14 1.49967E-13
 -1      3467 1.98569E+01 3.84506E-01-1.99630E-03 4.48738E-01 1.15139E-13 2.68255E-14
 -1      3468 1.98458E+01 4.22840E-01 1.19518E-03 5.04688E-01 2.67516E-14 3.50475E-14
 -1      3469 1.98021E+01 4.11655E-01 1.20749E-03 4.03990E-01 4.65567E-14 1.02334E-13
 -1      3470 1.97984E+01 4.58605E-01-2.31483E-03 5.63418E-01-9.82774E-15-4.53579E-14
 -1      3471 1.97841E+01 4.95193E-01 1.38680E-03 6.29926E-01-1.50986E-15 3.17377E-14
 -1      3472 1.97229E+01 4.95148E-01 1.49340E-03 5.07890E-01 1.05321E-14 3.03527E-14
 -1      3473 1.97264E+01 5.26622E-01-2.61873E-03 7.00322E-01-6.64040E-14 8.14919E-14
 -1      3474 1.97099E+01 5.56288E-01 1.69863E-03 7.77593E-01-6.00597E-14 1.66431E-13
 -1      3475 1.96244E+01 5.74963E-01 1.74969E-03 6.33214E-01 3.16364E-14 7.97735E-14
 -1      3476 1.96420E+01 5.76746E-01-2.86322E-03 8.60990E-01-3.28313E-14 1.97531E-13
 -1      3477 1.96264E+01 5.91261E-01 2.24620E-03 9.48913E-01 7.70747E-15 1.78267E-13
 -1      3478 1.95056E+01 6.40341E-01 1.89727E-03 7.82481E-01 1.62750E-14 4.00559E-14
 -1      3479 1.95506E+01 5.90470E-01-2.96511E-03 1.04721E+00-5.09875E-15 2.36797E-13
 -1      3480 1.95425E+01 5.77379E-01 3.22073E-03 1.14537E+00 5.39866E-14 2.08752E-13
 -1      3481 1.93683E+01 6.74363E-01 1.78911E-03 9.59328E-01 5.94765E-14 1.63356E-13
 -1      3482 1.94650E+01 5.40148E-01-2.75239E-03 1.26149E+00 1.52067E-14 1.94272E-13
 -1      3483 1.94777E+01 4.81406E-01 4.91053E-03 1.36906E+00 2.17254E-15 1.78018E-13
 -1      3484 1.92198E+01 6.51583E-01 1.16610E-03 1.16961E+00 2.58577E-14 2.40891E-13
 -1      3485 1.94118E+01 3.86337E-01-1.82858E-03 1.50737E+00 3.94370E-14 8.87269E-14
 -1      3486 1.94687E+01 2.56839E-01 7.66817E-03 1.62237E+00-1.25715E-14 2.30455E-13
 -1      3487 1.90776E+01 5.35097E-01-4.05496E-04 1.42280E+00-3.04853E-14 1.72658E-13
 -1      3488 1.94410E+01 7.54526E-02 8.04779E-04 1.78775E+00-1.24664E-13 1.78727E-13
 -1      3489 1.95813E+01-1.57052E-01 1.22380E-02 1.90389E+00-3.43321E-14 1.48162E-13
 -1      3490 1.89772E+01 2.72456E-01-3.60388E-03 1.73286E+00-4.09441E-14 1.42464E-13
 -1      3491 1.96405E+01-4.59418E-01 7.29290E-03 2.09909E+00 5.74021E-14 1.75197E-13
 -1      3492 1.99237E+01-8.33200E-01 1.79011E-02 2.19685E+00 1.08005E-13 1.57092E-13
 -1      3493 1.89844E+01-2.05336E-01-8.89911E-03 2.11481E+00 2.21682E-14 1.42151E-13
 -1      3494 2.01714E+01-1.29948E+00 1.98857E-02 2.40109E+00 1.24918E-13 1.98255E-13
 -1      3495 2.07072E+01-1.81030E+00 3.57526E-02 2.41720E+00 9.08761E-14 1.29552E-13
 -1      3496 1.92305E+01-9.87329E-01-1.36466E-02 2.58605E+00 1.42035E-13 1.57752E-13
 -1      3497 2.09296E+01-2.35961E+00 2.90551E-02 2.66548E+00 6.30268E-14 1.82711E-13
 -1      3498 2.17707E+01-2.94741E+00 4.44738E-02 2.54294E+00 7.18037E-14 2.44926E-13
 -1      3499 2.03344E+01-3.48766E+00-6.05927E-02 3.78363E+00 9.10019E-14 3.11775E-13
 -1      3500 1.96730E+01-2.12364E+00-4.59771E-02 3.15030E+00 1.52469E-13 1.83084E-13
 -1      3501 2.34404E+01-3.70312E+00 6.94279E-02-2.88161E+00 1.28332E-13-2.97426E-13
 -1      3502 2.44542E+01-3.73702E+00 6.81611E-02 2.00642E+00 7.60251E-14-2.49217E-13
 -1      3503 2.31524E+01-3.34140E+00 8.59290E-03 2.56686E+00-3.00229E-14-1.44457E-13
 -1      3504 2.24088E+01-3.07103E+00 9.65705E-03-3.03429E+00 1.50989E-13-2.67539E-13
 -1      3505 2.16752E+01-2.35976E+00 3.52781E-02-3.17449E+00 1.75282E-13-1.48479E-13
 -1      3506 2.19705E+01-3.60240E+00-5.29367E-02-3.72893E+00 1.00279E-13-3.42478E-13
 -1      3507 2.00385E+01-3.49546E-02 5.41239E-04-1.28707E-01-2.84391E-14 2.45168E-14
 -1      3508 2.00392E+01-4.37269E-02-2.10465E-04-1.32882E-01-1.70970E-14-7.50524E-15
 -1      3509 2.00488E+01-5.04186E-02 4.87010E-04-1.37875E-01 2.91346E-14-2.10542E-14
 -1      3510 2.00512E+01-5.56027E-02-5.76367E-05-1.43610E-01 3.39382E-14 2.70350E-14
 -1      3511 2.00706E+01-5.16037E-02-3.51972E-04-1.30514E-01 1.42061E-14 5.50710E-14
 -1      3512 2.00243E+01 1.34459E-02 6.42582E-04-1.27164E-01 4.07677E-14 1.72813E-14
 -1      3513 2.00227E+01-1.00305E-03-4.52145E-04-1.24734E-01 3.67716E-14-3.56808E-14
 -1      3514 2.00188E+01 4.56574E-02 7.07230E-04-1.38743E-01 6.40994E-14 9.17427E-14
 -1      3515 2.00164E+01 2.84698E-02-5.72460E-04-1.31553E-01 7.16737E-14 6.64132E-14
 -1      3516 2.00259E+01 2.51116E-02-7.24319E-05-1.26837E-01 2.25009E-14-1.04803E-13
 -1      3517 2.00132E+01 8.34817E-02 7.87518E-04-1.60986E-01 5.07922E-14 6.25787E-14
 -1      3518 2.00103E+01 6.33653E-02-7.08071E-04-1.48112E-01 6.50180E-14 6.37734E-14
 -1      3519 2.00122E+01 6.32829E-02 3.07722E-05-1.40900E-01 7.90092E-14 3.84247E-14
 -1      3520 2.00065E+01 1.27383E-01 8.85047E-04-1.95733E-01 3.42019E-14 7.19846E-15
 -1      3521 2.00032E+01 1.04088E-01-8.67356E-04-1.76234E-01 3.76860E-14 3.76021E-14
 -1      3522 1.99967E+01 1.07998E-01 1.47724E-04-1.65625E-01 5.55282E-14-1.44730E-14
 -1      3523 1.99974E+01 1.77748E-01 9.99425E-04-2.44889E-01 6.09947E-14 8.09397E-14
 -1      3524 1.99940E+01 1.51096E-01-1.05572E-03-2.17798E-01 6.18587E-14 7.00631E-14
 -1      3525 1.99778E+01 1.59740E-01 2.84117E-04-2.02819E-01 3.09163E-14 5.40143E-14
 -1      3526 1.99846E+01 2.34572E-01 1.12919E-03-3.10392E-01 2.92238E-14 4.15707E-14
 -1      3527 1.99814E+01 2.04626E-01-1.27492E-03-2.74753E-01 5.38948E-14 4.54764E-14
 -1      3528 1.99536E+01 2.18835E-01 4.44627E-04-2.54346E-01 4.35680E-14 9.50550E-14
 -1      3529 1.99669E+01 2.97023E-01 1.27381E-03-3.94119E-01 3.60714E-14-1.08187E-14
 -1      3530 1.99641E+01 2.64326E-01-1.52174E-03-3.49054E-01 3.86585E-14-1.48516E-14
 -1      3531 1.99220E+01 2.85071E-01 6.30880E-04-3.22116E-01 8.08864E-14-1.67787E-14
 -1      3532 1.99429E+01 3.62825E-01 1.43756E-03-4.97726E-01 2.19220E-14-7.68140E-14
 -1      3533 1.99407E+01 3.28735E-01-1.78577E-03-4.42552E-01 2.08262E-14-4.31126E-14
 -1      3534 1.98807E+01 3.57191E-01 8.37824E-04-4.08013E-01 2.47579E-14-8.84503E-14
 -1      3535 1.99119E+01 4.27380E-01 1.63670E-03-6.22447E-01 3.16729E-14-4.32241E-14
 -1      3536 1.99101E+01 3.94551E-01-2.04576E-03-5.56826E-01 6.23519E-15-3.98089E-14
 -1      3537 1.98276E+01 4.32180E-01 1.04742E-03-5.13831E-01-5.92888E-15-4.45907E-14
 -1      3538 1.98748E+01 4.82532E-01 1.91074E-03-7.68866E-01 2.21680E-14 4.10485E-14
 -1      3539 1.98721E+01 4.55582E-01-2.26356E-03-6.92995E-01 5.07105E-14 2.29749E-14
 -1      3540 1.97612E+01 5.04271E-01 1.21791E-03-6.41220E-01-1.46670E-14-2.85168E-14
 -1      3541 1.98349E+01 5.14867E-01 2.33690E-03-9.36710E-01-6.94773E-14 1.53900E-15
 -1      3542 1.98286E+01 5.01291E-01-2.37265E-03-8.51535E-01 2.09645E-14 6.32181E-14
 -1      3543 1.96814E+01 5.63570E-01 1.26582E-03-7.91747E-01 4.53782E-14 4.71578E-14
 -1      3544 1.98013E+01 5.03529E-01 3.04022E-03-1.12463E+00-1.54294E-13 2.64801E-14
 -1      3545 1.97856E+01 5.14856E-01-2.25636E-03-1.03213E+00-1.37963E-13-2.81764E-14
 -1      3546 1.95912E+01 5.94189E-01 1.03549E-03-9.67137E-01-9.99994E-14 1.19138E-13
 -1      3547 1.97928E+01 4.17736E-01 4.19042E-03-1.32975E+00-2.01376E-13 4.15242E-14
 -1      3548 1.97561E+01 4.70798E-01-1.70851E-03-1.23341E+00-1.63035E-13 2.54408E-14
 -1      3549 1.94995E+01 5.71829E-01 2.50068E-04-1.16968E+00-1.71168E-13 1.63774E-14
 -1      3550 1.98436E+01 2.14680E-01 5.92992E-03-1.54642E+00-6.52778E-15 1.11231E-13
 -1      3551 1.97662E+01 3.32627E-01-3.61258E-04-1.45229E+00-1.06363E-13 6.67250E-14
 -1      3552 1.94256E+01 4.61041E-01-1.55156E-03-1.40258E+00-1.56355E-13-4.20990E-14
 -1      3553 2.00129E+01-1.60504E-01 8.24579E-03-1.76228E+00-9.36286E-14 7.17359E-14
 -1      3554 1.98626E+01 5.15964E-02 2.47997E-03-1.68164E+00 4.18966E-14 1.51083E-13
 -1      3555 1.94064E+01 2.12496E-01-5.15542E-03-1.66933E+00-6.92523E-14 4.53782E-14
 -1      3556 2.03950E+01-7.70460E-01 9.69092E-03-1.94803E+00-1.95779E-13 1.60982E-13
 -1      3557 2.01250E+01-4.30541E-01 8.26371E-03-1.90371E+00-1.62854E-13 6.06141E-14
 -1      3558 1.95077E+01-2.38474E-01-1.20296E-02-1.96935E+00-1.29791E-13 2.08228E-13
 -1      3559 2.11298E+01-1.63500E+00 1.45306E-02-2.03123E+00-1.46686E-13 1.94269E-13
 -1      3560 2.06847E+01-1.16495E+00 2.07621E-02-2.06642E+00-1.64278E-13 1.69133E-13
 -1      3561 1.98346E+01-9.72715E-01-2.80047E-02-2.28388E+00-1.54942E-13 1.16816E-13
 -1      3562 2.24407E+01-2.69899E+00 1.88810E-02-1.76876E+00-1.36346E-13 1.09263E-13
 -1      3563 2.17342E+01-2.15268E+00 4.77871E-02-2.03895E+00-4.59134E-14 1.74215E-13
 -1      3564 2.06461E+01-2.05758E+00-5.00483E-02-2.53895E+00-1.21967E-13 7.62177E-14
 -1      3565 2.39390E+01-4.00052E+00 2.86668E-02-1.81361E+00 8.57821E-15-2.29465E-14
 -1      3566 2.29864E+01-3.64816E+00 4.90941E-02-2.28260E+00-1.32625E-13-5.91003E-14
 -1      3567 2.02182E+01 1.58077E+00 1.27027E-03-7.00166E-01-1.19052E-13-2.13612E-13
 -1      3568 1.34513E+01-6.83494E-01 9.40466E-02-3.55841E+00 1.42766E-13-2.98317E-13
 -1      3569 1.51652E+01-1.55642E+00 1.66124E-03-4.12779E+00 9.39145E-14-1.81168E-13
 -1      3570 2.04652E+01-3.07624E+00 7.31752E-02-4.42768E+00 2.23710E-14 6.64000E-14
 -1      3571 2.24320E+01-2.76793E+00 4.12378E-02 2.84772E+00-5.45388E-14-1.23127E-13
 -1      3572 2.02355E+01 3.20959E-01-1.98226E-03 1.75580E-02 1.14212E-13-5.15493E-14
 -1      3573 2.02667E+01 4.29327E-01 3.18994E-03 9.21753E-02 1.40068E-13-3.35543E-14
 -1      3574 1.93095E+01-7.28207E-01 3.86255E-02-3.47641E+00 1.40092E-13 1.60358E-13
 -1      3575 1.82838E+01-4.04008E-01-2.13304E-02-3.39665E+00 1.05375E-13 5.64888E-13
 -1      3576 2.00306E+01-1.34501E-02 5.89521E-04-1.24442E-01 6.03293E-14-1.30240E-14
 -1      3577 2.00299E+01-2.51833E-02-3.35970E-04-1.25831E-01 3.55113E-14-8.66838E-15
 -1      3578 2.00539E+01-3.26485E-02-2.59177E-04-1.23561E-01 1.24967E-14-7.14199E-15
 -1      3579 2.00394E+01-6.87136E-03-1.67456E-04-1.21665E-01 4.45617E-14-8.38861E-14
 -1      3580 2.01023E+01-4.05307E-02 1.08382E-04-1.65451E-01 5.09428E-14-7.90584E-15
 -1      3581 2.01134E+01-2.53507E-02 7.77655E-04-1.64118E-01 4.27930E-14-1.20644E-14
 -1      3582 1.78911E+01-2.44501E+00 7.37525E-02 4.20190E+00 2.29441E-13 8.65610E-14
 -1      3583 2.03017E+01 4.39459E-01 2.87691E-03-7.29046E-02-1.19181E-14-1.74830E-13
 -1      3584 2.02767E+01 3.26198E-01-2.12915E-03-6.33692E-03-3.54473E-14-1.38123E-13
 -1      3585 2.03173E+01 3.27802E-01-1.38555E-04 1.31594E-03-3.62754E-14-1.52870E-13
 -1      3586 1.86852E+01-2.08813E+00-4.87442E-02 4.38905E+00 2.09913E-13-3.19383E-13
 -1      3587 1.69799E+01-1.00830E+00 7.29743E-02 4.10689E+00 1.96764E-13-1.97089E-13
 -1      3588 1.13685E+01 3.12632E-01 5.12320E-02-1.40403E+00-4.62564E-14-4.21108E-13
 -1      3589 1.21479E+01-1.82093E-01 3.49876E-02-2.73599E+00 9.92522E-14-4.72025E-13
 -1      3590 1.36867E+01-1.71986E-01 6.45916E-02-2.77347E+00 9.16385E-14-3.97828E-13
 -1      3591 2.01985E+01 1.61025E-01-1.28380E-03-8.02941E-02 6.73712E-14-7.82593E-14
 -1      3592 2.02254E+01 2.34035E-01 2.70168E-03-3.52600E-02 9.56600E-14-6.73500E-14
 -1      3593 2.02823E+01 3.29164E-01-4.43287E-04 8.07093E-03 1.13703E-13-6.87167E-14
 -1      3594 1.48898E+01-1.62592E+00-2.11040E-02 4.26714E+00 3.09440E-13-1.25337E-13
 -1      3595 1.32179E+01-5.82020E-01 5.98636E-02 3.35179E+00 1.70133E-13-2.21614E-13
 -1      3596 1.73538E+01-1.95325E+00 9.69922E-02-4.78388E+00 1.24688E-13 9.04648E-13
 -1      3597 1.86164E+01-2.68852E+00-3.37233E-03-4.86699E+00-7.23449E-14 4.35575E-13
 -1      3598 1.97831E+01-2.30415E+00 1.92969E-02-4.16529E+00 8.02726E-14-8.77510E-15
 -1      3599 1.65766E+01-1.10699E+00 3.27116E-02-4.08844E+00 8.38322E-14 8.25413E-13
 -1      3600 1.53360E+01-3.83926E-01-3.16958E-02 3.53163E+00 1.77944E-13-7.15816E-14
 -1      3601 1.43225E+01 3.83827E-01 6.28021E-02 2.40599E+00 1.07677E-13-7.50823E-14
 -1      3602 1.66927E+01-1.90514E+00 1.03093E-01-4.25028E+00 9.83415E-14-1.52975E-13
 -1      3603 1.80330E+01-2.53629E+00-2.59303E-02-4.09302E+00 6.90240E-14-3.10862E-13
 -1      3604 1.59846E+01-1.25128E+00 2.50125E-02-3.73527E+00 2.33855E-13-1.47181E-13
 -1      3605 2.02952E+01 9.12116E-01-2.23465E-03-3.25317E-01-7.38849E-14-1.95821E-13
 -1      3606 2.03175E+01 9.03613E-01-2.11505E-03-2.70539E-01-4.88665E-14-1.48214E-13
 -1      3607 2.02936E+01 1.11618E+00-1.44334E-04-4.49009E-01-1.02631E-13-1.95540E-13
 -1      3608 2.02116E+01 1.60842E+00-2.53026E-03-1.96749E-01 1.88346E-14-1.71325E-13
 -1      3609 2.02239E+01 1.55464E+00-3.80685E-03-2.81594E-01-1.16114E-14-2.03755E-13
 -1      3610 1.48603E+01 8.26070E-01 4.14569E-02 1.26799E+00-4.77804E-14 2.89617E-13
 -1      3611 2.03008E+01 1.24561E+00 5.34862E-03-2.84289E-01-2.90925E-14-1.79412E-13
 -1      3612 2.02428E+01 1.44104E+00-7.49557E-04-3.83989E-01-4.24372E-14-2.10831E-13
 -1      3613 2.01399E+01 1.92297E+00 4.95894E-03-9.47854E-02 3.79419E-14-2.14756E-13
 -1      3614 2.01745E+01-1.06216E-02-7.14257E-04-1.48950E-01-8.44258E-15-1.03808E-13
 -1      3615 2.01296E+01-5.07570E-03-1.83432E-04-1.59640E-01 1.31083E-14-5.33404E-14
 -1      3616 2.01454E+01 2.30840E-02 1.26230E-03-1.49469E-01-5.81552E-16-7.93495E-14
 -1      3617 2.12829E+01-1.11519E+00-4.97127E-03 2.55230E+00 3.10748E-13 3.38236E-14
 -1      3618 2.19959E+01-2.25785E+00 1.36202E-02 2.77888E+00 1.26686E-13-1.57079E-13
 -1      3619 2.14042E+01-2.90002E+00-5.59096E-02 3.59544E+00 1.27368E-13-1.69513E-13
 -1      3620 2.04540E+01-2.51992E+00 5.71122E-02 4.05387E+00 2.55289E-13-3.33311E-13
 -1      3621 2.14384E+01-1.78484E+00 1.73782E-02 2.95239E+00 2.66292E-13-1.84527E-13
 -1      3622 2.00875E+01-5.03774E-02 4.12287E-04-1.63688E-01 5.46222E-14 5.30965E-15
 -1      3623 2.01421E+01-4.68234E-02-6.33663E-04-1.54092E-01 5.71043E-14-1.05437E-14
 -1      3624 2.00800E+01-5.63964E-02 2.96152E-04-1.60062E-01 2.95298E-14-3.82383E-14
 -1      3625 2.14193E+01-1.90669E+00 1.39376E-02-3.00779E+00 1.06573E-13-1.26276E-13
 -1      3626 2.10188E+01-1.34450E+00 1.58839E-02-2.96811E+00 1.01478E-13-1.98541E-13
 -1      3627 2.06060E+01-1.21404E+00 7.79075E-03-3.16251E+00 2.36373E-14-3.82214E-13
 -1      3628 2.09415E+01-2.20220E+00-2.97925E-03-3.54889E+00 1.28093E-13-1.71299E-13
 -1      3629 2.00904E+01-6.22555E-02-4.44911E-04-1.40127E-01 3.54424E-14-6.18906E-15
 -1      3630 2.00624E+01-5.83902E-02 4.12817E-04-1.49414E-01 7.15005E-14-5.11887E-15
 -1      3631 2.00671E+01-5.88686E-02 1.41723E-04-1.55137E-01 6.61327E-14-2.77777E-14
 -1      3632 2.15094E+01-3.60883E+00-1.48413E-02-3.24113E+00-1.61208E-14-1.72209E-13
 -1      3633 1.18277E+01 6.15276E-01 7.91605E-02-5.23238E-01-2.99908E-14-3.64039E-13
 -1      3634 1.29043E+01 6.29040E-01 4.26446E-02-1.01087E+00-5.55285E-15-4.35072E-13
 -1      3635 1.25077E+01 6.73306E-01 7.96945E-03 3.71342E-01-4.55799E-15-2.51833E-13
 -1      3636 1.70359E+01-3.13033E-01 4.54017E-02 3.40619E+00 8.92949E-14-1.66205E-13
 -1      3637 1.97603E+01-1.71272E+00 6.33534E-03 3.78193E+00 1.46945E-13-4.15465E-13
 -1      3638 1.44029E+01-1.79039E-01 1.10680E-02 2.78173E+00 1.61095E-13-7.82985E-14
 -1      3639 1.30133E+01 6.66624E-03 8.04244E-02 2.61332E+00 1.11188E-13-1.07126E-13
 -1      3640 1.30240E+01 4.27844E-01 1.72018E-02 1.64624E+00 6.65371E-14-1.44211E-13
 -1      3641 1.53059E+01 1.06475E+00-1.77414E-02-1.14597E+00-1.12080E-13 3.73021E-13
 -1      3642 1.51429E+01 1.23736E+00 2.24324E-02-1.62658E-01-1.89855E-14 7.69708E-13
 -1      3643 2.01621E+01 5.81814E-02-6.30120E-04-1.34691E-01 2.13691E-14-1.01109E-13
 -1      3644 2.01832E+01 1.04750E-01 1.86132E-03-1.10466E-01 2.76384E-14-9.41444E-14
 -1      3645 2.02106E+01 5.51730E-02-7.41664E-04-1.26698E-01 1.19677E-14-1.10890E-13
 -1      3646 1.80119E+01-3.87560E-01-3.47167E-02 3.41626E+00 8.90269E-14-1.50040E-13
 -1      3647 1.91127E+01-6.55202E-01 5.29778E-02 3.50361E+00 1.22113E-13-3.27568E-13
 -1      3648 2.02618E+01 5.33564E-01-2.51036E-03 1.57963E-01 1.51318E-13-3.50465E-14
 -1      3649 2.02804E+01 6.52613E-01-7.82028E-05 2.54089E-01 1.53951E-13-4.65885E-14
 -1      3650 2.03018E+01 5.39439E-01-2.23485E-03 1.32702E-01 1.35239E-13-3.95585E-14
 -1      3651 1.45076E+01 4.89372E-01 6.04641E-02-1.92590E+00-1.46707E-13 3.45050E-13
 -1      3652 2.03323E+01 5.78979E-01 8.83868E-04-1.15192E-01-2.67335E-14-1.43963E-13
 -1      3653 2.02782E+01 1.14071E+00-5.13579E-03 4.94513E-01 1.73340E-13-1.08439E-13
 -1      3654 2.02674E+01 1.28611E+00 3.16409E-05 4.54712E-01 1.42019E-13-1.44398E-13
 -1      3655 2.02234E+01 1.54752E+00-3.99905E-03 2.85591E-01 1.19097E-13-2.38946E-13
 -1      3656 2.02132E+01 1.60563E+00-2.09197E-03 2.01734E-01 1.17704E-13-2.19544E-13
 -1      3657 1.75782E+01-1.70633E+00 7.08813E-02 3.69972E+00 2.27270E-13 3.76157E-14
 -1      3658 2.01307E+01-1.01661E+00-4.01701E-03-3.25806E+00 7.99061E-14-1.86532E-13
 -1      3659 2.02483E+01 1.62520E-01-6.83187E-04-7.81051E-02 5.13349E-14-1.51540E-13
 -1      3660 1.97664E+01-1.47882E+00-8.96792E-03-3.63843E+00 1.50776E-13-2.35385E-14
 -1      3661 2.02045E+01 1.63980E+00-3.14045E-03 1.31382E-01 1.09513E-13-1.82360E-13
 -1      3662 2.02002E+01 1.65779E+00-3.10312E-03 4.11506E-02 7.70807E-14-1.99637E-13
 -1      3663 2.02873E+01 1.38796E+00 5.53695E-03 1.30070E-01 1.09194E-13-1.92226E-13
 -1      3664 2.02421E+01-1.32647E+00-2.80881E-02 3.33959E+00 1.10204E-13-4.76931E-13
 -1      3665 2.02004E+01 1.65849E+00-3.01160E-03-3.50146E-02 4.59238E-14-2.09137E-13
 -1      3666 2.02041E+01 1.64026E+00-3.58081E-03-1.25304E-01 2.59254E-14-2.00849E-13
 -1      3667 2.02935E+01 1.39053E+00 8.15709E-03-1.33305E-01 2.56967E-14-1.73697E-13
 -1      3668 2.02879E+01 1.41900E+00 6.65948E-03-2.47340E-03 6.13409E-14-1.79819E-13
 -1      3669 2.03368E+01 2.17324E-01 1.43185E-03 4.70697E-02-4.60011E-14-1.46501E-13
 -1      3670 2.03160E+01 1.43026E-01-1.04177E-03 7.64823E-02-3.76614E-14-1.31288E-13
 -1      3671 2.03008E+01 8.47819E-02 1.05102E-03 9.28351E-02 8.45900E-15-1.00676E-13
 -1      3672 2.02795E+01 3.75015E-02-4.97687E-04 1.08599E-01 1.98439E-14-6.63033E-14
 -1      3673 2.03429E+01 1.33362E-01-1.08839E-04 6.87168E-02 1.13589E-14-1.10505E-13
 -1      3674 2.02603E+01 1.72279E-03 7.71741E-04 1.15879E-01-1.31362E-14-6.75992E-14
 -1      3675 2.02401E+01-2.59660E-02-1.16977E-04 1.22299E-01-2.20574E-14-6.58916E-14
 -1      3676 2.03042E+01 2.89780E-02-3.60375E-04 9.46778E-02-3.33393E-15-8.82059E-14
 -1      3677 2.02194E+01-4.54694E-02 5.13465E-04 1.23617E-01-2.72944E-14-6.27337E-14
 -1      3678 2.02013E+01-5.89806E-02 1.36663E-04 1.24248E-01-4.54035E-14-7.87218E-14
 -1      3679 2.02618E+01-3.29890E-02-4.86169E-04 1.05570E-01-2.92761E-14-5.29320E-14
 -1      3680 2.01809E+01-6.67848E-02 2.96495E-04 1.22177E-01-5.80867E-14-5.40341E-14
 -1      3681 2.01652E+01-7.01056E-02 2.93938E-04 1.19758E-01-4.33609E-14-4.98021E-14
 -1      3682 2.02196E+01-6.39936E-02-5.13669E-04 1.06960E-01-2.96127E-14-4.52114E-14
 -1      3683 2.01459E+01-6.94844E-02 1.13952E-04 1.16248E-01-4.95598E-14-8.09995E-14
 -1      3684 2.01325E+01-6.53919E-02 3.86678E-04 1.12842E-01-4.24247E-14-7.58518E-14
 -1      3685 2.01798E+01-7.26179E-02-4.74184E-04 1.03271E-01-4.77025E-14-3.08074E-14
 -1      3686 2.01144E+01-5.85518E-02-4.40858E-05 1.09383E-01-2.17700E-14-8.89464E-14
 -1      3687 2.01029E+01-4.88814E-02 4.36480E-04 1.06568E-01-2.91681E-14-4.57965E-14
 -1      3688 2.01431E+01-6.49222E-02-3.99396E-04 9.78738E-02-4.01653E-14-2.25793E-14
 -1      3689 2.00859E+01-3.72398E-02-1.87205E-04 1.04310E-01-5.03767E-14-1.22975E-14
 -1      3690 2.00758E+01-2.31054E-02 4.59562E-04 1.03305E-01-5.05853E-14-2.35701E-14
 -1      3691 2.01093E+01-4.49049E-02-2.93622E-04 9.33922E-02-1.99538E-14 6.89118E-15
 -1      3692 2.00593E+01-7.45296E-03-3.28205E-04 1.03159E-01-9.29101E-14-4.90953E-14
 -1      3693 2.00499E+01 1.05936E-02 4.68061E-04 1.04955E-01-1.04660E-13 5.67045E-16
 -1      3694 2.00774E+01-1.50420E-02-1.62591E-04 9.18615E-02-4.92405E-14 2.41137E-14
 -1      3695 2.00329E+01 2.99379E-02-4.77980E-04 1.07693E-01-9.15747E-14 2.29935E-14
 -1      3696 2.00235E+01 5.17588E-02 4.70124E-04 1.13157E-01-1.02546E-13-4.92869E-15
 -1      3697 2.00460E+01 2.34036E-02-8.98708E-06 9.49339E-02-8.26248E-14 2.33117E-15
 -1      3698 2.00050E+01 7.48078E-02-6.45625E-04 1.19490E-01-8.49463E-14-2.18124E-14
 -1      3699 1.99946E+01 1.00540E-01 4.70375E-04 1.29436E-01-8.91551E-14 4.57065E-14
 -1      3700 2.00130E+01 7.00652E-02 1.69101E-04 1.04055E-01-9.12622E-14 4.85509E-15
 -1      3701 1.99732E+01 1.27505E-01-8.39138E-04 1.40067E-01-7.00812E-14 1.05336E-13
 -1      3702 1.99608E+01 1.57421E-01 4.70883E-04 1.55300E-01-4.76770E-14 9.85006E-14
 -1      3703 1.99760E+01 1.25168E-01 3.75962E-04 1.20586E-01-1.99127E-14 8.45654E-14
 -1      3704 1.99349E+01 1.88571E-01-1.06532E-03 1.70960E-01-1.84461E-14 1.39239E-13
 -1      3705 1.99192E+01 2.22930E-01 4.72212E-04 1.92298E-01-2.60806E-14 1.35111E-13
 -1      3706 1.99321E+01 1.89233E-01 6.17274E-04 1.45883E-01-1.53936E-14 1.83197E-13
 -1      3707 1.98870E+01 2.58427E-01-1.32976E-03 2.13763E-01-2.09633E-14 1.54243E-13
 -1      3708 1.98668E+01 2.97289E-01 4.74971E-04 2.42043E-01 4.05189E-14 1.80701E-13
 -1      3709 1.98778E+01 2.62752E-01 8.99229E-04 1.81345E-01-7.94452E-15 2.18522E-13
 -1      3710 1.98261E+01 3.36988E-01-1.63721E-03 2.70148E-01 6.24070E-14 2.13769E-13
 -1      3711 1.97999E+01 3.79985E-01 4.82443E-04 3.06214E-01 5.86769E-14 1.38521E-13
 -1      3712 1.98094E+01 3.45814E-01 1.22749E-03 2.28451E-01 3.59982E-14 2.37465E-13
 -1      3713 1.97484E+01 4.23162E-01-1.99247E-03 3.41871E-01 6.09194E-14 1.73795E-13
 -1      3714 1.97147E+01 4.69200E-01 5.05219E-04 3.86573E-01 4.84549E-14 1.29682E-13
 -1      3715 1.97225E+01 4.37629E-01 1.60586E-03 2.88785E-01 5.97094E-14 1.75987E-13
 -1      3716 1.96500E+01 5.14207E-01-2.40246E-03 4.30823E-01-4.13971E-15 5.81357E-14
 -1      3717 1.96074E+01 5.61075E-01 5.69240E-04 4.85046E-01-1.95357E-14 1.83840E-14
 -1      3718 1.96124E+01 5.35948E-01 2.03462E-03 3.64116E-01-3.99556E-14 1.12031E-13
 -1      3719 1.95270E+01 6.04876E-01-2.87968E-03 5.39193E-01 4.54534E-14 4.85892E-14
 -1      3720 1.94746E+01 6.48736E-01 7.29246E-04 6.03964E-01 5.88702E-14 5.84880E-14
 -1      3721 1.94742E+01 6.36315E-01 2.50821E-03 4.56592E-01 1.89883E-14 1.93671E-13
 -1      3722 1.93759E+01 6.86302E-01-3.44681E-03 6.69861E-01 6.10725E-14 3.75374E-14
 -1      3723 1.93142E+01 7.21040E-01 1.08974E-03 7.46625E-01 1.28254E-13 1.19045E-13
 -1      3724 1.93029E+01 7.31142E-01 3.01145E-03 5.69188E-01 9.03033E-14 2.16120E-13
 -1      3725 1.91950E+01 7.44559E-01-4.13949E-03 8.27229E-01 8.64581E-14 1.78066E-13
 -1      3726 1.91264E+01 7.60934E-01 1.83233E-03 9.18344E-01 8.26104E-14 2.54463E-13
 -1      3727 1.90941E+01 8.08542E-01 3.51098E-03 7.06604E-01 1.34948E-13 1.23609E-13
 -1      3728 1.89855E+01 7.58791E-01-4.99975E-03 1.01864E+00 1.06172E-14 1.62494E-13
 -1      3729 1.89168E+01 7.43349E-01 3.25487E-03 1.12816E+00-9.95887E-14 1.14391E-13
 -1      3730 1.88446E+01 8.50816E-01 3.93181E-03 8.76878E-01 1.70174E-15 6.85057E-14
 -1      3731 1.87546E+01 6.98873E-01-6.03049E-03 1.25658E+00-1.45869E-13 8.81058E-14
 -1      3732 1.86997E+01 6.32643E-01 5.89117E-03 1.39118E+00-6.73336E-14 2.14927E-15
 -1      3733 1.85537E+01 8.32447E-01 4.11859E-03 1.09393E+00-1.64545E-13-1.06167E-13
 -1      3734 1.85208E+01 5.22401E-01-6.99062E-03 1.56200E+00-2.44686E-14 3.76475E-14
 -1      3735 1.85067E+01 3.78110E-01 1.05828E-02 1.73152E+00 7.88429E-15 6.56687E-14
 -1      3736 1.82260E+01 7.17777E-01 3.86337E-03 1.38168E+00-7.40625E-14-6.61021E-14
 -1      3737 1.83264E+01 1.66837E-01-7.05280E-03 1.96537E+00 3.88856E-14 1.67773E-13
 -1      3738 1.83907E+01-9.55290E-02 1.50248E-02 2.18129E+00 8.27679E-14 2.30772E-13
 -1      3739 1.78779E+01 4.53039E-01 2.70134E-03 1.77979E+00 3.55173E-14 1.35915E-13
 -1      3740 1.82463E+01-4.44226E-01-4.28395E-03 2.48653E+00 1.15492E-13 1.18584E-13
 -1      3741 1.84847E+01-8.98078E-01 6.98690E-03 2.76836E+00 1.87460E-13 1.59845E-13
 -1      3742 1.75879E+01-3.79734E-02 1.10813E-02 2.34858E+00 9.28983E-14 2.07677E-13
 -1      3743 2.00906E+01-5.05169E-02 4.66879E-04-1.18036E-01 2.00141E-14-1.13638E-14
 -1      3744 2.00995E+01-5.87409E-02-4.38078E-05-1.21730E-01 2.46621E-14-1.24396E-14
 -1      3745 2.02550E+01 1.36619E+00 1.80273E-03-5.39307E-01-1.07230E-13-2.12116E-13
 -1      3746 1.99495E+01-1.99731E+00-1.49708E-04-3.84775E+00 1.75399E-13-7.22165E-14
 -1      3747 2.00059E+01 8.22056E-02 5.68087E-04-1.35877E-01 6.06125E-14 5.23841E-14
 -1      3748 2.00122E+01 5.91097E-02-6.30184E-04-1.26384E-01 4.92984E-14 1.06700E-14
 -1      3749 2.00275E+01 3.85610E-02 5.45551E-04-1.20287E-01 5.12746E-14-7.74501E-14
 -1      3750 2.00334E+01 1.90257E-02-4.73667E-04-1.15485E-01 3.40103E-14-8.69165E-14
 -1      3751 2.00202E+01 5.50973E-02 8.96346E-05-1.14093E-01 4.70890E-14-5.20244E-14
 -1      3752 1.99506E+01 1.92075E-01 6.29703E-04-1.99328E-01-1.49987E-14 6.66371E-14
 -1      3753 1.99600E+01 1.61098E-01-1.01915E-03-1.77849E-01 3.56970E-15 7.34240E-14
 -1      3754 1.99121E+01 2.59100E-01 6.70096E-04-2.50603E-01 6.14451E-14 7.84153E-14
 -1      3755 1.99245E+01 2.23950E-01-1.26380E-03-2.21801E-01 5.15899E-14 7.46111E-14
 -1      3756 1.99119E+01 2.30298E-01 7.07705E-04-1.94559E-01 2.89397E-14 3.44861E-14
 -1      3757 1.98625E+01 3.33923E-01 7.19095E-04-3.17278E-01 6.03139E-14 6.96850E-14
 -1      3758 1.98790E+01 2.94876E-01-1.54664E-03-2.80263E-01 7.74088E-14 9.80603E-14
 -1      3759 1.98573E+01 3.06208E-01 9.85690E-04-2.44892E-01 6.16019E-14 6.98081E-14
 -1      3760 1.97990E+01 4.15011E-01 7.84591E-04-4.01156E-01-5.53365E-15 5.79688E-14
 -1      3761 1.98207E+01 3.73006E-01-1.86860E-03-3.55075E-01 5.50643E-14 5.64089E-14
 -1      3762 1.97877E+01 3.90414E-01 1.30498E-03-3.09775E-01 4.10008E-14 1.26960E-13
 -1      3763 1.97184E+01 4.98920E-01 8.87504E-04-5.04059E-01-2.24281E-14 3.81730E-15
 -1      3764 1.97463E+01 4.55951E-01-2.22885E-03-4.48119E-01-1.75692E-14-5.13166E-15
 -1      3765 1.96991E+01 4.80927E-01 1.66182E-03-3.91039E-01 1.74378E-14 1.04020E-13
 -1      3766 1.96186E+01 5.79316E-01 1.07413E-03-6.27918E-01-1.75988E-14 6.66061E-14
 -1      3767 1.96530E+01 5.38952E-01-2.62556E-03-5.61365E-01-1.16771E-14 3.76583E-14
 -1      3768 1.95877E+01 5.73617E-01 2.04223E-03-4.90745E-01-3.57500E-14 8.54061E-14
 -1      3769 1.94985E+01 6.45657E-01 1.43620E-03-7.75076E-01-1.95953E-14 1.13655E-13
 -1      3770 1.95387E+01 6.13738E-01-3.05614E-03-6.97084E-01-4.56501E-14 2.20467E-14
 -1      3771 1.94497E+01 6.61224E-01 2.41495E-03-6.11484E-01-2.84141E-14 2.90649E-14
 -1      3772 1.93606E+01 6.81440E-01 2.13856E-03-9.48941E-01-1.00027E-13 3.54561E-14
 -1      3773 1.94034E+01 6.66997E-01-3.51251E-03-8.58353E-01 7.44635E-15 1.31086E-13
 -1      3774 1.92826E+01 7.32051E-01 2.71868E-03-7.57039E-01-4.17015E-14 8.31619E-14
 -1      3775 1.92130E+01 6.61869E-01 3.43086E-03-1.15508E+00-1.38994E-13 1.96721E-14
 -1      3776 1.92510E+01 6.78367E-01-3.95960E-03-1.05001E+00-1.34687E-13 7.93898E-14
 -1      3777 1.90862E+01 7.68223E-01 2.83349E-03-9.33643E-01-8.58272E-14 1.40111E-13
 -1      3778 1.90745E+01 5.51098E-01 5.67783E-03-1.40238E+00-1.46274E-13-5.92104E-14
 -1      3779 1.90931E+01 6.17821E-01-4.28687E-03-1.27992E+00-1.88620E-13 6.22478E-15
 -1      3780 1.88649E+01 7.43159E-01 2.51000E-03-1.15192E+00-1.52352E-13 6.05544E-14
 -1      3781 1.89825E+01 2.99413E-01 9.40649E-03-1.70369E+00-1.53322E-13 1.42633E-13
 -1      3782 1.89549E+01 4.42926E-01-4.23532E-03-1.56025E+00-1.01481E-13 6.08287E-14
 -1      3783 1.86320E+01 6.18833E-01 1.35281E-03-1.42911E+00-1.83440E-13 8.24046E-14
 -1      3784 1.90001E+01-1.63072E-01 1.27447E-02-2.07453E+00-1.56176E-13 1.83702E-13
 -1      3785 1.88858E+01 9.53668E-02-3.14541E-03-1.90829E+00-9.43485E-14 1.97765E-13
 -1      3786 1.84160E+01 3.41914E-01-1.61273E-03-1.79233E+00-1.43068E-13 1.87020E-13
 -1      3787 1.93032E+01-9.21554E-01 1.80579E-02-2.49707E+00-1.03908E-13 4.15466E-16
 -1      3788 1.89847E+01-4.95811E-01 3.95626E-03-2.33298E+00-1.62930E-13 1.41594E-13
 -1      3789 1.82935E+01-1.75350E-01-6.71691E-03-2.28026E+00-8.82905E-14 1.55076E-13
 -1      3790 1.85614E+01-1.44924E+00 4.63011E-02-4.18424E+00 1.33192E-13 5.18727E-13
 -1      3791 2.03150E+01 3.13669E-01-1.83269E-03-1.05953E-02 1.05495E-13-9.13260E-14
 -1      3792 2.03396E+01 4.24144E-01 3.94376E-03 4.64509E-02 1.42568E-13-7.74438E-14
 -1      3793 1.56625E+01 4.51445E-01 1.63591E-02-2.59351E+00-1.09798E-13 2.96187E-13
 -1      3794 1.69225E+01 3.87537E-01 3.05347E-02 2.84527E+00-1.96103E-14-7.58933E-14
 -1      3795 2.03249E+01-2.81319E+00 5.86529E-02-3.40277E+00-6.96795E-14-1.70346E-13
 -1      3796 1.53098E+01 1.12389E+00 1.28717E-02 8.43054E-01-8.55089E-14 4.65369E-13
 -1      3797 2.02853E+01 1.50649E-01-1.13805E-03-8.02928E-02 4.14670E-14-1.40358E-13
 -1      3798 2.03074E+01 2.24786E-01 1.65943E-03-4.61199E-02 7.74087E-14-1.28649E-13
 -1      3799 2.03476E+01 3.07743E-01-1.95387E-04-1.57958E-02 1.16494E-13-9.27157E-14
 -1      3800 2.02590E+01 1.35009E+00 2.61595E-04-4.49719E-01-8.02939E-14-1.78352E-13
 -1      3801 2.03617E+01 4.16447E-01 2.20709E-03-3.12270E-02-1.17285E-14-1.53291E-13
 -1      3802 2.03429E+01 3.06501E-01-1.72733E-03 1.73108E-02-4.27683E-14-1.37659E-13
 -1      3803 2.03705E+01 2.96180E-01 3.29351E-04 2.12247E-02-3.71597E-14-1.17739E-13
 -1      3804 1.60157E+01 7.13155E-01-9.77578E-03 2.28796E+00 5.08057E-14-1.79318E-14
 -1      3805 2.02721E+01 9.56152E-01 2.05509E-03 4.64266E-01 1.81179E-13-7.30376E-14
 -1      3806 2.02862E+01 8.22588E-01 2.13119E-03 3.38023E-01 1.64933E-13-7.17832E-14
 -1      3807 2.11021E+01-1.47042E+00 2.19624E-02 3.02929E+00 2.26601E-13-1.24631E-13
 -1      3808 1.66501E+01 3.60279E-02 3.30824E-02-3.19098E+00-4.21017E-14 7.11174E-13
 -1      3809 2.03591E+01 7.13312E-01 5.04434E-03-1.45615E-01-3.01286E-14-1.41555E-13
 -1      3810 2.03520E+01 5.45808E-01-2.82004E-03-7.52545E-02-8.08936E-15-1.45740E-13
 -1      3811 2.03750E+01 5.26176E-01-2.66021E-03-5.31391E-02-2.06961E-14-1.54995E-13
 -1      3812 1.37294E+01 2.90138E-01 2.64873E-02-2.13315E+00 7.31960E-14-4.81726E-13
 -1      3813 1.47186E+01-2.88792E-01 1.16599E-04-2.90489E+00 1.35052E-13-3.56420E-13
 -1      3814 2.02524E+01 1.38195E+00-4.81513E-03 4.14140E-01 1.19639E-13-1.87549E-13
 -1      3815 2.02385E+01 1.48171E+00-1.29659E-03 3.45249E-01 1.09721E-13-2.16048E-13
 -1      3816 2.02983E+01 1.28280E+00 4.24282E-03 2.49984E-01 1.01327E-13-2.18149E-13
 -1      3817 2.03069E+01 1.11452E+00 3.65614E-03 3.36372E-01 1.05339E-13-1.44417E-13
 -1      3818 2.03055E+01 8.39050E-01 1.58487E-03 2.89309E-01 1.33191E-13-7.63980E-14
 -1      3819 1.69552E+01-7.81991E-01 2.13035E-02-3.83961E+00 1.46329E-13 7.45713E-13
 -1      3820 1.94446E+01-2.21399E+00 2.97826E-02-3.32664E+00-5.02723E-14-1.16765E-13
 -1      3821 1.99810E+01 1.33205E-01 5.95826E-04-1.61665E-01 4.92979E-14 7.43055E-14
 -1      3822 1.99884E+01 1.06298E-01-8.09655E-04-1.46617E-01 9.34058E-14 7.56539E-14
 -1      3823 1.99552E+01 1.63308E-01 4.69070E-04-1.57058E-01 4.52715E-14 8.05978E-14
 -1      3824 2.03308E+01 7.60608E-01 3.52251E-03 2.00575E-01 1.15545E-13-8.39857E-14
 -1      3825 2.03204E+01 9.17366E-01-2.24101E-03 2.74956E-01 1.10860E-13-1.23521E-13
 -1      3826 2.03253E+01 1.01886E+00 8.55578E-04 2.49898E-01 1.01681E-13-1.87389E-13
 -1      3827 2.03390E+01 9.86651E-01-2.36615E-03-1.54954E-01 3.38520E-15-1.55288E-13
 -1      3828 2.03366E+01 8.75630E-01-2.90194E-03-2.19137E-01-3.71168E-14-1.57597E-13
 -1      3829 2.02121E+01-1.93010E-02-1.49159E-04-1.36067E-01 1.24916E-14-1.23108E-13
 -1      3830 2.02310E+01 8.90269E-03 9.14217E-04-1.28531E-01-1.70694E-15-1.25249E-13
 -1      3831 2.01313E+01-6.51593E-02-4.15115E-04-1.12477E-01 2.58657E-14-6.73264E-14
 -1      3832 2.01157E+01-6.42404E-02 4.06873E-04-1.25911E-01 2.14810E-14-2.84353E-14
 -1      3833 2.01266E+01-6.70897E-02 1.33568E-04-1.30060E-01 1.29729E-14-3.14665E-14
 -1      3834 2.00756E+01-4.04646E-02-1.91070E-04-1.15009E-01 3.90733E-14-1.45111E-14
 -1      3835 2.01014E+01-4.81129E-02-3.10863E-04-1.06528E-01 4.21974E-14-3.98156E-14
 -1      3836 2.00683E+01-2.80279E-02 5.02121E-04-1.13110E-01 1.45273E-14-6.97686E-14
 -1      3837 1.74299E+01-1.19532E+00 2.52037E-02 3.32439E+00 2.51486E-13 4.04295E-14
 -1      3838 2.00477E+01 1.84141E-03 5.25411E-04-1.13253E-01 4.82460E-14-2.29122E-14
 -1      3839 2.00541E+01-1.42335E-02-3.31118E-04-1.12271E-01 2.67962E-14-2.55193E-14
 -1      3840 2.00738E+01-2.16530E-02-1.95175E-04-1.03574E-01 8.51968E-15-4.94707E-15
 -1      3841 1.99903E+01 1.05074E-01 2.64975E-04-1.30758E-01 5.37706E-14 9.94485E-14
 -1      3842 2.00473E+01 1.29038E-02-6.24018E-05-1.05543E-01 7.39428E-14 5.75352E-14
 -1      3843 1.89311E+01-1.55885E+00 2.13496E-02-3.11398E+00-5.25532E-14-6.60330E-14
 -1      3844 1.33207E+01 7.44988E-01 5.86985E-02 1.00270E+00 1.53072E-14-1.30857E-13
 -1      3845 1.37794E+01 8.54489E-01 1.01663E-02 3.78663E-01-2.15678E-14-1.84321E-13
 -1      3846 1.41966E+01 5.97139E-01-1.05930E-02 1.47711E+00 7.60607E-14-1.84592E-14
 -1      3847 1.38837E+01 8.13399E-01-6.56595E-03-6.96824E-01 1.07362E-14-4.46867E-13
 -1      3848 1.37353E+01 6.32568E-01 4.47932E-02-1.48797E+00 3.21765E-14-5.24400E-13
 -1      3849 1.47159E+01 5.51068E-01 1.11485E-02-1.68965E+00 2.21186E-14-5.34149E-13
 -1      3850 2.03256E+01 6.17143E-01-3.07100E-03 1.28179E-01 1.25111E-13-8.78242E-14
 -1      3851 2.02494E+01 4.48837E-02-5.57666E-04-1.19110E-01-1.13349E-14-1.30957E-13
 -1      3852 2.02706E+01 9.24550E-02 1.29843E-03-1.00799E-01 3.42543E-15-1.57594E-13
 -1      3853 2.02810E+01 3.78330E-02-4.40898E-04-1.06961E-01-7.38658E-15-1.41612E-13
 -1      3854 1.63674E+01-5.81180E-01 3.92152E-02 3.13534E+00 2.11983E-13 5.63525E-15
 -1      3855 1.58312E+01-5.91320E-02-2.79036E-04 2.52193E+00 1.17002E-13 3.71968E-14
 -1      3856 2.03188E+01 1.44152E-01-2.48002E-04-7.45274E-02 3.40617E-14-1.84282E-13
 -1      3857 1.56571E+01-1.39598E-01 2.69310E-02-2.68166E+00 5.92534E-14-3.15855E-13
 -1      3858 1.56709E+01-5.66399E-01 5.68024E-02-3.21928E+00 1.47488E-13-1.52198E-13
 -1      3859 1.67681E+01-1.06449E+00 1.59473E-02-3.37442E+00 8.27355E-14-2.80505E-14
 -1      3860 2.01140E+01-6.20175E-02-5.36136E-04-1.49329E-01 4.32734E-14-4.20828E-14
 -1      3861 2.01765E+01-5.36883E-02 1.25662E-04-1.39014E-01 4.22534E-14-8.76276E-14
 -1      3862 2.01928E+01-3.93809E-02 5.99281E-04-1.38242E-01 2.04752E-14-1.18624E-13
 -1      3863 2.02405E+01-2.61240E-02-5.55216E-04-1.21036E-01 1.34003E-14-1.50398E-13
 -1      3864 2.03539E+01 6.02150E-01-2.70850E-03 1.02269E-01 1.31826E-13-1.23550E-13
 -1      3865 2.03244E+01 1.07343E+00-3.72109E-03 2.13202E-01 1.01785E-13-2.24707E-13
 -1      3866 2.03214E+01 1.14522E+00-7.90684E-04 1.67676E-01 1.05686E-13-2.40328E-13
 -1      3867 2.03639E+01 9.02233E-01 4.91293E-03 1.65906E-01 1.07596E-13-2.04229E-13
 -1      3868 2.03203E+01 1.17459E+00-3.42069E-03 1.24619E-01 1.15073E-13-2.01142E-13
 -1      3869 2.03177E+01 1.20225E+00-3.78958E-03 6.27299E-02 9.28831E-14-1.59334E-13
 -1      3870 2.03662E+01 1.00353E+00 4.63886E-03 1.00474E-01 1.15648E-13-2.06131E-13
 -1      3871 2.03380E+01 1.05920E+00-4.80188E-03-7.34005E-02 1.10557E-14-1.61607E-13
 -1      3872 2.03387E+01 1.02353E+00-6.24869E-03-1.27942E-01-3.23445E-15-1.40464E-13
 -1      3873 2.04027E+01 7.30092E-01 8.16309E-03-8.96755E-02-1.34045E-15-1.51379E-13
 -1      3874 2.03421E+01 1.23089E-01-8.71284E-04-7.19258E-02 3.13082E-14-2.09521E-13
 -1      3875 2.03614E+01 1.94062E-01 9.23471E-04-4.89092E-02 9.53803E-14-1.75159E-13
 -1      3876 2.03791E+01 1.77981E-01 6.67843E-04 4.50372E-02-1.49418E-15-9.96466E-14
 -1      3877 2.03602E+01 1.09382E-01-7.03788E-04 6.35806E-02 4.18479E-14-7.99045E-14
 -1      3878 1.99755E+01 1.26710E-01 3.33682E-04-1.18826E-01 5.13848E-14 7.82903E-14
 -1      3879 1.99909E+01 9.77437E-02-6.58334E-04-1.08588E-01 5.81499E-14 3.91108E-14
 -1      3880 2.03429E+01 5.54653E-02 6.19116E-04 7.16204E-02 1.71367E-14-8.38068E-14
 -1      3881 2.03211E+01 1.25003E-02-2.74986E-04 8.13338E-02-1.73840E-14-8.76093E-14
 -1      3882 2.03733E+01 9.44330E-02-9.80350E-05 5.09386E-02 1.89280E-14-7.01542E-14
 -1      3883 2.02995E+01-1.96163E-02 4.77428E-04 8.41523E-02-3.00506E-14-5.09101E-14
 -1      3884 2.02773E+01-4.35116E-02 4.62170E-06 8.79175E-02-2.03878E-14-2.82996E-14
 -1      3885 2.03316E+01 1.84675E-03-3.55863E-04 6.36235E-02 8.83852E-15-4.39939E-14
 -1      3886 2.02542E+01-5.96515E-02 3.51934E-04 8.76048E-02-2.90238E-14-6.49542E-14
 -1      3887 2.02331E+01-6.97002E-02 1.87323E-04 8.77776E-02-1.59784E-15-6.46391E-14
 -1      3888 2.02854E+01-5.02501E-02-4.54085E-04 6.82463E-02-3.64800E-14-1.56722E-14
 -1      3889 2.02102E+01-7.43046E-02 2.21101E-04 8.58427E-02-4.10204E-15-7.60083E-14
 -1      3890 2.01909E+01-7.43168E-02 2.93772E-04 8.42431E-02-6.10165E-14-7.36379E-14
 -1      3891 2.02389E+01-7.29811E-02-4.82417E-04 6.79849E-02-2.37159E-14-1.18332E-13
 -1      3892 2.01688E+01-7.04050E-02 8.98831E-05 8.17933E-02-3.79173E-14-1.60182E-14
 -1      3893 2.01512E+01-6.29329E-02 3.44251E-04 7.98994E-02-1.55527E-14 3.10787E-14
 -1      3894 2.01942E+01-7.42522E-02-4.59239E-04 6.54003E-02-9.34696E-15-1.09843E-14
 -1      3895 2.01301E+01-5.26227E-02-3.65030E-05 7.79074E-02-3.90799E-14-1.14664E-14
 -1      3896 2.01139E+01-3.93823E-02 3.53490E-04 7.68262E-02-2.42622E-14-2.35637E-14
 -1      3897 2.01520E+01-5.93700E-02-3.69999E-04 6.24278E-02-1.85463E-14 6.81409E-15
 -1      3898 2.00935E+01-2.39648E-02-1.67960E-04 7.59811E-02-1.22063E-14-4.19183E-14
 -1      3899 2.00780E+01-5.92234E-03 3.36870E-04 7.65866E-02-3.38831E-14-2.40962E-14
 -1      3900 2.01118E+01-3.20824E-02-2.35961E-04 6.06937E-02-3.29498E-14-9.37300E-14
 -1      3901 2.00574E+01 1.39492E-02-3.12053E-04 7.74599E-02-5.97513E-14-2.74689E-14
 -1      3902 2.00417E+01 3.63858E-02 3.03010E-04 8.04868E-02-6.26026E-14-3.19567E-14
 -1      3903 2.00723E+01 5.49462E-03-7.01096E-05 6.13762E-02-2.70161E-14-8.55996E-14
 -1      3904 2.00197E+01 6.05187E-02-4.74270E-04 8.35907E-02-5.80310E-14-7.31531E-15
 -1      3905 2.00028E+01 8.73315E-02 2.56698E-04 8.96976E-02-4.72970E-14 5.31444E-14
 -1      3906 2.00317E+01 5.24418E-02 1.26767E-04 6.55030E-02-3.64351E-14 1.67653E-14
 -1      3907 1.99780E+01 1.15841E-01-6.61165E-04 9.55222E-02 2.85076E-15 1.23522E-13
 -1      3908 1.99584E+01 1.47252E-01 1.99976E-04 1.05338E-01 5.37768E-14 1.58099E-13
 -1      3909 1.99871E+01 1.08660E-01 3.57742E-04 7.40041E-02 4.02274E-14 1.09173E-13
 -1      3910 1.99289E+01 1.80410E-01-8.79307E-04 1.14382E-01 1.96298E-14 1.62799E-13
 -1      3911 1.99052E+01 2.16723E-01 1.32974E-04 1.28533E-01 8.49470E-15 2.21680E-13
 -1      3912 1.99355E+01 1.74558E-01 6.28365E-04 8.77767E-02 4.03026E-14 1.47088E-13
 -1      3913 1.98690E+01 2.54798E-01-1.13534E-03 1.41328E-01-2.91609E-14 1.77784E-13
 -1      3914 1.98393E+01 2.96226E-01 5.49842E-05 1.60459E-01-4.20882E-14 1.23748E-13
 -1      3915 1.98731E+01 2.50721E-01 9.46050E-04 1.07732E-01-5.36633E-14 9.26822E-14
 -1      3916 1.97940E+01 3.39291E-01-1.43667E-03 1.77583E-01 1.28165E-14 1.22951E-13
 -1      3917 1.97562E+01 3.85750E-01-3.39469E-05 2.02361E-01 7.54279E-14 1.23578E-13
 -1      3918 1.97954E+01 3.37560E-01 1.31964E-03 1.34829E-01-1.30800E-14 5.35779E-14
 -1      3919 1.96991E+01 4.33455E-01-1.79307E-03 2.24465E-01 4.96896E-14 1.02457E-13
 -1      3920 1.96509E+01 4.84318E-01-1.30508E-04 2.55607E-01-5.92392E-15 3.59456E-14
 -1      3921 1.96975E+01 4.34894E-01 1.75939E-03 1.70111E-01 2.77461E-14-5.71036E-14
 -1      3922 1.95790E+01 5.35615E-01-2.22024E-03 2.83458E-01-1.64822E-14 5.32939E-14
 -1      3923 1.95181E+01 5.89415E-01-2.23989E-04 3.21784E-01-4.46708E-14 9.92893E-14
 -1      3924 1.95737E+01 5.41476E-01 2.27770E-03 2.14765E-01 2.52788E-14-1.01486E-14
 -1      3925 1.94277E+01 6.42214E-01-2.74645E-03 3.56367E-01-1.57024E-14 1.20669E-13
 -1      3926 1.93517E+01 6.96290E-01-2.89413E-04 4.02944E-01 6.39693E-14 1.23533E-13
 -1      3927 1.94176E+01 6.54439E-01 2.89147E-03 2.70264E-01 5.26376E-15 3.58913E-14
 -1      3928 1.92389E+01 7.47059E-01-3.42425E-03 4.45683E-01 3.73706E-14 1.71595E-13
 -1      3929 1.91455E+01 7.97164E-01-2.75813E-04 5.02128E-01 1.26481E-13 1.91596E-13
 -1      3930 1.92220E+01 7.68693E-01 3.62706E-03 3.38669E-01 6.40497E-14 2.45569E-14
 -1      3931 1.90054E+01 8.40457E-01-4.34930E-03 5.55316E-01 1.01393E-13 3.97076E-14
 -1      3932 1.88928E+01 8.80304E-01-8.53668E-05 6.24390E-01 7.64060E-14 2.57073E-14
 -1      3933 1.89786E+01 8.76296E-01 4.52923E-03 4.23251E-01 5.36213E-14 2.89872E-14
 -1      3934 1.87193E+01 9.08198E-01-5.68567E-03 6.92017E-01 2.13023E-14-4.54614E-14
 -1      3935 1.85871E+01 9.28908E-01 4.54658E-04 7.78641E-01-5.12536E-14-1.02430E-13
 -1      3936 1.86773E+01 9.65849E-01 5.67092E-03 5.29690E-01 1.46419E-14-1.68877E-13
 -1      3937 1.83720E+01 9.30240E-01-7.68639E-03 8.67825E-01-1.39417E-13-8.28484E-14
 -1      3938 1.82218E+01 9.19432E-01 1.52644E-03 9.80719E-01-1.72168E-13-4.44841E-14
 -1      3939 1.83052E+01 1.02173E+00 7.13024E-03 6.68319E-01-1.08930E-13-7.20873E-14
 -1      3940 1.79542E+01 8.79200E-01-1.05943E-02 1.10314E+00-5.31085E-14-3.22975E-14
 -1      3941 1.77921E+01 8.21291E-01 4.11646E-03 1.25715E+00 7.95112E-14 4.41545E-14
 -1      3942 1.78456E+01 1.02221E+00 8.88788E-03 8.57432E-01-3.02538E-14-7.44153E-15
 -1      3943 1.74541E+01 7.17292E-01-1.49470E-02 1.43593E+00 8.47317E-14 1.11311E-13
 -1      3944 1.72920E+01 5.82925E-01 6.62399E-03 1.65729E+00 1.05385E-13 1.74071E-13
 -1      3945 1.72721E+01 9.40426E-01 1.07646E-02 1.12615E+00 1.63401E-13 1.53733E-13
 -1      3946 1.78033E+01-1.08648E+00-5.99121E-03-3.16291E+00-3.75364E-14-3.89445E-14
 -1      3947 2.03417E+01 1.08672E+00-2.74017E-03 1.74963E-02 6.18994E-14-1.43195E-13
 -1      3948 2.03422E+01 1.08097E+00-3.65267E-03-3.95000E-02 2.04006E-14-1.58612E-13
 -1      3949 2.04106E+01 7.91875E-01 6.01525E-03-4.30848E-02 9.74080E-15-1.48118E-13
 -1      3950 2.00131E+01 7.15900E-02 3.64993E-04-1.02219E-01 4.04696E-14 4.04575E-14
 -1      3951 2.00266E+01 4.69273E-02-4.77659E-04-9.61249E-02 5.46785E-14 2.72686E-14
 -1      3952 1.99992E+01 9.18778E-02 2.74644E-04-8.95883E-02 5.43002E-14 9.66530E-14
 -1      3953 1.98061E+01 3.47251E-01 2.11322E-04-2.26110E-01 2.14898E-14 6.41204E-14
 -1      3954 1.98360E+01 3.04057E-01-1.40012E-03-1.99063E-01 6.75283E-14 7.99740E-14
 -1      3955 1.98757E+01 2.64248E-01 2.56296E-04-1.79370E-01 6.05649E-14 3.89244E-14
 -1      3956 1.98991E+01 2.25857E-01-1.11300E-03-1.58675E-01 5.26589E-14 1.34615E-14
 -1      3957 1.98318E+01 3.05548E-01 1.14441E-03-1.60563E-01 5.17753E-14-1.54645E-14
 -1      3958 1.96062E+01 5.37159E-01 1.35363E-04-3.60274E-01 4.40397E-14 6.63149E-14
 -1      3959 1.96548E+01 4.86744E-01-2.13287E-03-3.18104E-01 2.08953E-14 7.05513E-14
 -1      3960 1.94662E+01 6.37345E-01 1.45349E-04-4.51450E-01-6.50486E-14 6.80679E-14
 -1      3961 1.95270E+01 5.86504E-01-2.60726E-03-4.00290E-01-1.81597E-14 3.42208E-14
 -1      3962 1.95027E+01 6.04011E-01 2.54626E-03-3.22282E-01 9.35062E-15 1.25036E-13
 -1      3963 1.92932E+01 7.31979E-01 2.54373E-04-5.62186E-01-3.41736E-14 2.88671E-14
 -1      3964 1.93676E+01 6.84873E-01-3.19390E-03-5.00649E-01-2.73587E-14 9.80620E-14
 -1      3965 1.93322E+01 7.12208E-01 3.17323E-03-4.03963E-01-5.98861E-14 2.44241E-14
 -1      3966 1.90829E+01 8.09310E-01 5.74183E-04-6.96918E-01-7.99274E-14 8.92266E-14
 -1      3967 1.91715E+01 7.72296E-01-3.95567E-03-6.22762E-01-6.00604E-14 5.43528E-14
 -1      3968 1.91207E+01 8.13891E-01 3.90166E-03-5.04234E-01-8.40394E-14 1.43792E-13
 -1      3969 1.88325E+01 8.52034E-01 1.32983E-03-8.63282E-01-7.45840E-14 1.62945E-13
 -1      3970 1.89339E+01 8.34344E-01-4.99762E-03-7.72586E-01-8.65113E-14 1.36721E-13
 -1      3971 1.88610E+01 8.97195E-01 4.75896E-03-6.28659E-01-9.46232E-14 5.45755E-14
 -1      3972 1.85426E+01 8.35116E-01 2.86116E-03-1.07487E+00-1.87028E-13 9.40294E-14
 -1      3973 1.86515E+01 8.50081E-01-6.45479E-03-9.60762E-01-1.12688E-13 1.76056E-13
 -1      3974 1.85450E+01 9.45356E-01 5.78288E-03-7.87246E-01-8.35055E-14 1.67037E-13
 -1      3975 1.82202E+01 7.22721E-01 5.68164E-03-1.35428E+00-1.71100E-13 5.24500E-14
 -1      3976 1.83248E+01 7.89053E-01-8.41053E-03-1.20571E+00-1.94621E-13 2.13317E-14
 -1      3977 1.81640E+01 9.34106E-01 6.93117E-03-9.98670E-01-1.78773E-13 8.55409E-14
 -1      3978 1.78847E+01 4.65503E-01 1.05954E-02-1.73588E+00-1.28803E-13 2.86024E-14
 -1      3979 1.79622E+01 6.08920E-01-1.07871E-02-1.53578E+00-1.56804E-13 3.45875E-14
 -1      3980 1.77144E+01 8.30485E-01 9.75590E-03-1.29305E+00-1.73368E-13-1.09077E-13
 -1      3981 1.75703E+01-9.65994E-03 1.50962E-02-2.28711E+00-1.36811E-13 4.21798E-14
 -1      3982 1.75762E+01 2.60718E-01-1.25885E-02-2.00189E+00-1.12442E-13 1.61875E-14
 -1      3983 1.71836E+01 5.93197E-01 1.48693E-02-1.72565E+00-1.27434E-13-2.67648E-13
 -1      3984 2.03043E+01 2.27431E-02-3.71814E-04-9.53036E-02-2.93808E-14-2.00255E-13
 -1      3985 2.03259E+01 6.74255E-02 8.09744E-04-8.32106E-02-1.40406E-14-2.00702E-13
 -1      3986 2.03615E+01 1.10147E-01-1.45512E-04-6.13459E-02-8.55325E-16-1.49924E-13
 -1      3987 2.03954E+01 5.65816E-01-9.24040E-04-4.40279E-02-1.33399E-14-1.56781E-13
 -1      3988 2.03697E+01 2.79747E-01-1.39683E-03-2.78388E-02 1.26865E-13-1.88116E-13
 -1      3989 2.03833E+01 3.80578E-01-8.95326E-04 1.11695E-02 1.34886E-13-1.67448E-13
 -1      3990 2.03918E+01 2.63083E-01 4.26424E-04-2.71389E-02 1.01785E-13-1.86801E-13
 -1      3991 2.04026E+01 3.62978E-01 1.41623E-03-7.69743E-04-1.32095E-14-1.57651E-13
 -1      3992 2.03884E+01 2.60594E-01-1.47625E-03 3.02261E-02-2.79285E-14-1.41451E-13
 -1      3993 2.04045E+01 2.40418E-01 2.20236E-04 2.63007E-02 7.66270E-15-1.29746E-13
 -1      3994 1.67135E+01 1.07124E-01-3.75781E-03 2.26578E+00 3.17012E-14 4.52121E-14
 -1      3995 1.52423E+01 5.01424E-01 4.38454E-02 1.97012E+00 6.45768E-14-9.41087E-15
 -1      3996 1.52381E+01 7.05023E-01-5.04020E-03 1.41298E+00 1.44815E-14 7.47319E-14
 -1      3997 1.68524E+01 3.87156E-01-2.20385E-02 1.91582E+00 1.43661E-14 6.93396E-14
 -1      3998 2.03691E+01 6.62060E-01-1.41629E-03 8.61068E-02 1.13542E-13-1.69212E-13
 -1      3999 1.99308E+01 1.90762E-01 2.97383E-04-1.44088E-01 5.55854E-14 3.22017E-14
 -1      4000 1.99495E+01 1.57200E-01-8.67897E-04-1.28988E-01 7.66667E-14 6.47574E-14
 -1      4001 1.99539E+01 1.53227E-01 5.19252E-04-1.05322E-01 5.97785E-14 6.06443E-14
 -1      4002 1.97179E+01 4.38975E-01 1.66837E-04-2.85844E-01 1.65149E-14 3.24628E-14
 -1      4003 1.97561E+01 3.91504E-01-1.73658E-03-2.51659E-01 5.74261E-14 7.17105E-14
 -1      4004 1.97467E+01 3.96894E-01 1.54131E-03-2.02522E-01 3.85565E-14-7.86514E-15
 -1      4005 2.01443E+01-6.66501E-02 3.05233E-04-1.34036E-01 2.90498E-14-5.03279E-14
 -1      4006 2.01577E+01-6.23431E-02 3.42792E-04-1.36911E-01 5.69062E-14-4.46654E-14
 -1      4007 2.02011E+01-5.93503E-02-5.61407E-04-1.23280E-01 2.82244E-14-8.99023E-14
 -1      4008 2.01645E+01-7.02925E-02-5.12785E-04-1.19113E-01 1.46157E-14 2.03909E-15
 -1      4009 2.00465E+01 2.48619E-02 3.90103E-04-9.29482E-02 6.76902E-14-2.33975E-14
 -1      4010 2.00594E+01 4.31663E-03-3.18767E-04-9.02779E-02 2.02436E-14 8.90135E-15
 -1      4011 2.00388E+01 3.96905E-02 6.57073E-05-8.02539E-02 1.59083E-14 2.15919E-14
 -1      4012 2.03947E+01 5.30876E-01 2.83290E-03 3.95374E-02 1.19963E-13-1.88507E-13
 -1      4013 2.03854E+01 7.85113E-01-3.22309E-03 8.99565E-02 1.03362E-13-2.33814E-13
 -1      4014 2.03845E+01 8.21417E-01-3.14116E-03 5.57753E-02 1.03039E-13-1.84043E-13
 -1      4015 2.04086E+01 5.04075E-01 1.76169E-03 2.42336E-02 1.00889E-13-2.34441E-13
 -1      4016 1.65615E+01 7.30882E-01 1.68303E-02 1.53262E+00 1.45163E-14 1.93552E-14
 -1      4017 1.96388E+01 4.97267E-01 2.00568E-03-2.55871E-01 3.46361E-14 5.12616E-14
 -1      4018 2.00755E+01-3.66908E-03-1.12861E-04-7.61993E-02 1.44510E-14-3.03453E-14
 -1      4019 2.00783E+01-1.37329E-02 4.05548E-04-8.96979E-02-3.39605E-15 1.26808E-14
 -1      4020 2.00914E+01-3.00912E-02-1.74310E-04-8.96920E-02-1.29776E-14-6.82545E-15
 -1      4021 1.98994E+01 2.24302E-01 8.06517E-04-1.28586E-01 6.75979E-14 3.70077E-14
 -1      4022 2.02836E+01-1.07249E-02 6.18048E-04-9.99642E-02-3.06712E-14-1.84313E-13
 -1      4023 2.03209E+01 1.29245E-02-4.04928E-04-7.90736E-02-3.82586E-14-2.08078E-13
 -1      4024 2.02625E+01-3.63506E-02-1.93823E-05-1.04857E-01-9.27925E-15-1.36342E-13
 -1      4025 1.42587E+01 9.86772E-01 3.58773E-02-1.29888E-01 3.10906E-15-3.24073E-13
 -1      4026 1.48674E+01 9.59037E-01-1.23922E-03-5.15095E-01-7.97582E-15-4.14621E-13
 -1      4027 1.47252E+01 9.59564E-01-1.20770E-02 4.23908E-01 1.69743E-14-1.31982E-13
 -1      4028 1.59641E+01 3.51351E-01 3.51630E-02-2.13645E+00-6.63285E-14-2.69929E-13
 -1      4029 1.65905E+01-2.88750E-02-1.16680E-02-2.45477E+00-7.39907E-14-1.26774E-13
 -1      4030 2.04106E+01 5.32398E-01-1.39167E-04-2.75813E-02-1.30303E-14-1.58375E-13
 -1      4031 2.01443E+01-6.43644E-02 3.74356E-04-9.55097E-02 1.15862E-14-5.29521E-14
 -1      4032 2.01602E+01-7.03884E-02 1.32481E-04-9.80730E-02 1.86497E-14-6.51624E-14
 -1      4033 2.01104E+01-4.38777E-02 4.04069E-04-9.10799E-02 1.34540E-14-2.96626E-14
 -1      4034 2.01245E+01-5.55762E-02-3.73727E-05-9.28802E-02 1.70770E-14-6.11886E-14
 -1      4035 2.01118E+01-3.79901E-02-2.63682E-04-7.62588E-02-1.13331E-14-2.53729E-14
 -1      4036 1.57411E+01 5.94620E-01-9.86473E-03-1.61600E+00-8.88725E-14-4.15958E-13
 -1      4037 2.01493E+01-6.21957E-02-3.87355E-04-7.91421E-02-6.83327E-16-4.28135E-14
 -1      4038 1.96919E+01 4.34568E-01-4.70160E-04-1.67143E-01-1.11129E-14 3.73362E-14
 -1      4039 1.97396E+01 3.84477E-01-1.51484E-03-1.46093E-01 1.35624E-14 5.50949E-15
 -1      4040 1.59911E+01 8.00405E-01-3.82897E-03 1.28868E+00-2.85663E-14 5.74076E-14
 -1      4041 1.52538E+01 9.83823E-01 2.87150E-02 8.65515E-01 2.67256E-15 4.27659E-14
 -1      4042 1.55090E+01 1.03784E+00-9.89047E-03 4.25735E-01 4.59806E-14-1.39446E-13
 -1      4043 1.63825E+01 9.13570E-01-2.19933E-02 1.06136E+00 4.86657E-14 2.10362E-14
 -1      4044 1.73304E+01-4.79978E-01-1.07541E-02-2.76254E+00-8.29144E-14 1.10766E-14
 -1      4045 2.03584E+01 2.08776E-02 2.33809E-04 4.09530E-02 6.03725E-14-8.96940E-14
 -1      4046 2.03356E+01-1.46066E-02 6.94028E-05 4.64745E-02 4.46980E-14-4.57533E-14
 -1      4047 2.03119E+01-4.11511E-02 2.88538E-04 4.61544E-02-3.48191E-14-4.40079E-14
 -1      4048 2.02881E+01-5.93954E-02 1.61938E-04 4.82235E-02-5.51469E-14-3.76068E-14
 -1      4049 2.03330E+01-2.56162E-02-6.20067E-04 2.58804E-02 6.00081E-15-1.15964E-13
 -1      4050 2.02635E+01-7.07967E-02 2.49104E-04 4.73248E-02-5.61002E-14-2.72145E-14
 -1      4051 2.02409E+01-7.63708E-02 4.02061E-04 4.76963E-02-3.76792E-14-6.34508E-14
 -1      4052 2.02837E+01-6.46885E-02-6.34206E-04 2.66663E-02-5.12020E-14-6.05087E-14
 -1      4053 2.02162E+01-7.70822E-02 1.72004E-04 4.56183E-02 1.83554E-14-6.80123E-14
 -1      4054 2.01945E+01-7.30233E-02 3.82664E-04 4.52859E-02 2.61180E-14-4.02469E-14
 -1      4055 2.02358E+01-7.82807E-02-8.21439E-04 2.54962E-02-1.95848E-14-8.70377E-14
 -1      4056 2.01710E+01-6.55146E-02 1.22932E-04 4.36662E-02-5.73821E-14-3.50549E-14
 -1      4057 2.01505E+01-5.43932E-02 3.59448E-04 4.33590E-02-8.72302E-14-8.62724E-14
 -1      4058 2.01882E+01-7.08292E-02-8.26790E-04 2.47351E-02-1.30139E-15-1.29923E-13
 -1      4059 2.01278E+01-4.06895E-02 2.80890E-06 4.22131E-02-4.79483E-14-5.56017E-14
 -1      4060 2.01081E+01-2.38809E-02 3.04337E-04 4.25390E-02-4.72504E-15-7.30131E-14
 -1      4061 2.01433E+01-4.84922E-02-5.94252E-04 2.40584E-02-5.58185E-14-9.94868E-14
 -1      4062 2.00856E+01-4.97229E-03-1.34083E-04 4.21649E-02 2.07302E-14-9.33158E-14
 -1      4063 2.00659E+01 1.67919E-02 2.31681E-04 4.36444E-02-2.20445E-14-3.29091E-14
 -1      4064 2.00997E+01-1.41334E-02-2.78970E-04 2.40250E-02 5.89982E-15-9.00879E-14
 -1      4065 2.00423E+01 4.04284E-02-2.94780E-04 4.42840E-02-9.84583E-15 3.37553E-14
 -1      4066 2.00215E+01 6.69245E-02 1.43587E-04 4.73657E-02 1.13643E-14 8.72641E-14
 -1      4067 2.00555E+01 3.06396E-02 1.00426E-04 2.51458E-02 4.68242E-14-9.38365E-14
 -1      4068 1.99956E+01 9.52304E-02-4.83641E-04 4.92455E-02 5.46418E-14 8.87500E-14
 -1      4069 1.99721E+01 1.26576E-01 3.96622E-05 5.43325E-02 1.20720E-13 1.07851E-13
 -1      4070 2.00084E+01 8.52905E-02 5.47895E-04 2.78247E-02 6.09283E-14 1.38713E-14
 -1      4071 1.99420E+01 1.59752E-01-7.05893E-04 5.76877E-02 3.15463E-14 1.13614E-13
 -1      4072 1.99142E+01 1.96245E-01-8.28318E-05 6.51605E-02-1.87216E-14 4.58621E-14
 -1      4073 1.99551E+01 1.50002E-01 1.07610E-03 3.24324E-02 5.45652E-14-3.11627E-14
 -1      4074 1.98778E+01 2.34587E-01-9.67892E-04 7.02507E-02-6.04307E-14 9.83880E-14
 -1      4075 1.98436E+01 2.76534E-01-2.28390E-04 8.04821E-02-7.54508E-14 5.15311E-14
 -1      4076 1.98919E+01 2.25338E-01 1.70365E-03 3.93365E-02-3.00324E-16-4.36469E-14
 -1      4077 1.97985E+01 3.20255E-01-1.27755E-03 8.76031E-02-3.79003E-14 6.59449E-14
 -1      4078 1.97555E+01 3.67784E-01-4.02645E-04 1.00969E-01 1.13312E-14 1.28631E-14
 -1      4079 1.98143E+01 3.11899E-01 2.45478E-03 4.89197E-02-5.18462E-14 5.10389E-14
 -1      4080 1.96988E+01 4.16808E-01-1.64564E-03 1.10467E-01 3.42425E-15-4.34680E-14
 -1      4081 1.96444E+01 4.69652E-01-6.11694E-04 1.27359E-01-1.53867E-14-7.92611E-14
 -1      4082 1.97173E+01 4.09940E-01 3.36072E-03 6.15963E-02-4.53452E-14 3.32448E-15
 -1      4083 1.95730E+01 5.23383E-01-2.08888E-03 1.39652E-01 5.23804E-14-5.38987E-14
 -1      4084 1.95041E+01 5.80635E-01-8.61380E-04 1.60517E-01 5.14399E-14-3.37478E-14
 -1      4085 1.95949E+01 5.18955E-01 4.46364E-03 7.78375E-02 4.75641E-14-7.76407E-14
 -1      4086 1.94143E+01 6.37686E-01-2.63614E-03 1.76140E-01 2.22664E-14-4.31501E-14
 -1      4087 1.93275E+01 6.97539E-01-1.15675E-03 2.01560E-01 4.38631E-14 2.80049E-16
 -1      4088 1.94403E+01 6.37225E-01 5.82545E-03 9.82217E-02 6.64860E-14-1.42888E-13
 -1      4089 1.92146E+01 7.55447E-01-3.34036E-03 2.21253E-01 3.56466E-14-5.26789E-14
 -1      4090 1.91061E+01 8.14931E-01-1.50272E-03 2.52129E-01 6.85543E-14-7.06800E-14
 -1      4091 1.92457E+01 7.61361E-01 7.54432E-03 1.23539E-01-1.25119E-14-2.47606E-14
 -1      4092 1.89648E+01 8.69879E-01-4.30040E-03 2.77008E-01 7.21758E-14-4.61343E-14
 -1      4093 1.88300E+01 9.24652E-01-1.90911E-03 3.14925E-01 5.42480E-14-5.03614E-14
 -1      4094 1.90018E+01 8.85925E-01 9.78258E-03 1.54996E-01 5.63058E-14-5.23128E-14
 -1      4095 1.86527E+01 9.71244E-01-5.70037E-03 3.46798E-01 1.05874E-14-1.32464E-13
 -1      4096 1.84861E+01 1.01546E+00-2.40480E-03 3.94728E-01-1.88222E-14-1.91171E-13
 -1      4097 1.86965E+01 1.00321E+00 1.28012E-02 1.94570E-01 3.75251E-14-2.45513E-13
 -1      4098 1.82617E+01 1.04669E+00-7.86288E-03 4.36725E-01-4.54295E-14-1.83713E-13
 -1      4099 1.80561E+01 1.07286E+00-3.00268E-03 5.00351E-01-8.67884E-14-1.51388E-13
 -1      4100 1.83135E+01 1.10324E+00 1.69319E-02 2.45538E-01-2.12783E-14-3.04141E-13
 -1      4101 1.77671E+01 1.08051E+00-1.11832E-02 5.58758E-01-1.18655E-13-1.09465E-13
 -1      4102 1.75153E+01 1.07881E+00-2.98056E-03 6.48565E-01 5.67442E-14-9.71446E-14
 -1      4103 1.78260E+01 1.17344E+00 2.18931E-02 3.13099E-01-2.39356E-14-2.36835E-13
 -1      4104 1.71366E+01 1.05337E+00-1.47754E-02 7.36856E-01 2.14924E-13-3.51751E-14
 -1      4105 1.68358E+01 1.01604E+00 3.62657E-03 8.73090E-01 2.16375E-13 3.93302E-14
 -1      4106 1.71797E+01 1.18795E+00 2.03315E-02 4.03966E-01 1.71088E-13-1.62090E-13
 -1      4107 1.97912E+01 3.37741E-01-2.97393E-04-1.32462E-01 1.12398E-14 7.08433E-15
 -1      4108 1.98289E+01 2.92850E-01-1.16875E-03-1.15963E-01 4.96373E-14-1.25362E-14
 -1      4109 1.97498E+01 3.80989E-01 2.77148E-03-9.80722E-02-8.13574E-15 1.67881E-13
 -1      4110 2.03905E+01 9.21304E-01 4.75393E-03 1.84447E-02 7.21102E-14-1.36434E-13
 -1      4111 1.99858E+01 1.09831E-01 1.00245E-04-7.22989E-02 6.70288E-14 6.29581E-14
 -1      4112 2.00066E+01 8.04304E-02-4.38792E-04-6.64035E-02 1.00006E-13 7.63343E-14
 -1      4113 2.04226E+01 2.91873E-01-3.08887E-04 8.11352E-03 1.56863E-14-1.05056E-13
 -1      4114 2.04106E+01 2.01321E-01-8.36266E-04 2.63414E-02 3.34838E-14-8.00036E-14
 -1      4115 1.92103E+01 7.65612E-01-1.07562E-03-3.32015E-01-8.58400E-14 1.79117E-13
 -1      4116 1.93049E+01 7.08432E-01-3.14146E-03-2.93176E-01-4.77689E-15 1.64793E-13
 -1      4117 1.94082E+01 6.52581E-01-8.68948E-04-2.65231E-01 1.32996E-15 2.03411E-13
 -1      4118 1.94842E+01 5.95312E-01-2.46412E-03-2.33231E-01 4.33285E-14 1.75080E-13
 -1      4119 1.93164E+01 7.19921E-01 6.32165E-03-1.96296E-01 3.02414E-14 2.16685E-13
 -1      4120 1.86607E+01 9.58477E-01-1.38980E-03-5.17660E-01-4.39127E-14 6.41077E-14
 -1      4121 1.88026E+01 9.16229E-01-5.35313E-03-4.58742E-01-8.50316E-14 8.36868E-14
 -1      4122 1.82861E+01 1.01104E+00-1.42494E-03-6.51466E-01-1.01005E-13 1.27467E-13
 -1      4123 1.84576E+01 9.87340E-01-7.31375E-03-5.75197E-01-1.40318E-14 1.43179E-13
 -1      4124 1.84642E+01 1.05123E+00 1.38161E-02-3.87816E-01-6.78127E-14 3.86089E-14
 -1      4125 1.78242E+01 1.00962E+00-4.76845E-04-8.33812E-01-1.06081E-13-7.02295E-14
 -1      4126 1.80276E+01 1.01480E+00-1.03247E-02-7.29071E-01-1.03289E-13 4.97900E-14
 -1      4127 1.80273E+01 1.11691E+00 1.83030E-02-4.92560E-01 7.71301E-15-2.26446E-14
 -1      4128 1.72454E+01 9.17340E-01-2.31154E-03-1.10228E+00-5.05387E-14-2.57963E-13
 -1      4129 1.74854E+01 9.69374E-01-1.67835E-02-9.48182E-01-5.14059E-14-1.65102E-13
 -1      4130 1.74620E+01 1.13662E+00 2.21652E-02-6.38546E-01 5.33553E-14-2.08412E-13
 -1      4131 1.64290E+01 7.20712E-01-2.46368E-03-1.44507E+00-1.08743E-13-3.67194E-13
 -1      4132 1.67292E+01 8.50672E-01-1.75274E-02-1.20803E+00-1.06960E-13-4.12811E-13
 -1      4133 1.66838E+01 1.06454E+00 2.13039E-02-8.19300E-01 4.36072E-14-4.53582E-13
 -1      4134 1.54621E+01 9.68641E-01 3.23564E-02-1.00247E+00-7.89618E-14-5.38413E-13
 -1      4135 2.03720E+01 8.43883E-02-6.48703E-04-5.30075E-02-2.05075E-14-9.68055E-14
 -1      4136 2.03920E+01 1.48277E-01 6.47016E-04-3.91076E-02 2.22029E-14-9.85262E-14
 -1      4137 2.00308E+01 5.37824E-02 1.96942E-04-6.37695E-02 4.11240E-14 6.53734E-14
 -1      4138 2.00496E+01 2.90174E-02-2.63196E-04-6.04164E-02 1.73096E-14 5.97852E-14
 -1      4139 2.00186E+01 7.13162E-02 2.74267E-04-4.62685E-02 6.07714E-14 9.48223E-15
 -1      4140 2.01519E+01-5.84434E-02 3.61583E-04-6.04838E-02-1.43427E-15-5.89208E-14
 -1      4141 2.01715E+01-6.79570E-02 1.90786E-04-6.13967E-02 1.10522E-14-7.28873E-14
 -1      4142 2.04022E+01 2.26178E-01-1.05914E-03-3.09937E-02 5.45396E-14-1.00546E-13
 -1      4143 2.04155E+01 3.20781E-01-5.94859E-05-6.31059E-03 6.21934E-14-1.41468E-13
 -1      4144 2.04112E+01 2.00415E-01-3.81537E-04-2.32053E-02 3.27166E-14-7.26922E-14
 -1      4145 2.04181E+01 6.13055E-01-1.13259E-03-3.10136E-02 2.32860E-16-1.35935E-13
 -1      4146 2.04277E+01 4.03578E-01 1.78395E-04 2.71318E-03 8.71946E-16-1.15272E-13
 -1      4147 2.04326E+01 3.65009E-01 5.10305E-04 1.44081E-03 2.67737E-14-7.46269E-14
 -1      4148 2.04204E+01 6.37085E-01 4.46441E-05-1.33972E-02 2.91921E-14-9.04348E-14
 -1      4149 1.95664E+01 5.40495E-01-6.62654E-04-2.10929E-01-3.06361E-14 1.67743E-13
 -1      4150 1.96267E+01 4.85985E-01-1.93754E-03-1.84757E-01-6.36984E-14 9.25874E-14
 -1      4151 1.96373E+01 4.85692E-01 3.72478E-03-1.23732E-01-1.06868E-13 1.65726E-13
 -1      4152 2.03992E+01 7.91806E-01 6.37272E-04 3.19856E-02 8.17981E-14-1.29023E-13
 -1      4153 2.04144E+01 6.77436E-01-3.12953E-03-3.98096E-03 4.65940E-14-9.27987E-14
 -1      4154 2.04364E+01 5.29440E-01 2.13400E-03 3.31857E-03 4.19444E-14-7.81407E-14
 -1      4155 2.04238E+01 6.09552E-01 1.44354E-03 2.61762E-02 6.59430E-14-1.53095E-13
 -1      4156 1.89644E+01 8.71457E-01-1.25962E-03-4.14382E-01-1.05015E-13 9.48061E-14
 -1      4157 1.90810E+01 8.18704E-01-4.05356E-03-3.67024E-01-9.63702E-14 1.02316E-13
 -1      4158 1.88127E+01 9.54895E-01 1.05459E-02-3.08356E-01-1.19261E-13-3.69172E-14
 -1      4159 1.98701E+01 2.51309E-01-1.45582E-04-1.05748E-01 9.46227E-14-1.88189E-14
 -1      4160 1.99001E+01 2.11798E-01-8.81949E-04-9.32805E-02 1.32103E-13 5.03399E-14
 -1      4161 1.98389E+01 2.87144E-01 1.97933E-03-7.82106E-02 9.69653E-14 4.33026E-14
 -1      4162 2.01886E+01-7.40111E-02-6.53147E-04-8.34273E-02 1.78234E-14-1.10019E-13
 -1      4163 2.01809E+01-7.27574E-02 2.99781E-04-1.00891E-01 1.05055E-14-5.47342E-14
 -1      4164 2.01993E+01-7.13454E-02 4.24163E-04-1.02622E-01 2.85923E-14-5.61803E-14
 -1      4165 1.99334E+01 1.75474E-01-1.36046E-05-8.60008E-02 6.64552E-14 6.36460E-14
 -1      4166 1.99580E+01 1.41173E-01-6.42012E-04-7.70653E-02 2.52216E-14 5.83082E-14
 -1      4167 1.99103E+01 2.04516E-01 1.31524E-03-6.33969E-02 1.01389E-13 1.60702E-14
 -1      4168 2.03990E+01 1.27625E-01 6.10151E-04 2.95592E-02 2.22184E-14-8.51205E-14
 -1      4169 2.03794E+01 6.80750E-02 1.57923E-05 4.02772E-02 2.24943E-14-8.25648E-14
 -1      4170 2.03787E+01 4.97197E-02-6.72476E-04 2.20560E-02 5.13100E-14-1.09825E-13
 -1      4171 1.90923E+01 8.40932E-01 8.14664E-03-2.46112E-01-7.80916E-14 1.57979E-13
 -1      4172 2.00719E+01 6.89085E-03 2.75697E-04-5.95572E-02 1.17164E-14 2.26264E-14
 -1      4173 2.00899E+01-1.32939E-02-1.06622E-04-5.82234E-02 8.22119E-15 3.00693E-14
 -1      4174 2.00632E+01 1.96300E-02-1.37869E-04-4.27137E-02 2.14852E-14 4.64341E-14
 -1      4175 2.01116E+01-3.07971E-02 3.32975E-04-5.87816E-02-2.59276E-14-1.69928E-14
 -1      4176 2.01299E+01-4.60885E-02 3.85544E-05-5.88900E-02-3.55221E-14-2.16967E-14
 -1      4177 2.01479E+01-5.39286E-02-7.77948E-04-4.24230E-02-1.09722E-14-3.24671E-14
 -1      4178 2.01055E+01-2.23521E-02-4.91085E-04-4.16656E-02-3.69986E-14-7.67907E-15
 -1      4179 1.94953E+01 5.99730E-01 4.88507E-03-1.56081E-01-7.58801E-15 1.74361E-13
 -1      4180 1.99688E+01 1.32776E-01 7.53625E-04-5.29590E-02 4.86849E-14-3.11568E-14
 -1      4181 2.04132E+01 1.72046E-01-9.76566E-04 1.51462E-02 2.27329E-14-8.01944E-14
 -1      4182 2.02208E+01-6.56448E-02 1.75890E-04-1.05439E-01 1.05069E-14-1.00883E-13
 -1      4183 2.02405E+01-5.39634E-02 4.54025E-04-1.04976E-01-1.43583E-14-1.20179E-13
 -1      4184 2.02763E+01-4.36059E-02-7.43675E-04-8.63503E-02-3.21700E-14-1.66434E-13
 -1      4185 2.02324E+01-7.05185E-02-8.32748E-04-8.70930E-02-7.45219E-15-1.57144E-13
 -1      4186 2.03543E+01 3.51015E-02 7.68098E-04-5.63466E-02-1.94272E-14-1.15007E-13
 -1      4187 2.03784E+01 6.81046E-02-5.64958E-04-3.76660E-02-8.38653E-15-5.58973E-14
 -1      4188 2.03319E+01-3.40485E-03 1.25682E-04-6.32863E-02-2.68584E-14-1.48766E-13
 -1      4189 1.55947E+01 1.03087E+00-8.69610E-03-4.88725E-01-8.89176E-15-4.05576E-13
 -1      4190 2.04286E+01 4.21840E-01-6.32248E-04 1.81864E-03 3.38478E-14-1.02092E-13
 -1      4191 2.04216E+01 4.64359E-01 1.96249E-04 6.74323E-03 6.20801E-14-1.47171E-13
 -1      4192 2.01922E+01-7.32222E-02-9.06711E-04-4.40454E-02-4.84455E-16-1.12142E-13
 -1      4193 2.01945E+01-7.42346E-02 3.51281E-04-6.35514E-02 8.31009E-16-1.17960E-13
 -1      4194 2.02166E+01-7.68102E-02 4.96741E-04-6.47515E-02 6.91232E-15-1.11601E-13
 -1      4195 1.64215E+01 1.10502E+00 2.00911E-02 6.24492E-01 1.58023E-13-1.23540E-13
 -1      4196 1.60904E+01 1.09763E+00-4.23217E-03 3.11131E-01 1.63887E-13-1.46825E-13
 -1      4197 1.57638E+01 1.15518E+00 2.12698E-02-8.15723E-02 1.25772E-13-2.21138E-13
 -1      4198 1.61741E+01 1.07918E+00-9.77992E-03-4.91523E-01 7.33483E-14-2.98961E-13
 -1      4199 1.64806E+01 1.13401E+00-1.88734E-02 1.57941E-01 2.73637E-13-2.19922E-13
 -1      4200 1.72022E+01 1.13792E+00-1.39194E-02-1.69143E-01 9.50026E-14-2.02003E-13
 -1      4201 1.75320E+01 1.13617E+00-1.52785E-02-1.15284E-01 9.20216E-14-2.09512E-13
 -1      4202 1.90012E+01 8.48927E-01-6.64001E-03-6.44448E-02-3.82483E-14-5.17815E-16
 -1      4203 1.91324E+01 7.92247E-01-5.04575E-03-4.44971E-02-1.68641E-14 5.35522E-14
 -1      4204 2.03020E+01-5.93805E-02 3.62599E-04 4.82438E-03-5.27376E-14-9.63741E-14
 -1      4205 2.02781E+01-7.18032E-02 6.44844E-04 5.30072E-03-4.41591E-14-7.74836E-14
 -1      4206 2.02424E+01-7.73703E-02 2.57781E-04-9.76407E-03-2.68764E-14-8.98669E-14
 -1      4207 2.02191E+01-7.64758E-02 6.47869E-04-8.85838E-03-8.55869E-15-1.08925E-13
 -1      4208 2.01961E+01-7.13537E-02 5.14142E-04-8.91824E-03 2.43468E-14-1.13743E-13
 -1      4209 2.01727E+01-6.29624E-02 5.43937E-04-8.62418E-03 2.89943E-14-6.04046E-14
 -1      4210 2.01505E+01-5.06967E-02 4.42984E-04-8.61754E-03-4.36145E-14-6.32724E-14
 -1      4211 2.01276E+01-3.60054E-02 3.74048E-04-8.39160E-03-4.47465E-14-3.70548E-14
 -1      4212 2.01058E+01-1.81767E-02 2.39843E-04-8.77608E-03-2.66175E-14-6.84262E-14
 -1      4213 2.00831E+01 1.91094E-03 1.61158E-04-8.35755E-03 3.71547E-14-3.78972E-14
 -1      4214 2.00606E+01 2.46121E-02-2.34450E-05-9.46885E-03 5.91233E-14-6.41055E-14
 -1      4215 2.00370E+01 4.96960E-02-8.34898E-05-8.71971E-03 5.26399E-14-5.82330E-14
 -1      4216 2.00126E+01 7.70629E-02-3.39917E-04-1.08227E-02 5.51421E-14-5.06631E-14
 -1      4217 1.99865E+01 1.07151E-01-3.65707E-04-9.63333E-03 5.63943E-14-3.70369E-14
 -1      4218 1.99585E+01 1.39297E-01-7.14119E-04-1.29666E-02 3.20829E-14-1.17858E-14
 -1      4219 1.99283E+01 1.74645E-01-6.96940E-04-1.12421E-02 5.10559E-14-6.02079E-14
 -1      4220 1.98947E+01 2.11836E-01-1.15609E-03-1.60353E-02 1.18976E-13-4.62628E-14
 -1      4221 1.98582E+01 2.52783E-01-1.09258E-03-1.36899E-02 6.30899E-14 3.95398E-15
 -1      4222 1.98167E+01 2.95263E-01-1.68021E-03-2.01744E-02-3.06619E-16 5.45490E-14
 -1      4223 1.97714E+01 3.42049E-01-1.57228E-03-1.71283E-02-2.73514E-14 7.94414E-14
 -1      4224 1.97193E+01 3.89843E-01-2.30575E-03-2.55468E-02-1.02306E-13 1.61067E-13
 -1      4225 1.96624E+01 4.42408E-01-2.16168E-03-2.17219E-02-5.06071E-14 7.50524E-14
 -1      4226 1.95965E+01 4.95100E-01-3.05953E-03-3.23451E-02-3.44499E-14 6.61234E-14
 -1      4227 1.95247E+01 5.52858E-01-2.89632E-03-2.76558E-02 1.71105E-14 4.91978E-14
 -1      4228 1.94415E+01 6.09343E-01-3.98187E-03-4.08184E-02 8.60236E-14 1.92070E-14
 -1      4229 1.93509E+01 6.70941E-01-3.82936E-03-3.51509E-02 4.21589E-14 2.98936E-14
 -1      4230 1.92463E+01 7.29158E-01-5.13832E-03-5.13263E-02-4.56782E-14 4.88256E-14
 -1      4231 1.88582E+01 9.09986E-01-6.68527E-03-5.61276E-02 4.19977E-15-9.62912E-14
 -1      4232 1.86940E+01 9.60456E-01-8.67083E-03-8.11466E-02-2.60217E-14-9.20899E-14
 -1      4233 1.85142E+01 1.01473E+00-8.96565E-03-7.07775E-02-3.16819E-14-1.09615E-13
 -1      4234 1.83083E+01 1.05289E+00-1.14737E-02-1.03052E-01 2.63625E-14-1.67954E-13
 -1      4235 1.80810E+01 1.09454E+00-1.20920E-02-8.98228E-02-1.80923E-14-1.60276E-13
 -1      4236 1.78211E+01 1.11358E+00-1.49074E-02-1.32429E-01 2.48165E-14-2.54821E-13
 -1      4237 1.68376E+01 1.13625E+00-1.00911E-02-1.58736E-01 2.30916E-13-2.49099E-13
 -1      4238 2.03859E+01 5.75560E-02-6.98739E-05-9.94971E-03 3.70883E-15-9.50520E-14
 -1      4239 2.03643E+01 1.27087E-02 6.07061E-04-7.30174E-03 2.66930E-14-1.07346E-13
 -1      4240 2.04333E+01 2.83373E-01 2.53351E-03-7.54871E-03 3.55490E-14-1.00802E-13
 -1      4241 2.04324E+01 4.15683E-01-3.74472E-04 1.42429E-03 3.50985E-14-9.48372E-14
 -1      4242 2.04334E+01 3.69226E-01-2.07234E-03-1.87468E-03 3.05634E-14-8.40838E-14
 -1      4243 2.04176E+01 1.92788E-01-1.01931E-03-1.57344E-02 9.71466E-15-8.36640E-14
 -1      4244 2.03467E+01-1.66020E-02 3.09628E-04-2.84126E-03 3.41297E-14-1.27896E-13
 -1      4245 2.03215E+01-4.32557E-02 3.15892E-04-1.35582E-03-1.27189E-14-1.32815E-13
 -1      4246 2.03068E+01-5.32268E-02-8.07687E-04-2.46405E-02-2.90482E-14-1.24359E-13
 -1      4247 2.03420E+01-1.10040E-02-8.92406E-04-3.78138E-02-7.63116E-16-1.34203E-13
 -1      4248 2.04340E+01 2.68653E-01 2.18775E-03 2.04224E-03 3.11088E-14-6.65936E-14
 -1      4249 2.04189E+01 1.82610E-01-5.12785E-04 4.55133E-03 1.57753E-14-7.23876E-14
 -1      4250 2.02509E+01-7.48768E-02-8.08915E-04-3.05967E-02-4.35464E-14-8.77318E-14
 -1      4251 2.03168E+01-2.79809E-02 5.77917E-04-5.68038E-02-2.07564E-14-1.57747E-13
 -1      4252 1.66789E+01 1.14379E+00 1.63528E-03-4.50477E-01 1.70708E-13-2.29128E-13
 -1      4253 2.02946E+01-4.95210E-02 3.66417E-04-5.92952E-02-1.31927E-14-1.75217E-13
 -1      4254 2.02532E+01-7.23105E-02 6.24635E-05-5.19363E-02-1.47013E-14-1.26203E-13
 -1      4255 2.02764E+01-6.27725E-02 5.39954E-04-5.13310E-02-3.36572E-14-1.54189E-13
 -1      4256 2.04057E+01 1.15513E-01 1.33895E-03-5.65110E-03-6.79547E-15-7.92762E-14
 -3
    1PSTEP                         3           1           1          
  100CL  101 1.000000000        4256                     0    1           1
 -4  TOSTRAIN    6    1
 -5  EXX         1    4    1    1
 -5  EYY         1    4    2    2
 -5  EZZ         1    4    3    3
 -5  EXY         1    4    1    2
 -5  EYZ         1    4    2    3
 -5  EZX         1    4    3    1
 -1         1 2.16446E-05 2.18484E-05-2.09105E-05 3.95017E-05-5.28294E-18-5.09109E-18
 -1         2 3.93046E-05-1.19985E-04 2.17882E-05 7.12590E-07-3.07056E-19 1.65357E-19
 -1         3 9.50458E-05-2.87760E-05-2.82093E-05-2.27765E-07-1.56896E-18-1.38090E-18
 -1         4 9.50491E-05-2.87640E-05-2.82018E-05 2.03131E-07 1.05345E-18 9.38388E-19
 -1         5 1.43346E-04-2.14785E-05-4.25276E-05 3.85318E-05-1.92541E-19 1.31407E-17
 -1         6 1.45408E-04 2.57566E-10-4.41867E-05-5.35277E-05-7.96211E-19 1.09432E-17
 -1         7 9.06061E-05-5.11000E-07-3.90674E-05-2.92544E-05-1.21973E-19 1.37106E-18
 -1         8 8.51235E-05 8.63251E-08-3.63382E-05-2.02739E-05-1.32508E-19-1.37631E-18
 -1         9 8.28121E-05 7.65213E-08-3.53501E-05-1.56425E-05-1.11848E-19-2.76570E-18
 -1        10 8.17729E-05 3.91452E-08-3.48817E-05-1.20820E-05-6.34481E-20-3.38322E-18
 -1        11 8.12545E-05 1.91396E-08-3.46537E-05-9.01598E-06-5.06731E-20-3.57404E-18
 -1        12 8.09849E-05 9.15895E-09-3.45393E-05-6.28606E-06-1.96009E-20-3.66693E-18
 -1        13 8.08438E-05 4.59874E-09-3.44815E-05-3.68682E-06-4.39233E-21-3.61820E-18
 -1        14 8.07849E-05 2.71296E-09-3.44580E-05-1.18415E-06 2.67092E-20-3.50877E-18
 -1        15 8.07870E-05 2.69335E-09-3.44587E-05 1.28928E-06 5.31629E-20-3.40762E-18
 -1        16 8.08503E-05 4.48427E-09-3.44837E-05 3.79715E-06 6.85882E-20-3.31554E-18
 -1        17 8.09966E-05 8.37678E-09-3.45428E-05 6.40882E-06 6.19873E-20-3.11061E-18
 -1        18 8.12708E-05 1.81557E-08-3.46583E-05 9.15839E-06 8.85910E-20-2.71049E-18
 -1        19 8.17967E-05 3.81971E-08-3.48898E-05 1.22608E-05 1.41031E-19-2.08652E-18
 -1        20 8.28347E-05 8.15499E-08-3.53630E-05 1.58735E-05 1.83197E-19-9.83435E-19
 -1        21 8.50883E-05 1.69522E-07-3.63766E-05 2.04848E-05 1.76448E-19 1.09881E-18
 -1        22 9.16432E-05-9.95401E-08-3.87389E-05 2.80009E-05 3.29284E-20 4.97036E-18
 -1        23 1.12975E-04-3.81263E-05-3.53972E-05-4.40278E-06-4.95620E-19 8.22522E-18
 -1        24 9.28062E-05-2.76976E-05-2.89998E-05 3.91354E-07-1.13400E-19 5.97134E-18
 -1        25 8.91211E-05-2.68526E-05-2.69298E-05 3.75875E-07-7.84630E-20 3.57525E-18
 -1        26 8.80170E-05-2.64888E-05-2.63921E-05 2.04035E-07-2.97132E-20 1.62198E-18
 -1        27 8.80424E-05-2.64668E-05-2.63839E-05 1.39879E-07-5.55489E-20 6.90352E-19
 -1        28 8.85747E-05-2.66028E-05-2.65530E-05 1.00840E-07-4.51922E-20-2.48882E-20
 -1        29 8.93274E-05-2.68148E-05-2.67849E-05 7.50851E-08-3.11061E-21-5.11697E-19
 -1        30 9.01490E-05-2.70536E-05-2.70341E-05 5.67114E-08 1.00054E-19-5.58009E-19
 -1        31 9.09549E-05-2.72909E-05-2.72772E-05 4.28658E-08-1.46883E-19-1.19248E-18
 -1        32 9.16984E-05-2.75114E-05-2.75012E-05 3.20992E-08-2.35540E-19-2.16269E-18
 -1        33 9.23566E-05-2.77073E-05-2.76997E-05 2.36042E-08 3.13007E-19-2.96111E-18
 -1        34 9.29222E-05-2.78762E-05-2.78704E-05 1.68721E-08-4.87983E-20-2.59640E-18
 -1        35 9.33978E-05-2.80185E-05-2.80141E-05 1.15468E-08-6.63774E-20-3.38599E-18
 -1        36 9.37931E-05-2.81372E-05-2.81338E-05 7.36359E-09 5.98651E-20-3.49959E-18
 -1        37 9.41224E-05-2.82362E-05-2.82336E-05 4.12391E-09-1.78818E-19-3.50795E-18
 -1        38 9.44033E-05-2.83210E-05-2.83189E-05 1.68623E-09-2.77361E-19-3.44825E-18
 -1        39 9.46566E-05-2.83976E-05-2.83960E-05-3.47143E-11-1.40701E-19-3.96339E-18
 -1        40 9.49060E-05-2.84733E-05-2.84721E-05-1.06364E-09 2.06031E-19-4.53682E-18
 -1        41 9.51789E-05-2.85561E-05-2.85554E-05-1.35666E-09 2.16466E-19-4.57543E-18
 -1        42 9.55069E-05-2.86556E-05-2.86554E-05-7.89691E-10 5.37673E-20-4.39227E-18
 -1        43 9.59269E-05-2.87828E-05-2.87834E-05 8.56679E-10-4.53048E-19-3.87150E-18
 -1        44 9.64820E-05-2.89506E-05-2.89524E-05 3.91509E-09 7.72516E-20-3.97993E-18
 -1        45 9.72221E-05-2.91739E-05-2.91774E-05 8.84923E-09 2.91332E-20-4.41354E-18
 -1        46 9.82039E-05-2.94696E-05-2.94755E-05 1.62634E-08-9.53845E-20-5.16986E-18
 -1        47 9.94887E-05-2.98558E-05-2.98649E-05 2.68843E-08-1.09590E-19-5.33741E-18
 -1        48 1.01138E-04-3.03504E-05-3.03636E-05 4.14721E-08-1.51955E-20-5.99596E-18
 -1        49 1.03202E-04-3.09684E-05-3.09860E-05 6.05762E-08 3.73012E-19-6.05686E-18
 -1        50 1.05702E-04-3.17153E-05-3.17368E-05 8.39813E-08-2.15408E-19-6.98809E-18
 -1        51 1.08599E-04-3.25789E-05-3.26005E-05 1.09605E-07 1.96263E-19-6.18561E-18
 -1        52 1.11742E-04-3.35138E-05-3.35270E-05 1.31587E-07-2.67971E-19-4.13791E-18
 -1        53 1.14803E-04-3.44229E-05-3.44117E-05 1.37597E-07-1.32510E-19-4.54276E-18
 -1        54 1.17212E-04-3.51375E-05-3.50787E-05 1.06542E-07 1.41895E-19-3.39425E-18
 -1        55 1.18133E-04-3.54106E-05-3.52818E-05 1.03826E-08-1.52266E-19-4.02102E-18
 -1        56 1.16578E-04-3.49499E-05-3.47493E-05-1.72984E-07 1.13140E-19-5.26394E-18
 -1        57 1.11777E-04-3.35234E-05-3.33000E-05-4.28763E-07 1.07072E-19-5.42048E-18
 -1        58 1.03817E-04-3.11496E-05-3.10157E-05-6.67442E-07 1.65955E-19-5.13326E-18
 -1        59 9.42621E-05-2.82887E-05-2.83692E-05-7.31689E-07-1.85852E-19-5.99586E-18
 -1        60 8.60742E-05-2.58283E-05-2.61525E-05-4.98533E-07-3.74081E-19-5.92113E-18
 -1        61 8.23450E-05-2.47056E-05-2.51400E-05-2.10124E-08 3.68152E-19-6.78631E-18
 -1        62 8.44151E-05-2.53301E-05-2.56543E-05 4.57219E-07 3.30055E-19-5.62904E-18
 -1        63 9.09288E-05-2.72885E-05-2.73654E-05 6.89412E-07-8.40237E-19-5.05464E-18
 -1        64 9.87544E-05-2.96316E-05-2.94888E-05 6.18400E-07-1.77781E-19-5.96737E-18
 -1        65 1.04886E-04-3.14590E-05-3.12209E-05 3.67463E-07 6.43745E-20-5.82428E-18
 -1        66 1.07746E-04-3.23067E-05-3.20878E-05 9.47527E-08 2.84610E-19-4.68336E-18
 -1        67 1.07299E-04-3.21713E-05-3.20278E-05-1.06441E-07 3.92941E-19-1.42526E-18
 -1        68 1.04481E-04-3.13331E-05-3.12777E-05-2.12564E-07 6.76743E-19-1.44952E-18
 -1        69 1.00609E-04-3.01808E-05-3.02130E-05-2.28318E-07 5.42578E-19 9.54216E-19
 -1        70 9.70708E-05-2.91164E-05-2.92286E-05-1.28044E-07-9.04985E-20 2.99970E-18
 -1        71 9.51245E-05-2.84842E-05-2.86084E-05 6.20668E-08-3.87050E-19 2.20530E-18
 -1        72 1.02179E-04-3.05875E-05-3.41502E-05-1.92888E-06 1.97756E-19 1.23528E-17
 -1        73 9.25623E-05-2.75135E-05-2.89079E-05-3.33201E-07 9.49173E-20 9.89497E-18
 -1        74 8.91082E-05-2.67019E-05-2.69729E-05-1.25922E-07 7.88799E-20 8.05857E-18
 -1        75 8.80469E-05-2.64396E-05-2.64360E-05-9.55971E-08 3.75366E-20 6.86152E-18
 -1        76 8.80772E-05-2.64468E-05-2.64106E-05-7.65884E-08 1.69580E-20 5.67666E-18
 -1        77 8.86087E-05-2.65972E-05-2.65701E-05-6.24939E-08 6.30661E-20 4.86719E-18
 -1        78 8.93586E-05-2.68161E-05-2.67972E-05-5.16698E-08-1.01711E-19 5.00644E-18
 -1        79 9.01768E-05-2.70581E-05-2.70435E-05-4.27291E-08 9.86586E-20 4.35778E-18
 -1        80 9.09789E-05-2.72969E-05-2.72844E-05-3.50082E-08-7.56736E-20 3.80007E-18
 -1        81 9.17187E-05-2.75177E-05-2.75068E-05-2.82341E-08 2.03506E-19 3.47010E-18
 -1        82 9.23733E-05-2.77134E-05-2.77039E-05-2.22834E-08 6.51117E-20 2.47784E-18
 -1        83 9.29356E-05-2.78817E-05-2.78735E-05-1.70762E-08-1.70628E-20 2.79534E-18
 -1        84 9.34082E-05-2.80232E-05-2.80164E-05-1.25359E-08 1.37830E-19 3.06385E-18
 -1        85 9.38008E-05-2.81410E-05-2.81353E-05-8.58068E-09 1.24533E-19 2.22834E-18
 -1        86 9.41276E-05-2.82391E-05-2.82346E-05-5.12569E-09-2.98041E-20 1.88970E-19
 -1        87 9.44064E-05-2.83228E-05-2.83194E-05-2.09029E-09-2.08534E-19-7.42045E-19
 -1        88 9.46577E-05-2.83985E-05-2.83962E-05 5.92844E-10-3.51855E-20-3.41556E-19
 -1        89 9.49054E-05-2.84731E-05-2.84720E-05 2.96631E-09 2.79129E-19-1.70587E-18
 -1        90 9.51768E-05-2.85549E-05-2.85551E-05 5.03368E-09-7.86824E-20-2.70537E-18
 -1        91 9.55034E-05-2.86534E-05-2.86551E-05 6.74105E-09-2.49285E-19-5.66932E-19
 -1        92 9.59223E-05-2.87795E-05-2.87832E-05 7.95187E-09-1.01687E-19 7.22503E-19
 -1        93 9.64768E-05-2.89463E-05-2.89524E-05 8.41238E-09-1.87028E-20-8.99346E-20
 -1        94 9.72168E-05-2.91686E-05-2.91779E-05 7.70387E-09-4.46632E-20-1.92431E-18
 -1        95 9.81993E-05-2.94633E-05-2.94767E-05 5.18025E-09-1.20084E-19-4.59758E-19
 -1        96 9.94859E-05-2.98488E-05-2.98672E-05-1.05200E-10 4.78851E-19 4.16083E-19
 -1        97 1.01138E-04-3.03431E-05-3.03675E-05-9.46208E-09-2.05925E-19-6.90616E-19
 -1        98 1.03207E-04-3.09613E-05-3.09918E-05-2.45510E-08 4.61354E-20-3.08333E-19
 -1        99 1.05715E-04-3.17096E-05-3.17447E-05-4.71479E-08-1.05586E-19-1.48856E-18
 -1       100 1.08620E-04-3.25756E-05-3.26103E-05-7.83795E-08 1.47032E-19-2.01481E-19
 -1       101 1.11772E-04-3.35148E-05-3.35374E-05-1.16925E-07-1.92143E-19-1.17231E-18
 -1       102 1.14837E-04-3.44303E-05-3.44193E-05-1.55627E-07 1.37965E-19-4.54268E-19
 -1       103 1.17240E-04-3.51533E-05-3.50776E-05-1.76581E-07-7.17166E-20 1.90943E-18
 -1       104 1.18132E-04-3.54355E-05-3.52631E-05-1.47484E-07 2.48601E-20 3.24776E-18
 -1       105 1.16517E-04-3.49800E-05-3.47043E-05-2.83666E-08 5.40554E-19 8.07222E-19
 -1       106 1.11626E-04-3.35473E-05-3.32257E-05 1.99961E-07-5.68078E-19 1.69642E-18
 -1       107 1.03566E-04-3.11451E-05-3.09193E-05 4.88422E-07 3.28762E-19 1.39358E-18
 -1       108 9.39322E-05-2.82252E-05-2.82708E-05 6.91312E-07 1.65664E-19 7.62833E-19
 -1       109 8.57394E-05-2.56947E-05-2.60821E-05 6.35359E-07 3.09723E-19 1.36539E-18
 -1       110 8.21159E-05-2.45405E-05-2.51185E-05 2.79976E-07-1.91092E-19 1.96498E-18
 -1       111 8.43743E-05-2.52067E-05-2.56837E-05-1.97516E-07 2.78915E-19 4.63302E-18
 -1       112 9.10679E-05-2.72598E-05-2.74257E-05-5.34369E-07-3.33727E-19 2.13063E-18
 -1       113 9.89828E-05-2.96937E-05-2.95495E-05-5.99730E-07 8.42552E-19 1.08108E-18
 -1       114 1.05099E-04-3.15670E-05-3.12591E-05-4.50054E-07-7.57855E-19 4.69772E-19
 -1       115 1.07878E-04-3.24111E-05-3.20961E-05-2.18704E-07 3.82336E-19 1.63544E-18
 -1       116 1.07331E-04-3.22412E-05-3.20109E-05-7.81999E-09-8.55470E-21 1.14868E-18
 -1       117 1.04430E-04-3.13589E-05-3.12468E-05 1.40275E-07-1.43369E-20-6.49833E-19
 -1       118 1.00514E-04-3.01681E-05-3.01824E-05 2.17113E-07-6.31056E-20-3.65871E-18
 -1       119 9.69849E-05-2.90899E-05-2.92115E-05 2.00767E-07-4.33659E-19-1.47249E-18
 -1       120 9.51415E-05-2.84663E-05-2.86054E-05-3.78687E-09 9.44727E-19-3.55141E-18
 -1       121 9.52294E-05-2.85253E-05-2.86304E-05-8.27622E-08-3.43237E-18 3.90396E-19
 -1       122 9.46345E-05-2.66243E-05-2.92874E-05 9.89256E-08-3.87599E-18-2.51346E-19
 -1       123 9.34352E-05-2.26131E-05-3.04624E-05 2.13463E-07-5.32102E-18 1.85799E-18
 -1       124 9.17976E-05-1.71254E-05-3.20645E-05 2.87272E-07-1.09405E-17 3.71876E-19
 -1       125 8.99273E-05-1.08423E-05-3.38928E-05 3.27004E-07-5.56306E-18-1.34843E-18
 -1       126 8.81159E-05-4.74477E-06-3.56538E-05 3.13589E-07-3.16556E-18 9.98082E-19
 -1       127 8.66180E-05 2.88610E-07-3.70953E-05 2.29914E-07-5.18530E-19-1.53771E-19
 -1       128 8.57760E-05 3.11894E-06-3.79010E-05 8.43064E-08-5.19732E-18-1.31442E-18
 -1       129 8.57802E-05 3.10484E-06-3.78970E-05-8.58339E-08-7.55411E-18 1.34938E-18
 -1       130 8.66301E-05 2.48979E-07-3.70840E-05-2.30792E-07-1.84956E-18 9.75722E-19
 -1       131 8.81313E-05-4.79952E-06-3.56380E-05-3.15683E-07 6.19327E-19-5.30880E-19
 -1       132 8.99465E-05-1.09050E-05-3.38742E-05-3.26881E-07-1.95731E-19 1.46674E-18
 -1       133 9.18185E-05-1.71932E-05-3.20441E-05-2.87198E-07-3.15481E-18-1.74421E-19
 -1       134 9.34471E-05-2.26790E-05-3.04446E-05-2.28492E-07-5.74736E-18 4.03292E-20
 -1       135 9.46335E-05-2.66048E-05-2.92774E-05-1.63149E-07-5.53406E-18-2.77306E-19
 -1       136 9.51366E-05-2.84365E-05-2.86238E-05 1.83550E-07-3.97244E-18 6.42569E-19
 -1       137 2.87232E-05-9.64255E-05 1.73519E-05-2.57991E-05-4.23516E-22-1.71154E-18
 -1       138 8.91966E-06-4.00969E-05 4.81798E-06-2.17127E-05 5.96057E-18 2.91125E-18
 -1       139 1.05247E-05 1.27387E-05-1.38445E-05 2.06243E-05 1.13452E-17 8.27255E-18
 -1       140 6.28757E-05 2.71550E-05-3.67766E-05 8.19336E-05 9.46093E-18 1.08492E-17
 -1       141 1.51980E-04-4.39583E-06-5.64167E-05 1.14822E-04 5.69481E-18 1.16243E-17
 -1       142 2.54379E-04-5.92701E-05-7.25975E-05 9.76963E-05 1.22931E-18 3.87052E-18
 -1       143 3.11681E-04-9.52566E-05-7.97851E-05 2.75077E-05-4.02658E-19-4.93402E-18
 -1       144 2.95185E-04-8.56284E-05-7.75205E-05-5.66264E-05 5.90607E-22-6.45058E-18
 -1       145 2.11422E-04-3.67415E-05-6.58226E-05-1.09875E-04 1.83383E-18-3.23016E-18
 -1       146 1.09923E-04 1.21360E-05-4.79290E-05-1.04130E-04 1.66611E-18-3.17383E-18
 -1       147 3.38265E-05 2.64476E-05-2.67575E-05-5.56490E-05 4.57017E-18-3.60751E-18
 -1       148 4.72837E-06-6.90422E-06-5.07676E-06 1.83147E-06 5.99742E-18-3.27802E-18
 -1       149 1.58817E-05-6.33470E-05 1.06708E-05 2.74754E-05 7.44500E-18-1.89301E-18
 -1       150 3.41550E-05-1.07086E-04 1.95721E-05 1.65684E-05 3.33276E-18-1.59926E-18
 -1       151 3.59756E-05-1.10884E-04 2.02652E-05-1.21590E-05-6.26042E-18-4.84278E-19
 -1       152 1.96190E-05-7.34591E-05 1.28820E-05-2.79060E-05-7.21630E-18-3.21253E-18
 -1       153 4.97467E-06-1.74196E-05-1.53269E-06-9.94053E-06-6.06560E-18-2.76895E-18
 -1       154 7.93174E-05 2.15647E-05-4.06636E-05 9.00757E-05-5.28083E-18-6.73645E-18
 -1       155 1.72903E-04-1.63286E-05-5.96966E-05 1.13661E-04-2.09387E-18-2.82316E-18
 -1       156 2.62987E-04-6.64250E-05-7.32153E-05 8.79338E-05-1.65489E-19-8.99549E-19
 -1       157 3.13280E-04-9.67284E-05-7.99106E-05 1.78757E-05-5.08061E-19 4.60050E-18
 -1       158 2.96142E-04-8.54146E-05-7.78919E-05-6.12997E-05-8.40839E-19 6.97256E-18
 -1       159 2.20140E-04-3.94460E-05-6.76717E-05-1.11329E-04-2.25438E-18 5.57094E-18
 -1       160 1.20413E-04 9.66899E-06-5.03661E-05-1.09235E-04-3.48745E-18 5.48200E-18
 -1       161 4.36516E-05 2.91758E-05-3.08351E-05-6.73225E-05-3.94463E-18 3.39533E-18
 -1       162 8.18683E-06 7.98470E-06-1.14006E-05-1.38669E-05-6.16386E-18 4.12209E-18
 -1       163 9.90933E-06-4.35951E-05 5.71971E-06 2.27523E-05-1.96003E-18 1.80354E-18
 -1       164 2.86256E-05-9.60011E-05 1.72395E-05 2.46443E-05-2.44242E-18 5.08855E-19
 -1       165 9.48674E-05-1.23462E-05-3.55692E-05-2.23523E-05-1.70493E-18-1.65701E-20
 -1       166 8.92492E-05-8.45787E-06-3.47869E-05-1.73926E-05-1.50929E-18-1.65399E-18
 -1       167 8.65374E-05-6.49797E-06-3.44148E-05-1.35913E-05-1.10736E-18-2.50559E-18
 -1       168 8.51953E-05-5.51849E-06-3.42315E-05-1.03700E-05-7.99892E-19-2.96371E-18
 -1       169 8.44477E-05-4.94404E-06-3.41423E-05-7.54860E-06-4.40515E-19-3.02737E-18
 -1       170 8.40219E-05-4.60039E-06-3.40995E-05-4.90541E-06-1.60556E-19-3.00562E-18
 -1       171 8.38043E-05-4.41647E-06-3.40815E-05-2.39606E-06 1.47438E-19-2.95998E-18
 -1       172 8.37402E-05-4.36079E-06-3.40768E-05 5.11521E-08 3.87581E-19-2.83288E-18
 -1       173 8.38143E-05-4.42492E-06-3.40823E-05 2.50041E-06 6.91827E-19-2.74464E-18
 -1       174 8.40441E-05-4.61987E-06-3.41009E-05 5.01619E-06 9.70727E-19-2.62955E-18
 -1       175 8.44762E-05-4.97261E-06-3.41426E-05 7.62611E-06 1.19256E-18-2.39439E-18
 -1       176 8.52512E-05-5.57465E-06-3.42320E-05 1.05156E-05 1.49961E-18-1.90042E-18
 -1       177 8.66465E-05-6.60849E-06-3.44182E-05 1.37866E-05 1.75553E-18-1.12015E-18
 -1       178 8.93910E-05-8.59980E-06-3.47918E-05 1.76260E-05 1.90052E-18 2.44422E-19
 -1       179 9.57788E-05-1.36133E-05-3.54252E-05 2.18964E-05 1.76172E-18 2.59931E-18
 -1       180 1.05605E-04-2.61018E-05-3.52629E-05 1.86650E-05 1.20139E-18 5.71853E-18
 -1       181 1.03397E-04-2.73009E-05-3.26106E-05-1.21282E-05-1.52672E-18 2.20634E-18
 -1       182 9.71081E-05-2.82903E-05-2.95287E-05-4.73221E-06-1.38483E-18 1.37216E-18
 -1       183 9.35057E-05-2.76365E-05-2.81817E-05-1.77101E-06-1.14164E-18 7.72143E-19
 -1       184 9.19690E-05-2.74048E-05-2.76349E-05-4.23326E-07-6.44102E-19 1.59457E-19
 -1       185 9.13916E-05-2.73295E-05-2.74369E-05 2.40439E-07-4.34691E-19-1.98345E-19
 -1       186 9.13478E-05-2.73678E-05-2.74114E-05 5.65467E-07-4.13901E-19-3.88045E-19
 -1       187 9.15890E-05-2.74698E-05-2.74757E-05 7.03420E-07-1.10615E-19-6.14674E-19
 -1       188 9.19700E-05-2.76011E-05-2.75849E-05 7.33581E-07-1.94906E-19-6.98847E-19
 -1       189 9.24040E-05-2.77406E-05-2.77123E-05 7.02015E-07-6.65225E-19-6.17314E-19
 -1       190 9.28400E-05-2.78755E-05-2.78420E-05 6.37523E-07-4.22576E-19-7.24712E-19
 -1       191 9.32491E-05-2.79989E-05-2.79648E-05 5.58847E-07-1.83990E-19-1.54035E-18
 -1       192 9.36177E-05-2.81079E-05-2.80762E-05 4.78426E-07-3.46637E-19-1.85074E-18
 -1       193 9.39424E-05-2.82021E-05-2.81749E-05 4.04647E-07-1.86995E-19-1.94042E-18
 -1       194 9.42267E-05-2.82832E-05-2.82619E-05 3.43337E-07-4.37714E-19-2.05086E-18
 -1       195 9.44791E-05-2.83538E-05-2.83396E-05 2.98824E-07-1.21802E-20-1.88883E-18
 -1       196 9.47120E-05-2.84178E-05-2.84118E-05 2.74729E-07-9.33702E-20-1.25583E-18
 -1       197 9.49413E-05-2.84798E-05-2.84831E-05 2.74563E-07-9.73186E-20-9.00712E-19
 -1       198 9.51858E-05-2.85454E-05-2.85595E-05 3.02175E-07-7.11934E-20-1.43428E-18
 -1       199 9.54680E-05-2.86209E-05-2.86476E-05 3.62061E-07-2.74952E-19-2.36427E-18
 -1       200 9.58137E-05-2.87140E-05-2.87554E-05 4.59519E-07-3.15284E-20-3.37611E-18
 -1       201 9.62529E-05-2.88334E-05-2.88920E-05 6.00589E-07-5.57791E-20-3.59811E-18
 -1       202 9.68196E-05-2.89892E-05-2.90675E-05 7.91685E-07-3.15516E-19-2.90381E-18
 -1       203 9.75515E-05-2.91929E-05-2.92933E-05 1.03872E-06 7.04692E-20-2.94170E-18
 -1       204 9.84886E-05-2.94573E-05-2.95812E-05 1.34538E-06-1.68412E-19-2.25774E-18
 -1       205 9.96703E-05-2.97961E-05-2.99422E-05 1.71013E-06-3.92111E-19-2.35682E-18
 -1       206 1.01130E-04-3.02228E-05-3.03851E-05 2.12104E-06-1.94063E-19-2.88811E-18
 -1       207 1.02884E-04-3.07489E-05-3.09126E-05 2.54778E-06-3.69370E-19-3.51574E-18
 -1       208 1.04920E-04-3.13807E-05-3.15163E-05 2.92976E-06 9.26016E-19-3.10631E-18
 -1       209 1.07169E-04-3.21132E-05-3.21698E-05 3.16128E-06 1.01256E-18-1.66628E-18
 -1       210 1.09482E-04-3.29208E-05-3.28196E-05 3.07785E-06-1.21183E-19-1.28628E-18
 -1       211 1.11595E-04-3.37404E-05-3.33786E-05 2.45698E-06-9.08244E-20-7.17695E-19
 -1       212 1.13106E-04-3.44478E-05-3.37264E-05 1.06009E-06-1.95423E-19-1.25564E-18
 -1       213 1.13496E-04-3.48327E-05-3.37284E-05-1.24562E-06-9.48733E-19-1.49612E-18
 -1       214 1.12234E-04-3.45995E-05-3.32818E-05-4.26489E-06 8.23683E-19-1.51699E-18
 -1       215 1.09024E-04-3.34564E-05-3.23859E-05-7.22475E-06-4.16866E-20-2.02159E-18
 -1       216 1.04193E-04-3.13706E-05-3.12023E-05-8.77068E-06-7.00958E-19-2.49241E-18
 -1       217 9.89948E-05-2.88811E-05-3.00420E-05-7.58760E-06-8.47523E-19-3.82360E-18
 -1       218 9.53247E-05-2.70641E-05-2.92527E-05-3.51738E-06 1.73748E-19-2.56265E-18
 -1       219 9.46827E-05-2.68716E-05-2.90606E-05 1.81646E-06-2.75418E-19-2.49784E-18
 -1       220 9.70713E-05-2.83112E-05-2.94629E-05 5.87531E-06-1.17205E-19-4.10112E-18
 -1       221 1.00978E-04-3.04268E-05-3.02300E-05 7.01084E-06-5.34270E-19-4.76887E-18
 -1       222 1.04485E-04-3.21249E-05-3.10113E-05 5.38168E-06 1.43072E-18-3.29311E-18
 -1       223 1.06336E-04-3.28582E-05-3.14985E-05 2.33323E-06 1.02147E-18-3.55859E-19
 -1       224 1.06227E-04-3.26547E-05-3.15426E-05-7.17827E-07 1.08475E-18-2.84895E-19
 -1       225 1.04529E-04-3.18154E-05-3.11732E-05-2.89177E-06 8.49857E-19-5.57755E-19
 -1       226 1.01921E-04-3.06667E-05-3.05431E-05-3.84990E-06 1.74969E-18 2.25066E-19
 -1       227 9.91184E-05-2.94603E-05-2.98542E-05-3.56067E-06 1.98958E-18 2.52098E-19
 -1       228 9.66905E-05-2.84050E-05-2.92640E-05-2.17097E-06-2.21465E-19 1.33473E-18
 -1       229 9.95008E-05-2.85544E-05-3.05872E-05 7.21272E-06 1.18763E-18 4.86764E-18
 -1       230 9.44157E-05-2.77905E-05-2.85242E-05 2.74508E-06 9.14121E-19 4.05792E-18
 -1       231 9.20948E-05-2.74005E-05-2.76811E-05 9.31202E-07 6.64650E-19 3.23316E-18
 -1       232 9.11451E-05-2.72377E-05-2.73619E-05 6.94364E-08 5.79842E-19 2.56610E-18
 -1       233 9.09320E-05-2.72302E-05-2.72873E-05-3.57984E-07 2.38348E-19 2.26293E-18
 -1       234 9.11138E-05-2.73156E-05-2.73353E-05-5.58193E-07 2.14943E-20 2.08161E-18
 -1       235 9.14950E-05-2.74479E-05-2.74452E-05-6.30621E-07 4.29858E-19 1.76933E-18
 -1       236 9.19611E-05-2.75981E-05-2.75822E-05-6.29369E-07 2.90679E-19 1.51756E-18
 -1       237 9.24443E-05-2.77483E-05-2.77258E-05-5.86845E-07 4.51027E-19 9.11309E-19
 -1       238 9.29056E-05-2.78888E-05-2.78639E-05-5.23648E-07 2.79464E-19 1.07212E-18
 -1       239 9.33250E-05-2.80146E-05-2.79900E-05-4.53283E-07-9.64690E-20 9.87644E-19
 -1       240 9.36949E-05-2.81240E-05-2.81018E-05-3.84746E-07 9.25134E-20 8.91497E-19
 -1       241 9.40162E-05-2.82179E-05-2.81993E-05-3.24138E-07 8.29944E-19 3.59214E-19
 -1       242 9.42959E-05-2.82986E-05-2.82846E-05-2.75773E-07 7.37547E-19 1.17091E-19
 -1       243 9.45452E-05-2.83696E-05-2.83610E-05-2.42977E-07 3.56869E-19 1.06342E-19
 -1       244 9.47791E-05-2.84354E-05-2.84329E-05-2.28693E-07 1.93270E-19-7.31961E-19
 -1       245 9.50156E-05-2.85013E-05-2.85058E-05-2.35939E-07 7.26078E-19-9.77145E-19
 -1       246 9.52762E-05-2.85735E-05-2.85863E-05-2.68153E-07-8.92839E-20-1.03153E-18
 -1       247 9.55858E-05-2.86595E-05-2.86819E-05-3.29412E-07-9.12680E-19-4.57177E-19
 -1       248 9.59734E-05-2.87677E-05-2.88014E-05-4.24513E-07-4.76067E-19-7.90580E-19
 -1       249 9.64726E-05-2.89080E-05-2.89550E-05-5.58852E-07 3.35875E-19-1.75111E-19
 -1       250 9.71210E-05-2.90917E-05-2.91540E-05-7.37992E-07 3.40084E-19 2.38460E-20
 -1       251 9.79604E-05-2.93315E-05-2.94108E-05-9.66711E-07-4.25525E-19-5.62241E-19
 -1       252 9.90339E-05-2.96412E-05-2.97382E-05-1.24721E-06-2.13480E-19-4.61754E-19
 -1       253 1.00383E-04-3.00346E-05-3.01479E-05-1.57598E-06 2.95536E-19 9.56645E-19
 -1       254 1.02037E-04-3.05241E-05-3.06479E-05-1.93853E-06-4.66104E-20 6.11708E-19
 -1       255 1.04004E-04-3.11172E-05-3.12379E-05-2.30130E-06 3.07327E-19 1.47470E-18
 -1       256 1.06247E-04-3.18120E-05-3.19033E-05-2.60009E-06-3.43445E-19 8.79219E-20
 -1       257 1.08657E-04-3.25883E-05-3.26051E-05-2.72643E-06 2.05275E-19-2.74588E-19
 -1       258 1.11015E-04-3.33956E-05-3.32705E-05-2.51759E-06-2.21446E-19-4.27201E-19
 -1       259 1.12961E-04-3.41358E-05-3.37853E-05-1.76563E-06-1.07526E-18 1.46477E-20
 -1       260 1.13984E-04-3.46442E-05-3.40003E-05-2.73798E-07 3.47558E-19 4.05033E-20
 -1       261 1.13489E-04-3.46817E-05-3.37636E-05 2.00160E-06 8.70995E-19 2.50143E-19
 -1       262 1.10990E-04-3.39783E-05-3.29879E-05 4.72780E-06-7.83307E-19 6.04686E-19
 -1       263 1.06469E-04-3.23791E-05-3.17393E-05 7.02379E-06 4.03562E-19 5.28926E-19
 -1       264 1.00751E-04-3.00877E-05-3.02905E-05 7.61689E-06-1.25725E-19-3.75606E-19
 -1       265 9.55819E-05-2.78480E-05-2.90617E-05 5.59065E-06-6.25160E-19 5.73309E-19
 -1       266 9.29449E-05-2.66792E-05-2.84426E-05 1.36818E-06-8.41825E-19 1.09126E-18
 -1       267 9.38255E-05-2.71534E-05-2.85994E-05-3.15913E-06-3.83100E-19 2.11449E-18
 -1       268 9.74597E-05-2.88854E-05-2.93847E-05-5.86584E-06 1.17513E-18 2.76008E-18
 -1       269 1.01889E-04-3.08632E-05-3.04161E-05-5.87870E-06 5.92739E-19 7.16352E-19
 -1       270 1.05241E-04-3.22239E-05-3.12695E-05-3.83957E-06-7.33600E-19 1.57429E-18
 -1       271 1.06555E-04-3.26455E-05-3.16625E-05-1.05134E-06 6.11439E-19 1.23948E-18
 -1       272 1.05822E-04-3.22482E-05-3.15288E-05 1.39295E-06 8.04254E-19 6.75277E-20
 -1       273 1.03617E-04-3.13300E-05-3.09839E-05 2.91852E-06 1.12083E-18-1.12047E-18
 -1       274 1.00742E-04-3.01999E-05-3.02419E-05 3.35084E-06 7.41960E-19-2.20649E-18
 -1       275 9.79906E-05-2.91055E-05-2.95328E-05 2.70258E-06-1.12982E-18-2.04533E-18
 -1       276 9.59783E-05-2.83334E-05-2.89897E-05 1.19923E-06 2.96142E-19-1.51635E-18
 -1       277 9.53824E-05-2.70058E-05-2.92962E-05 2.26251E-06-3.81126E-19 5.08248E-19
 -1       278 9.45224E-05-2.45470E-05-2.99821E-05 4.07831E-06-1.81543E-18-9.35588E-19
 -1       279 9.33400E-05-2.11678E-05-3.09273E-05 5.48696E-06-1.95115E-18-1.00159E-18
 -1       280 9.19146E-05-1.71071E-05-3.20614E-05 6.25936E-06-2.24360E-18 2.57858E-18
 -1       281 9.03680E-05-1.28832E-05-3.32160E-05 6.16281E-06-2.38183E-18-2.49777E-19
 -1       282 8.88876E-05-9.00148E-06-3.42509E-05 4.99825E-06-2.47665E-18 2.33215E-19
 -1       283 8.78140E-05-6.27550E-06-3.49631E-05 2.80932E-06-3.09030E-18-2.66623E-18
 -1       284 8.74219E-05-5.29688E-06-3.52158E-05-1.40752E-08-8.28580E-19-1.57234E-19
 -1       285 8.78213E-05-6.29435E-06-3.49581E-05-2.83426E-06 9.23082E-19 2.85414E-18
 -1       286 8.89013E-05-9.03580E-06-3.42421E-05-5.01561E-06-5.07465E-19 6.69389E-19
 -1       287 9.03561E-05-1.28513E-05-3.32239E-05-6.16192E-06 3.66027E-19-7.14799E-19
 -1       288 9.19295E-05-1.71516E-05-3.20486E-05-6.26215E-06-2.25529E-19-1.75062E-18
 -1       289 9.33540E-05-2.12106E-05-3.09135E-05-5.48269E-06-2.17067E-19-1.08994E-18
 -1       290 9.45391E-05-2.45838E-05-2.99727E-05-4.01660E-06-1.32205E-18 3.18865E-19
 -1       291 9.56477E-05-2.67233E-05-2.95268E-05-3.43049E-06-4.47721E-19 5.03680E-19
 -1       292 1.39722E-05-5.40810E-05 1.34158E-05 6.82608E-06 6.92449E-20-7.29084E-19
 -1       293 2.70263E-05-4.83060E-05 5.96664E-06 2.07114E-05 1.71799E-18 4.91073E-18
 -1       294 5.30808E-05-3.96508E-05-7.66966E-06 3.47816E-05 3.40253E-18 4.86605E-18
 -1       295 9.72984E-05-3.75156E-05-2.58951E-05 4.47655E-05 4.73216E-18 4.87976E-18
 -1       296 1.38899E-04-3.32418E-05-4.41528E-05 4.58944E-05 3.51953E-18 4.58986E-18
 -1       297 1.75531E-04-3.34439E-05-5.89193E-05 3.05672E-05 4.62059E-18 3.81165E-20
 -1       298 2.08815E-04-3.63363E-05-7.02689E-05 2.16845E-05 3.31169E-18 3.26425E-19
 -1       299 2.07863E-04-3.32995E-05-7.15656E-05-2.18913E-06 1.07224E-18 6.56530E-19
 -1       300 1.99019E-04-3.61282E-05-6.64919E-05-2.76471E-05 3.53001E-19-1.50200E-18
 -1       301 1.61868E-04-3.24005E-05-5.34130E-05-4.30897E-05 2.26608E-18-2.41002E-18
 -1       302 1.16898E-04-3.10944E-05-3.62824E-05-4.62165E-05 1.95559E-18-2.22600E-18
 -1       303 7.72323E-05-3.79267E-05-1.77638E-05-4.03359E-05 7.88164E-19-3.83706E-19
 -1       304 3.83211E-05-4.12866E-05-1.14628E-06-2.69928E-05 1.42789E-18-7.00576E-19
 -1       305 1.87010E-05-4.90735E-05 9.68240E-06-1.33476E-05 6.84826E-19-1.19898E-18
 -1       306 1.17582E-05-5.27661E-05 1.39079E-05-1.00695E-06-4.68952E-19-4.92105E-18
 -1       307 1.65247E-05-4.99114E-05 1.09062E-05 1.12419E-05-1.97655E-18-1.39252E-18
 -1       308 3.35377E-05-4.29228E-05 1.38315E-06 2.43112E-05-2.17539E-18-9.97249E-21
 -1       309 6.58504E-05-3.70841E-05-1.36227E-05 3.77856E-05-2.61331E-18-3.09209E-18
 -1       310 1.05541E-04-3.41885E-05-3.05642E-05 4.39806E-05-2.75307E-18-2.64380E-18
 -1       311 1.46759E-04-3.32471E-05-4.73014E-05 4.21519E-05-3.39935E-18 1.81053E-19
 -1       312 1.84889E-04-3.44927E-05-6.16696E-05 3.45305E-05-1.50084E-18-6.67038E-19
 -1       313 2.10473E-04-3.72042E-05-7.05709E-05 1.56906E-05-2.48519E-18 1.23455E-18
 -1       314 2.15821E-04-3.74452E-05-7.25619E-05-8.43522E-06-1.88465E-18 2.83939E-18
 -1       315 1.99817E-04-3.51875E-05-6.72178E-05-2.95583E-05-1.30020E-18 3.66681E-18
 -1       316 1.65529E-04-3.34802E-05-5.46724E-05-3.83567E-05-1.61729E-18 2.45237E-18
 -1       317 1.24494E-04-3.10826E-05-3.91724E-05-4.88308E-05-2.19022E-18 2.57371E-18
 -1       318 8.42378E-05-3.39646E-05-2.22014E-05-4.38686E-05-2.37783E-18 1.52233E-18
 -1       319 5.04124E-05-4.04430E-05-6.29614E-06-3.34334E-05-6.14311E-19 3.75326E-18
 -1       320 2.67785E-05-4.83842E-05 6.17083E-06-2.05891E-05 1.08314E-18 9.56353E-19
 -1       321 1.29468E-05-4.90039E-05 1.23276E-05-8.70418E-06 1.86495E-18 8.99443E-19
 -1       322 9.16504E-05-1.43975E-05-3.31714E-05-1.30666E-05-1.51355E-18-1.46668E-18
 -1       323 9.56996E-05-1.91004E-05-3.28914E-05-1.46336E-05-1.75150E-18-5.32618E-19
 -1       324 8.79999E-05-1.03728E-05-3.33240E-05-8.16542E-06-7.74350E-19-2.24678E-18
 -1       325 8.71932E-05-9.45775E-06-3.33637E-05-5.72131E-06-4.12500E-19-2.33940E-18
 -1       326 8.67337E-05-8.92723E-06-3.33906E-05-3.36832E-06-2.76016E-20-2.24056E-18
 -1       327 8.65290E-05-8.68742E-06-3.34042E-05-1.07297E-06 4.25277E-19-2.17708E-18
 -1       328 8.65376E-05-8.69688E-06-3.34039E-05 1.20393E-06 7.01800E-19-2.07860E-18
 -1       329 8.67609E-05-8.95752E-06-3.33895E-05 3.50138E-06 1.02069E-18-2.02340E-18
 -1       330 8.72320E-05-9.50104E-06-3.33620E-05 5.81710E-06 1.32109E-18-1.88686E-18
 -1       331 8.80696E-05-1.04517E-05-3.33202E-05 8.25698E-06 1.66785E-18-1.55842E-18
 -1       332 8.94830E-05-1.20339E-05-3.32591E-05 1.07662E-05 1.96413E-18-9.91062E-19
 -1       333 9.19017E-05-1.47223E-05-3.31580E-05 1.31716E-05 2.11370E-18-2.24867E-19
 -1       334 9.58042E-05-1.94572E-05-3.28279E-05 1.43782E-05 2.05557E-18 1.32852E-18
 -1       335 9.87911E-05-2.44442E-05-3.19511E-05 1.19001E-05 1.72379E-18 2.69648E-18
 -1       336 9.63895E-05-2.68122E-05-2.97894E-05 5.74336E-06 1.34106E-18 2.05561E-18
 -1       337 9.64367E-05-2.60291E-05-3.01303E-05-6.35342E-06-1.56047E-18-2.04132E-19
 -1       338 9.49160E-05-2.70272E-05-2.90698E-05-2.83883E-06-1.15866E-18-1.95078E-19
 -1       339 9.39395E-05-2.74252E-05-2.84914E-05-9.25616E-07-7.44080E-19-3.71907E-19
 -1       340 9.34194E-05-2.76381E-05-2.81852E-05 1.32816E-07-5.87471E-19-5.84248E-19
 -1       341 9.32256E-05-2.77906E-05-2.80408E-05 6.96260E-07-2.81123E-19-5.75481E-19
 -1       342 9.32409E-05-2.79194E-05-2.79940E-05 9.63196E-07-1.53637E-19-6.13949E-19
 -1       343 9.33786E-05-2.80333E-05-2.80051E-05 1.05077E-06-2.69016E-19-7.33642E-19
 -1       344 9.35794E-05-2.81334E-05-2.80487E-05 1.03225E-06-5.55817E-19-5.82817E-19
 -1       345 9.38051E-05-2.82194E-05-2.81088E-05 9.55355E-07-8.50554E-19-1.13526E-18
 -1       346 9.40324E-05-2.82916E-05-2.81753E-05 8.51934E-07-4.71439E-19-1.28027E-18
 -1       347 9.42489E-05-2.83508E-05-2.82427E-05 7.43627E-07-2.42225E-19-1.27623E-18
 -1       348 9.44498E-05-2.83986E-05-2.83082E-05 6.45426E-07-7.71847E-20-8.80222E-19
 -1       349 9.46359E-05-2.84368E-05-2.83714E-05 5.68126E-07-7.67102E-20-6.26081E-19
 -1       350 9.48121E-05-2.84679E-05-2.84334E-05 5.20076E-07 4.25388E-19-5.02996E-19
 -1       351 9.49865E-05-2.84945E-05-2.84965E-05 5.08482E-07-8.32837E-20-5.41801E-19
 -1       352 9.51701E-05-2.85195E-05-2.85642E-05 5.40359E-07-5.48107E-19-7.85190E-19
 -1       353 9.53763E-05-2.85464E-05-2.86407E-05 6.23207E-07-1.00986E-18-1.21582E-18
 -1       354 9.56209E-05-2.85792E-05-2.87311E-05 7.65393E-07-8.07909E-19-2.05717E-18
 -1       355 9.59225E-05-2.86226E-05-2.88413E-05 9.76206E-07-9.38837E-20-2.30423E-18
 -1       356 9.63019E-05-2.86826E-05-2.89777E-05 1.26546E-06 7.63842E-19-2.64286E-18
 -1       357 9.67826E-05-2.87667E-05-2.91471E-05 1.64244E-06 2.40632E-19-1.55366E-18
 -1       358 9.73899E-05-2.88851E-05-2.93561E-05 2.11381E-06-5.19717E-19-1.22242E-18
 -1       359 9.81503E-05-2.90512E-05-2.96104E-05 2.68001E-06 3.68705E-19-1.37347E-18
 -1       360 9.90903E-05-2.92836E-05-2.99134E-05 3.32924E-06-4.37673E-19-8.13920E-19
 -1       361 1.00235E-04-2.96088E-05-3.02648E-05 4.02823E-06-1.06268E-19-7.79984E-19
 -1       362 1.01604E-04-3.00637E-05-3.06575E-05 4.70861E-06 2.82298E-19-8.07596E-19
 -1       363 1.03209E-04-3.06981E-05-3.10759E-05 5.24889E-06 1.09387E-18-1.68354E-18
 -1       364 1.05049E-04-3.15717E-05-3.14934E-05 5.45459E-06 6.65009E-19-1.77549E-18
 -1       365 1.07088E-04-3.27373E-05-3.18733E-05 5.04578E-06-5.06243E-20-1.01991E-18
 -1       366 1.09232E-04-3.41909E-05-3.21758E-05 3.67476E-06 1.10867E-20-1.12015E-18
 -1       367 1.11260E-04-3.57734E-05-3.23722E-05 1.01763E-06-2.57465E-19-9.53417E-20
 -1       368 1.12738E-04-3.70323E-05-3.24688E-05-3.00231E-06-7.26792E-19 8.12952E-19
 -1       369 1.12992E-04-3.71556E-05-3.25192E-05-7.84120E-06 9.45864E-20 2.14551E-19
 -1       370 1.11322E-04-3.52345E-05-3.26123E-05-1.19522E-05-1.18230E-18-1.69336E-18
 -1       371 1.07744E-04-3.12018E-05-3.27989E-05-1.29675E-05-1.34598E-18-2.66627E-18
 -1       372 1.03721E-04-2.67301E-05-3.29971E-05-9.15187E-06 6.22218E-19-2.20163E-18
 -1       373 1.01653E-04-2.46416E-05-3.30109E-05-1.46675E-06 8.45226E-19-2.14680E-18
 -1       374 1.02824E-04-2.64652E-05-3.27283E-05 6.22233E-06 1.66055E-19 7.65159E-20
 -1       375 1.05987E-04-3.07222E-05-3.22559E-05 1.00126E-05-1.15798E-18 1.27701E-18
 -1       376 1.08706E-04-3.45353E-05-3.17932E-05 8.91546E-06 5.51445E-19 8.40442E-19
 -1       377 1.09504E-04-3.61991E-05-3.14336E-05 4.69693E-06 1.86307E-18-7.45880E-19
 -1       378 1.08358E-04-3.57510E-05-3.11392E-05-2.10545E-07 2.85409E-18 4.24043E-19
 -1       379 1.05970E-04-3.40487E-05-3.08415E-05-4.12647E-06 1.27425E-18 2.45437E-18
 -1       380 1.03056E-04-3.18864E-05-3.05109E-05-6.33066E-06 9.71565E-19 2.70300E-18
 -1       381 1.00108E-04-2.97071E-05-3.01722E-05-6.71495E-06 6.77463E-19 2.88053E-18
 -1       382 9.77376E-05-2.80336E-05-2.98614E-05-5.56455E-06 1.11738E-18 1.87305E-18
 -1       383 9.43687E-05-2.73408E-05-2.86881E-05 2.47120E-06 1.11029E-18 1.72321E-18
 -1       384 9.31613E-05-2.74605E-05-2.81357E-05 7.46725E-07 9.71017E-19 1.32007E-18
 -1       385 9.26058E-05-2.75377E-05-2.78764E-05-1.73620E-07 4.26010E-19 8.33280E-19
 -1       386 9.24621E-05-2.76297E-05-2.77811E-05-6.48414E-07 9.87234E-20 4.76748E-19
 -1       387 9.25623E-05-2.77383E-05-2.77801E-05-8.65498E-07 3.89953E-19 3.65576E-19
 -1       388 9.27952E-05-2.78536E-05-2.78317E-05-9.29962E-07 5.59376E-19 5.92691E-19
 -1       389 9.30894E-05-2.79668E-05-2.79100E-05-9.05347E-07 6.91917E-19 5.56077E-19
 -1       390 9.34005E-05-2.80715E-05-2.79987E-05-8.32191E-07 2.65773E-19 2.96581E-19
 -1       391 9.37024E-05-2.81646E-05-2.80883E-05-7.37214E-07 3.71008E-20 3.27975E-19
 -1       392 9.39820E-05-2.82451E-05-2.81737E-05-6.38365E-07 3.87931E-20 5.50130E-20
 -1       393 9.42349E-05-2.83134E-05-2.82527E-05-5.47939E-07 1.25457E-18-9.69046E-20
 -1       394 9.44629E-05-2.83712E-05-2.83255E-05-4.74653E-07 6.52975E-19-3.37622E-20
 -1       395 9.46727E-05-2.84211E-05-2.83938E-05-4.25143E-07 3.15804E-19 1.11395E-19
 -1       396 9.48743E-05-2.84663E-05-2.84606E-05-4.05055E-07 7.69314E-19 4.12019E-20
 -1       397 9.50809E-05-2.85105E-05-2.85299E-05-4.19869E-07 7.39304E-19-1.03285E-18
 -1       398 9.53087E-05-2.85582E-05-2.86067E-05-4.75495E-07 3.40411E-21-7.78997E-19
 -1       399 9.55768E-05-2.86146E-05-2.86970E-05-5.78637E-07-7.20355E-19-9.11665E-19
 -1       400 9.59071E-05-2.86858E-05-2.88076E-05-7.36923E-07-3.66299E-19-8.39858E-19
 -1       401 9.63251E-05-2.87790E-05-2.89463E-05-9.58669E-07-1.61385E-19-5.68710E-19
 -1       402 9.68590E-05-2.89028E-05-2.91215E-05-1.25215E-06 6.60356E-19 9.61886E-20
 -1       403 9.75398E-05-2.90676E-05-2.93421E-05-1.62407E-06 1.97269E-19 6.78773E-20
 -1       404 9.83995E-05-2.92858E-05-2.96166E-05-2.07675E-06-5.51127E-19-5.91504E-19
 -1       405 9.94691E-05-2.95725E-05-2.99519E-05-2.60338E-06-8.40072E-20 5.40482E-19
 -1       406 1.00774E-04-2.99459E-05-3.03514E-05-3.18039E-06-2.12260E-19 8.63984E-19
 -1       407 1.02329E-04-3.04278E-05-3.08120E-05-3.75599E-06 1.94132E-19 8.31800E-19
 -1       408 1.04124E-04-3.10434E-05-3.13198E-05-4.23434E-06 4.12635E-19 9.61408E-19
 -1       409 1.06118E-04-3.18174E-05-3.18459E-05-4.45735E-06 7.64174E-19 1.21942E-18
 -1       410 1.08209E-04-3.27622E-05-3.23423E-05-4.19165E-06-3.73224E-21 1.01282E-18
 -1       411 1.10216E-04-3.38488E-05-3.27424E-05-3.14010E-06-5.68437E-19 6.64363E-19
 -1       412 1.11841E-04-3.49501E-05-3.29711E-05-1.01341E-06 5.28921E-19-1.32100E-18
 -1       413 1.12639E-04-3.57569E-05-3.29683E-05 2.28723E-06-4.06316E-19-3.06253E-19
 -1       414 1.12065E-04-3.57439E-05-3.27233E-05 6.35614E-06-6.14714E-19 1.77618E-18
 -1       415 1.09703E-04-3.43441E-05-3.23008E-05 9.99735E-06 8.57257E-20 2.02016E-18
 -1       416 1.05728E-04-3.14396E-05-3.18343E-05 1.13418E-05-1.38726E-19 2.60099E-18
 -1       417 1.01406E-04-2.80077E-05-3.14544E-05 8.81514E-06-2.00935E-19 1.50055E-18
 -1       418 9.87767E-05-2.59408E-05-3.12114E-05 2.75725E-06-4.10063E-19 2.73507E-19
 -1       419 9.91926E-05-2.65855E-05-3.11071E-05-4.08644E-06-1.82863E-18 2.10226E-19
 -1       420 1.02057E-04-2.93864E-05-3.11305E-05-8.34223E-06 1.49435E-18 4.24469E-19
 -1       421 1.05366E-04-3.24366E-05-3.12486E-05-8.50405E-06-7.98709E-20 1.04062E-18
 -1       422 1.07396E-04-3.42294E-05-3.13658E-05-5.50167E-06-9.82548E-19 3.47441E-18
 -1       423 1.07542E-04-3.44201E-05-3.13579E-05-1.31719E-06 1.20916E-18 2.23575E-18
 -1       424 1.06094E-04-3.34566E-05-3.11508E-05 2.38130E-06 1.78018E-18 7.43885E-19
 -1       425 1.03663E-04-3.19204E-05-3.07602E-05 4.72762E-06 1.28331E-18-1.41236E-18
 -1       426 1.00855E-04-3.02343E-05-3.02702E-05 5.46864E-06 9.08141E-19-1.94720E-18
 -1       427 9.81545E-05-2.86555E-05-2.97833E-05 4.68190E-06-1.41059E-18-1.11843E-18
 -1       428 9.66383E-05-2.77180E-05-2.95306E-05 3.67499E-06-1.10925E-18-6.96155E-19
 -1       429 9.41677E-05-2.21311E-05-3.08677E-05 9.79691E-06-7.01559E-19-9.01921E-19
 -1       430 9.56160E-05-2.48489E-05-3.03178E-05 8.05020E-06-1.13329E-18-1.21071E-18
 -1       431 9.62231E-05-2.63673E-05-2.99263E-05 5.91511E-06-1.41484E-18-1.49685E-18
 -1       432 9.22762E-05-1.89405E-05-3.14334E-05 1.04491E-05-2.64515E-18-1.26352E-18
 -1       433 9.00583E-05-1.55243E-05-3.19542E-05 9.48951E-06-2.81241E-18 1.75872E-18
 -1       434 8.80190E-05-1.25843E-05-3.23472E-05 6.69840E-06-2.64016E-18-2.27851E-18
 -1       435 8.67789E-05-1.08639E-05-3.25570E-05 2.41040E-06-1.52737E-18 9.09073E-19
 -1       436 8.67852E-05-1.08728E-05-3.25559E-05-2.45594E-06-9.75918E-19 1.24329E-18
 -1       437 8.80361E-05-1.26083E-05-3.23444E-05-6.73322E-06-6.08090E-19 4.43354E-19
 -1       438 9.00411E-05-1.54998E-05-3.19573E-05-9.47807E-06 9.81860E-19 1.69155E-18
 -1       439 9.22585E-05-1.89143E-05-3.14362E-05-1.04502E-05 1.70389E-18 5.57466E-19
 -1       440 9.41918E-05-2.21655E-05-3.08620E-05-9.80681E-06 1.69033E-18-1.93296E-18
 -1       441 9.56399E-05-2.48683E-05-3.03152E-05-8.04977E-06-1.69179E-20-2.06246E-18
 -1       442 5.93021E-05-4.46168E-05-6.43300E-06 4.46654E-05 1.13111E-18 4.16338E-18
 -1       443 1.36942E-05-2.36758E-05 4.21155E-06 1.98839E-06 2.83302E-18-9.52912E-21
 -1       444 2.54592E-05-3.21099E-05 2.53501E-06 2.78452E-05 3.17362E-18 3.87623E-18
 -1       445 1.00854E-04-5.71536E-05-1.87611E-05 4.37421E-05 8.03623E-19 3.89349E-18
 -1       446 1.37482E-04-5.76411E-05-3.41571E-05 2.63517E-05 1.56098E-18 3.23037E-19
 -1       447 8.94241E-05-1.19266E-05-3.32757E-05-1.07630E-05-1.16722E-18-2.03693E-18
 -1       448 1.60452E-04-2.29836E-05-5.87259E-05 1.43249E-06 2.70225E-18 1.74595E-19
 -1       449 1.62784E-04-1.44006E-05-6.32600E-05 1.24505E-06 2.67006E-18-3.68909E-19
 -1       450 1.58776E-04-1.71315E-05-6.06338E-05 4.92518E-06 2.07343E-18-8.57568E-19
 -1       451 1.61769E-04-3.31816E-05-5.47724E-05-3.89109E-06 1.59862E-18-1.20279E-18
 -1       452 1.47203E-04-4.89599E-05-4.20216E-05-1.61802E-05 8.93593E-19-1.32656E-18
 -1       453 1.25591E-04-5.95458E-05-2.82932E-05-2.98529E-05 5.94829E-19-2.25565E-18
 -1       454 7.94851E-05-4.99775E-05-1.27442E-05-4.37187E-05-1.38278E-19-7.41419E-20
 -1       455 4.01681E-05-3.69210E-05-1.64830E-06-3.66799E-05-1.44684E-18-2.28646E-19
 -1       456 1.52658E-05-2.79842E-05 5.03225E-06-1.55764E-05-1.90582E-18-3.36113E-18
 -1       457 1.33429E-05-2.60283E-05 5.09859E-06 1.12862E-05 2.40769E-19-2.48858E-18
 -1       458 3.54994E-05-3.37037E-05-8.63908E-07 3.45330E-05-3.48342E-19-1.25456E-18
 -1       459 6.96148E-05-4.70375E-05-9.87793E-06 4.29960E-05-2.16766E-18-2.65562E-18
 -1       460 1.10230E-04-5.58697E-05-2.33733E-05 3.70649E-05-1.25213E-18-1.17409E-18
 -1       461 1.40792E-04-5.45431E-05-3.69920E-05 1.93575E-05-2.50367E-18 2.43173E-18
 -1       462 1.56323E-04-3.98666E-05-4.98600E-05 4.37820E-06-1.82660E-18 1.17494E-18
 -1       463 1.59742E-04-2.29455E-05-5.85016E-05-3.63403E-06-1.57876E-18 2.49112E-18
 -1       464 1.64409E-04-1.48075E-05-6.38119E-05-2.43445E-06-2.21520E-18 6.78023E-19
 -1       465 1.58332E-04-1.59234E-05-6.10160E-05 7.29419E-07-1.80482E-18 4.01970E-19
 -1       466 1.59731E-04-2.93480E-05-5.57345E-05-1.21884E-06-1.58840E-18 2.09397E-18
 -1       467 1.49466E-04-5.01769E-05-4.25702E-05-1.53977E-05-1.25234E-18 3.30883E-18
 -1       468 1.26987E-04-5.59846E-05-3.04420E-05-3.39438E-05-2.20334E-18 2.21721E-18
 -1       469 9.51690E-05-5.50916E-05-1.72538E-05-4.44827E-05-1.63054E-20 1.86302E-18
 -1       470 5.54842E-05-4.40300E-05-5.20140E-06-4.30200E-05 2.06253E-18 4.11933E-18
 -1       471 2.83760E-05-3.06707E-05 9.48352E-07-3.03504E-05 2.12521E-18 3.86141E-19
 -1       472 1.52168E-04-4.55303E-05-4.57933E-05 1.15665E-05 2.08447E-18-2.63819E-18
 -1       473 1.48778E-04-3.60049E-05-4.86477E-05-6.66056E-06 7.81335E-19-1.07213E-18
 -1       474 9.58183E-05-2.51481E-05-3.02730E-05 6.02099E-06 1.44166E-18 2.78849E-19
 -1       475 8.95432E-05-1.34043E-05-3.26499E-05-3.92539E-06-1.60247E-19-1.98142E-18
 -1       476 9.02524E-05-1.43693E-05-3.25416E-05-5.88170E-06-4.81538E-19-1.97651E-18
 -1       477 8.90468E-05-1.27249E-05-3.27272E-05 5.47400E-08 5.22574E-19-1.86549E-18
 -1       478 8.91818E-05-1.29081E-05-3.27068E-05 2.04680E-06 8.28678E-19-1.89667E-18
 -1       479 8.95758E-05-1.34450E-05-3.26466E-05 4.00037E-06 1.05719E-18-1.74177E-18
 -1       480 9.02987E-05-1.44313E-05-3.25356E-05 5.95514E-06 1.49388E-18-1.50092E-18
 -1       481 9.14448E-05-1.60089E-05-3.23527E-05 7.78316E-06 1.69238E-18-1.14047E-18
 -1       482 9.32324E-05-1.84796E-05-3.20571E-05 9.29873E-06 1.85639E-18-6.08714E-19
 -1       483 1.28320E-04-6.42940E-05-2.73742E-05 2.69958E-05-8.38007E-19-2.97655E-18
 -1       484 9.51105E-05-2.65778E-05-2.93532E-05 2.87760E-06 1.33552E-18 1.15424E-19
 -1       485 9.54800E-05-2.44340E-05-3.04384E-05-5.82367E-06-1.24286E-18-8.33644E-19
 -1       486 9.52712E-05-2.62232E-05-2.95838E-05-2.90065E-06-9.79644E-19-7.87128E-19
 -1       487 9.49156E-05-2.71623E-05-2.90332E-05-1.03686E-06-6.37317E-19-6.68608E-19
 -1       488 9.46388E-05-2.76932E-05-2.86893E-05 8.53084E-08-5.22220E-19-3.66052E-19
 -1       489 9.44817E-05-2.80186E-05-2.84836E-05 7.20267E-07-2.65823E-19-4.33948E-19
 -1       490 9.44263E-05-2.82292E-05-2.83701E-05 1.03879E-06-4.35892E-19-7.16923E-19
 -1       491 9.44423E-05-2.83687E-05-2.83174E-05 1.15634E-06-3.32310E-19-9.87010E-19
 -1       492 9.45026E-05-2.84605E-05-2.83040E-05 1.15171E-06-8.50640E-19-7.37211E-19
 -1       493 9.45873E-05-2.85187E-05-2.83154E-05 1.07892E-06-5.44295E-19-3.65618E-19
 -1       494 9.46829E-05-2.85523E-05-2.83420E-05 9.75350E-07-2.25334E-19-5.50071E-20
 -1       495 9.47816E-05-2.85674E-05-2.83778E-05 8.67141E-07 2.62877E-19-1.49262E-19
 -1       496 9.48797E-05-2.85685E-05-2.84193E-05 7.72949E-07-9.21618E-20-2.16578E-19
 -1       497 9.49769E-05-2.85586E-05-2.84651E-05 7.06671E-07 4.38449E-20-3.47408E-19
 -1       498 9.50754E-05-2.85396E-05-2.85154E-05 6.79450E-07-2.35359E-19-8.89776E-19
 -1       499 9.51791E-05-2.85131E-05-2.85711E-05 7.01172E-07-7.27488E-19-1.27429E-18
 -1       500 9.52941E-05-2.84801E-05-2.86344E-05 7.81534E-07-1.19876E-18-1.37760E-18
 -1       501 9.54274E-05-2.84415E-05-2.87079E-05 9.30733E-07-1.48112E-18-1.39665E-18
 -1       502 9.55878E-05-2.83985E-05-2.87949E-05 1.15977E-06-9.64698E-19-1.56979E-18
 -1       503 9.57854E-05-2.83535E-05-2.88987E-05 1.48025E-06-4.11770E-20-2.08307E-18
 -1       504 9.60318E-05-2.83102E-05-2.90226E-05 1.90362E-06 1.27829E-18-1.70814E-18
 -1       505 9.63405E-05-2.82759E-05-2.91693E-05 2.43949E-06 4.81121E-19-9.14339E-19
 -1       506 9.67275E-05-2.82632E-05-2.93404E-05 3.09272E-06-3.71234E-19-8.40297E-19
 -1       507 9.72132E-05-2.82937E-05-2.95353E-05 3.85870E-06-1.54243E-19-1.91334E-18
 -1       508 9.78247E-05-2.84031E-05-2.97504E-05 4.71619E-06-3.75734E-19-1.67765E-18
 -1       509 9.86015E-05-2.86493E-05-2.99780E-05 5.61675E-06 2.07163E-19-1.81781E-18
 -1       510 9.96032E-05-2.91204E-05-3.02061E-05 6.46993E-06 2.67012E-19-1.43241E-18
 -1       511 1.00920E-04-2.99425E-05-3.04191E-05 7.12394E-06 8.97775E-19-1.23332E-18
 -1       512 1.02676E-04-3.12737E-05-3.06034E-05 7.34296E-06 6.24028E-19-1.78984E-18
 -1       513 1.05019E-04-3.32627E-05-3.07583E-05 6.78757E-06 2.33730E-19-1.68963E-18
 -1       514 1.08047E-04-3.59312E-05-3.09160E-05 5.02009E-06 2.24922E-19-9.44160E-19
 -1       515 1.11627E-04-3.89359E-05-3.11666E-05 1.59276E-06 1.76174E-19-5.58190E-19
 -1       516 1.15128E-04-4.12635E-05-3.16765E-05-3.65348E-06-3.89929E-19 4.31029E-19
 -1       517 1.17194E-04-4.10915E-05-3.26368E-05-1.00147E-05-1.44834E-18 8.04932E-19
 -1       518 1.16221E-04-3.66214E-05-3.41402E-05-1.49850E-05-1.33334E-18 1.56401E-18
 -1       519 1.12011E-04-2.83576E-05-3.59145E-05-1.47571E-05-5.34107E-19 7.17156E-19
 -1       520 1.07765E-04-2.13018E-05-3.71603E-05-7.37895E-06 5.01768E-19-2.79073E-19
 -1       521 1.07531E-04-2.12494E-05-3.70806E-05 3.63699E-06 1.63407E-18 7.95484E-19
 -1       522 1.11242E-04-2.81357E-05-3.56892E-05 1.10873E-05 1.22696E-18 9.00443E-19
 -1       523 1.15019E-04-3.63390E-05-3.37483E-05 1.12542E-05-6.95512E-19 2.79340E-18
 -1       524 1.15598E-04-4.07569E-05-3.20927E-05 6.18077E-06 1.00732E-19 1.27907E-18
 -1       525 1.13093E-04-4.07724E-05-3.10101E-05-2.80758E-07 2.39154E-18-3.81212E-19
 -1       526 1.09049E-04-3.80584E-05-3.04368E-05-5.53156E-06 2.07212E-18-1.22156E-18
 -1       527 1.04833E-04-3.43996E-05-3.01926E-05-8.66576E-06 1.97112E-18 2.87447E-19
 -1       528 1.01097E-04-3.07878E-05-3.01326E-05-9.64097E-06 8.51162E-19-7.03470E-19
 -1       529 9.41392E-05-2.76859E-05-2.84764E-05-1.14893E-07 6.12806E-19-2.73819E-19
 -1       530 9.39622E-05-2.79320E-05-2.82974E-05-7.23923E-07 3.74115E-19-5.82703E-19
 -1       531 9.39315E-05-2.81024E-05-2.82122E-05-1.02210E-06 2.83310E-19-5.76681E-19
 -1       532 9.39950E-05-2.82273E-05-2.81864E-05-1.12668E-06 4.29879E-19-3.26791E-19
 -1       533 9.41123E-05-2.83204E-05-2.81969E-05-1.11480E-06 5.06812E-19 3.70563E-20
 -1       534 9.42552E-05-2.83895E-05-2.82287E-05-1.03834E-06 3.83349E-19-2.64760E-19
 -1       535 9.44061E-05-2.84395E-05-2.82720E-05-9.32649E-07 3.88263E-19-2.28620E-19
 -1       536 9.45551E-05-2.84741E-05-2.83209E-05-8.22157E-07 5.16452E-19-8.41742E-20
 -1       537 9.46979E-05-2.84965E-05-2.83724E-05-7.24078E-07 9.88080E-19 2.58519E-20
 -1       538 9.48347E-05-2.85090E-05-2.84256E-05-6.51062E-07 5.05925E-19-1.75956E-19
 -1       539 9.49691E-05-2.85141E-05-2.84808E-05-6.13120E-07 3.77915E-19 1.22986E-19
 -1       540 9.51069E-05-2.85136E-05-2.85399E-05-6.19039E-07 1.16994E-18-3.08884E-19
 -1       541 9.52564E-05-2.85095E-05-2.86056E-05-6.77428E-07 3.75289E-19 1.18248E-19
 -1       542 9.54279E-05-2.85040E-05-2.86812E-05-7.97409E-07-3.17673E-19-1.46642E-19
 -1       543 9.56334E-05-2.84995E-05-2.87709E-05-9.88956E-07-4.30118E-19-2.67732E-19
 -1       544 9.58869E-05-2.84994E-05-2.88793E-05-1.26282E-06-1.92649E-19-6.96483E-19
 -1       545 9.62043E-05-2.85086E-05-2.90111E-05-1.62988E-06-3.68007E-19-1.00369E-18
 -1       546 9.66035E-05-2.85340E-05-2.91709E-05-2.09969E-06 3.69120E-19-1.83583E-19
 -1       547 9.71042E-05-2.85867E-05-2.93626E-05-2.67784E-06 4.01486E-19-3.56672E-19
 -1       548 9.77288E-05-2.86839E-05-2.95883E-05-3.36147E-06-5.62645E-19-1.32523E-18
 -1       549 9.85026E-05-2.88524E-05-2.98476E-05-4.13234E-06-2.57115E-19-1.45022E-18
 -1       550 9.94556E-05-2.91340E-05-3.01357E-05-4.94624E-06-2.04923E-20-8.33897E-19
 -1       551 1.00626E-04-2.95916E-05-3.04419E-05-5.71811E-06-5.07145E-20-6.27901E-19
 -1       552 1.02062E-04-3.03135E-05-3.07499E-05-6.30294E-06 2.13285E-19-5.51564E-20
 -1       553 1.03826E-04-3.14099E-05-3.10385E-05-6.47487E-06 3.88387E-20 5.72297E-19
 -1       554 1.05973E-04-3.29824E-05-3.12889E-05-5.91421E-06 4.89515E-19 1.12216E-18
 -1       555 1.08509E-04-3.50404E-05-3.14977E-05-4.22827E-06 9.18267E-19 1.19127E-19
 -1       556 1.11270E-04-3.73403E-05-3.16988E-05-1.04442E-06-7.81680E-19 2.11990E-18
 -1       557 1.13714E-04-3.91210E-05-3.19829E-05 3.71880E-06-1.20547E-18 2.91421E-18
 -1       558 1.14852E-04-3.90935E-05-3.24788E-05 9.33081E-06-4.39685E-19 3.04906E-18
 -1       559 1.13606E-04-3.59855E-05-3.32735E-05 1.37893E-05-1.72530E-19 2.69771E-18
 -1       560 1.09836E-04-2.98945E-05-3.42860E-05 1.40672E-05 1.28663E-18 1.67395E-18
 -1       561 1.05772E-04-2.40282E-05-3.50778E-05 8.34359E-06 6.33614E-19 1.40269E-18
 -1       562 1.04611E-04-2.26976E-05-3.51485E-05-1.19679E-06-2.18515E-19 1.84348E-18
 -1       563 1.07125E-04-2.69437E-05-3.43975E-05-9.03274E-06-1.56972E-19-9.89192E-20
 -1       564 1.10794E-04-3.33709E-05-3.31951E-05-1.11378E-05 4.54104E-19 6.16534E-19
 -1       565 1.12558E-04-3.77356E-05-3.20787E-05-7.94954E-06-1.02720E-18 1.69105E-18
 -1       566 1.11658E-04-3.87152E-05-3.12804E-05-2.36100E-06 1.26659E-18-3.04135E-19
 -1       567 1.08913E-04-3.71399E-05-3.07773E-05 2.93134E-06 2.80386E-18-1.16435E-19
 -1       568 1.05467E-04-3.43927E-05-3.04717E-05 6.55627E-06 1.50866E-18-1.14783E-18
 -1       569 1.02040E-04-3.14146E-05-3.02728E-05 8.18703E-06 1.08420E-18 5.98498E-19
 -1       570 9.89132E-05-2.86564E-05-3.01073E-05 7.95404E-06-1.52979E-19 1.26954E-18
 -1       571 9.17689E-05-2.11651E-05-3.02619E-05 1.33978E-05-2.22115E-19 1.40165E-18
 -1       572 8.81192E-05-1.76689E-05-3.01990E-05 1.11820E-05-1.13175E-18-2.58622E-19
 -1       573 9.71556E-05-2.66982E-05-3.02005E-05 1.14093E-05-1.83097E-19-1.82094E-18
 -1       574 9.49819E-05-2.43632E-05-3.02589E-05 1.32260E-05-1.06766E-19-6.12679E-19
 -1       575 8.51214E-05-1.48531E-05-3.01240E-05 6.41352E-06-1.55031E-18-1.54118E-18
 -1       576 8.39601E-05-1.37716E-05-3.00913E-05-3.30947E-08-1.82170E-18 1.62970E-18
 -1       577 8.51447E-05-1.48746E-05-3.01249E-05-6.46571E-06-4.95622E-20 3.71304E-18
 -1       578 8.80898E-05-1.76408E-05-3.01986E-05-1.11569E-05 1.98643E-18 2.52272E-18
 -1       579 9.17433E-05-2.11401E-05-3.02619E-05-1.34024E-05 6.28939E-19 8.07147E-20
 -1       580 9.49471E-05-2.43449E-05-3.02552E-05-1.32521E-05-2.02280E-19-1.22119E-18
 -1       581 9.71784E-05-2.67132E-05-3.02044E-05-1.13370E-05-6.69274E-19-2.78784E-18
 -1       582 3.14527E-05-1.85788E-05-4.86949E-06 1.92638E-05 2.66561E-18 8.13152E-19
 -1       583 9.03436E-05-5.04679E-05-1.67386E-05 4.37449E-05-4.31987E-20 1.64361E-18
 -1       584 9.45174E-05-2.72934E-05-2.88016E-05 9.88468E-07 9.66074E-19-4.37372E-21
 -1       585 3.30404E-05-1.62918E-05-6.42864E-06-1.57169E-05 2.13188E-18 2.04627E-18
 -1       586 5.31607E-05-3.23904E-05-8.36755E-06 3.92970E-05 1.00262E-18 3.17569E-18
 -1       587 9.46284E-05-2.07699E-05-3.16747E-05-9.51872E-06-1.49453E-18-1.21896E-18
 -1       588 5.71576E-05-3.53426E-05-8.83459E-06-4.14660E-05-2.66868E-19 4.21859E-18
 -1       589 1.38333E-04-8.96327E-06-5.60006E-05 7.77660E-08-1.76797E-18 6.25137E-19
 -1       590 8.91619E-05-1.28833E-05-3.27089E-05-1.93798E-06 1.94932E-19-1.87955E-18
 -1       591 1.40747E-04-2.48247E-05-5.02637E-05 1.35017E-05 1.82202E-18-5.94194E-19
 -1       592 1.39057E-04-1.43691E-05-5.40040E-05-6.88824E-06 2.61214E-18-1.10908E-18
 -1       593 1.39830E-04-6.23259E-05-3.34157E-05-1.48291E-05-1.16017E-19 1.19368E-18
 -1       594 1.34452E-04-8.24811E-06-5.47618E-05 3.86467E-06 2.55370E-18-1.26216E-18
 -1       595 1.46060E-04-4.41002E-05-4.40639E-05 7.28143E-06 1.86654E-18-9.24960E-19
 -1       596 1.40189E-04-5.77314E-05-3.54649E-05-7.39345E-06 1.72271E-18-1.55912E-18
 -1       597 1.11102E-04-5.85551E-05-2.23093E-05-3.36071E-05 1.12735E-18-2.38204E-18
 -1       598 6.82629E-05-4.09952E-05-1.13250E-05-4.19636E-05-8.61485E-19-1.42413E-18
 -1       599 3.69536E-05-2.33023E-05-5.28591E-06-2.90932E-05-1.89561E-18-1.31481E-18
 -1       600 2.19420E-05-1.53265E-05-2.24044E-06-6.15086E-06-8.20947E-19-2.05363E-18
 -1       601 3.05144E-05-2.11524E-05-3.50020E-06 2.46413E-05-5.20608E-19-1.80979E-18
 -1       602 6.51961E-05-3.93353E-05-1.06550E-05 4.16496E-05-9.17813E-19-3.32032E-18
 -1       603 1.01355E-04-5.61052E-05-1.91764E-05 3.85239E-05-5.50783E-19-4.43839E-19
 -1       604 1.31250E-04-6.25382E-05-2.95044E-05 2.00081E-05-7.89461E-19 1.56540E-18
 -1       605 1.43350E-04-5.10233E-05-3.98433E-05-4.75855E-06-2.15325E-18 2.57630E-18
 -1       606 1.41413E-04-3.41038E-05-4.65417E-05-1.39278E-05-2.26407E-18 2.18709E-18
 -1       607 1.39195E-04-1.29235E-05-5.46580E-05-9.47596E-06-1.35557E-18 1.55899E-18
 -1       608 1.39863E-04-2.05069E-05-5.17099E-05 9.41276E-06-1.05636E-18-9.90340E-19
 -1       609 1.46116E-04-4.23703E-05-4.48417E-05 6.13539E-06-1.26412E-18-3.53213E-19
 -1       610 1.22377E-04-6.29773E-05-2.53036E-05-3.22771E-05 7.43218E-19 2.61917E-18
 -1       611 8.87200E-05-5.14507E-05-1.56450E-05-4.48864E-05 1.07234E-18 2.66307E-18
 -1       612 1.44617E-04-5.69731E-05-3.78170E-05 6.56707E-06 4.86455E-19-4.34020E-18
 -1       613 9.61586E-05-2.31899E-05-3.12758E-05 9.58567E-06 1.75690E-18 6.92353E-19
 -1       614 1.26300E-04-1.51481E-05-4.81790E-05 1.28880E-05 1.15255E-18-1.78112E-18
 -1       615 9.13394E-05-1.59048E-05-3.23639E-05-7.67477E-06-8.97533E-19-1.89771E-18
 -1       616 1.28875E-04-6.18056E-05-2.88104E-05-1.54479E-05 1.60391E-18-1.96252E-18
 -1       617 9.89011E-05-2.85738E-05-3.01377E-05-9.20236E-06 9.73554E-20-6.93844E-19
 -1       618 9.15583E-05-1.68537E-05-3.20219E-05 2.44245E-06 9.12661E-19-1.61780E-18
 -1       619 9.13002E-05-1.64521E-05-3.20831E-05 8.41467E-07 6.47789E-19-1.62333E-18
 -1       620 9.28936E-05-1.90014E-05-3.16737E-05 5.26875E-06 1.23788E-18-1.12641E-18
 -1       621 9.39889E-05-2.09343E-05-3.13169E-05 6.14488E-06 1.50103E-18-7.49697E-19
 -1       622 9.20891E-05-4.60715E-05-1.94094E-05-3.45107E-05 2.33384E-19-2.24744E-18
 -1       623 9.52709E-05-2.40948E-05-3.04939E-05 5.15289E-06 1.43502E-18-5.06841E-19
 -1       624 1.39213E-04-4.53505E-05-4.05578E-05-8.52305E-06 3.23990E-20-2.76485E-18
 -1       625 9.54128E-05-2.57021E-05-2.98739E-05-2.44801E-06-7.04418E-19-9.85777E-19
 -1       626 9.54751E-05-2.69479E-05-2.93681E-05-8.74588E-07-4.47187E-19-8.46778E-19
 -1       627 9.54190E-05-2.77062E-05-2.90195E-05 1.27666E-07-4.47399E-19-7.59032E-19
 -1       628 9.53434E-05-2.81775E-05-2.87854E-05 7.16562E-07-5.24551E-19-8.34137E-19
 -1       629 9.52794E-05-2.84665E-05-2.86341E-05 1.02011E-06-5.04633E-19-8.47253E-19
 -1       630 9.52347E-05-2.86367E-05-2.85421E-05 1.13641E-06-2.88142E-19-5.02803E-19
 -1       631 9.52080E-05-2.87274E-05-2.84918E-05 1.13687E-06-3.75278E-19 2.41124E-19
 -1       632 9.51956E-05-2.87639E-05-2.84708E-05 1.07294E-06-1.89206E-19 1.54022E-19
 -1       633 9.51933E-05-2.87628E-05-2.84703E-05 9.81515E-07-4.25701E-19-1.53723E-19
 -1       634 9.51983E-05-2.87351E-05-2.84843E-05 8.89131E-07-5.21984E-20-3.41409E-19
 -1       635 9.52083E-05-2.86874E-05-2.85090E-05 8.15298E-07 1.19723E-19-3.07658E-19
 -1       636 9.52223E-05-2.86234E-05-2.85424E-05 7.75026E-07-5.69931E-19-2.47502E-19
 -1       637 9.52396E-05-2.85448E-05-2.85835E-05 7.80762E-07-7.36810E-19-5.98729E-19
 -1       638 9.52603E-05-2.84514E-05-2.86324E-05 8.43821E-07-9.28936E-19-5.86892E-19
 -1       639 9.52847E-05-2.83420E-05-2.86896E-05 9.75381E-07-1.04006E-18-3.18571E-19
 -1       640 9.53135E-05-2.82152E-05-2.87563E-05 1.18707E-06-9.75846E-19 1.63171E-19
 -1       641 9.53478E-05-2.80697E-05-2.88333E-05 1.49108E-06-6.07620E-19 4.12378E-19
 -1       642 9.53895E-05-2.79059E-05-2.89213E-05 1.89985E-06 9.29268E-19 1.57800E-19
 -1       643 9.54417E-05-2.77273E-05-2.90201E-05 2.42502E-06 1.27809E-18-4.94700E-19
 -1       644 9.55100E-05-2.75434E-05-2.91281E-05 3.07571E-06 1.78812E-19-4.12614E-20
 -1       645 9.56053E-05-2.73737E-05-2.92416E-05 3.85573E-06-8.87572E-19 5.35101E-19
 -1       646 9.57484E-05-2.72542E-05-2.93541E-05 4.75952E-06-4.71281E-19 2.60129E-19
 -1       647 9.59779E-05-2.72466E-05-2.94557E-05 5.76645E-06-9.62649E-20 7.88213E-20
 -1       648 9.63634E-05-2.74509E-05-2.95334E-05 6.83271E-06 4.16924E-19 4.80455E-19
 -1       649 9.70244E-05-2.80197E-05-2.95731E-05 7.87967E-06 6.87271E-19 9.02122E-19
 -1       650 9.81545E-05-2.91699E-05-2.95648E-05 8.77537E-06-5.49723E-19-3.27728E-19
 -1       651 1.00041E-04-3.11735E-05-2.95152E-05 9.30244E-06 5.19573E-19-5.62299E-19
 -1       652 1.03052E-04-3.42913E-05-2.94705E-05 9.10286E-06 5.62714E-19-4.73015E-20
 -1       653 1.07531E-04-3.85787E-05-2.95546E-05 7.61348E-06 6.69341E-19-6.73772E-20
 -1       654 1.13468E-04-4.34373E-05-3.00186E-05 3.99295E-06-3.61473E-19 6.56232E-19
 -1       655 1.19865E-04-4.68648E-05-3.13181E-05-2.49445E-06-3.63718E-19 1.14764E-18
 -1       656 1.24468E-04-4.55688E-05-3.38549E-05-1.11376E-05-1.24481E-18 3.46102E-18
 -1       657 1.23215E-04-3.59746E-05-3.76064E-05-1.75518E-05-2.23983E-18 3.37206E-18
 -1       658 1.16958E-04-2.13110E-05-4.13596E-05-1.48590E-05-4.13723E-20 3.23308E-18
 -1       659 1.13800E-04-1.44810E-05-4.29254E-05-2.04682E-06 1.66021E-18 1.73417E-18
 -1       660 1.17071E-04-2.16044E-05-4.12157E-05 1.05442E-05 5.56845E-19 1.01012E-18
 -1       661 1.22544E-04-3.58825E-05-3.73737E-05 1.33179E-05-4.92073E-20-1.25776E-18
 -1       662 1.23949E-04-4.58102E-05-3.35366E-05 6.82411E-06-7.36967E-19-1.24799E-18
 -1       663 1.19624E-04-4.71603E-05-3.10768E-05-1.87041E-06-1.80499E-19-2.35882E-19
 -1       664 1.13066E-04-4.33562E-05-2.98842E-05-8.33316E-06 1.52648E-18-1.32693E-18
 -1       665 1.06822E-04-3.78684E-05-2.95541E-05-1.17918E-05 1.74308E-18-1.62040E-18
 -1       666 1.01899E-04-3.26060E-05-2.96983E-05-1.27892E-05 1.50886E-18-2.59988E-18
 -1       667 9.49814E-05-2.81140E-05-2.86573E-05-7.30650E-07 3.51158E-19-6.73916E-19
 -1       668 1.00590E-04-3.09899E-05-2.98234E-05 1.27142E-05-4.42367E-19-2.18687E-18
 -1       669 9.50926E-05-2.77093E-05-2.88779E-05-1.20862E-07 6.90050E-19-7.21088E-19
 -1       670 9.48998E-05-2.85224E-05-2.84475E-05-1.15780E-06 3.47965E-19-4.48203E-19
 -1       671 9.49094E-05-2.86129E-05-2.84130E-05-1.15507E-06 4.31298E-19-6.02946E-20
 -1       672 9.49380E-05-2.86586E-05-2.84056E-05-1.08594E-06 1.91717E-19 2.48523E-19
 -1       673 9.49777E-05-2.86729E-05-2.84165E-05-9.87761E-07 4.71560E-19-1.41182E-20
 -1       674 9.50234E-05-2.86646E-05-2.84396E-05-8.87102E-07 4.96396E-19 3.49681E-20
 -1       675 9.50724E-05-2.86394E-05-2.84714E-05-8.03251E-07 5.49401E-19 9.01708E-19
 -1       676 9.51241E-05-2.86007E-05-2.85101E-05-7.50866E-07 2.20919E-19 9.77160E-19
 -1       677 9.51792E-05-2.85503E-05-2.85553E-05-7.41944E-07 9.31521E-19 6.90032E-19
 -1       678 9.52396E-05-2.84888E-05-2.86074E-05-7.87293E-07 5.44619E-19 1.45700E-18
 -1       679 9.53083E-05-2.84162E-05-2.86679E-05-8.97575E-07 3.61620E-19 1.37967E-18
 -1       680 9.53890E-05-2.83321E-05-2.87385E-05-1.08393E-06-1.93001E-19 7.85133E-19
 -1       681 9.54863E-05-2.82363E-05-2.88211E-05-1.35819E-06 5.07508E-19 1.64203E-19
 -1       682 9.56058E-05-2.81300E-05-2.89178E-05-1.73252E-06 4.35248E-20-2.15128E-19
 -1       683 9.57545E-05-2.80168E-05-2.90299E-05-2.21851E-06-2.02005E-19-8.63182E-19
 -1       684 9.59415E-05-2.79050E-05-2.91578E-05-2.82531E-06 5.56659E-19-1.82180E-19
 -1       685 9.61797E-05-2.78108E-05-2.93002E-05-3.55664E-06 4.49407E-20 6.91917E-19
 -1       686 9.64894E-05-2.77635E-05-2.94531E-05-4.40608E-06 1.81310E-19 1.18367E-19
 -1       687 9.69035E-05-2.78130E-05-2.96093E-05-5.35031E-06-1.05178E-18 2.45195E-19
 -1       688 9.74778E-05-2.80403E-05-2.97581E-05-6.33925E-06-1.14732E-20-2.13491E-19
 -1       689 9.83043E-05-2.85691E-05-2.98861E-05-7.28232E-06-2.74013E-19 3.20816E-19
 -1       690 9.95289E-05-2.95748E-05-2.99806E-05-8.02935E-06 1.31473E-19-2.91922E-19
 -1       691 1.01363E-04-3.12752E-05-3.00393E-05-8.34375E-06 3.63662E-20 2.06473E-19
 -1       692 1.04067E-04-3.38710E-05-3.00874E-05-7.86655E-06 5.07826E-19 9.51251E-19
 -1       693 1.07833E-04-3.73723E-05-3.02033E-05-6.11135E-06-5.75605E-19 1.96187E-18
 -1       694 1.12637E-04-4.13550E-05-3.05566E-05-2.45963E-06-2.24367E-18 1.45172E-18
 -1       695 1.17541E-04-4.41995E-05-3.14375E-05 3.45351E-06-1.66319E-19 9.90152E-19
 -1       696 1.20656E-04-4.35133E-05-3.30680E-05 1.09225E-05 8.74055E-19 7.42864E-19
 -1       697 1.18986E-04-3.60201E-05-3.57135E-05 1.66194E-05 1.27493E-18-2.51158E-19
 -1       698 1.14008E-04-2.47876E-05-3.84345E-05 1.50062E-05 3.04905E-19 5.38461E-20
 -1       699 1.09986E-04-1.73301E-05-3.99458E-05 4.72919E-06-4.78455E-19 1.61921E-19
 -1       700 1.11592E-04-2.06719E-05-3.92017E-05-7.71515E-06 2.31094E-19-3.03823E-20
 -1       701 1.16561E-04-3.14548E-05-3.66585E-05-1.32126E-05 4.06080E-19 6.80397E-20
 -1       702 1.20087E-04-4.13541E-05-3.37606E-05-9.79460E-06 4.29982E-19-1.38290E-18
 -1       703 1.18314E-04-4.44441E-05-3.16856E-05-2.42557E-06 1.40095E-18-4.18897E-18
 -1       704 1.13542E-04-4.25004E-05-3.04555E-05 4.48634E-06 1.12592E-18-4.16246E-18
 -1       705 1.08188E-04-3.82708E-05-2.99691E-05 8.96904E-06 1.72450E-18-2.37319E-18
 -1       706 1.04204E-04-3.47302E-05-2.97759E-05 1.15723E-05 1.34368E-18-2.08151E-18
 -1       707 8.01143E-05-1.57517E-05-2.75878E-05 4.35746E-06 8.04545E-19 5.56911E-19
 -1       708 9.93213E-05-2.94700E-05-2.99305E-05-1.23876E-05 1.08551E-18-3.02651E-18
 -1       709 8.96808E-05-2.30534E-05-2.85516E-05 1.58005E-05-5.84303E-19-1.10773E-18
 -1       710 8.01745E-05-1.57986E-05-2.75937E-05-4.43538E-06 2.07034E-18 2.89314E-18
 -1       711 8.39473E-05-1.87004E-05-2.79570E-05 1.17755E-05-7.66214E-19-1.63603E-18
 -1       712 1.35616E-04-6.00424E-05-3.26013E-05 8.65115E-06 1.00903E-19-3.34631E-18
 -1       713 8.38779E-05-1.86461E-05-2.79511E-05-1.17291E-05 5.13738E-19 3.88854E-18
 -1       714 8.96427E-05-2.30331E-05-2.85484E-05-1.57815E-05-1.89112E-19 9.37320E-19
 -1       715 9.50682E-05-2.70166E-05-2.91657E-05-1.61660E-05 3.51112E-19-1.30078E-18
 -1       716 9.41755E-05-2.09783E-05-3.13699E-05-7.06538E-06-1.05918E-18-1.33852E-18
 -1       717 1.07580E-04-5.50842E-05-2.23274E-05-3.50885E-05-1.60142E-20 3.53622E-18
 -1       718 7.63039E-05-3.52288E-05-1.72881E-05 3.61817E-05-1.22317E-19-2.97282E-19
 -1       719 5.71018E-05-2.20182E-05-1.45553E-05 2.63709E-05 1.76983E-18-3.37913E-19
 -1       720 1.34240E-04-5.78626E-05-3.28562E-05 1.51663E-06-5.41398E-19 2.77669E-18
 -1       721 6.03275E-05-2.96127E-05-1.26933E-05-3.42600E-05 4.97632E-21-1.97311E-18
 -1       722 1.38402E-04-5.30060E-05-3.68077E-05 3.12663E-06-2.92948E-19-7.39327E-19
 -1       723 9.52317E-05-2.70424E-05-2.92217E-05 9.30044E-07 9.27317E-19-4.76981E-19
 -1       724 9.49198E-05-2.83670E-05-2.85226E-05-1.04129E-06 1.61841E-19-6.38319E-19
 -1       725 9.50851E-05-2.38624E-05-3.05245E-05-4.48218E-06-9.94734E-19-1.15411E-18
 -1       726 1.30967E-04-3.18187E-05-4.29160E-05 1.37029E-05-9.95793E-19-1.70651E-18
 -1       727 9.20818E-05-1.76799E-05-3.18924E-05 3.95211E-06 1.06687E-18-1.37309E-18
 -1       728 1.12086E-04-5.52907E-05-2.41539E-05 3.11071E-05-1.19061E-18-1.79297E-18
 -1       729 1.24629E-04-1.33311E-05-4.82469E-05 6.64360E-06-1.72318E-19 3.83507E-19
 -1       730 9.20424E-05-1.76237E-05-3.18992E-05-3.89779E-06-3.24093E-19-1.76035E-18
 -1       731 5.92293E-05-2.51781E-05-1.41317E-05-3.03497E-05 2.18447E-18 2.82038E-18
 -1       732 9.53379E-05-2.59447E-05-2.97365E-05 2.60826E-06 1.31482E-18-4.62276E-19
 -1       733 1.36744E-04-5.07599E-05-3.70362E-05 8.29845E-06 1.78379E-18 8.95737E-20
 -1       734 1.33160E-04-3.63952E-05-4.18774E-05 1.68903E-05 1.67019E-18-6.19102E-19
 -1       735 1.22889E-04-1.13301E-05-4.84314E-05-3.02936E-06 1.36155E-18-3.12260E-18
 -1       736 5.46317E-05-2.63487E-05-1.16500E-05 3.21263E-05 7.30301E-20-3.32376E-18
 -1       737 3.78252E-05-1.53376E-05-9.08277E-06-1.61236E-05-1.89352E-19-1.45928E-18
 -1       738 3.75830E-05-1.30651E-05-9.92022E-06 9.49065E-06-3.38416E-19-2.29493E-18
 -1       739 9.14597E-05-4.65027E-05-1.89364E-05 3.55648E-05 4.91756E-19 1.37079E-18
 -1       740 1.16833E-04-5.83484E-05-2.49661E-05 2.51040E-05 4.99035E-19 2.03850E-18
 -1       741 1.34996E-04-4.14395E-05-4.02756E-05-1.52634E-05-1.60944E-18 4.36701E-18
 -1       742 1.25935E-04-2.16667E-05-4.51775E-05-1.60094E-05-8.98331E-19 4.00072E-18
 -1       743 1.23484E-04-1.04772E-05-4.90178E-05-5.53151E-06-2.38228E-20 2.45494E-18
 -1       744 1.30217E-04-6.15034E-05-2.94663E-05-1.72718E-05-3.53239E-19 5.31275E-19
 -1       745 8.44106E-05-4.29355E-05-1.74030E-05-3.98093E-05 4.20472E-19 2.84997E-18
 -1       746 4.57014E-05-1.34536E-05-1.33914E-05 2.82410E-06 1.05243E-18 1.89428E-18
 -1       747 1.30822E-04-2.47180E-05-4.59603E-05-1.28655E-05 7.83029E-19-4.70916E-18
 -1       748 9.28618E-05-1.89171E-05-3.16946E-05-5.29440E-06-6.33717E-19-1.61590E-18
 -1       749 9.12936E-05-1.64432E-05-3.20841E-05-7.83803E-07 2.77795E-19-1.57348E-18
 -1       750 1.11920E-04-5.42435E-05-2.46070E-05-2.41699E-05 3.31706E-19-2.44856E-18
 -1       751 9.51489E-05-2.71083E-05-2.91623E-05 1.62816E-05 2.13984E-18-1.56939E-19
 -1       752 1.23597E-04-5.72992E-05-2.83817E-05 1.74140E-05 5.72718E-19-1.93357E-18
 -1       753 5.72439E-05-1.64579E-05-1.72492E-05-1.37787E-05-1.81110E-19 2.22555E-18
 -1       754 9.88609E-05-3.03161E-05-2.93704E-05-1.51732E-05 2.69758E-19-2.63120E-18
 -1       755 9.15363E-05-1.68233E-05-3.20253E-05-2.38341E-06-4.68608E-20-1.60793E-18
 -1       756 9.46738E-05-2.27670E-05-3.08143E-05 3.91107E-06 1.13631E-18-6.52720E-19
 -1       757 9.58684E-05-2.68846E-05-2.95645E-05-5.90113E-07-2.26966E-19-1.08184E-18
 -1       758 9.59647E-05-2.77748E-05-2.92243E-05 2.14165E-07-4.97265E-19-6.39856E-19
 -1       759 9.59541E-05-2.83343E-05-2.89800E-05 6.92559E-07-5.34027E-19-6.41039E-19
 -1       760 9.58937E-05-2.86711E-05-2.88097E-05 9.40955E-07-1.21535E-19-6.72694E-19
 -1       761 9.58129E-05-2.88568E-05-2.86955E-05 1.03472E-06 2.46198E-20-3.86996E-19
 -1       762 9.57270E-05-2.89394E-05-2.86233E-05 1.03255E-06-3.26214E-19-1.46078E-19
 -1       763 9.56433E-05-2.89512E-05-2.85824E-05 9.78498E-07-3.93824E-19-1.45366E-19
 -1       764 9.55650E-05-2.89139E-05-2.85648E-05 9.05035E-07-1.82421E-19 2.02718E-19
 -1       765 9.54926E-05-2.88414E-05-2.85648E-05 8.36116E-07 2.68362E-20 6.47955E-20
 -1       766 9.54248E-05-2.87418E-05-2.85784E-05 7.89851E-07-2.46598E-19-2.85599E-19
 -1       767 9.53590E-05-2.86186E-05-2.86030E-05 7.80613E-07-1.00880E-18-8.64516E-20
 -1       768 9.52916E-05-2.84724E-05-2.86368E-05 8.20695E-07-7.80887E-19-1.63728E-19
 -1       769 9.52182E-05-2.83013E-05-2.86787E-05 9.21527E-07-1.19657E-18 3.53508E-19
 -1       770 9.51336E-05-2.81018E-05-2.87279E-05 1.09449E-06-7.92068E-19 4.63090E-19
 -1       771 9.50319E-05-2.78701E-05-2.87836E-05 1.35135E-06-1.27693E-19 4.70569E-19
 -1       772 9.49068E-05-2.76032E-05-2.88444E-05 1.70428E-06-1.12643E-19 4.56192E-19
 -1       773 9.47526E-05-2.73006E-05-2.89079E-05 2.16547E-06 6.60336E-19 4.48508E-19
 -1       774 9.45648E-05-2.69670E-05-2.89704E-05 2.74643E-06 1.10469E-18-5.52807E-20
 -1       775 9.43430E-05-2.66162E-05-2.90257E-05 3.45679E-06-4.96191E-20-9.01117E-20
 -1       776 9.40949E-05-2.62767E-05-2.90648E-05 4.30302E-06-6.57363E-19 8.80563E-19
 -1       777 9.38438E-05-2.60008E-05-2.90754E-05 5.28700E-06-7.12983E-19 1.71189E-18
 -1       778 9.36406E-05-2.58763E-05-2.90416E-05 6.40471E-06 1.11368E-19 1.11869E-18
 -1       779 9.35830E-05-2.60430E-05-2.89454E-05 7.64450E-06 6.02982E-19 6.84492E-19
 -1       780 9.38440E-05-2.67126E-05-2.87701E-05 8.98283E-06-2.53332E-19 7.22317E-19
 -1       781 9.47125E-05-2.81876E-05-2.85097E-05 1.03694E-05-7.95724E-19 1.91520E-18
 -1       782 9.66425E-05-3.08671E-05-2.81866E-05 1.16831E-05 3.20517E-19 1.10239E-18
 -1       783 1.00293E-04-3.51870E-05-2.78946E-05 1.25864E-05 5.22365E-19 7.70453E-19
 -1       784 1.06371E-04-4.13281E-05-2.78721E-05 1.23734E-05 2.88595E-19 2.91993E-19
 -1       785 1.15524E-04-4.87667E-05-2.86166E-05 9.68686E-06 1.74988E-19 9.86802E-19
 -1       786 1.26849E-04-5.45454E-05-3.09836E-05-6.34114E-06 9.72692E-19-1.78265E-18
 -1       787 1.16569E-04-4.92469E-05-2.88357E-05-1.37973E-05 5.61339E-19-7.73397E-19
 -1       788 1.07680E-04-4.14564E-05-2.83715E-05-1.65728E-05 9.36679E-19-3.03256E-19
 -1       789 1.02469E-04-3.53397E-05-2.87630E-05-1.62963E-05 2.42180E-19-5.86135E-19
 -1       790 9.57321E-05-2.77495E-05-2.91353E-05-1.90757E-07 5.78296E-19-2.92925E-19
 -1       791 9.55082E-05-2.88492E-05-2.85682E-05-1.08820E-06 2.47655E-19-2.30165E-19
 -1       792 9.55686E-05-2.87630E-05-2.86310E-05-1.09039E-06 2.61831E-19-6.04224E-20
 -1       793 9.54102E-05-2.88511E-05-2.85254E-05-9.46372E-07 4.04543E-19 6.13639E-20
 -1       794 9.53718E-05-2.87989E-05-2.85313E-05-8.66527E-07 5.17326E-20-3.54095E-19
 -1       795 9.53388E-05-2.87230E-05-2.85497E-05-8.07992E-07 1.66816E-19 2.52235E-19
 -1       796 9.53093E-05-2.86272E-05-2.85781E-05-7.85546E-07 4.39093E-19 2.54518E-19
 -1       797 9.52812E-05-2.85123E-05-2.86152E-05-8.11675E-07 3.19708E-19 1.09910E-18
 -1       798 9.52521E-05-2.83774E-05-2.86605E-05-8.97902E-07 4.95350E-19 8.47001E-19
 -1       799 9.52192E-05-2.82201E-05-2.87139E-05-1.05567E-06 3.29664E-19 8.52192E-19
 -1       800 9.51799E-05-2.80376E-05-2.87752E-05-1.29685E-06 3.51569E-19 4.84354E-19
 -1       801 9.51312E-05-2.78276E-05-2.88443E-05-1.63373E-06 6.66724E-19 4.28626E-19
 -1       802 9.50708E-05-2.75901E-05-2.89202E-05-2.07868E-06 9.48003E-20 3.56182E-19
 -1       803 9.49976E-05-2.73293E-05-2.90006E-05-2.64317E-06-2.45028E-21 1.79713E-19
 -1       804 9.49142E-05-2.70571E-05-2.90814E-05-3.33625E-06 1.00628E-19-7.52351E-20
 -1       805 9.48301E-05-2.67984E-05-2.91562E-05-4.16236E-06 7.10008E-19-6.25389E-20
 -1       806 9.47682E-05-2.65990E-05-2.92150E-05-5.11850E-06 3.44391E-20-7.11301E-20
 -1       807 9.47755E-05-2.65365E-05-2.92449E-05-6.19045E-06-6.12877E-19-1.22742E-18
 -1       808 9.49402E-05-2.67354E-05-2.92303E-05-7.34757E-06-4.94343E-19-5.32548E-19
 -1       809 9.54159E-05-2.73840E-05-2.91562E-05-8.53404E-06-7.98586E-19 5.26608E-19
 -1       810 9.64537E-05-2.87485E-05-2.90163E-05-9.65171E-06 4.23183E-19 1.04844E-18
 -1       811 9.84356E-05-3.11688E-05-2.88289E-05-1.05210E-05-6.65181E-19 2.25406E-19
 -1       812 1.01891E-04-3.49941E-05-2.86711E-05-1.07631E-05-7.27862E-19 1.18054E-18
 -1       813 1.07236E-04-4.02237E-05-2.87182E-05-9.74986E-06-7.36981E-19 2.13508E-18
 -1       814 1.14936E-04-4.63938E-05-2.94197E-05-6.03034E-06-1.47218E-18 7.21305E-19
 -1       815 1.23394E-04-5.06691E-05-3.11741E-05 8.89807E-07-2.31568E-19 1.41005E-18
 -1       816 1.18965E-04-4.90027E-05-2.99689E-05 8.22509E-06-7.39723E-20-1.41250E-18
 -1       817 1.10871E-04-4.28922E-05-2.91305E-05 1.29300E-05 8.37338E-20-1.62081E-18
 -1       818 5.75000E-05-2.03848E-05-1.55892E-05-2.23119E-05 1.10675E-18-2.45941E-18
 -1       819 9.32113E-05-1.97823E-05-3.14708E-05 1.23525E-06 7.17717E-19-1.32695E-18
 -1       820 9.68591E-05-4.17652E-05-2.34482E-05 2.98108E-05 1.10443E-18-1.98809E-18
 -1       821 7.35616E-05-1.59124E-05-2.46448E-05-3.15490E-08 1.04955E-18 3.71631E-18
 -1       822 9.39995E-05-2.97932E-05-2.75144E-05-1.94472E-05 1.35692E-20 2.84634E-19
 -1       823 7.59811E-05-3.29759E-05-1.82328E-05 3.06223E-05 2.01919E-18-3.73475E-19
 -1       824 1.16444E-04-5.38129E-05-2.67709E-05-2.26821E-05 6.21792E-19-7.27176E-19
 -1       825 9.56952E-05-2.69171E-05-2.94770E-05 6.96125E-07 9.34215E-19-1.58510E-19
 -1       826 7.43670E-05-2.68487E-05-2.01932E-05 2.67521E-05 1.49646E-18-9.26197E-19
 -1       827 8.51743E-05-2.39894E-05-2.62167E-05-1.80447E-05-5.38820E-19 3.57031E-18
 -1       828 9.54553E-05-2.88720E-05-2.85358E-05-1.02866E-06 3.50114E-19-3.04066E-19
 -1       829 7.86984E-05-3.35240E-05-1.91326E-05-2.93428E-05-3.14329E-22-9.04803E-19
 -1       830 9.55778E-05-2.55152E-05-3.00276E-05-1.80831E-06-4.53750E-19-1.21365E-18
 -1       831 4.77556E-05-1.30669E-05-1.45384E-05-5.16551E-06-4.30571E-19-1.94804E-18
 -1       832 7.67238E-05-1.81550E-05-2.50765E-05-1.12792E-05-4.33869E-19 1.77083E-18
 -1       833 8.02820E-05-3.38304E-05-1.96738E-05-3.21490E-05 6.42355E-19 6.72825E-18
 -1       834 1.05818E-04-4.95151E-05-2.39637E-05 2.52786E-05 6.01314E-19 2.90802E-18
 -1       835 9.52053E-05-2.44740E-05-3.03134E-05 3.42960E-06 1.19310E-18-4.73939E-19
 -1       836 1.22908E-04-5.57025E-05-2.87443E-05 1.08268E-05 1.46997E-18 1.35508E-18
 -1       837 5.54432E-05-1.85207E-05-1.55180E-05 1.95441E-05 8.34738E-19-1.97361E-18
 -1       838 9.70428E-05-4.46259E-05-2.23100E-05-3.25561E-05-1.35157E-18 2.78858E-18
 -1       839 5.98243E-05-1.62854E-05-1.84040E-05 1.28955E-05 9.88256E-19 1.32058E-19
 -1       840 9.30999E-05-1.95825E-05-3.15087E-05 2.14028E-08 3.35919E-19-1.37330E-18
 -1       841 9.54405E-05-4.25210E-05-2.25493E-05-2.62044E-05-3.05642E-19-2.65168E-18
 -1       842 9.40874E-05-2.98406E-05-2.75210E-05 1.95447E-05 6.27229E-19-2.70221E-18
 -1       843 9.50059E-05-2.36337E-05-3.05874E-05-3.32225E-06-7.99903E-19-1.24361E-18
 -1       844 1.28245E-04-5.30800E-05-3.22193E-05 1.44432E-06 1.23119E-18-1.87732E-18
 -1       845 9.56336E-05-2.85844E-05-2.87354E-05-9.87878E-07 5.38269E-20-3.81103E-19
 -1       846 1.04815E-04-3.75306E-05-2.88425E-05 1.53963E-05 1.28061E-18-7.32028E-19
 -1       847 8.51025E-05-2.39672E-05-2.61804E-05 1.81278E-05 2.08731E-19-4.11311E-19
 -1       848 9.56950E-05-2.82691E-05-2.88968E-05-7.16614E-07 2.29917E-19-2.63433E-19
 -1       849 7.66005E-05-1.81641E-05-2.50414E-05 1.13454E-05 3.14939E-19 5.00944E-19
 -1       850 1.01220E-04-3.39677E-05-2.88309E-05 1.64473E-05 1.91631E-18 7.43012E-19
 -1       851 1.09561E-04-4.79309E-05-2.63661E-05 2.33326E-05-3.60700E-19-4.58663E-19
 -1       852 9.35226E-05-2.03639E-05-3.13550E-05 2.36375E-06 7.90188E-19-1.40452E-18
 -1       853 9.55464E-05-2.59332E-05-2.98358E-05 1.84353E-06 1.05300E-18-3.06230E-19
 -1       854 7.15784E-05-2.28953E-05-2.07450E-05-2.19246E-05-1.39676E-19 3.07165E-18
 -1       855 9.40263E-05-2.13522E-05-3.11470E-05 3.30990E-06 8.90240E-19-1.13332E-18
 -1       856 5.61915E-05-1.44596E-05-1.77024E-05 6.73959E-06 4.11453E-20-1.14936E-18
 -1       857 9.35105E-05-2.03337E-05-3.13628E-05-2.34244E-06-1.98404E-19-1.55088E-18
 -1       858 9.86685E-05-3.30361E-05-2.81268E-05-1.85074E-05-8.85801E-19-2.16618E-18
 -1       859 9.39904E-05-2.12864E-05-3.11584E-05-3.29981E-06-5.01631E-19-1.35276E-18
 -1       860 9.57823E-05-2.55757E-05-3.00855E-05-1.18941E-06-2.55326E-19-9.14905E-19
 -1       861 9.32020E-05-1.97669E-05-3.14733E-05-1.19215E-06 1.31320E-19-1.23320E-18
 -1       862 6.62034E-05-1.50597E-05-2.18209E-05-2.05095E-06-1.22251E-18 4.47345E-18
 -1       863 9.63721E-05-2.79248E-05-2.93346E-05 2.86983E-07-4.26042E-19-8.60894E-19
 -1       864 9.63919E-05-2.85117E-05-2.90916E-05 6.34761E-07-3.35538E-19-6.92005E-19
 -1       865 9.63270E-05-2.88585E-05-2.89151E-05 8.11671E-07-2.25407E-21-1.83860E-19
 -1       866 9.62162E-05-2.90368E-05-2.87912E-05 8.73733E-07-1.13769E-19-4.17274E-19
 -1       867 9.60839E-05-2.90981E-05-2.87082E-05 8.65806E-07-4.24150E-19-4.98524E-19
 -1       868 9.59443E-05-2.90782E-05-2.86569E-05 8.22295E-07-2.28754E-19-6.16152E-19
 -1       869 9.58047E-05-2.90011E-05-2.86301E-05 7.68982E-07-1.85419E-19-7.64615E-19
 -1       870 9.56668E-05-2.88816E-05-2.86223E-05 7.25385E-07-2.35026E-19-5.12019E-19
 -1       871 9.55291E-05-2.87277E-05-2.86292E-05 7.06638E-07-4.86796E-19-9.69090E-19
 -1       872 9.53869E-05-2.85421E-05-2.86477E-05 7.25105E-07-6.95795E-19-4.55563E-19
 -1       873 9.52330E-05-2.83238E-05-2.86754E-05 7.91680E-07-5.66220E-19-4.47017E-19
 -1       874 9.50585E-05-2.80686E-05-2.87100E-05 9.16723E-07-8.30516E-19 1.99047E-19
 -1       875 9.48526E-05-2.77712E-05-2.87492E-05 1.11066E-06-2.77694E-19 3.59070E-19
 -1       876 9.46032E-05-2.74258E-05-2.87903E-05 1.38426E-06-5.80143E-19 4.66359E-19
 -1       877 9.42972E-05-2.70282E-05-2.88296E-05 1.74872E-06 5.73904E-19 9.67625E-19
 -1       878 9.39216E-05-2.65780E-05-2.88615E-05 2.21550E-06 2.50171E-19 7.41355E-19
 -1       879 9.34651E-05-2.60818E-05-2.88786E-05 2.79620E-06 3.37148E-19 4.25061E-19
 -1       880 9.29209E-05-2.55575E-05-2.88700E-05 3.50284E-06 1.03080E-19-7.74475E-20
 -1       881 9.22915E-05-2.50414E-05-2.88214E-05 4.34897E-06-3.42846E-20 1.47057E-19
 -1       882 9.15965E-05-2.45966E-05-2.87142E-05 5.35256E-06 3.92918E-19 7.51816E-19
 -1       883 9.08855E-05-2.43262E-05-2.85253E-05 6.54134E-06 3.74914E-19 1.52011E-18
 -1       884 9.02582E-05-2.43904E-05-2.82288E-05 7.96094E-06-4.26473E-19 1.56577E-18
 -1       885 8.98978E-05-2.50306E-05-2.77996E-05 9.68461E-06 1.55460E-19 8.29435E-19
 -1       886 9.01304E-05-2.66051E-05-2.72223E-05 1.18091E-05-3.73269E-19 6.70194E-19
 -1       887 9.14685E-05-2.95973E-05-2.65092E-05 1.44425E-05 6.36607E-19 9.72569E-19
 -1       888 9.51874E-05-3.49797E-05-2.58175E-05 1.75813E-05 1.08413E-18 1.17732E-18
 -1       889 9.92937E-05-4.12615E-05-2.48053E-05 2.15177E-05 7.94315E-19 1.43401E-18
 -1       890 1.05077E-04-4.34512E-05-2.63806E-05-2.32123E-05 9.58151E-19-1.98145E-18
 -1       891 9.55986E-05-2.88683E-05-2.85987E-05-7.81310E-07-8.94150E-20 2.93227E-19
 -1       892 9.57075E-05-2.89668E-05-2.86032E-05-8.36026E-07 2.03762E-19 1.71124E-19
 -1       893 9.53843E-05-2.85816E-05-2.86298E-05-7.58866E-07 1.02080E-19-7.88364E-19
 -1       894 9.52699E-05-2.83959E-05-2.86603E-05-8.16118E-07 3.84287E-19-6.40814E-20
 -1       895 9.51419E-05-2.81790E-05-2.86984E-05-9.33887E-07 5.37224E-19 8.13388E-20
 -1       896 9.49920E-05-2.79261E-05-2.87425E-05-1.12317E-06 1.70955E-19-1.40534E-20
 -1       897 9.48110E-05-2.76325E-05-2.87908E-05-1.39534E-06 2.68202E-19 5.46350E-19
 -1       898 9.45889E-05-2.72946E-05-2.88404E-05-1.76212E-06 3.68484E-19 3.28077E-19
 -1       899 9.43159E-05-2.69118E-05-2.88874E-05-2.23534E-06 3.93933E-19-2.94867E-19
 -1       900 9.39842E-05-2.64904E-05-2.89259E-05-2.82650E-06-4.88715E-20-5.52015E-19
 -1       901 9.35903E-05-2.60468E-05-2.89472E-05-3.54625E-06-6.30150E-20-3.64740E-19
 -1       902 9.31403E-05-2.56149E-05-2.89394E-05-4.40439E-06 4.05651E-20 1.28463E-19
 -1       903 9.26574E-05-2.52549E-05-2.88866E-05-5.41066E-06 5.96725E-20 9.41074E-19
 -1       904 9.21960E-05-2.50665E-05-2.87696E-05-6.57696E-06-1.00771E-18 3.41826E-19
 -1       905 9.18624E-05-2.52064E-05-2.85665E-05-7.92013E-06-1.27695E-18-7.16390E-22
 -1       906 9.18469E-05-2.59103E-05-2.82581E-05-9.46307E-06-4.38034E-19-3.11807E-19
 -1       907 9.24727E-05-2.75177E-05-2.78373E-05-1.12251E-05-3.10267E-19 1.09414E-18
 -1       908 9.42426E-05-3.04764E-05-2.73299E-05-1.31904E-05-1.38163E-18 1.08185E-18
 -1       909 9.82183E-05-3.55029E-05-2.69019E-05-1.50364E-05-7.75209E-19 3.64751E-19
 -1       910 1.05363E-04-4.27550E-05-2.67555E-05-1.63067E-05-4.40312E-19 2.86137E-19
 -1       911 7.13102E-05-2.46885E-05-1.98432E-05-2.18518E-05 1.23252E-18-1.40687E-18
 -1       912 9.60742E-05-2.69753E-05-2.96150E-05 4.11704E-07 8.43540E-19-3.17603E-19
 -1       913 9.11222E-05-3.24366E-05-2.51123E-05-2.40593E-05 1.53632E-18 2.28725E-18
 -1       914 9.54920E-05-2.87389E-05-2.86085E-05-7.51148E-07 1.89778E-19-3.87832E-19
 -1       915 9.60472E-05-2.89611E-05-2.87512E-05-9.54819E-07 1.52136E-19-3.78203E-19
 -1       916 9.62115E-05-2.70026E-05-2.96606E-05-2.89992E-07-1.89360E-20-9.70846E-19
 -1       917 8.87415E-05-3.13037E-05-2.45700E-05 2.44057E-05 9.84386E-19-1.61065E-18
 -1       918 5.94532E-05-1.63481E-05-1.83232E-05-1.18408E-05 2.63358E-20-3.23627E-18
 -1       919 9.61987E-05-2.78640E-05-2.92862E-05-2.73873E-07 5.44089E-19-6.89417E-19
 -1       920 7.20754E-05-2.51630E-05-2.00088E-05 2.23273E-05 1.67088E-18-7.39440E-19
 -1       921 8.94437E-05-3.46540E-05-2.33188E-05-2.77241E-05 4.59621E-19 3.64633E-18
 -1       922 7.40488E-05-2.05567E-05-2.28474E-05 1.71925E-05 9.70614E-20-5.87515E-19
 -1       923 8.48947E-05-3.30120E-05-2.21421E-05-2.38850E-05 7.87502E-19-9.68106E-19
 -1       924 9.51121E-05-2.37609E-05-3.05824E-05-2.23372E-06-4.19853E-19-1.04328E-18
 -1       925 9.46984E-05-2.26131E-05-3.08961E-05-1.21473E-06 6.26256E-20-9.83291E-19
 -1       926 9.61444E-05-2.87795E-05-2.88707E-05-8.80526E-07-1.25765E-19-6.59161E-19
 -1       927 1.03948E-04-4.09051E-05-2.70219E-05 2.14770E-05 1.36254E-18-1.96647E-18
 -1       928 9.59354E-05-2.90320E-05-2.86729E-05-9.47944E-07 3.46021E-19-2.64085E-20
 -1       929 1.01185E-04-3.76417E-05-2.72192E-05-2.08013E-05 7.03057E-19-1.50492E-18
 -1       930 9.58202E-05-2.90261E-05-2.86261E-05-8.98702E-07 3.17111E-19-2.68388E-19
 -1       931 6.16107E-05-1.48229E-05-1.99644E-05-1.52048E-06-1.37510E-19-2.21138E-18
 -1       932 6.68881E-05-1.85859E-05-2.06335E-05 1.32391E-05 6.55598E-19-1.17149E-19
 -1       933 9.62063E-05-2.84375E-05-2.90438E-05-6.74331E-07 1.25289E-19-8.81857E-19
 -1       934 9.57448E-05-2.58343E-05-2.99608E-05 1.27892E-06 8.51664E-19-2.71280E-19
 -1       935 9.52525E-05-2.42288E-05-3.04397E-05 2.27342E-06 8.48995E-19-6.31400E-19
 -1       936 9.46878E-05-2.26068E-05-3.08925E-05 1.21491E-06 6.93065E-19-1.47830E-18
 -1       937 9.45575E-05-2.22847E-05-3.09743E-05 4.02407E-07 5.94023E-19-1.01228E-18
 -1       938 9.45715E-05-2.22999E-05-3.09732E-05-4.25595E-07 1.85685E-19-1.20017E-18
 -1       939 9.66786E-05-2.81438E-05-2.93720E-05 3.10787E-07-2.07861E-19-7.54432E-19
 -1       940 9.66958E-05-2.87069E-05-2.91381E-05 5.28942E-07 2.73387E-19-5.79387E-19
 -1       941 9.66117E-05-2.90276E-05-2.89646E-05 6.35303E-07-2.17539E-19-4.63530E-19
 -1       942 9.64696E-05-2.91757E-05-2.88402E-05 6.66876E-07-1.56707E-19-3.44550E-19
 -1       943 9.62978E-05-2.92025E-05-2.87551E-05 6.54855E-07-9.59552E-20-1.34165E-19
 -1       944 9.61132E-05-2.91443E-05-2.87009E-05 6.22909E-07-4.19441E-19-2.30589E-19
 -1       945 9.59236E-05-2.90246E-05-2.86710E-05 5.89389E-07-1.40597E-19-1.62061E-20
 -1       946 9.57308E-05-2.88574E-05-2.86601E-05 5.68462E-07-1.49887E-19 7.92542E-20
 -1       947 9.55314E-05-2.86495E-05-2.86637E-05 5.71278E-07-5.01585E-19 1.87271E-19
 -1       948 9.53180E-05-2.84018E-05-2.86784E-05 6.07241E-07-5.80935E-19 6.10744E-21
 -1       949 9.50797E-05-2.81113E-05-2.87008E-05 6.84909E-07-4.23998E-19 3.05154E-19
 -1       950 9.48032E-05-2.77718E-05-2.87278E-05 8.12606E-07-1.70898E-20 8.79855E-19
 -1       951 9.44724E-05-2.73762E-05-2.87556E-05 9.98817E-07-6.07889E-21 1.46031E-18
 -1       952 9.40695E-05-2.69173E-05-2.87796E-05 1.25242E-06-3.02647E-20 1.24618E-18
 -1       953 9.35753E-05-2.63904E-05-2.87936E-05 1.58283E-06 4.76175E-19 1.43712E-18
 -1       954 9.29699E-05-2.57955E-05-2.87891E-05 2.00027E-06 8.90974E-20 8.94642E-19
 -1       955 9.22346E-05-2.51407E-05-2.87547E-05 2.51650E-06-3.99756E-19 7.95840E-19
 -1       956 9.13538E-05-2.44461E-05-2.86749E-05 3.14658E-06 3.58324E-19 1.22721E-18
 -1       957 9.03180E-05-2.37497E-05-2.85295E-05 3.91273E-06 1.03642E-18 9.73001E-19
 -1       958 8.91285E-05-2.31141E-05-2.82922E-05 4.85176E-06 5.46986E-19 1.05333E-18
 -1       959 8.78053E-05-2.26360E-05-2.79301E-05 6.02773E-06-6.33756E-19-3.83128E-19
 -1       960 8.63989E-05-2.24594E-05-2.74032E-05 7.55079E-06-1.11609E-18-5.71613E-19
 -1       961 8.50122E-05-2.27964E-05-2.66645E-05 9.61245E-06 6.03934E-20 1.41977E-20
 -1       962 8.38728E-05-2.40034E-05-2.56604E-05 1.25248E-05 4.77264E-19 1.47739E-18
 -1       963 8.38047E-05-2.67473E-05-2.44079E-05 1.67687E-05 8.39525E-19 8.21021E-19
 -1       964 9.58786E-05-2.90180E-05-2.86545E-05-6.75375E-07 1.57111E-19-3.40693E-19
 -1       965 9.51549E-05-2.82086E-05-2.86913E-05-7.46439E-07 2.55820E-19 1.58296E-19
 -1       966 9.53556E-05-2.84673E-05-2.86664E-05-6.70343E-07 4.90436E-19-2.09436E-19
 -1       967 9.46491E-05-2.75541E-05-2.87550E-05-1.07287E-06 3.32164E-20 2.66211E-19
 -1       968 9.43150E-05-2.71454E-05-2.87870E-05-1.34257E-06 4.77840E-19 3.87347E-19
 -1       969 9.39052E-05-2.66758E-05-2.88126E-05-1.69691E-06 2.85786E-19 7.00102E-19
 -1       970 9.34032E-05-2.61453E-05-2.88248E-05-2.14678E-06 1.00781E-19 8.36565E-19
 -1       971 9.27939E-05-2.55618E-05-2.88138E-05-2.70402E-06 1.71749E-20 2.42481E-19
 -1       972 9.20665E-05-2.49453E-05-2.87663E-05-3.38243E-06-1.30894E-19 7.68930E-19
 -1       973 9.12185E-05-2.43345E-05-2.86646E-05-4.20061E-06-3.29084E-19 6.00489E-20
 -1       974 9.02627E-05-2.37949E-05-2.84863E-05-5.18748E-06-2.96406E-19 7.21663E-19
 -1       975 8.92378E-05-2.34306E-05-2.82031E-05-6.39248E-06-6.71786E-19 8.17547E-19
 -1       976 8.82291E-05-2.34028E-05-2.77826E-05-7.89885E-06-1.28031E-18 6.59100E-20
 -1       977 8.73961E-05-2.39500E-05-2.71912E-05-9.83918E-06-1.04970E-18 1.06701E-18
 -1       978 8.70338E-05-2.54368E-05-2.64023E-05-1.24256E-05-5.68716E-19 1.19117E-18
 -1       979 8.78652E-05-2.84296E-05-2.54628E-05-1.58680E-05-7.42448E-19 4.60207E-19
 -1       980 9.64056E-05-2.71832E-05-2.96673E-05 1.53890E-07 8.73795E-19-5.72052E-19
 -1       981 9.65481E-05-2.80527E-05-2.93553E-05-3.17457E-07 5.58226E-19-8.80593E-19
 -1       982 9.65060E-05-2.72615E-05-2.96777E-05-6.87575E-08-1.59841E-19-8.96809E-19
 -1       983 9.60904E-05-2.59225E-05-3.00687E-05-6.28791E-07-5.32892E-20-9.40268E-19
 -1       984 7.03078E-05-2.01708E-05-2.14329E-05-1.42841E-05 4.90662E-19-2.79365E-18
 -1       985 9.49500E-05-2.32707E-05-3.07194E-05 1.86985E-06 5.76786E-19-1.24455E-18
 -1       986 9.49240E-05-2.79064E-05-2.87218E-05-8.77450E-07 4.37965E-19 7.72204E-19
 -1       987 9.57090E-05-2.51030E-05-3.02568E-05 1.17801E-06 6.79600E-19-9.19107E-19
 -1       988 9.64942E-05-2.89576E-05-2.89442E-05-7.24554E-07-4.01491E-20-9.61918E-19
 -1       989 9.60469E-05-2.91196E-05-2.86831E-05-7.17856E-07 7.11183E-20-2.37753E-19
 -1       990 9.57099E-05-2.88718E-05-2.86449E-05-6.45114E-07 1.57512E-19-2.04048E-19
 -1       991 9.55376E-05-2.86876E-05-2.86500E-05-6.39804E-07 1.76575E-19 4.05146E-19
 -1       992 6.73678E-05-1.64157E-05-2.18071E-05 5.73245E-06 1.05702E-20 5.09047E-20
 -1       993 6.86002E-05-1.69140E-05-2.21188E-05-6.85402E-06-9.95293E-20-3.68391E-18
 -1       994 9.65694E-05-2.86263E-05-2.91185E-05-5.90211E-07-4.11011E-20-1.19171E-18
 -1       995 7.87386E-05-2.56583E-05-2.26927E-05-1.83717E-05 1.81088E-19-5.46366E-19
 -1       996 9.63666E-05-2.91194E-05-2.88202E-05-7.67684E-07 8.89264E-20-8.02609E-19
 -1       997 9.56096E-05-2.45565E-05-3.04501E-05 8.51739E-07 6.27485E-19-1.47108E-18
 -1       998 9.55066E-05-2.42263E-05-3.05510E-05 3.79367E-07 6.80565E-19-1.01297E-18
 -1       999 9.60870E-05-2.55707E-05-3.02199E-05-4.25510E-07-5.83613E-20-9.41928E-19
 -1      1000 9.68090E-05-2.83006E-05-2.93609E-05-2.98828E-07 3.81818E-19-9.77051E-19
 -1      1001 9.68950E-05-2.84079E-05-2.93519E-05 2.56888E-07 1.75482E-19-4.80490E-19
 -1      1002 9.49596E-05-2.79686E-05-2.87105E-05-5.94341E-07 2.08058E-19 4.65845E-19
 -1      1003 9.68802E-05-2.89029E-05-2.91332E-05 3.67951E-07 9.06979E-20-5.10343E-19
 -1      1004 9.67641E-05-2.91675E-05-2.89700E-05 4.16340E-07-7.61015E-20-3.03377E-20
 -1      1005 9.65902E-05-2.92677E-05-2.88525E-05 4.26087E-07-2.38619E-19-3.76430E-19
 -1      1006 9.63857E-05-2.92515E-05-2.87718E-05 4.14659E-07-9.44459E-20-6.23213E-19
 -1      1007 9.61661E-05-2.91517E-05-2.87205E-05 3.94977E-07-2.26088E-21 2.84201E-19
 -1      1008 9.59380E-05-2.89896E-05-2.86922E-05 3.78757E-07-3.01018E-19-4.17840E-19
 -1      1009 9.57017E-05-2.87774E-05-2.86819E-05 3.74089E-07 6.46829E-21-6.71530E-19
 -1      1010 9.54510E-05-2.85195E-05-2.86850E-05 3.87737E-07-3.32203E-19-1.32726E-19
 -1      1011 9.51754E-05-2.82146E-05-2.86976E-05 4.25671E-07-1.14916E-19 4.16492E-19
 -1      1012 9.48607E-05-2.78574E-05-2.87158E-05 4.93475E-07 5.04890E-19 1.12273E-18
 -1      1013 9.44892E-05-2.74402E-05-2.87354E-05 5.96695E-07-2.93333E-20 8.94618E-19
 -1      1014 9.40407E-05-2.69544E-05-2.87514E-05 7.41080E-07-4.57599E-19 3.64764E-19
 -1      1015 9.34923E-05-2.63922E-05-2.87574E-05 9.32774E-07 3.29926E-19-3.44010E-20
 -1      1016 9.28192E-05-2.57488E-05-2.87447E-05 1.17856E-06 3.39943E-20-3.58546E-19
 -1      1017 9.19954E-05-2.50248E-05-2.87020E-05 1.48642E-06 3.46612E-21 1.71226E-19
 -1      1018 9.09937E-05-2.42285E-05-2.86141E-05 1.86676E-06 2.74362E-19 1.23574E-19
 -1      1019 8.97862E-05-2.33795E-05-2.84606E-05 2.33499E-06 4.47631E-19 3.89517E-19
 -1      1020 8.83426E-05-2.25101E-05-2.82147E-05 2.91679E-06 2.43041E-19-2.99970E-19
 -1      1021 8.66276E-05-2.16679E-05-2.78410E-05 3.65803E-06-2.56288E-19-9.57911E-19
 -1      1022 8.45959E-05-2.09180E-05-2.72924E-05 4.64298E-06-1.00600E-18-1.67460E-19
 -1      1023 8.21975E-05-2.03532E-05-2.65065E-05 6.00679E-06 7.70208E-19 3.17470E-19
 -1      1024 7.93171E-05-2.00743E-05-2.53942E-05 8.01379E-06 8.63538E-19 8.56367E-19
 -1      1025 9.60387E-05-2.53626E-05-3.02879E-05-1.14524E-07 2.05086E-19-7.07611E-19
 -1      1026 9.52416E-05-2.82975E-05-2.86904E-05-5.18191E-07 2.61332E-19 5.46897E-19
 -1      1027 9.37449E-05-2.66184E-05-2.87687E-05-1.11013E-06 1.87079E-19-6.54709E-20
 -1      1028 9.42308E-05-2.71368E-05-2.87547E-05-8.82979E-07 3.64116E-19-1.98693E-19
 -1      1029 9.24193E-05-2.53555E-05-2.87418E-05-1.77152E-06 2.88345E-19 7.15592E-19
 -1      1030 9.15335E-05-2.46204E-05-2.86773E-05-2.22657E-06-2.66721E-19 4.72173E-19
 -1      1031 9.04696E-05-2.38396E-05-2.85560E-05-2.78448E-06-3.92054E-19 6.03743E-19
 -1      1032 8.92083E-05-2.30495E-05-2.83542E-05-3.47080E-06-6.70017E-19 6.96727E-19
 -1      1033 8.77332E-05-2.23062E-05-2.80407E-05-4.32993E-06-2.65973E-19 7.70654E-19
 -1      1034 8.60302E-05-2.16906E-05-2.75750E-05-5.44412E-06-1.04772E-18 1.08485E-18
 -1      1035 8.41080E-05-2.13338E-05-2.69039E-05-6.96165E-06-1.07824E-18-8.74045E-20
 -1      1036 8.19656E-05-2.13836E-05-2.59611E-05-9.13055E-06-1.03316E-18-1.23142E-18
 -1      1037 7.97098E-05-2.20975E-05-2.46828E-05-1.23228E-05-8.78155E-19-1.00468E-18
 -1      1038 9.68088E-05-2.88247E-05-2.91361E-05-4.51644E-07-2.13246E-19-1.14724E-18
 -1      1039 9.66579E-05-2.74556E-05-2.96575E-05-1.27743E-08 7.08438E-19-1.37084E-18
 -1      1040 9.67569E-05-2.76051E-05-2.96356E-05 5.96739E-08-4.65748E-20-9.87478E-19
 -1      1041 7.59068E-05-2.02920E-05-2.38179E-05 1.11404E-05-1.87302E-19-2.24563E-20
 -1      1042 9.46288E-05-2.75844E-05-2.87334E-05-7.13564E-07 5.24711E-19 4.64852E-19
 -1      1043 9.31488E-05-2.60245E-05-2.87678E-05-1.40321E-06 2.45170E-19-3.38668E-20
 -1      1044 9.62121E-05-2.91613E-05-2.87361E-05-7.55413E-07 2.95622E-19-1.90706E-19
 -1      1045 9.54908E-05-2.85782E-05-2.86768E-05-4.78207E-07 1.15600E-19-2.29899E-19
 -1      1046 9.62786E-05-2.61069E-05-3.00756E-05 2.80886E-07 5.93091E-19-1.41374E-18
 -1      1047 9.57199E-05-2.88150E-05-2.86735E-05-4.67403E-07-1.92336E-20-3.95921E-20
 -1      1048 9.67061E-05-2.91104E-05-2.89695E-05-5.22185E-07-2.53363E-19-1.10908E-18
 -1      1049 7.05413E-05-1.64848E-05-2.31557E-05-1.10454E-07 1.87733E-19-1.75333E-18
 -1      1050 9.61495E-05-2.91521E-05-2.87131E-05-5.02215E-07 8.30003E-20-4.34309E-19
 -1      1051 9.59380E-05-2.90083E-05-2.86841E-05-4.78284E-07-2.43383E-20-2.98797E-19
 -1      1052 9.31580E-05-2.60958E-05-2.87411E-05-6.79433E-07-4.13155E-19 1.08041E-18
 -1      1053 7.44677E-05-1.78922E-05-2.42453E-05 4.99263E-06 1.59778E-19-1.83053E-19
 -1      1054 9.69468E-05-2.90690E-05-2.90904E-05 1.54083E-07 4.69620E-19-6.99674E-19
 -1      1055 9.67937E-05-2.92619E-05-2.89421E-05 1.66028E-07-3.00951E-19-5.92915E-19
 -1      1056 9.65961E-05-2.93098E-05-2.88369E-05 1.63406E-07-3.14114E-19-3.25467E-19
 -1      1057 9.63684E-05-2.92458E-05-2.87667E-05 1.57243E-07 1.48204E-19-7.78147E-19
 -1      1058 9.61249E-05-2.91054E-05-2.87225E-05 1.52031E-07-3.91856E-19-7.41570E-19
 -1      1059 9.58711E-05-2.89056E-05-2.86994E-05 1.48738E-07-1.89715E-19-4.77686E-19
 -1      1060 9.56037E-05-2.86548E-05-2.86923E-05 1.51302E-07 2.71942E-19-6.00566E-19
 -1      1061 9.53139E-05-2.83544E-05-2.86969E-05 1.62356E-07 2.95071E-19-1.28295E-19
 -1      1062 9.49884E-05-2.80009E-05-2.87088E-05 1.84208E-07 5.43654E-19 1.25775E-19
 -1      1063 9.46098E-05-2.75874E-05-2.87238E-05 2.19068E-07 1.94897E-19-4.38796E-19
 -1      1064 9.41572E-05-2.71047E-05-2.87367E-05 2.69185E-07-3.78204E-19 1.58402E-19
 -1      1065 9.36070E-05-2.65435E-05-2.87413E-05 3.36941E-07-3.68540E-19 3.25863E-19
 -1      1066 9.29323E-05-2.58963E-05-2.87295E-05 4.24959E-07-8.43579E-20-3.55407E-19
 -1      1067 9.21043E-05-2.51587E-05-2.86907E-05 5.36308E-07 5.79521E-19-6.42823E-19
 -1      1068 9.10909E-05-2.43323E-05-2.86105E-05 6.74933E-07 8.55843E-20-4.50683E-19
 -1      1069 8.98566E-05-2.34258E-05-2.84699E-05 8.46528E-07 8.41899E-20-4.07432E-19
 -1      1070 8.83593E-05-2.24557E-05-2.82438E-05 1.06018E-06 4.95501E-19-8.97751E-19
 -1      1071 8.65434E-05-2.14455E-05-2.78985E-05 1.33110E-06 8.43191E-20-1.66722E-18
 -1      1072 8.43259E-05-2.04195E-05-2.73881E-05 1.68438E-06-2.38669E-19-1.86398E-18
 -1      1073 8.15705E-05-1.93968E-05-2.66481E-05 2.16232E-06 1.13186E-19-1.12631E-18
 -1      1074 7.82345E-05-1.84864E-05-2.55983E-05 2.84657E-06 1.87833E-18-1.04474E-18
 -1      1075 9.37833E-05-2.67101E-05-2.87458E-05-5.39038E-07 1.79260E-19 5.33082E-19
 -1      1076 9.50688E-05-2.80908E-05-2.87049E-05-3.02126E-07 4.91047E-19-8.14395E-20
 -1      1077 9.69144E-05-2.79735E-05-2.95449E-05 5.72017E-08 2.24674E-19-4.00773E-19
 -1      1078 9.03092E-05-2.37435E-05-2.85285E-05-1.35977E-06-1.95064E-19 1.34605E-18
 -1      1079 9.14517E-05-2.46075E-05-2.86478E-05-1.08235E-06 3.21083E-19 1.20938E-18
 -1      1080 8.72617E-05-2.18666E-05-2.80272E-05-2.13780E-06-6.76724E-19 1.66369E-19
 -1      1081 8.52517E-05-2.09164E-05-2.75734E-05-2.69887E-06-8.71553E-20 3.43682E-19
 -1      1082 8.27943E-05-1.99965E-05-2.69139E-05-3.44805E-06 1.75611E-19-8.48308E-19
 -1      1083 7.97242E-05-1.91257E-05-2.59673E-05-4.59098E-06 6.71387E-19-1.83276E-18
 -1      1084 7.52938E-05-1.82089E-05-2.44566E-05-5.57838E-06-4.71980E-19-3.21360E-18
 -1      1085 9.69680E-05-2.85660E-05-2.93163E-05-1.92457E-07-4.81776E-20-3.64275E-19
 -1      1086 9.53754E-05-2.84254E-05-2.86929E-05-2.70937E-07 2.23582E-19 2.19694E-19
 -1      1087 9.61518E-05-2.91305E-05-2.87234E-05-2.65283E-07 1.76696E-19-4.81462E-19
 -1      1088 9.68578E-05-2.78236E-05-2.95847E-05-7.26645E-08 2.77611E-19-5.04706E-19
 -1      1089 9.66383E-05-2.69281E-05-2.98768E-05-2.06582E-08 1.47163E-19-5.09470E-19
 -1      1090 9.23907E-05-2.53946E-05-2.87128E-05-8.58458E-07-6.03584E-19 1.14102E-18
 -1      1091 9.64900E-05-2.64891E-05-3.00004E-05 5.65159E-08 2.79567E-19-5.97586E-19
 -1      1092 8.89272E-05-2.28206E-05-2.83319E-05-1.70412E-06-6.69188E-19-9.55782E-20
 -1      1093 9.42938E-05-2.72420E-05-2.87366E-05-4.32231E-07 9.66110E-19 4.06729E-20
 -1      1094 9.63586E-05-2.92378E-05-2.87663E-05-5.29385E-07 1.24556E-19-7.78668E-19
 -1      1095 9.47149E-05-2.76992E-05-2.87210E-05-3.54608E-07 1.91378E-19-2.99045E-21
 -1      1096 9.70184E-05-2.86801E-05-2.92884E-05 1.17497E-07 8.79111E-20-5.80425E-19
 -1      1097 9.56506E-05-2.87094E-05-2.86891E-05-2.57214E-07-1.95208E-20 2.06750E-19
 -1      1098 9.59068E-05-2.89453E-05-2.86978E-05-2.56885E-07-3.84176E-19-6.85891E-20
 -1      1099 9.65486E-05-2.92328E-05-2.88498E-05-5.41678E-07-1.75605E-19-1.08864E-18
 -1      1100 9.69379E-05-2.90090E-05-2.91122E-05-2.58380E-07-4.39596E-20-5.58813E-19
 -1      1101 9.63872E-05-2.92551E-05-2.87707E-05-2.75678E-07-1.32512E-19-6.10332E-19
 -1      1102 7.57920E-05-1.76606E-05-2.49404E-05-8.28916E-07 1.33752E-18-1.06919E-18
 -1      1103 9.67182E-05-2.93085E-05-2.88896E-05-1.03305E-07-3.73977E-19-5.64730E-19
 -1      1104 9.69254E-05-2.79000E-05-2.95808E-05-2.58986E-08 1.60779E-19-5.16209E-19
 -1      1105 9.68559E-05-2.92166E-05-2.89884E-05-1.93732E-07 1.86735E-20-9.05494E-19
 -1      1106 1.16856E-04 2.57566E-10-4.18553E-05-4.14671E-05-2.32087E-19 6.02643E-18
 -1      1107 8.86493E-05 7.19160E-11-3.72507E-05-2.41700E-05-1.17102E-19 2.96885E-19
 -1      1108 8.40749E-05 4.14550E-11-3.57658E-05-1.78804E-05-7.07273E-20-1.99947E-18
 -1      1109 8.23335E-05 3.20113E-11-3.50721E-05-1.38397E-05-4.52898E-20-3.00975E-18
 -1      1110 8.15318E-05 2.73449E-11-3.47386E-05-1.05364E-05-2.26184E-20-3.41354E-18
 -1      1111 8.11306E-05 2.46083E-11-3.45738E-05-7.64246E-06-1.27055E-20-3.55753E-18
 -1      1112 8.09217E-05 2.29561E-11-3.44905E-05-4.98127E-06-4.74140E-21-3.57705E-18
 -1      1113 8.08202E-05 2.20646E-11-3.44514E-05-2.43305E-06 2.82730E-21-3.47800E-18
 -1      1114 8.07915E-05 2.17948E-11-3.44404E-05 5.24420E-08 1.02810E-20-3.39375E-18
 -1      1115 8.08247E-05 2.21089E-11-3.44528E-05 2.54049E-06 2.36756E-20-3.30236E-18
 -1      1116 8.09307E-05 2.30579E-11-3.44934E-05 5.09720E-06 2.84352E-20-3.16427E-18
 -1      1117 8.11456E-05 2.47724E-11-3.45777E-05 7.77490E-06 4.03466E-20-2.83825E-18
 -1      1118 8.15534E-05 2.76431E-11-3.47447E-05 1.06960E-05 5.02661E-20-2.32271E-18
 -1      1119 8.23571E-05 3.24997E-11-3.50823E-05 1.40456E-05 7.15213E-20-1.45657E-18
 -1      1120 8.40721E-05 4.19219E-11-3.57861E-05 1.81320E-05 1.01803E-19 1.09135E-19
 -1      1121 8.83468E-05 6.67391E-11-3.73208E-05 2.40125E-05 9.55030E-20 3.07870E-18
 -1      1122 1.06619E-04 1.63919E-10-4.06339E-05 3.61936E-05 1.72371E-19 8.76436E-18
 -1      1123 1.30222E-04-2.57564E-05-4.02738E-05-2.61068E-05-8.97643E-19 9.64601E-18
 -1      1124 9.74558E-05-2.88624E-05-3.15775E-05-6.80417E-07-2.47016E-19 7.63558E-18
 -1      1125 9.01565E-05-2.70256E-05-2.78922E-05 3.87045E-07-1.29424E-19 4.73656E-18
 -1      1126 8.82430E-05-2.65705E-05-2.66418E-05 2.50707E-07-7.37018E-20 2.60481E-18
 -1      1127 8.78814E-05-2.64429E-05-2.63845E-05 1.65802E-07-6.76683E-20 1.11366E-18
 -1      1128 8.82370E-05-2.65184E-05-2.64684E-05 1.17970E-07-5.82219E-20 4.42389E-19
 -1      1129 8.89191E-05-2.67016E-05-2.66697E-05 8.73058E-08-2.79554E-20-3.48700E-19
 -1      1130 8.97282E-05-2.69318E-05-2.69106E-05 6.60079E-08 1.89433E-20-5.06393E-19
 -1      1131 9.05545E-05-2.71725E-05-2.71570E-05 5.02293E-08-6.88113E-20-7.96734E-19
 -1      1132 9.13360E-05-2.74028E-05-2.73906E-05 3.80443E-08-8.44558E-20-1.76744E-18
 -1      1133 9.20402E-05-2.76116E-05-2.76019E-05 2.84321E-08-3.89125E-20-2.66762E-18
 -1      1134 9.26530E-05-2.77942E-05-2.77864E-05 2.07885E-08 1.95086E-19-2.68651E-18
 -1      1135 9.31730E-05-2.79497E-05-2.79434E-05 1.47098E-08-8.91375E-20-3.08284E-18
 -1      1136 9.36067E-05-2.80799E-05-2.80749E-05 9.90224E-09-2.32597E-20-3.60747E-18
 -1      1137 9.39666E-05-2.81883E-05-2.81844E-05 6.14475E-09-6.88358E-20-3.47266E-18
 -1      1138 9.42686E-05-2.82796E-05-2.82768E-05 3.27445E-09-1.77756E-19-3.44705E-18
 -1      1139 9.45321E-05-2.83597E-05-2.83577E-05 1.18355E-09-1.48291E-19-3.70206E-18
 -1      1140 9.47794E-05-2.84350E-05-2.84341E-05-1.78132E-10-8.29161E-20-4.28209E-18
 -1      1141 9.50357E-05-2.85134E-05-2.85134E-05-7.96476E-10 2.15422E-19-4.73549E-18
 -1      1142 9.53305E-05-2.86035E-05-2.86047E-05-5.83171E-10 4.17095E-20-4.58218E-18
 -1      1143 9.56980E-05-2.87156E-05-2.87183E-05 6.37328E-10-3.72105E-20-4.03297E-18
 -1      1144 9.61780E-05-2.88617E-05-2.88663E-05 3.14331E-09-1.40484E-19-3.85537E-18
 -1      1145 9.68170E-05-2.90557E-05-2.90626E-05 7.33170E-09 3.60982E-20-3.92820E-18
 -1      1146 9.76686E-05-2.93135E-05-2.93235E-05 1.37282E-08-1.47442E-19-4.76564E-18
 -1      1147 9.87922E-05-2.96528E-05-2.96664E-05 2.29771E-08-3.34297E-20-5.33586E-18
 -1      1148 1.00250E-04-3.00919E-05-3.01097E-05 3.57796E-08-1.14792E-19-5.81391E-18
 -1      1149 1.02102E-04-3.06477E-05-3.06697E-05 5.27161E-08 2.59265E-19-6.09784E-18
 -1      1150 1.04386E-04-3.13313E-05-3.13561E-05 7.38382E-08 1.77124E-20-6.80649E-18
 -1      1151 1.07100E-04-3.21407E-05-3.21642E-05 9.78424E-08-4.75360E-20-6.89822E-18
 -1      1152 1.10158E-04-3.30485E-05-3.30619E-05 1.20598E-07 2.93317E-19-5.37773E-18
 -1      1153 1.13330E-04-3.39850E-05-3.39729E-05 1.32943E-07-5.17841E-19-4.36782E-18
 -1      1154 1.16174E-04-3.48172E-05-3.47578E-05 1.18344E-07 2.92293E-19-3.98673E-18
 -1      1155 1.17981E-04-3.53338E-05-3.52053E-05 5.28346E-08-1.76123E-20-3.70986E-18
 -1      1156 1.17800E-04-3.52560E-05-3.50536E-05-8.78030E-08 6.61778E-20-4.63818E-18
 -1      1157 1.14677E-04-3.43082E-05-3.40689E-05-3.06805E-07-6.47649E-20-5.63568E-18
 -1      1158 1.08171E-04-3.23745E-05-3.21919E-05-5.52799E-07 5.10404E-20-4.42098E-18
 -1      1159 9.90650E-05-2.97017E-05-2.96949E-05-7.03505E-07 2.18781E-19-5.94670E-18
 -1      1160 8.97235E-05-2.69871E-05-2.72197E-05-6.18697E-07-4.65206E-20-6.31325E-18
 -1      1161 8.34190E-05-2.51652E-05-2.55726E-05-2.61933E-07-1.31317E-19-6.18019E-18
 -1      1162 8.25906E-05-2.49168E-05-2.53236E-05 2.18473E-07 2.76960E-19-6.48322E-18
 -1      1163 8.72322E-05-2.62392E-05-2.64691E-05 5.75247E-07-1.40680E-19-4.97621E-18
 -1      1164 9.48784E-05-2.84446E-05-2.84307E-05 6.56177E-07-1.55408E-19-5.40682E-18
 -1      1165 1.02210E-04-3.05854E-05-3.03906E-05 4.96020E-07-1.85143E-19-5.62393E-18
 -1      1166 1.06827E-04-3.19550E-05-3.17005E-05 2.35789E-07 1.01902E-19-4.99752E-18
 -1      1167 1.07961E-04-3.23113E-05-3.20967E-05-4.83699E-11 3.41980E-19-2.47313E-18
 -1      1168 1.06153E-04-3.18005E-05-3.16756E-05-1.53713E-07 2.73820E-19-1.00699E-18
 -1      1169 1.02601E-04-3.07695E-05-3.07498E-05-2.15878E-07 3.06542E-19-1.26052E-18
 -1      1170 9.86939E-05-2.96290E-05-2.97067E-05-1.82124E-07 3.99130E-19 3.32026E-18
 -1      1171 9.58539E-05-2.88330E-05-2.88928E-05-2.51791E-08-2.14433E-19 1.12816E-18
 -1      1172 9.49755E-05-2.84767E-05-2.84100E-05 9.53020E-08 3.84090E-19 1.83775E-18
 -1      1173 1.31056E-04-3.77390E-05-3.86592E-05 1.21748E-05-1.29940E-19 1.33505E-17
 -1      1174 9.65573E-05-2.81889E-05-3.13299E-05 8.01529E-07 6.44539E-20 1.12996E-17
 -1      1175 9.03702E-05-2.69282E-05-2.78730E-05 1.20197E-07 7.46448E-20 9.01824E-18
 -1      1176 8.83294E-05-2.64977E-05-2.66781E-05 9.02454E-09 4.64876E-20 7.52321E-18
 -1      1177 8.79219E-05-2.64054E-05-2.64116E-05-2.52671E-08 1.52962E-20 6.42451E-18
 -1      1178 8.82590E-05-2.65011E-05-2.64841E-05-3.42784E-08 6.37492E-20 5.20835E-18
 -1      1179 8.89321E-05-2.66948E-05-2.66799E-05-3.54298E-08-5.72872E-20 4.99412E-18
 -1      1180 8.97364E-05-2.69305E-05-2.69180E-05-3.36635E-08 5.16698E-21 4.87370E-18
 -1      1181 9.05598E-05-2.71741E-05-2.71625E-05-3.05380E-08 2.32020E-20 3.92353E-18
 -1      1182 9.13395E-05-2.74058E-05-2.73949E-05-2.67511E-08 3.59696E-20 3.89013E-18
 -1      1183 9.20424E-05-2.76153E-05-2.76051E-05-2.27069E-08 1.52998E-19 2.96102E-18
 -1      1184 9.26544E-05-2.77980E-05-2.77887E-05-1.86568E-08 5.91380E-20 2.41203E-18
 -1      1185 9.31739E-05-2.79534E-05-2.79451E-05-1.47480E-08-2.14056E-20 3.18951E-18
 -1      1186 9.36074E-05-2.80832E-05-2.80761E-05-1.10512E-08-3.66310E-20 2.80715E-18
 -1      1187 9.39670E-05-2.81911E-05-2.81852E-05-7.58285E-09 1.50651E-19 1.29713E-18
 -1      1188 9.42690E-05-2.82819E-05-2.82773E-05-4.32299E-09 1.14919E-20-4.77273E-19
 -1      1189 9.45324E-05-2.83614E-05-2.83580E-05-1.23068E-09-1.71410E-19-5.76166E-19
 -1      1190 9.47796E-05-2.84362E-05-2.84341E-05 1.74106E-09 1.49746E-19-7.51804E-19
 -1      1191 9.50360E-05-2.85141E-05-2.85134E-05 4.62975E-09 1.42333E-19-2.26372E-18
 -1      1192 9.53309E-05-2.86037E-05-2.86046E-05 7.44501E-09-1.45783E-19-1.87630E-18
 -1      1193 9.56984E-05-2.87153E-05-2.87183E-05 1.01448E-08-1.11172E-19 1.11837E-19
 -1      1194 9.61783E-05-2.88609E-05-2.88664E-05 1.26024E-08-4.78234E-21 8.23683E-19
 -1      1195 9.68172E-05-2.90544E-05-2.90631E-05 1.45585E-08-3.64481E-20-1.00632E-18
 -1      1196 9.76684E-05-2.93117E-05-2.93243E-05 1.55533E-08-1.56259E-20-1.66857E-18
 -1      1197 9.87914E-05-2.96502E-05-2.96678E-05 1.48310E-08-8.34584E-20 2.53372E-19
 -1      1198 1.00248E-04-3.00882E-05-3.01119E-05 1.12202E-08 2.52247E-19-2.51939E-19
 -1      1199 1.02097E-04-3.06424E-05-3.06727E-05 3.01259E-09-1.03047E-19-5.24783E-19
 -1      1200 1.04378E-04-3.13234E-05-3.13599E-05-1.20774E-08 6.16092E-20-1.44880E-18
 -1      1201 1.07086E-04-3.21288E-05-3.21684E-05-3.66677E-08-7.76681E-21-4.58840E-19
 -1      1202 1.10135E-04-3.30307E-05-3.30656E-05-7.27596E-08 4.56753E-20-7.37713E-19
 -1      1203 1.13295E-04-3.39601E-05-3.39740E-05-1.19419E-07-2.19712E-20-1.25221E-18
 -1      1204 1.16124E-04-3.47864E-05-3.47529E-05-1.68435E-07 1.30397E-19 4.96269E-19
 -1      1205 1.17915E-04-3.53045E-05-3.51895E-05-1.98511E-07-2.77764E-19 3.19171E-18
 -1      1206 1.17722E-04-3.52444E-05-3.50220E-05-1.72776E-07 1.15560E-19 1.76428E-18
 -1      1207 1.14599E-04-3.43362E-05-3.40198E-05-5.03112E-08-1.51781E-19 1.30586E-18
 -1      1208 1.08116E-04-3.24515E-05-3.21293E-05 1.79420E-07 1.96852E-19 1.49544E-18
 -1      1209 9.90421E-05-2.97941E-05-2.96292E-05 4.50730E-07 3.20881E-19 1.10008E-18
 -1      1210 8.97172E-05-2.70158E-05-2.71672E-05 6.16302E-07-1.18171E-19 1.28103E-18
 -1      1211 8.34032E-05-2.50706E-05-2.55476E-05 5.38694E-07 4.06887E-19 6.72306E-19
 -1      1212 8.25535E-05-2.47336E-05-2.53291E-05 2.19271E-07-4.05232E-19 3.83796E-18
 -1      1213 8.71805E-05-2.60746E-05-2.64958E-05-1.74473E-07 1.51215E-19 3.56082E-18
 -1      1214 9.48188E-05-2.83778E-05-2.84617E-05-4.41639E-07 1.04162E-19 1.91429E-18
 -1      1215 1.02146E-04-3.06171E-05-3.04111E-05-4.95294E-07 2.95045E-19 3.83494E-19
 -1      1216 1.06765E-04-3.20385E-05-3.17041E-05-3.81065E-07-1.76914E-19 1.02332E-18
 -1      1217 1.07907E-04-3.23995E-05-3.20851E-05-1.95758E-07 9.30413E-20 1.63178E-18
 -1      1218 1.06113E-04-3.18684E-05-3.16547E-05-1.58045E-08-2.55291E-19 4.86885E-19
 -1      1219 1.02578E-04-3.08123E-05-3.07277E-05 1.21640E-07 3.74198E-19-2.16618E-18
 -1      1220 9.86893E-05-2.96496E-05-2.96912E-05 1.94751E-07-2.20126E-19-2.82549E-18
 -1      1221 9.58231E-05-2.87864E-05-2.88860E-05 1.46869E-07 6.29498E-19-2.56341E-18
 -1      1222 9.50046E-05-2.84918E-05-2.84123E-05-8.17122E-08-1.05126E-19-2.47551E-18
 -1      1223 9.53221E-05-2.88044E-05-2.84268E-05-7.57083E-08-2.44167E-18-2.24247E-19
 -1      1224 9.49927E-05-2.79347E-05-2.89299E-05-1.42730E-08-4.79971E-18-2.79594E-19
 -1      1225 9.40846E-05-2.48908E-05-2.98520E-05 1.58693E-07-2.74545E-18 7.77292E-19
 -1      1226 9.26449E-05-2.00496E-05-3.12484E-05 2.51601E-07-9.38221E-18-1.85361E-19
 -1      1227 9.08675E-05-1.40380E-05-3.29739E-05 3.07022E-07-8.62375E-18 1.88649E-19
 -1      1228 8.89990E-05-7.68799E-06-3.47799E-05 3.17793E-07-4.79341E-18 3.23825E-20
 -1      1229 8.73209E-05-1.95272E-06-3.63952E-05 2.71280E-07-1.12695E-18 2.12569E-19
 -1      1230 8.61337E-05 2.11640E-06-3.75298E-05 1.56511E-07-3.13736E-18-1.16522E-18
 -1      1231 8.57084E-05 3.57646E-06-3.79349E-05-7.56750E-10-5.81028E-18-5.82004E-19
 -1      1232 8.61417E-05 2.08874E-06-3.75221E-05-1.57873E-07-6.29997E-18 1.25228E-18
 -1      1233 8.73339E-05-2.00120E-06-3.63811E-05-2.71756E-07 1.85288E-19-4.14149E-19
 -1      1234 8.90210E-05-7.75276E-06-3.47628E-05-3.20217E-07 1.19167E-19 1.00781E-18
 -1      1235 9.08865E-05-1.41044E-05-3.29537E-05-3.07728E-07-8.57515E-19-7.01451E-19
 -1      1236 9.26649E-05-2.01182E-05-3.12293E-05-2.54137E-07-5.07780E-18-1.59118E-19
 -1      1237 9.41233E-05-2.50111E-05-2.98349E-05-2.00879E-07-6.18871E-18 3.45910E-19
 -1      1238 9.49087E-05-2.78578E-05-2.89257E-05 6.02307E-08-4.71535E-18 4.09210E-19
 -1      1239 9.53387E-05-2.88271E-05-2.84184E-05 7.93796E-08-1.66803E-18 3.65491E-19
 -1      1240 3.76050E-05-1.16718E-04 1.98429E-05-1.44468E-05-1.84230E-19-5.71959E-19
 -1      1241 1.95785E-05-7.26637E-05 1.13034E-05-2.79028E-05 2.85704E-18 3.29496E-19
 -1      1242 7.71977E-06-1.36277E-05-4.34499E-06-4.39165E-06 8.91587E-18 6.21045E-18
 -1      1243 3.34343E-05 2.36680E-05-2.52812E-05 5.12964E-05 1.14112E-17 1.08386E-17
 -1      1244 1.07320E-04 1.48188E-05-4.66717E-05 1.02711E-04 7.29634E-18 1.10402E-17
 -1      1245 2.07500E-04-3.10402E-05-6.47759E-05 1.11661E-04 4.27413E-18 8.77357E-18
 -1      1246 2.93984E-04-8.14651E-05-7.64590E-05 6.67113E-05-6.78156E-20-1.31121E-18
 -1      1247 3.13627E-04-9.38936E-05-7.89860E-05-1.53283E-05 3.27272E-19-7.03757E-18
 -1      1248 2.61567E-04-6.37270E-05-7.19327E-05-8.84232E-05 9.09713E-19-3.83282E-18
 -1      1249 1.62572E-04-1.06432E-05-5.70146E-05-1.11829E-04 1.33323E-18-3.54907E-18
 -1      1250 6.97309E-05 2.27837E-05-3.74140E-05-8.21171E-05 3.22042E-18-2.70034E-18
 -1      1251 1.60885E-05 1.20891E-05-1.58128E-05-2.48628E-05 5.78354E-18-4.30970E-18
 -1      1252 9.59039E-06-3.71633E-05 2.99292E-06 1.90265E-05 6.50352E-18-2.88542E-18
 -1      1253 2.68764E-05-9.09768E-05 1.53543E-05 2.52917E-05 7.30905E-18-1.84378E-18
 -1      1254 3.83215E-05-1.16628E-04 2.01810E-05 2.46912E-06-3.25271E-18-9.93728E-19
 -1      1255 2.99354E-05-9.83648E-05 1.67944E-05-2.28394E-05-6.46117E-18-1.54668E-18
 -1      1256 1.19972E-05-4.81898E-05 5.86798E-06-2.31483E-05-7.34716E-18-3.15520E-18
 -1      1257 1.05621E-05 3.75011E-06-1.11163E-05 1.23201E-05-5.56670E-18-3.60328E-18
 -1      1258 4.80005E-05 2.50874E-05-3.07898E-05 6.55495E-05-5.73611E-18-6.57467E-18
 -1      1259 1.26351E-04 5.31733E-06-5.03005E-05 1.05934E-04-3.60243E-18-4.63496E-18
 -1      1260 2.23006E-04-4.16197E-05-6.66321E-05 1.05755E-04-1.25657E-18-1.58056E-18
 -1      1261 2.97293E-04-8.48015E-05-7.68308E-05 5.59396E-05-1.07203E-19 1.64070E-18
 -1      1262 3.14737E-04-9.48120E-05-7.91654E-05-2.29011E-05-6.48615E-19 6.62909E-18
 -1      1263 2.66074E-04-6.45837E-05-7.30260E-05-9.10456E-05-1.29342E-18 5.38713E-18
 -1      1264 1.72692E-04-1.30364E-05-5.91948E-05-1.15061E-04-3.52620E-18 6.24094E-18
 -1      1265 8.07810E-05 2.29237E-05-4.06154E-05-9.10350E-05-3.78285E-18 4.30462E-18
 -1      1266 2.31313E-05 2.11853E-05-2.10856E-05-3.97852E-05-4.56381E-18 3.72694E-18
 -1      1267 7.26998E-06-1.81846E-05-2.70853E-06 7.97174E-06-4.86536E-18 3.23567E-18
 -1      1268 2.01035E-05-7.47403E-05 1.16419E-05 2.78509E-05-2.08878E-18 6.98802E-19
 -1      1269 3.63841E-05-1.15310E-04 1.97958E-05 1.45365E-05-1.80503E-18 7.72097E-19
 -1      1270 1.04443E-04-2.20192E-05-3.78921E-05-1.72766E-05-3.36696E-19 4.70230E-18
 -1      1271 9.03178E-05-6.68085E-06-3.60165E-05-2.04749E-05-8.63656E-19-8.13628E-19
 -1      1272 9.26542E-05-6.73941E-06-3.72218E-05-2.57627E-05-1.13862E-18 4.10864E-19
 -1      1273 8.59009E-05-4.09667E-06-3.51287E-05-1.64354E-05-8.19557E-19-2.45653E-18
 -1      1274 8.71546E-05-4.08986E-06-3.55983E-05-1.88563E-05-9.52436E-19-1.76167E-18
 -1      1275 9.21324E-05-1.04632E-05-3.50928E-05-1.90390E-05-1.50264E-18-6.98749E-19
 -1      1276 8.40938E-05-3.18930E-06-3.46859E-05-1.28225E-05-5.97264E-19-3.20613E-18
 -1      1277 8.47021E-05-3.15890E-06-3.49098E-05-1.46351E-05-7.09575E-19-2.87592E-18
 -1      1278 8.78600E-05-7.39400E-06-3.45722E-05-1.54133E-05-1.24855E-18-2.04180E-18
 -1      1279 8.31863E-05-2.72861E-06-3.44702E-05-9.68876E-06-4.31815E-19-3.53290E-18
 -1      1280 8.35003E-05-2.71197E-06-3.45792E-05-1.12369E-05-4.88817E-19-3.42176E-18
 -1      1281 8.58627E-05-5.98428E-06-3.43045E-05-1.19632E-05-8.99827E-19-2.71358E-18
 -1      1282 8.26933E-05-2.45708E-06-3.43639E-05-6.91737E-06-2.07993E-19-3.60500E-18
 -1      1283 8.28630E-05-2.44878E-06-3.44184E-05-8.28840E-06-2.87409E-19-3.54082E-18
 -1      1284 8.48210E-05-5.21683E-06-3.41731E-05-8.94496E-06-6.20352E-19-2.95517E-18
 -1      1285 8.24186E-05-2.29221E-06-3.43109E-05-4.29699E-06-6.55243E-20-3.58537E-18
 -1      1286 8.25094E-05-2.28828E-06-3.43382E-05-5.59868E-06-1.03828E-19-3.60578E-18
 -1      1287 8.42347E-05-4.76171E-06-3.41095E-05-6.21942E-06-2.62476E-19-2.99760E-18
 -1      1288 8.22866E-05-2.20308E-06-3.42886E-05-1.79094E-06 1.13112E-19-3.50956E-18
 -1      1289 8.23254E-05-2.20148E-06-3.42997E-05-3.04254E-06 4.46181E-20-3.54666E-18
 -1      1290 8.39133E-05-4.49907E-06-3.40804E-05-3.64654E-06-2.60860E-20-2.92925E-18
 -1      1291 8.22607E-05-2.17562E-06-3.42860E-05 6.70087E-07 2.60753E-19-3.37671E-18
 -1      1292 8.22593E-05-2.17566E-06-3.42856E-05-5.66393E-07 1.97106E-19-3.44139E-18
 -1      1293 8.37724E-05-4.37964E-06-3.40696E-05-1.17120E-06 2.53799E-19-2.88961E-18
 -1      1294 8.23341E-05-2.20583E-06-3.43012E-05 3.14986E-06 4.28417E-19-3.27750E-18
 -1      1295 8.22924E-05-2.20747E-06-3.42895E-05 1.89565E-06 3.88946E-19-3.34589E-18
 -1      1296 8.37774E-05-4.38384E-06-3.40700E-05 1.27430E-06 5.17973E-19-2.76382E-18
 -1      1297 8.25269E-05-2.29874E-06-3.43407E-05 5.71521E-06 5.67327E-19-3.11618E-18
 -1      1298 8.24326E-05-2.30211E-06-3.43128E-05 4.40755E-06 5.41252E-19-3.21703E-18
 -1      1299 8.39291E-05-4.51262E-06-3.40815E-05 3.75384E-06 7.91905E-19-2.66013E-18
 -1      1300 8.28857E-05-2.46425E-06-3.44207E-05 8.39769E-06 7.25748E-19-2.77664E-18
 -1      1301 8.27133E-05-2.47295E-06-3.43659E-05 7.01759E-06 6.58512E-19-2.99054E-18
 -1      1302 8.42609E-05-4.78543E-06-3.41105E-05 6.31330E-06 1.02573E-18-2.49361E-18
 -1      1303 8.35430E-05-2.74131E-06-3.45839E-05 1.13984E-05 9.25119E-19-2.21009E-18
 -1      1304 8.32221E-05-2.75842E-06-3.44733E-05 9.83323E-06 8.25506E-19-2.54721E-18
 -1      1305 8.48628E-05-5.25821E-06-3.41734E-05 9.05700E-06 1.28060E-18-2.11774E-18
 -1      1306 8.47634E-05-3.20325E-06-3.49184E-05 1.48472E-05 1.10310E-18-1.24630E-18
 -1      1307 8.41513E-05-3.24001E-06-3.46918E-05 1.30068E-05 9.89745E-19-1.82591E-18
 -1      1308 8.59451E-05-6.06289E-06-3.43059E-05 1.21259E-05 1.54426E-18-1.47310E-18
 -1      1309 8.72534E-05-4.09011E-06-3.56201E-05 1.90942E-05 1.17632E-18 4.69230E-19
 -1      1310 8.59702E-05-4.15401E-06-3.51368E-05 1.66964E-05 1.08272E-18-5.56104E-19
 -1      1311 8.79893E-05-7.51693E-06-3.45751E-05 1.56536E-05 1.75131E-18-3.83865E-19
 -1      1312 9.34670E-05-6.79206E-06-3.71170E-05 2.50987E-05 1.00532E-18 3.54891E-18
 -1      1313 9.01328E-05-6.43761E-06-3.60391E-05 2.11517E-05 9.79594E-19 1.67596E-18
 -1      1314 9.23613E-05-1.06978E-05-3.50779E-05 1.96793E-05 1.75331E-18 1.45361E-18
 -1      1315 1.23629E-04-2.49241E-05-3.90157E-05 2.83681E-05 4.38445E-19 9.12551E-18
 -1      1316 1.00083E-04-1.44241E-05-3.73548E-05 2.40523E-05 4.67562E-19 5.29533E-18
 -1      1317 1.01680E-04-1.93425E-05-3.54029E-05 2.14009E-05 1.55281E-18 4.25676E-18
 -1      1318 1.02607E-04-2.78058E-05-3.47586E-05 7.33002E-06 8.30807E-19 8.91227E-18
 -1      1319 1.05149E-04-3.02308E-05-3.35261E-05-7.96030E-06-9.23266E-19 5.09152E-18
 -1      1320 9.82623E-05-2.78434E-05-3.07627E-05-4.98894E-06-8.52539E-19 4.05353E-18
 -1      1321 9.55043E-05-2.78497E-05-2.92549E-05-2.49050E-06-6.94593E-19 3.51632E-18
 -1      1322 9.32712E-05-2.75586E-05-2.82154E-05-2.04384E-06-7.09337E-19 2.45314E-18
 -1      1323 9.94861E-05-2.80529E-05-3.09831E-05-7.88784E-06-1.54446E-18 1.84598E-18
 -1      1324 9.15808E-05-2.72004E-05-2.75808E-05-8.39290E-07-6.19036E-19 2.11030E-18
 -1      1325 9.08632E-05-2.71047E-05-2.72783E-05-7.29136E-07-5.77941E-19 1.21592E-18
 -1      1326 9.47182E-05-2.77700E-05-2.88164E-05-3.12241E-06-1.29146E-18 1.13179E-18
 -1      1327 9.01123E-05-2.69217E-05-2.70348E-05-1.75038E-07-3.13359E-19 8.54577E-19
 -1      1328 9.00387E-05-2.69482E-05-2.69997E-05-1.16971E-07-3.14100E-19 3.71318E-19
 -1      1329 9.25175E-05-2.74992E-05-2.78951E-05-1.05544E-06-9.20381E-19 5.01827E-19
 -1      1330 8.97785E-05-2.68806E-05-2.69252E-05 1.53034E-07-2.27686E-19 2.10474E-19
 -1      1331 8.99918E-05-2.69703E-05-2.69864E-05 1.81615E-07-2.40448E-19-9.86529E-20
 -1      1332 9.15576E-05-2.73551E-05-2.75277E-05-7.24280E-08-5.42640E-19-7.14816E-20
 -1      1333 8.99946E-05-2.69731E-05-2.69926E-05 3.12288E-07-2.51534E-19-2.88944E-19
 -1      1334 9.03350E-05-2.70922E-05-2.70912E-05 3.23898E-07-1.90827E-19-5.15069E-19
 -1      1335 9.13028E-05-2.73428E-05-2.74193E-05 4.13977E-07-4.74148E-19-2.64261E-19
 -1      1336 9.04757E-05-2.71336E-05-2.71380E-05 3.78042E-07-2.35050E-20-4.98572E-19
 -1      1337 9.08610E-05-2.72610E-05-2.72493E-05 3.79625E-07-5.10040E-21-6.31979E-19
 -1      1338 9.14334E-05-2.74157E-05-2.74408E-05 6.41205E-07-2.10647E-19-4.89827E-19
 -1      1339 9.10676E-05-2.73209E-05-2.73152E-05 3.89847E-07-3.77971E-20-6.13169E-19
 -1      1340 9.14520E-05-2.74446E-05-2.74266E-05 3.85570E-07-2.36579E-19-9.22015E-19
 -1      1341 9.17632E-05-2.75337E-05-2.75289E-05 7.22758E-07-1.30084E-19-6.80356E-19
 -1      1342 9.16818E-05-2.75109E-05-2.74991E-05 3.70774E-07-4.13078E-19-9.18984E-19
 -1      1343 9.20401E-05-2.76242E-05-2.76033E-05 3.63331E-07-3.99998E-19-1.33032E-18
 -1      1344 9.21820E-05-2.76699E-05-2.76481E-05 7.20439E-07-4.98295E-19-7.57157E-19
 -1      1345 9.22680E-05-2.76897E-05-2.76749E-05 3.35314E-07-4.20079E-19-1.40110E-18
 -1      1346 9.25875E-05-2.77895E-05-2.77682E-05 3.26501E-07-1.26411E-19-1.93256E-18
 -1      1347 9.26235E-05-2.78074E-05-2.77771E-05 6.71311E-07-5.30274E-19-6.75435E-19
 -1      1348 9.27998E-05-2.78503E-05-2.78346E-05 2.92925E-07 1.14312E-19-2.20325E-18
 -1      1349 9.30759E-05-2.79356E-05-2.79156E-05 2.83941E-07-9.29201E-20-2.13356E-18
 -1      1350 9.30495E-05-2.79368E-05-2.79036E-05 5.98961E-07-2.94684E-19-1.11749E-18
 -1      1351 9.32660E-05-2.79900E-05-2.79750E-05 2.49880E-07-2.93463E-19-2.15679E-18
 -1      1352 9.34995E-05-2.80614E-05-2.80437E-05 2.41529E-07-2.78216E-19-2.54293E-18
 -1      1353 9.34399E-05-2.80531E-05-2.80208E-05 5.18872E-07-2.54496E-19-1.84806E-18
 -1      1354 9.36661E-05-2.81089E-05-2.80957E-05 2.10399E-07-5.90808E-20-2.50073E-18
 -1      1355 9.38612E-05-2.81680E-05-2.81534E-05 2.03225E-07-6.51868E-20-2.58893E-18
 -1      1356 9.37866E-05-2.81549E-05-2.81259E-05 4.41384E-07-2.35107E-19-1.92110E-18
 -1      1357 9.40064E-05-2.82093E-05-2.81986E-05 1.77393E-07-1.51583E-19-2.74806E-18
 -1      1358 9.41698E-05-2.82582E-05-2.82471E-05 1.71781E-07-3.12334E-19-2.76701E-18
 -1      1359 9.40902E-05-2.82426E-05-2.82188E-05 3.73552E-07-3.93323E-19-2.07945E-18
 -1      1360 9.42981E-05-2.82946E-05-2.82871E-05 1.53008E-07-5.51229E-20-2.71194E-18
 -1      1361 9.44384E-05-2.83361E-05-2.83289E-05 1.49265E-07-1.51667E-19-2.69546E-18
 -1      1362 9.43568E-05-2.83184E-05-2.83010E-05 3.20415E-07-1.69788E-19-1.93330E-18
 -1      1363 9.45563E-05-2.83694E-05-2.83656E-05 1.39026E-07-2.38459E-19-2.42102E-18
 -1      1364 9.46836E-05-2.84066E-05-2.84038E-05 1.37438E-07-1.75835E-19-2.55532E-18
 -1      1365 9.45973E-05-2.83857E-05-2.83758E-05 2.85919E-07-3.77475E-20-1.66834E-18
 -1      1366 9.47992E-05-2.84392E-05-2.84398E-05 1.37172E-07-8.29834E-20-2.62809E-18
 -1      1367 9.49252E-05-2.84756E-05-2.84776E-05 1.38055E-07 3.35593E-20-2.71537E-18
 -1      1368 9.48256E-05-2.84487E-05-2.84474E-05 2.73604E-07-1.58636E-19-1.17149E-18
 -1      1369 9.50483E-05-2.85103E-05-2.85159E-05 1.49351E-07 1.50950E-19-3.06754E-18
 -1      1370 9.51864E-05-2.85500E-05-2.85575E-05 1.53084E-07 8.47691E-20-2.91663E-18
 -1      1371 9.50592E-05-2.85124E-05-2.85210E-05 2.87137E-07-9.04737E-20-1.18564E-18
 -1      1372 9.53284E-05-2.85900E-05-2.86017E-05 1.77806E-07-3.92952E-21-3.47025E-18
 -1      1373 9.54942E-05-2.86378E-05-2.86515E-05 1.84857E-07-1.67867E-19-3.61948E-18
 -1      1374 9.53188E-05-2.85829E-05-2.86030E-05 3.30681E-07-2.68550E-19-1.95847E-18
 -1      1375 9.56684E-05-2.86870E-05-2.87058E-05 2.25214E-07 1.41296E-19-3.89186E-18
 -1      1376 9.58800E-05-2.87484E-05-2.87693E-05 2.36149E-07-2.21215E-19-3.97111E-18
 -1      1377 9.56283E-05-2.86672E-05-2.87007E-05 4.09132E-07-1.46001E-19-2.70638E-18
 -1      1378 9.61018E-05-2.88110E-05-2.88383E-05 2.94667E-07-2.89206E-19-3.49905E-18
 -1      1379 9.63804E-05-2.88925E-05-2.89218E-05 3.10142E-07-7.63206E-20-3.76307E-18
 -1      1380 9.60157E-05-2.87734E-05-2.88225E-05 5.28172E-07-1.64013E-20-3.57155E-18
 -1      1381 9.66672E-05-2.89737E-05-2.90110E-05 3.89511E-07-1.44097E-19-3.40282E-18
 -1      1382 9.70373E-05-2.90827E-05-2.91216E-05 4.10225E-07-1.43689E-19-3.77872E-18
 -1      1383 9.65130E-05-2.89110E-05-2.89782E-05 6.94056E-07-2.48537E-19-3.17320E-18
 -1      1384 9.74086E-05-2.91881E-05-2.92371E-05 5.12937E-07 1.13539E-20-3.83055E-18
 -1      1385 9.78976E-05-2.93334E-05-2.93828E-05 5.39531E-07-8.31846E-20-4.10241E-18
 -1      1386 9.71561E-05-2.90908E-05-2.91785E-05 9.13006E-07-1.67738E-19-2.98334E-18
 -1      1387 9.83740E-05-2.94691E-05-2.95310E-05 6.67163E-07-3.48433E-20-3.73314E-18
 -1      1388 9.90116E-05-2.96601E-05-2.97203E-05 7.00023E-07-7.11185E-20-3.73561E-18
 -1      1389 9.79844E-05-2.93250E-05-2.94349E-05 1.18993E-06 3.35720E-20-2.60043E-18
 -1      1390 9.96135E-05-2.98323E-05-2.99074E-05 8.51961E-07-2.21984E-19-3.93343E-18
 -1      1391 1.00429E-04-3.00786E-05-3.01488E-05 8.90858E-07-1.63325E-19-4.07761E-18
 -1      1392 9.90383E-05-2.96269E-05-2.97590E-05 1.52607E-06-4.26741E-19-2.41689E-18
 -1      1393 1.01173E-04-3.02931E-05-3.03798E-05 1.06214E-06-1.73238E-19-4.41133E-18
 -1      1394 1.02189E-04-3.06032E-05-3.06796E-05 1.10561E-06 1.72456E-19-4.62651E-18
 -1      1395 1.00355E-04-3.00101E-05-3.01608E-05 1.91499E-06-2.51589E-19-2.41817E-18
 -1      1396 1.03086E-04-3.08640E-05-3.09565E-05 1.28351E-06-1.12919E-19-4.77639E-18
 -1      1397 1.04311E-04-3.12425E-05-3.13165E-05 1.32784E-06-4.09201E-19-5.10421E-18
 -1      1398 1.01963E-04-3.04873E-05-3.06461E-05 2.33600E-06-2.56287E-19-3.56143E-18
 -1      1399 1.05352E-04-3.15497E-05-3.16356E-05 1.48689E-06 4.74291E-19-5.09614E-18
 -1      1400 1.06764E-04-3.19928E-05-3.20479E-05 1.52460E-06 5.39893E-19-4.53156E-18
 -1      1401 1.03865E-04-3.10675E-05-3.12122E-05 2.74425E-06 3.46172E-19-3.62099E-18
 -1      1402 1.07913E-04-3.23402E-05-3.23958E-05 1.62024E-06 5.03692E-19-3.79628E-18
 -1      1403 1.09434E-04-3.28282E-05-3.28361E-05 1.63813E-06 3.71122E-19-3.05313E-18
 -1      1404 1.06026E-04-3.17513E-05-3.18420E-05 3.05732E-06 8.58271E-19-2.18599E-18
 -1      1405 1.10613E-04-3.31983E-05-3.31845E-05 1.60095E-06-8.52013E-20-2.74272E-18
 -1      1406 1.12082E-04-3.36851E-05-3.36032E-05 1.57830E-06-1.35716E-19-2.59313E-18
 -1      1407 1.08341E-04-3.25230E-05-3.24958E-05 3.14060E-06 4.53414E-19-2.02095E-18
 -1      1408 1.13151E-04-3.40431E-05-3.39045E-05 1.31447E-06 7.86086E-20-2.30507E-18
 -1      1409 1.14290E-04-3.44441E-05-3.42197E-05 1.22338E-06 2.12473E-19-1.85896E-18
 -1      1410 1.10607E-04-3.33374E-05-3.31034E-05 2.79999E-06-1.95039E-19-7.66935E-19
 -1      1411 1.15038E-04-3.47309E-05-3.44062E-05 6.32757E-07-4.03598E-20-2.26402E-18
 -1      1412 1.15450E-04-3.49153E-05-3.45046E-05 4.44824E-07-9.40140E-20-2.60848E-18
 -1      1413 1.12490E-04-3.40991E-05-3.35610E-05 1.80146E-06-1.37034E-19-8.72315E-19
 -1      1414 1.15606E-04-3.50429E-05-3.44974E-05-5.26983E-07-4.62467E-19-2.66823E-18
 -1      1415 1.14834E-04-3.48449E-05-3.42563E-05-8.21957E-07-4.23113E-19-3.36881E-18
 -1      1416 1.13515E-04-3.46386E-05-3.37402E-05-4.91361E-08-3.72893E-19-1.46409E-18
 -1      1417 1.14129E-04-3.47029E-05-3.39907E-05-2.08935E-06 2.62699E-19-3.58938E-18
 -1      1418 1.11830E-04-3.39744E-05-3.33308E-05-2.45004E-06 3.67202E-19-3.44504E-18
 -1      1419 1.13130E-04-3.47021E-05-3.35207E-05-2.73439E-06-4.25436E-19-1.88453E-18
 -1      1420 1.10124E-04-3.34683E-05-3.27983E-05-3.68378E-06-3.71570E-20-3.70482E-18
 -1      1421 1.06367E-04-3.21891E-05-3.17607E-05-3.98598E-06-1.75693E-19-3.48692E-18
 -1      1422 1.10876E-04-3.39992E-05-3.28482E-05-5.78219E-06 5.15023E-19-1.61656E-18
 -1      1423 1.03846E-04-3.13296E-05-3.10493E-05-4.61857E-06-1.63910E-19-4.07825E-18
 -1      1424 9.93775E-05-2.97364E-05-2.98508E-05-4.67742E-06-5.50762E-19-4.21113E-18
 -1      1425 1.06732E-04-3.23812E-05-3.18015E-05-8.11744E-06-3.60522E-19-2.27753E-18
 -1      1426 9.66918E-05-2.87434E-05-2.91461E-05-4.16783E-06-2.67742E-19-4.85551E-18
 -1      1427 9.28816E-05-2.73470E-05-2.81434E-05-3.85669E-06-2.97772E-19-4.95355E-18
 -1      1428 1.01499E-04-3.01167E-05-3.06173E-05-8.35271E-06-8.03791E-19-3.38466E-18
 -1      1429 9.09970E-05-2.66270E-05-2.76658E-05-2.15000E-06-3.53795E-19-3.96475E-18
 -1      1430 8.92527E-05-2.59936E-05-2.72039E-05-1.54842E-06 1.02028E-19-4.61155E-18
 -1      1431 9.68442E-05-2.80063E-05-2.96303E-05-5.68680E-06-4.61606E-19-3.14117E-18
 -1      1432 8.89249E-05-2.58980E-05-2.71032E-05 6.78995E-07 5.61424E-20-5.08571E-18
 -1      1433 8.98523E-05-2.62813E-05-2.73252E-05 1.28067E-06-4.14252E-21-4.62242E-18
 -1      1434 9.45936E-05-2.70251E-05-2.91344E-05-8.51166E-07 8.83032E-20-2.63593E-18
 -1      1435 9.10816E-05-2.68120E-05-2.76000E-05 2.98206E-06 3.82647E-19-5.04064E-18
 -1      1436 9.40670E-05-2.79577E-05-2.83594E-05 3.29092E-06-6.93627E-19-5.44526E-18
 -1      1437 9.55627E-05-2.76258E-05-2.92448E-05 3.98007E-06 1.26128E-20-3.00480E-18
 -1      1438 9.60914E-05-2.87621E-05-2.88578E-05 3.78028E-06-8.51943E-19-5.23180E-18
 -1      1439 9.97085E-05-3.00965E-05-2.98050E-05 3.71346E-06-2.69683E-19-5.57337E-18
 -1      1440 9.89335E-05-2.93599E-05-2.98418E-05 6.61773E-06-6.06998E-19-4.61593E-18
 -1      1441 1.01551E-04-3.07617E-05-3.03044E-05 3.04545E-06 4.48497E-19-4.56932E-18
 -1      1442 1.04412E-04-3.17658E-05-3.10780E-05 2.73138E-06 6.35288E-19-4.46993E-18
 -1      1443 1.02860E-04-3.12427E-05-3.06282E-05 6.31613E-06 3.98953E-19-4.09805E-18
 -1      1444 1.05418E-04-3.20699E-05-3.13930E-05 1.45978E-06 3.85658E-19-3.03455E-18
 -1      1445 1.06772E-04-3.25035E-05-3.17764E-05 1.08722E-06 5.47779E-19-2.50536E-18
 -1      1446 1.05660E-04-3.24610E-05-3.12693E-05 3.89294E-06 1.34239E-18-1.55810E-18
 -1      1447 1.06770E-04-3.24362E-05-3.18249E-05-1.94213E-07 7.41617E-19-2.68637E-18
 -1      1448 1.06575E-04-3.23247E-05-3.17871E-05-4.92588E-07 9.37136E-19-1.23445E-18
 -1      1449 1.06539E-04-3.27396E-05-3.15355E-05 7.80870E-07 8.18426E-19-2.10916E-19
 -1      1450 1.05745E-04-3.19891E-05-3.15925E-05-1.40990E-06 3.72721E-19-1.57639E-18
 -1      1451 1.04427E-04-3.15029E-05-3.12392E-05-1.57911E-06 7.31585E-19-8.63272E-19
 -1      1452 1.05566E-04-3.22303E-05-3.13689E-05-1.86056E-06 9.05167E-19-7.70307E-19
 -1      1453 1.03117E-04-3.10282E-05-3.08932E-05-1.98582E-06 1.11887E-18-1.19512E-18
 -1      1454 1.01293E-04-3.03802E-05-3.03955E-05-2.01725E-06 9.82796E-19 1.69221E-19
 -1      1455 1.03310E-04-3.12436E-05-3.08629E-05-3.43373E-06 1.23934E-18-3.37106E-19
 -1      1456 9.98824E-05-2.98816E-05-3.00149E-05-1.89780E-06 1.37980E-18 9.63897E-19
 -1      1457 9.82019E-05-2.92848E-05-2.95527E-05-1.79298E-06 9.40137E-19 1.89509E-18
 -1      1458 1.00503E-04-3.00753E-05-3.01962E-05-3.76506E-06 1.92954E-18 3.23381E-19
 -1      1459 9.70040E-05-2.88449E-05-2.92354E-05-1.18478E-06-3.57340E-19 2.39673E-18
 -1      1460 9.60395E-05-2.85424E-05-2.89339E-05-9.81498E-07-5.58984E-19 2.17178E-18
 -1      1461 9.78275E-05-2.89468E-05-2.95542E-05-2.91447E-06 1.08490E-18 8.95751E-19
 -1      1462 9.52279E-05-2.84484E-05-2.86255E-05-2.17127E-10-1.90517E-18 1.75513E-18
 -1      1463 9.56823E-05-2.81938E-05-2.89464E-05-9.62829E-07-1.67224E-18 1.25349E-18
 -1      1464 9.65788E-05-2.83641E-05-2.97729E-05 2.99649E-06 6.80062E-19 7.30516E-18
 -1      1465 1.02538E-04-2.93992E-05-3.21565E-05 4.46364E-06 6.01340E-19 8.37949E-18
 -1      1466 1.02328E-04-2.67185E-05-3.27063E-05 1.27846E-05 1.20490E-18 5.57115E-18
 -1      1467 9.20308E-05-2.74293E-05-2.77618E-05 1.15272E-06 5.24115E-19 6.00149E-18
 -1      1468 9.39783E-05-2.75847E-05-2.86762E-05 1.47467E-06 4.99048E-19 6.79064E-18
 -1      1469 9.64875E-05-2.80305E-05-2.95340E-05 4.86910E-06 1.04492E-18 4.55483E-18
 -1      1470 9.01965E-05-2.70040E-05-2.70624E-05 3.32586E-07 3.42585E-19 4.97457E-18
 -1      1471 9.08123E-05-2.70218E-05-2.73353E-05 4.95437E-07 3.32910E-19 5.55884E-18
 -1      1472 9.30414E-05-2.75786E-05-2.80985E-05 1.85329E-06 7.96409E-19 3.75255E-18
 -1      1473 8.96771E-05-2.68853E-05-2.68861E-05-5.40606E-08 3.48197E-19 4.11913E-18
 -1      1474 8.97155E-05-2.68233E-05-2.69146E-05 3.50021E-08 3.20114E-19 4.63232E-18
 -1      1475 9.14866E-05-2.73070E-05-2.75142E-05 5.19601E-07 5.95848E-19 2.94315E-18
 -1      1476 8.98062E-05-2.69369E-05-2.69271E-05-2.41012E-07 1.55439E-19 3.50453E-18
 -1      1477 8.95792E-05-2.68298E-05-2.68624E-05-1.90857E-07 1.32923E-19 3.82650E-18
 -1      1478 9.09528E-05-2.72255E-05-2.73174E-05-1.29756E-07 4.37906E-19 2.42867E-18
 -1      1479 9.02553E-05-2.70782E-05-2.70642E-05-3.23787E-07-1.34400E-20 3.49305E-18
 -1      1480 8.99103E-05-2.69516E-05-2.69633E-05-2.96226E-07 5.60196E-20 3.47872E-18
 -1      1481 9.09676E-05-2.72677E-05-2.73057E-05-4.47855E-07 1.24208E-19 2.29605E-18
 -1      1482 9.08451E-05-2.72591E-05-2.72423E-05-3.47915E-07 2.26967E-19 3.00867E-18
 -1      1483 9.04600E-05-2.71295E-05-2.71295E-05-3.34336E-07 1.52080E-19 3.29764E-18
 -1      1484 9.12687E-05-2.73787E-05-2.73863E-05-5.87359E-07 2.19126E-19 1.94181E-18
 -1      1485 9.14732E-05-2.74497E-05-2.74314E-05-3.38441E-07 1.12116E-19 2.53613E-18
 -1      1486 9.10914E-05-2.73270E-05-2.73194E-05-3.33637E-07 1.71309E-19 2.81791E-18
 -1      1487 9.17053E-05-2.75212E-05-2.75110E-05-6.25210E-07 3.11140E-19 1.66572E-18
 -1      1488 9.20811E-05-2.76329E-05-2.76146E-05-3.10537E-07 2.84793E-19 2.21600E-18
 -1      1489 9.17266E-05-2.75223E-05-2.75103E-05-3.11130E-07 1.75233E-19 2.41858E-18
 -1      1490 9.21886E-05-2.76722E-05-2.76522E-05-6.04911E-07 4.08662E-19 1.26683E-18
 -1      1491 9.26371E-05-2.77997E-05-2.77825E-05-2.73907E-07 1.64467E-19 1.84150E-18
 -1      1492 9.23218E-05-2.77034E-05-2.76893E-05-2.77619E-07 2.53162E-19 2.21078E-18
 -1      1493 9.26667E-05-2.78182E-05-2.77936E-05-5.53156E-07 3.82829E-19 9.89349E-19
 -1      1494 9.31269E-05-2.79460E-05-2.79306E-05-2.34924E-07 2.72895E-20 1.70427E-18
 -1      1495 9.28551E-05-2.78644E-05-2.78501E-05-2.40184E-07 3.62959E-20 1.65972E-18
 -1      1496 9.31110E-05-2.79516E-05-2.79262E-05-4.87124E-07 1.39802E-19 1.08801E-18
 -1      1497 9.35480E-05-2.80712E-05-2.80582E-05-1.97820E-07 2.11624E-19 1.95766E-18
 -1      1498 9.33185E-05-2.80033E-05-2.79900E-05-2.03526E-07 4.91552E-21 1.78800E-18
 -1      1499 9.35080E-05-2.80695E-05-2.80454E-05-4.18150E-07-1.22814E-19 9.37928E-19
 -1      1500 9.39052E-05-2.81771E-05-2.81667E-05-1.65460E-07 3.10101E-19 1.31342E-18
 -1      1501 9.37138E-05-2.81211E-05-2.81095E-05-1.70815E-07 3.61726E-19 1.61011E-18
 -1      1502 9.38550E-05-2.81713E-05-2.81503E-05-3.53840E-07 5.38642E-19 7.69709E-19
 -1      1503 9.42092E-05-2.82667E-05-2.82592E-05-1.39868E-07 3.67785E-19 1.52876E-19
 -1      1504 9.40489E-05-2.82202E-05-2.82111E-05-1.44264E-07 5.67632E-19 9.51883E-19
 -1      1505 9.41560E-05-2.82586E-05-2.82418E-05-2.99436E-07 7.55221E-19 2.53021E-19
 -1      1506 9.44743E-05-2.83445E-05-2.83400E-05-1.22622E-07 8.31646E-20-4.75779E-19
 -1      1507 9.43365E-05-2.83046E-05-2.82985E-05-1.25551E-07 2.11429E-19-9.94776E-20
 -1      1508 9.44203E-05-2.83344E-05-2.83226E-05-2.58776E-07 5.28187E-19 1.76298E-19
 -1      1509 9.47182E-05-2.84158E-05-2.84145E-05-1.15152E-07 1.46432E-19-7.34381E-19
 -1      1510 9.45928E-05-2.83792E-05-2.83766E-05-1.16131E-07-6.86298E-20-6.42231E-19
 -1      1511 9.46611E-05-2.84028E-05-2.83968E-05-2.35000E-07 1.88779E-19-2.15696E-19
 -1      1512 9.49620E-05-2.84868E-05-2.84891E-05-1.18969E-07 5.78367E-19-1.40799E-18
 -1      1513 9.48373E-05-2.84497E-05-2.84512E-05-1.17481E-07 3.92401E-19-7.38706E-19
 -1      1514 9.48949E-05-2.84685E-05-2.84691E-05-2.31081E-07 4.35851E-19-1.03986E-18
 -1      1515 9.52300E-05-2.85647E-05-2.85711E-05-1.35836E-07-2.28280E-19-1.82348E-18
 -1      1516 9.50925E-05-2.85229E-05-2.85291E-05-1.31278E-07 4.24632E-20-1.56992E-18
 -1      1517 9.51413E-05-2.85375E-05-2.85457E-05-2.50234E-07 4.14844E-19-1.04652E-18
 -1      1518 9.55505E-05-2.86580E-05-2.86690E-05-1.67881E-07-6.37724E-19-4.82390E-19
 -1      1519 9.53845E-05-2.86065E-05-2.86184E-05-1.59522E-07-5.58741E-19-1.64422E-18
 -1      1520 9.54235E-05-2.86164E-05-2.86336E-05-2.96192E-07-6.30192E-19-7.54385E-19
 -1      1521 9.59568E-05-2.87765E-05-2.87929E-05-2.17637E-07-3.83441E-19-1.39224E-19
 -1      1522 9.57440E-05-2.87095E-05-2.87282E-05-2.04597E-07-4.08168E-19-5.68667E-19
 -1      1523 9.57684E-05-2.87133E-05-2.87408E-05-3.73368E-07-5.84175E-19-4.02595E-19
 -1      1524 9.64871E-05-2.89317E-05-2.89543E-05-2.87984E-07 2.57958E-19-1.62034E-19
 -1      1525 9.62062E-05-2.88424E-05-2.88692E-05-2.69223E-07 1.24442E-19 1.09168E-19
 -1      1526 9.62072E-05-2.88373E-05-2.88770E-05-4.86838E-07-2.07794E-19-5.50877E-19
 -1      1527 9.71854E-05-2.91368E-05-2.91665E-05-3.81917E-07 1.57661E-19-8.17033E-19
 -1      1528 9.68118E-05-2.90173E-05-2.90536E-05-3.56274E-07 1.26368E-19-2.09534E-19
 -1      1529 9.67753E-05-2.89990E-05-2.90528E-05-6.42073E-07 3.84737E-19 7.95179E-21
 -1      1530 9.81009E-05-2.94067E-05-2.94442E-05-5.02051E-07-2.83670E-19-7.06846E-19
 -1      1531 9.76068E-05-2.92481E-05-2.92953E-05-4.68350E-07-2.23871E-19-1.15582E-18
 -1      1532 9.75125E-05-2.92103E-05-2.92801E-05-8.44273E-07 1.08048E-19-3.35464E-20
 -1      1533 9.92858E-05-2.97574E-05-2.98027E-05-6.49665E-07 3.53951E-21 7.42709E-20
 -1      1534 9.86415E-05-2.95501E-05-2.96092E-05-6.06950E-07-3.82331E-19-1.99174E-19
 -1      1535 9.84615E-05-2.94845E-05-2.95716E-05-1.09703E-06-4.21697E-19-5.73365E-19
 -1      1536 1.00791E-04-3.02049E-05-3.02570E-05-8.23005E-07-8.29033E-20 2.70190E-19
 -1      1537 9.99669E-05-2.99395E-05-3.00105E-05-7.70996E-07 4.66775E-19 6.85144E-19
 -1      1538 9.96647E-05-2.98354E-05-2.99394E-05-1.39992E-06 1.54987E-19 2.98768E-19
 -1      1539 1.02656E-04-3.07625E-05-3.08180E-05-1.01444E-06 1.35068E-19 1.93825E-19
 -1      1540 1.01629E-04-3.04316E-05-3.05121E-05-9.54360E-07-6.77742E-20-2.22611E-20
 -1      1541 1.01159E-04-3.02760E-05-3.03934E-05-1.74438E-06 1.12488E-19 9.02291E-19
 -1      1542 1.04892E-04-3.14364E-05-3.14879E-05-1.20601E-06-2.87445E-21-1.97901E-19
 -1      1543 1.03655E-04-3.10379E-05-3.11214E-05-1.14195E-06 2.57389E-19 4.87190E-19
 -1      1544 1.02966E-04-3.08164E-05-3.09378E-05-2.10718E-06 2.21817E-19 9.57513E-19
 -1      1545 1.07460E-04-3.22182E-05-3.22513E-05-1.36300E-06-1.34363E-19 9.95661E-20
 -1      1546 1.06037E-04-3.17604E-05-3.18330E-05-1.30405E-06-4.03930E-19-3.60174E-19
 -1      1547 1.05073E-04-3.14594E-05-3.15654E-05-2.44065E-06-2.17063E-19 8.15474E-19
 -1      1548 1.10222E-04-3.30729E-05-3.30634E-05-1.42631E-06 1.04307E-20-4.06232E-19
 -1      1549 1.08693E-04-3.25830E-05-3.26193E-05-1.38932E-06 2.08529E-19-6.70612E-20
 -1      1550 1.07413E-04-3.21940E-05-3.22497E-05-2.66018E-06 1.44645E-19-2.02524E-19
 -1      1551 1.12900E-04-3.39225E-05-3.38351E-05-1.30677E-06-3.96782E-20-4.80254E-19
 -1      1552 1.11433E-04-3.34574E-05-3.34177E-05-1.31894E-06-9.00204E-20-9.16146E-19
 -1      1553 1.09828E-04-3.29853E-05-3.29356E-05-2.63198E-06 6.43166E-20-3.30323E-19
 -1      1554 1.15021E-04-3.46283E-05-3.44215E-05-8.90084E-07-5.57103E-19 8.98556E-19
 -1      1555 1.13902E-04-3.42857E-05-3.41167E-05-9.88685E-07-3.64486E-19-4.59065E-19
 -1      1556 1.12035E-04-3.37598E-05-3.35303E-05-2.17156E-06-3.98900E-19-8.19465E-19
 -1      1557 1.15912E-04-3.49798E-05-3.46255E-05-6.87917E-08 2.05492E-19 1.60241E-18
 -1      1558 1.15548E-04-3.49005E-05-3.45501E-05-2.92565E-07-2.41537E-19 1.07130E-18
 -1      1559 1.13599E-04-3.43877E-05-3.39024E-05-1.07414E-06-8.82158E-19 4.29303E-19
 -1      1560 1.14796E-04-3.47127E-05-3.42371E-05 1.17753E-06 6.99980E-19 2.38572E-19
 -1      1561 1.15651E-04-3.50587E-05-3.45147E-05 8.13092E-07 5.39136E-19 1.24608E-18
 -1      1562 1.13957E-04-3.46700E-05-3.39002E-05 7.89489E-07 9.35442E-19 2.15570E-19
 -1      1563 1.11084E-04-3.35931E-05-3.31247E-05 2.65770E-06-8.82780E-19 1.07420E-18
 -1      1564 1.13493E-04-3.44802E-05-3.38291E-05 2.20052E-06-1.80703E-19 7.40995E-19
 -1      1565 1.12537E-04-3.43541E-05-3.34011E-05 3.29056E-06-1.97478E-19 4.76787E-19
 -1      1566 1.04859E-04-3.15881E-05-3.13624E-05 3.87711E-06 4.79659E-19 1.05254E-18
 -1      1567 1.08725E-04-3.29722E-05-3.24397E-05 3.47030E-06 1.64444E-19 1.21263E-18
 -1      1568 1.09037E-04-3.32247E-05-3.23902E-05 5.83668E-06-1.11425E-19 5.37879E-19
 -1      1569 9.73433E-05-2.90663E-05-2.93202E-05 4.13627E-06 2.37348E-19-6.04570E-20
 -1      1570 1.01872E-04-3.06397E-05-3.05368E-05 3.99046E-06 1.83628E-19 3.33996E-19
 -1      1571 1.03819E-04-3.12923E-05-3.10333E-05 7.34678E-06 2.37058E-19 3.00697E-20
 -1      1572 9.08596E-05-2.68438E-05-2.76023E-05 2.95390E-06-3.40838E-19 1.12444E-18
 -1      1573 9.46254E-05-2.80666E-05-2.85889E-05 3.21690E-06-4.56273E-19 7.70853E-19
 -1      1574 9.81778E-05-2.90086E-05-2.96797E-05 6.68666E-06-5.33406E-19 6.27334E-20
 -1      1575 8.78542E-05-2.58359E-05-2.67890E-05 5.98968E-07-5.58023E-19 1.69663E-18
 -1      1576 8.94314E-05-2.62005E-05-2.72043E-05 1.20375E-06-2.62183E-19 1.37087E-18
 -1      1577 9.40645E-05-2.72509E-05-2.87412E-05 3.56510E-06-4.74272E-19 6.48331E-19
 -1      1578 8.93975E-05-2.64470E-05-2.71265E-05-1.86700E-06 1.55854E-19 3.34234E-18
 -1      1579 8.82403E-05-2.58270E-05-2.68460E-05-1.20729E-06-2.85225E-19 2.16900E-18
 -1      1580 9.30740E-05-2.68507E-05-2.85020E-05-8.62674E-07-9.80441E-19 1.35101E-18
 -1      1581 9.44100E-05-2.82488E-05-2.83756E-05-3.28875E-06 2.92154E-19 2.61135E-18
 -1      1582 9.12427E-05-2.70044E-05-2.75706E-05-2.88020E-06 7.21990E-19 3.48385E-18
 -1      1583 9.53624E-05-2.79427E-05-2.89732E-05-4.53680E-06 5.30011E-19 2.66400E-18
 -1      1584 1.00405E-04-3.03091E-05-2.99511E-05-3.22476E-06 6.08431E-19 1.18860E-18
 -1      1585 9.67317E-05-2.90273E-05-2.89874E-05-3.18368E-06 1.34797E-20 1.14207E-18
 -1      1586 9.95203E-05-2.98299E-05-2.98872E-05-5.91654E-06 8.25236E-19 1.36817E-18
 -1      1587 1.05022E-04-3.18118E-05-3.12396E-05-2.06413E-06-9.22551E-19 7.57142E-19
 -1      1588 1.02226E-04-3.09486E-05-3.04777E-05-2.29974E-06 1.95049E-19 8.71438E-19
 -1      1589 1.03550E-04-3.15402E-05-3.08374E-05-4.89171E-06 1.70194E-19 1.40138E-18
 -1      1590 1.07035E-04-3.23964E-05-3.18659E-05-5.34011E-07 5.19410E-19 1.38148E-18
 -1      1591 1.05810E-04-3.21170E-05-3.15095E-05-8.74932E-07 3.42850E-20 1.03502E-18
 -1      1592 1.05980E-04-3.24569E-05-3.14673E-05-2.45871E-06-1.36015E-19 1.38894E-18
 -1      1593 1.06426E-04-3.21191E-05-3.17678E-05 7.77276E-07 4.05606E-19 4.41695E-19
 -1      1594 1.06750E-04-3.23487E-05-3.18344E-05 4.70248E-07 6.52050E-19 7.27019E-19
 -1      1595 1.06309E-04-3.24763E-05-3.16010E-05 1.70901E-07 8.53333E-19 4.29264E-19
 -1      1596 1.03938E-04-3.12556E-05-3.11220E-05 1.57423E-06 5.12548E-19-5.65553E-19
 -1      1597 1.05350E-04-3.18030E-05-3.14958E-05 1.37542E-06 3.42042E-19 2.81930E-19
 -1      1598 1.04828E-04-3.18154E-05-3.12625E-05 2.16490E-06 4.38604E-19-2.35568E-19
 -1      1599 1.00623E-04-3.01460E-05-3.02229E-05 1.77599E-06-7.90991E-22-2.42778E-18
 -1      1600 1.02486E-04-3.07914E-05-3.07272E-05 1.71456E-06 4.50727E-19-1.86510E-18
 -1      1601 1.02241E-04-3.07837E-05-3.06166E-05 3.15399E-06 1.48501E-18-2.24171E-18
 -1      1602 9.75637E-05-2.91277E-05-2.93788E-05 1.39359E-06-1.03094E-18-1.75181E-18
 -1      1603 9.92143E-05-2.96514E-05-2.98335E-05 1.48571E-06-7.48608E-19-2.62829E-18
 -1      1604 9.93556E-05-2.96626E-05-2.98850E-05 3.06439E-06-6.07607E-19-1.47243E-18
 -1      1605 9.56843E-05-2.85135E-05-2.87962E-05 5.57169E-07 3.92568E-19-2.43545E-18
 -1      1606 9.65332E-05-2.87218E-05-2.90854E-05 7.72122E-07 3.29191E-19-1.48774E-18
 -1      1607 9.68970E-05-2.86966E-05-2.92586E-05 1.98623E-06 2.41969E-19-2.24292E-18
 -1      1608 9.52586E-05-2.84472E-05-2.86291E-05 4.33926E-08-1.04371E-18-1.35919E-18
 -1      1609 9.49405E-05-2.66797E-05-2.92819E-05 1.25226E-06-2.08825E-18 2.11408E-19
 -1      1610 9.52530E-05-2.76834E-05-2.89566E-05 1.00261E-06-1.89337E-18 3.64879E-19
 -1      1611 9.39195E-05-2.34831E-05-3.02024E-05 2.19909E-06-3.08231E-18 9.35892E-19
 -1      1612 9.45521E-05-2.54313E-05-2.96449E-05 2.02538E-06-2.57990E-18-3.76304E-19
 -1      1613 9.49584E-05-2.59319E-05-2.96295E-05 3.17591E-06-1.26731E-18-6.92271E-19
 -1      1614 9.25255E-05-1.91136E-05-3.14706E-05 2.90639E-06-5.90408E-18-5.74553E-19
 -1      1615 9.33834E-05-2.17553E-05-3.07164E-05 2.78632E-06-4.32752E-18 4.04640E-19
 -1      1616 9.39196E-05-2.29825E-05-3.04452E-05 4.81102E-06-1.99975E-18-1.28588E-18
 -1      1617 9.08850E-05-1.40145E-05-3.29482E-05 3.27531E-06-3.74108E-18 1.03839E-18
 -1      1618 9.18716E-05-1.70270E-05-3.20901E-05 3.22873E-06-6.60421E-18 1.99062E-18
 -1      1619 9.26201E-05-1.92077E-05-3.14904E-05 5.91211E-06-2.29476E-18 6.91344E-19
 -1      1620 8.92194E-05-8.93503E-06-3.44059E-05 3.17698E-06-2.70418E-18 5.31943E-19
 -1      1621 9.01864E-05-1.18458E-05-3.35819E-05 3.23285E-06-3.81774E-18-9.70839E-19
 -1      1622 9.11328E-05-1.49731E-05-3.26399E-05 6.26177E-06-2.54833E-18 1.17044E-18
 -1      1623 8.77531E-05-4.54558E-06-3.56507E-05 2.51312E-06-1.60717E-18-6.12908E-20
 -1      1624 8.85607E-05-6.94096E-06-3.49775E-05 2.68932E-06-2.86059E-18 8.16126E-19
 -1      1625 8.96282E-05-1.08147E-05-3.37416E-05 5.63964E-06-2.18317E-18 7.55123E-19
 -1      1626 8.68254E-05-1.80439E-06-3.64214E-05 1.32529E-06-3.81428E-18-1.88348E-18
 -1      1627 8.72827E-05-3.14817E-06-3.60456E-05 1.59975E-06-2.08436E-18-1.27512E-18
 -1      1628 8.83603E-05-7.41127E-06-3.46209E-05 3.95119E-06-3.04942E-18-1.70999E-18
 -1      1629 8.66570E-05-1.30972E-06-3.65599E-05-1.63578E-07-3.29159E-18 8.66674E-19
 -1      1630 8.66548E-05-1.30301E-06-3.65618E-05 1.48961E-07-3.04327E-18-8.12027E-19
 -1      1631 8.76344E-05-5.49809E-06-3.51069E-05 1.41580E-06-2.28812E-18-1.38736E-18
 -1      1632 8.72921E-05-3.17667E-06-3.60376E-05-1.61231E-06-8.81100E-19 2.12190E-18
 -1      1633 8.68309E-05-1.82066E-06-3.64168E-05-1.33864E-06-3.18162E-18 1.99977E-18
 -1      1634 8.76380E-05-5.50775E-06-3.51045E-05-1.44278E-06 5.13322E-19 1.35660E-18
 -1      1635 8.85741E-05-6.98468E-06-3.49649E-05-2.69729E-06 8.59474E-20-2.87415E-19
 -1      1636 8.77664E-05-4.58205E-06-3.56405E-05-2.52293E-06-6.87248E-19 1.19319E-18
 -1      1637 8.83692E-05-7.43751E-06-3.46139E-05-3.97281E-06-3.97775E-20 2.52072E-18
 -1      1638 9.01888E-05-1.18565E-05-3.35777E-05-3.23282E-06 7.67624E-22 4.94034E-19
 -1      1639 8.92211E-05-8.94290E-06-3.44027E-05-3.17805E-06 8.34698E-19-7.28493E-19
 -1      1640 8.96322E-05-1.08199E-05-3.37406E-05-5.64545E-06-5.57057E-20-5.52570E-19
 -1      1641 9.18895E-05-1.70830E-05-3.20732E-05-3.22969E-06-1.42987E-18-1.31174E-18
 -1      1642 9.09011E-05-1.40677E-05-3.29321E-05-3.27689E-06-1.64298E-19 6.23711E-20
 -1      1643 9.11355E-05-1.49811E-05-3.26377E-05-6.26529E-06-2.64982E-19-3.70097E-19
 -1      1644 9.33998E-05-2.18051E-05-3.07007E-05-2.78929E-06-3.05084E-18-6.38554E-19
 -1      1645 9.25426E-05-1.91686E-05-3.14538E-05-2.90429E-06-2.04548E-18-1.17231E-19
 -1      1646 9.26335E-05-1.92522E-05-3.14770E-05-5.91056E-06-4.90081E-19-2.04576E-18
 -1      1647 9.45546E-05-2.54101E-05-2.96345E-05-2.03592E-06-3.51787E-18 3.74190E-19
 -1      1648 9.39122E-05-2.35076E-05-3.01889E-05-2.18750E-06-3.30920E-18 1.59914E-19
 -1      1649 9.39390E-05-2.30275E-05-3.04326E-05-4.79534E-06-1.08586E-18-1.16469E-18
 -1      1650 9.53431E-05-2.74576E-05-2.90712E-05-1.47055E-06-2.43867E-18 4.23530E-19
 -1      1651 9.50291E-05-2.64609E-05-2.93960E-05-1.83705E-06-2.52170E-18-1.43618E-19
 -1      1652 9.50800E-05-2.57685E-05-2.97476E-05-3.70317E-06-7.70805E-19 1.02968E-18
 -1      1653 9.61847E-05-2.76490E-05-2.93942E-05-2.80721E-06-3.25757E-19 9.62110E-20
 -1      1654 2.25043E-05-7.39867E-05 1.54790E-05-7.45919E-06-3.62954E-19-1.28410E-18
 -1      1655 2.59178E-05-8.36756E-05 1.75955E-05 1.79416E-06 2.77403E-20-5.20290E-19
 -1      1656 2.04364E-05-4.46104E-05 5.56719E-06 2.77702E-07 3.63801E-18 3.60497E-18
 -1      1657 2.58080E-05-6.84036E-05 1.15430E-05-2.75214E-06 1.28834E-18 1.40744E-18
 -1      1658 3.33187E-05-1.39342E-05-1.05095E-05 2.62016E-05 7.12439E-18 5.89789E-18
 -1      1659 2.87103E-05-3.68834E-05-1.59844E-06 7.96649E-06 5.30327E-18 4.18646E-18
 -1      1660 7.99354E-05-5.43194E-06-3.10309E-05 6.03168E-05 7.44965E-18 7.47252E-18
 -1      1661 5.38418E-05-1.24834E-05-2.01723E-05 3.56850E-05 8.07985E-18 6.61363E-18
 -1      1662 1.41645E-04-1.68698E-05-5.00603E-05 7.78949E-05 4.52993E-18 8.02648E-18
 -1      1663 1.01272E-04-5.13530E-06-4.07303E-05 6.52736E-05 6.28160E-18 7.51403E-18
 -1      1664 2.09258E-04-4.34345E-05-6.56299E-05 6.33941E-05 3.37543E-18 2.40727E-18
 -1      1665 1.65208E-04-2.26826E-05-5.80067E-05 7.19519E-05 5.23826E-18 5.72425E-18
 -1      1666 2.55246E-04-6.41398E-05-7.49906E-05 2.67493E-05 1.30083E-18-1.68941E-18
 -1      1667 2.29970E-04-4.96828E-05-7.15447E-05 5.73478E-05 2.09217E-18 1.71778E-18
 -1      1668 2.48729E-04-6.02270E-05-7.46155E-05-2.56893E-05 3.59354E-19-3.21407E-18
 -1      1669 2.55739E-04-6.39501E-05-7.56825E-05 9.62513E-06 5.77465E-19-2.35300E-18
 -1      1670 2.05156E-04-3.91682E-05-6.63176E-05-6.71600E-05 1.20183E-18-2.17095E-18
 -1      1671 2.41619E-04-5.86752E-05-7.19050E-05-4.37822E-05 5.10337E-20-3.80911E-18
 -1      1672 1.36856E-04-1.31250E-05-5.08914E-05-7.39328E-05 1.90540E-18-3.38728E-18
 -1      1673 1.82238E-04-3.20788E-05-5.94193E-05-7.52653E-05 2.07777E-18-2.98410E-18
 -1      1674 7.51247E-05-2.96347E-06-3.17829E-05-5.30664E-05 3.22296E-18-2.47503E-18
 -1      1675 1.11303E-04-7.78329E-06-4.18946E-05-7.27502E-05 2.07015E-18-2.46825E-18
 -1      1676 4.02221E-05-2.11613E-05-1.16824E-05-2.22114E-05 3.21703E-18-2.03584E-18
 -1      1677 5.69205E-05-6.64245E-06-2.19441E-05-4.56160E-05 2.52077E-18-2.19043E-18
 -1      1678 2.48025E-05-4.88858E-05 4.62397E-06-5.10209E-07 4.21653E-18-1.47214E-18
 -1      1679 2.36248E-05-2.46763E-05-2.89972E-06-1.20713E-05 3.57787E-18-1.51492E-18
 -1      1680 2.48392E-05-7.44412E-05 1.45537E-05 2.50011E-06 2.48816E-18-1.79709E-18
 -1      1681 1.92859E-05-5.59959E-05 1.03050E-05 5.57642E-06 3.85654E-18-1.20215E-18
 -1      1682 2.38917E-05-7.94641E-05 1.71106E-05-4.52595E-06-3.15064E-18-2.34840E-18
 -1      1683 2.33123E-05-7.79100E-05 1.67799E-05 5.70648E-06 8.62280E-19-3.07621E-18
 -1      1684 1.98736E-05-6.11628E-05 1.20092E-05-6.61174E-06-4.45709E-18-2.12780E-18
 -1      1685 2.49410E-05-7.69665E-05 1.55313E-05-1.64783E-06-3.84765E-18-1.10580E-18
 -1      1686 2.15396E-05-3.07545E-05 1.14347E-07 7.08206E-06-4.26227E-18-1.51555E-18
 -1      1687 2.43686E-05-5.45904E-05 6.99929E-06-1.41254E-06-4.48250E-18-1.57993E-18
 -1      1688 4.52273E-05-8.46191E-06-1.70149E-05 3.68807E-05-3.85908E-18-3.40592E-18
 -1      1689 3.41459E-05-2.53765E-05-7.80006E-06 1.63772E-05-4.03526E-18-2.80368E-18
 -1      1690 9.15123E-05-5.84194E-06-3.53567E-05 6.43041E-05-4.21992E-18-4.23262E-18
 -1      1691 6.37395E-05-6.84451E-06-2.59825E-05 4.41759E-05-3.92092E-18-4.33511E-18
 -1      1692 1.56390E-04-2.28430E-05-5.32877E-05 7.58036E-05-2.62496E-18-1.52127E-18
 -1      1693 1.14099E-04-8.54823E-06-4.42393E-05 6.70908E-05-3.99630E-18-3.29581E-18
 -1      1694 2.19019E-04-4.79621E-05-6.73077E-05 6.14609E-05-9.27289E-19-8.05528E-19
 -1      1695 1.79174E-04-2.84161E-05-6.08650E-05 7.32102E-05-1.87872E-18-1.71863E-18
 -1      1696 2.57617E-04-6.58203E-05-7.52080E-05 1.89404E-05-1.97316E-18 2.88012E-18
 -1      1697 2.35517E-04-5.38029E-05-7.20138E-05 4.90947E-05-1.21517E-18-3.29496E-19
 -1      1698 2.53540E-04-6.24325E-05-7.52884E-05-3.17316E-05-1.40607E-18 5.16309E-18
 -1      1699 2.61184E-04-6.69909E-05-7.62542E-05 2.08535E-06-1.55642E-18 3.71186E-18
 -1      1700 2.09402E-04-3.98928E-05-6.76006E-05-6.87603E-05-1.66045E-18 4.38509E-18
 -1      1701 2.43031E-04-5.80447E-05-7.24814E-05-4.68516E-05-7.86576E-19 4.57059E-18
 -1      1702 1.44549E-04-1.57442E-05-5.27729E-05-7.34476E-05-2.54703E-18 3.98105E-18
 -1      1703 1.88122E-04-3.42470E-05-6.09475E-05-7.30602E-05-2.41722E-18 4.10133E-18
 -1      1704 8.41290E-05-2.30215E-06-3.52150E-05-5.98489E-05-3.06626E-18 2.92904E-18
 -1      1705 1.19530E-04-9.15952E-06-4.45327E-05-7.65479E-05-2.61479E-18 3.51603E-18
 -1      1706 4.55550E-05-1.23357E-05-1.70323E-05-3.12607E-05-3.76930E-18 2.51653E-18
 -1      1707 6.43088E-05-2.57410E-06-2.62885E-05-5.32368E-05-3.09845E-18 2.37762E-18
 -1      1708 2.83659E-05-3.91323E-05-4.60932E-07-7.02232E-06-1.50010E-18 3.13614E-18
 -1      1709 3.13224E-05-1.70050E-05-8.62438E-06-2.27615E-05-3.43048E-18 3.54526E-18
 -1      1710 2.56293E-05-6.78584E-05 1.15886E-05 2.29958E-06-9.11407E-19-8.61591E-20
 -1      1711 2.05040E-05-4.59902E-05 6.09656E-06 3.09530E-07-4.20975E-19 1.12592E-18
 -1      1712 2.51831E-05-8.07441E-05 1.70404E-05-2.19092E-06 3.50566E-19 6.50310E-19
 -1      1713 2.20025E-05-7.09260E-05 1.48898E-05 5.57461E-06 7.62330E-21 1.07192E-18
 -1      1714 1.18839E-04-3.47862E-05-3.50086E-05 4.55087E-05 4.73322E-18 4.52316E-18
 -1      1715 7.51731E-05-3.85753E-05-1.68005E-05 4.05805E-05 3.80826E-18 5.08728E-18
 -1      1716 9.54602E-05-2.82741E-05-2.88193E-05 5.36770E-07-1.82981E-18-4.31150E-19
 -1      1717 9.56740E-05-2.77180E-05-2.91479E-05 1.70424E-06-3.26444E-19-1.43494E-19
 -1      1718 1.99876E-05-5.42762E-05 9.91486E-06 1.32325E-05 7.15743E-19 2.00112E-18
 -1      1719 3.94005E-05-4.56673E-05-6.73087E-07 2.70299E-05 2.77319E-18 5.60815E-18
 -1      1720 1.28096E-05-5.48033E-05 1.31014E-05-8.88090E-07 7.65347E-19 1.73642E-20
 -1      1721 1.60772E-04-3.27834E-05-5.18213E-05 4.05746E-05 3.65188E-18 2.90871E-18
 -1      1722 1.94885E-04-3.37458E-05-6.47873E-05 2.72267E-05 4.22267E-18-1.27055E-20
 -1      1723 2.13388E-04-3.44529E-05-7.11835E-05 9.75821E-06 2.43353E-18 5.38395E-19
 -1      1724 2.08178E-04-3.41224E-05-6.93055E-05-1.50793E-05 2.74439E-19-5.08643E-19
 -1      1725 1.83908E-04-3.37853E-05-6.01270E-05-3.66133E-05 1.38929E-18-1.37897E-18
 -1      1726 1.40830E-04-3.10148E-05-4.49570E-05-4.57609E-05 2.03457E-18-2.76810E-18
 -1      1727 9.70884E-05-3.47904E-05-2.69115E-05-4.25696E-05 1.60428E-18-1.27224E-18
 -1      1728 5.72669E-05-4.00016E-05-9.41446E-06-3.40836E-05 1.19008E-18-9.19454E-19
 -1      1729 2.78616E-05-4.72802E-05 4.46167E-06-1.94549E-05 1.31714E-18-7.41366E-19
 -1      1730 1.47866E-05-5.38963E-05 1.20119E-05-6.85367E-06 2.23617E-19-4.16740E-18
 -1      1731 1.36935E-05-5.44150E-05 1.26201E-05 4.85372E-06-1.38426E-18-2.78039E-18
 -1      1732 2.43957E-05-4.87469E-05 6.32515E-06 1.71697E-05-1.90032E-18-5.01020E-19
 -1      1733 4.90718E-05-4.08759E-05-6.03511E-06 3.08816E-05-2.75455E-18-1.96596E-18
 -1      1734 8.57547E-05-3.56733E-05-2.20504E-05 4.09884E-05-2.53771E-18-3.46352E-18
 -1      1735 1.27266E-04-3.31695E-05-3.89798E-05 4.37009E-05-3.37289E-18-7.24213E-19
 -1      1736 1.68116E-04-3.29595E-05-5.45816E-05 3.93856E-05-2.54343E-18-3.72694E-19
 -1      1737 2.01680E-04-3.51804E-05-6.63135E-05 2.59819E-05-1.60026E-18-3.25684E-19
 -1      1738 2.18460E-04-3.72242E-05-7.18137E-05 3.85578E-06-2.90448E-18 2.58176E-18
 -1      1739 2.12389E-04-3.56187E-05-7.01116E-05-1.97233E-05-9.23689E-19 3.39067E-18
 -1      1740 1.85389E-04-3.32291E-05-6.10534E-05-3.46912E-05-1.79645E-18 2.99596E-18
 -1      1741 1.47724E-04-3.18006E-05-4.70786E-05-4.51016E-05-1.60470E-18 2.50298E-18
 -1      1742 1.04679E-04-3.19516E-05-3.06774E-05-4.69079E-05-2.50552E-18 2.65121E-18
 -1      1743 6.69733E-05-3.76953E-05-1.41828E-05-3.84047E-05-1.41878E-18 1.99476E-18
 -1      1744 3.79429E-05-4.62950E-05 7.38257E-08-2.62548E-05 3.87094E-19 3.28977E-18
 -1      1745 1.94354E-05-5.19752E-05 9.46209E-06-1.41708E-05 1.49671E-18 8.77950E-19
 -1      1746 1.06052E-04-2.31702E-05-3.56043E-05-1.68550E-05-1.13742E-18 3.76548E-18
 -1      1747 8.91407E-05-1.05807E-05-3.37944E-05-1.33257E-05-1.27210E-18-1.76778E-18
 -1      1748 9.04843E-05-1.16346E-05-3.39351E-05-1.51394E-05-1.53835E-18-1.35411E-18
 -1      1749 9.24893E-05-1.38740E-05-3.38540E-05-1.60054E-05-1.58678E-18-8.08255E-19
 -1      1750 9.42057E-05-1.58201E-05-3.40981E-05-1.76668E-05-1.71621E-18-6.17805E-20
 -1      1751 9.34133E-05-1.63444E-05-3.30453E-05-1.37834E-05-1.63386E-18-9.72976E-19
 -1      1752 8.62086E-05-7.67121E-06-3.37304E-05-7.86947E-06-6.25297E-19-2.39043E-18
 -1      1753 8.66109E-05-7.97163E-06-3.37645E-05-9.25798E-06-8.22145E-19-2.33011E-18
 -1      1754 8.55966E-05-7.03844E-06-3.37272E-05-5.32427E-06-2.68963E-19-2.37288E-18
 -1      1755 8.58298E-05-7.21587E-06-3.37424E-05-6.62918E-06-4.30533E-19-2.42543E-18
 -1      1756 8.75950E-05-9.87016E-06-3.33433E-05-6.93748E-06-5.97506E-19-2.32565E-18
 -1      1757 8.52627E-05-6.68023E-06-3.37306E-05-2.89076E-06 6.36999E-20-2.33449E-18
 -1      1758 8.53831E-05-6.77459E-06-3.37365E-05-4.13111E-06-1.10141E-19-2.36624E-18
 -1      1759 8.69620E-05-9.15905E-06-3.33766E-05-4.54100E-06-2.02567E-19-2.28036E-18
 -1      1760 8.51324E-05-6.53224E-06-3.37341E-05-5.17915E-07 4.10354E-19-2.23316E-18
 -1      1761 8.51678E-05-6.56070E-06-3.37355E-05-1.72824E-06 2.86212E-19-2.31670E-18
 -1      1762 8.66304E-05-8.77996E-06-3.33969E-05-2.21888E-06 1.84383E-19-2.23025E-18
 -1      1763 8.51777E-05-6.56965E-06-3.37357E-05 1.84618E-06 7.19705E-19-2.16287E-18
 -1      1764 8.51360E-05-6.53675E-06-3.37341E-05 6.34875E-07 5.40226E-19-2.19389E-18
 -1      1765 8.65325E-05-8.66646E-06-3.34035E-05 6.54088E-08 5.31713E-19-2.11605E-18
 -1      1766 8.54082E-05-6.79958E-06-3.37366E-05 4.25343E-06 1.01682E-18-2.08172E-18
 -1      1767 8.52806E-05-6.69903E-06-3.37306E-05 3.00999E-06 8.57076E-19-2.13980E-18
 -1      1768 8.66480E-05-8.79934E-06-3.33962E-05 2.35083E-06 8.48189E-19-2.07489E-18
 -1      1769 8.58642E-05-7.25231E-06-3.37418E-05 6.71579E-06 1.27307E-18-1.92912E-18
 -1      1770 8.56267E-05-7.07030E-06-3.37271E-05 5.42807E-06 1.14763E-18-2.04392E-18
 -1      1771 8.69954E-05-9.19589E-06-3.33752E-05 4.65547E-06 1.15697E-18-1.94914E-18
 -1      1772 8.66762E-05-8.04138E-06-3.37622E-05 9.37814E-06 1.60933E-18-1.50794E-18
 -1      1773 8.62560E-05-7.72507E-06-3.37286E-05 7.95705E-06 1.42136E-18-1.77072E-18
 -1      1774 8.76464E-05-9.92777E-06-3.33407E-05 7.03174E-06 1.46053E-18-1.73623E-18
 -1      1775 8.80876E-05-9.38846E-06-3.38173E-05 1.22573E-05 1.88068E-18-8.73264E-19
 -1      1776 8.73480E-05-8.83081E-06-3.37454E-05 1.06642E-05 1.71275E-18-1.23133E-18
 -1      1777 8.87662E-05-1.11618E-05-3.32898E-05 9.50649E-06 1.78078E-18-1.24261E-18
 -1      1778 9.06308E-05-1.18401E-05-3.39273E-05 1.53056E-05 2.04680E-18 1.62472E-19
 -1      1779 8.92507E-05-1.07410E-05-3.37875E-05 1.35160E-05 1.91446E-18-4.89162E-19
 -1      1780 9.06625E-05-1.32236E-05-3.32067E-05 1.19786E-05 2.00355E-18-6.10234E-19
 -1      1781 9.58753E-05-1.70343E-05-3.39929E-05 1.76930E-05 1.90859E-18 2.07528E-18
 -1      1782 9.28558E-05-1.43431E-05-3.38267E-05 1.61964E-05 1.94227E-18 9.36157E-19
 -1      1783 9.39692E-05-1.68872E-05-3.30239E-05 1.38973E-05 2.04406E-18 5.60524E-19
 -1      1784 1.01925E-04-2.50943E-05-3.33592E-05 1.44244E-05 1.50629E-18 4.33342E-18
 -1      1785 9.80759E-05-1.96164E-05-3.36251E-05 1.69664E-05 1.69662E-18 2.85164E-18
 -1      1786 9.73285E-05-2.18541E-05-3.24274E-05 1.32509E-05 1.88035E-18 2.03934E-18
 -1      1787 9.87514E-05-2.61351E-05-3.13422E-05 9.43679E-06 1.52535E-18 3.80228E-18
 -1      1788 1.00155E-04-1.95624E-05-3.42181E-05-1.88715E-05-1.53877E-18 1.36912E-18
 -1      1789 9.53093E-05-2.72852E-05-2.91847E-05 4.06881E-06 1.13884E-18 3.08886E-18
 -1      1790 9.77404E-05-2.73905E-05-3.01940E-05 6.40279E-06 1.21253E-18 3.43609E-18
 -1      1791 9.75753E-05-2.56146E-05-3.08324E-05 8.76216E-06 1.50168E-18 2.38618E-18
 -1      1792 9.98133E-05-2.25395E-05-3.28363E-05-1.44698E-05-1.63094E-18 8.24375E-19
 -1      1793 9.69600E-05-2.69799E-05-2.98764E-05-5.70715E-06-1.41722E-18 5.89494E-19
 -1      1794 9.51500E-05-2.70346E-05-2.91655E-05-3.90101E-06-1.28214E-18 2.56036E-19
 -1      1795 9.43296E-05-2.72347E-05-2.86580E-05-2.42555E-06-1.19796E-18 2.56677E-19
 -1      1796 9.35566E-05-2.73147E-05-2.83526E-05-1.57228E-06-9.34906E-19 3.44107E-22
 -1      1797 9.55041E-05-2.65443E-05-2.95744E-05-4.47884E-06-1.41333E-18-1.92852E-19
 -1      1798 9.30314E-05-2.73655E-05-2.80835E-05-7.45682E-07-7.23234E-19-6.94005E-20
 -1      1799 9.27289E-05-2.74289E-05-2.79610E-05-3.07977E-07-5.55015E-19-3.07031E-19
 -1      1800 9.42921E-05-2.72197E-05-2.87655E-05-1.83433E-06-9.58623E-19-2.46665E-19
 -1      1801 9.24520E-05-2.74562E-05-2.78246E-05 1.46255E-07-5.40200E-19-3.46162E-19
 -1      1802 9.24189E-05-2.75318E-05-2.77942E-05 3.69446E-07-4.85191E-19-4.76567E-19
 -1      1803 9.35897E-05-2.75268E-05-2.83290E-05-3.69749E-07-6.88575E-19-4.73367E-19
 -1      1804 9.23140E-05-2.75627E-05-2.77356E-05 6.08096E-07-3.90033E-19-3.82865E-19
 -1      1805 9.24266E-05-2.76470E-05-2.77541E-05 7.11122E-07-2.10205E-19-6.07294E-19
 -1      1806 9.32659E-05-2.77107E-05-2.81073E-05 4.30299E-07-4.74793E-19-6.39662E-19
 -1      1807 9.24302E-05-2.76844E-05-2.77416E-05 8.21139E-07-1.49031E-19-5.73646E-19
 -1      1808 9.26152E-05-2.77702E-05-2.77856E-05 8.53963E-07-9.56641E-20-6.29324E-19
 -1      1809 9.31991E-05-2.78526E-05-2.80139E-05 8.39316E-07-2.03023E-19-5.74448E-19
 -1      1810 9.26820E-05-2.78111E-05-2.77999E-05 8.86546E-07-2.52474E-19-6.22829E-19
 -1      1811 9.28952E-05-2.78927E-05-2.78553E-05 8.78418E-07-4.26708E-19-6.34714E-19
 -1      1812 9.32903E-05-2.79747E-05-2.79975E-05 1.01280E-06-2.78957E-19-6.68636E-19
 -1      1813 9.29948E-05-2.79334E-05-2.78840E-05 8.65502E-07-5.95957E-19-4.90690E-19
 -1      1814 9.32102E-05-2.80074E-05-2.79425E-05 8.34801E-07-3.93160E-19-5.72589E-19
 -1      1815 9.34691E-05-2.80822E-05-2.80258E-05 1.04489E-06-3.75936E-19-7.31644E-19
 -1      1816 9.33229E-05-2.80457E-05-2.79778E-05 7.97154E-07-6.34519E-19-9.10949E-19
 -1      1817 9.35257E-05-2.81103E-05-2.80344E-05 7.55887E-07-5.67356E-19-1.22026E-18
 -1      1818 9.36883E-05-2.81756E-05-2.80782E-05 9.95553E-07-7.51876E-19-8.82199E-19
 -1      1819 9.36396E-05-2.81447E-05-2.80717E-05 7.07346E-07-4.16810E-19-1.38850E-18
 -1      1820 9.38228E-05-2.81997E-05-2.81239E-05 6.63524E-07-3.03231E-19-1.71818E-18
 -1      1821 9.39183E-05-2.82550E-05-2.81419E-05 9.04284E-07-6.71098E-19-1.17282E-18
 -1      1822 9.39316E-05-2.82297E-05-2.81606E-05 6.13465E-07-2.78633E-19-1.62418E-18
 -1      1823 9.40933E-05-2.82756E-05-2.82074E-05 5.72529E-07-2.78438E-19-1.66463E-18
 -1      1824 9.41420E-05-2.83208E-05-2.82090E-05 7.97654E-07-2.97293E-19-1.45947E-18
 -1      1825 9.41944E-05-2.83014E-05-2.82423E-05 5.27434E-07-2.23064E-19-1.66766E-18
 -1      1826 9.43362E-05-2.83394E-05-2.82841E-05 4.93185E-07-3.36811E-19-1.52582E-18
 -1      1827 9.43513E-05-2.83744E-05-2.82755E-05 6.93857E-07-1.48847E-19-1.01944E-18
 -1      1828 9.44300E-05-2.83615E-05-2.83171E-05 4.57716E-07-2.65218E-19-1.27559E-18
 -1      1829 9.45562E-05-2.83934E-05-2.83549E-05 4.32977E-07-1.63852E-20-1.14262E-18
 -1      1830 9.45444E-05-2.84175E-05-2.83399E-05 6.05701E-07-9.91672E-20-7.76797E-19
 -1      1831 9.46451E-05-2.84129E-05-2.83868E-05 4.10746E-07 1.96039E-19-1.10763E-18
 -1      1832 9.47618E-05-2.84406E-05-2.84223E-05 3.97852E-07 3.66201E-19-7.23661E-19
 -1      1833 9.47245E-05-2.84522E-05-2.84024E-05 5.42695E-07 1.84642E-19-6.93353E-19
 -1      1834 9.48500E-05-2.84586E-05-2.84544E-05 3.91991E-07 7.37637E-21-7.87206E-19
 -1      1835 9.49649E-05-2.84846E-05-2.84898E-05 3.93154E-07-5.29806E-20-4.87430E-19
 -1      1836 9.48983E-05-2.84810E-05-2.84649E-05 5.12570E-07 1.75371E-19-6.52539E-19
 -1      1837 9.50578E-05-2.85027E-05-2.85240E-05 4.06739E-07-3.18941E-19-7.13787E-19
 -1      1838 9.51805E-05-2.85295E-05-2.85620E-05 4.24321E-07-2.61988E-19-9.07978E-19
 -1      1839 9.50752E-05-2.85069E-05-2.85301E-05 5.22401E-07-4.03617E-19-7.66813E-19
 -1      1840 9.52849E-05-2.85495E-05-2.86006E-05 4.60671E-07-5.83798E-19-1.36382E-18
 -1      1841 9.54265E-05-2.85803E-05-2.86445E-05 4.97365E-07-6.19021E-19-1.75009E-18
 -1      1842 9.52676E-05-2.85328E-05-2.86019E-05 5.79423E-07-7.64787E-19-9.31876E-19
 -1      1843 9.55503E-05-2.86043E-05-2.86902E-05 5.60214E-07-5.30730E-19-2.00816E-18
 -1      1844 9.57237E-05-2.86428E-05-2.87437E-05 6.19128E-07-4.93237E-19-2.47155E-18
 -1      1845 9.54900E-05-2.85627E-05-2.86852E-05 6.91559E-07-9.11608E-19-1.70516E-18
 -1      1846 9.58763E-05-2.86732E-05-2.87996E-05 7.12655E-07-1.59306E-19-2.79610E-18
 -1      1847 9.60964E-05-2.87238E-05-2.88671E-05 7.97273E-07 1.10618E-19-2.98681E-18
 -1      1848 9.57598E-05-2.86008E-05-2.87852E-05 8.67643E-07-5.22052E-19-2.30503E-18
 -1      1849 9.62881E-05-2.87636E-05-2.89367E-05 9.25926E-07 3.88645E-19-3.14911E-18
 -1      1850 9.65719E-05-2.88312E-05-2.90229E-05 1.03987E-06 1.84297E-19-2.61689E-18
 -1      1851 9.60967E-05-2.86525E-05-2.89083E-05 1.11726E-06 4.39518E-19-2.15919E-18
 -1      1852 9.68145E-05-2.88841E-05-2.91100E-05 1.20790E-06-1.44618E-19-2.04680E-18
 -1      1853 9.71806E-05-2.89750E-05-2.92202E-05 1.35441E-06 1.77678E-19-1.96814E-18
 -1      1854 9.65229E-05-2.87246E-05-2.90609E-05 1.45001E-06 3.79362E-19-2.16292E-18
 -1      1855 9.74868E-05-2.90453E-05-2.93284E-05 1.56495E-06-7.10432E-20-2.07429E-18
 -1      1856 9.79552E-05-2.91667E-05-2.94681E-05 1.74585E-06-2.03607E-19-1.99636E-18
 -1      1857 9.70630E-05-2.88260E-05-2.92498E-05 1.87401E-06-5.35786E-20-1.29881E-18
 -1      1858 9.83379E-05-2.92600E-05-2.96007E-05 1.99927E-06-8.08941E-20-1.78228E-18
 -1      1859 9.89281E-05-2.94202E-05-2.97748E-05 2.21326E-06-1.08970E-19-1.70691E-18
 -1      1860 9.77433E-05-2.89684E-05-2.94813E-05 2.39298E-06-1.03465E-19-1.43063E-18
 -1      1861 9.94003E-05-2.95437E-05-2.99342E-05 2.50445E-06-4.63297E-19-1.57105E-18
 -1      1862 1.00129E-04-2.97523E-05-3.01464E-05 2.74415E-06-2.96336E-19-1.56128E-18
 -1      1863 9.85909E-05-2.91679E-05-2.97599E-05 3.00160E-06 2.31280E-20-1.15034E-18
 -1      1864 1.00702E-04-2.99156E-05-3.03328E-05 3.05828E-06-2.74392E-19-1.86075E-18
 -1      1865 1.01577E-04-3.01829E-05-3.05838E-05 3.30574E-06-1.50736E-19-2.08448E-18
 -1      1866 9.96322E-05-2.94471E-05-3.00872E-05 3.67783E-06-3.75627E-19-7.63773E-19
 -1      1867 1.02261E-04-3.03985E-05-3.07944E-05 3.61194E-06 9.25119E-20-2.09688E-18
 -1      1868 1.03276E-04-3.07348E-05-3.10795E-05 3.83224E-06 6.08855E-19-1.83844E-18
 -1      1869 1.00891E-04-2.98375E-05-3.04597E-05 4.37158E-06 9.14250E-20-9.10600E-19
 -1      1870 1.04074E-04-3.10191E-05-3.13065E-05 4.07519E-06 1.14597E-18-2.19873E-18
 -1      1871 1.05196E-04-3.14318E-05-3.16125E-05 4.20843E-06 1.47376E-18-1.36025E-18
 -1      1872 1.02383E-04-3.03825E-05-3.08661E-05 4.98884E-06 5.37028E-19-1.47494E-18
 -1      1873 1.06104E-04-3.18040E-05-3.18418E-05 4.29886E-06 7.88225E-19-1.61323E-18
 -1      1874 1.07260E-04-3.22912E-05-3.21434E-05 4.25323E-06 2.34688E-20-1.65682E-18
 -1      1875 1.04116E-04-3.11366E-05-3.12853E-05 5.37261E-06 8.83530E-19-1.72087E-18
 -1      1876 1.08260E-04-3.27676E-05-3.23544E-05 4.06192E-06-2.53696E-19-1.11387E-18
 -1      1877 1.09318E-04-3.33056E-05-3.26116E-05 3.71470E-06-5.39239E-20-1.02552E-18
 -1      1878 1.06072E-04-3.21562E-05-3.16854E-05 5.28605E-06 2.63393E-19-1.60456E-18
 -1      1879 1.10361E-04-3.38821E-05-3.27792E-05 3.08072E-06-1.08887E-19-1.12495E-18
 -1      1880 1.11123E-04-3.44025E-05-3.29391E-05 2.30130E-06-1.30049E-19-9.64747E-19
 -1      1881 1.08186E-04-3.34655E-05-3.20278E-05 4.41369E-06 1.01449E-19-9.66749E-19
 -1      1882 1.12102E-04-3.50195E-05-3.30407E-05 1.07567E-06-4.18143E-19-7.78212E-19
 -1      1883 1.12306E-04-3.53786E-05-3.30474E-05-2.09016E-07-4.12631E-19-7.18212E-19
 -1      1884 1.10303E-04-3.49833E-05-3.22776E-05 2.41331E-06-2.72301E-19-6.91704E-19
 -1      1885 1.13017E-04-3.58713E-05-3.30739E-05-2.05699E-06-1.09002E-18-2.33264E-19
 -1      1886 1.12392E-04-3.58343E-05-3.28901E-05-3.74386E-06 1.49157E-20-2.59774E-19
 -1      1887 1.12092E-04-3.64021E-05-3.24230E-05-9.29616E-07-4.53510E-19 4.79548E-19
 -1      1888 1.12518E-04-3.59066E-05-3.28566E-05-5.95199E-06 5.48566E-19-7.12687E-19
 -1      1889 1.10909E-04-3.52026E-05-3.24923E-05-7.62544E-06 2.03632E-19-8.89239E-19
 -1      1890 1.12996E-04-3.70909E-05-3.24945E-05-5.40371E-06-3.10130E-19 3.55281E-19
 -1      1891 1.10123E-04-3.45200E-05-3.24389E-05-9.46930E-06-1.85408E-19-1.54701E-18
 -1      1892 1.07692E-04-3.30530E-05-3.19706E-05-1.03791E-05-6.54131E-19-1.65115E-18
 -1      1893 1.12300E-04-3.61815E-05-3.25653E-05-9.98399E-06-3.56419E-19-5.86299E-19
 -1      1894 1.05999E-04-3.15839E-05-3.19369E-05-1.07862E-05-1.26098E-18-2.13530E-18
 -1      1895 1.03379E-04-2.97301E-05-3.14900E-05-1.01749E-05-1.61404E-18-3.16499E-18
 -1      1896 1.09619E-04-3.31941E-05-3.27070E-05-1.26776E-05-1.31040E-18-2.02400E-18
 -1      1897 1.01473E-04-2.80862E-05-3.14746E-05-8.40075E-06-2.36527E-19-2.89616E-18
 -1      1898 9.96231E-05-2.67105E-05-3.11710E-05-6.14547E-06 6.82312E-19-2.22525E-18
 -1      1899 1.05693E-04-2.89644E-05-3.29035E-05-1.13238E-05-4.30028E-19-2.95660E-18
 -1      1900 9.86366E-05-2.59314E-05-3.11280E-05-2.65229E-06 7.29679E-19-2.10122E-18
 -1      1901 9.83155E-05-2.58345E-05-3.10367E-05 3.33955E-07 2.14591E-19-1.63180E-18
 -1      1902 1.02534E-04-2.57206E-05-3.30134E-05-5.43558E-06 6.74040E-19-2.05802E-18
 -1      1903 9.88532E-05-2.64819E-05-3.09356E-05 3.82871E-06-4.23649E-20-6.89438E-19
 -1      1904 1.00064E-04-2.76716E-05-3.10551E-05 6.07948E-06 1.24765E-19-1.35426E-18
 -1      1905 1.02084E-04-2.55853E-05-3.28789E-05 2.50279E-06 5.36635E-19-1.44647E-18
 -1      1906 1.01538E-04-2.92015E-05-3.09241E-05 7.84099E-06-9.84431E-19-8.85593E-19
 -1      1907 1.03513E-04-3.08741E-05-3.11836E-05 8.42649E-06-8.31968E-19-1.32565E-18
 -1      1908 1.04366E-04-2.85945E-05-3.24981E-05 8.38612E-06-5.62205E-19 5.41874E-19
 -1      1909 1.04774E-04-3.22289E-05-3.10699E-05 7.98028E-06-4.39431E-20-1.77692E-18
 -1      1910 1.06545E-04-3.35042E-05-3.13476E-05 7.02654E-06 9.49577E-19-1.00403E-18
 -1      1911 1.07430E-04-3.26047E-05-3.20256E-05 9.68491E-06-3.10768E-19 6.97843E-19
 -1      1912 1.06896E-04-3.40609E-05-3.12565E-05 5.13120E-06 1.88636E-18-2.09376E-18
 -1      1913 1.07828E-04-3.45535E-05-3.14290E-05 3.41351E-06 1.99433E-18-9.04477E-19
 -1      1914 1.09244E-04-3.53515E-05-3.16123E-05 6.89333E-06 1.12765E-18 5.07558E-20
 -1      1915 1.07257E-04-3.43328E-05-3.13271E-05 1.17128E-06 1.73918E-18 1.64558E-19
 -1      1916 1.07200E-04-3.41283E-05-3.13250E-05-5.25071E-07 1.68836E-18 1.03584E-18
 -1      1917 1.09055E-04-3.59689E-05-3.12855E-05 2.22123E-06 2.63740E-18-3.60222E-19
 -1      1918 1.06038E-04-3.34485E-05-3.11821E-05-2.33111E-06 1.09090E-18 1.63416E-18
 -1      1919 1.05183E-04-3.28153E-05-3.10095E-05-3.52956E-06 1.18773E-18 1.57414E-18
 -1      1920 1.07243E-04-3.48989E-05-3.09904E-05-2.24301E-06 1.62776E-18 1.71414E-18
 -1      1921 1.03770E-04-3.19689E-05-3.08238E-05-4.55553E-06 1.05658E-18 1.42431E-18
 -1      1922 1.02457E-04-3.11543E-05-3.05411E-05-5.07559E-06 1.59706E-18 1.93435E-18
 -1      1923 1.04543E-04-3.29689E-05-3.06764E-05-5.31691E-06 1.10795E-18 2.07456E-18
 -1      1924 1.01025E-04-3.03063E-05-3.03365E-05-5.27223E-06 1.47653E-18 1.37747E-18
 -1      1925 9.96067E-05-2.94790E-05-3.00289E-05-5.10516E-06 1.45030E-18 1.36915E-18
 -1      1926 1.01579E-04-3.08127E-05-3.03380E-05-6.60775E-06 7.51959E-19 2.49949E-18
 -1      1927 9.84357E-05-2.88156E-05-2.98485E-05-4.55546E-06 1.78040E-18 7.60583E-19
 -1      1928 9.72238E-05-2.81298E-05-2.95747E-05-3.82455E-06 9.10296E-19 7.35989E-19
 -1      1929 9.67260E-05-2.74468E-05-2.96966E-05-4.55230E-06 1.51515E-19 1.53732E-18
 -1      1930 9.88655E-05-2.88221E-05-3.00211E-05-6.18772E-06 1.04361E-18 2.38857E-18
 -1      1931 9.32083E-05-2.73618E-05-2.81921E-05 1.60757E-06 9.42814E-19 2.51394E-18
 -1      1932 9.44037E-05-2.74673E-05-2.86289E-05 2.67839E-06 1.01880E-18 2.89855E-18
 -1      1933 9.52278E-05-2.70465E-05-2.92259E-05 4.05658E-06 1.27407E-18 1.95160E-18
 -1      1934 9.21545E-05-2.73479E-05-2.77497E-05 3.51522E-07 7.71839E-19 1.89448E-18
 -1      1935 9.26499E-05-2.73804E-05-2.79224E-05 8.99248E-07 8.00347E-19 2.24687E-18
 -1      1936 9.36220E-05-2.73674E-05-2.84017E-05 1.58853E-06 1.01441E-18 1.58008E-18
 -1      1937 9.17768E-05-2.73849E-05-2.75809E-05-3.00724E-07 3.76040E-19 1.50698E-18
 -1      1938 9.18932E-05-2.73585E-05-2.76282E-05-8.78643E-09 4.79207E-19 1.67682E-18
 -1      1939 9.27891E-05-2.74822E-05-2.79987E-05 2.76872E-07 7.18721E-19 1.08025E-18
 -1      1940 9.17973E-05-2.74745E-05-2.75568E-05-6.25103E-07 6.86287E-20 1.27451E-18
 -1      1941 9.17112E-05-2.74131E-05-2.75410E-05-4.72977E-07 1.52927E-19 1.48013E-18
 -1      1942 9.24729E-05-2.75745E-05-2.78236E-05-4.15156E-07 2.32315E-19 6.44824E-19
 -1      1943 9.20377E-05-2.75953E-05-2.76112E-05-7.61516E-07 4.35815E-19 1.15573E-18
 -1      1944 9.18491E-05-2.75172E-05-2.75632E-05-6.90975E-07 1.76872E-19 1.19935E-18
 -1      1945 9.24734E-05-2.76788E-05-2.77773E-05-7.58498E-07 2.68636E-19 4.02647E-19
 -1      1946 9.23863E-05-2.77281E-05-2.77056E-05-7.87677E-07 4.08523E-19 1.00783E-18
 -1      1947 9.21536E-05-2.76455E-05-2.76429E-05-7.66050E-07 4.95118E-19 1.23899E-18
 -1      1948 9.26546E-05-2.77930E-05-2.78038E-05-8.97964E-07 4.58165E-19 5.51665E-19
 -1      1949 9.27738E-05-2.78596E-05-2.78166E-05-7.50529E-07 5.65933E-19 5.59543E-19
 -1      1950 9.25316E-05-2.77799E-05-2.77497E-05-7.57822E-07 5.29263E-19 9.71859E-19
 -1      1951 9.29279E-05-2.79085E-05-2.78696E-05-9.17204E-07 6.42876E-19 6.15595E-19
 -1      1952 9.31588E-05-2.79820E-05-2.79301E-05-6.80038E-07 2.29595E-19 5.95098E-19
 -1      1953 9.29270E-05-2.79092E-05-2.78651E-05-7.03302E-07 3.44427E-19 5.35013E-19
 -1      1954 9.32368E-05-2.80182E-05-2.79536E-05-8.67955E-07 4.34412E-19 4.74665E-19
 -1      1955 9.35184E-05-2.80911E-05-2.80382E-05-5.95942E-07-8.74090E-20 7.73667E-19
 -1      1956 9.33074E-05-2.80271E-05-2.79783E-05-6.26514E-07 1.84092E-19 5.79143E-19
 -1      1957 9.35474E-05-2.81176E-05-2.80432E-05-7.83698E-07 2.59708E-19 2.58423E-19
 -1      1958 9.38423E-05-2.81857E-05-2.81370E-05-5.11472E-07 4.04326E-20 5.53871E-19
 -1      1959 9.36559E-05-2.81307E-05-2.80835E-05-5.43436E-07-1.95433E-19 6.25621E-19
 -1      1960 9.38406E-05-2.82046E-05-2.81309E-05-6.86681E-07-1.12789E-19 3.16040E-19
 -1      1961 9.41287E-05-2.82664E-05-2.82254E-05-4.35663E-07 1.23337E-18 2.30494E-19
 -1      1962 9.39666E-05-2.82199E-05-2.81784E-05-4.64888E-07 6.76829E-19 4.92442E-19
 -1      1963 9.41081E-05-2.82792E-05-2.82132E-05-5.91970E-07 7.16566E-19-4.74637E-20
 -1      1964 9.43821E-05-2.83353E-05-2.83046E-05-3.74932E-07 5.93851E-19-2.48486E-20
 -1      1965 9.42408E-05-2.82959E-05-2.82632E-05-3.98396E-07 7.76877E-19 1.39703E-19
 -1      1966 9.43489E-05-2.83423E-05-2.82891E-05-5.10031E-07 9.83036E-19 7.40631E-20
 -1      1967 9.46114E-05-2.83954E-05-2.83771E-05-3.34197E-07 3.54287E-19 3.17080E-19
 -1      1968 9.44853E-05-2.83612E-05-2.83397E-05-3.49508E-07 4.36076E-19 2.48858E-19
 -1      1969 9.45675E-05-2.83962E-05-2.83596E-05-4.48509E-07 4.23488E-19-2.64939E-20
 -1      1970 9.48292E-05-2.84506E-05-2.84467E-05-3.17730E-07 4.85582E-19-2.74105E-19
 -1      1971 9.47107E-05-2.84192E-05-2.84110E-05-3.22751E-07 4.93838E-19 2.08077E-19
 -1      1972 9.47722E-05-2.84437E-05-2.84271E-05-4.13515E-07 5.22339E-19 1.88117E-19
 -1      1973 9.50510E-05-2.85054E-05-2.85180E-05-3.29781E-07 5.68391E-19-8.55626E-19
 -1      1974 9.49312E-05-2.84740E-05-2.84814E-05-3.22344E-07 3.14393E-19-7.79812E-19
 -1      1975 9.49748E-05-2.84884E-05-2.84950E-05-4.10589E-07 7.84376E-19-6.35497E-19
 -1      1976 9.52959E-05-2.85651E-05-2.85968E-05-3.75044E-07 5.37777E-20-7.33026E-19
 -1      1977 9.51638E-05-2.85306E-05-2.85562E-05-3.52737E-07 3.03806E-19-7.31598E-19
 -1      1978 9.51901E-05-2.85342E-05-2.85678E-05-4.45401E-07 4.02738E-19-9.90156E-19
 -1      1979 9.55857E-05-2.86361E-05-2.86899E-05-4.58950E-07-8.87079E-19-7.50419E-19
 -1      1980 9.54288E-05-2.85947E-05-2.86416E-05-4.18967E-07-4.25144E-19-7.42090E-19
 -1      1981 9.54355E-05-2.85862E-05-2.86512E-05-5.24240E-07-3.53150E-19-6.12034E-19
 -1      1982 9.59461E-05-2.87257E-05-2.88051E-05-5.87750E-07-2.42327E-19-8.43211E-19
 -1      1983 9.57499E-05-2.86731E-05-2.87448E-05-5.26839E-07-5.49104E-19-6.55940E-19
 -1      1984 9.57316E-05-2.86499E-05-2.87513E-05-6.54257E-07-5.63707E-19-9.55398E-19
 -1      1985 9.64066E-05-2.88424E-05-2.89514E-05-7.68336E-07 1.73774E-20-4.23827E-19
 -1      1986 9.61542E-05-2.87735E-05-2.88741E-05-6.82858E-07-2.89968E-19-8.44666E-19
 -1      1987 9.61022E-05-2.87319E-05-2.88756E-05-8.43425E-07-1.97092E-19-7.11518E-19
 -1      1988 9.70002E-05-2.89964E-05-2.91386E-05-1.00763E-06 4.08161E-19-1.97568E-19
 -1      1989 9.66726E-05-2.89052E-05-2.90389E-05-8.93821E-07 4.87998E-19 7.97565E-20
 -1      1990 9.65741E-05-2.88404E-05-2.90322E-05-1.10006E-06 2.67762E-19-5.64977E-20
 -1      1991 9.77632E-05-2.91993E-05-2.93773E-05-1.31132E-06-1.30400E-19-4.59451E-19
 -1      1992 9.73397E-05-2.90790E-05-2.92493E-05-1.16586E-06 3.75313E-19-1.03899E-19
 -1      1993 9.71770E-05-2.89846E-05-2.92296E-05-1.43173E-06 5.42619E-19-1.83168E-19
 -1      1994 9.87330E-05-2.94642E-05-2.96782E-05-1.68149E-06-4.65345E-19-7.67256E-19
 -1      1995 9.81921E-05-2.93074E-05-2.95159E-05-1.50261E-06-6.48568E-19-8.97118E-19
 -1      1996 9.79428E-05-2.91762E-05-2.94767E-05-1.84308E-06-2.65297E-19-3.68989E-19
 -1      1997 9.99452E-05-2.98059E-05-3.00505E-05-2.11258E-06 2.18922E-20 6.01355E-19
 -1      1998 9.92669E-05-2.96045E-05-2.98486E-05-1.90200E-06-1.01862E-19-2.06870E-20
 -1      1999 9.89033E-05-2.94289E-05-2.97812E-05-2.33215E-06-3.56625E-19 3.13701E-19
 -1      2000 1.01427E-04-3.02397E-05-3.04998E-05-2.58485E-06-3.25557E-19 8.06658E-19
 -1      2001 1.00597E-04-2.99860E-05-3.02550E-05-2.35101E-06 9.21413E-20 6.20893E-19
 -1      2002 1.00088E-04-2.97594E-05-3.01484E-05-2.88425E-06-3.26331E-20 3.86224E-19
 -1      2003 1.03187E-04-3.07806E-05-3.10242E-05-3.05435E-06 1.18105E-19 1.22765E-18
 -1      2004 1.02203E-04-3.04687E-05-3.07374E-05-2.81745E-06-1.70962E-19 7.59804E-19
 -1      2005 1.01517E-04-3.01878E-05-3.05785E-05-3.46248E-06-5.21926E-20 1.04492E-18
 -1      2006 1.05202E-04-3.14400E-05-3.16094E-05-3.43913E-06 1.93159E-20 4.22497E-19
 -1      2007 1.04084E-04-3.10684E-05-3.12887E-05-3.23821E-06 5.23618E-19 1.06631E-18
 -1      2008 1.03196E-04-3.07376E-05-3.10632E-05-3.99419E-06 3.74094E-19 5.70096E-19
 -1      2009 1.07392E-04-3.22195E-05-3.22213E-05-3.60317E-06 2.85069E-19 2.33119E-19
 -1      2010 1.06197E-04-3.17957E-05-3.18866E-05-3.50465E-06 2.01957E-19 7.14472E-19
 -1      2011 1.05101E-04-3.14336E-05-3.15814E-05-4.35388E-06 4.10309E-19 1.28236E-18
 -1      2012 1.09595E-04-3.30985E-05-3.27996E-05-3.34525E-06-1.89567E-19 1.72186E-19
 -1      2013 1.08435E-04-3.26474E-05-3.24867E-05-3.44927E-06 4.72668E-20 2.44845E-22
 -1      2014 1.07163E-04-3.22940E-05-3.20949E-05-4.34714E-06 3.68996E-19 9.81470E-19
 -1      2015 1.11539E-04-3.40101E-05-3.32547E-05-2.41050E-06-7.59008E-19 3.39769E-19
 -1      2016 1.10595E-04-3.35860E-05-3.30177E-05-2.84600E-06-4.39249E-19-5.77703E-21
 -1      2017 1.09242E-04-3.33098E-05-3.25464E-05-3.70856E-06-1.23697E-19 3.58450E-19
 -1      2018 1.12826E-04-3.48033E-05-3.34756E-05-5.57106E-07 3.58917E-19-1.01199E-18
 -1      2019 1.12347E-04-3.45060E-05-3.33826E-05-1.44884E-06-7.20454E-19-2.63311E-19
 -1      2020 1.11098E-04-3.44019E-05-3.28648E-05-2.14095E-06-1.16262E-19 3.69055E-20
 -1      2021 1.12951E-04-3.51992E-05-3.33584E-05 2.27571E-06 4.28023E-19 2.29599E-19
 -1      2022 1.13223E-04-3.51825E-05-3.34745E-05 8.93197E-07 5.38991E-19-2.85692E-19
 -1      2023 1.12355E-04-3.53503E-05-3.29815E-05 5.62259E-07 2.30777E-19-1.34432E-18
 -1      2024 1.11420E-04-3.48020E-05-3.28558E-05 5.69581E-06-7.39261E-19 1.26475E-18
 -1      2025 1.12667E-04-3.52444E-05-3.32119E-05 4.01591E-06-5.08749E-20 1.66093E-18
 -1      2026 1.12503E-04-3.57372E-05-3.28599E-05 4.26853E-06-6.73027E-19 1.32942E-18
 -1      2027 1.08027E-04-3.32661E-05-3.20329E-05 8.63564E-06 1.63835E-19 1.25045E-18
 -1      2028 1.10248E-04-3.42679E-05-3.25886E-05 7.18722E-06-2.88461E-19 1.44530E-18
 -1      2029 1.11040E-04-3.50213E-05-3.25253E-05 8.19374E-06-4.06477E-19 1.58261E-18
 -1      2030 1.03251E-04-3.06638E-05-3.10879E-05 9.51003E-06-1.40162E-19 1.15268E-18
 -1      2031 1.06048E-04-3.20760E-05-3.17153E-05 9.06695E-06 1.01399E-19 1.22185E-18
 -1      2032 1.07822E-04-3.28693E-05-3.20761E-05 1.07924E-05 1.64755E-19 2.03958E-18
 -1      2033 9.85497E-05-2.78782E-05-3.02881E-05 7.11714E-06-5.58856E-19 6.68838E-19
 -1      2034 1.01094E-04-2.91930E-05-3.08082E-05 8.22734E-06-4.23126E-19 5.90210E-19
 -1      2035 1.03576E-04-2.97341E-05-3.16457E-05 1.02648E-05 7.76425E-20 2.31591E-18
 -1      2036 9.59066E-05-2.63434E-05-2.98499E-05 1.91092E-06-4.77528E-19 8.39817E-19
 -1      2037 9.72430E-05-2.69172E-05-3.01089E-05 4.30414E-06-6.27493E-19 6.68196E-19
 -1      2038 1.00006E-04-2.70277E-05-3.13273E-05 5.90906E-06-5.36834E-19 4.42535E-19
 -1      2039 9.65180E-05-2.69644E-05-2.98605E-05-3.75717E-06-1.28846E-18 1.18063E-18
 -1      2040 9.61425E-05-2.65063E-05-2.97975E-05-1.20583E-06-1.29689E-18 4.65855E-19
 -1      2041 9.88649E-05-2.63173E-05-3.11499E-05-7.06408E-07-1.08682E-18 4.08096E-19
 -1      2042 9.97510E-05-2.92365E-05-3.02482E-05-7.17227E-06 1.36057E-18 1.94698E-18
 -1      2043 9.80003E-05-2.80815E-05-2.99257E-05-5.66261E-06 4.37281E-19 1.84378E-18
 -1      2044 1.00542E-04-2.79950E-05-3.11110E-05-6.37939E-06-1.86188E-19 5.88489E-19
 -1      2045 1.03638E-04-3.17175E-05-3.08121E-05-7.19605E-06 3.28232E-19 9.63976E-19
 -1      2046 1.01452E-04-3.05257E-05-3.03862E-05-7.17043E-06 6.92632E-19 1.46533E-18
 -1      2047 1.03691E-04-3.08715E-05-3.11857E-05-8.57905E-06 8.99500E-19 3.69637E-19
 -1      2048 1.06353E-04-3.32526E-05-3.12949E-05-4.63192E-06-8.66435E-19 2.56115E-18
 -1      2049 1.04662E-04-3.25089E-05-3.09447E-05-5.71150E-06-2.41126E-19 2.25186E-18
 -1      2050 1.06408E-04-3.32872E-05-3.13079E-05-7.07253E-06-5.75916E-19 2.14459E-18
 -1      2051 1.07092E-04-3.35282E-05-3.14920E-05-1.12654E-06 5.40050E-19 1.29103E-18
 -1      2052 1.06396E-04-3.33616E-05-3.13413E-05-2.60744E-06 5.60895E-20 1.86150E-18
 -1      2053 1.07518E-04-3.42984E-05-3.13659E-05-3.39793E-06 4.32768E-19 3.17323E-18
 -1      2054 1.05995E-04-3.28301E-05-3.13301E-05 1.94313E-06 1.51702E-18 5.56765E-19
 -1      2055 1.06316E-04-3.31242E-05-3.14099E-05 6.37669E-07 1.44518E-18 1.13774E-18
 -1      2056 1.06867E-04-3.39321E-05-3.12592E-05 5.83722E-07 1.44846E-18 1.25148E-18
 -1      2057 1.03668E-04-3.15949E-05-3.08712E-05 3.85988E-06 1.13968E-18-1.54770E-18
 -1      2058 1.04731E-04-3.21613E-05-3.11311E-05 3.03866E-06 6.09665E-19-4.33621E-19
 -1      2059 1.04915E-04-3.26950E-05-3.09593E-05 3.61722E-06 1.12413E-18-2.23967E-19
 -1      2060 1.00821E-04-3.01842E-05-3.02619E-05 4.41518E-06 1.15262E-18-2.28666E-18
 -1      2061 1.02231E-04-3.08492E-05-3.06062E-05 4.18438E-06 1.31689E-18-2.15378E-18
 -1      2062 1.02274E-04-3.10908E-05-3.05164E-05 5.15893E-06 1.49246E-18-2.28990E-18
 -1      2063 9.81001E-05-2.88478E-05-2.96671E-05 3.66177E-06-1.11277E-18-1.74606E-18
 -1      2064 9.94592E-05-2.94783E-05-2.99937E-05 4.03523E-06-4.43127E-19-1.56266E-18
 -1      2065 9.94948E-05-2.94615E-05-3.00257E-05 5.13794E-06-7.07061E-19-1.24858E-18
 -1      2066 9.63020E-05-2.79676E-05-2.92657E-05 2.38828E-06-4.51365E-19-8.98358E-19
 -1      2067 9.73572E-05-2.84503E-05-2.95296E-05 3.18789E-06-8.72434E-19-1.46823E-18
 -1      2068 9.73984E-05-2.82424E-05-2.96545E-05 4.17895E-06-8.20064E-19-1.10176E-18
 -1      2069 9.60162E-05-2.73521E-05-2.94227E-05 2.96881E-06-1.11249E-18 3.75477E-19
 -1      2070 9.29631E-05-1.95964E-05-3.14404E-05 8.03996E-06-9.46400E-19 1.42632E-19
 -1      2071 9.38208E-05-2.16227E-05-3.09244E-05 7.59397E-06-1.08457E-18-8.50368E-19
 -1      2072 9.44275E-05-2.29675E-05-3.06077E-05 6.81474E-06-1.48313E-18-1.35993E-18
 -1      2073 9.51139E-05-2.46572E-05-3.01761E-05 6.01123E-06-1.11465E-18-7.84713E-19
 -1      2074 9.48833E-05-2.35506E-05-3.05911E-05 8.96725E-06-9.96700E-19-1.05671E-18
 -1      2075 9.53458E-05-2.53919E-05-2.99583E-05 5.00410E-06-1.87086E-18-1.11458E-18
 -1      2076 9.58330E-05-2.66540E-05-2.96278E-05 4.01047E-06-1.34598E-18-1.05595E-18
 -1      2077 9.64429E-05-2.70467E-05-2.97299E-05 4.75595E-06-1.09228E-18-1.80212E-18
 -1      2078 9.59068E-05-2.56274E-05-3.01238E-05 6.97477E-06-1.43555E-18-4.43630E-19
 -1      2079 9.12188E-05-1.59260E-05-3.22943E-05 8.27118E-06-2.92953E-18-1.01008E-18
 -1      2080 9.21921E-05-1.80313E-05-3.17732E-05 8.32514E-06-2.15110E-18 4.79615E-19
 -1      2081 9.32092E-05-2.05621E-05-3.11509E-05 1.01871E-05-1.55857E-18-9.64948E-19
 -1      2082 8.93641E-05-1.23214E-05-3.30707E-05 7.16182E-06-2.38711E-18 9.17634E-19
 -1      2083 9.03272E-05-1.42513E-05-3.26075E-05 7.83502E-06-2.53139E-18 1.27782E-18
 -1      2084 9.11638E-05-1.71946E-05-3.16975E-05 1.00562E-05-2.81462E-18 8.78917E-19
 -1      2085 8.78388E-05-9.52909E-06-3.36284E-05 4.63512E-06-3.00005E-18-3.14562E-18
 -1      2086 8.85553E-05-1.08847E-05-3.33113E-05 5.90493E-06-2.57661E-18-1.14132E-18
 -1      2087 8.90423E-05-1.39370E-05-3.21575E-05 8.18162E-06-3.05067E-18-3.16810E-19
 -1      2088 8.70850E-05-8.20300E-06-3.38707E-05 1.07136E-06-1.39503E-18-5.93585E-21
 -1      2089 8.73499E-05-8.68948E-06-3.37586E-05 2.71228E-06-2.10296E-18-9.53534E-19
 -1      2090 8.74117E-05-1.15406E-05-3.24612E-05 4.61041E-06-1.60846E-18-1.52926E-18
 -1      2091 8.73570E-05-8.70321E-06-3.37557E-05-2.74716E-06 2.57033E-19 2.11973E-18
 -1      2092 8.70875E-05-8.20725E-06-3.38701E-05-1.10822E-06-4.42014E-19 7.72501E-19
 -1      2093 8.67988E-05-1.06591E-05-3.25663E-05-2.32350E-08-1.43534E-18 1.13755E-18
 -1      2094 8.85685E-05-1.09130E-05-3.33056E-05-5.93027E-06-4.91140E-19 5.98482E-20
 -1      2095 8.78510E-05-9.54976E-06-3.36243E-05-4.66616E-06-3.02450E-20 1.64009E-18
 -1      2096 8.74212E-05-1.15561E-05-3.24590E-05-4.65153E-06-9.94217E-19 1.10266E-18
 -1      2097 9.03116E-05-1.42245E-05-3.26125E-05-7.82760E-06 4.49199E-19 4.21842E-19
 -1      2098 8.93645E-05-1.23256E-05-3.30686E-05-7.16506E-06-5.34412E-19 1.37255E-18
 -1      2099 8.90471E-05-1.39398E-05-3.21575E-05-8.19062E-06 8.57604E-20 9.57584E-19
 -1      2100 9.21914E-05-1.80377E-05-3.17693E-05-8.32820E-06 9.75319E-19-3.93987E-19
 -1      2101 9.12028E-05-1.58976E-05-3.22995E-05-8.27297E-06 9.83041E-19 1.77792E-19
 -1      2102 9.11444E-05-1.71676E-05-3.17003E-05-1.00521E-05 1.57825E-18 5.42763E-19
 -1      2103 9.38427E-05-2.16624E-05-3.09144E-05-7.59238E-06 9.80854E-19-9.20202E-19
 -1      2104 9.29779E-05-1.96347E-05-3.14307E-05-8.04463E-06 1.03934E-18-1.88285E-18
 -1      2105 9.32143E-05-2.05646E-05-3.11492E-05-1.01950E-05 1.75826E-18-4.98764E-19
 -1      2106 9.51497E-05-2.47199E-05-3.01686E-05-6.00853E-06-6.96546E-19-7.97280E-19
 -1      2107 9.44262E-05-2.29993E-05-3.05967E-05-6.79935E-06 1.91138E-19-1.41669E-18
 -1      2108 9.49075E-05-2.35876E-05-3.05855E-05-8.95631E-06 4.87462E-19-2.36996E-18
 -1      2109 5.70075E-05-4.25018E-05-6.87402E-06 4.04718E-05 1.99646E-18 4.19858E-18
 -1      2110 4.24945E-05-4.51274E-05-4.84321E-07 3.25086E-05 1.40099E-18 4.33808E-18
 -1      2111 1.40699E-05-3.77895E-05 8.67033E-06 6.10563E-06 1.57114E-18-6.60686E-19
 -1      2112 1.31173E-05-3.49771E-05 8.21139E-06-4.58718E-06 1.94034E-18-1.15196E-19
 -1      2113 2.67120E-05-3.96933E-05 4.31202E-06 2.57037E-05 2.41320E-18 4.43930E-18
 -1      2114 1.91182E-05-4.13737E-05 7.80168E-06 1.64437E-05 1.60703E-18 1.51449E-18
 -1      2115 9.87842E-05-4.75176E-05-2.19957E-05 4.43143E-05 2.37381E-18 4.48991E-18
 -1      2116 7.76225E-05-4.87084E-05-1.35535E-05 3.96234E-05 1.82197E-18 3.96644E-18
 -1      2117 1.37478E-04-4.54775E-05-3.88394E-05 3.57158E-05 3.06054E-18 2.01679E-18
 -1      2118 1.17772E-04-4.82544E-05-3.03447E-05 3.49327E-05 3.13233E-18 2.60505E-18
 -1      2119 8.72680E-05-8.72485E-06-3.37497E-05-1.05258E-05-9.59483E-19-2.23453E-18
 -1      2120 8.79631E-05-9.25350E-06-3.38199E-05-1.21128E-05-1.16908E-18-1.99152E-18
 -1      2121 9.04685E-05-1.30773E-05-3.32339E-05-1.19242E-05-1.30360E-18-1.78291E-18
 -1      2122 8.86692E-05-1.10346E-05-3.32956E-05-9.41364E-06-9.29865E-19-2.15464E-18
 -1      2123 1.83413E-04-2.90124E-05-6.42715E-05 1.30415E-05 2.88754E-18-1.11385E-19
 -1      2124 1.68309E-04-2.90099E-05-5.89349E-05 1.51735E-05 3.62742E-18-2.74862E-19
 -1      2125 1.83123E-04-2.34211E-05-6.73264E-05 1.28990E-06 1.92700E-18 2.21843E-19
 -1      2126 1.84969E-04-2.60089E-05-6.66685E-05 8.97766E-06 2.81554E-18 5.08220E-21
 -1      2127 1.63660E-04-1.83250E-05-6.11087E-05 1.08469E-06 2.74566E-18 2.24464E-20
 -1      2128 1.78451E-04-2.73942E-05-6.35980E-05-8.49515E-06 1.34361E-18-1.69110E-18
 -1      2129 1.80982E-04-2.46930E-05-6.59928E-05-7.46444E-07 1.69237E-18-7.54918E-20
 -1      2130 1.61708E-04-3.38648E-05-5.42403E-05-2.19520E-05 2.18058E-18-1.19347E-18
 -1      2131 1.77822E-04-3.38130E-05-6.03965E-05-1.64612E-05 1.29363E-18-1.26631E-18
 -1      2132 1.32381E-04-4.10847E-05-3.93717E-05-3.08384E-05 7.75459E-19-1.98163E-18
 -1      2133 1.53049E-04-3.98128E-05-4.74365E-05-2.97581E-05 1.36150E-18-1.72414E-18
 -1      2134 1.01976E-04-4.88482E-05-2.34186E-05-3.52217E-05 4.14199E-19-8.41104E-19
 -1      2135 1.21719E-04-4.60434E-05-3.19613E-05-3.76187E-05 1.07658E-18-2.38609E-18
 -1      2136 5.89972E-05-4.52407E-05-7.23703E-06-3.55786E-05 2.70204E-19-7.54230E-19
 -1      2137 7.82199E-05-4.39201E-05-1.50077E-05-4.23682E-05 5.93347E-19-4.61633E-20
 -1      2138 2.87523E-05-4.16184E-05 3.80478E-06-2.44360E-05-6.59839E-19-4.07635E-19
 -1      2139 4.00867E-05-3.92679E-05-1.29928E-06-3.28006E-05 1.10538E-19-7.19766E-19
 -1      2140 1.31666E-05-3.91155E-05 9.35576E-06-7.06953E-06-1.48940E-18-4.92126E-18
 -1      2141 1.73370E-05-3.78845E-05 7.35517E-06-1.58773E-05-2.65545E-19-2.04897E-18
 -1      2142 1.51268E-05-3.70216E-05 7.94824E-06 1.26473E-05-9.47830E-19-1.78004E-18
 -1      2143 1.22908E-05-3.79766E-05 9.36495E-06 3.86589E-06-2.21896E-19-3.87094E-18
 -1      2144 3.54889E-05-3.83163E-05 3.33207E-07 3.08812E-05-1.21465E-18-4.96361E-19
 -1      2145 2.54298E-05-4.00597E-05 4.76572E-06 2.26572E-05-7.06002E-19-9.59265E-19
 -1      2146 6.80580E-05-4.20493E-05-1.15653E-05 4.07613E-05-2.42760E-18-3.03100E-18
 -1      2147 5.12519E-05-4.41462E-05-4.50425E-06 3.37206E-05-1.98587E-18-1.29882E-18
 -1      2148 1.07562E-04-4.49518E-05-2.67358E-05 4.04186E-05-1.82917E-18-2.01509E-18
 -1      2149 8.80122E-05-4.65689E-05-1.87515E-05 3.72755E-05-1.70847E-18-2.74799E-18
 -1      2150 1.42724E-04-4.36425E-05-4.18227E-05 3.05562E-05-3.03301E-18 1.74319E-18
 -1      2151 1.23847E-04-4.55415E-05-3.40400E-05 3.12208E-05-2.14596E-18 1.49078E-19
 -1      2152 1.68649E-04-3.62810E-05-5.55253E-05 1.95893E-05-1.45504E-18 6.92026E-19
 -1      2153 1.51447E-04-3.76208E-05-4.87975E-05 2.20781E-05-2.37625E-18 1.07488E-18
 -1      2154 1.82352E-04-2.91638E-05-6.42966E-05 6.93711E-06-1.53821E-18 1.85077E-18
 -1      2155 1.71776E-04-2.99038E-05-6.01665E-05 1.29770E-05-1.13989E-18 1.06091E-18
 -1      2156 1.87631E-04-2.56398E-05-6.80771E-05-3.65969E-06-2.10488E-18 1.39377E-18
 -1      2157 1.85430E-04-2.58867E-05-6.71408E-05 4.50108E-06-2.37339E-18 1.45796E-18
 -1      2158 1.77693E-04-2.62469E-05-6.40989E-05-1.17476E-05-1.29935E-18 2.32934E-18
 -1      2159 1.83969E-04-2.55505E-05-6.65897E-05-5.28703E-06-1.11215E-18 1.38500E-18
 -1      2160 1.62309E-04-3.21367E-05-5.54260E-05-1.81471E-05-1.51344E-18 2.67578E-18
 -1      2161 1.77468E-04-3.14979E-05-6.11955E-05-1.56439E-05-1.69618E-18 3.15181E-18
 -1      2162 1.60748E-04-2.21143E-05-5.84428E-05-2.33262E-07-1.55388E-18 7.57036E-19
 -1      2163 1.38239E-04-4.26230E-05-4.10511E-05-3.09331E-05-1.89058E-18 2.03076E-18
 -1      2164 1.55488E-04-4.13162E-05-4.83013E-05-2.69660E-05-1.49851E-18 2.76514E-18
 -1      2165 1.05300E-04-4.51584E-05-2.65595E-05-3.87183E-05-2.53559E-18 2.25946E-18
 -1      2166 1.24941E-04-4.32524E-05-3.45821E-05-4.10092E-05-2.53220E-18 2.34035E-18
 -1      2167 7.28945E-05-4.75779E-05-1.20697E-05-3.92904E-05-1.71101E-19 2.82613E-18
 -1      2168 9.03165E-05-4.49412E-05-1.94784E-05-4.43795E-05-1.15451E-18 1.67607E-18
 -1      2169 4.04650E-05-4.48789E-05 2.76364E-07-3.15872E-05 2.01382E-18 3.46436E-18
 -1      2170 5.35033E-05-4.20943E-05-5.61286E-06-3.89372E-05 7.08967E-19 4.38988E-18
 -1      2171 2.02217E-05-3.81225E-05 6.42555E-06-1.87365E-05 2.37212E-18 2.38440E-19
 -1      2172 2.86370E-05-3.94163E-05 3.52961E-06-2.71529E-05 1.61487E-18 5.73230E-19
 -1      2173 1.61211E-04-3.84640E-05-5.20196E-05 2.07754E-05 3.21603E-18-7.84353E-19
 -1      2174 1.46358E-04-4.08957E-05-4.51514E-05 2.70264E-05 2.61648E-18 1.14646E-18
 -1      2175 1.46120E-04-5.14452E-05-4.00658E-05 1.88001E-05 1.84590E-18-1.08844E-18
 -1      2176 1.20542E-04-5.83714E-05-2.64235E-05 3.53698E-05 1.18818E-18 2.45555E-18
 -1      2177 9.71853E-05-2.43134E-05-3.13048E-05-1.00039E-05-1.57590E-18 3.97497E-19
 -1      2178 1.53478E-04-2.98621E-05-5.35377E-05-2.87776E-06 1.87067E-18-4.04035E-19
 -1      2179 1.60700E-04-3.50439E-05-5.33578E-05 9.54730E-06 2.54586E-18-7.19978E-19
 -1      2180 1.51441E-04-4.03272E-05-4.72950E-05 2.33101E-06 1.10495E-18-1.76268E-18
 -1      2181 9.63450E-05-2.30976E-05-3.14549E-05-1.03865E-05-1.66303E-18-3.00882E-19
 -1      2182 4.18789E-05-3.93477E-05-1.72884E-06 3.66168E-05 2.32934E-18 4.31606E-18
 -1      2183 1.91304E-05-2.91923E-05 3.55446E-06 1.47510E-05 2.84307E-18 1.23921E-18
 -1      2184 9.56926E-05-2.57744E-05-2.99433E-05-5.68085E-06-2.18467E-19-2.53719E-19
 -1      2185 8.05844E-05-5.14349E-05-1.25819E-05 4.49560E-05 9.94417E-19 4.14080E-18
 -1      2186 2.05102E-05-2.84555E-05 2.90672E-06-1.44012E-05 2.43342E-18 3.74389E-19
 -1      2187 4.17252E-05-3.87017E-05-1.94205E-06-3.63241E-05 2.16078E-18 2.52903E-18
 -1      2188 7.54120E-05-5.01003E-05-1.11789E-05-4.43310E-05 9.40207E-19 3.19011E-18
 -1      2189 1.11577E-04-5.61422E-05-2.37242E-05-3.91526E-05-1.07488E-18 1.98862E-18
 -1      2190 1.56875E-04-4.00142E-05-4.94225E-05-8.34338E-06-1.26515E-18 3.72483E-18
 -1      2191 1.63658E-04-1.47625E-05-6.26465E-05-9.02270E-07-1.92276E-18 4.62162E-19
 -1      2192 1.64308E-04-1.83414E-05-6.13638E-05-3.04475E-06-2.12859E-18 1.75823E-18
 -1      2193 1.60179E-04-3.11715E-05-5.43485E-05 7.20761E-07-1.54181E-18 1.77750E-18
 -1      2194 1.50066E-04-4.72448E-05-4.34955E-05 1.16956E-05-2.33585E-18 1.86390E-18
 -1      2195 1.26858E-04-5.56193E-05-3.02572E-05 2.88675E-05-1.81858E-18 1.09818E-18
 -1      2196 9.02944E-05-5.20283E-05-1.65335E-05 4.05020E-05-1.82197E-18-2.21499E-18
 -1      2197 5.26122E-05-4.14972E-05-5.19760E-06 3.87376E-05-1.41285E-18-2.38853E-18
 -1      2198 2.40716E-05-3.08461E-05 2.27336E-06 2.32050E-05-2.11758E-21-1.04947E-18
 -1      2199 1.36546E-05-2.81364E-05 5.30109E-06-1.96045E-06-9.88937E-19-3.82859E-18
 -1      2200 2.71190E-05-3.33949E-05 1.90406E-06-2.63722E-05-1.72604E-18-1.09754E-18
 -1      2201 5.98266E-05-4.38880E-05-7.12719E-06-4.07502E-05-6.26804E-19-5.64547E-19
 -1      2202 1.03685E-04-5.55158E-05-2.05050E-05-3.78935E-05 3.68883E-19-7.57883E-19
 -1      2203 1.36421E-04-5.45395E-05-3.50260E-05-2.23921E-05 1.03994E-18-2.04093E-18
 -1      2204 1.56259E-04-4.09936E-05-4.85336E-05-1.03001E-05 1.47942E-18-1.03846E-18
 -1      2205 1.63367E-04-1.53982E-05-6.24205E-05 2.96964E-06 2.07311E-18-4.68145E-19
 -1      2206 1.62878E-04-2.47537E-05-5.79992E-05 3.85882E-07 1.78682E-18-1.34445E-18
 -1      2207 1.39917E-04-5.31081E-05-3.66402E-05-2.55497E-05-1.74616E-18 2.24760E-18
 -1      2208 9.52105E-05-2.63758E-05-2.94874E-05 4.20012E-06 1.24502E-18 9.80070E-19
 -1      2209 9.61859E-05-2.58613E-05-3.00656E-05 6.00510E-06 1.38673E-18 1.20033E-18
 -1      2210 8.81391E-05-1.11867E-05-3.30189E-05-3.66324E-06-1.01029E-19-2.10009E-18
 -1      2211 8.83730E-05-1.14574E-05-3.30010E-05-4.80542E-06-3.05860E-19-2.20064E-18
 -1      2212 8.87259E-05-1.19427E-05-3.29523E-05-5.82282E-06-4.36849E-19-2.20638E-18
 -1      2213 8.91305E-05-1.24134E-05-3.29240E-05-6.99896E-06-6.25962E-19-2.13200E-18
 -1      2214 8.98931E-05-1.38263E-05-3.25990E-05-4.90451E-06-3.17395E-19-2.00081E-18
 -1      2215 8.77944E-05-1.07283E-05-3.30624E-05 6.16050E-07 6.17946E-19-1.97203E-18
 -1      2216 8.77900E-05-1.07235E-05-3.30626E-05-4.95757E-07 4.73296E-19-2.02430E-18
 -1      2217 8.79749E-05-1.09529E-05-3.30438E-05 2.75977E-06 9.49919E-19-1.98195E-18
 -1      2218 8.78604E-05-1.08201E-05-3.30532E-05 1.63963E-06 7.62329E-19-2.01499E-18
 -1      2219 8.91126E-05-1.27751E-05-3.27192E-05 1.05071E-06 6.45737E-19-1.89145E-18
 -1      2220 8.84080E-05-1.14993E-05-3.29984E-05 4.89053E-06 1.19185E-18-1.82489E-18
 -1      2221 8.81692E-05-1.12229E-05-3.30166E-05 3.76671E-06 1.02483E-18-1.93260E-18
 -1      2222 8.93777E-05-1.31305E-05-3.26791E-05 3.02356E-06 9.56098E-19-1.81859E-18
 -1      2223 8.91856E-05-1.24808E-05-3.29193E-05 7.07917E-06 1.59309E-18-1.56027E-18
 -1      2224 8.87686E-05-1.19949E-05-3.29486E-05 5.90697E-06 1.38059E-18-1.71533E-18
 -1      2225 8.99335E-05-1.38776E-05-3.25944E-05 4.97919E-06 1.25720E-18-1.61384E-18
 -1      2226 9.04531E-05-1.40885E-05-3.27920E-05 9.22811E-06 1.85524E-18-1.08287E-18
 -1      2227 8.97736E-05-1.32781E-05-3.28375E-05 8.04918E-06 1.66888E-18-1.37867E-18
 -1      2228 9.08667E-05-1.51359E-05-3.24491E-05 6.87617E-06 1.57712E-18-1.33278E-18
 -1      2229 9.24491E-05-1.66593E-05-3.25818E-05 1.11124E-05 2.02379E-18-4.12598E-19
 -1      2230 9.13714E-05-1.53199E-05-3.26540E-05 1.00322E-05 1.86802E-18-8.03570E-19
 -1      2231 9.22877E-05-1.70885E-05-3.22077E-05 8.52170E-06 1.70232E-18-8.70667E-19
 -1      2232 1.31927E-04-6.14249E-05-3.04453E-05 2.73390E-05 4.31987E-20-1.00151E-18
 -1      2233 1.15606E-04-6.04834E-05-2.34291E-05 3.47434E-05-2.26158E-19 7.98964E-19
 -1      2234 9.42289E-05-2.71157E-05-2.87461E-05 1.77069E-06 1.15605E-18 7.14201E-19
 -1      2235 9.48302E-05-2.68923E-05-2.90449E-05 2.74321E-06 1.18760E-18 8.93580E-19
 -1      2236 9.53348E-05-2.58469E-05-2.97885E-05 4.36724E-06 1.40379E-18 1.95102E-19
 -1      2237 9.59077E-05-2.50902E-05-3.03025E-05-6.19155E-06-1.42022E-18-5.39838E-19
 -1      2238 9.52478E-05-2.58494E-05-2.97588E-05-4.28616E-06-1.18087E-18-5.41445E-19
 -1      2239 9.51322E-05-2.65345E-05-2.93417E-05-2.94379E-06-1.02548E-18-4.38370E-19
 -1      2240 9.46636E-05-2.69075E-05-2.90380E-05-1.88313E-06-8.35208E-19-5.70357E-19
 -1      2241 9.53333E-05-2.53524E-05-2.99942E-05-4.30031E-06-1.13977E-18-7.79055E-19
 -1      2242 9.44668E-05-2.72371E-05-2.87743E-05-1.03391E-06-6.89763E-19-4.96560E-19
 -1      2243 9.42079E-05-2.74504E-05-2.86078E-05-4.32925E-07-5.65956E-19-5.37999E-19
 -1      2244 9.50297E-05-2.67005E-05-2.92968E-05-1.92811E-06-8.14264E-19-7.95541E-19
 -1      2245 9.40586E-05-2.76305E-05-2.84465E-05 7.42105E-08-5.64768E-19-3.71046E-19
 -1      2246 9.39591E-05-2.77735E-05-2.83627E-05 4.03430E-07-3.79052E-19-4.37331E-19
 -1      2247 9.47226E-05-2.74272E-05-2.88536E-05-4.50176E-07-5.76193E-19-4.75339E-19
 -1      2248 9.38738E-05-2.78826E-05-2.82693E-05 6.85750E-07-1.89336E-19-5.80749E-19
 -1      2249 9.38784E-05-2.79890E-05-2.82362E-05 8.49616E-07-1.31073E-19-5.51273E-19
 -1      2250 9.45202E-05-2.78547E-05-2.85813E-05 4.19238E-07-4.14271E-19-4.96801E-19
 -1      2251 9.38467E-05-2.80606E-05-2.81874E-05 9.86959E-07-3.56744E-19-6.92036E-19
 -1      2252 9.39129E-05-2.81437E-05-2.81850E-05 1.04938E-06-3.70600E-19-6.93427E-19
 -1      2253 9.44266E-05-2.81227E-05-2.84235E-05 8.90093E-07-3.70776E-19-5.18314E-19
 -1      2254 9.39184E-05-2.81927E-05-2.81653E-05 1.09524E-06-2.40791E-19-9.00055E-19
 -1      2255 9.40168E-05-2.82585E-05-2.81808E-05 1.09673E-06-3.54117E-19-8.96209E-19
 -1      2256 9.44163E-05-2.82980E-05-2.83416E-05 1.10414E-06-3.62437E-19-8.58338E-19
 -1      2257 9.40456E-05-2.82923E-05-2.81794E-05 1.08745E-06-8.02785E-19-7.06843E-19
 -1      2258 9.41569E-05-2.83440E-05-2.82044E-05 1.05463E-06-8.81646E-19-8.26865E-19
 -1      2259 9.44612E-05-2.84138E-05-2.83093E-05 1.15788E-06-5.60148E-19-9.43463E-19
 -1      2260 9.41985E-05-2.83670E-05-2.82144E-05 1.01506E-06-6.67722E-19-8.17970E-19
 -1      2261 9.43112E-05-2.84069E-05-2.82437E-05 9.65785E-07-4.61087E-19-7.69565E-19
 -1      2262 9.45383E-05-2.84890E-05-2.83089E-05 1.11730E-06-7.79757E-19-5.15881E-19
 -1      2263 9.43587E-05-2.84216E-05-2.82603E-05 9.13067E-07-3.21091E-19-6.91925E-19
 -1      2264 9.44662E-05-2.84516E-05-2.82911E-05 8.59554E-07-1.45660E-19-6.95538E-19
 -1      2265 9.46314E-05-2.85351E-05-2.83282E-05 1.02781E-06-3.84590E-19-2.63867E-19
 -1      2266 9.45156E-05-2.84600E-05-2.83114E-05 8.05638E-07-2.94949E-20-5.71034E-19
 -1      2267 9.46156E-05-2.84819E-05-2.83420E-05 7.56392E-07 7.17129E-20-2.54682E-19
 -1      2268 9.47303E-05-2.85596E-05-2.83596E-05 9.21003E-07 3.27129E-20-5.45679E-21
 -1      2269 9.46650E-05-2.84854E-05-2.83646E-05 7.09787E-07-6.21162E-20-3.48671E-19
 -1      2270 9.47577E-05-2.85007E-05-2.83947E-05 6.70951E-07-1.45167E-19-3.15560E-19
 -1      2271 9.48294E-05-2.85678E-05-2.83983E-05 8.19132E-07 1.29669E-19-2.39834E-19
 -1      2272 9.48068E-05-2.85002E-05-2.84189E-05 6.37995E-07-4.49052E-20-4.75895E-19
 -1      2273 9.48948E-05-2.85106E-05-2.84488E-05 6.14308E-07 2.36882E-19-4.47539E-19
 -1      2274 9.49272E-05-2.85634E-05-2.84420E-05 7.38379E-07-1.31841E-19-3.17147E-19
 -1      2275 9.49446E-05-2.85069E-05-2.84749E-05 6.00098E-07-2.64573E-20-6.28742E-19
 -1      2276 9.50318E-05-2.85137E-05-2.85057E-05 5.95612E-07-1.70026E-19-7.30097E-19
 -1      2277 9.50246E-05-2.85490E-05-2.84900E-05 6.91192E-07-8.26244E-20-5.85295E-19
 -1      2278 9.50844E-05-2.85076E-05-2.85343E-05 6.04702E-07-4.21665E-19-8.57114E-19
 -1      2279 9.51763E-05-2.85124E-05-2.85676E-05 6.23297E-07-6.09700E-19-8.65168E-19
 -1      2280 9.51248E-05-2.85263E-05-2.85429E-05 6.88034E-07-4.98603E-19-1.29312E-18
 -1      2281 9.52346E-05-2.85043E-05-2.85998E-05 6.60203E-07-7.35240E-19-1.14603E-18
 -1      2282 9.53378E-05-2.85086E-05-2.86375E-05 7.05950E-07-1.00733E-18-1.15349E-18
 -1      2283 9.52330E-05-2.84965E-05-2.86023E-05 7.38658E-07-9.76221E-19-1.31891E-18
 -1      2284 9.54055E-05-2.84991E-05-2.86750E-05 7.75473E-07-1.31924E-18-1.29462E-18
 -1      2285 9.55279E-05-2.85049E-05-2.87195E-05 8.52842E-07-1.21720E-18-1.77297E-18
 -1      2286 9.53557E-05-2.84607E-05-2.86706E-05 8.52989E-07-1.33948E-18-1.32169E-18
 -1      2287 9.56092E-05-2.84948E-05-2.87640E-05 9.60210E-07-8.48615E-19-1.96885E-18
 -1      2288 9.57601E-05-2.85044E-05-2.88181E-05 1.07409E-06-4.43030E-19-2.27541E-18
 -1      2289 9.55009E-05-2.84200E-05-2.87507E-05 1.04162E-06-1.27378E-18-1.43043E-18
 -1      2290 9.58602E-05-2.84946E-05-2.88714E-05 1.22488E-06-1.44121E-19-2.20089E-18
 -1      2291 9.60499E-05-2.85111E-05-2.89380E-05 1.38035E-06 3.08718E-19-2.51966E-18
 -1      2292 9.56780E-05-2.83760E-05-2.88459E-05 1.31588E-06-4.05118E-19-1.71517E-18
 -1      2293 9.61745E-05-2.85036E-05-2.90021E-05 1.58013E-06 1.04728E-18-2.42538E-18
 -1      2294 9.64147E-05-2.85310E-05-2.90842E-05 1.78191E-06 8.99639E-19-2.05250E-18
 -1      2295 9.58981E-05-2.83319E-05-2.89596E-05 1.68735E-06 4.65592E-19-2.08236E-18
 -1      2296 9.65706E-05-2.85289E-05-2.91609E-05 2.03542E-06 5.03182E-19-1.43631E-18
 -1      2297 9.68739E-05-2.85729E-05-2.92615E-05 2.28675E-06-6.86312E-20-8.65325E-19
 -1      2298 9.61738E-05-2.82932E-05-2.90949E-05 2.16664E-06 1.08593E-18-1.18177E-18
 -1      2299 9.70689E-05-2.85813E-05-2.93518E-05 2.59652E-06-4.66640E-19-7.37101E-19
 -1      2300 9.74488E-05-2.86502E-05-2.94734E-05 2.89731E-06 1.86906E-19-8.42367E-19
 -1      2301 9.65200E-05-2.82697E-05-2.92537E-05 2.76114E-06-1.14231E-19-1.06231E-18
 -1      2302 9.76928E-05-2.86781E-05-2.95774E-05 3.26137E-06 9.61581E-20-1.46397E-18
 -1      2303 9.81625E-05-2.87838E-05-2.97212E-05 3.60512E-06-1.55795E-19-1.20512E-18
 -1      2304 9.69549E-05-2.82786E-05-2.94368E-05 3.47123E-06-3.31530E-19-1.12988E-18
 -1      2305 9.84689E-05-2.88456E-05-2.98377E-05 4.01340E-06-2.52653E-19-1.20932E-18
 -1      2306 9.90411E-05-2.90057E-05-3.00029E-05 4.38259E-06-5.15127E-20-1.01728E-18
 -1      2307 9.75023E-05-2.83486E-05-2.96421E-05 4.28438E-06-9.70634E-20-2.09623E-18
 -1      2308 9.94291E-05-2.91249E-05-3.01285E-05 4.81159E-06 1.34814E-19-1.56575E-18
 -1      2309 1.00115E-04-2.93645E-05-3.03112E-05 5.17095E-06 3.53829E-19-1.18875E-18
 -1      2310 9.81951E-05-2.85261E-05-2.98638E-05 5.16629E-06-2.24290E-19-1.91550E-18
 -1      2311 1.00613E-04-2.95773E-05-3.04400E-05 5.57617E-06 1.63527E-19-1.19475E-18
 -1      2312 1.01419E-04-2.99308E-05-3.06324E-05 5.86403E-06 3.55974E-19-1.37490E-18
 -1      2313 9.90822E-05-2.88843E-05-3.00922E-05 6.04825E-06 1.86404E-19-1.56513E-18
 -1      2314 1.02072E-04-3.02894E-05-3.07565E-05 6.16988E-06 8.51479E-19-1.71890E-18
 -1      2315 1.02998E-04-3.07993E-05-3.09460E-05 6.28876E-06 9.54732E-19-1.18688E-18
 -1      2316 1.00237E-04-2.95302E-05-3.03133E-05 6.81012E-06 5.52850E-19-1.53701E-18
 -1      2317 1.03868E-04-3.13692E-05-3.10574E-05 6.37680E-06 8.41187E-19-2.00093E-18
 -1      2318 1.04898E-04-3.20753E-05-3.12277E-05 6.18764E-06 4.89105E-19-1.65622E-18
 -1      2319 1.01764E-04-3.06059E-05-3.05122E-05 7.25922E-06 7.00781E-19-1.32489E-18
 -1      2320 1.06056E-04-3.29187E-05-3.13232E-05 5.88716E-06-2.11560E-20-1.56403E-18
 -1      2321 1.07143E-04-3.38275E-05-3.14586E-05 5.21760E-06 1.07093E-19-9.88613E-19
 -1      2322 1.03801E-04-3.22657E-05-3.06810E-05 7.10881E-06 4.79137E-19-1.73801E-18
 -1      2323 1.08637E-04-3.49538E-05-3.15490E-05 4.31110E-06 8.22714E-20-1.07868E-18
 -1      2324 1.09665E-04-3.59732E-05-3.16426E-05 2.99748E-06 1.25387E-19-5.01121E-19
 -1      2325 1.06470E-04-3.45964E-05-3.08344E-05 5.96971E-06 1.22893E-19-1.05521E-18
 -1      2326 1.11430E-04-3.72415E-05-3.17644E-05 1.27255E-06 8.63097E-20-4.32071E-19
 -1      2327 1.12175E-04-3.80854E-05-3.18303E-05-7.36380E-07-1.83436E-20-1.71061E-21
 -1      2328 1.09771E-04-3.74409E-05-3.10330E-05 3.39308E-06 2.10633E-19-8.85319E-19
 -1      2329 1.13895E-04-3.90747E-05-3.20534E-05-3.32617E-06-4.40611E-19 4.70007E-19
 -1      2330 1.14008E-04-3.92050E-05-3.21312E-05-5.78593E-06-2.12893E-19 2.27357E-19
 -1      2331 1.13333E-04-4.01076E-05-3.14060E-05-9.41320E-07 6.12333E-20-1.65648E-20
 -1      2332 1.15044E-04-3.91891E-05-3.25386E-05-8.84265E-06-7.62502E-19 2.64939E-19
 -1      2333 1.14154E-04-3.79427E-05-3.26834E-05-1.10253E-05-1.62151E-18-6.92363E-19
 -1      2334 1.16207E-04-4.12218E-05-3.21368E-05-6.80031E-06-1.14365E-18 5.34159E-19
 -1      2335 1.13716E-04-3.61945E-05-3.33143E-05-1.32937E-05-1.45507E-18-5.66116E-19
 -1      2336 1.11855E-04-3.34541E-05-3.35443E-05-1.39791E-05-1.00246E-18-5.67936E-19
 -1      2337 1.16833E-04-3.88669E-05-3.33778E-05-1.26188E-05-1.25134E-18 1.25330E-18
 -1      2338 1.09879E-04-3.02223E-05-3.42795E-05-1.36955E-05-7.63431E-19-9.64797E-19
 -1      2339 1.07811E-04-2.71089E-05-3.45118E-05-1.18519E-05-6.10525E-20-6.58252E-19
 -1      2340 1.14256E-04-3.24420E-05-3.50407E-05-1.52448E-05-1.06092E-18 1.30022E-18
 -1      2341 1.05813E-04-2.43542E-05-3.50203E-05-8.23885E-06 3.23580E-19-1.50273E-18
 -1      2342 1.04746E-04-2.28879E-05-3.50875E-05-4.29626E-06 7.14949E-19-1.64670E-18
 -1      2343 1.09986E-04-2.48239E-05-3.65759E-05-1.14351E-05-4.89029E-20 1.02967E-19
 -1      2344 1.04625E-04-2.28524E-05-3.50437E-05 9.66264E-07 1.59746E-18-1.25160E-18
 -1      2345 1.05234E-04-2.41803E-05-3.48520E-05 4.90641E-06 9.25992E-19 3.05197E-19
 -1      2346 1.07673E-04-2.12733E-05-3.71719E-05-1.85725E-06 1.35621E-18-2.41992E-20
 -1      2347 1.06992E-04-2.68726E-05-3.42594E-05 8.54349E-06 3.88735E-19 2.50378E-19
 -1      2348 1.08628E-04-2.98933E-05-3.38987E-05 1.03781E-05 2.78846E-19 9.58494E-19
 -1      2349 1.09478E-04-2.46861E-05-3.64247E-05 7.71689E-06 1.03425E-18 1.22390E-18
 -1      2350 1.10396E-04-3.30869E-05-3.30725E-05 1.06260E-05-7.13189E-19 1.52570E-18
 -1      2351 1.11811E-04-3.57219E-05-3.27132E-05 9.91573E-06 1.88352E-19 2.05799E-18
 -1      2352 1.13301E-04-3.22131E-05-3.47312E-05 1.15565E-05 3.02887E-19 1.17706E-18
 -1      2353 1.12059E-04-3.74338E-05-3.19969E-05 7.59046E-06 6.16807E-19 8.14321E-19
 -1      2354 1.12502E-04-3.85466E-05-3.17296E-05 5.36256E-06 8.50878E-19 4.58942E-19
 -1      2355 1.15437E-04-3.85363E-05-3.29078E-05 8.86364E-06-1.86381E-19 2.21882E-18
 -1      2356 1.11254E-04-3.84905E-05-3.12504E-05 2.25298E-06 2.12586E-18-7.59798E-20
 -1      2357 1.10697E-04-3.81819E-05-3.10630E-05-2.38340E-07 3.49300E-18-4.32745E-19
 -1      2358 1.14384E-04-4.07818E-05-3.15307E-05 2.92265E-06 1.06822E-18 5.24151E-19
 -1      2359 1.08703E-04-3.70250E-05-3.07946E-05-2.84024E-06 2.48083E-18-9.35456E-19
 -1      2360 1.07503E-04-3.59154E-05-3.06430E-05-4.78321E-06 1.81204E-18 7.71821E-19
 -1      2361 1.11024E-04-3.94328E-05-3.07053E-05-3.00371E-06 2.14780E-18-1.31863E-18
 -1      2362 1.05426E-04-3.43774E-05-3.05095E-05-6.37616E-06 1.98660E-18 8.49159E-19
 -1      2363 1.03949E-04-3.29975E-05-3.03649E-05-7.44349E-06 1.52560E-18 1.22476E-18
 -1      2364 1.06861E-04-3.62367E-05-3.03030E-05-7.20294E-06 2.27697E-18-4.51713E-19
 -1      2365 1.02097E-04-3.14783E-05-3.03038E-05-7.99308E-06 6.84799E-19 1.18321E-18
 -1      2366 1.00605E-04-3.01421E-05-3.01663E-05-8.13117E-06 3.74030E-19 1.27797E-18
 -1      2367 1.02888E-04-3.25990E-05-3.01529E-05-9.25951E-06 1.30449E-18 1.14189E-19
 -1      2368 9.33310E-05-2.76893E-05-2.81248E-05-4.03243E-07 2.80706E-19 8.39665E-20
 -1      2369 9.34101E-05-2.75846E-05-2.81865E-05-1.17977E-07 4.34058E-19 3.82239E-19
 -1      2370 9.32780E-05-2.78531E-05-2.80345E-05-8.09314E-07 3.14128E-19-2.39623E-19
 -1      2371 9.32340E-05-2.77625E-05-2.80462E-05-6.70190E-07 2.43412E-19-1.34467E-19
 -1      2372 9.40043E-05-2.78068E-05-2.83816E-05-4.35526E-07 5.20072E-19-4.88716E-19
 -1      2373 9.33703E-05-2.79879E-05-2.80179E-05-9.85579E-07 4.48244E-19-9.41890E-21
 -1      2374 9.32585E-05-2.79076E-05-2.80011E-05-9.34458E-07 3.56234E-19-1.19024E-19
 -1      2375 9.39164E-05-2.80155E-05-2.82514E-05-8.83123E-07 3.02552E-19-5.09784E-19
 -1      2376 9.35439E-05-2.81018E-05-2.80446E-05-1.02203E-06 5.56970E-19 2.70085E-19
 -1      2377 9.34001E-05-2.80316E-05-2.80125E-05-1.02329E-06 4.84205E-19 1.66781E-19
 -1      2378 9.39443E-05-2.81636E-05-2.81971E-05-1.08067E-06 3.93101E-19-4.92433E-19
 -1      2379 9.37549E-05-2.81976E-05-2.80947E-05-9.77126E-07 3.82230E-19 1.67822E-19
 -1      2380 9.36017E-05-2.81375E-05-2.80558E-05-1.00778E-06 5.61503E-19 3.40521E-19
 -1      2381 9.40426E-05-2.82730E-05-2.81904E-05-1.12444E-06 4.62349E-19-9.56579E-20
 -1      2382 9.39759E-05-2.82767E-05-2.81560E-05-8.89887E-07 2.44100E-19-2.24640E-20
 -1      2383 9.38264E-05-2.82265E-05-2.81153E-05-9.34669E-07 4.04557E-19 2.34721E-20
 -1      2384 9.41778E-05-2.83543E-05-2.82121E-05-1.07851E-06 4.80596E-19-4.49007E-20
 -1      2385 9.41906E-05-2.83406E-05-2.82208E-05-7.86755E-07 2.12588E-19-1.60779E-19
 -1      2386 9.40518E-05-2.82997E-05-2.81812E-05-8.35313E-07 1.59939E-19 9.44265E-20
 -1      2387 9.43280E-05-2.84140E-05-2.82499E-05-9.86217E-07 3.96008E-19-2.80997E-19
 -1      2388 9.43917E-05-2.83914E-05-2.82853E-05-6.85942E-07 9.02064E-19-2.97136E-19
 -1      2389 9.42659E-05-2.83585E-05-2.82480E-05-7.31123E-07 3.86151E-19-2.38548E-19
 -1      2390 9.44797E-05-2.84565E-05-2.82962E-05-8.77271E-07 4.04947E-19-2.06359E-19
 -1      2391 9.45779E-05-2.84310E-05-2.83479E-05-6.00320E-07 8.71953E-19 4.35322E-21
 -1      2392 9.44641E-05-2.84049E-05-2.83130E-05-6.37006E-07 1.09205E-18-1.77299E-20
 -1      2393 9.46263E-05-2.84850E-05-2.83466E-05-7.72367E-07 7.99084E-19 2.33008E-19
 -1      2394 9.47522E-05-2.84620E-05-2.84090E-05-5.39476E-07 4.77016E-19-2.74499E-19
 -1      2395 9.46474E-05-2.84411E-05-2.83758E-05-5.63754E-07 6.63959E-19-3.99542E-20
 -1      2396 9.47661E-05-2.85026E-05-2.83989E-05-6.86347E-07 7.60229E-19-1.09847E-19
 -1      2397 9.49214E-05-2.84869E-05-2.84704E-05-5.11208E-07 5.28086E-19-9.10579E-20
 -1      2398 9.48206E-05-2.84694E-05-2.84376E-05-5.19760E-07 3.62024E-19 5.01127E-21
 -1      2399 9.49010E-05-2.85114E-05-2.84531E-05-6.30475E-07 4.65370E-19-1.16501E-19
 -1      2400 9.50951E-05-2.85086E-05-2.85348E-05-5.22646E-07 1.05165E-18-7.18000E-19
 -1      2401 9.49918E-05-2.84927E-05-2.85006E-05-5.12289E-07 1.02045E-18-1.08560E-19
 -1      2402 9.50359E-05-2.85137E-05-2.85101E-05-6.14098E-07 7.57175E-19-7.64992E-20
 -1      2403 9.52854E-05-2.85302E-05-2.86063E-05-5.81057E-07 1.21584E-19-5.48253E-19
 -1      2404 9.51716E-05-2.85137E-05-2.85682E-05-5.48419E-07 7.27855E-19-2.96751E-19
 -1      2405 9.51780E-05-2.85114E-05-2.85724E-05-6.45879E-07 8.47719E-19-9.51035E-20
 -1      2406 9.55070E-05-2.85554E-05-2.86894E-05-6.94371E-07-4.41181E-19-6.37499E-19
 -1      2407 9.53732E-05-2.85358E-05-2.86446E-05-6.35687E-07-1.63027E-19-4.62287E-19
 -1      2408 9.53366E-05-2.85066E-05-2.86428E-05-7.34663E-07-1.28218E-19-9.43229E-20
 -1      2409 9.57768E-05-2.85885E-05-2.87895E-05-8.71398E-07-5.09731E-19-6.22609E-19
 -1      2410 9.56121E-05-2.85628E-05-2.87350E-05-7.82453E-07-5.01225E-19-8.18723E-19
 -1      2411 9.55228E-05-2.85016E-05-2.87253E-05-8.89991E-07-3.31379E-19-3.18590E-19
 -1      2412 9.61145E-05-2.86347E-05-2.89129E-05-1.12166E-06-3.47030E-19-6.11859E-19
 -1      2413 9.59064E-05-2.85995E-05-2.88449E-05-9.97922E-07-3.97696E-19-7.93747E-19
 -1      2414 9.57498E-05-2.84994E-05-2.88241E-05-1.12224E-06-3.33846E-19-5.11773E-19
 -1      2415 9.65421E-05-2.87010E-05-2.90661E-05-1.45469E-06 2.23576E-19-4.27511E-19
 -1      2416 9.62766E-05-2.86517E-05-2.89807E-05-1.29172E-06-1.78288E-19-7.53015E-19
 -1      2417 9.60326E-05-2.85040E-05-2.89440E-05-1.44226E-06-2.76586E-19-8.87416E-19
 -1      2418 9.70838E-05-2.87963E-05-2.92557E-05-1.87848E-06 2.20585E-19-1.45428E-19
 -1      2419 9.67456E-05-2.87271E-05-2.91489E-05-1.67278E-06 4.98602E-19-6.44866E-20
 -1      2420 9.63881E-05-2.85213E-05-2.90896E-05-1.86037E-06 8.50176E-21-6.11656E-19
 -1      2421 9.77654E-05-2.89325E-05-2.94878E-05-2.39673E-06 6.67038E-21-5.48144E-19
 -1      2422 9.73386E-05-2.88361E-05-2.93559E-05-2.14728E-06 2.10050E-19-4.80226E-20
 -1      2423 9.68355E-05-2.85605E-05-2.92652E-05-2.38426E-06 4.29225E-19-2.58254E-19
 -1      2424 9.86130E-05-2.91262E-05-2.97670E-05-3.00417E-06-4.79368E-19-1.30341E-19
 -1      2425 9.80823E-05-2.89929E-05-2.96069E-05-2.71499E-06-5.99132E-19-5.59058E-19
 -1      2426 9.73959E-05-2.86355E-05-2.94739E-05-3.01556E-06-2.18729E-19-8.06017E-19
 -1      2427 9.96519E-05-2.94008E-05-3.00945E-05-3.67919E-06-2.45817E-19 5.88334E-20
 -1      2428 9.90043E-05-2.92178E-05-2.99052E-05-3.36334E-06 3.48723E-20-3.17057E-19
 -1      2429 9.80934E-05-2.87685E-05-2.97166E-05-3.74407E-06-2.32561E-19-1.53114E-18
 -1      2430 1.00904E-04-2.97893E-05-3.04663E-05-4.37272E-06 2.24399E-19-3.17559E-20
 -1      2431 1.00132E-04-2.95397E-05-3.02500E-05-4.05836E-06-1.23142E-19 1.69550E-19
 -1      2432 9.89560E-05-2.89937E-05-2.99905E-05-4.53912E-06-3.44743E-19-1.03435E-18
 -1      2433 1.02383E-04-3.03368E-05-3.08704E-05-4.99290E-06 4.99936E-20 1.00945E-19
 -1      2434 1.01489E-04-2.99994E-05-3.06341E-05-4.73134E-06 1.48586E-19-2.67946E-19
 -1      2435 1.00018E-04-2.93633E-05-3.02882E-05-5.33684E-06 1.47733E-19-9.07556E-19
 -1      2436 1.04092E-04-3.11013E-05-3.12846E-05-5.38647E-06 4.01265E-19 7.56595E-19
 -1      2437 1.03096E-04-3.06523E-05-3.10422E-05-5.26128E-06 1.15704E-19 6.68188E-19
 -1      2438 1.01322E-04-2.99529E-05-3.05961E-05-6.02314E-06 5.49099E-20-3.78170E-19
 -1      2439 1.06013E-04-3.21438E-05-3.16754E-05-5.32214E-06-1.36960E-19 1.41633E-18
 -1      2440 1.04961E-04-3.15648E-05-3.14486E-05-5.45543E-06 6.07483E-19 8.33605E-19
 -1      2441 1.02923E-04-3.08618E-05-3.08952E-05-6.41354E-06 1.12381E-19 3.34065E-19
 -1      2442 1.08082E-04-3.34965E-05-3.20019E-05-4.49061E-06-6.82887E-20 9.86173E-19
 -1      2443 1.07061E-04-3.27953E-05-3.18195E-05-5.03668E-06 2.14756E-19 1.40780E-18
 -1      2444 1.04880E-04-3.21963E-05-3.11651E-05-6.23566E-06 1.46762E-19 9.22232E-19
 -1      2445 1.10149E-04-3.50887E-05-3.22276E-05-2.55285E-06 1.13699E-18-1.81606E-19
 -1      2446 1.09310E-04-3.43407E-05-3.21190E-05-3.66081E-06 1.61790E-19 8.92953E-19
 -1      2447 1.07224E-04-3.40121E-05-3.13939E-05-5.13126E-06 5.62711E-19 6.72904E-19
 -1      2448 1.11910E-04-3.66170E-05-3.23423E-05 7.23047E-07-7.35754E-19 9.59609E-19
 -1      2449 1.11480E-04-3.60311E-05-3.23260E-05-1.00231E-06 2.97189E-19 6.16152E-19
 -1      2450 1.09883E-04-3.61948E-05-3.15960E-05-2.71316E-06 3.97847E-19 7.15457E-19
 -1      2451 1.12823E-04-3.74099E-05-3.23866E-05 5.15889E-06-8.07897E-19 1.99888E-18
 -1      2452 1.13088E-04-3.73633E-05-3.24552E-05 3.01614E-06-1.08191E-18 1.54076E-18
 -1      2453 1.12519E-04-3.82396E-05-3.18344E-05 1.26749E-06-1.21447E-18 2.79027E-18
 -1      2454 1.12194E-04-3.65299E-05-3.24524E-05 9.76400E-06-4.47124E-19 2.51295E-18
 -1      2455 1.13378E-04-3.74511E-05-3.25669E-05 7.81364E-06-5.76171E-19 2.17262E-18
 -1      2456 1.14361E-04-3.91078E-05-3.22219E-05 6.51022E-06-5.59220E-19 2.78859E-18
 -1      2457 1.09609E-04-3.33525E-05-3.26384E-05 1.25838E-05-3.33385E-19 3.18635E-18
 -1      2458 1.11621E-04-3.53673E-05-3.27413E-05 1.18021E-05-6.33157E-20 2.82173E-18
 -1      2459 1.14348E-04-3.75217E-05-3.28689E-05 1.16750E-05-5.66996E-19 2.66915E-18
 -1      2460 1.05652E-04-2.86098E-05-3.29436E-05 1.13256E-05 7.34649E-19 2.11706E-18
 -1      2461 1.07852E-04-3.10321E-05-3.30085E-05 1.26001E-05 4.25437E-19 2.63066E-18
 -1      2462 1.11832E-04-3.29158E-05-3.37865E-05 1.42290E-05 4.82212E-19 2.14548E-18
 -1      2463 1.02410E-04-2.49207E-05-3.31718E-05 5.37111E-06 3.10345E-19 7.42433E-19
 -1      2464 1.03760E-04-2.63611E-05-3.32304E-05 8.54463E-06 3.60307E-19 1.84308E-18
 -1      2465 1.07840E-04-2.69594E-05-3.47026E-05 1.15257E-05 1.18187E-18 1.69328E-18
 -1      2466 1.02058E-04-2.49252E-05-3.30970E-05-2.71973E-06-1.05907E-18 8.81480E-19
 -1      2467 1.01868E-04-2.43951E-05-3.31826E-05 8.46218E-07-7.33478E-20 5.49609E-19
 -1      2468 1.05159E-04-2.34012E-05-3.51428E-05 3.64213E-06 2.17012E-19 1.12637E-18
 -1      2469 1.04666E-04-2.85912E-05-3.26948E-05-8.60868E-06 6.17659E-19 1.97154E-19
 -1      2470 1.03233E-04-2.65380E-05-3.27919E-05-6.47778E-06-1.16786E-18-1.05118E-20
 -1      2471 1.05871E-04-2.48431E-05-3.47988E-05-5.35990E-06-5.83129E-19 1.30306E-18
 -1      2472 1.08024E-04-3.31851E-05-3.21511E-05-9.67897E-06 1.05135E-19 1.18985E-18
 -1      2473 1.06356E-04-3.10262E-05-3.22180E-05-9.71895E-06 1.02845E-18-2.56360E-20
 -1      2474 1.09048E-04-3.01443E-05-3.38089E-05-1.04358E-05 3.69498E-19 1.37256E-19
 -1      2475 1.09859E-04-3.60552E-05-3.16683E-05-6.62821E-06-1.11297E-18 2.30216E-18
 -1      2476 1.08813E-04-3.48285E-05-3.17056E-05-8.24892E-06-4.97897E-19 1.31352E-18
 -1      2477 1.11786E-04-3.55189E-05-3.26334E-05-9.73314E-06-2.06297E-19 1.33936E-18
 -1      2478 1.09476E-04-3.64836E-05-3.12888E-05-1.81243E-06 1.68618E-18 1.43862E-18
 -1      2479 1.09381E-04-3.63759E-05-3.13418E-05-3.96944E-06 4.42826E-19 2.11760E-18
 -1      2480 1.12199E-04-3.82235E-05-3.16698E-05-5.17906E-06 3.36431E-20 8.44496E-19
 -1      2481 1.07411E-04-3.51449E-05-3.09569E-05 2.63765E-06 2.09986E-18 2.19926E-19
 -1      2482 1.08125E-04-3.58018E-05-3.10677E-05 7.72045E-07 2.04680E-18 1.24505E-18
 -1      2483 1.10316E-04-3.79331E-05-3.10188E-05 3.49349E-07 2.03874E-18-2.53530E-19
 -1      2484 1.04517E-04-3.30008E-05-3.06239E-05 5.61597E-06 1.49374E-18-9.57233E-19
 -1      2485 1.05730E-04-3.40154E-05-3.07985E-05 4.44632E-06 1.43081E-18 1.68268E-19
 -1      2486 1.07167E-04-3.57716E-05-3.06156E-05 4.83634E-06 2.17345E-18-3.08369E-19
 -1      2487 1.01432E-04-3.06940E-05-3.02836E-05 6.79672E-06 8.33600E-19-2.01059E-19
 -1      2488 1.02839E-04-3.17865E-05-3.04952E-05 6.43981E-06 1.14255E-18-6.44638E-20
 -1      2489 1.03703E-04-3.28782E-05-3.03660E-05 7.45991E-06 1.06462E-18-6.68350E-19
 -1      2490 9.85340E-05-2.85600E-05-2.99599E-05 6.26565E-06-1.34392E-18-2.62104E-19
 -1      2491 9.99107E-05-2.95636E-05-3.01716E-05 6.67945E-06-6.14252E-20 3.18733E-19
 -1      2492 1.00422E-04-2.99850E-05-3.01937E-05 8.14374E-06 7.15917E-19 1.56829E-18
 -1      2493 9.72347E-05-2.75984E-05-2.98425E-05 5.30504E-06-1.17162E-18-1.73203E-18
 -1      2494 9.07489E-05-1.83546E-05-3.10809E-05 1.13926E-05-1.59892E-18 1.46032E-18
 -1      2495 9.21681E-05-2.00586E-05-3.08715E-05 1.18747E-05-1.56551E-18-8.11820E-20
 -1      2496 8.79162E-05-1.51721E-05-3.12499E-05 8.84872E-06-2.18719E-18-5.22838E-19
 -1      2497 8.92523E-05-1.66371E-05-3.10970E-05 1.03176E-05-2.29467E-18 2.36094E-19
 -1      2498 8.99394E-05-1.93913E-05-3.02318E-05 1.24194E-05-6.90704E-19 3.63933E-19
 -1      2499 9.55726E-05-2.43510E-05-3.05151E-05 1.05768E-05-5.64705E-19-1.18416E-18
 -1      2500 9.64493E-05-2.57655E-05-3.02775E-05 9.67542E-06-8.00496E-19-1.35483E-18
 -1      2501 9.35048E-05-2.16253E-05-3.08270E-05 1.18184E-05-1.56217E-18-1.03994E-18
 -1      2502 9.46846E-05-2.32332E-05-3.05919E-05 1.14359E-05-9.28648E-19-6.60113E-19
 -1      2503 9.60322E-05-2.55444E-05-3.02234E-05 1.23348E-05 1.45036E-19-1.56080E-18
 -1      2504 9.33535E-05-2.27842E-05-3.02679E-05 1.34195E-05-2.18690E-19 2.74009E-19
 -1      2505 8.58691E-05-1.29337E-05-3.13271E-05 4.30479E-06-1.30503E-18-3.12456E-19
 -1      2506 8.66917E-05-1.37902E-05-3.12476E-05 6.58819E-06-1.91546E-18-1.93235E-18
 -1      2507 8.66259E-05-1.61622E-05-3.01616E-05 8.91043E-06-1.50694E-18-5.74528E-19
 -1      2508 8.53995E-05-1.24076E-05-3.13233E-05-1.32725E-06-1.57543E-18 1.20437E-18
 -1      2509 8.53954E-05-1.24031E-05-3.13237E-05 1.27251E-06-2.22306E-18 2.06997E-18
 -1      2510 8.45568E-05-1.41595E-05-3.01073E-05 3.23476E-06-1.55393E-18 9.86065E-20
 -1      2511 8.67092E-05-1.38129E-05-3.12466E-05-6.63150E-06-6.55818E-19 2.22334E-18
 -1      2512 8.58833E-05-1.29481E-05-3.13268E-05-4.35560E-06-9.36249E-19 1.84036E-18
 -1      2513 8.45634E-05-1.41687E-05-3.01075E-05-3.29594E-06-6.15950E-19 2.02504E-18
 -1      2514 8.92267E-05-1.66111E-05-3.10982E-05-1.02992E-05 1.73086E-18 2.29834E-18
 -1      2515 8.79141E-05-1.51713E-05-3.12490E-05-8.85261E-06 8.48612E-19 1.62840E-18
 -1      2516 8.66312E-05-1.61630E-05-3.01620E-05-8.91993E-06 9.68327E-19 3.49336E-18
 -1      2517 9.21518E-05-2.00359E-05-3.08726E-05-1.18781E-05 1.17295E-18 2.35990E-19
 -1      2518 9.07270E-05-1.83300E-05-3.10821E-05-1.13865E-05 1.16493E-18 9.87511E-19
 -1      2519 8.99081E-05-1.93615E-05-3.02315E-05-1.24082E-05 1.08926E-18 8.74528E-19
 -1      2520 9.46804E-05-2.32419E-05-3.05878E-05-1.14629E-05 8.61150E-19-1.42332E-18
 -1      2521 9.34707E-05-2.16042E-05-3.08255E-05-1.18135E-05 6.91198E-19 5.55532E-19
 -1      2522 9.33427E-05-2.27686E-05-3.02657E-05-1.34035E-05 2.43799E-19 1.94249E-19
 -1      2523 9.64712E-05-2.57449E-05-3.02802E-05-9.65051E-06-4.81363E-19-2.44903E-18
 -1      2524 9.56027E-05-2.43805E-05-3.05151E-05-1.05614E-05 1.76188E-19-2.48992E-18
 -1      2525 9.61059E-05-2.55656E-05-3.02314E-05-1.23263E-05-4.42916E-19-2.85268E-18
 -1      2526 2.88013E-05-2.53009E-05-1.25372E-06 2.42871E-05 2.89198E-18 2.20716E-18
 -1      2527 2.21509E-05-2.04571E-05-4.27371E-07 1.03834E-05 2.91803E-18 5.93770E-19
 -1      2528 9.43728E-05-5.37935E-05-1.75272E-05 4.42464E-05 5.43372E-19 3.19480E-18
 -1      2529 7.58635E-05-4.73873E-05-1.19167E-05 4.36693E-05 3.78835E-19 3.34239E-18
 -1      2530 9.36155E-05-2.74703E-05-2.83364E-05 3.76458E-07 6.60262E-19 4.69370E-19
 -1      2531 9.38990E-05-2.73347E-05-2.84838E-05 9.09762E-07 9.57169E-19 6.68620E-19
 -1      2532 9.42616E-05-2.74882E-05-2.86308E-05 4.11084E-07 7.74128E-19-1.35472E-19
 -1      2533 9.67191E-05-2.65954E-05-3.00641E-05-6.81155E-06 4.87184E-19 4.28953E-19
 -1      2534 2.32980E-05-1.93042E-05-1.23282E-06-6.57241E-06 2.92872E-18 1.70042E-18
 -1      2535 3.02792E-05-2.29724E-05-2.69743E-06-2.35132E-05 1.83563E-18 1.15662E-18
 -1      2536 5.55536E-05-3.84132E-05-7.24770E-06 4.23575E-05 1.21909E-18 3.99334E-18
 -1      2537 3.94772E-05-3.17597E-05-3.10288E-06 3.31685E-05 1.95855E-18 3.34790E-18
 -1      2538 4.24315E-05-2.60797E-05-6.48695E-06 2.94519E-05 1.62069E-18 1.47595E-18
 -1      2539 9.50695E-05-2.00234E-05-3.22111E-05-1.17386E-05-1.56799E-18-9.17522E-19
 -1      2540 9.54707E-05-2.33862E-05-3.09246E-05-7.98528E-06-1.58649E-18-7.38444E-19
 -1      2541 9.50645E-05-2.25354E-05-3.10514E-05-7.66927E-06-1.38536E-18-9.92221E-19
 -1      2542 9.32157E-05-1.75770E-05-3.24141E-05-1.13688E-05-1.49538E-18-1.29118E-18
 -1      2543 4.25038E-05-3.24104E-05-4.09237E-06-3.56078E-05 7.79906E-19 3.06838E-18
 -1      2544 5.67331E-05-3.99515E-05-7.03358E-06-4.27839E-05 7.47718E-19 3.92769E-18
 -1      2545 1.48009E-04-1.24166E-05-5.85354E-05 8.79580E-07-2.09344E-18 8.05105E-19
 -1      2546 1.51016E-04-1.21267E-05-5.97903E-05-2.12838E-06-1.54626E-18 1.09934E-18
 -1      2547 8.78463E-05-1.08029E-05-3.30543E-05-1.51938E-06 3.19896E-19-2.06473E-18
 -1      2548 8.79514E-05-1.09250E-05-3.30455E-05-2.63890E-06 5.34903E-20-2.06530E-18
 -1      2549 8.93505E-05-1.30975E-05-3.26819E-05-2.93192E-06-6.89641E-21-1.90328E-18
 -1      2550 8.91029E-05-1.27632E-05-3.27203E-05-9.41550E-07 3.68695E-19-1.91922E-18
 -1      2551 1.51379E-04-2.92181E-05-5.25502E-05 6.31110E-06 1.61381E-18-9.55241E-19
 -1      2552 1.48191E-04-2.06960E-05-5.52072E-05 9.09803E-06 2.06973E-18-8.26916E-19
 -1      2553 1.49767E-04-1.44836E-05-5.83788E-05-1.91466E-06 2.92311E-18-6.77520E-19
 -1      2554 1.50077E-04-1.90554E-05-5.63819E-05-4.17372E-06 2.67175E-18-3.55754E-20
 -1      2555 1.34152E-04-5.95207E-05-3.20744E-05-2.35794E-05-1.09733E-18 1.47426E-18
 -1      2556 1.43310E-04-5.66316E-05-3.76692E-05-1.56204E-05-4.97155E-19 2.46063E-18
 -1      2557 1.46146E-04-1.25218E-05-5.76753E-05 4.92028E-06 2.24125E-18-9.85099E-19
 -1      2558 1.48314E-04-1.13114E-05-5.89554E-05 1.58690E-06 2.82994E-18-9.82267E-19
 -1      2559 1.46896E-04-4.65126E-05-4.32839E-05-3.65845E-06 1.66476E-18-8.80067E-19
 -1      2560 1.52692E-04-3.87897E-05-4.91279E-05 1.36568E-06 1.57463E-18-1.02512E-18
 -1      2561 1.44768E-04-3.46351E-05-4.73024E-05 1.04569E-05 1.84791E-18-9.24536E-19
 -1      2562 1.32986E-04-5.80806E-05-3.21475E-05-1.88057E-05 1.57866E-18-2.07947E-18
 -1      2563 1.43718E-04-5.38972E-05-3.85205E-05-1.24313E-05 1.60836E-18-1.60005E-18
 -1      2564 1.44401E-04-5.15317E-05-3.98124E-05 2.71045E-07 1.76561E-18-1.28749E-18
 -1      2565 9.66562E-05-5.45055E-05-1.78487E-05-3.79371E-05 6.16216E-19-1.14678E-18
 -1      2566 1.16925E-04-5.91522E-05-2.49853E-05-3.17364E-05 6.82073E-19-2.26264E-18
 -1      2567 5.47802E-05-3.86876E-05-6.69425E-06-3.86925E-05-1.14222E-18-7.79482E-19
 -1      2568 7.27129E-05-4.53114E-05-1.18965E-05-4.31545E-05-5.41889E-19-5.82547E-19
 -1      2569 2.62286E-05-2.49435E-05-3.59964E-07-2.21298E-05-2.10731E-18-1.93738E-18
 -1      2570 3.80857E-05-2.98196E-05-3.41160E-06-3.33399E-05-1.78322E-18-5.68783E-19
 -1      2571 1.71516E-05-2.01437E-05 1.40840E-06 2.84182E-06-3.13852E-19-2.44877E-18
 -1      2572 1.88609E-05-2.13160E-05 1.25549E-06-1.14481E-05-1.76162E-18-2.78208E-18
 -1      2573 2.96172E-05-1.97724E-05-3.69761E-06-1.77901E-05-1.76045E-18-1.92806E-18
 -1      2574 3.25174E-05-2.73121E-05-2.15586E-06 2.98497E-05-4.47869E-19-1.03211E-18
 -1      2575 2.23708E-05-2.34373E-05 6.47951E-07 1.73571E-05-2.11017E-19-1.40523E-18
 -1      2576 6.71012E-05-4.32770E-05-1.02029E-05 4.27976E-05-1.69364E-18-2.94767E-18
 -1      2577 5.07760E-05-3.61752E-05-5.95443E-06 3.76872E-05-7.66141E-19-3.04424E-18
 -1      2578 1.04939E-04-5.61389E-05-2.10669E-05 3.81372E-05-1.04270E-18-7.93458E-19
 -1      2579 8.59435E-05-5.12694E-05-1.47681E-05 4.03125E-05-1.43022E-18-1.69460E-18
 -1      2580 1.34730E-04-5.86868E-05-3.29978E-05 2.00885E-05-1.64886E-18 1.57950E-18
 -1      2581 1.21447E-04-5.91657E-05-2.66535E-05 2.77436E-05-1.17208E-18 6.46921E-19
 -1      2582 1.48628E-04-4.57494E-05-4.44957E-05-6.67091E-08-2.43040E-18 1.57887E-18
 -1      2583 1.42559E-04-5.26538E-05-3.86759E-05 6.05597E-06-2.87423E-18 1.79190E-18
 -1      2584 1.49411E-04-2.87649E-05-5.22278E-05-8.19171E-06-2.21224E-18 2.25840E-18
 -1      2585 1.48428E-04-3.70938E-05-4.81578E-05-5.77246E-06-2.29673E-18 1.32391E-18
 -1      2586 1.43133E-04-4.26377E-05-4.31535E-05-9.35495E-06-1.84590E-18 2.38503E-18
 -1      2587 1.51268E-04-1.41891E-05-5.90835E-05-4.94630E-06-1.57421E-18 1.39199E-18
 -1      2588 1.48983E-04-1.76214E-05-5.66344E-05-7.33341E-06-1.81646E-18 1.91832E-18
 -1      2589 1.49305E-04-2.47053E-05-5.36603E-05 5.09067E-06-1.31036E-18 2.26581E-20
 -1      2590 1.48510E-04-1.86370E-05-5.61737E-05 4.21757E-06-1.64748E-18-3.08955E-19
 -1      2591 1.48115E-04-4.58710E-05-4.39144E-05-3.68960E-06-1.00940E-18 2.27450E-18
 -1      2592 1.51708E-04-3.60872E-05-5.00389E-05 1.63559E-06-1.55621E-18 6.05205E-19
 -1      2593 1.09345E-04-5.88955E-05-2.15542E-05-3.78663E-05 5.55442E-19 2.18640E-18
 -1      2594 1.24197E-04-6.01237E-05-2.75564E-05-3.32400E-05-6.62380E-19 2.62347E-18
 -1      2595 1.31829E-04-6.29044E-05-2.93141E-05-2.36501E-05-2.36110E-19 1.52487E-18
 -1      2596 7.25259E-05-4.74459E-05-1.06820E-05-4.37609E-05 1.65383E-18 2.92713E-18
 -1      2597 9.11802E-05-5.30997E-05-1.63058E-05-4.50329E-05 4.72221E-19 2.62990E-18
 -1      2598 7.32906E-05-4.38503E-05-1.21956E-05-4.32906E-05 5.13302E-19 3.15456E-18
 -1      2599 1.48055E-04-5.15927E-05-4.16533E-05 1.01329E-05 1.16464E-18-4.16825E-18
 -1      2600 1.41009E-04-5.68011E-05-3.61450E-05 1.57441E-05 5.78947E-19-3.14927E-18
 -1      2601 9.63308E-05-2.50944E-05-3.05558E-05 7.59728E-06 1.56230E-18 1.34889E-18
 -1      2602 9.74529E-05-2.37780E-05-3.15964E-05 1.06967E-05 1.68041E-18 1.67515E-18
 -1      2603 9.58875E-05-2.13027E-05-3.20208E-05 1.18989E-05 1.89182E-18 1.04291E-18
 -1      2604 9.58756E-05-2.41607E-05-3.07682E-05 7.68931E-06 1.63498E-18 5.25759E-19
 -1      2605 1.33851E-04-1.94901E-05-4.92912E-05 1.34318E-05 1.31142E-18-1.32995E-18
 -1      2606 1.41073E-04-1.64008E-05-5.39019E-05 9.41739E-06 1.62397E-18-1.09765E-18
 -1      2607 1.30005E-04-1.16231E-05-5.14168E-05 8.34093E-06 1.61699E-18-1.43307E-18
 -1      2608 9.08107E-05-1.50680E-05-3.24571E-05-6.79739E-06-6.97137E-19-1.90826E-18
 -1      2609 8.97071E-05-1.32059E-05-3.28434E-05-7.97160E-06-8.16804E-19-2.12184E-18
 -1      2610 9.04045E-05-1.40321E-05-3.27966E-05-9.14752E-06-1.01402E-18-2.01914E-18
 -1      2611 1.10685E-04-5.83475E-05-2.20116E-05 3.61359E-05-2.52839E-19 2.55698E-20
 -1      2612 1.37097E-04-6.14467E-05-3.24566E-05 1.67839E-05-7.19978E-21-4.09170E-18
 -1      2613 9.42437E-05-1.90813E-05-3.22577E-05 1.16082E-05 1.91681E-18 2.35991E-19
 -1      2614 1.45109E-04-2.48350E-05-5.16980E-05-6.55364E-06 1.85331E-18-6.27016E-19
 -1      2615 4.39647E-05-2.60077E-05-7.18998E-06-2.89526E-05 6.51157E-19 3.16409E-18
 -1      2616 1.47370E-04-4.69065E-05-4.32535E-05-3.41871E-07 1.39443E-19-2.12436E-18
 -1      2617 9.75522E-05-2.75284E-05-3.00089E-05 7.00752E-06-8.84975E-19-3.83332E-19
 -1      2618 9.72387E-05-2.68042E-05-3.01749E-05 8.05926E-06-7.35780E-19-3.11159E-19
 -1      2619 3.11284E-05-1.72949E-05-5.30286E-06 1.61346E-06 2.81870E-18 1.58798E-18
 -1      2620 7.19807E-05-4.16611E-05-1.25174E-05 4.25798E-05 3.54907E-19 3.25875E-18
 -1      2621 1.06270E-04-5.77768E-05-2.04900E-05-3.94356E-05 1.01580E-18 2.68907E-18
 -1      2622 1.44646E-04-5.31380E-05-3.92388E-05-4.23407E-06-2.11017E-19 1.25001E-18
 -1      2623 9.47281E-05-2.69383E-05-2.90653E-05 1.89079E-06 1.17945E-18 5.59885E-20
 -1      2624 1.43912E-04-3.14882E-05-4.83958E-05 8.02907E-06-1.33471E-18-1.14159E-18
 -1      2625 9.20851E-05-1.62846E-05-3.25213E-05-1.03803E-05-1.33915E-18-1.64069E-18
 -1      2626 1.39801E-04-1.42932E-05-5.40778E-05 5.09410E-06-1.52953E-18-4.87256E-19
 -1      2627 1.39607E-04-1.06714E-05-5.54596E-05-4.65312E-06-1.06938E-18 1.45568E-18
 -1      2628 1.41280E-04-2.31757E-05-5.08188E-05-1.23761E-05-2.18386E-18 1.58543E-18
 -1      2629 1.39095E-04-5.76716E-05-3.48757E-05 7.72198E-06-1.55526E-18 1.78110E-18
 -1      2630 1.17136E-04-5.97825E-05-2.43486E-05 2.99624E-05-9.15854E-19 7.36548E-19
 -1      2631 8.38536E-05-4.83423E-05-1.48323E-05 4.02369E-05-8.32210E-19-1.80339E-18
 -1      2632 2.55434E-05-1.82579E-05-2.60283E-06 9.31833E-06-5.59148E-19-2.03013E-18
 -1      2633 5.25015E-05-3.23908E-05-8.11394E-06-3.58344E-05-1.34594E-18-1.56807E-18
 -1      2634 1.19899E-04-5.95734E-05-2.56506E-05-2.51733E-05 1.42100E-18-2.73521E-18
 -1      2635 1.27606E-04-6.08640E-05-2.85236E-05-2.20650E-05 1.02523E-18-2.44200E-18
 -1      2636 1.33623E-04-6.04141E-05-3.19364E-05-1.15441E-05 1.63832E-18-1.58946E-18
 -1      2637 1.37702E-04-1.10656E-05-5.45714E-05-1.45234E-06 2.74142E-18-1.35713E-18
 -1      2638 9.47143E-05-2.06033E-05-3.17175E-05 9.67554E-06 1.82232E-18 3.26306E-20
 -1      2639 9.07896E-05-5.05112E-05-1.68408E-05-3.87515E-05 3.70577E-19-1.68136E-18
 -1      2640 4.75316E-05-3.03798E-05-6.88488E-06 3.39699E-05-6.03511E-19-2.86255E-18
 -1      2641 9.83307E-05-2.82091E-05-3.00175E-05-7.35816E-06 7.49742E-19 1.07123E-18
 -1      2642 9.72160E-05-2.67155E-05-3.02062E-05-8.71695E-06 9.50571E-20-1.46924E-18
 -1      2643 9.80735E-05-2.77325E-05-3.01674E-05-1.02820E-05-3.10439E-19-1.81544E-18
 -1      2644 9.95408E-05-2.92364E-05-3.01524E-05-7.92600E-06 5.78002E-19 1.84089E-18
 -1      2645 9.81316E-05-2.77897E-05-3.01609E-05 9.68263E-06-1.52674E-19 2.05224E-20
 -1      2646 9.99641E-05-2.96634E-05-3.01359E-05-9.43534E-06 4.61764E-19-1.13420E-18
 -1      2647 9.05646E-05-1.51785E-05-3.23306E-05 3.19842E-06 9.63773E-19-1.70389E-18
 -1      2648 9.03749E-05-1.49072E-05-3.23635E-05 2.26384E-06 8.70081E-19-1.79888E-18
 -1      2649 9.02409E-05-1.47047E-05-3.23925E-05 1.42423E-06 7.11475E-19-1.77988E-18
 -1      2650 9.01760E-05-1.46124E-05-3.24036E-05 4.66397E-07 5.79589E-19-1.72562E-18
 -1      2651 9.14273E-05-1.66002E-05-3.20559E-05 1.64368E-06 7.92035E-19-1.65710E-18
 -1      2652 9.21433E-05-1.75543E-05-3.20047E-05 6.47964E-06 1.51811E-18-1.13586E-18
 -1      2653 9.16198E-05-1.67602E-05-3.21050E-05 5.63997E-06 1.38652E-18-1.30739E-18
 -1      2654 9.35626E-05-1.97789E-05-3.16641E-05 7.60234E-06 1.66452E-18-7.25077E-19
 -1      2655 9.27726E-05-1.85238E-05-3.18379E-05 7.02378E-06 1.55421E-18-9.31951E-19
 -1      2656 9.34377E-05-1.98700E-05-3.15062E-05 5.74045E-06 1.35653E-18-9.43994E-19
 -1      2657 8.15219E-05-4.36500E-05-1.56305E-05-3.79780E-05-3.70471E-19-2.02753E-18
 -1      2658 1.00411E-04-5.23368E-05-2.06341E-05-3.42023E-05 7.10237E-19-2.15014E-18
 -1      2659 9.52146E-05-2.54088E-05-2.99292E-05 3.98403E-06 1.37188E-18-1.32497E-19
 -1      2660 9.55517E-05-2.45588E-05-3.03932E-05 5.61689E-06 1.39339E-18-1.20987E-19
 -1      2661 1.43045E-04-4.09458E-05-4.44892E-05-6.37061E-06 2.70415E-19-1.71143E-18
 -1      2662 1.42072E-04-5.01125E-05-3.94784E-05-1.05202E-06 2.60569E-19-2.21298E-18
 -1      2663 9.53553E-05-2.59050E-05-2.97367E-05-2.71345E-06-8.29747E-19-9.07340E-19
 -1      2664 9.51914E-05-2.64910E-05-2.94540E-05-1.72896E-06-6.32280E-19-8.97901E-19
 -1      2665 9.52152E-05-2.70081E-05-2.92082E-05-9.89754E-07-5.28662E-19-7.88691E-19
 -1      2666 9.50803E-05-2.73620E-05-2.90283E-05-3.85572E-07-4.46615E-19-7.57000E-19
 -1      2667 9.54168E-05-2.63331E-05-2.96125E-05-1.62922E-06-5.60142E-19-8.42084E-19
 -1      2668 9.50467E-05-2.76672E-05-2.88609E-05 8.05768E-08-4.54828E-19-5.98093E-19
 -1      2669 9.49683E-05-2.78911E-05-2.87503E-05 4.31026E-07-3.90633E-19-5.41829E-19
 -1      2670 9.54159E-05-2.73281E-05-2.91879E-05-3.52342E-07-4.55669E-19-7.74843E-19
 -1      2671 9.49265E-05-2.80762E-05-2.86399E-05 7.00108E-07-4.01447E-19-4.57904E-19
 -1      2672 9.48979E-05-2.82225E-05-2.85762E-05 8.82926E-07-4.39319E-19-7.02247E-19
 -1      2673 9.53550E-05-2.79416E-05-2.88982E-05 4.36847E-07-4.62173E-19-8.38682E-19
 -1      2674 9.48630E-05-2.83338E-05-2.85064E-05 1.01691E-06-5.01984E-19-7.67998E-19
 -1      2675 9.48698E-05-2.84298E-05-2.84742E-05 1.09202E-06-4.72987E-19-8.99941E-19
 -1      2676 9.52911E-05-2.83216E-05-2.87067E-05 8.78093E-07-5.87394E-19-7.65953E-19
 -1      2677 9.48456E-05-2.84940E-05-2.84331E-05 1.13811E-06-3.41337E-19-7.45659E-19
 -1      2678 9.48747E-05-2.85560E-05-2.84216E-05 1.14676E-06-4.43861E-19-6.20221E-19
 -1      2679 9.52420E-05-2.85511E-05-2.85859E-05 1.08447E-06-3.59323E-19-8.40191E-19
 -1      2680 9.48602E-05-2.85891E-05-2.84006E-05 1.13908E-06-5.56184E-19-4.57857E-19
 -1      2681 9.49016E-05-2.86270E-05-2.84023E-05 1.10985E-06-3.99667E-19-1.39295E-19
 -1      2682 9.52106E-05-2.86816E-05-2.85154E-05 1.14030E-06-3.40418E-19-1.39748E-19
 -1      2683 9.48947E-05-2.86391E-05-2.83951E-05 1.07284E-06-3.47327E-19-1.35805E-19
 -1      2684 9.49417E-05-2.86596E-05-2.84054E-05 1.02566E-06-2.18261E-19-4.29734E-20
 -1      2685 9.51942E-05-2.87453E-05-2.84803E-05 1.10674E-06-2.73788E-19 3.21932E-19
 -1      2686 9.49403E-05-2.86573E-05-2.84077E-05 9.76755E-07-3.65442E-19 2.37265E-20
 -1      2687 9.49891E-05-2.86649E-05-2.84232E-05 9.25640E-07 2.74940E-20-2.69305E-19
 -1      2688 9.51891E-05-2.87631E-05-2.84698E-05 1.02776E-06-3.78030E-19 3.52026E-20
 -1      2689 9.49915E-05-2.86525E-05-2.84322E-05 8.77358E-07 2.01385E-19-5.09870E-19
 -1      2690 9.50401E-05-2.86503E-05-2.84512E-05 8.32350E-07 1.36654E-20-4.36376E-19
 -1      2691 9.51920E-05-2.87488E-05-2.84768E-05 9.34907E-07-1.89243E-19-3.30464E-19
 -1      2692 9.50453E-05-2.86302E-05-2.84650E-05 7.93870E-07-4.78945E-21-3.91376E-19
 -1      2693 9.50936E-05-2.86205E-05-2.84866E-05 7.62460E-07 4.89973E-20-4.77734E-19
 -1      2694 9.52004E-05-2.87111E-05-2.84963E-05 8.51090E-07 6.60940E-20-2.69179E-19
 -1      2695 9.51008E-05-2.85941E-05-2.85044E-05 7.40849E-07-2.29310E-19-3.78645E-19
 -1      2696 9.51498E-05-2.85782E-05-2.85286E-05 7.29024E-07-2.99137E-19-5.71127E-19
 -1      2697 9.52129E-05-2.86553E-05-2.85254E-05 7.93472E-07-2.23624E-19-4.68233E-19
 -1      2698 9.51589E-05-2.85461E-05-2.85500E-05 7.30171E-07-4.65960E-19-8.51221E-19
 -1      2699 9.52106E-05-2.85248E-05-2.85771E-05 7.43189E-07-7.21749E-19-1.01910E-18
 -1      2700 9.52286E-05-2.85840E-05-2.85626E-05 7.75714E-07-6.57980E-19-4.55051E-19
 -1      2701 9.52214E-05-2.84869E-05-2.86023E-05 7.72493E-07-7.79092E-19-1.05746E-18
 -1      2702 9.52787E-05-2.84608E-05-2.86332E-05 8.15441E-07-1.12882E-18-1.08445E-18
 -1      2703 9.52475E-05-2.84980E-05-2.86076E-05 8.09644E-07-7.24311E-19-5.78442E-19
 -1      2704 9.52915E-05-2.84165E-05-2.86626E-05 8.78300E-07-1.25431E-18-9.96141E-19
 -1      2705 9.53580E-05-2.83859E-05-2.86986E-05 9.56446E-07-1.18113E-18-9.73451E-19
 -1      2706 9.52698E-05-2.83967E-05-2.86606E-05 9.06476E-07-1.09785E-18-4.95290E-19
 -1      2707 9.53731E-05-2.83346E-05-2.87329E-05 1.05854E-06-1.15320E-18-7.32127E-19
 -1      2708 9.54530E-05-2.83002E-05-2.87753E-05 1.17748E-06-1.11295E-18-5.71678E-19
 -1      2709 9.52960E-05-2.82786E-05-2.87225E-05 1.07760E-06-9.19707E-19-6.92471E-20
 -1      2710 9.54710E-05-2.82412E-05-2.88151E-05 1.32483E-06-7.38430E-19-4.76633E-19
 -1      2711 9.55695E-05-2.82041E-05-2.88655E-05 1.49041E-06-1.42575E-19-8.41267E-19
 -1      2712 9.53272E-05-2.81425E-05-2.87943E-05 1.33492E-06-8.49643E-19 3.43937E-19
 -1      2713 9.55912E-05-2.81376E-05-2.89114E-05 1.68922E-06 5.13241E-19-7.97826E-19
 -1      2714 9.57139E-05-2.80998E-05-2.89711E-05 1.90710E-06 1.06335E-18-7.36820E-19
 -1      2715 9.53649E-05-2.79879E-05-2.88768E-05 1.69080E-06 8.47323E-20 9.10752E-20
 -1      2716 9.57409E-05-2.80272E-05-2.90232E-05 2.16326E-06 1.27344E-18-7.68790E-19
 -1      2717 9.58947E-05-2.79929E-05-2.90933E-05 2.43810E-06 9.82978E-19-9.85998E-19
 -1      2718 9.54117E-05-2.78167E-05-2.89702E-05 2.15732E-06 1.04161E-18-2.05972E-19
 -1      2719 9.59298E-05-2.79183E-05-2.91512E-05 2.75628E-06 3.31800E-19-1.01636E-18
 -1      2720 9.61227E-05-2.78946E-05-2.92321E-05 3.09030E-06-6.28310E-20-6.81937E-19
 -1      2721 9.54720E-05-2.76355E-05-2.90738E-05 2.74497E-06 8.22836E-19-7.17756E-19
 -1      2722 9.61713E-05-2.78265E-05-2.92943E-05 3.47253E-06-7.00061E-19-2.63150E-19
 -1      2723 9.64137E-05-2.78261E-05-2.93853E-05 3.86322E-06-5.93050E-19-6.32356E-19
 -1      2724 9.55539E-05-2.74586E-05-2.91847E-05 3.46034E-06-4.43835E-19 3.42791E-19
 -1      2725 9.64860E-05-2.77802E-05-2.94489E-05 4.30675E-06-2.62977E-19-1.19646E-18
 -1      2726 9.67918E-05-2.78238E-05-2.95478E-05 4.74348E-06-3.83104E-19-1.00467E-18
 -1      2727 9.56729E-05-2.73139E-05-2.92980E-05 4.30278E-06-7.13180E-19 5.35420E-19
 -1      2728 9.69073E-05-2.78274E-05-2.96082E-05 5.23757E-06-4.75267E-19-8.84246E-19
 -1      2729 9.72967E-05-2.79484E-05-2.97109E-05 5.69667E-06 6.13483E-20-9.25904E-19
 -1      2730 9.58579E-05-2.72499E-05-2.94055E-05 5.25947E-06-3.07853E-19 1.49080E-20
 -1      2731 9.74902E-05-2.80461E-05-2.97620E-05 6.21806E-06 2.77012E-19-7.05562E-19
 -1      2732 9.79942E-05-2.82953E-05-2.98621E-05 6.65619E-06 3.47561E-19-6.47399E-19
 -1      2733 9.61615E-05-2.73474E-05-2.94958E-05 6.29859E-06 2.16823E-19 2.16745E-19
 -1      2734 9.83255E-05-2.85556E-05-2.98971E-05 7.16231E-06 6.36981E-19-4.46977E-19
 -1      2735 9.89905E-05-2.90057E-05-2.99870E-05 7.50778E-06 8.36506E-19-2.33940E-19
 -1      2736 9.66755E-05-2.77327E-05-2.95549E-05 7.35949E-06 5.01728E-19 6.00571E-19
 -1      2737 9.95563E-05-2.95256E-05-3.00007E-05 7.92628E-06 3.89212E-19-6.86523E-19
 -1      2738 1.00447E-04-3.02693E-05-3.00743E-05 8.06904E-06 1.09732E-19-9.64508E-19
 -1      2739 9.75524E-05-2.85902E-05-2.95706E-05 8.33784E-06 1.03753E-19 3.85907E-19
 -1      2740 1.01390E-04-3.11688E-05-3.00692E-05 8.28066E-06 3.91403E-19-1.12687E-18
 -1      2741 1.02582E-04-3.22987E-05-3.01281E-05 8.06306E-06 4.80026E-19-1.22555E-18
 -1      2742 9.90276E-05-3.01649E-05-2.95403E-05 9.06079E-06-1.29454E-20-8.06643E-19
 -1      2743 1.04083E-04-3.36879E-05-3.01251E-05 7.87519E-06 3.00913E-19-1.08629E-18
 -1      2744 1.05623E-04-3.52339E-05-3.01890E-05 7.09132E-06 3.65409E-19-4.64751E-19
 -1      2745 1.01426E-04-3.27250E-05-2.94891E-05 9.24409E-06 4.20010E-19-3.39620E-19
 -1      2746 1.07845E-04-3.71203E-05-3.02456E-05 6.21267E-06 3.87686E-19-4.94336E-19
 -1      2747 1.09662E-04-3.89182E-05-3.03661E-05 4.64326E-06 2.61123E-19-1.20250E-19
 -1      2748 1.05103E-04-3.64271E-05-2.95003E-05 8.43102E-06 7.19345E-19-1.13891E-19
 -1      2749 1.12583E-04-4.10137E-05-3.05977E-05 2.67813E-06-1.13842E-19 4.55874E-19
 -1      2750 1.14353E-04-4.24846E-05-3.08717E-05 2.08673E-07-8.94695E-20 6.31322E-19
 -1      2751 1.10266E-04-4.10296E-05-2.97589E-05 5.92745E-06 2.47846E-19 4.09173E-19
 -1      2752 1.17385E-04-4.38952E-05-3.14552E-05-3.00780E-06-2.66680E-19 7.69801E-19
 -1      2753 1.18425E-04-4.40158E-05-3.19917E-05-6.00323E-06-7.04944E-19 1.30071E-18
 -1      2754 1.16285E-04-4.51591E-05-3.05976E-05 8.81574E-07-2.37844E-19 5.96890E-19
 -1      2755 1.20624E-04-4.33199E-05-3.31171E-05-1.03985E-05-1.14941E-18 2.14165E-18
 -1      2756 1.19826E-04-4.06481E-05-3.39980E-05-1.27769E-05-1.39201E-18 2.74719E-18
 -1      2757 1.22050E-04-4.66416E-05-3.24958E-05-6.64397E-06-7.89408E-19 2.02311E-18
 -1      2758 1.19652E-04-3.68028E-05-3.56557E-05-1.59082E-05-1.84234E-18 2.02342E-18
 -1      2759 1.17127E-04-3.13986E-05-3.67522E-05-1.59654E-05-1.23373E-18 1.86565E-18
 -1      2760 1.23751E-04-4.10038E-05-3.56625E-05-1.42853E-05-1.93963E-18 3.29588E-18
 -1      2761 1.14624E-04-2.57147E-05-3.84331E-05-1.44003E-05-4.53427E-19 1.44724E-18
 -1      2762 1.12214E-04-2.09842E-05-3.92265E-05-1.09338E-05 5.21455E-20 1.66932E-18
 -1      2763 1.20293E-04-2.84622E-05-3.94965E-05-1.66380E-05-1.29670E-18 3.22072E-18
 -1      2764 1.10689E-04-1.80086E-05-3.99535E-05-4.67916E-06 1.11639E-18 7.78264E-19
 -1      2765 1.10500E-04-1.79959E-05-3.99133E-05 7.65004E-07 1.60650E-18 9.92218E-19
 -1      2766 1.15643E-04-1.77627E-05-4.22170E-05-8.54249E-06 6.73656E-19 2.67081E-18
 -1      2767 1.12090E-04-2.08973E-05-3.91604E-05 7.00135E-06 8.30198E-19 1.51418E-18
 -1      2768 1.14081E-04-2.55220E-05-3.83046E-05 1.05544E-05 1.01400E-18 1.44205E-18
 -1      2769 1.15514E-04-1.77441E-05-4.22031E-05 4.59533E-06 1.05509E-18 1.23100E-18
 -1      2770 1.16780E-04-3.13893E-05-3.65925E-05 1.21014E-05 8.84197E-19 3.94568E-19
 -1      2771 1.18774E-04-3.66929E-05-3.54257E-05 1.18815E-05-7.81123E-20 8.10551E-19
 -1      2772 1.20271E-04-2.88169E-05-3.93038E-05 1.25074E-05 2.02070E-19 3.36696E-19
 -1      2773 1.19287E-04-4.06282E-05-3.37294E-05 8.99904E-06-6.84254E-19 1.17551E-18
 -1      2774 1.19631E-04-4.32859E-05-3.27802E-05 6.35036E-06-4.12370E-19 6.95361E-19
 -1      2775 1.23452E-04-4.08611E-05-3.54251E-05 1.04345E-05-7.67359E-20-1.96107E-18
 -1      2776 1.17577E-04-4.39420E-05-3.16348E-05 2.15852E-06-3.26968E-19 1.56572E-19
 -1      2777 1.16353E-04-4.38193E-05-3.10407E-05-1.00230E-06 9.09100E-19-1.05931E-18
 -1      2778 1.21659E-04-4.65108E-05-3.22629E-05 2.40552E-06-7.58710E-19-2.73327E-19
 -1      2779 1.13146E-04-4.22276E-05-3.04668E-05-4.34202E-06 1.84010E-18-1.05446E-18
 -1      2780 1.11112E-04-4.05237E-05-3.01744E-05-6.80303E-06 1.84266E-18-1.21738E-18
 -1      2781 1.16123E-04-4.52987E-05-3.04324E-05-5.26842E-06 9.47686E-19-9.62813E-19
 -1      2782 1.08040E-04-3.81684E-05-2.99942E-05-8.71147E-06 2.21551E-18-6.75868E-19
 -1      2783 1.05894E-04-3.59854E-05-2.98912E-05-1.01314E-05 2.26797E-18-7.64767E-19
 -1      2784 1.09715E-04-4.06359E-05-2.96867E-05-1.01933E-05 1.55580E-18-1.31722E-18
 -1      2785 1.03438E-04-3.36603E-05-2.99316E-05-1.07768E-05 1.49746E-18-6.00036E-19
 -1      2786 1.01556E-04-3.16046E-05-2.99337E-05-1.11519E-05 1.05699E-18-1.52690E-18
 -1      2787 1.04162E-04-3.52044E-05-2.96072E-05-1.23859E-05 1.93795E-18-2.19290E-18
 -1      2788 9.44710E-05-2.81276E-05-2.84327E-05-8.82572E-07 2.50640E-19-5.85881E-19
 -1      2789 9.44881E-05-2.80009E-05-2.84833E-05-7.07084E-07 3.70556E-19-5.22576E-19
 -1      2790 9.87955E-05-2.87589E-05-3.00006E-05 1.21267E-05-3.96884E-19-1.94515E-18
 -1      2791 9.97892E-05-2.96443E-05-3.00315E-05 1.01612E-05 2.99621E-20-6.22922E-19
 -1      2792 1.01362E-04-3.12961E-05-3.00621E-05 1.03578E-05 3.30876E-19-1.41503E-18
 -1      2793 9.45488E-05-2.78504E-05-2.85859E-05-4.31539E-07 5.35881E-19-6.20956E-19
 -1      2794 9.46379E-05-2.76640E-05-2.86847E-05-8.82811E-08 7.36647E-19-5.17675E-19
 -1      2795 9.50053E-05-2.79111E-05-2.87630E-05-4.41196E-07 5.00462E-19-7.74299E-19
 -1      2796 9.45119E-05-2.84287E-05-2.83204E-05-1.13883E-06 3.83692E-19-2.42712E-19
 -1      2797 9.44548E-05-2.83661E-05-2.83206E-05-1.13394E-06 3.84601E-19-4.54929E-19
 -1      2798 9.45857E-05-2.85050E-05-2.83192E-05-1.09826E-06 4.26543E-19-1.49183E-19
 -1      2799 9.45154E-05-2.84616E-05-2.83077E-05-1.13003E-06 5.05490E-19-5.27704E-20
 -1      2800 9.48937E-05-2.85671E-05-2.84288E-05-1.16020E-06 3.54035E-19-3.49276E-19
 -1      2801 9.46739E-05-2.85505E-05-2.83375E-05-1.01030E-06 3.00882E-19-1.62467E-20
 -1      2802 9.45994E-05-2.85217E-05-2.83192E-05-1.05950E-06 2.79538E-19-9.28210E-21
 -1      2803 9.49165E-05-2.86353E-05-2.84083E-05-1.12242E-06 3.16114E-19 1.55859E-19
 -1      2804 9.47673E-05-2.85733E-05-2.83677E-05-9.05747E-07 3.09185E-19 1.00370E-19
 -1      2805 9.46935E-05-2.85557E-05-2.83458E-05-9.59023E-07 3.41576E-19 5.69462E-20
 -1      2806 9.49532E-05-2.86654E-05-2.84104E-05-1.03745E-06 3.47115E-19 6.49038E-20
 -1      2807 9.48612E-05-2.85791E-05-2.84052E-05-8.06412E-07 6.87599E-19 1.24706E-19
 -1      2808 9.47902E-05-2.85703E-05-2.83814E-05-8.54311E-07 5.23501E-19 2.21585E-19
 -1      2809 9.49974E-05-2.86685E-05-2.84276E-05-9.37086E-07 4.98605E-19-6.81110E-20
 -1      2810 9.49540E-05-2.85718E-05-2.84479E-05-7.28222E-07 5.51121E-19 2.86211E-19
 -1      2811 9.48859E-05-2.85699E-05-2.84228E-05-7.63783E-07 8.01998E-19 3.35293E-19
 -1      2812 9.50456E-05-2.86518E-05-2.84552E-05-8.44132E-07 5.03972E-19 6.06187E-19
 -1      2813 9.50473E-05-2.85542E-05-2.84951E-05-6.83478E-07 2.44676E-19 6.66148E-19
 -1      2814 9.49803E-05-2.85576E-05-2.84685E-05-7.01213E-07 2.71452E-19 5.39080E-19
 -1      2815 9.50963E-05-2.86199E-05-2.84905E-05-7.75465E-07 3.86913E-19 8.39807E-19
 -1      2816 9.51441E-05-2.85280E-05-2.85474E-05-6.82551E-07 9.57864E-19 3.13563E-19
 -1      2817 9.50753E-05-2.85357E-05-2.85186E-05-6.77686E-07 5.97652E-19 6.06840E-19
 -1      2818 9.51495E-05-2.85753E-05-2.85324E-05-7.44340E-07 5.89739E-19 6.08530E-19
 -1      2819 9.52497E-05-2.84946E-05-2.86064E-05-7.35133E-07 5.21152E-19 7.13227E-19
 -1      2820 9.51750E-05-2.85055E-05-2.85742E-05-7.03064E-07 9.30952E-19 4.32165E-19
 -1      2821 9.52068E-05-2.85195E-05-2.85810E-05-7.62106E-07 7.59841E-19 1.08244E-18
 -1      2822 9.53704E-05-2.84548E-05-2.86744E-05-8.51098E-07-3.79443E-20 7.84817E-19
 -1      2823 9.52848E-05-2.84679E-05-2.86373E-05-7.87023E-07 3.81700E-19 7.79818E-19
 -1      2824 9.52706E-05-2.84525E-05-2.86373E-05-8.39465E-07 4.82527E-19 1.52376E-18
 -1      2825 9.55143E-05-2.84096E-05-2.87545E-05-1.04098E-06-3.52799E-19 3.13551E-19
 -1      2826 9.54117E-05-2.84239E-05-2.87106E-05-9.39726E-07-2.28103E-19 2.60647E-19
 -1      2827 9.53444E-05-2.83741E-05-2.87027E-05-9.87301E-07 6.74748E-20 8.42222E-19
 -1      2828 9.56905E-05-2.83609E-05-2.88499E-05-1.31602E-06 1.79097E-19-1.70143E-19
 -1      2829 9.55640E-05-2.83746E-05-2.87970E-05-1.17209E-06-1.89002E-20 1.19301E-19
 -1      2830 9.54325E-05-2.82842E-05-2.87792E-05-1.21710E-06 1.35656E-19 6.43324E-19
 -1      2831 9.59098E-05-2.83115E-05-2.89638E-05-1.68769E-06-1.83959E-19-3.94469E-19
 -1      2832 9.57514E-05-2.83222E-05-2.88999E-05-1.49561E-06 1.38256E-19-2.76445E-19
 -1      2833 9.55399E-05-2.81832E-05-2.88688E-05-1.54088E-06 2.27231E-19-8.71886E-20
 -1      2834 9.61845E-05-2.82671E-05-2.90993E-05-2.16646E-06 2.98658E-20-3.46627E-19
 -1      2835 9.59854E-05-2.82707E-05-2.90224E-05-1.92152E-06-4.26002E-19-7.43829E-19
 -1      2836 9.56731E-05-2.80734E-05-2.89731E-05-1.97059E-06 3.85823E-21-7.33425E-19
 -1      2837 9.65291E-05-2.82376E-05-2.92584E-05-2.75958E-06 4.56673E-19-1.01169E-19
 -1      2838 9.62793E-05-2.82277E-05-2.91669E-05-2.45917E-06 4.66702E-19-3.01827E-19
 -1      2839 9.58401E-05-2.79610E-05-2.90932E-05-2.51669E-06 2.02063E-19-7.76782E-19
 -1      2840 9.69611E-05-2.82401E-05-2.94415E-05-3.46733E-06-1.60896E-19-3.10545E-19
 -1      2841 9.66494E-05-2.82064E-05-2.93348E-05-3.11318E-06 1.64523E-19 1.88391E-19
 -1      2842 9.60520E-05-2.78580E-05-2.92284E-05-3.18579E-06 1.99188E-19 5.81265E-19
 -1      2843 9.75036E-05-2.83033E-05-2.96464E-05-4.27723E-06-2.30161E-19-1.13584E-18
 -1      2844 9.71170E-05-2.82295E-05-2.95251E-05-3.87881E-06 2.80842E-20-9.58765E-19
 -1      2845 9.63253E-05-2.77872E-05-2.93762E-05-3.97676E-06 2.44444E-19 4.40185E-19
 -1      2846 9.81883E-05-2.84741E-05-2.98670E-05-5.15543E-06-6.13975E-19-3.02228E-19
 -1      2847 9.77114E-05-2.83346E-05-2.97340E-05-4.73503E-06-6.03316E-19-8.63016E-19
 -1      2848 9.66860E-05-2.77880E-05-2.95312E-05-4.87509E-06-5.11476E-19 1.82410E-19
 -1      2849 9.90628E-05-2.88258E-05-3.00928E-05-6.03448E-06 7.88564E-20-4.61366E-19
 -1      2850 9.84756E-05-2.85822E-05-2.99535E-05-5.63416E-06 9.41327E-20-5.70093E-19
 -1      2851 9.71776E-05-2.79259E-05-2.96842E-05-5.84459E-06-4.12475E-19 1.79512E-19
 -1      2852 1.00199E-04-2.94661E-05-3.03091E-05-6.79700E-06 1.54661E-19-4.32087E-20
 -1      2853 9.94753E-05-2.90642E-05-3.01718E-05-6.48750E-06-1.14414E-20 2.31557E-19
 -1      2854 9.78720E-05-2.83030E-05-2.98231E-05-6.81560E-06-1.67999E-19-1.42465E-20
 -1      2855 1.01700E-04-3.05397E-05-3.04997E-05-7.25585E-06 1.78688E-19-2.45681E-19
 -1      2856 1.00809E-04-2.99111E-05-3.03740E-05-7.14597E-06 3.55112E-19-4.74294E-20
 -1      2857 9.88855E-05-2.90689E-05-2.99346E-05-7.66869E-06-7.30341E-20-1.05516E-19
 -1      2858 1.03702E-04-3.22068E-05-3.06548E-05-7.13390E-06 2.74025E-19 4.25128E-19
 -1      2859 1.02613E-04-3.12854E-05-3.05480E-05-7.37663E-06 1.70339E-19 1.57970E-19
 -1      2860 1.00393E-04-3.04205E-05-3.00106E-05-8.21192E-06 9.17302E-21-3.78584E-19
 -1      2861 1.06333E-04-3.45682E-05-3.07870E-05-6.05448E-06 7.21166E-19 5.27571E-19
 -1      2862 1.05045E-04-3.33388E-05-3.06966E-05-6.83999E-06 7.22440E-19 1.02896E-18
 -1      2863 1.02630E-04-3.25688E-05-3.00614E-05-8.14995E-06 2.08034E-19 7.85157E-19
 -1      2864 1.09603E-04-3.74991E-05-3.09543E-05-3.58947E-06-7.50916E-19 1.60731E-18
 -1      2865 1.08201E-04-3.60876E-05-3.08566E-05-5.09885E-06 2.88477E-19 6.63879E-19
 -1      2866 1.05827E-04-3.56201E-05-3.01380E-05-7.05675E-06 1.96499E-19 1.39090E-18
 -1      2867 1.13188E-04-4.03431E-05-3.12902E-05 6.24911E-07-1.82806E-18 2.62179E-18
 -1      2868 1.11962E-04-3.91984E-05-3.11280E-05-1.68067E-06-1.62415E-18 1.91250E-18
 -1      2869 1.10074E-04-3.93671E-05-3.03620E-05-4.40024E-06-1.42896E-18 1.61704E-18
 -1      2870 1.16144E-04-4.16139E-05-3.20036E-05 6.41423E-06 8.45246E-20 1.96561E-18
 -1      2871 1.15599E-04-4.15590E-05-3.16947E-05 3.61365E-06-5.67271E-19 1.88733E-18
 -1      2872 1.14959E-04-4.28205E-05-3.09653E-05 3.83581E-07-1.29539E-18 1.39507E-18
 -1      2873 1.16975E-04-3.93392E-05-3.32720E-05 1.22495E-05 4.64339E-19 1.16113E-18
 -1      2874 1.17590E-04-4.12334E-05-3.27670E-05 9.94266E-06 3.80563E-19 1.96852E-18
 -1      2875 1.18969E-04-4.37724E-05-3.22614E-05 7.17075E-06 4.81470E-19 1.17334E-18
 -1      2876 1.14461E-04-3.24854E-05-3.50821E-05 1.51846E-05 1.21102E-18 8.61691E-20
 -1      2877 1.16415E-04-3.65218E-05-3.44074E-05 1.48504E-05 9.33563E-19 7.64047E-19
 -1      2878 1.20173E-04-3.98991E-05-3.43699E-05 1.41682E-05 1.17545E-18 1.39734E-19
 -1      2879 1.09985E-04-2.40484E-05-3.68208E-05 1.15182E-05 5.70768E-19 9.62334E-19
 -1      2880 1.12070E-04-2.80382E-05-3.62777E-05 1.41770E-05 9.30519E-19 7.21440E-19
 -1      2881 1.17095E-04-3.03932E-05-3.71247E-05 1.63812E-05 4.19758E-19-3.28768E-19
 -1      2882 1.07477E-04-2.01757E-05-3.75429E-05 1.71753E-06-1.33090E-19 1.17853E-18
 -1      2883 1.08052E-04-2.10705E-05-3.74742E-05 6.41724E-06 1.83356E-19 8.73461E-19
 -1      2884 1.12507E-04-2.11117E-05-3.92458E-05 1.02782E-05 1.34599E-19 2.97520E-19
 -1      2885 1.09540E-04-2.44226E-05-3.67399E-05-8.09243E-06 6.93508E-21 4.51399E-19
 -1      2886 1.08257E-04-2.14872E-05-3.72149E-05-4.30393E-06-6.72862E-20 1.59141E-18
 -1      2887 1.11316E-04-1.89946E-05-3.96764E-05-1.68576E-06-2.16576E-19-2.06153E-19
 -1      2888 1.13855E-04-3.30670E-05-3.48626E-05-1.17579E-05 3.63139E-19 7.26572E-19
 -1      2889 1.12001E-04-2.87250E-05-3.56289E-05-1.09113E-05 1.03973E-19 3.72120E-19
 -1      2890 1.14787E-04-2.62064E-05-3.79760E-05-1.09963E-05 1.23667E-19 6.97254E-19
 -1      2891 1.16165E-04-3.95973E-05-3.29077E-05-8.63423E-06-6.95658E-19 4.97030E-19
 -1      2892 1.15262E-04-3.67971E-05-3.35897E-05-1.03423E-05 3.97301E-19 3.65710E-19
 -1      2893 1.18708E-04-3.65221E-05-3.52053E-05-1.20339E-05 7.89249E-19-3.91647E-19
 -1      2894 1.14907E-04-4.14918E-05-3.14608E-05-2.34399E-06 1.02053E-18-2.14363E-18
 -1      2895 1.15320E-04-4.09392E-05-3.19288E-05-5.15293E-06 8.05939E-20-7.20785E-19
 -1      2896 1.19138E-04-4.28017E-05-3.27543E-05-6.23870E-06 6.49502E-19-2.84364E-18
 -1      2897 1.11234E-04-3.96672E-05-3.06191E-05 3.63717E-06 2.21193E-18-2.58185E-18
 -1      2898 1.12597E-04-4.06928E-05-3.08930E-05 1.05971E-06 1.45635E-18-2.72515E-18
 -1      2899 1.15800E-04-4.35025E-05-3.10319E-05 1.15050E-06 1.26160E-18-4.10045E-18
 -1      2900 1.06863E-04-3.61897E-05-3.02296E-05 7.66976E-06 2.01774E-18-2.17045E-18
 -1      2901 1.08568E-04-3.78506E-05-3.03725E-05 5.97404E-06 2.30842E-18-1.61758E-18
 -1      2902 1.10684E-04-4.03905E-05-3.01814E-05 6.86760E-06 1.28244E-18-3.32329E-18
 -1      2903 1.03157E-04-3.29547E-05-3.00471E-05 9.77093E-06 1.24142E-18-1.74768E-18
 -1      2904 1.04871E-04-3.47102E-05-3.01193E-05 9.04953E-06 1.38653E-18-2.02308E-18
 -1      2905 1.06061E-04-3.65095E-05-2.98528E-05 1.03644E-05 1.67595E-18-1.73038E-18
 -1      2906 1.02214E-04-3.27554E-05-2.97921E-05 1.21386E-05 3.51172E-19-3.03187E-18
 -1      2907 8.20059E-05-1.48335E-05-2.88394E-05 2.06386E-06-4.80427E-19 8.05542E-19
 -1      2908 8.27497E-05-1.53746E-05-2.88704E-05 5.43254E-06-2.96390E-19-5.48426E-19
 -1      2909 1.00256E-04-3.01902E-05-3.00354E-05-1.09767E-05 1.16841E-18-1.41766E-18
 -1      2910 9.91496E-05-2.89468E-05-3.00578E-05-1.07011E-05 2.95325E-19-1.66145E-18
 -1      2911 1.00493E-04-3.10098E-05-2.98161E-05-1.26246E-05 1.05167E-18-2.79945E-18
 -1      2912 8.86651E-05-2.03645E-05-2.93494E-05 1.34194E-05-6.00370E-19-9.19722E-19
 -1      2913 9.09457E-05-2.21084E-05-2.94328E-05 1.45150E-05-1.60936E-20-7.62094E-20
 -1      2914 8.27804E-05-1.54024E-05-2.88731E-05-5.49440E-06 1.14238E-18 3.31589E-18
 -1      2915 8.20262E-05-1.48525E-05-2.88411E-05-2.14162E-06 1.25003E-19 2.16255E-18
 -1      2916 8.01336E-05-1.56228E-05-2.75774E-05-5.10971E-08 1.00995E-18 1.60037E-18
 -1      2917 8.43481E-05-1.68181E-05-2.90244E-05 8.99227E-06-1.57186E-18-1.44717E-18
 -1      2918 8.62520E-05-1.82209E-05-2.91019E-05 1.14392E-05-8.22040E-19-9.56649E-19
 -1      2919 8.68221E-05-2.08675E-05-2.82485E-05 1.39672E-05-1.02724E-18-5.55604E-19
 -1      2920 8.20498E-05-1.71264E-05-2.77610E-05 8.20520E-06 1.86650E-19-5.62415E-19
 -1      2921 1.40049E-04-5.92232E-05-3.50698E-05 8.41235E-06 6.03405E-19-3.47326E-18
 -1      2922 1.31973E-04-6.13477E-05-3.02107E-05 1.75767E-05-2.30711E-19-3.99260E-18
 -1      2923 9.47054E-05-2.19076E-05-3.12058E-05 7.84816E-06 1.69118E-18-1.40177E-19
 -1      2924 8.62091E-05-1.81855E-05-2.90994E-05-1.14028E-05 1.05050E-18 3.30796E-18
 -1      2925 8.43427E-05-1.68128E-05-2.90236E-05-8.99071E-06 5.91480E-19 4.78937E-18
 -1      2926 8.20589E-05-1.71315E-05-2.77617E-05-8.20331E-06 1.80882E-18 3.90470E-18
 -1      2927 9.09081E-05-2.20801E-05-2.94310E-05-1.45070E-05 2.62923E-19 4.99050E-19
 -1      2928 8.86257E-05-2.03339E-05-2.93473E-05-1.34011E-05 5.93642E-19 1.17389E-18
 -1      2929 8.67518E-05-2.08278E-05-2.82436E-05-1.39507E-05-6.93189E-19 1.60187E-18
 -1      2930 9.51364E-05-2.56157E-05-2.97349E-05-1.46100E-05 8.31019E-20-1.04859E-18
 -1      2931 9.32125E-05-2.40526E-05-2.96854E-05-1.47834E-05 6.69283E-19-6.55464E-19
 -1      2932 9.23473E-05-2.50857E-05-2.88564E-05-1.61314E-05 3.63811E-19 6.01259E-19
 -1      2933 9.43320E-05-2.08732E-05-3.15171E-05-8.24870E-06-1.24219E-18-1.30197E-18
 -1      2934 9.47176E-05-2.26478E-05-3.09120E-05-6.40962E-06-1.16144E-18-1.09630E-18
 -1      2935 9.87676E-05-5.30739E-05-1.91689E-05-3.94517E-05 4.15152E-19 2.36899E-18
 -1      2936 1.13796E-04-5.90647E-05-2.36373E-05-3.40565E-05 5.36172E-19 2.59641E-18
 -1      2937 8.15737E-05-4.24923E-05-1.68480E-05 4.02372E-05-2.55910E-19 5.78735E-19
 -1      2938 6.56589E-05-3.36715E-05-1.31032E-05 3.70635E-05 3.26637E-19 1.95103E-18
 -1      2939 5.46789E-05-2.69340E-05-1.15253E-05 3.27715E-05 1.31375E-18 1.55102E-18
 -1      2940 4.46816E-05-2.01222E-05-9.96991E-06 2.28056E-05 1.83621E-18 3.97894E-19
 -1      2941 6.71159E-05-2.87968E-05-1.58937E-05 3.12409E-05 7.86258E-19-5.51736E-19
 -1      2942 1.37580E-04-5.49903E-05-3.60033E-05-5.61379E-07-1.37794E-18 2.94132E-18
 -1      2943 1.33268E-04-5.96936E-05-3.12780E-05 1.01341E-05-5.94008E-19 2.55740E-18
 -1      2944 4.91131E-05-2.64703E-05-9.07606E-06-3.13374E-05-9.37242E-19-1.62694E-18
 -1      2945 6.33158E-05-3.52058E-05-1.19437E-05-3.82184E-05-6.21087E-19-1.97666E-18
 -1      2946 1.39471E-04-5.68870E-05-3.53420E-05-5.45997E-06 5.40910E-20 1.56691E-18
 -1      2947 1.41389E-04-4.83354E-05-4.05915E-05 3.84944E-06-7.88376E-19-5.52689E-20
 -1      2948 9.47196E-05-2.74138E-05-2.88481E-05 3.94715E-07 7.85309E-19-4.16346E-19
 -1      2949 9.49001E-05-2.71205E-05-2.90207E-05 9.99678E-07 9.32791E-19-2.50081E-19
 -1      2950 9.51276E-05-2.73823E-05-2.90432E-05 3.82396E-07 8.30101E-19-6.24738E-19
 -1      2951 9.44669E-05-2.83093E-05-2.83525E-05-1.08802E-06 3.72717E-19-5.27815E-19
 -1      2952 9.44369E-05-2.82205E-05-2.83721E-05-1.01849E-06 3.06924E-19-6.48298E-19
 -1      2953 9.49275E-05-2.82397E-05-2.85868E-05-8.96145E-07 2.81506E-19-6.36318E-19
 -1      2954 9.48937E-05-2.84441E-05-2.84829E-05-1.10595E-06 2.70537E-19-5.21375E-19
 -1      2955 9.52675E-05-2.41017E-05-3.04818E-05-5.16520E-06-1.07513E-18-9.86160E-19
 -1      2956 9.51742E-05-2.50823E-05-3.00577E-05-3.67778E-06-9.86496E-19-9.81577E-19
 -1      2957 9.52253E-05-2.47657E-05-3.01893E-05-3.43580E-06-8.79956E-19-1.06910E-18
 -1      2958 9.45858E-05-2.23741E-05-3.09411E-05-5.69906E-06-1.04945E-18-1.21015E-18
 -1      2959 1.38466E-04-3.63658E-05-4.39248E-05 1.07730E-05-1.56595E-18-1.03094E-18
 -1      2960 1.34856E-04-2.68704E-05-4.70750E-05 1.10351E-05-1.17208E-18-1.32624E-18
 -1      2961 9.11810E-05-1.60929E-05-3.22085E-05 4.92193E-06 1.32900E-18-1.39514E-18
 -1      2962 9.08390E-05-1.55943E-05-3.22694E-05 3.99903E-06 1.07799E-18-1.50313E-18
 -1      2963 9.18180E-05-1.72061E-05-3.19612E-05 3.20210E-06 9.21143E-19-1.48918E-18
 -1      2964 9.24846E-05-1.82652E-05-3.17885E-05 4.62075E-06 1.14941E-18-1.27481E-18
 -1      2965 1.18798E-04-5.96293E-05-2.55608E-05 2.93693E-05-8.20828E-19-2.11050E-18
 -1      2966 1.02480E-04-5.29668E-05-2.06833E-05 3.67934E-05-4.50833E-19-1.33011E-19
 -1      2967 1.31913E-04-1.62186E-05-5.00272E-05 8.35262E-06-6.56874E-19-1.38808E-19
 -1      2968 1.31122E-04-1.15056E-05-5.19961E-05 2.93816E-06-1.21803E-18 3.11364E-19
 -1      2969 9.08023E-05-1.55451E-05-3.22744E-05-3.93435E-06-2.05913E-19-1.88890E-18
 -1      2970 9.11376E-05-1.60314E-05-3.22151E-05-4.85814E-06-4.25931E-19-1.87464E-18
 -1      2971 4.60374E-05-2.07154E-05-1.03511E-05-2.37733E-05 1.65780E-18 2.60886E-18
 -1      2972 5.79538E-05-3.00376E-05-1.14380E-05-3.60718E-05 1.06906E-18 3.20496E-18
 -1      2973 9.49768E-05-2.66909E-05-2.92709E-05 1.78821E-06 1.19046E-18-2.33584E-19
 -1      2974 9.52442E-05-2.61941E-05-2.95560E-05 2.79498E-06 1.31501E-18-1.43082E-19
 -1      2975 9.52692E-05-2.50232E-05-3.01033E-05 3.82698E-06 1.38563E-18-4.69204E-19
 -1      2976 9.52525E-05-2.65061E-05-2.94703E-05 1.74289E-06 1.16212E-18-4.84699E-19
 -1      2977 1.39497E-04-5.42880E-05-3.64638E-05 1.11086E-06 1.66042E-18-8.14846E-19
 -1      2978 1.40491E-04-4.77524E-05-4.03717E-05 6.94244E-06 1.86967E-18-5.48030E-19
 -1      2979 1.39560E-04-3.99912E-05-4.29817E-05 1.25136E-05 2.05141E-18-8.79961E-19
 -1      2980 1.36693E-04-3.13081E-05-4.59219E-05 1.44900E-05 1.78089E-18-8.83985E-19
 -1      2981 1.35692E-04-4.34777E-05-3.95345E-05 1.30726E-05 1.82054E-18 1.52466E-20
 -1      2982 1.28841E-04-1.00426E-05-5.16295E-05 1.23135E-06 2.04029E-18-1.94690E-18
 -1      2983 1.30925E-04-1.26924E-05-5.11894E-05-5.61323E-06 2.16205E-18-2.44655E-18
 -1      2984 5.88968E-05-3.28081E-05-1.10656E-05 3.71637E-05-4.69044E-19-2.87165E-18
 -1      2985 4.30266E-05-2.36047E-05-7.73291E-06 2.80878E-05-5.59148E-19-2.82168E-18
 -1      2986 3.01966E-05-1.54276E-05-5.79320E-06-1.08314E-05-4.52792E-19-1.55134E-18
 -1      2987 3.69911E-05-1.93204E-05-7.18564E-06-2.26712E-05-1.16525E-18-1.39951E-18
 -1      2988 9.82367E-05-2.81163E-05-3.00618E-05-1.18887E-05 1.97231E-19-3.20859E-18
 -1      2989 3.34891E-05-1.66817E-05-6.74301E-06 1.71576E-05-4.27910E-19-2.40134E-18
 -1      2990 2.94875E-05-1.37783E-05-6.14346E-06 1.75106E-06-3.72919E-19-1.84547E-18
 -1      2991 9.53804E-05-5.12061E-05-1.89467E-05 3.72867E-05 2.63110E-19 6.49568E-19
 -1      2992 7.93240E-05-4.28294E-05-1.50393E-05 3.81607E-05-1.72901E-19-8.43010E-19
 -1      2993 1.22749E-04-6.06018E-05-2.70080E-05 2.31252E-05-2.03076E-19 1.34345E-18
 -1      2994 1.09713E-04-5.69354E-05-2.22502E-05 3.10793E-05 8.37504E-20 9.48234E-19
 -1      2995 1.04690E-04-5.27801E-05-2.19049E-05 3.03611E-05 7.85358E-19 1.75847E-18
 -1      2996 1.37884E-04-3.86243E-05-4.31703E-05-1.35881E-05-1.65870E-18 2.90659E-18
 -1      2997 1.38639E-04-4.55614E-05-3.99868E-05-1.03937E-05-1.40179E-18 3.46680E-18
 -1      2998 1.32104E-04-1.78355E-05-4.96507E-05-1.23116E-05-1.30951E-18 2.54608E-18
 -1      2999 1.33416E-04-2.68652E-05-4.60385E-05-1.54417E-05-1.50486E-18 3.26489E-18
 -1      3000 1.30567E-04-9.74846E-06-5.24157E-05-2.23798E-06-8.41527E-19 1.55757E-18
 -1      3001 1.30720E-04-1.13600E-05-5.17816E-05-7.74083E-06-5.32995E-19 2.15448E-18
 -1      3002 9.20380E-05-1.66591E-05-3.23127E-05-9.02730E-06-1.14350E-18-1.66126E-18
 -1      3003 1.26703E-04-6.16847E-05-2.75620E-05-2.39332E-05-5.86570E-20 1.58506E-18
 -1      3004 1.34057E-04-6.20779E-05-3.12911E-05-1.68130E-05-4.87415E-19 6.88585E-19
 -1      3005 7.11139E-05-3.90364E-05-1.33513E-05-4.04699E-05 2.15040E-19 2.93867E-18
 -1      3006 8.60319E-05-4.71317E-05-1.64892E-05-4.24943E-05 6.30298E-19 2.20599E-18
 -1      3007 9.64006E-05-4.92101E-05-1.98505E-05-3.77143E-05 1.00268E-19 2.84153E-18
 -1      3008 3.84619E-05-1.57196E-05-9.23962E-06 1.08300E-05 1.97525E-18 1.24387E-18
 -1      3009 3.90171E-05-1.45427E-05-1.00310E-05-5.84454E-06 1.55102E-18 1.91006E-18
 -1      3010 5.14390E-05-1.78157E-05-1.38039E-05 1.48682E-05 1.51311E-18 3.15520E-20
 -1      3011 1.34346E-04-1.98155E-05-4.99040E-05-9.49158E-06 1.30443E-18-2.89050E-18
 -1      3012 1.39918E-04-2.95880E-05-4.74931E-05-1.02418E-05 9.41901E-19-2.44284E-18
 -1      3013 1.36204E-04-3.50391E-05-4.35047E-05-1.17317E-05 3.56601E-19-3.72207E-18
 -1      3014 9.15613E-05-1.66721E-05-3.21146E-05-5.58708E-06-5.55450E-19-1.78299E-18
 -1      3015 9.20366E-05-1.73730E-05-3.20225E-05-6.41880E-06-7.81212E-19-1.73339E-18
 -1      3016 9.24333E-05-1.81887E-05-3.17979E-05-4.58239E-06-4.84730E-19-1.67114E-18
 -1      3017 9.12953E-05-1.63978E-05-3.20868E-05 2.88795E-08 4.53757E-19-1.53213E-18
 -1      3018 9.01719E-05-1.46077E-05-3.24041E-05-3.83271E-07 4.06628E-19-1.73267E-18
 -1      3019 9.02285E-05-1.46879E-05-3.23941E-05-1.34168E-06 2.55867E-19-1.76690E-18
 -1      3020 1.01619E-04-5.00449E-05-2.19331E-05-2.99647E-05 5.95994E-19-2.47416E-18
 -1      3021 1.11816E-04-5.64430E-05-2.33925E-05-2.87154E-05 6.97532E-19-2.78757E-18
 -1      3022 1.19402E-04-5.79385E-05-2.65597E-05-1.99855E-05 9.93173E-19-2.19527E-18
 -1      3023 7.70222E-05-3.83970E-05-1.60841E-05-3.50930E-05 1.72901E-19-2.14029E-18
 -1      3024 1.30671E-04-2.58161E-05-4.52260E-05 1.58442E-05 1.23349E-18-1.92276E-18
 -1      3025 1.38888E-04-5.40192E-05-3.66025E-05 3.10057E-07 1.54716E-19-2.14342E-18
 -1      3026 9.48523E-05-4.58686E-05-2.05816E-05 3.47957E-05-7.71806E-19-3.84791E-19
 -1      3027 9.23837E-05-2.51135E-05-2.88595E-05 1.61458E-05 6.99371E-19-8.70104E-19
 -1      3028 9.32163E-05-2.40619E-05-2.96862E-05 1.47641E-05 1.09865E-18 1.28130E-21
 -1      3029 9.52030E-05-2.56982E-05-2.97323E-05 1.46936E-05 1.45018E-18-6.12441E-19
 -1      3030 1.28960E-04-5.85566E-05-3.03579E-05 1.30096E-05 1.81020E-19-2.42842E-18
 -1      3031 1.25955E-04-6.05261E-05-2.79163E-05 2.16236E-05-1.69354E-19-3.12439E-18
 -1      3032 1.17781E-04-5.61184E-05-2.63474E-05 2.44630E-05-1.24196E-19-2.28228E-18
 -1      3033 7.16469E-05-3.42001E-05-1.55639E-05-3.54210E-05 1.73451E-18 2.84084E-18
 -1      3034 3.72023E-05-1.39917E-05-9.30896E-06-3.19546E-06-1.11107E-19-1.89439E-18
 -1      3035 9.76502E-05-2.77690E-05-2.99701E-05 1.31520E-05-1.29245E-19-9.66735E-19
 -1      3036 5.12053E-05-1.51391E-05-1.53261E-05-6.15262E-06 4.69574E-19 2.78282E-18
 -1      3037 4.71787E-05-1.69364E-05-1.23648E-05-1.45004E-05 1.06112E-18 2.11652E-18
 -1      3038 5.79127E-05-2.05052E-05-1.57286E-05-2.13990E-05 6.27109E-19 2.52553E-18
 -1      3039 9.43537E-05-2.14240E-05-3.12596E-05 7.22290E-06 1.65411E-18-5.38862E-19
 -1      3040 1.24531E-04-1.17904E-05-4.87634E-05 6.90609E-07 6.98802E-20 1.63189E-18
 -1      3041 1.28130E-04-2.23940E-05-4.56925E-05 1.07650E-05-4.31987E-19-1.03073E-18
 -1      3042 1.35332E-04-5.81439E-05-3.31060E-05-7.17324E-06-5.62748E-20 6.59892E-19
 -1      3043 9.71224E-05-2.70185E-05-3.00482E-05-1.29223E-05 3.51960E-19-3.56135E-18
 -1      3044 1.25004E-04-1.61675E-05-4.71109E-05-1.06641E-05-6.08381E-19 3.01178E-18
 -1      3045 9.46171E-05-2.24689E-05-3.09125E-05 5.70030E-06 1.51448E-18-6.25491E-19
 -1      3046 1.19701E-04-5.88728E-05-2.59136E-05-2.68134E-05 3.08638E-20 2.67214E-18
 -1      3047 1.26354E-04-5.87431E-05-2.89173E-05 1.41858E-05-1.37855E-19 2.06512E-18
 -1      3048 1.35254E-04-5.02278E-05-3.64840E-05-7.18423E-06-1.31188E-18 3.20337E-18
 -1      3049 7.31937E-05-3.66279E-05-1.52239E-05 3.49495E-05 2.67451E-19-1.02576E-18
 -1      3050 9.91653E-05-2.98596E-05-2.96592E-05-1.37522E-05 6.28420E-19-3.54103E-18
 -1      3051 9.67221E-05-2.72927E-05-2.97852E-05-1.42831E-05 8.48605E-20-2.46038E-18
 -1      3052 9.69916E-05-2.87650E-05-2.92587E-05-1.57564E-05 4.43260E-19-1.57183E-18
 -1      3053 1.00492E-04-3.15713E-05-2.95342E-05-1.39701E-05 7.67650E-19-3.14103E-18
 -1      3054 4.87636E-05-2.23412E-05-1.07075E-05-2.56430E-05-4.86515E-19-2.02504E-18
 -1      3055 9.03533E-05-1.48788E-05-3.23663E-05-2.17966E-06 1.00126E-19-1.69761E-18
 -1      3056 9.05367E-05-1.51416E-05-3.23340E-05-3.13118E-06-8.93009E-20-1.81004E-18
 -1      3057 9.17878E-05-1.71633E-05-3.19662E-05-3.14552E-06-1.74539E-19-1.73022E-18
 -1      3058 9.14137E-05-1.65814E-05-3.20580E-05-1.58489E-06 1.25021E-19-1.59298E-18
 -1      3059 1.35864E-04-4.27142E-05-4.00486E-05 9.09423E-06-1.13979E-18-1.44758E-18
 -1      3060 9.28207E-05-1.84313E-05-3.18794E-05-7.47513E-06-9.62102E-19-1.59306E-18
 -1      3061 1.27485E-04-1.77439E-05-4.73829E-05-8.33651E-06 8.20563E-19-3.88560E-18
 -1      3062 1.24973E-04-1.24418E-05-4.86767E-05 4.77473E-06 1.38723E-18-2.11089E-18
 -1      3063 4.55518E-05-1.94815E-05-1.05460E-05 2.09154E-05-3.58930E-19-2.94990E-18
 -1      3064 1.34986E-04-5.76182E-05-3.30964E-05-3.92218E-06 1.76538E-18-8.73926E-19
 -1      3065 1.31058E-04-3.11767E-05-4.29112E-05-1.61888E-05-1.16160E-18 4.42670E-18
 -1      3066 9.42852E-05-2.18796E-05-3.10594E-05 4.96456E-06 1.30720E-18-7.18968E-19
 -1      3067 9.38098E-05-2.09081E-05-3.12451E-05 4.62508E-06 1.11805E-18-8.40553E-19
 -1      3068 1.18766E-04-1.32582E-05-4.55756E-05 2.28148E-06 7.48036E-19 9.64546E-19
 -1      3069 1.18530E-04-1.27527E-05-4.58895E-05-4.11847E-06 7.21672E-19 2.14335E-18
 -1      3070 9.56810E-05-2.68812E-05-2.94714E-05-7.54553E-07-4.10272E-19-8.35256E-19
 -1      3071 9.56565E-05-2.73274E-05-2.92920E-05-2.28345E-07-4.12405E-19-9.49112E-19
 -1      3072 9.57022E-05-2.77134E-05-2.91267E-05 1.53282E-07-4.97352E-19-7.38554E-19
 -1      3073 9.56654E-05-2.79996E-05-2.90043E-05 4.68664E-07-5.40919E-19-8.06444E-19
 -1      3074 9.58996E-05-2.73299E-05-2.93898E-05-1.70736E-07-3.54018E-19-9.50368E-19
 -1      3075 9.56580E-05-2.82371E-05-2.88868E-05 6.90699E-07-5.23504E-19-8.07710E-19
 -1      3076 9.56260E-05-2.84165E-05-2.88062E-05 8.59692E-07-4.60294E-19-7.57136E-19
 -1      3077 9.59429E-05-2.80549E-05-2.90985E-05 4.64974E-07-5.18419E-19-5.82758E-19
 -1      3078 9.55942E-05-2.85563E-05-2.87253E-05 9.70273E-07-2.84627E-19-7.79337E-19
 -1      3079 9.55714E-05-2.86645E-05-2.86750E-05 1.04175E-06-2.01348E-19-6.25573E-19
 -1      3080 9.59093E-05-2.85026E-05-2.88921E-05 8.24787E-07-4.40363E-19-6.71495E-19
 -1      3081 9.55298E-05-2.87390E-05-2.86216E-05 1.07824E-06-1.87194E-19-3.31214E-19
 -1      3082 9.55159E-05-2.87985E-05-2.85928E-05 1.08852E-06-2.20505E-19-6.25346E-20
 -1      3083 9.58412E-05-2.87638E-05-2.87505E-05 9.93009E-07-7.49894E-21-5.58312E-19
 -1      3084 9.54721E-05-2.88291E-05-2.85597E-05 1.07964E-06-4.06796E-19 1.37684E-19
 -1      3085 9.54653E-05-2.88549E-05-2.85463E-05 1.05517E-06-2.15408E-19 4.18115E-20
 -1      3086 9.57603E-05-2.88979E-05-2.86578E-05 1.03665E-06-1.21708E-19-3.48940E-19
 -1      3087 9.54229E-05-2.88558E-05-2.85283E-05 1.02234E-06-2.91651E-19 5.70226E-20
 -1      3088 9.54213E-05-2.88581E-05-2.85257E-05 9.82193E-07-4.02647E-19-4.39072E-20
 -1      3089 9.56775E-05-2.89451E-05-2.86016E-05 1.00694E-06-3.65039E-19-1.30851E-19
 -1      3090 9.53818E-05-2.88385E-05-2.85189E-05 9.41134E-07-3.27509E-19 1.34701E-20
 -1      3091 9.53838E-05-2.88239E-05-2.85240E-05 8.99112E-07-1.19159E-19 1.31266E-19
 -1      3092 9.55982E-05-2.89324E-05-2.85727E-05 9.42021E-07-3.32437E-19-3.02693E-20
 -1      3093 9.53475E-05-2.87898E-05-2.85256E-05 8.61377E-07-8.01313E-20 1.99148E-19
 -1      3094 9.53521E-05-2.87625E-05-2.85365E-05 8.27663E-07 6.29617E-20 1.47390E-19
 -1      3095 9.55242E-05-2.88775E-05-2.85641E-05 8.69966E-07-3.94247E-21 2.44767E-19
 -1      3096 9.53182E-05-2.87172E-05-2.85445E-05 8.01971E-07-6.89479E-20-6.81601E-20
 -1      3097 9.53248E-05-2.86797E-05-2.85601E-05 7.84399E-07-4.43126E-19-7.81637E-20
 -1      3098 9.54552E-05-2.87915E-05-2.85711E-05 8.11707E-07-1.16306E-19-4.61192E-19
 -1      3099 9.52921E-05-2.86245E-05-2.85734E-05 7.77687E-07-8.32251E-19-6.71190E-20
 -1      3100 9.53004E-05-2.85779E-05-2.85930E-05 7.82719E-07-8.64155E-19-3.88084E-19
 -1      3101 9.53892E-05-2.86801E-05-2.85903E-05 7.83407E-07-5.69570E-19-6.14734E-20
 -1      3102 9.52669E-05-2.85129E-05-2.86107E-05 8.00961E-07-8.58624E-19-3.18477E-19
 -1      3103 9.52768E-05-2.84572E-05-2.86344E-05 8.34411E-07-8.74139E-19-2.58467E-19
 -1      3104 9.53233E-05-2.85455E-05-2.86195E-05 7.98340E-07-9.84637E-19-2.70768E-19
 -1      3105 9.52404E-05-2.83814E-05-2.86561E-05 8.83220E-07-1.08527E-18-2.11807E-20
 -1      3106 9.52522E-05-2.83161E-05-2.86839E-05 9.50757E-07-1.04573E-18 1.82582E-19
 -1      3107 9.52535E-05-2.83869E-05-2.86574E-05 8.68324E-07-8.93566E-19 1.17187E-19
 -1      3108 9.52102E-05-2.82278E-05-2.87094E-05 1.03579E-06-9.60476E-19 1.57132E-19
 -1      3109 9.52241E-05-2.81521E-05-2.87417E-05 1.14323E-06-8.68252E-19 4.31897E-19
 -1      3110 9.51752E-05-2.82016E-05-2.87030E-05 1.00474E-06-1.02112E-18 3.72823E-19
 -1      3111 9.51736E-05-2.80494E-05-2.87707E-05 1.27041E-06-5.22297E-19 4.07251E-19
 -1      3112 9.51902E-05-2.79626E-05-2.88079E-05 1.42377E-06-4.68342E-19 7.50603E-19
 -1      3113 9.50828E-05-2.79860E-05-2.87555E-05 1.21915E-06-4.32297E-19 4.43066E-19
 -1      3114 9.51281E-05-2.78441E-05-2.88398E-05 1.59929E-06-4.71784E-19 7.21590E-19
 -1      3115 9.51482E-05-2.77464E-05-2.88819E-05 1.80461E-06 4.00625E-19 5.48161E-19
 -1      3116 9.49704E-05-2.77368E-05-2.88138E-05 1.52353E-06-2.18832E-19 4.67070E-19
 -1      3117 9.50715E-05-2.76116E-05-2.89159E-05 2.03476E-06 7.32224E-19 3.26534E-19
 -1      3118 9.50968E-05-2.75050E-05-2.89626E-05 2.29765E-06 9.49750E-19-1.91623E-20
 -1      3119 9.48320E-05-2.74521E-05-2.88761E-05 1.93010E-06 2.01986E-19 4.60971E-19
 -1      3120 9.50033E-05-2.73561E-05-2.89970E-05 2.58838E-06 1.16709E-18-6.23036E-20
 -1      3121 9.50366E-05-2.72458E-05-2.90472E-05 2.91314E-06 6.42573E-19 1.42873E-19
 -1      3122 9.46625E-05-2.71340E-05-2.89394E-05 2.45074E-06 8.57494E-19 2.74354E-19
 -1      3123 9.49261E-05-2.70889E-05-2.90791E-05 3.26946E-06-1.05399E-19 4.61730E-19
 -1      3124 9.49729E-05-2.69856E-05-2.91307E-05 3.65782E-06-4.97310E-19 3.58704E-19
 -1      3125 9.44595E-05-2.67917E-05-2.89985E-05 3.09607E-06 6.65332E-19-1.94614E-19
 -1      3126 9.48495E-05-2.68340E-05-2.91560E-05 4.08296E-06-7.81685E-19 1.04475E-18
 -1      3127 9.49204E-05-2.67569E-05-2.92054E-05 4.53226E-06-6.67534E-19 1.25855E-18
 -1      3128 9.42261E-05-2.64464E-05-2.90462E-05 3.87422E-06-3.90173E-19 1.44275E-19
 -1      3129 9.47958E-05-2.66352E-05-2.92183E-05 5.02668E-06-8.29311E-19 1.00395E-18
 -1      3130 9.49106E-05-2.66171E-05-2.92601E-05 5.52744E-06-4.64506E-19 9.40680E-19
 -1      3131 9.39774E-05-2.61384E-05-2.90716E-05 4.78942E-06-7.63131E-19 1.31257E-18
 -1      3132 9.48107E-05-2.65670E-05-2.92531E-05 6.08757E-06 9.35130E-20 4.89943E-19
 -1      3133 9.50050E-05-2.66607E-05-2.92805E-05 6.62019E-06 4.55348E-19 8.39735E-19
 -1      3134 9.37489E-05-2.59375E-05-2.90607E-05 5.84063E-06-2.71281E-19 1.22133E-18
 -1      3135 9.49795E-05-2.67488E-05-2.92450E-05 7.23658E-06 5.52528E-19 7.01121E-19
 -1      3136 9.53144E-05-2.70352E-05-2.92507E-05 7.76669E-06 5.82144E-19 6.54771E-19
 -1      3137 9.36124E-05-2.59573E-05-2.89964E-05 7.02007E-06 4.45544E-19 1.01601E-18
 -1      3138 9.54507E-05-2.73619E-05-2.91788E-05 8.42031E-06-9.19870E-20 9.22946E-19
 -1      3139 9.60251E-05-2.79567E-05-2.91576E-05 8.89135E-06-8.58920E-19 4.10613E-19
 -1      3140 9.36988E-05-2.63733E-05-2.88611E-05 8.31034E-06 2.28699E-19 4.89319E-19
 -1      3141 9.64689E-05-2.86635E-05-2.90468E-05 9.54374E-06-9.80022E-19 6.86931E-19
 -1      3142 9.74299E-05-2.97173E-05-2.90020E-05 9.86330E-06-1.07123E-19 8.59522E-19
 -1      3143 9.42320E-05-2.74421E-05-2.86427E-05 9.67533E-06-6.93682E-19 1.21959E-18
 -1      3144 9.84074E-05-3.09827E-05-2.88643E-05 1.04310E-05 4.59030E-19 4.14855E-19
 -1      3145 9.99432E-05-3.26564E-05-2.88191E-05 1.04465E-05 5.78693E-19 6.95131E-19
 -1      3146 9.55717E-05-2.95131E-05-2.83483E-05 1.10317E-05-1.83961E-19 1.42523E-18
 -1      3147 1.01774E-04-3.46562E-05-2.87011E-05 1.07306E-05 4.64121E-19 3.31850E-19
 -1      3148 1.04065E-04-3.70187E-05-2.87198E-05 1.01863E-05 5.81260E-19 1.19894E-19
 -1      3149 9.82638E-05-3.30110E-05-2.80324E-05 1.21647E-05 3.23207E-19 8.44091E-19
 -1      3150 1.07078E-04-3.97969E-05-2.87335E-05 9.83019E-06 6.25881E-19 9.58909E-20
 -1      3151 1.10161E-04-4.26359E-05-2.89450E-05 8.33295E-06-1.11659E-19 2.67796E-19
 -1      3152 1.02943E-04-3.81929E-05-2.78572E-05 1.25404E-05 5.83290E-19 5.19595E-19
 -1      3153 1.14656E-04-4.58753E-05-2.93227E-05 6.59222E-06-2.99749E-19 7.70036E-19
 -1      3154 1.18294E-04-4.80661E-05-3.00201E-05 3.42239E-06-1.55854E-19 9.42291E-19
 -1      3155 1.10343E-04-4.50469E-05-2.81548E-05 1.12564E-05 7.87840E-20 7.07286E-19
 -1      3156 1.19810E-04-1.58019E-05-4.50142E-05-1.03057E-05-9.56088E-20 2.88367E-18
 -1      3157 1.20658E-04-1.80873E-05-4.45952E-05 8.40423E-06 1.07150E-19 2.99903E-20
 -1      3158 1.23532E-04-2.56174E-05-4.21694E-05 1.20877E-05 5.03985E-20-7.36363E-19
 -1      3159 1.26464E-04-3.45370E-05-4.00299E-05 1.30739E-05-6.48986E-19-1.45039E-18
 -1      3160 1.25645E-04-5.03695E-05-3.23369E-05 1.34477E-07-9.24523E-20-1.63919E-18
 -1      3161 1.23404E-04-5.06271E-05-3.10805E-05-3.88026E-06 1.94928E-19-7.99864E-19
 -1      3162 1.18350E-04-4.85101E-05-2.99918E-05-7.95773E-06-1.65324E-19 2.85212E-20
 -1      3163 1.14986E-04-4.60399E-05-2.94059E-05-1.07845E-05 7.46358E-19-7.80112E-19
 -1      3164 1.21225E-04-5.20033E-05-2.98290E-05-1.03420E-05 5.98171E-19-1.61370E-18
 -1      3165 1.10608E-04-4.27037E-05-2.91266E-05-1.26230E-05 1.09064E-18-5.13201E-19
 -1      3166 1.07410E-04-3.95249E-05-2.89972E-05-1.40259E-05 9.29263E-19-8.24878E-19
 -1      3167 1.11674E-04-4.53728E-05-2.85406E-05-1.53869E-05 9.97461E-19-6.43494E-19
 -1      3168 1.04796E-04-3.67758E-05-2.91531E-05-1.41282E-05 6.45930E-19-1.09098E-18
 -1      3169 1.02279E-04-3.38840E-05-2.92535E-05-1.44661E-05 1.28939E-18-1.63918E-18
 -1      3170 1.00492E-04-3.27622E-05-2.90623E-05-1.57134E-05 5.84734E-20-1.38696E-18
 -1      3171 1.04780E-04-3.83376E-05-2.85479E-05-1.64645E-05 6.65328E-19-5.98121E-19
 -1      3172 9.53705E-05-2.79571E-05-2.88954E-05-4.65458E-07 4.71610E-19-5.38928E-19
 -1      3173 9.54254E-05-2.77002E-05-2.90120E-05-1.34365E-07 6.11238E-19-4.30201E-19
 -1      3174 9.52271E-05-2.87575E-05-2.84859E-05-1.08930E-06 1.69253E-19-5.66022E-20
 -1      3175 9.52135E-05-2.87265E-05-2.84929E-05-1.11650E-06 3.04577E-19-1.53217E-19
 -1      3176 9.52447E-05-2.86948E-05-2.85208E-05-1.12544E-06 2.33960E-19-7.01742E-20
 -1      3177 9.52406E-05-2.86346E-05-2.85423E-05-1.11637E-06 3.04493E-19-2.64640E-19
 -1      3178 9.55283E-05-2.88058E-05-2.85980E-05-1.09260E-06 2.68518E-19-1.09908E-19
 -1      3179 9.52188E-05-2.87574E-05-2.84818E-05-9.18490E-07 4.26290E-19-1.35510E-19
 -1      3180 9.51964E-05-2.87620E-05-2.84723E-05-9.65105E-07 6.16356E-19-8.47910E-20
 -1      3181 9.52236E-05-2.87174E-05-2.85009E-05-8.36611E-07 2.46908E-19 4.70390E-19
 -1      3182 9.51995E-05-2.87332E-05-2.84865E-05-8.75745E-07 2.29275E-19-9.73539E-21
 -1      3183 9.53867E-05-2.88248E-05-2.85277E-05-9.05910E-07 1.32087E-19-1.30280E-19
 -1      3184 9.52327E-05-2.86591E-05-2.85295E-05-7.81236E-07 2.52284E-19 6.00966E-19
 -1      3185 9.52072E-05-2.86837E-05-2.85114E-05-8.05136E-07 3.72718E-19 7.38614E-19
 -1      3186 9.53520E-05-2.87608E-05-2.85400E-05-8.36027E-07 1.13884E-19-9.68316E-20
 -1      3187 9.52454E-05-2.85850E-05-2.85664E-05-7.65739E-07 7.59748E-19 4.15901E-19
 -1      3188 9.52181E-05-2.86173E-05-2.85448E-05-7.68092E-07 3.87700E-19 5.69120E-19
 -1      3189 9.53214E-05-2.86750E-05-2.85635E-05-7.94977E-07 3.46431E-19 2.11502E-19
 -1      3190 9.52615E-05-2.84961E-05-2.86111E-05-8.01750E-07 2.66159E-19 1.27744E-18
 -1      3191 9.52316E-05-2.85355E-05-2.85858E-05-7.76921E-07 5.69901E-19 1.06309E-18
 -1      3192 9.52930E-05-2.85697E-05-2.85963E-05-7.96323E-07 3.42516E-19 7.54468E-19
 -1      3193 9.52813E-05-2.83915E-05-2.86640E-05-9.00340E-07 4.31197E-19 1.10989E-18
 -1      3194 9.52473E-05-2.84381E-05-2.86346E-05-8.42848E-07 5.65711E-19 1.24428E-18
 -1      3195 9.52647E-05-2.84449E-05-2.86375E-05-8.52024E-07 4.99784E-19 9.52910E-19
 -1      3196 9.53054E-05-2.82699E-05-2.87259E-05-1.07278E-06 8.99265E-20 8.05837E-19
 -1      3197 9.52654E-05-2.83240E-05-2.86915E-05-9.76974E-07 3.87471E-19 1.08185E-18
 -1      3198 9.52339E-05-2.82988E-05-2.86869E-05-9.73537E-07 3.60325E-19 8.74044E-19
 -1      3199 9.53345E-05-2.81298E-05-2.87977E-05-1.33086E-06 4.90337E-19 3.01570E-19
 -1      3200 9.52862E-05-2.81915E-05-2.87576E-05-1.19083E-06 9.85569E-20 9.44431E-19
 -1      3201 9.51981E-05-2.81289E-05-2.87442E-05-1.17250E-06 2.95982E-19 7.31059E-19
 -1      3202 9.53699E-05-2.79708E-05-2.88803E-05-1.68678E-06 3.39174E-19 7.76827E-20
 -1      3203 9.53107E-05-2.80394E-05-2.88338E-05-1.49652E-06 7.67345E-19 3.11154E-19
 -1      3204 9.51544E-05-2.79327E-05-2.88095E-05-1.46101E-06 5.81831E-19 4.61400E-19
 -1      3205 9.54140E-05-2.77947E-05-2.89739E-05-2.15244E-06 3.26626E-20-3.98830E-19
 -1      3206 9.53403E-05-2.78683E-05-2.89204E-05-1.90632E-06 9.76049E-20 1.03130E-20
 -1      3207 9.51004E-05-2.77089E-05-2.88820E-05-1.85142E-06 4.06752E-19 4.07317E-19
 -1      3208 9.54708E-05-2.76079E-05-2.90774E-05-2.73811E-06 2.66046E-19-1.69534E-19
 -1      3209 9.53781E-05-2.76818E-05-2.90171E-05-2.43175E-06-7.58133E-20-3.91275E-19
 -1      3210 9.50344E-05-2.74598E-05-2.89603E-05-2.35571E-06 7.81811E-20 9.99757E-20
 -1      3211 9.55482E-05-2.74249E-05-2.91882E-05-3.45012E-06 2.12434E-20 3.84774E-19
 -1      3212 9.54298E-05-2.74899E-05-2.91220E-05-3.08187E-06 3.17689E-19 1.39567E-19
 -1      3213 9.49571E-05-2.71933E-05-2.90411E-05-2.98421E-06 5.99059E-20-5.30207E-21
 -1      3214 9.56612E-05-2.72730E-05-2.93009E-05-4.28752E-06 5.99213E-19 2.70416E-19
 -1      3215 9.55069E-05-2.73129E-05-2.92313E-05-3.86061E-06 5.31153E-19 2.20664E-19
 -1      3216 9.48742E-05-2.69277E-05-2.91193E-05-3.74378E-06 3.82528E-19-1.79139E-19
 -1      3217 9.58383E-05-2.72006E-05-2.94071E-05-5.23733E-06-7.83687E-19-6.21822E-20
 -1      3218 9.56311E-05-2.71880E-05-2.93380E-05-4.76295E-06 2.46487E-19 4.07710E-20
 -1      3219 9.48014E-05-2.66984E-05-2.91866E-05-4.63528E-06 4.32950E-19 2.14970E-20
 -1      3220 9.61318E-05-2.72879E-05-2.94950E-05-6.26790E-06-3.55227E-19-3.83355E-19
 -1      3221 9.58432E-05-2.71783E-05-2.94320E-05-5.76951E-06-7.95524E-19-5.61608E-19
 -1      3222 9.47726E-05-2.65669E-05-2.92315E-05-5.65027E-06-3.09025E-19-8.58924E-19
 -1      3223 9.66336E-05-2.76602E-05-2.95500E-05-7.31959E-06-4.14980E-19-2.02440E-19
 -1      3224 9.62162E-05-2.73859E-05-2.95002E-05-6.83880E-06-1.41764E-19-4.47919E-19
 -1      3225 9.48531E-05-2.66340E-05-2.92397E-05-6.76656E-06-5.96910E-19-8.56260E-19
 -1      3226 9.74957E-05-2.85013E-05-2.95590E-05-8.29101E-06-3.24634E-19 4.38361E-19
 -1      3227 9.68747E-05-2.79658E-05-2.95284E-05-7.89571E-06-4.02361E-19 3.67792E-19
 -1      3228 9.51601E-05-2.70559E-05-2.91957E-05-7.94135E-06-5.27553E-19-2.77393E-19
 -1      3229 9.89527E-05-3.00567E-05-2.95179E-05-9.01708E-06 1.81552E-20 3.37311E-19
 -1      3230 9.80197E-05-2.91366E-05-2.95075E-05-8.81299E-06 1.88960E-19 6.34917E-19
 -1      3231 9.58902E-05-2.80597E-05-2.90883E-05-9.09853E-06-2.93806E-19 1.11753E-18
 -1      3232 1.01326E-04-3.26028E-05-2.94497E-05-9.23152E-06-1.69290E-19 7.82135E-19
 -1      3233 9.99498E-05-3.11727E-05-2.94456E-05-9.37773E-06-1.88586E-19 6.02715E-19
 -1      3234 9.73520E-05-2.99481E-05-2.89225E-05-1.01012E-05-2.63643E-19 2.38815E-19
 -1      3235 1.04966E-04-3.63088E-05-2.94336E-05-8.49587E-06-4.50101E-19 1.66545E-18
 -1      3236 1.03050E-04-3.43383E-05-2.93932E-05-9.22222E-06 8.46454E-20 1.10749E-18
 -1      3237 9.99913E-05-3.30689E-05-2.87431E-05-1.06841E-05-4.91997E-19 6.46476E-19
 -1      3238 1.10092E-04-4.09989E-05-2.96422E-05-6.20735E-06-1.51586E-18 1.56181E-18
 -1      3239 1.07637E-04-3.86534E-05-2.94769E-05-7.78561E-06-6.78037E-19 2.33414E-18
 -1      3240 1.04308E-04-3.76170E-05-2.86775E-05-1.03178E-05-7.69417E-19 1.61510E-18
 -1      3241 1.16297E-04-4.54285E-05-3.04022E-05-1.70597E-06-9.04108E-19 5.87603E-19
 -1      3242 1.13700E-04-4.35436E-05-2.99521E-05-4.27990E-06-1.70948E-18 7.67342E-19
 -1      3243 1.10458E-04-4.32756E-05-2.89790E-05-8.08031E-06-9.92342E-19 1.51291E-18
 -1      3244 1.22042E-04-4.72806E-05-3.20607E-05 5.58874E-06 3.86075E-19 1.40929E-18
 -1      3245 1.20592E-04-4.73126E-05-3.12751E-05 2.13854E-06-3.52111E-19 9.96551E-19
 -1      3246 1.18840E-04-4.86597E-05-3.02939E-05-2.71416E-06-9.34926E-19 7.95642E-19
 -1      3247 1.27179E-04-4.21949E-05-3.66173E-05 1.31461E-05 1.43826E-18 4.52110E-19
 -1      3248 1.27758E-04-4.69756E-05-3.47650E-05 1.00361E-05 1.09656E-18 5.89283E-19
 -1      3249 1.17082E-04-1.55063E-05-4.39548E-05 8.60118E-06 2.36852E-19-9.99472E-19
 -1      3250 1.19370E-04-2.05429E-05-4.29567E-05 1.35595E-05 7.23260E-19-1.13517E-18
 -1      3251 1.16342E-04-1.61599E-05-4.35271E-05-5.16058E-06 5.06102E-19-2.44858E-18
 -1      3252 1.15422E-04-1.39087E-05-4.40013E-05 8.54612E-07 2.11017E-19-1.81355E-18
 -1      3253 1.22729E-04-2.86822E-05-4.09441E-05-1.24780E-05 7.82870E-19-3.01607E-18
 -1      3254 1.20044E-04-2.17110E-05-4.25189E-05-1.02131E-05 6.69156E-19-2.95233E-18
 -1      3255 1.28944E-04-4.37189E-05-3.67530E-05-9.40588E-06 7.20031E-19-3.12804E-18
 -1      3256 1.27078E-04-3.70185E-05-3.88187E-05-1.16226E-05 5.86623E-19-2.94947E-18
 -1      3257 1.16348E-04-4.55267E-05-3.02205E-05 6.17704E-06 1.31659E-19-2.64490E-18
 -1      3258 1.18772E-04-4.69215E-05-3.08486E-05 2.97682E-06 8.52949E-19-3.44602E-18
 -1      3259 1.09582E-04-4.03830E-05-2.95501E-05 1.08769E-05 8.46047E-19-2.43147E-18
 -1      3260 1.12283E-04-4.29200E-05-2.97729E-05 8.90605E-06 4.31950E-19-2.76210E-18
 -1      3261 1.14477E-04-4.60046E-05-2.94909E-05 1.07638E-05-3.52611E-20-1.42437E-18
 -1      3262 4.79277E-05-1.78440E-05-1.24629E-05-1.92916E-05 5.81012E-19-1.86104E-18
 -1      3263 5.81612E-05-2.48197E-05-1.41188E-05-2.81907E-05 5.95358E-19-2.27047E-18
 -1      3264 9.23793E-05-1.83463E-05-3.17436E-05 1.81427E-06 8.69804E-19-1.48314E-18
 -1      3265 9.22600E-05-1.81445E-05-3.17756E-05 1.05984E-06 6.54177E-19-1.52417E-18
 -1      3266 1.03439E-04-4.85475E-05-2.36284E-05 3.06299E-05-5.36251E-19-2.17613E-18
 -1      3267 8.74079E-05-3.85449E-05-2.05117E-05 3.30410E-05 5.75029E-19-1.31550E-18
 -1      3268 7.69087E-05-1.59325E-05-2.61420E-05-2.28198E-06 1.78503E-18 2.95487E-18
 -1      3269 7.68580E-05-1.59218E-05-2.61355E-05 2.15328E-06 7.65221E-19 1.84443E-18
 -1      3270 9.47224E-05-2.83418E-05-2.83688E-05-1.76568E-05-1.27711E-19-2.81427E-19
 -1      3271 9.15507E-05-2.63903E-05-2.79997E-05-1.76415E-05-9.10726E-22 1.48855E-18
 -1      3272 9.80155E-05-2.92960E-05-2.94859E-05 1.46832E-05 1.34522E-18-4.64732E-19
 -1      3273 8.22770E-05-3.96068E-05-1.84475E-05 3.32490E-05 9.56565E-19 7.10343E-19
 -1      3274 6.59738E-05-2.95731E-05-1.50994E-05 3.11766E-05 1.46198E-18-1.98195E-18
 -1      3275 1.12755E-04-5.42097E-05-2.47121E-05-2.83415E-05 2.84841E-19 2.67489E-18
 -1      3276 1.22292E-04-5.76681E-05-2.79616E-05-2.04210E-05 3.02894E-19 1.96975E-19
 -1      3277 9.54134E-05-2.73506E-05-2.91768E-05 2.81903E-07 7.70827E-19-4.45478E-19
 -1      3278 9.54759E-05-2.69437E-05-2.93555E-05 8.40272E-07 9.34782E-19-3.68262E-19
 -1      3279 9.56944E-05-2.73392E-05-2.93006E-05 2.32725E-07 7.68661E-19-1.84619E-19
 -1      3280 1.22686E-04-2.93004E-05-4.03195E-05 1.60402E-05 5.80747E-19-4.34673E-19
 -1      3281 7.45722E-05-3.10192E-05-1.87561E-05 3.13782E-05 6.70215E-19-1.39035E-18
 -1      3282 6.62090E-05-2.45388E-05-1.74677E-05 2.61139E-05 1.92352E-18-8.08864E-19
 -1      3283 8.76786E-05-2.34792E-05-2.73973E-05-1.67870E-05-4.84658E-19 1.37108E-18
 -1      3284 8.41473E-05-2.13189E-05-2.70352E-05-1.47805E-05-1.97499E-19 2.94616E-18
 -1      3285 8.94984E-05-2.69478E-05-2.68414E-05-1.90587E-05-2.63252E-19 2.03564E-18
 -1      3286 9.52193E-05-2.87737E-05-2.84753E-05-1.01013E-06 5.63936E-19-2.58650E-19
 -1      3287 9.52001E-05-2.87634E-05-2.84725E-05-1.05403E-06 3.66444E-19-9.55321E-20
 -1      3288 9.54742E-05-2.88603E-05-2.85509E-05-1.06003E-06 2.31756E-19-4.02767E-19
 -1      3289 9.54271E-05-2.88613E-05-2.85297E-05-9.87881E-07 4.67231E-19 6.20411E-20
 -1      3290 7.04777E-05-3.16469E-05-1.61121E-05-3.15794E-05 4.25263E-19-1.03005E-18
 -1      3291 8.44896E-05-3.96770E-05-1.91715E-05-3.18879E-05 4.33575E-20-1.32709E-18
 -1      3292 6.84172E-05-2.71849E-05-1.73196E-05-2.63329E-05 3.57368E-19-1.68861E-18
 -1      3293 1.28823E-04-5.75733E-05-3.02885E-05-1.10785E-05 4.82862E-19-5.94538E-19
 -1      3294 1.31909E-04-5.42165E-05-3.35202E-05-2.08650E-06 6.08461E-19-1.35802E-18
 -1      3295 9.54943E-05-2.55694E-05-2.99551E-05-2.14791E-06-5.92938E-19-1.08697E-18
 -1      3296 9.55375E-05-2.62702E-05-2.96984E-05-1.33957E-06-4.26769E-19-1.04511E-18
 -1      3297 9.57128E-05-2.62085E-05-2.97896E-05-1.17930E-06-3.27988E-19-1.02885E-18
 -1      3298 9.34728E-05-1.98496E-05-3.15489E-05-6.23838E-06-7.99900E-19-1.49539E-18
 -1      3299 1.30522E-04-4.34915E-05-3.74412E-05 8.89796E-06-7.92611E-19-1.95405E-18
 -1      3300 4.23549E-05-1.29874E-05-1.22462E-05 1.62381E-06-3.80913E-19-2.22558E-18
 -1      3301 4.27108E-05-1.40775E-05-1.18562E-05-1.05441E-05-2.09217E-19-1.54965E-18
 -1      3302 5.24192E-05-1.65713E-05-1.49263E-05-1.38249E-05 4.76588E-19-1.98841E-18
 -1      3303 8.06144E-05-1.84913E-05-2.65451E-05-1.14599E-05 4.38717E-19 2.67151E-18
 -1      3304 7.82474E-05-1.69755E-05-2.63254E-05-7.70181E-06 1.41846E-18 2.83661E-18
 -1      3305 7.49245E-05-1.67715E-05-2.48177E-05-5.66995E-06 5.95104E-19 3.16245E-18
 -1      3306 8.12437E-05-2.12020E-05-2.56539E-05-1.48889E-05-6.65894E-19 2.97738E-18
 -1      3307 1.30865E-04-4.94438E-05-3.50481E-05 5.16450E-06-4.14027E-19-1.80050E-18
 -1      3308 1.21002E-04-2.16036E-05-4.32625E-05-1.53457E-05-2.05300E-19 3.90593E-18
 -1      3309 6.98638E-05-2.96307E-05-1.69673E-05-3.14763E-05 1.73562E-18 4.55555E-18
 -1      3310 8.19960E-05-3.83074E-05-1.84895E-05-3.59649E-05 3.79788E-19 4.99215E-18
 -1      3311 1.26936E-04-5.58345E-05-3.02000E-05-6.20416E-06 5.39954E-19 2.27852E-19
 -1      3312 1.28861E-04-5.11880E-05-3.35838E-05 4.19946E-06 8.37054E-19 9.12903E-19
 -1      3313 1.09847E-04-5.36053E-05-2.43450E-05 2.56009E-05 7.46501E-19 2.76260E-18
 -1      3314 9.94078E-05-4.79673E-05-2.15457E-05 2.98985E-05 5.61874E-19 2.37392E-18
 -1      3315 9.52038E-05-2.42721E-05-3.04020E-05 4.27744E-06 1.32321E-18-5.74085E-19
 -1      3316 9.46376E-05-2.27187E-05-3.08062E-05 4.79298E-06 1.34599E-18-5.74124E-19
 -1      3317 9.49648E-05-2.36006E-05-3.05657E-05 3.70379E-06 1.19591E-18-5.22768E-19
 -1      3318 9.52392E-05-2.52043E-05-3.00286E-05 2.99545E-06 1.21833E-18-4.85027E-19
 -1      3319 1.27489E-04-5.69868E-05-3.05769E-05 6.99447E-06 5.32400E-19 1.49453E-18
 -1      3320 1.20484E-04-5.67054E-05-2.69363E-05 1.75349E-05 1.15392E-18 2.15329E-18
 -1      3321 5.43584E-05-2.21112E-05-1.35583E-05 2.56986E-05 5.64177E-19-2.91464E-18
 -1      3322 4.65554E-05-1.58652E-05-1.27731E-05 1.48802E-05 3.93288E-19-2.28011E-18
 -1      3323 6.57054E-05-2.56331E-05-1.67242E-05 2.54694E-05 1.36753E-18-1.61333E-18
 -1      3324 9.10308E-05-4.36001E-05-1.99601E-05-3.56659E-05-7.05843E-19 2.96689E-18
 -1      3325 1.01288E-04-4.96834E-05-2.22296E-05-3.39613E-05-8.60162E-19 3.07552E-18
 -1      3326 8.89390E-05-3.94545E-05-2.09497E-05-3.25638E-05-8.68368E-19 4.89709E-18
 -1      3327 5.80313E-05-1.92917E-05-1.64730E-05 1.94088E-05 1.72752E-18-4.76985E-19
 -1      3328 5.31128E-05-1.48669E-05-1.59122E-05 8.10735E-06 8.96611E-19 1.21348E-18
 -1      3329 6.74117E-05-2.16940E-05-1.92494E-05 1.99542E-05 1.71254E-18-4.75609E-19
 -1      3330 9.22003E-05-1.80447E-05-3.17941E-05 4.09668E-07 5.16670E-19-1.43601E-18
 -1      3331 9.21974E-05-1.80403E-05-3.17946E-05-3.59304E-07 2.66796E-19-1.43470E-18
 -1      3332 9.31546E-05-1.96286E-05-3.14935E-05 6.29086E-07 5.24972E-19-1.34116E-18
 -1      3333 9.42016E-05-4.42079E-05-2.10371E-05-3.00152E-05-1.64404E-19-2.34594E-18
 -1      3334 1.03035E-04-4.81575E-05-2.34020E-05-2.52014E-05-4.02208E-20-2.65479E-18
 -1      3335 8.69305E-05-3.81260E-05-2.08219E-05-2.82793E-05-1.82456E-19-1.86686E-18
 -1      3336 1.18226E-04-5.21180E-05-2.86066E-05 1.04460E-05 7.86166E-19 9.39730E-19
 -1      3337 1.21725E-04-5.09827E-05-3.02127E-05 3.48898E-06 1.76428E-19 1.63190E-18
 -1      3338 9.15805E-05-2.64256E-05-2.80042E-05 1.75941E-05 2.00459E-20-2.29062E-18
 -1      3339 9.48913E-05-2.84073E-05-2.83719E-05 1.77543E-05 1.06865E-18-7.50745E-19
 -1      3340 9.50261E-05-2.37255E-05-3.05583E-05-3.91647E-06-8.71651E-19-1.21777E-18
 -1      3341 9.51873E-05-2.46810E-05-3.02337E-05-2.87480E-06-7.75275E-19-1.17154E-18
 -1      3342 9.52778E-05-2.45629E-05-3.03016E-05-2.53564E-06-6.32469E-19-1.25138E-18
 -1      3343 1.32292E-04-5.64603E-05-3.23907E-05 4.48058E-06 2.29215E-19-1.97700E-18
 -1      3344 1.26677E-04-5.56295E-05-3.04216E-05 9.66740E-06 6.69202E-19-1.27075E-18
 -1      3345 5.76111E-05-1.57825E-05-1.75655E-05-2.31812E-07 3.32110E-19 2.01382E-18
 -1      3346 1.24840E-04-5.12740E-05-3.15542E-05-5.96101E-07 5.25425E-20 2.44335E-18
 -1      3347 1.29802E-04-5.10924E-05-3.35772E-05-5.92927E-06-6.83688E-19 3.60799E-18
 -1      3348 1.29984E-04-4.68592E-05-3.57688E-05-9.42909E-06-1.29641E-18 3.75315E-18
 -1      3349 1.28979E-04-3.87738E-05-3.90031E-05-1.64346E-05-2.10800E-18 4.49542E-18
 -1      3350 1.26101E-04-3.05967E-05-4.12504E-05-1.55370E-05-7.71223E-19 4.50929E-18
 -1      3351 1.25398E-04-3.65924E-05-3.86001E-05 1.61538E-05 1.16973E-18 3.20020E-20
 -1      3352 9.40357E-05-2.14132E-05-3.11315E-05-5.00506E-06-8.24177E-19-1.38436E-18
 -1      3353 9.55879E-05-2.86734E-05-2.86811E-05-1.04476E-06 2.20166E-19-2.78654E-19
 -1      3354 9.52747E-05-2.85648E-05-2.85903E-05-1.07618E-06 2.07595E-19-3.47968E-19
 -1      3355 9.52854E-05-2.84625E-05-2.86328E-05-1.00339E-06-2.16285E-20-4.94037E-19
 -1      3356 1.22263E-04-5.47827E-05-2.89149E-05-1.46907E-05 9.72486E-19-1.44539E-18
 -1      3357 1.22964E-04-5.09595E-05-3.10130E-05 5.10587E-06 6.09010E-19-1.53481E-18
 -1      3358 1.23405E-04-4.86260E-05-3.20249E-05-6.80761E-07 1.74503E-18-3.50755E-18
 -1      3359 1.24313E-04-4.71578E-05-3.31014E-05-4.22968E-06 1.38795E-18-2.85859E-18
 -1      3360 1.04692E-04-3.60958E-05-2.93263E-05 1.34484E-05 1.18930E-18-7.36886E-19
 -1      3361 1.06662E-04-3.81130E-05-2.94097E-05 1.22929E-05 9.22292E-19-1.41604E-18
 -1      3362 1.07512E-04-4.01989E-05-2.89479E-05 1.42789E-05 6.04530E-19-1.59571E-18
 -1      3363 8.41661E-05-2.12906E-05-2.70402E-05 1.47987E-05-2.83349E-19-1.00680E-18
 -1      3364 8.76910E-05-2.35003E-05-2.73990E-05 1.68568E-05-4.72285E-19 3.14982E-20
 -1      3365 8.97673E-05-2.70951E-05-2.68577E-05 1.90791E-05 6.35582E-19-1.59496E-18
 -1      3366 9.53182E-05-2.83355E-05-2.87086E-05-8.83015E-07 1.06505E-19-4.81685E-19
 -1      3367 9.53493E-05-2.81713E-05-2.87817E-05-7.08010E-07 3.11249E-19-4.69464E-19
 -1      3368 9.56475E-05-2.84266E-05-2.88132E-05-8.61006E-07 1.40040E-19-3.39386E-19
 -1      3369 8.60642E-05-3.45468E-05-2.17630E-05 2.88587E-05 8.70485E-19-1.51393E-18
 -1      3370 7.81956E-05-1.69272E-05-2.63157E-05 7.68865E-06 4.80688E-19 6.85541E-19
 -1      3371 8.06707E-05-1.85651E-05-2.65466E-05 1.14933E-05 5.03472E-20-9.20199E-19
 -1      3372 8.11482E-05-2.11447E-05-2.56125E-05 1.48611E-05 5.05378E-19-5.38309E-19
 -1      3373 7.47057E-05-1.67744E-05-2.47962E-05 5.70072E-06 3.30358E-19 2.04899E-18
 -1      3374 9.78874E-05-3.04745E-05-2.89514E-05 1.64964E-05 1.85288E-18 5.64777E-19
 -1      3375 1.01106E-04-3.24172E-05-2.93573E-05 1.44681E-05 1.18541E-18-6.15647E-19
 -1      3376 1.02858E-04-3.44907E-05-2.93174E-05 1.40147E-05 1.90728E-18-5.33801E-19
 -1      3377 9.75530E-05-3.19864E-05-2.81646E-05 1.82470E-05 8.71511E-19-9.17739E-19
 -1      3378 1.33461E-04-5.02797E-05-3.58774E-05-3.58951E-06 7.03487E-19-2.37953E-18
 -1      3379 1.07406E-04-4.96245E-05-2.45722E-05-2.80504E-05-7.16008E-20 1.35555E-18
 -1      3380 1.14818E-04-5.27282E-05-2.62970E-05 1.81704E-05 1.33148E-18 2.19049E-18
 -1      3381 1.10969E-04-5.13427E-05-2.52738E-05 2.67151E-05-7.40069E-19-1.35818E-18
 -1      3382 1.03378E-04-4.48784E-05-2.49020E-05 2.67648E-05 4.02804E-19-1.41436E-18
 -1      3383 1.15755E-04-5.24717E-05-2.72512E-05 2.05644E-05 1.34963E-19-1.26596E-18
 -1      3384 9.25527E-05-1.86405E-05-3.16875E-05 2.42519E-06 8.50492E-19-1.43957E-18
 -1      3385 9.33656E-05-2.00160E-05-3.14170E-05 1.80548E-06 7.52888E-19-1.38446E-18
 -1      3386 9.27901E-05-1.90549E-05-3.16199E-05 3.12712E-06 9.45609E-19-1.37508E-18
 -1      3387 9.15580E-05-4.15962E-05-2.10384E-05 2.85951E-05 9.35813E-19 1.46253E-18
 -1      3388 9.56929E-05-2.80091E-05-2.90122E-05-4.66834E-07 3.83255E-19-3.29091E-19
 -1      3389 9.53814E-05-2.64944E-05-2.95303E-05 1.37538E-06 9.96790E-19-4.04588E-19
 -1      3390 9.54317E-05-2.58876E-05-2.97899E-05 2.25006E-06 1.19036E-18-4.42453E-19
 -1      3391 9.53555E-05-2.52332E-05-3.00696E-05 2.60444E-06 1.17294E-18-3.93169E-19
 -1      3392 9.55829E-05-2.64042E-05-2.96529E-05 1.24364E-06 9.84908E-19-2.34293E-19
 -1      3393 6.38505E-05-1.96669E-05-1.89715E-05-1.80033E-05-6.67263E-19 1.47140E-18
 -1      3394 6.63424E-05-2.42651E-05-1.76244E-05-2.55876E-05 8.19028E-19 2.78896E-18
 -1      3395 7.53446E-05-2.81036E-05-2.01348E-05-2.68578E-05 6.45267E-19 4.98987E-18
 -1      3396 9.34349E-05-2.02141E-05-3.14050E-05 4.24801E-06 1.03467E-18-1.12150E-18
 -1      3397 9.30769E-05-1.95536E-05-3.15189E-05 3.65561E-06 9.39171E-19-1.28446E-18
 -1      3398 9.37737E-05-2.07958E-05-3.12561E-05 2.84736E-06 8.34387E-19-1.25127E-18
 -1      3399 9.43387E-05-2.19781E-05-3.09896E-05 3.63487E-06 1.01722E-18-9.09118E-19
 -1      3400 4.80432E-05-1.40815E-05-1.41075E-05 7.96900E-06-2.76358E-19-1.61074E-18
 -1      3401 5.18343E-05-1.36839E-05-1.61260E-05 1.40209E-06-1.39760E-19-1.71725E-18
 -1      3402 5.55289E-05-1.63105E-05-1.65991E-05 1.24918E-05 3.96431E-19-1.37886E-18
 -1      3403 9.25261E-05-1.86081E-05-3.16917E-05-2.38178E-06-1.29272E-19-1.57727E-18
 -1      3404 9.27569E-05-1.90106E-05-3.16257E-05-3.08029E-06-2.69697E-19-1.67815E-18
 -1      3405 9.88578E-05-3.15902E-05-2.87790E-05-1.67186E-05-4.23194E-19-1.56543E-18
 -1      3406 9.66717E-05-2.99357E-05-2.86349E-05-1.73234E-05-3.11013E-19-1.30245E-18
 -1      3407 9.62618E-05-3.14616E-05-2.78056E-05-1.90379E-05-1.30556E-19-1.24948E-18
 -1      3408 1.00716E-04-3.42875E-05-2.84519E-05-1.73784E-05-6.91583E-19-1.48865E-18
 -1      3409 9.37578E-05-2.07652E-05-3.12655E-05-2.83670E-06-3.49276E-19-1.43883E-18
 -1      3410 9.30525E-05-1.95086E-05-3.15270E-05-3.62211E-06-3.92065E-19-1.55505E-18
 -1      3411 9.34129E-05-2.01637E-05-3.14149E-05-4.23633E-06-5.62176E-19-1.53586E-18
 -1      3412 1.11092E-04-4.90656E-05-2.64561E-05 1.68032E-05 4.86372E-19 1.83978E-18
 -1      3413 9.56822E-05-2.55330E-05-3.00602E-05-1.51877E-06-3.69457E-19-1.07241E-18
 -1      3414 9.58305E-05-2.62587E-05-2.98264E-05-8.89994E-07-1.77961E-19-1.06078E-18
 -1      3415 9.23655E-05-1.83242E-05-3.17467E-05-1.76250E-06 9.57369E-21-1.41184E-18
 -1      3416 9.33564E-05-1.99928E-05-3.14208E-05-1.77211E-06-7.12285E-20-1.34477E-18
 -1      3417 9.22519E-05-1.81328E-05-3.17774E-05-1.00919E-06 2.40132E-19-1.41190E-18
 -1      3418 6.23292E-05-1.55467E-05-2.00976E-05 5.02268E-06-2.94066E-19 2.72030E-18
 -1      3419 6.19824E-05-1.56520E-05-1.95295E-05-7.72828E-06-9.79458E-19 3.36648E-18
 -1      3420 9.61741E-05-2.78295E-05-2.92831E-05 2.38303E-07-4.85413E-19-7.13672E-19
 -1      3421 9.61700E-05-2.81470E-05-2.91572E-05 4.91224E-07-4.99693E-19-6.79971E-19
 -1      3422 9.61792E-05-2.84083E-05-2.90390E-05 6.53605E-07-5.06834E-19-6.77498E-19
 -1      3423 9.61494E-05-2.86039E-05-2.89503E-05 7.90142E-07-2.64985E-19-6.05827E-19
 -1      3424 9.63711E-05-2.82182E-05-2.92099E-05 4.69528E-07-4.06669E-19-8.50534E-19
 -1      3425 9.61161E-05-2.87549E-05-2.88651E-05 8.68294E-07-1.77547E-20-3.25823E-19
 -1      3426 9.60757E-05-2.88659E-05-2.88049E-05 9.25845E-07 1.42146E-20-2.71918E-19
 -1      3427 9.63489E-05-2.86852E-05-2.90008E-05 7.29204E-07-1.41082E-19-3.47321E-19
 -1      3428 9.60196E-05-2.89408E-05-2.87456E-05 9.48078E-07-2.84545E-20-3.57221E-19
 -1      3429 9.59763E-05-2.89930E-05-2.87068E-05 9.55881E-07-1.78366E-19-3.59406E-19
 -1      3430 9.62618E-05-2.89477E-05-2.88511E-05 8.46526E-07-9.23619E-20-3.80320E-19
 -1      3431 9.59096E-05-2.90156E-05-2.86675E-05 9.44609E-07-4.24086E-19-1.97042E-19
 -1      3432 9.58674E-05-2.90270E-05-2.86449E-05 9.24825E-07-4.20289E-19-4.13560E-19
 -1      3433 9.61414E-05-2.90675E-05-2.87481E-05 8.71914E-07-2.59680E-19-4.56856E-19
 -1      3434 9.57973E-05-2.90136E-05-2.86211E-05 8.97127E-07-3.36975E-19-3.74870E-19
 -1      3435 9.57577E-05-2.89965E-05-2.86105E-05 8.66183E-07-1.94921E-19-3.22165E-19
 -1      3436 9.60069E-05-2.90881E-05-2.86813E-05 8.44945E-07-3.19711E-19-4.95351E-19
 -1      3437 9.56876E-05-2.89580E-05-2.85986E-05 8.34801E-07-1.58527E-19-3.69492E-19
 -1      3438 9.56510E-05-2.89203E-05-2.85972E-05 8.04884E-07-3.05404E-20-2.46406E-19
 -1      3439 9.58686E-05-2.90396E-05-2.86426E-05 7.95598E-07-2.04952E-19-8.19119E-19
 -1      3440 9.55819E-05-2.88632E-05-2.85944E-05 7.79414E-07-1.12557E-19-4.93108E-19
 -1      3441 9.55476E-05-2.88095E-05-2.86001E-05 7.59760E-07-1.49089E-19-5.66430E-19
 -1      3442 9.57312E-05-2.89413E-05-2.86255E-05 7.46429E-07-2.47113E-19-6.25176E-19
 -1      3443 9.54786E-05-2.87374E-05-2.86045E-05 7.47649E-07-3.61105E-19-7.25422E-19
 -1      3444 9.54452E-05-2.86701E-05-2.86159E-05 7.45574E-07-7.76818E-19-5.22118E-19
 -1      3445 9.55946E-05-2.88046E-05-2.86252E-05 7.14693E-07-2.36130E-19-6.03249E-19
 -1      3446 9.53741E-05-2.85839E-05-2.86260E-05 7.52932E-07-1.01778E-18-5.55781E-19
 -1      3447 9.53399E-05-2.85034E-05-2.86421E-05 7.74649E-07-7.13166E-19-4.72973E-19
 -1      3448 9.54559E-05-2.86349E-05-2.86380E-05 7.14075E-07-7.62545E-19-9.83369E-19
 -1      3449 9.52629E-05-2.84024E-05-2.86566E-05 8.06909E-07-6.28069E-19-2.87504E-19
 -1      3450 9.52257E-05-2.83078E-05-2.86768E-05 8.58130E-07-1.00419E-18-5.99871E-20
 -1      3451 9.53091E-05-2.84330E-05-2.86612E-05 7.56158E-07-5.42931E-19-3.63710E-19
 -1      3452 9.51384E-05-2.81900E-05-2.86949E-05 9.20524E-07-1.16086E-18 7.71227E-20
 -1      3453 9.50955E-05-2.80796E-05-2.87186E-05 1.00686E-06-8.29160E-19 1.82045E-19
 -1      3454 9.51463E-05-2.81963E-05-2.86924E-05 8.51536E-07-7.05924E-19-2.60238E-19
 -1      3455 9.49926E-05-2.79423E-05-2.87391E-05 1.10473E-06-5.01079E-19 3.65464E-19
 -1      3456 9.49410E-05-2.78142E-05-2.87658E-05 1.23190E-06-1.02887E-19 2.20029E-19
 -1      3457 9.49577E-05-2.79200E-05-2.87294E-05 1.01058E-06-6.38448E-19 3.94053E-19
 -1      3458 9.48162E-05-2.76546E-05-2.87877E-05 1.37084E-06-5.01653E-19 4.51102E-19
 -1      3459 9.47528E-05-2.75072E-05-2.88165E-05 1.54467E-06-4.90195E-19 2.66692E-19
 -1      3460 9.47320E-05-2.75986E-05-2.87698E-05 1.24390E-06-3.49152E-19 3.24628E-19
 -1      3461 9.45998E-05-2.73231E-05-2.88378E-05 1.73055E-06 3.29413E-19 4.02668E-19
 -1      3462 9.45217E-05-2.71563E-05-2.88675E-05 1.95682E-06 6.62515E-19 5.88833E-19
 -1      3463 9.44566E-05-2.72272E-05-2.88102E-05 1.56247E-06-3.88038E-21 7.22919E-19
 -1      3464 9.43338E-05-2.69475E-05-2.88858E-05 2.19573E-06 5.01841E-19 6.29038E-19
 -1      3465 9.42387E-05-2.67636E-05-2.89141E-05 2.47980E-06 5.58592E-19 2.56071E-19
 -1      3466 9.41185E-05-2.68033E-05-2.88461E-05 1.97762E-06 4.54082E-19 9.28370E-19
 -1      3467 9.40104E-05-2.65332E-05-2.89259E-05 2.77790E-06 7.12764E-19 1.66063E-19
 -1      3468 9.38982E-05-2.63394E-05-2.89496E-05 3.12426E-06 1.65605E-19 2.16961E-19
 -1      3469 9.37057E-05-2.63301E-05-2.88710E-05 2.50089E-06 2.88208E-19 6.33496E-19
 -1      3470 9.36262E-05-2.60963E-05-2.89496E-05 3.48783E-06-6.08386E-20-2.80787E-19
 -1      3471 9.35008E-05-2.59070E-05-2.89639E-05 3.89954E-06-9.34662E-21 1.96472E-19
 -1      3472 9.32089E-05-2.58198E-05-2.88758E-05 3.14408E-06 6.51983E-20 1.87898E-19
 -1      3473 9.31865E-05-2.56691E-05-2.89453E-05 4.33533E-06-4.11072E-19 5.04474E-19
 -1      3474 9.30597E-05-2.55105E-05-2.89437E-05 4.81367E-06-3.71798E-19 1.03029E-18
 -1      3475 9.26257E-05-2.52995E-05-2.88479E-05 3.91990E-06 1.95844E-19 4.93836E-19
 -1      3476 9.27135E-05-2.53095E-05-2.88976E-05 5.32994E-06-2.03241E-19 1.22281E-18
 -1      3477 9.26112E-05-2.52254E-05-2.88717E-05 5.87422E-06 4.77129E-20 1.10356E-18
 -1      3478 9.19664E-05-2.48186E-05-2.87709E-05 4.84393E-06 1.00751E-19 2.47965E-19
 -1      3479 9.22586E-05-2.51134E-05-2.87870E-05 6.48273E-06-3.15635E-20 1.46588E-18
 -1      3480 9.22303E-05-2.51731E-05-2.87274E-05 7.09039E-06 3.34203E-19 1.29227E-18
 -1      3481 9.12640E-05-2.44603E-05-2.86238E-05 5.93870E-06 3.68188E-19 1.01125E-18
 -1      3482 9.19228E-05-2.52311E-05-2.85919E-05 7.80925E-06 9.41366E-20 1.20263E-18
 -1      3483 9.20563E-05-2.55399E-05-2.84897E-05 8.47515E-06 1.34494E-20 1.10201E-18
 -1      3484 9.05905E-05-2.43558E-05-2.83822E-05 7.24042E-06 1.60071E-19 1.49123E-18
 -1      3485 9.18880E-05-2.58889E-05-2.82918E-05 9.33135E-06 2.44134E-19 5.49261E-19
 -1      3486 9.23302E-05-2.66003E-05-2.81428E-05 1.00433E-05-7.78235E-20 1.42663E-18
 -1      3487 9.00820E-05-2.47051E-05-2.80201E-05 8.80782E-06-1.88719E-19 1.06884E-18
 -1      3488 9.24672E-05-2.74147E-05-2.78768E-05 1.10670E-05-7.71731E-19 1.10641E-18
 -1      3489 9.34513E-05-2.87387E-05-2.76907E-05 1.17860E-05-2.12532E-19 9.17193E-19
 -1      3490 8.99834E-05-2.58077E-05-2.75166E-05 1.07272E-05-2.53463E-19 8.81921E-19
 -1      3491 9.41719E-05-3.02559E-05-2.73668E-05 1.29943E-05 3.55347E-19 1.08456E-18
 -1      3492 9.60394E-05-3.24556E-05-2.71869E-05 1.35995E-05 6.68603E-19 9.72479E-19
 -1      3493 9.07080E-05-2.80857E-05-2.68696E-05 1.30917E-05 1.37232E-19 8.79981E-19
 -1      3494 9.78822E-05-3.50327E-05-2.68652E-05 1.48639E-05 7.73307E-19 1.22729E-18
 -1      3495 1.01141E-04-3.82532E-05-2.68253E-05 1.49636E-05 5.62575E-19 8.01988E-19
 -1      3496 9.30040E-05-3.21543E-05-2.61267E-05 1.60089E-05 8.79264E-19 9.76556E-19
 -1      3497 1.02994E-04-4.11771E-05-2.63901E-05 1.65006E-05 3.90165E-19 1.13106E-18
 -1      3498 1.07817E-04-4.51999E-05-2.66787E-05 1.57420E-05 4.44507E-19 1.51621E-18
 -1      3499 1.01899E-04-4.55704E-05-2.43553E-05 2.34224E-05 5.63343E-19 1.93006E-18
 -1      3500 9.67803E-05-3.81511E-05-2.52894E-05 1.95019E-05 9.43853E-19 1.13338E-18
 -1      3501 1.16812E-04-5.12194E-05-2.78655E-05-1.78385E-05 7.94442E-19-1.84121E-18
 -1      3502 1.21690E-04-5.28273E-05-2.92714E-05 1.24207E-05 4.70629E-19-1.54277E-18
 -1      3503 1.15011E-04-4.89985E-05-2.82605E-05 1.58901E-05-1.85884E-19-8.94258E-19
 -1      3504 1.11082E-04-4.66503E-05-2.75794E-05-1.87837E-05 9.34694E-19-1.65620E-18
 -1      3505 1.06536E-04-4.22519E-05-2.74255E-05-1.96516E-05 1.08508E-18-9.19152E-19
 -1      3506 1.09843E-04-4.84651E-05-2.64922E-05-2.30839E-05 6.20783E-19-2.12011E-18
 -1      3507 9.54704E-05-2.87936E-05-2.85739E-05-7.96755E-07-1.76052E-19 1.51771E-19
 -1      3508 9.54874E-05-2.88353E-05-2.85659E-05-8.22605E-07-1.05839E-19-4.64610E-20
 -1      3509 9.55420E-05-2.88820E-05-2.85669E-05-8.53509E-07 1.80357E-19-1.30336E-19
 -1      3510 9.55616E-05-2.89093E-05-2.85655E-05-8.89016E-07 2.10093E-19 1.67359E-19
 -1      3511 9.56484E-05-2.89175E-05-2.86002E-05-8.07944E-07 8.79426E-20 3.40916E-19
 -1      3512 9.53336E-05-2.85430E-05-2.86223E-05-7.87205E-07 2.52371E-19 1.06979E-19
 -1      3513 9.53481E-05-2.86080E-05-2.86045E-05-7.72165E-07 2.27633E-19-2.20881E-19
 -1      3514 9.52615E-05-2.83819E-05-2.86602E-05-8.58884E-07 3.96806E-19 5.67931E-19
 -1      3515 9.52765E-05-2.84585E-05-2.86383E-05-8.14375E-07 4.43694E-19 4.11129E-19
 -1      3516 9.53257E-05-2.84888E-05-2.86447E-05-7.85182E-07 1.39291E-19-6.48784E-19
 -1      3517 9.51807E-05-2.81939E-05-2.87058E-05-9.96578E-07 3.14428E-19 3.87392E-19
 -1      3518 9.51976E-05-2.82834E-05-2.86800E-05-9.16887E-07 4.02492E-19 3.94788E-19
 -1      3519 9.52055E-05-2.82875E-05-2.86791E-05-8.72237E-07 4.89105E-19 2.37867E-19
 -1      3520 9.50856E-05-2.79753E-05-2.87584E-05-1.21168E-06 2.11726E-19 4.45620E-20
 -1      3521 9.51059E-05-2.80791E-05-2.87288E-05-1.09097E-06 2.33294E-19 2.32775E-19
 -1      3522 9.50678E-05-2.80526E-05-2.87203E-05-1.02530E-06 3.43746E-19-8.95949E-20
 -1      3523 9.49701E-05-2.77227E-05-2.88168E-05-1.51598E-06 3.77586E-19 5.01056E-19
 -1      3524 9.49952E-05-2.78419E-05-2.87838E-05-1.34827E-06 3.82935E-19 4.33724E-19
 -1      3525 9.49037E-05-2.77794E-05-2.87665E-05-1.25554E-06 1.91386E-19 3.34374E-19
 -1      3526 9.48281E-05-2.74341E-05-2.88792E-05-1.92147E-06 1.80909E-19 2.57342E-19
 -1      3527 9.48592E-05-2.75687E-05-2.88433E-05-1.70085E-06 3.33634E-19 2.81521E-19
 -1      3528 9.47039E-05-2.74637E-05-2.88156E-05-1.57452E-06 2.69707E-19 5.88436E-19
 -1      3529 9.46542E-05-2.71115E-05-2.89424E-05-2.43979E-06 2.23299E-19-6.69730E-20
 -1      3530 9.46918E-05-2.72593E-05-2.89050E-05-2.16081E-06 2.39315E-19-9.19382E-20
 -1      3531 9.44584E-05-2.71034E-05-2.88642E-05-1.99405E-06 5.00725E-19-1.03868E-19
 -1      3532 9.44457E-05-2.67642E-05-2.90013E-05-3.08116E-06 1.35708E-19-4.75515E-19
 -1      3533 9.44885E-05-2.69187E-05-2.89648E-05-2.73961E-06 1.28924E-19-2.66887E-19
 -1      3534 9.41585E-05-2.67013E-05-2.89073E-05-2.52580E-06 1.53263E-19-5.47550E-19
 -1      3535 9.42059E-05-2.64128E-05-2.90484E-05-3.85324E-06 1.96070E-19-2.67578E-19
 -1      3536 9.42491E-05-2.65612E-05-2.90163E-05-3.44702E-06 3.85988E-20-2.46436E-19
 -1      3537 9.37984E-05-2.62687E-05-2.89376E-05-3.18086E-06-3.67026E-20-2.76038E-19
 -1      3538 9.39496E-05-2.60975E-05-2.90727E-05-4.75965E-06 1.37230E-19 2.54110E-19
 -1      3539 9.39814E-05-2.62160E-05-2.90503E-05-4.28997E-06 3.13922E-19 1.42226E-19
 -1      3540 9.33789E-05-2.58308E-05-2.89449E-05-3.96946E-06-9.07955E-20-1.76533E-19
 -1      3541 9.37129E-05-2.58871E-05-2.90599E-05-5.79868E-06-4.30098E-19 9.52705E-21
 -1      3542 9.37094E-05-2.59361E-05-2.90541E-05-5.27141E-06 1.29780E-19 3.91350E-19
 -1      3543 9.29141E-05-2.54345E-05-2.89154E-05-4.90129E-06 2.80913E-19 2.91929E-19
 -1      3544 9.35683E-05-2.58942E-05-2.89925E-05-6.96198E-06-9.55151E-19 1.63924E-19
 -1      3545 9.34847E-05-2.58102E-05-2.90113E-05-6.38936E-06-8.54057E-19-1.74425E-19
 -1      3546 9.24412E-05-2.51595E-05-2.88314E-05-5.98704E-06-6.19044E-19 7.37523E-19
 -1      3547 9.36485E-05-2.62921E-05-2.88522E-05-8.23177E-06-1.24662E-18 2.57055E-19
 -1      3548 9.34065E-05-2.59786E-05-2.89037E-05-7.63540E-06-1.00927E-18 1.57491E-19
 -1      3549 9.20375E-05-2.51338E-05-2.86721E-05-7.24090E-06-1.05961E-18 1.01384E-19
 -1      3550 9.41782E-05-2.73342E-05-2.86265E-05-9.57307E-06-4.04097E-20 6.88573E-19
 -1      3551 9.36499E-05-2.66529E-05-2.87143E-05-8.99038E-06-6.58436E-19 4.13060E-19
 -1      3552 9.18463E-05-2.55532E-05-2.84168E-05-8.68261E-06-9.67912E-19-2.60613E-19
 -1      3553 9.55172E-05-2.93660E-05-2.83213E-05-1.09093E-05-5.79606E-19 4.44080E-19
 -1      3554 9.45066E-05-2.81330E-05-2.84371E-05-1.04101E-05 2.59360E-19 9.35274E-19
 -1      3555 9.21154E-05-2.67042E-05-2.80516E-05-1.03339E-05-4.28704E-19 2.80913E-19
 -1      3556 9.82059E-05-3.28184E-05-2.79889E-05-1.20592E-05-1.21197E-18 9.96555E-19
 -1      3557 9.64365E-05-3.08120E-05-2.80956E-05-1.17849E-05-1.00815E-18 3.75232E-19
 -1      3558 9.32518E-05-2.89866E-05-2.75848E-05-1.21912E-05-8.03467E-19 1.28903E-18
 -1      3559 1.02933E-04-3.79919E-05-2.77806E-05-1.25743E-05-9.08064E-19 1.20261E-18
 -1      3560 1.00133E-04-3.51266E-05-2.77865E-05-1.27921E-05-1.01696E-18 1.04701E-18
 -1      3561 9.58799E-05-3.29270E-05-2.70788E-05-1.41383E-05-9.59166E-19 7.23141E-19
 -1      3562 1.10689E-04-4.49374E-05-2.81125E-05-1.09495E-05-8.44029E-19 6.76382E-19
 -1      3563 1.06503E-04-4.13680E-05-2.77461E-05-1.26221E-05-2.84231E-19 1.07848E-18
 -1      3564 1.01326E-04-3.92209E-05-2.67933E-05-1.57173E-05-7.55027E-19 4.71817E-19
 -1      3565 1.19669E-04-5.32895E-05-2.83470E-05-1.12271E-05 5.30851E-20-1.42057E-19
 -1      3566 1.14601E-04-5.02800E-05-2.73923E-05-1.41304E-05-8.21023E-19-3.65879E-19
 -1      3567 9.40172E-05-2.13575E-05-3.11354E-05-4.33436E-06-7.36991E-19-1.32236E-18
 -1      3568 6.48957E-05-2.26052E-05-1.77918E-05-2.20282E-05 8.83799E-19-1.84666E-18
 -1      3569 7.44364E-05-2.90785E-05-1.94332E-05-2.55530E-05 5.81369E-19-1.12152E-18
 -1      3570 1.01743E-04-4.39893E-05-2.44929E-05-2.74094E-05 1.38506E-19 4.11059E-19
 -1      3571 1.10715E-04-4.52853E-05-2.78952E-05 1.76288E-05-3.37627E-19-7.62214E-19
 -1      3572 9.59038E-05-2.73766E-05-2.93758E-05 1.08693E-07 7.07025E-19-3.19115E-19
 -1      3573 9.58903E-05-2.69126E-05-2.95506E-05 5.70609E-07 8.67087E-19-2.07717E-19
 -1      3574 9.29350E-05-3.11078E-05-2.63607E-05-2.15206E-05 8.67234E-19 9.92701E-19
 -1      3575 8.76734E-05-2.80131E-05-2.56441E-05-2.10269E-05 6.52321E-19 3.49694E-18
 -1      3576 9.54020E-05-2.86800E-05-2.85931E-05-7.70353E-07 3.73467E-19-8.06246E-20
 -1      3577 9.54171E-05-2.87336E-05-2.85798E-05-7.78952E-07 2.19832E-19-5.36613E-20
 -1      3578 9.55418E-05-2.88035E-05-2.86030E-05-7.64902E-07 7.73603E-20-4.42123E-20
 -1      3579 9.54357E-05-2.86602E-05-2.86187E-05-7.53164E-07 2.75858E-19-5.19295E-19
 -1      3580 9.57828E-05-2.89107E-05-2.86591E-05-1.02422E-06 3.15360E-19-4.89409E-20
 -1      3581 9.58133E-05-2.88553E-05-2.86935E-05-1.01597E-06 2.64909E-19-7.46847E-20
 -1      3582 8.85833E-05-3.73070E-05-2.17147E-05 2.60117E-05 1.42036E-18 5.35881E-19
 -1      3583 9.60429E-05-2.69139E-05-2.96165E-05-4.51314E-07-7.37789E-20-1.08228E-18
 -1      3584 9.60926E-05-2.74103E-05-2.94428E-05-3.92286E-08-2.19436E-19-8.55048E-19
 -1      3585 9.62811E-05-2.74636E-05-2.94937E-05 8.14627E-09-2.24562E-19-9.46336E-19
 -1      3586 9.20299E-05-3.65670E-05-2.39422E-05 2.71703E-05 1.29946E-18-1.97708E-18
 -1      3587 8.21928E-05-2.91627E-05-2.24691E-05 2.54236E-05 1.21806E-18-1.22008E-18
 -1      3588 5.36157E-05-1.48251E-05-1.64433E-05-8.69163E-06-2.86350E-19-2.60685E-18
 -1      3589 5.80575E-05-1.82713E-05-1.69275E-05-1.69371E-05 6.14417E-19-2.92205E-18
 -1      3590 6.53279E-05-2.04636E-05-1.89991E-05-1.71691E-05 5.67300E-19-2.46275E-18
 -1      3591 9.59554E-05-2.80864E-05-2.90912E-05-4.97059E-07 4.17060E-19-4.84462E-19
 -1      3592 9.59733E-05-2.77829E-05-2.92149E-05-2.18276E-07 5.92181E-19-4.16929E-19
 -1      3593 9.61125E-05-2.74066E-05-2.94470E-05 4.99629E-08 7.03874E-19-4.25389E-19
 -1      3594 7.32565E-05-2.89834E-05-1.90488E-05 2.64157E-05 1.91557E-18-7.75988E-19
 -1      3595 6.36882E-05-2.17397E-05-1.77662E-05 2.07492E-05 1.05321E-18-1.37193E-18
 -1      3596 8.52892E-05-3.42310E-05-2.15390E-05-2.96145E-05 7.71806E-19 5.60024E-18
 -1      3597 9.24950E-05-3.93925E-05-2.27701E-05-3.01290E-05-4.47842E-19 2.69642E-18
 -1      3598 9.74693E-05-3.92613E-05-2.48780E-05-2.57852E-05 4.96944E-19-5.43160E-20
 -1      3599 8.04711E-05-2.89990E-05-2.19437E-05-2.53094E-05 5.18927E-19 5.10971E-18
 -1      3600 7.36225E-05-2.36916E-05-2.15111E-05 2.18625E-05 1.10156E-18-4.43104E-19
 -1      3601 6.75645E-05-1.87227E-05-2.07100E-05 1.48942E-05 6.66569E-19-4.64783E-19
 -1      3602 8.20632E-05-3.30660E-05-2.06341E-05-2.63113E-05 6.08792E-19-9.46983E-19
 -1      3603 8.95315E-05-3.78019E-05-2.22616E-05-2.53378E-05 4.27298E-19-1.92438E-18
 -1      3604 7.78692E-05-2.88294E-05-2.09286E-05-2.31231E-05 1.44767E-18-9.11090E-19
 -1      3605 9.53441E-05-2.46466E-05-3.03069E-05-2.01387E-06-4.57383E-19-1.21222E-18
 -1      3606 9.54623E-05-2.47191E-05-3.03260E-05-1.67476E-06-3.02506E-19-9.17517E-19
 -1      3607 9.50418E-05-2.36755E-05-3.05861E-05-2.77958E-06-6.35333E-19-1.21049E-18
 -1      3608 9.39518E-05-2.12110E-05-3.11836E-05-1.21797E-06 1.16595E-19-1.06058E-18
 -1      3609 9.40887E-05-2.14828E-05-3.11303E-05-1.74320E-06-7.18803E-20-1.26134E-18
 -1      3610 6.95238E-05-1.73545E-05-2.22116E-05 7.84949E-06-2.95780E-19 1.79284E-18
 -1      3611 9.48834E-05-2.30773E-05-3.07551E-05-1.75989E-06-1.80097E-19-1.11065E-18
 -1      3612 9.43368E-05-2.20551E-05-3.09805E-05-2.37707E-06-2.62707E-19-1.30515E-18
 -1      3613 9.31499E-05-1.96213E-05-3.14947E-05-5.86767E-07 2.34878E-19-1.32944E-18
 -1      3614 9.60851E-05-2.88702E-05-2.88089E-05-9.22071E-07-5.22636E-20-6.42619E-19
 -1      3615 9.58628E-05-2.87805E-05-2.87502E-05-9.88249E-07 8.11468E-20-3.30202E-19
 -1      3616 9.58955E-05-2.86710E-05-2.88060E-05-9.25281E-07-3.60020E-21-4.91212E-19
 -1      3617 1.02947E-04-3.57074E-05-2.88346E-05 1.57999E-05 1.92368E-18 2.09386E-19
 -1      3618 1.07948E-04-4.21938E-05-2.81323E-05 1.72026E-05 7.84242E-19-9.72397E-19
 -1      3619 1.06148E-04-4.43072E-05-2.67008E-05 2.22575E-05 7.88472E-19-1.04936E-18
 -1      3620 1.00918E-04-4.13012E-05-2.53482E-05 2.50954E-05 1.58037E-18-2.06335E-18
 -1      3621 1.04612E-04-3.91503E-05-2.79937E-05 1.82767E-05 1.64847E-18-1.14231E-18
 -1      3622 9.57262E-05-2.89369E-05-2.86225E-05-1.01330E-06 3.38137E-19 3.28693E-20
 -1      3623 9.59824E-05-2.89964E-05-2.87105E-05-9.53900E-07 3.53503E-19-6.52707E-20
 -1      3624 9.56993E-05-2.89547E-05-2.86038E-05-9.90858E-07 1.82804E-19-2.36713E-19
 -1      3625 1.04701E-04-3.96984E-05-2.78088E-05-1.86197E-05 6.59733E-19-7.81706E-19
 -1      3626 1.01988E-04-3.64520E-05-2.80305E-05-1.83740E-05 6.28195E-19-1.22907E-18
 -1      3627 9.98471E-05-3.52295E-05-2.76657E-05-1.95774E-05 1.46327E-19-2.36609E-18
 -1      3628 1.02872E-04-4.03989E-05-2.67847E-05-2.19693E-05 7.92962E-19-1.06042E-18
 -1      3629 9.57580E-05-2.89963E-05-2.86137E-05-8.67451E-07 2.19405E-19-3.83131E-20
 -1      3630 9.56182E-05-2.89393E-05-2.85752E-05-9.24941E-07 4.42622E-19-3.16882E-20
 -1      3631 9.56413E-05-2.89477E-05-2.85824E-05-9.60372E-07 4.09393E-19-1.71957E-19
 -1      3632 1.07602E-04-4.78914E-05-2.56429E-05-2.00642E-05-9.97778E-20-1.06607E-18
 -1      3633 5.53302E-05-1.40799E-05-1.73987E-05-3.23909E-06-1.85652E-19-2.25364E-18
 -1      3634 6.04896E-05-1.55002E-05-1.91303E-05-6.25777E-06-3.43776E-20-2.69335E-18
 -1      3635 5.85873E-05-1.46733E-05-1.87921E-05 2.29878E-06-2.82234E-20-1.55899E-18
 -1      3636 8.15059E-05-2.58926E-05-2.36737E-05 2.10859E-05 5.52782E-19-1.02888E-18
 -1      3637 9.65345E-05-3.63939E-05-2.57521E-05 2.34119E-05 9.09667E-19-2.57191E-18
 -1      3638 6.88252E-05-2.14439E-05-2.02671E-05 1.72203E-05 9.97256E-19-4.84688E-19
 -1      3639 6.18439E-05-1.86736E-05-1.82170E-05 1.61777E-05 6.88323E-19-6.63174E-19
 -1      3640 6.13830E-05-1.65929E-05-1.91349E-05 1.01910E-05 4.11890E-19-8.92746E-19
 -1      3641 7.13896E-05-1.67700E-05-2.34711E-05-7.09407E-06-6.93826E-19 2.30920E-18
 -1      3642 7.03095E-05-1.57726E-05-2.32936E-05-1.00693E-06-1.17542E-19 4.76486E-18
 -1      3643 9.59276E-05-2.85250E-05-2.88891E-05-8.33801E-07 1.32285E-19-6.25916E-19
 -1      3644 9.59580E-05-2.83369E-05-2.89739E-05-6.83835E-07 1.71095E-19-5.82798E-19
 -1      3645 9.61632E-05-2.86085E-05-2.89546E-05-7.84323E-07 7.40858E-20-6.86461E-19
 -1      3646 8.63742E-05-2.75272E-05-2.53429E-05 2.11483E-05 5.51123E-19-9.28818E-19
 -1      3647 9.18731E-05-3.04995E-05-2.61156E-05 2.16890E-05 7.55945E-19-2.02780E-18
 -1      3648 9.57262E-05-2.64011E-05-2.97196E-05 9.77866E-07 9.36731E-19-2.16954E-19
 -1      3649 9.56411E-05-2.58642E-05-2.99047E-05 1.57293E-06 9.53032E-19-2.88406E-19
 -1      3650 9.59078E-05-2.64306E-05-2.97838E-05 8.21491E-07 8.37193E-19-2.44886E-19
 -1      3651 6.82985E-05-1.84812E-05-2.11364E-05-1.19223E-05-9.08191E-19 2.13603E-18
 -1      3652 9.59922E-05-2.62904E-05-2.98691E-05-7.13095E-07-1.65493E-19-8.91203E-19
 -1      3653 9.49407E-05-2.35296E-05-3.06229E-05 3.06127E-06 1.07306E-18-6.71287E-19
 -1      3654 9.46739E-05-2.28291E-05-3.07905E-05 2.81488E-06 8.79163E-19-8.93894E-19
 -1      3655 9.40970E-05-2.15157E-05-3.11204E-05 1.76794E-06 7.37265E-19-1.47919E-18
 -1      3656 9.39625E-05-2.12271E-05-3.11797E-05 1.24883E-06 7.28642E-19-1.35908E-18
 -1      3657 8.60422E-05-3.33384E-05-2.23366E-05 2.29030E-05 1.40690E-18 2.32828E-19
 -1      3658 9.73186E-05-3.35934E-05-2.73250E-05-2.01690E-05 4.94660E-19-1.15472E-18
 -1      3659 9.61895E-05-2.81513E-05-2.91616E-05-4.83508E-07 3.17788E-19-9.38105E-19
 -1      3660 9.62511E-05-3.52669E-05-2.61678E-05-2.25236E-05 9.33377E-19-1.45703E-19
 -1      3661 9.38738E-05-2.10505E-05-3.12211E-05 8.13315E-07 6.77937E-19-1.12889E-18
 -1      3662 9.38277E-05-2.09588E-05-3.12405E-05 2.54742E-07 4.77166E-19-1.23585E-18
 -1      3663 9.46157E-05-2.23805E-05-3.09383E-05 8.05195E-07 6.75962E-19-1.18997E-18
 -1      3664 9.83262E-05-3.51937E-05-2.71561E-05 2.06737E-05 6.82212E-19-2.95243E-18
 -1      3665 9.38275E-05-2.09559E-05-3.12414E-05-2.16757E-07 2.84290E-19-1.29465E-18
 -1      3666 9.38719E-05-2.10471E-05-3.12233E-05-7.75692E-07 1.60491E-19-1.24335E-18
 -1      3667 9.46376E-05-2.23808E-05-3.09383E-05-8.25221E-07 1.59075E-19-1.07527E-18
 -1      3668 9.45724E-05-2.22351E-05-3.09781E-05-1.53115E-08 3.79729E-19-1.11317E-18
 -1      3669 9.65292E-05-2.80197E-05-2.93561E-05 2.91384E-07-2.84769E-19-9.06909E-19
 -1      3670 9.65398E-05-2.83402E-05-2.92321E-05 4.73462E-07-2.33142E-19-8.12735E-19
 -1      3671 9.65481E-05-2.85990E-05-2.91173E-05 5.74694E-07 5.23652E-20-6.23229E-19
 -1      3672 9.65162E-05-2.87914E-05-2.90267E-05 6.72281E-07 1.22843E-19-4.10449E-19
 -1      3673 9.66804E-05-2.84260E-05-2.92523E-05 4.25390E-07 7.03168E-20-6.84079E-19
 -1      3674 9.64738E-05-2.89361E-05-2.89420E-05 7.17344E-07-8.13195E-20-4.18471E-19
 -1      3675 9.64186E-05-2.90379E-05-2.88779E-05 7.57086E-07-1.36546E-19-4.07901E-19
 -1      3676 9.66456E-05-2.88674E-05-2.90490E-05 5.86101E-07-2.06386E-20-5.46037E-19
 -1      3677 9.63471E-05-2.91021E-05-2.88175E-05 7.65249E-07-1.68965E-19-3.88352E-19
 -1      3678 9.62809E-05-2.91401E-05-2.87741E-05 7.69152E-07-2.81069E-19-4.87325E-19
 -1      3679 9.65324E-05-2.91018E-05-2.89006E-05 6.53531E-07-1.81233E-19-3.27674E-19
 -1      3680 9.61946E-05-2.91483E-05-2.87331E-05 7.56337E-07-3.59585E-19-3.34497E-19
 -1      3681 9.61246E-05-2.91417E-05-2.87059E-05 7.41358E-07-2.68425E-19-3.08299E-19
 -1      3682 9.63760E-05-2.91891E-05-2.87962E-05 6.62135E-07-1.83317E-19-2.79880E-19
 -1      3683 9.60320E-05-2.91109E-05-2.86801E-05 7.19633E-07-3.06799E-19-5.01425E-19
 -1      3684 9.59618E-05-2.90726E-05-2.86654E-05 6.98548E-07-2.62629E-19-4.69559E-19
 -1      3685 9.61988E-05-2.91734E-05-2.87268E-05 6.39299E-07-2.95301E-19-1.90712E-19
 -1      3686 9.58668E-05-2.90137E-05-2.86515E-05 6.77134E-07-1.34767E-19-5.50620E-19
 -1      3687 9.57974E-05-2.89519E-05-2.86466E-05 6.59705E-07-1.80565E-19-2.83502E-19
 -1      3688 9.60129E-05-2.90845E-05-2.86850E-05 6.05885E-07-2.48642E-19-1.39777E-19
 -1      3689 9.57008E-05-2.88713E-05-2.86419E-05 6.45732E-07-3.11856E-19-7.61276E-20
 -1      3690 9.56315E-05-2.87904E-05-2.86445E-05 6.39505E-07-3.13147E-19-1.45910E-19
 -1      3691 9.58231E-05-2.89410E-05-2.86648E-05 5.78142E-07-1.23523E-19 4.26596E-20
 -1      3692 9.55315E-05-2.86911E-05-2.86470E-05 6.38603E-07-5.75157E-19-3.03923E-19
 -1      3693 9.54599E-05-2.85929E-05-2.86556E-05 6.49722E-07-6.47896E-19 3.51026E-21
 -1      3694 9.56285E-05-2.87534E-05-2.86613E-05 5.68667E-07-3.04822E-19 1.49275E-19
 -1      3695 9.53529E-05-2.84753E-05-2.86635E-05 6.66669E-07-5.66891E-19 1.42341E-19
 -1      3696 9.52754E-05-2.83592E-05-2.86767E-05 7.00498E-07-6.34808E-19-3.05109E-20
 -1      3697 9.54238E-05-2.85257E-05-2.86706E-05 5.87686E-07-5.11487E-19 1.44310E-20
 -1      3698 9.51560E-05-2.82214E-05-2.86885E-05 7.39699E-07-5.25858E-19-1.35029E-19
 -1      3699 9.50680E-05-2.80856E-05-2.87051E-05 8.01271E-07-5.51912E-19 2.82945E-19
 -1      3700 9.51998E-05-2.82566E-05-2.86893E-05 6.44153E-07-5.64956E-19 3.00553E-20
 -1      3701 9.49295E-05-2.79248E-05-2.87193E-05 8.67083E-07-4.33836E-19 6.52081E-19
 -1      3702 9.48258E-05-2.77664E-05-2.87380E-05 9.61380E-07-2.95143E-19 6.09766E-19
 -1      3703 9.49445E-05-2.79417E-05-2.87142E-05 7.46487E-07-1.23269E-19 5.23500E-19
 -1      3704 9.46600E-05-2.75789E-05-2.87528E-05 1.05832E-06-1.14190E-19 8.61956E-19
 -1      3705 9.45344E-05-2.73952E-05-2.87723E-05 1.19042E-06-1.61452E-19 8.36400E-19
 -1      3706 9.46434E-05-2.75742E-05-2.87418E-05 9.03082E-07-9.52937E-20 1.13408E-18
 -1      3707 9.43325E-05-2.71774E-05-2.87855E-05 1.32330E-06-1.29773E-19 9.54839E-19
 -1      3708 9.41784E-05-2.69661E-05-2.88036E-05 1.49836E-06 2.50831E-19 1.11863E-18
 -1      3709 9.42796E-05-2.71469E-05-2.87679E-05 1.12261E-06-4.91803E-20 1.35276E-18
 -1      3710 9.39308E-05-2.67159E-05-2.88122E-05 1.67234E-06 3.86329E-19 1.32333E-18
 -1      3711 9.37416E-05-2.64768E-05-2.88261E-05 1.89561E-06 3.63238E-19 8.57512E-19
 -1      3712 9.38346E-05-2.66541E-05-2.87873E-05 1.41422E-06 2.22846E-19 1.47002E-18
 -1      3713 9.34384E-05-2.61941E-05-2.88260E-05 2.11634E-06 3.77120E-19 1.07587E-18
 -1      3714 9.32085E-05-2.59303E-05-2.88317E-05 2.39307E-06 2.99959E-19 8.02796E-19
 -1      3715 9.32890E-05-2.60933E-05-2.87925E-05 1.78772E-06 3.69630E-19 1.08944E-18
 -1      3716 9.28403E-05-2.56194E-05-2.88175E-05 2.66700E-06-2.56270E-20 3.59888E-19
 -1      3717 9.25663E-05-2.53396E-05-2.88094E-05 3.00266E-06-1.20935E-19 1.13805E-19
 -1      3718 9.26237E-05-2.54684E-05-2.87736E-05 2.25405E-06-2.47344E-19 6.93526E-19
 -1      3719 9.21255E-05-2.50112E-05-2.87735E-05 3.33786E-06 2.81378E-19 3.00790E-19
 -1      3720 9.18086E-05-2.47327E-05-2.87442E-05 3.73883E-06 3.64435E-19 3.62068E-19
 -1      3721 9.18215E-05-2.47937E-05-2.87173E-05 2.82652E-06 1.17547E-19 1.19892E-18
 -1      3722 9.12907E-05-2.44068E-05-2.86767E-05 4.14676E-06 3.78068E-19 2.32374E-19
 -1      3723 9.09407E-05-2.41597E-05-2.86166E-05 4.62196E-06 7.93953E-19 7.36945E-19
 -1      3724 9.08698E-05-2.40982E-05-2.86057E-05 3.52354E-06 5.59020E-19 1.33789E-18
 -1      3725 9.03470E-05-2.38700E-05-2.85048E-05 5.12094E-06 5.35217E-19 1.10231E-18
 -1      3726 8.99886E-05-2.37026E-05-2.84018E-05 5.68498E-06 5.11398E-19 1.57525E-18
 -1      3727 8.97643E-05-2.34321E-05-2.84156E-05 4.37422E-06 8.35393E-19 7.65199E-19
 -1      3728 8.93302E-05-2.35017E-05-2.82299E-05 6.30590E-06 6.57261E-20 1.00592E-18
 -1      3729 8.90133E-05-2.34889E-05-2.80704E-05 6.98387E-06-6.16502E-19 7.08136E-19
 -1      3730 8.85149E-05-2.28749E-05-2.81175E-05 5.42829E-06 1.05345E-20 4.24082E-19
 -1      3731 8.83178E-05-2.34557E-05-2.78194E-05 7.77880E-06-9.02996E-19 5.45417E-19
 -1      3732 8.81342E-05-2.37098E-05-2.75896E-05 8.61206E-06-4.16828E-19 1.33043E-20
 -1      3733 8.71558E-05-2.25471E-05-2.76749E-05 6.77192E-06-1.01861E-18-6.57222E-19
 -1      3734 8.74578E-05-2.39606E-05-2.72378E-05 9.66951E-06-1.51472E-19 2.33055E-19
 -1      3735 8.75717E-05-2.46527E-05-2.69279E-05 1.07189E-05 4.88080E-20 4.06520E-19
 -1      3736 8.57594E-05-2.26246E-05-2.70441E-05 8.55327E-06-4.58482E-19-4.09203E-19
 -1      3737 8.70401E-05-2.53760E-05-2.64524E-05 1.21666E-05 2.40721E-19 1.03860E-18
 -1      3738 8.76898E-05-2.67488E-05-2.60644E-05 1.35032E-05 5.12374E-19 1.42859E-18
 -1      3739 8.44820E-05-2.33865E-05-2.61743E-05 1.10178E-05 2.19869E-19 8.41377E-19
 -1      3740 8.75281E-05-2.81755E-05-2.54520E-05 1.53928E-05 7.14952E-19 7.34096E-19
 -1      3741 8.92953E-05-3.06932E-05-2.50905E-05 1.71375E-05 1.16047E-18 9.89523E-19
 -1      3742 8.37901E-05-2.53222E-05-2.50185E-05 1.45388E-05 5.75084E-19 1.28562E-18
 -1      3743 9.57409E-05-2.89420E-05-2.86264E-05-7.30697E-07 1.23897E-19-7.03471E-20
 -1      3744 9.57958E-05-2.89932E-05-2.86298E-05-7.53568E-07 1.52670E-19-7.70072E-20
 -1      3745 9.44982E-05-2.24326E-05-3.08789E-05-3.33857E-06-6.63806E-19-1.31310E-18
 -1      3746 9.78510E-05-3.80100E-05-2.56467E-05-2.38194E-05 1.08580E-18-4.47055E-19
 -1      3747 9.51479E-05-2.81892E-05-2.86946E-05-8.41146E-07 3.75220E-19 3.24283E-19
 -1      3748 9.52125E-05-2.83065E-05-2.86763E-05-7.82374E-07 3.05180E-19 6.60523E-20
 -1      3749 9.53130E-05-2.84278E-05-2.86632E-05-7.44631E-07 3.17414E-19-4.79453E-19
 -1      3750 9.53708E-05-2.85279E-05-2.86486E-05-7.14907E-07 2.10540E-19-5.38054E-19
 -1      3751 9.52554E-05-2.83380E-05-2.86786E-05-7.06288E-07 2.91503E-19-3.22056E-19
 -1      3752 9.47276E-05-2.75871E-05-2.87723E-05-1.23393E-06-9.28491E-20 4.12515E-19
 -1      3753 9.48190E-05-2.77457E-05-2.87493E-05-1.10097E-06 2.20981E-20 4.54530E-19
 -1      3754 9.44483E-05-2.72130E-05-2.88128E-05-1.55135E-06 3.80374E-19 4.85428E-19
 -1      3755 9.45604E-05-2.73953E-05-2.87895E-05-1.37305E-06 3.19366E-19 4.61878E-19
 -1      3756 9.44886E-05-2.73499E-05-2.87712E-05-1.20441E-06 1.79151E-19 2.13486E-19
 -1      3757 9.41054E-05-2.67860E-05-2.88486E-05-1.96410E-06 3.73371E-19 4.31384E-19
 -1      3758 9.42431E-05-2.69923E-05-2.88273E-05-1.73496E-06 4.79197E-19 6.07040E-19
 -1      3759 9.41197E-05-2.69108E-05-2.88003E-05-1.51600E-06 3.81345E-19 4.32145E-19
 -1      3760 9.36868E-05-2.63091E-05-2.88734E-05-2.48334E-06-3.42561E-20 3.58854E-19
 -1      3761 9.38541E-05-2.65364E-05-2.88570E-05-2.19808E-06 3.40874E-19 3.49198E-19
 -1      3762 9.36673E-05-2.64108E-05-2.88196E-05-1.91765E-06 2.53815E-19 7.85943E-19
 -1      3763 9.31833E-05-2.57947E-05-2.88777E-05-3.12036E-06-1.38840E-19 2.36309E-20
 -1      3764 9.33819E-05-2.60346E-05-2.88710E-05-2.77407E-06-1.08762E-19-3.17676E-20
 -1      3765 9.31158E-05-2.58538E-05-2.88207E-05-2.42072E-06 1.07948E-19 6.43931E-19
 -1      3766 9.25927E-05-2.52694E-05-2.88490E-05-3.88711E-06-1.08945E-19 4.12323E-19
 -1      3767 9.28195E-05-2.55055E-05-2.88581E-05-3.47512E-06-7.22868E-20 2.33123E-19
 -1      3768 9.24522E-05-2.52538E-05-2.87921E-05-3.03794E-06-2.21310E-19 5.28704E-19
 -1      3769 9.19257E-05-2.47825E-05-2.87706E-05-4.79809E-06-1.21304E-19 7.03576E-19
 -1      3770 9.21690E-05-2.49855E-05-2.88037E-05-4.31528E-06-2.82596E-19 1.36479E-19
 -1      3771 9.16695E-05-2.46400E-05-2.87184E-05-3.78537E-06-1.75896E-19 1.79926E-19
 -1      3772 9.12168E-05-2.44161E-05-2.86213E-05-5.87440E-06-6.19216E-19 2.19489E-19
 -1      3773 9.14491E-05-2.45379E-05-2.86887E-05-5.31361E-06 4.60969E-20 8.11485E-19
 -1      3774 9.07724E-05-2.40646E-05-2.85795E-05-4.68643E-06-2.58153E-19 5.14812E-19
 -1      3775 9.05400E-05-2.43003E-05-2.83763E-05-7.15051E-06-8.60440E-19 1.21779E-19
 -1      3776 9.07078E-05-2.42654E-05-2.84893E-05-6.50007E-06-8.33777E-19 4.91460E-19
 -1      3777 8.97853E-05-2.36119E-05-2.83500E-05-5.77970E-06-5.31311E-19 8.67354E-19
 -1      3778 9.00357E-05-2.46332E-05-2.80096E-05-8.68143E-06-9.05507E-19-3.66541E-19
 -1      3779 9.00430E-05-2.43277E-05-2.81788E-05-7.92330E-06-1.16764E-18 3.85340E-20
 -1      3780 8.87676E-05-2.34146E-05-2.79996E-05-7.13096E-06-9.43134E-19 3.74860E-19
 -1      3781 8.99518E-05-2.57056E-05-2.75008E-05-1.05466E-05-9.49139E-19 8.82969E-19
 -1      3782 8.96345E-05-2.49632E-05-2.77313E-05-9.65866E-06-6.28218E-19 3.76558E-19
 -1      3783 8.78378E-05-2.36722E-05-2.74947E-05-8.84686E-06-1.13558E-18 5.10124E-19
 -1      3784 9.06915E-05-2.79378E-05-2.68494E-05-1.28423E-05-9.66805E-19 1.13720E-18
 -1      3785 8.98008E-05-2.65211E-05-2.71310E-05-1.18132E-05-5.84062E-19 1.22426E-18
 -1      3786 8.72090E-05-2.46781E-05-2.68047E-05-1.10954E-05-8.85659E-19 1.15774E-18
 -1      3787 9.32107E-05-3.19901E-05-2.61735E-05-1.54580E-05-6.43243E-19 2.58080E-21
 -1      3788 9.11060E-05-2.94876E-05-2.63939E-05-1.44423E-05-1.00862E-18 8.76534E-19
 -1      3789 8.73719E-05-2.69589E-05-2.59150E-05-1.41159E-05-5.46558E-19 9.59983E-19
 -1      3790 9.03916E-05-3.34835E-05-2.42254E-05-2.59025E-05 8.24507E-19 3.21118E-18
 -1      3791 9.62925E-05-2.75251E-05-2.94782E-05-6.55897E-08 6.53063E-19-5.65351E-19
 -1      3792 9.62435E-05-2.70424E-05-2.96437E-05 2.87553E-07 8.82562E-19-4.79414E-19
 -1      3793 7.39152E-05-2.02487E-05-2.29421E-05-1.60550E-05-6.79698E-19 1.83354E-18
 -1      3794 7.99862E-05-2.23732E-05-2.45832E-05 1.76136E-05-1.21400E-19-4.69812E-19
 -1      3795 1.00720E-04-4.25155E-05-2.47374E-05-2.10648E-05-4.31355E-19-1.05452E-18
 -1      3796 7.12798E-05-1.65377E-05-2.34154E-05 5.21890E-06-5.29349E-19 2.88085E-18
 -1      3797 9.63832E-05-2.82600E-05-2.91997E-05-4.97051E-07 2.56700E-19-8.68882E-19
 -1      3798 9.63786E-05-2.79426E-05-2.93238E-05-2.85504E-07 4.79197E-19-7.96399E-19
 -1      3799 9.64541E-05-2.76023E-05-2.95086E-05-9.77834E-08 7.21153E-19-5.73954E-19
 -1      3800 9.45424E-05-2.25128E-05-3.08689E-05-2.78397E-06-4.97057E-19-1.10408E-18
 -1      3801 9.63625E-05-2.71082E-05-2.96726E-05-1.93310E-07-7.26045E-20-9.48943E-19
 -1      3802 9.64356E-05-2.75993E-05-2.95074E-05 1.07162E-07-2.64756E-19-8.52172E-19
 -1      3803 9.65787E-05-2.76908E-05-2.95222E-05 1.31391E-07-2.30036E-19-7.28859E-19
 -1      3804 7.52604E-05-1.94696E-05-2.39449E-05 1.41635E-05 3.14514E-19-1.10994E-19
 -1      3805 9.51649E-05-2.44100E-05-3.03163E-05 2.87403E-06 1.12158E-18-4.52137E-19
 -1      3806 9.54226E-05-2.50662E-05-3.01452E-05 2.09253E-06 1.02102E-18-4.44372E-19
 -1      3807 1.02556E-04-3.71792E-05-2.79407E-05 1.87528E-05 1.40277E-18-7.71524E-19
 -1      3808 7.91877E-05-2.36616E-05-2.36799E-05-1.97537E-05-2.60621E-19 4.40250E-18
 -1      3809 9.59219E-05-2.56949E-05-3.00794E-05-9.01426E-07-1.86511E-19-8.76295E-19
 -1      3810 9.61388E-05-2.64712E-05-2.98675E-05-4.65861E-07-5.00771E-20-9.02199E-19
 -1      3811 9.62760E-05-2.65978E-05-2.98715E-05-3.28956E-07-1.28118E-19-9.59495E-19
 -1      3812 6.49257E-05-1.82696E-05-1.99018E-05-1.32052E-05 4.53116E-19-2.98214E-18
 -1      3813 7.05007E-05-2.24019E-05-2.06134E-05-1.79826E-05 8.36035E-19-2.20636E-18
 -1      3814 9.44726E-05-2.23444E-05-3.09291E-05 2.56373E-06 7.40624E-19-1.16102E-18
 -1      3815 9.42588E-05-2.18545E-05-3.10350E-05 2.13726E-06 6.79229E-19-1.33744E-18
 -1      3816 9.48201E-05-2.28951E-05-3.08100E-05 1.54752E-06 6.27263E-19-1.35045E-18
 -1      3817 9.51019E-05-2.37078E-05-3.05846E-05 2.08230E-06 6.52099E-19-8.94009E-19
 -1      3818 9.54918E-05-2.50146E-05-3.01989E-05 1.79096E-06 8.24517E-19-4.72940E-19
 -1      3819 8.18259E-05-2.79760E-05-2.30032E-05-2.37690E-05 9.05862E-19 4.61632E-18
 -1      3820 9.57139E-05-3.83634E-05-2.44734E-05-2.05935E-05-3.11232E-19-7.22837E-19
 -1      3821 9.49566E-05-2.79109E-05-2.87318E-05-1.00078E-06 3.05177E-19 4.59987E-19
 -1      3822 9.50323E-05-2.80476E-05-2.87106E-05-9.07631E-07 5.78226E-19 4.68334E-19
 -1      3823 9.47906E-05-2.77304E-05-2.87384E-05-9.72267E-07 2.80252E-19 4.98939E-19
 -1      3824 9.57216E-05-2.54271E-05-3.01138E-05 1.24166E-06 7.15276E-19-5.19911E-19
 -1      3825 9.54563E-05-2.46575E-05-3.03503E-05 1.70211E-06 6.86277E-19-7.64656E-19
 -1      3826 9.53303E-05-2.41856E-05-3.04876E-05 1.54699E-06 6.29454E-19-1.16003E-18
 -1      3827 9.54464E-05-2.43540E-05-3.04765E-05-9.59241E-07 2.09556E-20-9.61308E-19
 -1      3828 9.55942E-05-2.48785E-05-3.03170E-05-1.35656E-06-2.29771E-19-9.75603E-19
 -1      3829 9.62758E-05-2.89661E-05-2.88475E-05-8.42322E-07 7.73290E-20-7.62098E-19
 -1      3830 9.63242E-05-2.88604E-05-2.89098E-05-7.95667E-07-1.05668E-20-7.75353E-19
 -1      3831 9.59569E-05-2.90687E-05-2.86679E-05-6.96286E-07 1.60121E-19-4.16782E-19
 -1      3832 9.58800E-05-2.90431E-05-2.86429E-05-7.79447E-07 1.32978E-19-1.76028E-19
 -1      3833 9.59368E-05-2.90720E-05-2.86559E-05-8.05134E-07 8.03085E-20-1.94792E-19
 -1      3834 9.56563E-05-2.88719E-05-2.86226E-05-7.11958E-07 2.41882E-19-8.98309E-20
 -1      3835 9.57899E-05-2.89449E-05-2.86490E-05-6.59462E-07 2.61222E-19-2.46478E-19
 -1      3836 9.56026E-05-2.88032E-05-2.86266E-05-7.00202E-07 8.99310E-20-4.31901E-19
 -1      3837 8.46712E-05-3.06279E-05-2.30723E-05 2.05796E-05 1.55682E-18 2.50285E-19
 -1      3838 9.54619E-05-2.86316E-05-2.86397E-05-7.01092E-07 2.98666E-19-1.41837E-19
 -1      3839 9.55163E-05-2.87159E-05-2.86299E-05-6.95011E-07 1.65881E-19-1.57977E-19
 -1      3840 9.56208E-05-2.87797E-05-2.86469E-05-6.41170E-07 5.27409E-20-3.06247E-20
 -1      3841 9.50414E-05-2.80576E-05-2.87064E-05-8.09452E-07 3.32866E-19 6.15634E-19
 -1      3842 9.54451E-05-2.85775E-05-2.86578E-05-6.53363E-07 4.57741E-19 3.56170E-19
 -1      3843 9.23447E-05-3.44981E-05-2.47159E-05-1.92770E-05-3.25324E-19-4.08771E-19
 -1      3844 6.22839E-05-1.55659E-05-1.98144E-05 6.20719E-06 9.47552E-20-8.10081E-19
 -1      3845 6.43810E-05-1.56304E-05-2.08572E-05 2.34410E-06-1.33514E-19-1.14106E-18
 -1      3846 6.67647E-05-1.74221E-05-2.11843E-05 9.14404E-06 4.70848E-19-1.14283E-19
 -1      3847 6.49601E-05-1.59511E-05-2.10271E-05-4.31367E-06 6.64689E-20-2.76630E-18
 -1      3848 6.44384E-05-1.66736E-05-2.03122E-05-9.21126E-06 1.99190E-19-3.24628E-18
 -1      3849 6.92727E-05-1.84145E-05-2.17569E-05-1.04597E-05 1.36928E-19-3.30662E-18
 -1      3850 9.59111E-05-2.60934E-05-2.99328E-05 7.93491E-07 7.74499E-19-5.43674E-19
 -1      3851 9.63624E-05-2.87132E-05-2.89945E-05-7.37348E-07-7.01686E-20-8.10684E-19
 -1      3852 9.63929E-05-2.85196E-05-2.90839E-05-6.23995E-07 2.12051E-20-9.75583E-19
 -1      3853 9.65227E-05-2.87921E-05-2.90290E-05-6.62141E-07-4.57265E-20-8.76644E-19
 -1      3854 7.87144E-05-2.62056E-05-2.23650E-05 1.94092E-05 1.31228E-18 3.48971E-20
 -1      3855 7.54714E-05-2.28971E-05-2.25328E-05 1.56119E-05 7.24306E-19 2.30247E-19
 -1      3856 9.65508E-05-2.83401E-05-2.92340E-05-4.61360E-07 2.10858E-19-1.14079E-18
 -1      3857 7.47188E-05-2.30706E-05-2.20397E-05-1.66007E-05 3.66802E-19-1.95527E-18
 -1      3858 7.53514E-05-2.51653E-05-2.13074E-05-1.99289E-05 9.13019E-19-9.42126E-19
 -1      3859 8.13461E-05-2.90462E-05-2.23578E-05-2.08893E-05 5.12170E-19-1.73642E-19
 -1      3860 9.58705E-05-2.90289E-05-2.86483E-05-9.24417E-07 2.67883E-19-2.60513E-19
 -1      3861 9.61553E-05-2.90795E-05-2.87463E-05-8.60562E-07 2.61568E-19-5.42457E-19
 -1      3862 9.62114E-05-2.90352E-05-2.87877E-05-8.55785E-07 1.26751E-19-7.34341E-19
 -1      3863 9.64214E-05-2.90386E-05-2.88803E-05-7.49270E-07 8.29542E-20-9.31033E-19
 -1      3864 9.60668E-05-2.62057E-05-2.99501E-05 6.33096E-07 8.16063E-19-7.64832E-19
 -1      3865 9.52546E-05-2.39179E-05-3.05860E-05 1.31982E-06 6.30098E-19-1.39105E-18
 -1      3866 9.51339E-05-2.35761E-05-3.06704E-05 1.03800E-06 6.54245E-19-1.48775E-18
 -1      3867 9.56751E-05-2.48020E-05-3.03568E-05 1.02704E-06 6.66070E-19-1.26427E-18
 -1      3868 9.50901E-05-2.34308E-05-3.07232E-05 7.71448E-07 7.12357E-19-1.24516E-18
 -1      3869 9.50390E-05-2.32949E-05-3.07609E-05 3.88328E-07 5.74991E-19-9.86352E-19
 -1      3870 9.55415E-05-2.43224E-05-3.05060E-05 6.21983E-07 7.15918E-19-1.27605E-18
 -1      3871 9.53415E-05-2.40037E-05-3.05904E-05-4.54384E-07 6.84401E-20-1.00042E-18
 -1      3872 9.53976E-05-2.41724E-05-3.05472E-05-7.92021E-07-2.00223E-20-8.69537E-19
 -1      3873 9.61013E-05-2.56818E-05-3.01509E-05-5.55134E-07-8.29848E-21-9.37105E-19
 -1      3874 9.66925E-05-2.84727E-05-2.92401E-05-4.45255E-07 1.93813E-19-1.29704E-18
 -1      3875 9.66807E-05-2.81650E-05-2.93606E-05-3.02771E-07 5.90450E-19-1.08432E-18
 -1      3876 9.67883E-05-2.82665E-05-2.93641E-05 2.78802E-07-9.24974E-21-6.16860E-19
 -1      3877 9.67980E-05-2.85641E-05-2.92456E-05 3.93594E-07 2.59059E-19-4.94647E-19
 -1      3878 9.49400E-05-2.79335E-05-2.87159E-05-7.35590E-07 3.18096E-19 4.84654E-19
 -1      3879 9.50562E-05-2.80921E-05-2.87012E-05-6.72212E-07 3.59976E-19 2.42115E-19
 -1      3880 9.67909E-05-2.87981E-05-2.91376E-05 4.43364E-07 1.06084E-19-5.18804E-19
 -1      3881 9.67497E-05-2.89702E-05-2.90493E-05 5.03495E-07-1.07615E-19-5.42343E-19
 -1      3882 9.68809E-05-2.86549E-05-2.92401E-05 3.15334E-07 1.17174E-19-4.34288E-19
 -1      3883 9.66915E-05-2.90934E-05-2.89690E-05 5.20943E-07-1.86027E-19-3.15158E-19
 -1      3884 9.66208E-05-2.91748E-05-2.89054E-05 5.44251E-07-1.26210E-19-1.75188E-19
 -1      3885 9.68149E-05-2.90358E-05-2.90494E-05 3.93860E-07 5.47145E-20-2.72343E-19
 -1      3886 9.65335E-05-2.92192E-05-2.88477E-05 5.42316E-07-1.79671E-19-4.02097E-19
 -1      3887 9.64475E-05-2.92366E-05-2.88040E-05 5.43385E-07-9.89135E-21-4.00147E-19
 -1      3888 9.66694E-05-2.92177E-05-2.89095E-05 4.22477E-07-2.25828E-19-9.70182E-20
 -1      3889 9.63451E-05-2.92259E-05-2.87646E-05 5.31407E-07-2.53936E-20-4.70528E-19
 -1      3890 9.62527E-05-2.91984E-05-2.87365E-05 5.21505E-07-3.77721E-19-4.55854E-19
 -1      3891 9.64806E-05-2.92595E-05-2.88107E-05 4.20859E-07-1.46813E-19-7.32532E-19
 -1      3892 9.61424E-05-2.91480E-05-2.87116E-05 5.06339E-07-2.34726E-19-9.91602E-20
 -1      3893 9.60474E-05-2.90876E-05-2.86958E-05 4.94616E-07-9.62787E-20 1.92392E-19
 -1      3894 9.62697E-05-2.92018E-05-2.87450E-05 4.04859E-07-5.78622E-20-6.79981E-20
 -1      3895 9.59330E-05-2.90079E-05-2.86823E-05 4.82284E-07-2.41923E-19-7.09828E-20
 -1      3896 9.58362E-05-2.89222E-05-2.86762E-05 4.75590E-07-1.50195E-19-1.45871E-19
 -1      3897 9.60470E-05-2.90707E-05-2.87054E-05 3.86458E-07-1.14810E-19 4.21825E-20
 -1      3898 9.57177E-05-2.88188E-05-2.86715E-05 4.70359E-07-7.55628E-20-2.59494E-19
 -1      3899 9.56175E-05-2.87115E-05-2.86728E-05 4.74108E-07-2.09753E-19-1.49167E-19
 -1      3900 9.58164E-05-2.88835E-05-2.86864E-05 3.75723E-07-2.03975E-19-5.80233E-19
 -1      3901 9.54918E-05-2.85865E-05-2.86748E-05 4.79513E-07-3.69889E-19-1.70046E-19
 -1      3902 9.53845E-05-2.84582E-05-2.86816E-05 4.98252E-07-3.87540E-19-1.97827E-19
 -1      3903 9.55747E-05-2.86485E-05-2.86829E-05 3.79948E-07-1.67243E-19-5.29902E-19
 -1      3904 9.52462E-05-2.83107E-05-2.86883E-05 5.17466E-07-3.59240E-19-4.52852E-20
 -1      3905 9.51265E-05-2.81600E-05-2.86990E-05 5.55271E-07-2.92791E-19 3.28989E-19
 -1      3906 9.53137E-05-2.83671E-05-2.86910E-05 4.05495E-07-2.25551E-19 1.03785E-19
 -1      3907 9.49686E-05-2.79874E-05-2.87086E-05 5.91328E-07 1.76476E-20 7.64662E-19
 -1      3908 9.48296E-05-2.78112E-05-2.87215E-05 6.52089E-07 3.32904E-19 9.78711E-19
 -1      3909 9.50210E-05-2.80361E-05-2.87065E-05 4.58121E-07 2.49027E-19 6.75836E-19
 -1      3910 9.46432E-05-2.76096E-05-2.87318E-05 7.08079E-07 1.21517E-19 1.00780E-18
 -1      3911 9.44770E-05-2.74042E-05-2.87450E-05 7.95683E-07 5.25862E-20 1.37231E-18
 -1      3912 9.46807E-05-2.76490E-05-2.87257E-05 5.43380E-07 2.49492E-19 9.10546E-19
 -1      3913 9.42520E-05-2.71694E-05-2.87537E-05 8.74890E-07-1.80520E-19 1.10057E-18
 -1      3914 9.40495E-05-2.69313E-05-2.87647E-05 9.93315E-07-2.60546E-19 7.66062E-19
 -1      3915 9.42741E-05-2.71975E-05-2.87438E-05 6.66912E-07-3.32201E-19 5.73747E-19
 -1      3916 9.37744E-05-2.66594E-05-2.87687E-05 1.09932E-06 7.93401E-20 7.61127E-19
 -1      3917 9.35260E-05-2.63862E-05-2.87743E-05 1.25271E-06 4.66935E-19 7.65006E-19
 -1      3918 9.37797E-05-2.66736E-05-2.87551E-05 8.34658E-07-8.09717E-20 3.31673E-19
 -1      3919 9.31885E-05-2.60749E-05-2.87693E-05 1.38955E-06 3.07602E-19 6.34260E-19
 -1      3920 9.28842E-05-2.57663E-05-2.87653E-05 1.58233E-06-3.66720E-20 2.22520E-19
 -1      3921 9.31738E-05-2.60709E-05-2.87522E-05 1.05307E-06 1.71761E-19-3.53498E-19
 -1      3922 9.24712E-05-2.54162E-05-2.87457E-05 1.75474E-06-1.02033E-19 3.29914E-19
 -1      3923 9.21016E-05-2.50759E-05-2.87261E-05 1.99200E-06-2.76534E-19 6.14648E-19
 -1      3924 9.24313E-05-2.53872E-05-2.87251E-05 1.32950E-06 1.56488E-19-6.28244E-20
 -1      3925 9.15995E-05-2.46918E-05-2.86844E-05 2.20608E-06-9.72050E-20 7.46998E-19
 -1      3926 9.11567E-05-2.43292E-05-2.86414E-05 2.49441E-06 3.96001E-19 7.64731E-19
 -1      3927 9.15258E-05-2.46272E-05-2.86606E-05 1.67306E-06 3.25851E-20 2.22184E-19
 -1      3928 9.05516E-05-2.39219E-05-2.85677E-05 2.75899E-06 2.31342E-19 1.06225E-18
 -1      3929 9.00305E-05-2.35543E-05-2.84908E-05 3.10841E-06 7.82978E-19 1.18607E-18
 -1      3930 9.04301E-05-2.38048E-05-2.85409E-05 2.09652E-06 3.96498E-19 1.52019E-19
 -1      3931 8.93075E-05-2.31422E-05-2.83719E-05 3.43767E-06 6.27671E-19 2.45809E-19
 -1      3932 8.87084E-05-2.27977E-05-2.82477E-05 3.86527E-06 4.72989E-19 1.59141E-19
 -1      3933 8.91159E-05-2.29459E-05-2.83425E-05 2.62013E-06 3.31941E-19 1.79445E-19
 -1      3934 8.78504E-05-2.24090E-05-2.80664E-05 4.28391E-06 1.31871E-19-2.81427E-19
 -1      3935 8.71824E-05-2.21303E-05-2.78779E-05 4.82016E-06-3.17284E-19-6.34091E-19
 -1      3936 8.75515E-05-2.20906E-05-2.80346E-05 3.27904E-06 9.06404E-20-1.04543E-18
 -1      3937 8.61677E-05-2.18050E-05-2.76112E-05 5.37225E-06-8.63056E-19-5.12871E-19
 -1      3938 8.54547E-05-2.16550E-05-2.73373E-05 6.07112E-06-1.06580E-18-2.75377E-19
 -1      3939 8.56976E-05-2.12950E-05-2.75759E-05 4.13722E-06-6.74326E-19-4.46255E-19
 -1      3940 8.42552E-05-2.14470E-05-2.69553E-05 6.82897E-06-3.28767E-19-1.99936E-19
 -1      3941 8.35451E-05-2.15122E-05-2.65709E-05 7.78238E-06 4.92212E-19 2.73338E-19
 -1      3942 8.35059E-05-2.06387E-05-2.69116E-05 5.30791E-06-1.87285E-19-4.60665E-20
 -1      3943 8.21114E-05-2.14974E-05-2.60303E-05 8.88909E-06 5.24529E-19 6.89070E-19
 -1      3944 8.15008E-05-2.19365E-05-2.55041E-05 1.02594E-05 6.52381E-19 1.07758E-18
 -1      3945 8.08895E-05-2.02117E-05-2.59667E-05 6.97139E-06 1.01153E-18 9.51681E-19
 -1      3946 8.63384E-05-3.05985E-05-2.39097E-05-1.95799E-05-2.32365E-19-2.41077E-19
 -1      3947 9.53169E-05-2.38808E-05-3.06251E-05 1.08311E-07 3.83187E-19-8.86443E-19
 -1      3948 9.53287E-05-2.39076E-05-3.06220E-05-2.44524E-07 1.26290E-19-9.81884E-19
 -1      3949 9.60535E-05-2.53958E-05-3.02606E-05-2.66715E-07 6.03001E-20-9.16923E-19
 -1      3950 9.51976E-05-2.82497E-05-2.86907E-05-6.32784E-07 2.50526E-19 2.50451E-19
 -1      3951 9.52986E-05-2.83853E-05-2.86788E-05-5.95059E-07 3.38486E-19 1.68806E-19
 -1      3952 9.51027E-05-2.81332E-05-2.87002E-05-5.54594E-07 3.36144E-19 5.98328E-19
 -1      3953 9.38185E-05-2.66412E-05-2.87895E-05-1.39973E-06 1.33032E-19 3.96936E-19
 -1      3954 9.40247E-05-2.68872E-05-2.87782E-05-1.23230E-06 4.18032E-19 4.95077E-19
 -1      3955 9.42682E-05-2.71359E-05-2.87701E-05-1.11039E-06 3.74926E-19 2.40961E-19
 -1      3956 9.44364E-05-2.73501E-05-2.87552E-05-9.82274E-07 3.25984E-19 8.33330E-20
 -1      3957 9.39991E-05-2.68778E-05-2.87622E-05-9.93959E-07 3.20513E-19-9.57328E-20
 -1      3958 9.25953E-05-2.54511E-05-2.87756E-05-2.23027E-06 2.72627E-19 4.10521E-19
 -1      3959 9.29018E-05-2.57573E-05-2.87837E-05-1.96921E-06 1.29352E-19 4.36746E-19
 -1      3960 9.17856E-05-2.47741E-05-2.87187E-05-2.79469E-06-4.02682E-19 4.21373E-19
 -1      3961 9.21515E-05-2.50991E-05-2.87460E-05-2.47798E-06-1.12418E-19 2.11843E-19
 -1      3962 9.20035E-05-2.49884E-05-2.87117E-05-1.99508E-06 5.78851E-20 7.74030E-19
 -1      3963 9.08262E-05-2.40764E-05-2.86062E-05-3.48020E-06-2.11550E-19 1.78701E-19
 -1      3964 9.12529E-05-2.44022E-05-2.86616E-05-3.09925E-06-1.69364E-19 6.07051E-19
 -1      3965 9.10361E-05-2.42305E-05-2.86198E-05-2.50072E-06-3.70724E-19 1.51197E-19
 -1      3966 8.97138E-05-2.34082E-05-2.84146E-05-4.31425E-06-4.94788E-19 5.52355E-19
 -1      3967 9.01951E-05-2.37046E-05-2.85100E-05-3.85520E-06-3.71802E-19 3.36470E-19
 -1      3968 8.98827E-05-2.34452E-05-2.84594E-05-3.12145E-06-5.20244E-19 8.90144E-19
 -1      3969 8.84597E-05-2.28482E-05-2.81145E-05-5.34413E-06-4.61711E-19 1.00871E-18
 -1      3970 8.89767E-05-2.30682E-05-2.82642E-05-4.78267E-06-5.35546E-19 8.46368E-19
 -1      3971 8.85258E-05-2.26787E-05-2.82033E-05-3.89170E-06-5.85762E-19 3.37848E-19
 -1      3972 8.71011E-05-2.25168E-05-2.76689E-05-6.65395E-06-1.15780E-18 5.82087E-19
 -1      3973 8.76115E-05-2.25878E-05-2.78901E-05-5.94757E-06-6.97590E-19 1.08987E-18
 -1      3974 8.69507E-05-2.19994E-05-2.78158E-05-4.87343E-06-5.16939E-19 1.03404E-18
 -1      3975 8.57221E-05-2.25954E-05-2.70342E-05-8.38364E-06-1.05919E-18 3.24691E-19
 -1      3976 8.61460E-05-2.24089E-05-2.73456E-05-7.46391E-06-1.20480E-18 1.32054E-19
 -1      3977 8.51510E-05-2.15104E-05-2.72500E-05-6.18224E-06-1.10669E-18 5.29540E-19
 -1      3978 8.44850E-05-2.33480E-05-2.61641E-05-1.07459E-05-7.97351E-19 1.77062E-19
 -1      3979 8.46797E-05-2.27452E-05-2.65815E-05-9.50722E-06-9.70689E-19 2.14115E-19
 -1      3980 8.31538E-05-2.13655E-05-2.64462E-05-8.00462E-06-1.07323E-18-6.75236E-19
 -1      3981 8.36602E-05-2.51680E-05-2.50147E-05-1.41583E-05-8.46927E-19 2.61111E-19
 -1      3982 8.33416E-05-2.38493E-05-2.55412E-05-1.23927E-05-6.96069E-19 1.00208E-19
 -1      3983 8.09579E-05-2.17445E-05-2.53246E-05-1.06826E-05-7.88876E-19-1.65687E-18
 -1      3984 9.66553E-05-2.88973E-05-2.90404E-05-5.89975E-07-1.81881E-19-1.23967E-18
 -1      3985 9.66925E-05-2.87171E-05-2.91295E-05-5.15113E-07-8.69183E-20-1.24244E-18
 -1      3986 9.68022E-05-2.85631E-05-2.92458E-05-3.79760E-07-5.29483E-21-9.28104E-19
 -1      3987 9.63142E-05-2.64407E-05-2.99490E-05-2.72554E-07-8.25805E-20-9.70551E-19
 -1      3988 9.66007E-05-2.77654E-05-2.95058E-05-1.72335E-07 7.85352E-19-1.16453E-18
 -1      3989 9.65208E-05-2.73054E-05-2.96669E-05 6.91446E-08 8.35011E-19-1.03659E-18
 -1      3990 9.67273E-05-2.78789E-05-2.95049E-05-1.68003E-07 6.30095E-19-1.15639E-18
 -1      3991 9.66346E-05-2.74201E-05-2.96584E-05-4.76508E-09-8.17729E-20-9.75934E-19
 -1      3992 9.67174E-05-2.78832E-05-2.95056E-05 1.87114E-07-1.72890E-19-8.75652E-19
 -1      3993 9.68205E-05-2.80048E-05-2.94917E-05 1.62814E-07 4.74358E-20-8.03189E-19
 -1      3994 7.94402E-05-2.33609E-05-2.40473E-05 1.40263E-05 1.96240E-19 2.79885E-19
 -1      3995 7.18036E-05-1.94497E-05-2.22823E-05 1.21960E-05 3.99760E-19-5.82534E-20
 -1      3996 7.15622E-05-1.84042E-05-2.27998E-05 8.74705E-06 8.96465E-20 4.62634E-19
 -1      3997 7.97279E-05-2.21998E-05-2.47329E-05 1.18598E-05 8.89302E-20 4.29244E-19
 -1      3998 9.60518E-05-2.59440E-05-3.00512E-05 5.33042E-07 7.02882E-19-1.04750E-18
 -1      3999 9.46358E-05-2.75647E-05-2.87437E-05-8.91974E-07 3.44100E-19 1.99344E-19
 -1      4000 9.47742E-05-2.77494E-05-2.87280E-05-7.98499E-07 4.74604E-19 4.00879E-19
 -1      4001 9.47988E-05-2.77766E-05-2.87220E-05-6.51993E-07 3.70057E-19 3.75417E-19
 -1      4002 9.32673E-05-2.60783E-05-2.87947E-05-1.76951E-06 1.02235E-19 2.00961E-19
 -1      4003 9.35198E-05-2.63562E-05-2.87906E-05-1.55789E-06 3.55495E-19 4.43922E-19
 -1      4004 9.34625E-05-2.63217E-05-2.87692E-05-1.25371E-06 2.38683E-19-4.86891E-20
 -1      4005 9.60198E-05-2.90953E-05-2.86808E-05-8.29747E-07 1.79832E-19-3.11554E-19
 -1      4006 9.60778E-05-2.90941E-05-2.87061E-05-8.47545E-07 3.52277E-19-2.76500E-19
 -1      4007 9.62813E-05-2.91405E-05-2.87766E-05-7.63163E-07 1.74723E-19-5.56538E-19
 -1      4008 9.61224E-05-2.91404E-05-2.87084E-05-7.37365E-07 9.04779E-20 1.26229E-20
 -1      4009 9.54235E-05-2.85200E-05-2.86715E-05-5.75394E-07 4.19034E-19-1.44842E-19
 -1      4010 9.55151E-05-2.86352E-05-2.86639E-05-5.58863E-07 1.25317E-19 5.51036E-20
 -1      4011 9.53661E-05-2.84379E-05-2.86832E-05-4.96810E-07 9.84802E-20 1.33664E-19
 -1      4012 9.63553E-05-2.66114E-05-2.98802E-05 2.44755E-07 7.42627E-19-1.16695E-18
 -1      4013 9.59563E-05-2.53787E-05-3.02589E-05 5.56873E-07 6.39859E-19-1.44742E-18
 -1      4014 9.59000E-05-2.52047E-05-3.03091E-05 3.45275E-07 6.37863E-19-1.13931E-18
 -1      4015 9.64610E-05-2.67572E-05-2.98668E-05 1.50018E-07 6.24552E-19-1.45130E-18
 -1      4016 7.77963E-05-2.02030E-05-2.46233E-05 9.48763E-06 8.98641E-20 1.19815E-19
 -1      4017 9.28049E-05-2.56904E-05-2.87563E-05-1.58397E-06 2.14414E-19 3.17334E-19
 -1      4018 9.56032E-05-2.86967E-05-2.86746E-05-4.71710E-07 8.94583E-20-1.87852E-19
 -1      4019 9.56299E-05-2.87492E-05-2.86617E-05-5.55273E-07-2.10231E-20 7.85003E-20
 -1      4020 9.57165E-05-2.88450E-05-2.86598E-05-5.55236E-07-8.03377E-20-4.22527E-20
 -1      4021 9.44375E-05-2.73608E-05-2.87443E-05-7.96007E-07 4.18463E-19 2.29095E-19
 -1      4022 9.66032E-05-2.90286E-05-2.89584E-05-6.18826E-07-1.89869E-19-1.14098E-18
 -1      4023 9.67483E-05-2.89677E-05-2.90503E-05-4.89503E-07-2.36839E-19-1.28810E-18
 -1      4024 9.65402E-05-2.91195E-05-2.88946E-05-6.49114E-07-5.74430E-20-8.44023E-19
 -1      4025 6.64378E-05-1.57220E-05-2.16085E-05-8.04070E-07 1.92551E-20-2.00617E-18
 -1      4026 6.94288E-05-1.66705E-05-2.26151E-05-3.18868E-06-4.93728E-20-2.56670E-18
 -1      4027 6.87665E-05-1.64494E-05-2.24643E-05 2.62419E-06 1.05082E-19-8.17043E-19
 -1      4028 7.54672E-05-2.11829E-05-2.31403E-05-1.32256E-05-4.10604E-19-1.67099E-18
 -1      4029 7.90604E-05-2.38216E-05-2.37151E-05-1.51962E-05-4.58045E-19-7.84776E-19
 -1      4030 9.64332E-05-2.66226E-05-2.99193E-05-1.70742E-07-8.06636E-20-9.80415E-19
 -1      4031 9.60167E-05-2.90846E-05-2.86838E-05-5.91251E-07 7.17242E-20-3.27799E-19
 -1      4032 9.61014E-05-2.91357E-05-2.86991E-05-6.07119E-07 1.15450E-19-4.03386E-19
 -1      4033 9.58258E-05-2.89386E-05-2.86645E-05-5.63828E-07 8.32868E-20-1.83625E-19
 -1      4034 9.59106E-05-2.90139E-05-2.86701E-05-5.74973E-07 1.05715E-19-3.78786E-19
 -1      4035 9.58251E-05-2.89117E-05-2.86781E-05-4.72078E-07-7.01575E-20-1.57070E-19
 -1      4036 7.41223E-05-1.96417E-05-2.33837E-05-1.00038E-05-5.50161E-19-2.57498E-18
 -1      4037 9.60386E-05-2.90804E-05-2.86977E-05-4.89927E-07-4.23016E-21-2.65036E-19
 -1      4038 9.31508E-05-2.60612E-05-2.87543E-05-1.03469E-06-6.87941E-20 2.31129E-19
 -1      4039 9.34510E-05-2.63664E-05-2.87559E-05-9.04387E-07 8.39577E-20 3.41063E-20
 -1      4040 7.50100E-05-1.90275E-05-2.40060E-05 7.97753E-06-1.76840E-19 3.55382E-19
 -1      4041 7.11909E-05-1.71474E-05-2.30599E-05 5.35795E-06 1.65502E-20 2.64738E-19
 -1      4042 7.23839E-05-1.71995E-05-2.36854E-05 2.63550E-06 2.84643E-19-8.63241E-19
 -1      4043 7.67383E-05-1.90218E-05-2.48134E-05 6.57031E-06 3.01267E-19 1.30222E-19
 -1      4044 8.32268E-05-2.70280E-05-2.41233E-05-1.71015E-05-5.13285E-19 6.85832E-20
 -1      4045 9.69144E-05-2.89843E-05-2.91121E-05 2.53518E-07 3.73734E-19-5.55248E-19
 -1      4046 9.68571E-05-2.91206E-05-2.90297E-05 2.87699E-07 2.76702E-19-2.83235E-19
 -1      4047 9.67819E-05-2.92134E-05-2.89569E-05 2.85718E-07-2.15547E-19-2.72430E-19
 -1      4048 9.66949E-05-2.92661E-05-2.88974E-05 2.98527E-07-3.41386E-19-2.32804E-19
 -1      4049 9.68614E-05-2.91683E-05-2.90135E-05 1.60212E-07 3.71479E-20-7.17872E-19
 -1      4050 9.65935E-05-2.92853E-05-2.88455E-05 2.92963E-07-3.47287E-19-1.68471E-19
 -1      4051 9.64936E-05-2.92798E-05-2.88045E-05 2.95263E-07-2.33252E-19-3.92790E-19
 -1      4052 9.66824E-05-2.92838E-05-2.88873E-05 1.65077E-07-3.16965E-19-3.74577E-19
 -1      4053 9.63775E-05-2.92476E-05-2.87693E-05 2.82399E-07 1.13629E-19-4.21028E-19
 -1      4054 9.62682E-05-2.91976E-05-2.87432E-05 2.80341E-07 1.61683E-19-2.49147E-19
 -1      4055 9.64742E-05-2.92799E-05-2.88004E-05 1.57833E-07-1.21240E-19-5.38805E-19
 -1      4056 9.61458E-05-2.91279E-05-2.87215E-05 2.70314E-07-3.55222E-19-2.17007E-19
 -1      4057 9.60320E-05-2.90460E-05-2.87070E-05 2.68413E-07-5.39997E-19-5.34067E-19
 -1      4058 9.62367E-05-2.91764E-05-2.87431E-05 1.53122E-07-8.05633E-21-8.04284E-19
 -1      4059 9.59048E-05-2.89478E-05-2.86959E-05 2.61319E-07-2.96823E-19-3.44201E-19
 -1      4060 9.57867E-05-2.88401E-05-2.86903E-05 2.63337E-07-2.92503E-20-4.51986E-19
 -1      4061 9.59907E-05-2.90062E-05-2.87097E-05 1.48933E-07-3.45543E-19-6.15871E-19
 -1      4062 9.56528E-05-2.87171E-05-2.86872E-05 2.61021E-07 1.28330E-19-5.77669E-19
 -1      4063 9.55275E-05-2.85859E-05-2.86884E-05 2.70180E-07-1.36466E-19-2.03723E-19
 -1      4064 9.57333E-05-2.87807E-05-2.86950E-05 1.48726E-07 3.65227E-20-5.57687E-19
 -1      4065 9.53824E-05-2.84390E-05-2.86911E-05 2.74139E-07-6.09504E-20 2.08961E-19
 -1      4066 9.52447E-05-2.82837E-05-2.86971E-05 2.93217E-07 7.03503E-20 5.40206E-19
 -1      4067 9.54585E-05-2.85050E-05-2.86940E-05 1.55665E-07 2.89864E-19-5.80892E-19
 -1      4068 9.50816E-05-2.81109E-05-2.87034E-05 3.04853E-07 3.38259E-19 5.49405E-19
 -1      4069 9.49244E-05-2.79289E-05-2.87122E-05 3.36344E-07 7.47316E-19 6.67647E-19
 -1      4070 9.51552E-05-2.81780E-05-2.87026E-05 1.72248E-07 3.77175E-19 8.58697E-20
 -1      4071 9.47346E-05-2.77268E-05-2.87201E-05 3.57114E-07 1.95287E-19 7.03323E-19
 -1      4072 9.45492E-05-2.75142E-05-2.87296E-05 4.03375E-07-1.15896E-19 2.83908E-19
 -1      4073 9.48083E-05-2.77945E-05-2.87164E-05 2.00772E-07 3.37784E-19-1.92912E-19
 -1      4074 9.43224E-05-2.72784E-05-2.87366E-05 4.34885E-07-3.74095E-19 6.09068E-19
 -1      4075 9.40985E-05-2.70308E-05-2.87441E-05 4.98223E-07-4.67076E-19 3.19002E-19
 -1      4076 9.43989E-05-2.73464E-05-2.87308E-05 2.43512E-07-1.85893E-21-2.70195E-19
 -1      4077 9.38227E-05-2.67567E-05-2.87471E-05 5.42305E-07-2.34621E-19 4.08230E-19
 -1      4078 9.35489E-05-2.64702E-05-2.87494E-05 6.25044E-07 7.01455E-20 7.96289E-20
 -1      4079 9.39049E-05-2.68245E-05-2.87401E-05 3.02836E-07-3.20953E-19 3.15955E-19
 -1      4080 9.32109E-05-2.61541E-05-2.87445E-05 6.83841E-07 2.11976E-20-2.69088E-19
 -1      4081 9.28748E-05-2.58261E-05-2.87373E-05 7.88413E-07-9.52508E-20-4.90664E-19
 -1      4082 9.33015E-05-2.62203E-05-2.87372E-05 3.81310E-07-2.80708E-19 2.05804E-20
 -1      4083 9.24602E-05-2.54662E-05-2.87191E-05 8.64513E-07 3.24260E-19-3.33659E-19
 -1      4084 9.20486E-05-2.50969E-05-2.86966E-05 9.93678E-07 3.18437E-19-2.08915E-19
 -1      4085 9.25612E-05-2.55278E-05-2.87128E-05 4.81851E-07 2.94444E-19-4.80633E-19
 -1      4086 9.15416E-05-2.46943E-05-2.86582E-05 1.09039E-06 1.37840E-19-2.67120E-19
 -1      4087 9.10407E-05-2.42874E-05-2.86127E-05 1.24775E-06 2.71534E-19 1.73336E-21
 -1      4088 9.16542E-05-2.47458E-05-2.86544E-05 6.08039E-07 4.11580E-19-8.84547E-19
 -1      4089 9.04239E-05-2.38474E-05-2.85446E-05 1.36966E-06 2.20669E-19-3.26108E-19
 -1      4090 8.98195E-05-2.34117E-05-2.84658E-05 1.56080E-06 4.24384E-19-4.37543E-19
 -1      4091 9.05479E-05-2.38792E-05-2.85456E-05 7.64768E-07-7.74549E-20-1.53280E-19
 -1      4092 8.90720E-05-2.29441E-05-2.83557E-05 1.71481E-06 4.46802E-19-2.85594E-19
 -1      4093 8.83485E-05-2.24942E-05-2.82300E-05 1.94953E-06 3.35821E-19-3.11761E-19
 -1      4094 8.92051E-05-2.29407E-05-2.83644E-05 9.59502E-07 3.48560E-19-3.23840E-19
 -1      4095 8.74429E-05-2.20136E-05-2.80613E-05 2.14685E-06 6.55405E-20-8.20015E-19
 -1      4096 8.65816E-05-2.15697E-05-2.78708E-05 2.44356E-06-1.16518E-19-1.18344E-18
 -1      4097 8.75797E-05-2.19505E-05-2.80815E-05 1.20448E-06 2.32297E-19-1.51985E-18
 -1      4098 8.54765E-05-2.10927E-05-2.76209E-05 2.70354E-06-2.81230E-19-1.13727E-18
 -1      4099 8.44531E-05-2.06813E-05-2.73414E-05 3.09741E-06-5.37261E-19-9.37161E-19
 -1      4100 8.56068E-05-2.09328E-05-2.76575E-05 1.52000E-06-1.31724E-19-1.88278E-18
 -1      4101 8.30778E-05-2.02204E-05-2.69784E-05 3.45898E-06-7.34531E-19-6.77644E-19
 -1      4102 8.18691E-05-1.98803E-05-2.65772E-05 4.01492E-06 3.51274E-19-6.01372E-19
 -1      4103 8.31779E-05-1.99091E-05-2.70377E-05 1.93823E-06-1.48171E-19-1.46612E-18
 -1      4104 8.01191E-05-1.94437E-05-2.60560E-05 4.56149E-06 1.33048E-18-2.17751E-19
 -1      4105 7.87140E-05-1.92181E-05-2.54854E-05 5.40484E-06 1.33946E-18 2.43476E-19
 -1      4106 8.00820E-05-1.89146E-05-2.61427E-05 2.50074E-06 1.05911E-18-1.00342E-18
 -1      4107 9.37619E-05-2.66645E-05-2.87571E-05-8.20002E-07 6.95800E-20 4.38552E-20
 -1      4108 9.40067E-05-2.69308E-05-2.87509E-05-7.17868E-07 3.07279E-19-7.76049E-20
 -1      4109 9.34983E-05-2.64037E-05-2.87450E-05-6.07114E-07-5.03643E-20 1.03926E-18
 -1      4110 9.57748E-05-2.47490E-05-3.04228E-05 1.14181E-07 4.46396E-19-8.44594E-19
 -1      4111 9.50132E-05-2.80282E-05-2.87075E-05-4.47565E-07 4.14940E-19 3.89741E-19
 -1      4112 9.51552E-05-2.81972E-05-2.86978E-05-4.11069E-07 6.19088E-19 4.72546E-19
 -1      4113 9.68339E-05-2.77848E-05-2.95936E-05 5.02266E-08 9.71059E-20-6.50345E-19
 -1      4114 9.69069E-05-2.81981E-05-2.94496E-05 1.63066E-07 2.07281E-19-4.95260E-19
 -1      4115 9.03856E-05-2.37960E-05-2.85422E-05-2.05533E-06-5.31391E-19 1.10882E-18
 -1      4116 9.09206E-05-2.42005E-05-2.86055E-05-1.81490E-06-2.95714E-20 1.02014E-18
 -1      4117 9.14892E-05-2.46173E-05-2.86624E-05-1.64191E-06 8.23314E-21 1.25921E-18
 -1      4118 9.19348E-05-2.49962E-05-2.86967E-05-1.44381E-06 2.68224E-19 1.08383E-18
 -1      4119 9.09454E-05-2.41757E-05-2.85932E-05-1.21516E-06 1.87209E-19 1.34138E-18
 -1      4120 8.74930E-05-2.20919E-05-2.80339E-05-3.20456E-06-2.71841E-19 3.96857E-19
 -1      4121 8.82351E-05-2.24903E-05-2.81953E-05-2.83983E-06-5.26385E-19 5.18061E-19
 -1      4122 8.56342E-05-2.13064E-05-2.75741E-05-4.03288E-06-6.25267E-19 7.89083E-19
 -1      4123 8.64932E-05-2.16559E-05-2.78133E-05-3.56074E-06-8.68632E-20 8.86348E-19
 -1      4124 8.64034E-05-2.13914E-05-2.78135E-05-2.40077E-06-4.19793E-19 2.39007E-19
 -1      4125 8.34357E-05-2.06548E-05-2.69078E-05-5.16169E-06-6.56690E-19-4.34755E-19
 -1      4126 8.44109E-05-2.09066E-05-2.72526E-05-4.51330E-06-6.39408E-19 3.08224E-19
 -1      4127 8.42225E-05-2.04608E-05-2.72617E-05-3.04918E-06 4.77473E-20-1.40179E-19
 -1      4128 8.08139E-05-2.02647E-05-2.59578E-05-6.82365E-06-3.12859E-19-1.59691E-18
 -1      4129 8.19028E-05-2.03391E-05-2.64438E-05-5.86970E-06-3.18228E-19-1.02206E-18
 -1      4130 8.14972E-05-1.95650E-05-2.64640E-05-3.95290E-06 3.30296E-19-1.29017E-18
 -1      4131 7.72075E-05-2.00346E-05-2.45114E-05-8.94565E-06-6.73166E-19-2.27311E-18
 -1      4132 7.84729E-05-1.98231E-05-2.51976E-05-7.47825E-06-6.62135E-19-2.55550E-18
 -1      4133 7.78953E-05-1.87951E-05-2.52533E-05-5.07186E-06 2.69950E-19-2.80788E-18
 -1      4134 7.21988E-05-1.75223E-05-2.33183E-05-6.20577E-06-4.88811E-19-3.33303E-18
 -1      4135 9.68898E-05-2.87001E-05-2.92265E-05-3.28141E-07-1.26951E-19-5.99272E-19
 -1      4136 9.68920E-05-2.84263E-05-2.93402E-05-2.42095E-07 1.37447E-19-6.09924E-19
 -1      4137 9.53078E-05-2.83596E-05-2.86914E-05-3.94764E-07 2.54577E-19 4.04692E-19
 -1      4138 9.54332E-05-2.85037E-05-2.86850E-05-3.74007E-07 1.07155E-19 3.70099E-19
 -1      4139 9.52244E-05-2.82588E-05-2.86986E-05-2.86424E-07 3.76204E-19 5.86995E-20
 -1      4140 9.60446E-05-2.90673E-05-2.87033E-05-3.74424E-07-8.87884E-21-3.64747E-19
 -1      4141 9.61513E-05-2.91402E-05-2.87184E-05-3.80075E-07 6.84181E-20-4.51207E-19
 -1      4142 9.68319E-05-2.80675E-05-2.94742E-05-1.91866E-07 3.37626E-19-6.22429E-19
 -1      4143 9.67584E-05-2.76374E-05-2.96235E-05-3.90656E-08 3.85007E-19-8.75753E-19
 -1      4144 9.69103E-05-2.82039E-05-2.94469E-05-1.43652E-07 2.02531E-19-4.49999E-19
 -1      4145 9.63547E-05-2.62478E-05-3.00499E-05-1.91989E-07 1.44167E-21-8.41504E-19
 -1      4146 9.66982E-05-2.72609E-05-2.97582E-05 1.67959E-08 5.39772E-21-7.13590E-19
 -1      4147 9.67760E-05-2.74520E-05-2.97085E-05 8.91929E-09 1.65742E-19-4.61976E-19
 -1      4148 9.63298E-05-2.61383E-05-3.00819E-05-8.29348E-08 1.80713E-19-5.59834E-19
 -1      4149 9.24020E-05-2.53772E-05-2.87272E-05-1.30575E-06-1.89652E-19 1.03841E-18
 -1      4150 9.27691E-05-2.57212E-05-2.87417E-05-1.14373E-06-3.94323E-19 5.73160E-19
 -1      4151 9.28119E-05-2.57458E-05-2.87294E-05-7.65957E-07-6.61561E-19 1.02592E-18
 -1      4152 9.60068E-05-2.53721E-05-3.02698E-05 1.98006E-07 5.06369E-19-7.98713E-19
 -1      4153 9.62481E-05-2.59331E-05-3.01461E-05-2.46440E-08 2.88439E-19-5.74468E-19
 -1      4154 9.65567E-05-2.66767E-05-2.99410E-05 2.05436E-08 2.59656E-19-4.83728E-19
 -1      4155 9.63834E-05-2.62763E-05-3.00408E-05 1.62043E-07 4.08219E-19-9.47729E-19
 -1      4156 8.90637E-05-2.29405E-05-2.83430E-05-2.56522E-06-6.50093E-19 5.86896E-19
 -1      4157 8.96979E-05-2.33541E-05-2.84474E-05-2.27206E-06-5.96577E-19 6.33385E-19
 -1      4158 8.82050E-05-2.23432E-05-2.81892E-05-1.90887E-06-7.38282E-19-2.28534E-19
 -1      4159 9.42606E-05-2.71889E-05-2.87455E-05-6.54631E-07 5.85759E-19-1.16498E-19
 -1      4160 9.44611E-05-2.74189E-05-2.87355E-05-5.77451E-07 8.17783E-19 3.11628E-19
 -1      4161 9.40581E-05-2.69768E-05-2.87421E-05-4.84161E-07 6.00261E-19 2.68064E-19
 -1      4162 9.62430E-05-2.91924E-05-2.87383E-05-5.16455E-07 1.10335E-19-6.81072E-19
 -1      4163 9.62029E-05-2.91767E-05-2.87245E-05-6.24566E-07 6.50343E-20-3.38831E-19
 -1      4164 9.62883E-05-2.91964E-05-2.87521E-05-6.35278E-07 1.77000E-19-3.47783E-19
 -1      4165 9.46705E-05-2.76407E-05-2.87271E-05-5.32386E-07 4.11389E-19 3.93999E-19
 -1      4166 9.48371E-05-2.78382E-05-2.87161E-05-4.77071E-07 1.56134E-19 3.60955E-19
 -1      4167 9.45171E-05-2.74713E-05-2.87293E-05-3.92457E-07 6.27646E-19 9.94825E-20
 -1      4168 9.69548E-05-2.85345E-05-2.93208E-05 1.82985E-07 1.37543E-19-5.26937E-19
 -1      4169 9.69474E-05-2.87893E-05-2.92106E-05 2.49335E-07 1.39250E-19-5.11115E-19
 -1      4170 9.69715E-05-2.88747E-05-2.91867E-05 1.36537E-07 3.17633E-19-6.79867E-19
 -1      4171 8.97027E-05-2.32819E-05-2.84372E-05-1.52355E-06-4.83423E-19 9.77966E-19
 -1      4172 9.55702E-05-2.86417E-05-2.86827E-05-3.68687E-07 7.25298E-20 1.40068E-19
 -1      4173 9.56854E-05-2.87630E-05-2.86814E-05-3.60431E-07 5.08931E-20 1.86143E-19
 -1      4174 9.55111E-05-2.85680E-05-2.86904E-05-2.64418E-07 1.33003E-19 2.87449E-19
 -1      4175 9.58129E-05-2.88780E-05-2.86852E-05-3.63886E-07-1.60504E-19-1.05194E-19
 -1      4176 9.59227E-05-2.89766E-05-2.86910E-05-3.64557E-07-2.19899E-19-1.34313E-19
 -1      4177 9.60205E-05-2.90384E-05-2.87094E-05-2.62618E-07-6.79231E-20-2.00987E-19
 -1      4178 9.57731E-05-2.88279E-05-2.86925E-05-2.57930E-07-2.29039E-19-4.75370E-20
 -1      4179 9.19709E-05-2.50015E-05-2.86839E-05-9.66217E-07-4.69733E-20 1.07938E-18
 -1      4180 9.48990E-05-2.78957E-05-2.87130E-05-3.27842E-07 3.01383E-19-1.92875E-19
 -1      4181 9.69613E-05-2.83411E-05-2.94121E-05 9.37621E-08 1.40727E-19-4.96442E-19
 -1      4182 9.63830E-05-2.91997E-05-2.87922E-05-6.52720E-07 6.50425E-20-6.24515E-19
 -1      4183 9.64599E-05-2.91727E-05-2.88358E-05-6.49854E-07-8.88846E-20-7.43964E-19
 -1      4184 9.66170E-05-2.91727E-05-2.89073E-05-5.34549E-07-1.99148E-19-1.03031E-18
 -1      4185 9.64468E-05-2.92381E-05-2.88067E-05-5.39147E-07-4.61326E-20-9.72794E-19
 -1      4186 9.68741E-05-2.89116E-05-2.91241E-05-3.48812E-07-1.20264E-19-7.11949E-19
 -1      4187 9.69433E-05-2.87868E-05-2.92119E-05-2.33170E-07-5.19167E-20-3.46031E-19
 -1      4188 9.68230E-05-2.90619E-05-2.90400E-05-3.91773E-07-1.66266E-19-9.20932E-19
 -1      4189 7.28005E-05-1.73569E-05-2.37923E-05-3.02544E-06-5.50406E-20-2.51071E-18
 -1      4190 9.66774E-05-2.71741E-05-2.97894E-05 1.12582E-08 2.09534E-19-6.32000E-19
 -1      4191 9.65821E-05-2.69628E-05-2.98361E-05 4.17438E-08 3.84306E-19-9.11058E-19
 -1      4192 9.62592E-05-2.91934E-05-2.87457E-05-2.72662E-07-2.99910E-21-6.94211E-19
 -1      4193 9.62699E-05-2.92033E-05-2.87416E-05-3.93413E-07 5.14431E-21-7.30228E-19
 -1      4194 9.63787E-05-2.92474E-05-2.87688E-05-4.00842E-07 4.27904E-20-6.90865E-19
 -1      4195 7.65905E-05-1.82261E-05-2.49423E-05 3.86590E-06 9.78238E-19-7.64770E-19
 -1      4196 7.50591E-05-1.77535E-05-2.45745E-05 1.92605E-06 1.01454E-18-9.08914E-19
 -1      4197 7.33852E-05-1.70493E-05-2.40687E-05-5.04971E-07 7.78591E-19-1.36894E-18
 -1      4198 7.54920E-05-1.79530E-05-2.46942E-05-3.04276E-06 4.54063E-19-1.85071E-18
 -1      4199 7.68862E-05-1.81167E-05-2.52537E-05 9.77733E-07 1.69394E-18-1.36142E-18
 -1      4200 8.03093E-05-1.91360E-05-2.62664E-05-1.04707E-06 5.88110E-19-1.25049E-18
 -1      4201 8.18846E-05-1.96136E-05-2.67416E-05-7.13662E-07 5.69660E-19-1.29698E-18
 -1      4202 8.92787E-05-2.30926E-05-2.83890E-05-3.98944E-07-2.36775E-19-3.20615E-21
 -1      4203 8.99820E-05-2.35522E-05-2.84878E-05-2.75458E-07-1.04396E-19 3.31512E-19
 -1      4204 9.67607E-05-2.92862E-05-2.89163E-05 2.98652E-08-3.26471E-19-5.96601E-19
 -1      4205 9.66641E-05-2.93116E-05-2.88631E-05 3.28140E-08-2.73366E-19-4.79661E-19
 -1      4206 9.65025E-05-2.92865E-05-2.88059E-05-6.04443E-08-1.66377E-19-5.56319E-19
 -1      4207 9.63896E-05-2.92495E-05-2.87721E-05-5.48376E-08-5.29823E-20-6.74296E-19
 -1      4208 9.62732E-05-2.91921E-05-2.87472E-05-5.52082E-08 1.50719E-19-7.04121E-19
 -1      4209 9.61495E-05-2.91187E-05-2.87256E-05-5.33878E-08 1.79489E-19-3.73933E-19
 -1      4210 9.60264E-05-2.90284E-05-2.87119E-05-5.33467E-08-2.69995E-19-3.91686E-19
 -1      4211 9.58968E-05-2.89258E-05-2.87006E-05-5.19480E-08-2.77003E-19-2.29387E-19
 -1      4212 9.57675E-05-2.88095E-05-2.86955E-05-5.43281E-08-1.64775E-19-4.23591E-19
 -1      4213 9.56308E-05-2.86812E-05-2.86921E-05-5.17372E-08 2.30006E-19-2.34602E-19
 -1      4214 9.54917E-05-2.85408E-05-2.86933E-05-5.86167E-08 3.66001E-19-3.96843E-19
 -1      4215 9.53433E-05-2.83875E-05-2.86956E-05-5.39791E-08 3.25866E-19-3.60490E-19
 -1      4216 9.51884E-05-2.82219E-05-2.87011E-05-6.69978E-08 3.41356E-19-3.13629E-19
 -1      4217 9.50215E-05-2.80414E-05-2.87070E-05-5.96349E-08 3.49107E-19-2.29276E-19
 -1      4218 9.48427E-05-2.78479E-05-2.87146E-05-8.02694E-08 1.98609E-19-7.29593E-20
 -1      4219 9.46484E-05-2.76364E-05-2.87219E-05-6.95938E-08 3.16060E-19-3.72716E-19
 -1      4220 9.44359E-05-2.74107E-05-2.87292E-05-9.92660E-08 7.36518E-19-2.86389E-19
 -1      4221 9.42035E-05-2.71636E-05-2.87352E-05-8.47471E-08 3.90556E-19 2.44772E-20
 -1      4222 9.39458E-05-2.69011E-05-2.87394E-05-1.24889E-07-1.89812E-21 3.37685E-19
 -1      4223 9.36633E-05-2.66139E-05-2.87410E-05-1.06032E-07-1.69318E-19 4.91780E-19
 -1      4224 9.33476E-05-2.63107E-05-2.87383E-05-1.58147E-07-6.33325E-19 9.97084E-19
 -1      4225 9.30015E-05-2.59793E-05-2.87314E-05-1.34469E-07-3.13282E-19 4.64610E-19
 -1      4226 9.26136E-05-2.56330E-05-2.87168E-05-2.00232E-07-2.13262E-19 4.09335E-19
 -1      4227 9.21890E-05-2.52556E-05-2.86960E-05-1.71203E-07 1.05922E-19 3.04558E-19
 -1      4228 9.17137E-05-2.48662E-05-2.86630E-05-2.52685E-07 5.32527E-19 1.18900E-19
 -1      4229 9.11943E-05-2.44438E-05-2.86209E-05-2.17601E-07 2.60983E-19 1.85056E-19
 -1      4230 9.06147E-05-2.40152E-05-2.85608E-05-3.17734E-07-2.82771E-19 3.02253E-19
 -1      4231 8.85105E-05-2.25974E-05-2.82721E-05-3.47456E-07 2.59979E-20-5.96088E-19
 -1      4232 8.76595E-05-2.21198E-05-2.81191E-05-5.02336E-07-1.61087E-19-5.70080E-19
 -1      4233 8.67261E-05-2.16040E-05-2.79412E-05-4.38146E-07-1.96127E-19-6.78571E-19
 -1      4234 8.56947E-05-2.11246E-05-2.77135E-05-6.37944E-07 1.63196E-19-1.03972E-18
 -1      4235 8.45534E-05-2.06005E-05-2.74511E-05-5.56046E-07-1.11999E-19-9.92185E-19
 -1      4236 8.32929E-05-2.01347E-05-2.71205E-05-8.19796E-07 1.53627E-19-1.57747E-18
 -1      4237 7.85704E-05-1.86286E-05-2.57250E-05-9.82652E-07 1.42948E-18-1.54204E-18
 -1      4238 9.69936E-05-2.88485E-05-2.92053E-05-6.15934E-08 2.29595E-20-5.88417E-19
 -1      4239 9.69539E-05-2.90322E-05-2.91071E-05-4.52012E-08 1.65242E-19-6.64521E-19
 -1      4240 9.68930E-05-2.78446E-05-2.95832E-05-4.67301E-08 2.20065E-19-6.24015E-19
 -1      4241 9.67037E-05-2.72091E-05-2.97847E-05 8.81702E-09 2.17277E-19-5.87087E-19
 -1      4242 9.67774E-05-2.74294E-05-2.97279E-05-1.16052E-08 1.89202E-19-5.20519E-19
 -1      4243 9.69528E-05-2.82485E-05-2.94483E-05-9.74034E-08 6.01384E-20-5.17920E-19
 -1      4244 9.69122E-05-2.91462E-05-2.90415E-05-1.75887E-08 2.11279E-19-7.91735E-19
 -1      4245 9.68302E-05-2.92371E-05-2.89674E-05-8.39319E-09-7.87359E-20-8.22188E-19
 -1      4246 9.67762E-05-2.92620E-05-2.89375E-05-1.52537E-07-1.79822E-19-7.69843E-19
 -1      4247 9.68835E-05-2.91111E-05-2.90485E-05-2.34086E-07-4.72408E-21-8.30781E-19
 -1      4248 9.69181E-05-2.79153E-05-2.95649E-05 1.26424E-08 1.92578E-19-4.12246E-19
 -1      4249 9.69729E-05-2.82996E-05-2.94332E-05 2.81749E-08 9.76563E-20-4.48114E-19
 -1      4250 9.65409E-05-2.92852E-05-2.88267E-05-1.89408E-07-2.69573E-19-5.43102E-19
 -1      4251 9.67859E-05-2.91581E-05-2.89813E-05-3.51642E-07-1.28492E-19-9.76527E-19
 -1      4252 7.77868E-05-1.83827E-05-2.54532E-05-2.78867E-06 1.05676E-18-1.41841E-18
 -1      4253 9.67110E-05-2.92286E-05-2.89197E-05-3.67066E-07-8.16691E-20-1.08467E-18
 -1      4254 9.65470E-05-2.92776E-05-2.88295E-05-3.21510E-07-9.10082E-20-7.81258E-19
 -1      4255 9.66434E-05-2.92660E-05-2.88741E-05-3.17764E-07-2.08354E-19-9.54504E-19
 -1      4256 9.70033E-05-2.86029E-05-2.93097E-05-3.49830E-08-4.20672E-20-4.90757E-19
 -3
    1PSTEP                         4           1           1          
  100CL  101 1.000000000        4256                     0    1           1
 -4  ERROR       1    1
 -5  STR(%)      1    1    0    0
 -1         1 4.20438E+01
 -1         2 2.48899E+01
 -1         3 1.25475E-01
 -1         4 1.52587E-01
 -1         5 1.40401E+01
 -1         6 1.31444E+01
 -1         7 1.31444E+01
 -1         8 3.66367E+00
 -1         9 1.82477E+00
 -1        10 1.28896E+00
 -1        11 1.04620E+00
 -1        12 8.99937E-01
 -1        13 8.08963E-01
 -1        14 7.54151E-01
 -1        15 7.56121E-01
 -1        16 8.13225E-01
 -1        17 9.00794E-01
 -1        18 1.05245E+00
 -1        19 1.30754E+00
 -1        20 1.83548E+00
 -1        21 3.50547E+00
 -1        22 8.64210E+00
 -1        23 1.31444E+01
 -1        24 4.31836E+00
 -1        25 3.34173E+00
 -1        26 2.11244E+00
 -1        27 1.36399E+00
 -1        28 1.01483E+00
 -1        29 7.76184E-01
 -1        30 5.96902E-01
 -1        31 4.57442E-01
 -1        32 3.50661E-01
 -1        33 2.72951E-01
 -1        34 2.11064E-01
 -1        35 1.63000E-01
 -1        36 1.26840E-01
 -1        37 1.00824E-01
 -1        38 8.33852E-02
 -1        39 7.31367E-02
 -1        40 7.96544E-02
 -1        41 9.10052E-02
 -1        42 1.11767E-01
 -1        43 1.47177E-01
 -1        44 1.93762E-01
 -1        45 2.52172E-01
 -1        46 3.22075E-01
 -1        47 4.01335E-01
 -1        48 4.84839E-01
 -1        49 5.74350E-01
 -1        50 7.44241E-01
 -1        51 9.28061E-01
 -1        52 1.15551E+00
 -1        53 1.33848E+00
 -1        54 1.39149E+00
 -1        55 1.43000E+00
 -1        56 1.43000E+00
 -1        57 1.68193E+00
 -1        58 2.26107E+00
 -1        59 3.76277E+00
 -1        60 4.39715E+00
 -1        61 4.39715E+00
 -1        62 4.26387E+00
 -1        63 3.75480E+00
 -1        64 2.33268E+00
 -1        65 1.39955E+00
 -1        66 9.21744E-01
 -1        67 9.53055E-01
 -1        68 9.53055E-01
 -1        69 8.91284E-01
 -1        70 8.53511E-01
 -1        71 7.06865E-01
 -1        72 1.40401E+01
 -1        73 3.39512E+00
 -1        74 2.41372E+00
 -1        75 1.66664E+00
 -1        76 1.14568E+00
 -1        77 9.06152E-01
 -1        78 7.31713E-01
 -1        79 5.88663E-01
 -1        80 4.69741E-01
 -1        81 3.71174E-01
 -1        82 2.97679E-01
 -1        83 2.37392E-01
 -1        84 1.88437E-01
 -1        85 1.50163E-01
 -1        86 1.21745E-01
 -1        87 1.02337E-01
 -1        88 9.12622E-02
 -1        89 1.00718E-01
 -1        90 1.17559E-01
 -1        91 1.41218E-01
 -1        92 1.70827E-01
 -1        93 2.04891E-01
 -1        94 2.51836E-01
 -1        95 3.21486E-01
 -1        96 4.00393E-01
 -1        97 4.83428E-01
 -1        98 5.60983E-01
 -1        99 6.17261E-01
 -1       100 6.33858E-01
 -1       101 8.04836E-01
 -1       102 1.01644E+00
 -1       103 1.16021E+00
 -1       104 1.38456E+00
 -1       105 1.63066E+00
 -1       106 1.67313E+00
 -1       107 2.07532E+00
 -1       108 2.80323E+00
 -1       109 3.62483E+00
 -1       110 3.91594E+00
 -1       111 3.91594E+00
 -1       112 3.78852E+00
 -1       113 2.60078E+00
 -1       114 1.36005E+00
 -1       115 8.67056E-01
 -1       116 1.07965E+00
 -1       117 1.07965E+00
 -1       118 8.94502E-01
 -1       119 8.38211E-01
 -1       120 5.03486E-01
 -1       121 2.83845E-01
 -1       122 2.83845E-01
 -1       123 2.65926E-01
 -1       124 2.15393E-01
 -1       125 1.30528E-01
 -1       126 2.09883E-01
 -1       127 3.62559E-01
 -1       128 4.18659E-01
 -1       129 4.18659E-01
 -1       130 3.61466E-01
 -1       131 2.06412E-01
 -1       132 1.31426E-01
 -1       133 2.17509E-01
 -1       134 2.60414E-01
 -1       135 3.97912E-01
 -1       136 4.32553E-01
 -1       137 2.39835E+01
 -1       138 4.87525E+01
 -1       139 4.87525E+01
 -1       140 2.17806E+01
 -1       141 1.28402E+01
 -1       142 1.28402E+01
 -1       143 1.24170E+01
 -1       144 1.24170E+01
 -1       145 1.21787E+01
 -1       146 1.35241E+01
 -1       147 3.42152E+01
 -1       148 3.42152E+01
 -1       149 2.63685E+01
 -1       150 2.40478E+01
 -1       151 2.38755E+01
 -1       152 2.38755E+01
 -1       153 4.20438E+01
 -1       154 1.53239E+01
 -1       155 1.18682E+01
 -1       156 1.19158E+01
 -1       157 1.19158E+01
 -1       158 1.20662E+01
 -1       159 1.20662E+01
 -1       160 1.20518E+01
 -1       161 2.41496E+01
 -1       162 3.20413E+01
 -1       163 3.20413E+01
 -1       164 2.48899E+01
 -1       165 6.07791E+00
 -1       166 2.29863E+00
 -1       167 1.50739E+00
 -1       168 1.15776E+00
 -1       169 9.73494E-01
 -1       170 8.64648E-01
 -1       171 7.96213E-01
 -1       172 7.56121E-01
 -1       173 7.99639E-01
 -1       174 8.67292E-01
 -1       175 9.80930E-01
 -1       176 1.17231E+00
 -1       177 1.52731E+00
 -1       178 2.26056E+00
 -1       179 3.93121E+00
 -1       180 1.40401E+01
 -1       181 4.31836E+00
 -1       182 3.34173E+00
 -1       183 2.11244E+00
 -1       184 1.44836E+00
 -1       185 1.02697E+00
 -1       186 7.76184E-01
 -1       187 5.96902E-01
 -1       188 4.70101E-01
 -1       189 3.70882E-01
 -1       190 2.93312E-01
 -1       191 2.37561E-01
 -1       192 1.90600E-01
 -1       193 1.52250E-01
 -1       194 1.21841E-01
 -1       195 9.84466E-02
 -1       196 8.10039E-02
 -1       197 7.28504E-02
 -1       198 7.96544E-02
 -1       199 9.41935E-02
 -1       200 1.20680E-01
 -1       201 1.55576E-01
 -1       202 1.99361E-01
 -1       203 2.52172E-01
 -1       204 3.23861E-01
 -1       205 4.33226E-01
 -1       206 5.59056E-01
 -1       207 6.93119E-01
 -1       208 8.19125E-01
 -1       209 9.57605E-01
 -1       210 1.15551E+00
 -1       211 1.33848E+00
 -1       212 1.39149E+00
 -1       213 1.43000E+00
 -1       214 1.41480E+00
 -1       215 1.68193E+00
 -1       216 2.39776E+00
 -1       217 3.76277E+00
 -1       218 4.39715E+00
 -1       219 4.26387E+00
 -1       220 3.75480E+00
 -1       221 2.45926E+00
 -1       222 1.48780E+00
 -1       223 9.21744E-01
 -1       224 9.20515E-01
 -1       225 9.53055E-01
 -1       226 8.91284E-01
 -1       227 8.53511E-01
 -1       228 7.06865E-01
 -1       229 3.39512E+00
 -1       230 2.41372E+00
 -1       231 1.66664E+00
 -1       232 1.14568E+00
 -1       233 9.06152E-01
 -1       234 7.31713E-01
 -1       235 5.88663E-01
 -1       236 4.69741E-01
 -1       237 3.71174E-01
 -1       238 2.97679E-01
 -1       239 2.37392E-01
 -1       240 1.90561E-01
 -1       241 1.53651E-01
 -1       242 1.25085E-01
 -1       243 1.04285E-01
 -1       244 9.11656E-02
 -1       245 9.21671E-02
 -1       246 1.02543E-01
 -1       247 1.18095E-01
 -1       248 1.41218E-01
 -1       249 1.75988E-01
 -1       250 2.24958E-01
 -1       251 2.82548E-01
 -1       252 3.46590E-01
 -1       253 4.12840E-01
 -1       254 4.83428E-01
 -1       255 5.60983E-01
 -1       256 6.17261E-01
 -1       257 7.04218E-01
 -1       258 8.41918E-01
 -1       259 1.01644E+00
 -1       260 1.16021E+00
 -1       261 1.38456E+00
 -1       262 1.63066E+00
 -1       263 1.67313E+00
 -1       264 2.07532E+00
 -1       265 2.80323E+00
 -1       266 3.62483E+00
 -1       267 3.91594E+00
 -1       268 3.78852E+00
 -1       269 2.60078E+00
 -1       270 1.42609E+00
 -1       271 7.10418E-01
 -1       272 8.67056E-01
 -1       273 1.07965E+00
 -1       274 8.94502E-01
 -1       275 8.38211E-01
 -1       276 5.40664E-01
 -1       277 3.75321E-01
 -1       278 4.43301E-01
 -1       279 4.43301E-01
 -1       280 3.77621E-01
 -1       281 3.30586E-01
 -1       282 6.22818E-01
 -1       283 8.05141E-01
 -1       284 8.05141E-01
 -1       285 8.04340E-01
 -1       286 6.18238E-01
 -1       287 3.33863E-01
 -1       288 3.82242E-01
 -1       289 4.45834E-01
 -1       290 4.45834E-01
 -1       291 4.78614E-01
 -1       292 3.04324E+01
 -1       293 3.07090E+01
 -1       294 4.87525E+01
 -1       295 2.41971E+01
 -1       296 1.09454E+01
 -1       297 1.28402E+01
 -1       298 1.21970E+01
 -1       299 1.24170E+01
 -1       300 1.21787E+01
 -1       301 1.13945E+01
 -1       302 1.35241E+01
 -1       303 3.42152E+01
 -1       304 3.40941E+01
 -1       305 2.49504E+01
 -1       306 2.68920E+01
 -1       307 2.68920E+01
 -1       308 3.73049E+01
 -1       309 4.20438E+01
 -1       310 1.61964E+01
 -1       311 1.08001E+01
 -1       312 1.18682E+01
 -1       313 1.19158E+01
 -1       314 1.16079E+01
 -1       315 1.20662E+01
 -1       316 1.20518E+01
 -1       317 1.19005E+01
 -1       318 2.62815E+01
 -1       319 3.20413E+01
 -1       320 3.10972E+01
 -1       321 3.04324E+01
 -1       322 1.04786E+00
 -1       323 2.47989E+00
 -1       324 7.95080E-01
 -1       325 6.94937E-01
 -1       326 6.31911E-01
 -1       327 5.87763E-01
 -1       328 5.90967E-01
 -1       329 6.34551E-01
 -1       330 7.01163E-01
 -1       331 7.96257E-01
 -1       332 9.31623E-01
 -1       333 1.15979E+00
 -1       334 1.32883E+00
 -1       335 2.20119E+00
 -1       336 1.91480E+00
 -1       337 1.73020E+00
 -1       338 1.26853E+00
 -1       339 9.08504E-01
 -1       340 6.57775E-01
 -1       341 5.39921E-01
 -1       342 4.43350E-01
 -1       343 3.58530E-01
 -1       344 2.93530E-01
 -1       345 2.39143E-01
 -1       346 1.92706E-01
 -1       347 1.56457E-01
 -1       348 1.27644E-01
 -1       349 1.03344E-01
 -1       350 8.31263E-02
 -1       351 6.91928E-02
 -1       352 6.53848E-02
 -1       353 7.53230E-02
 -1       354 9.41935E-02
 -1       355 1.20680E-01
 -1       356 1.60516E-01
 -1       357 2.25157E-01
 -1       358 3.05413E-01
 -1       359 4.01770E-01
 -1       360 5.12284E-01
 -1       361 6.30972E-01
 -1       362 7.45810E-01
 -1       363 8.37987E-01
 -1       364 9.41445E-01
 -1       365 1.04239E+00
 -1       366 1.04161E+00
 -1       367 8.62904E-01
 -1       368 8.34101E-01
 -1       369 9.88917E-01
 -1       370 1.65756E+00
 -1       371 2.20402E+00
 -1       372 2.67591E+00
 -1       373 2.56374E+00
 -1       374 2.59272E+00
 -1       375 2.21783E+00
 -1       376 1.77034E+00
 -1       377 1.36311E+00
 -1       378 9.38721E-01
 -1       379 8.53387E-01
 -1       380 7.37379E-01
 -1       381 6.34990E-01
 -1       382 6.51358E-01
 -1       383 1.13104E+00
 -1       384 8.92354E-01
 -1       385 7.05145E-01
 -1       386 5.46682E-01
 -1       387 4.39259E-01
 -1       388 3.73254E-01
 -1       389 3.10150E-01
 -1       390 2.55031E-01
 -1       391 2.10432E-01
 -1       392 1.71542E-01
 -1       393 1.39178E-01
 -1       394 1.14760E-01
 -1       395 9.64237E-02
 -1       396 8.38527E-02
 -1       397 7.90701E-02
 -1       398 8.23318E-02
 -1       399 9.14006E-02
 -1       400 1.15998E-01
 -1       401 1.47510E-01
 -1       402 1.98982E-01
 -1       403 2.75831E-01
 -1       404 3.69970E-01
 -1       405 4.80337E-01
 -1       406 6.02075E-01
 -1       407 7.24429E-01
 -1       408 8.28456E-01
 -1       409 9.26283E-01
 -1       410 9.64447E-01
 -1       411 9.64447E-01
 -1       412 8.81944E-01
 -1       413 6.94266E-01
 -1       414 7.13647E-01
 -1       415 1.43290E+00
 -1       416 2.04494E+00
 -1       417 2.17390E+00
 -1       418 2.17390E+00
 -1       419 2.17779E+00
 -1       420 2.29679E+00
 -1       421 1.83996E+00
 -1       422 1.24528E+00
 -1       423 8.73241E-01
 -1       424 7.17150E-01
 -1       425 7.08661E-01
 -1       426 6.72576E-01
 -1       427 6.60753E-01
 -1       428 5.40664E-01
 -1       429 5.71464E-01
 -1       430 5.71464E-01
 -1       431 5.67905E-01
 -1       432 5.56403E-01
 -1       433 7.75733E-01
 -1       434 1.16495E+00
 -1       435 1.18681E+00
 -1       436 1.18681E+00
 -1       437 1.15923E+00
 -1       438 7.80729E-01
 -1       439 5.55454E-01
 -1       440 5.65411E-01
 -1       441 6.51358E-01
 -1       442 3.07090E+01
 -1       443 3.23152E+01
 -1       444 2.83910E+01
 -1       445 1.73080E+01
 -1       446 9.31706E+00
 -1       447 9.10674E-01
 -1       448 9.66710E+00
 -1       449 1.02755E+01
 -1       450 1.03266E+01
 -1       451 8.90958E+00
 -1       452 7.48347E+00
 -1       453 1.23785E+01
 -1       454 2.20195E+01
 -1       455 2.71715E+01
 -1       456 3.36548E+01
 -1       457 3.36548E+01
 -1       458 2.13916E+01
 -1       459 2.49488E+01
 -1       460 1.41480E+01
 -1       461 7.84046E+00
 -1       462 7.89295E+00
 -1       463 1.03840E+01
 -1       464 1.06682E+01
 -1       465 1.12555E+01
 -1       466 9.24639E+00
 -1       467 6.17090E+00
 -1       468 1.07318E+01
 -1       469 1.84060E+01
 -1       470 3.10972E+01
 -1       471 3.23152E+01
 -1       472 7.04297E+00
 -1       473 7.18859E+00
 -1       474 1.04866E+00
 -1       475 4.86543E-01
 -1       476 5.14413E-01
 -1       477 4.31733E-01
 -1       478 4.57572E-01
 -1       479 4.87043E-01
 -1       480 5.11003E-01
 -1       481 5.11003E-01
 -1       482 6.08364E-01
 -1       483 9.41480E+00
 -1       484 8.92354E-01
 -1       485 8.03543E-01
 -1       486 7.03262E-01
 -1       487 5.90287E-01
 -1       488 4.78187E-01
 -1       489 3.79826E-01
 -1       490 3.25187E-01
 -1       491 2.75795E-01
 -1       492 2.29230E-01
 -1       493 1.90313E-01
 -1       494 1.57070E-01
 -1       495 1.28012E-01
 -1       496 1.03344E-01
 -1       497 8.31263E-02
 -1       498 6.70392E-02
 -1       499 5.56994E-02
 -1       500 5.83277E-02
 -1       501 7.06291E-02
 -1       502 9.60118E-02
 -1       503 1.41025E-01
 -1       504 1.97428E-01
 -1       505 2.67174E-01
 -1       506 3.51577E-01
 -1       507 4.50671E-01
 -1       508 5.62235E-01
 -1       509 6.80473E-01
 -1       510 7.94408E-01
 -1       511 8.87409E-01
 -1       512 9.87602E-01
 -1       513 1.12281E+00
 -1       514 1.21394E+00
 -1       515 1.22940E+00
 -1       516 1.47738E+00
 -1       517 1.76241E+00
 -1       518 2.11613E+00
 -1       519 2.31129E+00
 -1       520 3.31592E+00
 -1       521 3.27124E+00
 -1       522 2.54051E+00
 -1       523 2.09749E+00
 -1       524 1.86533E+00
 -1       525 1.55414E+00
 -1       526 1.25561E+00
 -1       527 9.24255E-01
 -1       528 7.37379E-01
 -1       529 5.46682E-01
 -1       530 4.39259E-01
 -1       531 3.73254E-01
 -1       532 3.10150E-01
 -1       533 2.55031E-01
 -1       534 2.10808E-01
 -1       535 1.72333E-01
 -1       536 1.39572E-01
 -1       537 1.12420E-01
 -1       538 9.04880E-02
 -1       539 7.34325E-02
 -1       540 6.26233E-02
 -1       541 6.07038E-02
 -1       542 7.31949E-02
 -1       543 9.14006E-02
 -1       544 1.29299E-01
 -1       545 1.83929E-01
 -1       546 2.52130E-01
 -1       547 3.35290E-01
 -1       548 4.33398E-01
 -1       549 5.43947E-01
 -1       550 6.60437E-01
 -1       551 7.70608E-01
 -1       552 8.60863E-01
 -1       553 9.30387E-01
 -1       554 1.02306E+00
 -1       555 1.05887E+00
 -1       556 9.89628E-01
 -1       557 1.20313E+00
 -1       558 1.27498E+00
 -1       559 1.75349E+00
 -1       560 2.13383E+00
 -1       561 2.82523E+00
 -1       562 2.69212E+00
 -1       563 2.55191E+00
 -1       564 1.93330E+00
 -1       565 1.78420E+00
 -1       566 1.33916E+00
 -1       567 1.14838E+00
 -1       568 8.57502E-01
 -1       569 7.32723E-01
 -1       570 6.72576E-01
 -1       571 1.05608E+00
 -1       572 1.44396E+00
 -1       573 9.60136E-01
 -1       574 9.60136E-01
 -1       575 1.84773E+00
 -1       576 1.84773E+00
 -1       577 1.83670E+00
 -1       578 1.44849E+00
 -1       579 1.05153E+00
 -1       580 8.87306E-01
 -1       581 6.91424E-01
 -1       582 2.83910E+01
 -1       583 1.32747E+01
 -1       584 7.05145E-01
 -1       585 3.23152E+01
 -1       586 2.14695E+01
 -1       587 8.72638E-01
 -1       588 2.09309E+01
 -1       589 7.93226E+00
 -1       590 4.57445E-01
 -1       591 6.31336E+00
 -1       592 7.45015E+00
 -1       593 5.23728E+00
 -1       594 8.06699E+00
 -1       595 4.47155E+00
 -1       596 5.87377E+00
 -1       597 1.24171E+01
 -1       598 1.64285E+01
 -1       599 2.71715E+01
 -1       600 3.36548E+01
 -1       601 2.17928E+01
 -1       602 1.78377E+01
 -1       603 1.17699E+01
 -1       604 8.09611E+00
 -1       605 5.04165E+00
 -1       606 5.80419E+00
 -1       607 7.55983E+00
 -1       608 6.41065E+00
 -1       609 4.40251E+00
 -1       610 9.11851E+00
 -1       611 1.40412E+01
 -1       612 4.97018E+00
 -1       613 1.32847E+00
 -1       614 7.24371E+00
 -1       615 5.30976E-01
 -1       616 5.89754E+00
 -1       617 6.51358E-01
 -1       618 3.58588E-01
 -1       619 3.43065E-01
 -1       620 3.61943E-01
 -1       621 3.37855E-01
 -1       622 1.02816E+01
 -1       623 5.44209E-01
 -1       624 4.93103E+00
 -1       625 3.98231E-01
 -1       626 3.85633E-01
 -1       627 3.44781E-01
 -1       628 2.95394E-01
 -1       629 2.45957E-01
 -1       630 2.14456E-01
 -1       631 1.81928E-01
 -1       632 1.50670E-01
 -1       633 1.23666E-01
 -1       634 1.00836E-01
 -1       635 8.11075E-02
 -1       636 6.39655E-02
 -1       637 4.85850E-02
 -1       638 3.86127E-02
 -1       639 4.57701E-02
 -1       640 7.32621E-02
 -1       641 1.10812E-01
 -1       642 1.57355E-01
 -1       643 2.14988E-01
 -1       644 2.85796E-01
 -1       645 3.71675E-01
 -1       646 4.74068E-01
 -1       647 5.93517E-01
 -1       648 7.29509E-01
 -1       649 8.76222E-01
 -1       650 1.02564E+00
 -1       651 1.18051E+00
 -1       652 1.46774E+00
 -1       653 1.78029E+00
 -1       654 2.02823E+00
 -1       655 1.92465E+00
 -1       656 3.12334E+00
 -1       657 2.63548E+00
 -1       658 3.44675E+00
 -1       659 4.33325E+00
 -1       660 3.45271E+00
 -1       661 2.68128E+00
 -1       662 2.97289E+00
 -1       663 2.47068E+00
 -1       664 1.79557E+00
 -1       665 1.25561E+00
 -1       666 9.24255E-01
 -1       667 3.29704E-01
 -1       668 1.36134E+00
 -1       669 3.98098E-01
 -1       670 2.36385E-01
 -1       671 1.99817E-01
 -1       672 1.66039E-01
 -1       673 1.37125E-01
 -1       674 1.12042E-01
 -1       675 9.04573E-02
 -1       676 7.22350E-02
 -1       677 5.74384E-02
 -1       678 4.47246E-02
 -1       679 5.26180E-02
 -1       680 6.91961E-02
 -1       681 1.06590E-01
 -1       682 1.53160E-01
 -1       683 2.10995E-01
 -1       684 2.82020E-01
 -1       685 3.67685E-01
 -1       686 4.68473E-01
 -1       687 5.83158E-01
 -1       688 7.07736E-01
 -1       689 8.33982E-01
 -1       690 9.47522E-01
 -1       691 1.08380E+00
 -1       692 1.28568E+00
 -1       693 1.46490E+00
 -1       694 1.60530E+00
 -1       695 2.22995E+00
 -1       696 3.08224E+00
 -1       697 3.42993E+00
 -1       698 4.55606E+00
 -1       699 5.75088E+00
 -1       700 5.69275E+00
 -1       701 4.93103E+00
 -1       702 3.77419E+00
 -1       703 2.26475E+00
 -1       704 1.82294E+00
 -1       705 1.25181E+00
 -1       706 8.99332E-01
 -1       707 2.53540E+00
 -1       708 8.87306E-01
 -1       709 1.76525E+00
 -1       710 2.53540E+00
 -1       711 2.52073E+00
 -1       712 4.17105E+00
 -1       713 2.51145E+00
 -1       714 1.81094E+00
 -1       715 1.48420E+00
 -1       716 5.30976E-01
 -1       717 6.87070E+00
 -1       718 9.96427E+00
 -1       719 1.40018E+01
 -1       720 5.39591E+00
 -1       721 1.32961E+01
 -1       722 3.48102E+00
 -1       723 4.65450E-01
 -1       724 2.74951E-01
 -1       725 4.02657E-01
 -1       726 3.67923E+00
 -1       727 3.61943E-01
 -1       728 9.20177E+00
 -1       729 5.30947E+00
 -1       730 3.58843E-01
 -1       731 1.55082E+01
 -1       732 5.16418E-01
 -1       733 4.61117E+00
 -1       734 4.55606E+00
 -1       735 5.75088E+00
 -1       736 1.54651E+01
 -1       737 1.58276E+01
 -1       738 1.63988E+01
 -1       739 1.16987E+01
 -1       740 6.67139E+00
 -1       741 3.08838E+00
 -1       742 4.53748E+00
 -1       743 5.83567E+00
 -1       744 6.01034E+00
 -1       745 1.02981E+01
 -1       746 1.28625E+01
 -1       747 5.69275E+00
 -1       748 3.78135E-01
 -1       749 3.42578E-01
 -1       750 5.93552E+00
 -1       751 1.51178E+00
 -1       752 4.05149E+00
 -1       753 1.20014E+01
 -1       754 9.26220E-01
 -1       755 3.57516E-01
 -1       756 2.40631E-01
 -1       757 2.56627E-01
 -1       758 2.49831E-01
 -1       759 2.28202E-01
 -1       760 1.99869E-01
 -1       761 1.73008E-01
 -1       762 1.51568E-01
 -1       763 1.28749E-01
 -1       764 1.06297E-01
 -1       765 8.50416E-02
 -1       766 6.51409E-02
 -1       767 4.62685E-02
 -1       768 2.77684E-02
 -1       769 2.96911E-02
 -1       770 5.08459E-02
 -1       771 8.20203E-02
 -1       772 1.22173E-01
 -1       773 1.73556E-01
 -1       774 2.37267E-01
 -1       775 3.14972E-01
 -1       776 4.07485E-01
 -1       777 5.13879E-01
 -1       778 6.32737E-01
 -1       779 8.01019E-01
 -1       780 1.00900E+00
 -1       781 1.29329E+00
 -1       782 1.62971E+00
 -1       783 2.02562E+00
 -1       784 2.66558E+00
 -1       785 3.83704E+00
 -1       786 3.40913E+00
 -1       787 2.90073E+00
 -1       788 1.79557E+00
 -1       789 1.11721E+00
 -1       790 2.88018E-01
 -1       791 1.64382E-01
 -1       792 1.90239E-01
 -1       793 1.13177E-01
 -1       794 9.01165E-02
 -1       795 6.89911E-02
 -1       796 5.20832E-02
 -1       797 3.60209E-02
 -1       798 3.01747E-02
 -1       799 4.65566E-02
 -1       800 7.68123E-02
 -1       801 1.13863E-01
 -1       802 1.59675E-01
 -1       803 2.16430E-01
 -1       804 2.86559E-01
 -1       805 3.73955E-01
 -1       806 4.83931E-01
 -1       807 6.15997E-01
 -1       808 7.70344E-01
 -1       809 9.44909E-01
 -1       810 1.15531E+00
 -1       811 1.37539E+00
 -1       812 1.75215E+00
 -1       813 2.11858E+00
 -1       814 2.81477E+00
 -1       815 4.45672E+00
 -1       816 3.06741E+00
 -1       817 1.99990E+00
 -1       818 1.02529E+01
 -1       819 2.88656E-01
 -1       820 6.48509E+00
 -1       821 3.72662E+00
 -1       822 2.57926E+00
 -1       823 8.52434E+00
 -1       824 5.04341E+00
 -1       825 3.07053E-01
 -1       826 6.14901E+00
 -1       827 4.39515E+00
 -1       828 1.38156E-01
 -1       829 7.54777E+00
 -1       830 2.33635E-01
 -1       831 9.79082E+00
 -1       832 4.39515E+00
 -1       833 7.98163E+00
 -1       834 7.88451E+00
 -1       835 2.82015E-01
 -1       836 4.62238E+00
 -1       837 1.01234E+01
 -1       838 5.04341E+00
 -1       839 7.69452E+00
 -1       840 2.81921E-01
 -1       841 5.28836E+00
 -1       842 2.52193E+00
 -1       843 2.59992E-01
 -1       844 3.77419E+00
 -1       845 2.18975E-01
 -1       846 1.25181E+00
 -1       847 3.72105E+00
 -1       848 2.55616E-01
 -1       849 3.93033E+00
 -1       850 2.05801E+00
 -1       851 3.72177E+00
 -1       852 2.88656E-01
 -1       853 2.73232E-01
 -1       854 6.19394E+00
 -1       855 2.80049E-01
 -1       856 9.10677E+00
 -1       857 2.87961E-01
 -1       858 1.62576E+00
 -1       859 2.84738E-01
 -1       860 1.43344E-01
 -1       861 2.87961E-01
 -1       862 5.54401E+00
 -1       863 1.83601E-01
 -1       864 1.76279E-01
 -1       865 1.60418E-01
 -1       866 1.40410E-01
 -1       867 1.23767E-01
 -1       868 1.06717E-01
 -1       869 8.90437E-02
 -1       870 7.16416E-02
 -1       871 5.48092E-02
 -1       872 4.09958E-02
 -1       873 4.32893E-02
 -1       874 4.91086E-02
 -1       875 7.79190E-02
 -1       876 1.15725E-01
 -1       877 1.63265E-01
 -1       878 2.22839E-01
 -1       879 2.96946E-01
 -1       880 3.88238E-01
 -1       881 4.99388E-01
 -1       882 6.32737E-01
 -1       883 7.89372E-01
 -1       884 9.67054E-01
 -1       885 1.24898E+00
 -1       886 1.69339E+00
 -1       887 2.59970E+00
 -1       888 5.45397E+00
 -1       889 7.09812E+00
 -1       890 4.02475E+00
 -1       891 7.73931E-02
 -1       892 9.65070E-02
 -1       893 4.14970E-02
 -1       894 3.64088E-02
 -1       895 4.01352E-02
 -1       896 6.64996E-02
 -1       897 1.01870E-01
 -1       898 1.46987E-01
 -1       899 2.03403E-01
 -1       900 2.73316E-01
 -1       901 3.58768E-01
 -1       902 4.61301E-01
 -1       903 5.81243E-01
 -1       904 7.16259E-01
 -1       905 8.84780E-01
 -1       906 1.11651E+00
 -1       907 1.49710E+00
 -1       908 1.99559E+00
 -1       909 3.42739E+00
 -1       910 5.28836E+00
 -1       911 5.60190E+00
 -1       912 2.10153E-01
 -1       913 5.10986E+00
 -1       914 5.91291E-02
 -1       915 1.53076E-01
 -1       916 1.75664E-01
 -1       917 4.48880E+00
 -1       918 6.26332E+00
 -1       919 2.10656E-01
 -1       920 7.09812E+00
 -1       921 5.62160E+00
 -1       922 5.54401E+00
 -1       923 5.28836E+00
 -1       924 2.03269E-01
 -1       925 2.18494E-01
 -1       926 1.76941E-01
 -1       927 3.84313E+00
 -1       928 1.35645E-01
 -1       929 2.91267E+00
 -1       930 1.16229E-01
 -1       931 6.26332E+00
 -1       932 5.56312E+00
 -1       933 1.97773E-01
 -1       934 1.67362E-01
 -1       935 1.66079E-01
 -1       936 2.16884E-01
 -1       937 2.16884E-01
 -1       938 2.18494E-01
 -1       939 1.36572E-01
 -1       940 1.36001E-01
 -1       941 1.26987E-01
 -1       942 1.13309E-01
 -1       943 9.83708E-02
 -1       944 8.54943E-02
 -1       945 7.18665E-02
 -1       946 5.82375E-02
 -1       947 4.99909E-02
 -1       948 5.18056E-02
 -1       949 5.69244E-02
 -1       950 6.74040E-02
 -1       951 9.90474E-02
 -1       952 1.39174E-01
 -1       953 1.90020E-01
 -1       954 2.54308E-01
 -1       955 3.35499E-01
 -1       956 4.38237E-01
 -1       957 5.69101E-01
 -1       958 7.37644E-01
 -1       959 9.57468E-01
 -1       960 1.24898E+00
 -1       961 1.62988E+00
 -1       962 2.31020E+00
 -1       963 5.56312E+00
 -1       964 7.92369E-02
 -1       965 5.10839E-02
 -1       966 4.72224E-02
 -1       967 9.15151E-02
 -1       968 1.31167E-01
 -1       969 1.81204E-01
 -1       970 2.44139E-01
 -1       971 3.22944E-01
 -1       972 4.21238E-01
 -1       973 5.43609E-01
 -1       974 6.95931E-01
 -1       975 8.84780E-01
 -1       976 1.11651E+00
 -1       977 1.41148E+00
 -1       978 1.96447E+00
 -1       979 3.11809E+00
 -1       980 1.47323E-01
 -1       981 1.56245E-01
 -1       982 1.24430E-01
 -1       983 1.95985E-01
 -1       984 4.08485E+00
 -1       985 2.04417E-01
 -1       986 6.00875E-02
 -1       987 1.15575E-01
 -1       988 1.41207E-01
 -1       989 9.47907E-02
 -1       990 6.39002E-02
 -1       991 4.89642E-02
 -1       992 4.74113E+00
 -1       993 4.08485E+00
 -1       994 1.52998E-01
 -1       995 2.92464E+00
 -1       996 1.24951E-01
 -1       997 1.29052E-01
 -1       998 2.08654E-01
 -1       999 2.05728E-01
 -1      1000 1.17343E-01
 -1      1001 1.02227E-01
 -1      1002 6.28164E-02
 -1      1003 1.03644E-01
 -1      1004 9.81139E-02
 -1      1005 8.84668E-02
 -1      1006 7.67954E-02
 -1      1007 6.56470E-02
 -1      1008 5.72551E-02
 -1      1009 5.54757E-02
 -1      1010 5.63147E-02
 -1      1011 6.04812E-02
 -1      1012 6.86128E-02
 -1      1013 8.49766E-02
 -1      1014 1.07623E-01
 -1      1015 1.46435E-01
 -1      1016 1.96194E-01
 -1      1017 2.59940E-01
 -1      1018 3.42169E-01
 -1      1019 4.49887E-01
 -1      1020 5.94812E-01
 -1      1021 7.97329E-01
 -1      1022 1.08921E+00
 -1      1023 1.54054E+00
 -1      1024 2.17241E+00
 -1      1025 2.08654E-01
 -1      1026 5.62251E-02
 -1      1027 1.46490E-01
 -1      1028 1.06290E-01
 -1      1029 2.62881E-01
 -1      1030 3.46128E-01
 -1      1031 4.53410E-01
 -1      1032 5.94154E-01
 -1      1033 7.84338E-01
 -1      1034 1.04805E+00
 -1      1035 1.41148E+00
 -1      1036 2.21966E+00
 -1      1037 4.08485E+00
 -1      1038 1.17751E-01
 -1      1039 1.05295E-01
 -1      1040 9.06952E-02
 -1      1041 4.21738E+00
 -1      1042 7.63057E-02
 -1      1043 1.97693E-01
 -1      1044 1.09466E-01
 -1      1045 5.32594E-02
 -1      1046 1.28862E-01
 -1      1047 5.32588E-02
 -1      1048 1.10625E-01
 -1      1049 3.60856E+00
 -1      1050 7.24905E-02
 -1      1051 6.28023E-02
 -1      1052 1.58839E-01
 -1      1053 2.68618E+00
 -1      1054 7.63583E-02
 -1      1055 7.22695E-02
 -1      1056 9.89548E-02
 -1      1057 6.90152E-02
 -1      1058 6.18828E-02
 -1      1059 5.72551E-02
 -1      1060 5.63147E-02
 -1      1061 6.04812E-02
 -1      1062 6.86128E-02
 -1      1063 8.49766E-02
 -1      1064 1.07623E-01
 -1      1065 1.37707E-01
 -1      1066 1.76659E-01
 -1      1067 2.26317E-01
 -1      1068 2.91700E-01
 -1      1069 3.76488E-01
 -1      1070 4.88027E-01
 -1      1071 6.38485E-01
 -1      1072 8.41268E-01
 -1      1073 1.12225E+00
 -1      1074 1.46199E+00
 -1      1075 1.23492E-01
 -1      1076 6.28164E-02
 -1      1077 6.92596E-02
 -1      1078 3.33935E-01
 -1      1079 2.61432E-01
 -1      1080 5.78198E-01
 -1      1081 7.86890E-01
 -1      1082 1.13882E+00
 -1      1083 1.74981E+00
 -1      1084 3.12281E+00
 -1      1085 8.73457E-02
 -1      1086 5.62251E-02
 -1      1087 6.90152E-02
 -1      1088 7.57384E-02
 -1      1089 7.59102E-02
 -1      1090 2.04100E-01
 -1      1091 1.28862E-01
 -1      1092 4.33660E-01
 -1      1093 9.64252E-02
 -1      1094 1.10443E-01
 -1      1095 7.63057E-02
 -1      1096 7.97013E-02
 -1      1097 5.42772E-02
 -1      1098 6.18828E-02
 -1      1099 1.10443E-01
 -1      1100 8.96835E-02
 -1      1101 9.89548E-02
 -1      1102 1.98579E+00
 -1      1103 1.10443E-01
 -1      1104 6.92596E-02
 -1      1105 1.05107E-01
 -1      1106 1.31444E+01
 -1      1107 8.40403E+00
 -1      1108 2.74422E+00
 -1      1109 1.55687E+00
 -1      1110 1.16758E+00
 -1      1111 9.73070E-01
 -1      1112 8.54450E-01
 -1      1113 7.81557E-01
 -1      1114 7.55136E-01
 -1      1115 7.84673E-01
 -1      1116 8.57010E-01
 -1      1117 9.76621E-01
 -1      1118 1.18000E+00
 -1      1119 1.57151E+00
 -1      1120 2.67047E+00
 -1      1121 6.07379E+00
 -1      1122 1.13411E+01
 -1      1123 1.31444E+01
 -1      1124 8.73137E+00
 -1      1125 3.83004E+00
 -1      1126 2.72709E+00
 -1      1127 1.73822E+00
 -1      1128 1.18941E+00
 -1      1129 8.95508E-01
 -1      1130 6.86543E-01
 -1      1131 5.27172E-01
 -1      1132 4.04052E-01
 -1      1133 3.11806E-01
 -1      1134 2.42008E-01
 -1      1135 1.87032E-01
 -1      1136 1.44920E-01
 -1      1137 1.13832E-01
 -1      1138 9.21044E-02
 -1      1139 7.82610E-02
 -1      1140 7.63956E-02
 -1      1141 8.53298E-02
 -1      1142 1.01386E-01
 -1      1143 1.29472E-01
 -1      1144 1.70469E-01
 -1      1145 2.22967E-01
 -1      1146 2.87124E-01
 -1      1147 3.61705E-01
 -1      1148 4.43087E-01
 -1      1149 5.29594E-01
 -1      1150 6.59296E-01
 -1      1151 8.36151E-01
 -1      1152 1.04179E+00
 -1      1153 1.24699E+00
 -1      1154 1.36499E+00
 -1      1155 1.41075E+00
 -1      1156 1.43000E+00
 -1      1157 1.55597E+00
 -1      1158 1.97150E+00
 -1      1159 3.01192E+00
 -1      1160 4.07996E+00
 -1      1161 4.39715E+00
 -1      1162 4.33051E+00
 -1      1163 4.00933E+00
 -1      1164 3.04374E+00
 -1      1165 1.86612E+00
 -1      1166 1.16065E+00
 -1      1167 9.37399E-01
 -1      1168 9.53055E-01
 -1      1169 9.22170E-01
 -1      1170 8.72398E-01
 -1      1171 7.80188E-01
 -1      1172 4.29726E-01
 -1      1173 1.40401E+01
 -1      1174 8.71761E+00
 -1      1175 2.90442E+00
 -1      1176 2.04018E+00
 -1      1177 1.40616E+00
 -1      1178 1.02592E+00
 -1      1179 8.18932E-01
 -1      1180 6.60188E-01
 -1      1181 5.29202E-01
 -1      1182 4.20457E-01
 -1      1183 3.34426E-01
 -1      1184 2.67535E-01
 -1      1185 2.12914E-01
 -1      1186 1.69300E-01
 -1      1187 1.35954E-01
 -1      1188 1.12041E-01
 -1      1189 9.67998E-02
 -1      1190 9.59903E-02
 -1      1191 1.09139E-01
 -1      1192 1.29389E-01
 -1      1193 1.56023E-01
 -1      1194 1.87859E-01
 -1      1195 2.28364E-01
 -1      1196 2.86661E-01
 -1      1197 3.60940E-01
 -1      1198 4.41910E-01
 -1      1199 5.22205E-01
 -1      1200 5.89122E-01
 -1      1201 6.25560E-01
 -1      1202 7.19347E-01
 -1      1203 9.10640E-01
 -1      1204 1.08833E+00
 -1      1205 1.27238E+00
 -1      1206 1.50761E+00
 -1      1207 1.65189E+00
 -1      1208 1.87422E+00
 -1      1209 2.43927E+00
 -1      1210 3.21403E+00
 -1      1211 3.77039E+00
 -1      1212 3.91594E+00
 -1      1213 3.85223E+00
 -1      1214 3.19465E+00
 -1      1215 1.98041E+00
 -1      1216 1.11355E+00
 -1      1217 9.73352E-01
 -1      1218 1.07965E+00
 -1      1219 9.87075E-01
 -1      1220 8.66357E-01
 -1      1221 6.70849E-01
 -1      1222 3.14481E-01
 -1      1223 2.04660E-01
 -1      1224 2.83845E-01
 -1      1225 2.74885E-01
 -1      1226 2.40660E-01
 -1      1227 1.72961E-01
 -1      1228 1.70205E-01
 -1      1229 2.86221E-01
 -1      1230 3.90609E-01
 -1      1231 4.18659E-01
 -1      1232 3.90063E-01
 -1      1233 2.83939E-01
 -1      1234 1.68919E-01
 -1      1235 1.74467E-01
 -1      1236 2.38962E-01
 -1      1237 3.29163E-01
 -1      1238 4.15233E-01
 -1      1239 2.92570E-01
 -1      1240 2.44367E+01
 -1      1241 3.63680E+01
 -1      1242 4.87525E+01
 -1      1243 3.52666E+01
 -1      1244 1.73104E+01
 -1      1245 1.28402E+01
 -1      1246 1.26286E+01
 -1      1247 1.24170E+01
 -1      1248 1.22979E+01
 -1      1249 1.28514E+01
 -1      1250 2.38697E+01
 -1      1251 3.42152E+01
 -1      1252 3.02919E+01
 -1      1253 2.52082E+01
 -1      1254 2.39616E+01
 -1      1255 2.38755E+01
 -1      1256 3.29596E+01
 -1      1257 4.20438E+01
 -1      1258 2.86839E+01
 -1      1259 1.35961E+01
 -1      1260 1.18920E+01
 -1      1261 1.19158E+01
 -1      1262 1.19910E+01
 -1      1263 1.20662E+01
 -1      1264 1.20590E+01
 -1      1265 1.81007E+01
 -1      1266 2.80954E+01
 -1      1267 3.20413E+01
 -1      1268 2.84656E+01
 -1      1269 2.48899E+01
 -1      1270 1.31444E+01
 -1      1271 4.87079E+00
 -1      1272 9.61115E+00
 -1      1273 2.06170E+00
 -1      1274 2.98115E+00
 -1      1275 4.18827E+00
 -1      1276 1.39818E+00
 -1      1277 1.66608E+00
 -1      1278 1.90301E+00
 -1      1279 1.10198E+00
 -1      1280 1.22336E+00
 -1      1281 1.33258E+00
 -1      1282 9.36716E-01
 -1      1283 1.00985E+00
 -1      1284 1.06563E+00
 -1      1285 8.36805E-01
 -1      1286 8.82293E-01
 -1      1287 9.19071E-01
 -1      1288 7.75182E-01
 -1      1289 8.02588E-01
 -1      1290 8.30430E-01
 -1      1291 7.56121E-01
 -1      1292 7.55136E-01
 -1      1293 7.76167E-01
 -1      1294 8.06432E-01
 -1      1295 7.77880E-01
 -1      1296 7.77880E-01
 -1      1297 8.84043E-01
 -1      1298 8.40258E-01
 -1      1299 8.33465E-01
 -1      1300 1.01669E+00
 -1      1301 9.40862E-01
 -1      1302 9.24111E-01
 -1      1303 1.23992E+00
 -1      1304 1.11238E+00
 -1      1305 1.07662E+00
 -1      1306 1.68139E+00
 -1      1307 1.41743E+00
 -1      1308 1.34981E+00
 -1      1309 2.88301E+00
 -1      1310 2.04802E+00
 -1      1311 1.89393E+00
 -1      1312 6.28666E+00
 -1      1313 3.71834E+00
 -1      1314 3.09588E+00
 -1      1315 1.40401E+01
 -1      1316 1.13411E+01
 -1      1317 8.98565E+00
 -1      1318 1.40401E+01
 -1      1319 8.73137E+00
 -1      1320 4.31836E+00
 -1      1321 3.83004E+00
 -1      1322 3.34173E+00
 -1      1323 3.83004E+00
 -1      1324 2.72709E+00
 -1      1325 2.11244E+00
 -1      1326 2.72709E+00
 -1      1327 1.78040E+00
 -1      1328 1.40618E+00
 -1      1329 1.78040E+00
 -1      1330 1.19548E+00
 -1      1331 1.02090E+00
 -1      1332 1.23767E+00
 -1      1333 8.95508E-01
 -1      1334 7.76184E-01
 -1      1335 9.01576E-01
 -1      1336 6.86543E-01
 -1      1337 5.96902E-01
 -1      1338 6.86543E-01
 -1      1339 5.33502E-01
 -1      1340 4.63772E-01
 -1      1341 5.33502E-01
 -1      1342 4.14162E-01
 -1      1343 3.60772E-01
 -1      1344 4.20491E-01
 -1      1345 3.21987E-01
 -1      1346 2.83132E-01
 -1      1347 3.32097E-01
 -1      1348 2.55256E-01
 -1      1349 2.24312E-01
 -1      1350 2.65436E-01
 -1      1351 2.00832E-01
 -1      1352 1.76800E-01
 -1      1353 2.14081E-01
 -1      1354 1.57625E-01
 -1      1355 1.39545E-01
 -1      1356 1.71425E-01
 -1      1357 1.24340E-01
 -1      1358 1.11332E-01
 -1      1359 1.37045E-01
 -1      1360 9.96351E-02
 -1      1361 9.09159E-02
 -1      1362 1.10144E-01
 -1      1363 8.21945E-02
 -1      1364 7.70703E-02
 -1      1365 8.97252E-02
 -1      1366 7.29935E-02
 -1      1367 7.62524E-02
 -1      1368 7.69271E-02
 -1      1369 7.96544E-02
 -1      1370 8.53298E-02
 -1      1371 7.62524E-02
 -1      1372 9.25993E-02
 -1      1373 1.02980E-01
 -1      1374 8.69239E-02
 -1      1375 1.16223E-01
 -1      1376 1.33928E-01
 -1      1377 1.07437E-01
 -1      1378 1.51376E-01
 -1      1379 1.74669E-01
 -1      1380 1.38128E-01
 -1      1381 1.96561E-01
 -1      1382 2.25766E-01
 -1      1383 1.77468E-01
 -1      1384 2.52172E-01
 -1      1385 2.87124E-01
 -1      1386 2.25766E-01
 -1      1387 3.22968E-01
 -1      1388 3.62598E-01
 -1      1389 2.88016E-01
 -1      1390 4.17281E-01
 -1      1391 4.59032E-01
 -1      1392 3.78544E-01
 -1      1393 5.21947E-01
 -1      1394 5.66703E-01
 -1      1395 4.96141E-01
 -1      1396 6.33734E-01
 -1      1397 7.18680E-01
 -1      1398 6.26087E-01
 -1      1399 7.81683E-01
 -1      1400 8.73593E-01
 -1      1401 7.56122E-01
 -1      1402 9.42833E-01
 -1      1403 1.05656E+00
 -1      1404 8.88365E-01
 -1      1405 1.15551E+00
 -1      1406 1.24699E+00
 -1      1407 1.05656E+00
 -1      1408 1.33848E+00
 -1      1409 1.36499E+00
 -1      1410 1.24699E+00
 -1      1411 1.39149E+00
 -1      1412 1.41075E+00
 -1      1413 1.36499E+00
 -1      1414 1.43000E+00
 -1      1415 1.43000E+00
 -1      1416 1.41075E+00
 -1      1417 1.42240E+00
 -1      1418 1.54837E+00
 -1      1419 1.42240E+00
 -1      1420 1.68193E+00
 -1      1421 1.97150E+00
 -1      1422 1.54837E+00
 -1      1423 2.32942E+00
 -1      1424 3.08027E+00
 -1      1425 2.03985E+00
 -1      1426 3.76277E+00
 -1      1427 4.07996E+00
 -1      1428 3.08027E+00
 -1      1429 4.39715E+00
 -1      1430 4.39715E+00
 -1      1431 4.07996E+00
 -1      1432 4.33051E+00
 -1      1433 4.26387E+00
 -1      1434 4.33051E+00
 -1      1435 4.00933E+00
 -1      1436 3.75480E+00
 -1      1437 4.00933E+00
 -1      1438 3.10703E+00
 -1      1439 2.39597E+00
 -1      1440 3.10703E+00
 -1      1441 1.91024E+00
 -1      1442 1.44368E+00
 -1      1443 1.97353E+00
 -1      1444 1.16065E+00
 -1      1445 9.21744E-01
 -1      1446 1.20477E+00
 -1      1447 9.21130E-01
 -1      1448 9.36785E-01
 -1      1449 9.21130E-01
 -1      1450 9.53055E-01
 -1      1451 9.53055E-01
 -1      1452 9.36785E-01
 -1      1453 9.22170E-01
 -1      1454 8.91284E-01
 -1      1455 9.22170E-01
 -1      1456 8.72398E-01
 -1      1457 8.53511E-01
 -1      1458 8.72398E-01
 -1      1459 7.80188E-01
 -1      1460 7.06865E-01
 -1      1461 7.80188E-01
 -1      1462 5.69709E-01
 -1      1463 5.69709E-01
 -1      1464 3.39512E+00
 -1      1465 8.71761E+00
 -1      1466 8.71761E+00
 -1      1467 2.41372E+00
 -1      1468 2.90442E+00
 -1      1469 2.90442E+00
 -1      1470 1.66664E+00
 -1      1471 2.04018E+00
 -1      1472 2.04018E+00
 -1      1473 1.14568E+00
 -1      1474 1.40616E+00
 -1      1475 1.40616E+00
 -1      1476 9.06152E-01
 -1      1477 1.02592E+00
 -1      1478 1.02592E+00
 -1      1479 7.31713E-01
 -1      1480 8.18932E-01
 -1      1481 8.18932E-01
 -1      1482 5.88663E-01
 -1      1483 6.60188E-01
 -1      1484 6.60188E-01
 -1      1485 4.69741E-01
 -1      1486 5.29202E-01
 -1      1487 5.29202E-01
 -1      1488 3.71174E-01
 -1      1489 4.20457E-01
 -1      1490 4.20457E-01
 -1      1491 2.97679E-01
 -1      1492 3.34426E-01
 -1      1493 3.34426E-01
 -1      1494 2.37392E-01
 -1      1495 2.67535E-01
 -1      1496 2.67535E-01
 -1      1497 1.89499E-01
 -1      1498 2.13976E-01
 -1      1499 2.13976E-01
 -1      1500 1.51907E-01
 -1      1501 1.71044E-01
 -1      1502 1.72106E-01
 -1      1503 1.23415E-01
 -1      1504 1.37624E-01
 -1      1505 1.39368E-01
 -1      1506 1.03311E-01
 -1      1507 1.13015E-01
 -1      1508 1.14685E-01
 -1      1509 9.12139E-02
 -1      1510 9.67515E-02
 -1      1511 9.77253E-02
 -1      1512 9.64428E-02
 -1      1513 9.17147E-02
 -1      1514 9.16664E-02
 -1      1515 1.10051E-01
 -1      1516 1.01631E-01
 -1      1517 9.73552E-02
 -1      1518 1.29656E-01
 -1      1519 1.17827E-01
 -1      1520 1.10319E-01
 -1      1521 1.56023E-01
 -1      1522 1.41218E-01
 -1      1523 1.29656E-01
 -1      1524 1.90439E-01
 -1      1525 1.73407E-01
 -1      1526 1.58603E-01
 -1      1527 2.38397E-01
 -1      1528 2.14924E-01
 -1      1529 2.00473E-01
 -1      1530 3.02017E-01
 -1      1531 2.67192E-01
 -1      1532 2.53753E-01
 -1      1533 3.73491E-01
 -1      1534 3.34038E-01
 -1      1535 3.14569E-01
 -1      1536 4.48134E-01
 -1      1537 4.06617E-01
 -1      1538 3.79715E-01
 -1      1539 5.22205E-01
 -1      1540 4.83428E-01
 -1      1541 4.48134E-01
 -1      1542 5.89122E-01
 -1      1543 5.60983E-01
 -1      1544 5.22205E-01
 -1      1545 6.25560E-01
 -1      1546 6.17261E-01
 -1      1547 5.89122E-01
 -1      1548 7.54527E-01
 -1      1549 6.69038E-01
 -1      1550 6.60739E-01
 -1      1551 9.29182E-01
 -1      1552 8.23377E-01
 -1      1553 7.73068E-01
 -1      1554 1.08833E+00
 -1      1555 1.01644E+00
 -1      1556 9.29182E-01
 -1      1557 1.27238E+00
 -1      1558 1.16021E+00
 -1      1559 1.08833E+00
 -1      1560 1.50761E+00
 -1      1561 1.38456E+00
 -1      1562 1.27238E+00
 -1      1563 1.65189E+00
 -1      1564 1.63066E+00
 -1      1565 1.50761E+00
 -1      1566 1.87422E+00
 -1      1567 1.67313E+00
 -1      1568 1.65189E+00
 -1      1569 2.43927E+00
 -1      1570 2.07532E+00
 -1      1571 1.87422E+00
 -1      1572 3.21403E+00
 -1      1573 2.80323E+00
 -1      1574 2.43927E+00
 -1      1575 3.77039E+00
 -1      1576 3.62483E+00
 -1      1577 3.21403E+00
 -1      1578 3.91594E+00
 -1      1579 3.91594E+00
 -1      1580 3.77039E+00
 -1      1581 3.78852E+00
 -1      1582 3.85223E+00
 -1      1583 3.85223E+00
 -1      1584 2.60078E+00
 -1      1585 3.19465E+00
 -1      1586 3.19465E+00
 -1      1587 1.39307E+00
 -1      1588 2.01344E+00
 -1      1589 2.01344E+00
 -1      1590 7.88737E-01
 -1      1591 1.03523E+00
 -1      1592 1.06826E+00
 -1      1593 9.73352E-01
 -1      1594 8.67056E-01
 -1      1595 7.88737E-01
 -1      1596 1.07965E+00
 -1      1597 1.07965E+00
 -1      1598 9.73352E-01
 -1      1599 8.94502E-01
 -1      1600 9.87075E-01
 -1      1601 9.87075E-01
 -1      1602 8.38211E-01
 -1      1603 8.66357E-01
 -1      1604 8.66357E-01
 -1      1605 5.22075E-01
 -1      1606 6.89438E-01
 -1      1607 6.89438E-01
 -1      1608 3.93666E-01
 -1      1609 3.29583E-01
 -1      1610 3.29583E-01
 -1      1611 3.54613E-01
 -1      1612 3.63573E-01
 -1      1613 4.09311E-01
 -1      1614 3.29347E-01
 -1      1615 3.54613E-01
 -1      1616 4.43301E-01
 -1      1617 2.54075E-01
 -1      1618 2.96507E-01
 -1      1619 4.10461E-01
 -1      1620 2.70234E-01
 -1      1621 2.30557E-01
 -1      1622 3.54104E-01
 -1      1623 4.92688E-01
 -1      1624 4.16350E-01
 -1      1625 4.76702E-01
 -1      1626 6.11900E-01
 -1      1627 5.83850E-01
 -1      1628 7.13980E-01
 -1      1629 6.11900E-01
 -1      1630 6.11900E-01
 -1      1631 8.05141E-01
 -1      1632 5.82903E-01
 -1      1633 6.11500E-01
 -1      1634 8.04741E-01
 -1      1635 4.12325E-01
 -1      1636 4.89852E-01
 -1      1637 7.11289E-01
 -1      1638 2.32644E-01
 -1      1639 2.70137E-01
 -1      1640 4.76051E-01
 -1      1641 2.99876E-01
 -1      1642 2.56834E-01
 -1      1643 3.58053E-01
 -1      1644 3.53124E-01
 -1      1645 3.31672E-01
 -1      1646 4.14038E-01
 -1      1647 4.21873E-01
 -1      1648 3.53124E-01
 -1      1649 4.45834E-01
 -1      1650 4.55584E-01
 -1      1651 4.38263E-01
 -1      1652 4.62224E-01
 -1      1653 5.92740E-01
 -1      1654 2.72079E+01
 -1      1655 2.76612E+01
 -1      1656 3.97308E+01
 -1      1657 2.73463E+01
 -1      1658 4.87525E+01
 -1      1659 4.87525E+01
 -1      1660 2.29889E+01
 -1      1661 3.64748E+01
 -1      1662 1.18928E+01
 -1      1663 1.63630E+01
 -1      1664 1.28402E+01
 -1      1665 1.28402E+01
 -1      1666 1.23070E+01
 -1      1667 1.25186E+01
 -1      1668 1.24170E+01
 -1      1669 1.24170E+01
 -1      1670 1.21787E+01
 -1      1671 1.22979E+01
 -1      1672 1.24593E+01
 -1      1673 1.17866E+01
 -1      1674 2.38697E+01
 -1      1675 1.35241E+01
 -1      1676 3.42152E+01
 -1      1677 3.42152E+01
 -1      1678 3.02313E+01
 -1      1679 3.41547E+01
 -1      1680 2.44991E+01
 -1      1681 2.56595E+01
 -1      1682 2.53838E+01
 -1      1683 2.54699E+01
 -1      1684 2.53838E+01
 -1      1685 2.53838E+01
 -1      1686 3.96743E+01
 -1      1687 3.05902E+01
 -1      1688 4.20438E+01
 -1      1689 4.20438E+01
 -1      1690 1.57602E+01
 -1      1691 2.91201E+01
 -1      1692 1.13342E+01
 -1      1693 1.30620E+01
 -1      1694 1.18920E+01
 -1      1695 1.18682E+01
 -1      1696 1.19158E+01
 -1      1697 1.19158E+01
 -1      1698 1.18371E+01
 -1      1699 1.17619E+01
 -1      1700 1.20662E+01
 -1      1701 1.20662E+01
 -1      1702 1.20518E+01
 -1      1703 1.20590E+01
 -1      1704 1.80250E+01
 -1      1705 1.19761E+01
 -1      1706 2.91614E+01
 -1      1707 2.52155E+01
 -1      1708 3.20413E+01
 -1      1709 3.20413E+01
 -1      1710 2.79936E+01
 -1      1711 3.15692E+01
 -1      1712 2.76612E+01
 -1      1713 2.76612E+01
 -1      1714 1.75712E+01
 -1      1715 3.64748E+01
 -1      1716 4.12255E-01
 -1      1717 4.57993E-01
 -1      1718 3.05707E+01
 -1      1719 3.97308E+01
 -1      1720 3.04324E+01
 -1      1721 1.18928E+01
 -1      1722 1.25186E+01
 -1      1723 1.23070E+01
 -1      1724 1.22979E+01
 -1      1725 1.17866E+01
 -1      1726 1.24593E+01
 -1      1727 2.38697E+01
 -1      1728 3.41547E+01
 -1      1729 2.95222E+01
 -1      1730 2.59212E+01
 -1      1731 2.68920E+01
 -1      1732 3.20985E+01
 -1      1733 3.96743E+01
 -1      1734 2.91201E+01
 -1      1735 1.34983E+01
 -1      1736 1.13342E+01
 -1      1737 1.18920E+01
 -1      1738 1.17619E+01
 -1      1739 1.18371E+01
 -1      1740 1.20590E+01
 -1      1741 1.19761E+01
 -1      1742 1.90910E+01
 -1      1743 2.91614E+01
 -1      1744 3.15692E+01
 -1      1745 3.07648E+01
 -1      1746 9.61115E+00
 -1      1747 1.27763E+00
 -1      1748 1.67324E+00
 -1      1749 2.38926E+00
 -1      1750 4.27890E+00
 -1      1751 1.76387E+00
 -1      1752 8.84287E-01
 -1      1753 9.76421E-01
 -1      1754 7.79793E-01
 -1      1755 8.34216E-01
 -1      1756 7.45008E-01
 -1      1757 7.14062E-01
 -1      1758 7.48280E-01
 -1      1759 6.63424E-01
 -1      1760 6.71942E-01
 -1      1761 6.91988E-01
 -1      1762 6.09837E-01
 -1      1763 6.95303E-01
 -1      1764 6.73544E-01
 -1      1765 5.89365E-01
 -1      1766 7.50921E-01
 -1      1767 7.17095E-01
 -1      1768 6.12759E-01
 -1      1769 8.41047E-01
 -1      1770 7.84228E-01
 -1      1771 6.67857E-01
 -1      1772 9.84281E-01
 -1      1773 8.88594E-01
 -1      1774 7.48710E-01
 -1      1775 1.22947E+00
 -1      1776 1.05196E+00
 -1      1777 8.63940E-01
 -1      1778 1.71017E+00
 -1      1779 1.34355E+00
 -1      1780 1.04571E+00
 -1      1781 2.63002E+00
 -1      1782 1.79469E+00
 -1      1783 1.24431E+00
 -1      1784 8.12064E+00
 -1      1785 3.06620E+00
 -1      1786 1.76501E+00
 -1      1787 2.79815E+00
 -1      1788 5.19813E+00
 -1      1789 2.16426E+00
 -1      1790 2.65496E+00
 -1      1791 2.05799E+00
 -1      1792 3.39913E+00
 -1      1793 2.53596E+00
 -1      1794 1.92132E+00
 -1      1795 1.69049E+00
 -1      1796 1.35844E+00
 -1      1797 1.49936E+00
 -1      1798 1.17843E+00
 -1      1799 9.67736E-01
 -1      1800 1.08852E+00
 -1      1801 8.42372E-01
 -1      1802 7.16980E-01
 -1      1803 7.83140E-01
 -1      1804 6.58052E-01
 -1      1805 5.68411E-01
 -1      1806 5.98848E-01
 -1      1807 5.20126E-01
 -1      1808 4.56726E-01
 -1      1809 4.91635E-01
 -1      1810 4.14316E-01
 -1      1811 3.64706E-01
 -1      1812 4.00940E-01
 -1      1813 3.32206E-01
 -1      1814 2.93421E-01
 -1      1815 3.26030E-01
 -1      1816 2.66228E-01
 -1      1817 2.38352E-01
 -1      1818 2.66336E-01
 -1      1819 2.15133E-01
 -1      1820 1.91653E-01
 -1      1821 2.15925E-01
 -1      1822 1.73529E-01
 -1      1823 1.54353E-01
 -1      1824 1.74581E-01
 -1      1825 1.39947E-01
 -1      1826 1.24742E-01
 -1      1827 1.42050E-01
 -1      1828 1.12593E-01
 -1      1829 1.00895E-01
 -1      1830 1.15494E-01
 -1      1831 9.07864E-02
 -1      1832 8.20651E-02
 -1      1833 9.32352E-02
 -1      1834 7.50983E-02
 -1      1835 7.10216E-02
 -1      1836 7.61595E-02
 -1      1837 6.91176E-02
 -1      1838 7.25196E-02
 -1      1839 6.72888E-02
 -1      1840 7.74887E-02
 -1      1841 8.47582E-02
 -1      1842 7.03539E-02
 -1      1843 9.41935E-02
 -1      1844 1.07437E-01
 -1      1845 8.47582E-02
 -1      1846 1.20680E-01
 -1      1847 1.38128E-01
 -1      1848 1.07437E-01
 -1      1849 1.58046E-01
 -1      1850 1.79938E-01
 -1      1851 1.40598E-01
 -1      1852 2.12259E-01
 -1      1853 2.38665E-01
 -1      1854 1.92837E-01
 -1      1855 2.78792E-01
 -1      1856 3.14637E-01
 -1      1857 2.65285E-01
 -1      1858 3.62815E-01
 -1      1859 4.17498E-01
 -1      1860 3.53591E-01
 -1      1861 4.72755E-01
 -1      1862 5.35670E-01
 -1      1863 4.57027E-01
 -1      1864 5.95014E-01
 -1      1865 6.62045E-01
 -1      1866 5.71628E-01
 -1      1867 7.19464E-01
 -1      1868 7.82467E-01
 -1      1869 6.88391E-01
 -1      1870 8.28556E-01
 -1      1871 8.97796E-01
 -1      1872 7.91899E-01
 -1      1873 9.49525E-01
 -1      1874 1.04848E+00
 -1      1875 8.89716E-01
 -1      1876 1.09895E+00
 -1      1877 1.19043E+00
 -1      1878 9.91918E-01
 -1      1879 1.19004E+00
 -1      1880 1.21655E+00
 -1      1881 1.04200E+00
 -1      1882 1.12720E+00
 -1      1883 1.14645E+00
 -1      1884 9.52258E-01
 -1      1885 1.13205E+00
 -1      1886 1.12445E+00
 -1      1887 8.48502E-01
 -1      1888 1.20186E+00
 -1      1889 1.33542E+00
 -1      1890 9.11509E-01
 -1      1891 1.66974E+00
 -1      1892 2.02766E+00
 -1      1893 1.32324E+00
 -1      1894 2.30089E+00
 -1      1895 2.98339E+00
 -1      1896 1.93079E+00
 -1      1897 3.21934E+00
 -1      1898 3.53653E+00
 -1      1899 2.43996E+00
 -1      1900 3.48045E+00
 -1      1901 3.41380E+00
 -1      1902 2.61982E+00
 -1      1903 3.42829E+00
 -1      1904 3.17376E+00
 -1      1905 2.57823E+00
 -1      1906 2.98631E+00
 -1      1907 2.33854E+00
 -1      1908 2.40527E+00
 -1      1909 2.11480E+00
 -1      1910 1.62907E+00
 -1      1911 1.99408E+00
 -1      1912 1.42545E+00
 -1      1913 1.14242E+00
 -1      1914 1.56672E+00
 -1      1915 9.30232E-01
 -1      1916 9.29618E-01
 -1      1917 1.15091E+00
 -1      1918 8.86951E-01
 -1      1919 9.03221E-01
 -1      1920 8.96054E-01
 -1      1921 8.45217E-01
 -1      1922 8.14332E-01
 -1      1923 7.95383E-01
 -1      1924 7.63137E-01
 -1      1925 7.44251E-01
 -1      1926 6.86185E-01
 -1      1927 7.52435E-01
 -1      1928 6.79112E-01
 -1      1929 5.64986E-01
 -1      1930 6.43174E-01
 -1      1931 1.39884E+00
 -1      1932 1.77238E+00
 -1      1933 1.52292E+00
 -1      1934 1.01902E+00
 -1      1935 1.27950E+00
 -1      1936 1.01170E+00
 -1      1937 8.05649E-01
 -1      1938 9.25412E-01
 -1      1939 7.98750E-01
 -1      1940 6.39197E-01
 -1      1941 7.26417E-01
 -1      1942 6.25913E-01
 -1      1943 5.13961E-01
 -1      1944 5.85486E-01
 -1      1945 4.92970E-01
 -1      1946 4.21497E-01
 -1      1947 4.80958E-01
 -1      1948 4.06256E-01
 -1      1949 3.40662E-01
 -1      1950 3.89945E-01
 -1      1951 3.41702E-01
 -1      1952 2.76355E-01
 -1      1953 3.13102E-01
 -1      1954 2.82590E-01
 -1      1955 2.23912E-01
 -1      1956 2.54056E-01
 -1      1957 2.32731E-01
 -1      1958 1.81051E-01
 -1      1959 2.04467E-01
 -1      1960 1.90987E-01
 -1      1961 1.46415E-01
 -1      1962 1.64870E-01
 -1      1963 1.55360E-01
 -1      1964 1.19923E-01
 -1      1965 1.34206E-01
 -1      1966 1.26969E-01
 -1      1967 1.00354E-01
 -1      1968 1.10754E-01
 -1      1969 1.05592E-01
 -1      1970 8.75092E-02
 -1      1971 9.40689E-02
 -1      1972 9.01382E-02
 -1      1973 8.56186E-02
 -1      1974 8.51179E-02
 -1      1975 8.14614E-02
 -1      1976 9.24375E-02
 -1      1977 8.72495E-02
 -1      1978 8.07009E-02
 -1      1979 1.04748E-01
 -1      1980 9.69719E-02
 -1      1981 8.68662E-02
 -1      1982 1.28608E-01
 -1      1983 1.17046E-01
 -1      1984 1.03699E-01
 -1      1985 1.61749E-01
 -1      1986 1.44364E-01
 -1      1987 1.31754E-01
 -1      1988 2.11970E-01
 -1      1989 1.87485E-01
 -1      1990 1.73246E-01
 -1      1991 2.79189E-01
 -1      1992 2.50394E-01
 -1      1993 2.37406E-01
 -1      1994 3.58280E-01
 -1      1995 3.26259E-01
 -1      1996 3.22900E-01
 -1      1997 4.46588E-01
 -1      1998 4.13463E-01
 -1      1999 4.25153E-01
 -1      2000 5.42752E-01
 -1      2001 5.07458E-01
 -1      2002 5.41206E-01
 -1      2003 6.42706E-01
 -1      2004 6.03929E-01
 -1      2005 6.63252E-01
 -1      2006 7.22859E-01
 -1      2007 6.94719E-01
 -1      2008 7.76443E-01
 -1      2009 8.15250E-01
 -1      2010 7.71772E-01
 -1      2011 8.77370E-01
 -1      2012 9.03183E-01
 -1      2013 8.34332E-01
 -1      2014 9.45365E-01
 -1      2015 9.90446E-01
 -1      2016 9.03183E-01
 -1      2017 9.64447E-01
 -1      2018 1.02108E+00
 -1      2019 9.49194E-01
 -1      2020 9.23195E-01
 -1      2021 1.03941E+00
 -1      2022 9.27239E-01
 -1      2023 7.88105E-01
 -1      2024 1.17215E+00
 -1      2025 1.04910E+00
 -1      2026 7.03957E-01
 -1      2027 1.55301E+00
 -1      2028 1.53178E+00
 -1      2029 1.07327E+00
 -1      2030 2.06013E+00
 -1      2031 1.85904E+00
 -1      2032 1.73892E+00
 -1      2033 2.48856E+00
 -1      2034 2.12461E+00
 -1      2035 2.10942E+00
 -1      2036 2.89937E+00
 -1      2037 2.48856E+00
 -1      2038 2.17390E+00
 -1      2039 3.04687E+00
 -1      2040 2.90131E+00
 -1      2041 2.17585E+00
 -1      2042 3.04265E+00
 -1      2043 3.10637E+00
 -1      2044 2.23729E+00
 -1      2045 2.22037E+00
 -1      2046 2.81424E+00
 -1      2047 2.06838E+00
 -1      2048 1.33568E+00
 -1      2049 1.92303E+00
 -1      2050 1.54262E+00
 -1      2051 7.91829E-01
 -1      2052 1.14967E+00
 -1      2053 1.05926E+00
 -1      2054 7.92103E-01
 -1      2055 7.13784E-01
 -1      2056 7.95196E-01
 -1      2057 8.94154E-01
 -1      2058 7.87858E-01
 -1      2059 7.12905E-01
 -1      2060 7.83539E-01
 -1      2061 8.76112E-01
 -1      2062 6.90619E-01
 -1      2063 7.49482E-01
 -1      2064 7.77627E-01
 -1      2065 6.66664E-01
 -1      2066 5.40664E-01
 -1      2067 6.89438E-01
 -1      2068 6.00708E-01
 -1      2069 4.57993E-01
 -1      2070 4.74543E-01
 -1      2071 5.07382E-01
 -1      2072 5.07382E-01
 -1      2073 5.07382E-01
 -1      2074 5.71464E-01
 -1      2075 5.05603E-01
 -1      2076 4.71613E-01
 -1      2077 5.54285E-01
 -1      2078 5.69685E-01
 -1      2079 4.43494E-01
 -1      2080 4.67012E-01
 -1      2081 5.63933E-01
 -1      2082 6.99275E-01
 -1      2083 5.53159E-01
 -1      2084 6.66068E-01
 -1      2085 9.85046E-01
 -1      2086 8.93884E-01
 -1      2087 9.70342E-01
 -1      2088 9.95976E-01
 -1      2089 9.95976E-01
 -1      2090 1.17588E+00
 -1      2091 9.95576E-01
 -1      2092 9.95976E-01
 -1      2093 1.18681E+00
 -1      2094 8.88736E-01
 -1      2095 9.81788E-01
 -1      2096 1.17302E+00
 -1      2097 5.57296E-01
 -1      2098 6.99483E-01
 -1      2099 9.69982E-01
 -1      2100 4.68848E-01
 -1      2101 4.44658E-01
 -1      2102 6.68091E-01
 -1      2103 5.05623E-01
 -1      2104 4.73827E-01
 -1      2105 5.60432E-01
 -1      2106 5.48596E-01
 -1      2107 5.48596E-01
 -1      2108 6.08385E-01
 -1      2109 3.97308E+01
 -1      2110 3.07090E+01
 -1      2111 3.13738E+01
 -1      2112 3.13738E+01
 -1      2113 2.95500E+01
 -1      2114 2.94117E+01
 -1      2115 2.07525E+01
 -1      2116 3.30302E+01
 -1      2117 1.01312E+01
 -1      2118 1.67571E+01
 -1      2119 1.03422E+00
 -1      2120 1.20903E+00
 -1      2121 9.79265E-01
 -1      2122 8.52877E-01
 -1      2123 1.09321E+01
 -1      2124 1.12536E+01
 -1      2125 1.13463E+01
 -1      2126 1.12363E+01
 -1      2127 9.97131E+00
 -1      2128 1.12526E+01
 -1      2129 1.13718E+01
 -1      2130 1.01521E+01
 -1      2131 1.05441E+01
 -1      2132 1.05038E+01
 -1      2133 9.43900E+00
 -1      2134 2.32969E+01
 -1      2135 1.29513E+01
 -1      2136 2.80568E+01
 -1      2137 2.81173E+01
 -1      2138 2.60610E+01
 -1      2139 3.06328E+01
 -1      2140 3.02734E+01
 -1      2141 2.93026E+01
 -1      2142 3.02734E+01
 -1      2143 3.02734E+01
 -1      2144 2.93482E+01
 -1      2145 2.41418E+01
 -1      2146 3.34963E+01
 -1      2147 3.11268E+01
 -1      2148 1.51722E+01
 -1      2149 2.80959E+01
 -1      2150 9.32030E+00
 -1      2151 1.20184E+01
 -1      2152 9.88059E+00
 -1      2153 9.34655E+00
 -1      2154 1.11499E+01
 -1      2155 1.11261E+01
 -1      2156 1.11381E+01
 -1      2157 1.12920E+01
 -1      2158 1.16609E+01
 -1      2159 1.14317E+01
 -1      2160 1.06491E+01
 -1      2161 1.06563E+01
 -1      2162 1.02509E+01
 -1      2163 9.03568E+00
 -1      2164 9.11134E+00
 -1      2165 1.85066E+01
 -1      2166 1.13161E+01
 -1      2167 2.52237E+01
 -1      2168 2.23437E+01
 -1      2169 3.10972E+01
 -1      2170 3.15692E+01
 -1      2171 3.13738E+01
 -1      2172 3.17062E+01
 -1      2173 9.94157E+00
 -1      2174 8.99418E+00
 -1      2175 8.18002E+00
 -1      2176 1.33125E+01
 -1      2177 2.91081E+00
 -1      2178 8.42785E+00
 -1      2179 1.00144E+01
 -1      2180 7.11578E+00
 -1      2181 2.10505E+00
 -1      2182 2.95500E+01
 -1      2183 3.03531E+01
 -1      2184 5.64986E-01
 -1      2185 2.40085E+01
 -1      2186 3.23152E+01
 -1      2187 3.17062E+01
 -1      2188 2.47516E+01
 -1      2189 1.45689E+01
 -1      2190 7.70864E+00
 -1      2191 1.09619E+01
 -1      2192 1.05261E+01
 -1      2193 9.13848E+00
 -1      2194 7.86671E+00
 -1      2195 1.09942E+01
 -1      2196 1.95484E+01
 -1      2197 2.31702E+01
 -1      2198 2.75232E+01
 -1      2199 3.36548E+01
 -1      2200 3.04132E+01
 -1      2201 2.45955E+01
 -1      2202 1.71990E+01
 -1      2203 9.93101E+00
 -1      2204 8.19653E+00
 -1      2205 1.03011E+01
 -1      2206 9.61808E+00
 -1      2207 8.45133E+00
 -1      2208 1.08985E+00
 -1      2209 1.48173E+00
 -1      2210 5.59227E-01
 -1      2211 5.90740E-01
 -1      2212 6.04675E-01
 -1      2213 6.54747E-01
 -1      2214 5.00478E-01
 -1      2215 5.11350E-01
 -1      2216 5.09748E-01
 -1      2217 5.46062E-01
 -1      2218 5.24269E-01
 -1      2219 4.44652E-01
 -1      2220 5.94103E-01
 -1      2221 5.60797E-01
 -1      2222 4.72308E-01
 -1      2223 6.53630E-01
 -1      2224 6.06083E-01
 -1      2225 4.99023E-01
 -1      2226 7.21313E-01
 -1      2227 6.53630E-01
 -1      2228 5.11003E-01
 -1      2229 8.84077E-01
 -1      2230 7.69994E-01
 -1      2231 5.59684E-01
 -1      2232 9.36593E+00
 -1      2233 1.33614E+01
 -1      2234 8.92354E-01
 -1      2235 1.01170E+00
 -1      2236 9.70505E-01
 -1      2237 1.26687E+00
 -1      2238 1.03603E+00
 -1      2239 9.85894E-01
 -1      2240 8.05883E-01
 -1      2241 7.53403E-01
 -1      2242 7.49395E-01
 -1      2243 6.24031E-01
 -1      2244 6.46774E-01
 -1      2245 5.67981E-01
 -1      2246 5.09054E-01
 -1      2247 5.34237E-01
 -1      2248 4.59873E-01
 -1      2249 4.11588E-01
 -1      2250 4.29006E-01
 -1      2251 3.84269E-01
 -1      2252 3.41859E-01
 -1      2253 3.52507E-01
 -1      2254 3.17162E-01
 -1      2255 2.84662E-01
 -1      2256 3.00491E-01
 -1      2257 2.61380E-01
 -1      2258 2.34187E-01
 -1      2259 2.52513E-01
 -1      2260 2.14728E-01
 -1      2261 1.91509E-01
 -1      2262 2.09772E-01
 -1      2263 1.74888E-01
 -1      2264 1.56764E-01
 -1      2265 1.73692E-01
 -1      2266 1.42235E-01
 -1      2267 1.27828E-01
 -1      2268 1.42541E-01
 -1      2269 1.15494E-01
 -1      2270 1.03344E-01
 -1      2271 1.15678E-01
 -1      2272 9.32352E-02
 -1      2273 8.31263E-02
 -1      2274 9.32352E-02
 -1      2275 7.50828E-02
 -1      2276 6.81160E-02
 -1      2277 7.50828E-02
 -1      2278 6.24461E-02
 -1      2279 6.05421E-02
 -1      2280 6.13693E-02
 -1      2281 6.18562E-02
 -1      2282 6.68253E-02
 -1      2283 5.70135E-02
 -1      2284 7.29760E-02
 -1      2285 8.24113E-02
 -1      2286 6.44784E-02
 -1      2287 9.51026E-02
 -1      2288 1.08346E-01
 -1      2289 8.33204E-02
 -1      2290 1.30852E-01
 -1      2291 1.50770E-01
 -1      2292 1.18518E-01
 -1      2293 1.78972E-01
 -1      2294 2.11293E-01
 -1      2295 1.69227E-01
 -1      2296 2.46166E-01
 -1      2297 2.86293E-01
 -1      2298 2.32301E-01
 -1      2299 3.28495E-01
 -1      2300 3.76674E-01
 -1      2301 3.09376E-01
 -1      2302 4.26220E-01
 -1      2303 4.81478E-01
 -1      2304 4.01124E-01
 -1      2305 5.37260E-01
 -1      2306 5.96604E-01
 -1      2307 5.06453E-01
 -1      2308 6.55722E-01
 -1      2309 7.13141E-01
 -1      2310 6.21354E-01
 -1      2311 7.70109E-01
 -1      2312 8.16198E-01
 -1      2313 7.37440E-01
 -1      2314 8.62698E-01
 -1      2315 9.14427E-01
 -1      2316 8.40908E-01
 -1      2317 9.64524E-01
 -1      2318 1.01500E+00
 -1      2319 9.37506E-01
 -1      2320 1.08260E+00
 -1      2321 1.08221E+00
 -1      2322 1.05521E+00
 -1      2323 1.12778E+00
 -1      2324 1.03842E+00
 -1      2325 1.16837E+00
 -1      2326 1.04615E+00
 -1      2327 1.03175E+00
 -1      2328 1.22167E+00
 -1      2329 1.15574E+00
 -1      2330 1.23315E+00
 -1      2331 1.35339E+00
 -1      2332 1.37566E+00
 -1      2333 1.70998E+00
 -1      2334 1.61990E+00
 -1      2335 1.88684E+00
 -1      2336 2.16007E+00
 -1      2337 1.93927E+00
 -1      2338 2.25765E+00
 -1      2339 2.49360E+00
 -1      2340 2.21371E+00
 -1      2341 2.99592E+00
 -1      2342 2.93983E+00
 -1      2343 2.81361E+00
 -1      2344 2.91749E+00
 -1      2345 2.93198E+00
 -1      2346 3.29358E+00
 -1      2347 2.56662E+00
 -1      2348 2.37917E+00
 -1      2349 2.90588E+00
 -1      2350 2.15766E+00
 -1      2351 1.93391E+00
 -1      2352 2.31900E+00
 -1      2353 1.81783E+00
 -1      2354 1.61422E+00
 -1      2355 1.98141E+00
 -1      2356 1.45862E+00
 -1      2357 1.24643E+00
 -1      2358 1.70973E+00
 -1      2359 1.09717E+00
 -1      2360 1.05450E+00
 -1      2361 1.40487E+00
 -1      2362 8.88821E-01
 -1      2363 8.30817E-01
 -1      2364 1.08993E+00
 -1      2365 7.37379E-01
 -1      2366 6.86185E-01
 -1      2367 8.30817E-01
 -1      2368 5.46682E-01
 -1      2369 6.25913E-01
 -1      2370 4.39259E-01
 -1      2371 4.92970E-01
 -1      2372 4.92970E-01
 -1      2373 3.73254E-01
 -1      2374 4.06256E-01
 -1      2375 4.06256E-01
 -1      2376 3.10150E-01
 -1      2377 3.41702E-01
 -1      2378 3.41702E-01
 -1      2379 2.55031E-01
 -1      2380 2.82590E-01
 -1      2381 2.82590E-01
 -1      2382 2.10620E-01
 -1      2383 2.32919E-01
 -1      2384 2.32919E-01
 -1      2385 1.71938E-01
 -1      2386 1.91383E-01
 -1      2387 1.91570E-01
 -1      2388 1.39375E-01
 -1      2389 1.55557E-01
 -1      2390 1.55952E-01
 -1      2391 1.13590E-01
 -1      2392 1.25799E-01
 -1      2393 1.25996E-01
 -1      2394 9.34558E-02
 -1      2395 1.02624E-01
 -1      2396 1.01454E-01
 -1      2397 7.86426E-02
 -1      2398 8.49281E-02
 -1      2399 8.19602E-02
 -1      2400 7.08467E-02
 -1      2401 7.32380E-02
 -1      2402 6.80279E-02
 -1      2403 7.15178E-02
 -1      2404 6.98869E-02
 -1      2405 6.16635E-02
 -1      2406 8.22977E-02
 -1      2407 7.77633E-02
 -1      2408 6.69493E-02
 -1      2409 1.03699E-01
 -1      2410 9.14006E-02
 -1      2411 8.22977E-02
 -1      2412 1.38404E-01
 -1      2413 1.22648E-01
 -1      2414 1.10350E-01
 -1      2415 1.91455E-01
 -1      2416 1.65719E-01
 -1      2417 1.56614E-01
 -1      2418 2.63980E-01
 -1      2419 2.25556E-01
 -1      2420 2.18029E-01
 -1      2421 3.52630E-01
 -1      2422 3.05560E-01
 -1      2423 2.93710E-01
 -1      2424 4.56868E-01
 -1      2425 4.01684E-01
 -1      2426 3.84344E-01
 -1      2427 5.73011E-01
 -1      2428 5.12142E-01
 -1      2429 4.88673E-01
 -1      2430 6.92433E-01
 -1      2431 6.31256E-01
 -1      2432 6.02192E-01
 -1      2433 7.99532E-01
 -1      2434 7.47519E-01
 -1      2435 7.15522E-01
 -1      2436 8.93573E-01
 -1      2437 8.44660E-01
 -1      2438 8.15736E-01
 -1      2439 9.47417E-01
 -1      2440 9.28335E-01
 -1      2441 8.95625E-01
 -1      2442 9.93755E-01
 -1      2443 9.93755E-01
 -1      2444 9.76725E-01
 -1      2445 9.70409E-01
 -1      2446 1.01166E+00
 -1      2447 1.04097E+00
 -1      2448 8.41947E-01
 -1      2449 9.35786E-01
 -1      2450 1.02425E+00
 -1      2451 9.58389E-01
 -1      2452 9.48698E-01
 -1      2453 1.09638E+00
 -1      2454 1.35394E+00
 -1      2455 9.94313E-01
 -1      2456 1.23906E+00
 -1      2457 1.89922E+00
 -1      2458 1.59320E+00
 -1      2459 1.51424E+00
 -1      2460 2.15386E+00
 -1      2461 2.08938E+00
 -1      2462 1.94366E+00
 -1      2463 2.49957E+00
 -1      2464 2.49957E+00
 -1      2465 2.47953E+00
 -1      2466 2.43496E+00
 -1      2467 2.43301E+00
 -1      2468 2.75867E+00
 -1      2469 2.42435E+00
 -1      2470 2.36485E+00
 -1      2471 2.62201E+00
 -1      2472 1.88663E+00
 -1      2473 2.11505E+00
 -1      2474 2.24260E+00
 -1      2475 1.51474E+00
 -1      2476 1.81208E+00
 -1      2477 1.85875E+00
 -1      2478 1.10620E+00
 -1      2479 1.29222E+00
 -1      2480 1.56168E+00
 -1      2481 9.32764E-01
 -1      2482 1.01081E+00
 -1      2483 1.24377E+00
 -1      2484 7.83081E-01
 -1      2485 7.87326E-01
 -1      2486 1.00294E+00
 -1      2487 7.02649E-01
 -1      2488 7.20692E-01
 -1      2489 7.95112E-01
 -1      2490 6.66664E-01
 -1      2491 6.72576E-01
 -1      2492 7.02649E-01
 -1      2493 6.14329E-01
 -1      2494 9.15908E-01
 -1      2495 8.06243E-01
 -1      2496 1.30445E+00
 -1      2497 1.10984E+00
 -1      2498 1.25002E+00
 -1      2499 7.65800E-01
 -1      2500 7.65800E-01
 -1      2501 7.58269E-01
 -1      2502 7.65800E-01
 -1      2503 9.60136E-01
 -1      2504 1.00811E+00
 -1      2505 1.51727E+00
 -1      2506 1.50634E+00
 -1      2507 1.64584E+00
 -1      2508 1.51727E+00
 -1      2509 1.51727E+00
 -1      2510 1.84773E+00
 -1      2511 1.49797E+00
 -1      2512 1.51176E+00
 -1      2513 1.84222E+00
 -1      2514 1.11461E+00
 -1      2515 1.30386E+00
 -1      2516 1.64260E+00
 -1      2517 8.03492E-01
 -1      2518 9.16130E-01
 -1      2519 1.25001E+00
 -1      2520 7.26359E-01
 -1      2521 7.21380E-01
 -1      2522 9.69418E-01
 -1      2523 6.71391E-01
 -1      2524 6.28417E-01
 -1      2525 7.89365E-01
 -1      2526 2.83910E+01
 -1      2527 3.03531E+01
 -1      2528 1.52913E+01
 -1      2529 2.19919E+01
 -1      2530 7.05145E-01
 -1      2531 7.98750E-01
 -1      2532 6.25913E-01
 -1      2533 6.51358E-01
 -1      2534 3.23152E+01
 -1      2535 3.23152E+01
 -1      2536 2.60893E+01
 -1      2537 2.49303E+01
 -1      2538 2.49303E+01
 -1      2539 1.67627E+00
 -1      2540 1.30142E+00
 -1      2541 8.38090E-01
 -1      2542 9.60247E-01
 -1      2543 2.66230E+01
 -1      2544 2.60140E+01
 -1      2545 9.59386E+00
 -1      2546 9.30026E+00
 -1      2547 5.22604E-01
 -1      2548 5.44678E-01
 -1      2549 4.71994E-01
 -1      2550 4.44589E-01
 -1      2551 7.61147E+00
 -1      2552 8.31997E+00
 -1      2553 8.86284E+00
 -1      2554 8.55863E+00
 -1      2555 7.98453E+00
 -1      2556 5.70409E+00
 -1      2557 9.19679E+00
 -1      2558 9.17126E+00
 -1      2559 5.97751E+00
 -1      2560 6.69057E+00
 -1      2561 5.39246E+00
 -1      2562 9.12616E+00
 -1      2563 6.67862E+00
 -1      2564 5.17266E+00
 -1      2565 1.72183E+01
 -1      2566 1.23978E+01
 -1      2567 2.18000E+01
 -1      2568 1.92240E+01
 -1      2569 3.04132E+01
 -1      2570 2.71715E+01
 -1      2571 3.36548E+01
 -1      2572 3.36548E+01
 -1      2573 3.04132E+01
 -1      2574 2.15922E+01
 -1      2575 2.77238E+01
 -1      2576 2.13933E+01
 -1      2577 1.96147E+01
 -1      2578 1.29590E+01
 -1      2579 1.83594E+01
 -1      2580 7.96829E+00
 -1      2581 1.11221E+01
 -1      2582 6.46730E+00
 -1      2583 6.44105E+00
 -1      2584 8.09410E+00
 -1      2585 6.84857E+00
 -1      2586 5.42292E+00
 -1      2587 9.11404E+00
 -1      2588 8.97192E+00
 -1      2589 7.82852E+00
 -1      2590 8.83305E+00
 -1      2591 5.28671E+00
 -1      2592 6.82445E+00
 -1      2593 1.37623E+01
 -1      2594 9.92514E+00
 -1      2595 7.17789E+00
 -1      2596 2.25692E+01
 -1      2597 1.62236E+01
 -1      2598 1.74861E+01
 -1      2599 6.00658E+00
 -1      2600 7.14362E+00
 -1      2601 1.62163E+00
 -1      2602 1.76483E+00
 -1      2603 1.32865E+00
 -1      2604 1.18856E+00
 -1      2605 6.77854E+00
 -1      2606 8.78515E+00
 -1      2607 7.65535E+00
 -1      2608 5.22695E-01
 -1      2609 6.63028E-01
 -1      2610 7.20825E-01
 -1      2611 1.13447E+01
 -1      2612 7.19249E+00
 -1      2613 1.24413E+00
 -1      2614 7.31937E+00
 -1      2615 2.66230E+01
 -1      2616 6.07938E+00
 -1      2617 6.20241E-01
 -1      2618 6.22020E-01
 -1      2619 3.03531E+01
 -1      2620 1.73721E+01
 -1      2621 1.15799E+01
 -1      2622 4.81990E+00
 -1      2623 7.98750E-01
 -1      2624 5.40658E+00
 -1      2625 8.91656E-01
 -1      2626 7.17145E+00
 -1      2627 7.74605E+00
 -1      2628 6.68201E+00
 -1      2629 6.56888E+00
 -1      2630 9.93303E+00
 -1      2631 1.48038E+01
 -1      2632 2.77238E+01
 -1      2633 2.18000E+01
 -1      2634 9.15733E+00
 -1      2635 9.13804E+00
 -1      2636 5.88565E+00
 -1      2637 7.75857E+00
 -1      2638 9.68415E-01
 -1      2639 1.44228E+01
 -1      2640 1.98153E+01
 -1      2641 6.51358E-01
 -1      2642 6.51358E-01
 -1      2643 6.71391E-01
 -1      2644 6.43174E-01
 -1      2645 8.16356E-01
 -1      2646 6.94369E-01
 -1      2647 4.22816E-01
 -1      2648 4.08080E-01
 -1      2649 4.00319E-01
 -1      2650 3.87399E-01
 -1      2651 3.50827E-01
 -1      2652 4.36473E-01
 -1      2653 4.36473E-01
 -1      2654 4.73110E-01
 -1      2655 4.24429E-01
 -1      2656 3.49899E-01
 -1      2657 1.33551E+01
 -1      2658 1.13494E+01
 -1      2659 7.18282E-01
 -1      2660 7.96432E-01
 -1      2661 6.05981E+00
 -1      2662 4.95060E+00
 -1      2663 5.50747E-01
 -1      2664 4.94259E-01
 -1      2665 4.87960E-01
 -1      2666 4.31910E-01
 -1      2667 3.91932E-01
 -1      2668 4.11484E-01
 -1      2669 3.62303E-01
 -1      2670 3.65207E-01
 -1      2671 3.37610E-01
 -1      2672 3.10291E-01
 -1      2673 3.20087E-01
 -1      2674 2.85572E-01
 -1      2675 2.60876E-01
 -1      2676 2.70676E-01
 -1      2677 2.45126E-01
 -1      2678 2.21843E-01
 -1      2679 2.30207E-01
 -1      2680 2.05579E-01
 -1      2681 1.86121E-01
 -1      2682 1.98192E-01
 -1      2683 1.70491E-01
 -1      2684 1.53870E-01
 -1      2685 1.66299E-01
 -1      2686 1.40368E-01
 -1      2687 1.25839E-01
 -1      2688 1.37168E-01
 -1      2689 1.14424E-01
 -1      2690 1.02090E-01
 -1      2691 1.12251E-01
 -1      2692 9.22258E-02
 -1      2693 8.21169E-02
 -1      2694 9.09719E-02
 -1      2695 7.35459E-02
 -1      2696 6.55023E-02
 -1      2697 7.25365E-02
 -1      2698 5.78121E-02
 -1      2699 5.21422E-02
 -1      2700 5.62752E-02
 -1      2701 4.71560E-02
 -1      2702 4.84702E-02
 -1      2703 4.35989E-02
 -1      2704 5.20489E-02
 -1      2705 5.81996E-02
 -1      2706 4.21914E-02
 -1      2707 7.19456E-02
 -1      2708 8.46369E-02
 -1      2709 5.95161E-02
 -1      2710 1.03412E-01
 -1      2711 1.25919E-01
 -1      2712 9.20371E-02
 -1      2713 1.49190E-01
 -1      2714 1.77392E-01
 -1      2715 1.34084E-01
 -1      2716 2.06208E-01
 -1      2717 2.41081E-01
 -1      2718 1.86172E-01
 -1      2719 2.76485E-01
 -1      2720 3.18687E-01
 -1      2721 2.50392E-01
 -1      2722 3.61626E-01
 -1      2723 4.11173E-01
 -1      2724 3.28736E-01
 -1      2725 4.62369E-01
 -1      2726 5.18152E-01
 -1      2727 4.22872E-01
 -1      2728 5.77876E-01
 -1      2729 6.36995E-01
 -1      2730 5.33792E-01
 -1      2731 7.04991E-01
 -1      2732 7.61959E-01
 -1      2733 6.61513E-01
 -1      2734 8.35315E-01
 -1      2735 8.81815E-01
 -1      2736 8.02866E-01
 -1      2737 9.56523E-01
 -1      2738 1.00662E+00
 -1      2739 9.50930E-01
 -1      2740 1.08406E+00
 -1      2741 1.15166E+00
 -1      2742 1.10308E+00
 -1      2743 1.29527E+00
 -1      2744 1.34084E+00
 -1      2745 1.32413E+00
 -1      2746 1.49711E+00
 -1      2747 1.50484E+00
 -1      2748 1.62402E+00
 -1      2749 1.62881E+00
 -1      2750 1.75281E+00
 -1      2751 1.90426E+00
 -1      2752 1.70101E+00
 -1      2753 1.84353E+00
 -1      2754 1.97644E+00
 -1      2755 2.44288E+00
 -1      2756 2.61973E+00
 -1      2757 2.52399E+00
 -1      2758 2.37580E+00
 -1      2759 2.47338E+00
 -1      2760 2.87941E+00
 -1      2761 2.87902E+00
 -1      2762 3.38134E+00
 -1      2763 3.04111E+00
 -1      2764 3.82459E+00
 -1      2765 3.80225E+00
 -1      2766 3.89000E+00
 -1      2767 3.36198E+00
 -1      2768 2.99661E+00
 -1      2769 3.89298E+00
 -1      2770 2.61090E+00
 -1      2771 2.38939E+00
 -1      2772 3.06700E+00
 -1      2773 2.53519E+00
 -1      2774 2.41911E+00
 -1      2775 2.82709E+00
 -1      2776 2.16801E+00
 -1      2777 2.01241E+00
 -1      2778 2.72179E+00
 -1      2779 1.67486E+00
 -1      2780 1.52559E+00
 -1      2781 2.13313E+00
 -1      2782 1.25561E+00
 -1      2783 1.08993E+00
 -1      2784 1.52559E+00
 -1      2785 9.24255E-01
 -1      2786 8.30817E-01
 -1      2787 1.08993E+00
 -1      2788 3.51479E-01
 -1      2789 3.84481E-01
 -1      2790 1.16074E+00
 -1      2791 1.01696E+00
 -1      2792 1.04703E+00
 -1      2793 4.18678E-01
 -1      2794 4.72390E-01
 -1      2795 3.63901E-01
 -1      2796 2.45708E-01
 -1      2797 2.73267E-01
 -1      2798 2.05312E-01
 -1      2799 2.27424E-01
 -1      2800 2.18101E-01
 -1      2801 1.69186E-01
 -1      2802 1.88423E-01
 -1      2803 1.82928E-01
 -1      2804 1.38348E-01
 -1      2805 1.54729E-01
 -1      2806 1.51582E-01
 -1      2807 1.12231E-01
 -1      2808 1.25807E-01
 -1      2809 1.24583E-01
 -1      2810 9.04726E-02
 -1      2811 1.01439E-01
 -1      2812 1.01250E-01
 -1      2813 7.28337E-02
 -1      2814 8.13615E-02
 -1      2815 8.13461E-02
 -1      2816 6.00309E-02
 -1      2817 6.54355E-02
 -1      2818 6.48367E-02
 -1      2819 5.27142E-02
 -1      2820 5.36739E-02
 -1      2821 5.10815E-02
 -1      2822 6.29065E-02
 -1      2823 5.66609E-02
 -1      2824 4.86713E-02
 -1      2825 8.02983E-02
 -1      2826 7.11955E-02
 -1      2827 6.09071E-02
 -1      2828 1.17944E-01
 -1      2829 9.89954E-02
 -1      2830 8.78932E-02
 -1      2831 1.68544E-01
 -1      2832 1.41229E-01
 -1      2833 1.29875E-01
 -1      2834 2.31562E-01
 -1      2835 1.97462E-01
 -1      2836 1.82077E-01
 -1      2837 3.08655E-01
 -1      2838 2.67075E-01
 -1      2839 2.46507E-01
 -1      2840 4.00542E-01
 -1      2841 3.51488E-01
 -1      2842 3.24853E-01
 -1      2843 5.06210E-01
 -1      2844 4.50936E-01
 -1      2845 4.18079E-01
 -1      2846 6.21798E-01
 -1      2847 5.63553E-01
 -1      2848 5.25816E-01
 -1      2849 7.39172E-01
 -1      2850 6.84086E-01
 -1      2851 6.45447E-01
 -1      2852 8.47423E-01
 -1      2853 8.02295E-01
 -1      2854 7.70859E-01
 -1      2855 9.38954E-01
 -1      2856 9.04193E-01
 -1      2857 8.90752E-01
 -1      2858 1.05343E+00
 -1      2859 1.00709E+00
 -1      2860 1.01566E+00
 -1      2861 1.17228E+00
 -1      2862 1.15437E+00
 -1      2863 1.18474E+00
 -1      2864 1.22727E+00
 -1      2865 1.26189E+00
 -1      2866 1.37529E+00
 -1      2867 1.40422E+00
 -1      2868 1.29747E+00
 -1      2869 1.53510E+00
 -1      2870 1.75246E+00
 -1      2871 1.71654E+00
 -1      2872 1.91763E+00
 -1      2873 2.41787E+00
 -1      2874 2.17861E+00
 -1      2875 2.65610E+00
 -1      2876 2.78188E+00
 -1      2877 2.59171E+00
 -1      2878 3.25609E+00
 -1      2879 3.69064E+00
 -1      2880 3.34494E+00
 -1      2881 3.99299E+00
 -1      2882 4.22150E+00
 -1      2883 4.28805E+00
 -1      2884 5.15347E+00
 -1      2885 4.12233E+00
 -1      2886 4.19244E+00
 -1      2887 5.72182E+00
 -1      2888 3.43217E+00
 -1      2889 3.74147E+00
 -1      2890 5.31189E+00
 -1      2891 2.77920E+00
 -1      2892 2.85375E+00
 -1      2893 4.35261E+00
 -1      2894 1.80195E+00
 -1      2895 2.02448E+00
 -1      2896 3.01947E+00
 -1      2897 1.48566E+00
 -1      2898 1.58105E+00
 -1      2899 2.04385E+00
 -1      2900 1.05465E+00
 -1      2901 1.20009E+00
 -1      2902 1.53738E+00
 -1      2903 8.16027E-01
 -1      2904 8.78417E-01
 -1      2905 1.07557E+00
 -1      2906 1.13033E+00
 -1      2907 2.19156E+00
 -1      2908 2.19156E+00
 -1      2909 8.12343E-01
 -1      2910 7.69332E-01
 -1      2911 9.05781E-01
 -1      2912 1.60460E+00
 -1      2913 1.41067E+00
 -1      2914 2.18605E+00
 -1      2915 2.19156E+00
 -1      2916 2.53540E+00
 -1      2917 2.18423E+00
 -1      2918 1.98234E+00
 -1      2919 2.14299E+00
 -1      2920 2.52807E+00
 -1      2921 4.57062E+00
 -1      2922 6.79292E+00
 -1      2923 8.28510E-01
 -1      2924 1.97997E+00
 -1      2925 2.17408E+00
 -1      2926 2.52343E+00
 -1      2927 1.43124E+00
 -1      2928 1.62972E+00
 -1      2929 2.16120E+00
 -1      2930 1.18575E+00
 -1      2931 1.26786E+00
 -1      2932 1.64757E+00
 -1      2933 7.01807E-01
 -1      2934 6.67260E-01
 -1      2935 1.04560E+01
 -1      2936 7.99460E+00
 -1      2937 1.16195E+01
 -1      2938 1.57169E+01
 -1      2939 1.77357E+01
 -1      2940 2.11964E+01
 -1      2941 1.19830E+01
 -1      2942 5.21878E+00
 -1      2943 6.74601E+00
 -1      2944 2.02338E+01
 -1      2945 1.48623E+01
 -1      2946 4.35915E+00
 -1      2947 3.94177E+00
 -1      2948 5.06066E-01
 -1      2949 5.85298E-01
 -1      2950 4.31774E-01
 -1      2951 2.92551E-01
 -1      2952 3.24102E-01
 -1      2953 3.02327E-01
 -1      2954 2.55668E-01
 -1      2955 6.03100E-01
 -1      2956 5.52959E-01
 -1      2957 4.00444E-01
 -1      2958 4.66816E-01
 -1      2959 4.04087E+00
 -1      2960 5.04494E+00
 -1      2961 4.36473E-01
 -1      2962 4.24493E-01
 -1      2963 3.60265E-01
 -1      2964 3.61943E-01
 -1      2965 9.30829E+00
 -1      2966 1.12382E+01
 -1      2967 5.86006E+00
 -1      2968 6.62086E+00
 -1      2969 4.22693E-01
 -1      2970 4.36628E-01
 -1      2971 2.39117E+01
 -1      2972 1.82195E+01
 -1      2973 6.10781E-01
 -1      2974 7.04386E-01
 -1      2975 5.30313E-01
 -1      2976 4.90934E-01
 -1      2977 5.24247E+00
 -1      2978 4.54136E+00
 -1      2979 4.51381E+00
 -1      2980 5.43471E+00
 -1      2981 4.58362E+00
 -1      2982 6.90893E+00
 -1      2983 6.60051E+00
 -1      2984 1.66514E+01
 -1      2985 1.86290E+01
 -1      2986 2.47412E+01
 -1      2987 2.14996E+01
 -1      2988 7.89365E-01
 -1      2989 1.90958E+01
 -1      2990 2.50268E+01
 -1      2991 1.17343E+01
 -1      2992 1.47682E+01
 -1      2993 7.38375E+00
 -1      2994 9.22066E+00
 -1      2995 9.18503E+00
 -1      2996 4.44628E+00
 -1      2997 4.06501E+00
 -1      2998 6.04866E+00
 -1      2999 5.17084E+00
 -1      3000 6.88397E+00
 -1      3001 6.69775E+00
 -1      3002 7.20825E-01
 -1      3003 7.56442E+00
 -1      3004 5.62381E+00
 -1      3005 1.56145E+01
 -1      3006 1.21697E+01
 -1      3007 8.58442E+00
 -1      3008 2.06268E+01
 -1      3009 2.25888E+01
 -1      3010 1.34321E+01
 -1      3011 6.57145E+00
 -1      3012 6.44067E+00
 -1      3013 5.31189E+00
 -1      3014 4.46274E-01
 -1      3015 4.54556E-01
 -1      3016 3.68489E-01
 -1      3017 3.42821E-01
 -1      3018 3.87155E-01
 -1      3019 4.00011E-01
 -1      3020 8.10859E+00
 -1      3021 9.17632E+00
 -1      3022 5.91653E+00
 -1      3023 1.17889E+01
 -1      3024 5.89989E+00
 -1      3025 4.55104E+00
 -1      3026 9.58302E+00
 -1      3027 1.63852E+00
 -1      3028 1.28393E+00
 -1      3029 1.23596E+00
 -1      3030 4.11127E+00
 -1      3031 6.73314E+00
 -1      3032 6.62663E+00
 -1      3033 1.29032E+01
 -1      3034 1.61132E+01
 -1      3035 1.16074E+00
 -1      3036 1.24319E+01
 -1      3037 2.21583E+01
 -1      3038 1.37548E+01
 -1      3039 5.76287E-01
 -1      3040 5.57257E+00
 -1      3041 4.49435E+00
 -1      3042 4.74568E+00
 -1      3043 8.87306E-01
 -1      3044 5.18658E+00
 -1      3045 4.41032E-01
 -1      3046 6.44052E+00
 -1      3047 6.03365E+00
 -1      3048 4.24215E+00
 -1      3049 1.35819E+01
 -1      3050 9.06763E-01
 -1      3051 9.06763E-01
 -1      3052 1.20521E+00
 -1      3053 9.25238E-01
 -1      3054 1.45619E+01
 -1      3055 4.07481E-01
 -1      3056 4.22030E-01
 -1      3057 3.58180E-01
 -1      3058 3.50047E-01
 -1      3059 3.58012E+00
 -1      3060 5.30976E-01
 -1      3061 5.72182E+00
 -1      3062 6.49729E+00
 -1      3063 1.59320E+01
 -1      3064 5.25436E+00
 -1      3065 3.81293E+00
 -1      3066 2.89243E-01
 -1      3067 3.01287E-01
 -1      3068 4.82136E+00
 -1      3069 5.08446E+00
 -1      3070 3.21130E-01
 -1      3071 3.00704E-01
 -1      3072 2.97306E-01
 -1      3073 2.72612E-01
 -1      3074 2.53229E-01
 -1      3075 2.61798E-01
 -1      3076 2.37080E-01
 -1      3077 2.39016E-01
 -1      3078 2.22913E-01
 -1      3079 2.07162E-01
 -1      3080 2.14035E-01
 -1      3081 1.93732E-01
 -1      3082 1.77468E-01
 -1      3083 1.86438E-01
 -1      3084 1.66748E-01
 -1      3085 1.51119E-01
 -1      3086 1.62288E-01
 -1      3087 1.39710E-01
 -1      3088 1.26208E-01
 -1      3089 1.40159E-01
 -1      3090 1.14982E-01
 -1      3091 1.03567E-01
 -1      3092 1.17523E-01
 -1      3093 9.29389E-02
 -1      3094 8.30745E-02
 -1      3095 9.56693E-02
 -1      3096 7.31242E-02
 -1      3097 6.45532E-02
 -1      3098 7.50913E-02
 -1      3099 5.51170E-02
 -1      3100 4.74268E-02
 -1      3101 5.57047E-02
 -1      3102 3.81767E-02
 -1      3103 3.31906E-02
 -1      3104 3.70185E-02
 -1      3105 3.41519E-02
 -1      3106 3.77306E-02
 -1      3107 2.87297E-02
 -1      3108 4.83080E-02
 -1      3109 6.20540E-02
 -1      3110 4.02685E-02
 -1      3111 7.76412E-02
 -1      3112 9.64162E-02
 -1      3113 6.64331E-02
 -1      3114 1.16493E-01
 -1      3115 1.39764E-01
 -1      3116 1.02097E-01
 -1      3117 1.65455E-01
 -1      3118 1.94272E-01
 -1      3119 1.47864E-01
 -1      3120 2.26128E-01
 -1      3121 2.61531E-01
 -1      3122 2.05411E-01
 -1      3123 3.00384E-01
 -1      3124 3.43324E-01
 -1      3125 2.76120E-01
 -1      3126 3.89580E-01
 -1      3127 4.40776E-01
 -1      3128 3.61229E-01
 -1      3129 4.93973E-01
 -1      3130 5.53698E-01
 -1      3131 4.60682E-01
 -1      3132 6.13127E-01
 -1      3133 6.81123E-01
 -1      3134 5.73308E-01
 -1      3135 7.65264E-01
 -1      3136 8.38620E-01
 -1      3137 7.16878E-01
 -1      3138 9.42612E-01
 -1      3139 1.01732E+00
 -1      3140 9.05010E-01
 -1      3141 1.15946E+00
 -1      3142 1.23690E+00
 -1      3143 1.15114E+00
 -1      3144 1.40511E+00
 -1      3145 1.54873E+00
 -1      3146 1.46150E+00
 -1      3147 1.74668E+00
 -1      3148 1.90295E+00
 -1      3149 1.82767E+00
 -1      3150 2.22294E+00
 -1      3151 2.34691E+00
 -1      3152 2.34560E+00
 -1      3153 2.93263E+00
 -1      3154 2.88084E+00
 -1      3155 3.25131E+00
 -1      3156 4.64121E+00
 -1      3157 4.38109E+00
 -1      3158 3.56597E+00
 -1      3159 3.18026E+00
 -1      3160 3.19101E+00
 -1      3161 2.93991E+00
 -1      3162 2.68570E+00
 -1      3163 2.34815E+00
 -1      3164 3.15493E+00
 -1      3165 1.79557E+00
 -1      3166 1.52559E+00
 -1      3167 2.34815E+00
 -1      3168 1.18641E+00
 -1      3169 1.02073E+00
 -1      3170 1.02171E+00
 -1      3171 1.45639E+00
 -1      3172 3.08861E-01
 -1      3173 3.43058E-01
 -1      3174 1.65211E-01
 -1      3175 1.82099E-01
 -1      3176 1.95028E-01
 -1      3177 2.13312E-01
 -1      3178 1.77310E-01
 -1      3179 1.12609E-01
 -1      3180 1.25151E-01
 -1      3181 9.02869E-02
 -1      3182 1.01079E-01
 -1      3183 1.01646E-01
 -1      3184 7.06130E-02
 -1      3185 7.97242E-02
 -1      3186 7.95538E-02
 -1      3187 5.47608E-02
 -1      3188 6.21591E-02
 -1      3189 6.05371E-02
 -1      3190 4.03727E-02
 -1      3191 4.67296E-02
 -1      3192 4.40520E-02
 -1      3193 4.13964E-02
 -1      3194 3.74496E-02
 -1      3195 3.30978E-02
 -1      3196 5.78764E-02
 -1      3197 4.95873E-02
 -1      3198 3.83656E-02
 -1      3199 9.17013E-02
 -1      3200 7.30042E-02
 -1      3201 6.16844E-02
 -1      3202 1.33512E-01
 -1      3203 1.10227E-01
 -1      3204 9.53378E-02
 -1      3205 1.85335E-01
 -1      3206 1.56417E-01
 -1      3207 1.36769E-01
 -1      3208 2.49225E-01
 -1      3209 2.13712E-01
 -1      3210 1.88052E-01
 -1      3211 3.27122E-01
 -1      3212 2.84289E-01
 -1      3213 2.51494E-01
 -1      3214 4.21214E-01
 -1      3215 3.70820E-01
 -1      3216 3.30257E-01
 -1      3217 5.33545E-01
 -1      3218 4.76202E-01
 -1      3219 4.28943E-01
 -1      3220 6.61867E-01
 -1      3221 5.99578E-01
 -1      3222 5.49964E-01
 -1      3223 8.02163E-01
 -1      3224 7.39040E-01
 -1      3225 6.93171E-01
 -1      3226 9.46215E-01
 -1      3227 8.89445E-01
 -1      3228 8.57626E-01
 -1      3229 1.11955E+00
 -1      3230 1.05141E+00
 -1      3231 1.05011E+00
 -1      3232 1.33054E+00
 -1      3233 1.22959E+00
 -1      3234 1.26535E+00
 -1      3235 1.60853E+00
 -1      3236 1.51891E+00
 -1      3237 1.56377E+00
 -1      3238 1.86194E+00
 -1      3239 1.79174E+00
 -1      3240 1.93536E+00
 -1      3241 2.52236E+00
 -1      3242 2.21004E+00
 -1      3243 2.46667E+00
 -1      3244 3.76948E+00
 -1      3245 3.34333E+00
 -1      3246 3.63575E+00
 -1      3247 4.02055E+00
 -1      3248 3.84671E+00
 -1      3249 6.49729E+00
 -1      3250 5.89989E+00
 -1      3251 5.72182E+00
 -1      3252 5.75088E+00
 -1      3253 5.31189E+00
 -1      3254 5.69275E+00
 -1      3255 4.35261E+00
 -1      3256 4.93103E+00
 -1      3257 2.44518E+00
 -1      3258 2.66608E+00
 -1      3259 1.62585E+00
 -1      3260 1.91142E+00
 -1      3261 2.53366E+00
 -1      3262 1.30403E+01
 -1      3263 1.17745E+01
 -1      3264 3.23622E-01
 -1      3265 3.15861E-01
 -1      3266 7.84343E+00
 -1      3267 8.22468E+00
 -1      3268 3.13101E+00
 -1      3269 3.13101E+00
 -1      3270 2.03173E+00
 -1      3271 2.19510E+00
 -1      3272 1.43656E+00
 -1      3273 1.01115E+01
 -1      3274 1.19947E+01
 -1      3275 5.95706E+00
 -1      3276 5.52688E+00
 -1      3277 3.52576E-01
 -1      3278 3.86252E-01
 -1      3279 2.97536E-01
 -1      3280 4.55606E+00
 -1      3281 8.05664E+00
 -1      3282 1.00754E+01
 -1      3283 3.10304E+00
 -1      3284 3.45330E+00
 -1      3285 3.48720E+00
 -1      3286 1.37641E-01
 -1      3287 1.52098E-01
 -1      3288 1.51269E-01
 -1      3289 1.25666E-01
 -1      3290 1.04219E+01
 -1      3291 8.91471E+00
 -1      3292 8.90036E+00
 -1      3293 4.70973E+00
 -1      3294 3.44508E+00
 -1      3295 3.15933E-01
 -1      3296 3.09634E-01
 -1      3297 2.45131E-01
 -1      3298 4.54556E-01
 -1      3299 3.08115E+00
 -1      3300 1.30948E+01
 -1      3301 1.28092E+01
 -1      3302 1.00219E+01
 -1      3303 3.45330E+00
 -1      3304 3.46527E+00
 -1      3305 4.06088E+00
 -1      3306 4.39515E+00
 -1      3307 3.22696E+00
 -1      3308 3.99212E+00
 -1      3309 1.17449E+01
 -1      3310 9.13988E+00
 -1      3311 5.17713E+00
 -1      3312 4.53395E+00
 -1      3313 7.27795E+00
 -1      3314 9.79159E+00
 -1      3315 4.13112E-01
 -1      3316 3.09935E-01
 -1      3317 2.61323E-01
 -1      3318 3.99216E-01
 -1      3319 5.00915E+00
 -1      3320 5.64688E+00
 -1      3321 1.27943E+01
 -1      3322 1.32611E+01
 -1      3323 9.32389E+00
 -1      3324 7.67077E+00
 -1      3325 5.95706E+00
 -1      3326 6.51252E+00
 -1      3327 1.08482E+01
 -1      3328 1.02785E+01
 -1      3329 6.92176E+00
 -1      3330 3.12493E-01
 -1      3331 3.12249E-01
 -1      3332 2.85289E-01
 -1      3333 7.78501E+00
 -1      3334 5.61194E+00
 -1      3335 6.41807E+00
 -1      3336 4.22971E+00
 -1      3337 3.27351E+00
 -1      3338 2.14359E+00
 -1      3339 2.01686E+00
 -1      3340 3.31324E-01
 -1      3341 3.29111E-01
 -1      3342 2.46813E-01
 -1      3343 3.97262E+00
 -1      3344 3.91284E+00
 -1      3345 9.84795E+00
 -1      3346 3.87286E+00
 -1      3347 4.25963E+00
 -1      3348 4.01569E+00
 -1      3349 2.86193E+00
 -1      3350 3.26757E+00
 -1      3351 3.99299E+00
 -1      3352 3.90396E-01
 -1      3353 2.04607E-01
 -1      3354 2.27680E-01
 -1      3355 2.46963E-01
 -1      3356 4.22627E+00
 -1      3357 3.42080E+00
 -1      3358 3.01947E+00
 -1      3359 3.77419E+00
 -1      3360 1.07557E+00
 -1      3361 1.25181E+00
 -1      3362 1.62585E+00
 -1      3363 3.12089E+00
 -1      3364 2.74315E+00
 -1      3365 3.12149E+00
 -1      3366 2.65284E-01
 -1      3367 2.92660E-01
 -1      3368 2.37296E-01
 -1      3369 6.31705E+00
 -1      3370 3.23286E+00
 -1      3371 3.22553E+00
 -1      3372 3.82569E+00
 -1      3373 3.82847E+00
 -1      3374 1.78490E+00
 -1      3375 1.70967E+00
 -1      3376 1.47867E+00
 -1      3377 2.28997E+00
 -1      3378 4.35261E+00
 -1      3379 5.04341E+00
 -1      3380 6.25345E+00
 -1      3381 6.46177E+00
 -1      3382 5.10343E+00
 -1      3383 3.88663E+00
 -1      3384 3.23622E-01
 -1      3385 2.88656E-01
 -1      3386 3.25300E-01
 -1      3387 8.20442E+00
 -1      3388 2.71817E-01
 -1      3389 3.69341E-01
 -1      3390 3.94825E-01
 -1      3391 2.77624E-01
 -1      3392 2.90143E-01
 -1      3393 9.09766E+00
 -1      3394 1.08511E+01
 -1      3395 7.08779E+00
 -1      3396 3.20996E-01
 -1      3397 3.20996E-01
 -1      3398 2.84353E-01
 -1      3399 2.60340E-01
 -1      3400 1.27528E+01
 -1      3401 9.44880E+00
 -1      3402 9.61511E+00
 -1      3403 3.22739E-01
 -1      3404 3.23402E-01
 -1      3405 1.27599E+00
 -1      3406 1.55498E+00
 -1      3407 2.10251E+00
 -1      3408 1.37148E+00
 -1      3409 2.86350E-01
 -1      3410 3.21791E-01
 -1      3411 3.31437E-01
 -1      3412 5.86077E+00
 -1      3413 1.88490E-01
 -1      3414 1.99986E-01
 -1      3415 3.22739E-01
 -1      3416 2.87961E-01
 -1      3417 3.15269E-01
 -1      3418 6.61927E+00
 -1      3419 8.77270E+00
 -1      3420 2.16716E-01
 -1      3421 2.05902E-01
 -1      3422 2.02241E-01
 -1      3423 1.88074E-01
 -1      3424 1.79940E-01
 -1      3425 1.80144E-01
 -1      3426 1.66713E-01
 -1      3427 1.68349E-01
 -1      3428 1.56709E-01
 -1      3429 1.45989E-01
 -1      3430 1.50414E-01
 -1      3431 1.37668E-01
 -1      3432 1.26258E-01
 -1      3433 1.32089E-01
 -1      3434 1.17733E-01
 -1      3435 1.06507E-01
 -1      3436 1.15242E-01
 -1      3437 9.76703E-02
 -1      3438 8.70426E-02
 -1      3439 9.78805E-02
 -1      3440 7.83416E-02
 -1      3441 6.83913E-02
 -1      3442 8.03427E-02
 -1      3443 5.99751E-02
 -1      3444 5.05389E-02
 -1      3445 6.32254E-02
 -1      3446 4.36322E-02
 -1      3447 3.43821E-02
 -1      3448 4.79025E-02
 -1      3449 3.55288E-02
 -1      3450 3.64902E-02
 -1      3451 4.21425E-02
 -1      3452 3.93998E-02
 -1      3453 4.99773E-02
 -1      3454 4.61989E-02
 -1      3455 6.43825E-02
 -1      3456 7.99696E-02
 -1      3457 6.35138E-02
 -1      3458 9.88727E-02
 -1      3459 1.18949E-01
 -1      3460 9.68220E-02
 -1      3461 1.42719E-01
 -1      3462 1.68410E-01
 -1      3463 1.39495E-01
 -1      3464 1.98197E-01
 -1      3465 2.30053E-01
 -1      3466 1.93052E-01
 -1      3467 2.67107E-01
 -1      3468 3.05959E-01
 -1      3469 2.59893E-01
 -1      3470 3.51605E-01
 -1      3471 3.97862E-01
 -1      3472 3.42592E-01
 -1      3473 4.53436E-01
 -1      3474 5.06633E-01
 -1      3475 4.43813E-01
 -1      3476 5.73308E-01
 -1      3477 6.32737E-01
 -1      3478 5.66062E-01
 -1      3479 7.11054E-01
 -1      3480 7.95195E-01
 -1      3481 7.11054E-01
 -1      3482 8.84036E-01
 -1      3483 9.88027E-01
 -1      3484 8.78213E-01
 -1      3485 1.12899E+00
 -1      3486 1.27113E+00
 -1      3487 1.10802E+00
 -1      3488 1.49334E+00
 -1      3489 1.66155E+00
 -1      3490 1.47118E+00
 -1      3491 2.11471E+00
 -1      3492 2.31266E+00
 -1      3493 2.14655E+00
 -1      3494 3.73979E+00
 -1      3495 4.05977E+00
 -1      3496 4.02684E+00
 -1      3497 4.88185E+00
 -1      3498 5.46758E+00
 -1      3499 7.49132E+00
 -1      3500 6.27604E+00
 -1      3501 3.97207E+00
 -1      3502 3.55945E+00
 -1      3503 3.39459E+00
 -1      3504 3.46274E+00
 -1      3505 2.91016E+00
 -1      3506 4.53408E+00
 -1      3507 7.31921E-02
 -1      3508 8.37548E-02
 -1      3509 9.33117E-02
 -1      3510 1.04842E-01
 -1      3511 8.69501E-02
 -1      3512 3.87590E-02
 -1      3513 4.67901E-02
 -1      3514 3.32917E-02
 -1      3515 3.62148E-02
 -1      3516 3.89529E-02
 -1      3517 4.33459E-02
 -1      3518 3.51549E-02
 -1      3519 3.82720E-02
 -1      3520 7.16560E-02
 -1      3521 5.65281E-02
 -1      3522 5.33174E-02
 -1      3523 1.07867E-01
 -1      3524 8.93410E-02
 -1      3525 8.41846E-02
 -1      3526 1.53331E-01
 -1      3527 1.30425E-01
 -1      3528 1.24428E-01
 -1      3529 2.09917E-01
 -1      3530 1.81539E-01
 -1      3531 1.75195E-01
 -1      3532 2.79937E-01
 -1      3533 2.44873E-01
 -1      3534 2.38360E-01
 -1      3535 3.66362E-01
 -1      3536 3.22664E-01
 -1      3537 3.16042E-01
 -1      3538 4.72616E-01
 -1      3539 4.17628E-01
 -1      3540 4.10035E-01
 -1      3541 5.98620E-01
 -1      3542 5.32587E-01
 -1      3543 5.21272E-01
 -1      3544 7.43302E-01
 -1      3545 6.66128E-01
 -1      3546 6.48751E-01
 -1      3547 9.14844E-01
 -1      3548 8.27562E-01
 -1      3549 8.00520E-01
 -1      3550 1.13591E+00
 -1      3551 1.03071E+00
 -1      3552 1.00065E+00
 -1      3553 1.43625E+00
 -1      3554 1.32620E+00
 -1      3555 1.30681E+00
 -1      3556 1.87387E+00
 -1      3557 1.68549E+00
 -1      3558 1.74635E+00
 -1      3559 2.77299E+00
 -1      3560 2.58977E+00
 -1      3561 2.71149E+00
 -1      3562 4.05157E+00
 -1      3563 3.70347E+00
 -1      3564 4.35788E+00
 -1      3565 5.19612E+00
 -1      3566 4.37515E+00
 -1      3567 3.19063E-01
 -1      3568 7.92742E+00
 -1      3569 6.57483E+00
 -1      3570 4.53408E+00
 -1      3571 2.86084E+00
 -1      3572 2.49085E-01
 -1      3573 2.58603E-01
 -1      3574 3.84456E+00
 -1      3575 4.75251E+00
 -1      3576 5.56061E-02
 -1      3577 6.40601E-02
 -1      3578 6.82611E-02
 -1      3579 5.03131E-02
 -1      3580 1.58729E-01
 -1      3581 1.71658E-01
 -1      3582 7.81123E+00
 -1      3583 2.16145E-01
 -1      3584 2.12747E-01
 -1      3585 1.79633E-01
 -1      3586 5.48695E+00
 -1      3587 5.31891E+00
 -1      3588 8.02707E+00
 -1      3589 8.25813E+00
 -1      3590 5.93261E+00
 -1      3591 2.33136E-01
 -1      3592 2.49337E-01
 -1      3593 2.10404E-01
 -1      3594 7.81123E+00
 -1      3595 8.61079E+00
 -1      3596 6.80162E+00
 -1      3597 5.33251E+00
 -1      3598 4.82318E+00
 -1      3599 5.90777E+00
 -1      3600 5.84651E+00
 -1      3601 6.61927E+00
 -1      3602 6.41807E+00
 -1      3603 5.28836E+00
 -1      3604 5.44513E+00
 -1      3605 2.18452E-01
 -1      3606 1.73307E-01
 -1      3607 2.31630E-01
 -1      3608 2.53227E-01
 -1      3609 2.53227E-01
 -1      3610 5.54401E+00
 -1      3611 2.10881E-01
 -1      3612 2.45615E-01
 -1      3613 2.84941E-01
 -1      3614 1.65009E-01
 -1      3615 1.83590E-01
 -1      3616 1.97958E-01
 -1      3617 1.65491E+00
 -1      3618 2.92152E+00
 -1      3619 3.78245E+00
 -1      3620 5.16411E+00
 -1      3621 2.54747E+00
 -1      3622 1.50014E-01
 -1      3623 1.44361E-01
 -1      3624 1.36901E-01
 -1      3625 2.35412E+00
 -1      3626 2.01494E+00
 -1      3627 2.26921E+00
 -1      3628 3.46871E+00
 -1      3629 1.06368E-01
 -1      3630 1.14703E-01
 -1      3631 1.27193E-01
 -1      3632 5.61194E+00
 -1      3633 8.02707E+00
 -1      3634 6.26332E+00
 -1      3635 7.68505E+00
 -1      3636 5.01641E+00
 -1      3637 4.16597E+00
 -1      3638 6.33062E+00
 -1      3639 7.84329E+00
 -1      3640 7.33495E+00
 -1      3641 4.96958E+00
 -1      3642 4.63531E+00
 -1      3643 2.08374E-01
 -1      3644 2.26694E-01
 -1      3645 1.87357E-01
 -1      3646 4.10493E+00
 -1      3647 3.50537E+00
 -1      3648 2.37208E-01
 -1      3649 2.20297E-01
 -1      3650 1.88757E-01
 -1      3651 5.86898E+00
 -1      3652 1.59504E-01
 -1      3653 2.03355E-01
 -1      3654 2.23064E-01
 -1      3655 2.52770E-01
 -1      3656 2.52770E-01
 -1      3657 7.09812E+00
 -1      3658 2.74596E+00
 -1      3659 2.04214E-01
 -1      3660 4.01127E+00
 -1      3661 2.52770E-01
 -1      3662 2.49403E-01
 -1      3663 2.16884E-01
 -1      3664 3.18253E+00
 -1      3665 2.50207E-01
 -1      3666 2.53227E-01
 -1      3667 2.18494E-01
 -1      3668 2.17689E-01
 -1      3669 1.60087E-01
 -1      3670 1.56426E-01
 -1      3671 1.56140E-01
 -1      3672 1.48210E-01
 -1      3673 1.36286E-01
 -1      3674 1.43703E-01
 -1      3675 1.33699E-01
 -1      3676 1.31494E-01
 -1      3677 1.26860E-01
 -1      3678 1.18538E-01
 -1      3679 1.20148E-01
 -1      3680 1.11069E-01
 -1      3681 1.02544E-01
 -1      3682 1.05840E-01
 -1      3683 9.61058E-02
 -1      3684 8.72690E-02
 -1      3685 9.19325E-02
 -1      3686 8.04551E-02
 -1      3687 7.17541E-02
 -1      3688 7.86804E-02
 -1      3689 6.49396E-02
 -1      3690 5.65234E-02
 -1      3691 6.50520E-02
 -1      3692 5.24000E-02
 -1      3693 4.54933E-02
 -1      3694 5.41142E-02
 -1      3695 4.64007E-02
 -1      3696 4.75475E-02
 -1      3697 5.08982E-02
 -1      3698 5.01068E-02
 -1      3699 5.30165E-02
 -1      3700 5.43650E-02
 -1      3701 5.82563E-02
 -1      3702 7.26615E-02
 -1      3703 6.21642E-02
 -1      3704 8.84832E-02
 -1      3705 1.07386E-01
 -1      3706 8.32257E-02
 -1      3707 1.27450E-01
 -1      3708 1.51220E-01
 -1      3709 1.19111E-01
 -1      3710 1.76642E-01
 -1      3711 2.06429E-01
 -1      3712 1.64597E-01
 -1      3713 2.38573E-01
 -1      3714 2.75627E-01
 -1      3715 2.22164E-01
 -1      3716 3.16223E-01
 -1      3717 3.61869E-01
 -1      3718 2.94904E-01
 -1      3719 4.13238E-01
 -1      3720 4.68812E-01
 -1      3721 3.86868E-01
 -1      3722 5.34244E-01
 -1      3723 6.00919E-01
 -1      3724 5.03669E-01
 -1      3725 6.85190E-01
 -1      3726 7.63508E-01
 -1      3727 6.53373E-01
 -1      3728 8.73420E-01
 -1      3729 9.62261E-01
 -1      3730 8.47556E-01
 -1      3731 1.10802E+00
 -1      3732 1.24898E+00
 -1      3733 1.10322E+00
 -1      3734 1.43943E+00
 -1      3735 1.66163E+00
 -1      3736 1.43943E+00
 -1      3737 2.00179E+00
 -1      3738 2.45495E+00
 -1      3739 1.97004E+00
 -1      3740 4.08141E+00
 -1      3741 5.50854E+00
 -1      3742 3.93666E+00
 -1      3743 7.83150E-02
 -1      3744 8.78719E-02
 -1      3745 2.72365E-01
 -1      3746 4.56731E+00
 -1      3747 4.56096E-02
 -1      3748 4.37464E-02
 -1      3749 4.18156E-02
 -1      3750 4.43597E-02
 -1      3751 4.91532E-02
 -1      3752 9.66924E-02
 -1      3753 7.90073E-02
 -1      3754 1.39077E-01
 -1      3755 1.16518E-01
 -1      3756 1.11341E-01
 -1      3757 1.92304E-01
 -1      3758 1.64095E-01
 -1      3759 1.56185E-01
 -1      3760 2.58727E-01
 -1      3761 2.23771E-01
 -1      3762 2.12672E-01
 -1      3763 3.40856E-01
 -1      3764 2.98130E-01
 -1      3765 2.83542E-01
 -1      3766 4.41270E-01
 -1      3767 3.90003E-01
 -1      3768 3.72091E-01
 -1      3769 5.62426E-01
 -1      3770 5.02455E-01
 -1      3771 4.82423E-01
 -1      3772 7.06095E-01
 -1      3773 6.38587E-01
 -1      3774 6.19770E-01
 -1      3775 8.84780E-01
 -1      3776 8.00520E-01
 -1      3777 7.90356E-01
 -1      3778 1.11651E+00
 -1      3779 1.00065E+00
 -1      3780 1.00065E+00
 -1      3781 1.45429E+00
 -1      3782 1.26400E+00
 -1      3783 1.26400E+00
 -1      3784 1.98003E+00
 -1      3785 1.73079E+00
 -1      3786 1.68798E+00
 -1      3787 3.27274E+00
 -1      3788 2.55684E+00
 -1      3789 2.54128E+00
 -1      3790 5.36573E+00
 -1      3791 1.78989E-01
 -1      3792 1.78738E-01
 -1      3793 5.29455E+00
 -1      3794 4.63253E+00
 -1      3795 5.28836E+00
 -1      3796 4.73717E+00
 -1      3797 1.77009E-01
 -1      3798 1.83451E-01
 -1      3799 1.51784E-01
 -1      3800 2.44004E-01
 -1      3801 1.50047E-01
 -1      3802 1.54016E-01
 -1      3803 1.30501E-01
 -1      3804 4.73717E+00
 -1      3805 2.56932E-01
 -1      3806 2.19655E-01
 -1      3807 2.95057E+00
 -1      3808 5.29455E+00
 -1      3809 1.69665E-01
 -1      3810 1.85824E-01
 -1      3811 1.60208E-01
 -1      3812 5.17408E+00
 -1      3813 4.84337E+00
 -1      3814 2.42233E-01
 -1      3815 2.46537E-01
 -1      3816 2.10650E-01
 -1      3817 1.85248E-01
 -1      3818 1.66720E-01
 -1      3819 5.65190E+00
 -1      3820 5.28836E+00
 -1      3821 6.32936E-02
 -1      3822 5.01113E-02
 -1      3823 7.58013E-02
 -1      3824 1.41469E-01
 -1      3825 1.40827E-01
 -1      3826 1.59996E-01
 -1      3827 2.07239E-01
 -1      3828 1.99627E-01
 -1      3829 1.47142E-01
 -1      3830 1.59074E-01
 -1      3831 8.70138E-02
 -1      3832 9.56488E-02
 -1      3833 1.05510E-01
 -1      3834 7.06467E-02
 -1      3835 7.15685E-02
 -1      3836 6.15146E-02
 -1      3837 6.27604E+00
 -1      3838 4.52306E-02
 -1      3839 5.40466E-02
 -1      3840 5.64322E-02
 -1      3841 5.55857E-02
 -1      3842 4.80933E-02
 -1      3843 4.35788E+00
 -1      3844 6.92395E+00
 -1      3845 5.50222E+00
 -1      3846 5.15212E+00
 -1      3847 5.17408E+00
 -1      3848 5.17408E+00
 -1      3849 4.08485E+00
 -1      3850 1.62864E-01
 -1      3851 1.64970E-01
 -1      3852 1.75385E-01
 -1      3853 1.47102E-01
 -1      3854 6.33062E+00
 -1      3855 5.56312E+00
 -1      3856 1.54621E-01
 -1      3857 3.50474E+00
 -1      3858 4.26327E+00
 -1      3859 4.10650E+00
 -1      3860 1.25937E-01
 -1      3861 1.30298E-01
 -1      3862 1.39013E-01
 -1      3863 1.33079E-01
 -1      3864 1.31449E-01
 -1      3865 1.66734E-01
 -1      3866 1.72968E-01
 -1      3867 1.22314E-01
 -1      3868 2.12769E-01
 -1      3869 2.12769E-01
 -1      3870 1.68853E-01
 -1      3871 2.12111E-01
 -1      3872 2.12111E-01
 -1      3873 2.00857E-01
 -1      3874 1.35170E-01
 -1      3875 1.36794E-01
 -1      3876 1.19400E-01
 -1      3877 1.19114E-01
 -1      3878 6.14519E-02
 -1      3879 5.69502E-02
 -1      3880 1.19823E-01
 -1      3881 1.15316E-01
 -1      3882 1.02936E-01
 -1      3883 1.12551E-01
 -1      3884 1.05712E-01
 -1      3885 1.00879E-01
 -1      3886 1.00888E-01
 -1      3887 9.34188E-02
 -1      3888 9.32904E-02
 -1      3889 8.75831E-02
 -1      3890 8.11448E-02
 -1      3891 8.26311E-02
 -1      3892 7.55707E-02
 -1      3893 6.87568E-02
 -1      3894 7.12212E-02
 -1      3895 6.45608E-02
 -1      3896 5.77463E-02
 -1      3897 6.14511E-02
 -1      3898 5.68566E-02
 -1      3899 5.27333E-02
 -1      3900 5.63654E-02
 -1      3901 5.31528E-02
 -1      3902 5.40601E-02
 -1      3903 5.58952E-02
 -1      3904 5.61434E-02
 -1      3905 5.87028E-02
 -1      3906 5.83979E-02
 -1      3907 6.27686E-02
 -1      3908 6.80084E-02
 -1      3909 6.45470E-02
 -1      3910 7.61903E-02
 -1      3911 9.20120E-02
 -1      3912 7.67947E-02
 -1      3913 1.03335E-01
 -1      3914 1.23399E-01
 -1      3915 9.63000E-02
 -1      3916 1.42805E-01
 -1      3917 1.68228E-01
 -1      3918 1.27029E-01
 -1      3919 1.93107E-01
 -1      3920 2.25251E-01
 -1      3921 1.71315E-01
 -1      3922 2.57124E-01
 -1      3923 2.97720E-01
 -1      3924 2.28067E-01
 -1      3925 3.38834E-01
 -1      3926 3.90203E-01
 -1      3927 3.01055E-01
 -1      3928 4.44062E-01
 -1      3929 5.09494E-01
 -1      3930 3.96028E-01
 -1      3931 5.81957E-01
 -1      3932 6.66228E-01
 -1      3933 5.22349E-01
 -1      3934 7.67487E-01
 -1      3935 8.77399E-01
 -1      3936 6.96071E-01
 -1      3937 1.02334E+00
 -1      3938 1.16910E+00
 -1      3939 9.43272E-01
 -1      3940 1.39476E+00
 -1      3941 1.58521E+00
 -1      3942 1.31488E+00
 -1      3943 1.90115E+00
 -1      3944 2.24131E+00
 -1      3945 1.85648E+00
 -1      3946 4.20323E+00
 -1      3947 2.12769E-01
 -1      3948 2.13574E-01
 -1      3949 2.07191E-01
 -1      3950 5.36545E-02
 -1      3951 5.17238E-02
 -1      3952 5.95208E-02
 -1      3953 1.63847E-01
 -1      3954 1.38828E-01
 -1      3955 1.18728E-01
 -1      3956 9.89025E-02
 -1      3957 1.26390E-01
 -1      3958 2.92912E-01
 -1      3959 2.53510E-01
 -1      3960 3.83683E-01
 -1      3961 3.34536E-01
 -1      3962 3.04504E-01
 -1      3963 4.98509E-01
 -1      3964 4.37324E-01
 -1      3965 3.99769E-01
 -1      3966 6.45042E-01
 -1      3967 5.68881E-01
 -1      3968 5.23782E-01
 -1      3969 8.34559E-01
 -1      3970 7.40135E-01
 -1      3971 6.89246E-01
 -1      3972 1.08228E+00
 -1      3973 9.66417E-01
 -1      3974 9.16196E-01
 -1      3975 1.41148E+00
 -1      3976 1.26400E+00
 -1      3977 1.22977E+00
 -1      3978 2.09207E+00
 -1      3979 1.81557E+00
 -1      3980 1.81557E+00
 -1      3981 3.60147E+00
 -1      3982 3.02466E+00
 -1      3983 3.15225E+00
 -1      3984 1.29479E-01
 -1      3985 1.35374E-01
 -1      3986 1.17547E-01
 -1      3987 1.65079E-01
 -1      3988 1.30770E-01
 -1      3989 1.26309E-01
 -1      3990 1.11319E-01
 -1      3991 1.07563E-01
 -1      3992 1.13634E-01
 -1      3993 9.64612E-02
 -1      3994 4.89025E+00
 -1      3995 4.89025E+00
 -1      3996 4.47925E+00
 -1      3997 3.26379E+00
 -1      3998 1.38187E-01
 -1      3999 8.39104E-02
 -1      4000 6.81966E-02
 -1      4001 6.95610E-02
 -1      4002 2.20916E-01
 -1      4003 1.89448E-01
 -1      4004 1.72092E-01
 -1      4005 1.12847E-01
 -1      4006 1.22555E-01
 -1      4007 1.17208E-01
 -1      4008 1.02128E-01
 -1      4009 5.02409E-02
 -1      4010 5.11118E-02
 -1      4011 5.47423E-02
 -1      4012 1.38093E-01
 -1      4013 1.28957E-01
 -1      4014 1.68758E-01
 -1      4015 1.17079E-01
 -1      4016 3.19490E+00
 -1      4017 2.30287E-01
 -1      4018 5.32591E-02
 -1      4019 5.11115E-02
 -1      4020 5.85795E-02
 -1      4021 9.12978E-02
 -1      4022 1.25916E-01
 -1      4023 1.14188E-01
 -1      4024 1.17788E-01
 -1      4025 4.93594E+00
 -1      4026 3.84670E+00
 -1      4027 4.17484E+00
 -1      4028 4.08485E+00
 -1      4029 3.50474E+00
 -1      4030 1.48212E-01
 -1      4031 7.58637E-02
 -1      4032 8.36406E-02
 -1      4033 6.33512E-02
 -1      4034 7.10196E-02
 -1      4035 5.80305E-02
 -1      4036 4.08485E+00
 -1      4037 6.76464E-02
 -1      4038 1.78266E-01
 -1      4039 1.52664E-01
 -1      4040 3.45178E+00
 -1      4041 3.71366E+00
 -1      4042 3.14737E+00
 -1      4043 2.42930E+00
 -1      4044 3.02136E+00
 -1      4045 9.00013E-02
 -1      4046 8.72361E-02
 -1      4047 8.51917E-02
 -1      4048 8.03682E-02
 -1      4049 7.43139E-02
 -1      4050 9.37108E-02
 -1      4051 8.78751E-02
 -1      4052 8.56121E-02
 -1      4053 7.29053E-02
 -1      4054 6.73311E-02
 -1      4055 8.39850E-02
 -1      4056 6.37649E-02
 -1      4057 5.95689E-02
 -1      4058 6.54490E-02
 -1      4059 5.72551E-02
 -1      4060 5.63654E-02
 -1      4061 5.95689E-02
 -1      4062 5.58952E-02
 -1      4063 5.63147E-02
 -1      4064 5.67849E-02
 -1      4065 5.83979E-02
 -1      4066 6.04812E-02
 -1      4067 5.83979E-02
 -1      4068 6.45470E-02
 -1      4069 6.86128E-02
 -1      4070 6.45470E-02
 -1      4071 7.67947E-02
 -1      4072 8.49766E-02
 -1      4073 7.67947E-02
 -1      4074 9.63000E-02
 -1      4075 1.07623E-01
 -1      4076 9.63000E-02
 -1      4077 1.22665E-01
 -1      4078 1.42071E-01
 -1      4079 1.22665E-01
 -1      4080 1.61547E-01
 -1      4081 1.86427E-01
 -1      4082 1.57183E-01
 -1      4083 2.11256E-01
 -1      4084 2.43129E-01
 -1      4085 2.01488E-01
 -1      4086 2.75820E-01
 -1      4087 3.16935E-01
 -1      4088 2.59009E-01
 -1      4089 3.59329E-01
 -1      4090 4.13188E-01
 -1      4091 3.34094E-01
 -1      4092 4.68957E-01
 -1      4093 5.41420E-01
 -1      4094 4.32258E-01
 -1      4095 6.16648E-01
 -1      4096 7.17907E-01
 -1      4097 5.63256E-01
 -1      4098 8.19299E-01
 -1      4099 9.65242E-01
 -1      4100 7.39877E-01
 -1      4101 1.10573E+00
 -1      4102 1.33139E+00
 -1      4103 9.81759E-01
 -1      4104 1.50126E+00
 -1      4105 1.81720E+00
 -1      4106 1.29212E+00
 -1      4107 1.34991E-01
 -1      4108 1.14891E-01
 -1      4109 1.41165E-01
 -1      4110 2.08654E-01
 -1      4111 6.28164E-02
 -1      4112 5.95208E-02
 -1      4113 7.99774E-02
 -1      4114 8.57434E-02
 -1      4115 3.93672E-01
 -1      4116 3.40031E-01
 -1      4117 3.03780E-01
 -1      4118 2.62156E-01
 -1      4119 2.97683E-01
 -1      4120 6.81268E-01
 -1      4121 5.86176E-01
 -1      4122 9.17472E-01
 -1      4123 7.85614E-01
 -1      4124 6.82544E-01
 -1      4125 1.27515E+00
 -1      4126 1.09344E+00
 -1      4127 9.62854E-01
 -1      4128 1.98473E+00
 -1      4129 1.58064E+00
 -1      4130 1.44431E+00
 -1      4131 3.60383E+00
 -1      4132 2.67123E+00
 -1      4133 2.43631E+00
 -1      4134 3.60383E+00
 -1      4135 1.02548E-01
 -1      4136 1.02344E-01
 -1      4137 5.62251E-02
 -1      4138 5.47423E-02
 -1      4139 5.95208E-02
 -1      4140 6.59087E-02
 -1      4141 7.07529E-02
 -1      4142 9.65405E-02
 -1      4143 9.05166E-02
 -1      4144 8.15421E-02
 -1      4145 1.40819E-01
 -1      4146 8.33027E-02
 -1      4147 7.25849E-02
 -1      4148 1.42282E-01
 -1      4149 2.33490E-01
 -1      4150 2.00897E-01
 -1      4151 1.81469E-01
 -1      4152 1.68758E-01
 -1      4153 1.68758E-01
 -1      4154 1.02386E-01
 -1      4155 1.28862E-01
 -1      4156 5.13907E-01
 -1      4157 4.43535E-01
 -1      4158 5.05929E-01
 -1      4159 1.01358E-01
 -1      4160 8.63654E-02
 -1      4161 1.09959E-01
 -1      4162 9.14670E-02
 -1      4163 1.02617E-01
 -1      4164 1.09955E-01
 -1      4165 7.63057E-02
 -1      4166 6.95610E-02
 -1      4167 8.63654E-02
 -1      4168 9.09643E-02
 -1      4169 9.16729E-02
 -1      4170 7.80298E-02
 -1      4171 3.83797E-01
 -1      4172 5.37683E-02
 -1      4173 5.37680E-02
 -1      4174 5.52512E-02
 -1      4175 5.75708E-02
 -1      4176 6.23425E-02
 -1      4177 6.54490E-02
 -1      4178 5.80800E-02
 -1      4179 2.32766E-01
 -1      4180 6.95610E-02
 -1      4181 7.44805E-02
 -1      4182 1.09955E-01
 -1      4183 1.17697E-01
 -1      4184 1.10534E-01
 -1      4185 1.10443E-01
 -1      4186 1.03717E-01
 -1      4187 8.85146E-02
 -1      4188 1.00154E-01
 -1      4189 3.36568E+00
 -1      4190 1.02300E-01
 -1      4191 1.17079E-01
 -1      4192 8.39850E-02
 -1      4193 8.57226E-02
 -1      4194 1.04699E-01
 -1      4195 2.07409E+00
 -1      4196 2.33599E+00
 -1      4197 2.79718E+00
 -1      4198 2.55430E+00
 -1      4199 1.72389E+00
 -1      4200 1.43603E+00
 -1      4201 1.13053E+00
 -1      4202 4.05074E-01
 -1      4203 3.55212E-01
 -1      4204 9.13565E-02
 -1      4205 1.04699E-01
 -1      4206 9.89548E-02
 -1      4207 8.39850E-02
 -1      4208 6.90152E-02
 -1      4209 6.54490E-02
 -1      4210 6.18828E-02
 -1      4211 5.95689E-02
 -1      4212 5.57662E-02
 -1      4213 5.52959E-02
 -1      4214 5.62699E-02
 -1      4215 5.83532E-02
 -1      4216 6.16488E-02
 -1      4217 6.57146E-02
 -1      4218 7.24592E-02
 -1      4219 8.06412E-02
 -1      4220 9.07009E-02
 -1      4221 1.02024E-01
 -1      4222 1.15558E-01
 -1      4223 1.30600E-01
 -1      4224 1.48273E-01
 -1      4225 1.67749E-01
 -1      4226 1.90380E-01
 -1      4227 2.15209E-01
 -1      4228 2.43875E-01
 -1      4229 2.76566E-01
 -1      4230 3.12818E-01
 -1      4231 4.60844E-01
 -1      4232 5.33112E-01
 -1      4233 6.08341E-01
 -1      4234 7.12687E-01
 -1      4235 8.14079E-01
 -1      4236 9.90043E-01
 -1      4237 1.60590E+00
 -1      4238 8.46924E-02
 -1      4239 8.30209E-02
 -1      4240 7.24990E-02
 -1      4241 9.90609E-02
 -1      4242 7.25849E-02
 -1      4243 7.83026E-02
 -1      4244 9.07325E-02
 -1      4245 8.86881E-02
 -1      4246 1.07775E-01
 -1      4247 9.73951E-02
 -1      4248 6.92596E-02
 -1      4249 7.44805E-02
 -1      4250 1.04699E-01
 -1      4251 1.07866E-01
 -1      4252 1.86780E+00
 -1      4253 1.07775E-01
 -1      4254 1.10443E-01
 -1      4255 1.10443E-01
 -1      4256 8.35235E-02
 -3
 9999
