    1C
    1UUSER                                                              
    1UDATE              27.october.2022                                 
    1UTIME              00:19:38                                        
    1UHOST                                                              
    1UPGM               CalculiX                                        
    1UVERSION           Version 2.17                             
    1UCOMPILETIME       Thu Jul 23 21:43:50 CEST 2020                    
    1UDIR                                                               
    1UDBN                                                               
    1UMAT    1SOLIDMATERIAL                                             
    2C                          4292                                     1
 -1         1 1.10670E+02 2.63637E+01 0.00000E+00
 -1         2 1.23197E+02 2.20681E+01 0.00000E+00
 -1         3 1.50000E+02 0.00000E+00 0.00000E+00
 -1         4 1.50000E+02 5.00000E+01 0.00000E+00
 -1         5 0.00000E+00 0.00000E+00 0.00000E+00
 -1         6 0.00000E+00 5.00000E+01 0.00000E+00
 -1         7 0.00000E+00 4.70500E+01 0.00000E+00
 -1         8 0.00000E+00 4.41000E+01 0.00000E+00
 -1         9 0.00000E+00 4.11500E+01 0.00000E+00
 -1        10 0.00000E+00 3.82000E+01 0.00000E+00
 -1        11 0.00000E+00 3.52500E+01 0.00000E+00
 -1        12 0.00000E+00 3.23500E+01 0.00000E+00
 -1        13 0.00000E+00 2.94000E+01 0.00000E+00
 -1        14 0.00000E+00 2.64500E+01 0.00000E+00
 -1        15 0.00000E+00 2.35000E+01 0.00000E+00
 -1        16 0.00000E+00 2.05500E+01 0.00000E+00
 -1        17 0.00000E+00 1.76000E+01 0.00000E+00
 -1        18 0.00000E+00 1.47000E+01 0.00000E+00
 -1        19 0.00000E+00 1.17500E+01 0.00000E+00
 -1        20 0.00000E+00 8.80000E+00 0.00000E+00
 -1        21 0.00000E+00 5.85000E+00 0.00000E+00
 -1        22 0.00000E+00 2.90000E+00 0.00000E+00
 -1        23 3.15000E+00 5.00000E+01 0.00000E+00
 -1        24 6.15000E+00 5.00000E+01 0.00000E+00
 -1        25 9.15000E+00 5.00000E+01 0.00000E+00
 -1        26 1.21500E+01 5.00000E+01 0.00000E+00
 -1        27 1.51500E+01 5.00000E+01 0.00000E+00
 -1        28 1.81500E+01 5.00000E+01 0.00000E+00
 -1        29 2.11500E+01 5.00000E+01 0.00000E+00
 -1        30 2.41500E+01 5.00000E+01 0.00000E+00
 -1        31 2.71500E+01 5.00000E+01 0.00000E+00
 -1        32 3.01500E+01 5.00000E+01 0.00000E+00
 -1        33 3.31500E+01 5.00000E+01 0.00000E+00
 -1        34 3.61500E+01 5.00000E+01 0.00000E+00
 -1        35 3.91500E+01 5.00000E+01 0.00000E+00
 -1        36 4.21500E+01 5.00000E+01 0.00000E+00
 -1        37 4.51500E+01 5.00000E+01 0.00000E+00
 -1        38 4.81500E+01 5.00000E+01 0.00000E+00
 -1        39 5.11500E+01 5.00000E+01 0.00000E+00
 -1        40 5.41500E+01 5.00000E+01 0.00000E+00
 -1        41 5.71500E+01 5.00000E+01 0.00000E+00
 -1        42 6.01500E+01 5.00000E+01 0.00000E+00
 -1        43 6.31500E+01 5.00000E+01 0.00000E+00
 -1        44 6.61500E+01 5.00000E+01 0.00000E+00
 -1        45 6.91500E+01 5.00000E+01 0.00000E+00
 -1        46 7.21500E+01 5.00000E+01 0.00000E+00
 -1        47 7.51500E+01 5.00000E+01 0.00000E+00
 -1        48 7.81500E+01 5.00000E+01 0.00000E+00
 -1        49 8.11500E+01 5.00000E+01 0.00000E+00
 -1        50 8.41500E+01 5.00000E+01 0.00000E+00
 -1        51 8.71500E+01 5.00000E+01 0.00000E+00
 -1        52 9.01500E+01 5.00000E+01 0.00000E+00
 -1        53 9.31500E+01 5.00000E+01 0.00000E+00
 -1        54 9.61500E+01 5.00000E+01 0.00000E+00
 -1        55 9.91500E+01 5.00000E+01 0.00000E+00
 -1        56 1.02150E+02 5.00000E+01 0.00000E+00
 -1        57 1.05150E+02 5.00000E+01 0.00000E+00
 -1        58 1.08150E+02 5.00000E+01 0.00000E+00
 -1        59 1.11150E+02 5.00000E+01 0.00000E+00
 -1        60 1.14150E+02 5.00000E+01 0.00000E+00
 -1        61 1.17150E+02 5.00000E+01 0.00000E+00
 -1        62 1.20150E+02 5.00000E+01 0.00000E+00
 -1        63 1.23150E+02 5.00000E+01 0.00000E+00
 -1        64 1.26150E+02 5.00000E+01 0.00000E+00
 -1        65 1.29150E+02 5.00000E+01 0.00000E+00
 -1        66 1.32150E+02 5.00000E+01 0.00000E+00
 -1        67 1.35150E+02 5.00000E+01 0.00000E+00
 -1        68 1.38150E+02 5.00000E+01 0.00000E+00
 -1        69 1.41150E+02 5.00000E+01 0.00000E+00
 -1        70 1.44150E+02 5.00000E+01 0.00000E+00
 -1        71 1.47150E+02 5.00000E+01 0.00000E+00
 -1        72 3.15000E+00 0.00000E+00 0.00000E+00
 -1        73 6.15000E+00 0.00000E+00 0.00000E+00
 -1        74 9.15000E+00 0.00000E+00 0.00000E+00
 -1        75 1.21500E+01 0.00000E+00 0.00000E+00
 -1        76 1.51500E+01 0.00000E+00 0.00000E+00
 -1        77 1.81500E+01 0.00000E+00 0.00000E+00
 -1        78 2.11500E+01 0.00000E+00 0.00000E+00
 -1        79 2.41500E+01 0.00000E+00 0.00000E+00
 -1        80 2.71500E+01 0.00000E+00 0.00000E+00
 -1        81 3.01500E+01 0.00000E+00 0.00000E+00
 -1        82 3.31500E+01 0.00000E+00 0.00000E+00
 -1        83 3.61500E+01 0.00000E+00 0.00000E+00
 -1        84 3.91500E+01 0.00000E+00 0.00000E+00
 -1        85 4.21500E+01 0.00000E+00 0.00000E+00
 -1        86 4.51500E+01 0.00000E+00 0.00000E+00
 -1        87 4.81500E+01 0.00000E+00 0.00000E+00
 -1        88 5.11500E+01 0.00000E+00 0.00000E+00
 -1        89 5.41500E+01 0.00000E+00 0.00000E+00
 -1        90 5.71500E+01 0.00000E+00 0.00000E+00
 -1        91 6.01500E+01 0.00000E+00 0.00000E+00
 -1        92 6.31500E+01 0.00000E+00 0.00000E+00
 -1        93 6.61500E+01 0.00000E+00 0.00000E+00
 -1        94 6.91500E+01 0.00000E+00 0.00000E+00
 -1        95 7.21500E+01 0.00000E+00 0.00000E+00
 -1        96 7.51500E+01 0.00000E+00 0.00000E+00
 -1        97 7.81500E+01 0.00000E+00 0.00000E+00
 -1        98 8.11500E+01 0.00000E+00 0.00000E+00
 -1        99 8.41500E+01 0.00000E+00 0.00000E+00
 -1       100 8.71500E+01 0.00000E+00 0.00000E+00
 -1       101 9.01500E+01 0.00000E+00 0.00000E+00
 -1       102 9.31500E+01 0.00000E+00 0.00000E+00
 -1       103 9.61500E+01 0.00000E+00 0.00000E+00
 -1       104 9.91500E+01 0.00000E+00 0.00000E+00
 -1       105 1.02150E+02 0.00000E+00 0.00000E+00
 -1       106 1.05150E+02 0.00000E+00 0.00000E+00
 -1       107 1.08150E+02 0.00000E+00 0.00000E+00
 -1       108 1.11150E+02 0.00000E+00 0.00000E+00
 -1       109 1.14150E+02 0.00000E+00 0.00000E+00
 -1       110 1.17150E+02 0.00000E+00 0.00000E+00
 -1       111 1.20150E+02 0.00000E+00 0.00000E+00
 -1       112 1.23150E+02 0.00000E+00 0.00000E+00
 -1       113 1.26150E+02 0.00000E+00 0.00000E+00
 -1       114 1.29150E+02 0.00000E+00 0.00000E+00
 -1       115 1.32150E+02 0.00000E+00 0.00000E+00
 -1       116 1.35150E+02 0.00000E+00 0.00000E+00
 -1       117 1.38150E+02 0.00000E+00 0.00000E+00
 -1       118 1.41150E+02 0.00000E+00 0.00000E+00
 -1       119 1.44150E+02 0.00000E+00 0.00000E+00
 -1       120 1.47150E+02 0.00000E+00 0.00000E+00
 -1       121 1.50000E+02 2.95000E+00 0.00000E+00
 -1       122 1.50000E+02 5.90000E+00 0.00000E+00
 -1       123 1.50000E+02 8.85000E+00 0.00000E+00
 -1       124 1.50000E+02 1.18000E+01 0.00000E+00
 -1       125 1.50000E+02 1.47500E+01 0.00000E+00
 -1       126 1.50000E+02 1.76500E+01 0.00000E+00
 -1       127 1.50000E+02 2.06000E+01 0.00000E+00
 -1       128 1.50000E+02 2.35500E+01 0.00000E+00
 -1       129 1.50000E+02 2.65000E+01 0.00000E+00
 -1       130 1.50000E+02 2.94500E+01 0.00000E+00
 -1       131 1.50000E+02 3.24000E+01 0.00000E+00
 -1       132 1.50000E+02 3.53000E+01 0.00000E+00
 -1       133 1.50000E+02 3.82500E+01 0.00000E+00
 -1       134 1.50000E+02 4.12000E+01 0.00000E+00
 -1       135 1.50000E+02 4.41500E+01 0.00000E+00
 -1       136 1.50000E+02 4.71000E+01 0.00000E+00
 -1       137 1.23046E+02 2.06222E+01 0.00000E+00
 -1       138 1.22606E+02 1.92543E+01 0.00000E+00
 -1       139 1.21906E+02 1.80181E+01 0.00000E+00
 -1       140 1.20948E+02 1.69277E+01 0.00000E+00
 -1       141 1.19769E+02 1.60482E+01 0.00000E+00
 -1       142 1.18174E+02 1.53532E+01 0.00000E+00
 -1       143 1.16776E+02 1.50922E+01 0.00000E+00
 -1       144 1.15234E+02 1.51347E+01 0.00000E+00
 -1       145 1.13749E+02 1.55102E+01 0.00000E+00
 -1       146 1.12480E+02 1.61365E+01 0.00000E+00
 -1       147 1.11350E+02 1.70173E+01 0.00000E+00
 -1       148 1.10346E+02 1.82246E+01 0.00000E+00
 -1       149 1.09695E+02 1.94747E+01 0.00000E+00
 -1       150 1.09295E+02 2.08966E+01 0.00000E+00
 -1       151 1.09201E+02 2.22984E+01 0.00000E+00
 -1       152 1.09423E+02 2.38336E+01 0.00000E+00
 -1       153 1.09920E+02 2.51674E+01 0.00000E+00
 -1       154 1.11625E+02 2.73694E+01 0.00000E+00
 -1       155 1.12784E+02 2.81798E+01 0.00000E+00
 -1       156 1.14087E+02 2.87426E+01 0.00000E+00
 -1       157 1.15572E+02 2.90402E+01 0.00000E+00
 -1       158 1.17095E+02 2.90103E+01 0.00000E+00
 -1       159 1.18466E+02 2.86902E+01 0.00000E+00
 -1       160 1.19839E+02 2.80460E+01 0.00000E+00
 -1       161 1.20928E+02 2.72269E+01 0.00000E+00
 -1       162 1.21845E+02 2.62024E+01 0.00000E+00
 -1       163 1.22596E+02 2.49056E+01 0.00000E+00
 -1       164 1.23053E+02 2.34817E+01 0.00000E+00
 -1       165 2.59800E+00 4.55750E+01 0.00000E+00
 -1       166 2.59800E+00 4.26250E+01 0.00000E+00
 -1       167 2.59800E+00 3.96750E+01 0.00000E+00
 -1       168 2.59800E+00 3.67250E+01 0.00000E+00
 -1       169 2.59800E+00 3.38250E+01 0.00000E+00
 -1       170 2.59800E+00 3.08750E+01 0.00000E+00
 -1       171 2.59800E+00 2.79250E+01 0.00000E+00
 -1       172 2.59800E+00 2.49750E+01 0.00000E+00
 -1       173 2.59800E+00 2.20250E+01 0.00000E+00
 -1       174 2.59800E+00 1.90750E+01 0.00000E+00
 -1       175 2.59800E+00 1.61750E+01 0.00000E+00
 -1       176 2.59800E+00 1.32250E+01 0.00000E+00
 -1       177 2.59800E+00 1.02750E+01 0.00000E+00
 -1       178 2.59800E+00 7.32500E+00 0.00000E+00
 -1       179 2.59800E+00 4.37500E+00 0.00000E+00
 -1       180 2.87400E+00 2.18750E+00 0.00000E+00
 -1       181 4.65000E+00 4.74020E+01 0.00000E+00
 -1       182 7.65000E+00 4.74020E+01 0.00000E+00
 -1       183 1.06500E+01 4.74020E+01 0.00000E+00
 -1       184 1.36500E+01 4.74020E+01 0.00000E+00
 -1       185 1.66500E+01 4.74020E+01 0.00000E+00
 -1       186 1.96500E+01 4.74020E+01 0.00000E+00
 -1       187 2.26500E+01 4.74020E+01 0.00000E+00
 -1       188 2.56500E+01 4.74020E+01 0.00000E+00
 -1       189 2.86500E+01 4.74020E+01 0.00000E+00
 -1       190 3.16500E+01 4.74020E+01 0.00000E+00
 -1       191 3.46500E+01 4.74020E+01 0.00000E+00
 -1       192 3.76500E+01 4.74020E+01 0.00000E+00
 -1       193 4.06500E+01 4.74020E+01 0.00000E+00
 -1       194 4.36500E+01 4.74020E+01 0.00000E+00
 -1       195 4.66500E+01 4.74020E+01 0.00000E+00
 -1       196 4.96500E+01 4.74020E+01 0.00000E+00
 -1       197 5.26500E+01 4.74020E+01 0.00000E+00
 -1       198 5.56500E+01 4.74020E+01 0.00000E+00
 -1       199 5.86500E+01 4.74020E+01 0.00000E+00
 -1       200 6.16500E+01 4.74020E+01 0.00000E+00
 -1       201 6.46500E+01 4.74020E+01 0.00000E+00
 -1       202 6.76500E+01 4.74020E+01 0.00000E+00
 -1       203 7.06500E+01 4.74020E+01 0.00000E+00
 -1       204 7.36500E+01 4.74020E+01 0.00000E+00
 -1       205 7.66500E+01 4.74020E+01 0.00000E+00
 -1       206 7.96500E+01 4.74020E+01 0.00000E+00
 -1       207 8.26500E+01 4.74020E+01 0.00000E+00
 -1       208 8.56500E+01 4.74020E+01 0.00000E+00
 -1       209 8.86500E+01 4.74020E+01 0.00000E+00
 -1       210 9.16500E+01 4.74020E+01 0.00000E+00
 -1       211 9.46500E+01 4.74020E+01 0.00000E+00
 -1       212 9.76500E+01 4.74020E+01 0.00000E+00
 -1       213 1.00650E+02 4.74020E+01 0.00000E+00
 -1       214 1.03650E+02 4.74020E+01 0.00000E+00
 -1       215 1.06650E+02 4.74020E+01 0.00000E+00
 -1       216 1.09650E+02 4.74020E+01 0.00000E+00
 -1       217 1.12650E+02 4.74020E+01 0.00000E+00
 -1       218 1.15650E+02 4.74020E+01 0.00000E+00
 -1       219 1.18650E+02 4.74020E+01 0.00000E+00
 -1       220 1.21650E+02 4.74020E+01 0.00000E+00
 -1       221 1.24650E+02 4.74020E+01 0.00000E+00
 -1       222 1.27650E+02 4.74020E+01 0.00000E+00
 -1       223 1.30650E+02 4.74020E+01 0.00000E+00
 -1       224 1.33650E+02 4.74020E+01 0.00000E+00
 -1       225 1.36650E+02 4.74020E+01 0.00000E+00
 -1       226 1.39650E+02 4.74020E+01 0.00000E+00
 -1       227 1.42650E+02 4.74020E+01 0.00000E+00
 -1       228 1.45650E+02 4.74020E+01 0.00000E+00
 -1       229 5.87400E+00 2.18750E+00 0.00000E+00
 -1       230 8.87400E+00 2.18750E+00 0.00000E+00
 -1       231 1.18740E+01 2.18750E+00 0.00000E+00
 -1       232 1.48740E+01 2.18750E+00 0.00000E+00
 -1       233 1.78740E+01 2.18750E+00 0.00000E+00
 -1       234 2.08740E+01 2.18750E+00 0.00000E+00
 -1       235 2.38740E+01 2.18750E+00 0.00000E+00
 -1       236 2.68740E+01 2.18750E+00 0.00000E+00
 -1       237 2.98740E+01 2.18750E+00 0.00000E+00
 -1       238 3.28740E+01 2.18750E+00 0.00000E+00
 -1       239 3.58740E+01 2.18750E+00 0.00000E+00
 -1       240 3.88740E+01 2.18750E+00 0.00000E+00
 -1       241 4.18740E+01 2.18750E+00 0.00000E+00
 -1       242 4.48740E+01 2.18750E+00 0.00000E+00
 -1       243 4.78740E+01 2.18750E+00 0.00000E+00
 -1       244 5.08740E+01 2.18750E+00 0.00000E+00
 -1       245 5.38740E+01 2.18750E+00 0.00000E+00
 -1       246 5.68740E+01 2.18750E+00 0.00000E+00
 -1       247 5.98740E+01 2.18750E+00 0.00000E+00
 -1       248 6.28740E+01 2.18750E+00 0.00000E+00
 -1       249 6.58740E+01 2.18750E+00 0.00000E+00
 -1       250 6.88740E+01 2.18750E+00 0.00000E+00
 -1       251 7.18740E+01 2.18750E+00 0.00000E+00
 -1       252 7.48740E+01 2.18750E+00 0.00000E+00
 -1       253 7.78740E+01 2.18750E+00 0.00000E+00
 -1       254 8.08740E+01 2.18750E+00 0.00000E+00
 -1       255 8.38740E+01 2.18750E+00 0.00000E+00
 -1       256 8.68740E+01 2.18750E+00 0.00000E+00
 -1       257 8.98740E+01 2.18750E+00 0.00000E+00
 -1       258 9.28740E+01 2.18750E+00 0.00000E+00
 -1       259 9.58740E+01 2.18750E+00 0.00000E+00
 -1       260 9.88740E+01 2.18750E+00 0.00000E+00
 -1       261 1.01874E+02 2.18750E+00 0.00000E+00
 -1       262 1.04874E+02 2.18750E+00 0.00000E+00
 -1       263 1.07874E+02 2.18750E+00 0.00000E+00
 -1       264 1.10874E+02 2.18750E+00 0.00000E+00
 -1       265 1.13874E+02 2.18750E+00 0.00000E+00
 -1       266 1.16874E+02 2.18750E+00 0.00000E+00
 -1       267 1.19874E+02 2.18750E+00 0.00000E+00
 -1       268 1.22874E+02 2.18750E+00 0.00000E+00
 -1       269 1.25874E+02 2.18750E+00 0.00000E+00
 -1       270 1.28874E+02 2.18750E+00 0.00000E+00
 -1       271 1.31874E+02 2.18750E+00 0.00000E+00
 -1       272 1.34874E+02 2.18750E+00 0.00000E+00
 -1       273 1.37874E+02 2.18750E+00 0.00000E+00
 -1       274 1.40874E+02 2.18750E+00 0.00000E+00
 -1       275 1.43874E+02 2.18750E+00 0.00000E+00
 -1       276 1.46874E+02 2.18750E+00 0.00000E+00
 -1       277 1.47402E+02 4.42500E+00 0.00000E+00
 -1       278 1.47402E+02 7.37500E+00 0.00000E+00
 -1       279 1.47402E+02 1.03250E+01 0.00000E+00
 -1       280 1.47402E+02 1.32750E+01 0.00000E+00
 -1       281 1.47402E+02 1.61750E+01 0.00000E+00
 -1       282 1.47402E+02 1.91250E+01 0.00000E+00
 -1       283 1.47402E+02 2.20750E+01 0.00000E+00
 -1       284 1.47402E+02 2.50250E+01 0.00000E+00
 -1       285 1.47402E+02 2.79750E+01 0.00000E+00
 -1       286 1.47402E+02 3.09250E+01 0.00000E+00
 -1       287 1.47402E+02 3.38250E+01 0.00000E+00
 -1       288 1.47402E+02 3.67750E+01 0.00000E+00
 -1       289 1.47402E+02 3.97250E+01 0.00000E+00
 -1       290 1.47402E+02 4.26750E+01 0.00000E+00
 -1       291 1.46526E+02 4.50385E+01 0.00000E+00
 -1       292 1.24327E+02 2.12193E+01 0.00000E+00
 -1       293 1.23980E+02 1.95674E+01 0.00000E+00
 -1       294 1.23311E+02 1.80387E+01 0.00000E+00
 -1       295 1.22338E+02 1.66727E+01 0.00000E+00
 -1       296 1.21083E+02 1.55161E+01 0.00000E+00
 -1       297 1.19623E+02 1.42052E+01 0.00000E+00
 -1       298 1.17698E+02 1.40309E+01 0.00000E+00
 -1       299 1.15967E+02 1.37340E+01 0.00000E+00
 -1       300 1.14194E+02 1.41471E+01 0.00000E+00
 -1       301 1.12578E+02 1.47362E+01 0.00000E+00
 -1       302 1.11169E+02 1.56208E+01 0.00000E+00
 -1       303 1.09787E+02 1.67387E+01 0.00000E+00
 -1       304 1.08945E+02 1.82894E+01 0.00000E+00
 -1       305 1.08247E+02 1.98351E+01 0.00000E+00
 -1       306 1.08038E+02 2.15156E+01 0.00000E+00
 -1       307 1.08029E+02 2.32519E+01 0.00000E+00
 -1       308 1.08536E+02 2.49240E+01 0.00000E+00
 -1       309 1.09268E+02 2.64092E+01 0.00000E+00
 -1       310 1.10269E+02 2.77017E+01 0.00000E+00
 -1       311 1.11510E+02 2.87680E+01 0.00000E+00
 -1       312 1.12921E+02 2.96511E+01 0.00000E+00
 -1       313 1.14558E+02 3.02445E+01 0.00000E+00
 -1       314 1.16361E+02 3.04050E+01 0.00000E+00
 -1       315 1.18056E+02 3.00309E+01 0.00000E+00
 -1       316 1.19703E+02 2.95416E+01 0.00000E+00
 -1       317 1.21112E+02 2.86055E+01 0.00000E+00
 -1       318 1.22290E+02 2.75233E+01 0.00000E+00
 -1       319 1.23415E+02 2.62452E+01 0.00000E+00
 -1       320 1.23979E+02 2.45639E+01 0.00000E+00
 -1       321 1.24414E+02 2.29065E+01 0.00000E+00
 -1       322 5.19600E+00 4.11500E+01 0.00000E+00
 -1       323 5.19600E+00 4.41000E+01 0.00000E+00
 -1       324 5.19600E+00 3.52750E+01 0.00000E+00
 -1       325 5.19600E+00 3.23250E+01 0.00000E+00
 -1       326 5.19600E+00 2.93750E+01 0.00000E+00
 -1       327 5.19600E+00 2.64250E+01 0.00000E+00
 -1       328 5.19600E+00 2.34750E+01 0.00000E+00
 -1       329 5.19600E+00 2.05250E+01 0.00000E+00
 -1       330 5.19600E+00 1.76250E+01 0.00000E+00
 -1       331 5.19600E+00 1.46750E+01 0.00000E+00
 -1       332 5.19600E+00 1.17250E+01 0.00000E+00
 -1       333 5.19600E+00 8.77500E+00 0.00000E+00
 -1       334 5.19600E+00 5.82500E+00 0.00000E+00
 -1       335 5.53500E+00 4.00625E+00 0.00000E+00
 -1       336 8.53500E+00 4.00625E+00 0.00000E+00
 -1       337 9.15000E+00 4.48040E+01 0.00000E+00
 -1       338 1.21500E+01 4.48040E+01 0.00000E+00
 -1       339 1.51500E+01 4.48040E+01 0.00000E+00
 -1       340 1.81500E+01 4.48040E+01 0.00000E+00
 -1       341 2.11500E+01 4.48040E+01 0.00000E+00
 -1       342 2.41500E+01 4.48040E+01 0.00000E+00
 -1       343 2.71500E+01 4.48040E+01 0.00000E+00
 -1       344 3.01500E+01 4.48040E+01 0.00000E+00
 -1       345 3.31500E+01 4.48040E+01 0.00000E+00
 -1       346 3.61500E+01 4.48040E+01 0.00000E+00
 -1       347 3.91500E+01 4.48040E+01 0.00000E+00
 -1       348 4.21500E+01 4.48040E+01 0.00000E+00
 -1       349 4.51500E+01 4.48040E+01 0.00000E+00
 -1       350 4.81500E+01 4.48040E+01 0.00000E+00
 -1       351 5.11500E+01 4.48040E+01 0.00000E+00
 -1       352 5.41500E+01 4.48040E+01 0.00000E+00
 -1       353 5.71500E+01 4.48040E+01 0.00000E+00
 -1       354 6.01500E+01 4.48040E+01 0.00000E+00
 -1       355 6.31500E+01 4.48040E+01 0.00000E+00
 -1       356 6.61500E+01 4.48040E+01 0.00000E+00
 -1       357 6.91500E+01 4.48040E+01 0.00000E+00
 -1       358 7.21500E+01 4.48040E+01 0.00000E+00
 -1       359 7.51500E+01 4.48040E+01 0.00000E+00
 -1       360 7.81500E+01 4.48040E+01 0.00000E+00
 -1       361 8.11500E+01 4.48040E+01 0.00000E+00
 -1       362 8.41500E+01 4.48040E+01 0.00000E+00
 -1       363 8.71500E+01 4.48040E+01 0.00000E+00
 -1       364 9.01500E+01 4.48040E+01 0.00000E+00
 -1       365 9.31500E+01 4.48040E+01 0.00000E+00
 -1       366 9.61500E+01 4.48040E+01 0.00000E+00
 -1       367 9.91500E+01 4.48040E+01 0.00000E+00
 -1       368 1.02150E+02 4.48040E+01 0.00000E+00
 -1       369 1.05150E+02 4.48040E+01 0.00000E+00
 -1       370 1.08150E+02 4.48040E+01 0.00000E+00
 -1       371 1.11150E+02 4.48040E+01 0.00000E+00
 -1       372 1.14150E+02 4.48040E+01 0.00000E+00
 -1       373 1.17150E+02 4.48040E+01 0.00000E+00
 -1       374 1.20150E+02 4.48040E+01 0.00000E+00
 -1       375 1.23150E+02 4.48040E+01 0.00000E+00
 -1       376 1.26150E+02 4.48040E+01 0.00000E+00
 -1       377 1.29150E+02 4.48040E+01 0.00000E+00
 -1       378 1.32150E+02 4.48040E+01 0.00000E+00
 -1       379 1.35150E+02 4.48040E+01 0.00000E+00
 -1       380 1.38150E+02 4.48040E+01 0.00000E+00
 -1       381 1.41150E+02 4.48040E+01 0.00000E+00
 -1       382 1.43838E+02 4.49212E+01 0.00000E+00
 -1       383 1.15350E+01 4.00625E+00 0.00000E+00
 -1       384 1.45350E+01 4.00625E+00 0.00000E+00
 -1       385 1.75350E+01 4.00625E+00 0.00000E+00
 -1       386 2.05350E+01 4.00625E+00 0.00000E+00
 -1       387 2.35350E+01 4.00625E+00 0.00000E+00
 -1       388 2.65350E+01 4.00625E+00 0.00000E+00
 -1       389 2.95350E+01 4.00625E+00 0.00000E+00
 -1       390 3.25350E+01 4.00625E+00 0.00000E+00
 -1       391 3.55350E+01 4.00625E+00 0.00000E+00
 -1       392 3.85350E+01 4.00625E+00 0.00000E+00
 -1       393 4.15350E+01 4.00625E+00 0.00000E+00
 -1       394 4.45350E+01 4.00625E+00 0.00000E+00
 -1       395 4.75350E+01 4.00625E+00 0.00000E+00
 -1       396 5.05350E+01 4.00625E+00 0.00000E+00
 -1       397 5.35350E+01 4.00625E+00 0.00000E+00
 -1       398 5.65350E+01 4.00625E+00 0.00000E+00
 -1       399 5.95350E+01 4.00625E+00 0.00000E+00
 -1       400 6.25350E+01 4.00625E+00 0.00000E+00
 -1       401 6.55350E+01 4.00625E+00 0.00000E+00
 -1       402 6.85350E+01 4.00625E+00 0.00000E+00
 -1       403 7.15350E+01 4.00625E+00 0.00000E+00
 -1       404 7.45350E+01 4.00625E+00 0.00000E+00
 -1       405 7.75350E+01 4.00625E+00 0.00000E+00
 -1       406 8.05350E+01 4.00625E+00 0.00000E+00
 -1       407 8.35350E+01 4.00625E+00 0.00000E+00
 -1       408 8.65350E+01 4.00625E+00 0.00000E+00
 -1       409 8.95350E+01 4.00625E+00 0.00000E+00
 -1       410 9.25350E+01 4.00625E+00 0.00000E+00
 -1       411 9.55350E+01 4.00625E+00 0.00000E+00
 -1       412 9.85350E+01 4.00625E+00 0.00000E+00
 -1       413 1.01535E+02 4.00625E+00 0.00000E+00
 -1       414 1.04535E+02 4.00625E+00 0.00000E+00
 -1       415 1.07535E+02 4.00625E+00 0.00000E+00
 -1       416 1.10535E+02 4.00625E+00 0.00000E+00
 -1       417 1.13535E+02 4.00625E+00 0.00000E+00
 -1       418 1.16535E+02 4.00625E+00 0.00000E+00
 -1       419 1.19535E+02 4.00625E+00 0.00000E+00
 -1       420 1.22535E+02 4.00625E+00 0.00000E+00
 -1       421 1.25535E+02 4.00625E+00 0.00000E+00
 -1       422 1.28535E+02 4.00625E+00 0.00000E+00
 -1       423 1.31535E+02 4.00625E+00 0.00000E+00
 -1       424 1.34535E+02 4.00625E+00 0.00000E+00
 -1       425 1.37535E+02 4.00625E+00 0.00000E+00
 -1       426 1.40535E+02 4.00625E+00 0.00000E+00
 -1       427 1.43535E+02 4.00625E+00 0.00000E+00
 -1       428 1.45469E+02 4.21562E+00 0.00000E+00
 -1       429 1.44804E+02 1.18000E+01 0.00000E+00
 -1       430 1.44804E+02 8.85000E+00 0.00000E+00
 -1       431 1.45136E+02 6.53281E+00 0.00000E+00
 -1       432 1.44804E+02 1.47000E+01 0.00000E+00
 -1       433 1.44804E+02 1.76500E+01 0.00000E+00
 -1       434 1.44804E+02 2.06000E+01 0.00000E+00
 -1       435 1.44804E+02 2.35500E+01 0.00000E+00
 -1       436 1.44804E+02 2.65000E+01 0.00000E+00
 -1       437 1.44804E+02 2.94500E+01 0.00000E+00
 -1       438 1.44804E+02 3.23500E+01 0.00000E+00
 -1       439 1.44804E+02 3.53000E+01 0.00000E+00
 -1       440 1.44804E+02 3.82500E+01 0.00000E+00
 -1       441 1.44804E+02 4.12000E+01 0.00000E+00
 -1       442 1.24833E+02 1.82833E+01 0.00000E+00
 -1       443 1.25832E+02 2.19875E+01 0.00000E+00
 -1       444 1.25668E+02 2.00754E+01 0.00000E+00
 -1       445 1.23948E+02 1.65550E+01 0.00000E+00
 -1       446 1.22646E+02 1.50798E+01 0.00000E+00
 -1       447 5.19600E+00 3.82125E+01 0.00000E+00
 -1       448 1.18785E+02 1.27437E+01 0.00000E+00
 -1       449 1.17054E+02 1.24468E+01 0.00000E+00
 -1       450 1.14729E+02 1.24333E+01 0.00000E+00
 -1       451 1.13113E+02 1.30225E+01 0.00000E+00
 -1       452 1.11139E+02 1.40100E+01 0.00000E+00
 -1       453 1.09611E+02 1.51068E+01 0.00000E+00
 -1       454 1.08006E+02 1.67757E+01 0.00000E+00
 -1       455 1.07415E+02 1.85287E+01 0.00000E+00
 -1       456 1.06607E+02 2.04844E+01 0.00000E+00
 -1       457 1.06654E+02 2.23763E+01 0.00000E+00
 -1       458 1.06641E+02 2.45853E+01 0.00000E+00
 -1       459 1.07739E+02 2.62396E+01 0.00000E+00
 -1       460 1.08743E+02 2.78492E+01 0.00000E+00
 -1       461 1.09990E+02 2.92815E+01 0.00000E+00
 -1       462 1.11395E+02 3.05215E+01 0.00000E+00
 -1       463 1.13212E+02 3.14027E+01 0.00000E+00
 -1       464 1.15322E+02 3.18662E+01 0.00000E+00
 -1       465 1.17524E+02 3.16473E+01 0.00000E+00
 -1       466 1.19171E+02 3.11580E+01 0.00000E+00
 -1       467 1.21264E+02 3.03626E+01 0.00000E+00
 -1       468 1.22442E+02 2.92805E+01 0.00000E+00
 -1       469 1.23951E+02 2.78513E+01 0.00000E+00
 -1       470 1.25085E+02 2.58698E+01 0.00000E+00
 -1       471 1.25520E+02 2.42124E+01 0.00000E+00
 -1       472 1.21186E+02 1.37689E+01 0.00000E+00
 -1       473 1.20347E+02 1.23074E+01 0.00000E+00
 -1       474 1.00350E+01 6.60425E+00 0.00000E+00
 -1       475 7.79400E+00 3.08500E+01 0.00000E+00
 -1       476 7.79400E+00 3.38000E+01 0.00000E+00
 -1       477 7.79400E+00 2.49500E+01 0.00000E+00
 -1       478 7.79400E+00 2.20000E+01 0.00000E+00
 -1       479 7.79400E+00 1.91000E+01 0.00000E+00
 -1       480 7.79400E+00 1.61500E+01 0.00000E+00
 -1       481 7.79400E+00 1.32000E+01 0.00000E+00
 -1       482 7.79400E+00 1.02500E+01 0.00000E+00
 -1       483 1.24709E+02 1.45713E+01 0.00000E+00
 -1       484 1.30350E+01 6.60425E+00 0.00000E+00
 -1       485 1.06500E+01 4.22060E+01 0.00000E+00
 -1       486 1.36500E+01 4.22060E+01 0.00000E+00
 -1       487 1.66500E+01 4.22060E+01 0.00000E+00
 -1       488 1.96500E+01 4.22060E+01 0.00000E+00
 -1       489 2.26500E+01 4.22060E+01 0.00000E+00
 -1       490 2.56500E+01 4.22060E+01 0.00000E+00
 -1       491 2.86500E+01 4.22060E+01 0.00000E+00
 -1       492 3.16500E+01 4.22060E+01 0.00000E+00
 -1       493 3.46500E+01 4.22060E+01 0.00000E+00
 -1       494 3.76500E+01 4.22060E+01 0.00000E+00
 -1       495 4.06500E+01 4.22060E+01 0.00000E+00
 -1       496 4.36500E+01 4.22060E+01 0.00000E+00
 -1       497 4.66500E+01 4.22060E+01 0.00000E+00
 -1       498 4.96500E+01 4.22060E+01 0.00000E+00
 -1       499 5.26500E+01 4.22060E+01 0.00000E+00
 -1       500 5.56500E+01 4.22060E+01 0.00000E+00
 -1       501 5.86500E+01 4.22060E+01 0.00000E+00
 -1       502 6.16500E+01 4.22060E+01 0.00000E+00
 -1       503 6.46500E+01 4.22060E+01 0.00000E+00
 -1       504 6.76500E+01 4.22060E+01 0.00000E+00
 -1       505 7.06500E+01 4.22060E+01 0.00000E+00
 -1       506 7.36500E+01 4.22060E+01 0.00000E+00
 -1       507 7.66500E+01 4.22060E+01 0.00000E+00
 -1       508 7.96500E+01 4.22060E+01 0.00000E+00
 -1       509 8.26500E+01 4.22060E+01 0.00000E+00
 -1       510 8.56500E+01 4.22060E+01 0.00000E+00
 -1       511 8.86500E+01 4.22060E+01 0.00000E+00
 -1       512 9.16500E+01 4.22060E+01 0.00000E+00
 -1       513 9.46500E+01 4.22060E+01 0.00000E+00
 -1       514 9.76500E+01 4.22060E+01 0.00000E+00
 -1       515 1.00650E+02 4.22060E+01 0.00000E+00
 -1       516 1.03650E+02 4.22060E+01 0.00000E+00
 -1       517 1.06650E+02 4.22060E+01 0.00000E+00
 -1       518 1.09650E+02 4.22060E+01 0.00000E+00
 -1       519 1.12650E+02 4.22060E+01 0.00000E+00
 -1       520 1.15650E+02 4.22060E+01 0.00000E+00
 -1       521 1.18650E+02 4.22060E+01 0.00000E+00
 -1       522 1.21650E+02 4.22060E+01 0.00000E+00
 -1       523 1.24650E+02 4.22060E+01 0.00000E+00
 -1       524 1.27650E+02 4.22060E+01 0.00000E+00
 -1       525 1.30650E+02 4.22060E+01 0.00000E+00
 -1       526 1.33650E+02 4.22060E+01 0.00000E+00
 -1       527 1.36650E+02 4.22060E+01 0.00000E+00
 -1       528 1.39650E+02 4.22060E+01 0.00000E+00
 -1       529 1.90350E+01 6.60425E+00 0.00000E+00
 -1       530 2.20350E+01 6.60425E+00 0.00000E+00
 -1       531 2.50350E+01 6.60425E+00 0.00000E+00
 -1       532 2.80350E+01 6.60425E+00 0.00000E+00
 -1       533 3.10350E+01 6.60425E+00 0.00000E+00
 -1       534 3.40350E+01 6.60425E+00 0.00000E+00
 -1       535 3.70350E+01 6.60425E+00 0.00000E+00
 -1       536 4.00350E+01 6.60425E+00 0.00000E+00
 -1       537 4.30350E+01 6.60425E+00 0.00000E+00
 -1       538 4.60350E+01 6.60425E+00 0.00000E+00
 -1       539 4.90350E+01 6.60425E+00 0.00000E+00
 -1       540 5.20350E+01 6.60425E+00 0.00000E+00
 -1       541 5.50350E+01 6.60425E+00 0.00000E+00
 -1       542 5.80350E+01 6.60425E+00 0.00000E+00
 -1       543 6.10350E+01 6.60425E+00 0.00000E+00
 -1       544 6.40350E+01 6.60425E+00 0.00000E+00
 -1       545 6.70350E+01 6.60425E+00 0.00000E+00
 -1       546 7.00350E+01 6.60425E+00 0.00000E+00
 -1       547 7.30350E+01 6.60425E+00 0.00000E+00
 -1       548 7.60350E+01 6.60425E+00 0.00000E+00
 -1       549 7.90350E+01 6.60425E+00 0.00000E+00
 -1       550 8.20350E+01 6.60425E+00 0.00000E+00
 -1       551 8.50350E+01 6.60425E+00 0.00000E+00
 -1       552 8.80350E+01 6.60425E+00 0.00000E+00
 -1       553 9.10350E+01 6.60425E+00 0.00000E+00
 -1       554 9.40350E+01 6.60425E+00 0.00000E+00
 -1       555 9.70350E+01 6.60425E+00 0.00000E+00
 -1       556 1.00035E+02 6.60425E+00 0.00000E+00
 -1       557 1.03035E+02 6.60425E+00 0.00000E+00
 -1       558 1.06035E+02 6.60425E+00 0.00000E+00
 -1       559 1.09035E+02 6.60425E+00 0.00000E+00
 -1       560 1.12035E+02 6.60425E+00 0.00000E+00
 -1       561 1.15035E+02 6.60425E+00 0.00000E+00
 -1       562 1.18035E+02 6.60425E+00 0.00000E+00
 -1       563 1.21035E+02 6.60425E+00 0.00000E+00
 -1       564 1.24035E+02 6.60425E+00 0.00000E+00
 -1       565 1.27035E+02 6.60425E+00 0.00000E+00
 -1       566 1.30035E+02 6.60425E+00 0.00000E+00
 -1       567 1.33035E+02 6.60425E+00 0.00000E+00
 -1       568 1.36035E+02 6.60425E+00 0.00000E+00
 -1       569 1.39035E+02 6.60425E+00 0.00000E+00
 -1       570 1.42035E+02 6.60425E+00 0.00000E+00
 -1       571 1.42206E+02 1.61750E+01 0.00000E+00
 -1       572 1.42206E+02 1.91250E+01 0.00000E+00
 -1       573 1.42206E+02 1.03250E+01 0.00000E+00
 -1       574 1.42206E+02 1.32500E+01 0.00000E+00
 -1       575 1.42206E+02 2.20750E+01 0.00000E+00
 -1       576 1.42206E+02 2.50250E+01 0.00000E+00
 -1       577 1.42206E+02 2.79750E+01 0.00000E+00
 -1       578 1.42206E+02 3.08750E+01 0.00000E+00
 -1       579 1.42206E+02 3.38250E+01 0.00000E+00
 -1       580 1.42206E+02 3.67750E+01 0.00000E+00
 -1       581 1.42206E+02 3.97250E+01 0.00000E+00
 -1       582 1.27459E+02 2.08847E+01 0.00000E+00
 -1       583 1.25917E+02 1.66376E+01 0.00000E+00
 -1       584 1.60350E+01 6.60425E+00 0.00000E+00
 -1       585 1.27375E+02 2.33383E+01 0.00000E+00
 -1       586 1.26753E+02 1.84297E+01 0.00000E+00
 -1       587 1.24376E+02 2.98114E+01 0.00000E+00
 -1       588 1.23248E+02 1.32605E+01 0.00000E+00
 -1       589 1.16576E+02 3.32967E+01 0.00000E+00
 -1       590 7.79400E+00 2.79000E+01 0.00000E+00
 -1       591 1.09375E+02 1.31648E+01 0.00000E+00
 -1       592 1.18181E+02 1.10700E+01 0.00000E+00
 -1       593 1.15901E+02 1.08088E+01 0.00000E+00
 -1       594 1.13219E+02 1.08016E+01 0.00000E+00
 -1       595 1.25934E+02 2.76705E+01 0.00000E+00
 -1       596 1.11246E+02 1.17891E+01 0.00000E+00
 -1       597 1.07693E+02 1.48688E+01 0.00000E+00
 -1       598 1.06324E+02 1.71845E+01 0.00000E+00
 -1       599 1.05516E+02 1.91402E+01 0.00000E+00
 -1       600 1.05251E+02 2.14643E+01 0.00000E+00
 -1       601 1.05100E+02 2.34718E+01 0.00000E+00
 -1       602 1.05761E+02 2.63609E+01 0.00000E+00
 -1       603 1.06765E+02 2.79705E+01 0.00000E+00
 -1       604 1.08012E+02 2.94028E+01 0.00000E+00
 -1       605 1.09557E+02 3.11874E+01 0.00000E+00
 -1       606 1.11628E+02 3.23546E+01 0.00000E+00
 -1       607 1.13899E+02 3.33096E+01 0.00000E+00
 -1       608 1.18883E+02 3.32073E+01 0.00000E+00
 -1       609 1.20976E+02 3.24120E+01 0.00000E+00
 -1       610 1.23198E+02 3.08936E+01 0.00000E+00
 -1       611 1.26880E+02 2.54556E+01 0.00000E+00
 -1       612 7.92300E+00 4.16780E+01 0.00000E+00
 -1       613 7.61550E+00 6.21462E+00 0.00000E+00
 -1       614 7.79400E+00 3.67375E+01 0.00000E+00
 -1       615 1.19744E+02 1.06337E+01 0.00000E+00
 -1       616 1.22410E+02 1.17989E+01 0.00000E+00
 -1       617 1.04220E+02 2.52474E+01 0.00000E+00
 -1       618 1.06010E+02 1.52775E+01 0.00000E+00
 -1       619 1.41678E+02 4.22645E+01 0.00000E+00
 -1       620 1.03920E+01 2.05500E+01 0.00000E+00
 -1       621 1.03920E+01 2.35000E+01 0.00000E+00
 -1       622 1.03920E+01 1.46750E+01 0.00000E+00
 -1       623 1.03920E+01 1.17250E+01 0.00000E+00
 -1       624 1.29131E+02 2.21705E+01 0.00000E+00
 -1       625 1.15350E+01 9.20225E+00 0.00000E+00
 -1       626 1.51500E+01 3.96080E+01 0.00000E+00
 -1       627 1.81500E+01 3.96080E+01 0.00000E+00
 -1       628 2.11500E+01 3.96080E+01 0.00000E+00
 -1       629 2.41500E+01 3.96080E+01 0.00000E+00
 -1       630 2.71500E+01 3.96080E+01 0.00000E+00
 -1       631 3.01500E+01 3.96080E+01 0.00000E+00
 -1       632 3.31500E+01 3.96080E+01 0.00000E+00
 -1       633 3.61500E+01 3.96080E+01 0.00000E+00
 -1       634 3.91500E+01 3.96080E+01 0.00000E+00
 -1       635 4.21500E+01 3.96080E+01 0.00000E+00
 -1       636 4.51500E+01 3.96080E+01 0.00000E+00
 -1       637 4.81500E+01 3.96080E+01 0.00000E+00
 -1       638 5.11500E+01 3.96080E+01 0.00000E+00
 -1       639 5.41500E+01 3.96080E+01 0.00000E+00
 -1       640 5.71500E+01 3.96080E+01 0.00000E+00
 -1       641 6.01500E+01 3.96080E+01 0.00000E+00
 -1       642 6.31500E+01 3.96080E+01 0.00000E+00
 -1       643 6.61500E+01 3.96080E+01 0.00000E+00
 -1       644 6.91500E+01 3.96080E+01 0.00000E+00
 -1       645 7.21500E+01 3.96080E+01 0.00000E+00
 -1       646 7.51500E+01 3.96080E+01 0.00000E+00
 -1       647 7.81500E+01 3.96080E+01 0.00000E+00
 -1       648 8.11500E+01 3.96080E+01 0.00000E+00
 -1       649 8.41500E+01 3.96080E+01 0.00000E+00
 -1       650 8.71500E+01 3.96080E+01 0.00000E+00
 -1       651 9.01500E+01 3.96080E+01 0.00000E+00
 -1       652 9.31500E+01 3.96080E+01 0.00000E+00
 -1       653 9.61500E+01 3.96080E+01 0.00000E+00
 -1       654 9.91500E+01 3.96080E+01 0.00000E+00
 -1       655 1.02150E+02 3.96080E+01 0.00000E+00
 -1       656 1.05150E+02 3.96080E+01 0.00000E+00
 -1       657 1.08150E+02 3.96080E+01 0.00000E+00
 -1       658 1.11150E+02 3.96080E+01 0.00000E+00
 -1       659 1.14150E+02 3.96080E+01 0.00000E+00
 -1       660 1.17150E+02 3.96080E+01 0.00000E+00
 -1       661 1.20150E+02 3.96080E+01 0.00000E+00
 -1       662 1.23150E+02 3.96080E+01 0.00000E+00
 -1       663 1.26150E+02 3.96080E+01 0.00000E+00
 -1       664 1.29150E+02 3.96080E+01 0.00000E+00
 -1       665 1.32150E+02 3.96080E+01 0.00000E+00
 -1       666 1.35150E+02 3.96080E+01 0.00000E+00
 -1       667 1.38150E+02 3.96080E+01 0.00000E+00
 -1       668 2.35350E+01 9.20225E+00 0.00000E+00
 -1       669 1.39206E+02 1.03250E+01 0.00000E+00
 -1       670 1.28798E+02 2.47871E+01 0.00000E+00
 -1       671 2.05350E+01 9.20225E+00 0.00000E+00
 -1       672 2.95350E+01 9.20225E+00 0.00000E+00
 -1       673 3.25350E+01 9.20225E+00 0.00000E+00
 -1       674 3.55350E+01 9.20225E+00 0.00000E+00
 -1       675 3.85350E+01 9.20225E+00 0.00000E+00
 -1       676 4.15350E+01 9.20225E+00 0.00000E+00
 -1       677 4.45350E+01 9.20225E+00 0.00000E+00
 -1       678 4.75350E+01 9.20225E+00 0.00000E+00
 -1       679 5.05350E+01 9.20225E+00 0.00000E+00
 -1       680 5.35350E+01 9.20225E+00 0.00000E+00
 -1       681 5.65350E+01 9.20225E+00 0.00000E+00
 -1       682 5.95350E+01 9.20225E+00 0.00000E+00
 -1       683 6.25350E+01 9.20225E+00 0.00000E+00
 -1       684 6.55350E+01 9.20225E+00 0.00000E+00
 -1       685 6.85350E+01 9.20225E+00 0.00000E+00
 -1       686 7.15350E+01 9.20225E+00 0.00000E+00
 -1       687 7.45350E+01 9.20225E+00 0.00000E+00
 -1       688 7.75350E+01 9.20225E+00 0.00000E+00
 -1       689 8.05350E+01 9.20225E+00 0.00000E+00
 -1       690 8.35350E+01 9.20225E+00 0.00000E+00
 -1       691 8.65350E+01 9.20225E+00 0.00000E+00
 -1       692 8.95350E+01 9.20225E+00 0.00000E+00
 -1       693 9.25350E+01 9.20225E+00 0.00000E+00
 -1       694 9.55350E+01 9.20225E+00 0.00000E+00
 -1       695 9.85350E+01 9.20225E+00 0.00000E+00
 -1       696 1.01535E+02 9.20225E+00 0.00000E+00
 -1       697 1.04535E+02 9.20225E+00 0.00000E+00
 -1       698 1.07535E+02 9.20225E+00 0.00000E+00
 -1       699 1.25535E+02 9.20225E+00 0.00000E+00
 -1       700 1.28535E+02 9.20225E+00 0.00000E+00
 -1       701 1.31535E+02 9.20225E+00 0.00000E+00
 -1       702 1.34535E+02 9.20225E+00 0.00000E+00
 -1       703 1.36870E+02 9.76363E+00 0.00000E+00
 -1       704 1.39608E+02 2.35500E+01 0.00000E+00
 -1       705 1.40178E+02 3.96665E+01 0.00000E+00
 -1       706 1.39608E+02 1.76500E+01 0.00000E+00
 -1       707 1.39608E+02 2.65000E+01 0.00000E+00
 -1       708 1.39608E+02 2.06000E+01 0.00000E+00
 -1       709 1.15245E+02 3.48507E+01 0.00000E+00
 -1       710 1.39608E+02 2.94000E+01 0.00000E+00
 -1       711 1.39608E+02 3.23500E+01 0.00000E+00
 -1       712 1.39608E+02 3.53000E+01 0.00000E+00
 -1       713 1.28193E+02 1.66677E+01 0.00000E+00
 -1       714 1.05842E+02 3.00326E+01 0.00000E+00
 -1       715 1.28915E+02 1.91365E+01 0.00000E+00
 -1       716 1.27984E+02 2.72368E+01 0.00000E+00
 -1       717 1.25348E+02 1.23902E+01 0.00000E+00
 -1       718 1.07075E+02 1.25763E+01 0.00000E+00
 -1       719 1.12099E+02 3.44131E+01 0.00000E+00
 -1       720 1.75350E+01 9.20225E+00 0.00000E+00
 -1       721 2.65350E+01 9.20225E+00 0.00000E+00
 -1       722 1.21500E+01 3.96080E+01 0.00000E+00
 -1       723 1.26677E+02 2.98490E+01 0.00000E+00
 -1       724 1.03920E+01 1.76125E+01 0.00000E+00
 -1       725 1.26984E+02 1.46014E+01 0.00000E+00
 -1       726 1.23150E+02 3.32070E+01 0.00000E+00
 -1       727 1.03920E+01 3.23250E+01 0.00000E+00
 -1       728 1.17809E+02 3.53007E+01 0.00000E+00
 -1       729 1.03549E+02 2.23456E+01 0.00000E+00
 -1       730 1.04412E+02 1.75394E+01 0.00000E+00
 -1       731 1.09669E+02 3.34112E+01 0.00000E+00
 -1       732 1.03679E+02 2.01081E+01 0.00000E+00
 -1       733 1.04837E+02 2.84230E+01 0.00000E+00
 -1       734 1.45350E+01 9.20225E+00 0.00000E+00
 -1       735 1.07387E+02 3.18172E+01 0.00000E+00
 -1       736 1.20718E+02 3.48829E+01 0.00000E+00
 -1       737 1.24913E+02 3.15280E+01 0.00000E+00
 -1       738 1.08945E+02 1.12006E+01 0.00000E+00
 -1       739 1.10140E+02 9.19669E+00 0.00000E+00
 -1       740 1.03920E+01 3.52625E+01 0.00000E+00
 -1       741 1.03920E+01 2.64500E+01 0.00000E+00
 -1       742 1.21806E+02 1.01252E+01 0.00000E+00
 -1       743 1.02669E+02 2.41213E+01 0.00000E+00
 -1       744 1.39608E+02 1.47250E+01 0.00000E+00
 -1       745 1.13445E+02 3.59542E+01 0.00000E+00
 -1       746 1.03296E+02 2.73095E+01 0.00000E+00
 -1       747 1.03920E+01 2.93875E+01 0.00000E+00
 -1       748 1.05210E+01 3.87342E+01 0.00000E+00
 -1       749 1.04098E+02 1.56325E+01 0.00000E+00
 -1       750 1.38879E+02 3.74540E+01 0.00000E+00
 -1       751 1.29900E+01 1.32000E+01 0.00000E+00
 -1       752 1.03458E+02 3.04020E+01 0.00000E+00
 -1       753 1.29648E+02 1.44299E+01 0.00000E+00
 -1       754 1.96500E+01 3.70100E+01 0.00000E+00
 -1       755 2.26500E+01 3.70100E+01 0.00000E+00
 -1       756 2.56500E+01 3.70100E+01 0.00000E+00
 -1       757 2.86500E+01 3.70100E+01 0.00000E+00
 -1       758 3.16500E+01 3.70100E+01 0.00000E+00
 -1       759 3.46500E+01 3.70100E+01 0.00000E+00
 -1       760 3.76500E+01 3.70100E+01 0.00000E+00
 -1       761 4.06500E+01 3.70100E+01 0.00000E+00
 -1       762 4.36500E+01 3.70100E+01 0.00000E+00
 -1       763 4.66500E+01 3.70100E+01 0.00000E+00
 -1       764 4.96500E+01 3.70100E+01 0.00000E+00
 -1       765 5.26500E+01 3.70100E+01 0.00000E+00
 -1       766 5.56500E+01 3.70100E+01 0.00000E+00
 -1       767 5.86500E+01 3.70100E+01 0.00000E+00
 -1       768 6.16500E+01 3.70100E+01 0.00000E+00
 -1       769 6.46500E+01 3.70100E+01 0.00000E+00
 -1       770 6.76500E+01 3.70100E+01 0.00000E+00
 -1       771 7.06500E+01 3.70100E+01 0.00000E+00
 -1       772 7.36500E+01 3.70100E+01 0.00000E+00
 -1       773 7.66500E+01 3.70100E+01 0.00000E+00
 -1       774 7.96500E+01 3.70100E+01 0.00000E+00
 -1       775 8.26500E+01 3.70100E+01 0.00000E+00
 -1       776 8.56500E+01 3.70100E+01 0.00000E+00
 -1       777 8.86500E+01 3.70100E+01 0.00000E+00
 -1       778 9.16500E+01 3.70100E+01 0.00000E+00
 -1       779 9.46500E+01 3.70100E+01 0.00000E+00
 -1       780 9.76500E+01 3.70100E+01 0.00000E+00
 -1       781 1.00650E+02 3.70100E+01 0.00000E+00
 -1       782 1.03650E+02 3.70100E+01 0.00000E+00
 -1       783 1.06650E+02 3.70100E+01 0.00000E+00
 -1       784 1.09650E+02 3.70100E+01 0.00000E+00
 -1       785 1.18650E+02 3.70550E+01 0.00000E+00
 -1       786 1.27650E+02 3.70100E+01 0.00000E+00
 -1       787 1.30650E+02 3.70100E+01 0.00000E+00
 -1       788 1.33650E+02 3.70100E+01 0.00000E+00
 -1       789 1.36264E+02 3.72320E+01 0.00000E+00
 -1       790 1.07258E+02 3.44321E+01 0.00000E+00
 -1       791 1.30901E+02 2.05198E+01 0.00000E+00
 -1       792 3.40350E+01 1.18003E+01 0.00000E+00
 -1       793 3.10350E+01 1.18003E+01 0.00000E+00
 -1       794 4.00350E+01 1.18003E+01 0.00000E+00
 -1       795 4.30350E+01 1.18003E+01 0.00000E+00
 -1       796 4.60350E+01 1.18003E+01 0.00000E+00
 -1       797 4.90350E+01 1.18003E+01 0.00000E+00
 -1       798 5.20350E+01 1.18003E+01 0.00000E+00
 -1       799 5.50350E+01 1.18003E+01 0.00000E+00
 -1       800 5.80350E+01 1.18003E+01 0.00000E+00
 -1       801 6.10350E+01 1.18003E+01 0.00000E+00
 -1       802 6.40350E+01 1.18003E+01 0.00000E+00
 -1       803 6.70350E+01 1.18003E+01 0.00000E+00
 -1       804 7.00350E+01 1.18003E+01 0.00000E+00
 -1       805 7.30350E+01 1.18003E+01 0.00000E+00
 -1       806 7.60350E+01 1.18003E+01 0.00000E+00
 -1       807 7.90350E+01 1.18003E+01 0.00000E+00
 -1       808 8.20350E+01 1.18003E+01 0.00000E+00
 -1       809 8.50350E+01 1.18003E+01 0.00000E+00
 -1       810 8.80350E+01 1.18003E+01 0.00000E+00
 -1       811 9.10350E+01 1.18003E+01 0.00000E+00
 -1       812 9.40350E+01 1.18003E+01 0.00000E+00
 -1       813 9.70350E+01 1.18003E+01 0.00000E+00
 -1       814 1.00035E+02 1.18003E+01 0.00000E+00
 -1       815 1.03035E+02 1.18003E+01 0.00000E+00
 -1       816 1.27035E+02 1.18003E+01 0.00000E+00
 -1       817 1.29900E+01 2.20250E+01 0.00000E+00
 -1       818 1.05004E+02 3.21865E+01 0.00000E+00
 -1       819 1.37010E+02 2.50250E+01 0.00000E+00
 -1       820 1.37010E+02 3.38250E+01 0.00000E+00
 -1       821 1.37010E+02 2.79250E+01 0.00000E+00
 -1       822 1.16230E+02 3.67650E+01 0.00000E+00
 -1       823 1.37010E+02 3.08750E+01 0.00000E+00
 -1       824 1.33035E+02 1.18003E+01 0.00000E+00
 -1       825 1.30035E+02 1.18003E+01 0.00000E+00
 -1       826 1.02074E+02 1.82614E+01 0.00000E+00
 -1       827 3.70350E+01 1.18003E+01 0.00000E+00
 -1       828 2.20350E+01 1.18003E+01 0.00000E+00
 -1       829 1.30998E+02 2.37379E+01 0.00000E+00
 -1       830 1.90350E+01 1.18003E+01 0.00000E+00
 -1       831 1.29164E+02 2.94605E+01 0.00000E+00
 -1       832 1.37625E+01 1.12011E+01 0.00000E+00
 -1       833 1.30844E+02 1.72328E+01 0.00000E+00
 -1       834 1.30019E+02 2.65523E+01 0.00000E+00
 -1       835 1.04479E+02 1.31135E+01 0.00000E+00
 -1       836 1.27710E+01 3.74352E+01 0.00000E+00
 -1       837 1.66500E+01 3.70100E+01 0.00000E+00
 -1       838 1.01567E+02 2.11074E+01 0.00000E+00
 -1       839 1.24650E+02 3.64075E+01 0.00000E+00
 -1       840 1.29900E+01 2.49750E+01 0.00000E+00
 -1       841 1.28237E+02 3.16804E+01 0.00000E+00
 -1       842 1.37010E+02 2.20750E+01 0.00000E+00
 -1       843 1.01745E+02 2.61833E+01 0.00000E+00
 -1       844 1.37010E+02 1.61875E+01 0.00000E+00
 -1       845 2.50350E+01 1.18003E+01 0.00000E+00
 -1       846 2.80350E+01 1.18003E+01 0.00000E+00
 -1       847 1.29900E+01 3.37938E+01 0.00000E+00
 -1       848 1.00687E+02 2.28830E+01 0.00000E+00
 -1       849 1.29900E+01 1.90875E+01 0.00000E+00
 -1       850 1.35370E+02 1.23616E+01 0.00000E+00
 -1       851 1.37010E+02 1.91313E+01 0.00000E+00
 -1       852 1.29900E+01 1.61375E+01 0.00000E+00
 -1       853 1.01760E+02 1.63544E+01 0.00000E+00
 -1       854 1.01917E+02 2.92885E+01 0.00000E+00
 -1       855 1.36940E+02 1.29756E+01 0.00000E+00
 -1       856 1.29900E+01 3.08563E+01 0.00000E+00
 -1       857 1.26282E+02 3.42690E+01 0.00000E+00
 -1       858 1.63988E+01 1.15007E+01 0.00000E+00
 -1       859 1.36637E+02 3.55285E+01 0.00000E+00
 -1       860 1.30902E+02 3.14898E+01 0.00000E+00
 -1       861 9.96371E+01 1.92956E+01 0.00000E+00
 -1       862 2.41500E+01 3.44120E+01 0.00000E+00
 -1       863 2.71500E+01 3.44120E+01 0.00000E+00
 -1       864 3.01500E+01 3.44120E+01 0.00000E+00
 -1       865 3.31500E+01 3.44120E+01 0.00000E+00
 -1       866 3.61500E+01 3.44120E+01 0.00000E+00
 -1       867 3.91500E+01 3.44120E+01 0.00000E+00
 -1       868 4.21500E+01 3.44120E+01 0.00000E+00
 -1       869 4.51500E+01 3.44120E+01 0.00000E+00
 -1       870 4.81500E+01 3.44120E+01 0.00000E+00
 -1       871 5.11500E+01 3.44120E+01 0.00000E+00
 -1       872 5.41500E+01 3.44120E+01 0.00000E+00
 -1       873 5.71500E+01 3.44120E+01 0.00000E+00
 -1       874 6.01500E+01 3.44120E+01 0.00000E+00
 -1       875 6.31500E+01 3.44120E+01 0.00000E+00
 -1       876 6.61500E+01 3.44120E+01 0.00000E+00
 -1       877 6.91500E+01 3.44120E+01 0.00000E+00
 -1       878 7.21500E+01 3.44120E+01 0.00000E+00
 -1       879 7.51500E+01 3.44120E+01 0.00000E+00
 -1       880 7.81500E+01 3.44120E+01 0.00000E+00
 -1       881 8.11500E+01 3.44120E+01 0.00000E+00
 -1       882 8.41500E+01 3.44120E+01 0.00000E+00
 -1       883 8.71500E+01 3.44120E+01 0.00000E+00
 -1       884 9.01500E+01 3.44120E+01 0.00000E+00
 -1       885 9.31500E+01 3.44120E+01 0.00000E+00
 -1       886 9.61500E+01 3.44120E+01 0.00000E+00
 -1       887 9.91500E+01 3.44120E+01 0.00000E+00
 -1       888 1.02150E+02 3.44120E+01 0.00000E+00
 -1       889 1.32150E+02 3.44120E+01 0.00000E+00
 -1       890 1.44274E+01 3.46401E+01 0.00000E+00
 -1       891 4.45350E+01 1.43982E+01 0.00000E+00
 -1       892 4.15350E+01 1.43982E+01 0.00000E+00
 -1       893 5.05350E+01 1.43982E+01 0.00000E+00
 -1       894 5.35350E+01 1.43982E+01 0.00000E+00
 -1       895 5.65350E+01 1.43982E+01 0.00000E+00
 -1       896 5.95350E+01 1.43982E+01 0.00000E+00
 -1       897 6.25350E+01 1.43982E+01 0.00000E+00
 -1       898 6.55350E+01 1.43982E+01 0.00000E+00
 -1       899 6.85350E+01 1.43982E+01 0.00000E+00
 -1       900 7.15350E+01 1.43982E+01 0.00000E+00
 -1       901 7.45350E+01 1.43982E+01 0.00000E+00
 -1       902 7.75350E+01 1.43982E+01 0.00000E+00
 -1       903 8.05350E+01 1.43982E+01 0.00000E+00
 -1       904 8.35350E+01 1.43982E+01 0.00000E+00
 -1       905 8.65350E+01 1.43982E+01 0.00000E+00
 -1       906 8.95350E+01 1.43982E+01 0.00000E+00
 -1       907 9.25350E+01 1.43982E+01 0.00000E+00
 -1       908 9.55350E+01 1.43982E+01 0.00000E+00
 -1       909 9.85350E+01 1.43982E+01 0.00000E+00
 -1       910 1.33425E+02 1.88319E+01 0.00000E+00
 -1       911 1.02428E+02 3.28559E+01 0.00000E+00
 -1       912 1.04539E+02 3.49329E+01 0.00000E+00
 -1       913 1.32440E+02 1.48952E+01 0.00000E+00
 -1       914 1.34412E+02 2.64750E+01 0.00000E+00
 -1       915 2.05350E+01 1.43982E+01 0.00000E+00
 -1       916 4.75350E+01 1.43982E+01 0.00000E+00
 -1       917 3.25350E+01 1.43982E+01 0.00000E+00
 -1       918 1.33522E+02 2.20500E+01 0.00000E+00
 -1       919 1.29216E+02 3.43405E+01 0.00000E+00
 -1       920 1.29900E+01 2.79188E+01 0.00000E+00
 -1       921 1.81500E+01 3.44120E+01 0.00000E+00
 -1       922 2.11500E+01 3.44120E+01 0.00000E+00
 -1       923 1.31756E+02 2.85816E+01 0.00000E+00
 -1       924 1.32287E+02 2.57638E+01 0.00000E+00
 -1       925 9.93236E+01 1.73886E+01 0.00000E+00
 -1       926 1.00366E+02 2.81623E+01 0.00000E+00
 -1       927 1.55880E+01 1.46687E+01 0.00000E+00
 -1       928 2.35350E+01 1.43982E+01 0.00000E+00
 -1       929 9.97637E+01 2.49451E+01 0.00000E+00
 -1       930 1.34394E+02 3.49702E+01 0.00000E+00
 -1       931 2.95350E+01 1.43982E+01 0.00000E+00
 -1       932 3.85350E+01 1.43982E+01 0.00000E+00
 -1       933 1.00887E+02 3.17423E+01 0.00000E+00
 -1       934 1.78988E+01 1.40987E+01 0.00000E+00
 -1       935 9.87571E+01 2.10712E+01 0.00000E+00
 -1       936 3.55350E+01 1.43982E+01 0.00000E+00
 -1       937 1.55880E+01 2.35000E+01 0.00000E+00
 -1       938 1.55880E+01 2.05625E+01 0.00000E+00
 -1       939 1.34394E+02 3.20202E+01 0.00000E+00
 -1       940 1.44274E+01 3.17026E+01 0.00000E+00
 -1       941 1.55880E+01 1.76156E+01 0.00000E+00
 -1       942 2.86500E+01 3.18140E+01 0.00000E+00
 -1       943 3.16500E+01 3.18140E+01 0.00000E+00
 -1       944 3.46500E+01 3.18140E+01 0.00000E+00
 -1       945 3.76500E+01 3.18140E+01 0.00000E+00
 -1       946 4.06500E+01 3.18140E+01 0.00000E+00
 -1       947 4.36500E+01 3.18140E+01 0.00000E+00
 -1       948 4.66500E+01 3.18140E+01 0.00000E+00
 -1       949 4.96500E+01 3.18140E+01 0.00000E+00
 -1       950 5.26500E+01 3.18140E+01 0.00000E+00
 -1       951 5.56500E+01 3.18140E+01 0.00000E+00
 -1       952 5.86500E+01 3.18140E+01 0.00000E+00
 -1       953 6.16500E+01 3.18140E+01 0.00000E+00
 -1       954 6.46500E+01 3.18140E+01 0.00000E+00
 -1       955 6.76500E+01 3.18140E+01 0.00000E+00
 -1       956 7.06500E+01 3.18140E+01 0.00000E+00
 -1       957 7.36500E+01 3.18140E+01 0.00000E+00
 -1       958 7.66500E+01 3.18140E+01 0.00000E+00
 -1       959 7.96500E+01 3.18140E+01 0.00000E+00
 -1       960 8.26500E+01 3.18140E+01 0.00000E+00
 -1       961 8.56500E+01 3.18140E+01 0.00000E+00
 -1       962 8.86500E+01 3.18140E+01 0.00000E+00
 -1       963 9.16500E+01 3.18140E+01 0.00000E+00
 -1       964 9.46500E+01 3.18140E+01 0.00000E+00
 -1       965 9.76500E+01 3.18140E+01 0.00000E+00
 -1       966 1.96500E+01 3.18140E+01 0.00000E+00
 -1       967 5.50350E+01 1.69963E+01 0.00000E+00
 -1       968 5.20350E+01 1.69963E+01 0.00000E+00
 -1       969 6.10350E+01 1.69963E+01 0.00000E+00
 -1       970 6.40350E+01 1.69963E+01 0.00000E+00
 -1       971 6.70350E+01 1.69963E+01 0.00000E+00
 -1       972 7.00350E+01 1.69963E+01 0.00000E+00
 -1       973 7.30350E+01 1.69963E+01 0.00000E+00
 -1       974 7.60350E+01 1.69963E+01 0.00000E+00
 -1       975 7.90350E+01 1.69963E+01 0.00000E+00
 -1       976 8.20350E+01 1.69963E+01 0.00000E+00
 -1       977 8.50350E+01 1.69963E+01 0.00000E+00
 -1       978 8.80350E+01 1.69963E+01 0.00000E+00
 -1       979 9.10350E+01 1.69963E+01 0.00000E+00
 -1       980 9.40350E+01 1.69963E+01 0.00000E+00
 -1       981 4.30350E+01 1.69963E+01 0.00000E+00
 -1       982 1.34445E+02 2.94686E+01 0.00000E+00
 -1       983 2.65350E+01 1.43982E+01 0.00000E+00
 -1       984 1.55880E+01 2.64438E+01 0.00000E+00
 -1       985 2.26500E+01 3.18140E+01 0.00000E+00
 -1       986 5.80350E+01 1.69963E+01 0.00000E+00
 -1       987 2.56500E+01 3.18140E+01 0.00000E+00
 -1       988 1.55880E+01 2.93813E+01 0.00000E+00
 -1       989 1.78988E+01 1.70456E+01 0.00000E+00
 -1       990 2.20350E+01 1.69963E+01 0.00000E+00
 -1       991 3.10350E+01 1.69963E+01 0.00000E+00
 -1       992 4.00350E+01 1.69963E+01 0.00000E+00
 -1       993 4.90350E+01 1.69963E+01 0.00000E+00
 -1       994 9.70350E+01 1.69963E+01 0.00000E+00
 -1       995 9.78337E+01 2.31332E+01 0.00000E+00
 -1       996 4.60350E+01 1.69963E+01 0.00000E+00
 -1       997 3.40350E+01 1.69963E+01 0.00000E+00
 -1       998 1.81860E+01 2.49719E+01 0.00000E+00
 -1       999 9.90080E+01 2.99882E+01 0.00000E+00
 -1      1000 9.73485E+01 1.89032E+01 0.00000E+00
 -1      1001 1.81860E+01 2.20344E+01 0.00000E+00
 -1      1002 2.50350E+01 1.69963E+01 0.00000E+00
 -1      1003 1.81860E+01 2.79094E+01 0.00000E+00
 -1      1004 9.75112E+01 2.70317E+01 0.00000E+00
 -1      1005 3.31500E+01 2.92160E+01 0.00000E+00
 -1      1006 3.61500E+01 2.92160E+01 0.00000E+00
 -1      1007 3.91500E+01 2.92160E+01 0.00000E+00
 -1      1008 4.21500E+01 2.92160E+01 0.00000E+00
 -1      1009 4.51500E+01 2.92160E+01 0.00000E+00
 -1      1010 4.81500E+01 2.92160E+01 0.00000E+00
 -1      1011 5.11500E+01 2.92160E+01 0.00000E+00
 -1      1012 5.41500E+01 2.92160E+01 0.00000E+00
 -1      1013 5.71500E+01 2.92160E+01 0.00000E+00
 -1      1014 6.01500E+01 2.92160E+01 0.00000E+00
 -1      1015 6.31500E+01 2.92160E+01 0.00000E+00
 -1      1016 6.61500E+01 2.92160E+01 0.00000E+00
 -1      1017 6.91500E+01 2.92160E+01 0.00000E+00
 -1      1018 7.21500E+01 2.92160E+01 0.00000E+00
 -1      1019 7.51500E+01 2.92160E+01 0.00000E+00
 -1      1020 7.81500E+01 2.92160E+01 0.00000E+00
 -1      1021 8.11500E+01 2.92160E+01 0.00000E+00
 -1      1022 8.41500E+01 2.92160E+01 0.00000E+00
 -1      1023 8.71500E+01 2.92160E+01 0.00000E+00
 -1      1024 9.01500E+01 2.92160E+01 0.00000E+00
 -1      1025 9.31500E+01 2.92160E+01 0.00000E+00
 -1      1026 9.60790E+01 2.96021E+01 0.00000E+00
 -1      1027 6.85350E+01 1.95942E+01 0.00000E+00
 -1      1028 5.35350E+01 1.95942E+01 0.00000E+00
 -1      1029 9.43485E+01 1.89032E+01 0.00000E+00
 -1      1030 6.55350E+01 1.95942E+01 0.00000E+00
 -1      1031 6.25350E+01 1.95942E+01 0.00000E+00
 -1      1032 7.15350E+01 1.95942E+01 0.00000E+00
 -1      1033 7.45350E+01 1.95942E+01 0.00000E+00
 -1      1034 7.75350E+01 1.95942E+01 0.00000E+00
 -1      1035 8.05350E+01 1.95942E+01 0.00000E+00
 -1      1036 8.35350E+01 1.95942E+01 0.00000E+00
 -1      1037 8.65350E+01 1.95942E+01 0.00000E+00
 -1      1038 8.95350E+01 1.95942E+01 0.00000E+00
 -1      1039 9.19417E+01 1.92487E+01 0.00000E+00
 -1      1040 2.80350E+01 1.69963E+01 0.00000E+00
 -1      1041 5.65350E+01 1.95942E+01 0.00000E+00
 -1      1042 3.70350E+01 1.69963E+01 0.00000E+00
 -1      1043 1.80424E+01 1.95400E+01 0.00000E+00
 -1      1044 5.95350E+01 1.95942E+01 0.00000E+00
 -1      1045 3.01500E+01 2.92160E+01 0.00000E+00
 -1      1046 2.11500E+01 2.92160E+01 0.00000E+00
 -1      1047 9.57571E+01 2.10712E+01 0.00000E+00
 -1      1048 2.07840E+01 2.64406E+01 0.00000E+00
 -1      1049 5.05350E+01 1.95942E+01 0.00000E+00
 -1      1050 4.15350E+01 1.95942E+01 0.00000E+00
 -1      1051 2.95350E+01 1.95942E+01 0.00000E+00
 -1      1052 2.07840E+01 2.35031E+01 0.00000E+00
 -1      1053 2.14346E+01 2.04592E+01 0.00000E+00
 -1      1054 2.44346E+01 2.04592E+01 0.00000E+00
 -1      1055 4.45350E+01 1.95942E+01 0.00000E+00
 -1      1056 3.25350E+01 1.95942E+01 0.00000E+00
 -1      1057 2.71500E+01 2.92160E+01 0.00000E+00
 -1      1058 2.41500E+01 2.92160E+01 0.00000E+00
 -1      1059 5.80350E+01 2.21922E+01 0.00000E+00
 -1      1060 3.76500E+01 2.66180E+01 0.00000E+00
 -1      1061 4.06500E+01 2.66180E+01 0.00000E+00
 -1      1062 4.36500E+01 2.66180E+01 0.00000E+00
 -1      1063 4.66500E+01 2.66180E+01 0.00000E+00
 -1      1064 4.96500E+01 2.66180E+01 0.00000E+00
 -1      1065 5.26500E+01 2.66180E+01 0.00000E+00
 -1      1066 5.56500E+01 2.66180E+01 0.00000E+00
 -1      1067 5.86500E+01 2.66180E+01 0.00000E+00
 -1      1068 6.16500E+01 2.66180E+01 0.00000E+00
 -1      1069 6.46500E+01 2.66180E+01 0.00000E+00
 -1      1070 6.76500E+01 2.66180E+01 0.00000E+00
 -1      1071 7.06500E+01 2.66180E+01 0.00000E+00
 -1      1072 7.36500E+01 2.66180E+01 0.00000E+00
 -1      1073 7.66500E+01 2.66180E+01 0.00000E+00
 -1      1074 7.96500E+01 2.66180E+01 0.00000E+00
 -1      1075 8.26500E+01 2.66180E+01 0.00000E+00
 -1      1076 8.56500E+01 2.66180E+01 0.00000E+00
 -1      1077 8.86500E+01 2.66180E+01 0.00000E+00
 -1      1078 9.16500E+01 2.66180E+01 0.00000E+00
 -1      1079 6.10350E+01 2.21922E+01 0.00000E+00
 -1      1080 6.70350E+01 2.21922E+01 0.00000E+00
 -1      1081 6.40350E+01 2.21922E+01 0.00000E+00
 -1      1082 7.60350E+01 2.21922E+01 0.00000E+00
 -1      1083 7.90350E+01 2.21922E+01 0.00000E+00
 -1      1084 8.20350E+01 2.21922E+01 0.00000E+00
 -1      1085 8.50350E+01 2.21922E+01 0.00000E+00
 -1      1086 8.80350E+01 2.21922E+01 0.00000E+00
 -1      1087 3.16500E+01 2.66180E+01 0.00000E+00
 -1      1088 7.30350E+01 2.21922E+01 0.00000E+00
 -1      1089 4.75350E+01 1.95942E+01 0.00000E+00
 -1      1090 7.00350E+01 2.21922E+01 0.00000E+00
 -1      1091 2.69848E+01 2.00267E+01 0.00000E+00
 -1      1092 5.50350E+01 2.21922E+01 0.00000E+00
 -1      1093 3.85350E+01 1.95942E+01 0.00000E+00
 -1      1094 3.46500E+01 2.66180E+01 0.00000E+00
 -1      1095 9.49648E+01 2.39457E+01 0.00000E+00
 -1      1096 9.33503E+01 2.14167E+01 0.00000E+00
 -1      1097 2.37840E+01 2.64406E+01 0.00000E+00
 -1      1098 5.20350E+01 2.21922E+01 0.00000E+00
 -1      1099 9.46499E+01 2.66180E+01 0.00000E+00
 -1      1100 2.86500E+01 2.66180E+01 0.00000E+00
 -1      1101 9.04417E+01 2.18467E+01 0.00000E+00
 -1      1102 3.55350E+01 1.95942E+01 0.00000E+00
 -1      1103 4.30350E+01 2.21922E+01 0.00000E+00
 -1      1104 2.86943E+01 2.23719E+01 0.00000E+00
 -1      1105 4.00350E+01 2.21922E+01 0.00000E+00
 -1      1106 3.16943E+01 2.23719E+01 0.00000E+00
 -1      1107 2.62170E+01 2.65293E+01 0.00000E+00
 -1      1108 4.81500E+01 2.40200E+01 0.00000E+00
 -1      1109 2.61441E+01 2.28044E+01 0.00000E+00
 -1      1110 2.36499E+01 2.25242E+01 0.00000E+00
 -1      1111 3.46943E+01 2.23719E+01 0.00000E+00
 -1      1112 3.73646E+01 2.22821E+01 0.00000E+00
 -1      1113 4.60350E+01 2.21922E+01 0.00000E+00
 -1      1114 2.86721E+01 2.44950E+01 0.00000E+00
 -1      1115 0.00000E+00 4.85250E+01 0.00000E+00
 -1      1116 0.00000E+00 4.55750E+01 0.00000E+00
 -1      1117 0.00000E+00 4.26250E+01 0.00000E+00
 -1      1118 0.00000E+00 3.96750E+01 0.00000E+00
 -1      1119 0.00000E+00 3.67250E+01 0.00000E+00
 -1      1120 0.00000E+00 3.38000E+01 0.00000E+00
 -1      1121 0.00000E+00 3.08750E+01 0.00000E+00
 -1      1122 0.00000E+00 2.79250E+01 0.00000E+00
 -1      1123 0.00000E+00 2.49750E+01 0.00000E+00
 -1      1124 0.00000E+00 2.20250E+01 0.00000E+00
 -1      1125 0.00000E+00 1.90750E+01 0.00000E+00
 -1      1126 0.00000E+00 1.61500E+01 0.00000E+00
 -1      1127 0.00000E+00 1.32250E+01 0.00000E+00
 -1      1128 0.00000E+00 1.02750E+01 0.00000E+00
 -1      1129 0.00000E+00 7.32500E+00 0.00000E+00
 -1      1130 0.00000E+00 4.37500E+00 0.00000E+00
 -1      1131 0.00000E+00 1.45000E+00 0.00000E+00
 -1      1132 1.57500E+00 5.00000E+01 0.00000E+00
 -1      1133 4.65000E+00 5.00000E+01 0.00000E+00
 -1      1134 7.65000E+00 5.00000E+01 0.00000E+00
 -1      1135 1.06500E+01 5.00000E+01 0.00000E+00
 -1      1136 1.36500E+01 5.00000E+01 0.00000E+00
 -1      1137 1.66500E+01 5.00000E+01 0.00000E+00
 -1      1138 1.96500E+01 5.00000E+01 0.00000E+00
 -1      1139 2.26500E+01 5.00000E+01 0.00000E+00
 -1      1140 2.56500E+01 5.00000E+01 0.00000E+00
 -1      1141 2.86500E+01 5.00000E+01 0.00000E+00
 -1      1142 3.16500E+01 5.00000E+01 0.00000E+00
 -1      1143 3.46500E+01 5.00000E+01 0.00000E+00
 -1      1144 3.76500E+01 5.00000E+01 0.00000E+00
 -1      1145 4.06500E+01 5.00000E+01 0.00000E+00
 -1      1146 4.36500E+01 5.00000E+01 0.00000E+00
 -1      1147 4.66500E+01 5.00000E+01 0.00000E+00
 -1      1148 4.96500E+01 5.00000E+01 0.00000E+00
 -1      1149 5.26500E+01 5.00000E+01 0.00000E+00
 -1      1150 5.56500E+01 5.00000E+01 0.00000E+00
 -1      1151 5.86500E+01 5.00000E+01 0.00000E+00
 -1      1152 6.16500E+01 5.00000E+01 0.00000E+00
 -1      1153 6.46500E+01 5.00000E+01 0.00000E+00
 -1      1154 6.76500E+01 5.00000E+01 0.00000E+00
 -1      1155 7.06500E+01 5.00000E+01 0.00000E+00
 -1      1156 7.36500E+01 5.00000E+01 0.00000E+00
 -1      1157 7.66500E+01 5.00000E+01 0.00000E+00
 -1      1158 7.96500E+01 5.00000E+01 0.00000E+00
 -1      1159 8.26500E+01 5.00000E+01 0.00000E+00
 -1      1160 8.56500E+01 5.00000E+01 0.00000E+00
 -1      1161 8.86500E+01 5.00000E+01 0.00000E+00
 -1      1162 9.16500E+01 5.00000E+01 0.00000E+00
 -1      1163 9.46500E+01 5.00000E+01 0.00000E+00
 -1      1164 9.76500E+01 5.00000E+01 0.00000E+00
 -1      1165 1.00650E+02 5.00000E+01 0.00000E+00
 -1      1166 1.03650E+02 5.00000E+01 0.00000E+00
 -1      1167 1.06650E+02 5.00000E+01 0.00000E+00
 -1      1168 1.09650E+02 5.00000E+01 0.00000E+00
 -1      1169 1.12650E+02 5.00000E+01 0.00000E+00
 -1      1170 1.15650E+02 5.00000E+01 0.00000E+00
 -1      1171 1.18650E+02 5.00000E+01 0.00000E+00
 -1      1172 1.21650E+02 5.00000E+01 0.00000E+00
 -1      1173 1.24650E+02 5.00000E+01 0.00000E+00
 -1      1174 1.27650E+02 5.00000E+01 0.00000E+00
 -1      1175 1.30650E+02 5.00000E+01 0.00000E+00
 -1      1176 1.33650E+02 5.00000E+01 0.00000E+00
 -1      1177 1.36650E+02 5.00000E+01 0.00000E+00
 -1      1178 1.39650E+02 5.00000E+01 0.00000E+00
 -1      1179 1.42650E+02 5.00000E+01 0.00000E+00
 -1      1180 1.45650E+02 5.00000E+01 0.00000E+00
 -1      1181 1.48575E+02 5.00000E+01 0.00000E+00
 -1      1182 1.57500E+00 0.00000E+00 0.00000E+00
 -1      1183 4.65000E+00 0.00000E+00 0.00000E+00
 -1      1184 7.65000E+00 0.00000E+00 0.00000E+00
 -1      1185 1.06500E+01 0.00000E+00 0.00000E+00
 -1      1186 1.36500E+01 0.00000E+00 0.00000E+00
 -1      1187 1.66500E+01 0.00000E+00 0.00000E+00
 -1      1188 1.96500E+01 0.00000E+00 0.00000E+00
 -1      1189 2.26500E+01 0.00000E+00 0.00000E+00
 -1      1190 2.56500E+01 0.00000E+00 0.00000E+00
 -1      1191 2.86500E+01 0.00000E+00 0.00000E+00
 -1      1192 3.16500E+01 0.00000E+00 0.00000E+00
 -1      1193 3.46500E+01 0.00000E+00 0.00000E+00
 -1      1194 3.76500E+01 0.00000E+00 0.00000E+00
 -1      1195 4.06500E+01 0.00000E+00 0.00000E+00
 -1      1196 4.36500E+01 0.00000E+00 0.00000E+00
 -1      1197 4.66500E+01 0.00000E+00 0.00000E+00
 -1      1198 4.96500E+01 0.00000E+00 0.00000E+00
 -1      1199 5.26500E+01 0.00000E+00 0.00000E+00
 -1      1200 5.56500E+01 0.00000E+00 0.00000E+00
 -1      1201 5.86500E+01 0.00000E+00 0.00000E+00
 -1      1202 6.16500E+01 0.00000E+00 0.00000E+00
 -1      1203 6.46500E+01 0.00000E+00 0.00000E+00
 -1      1204 6.76500E+01 0.00000E+00 0.00000E+00
 -1      1205 7.06500E+01 0.00000E+00 0.00000E+00
 -1      1206 7.36500E+01 0.00000E+00 0.00000E+00
 -1      1207 7.66500E+01 0.00000E+00 0.00000E+00
 -1      1208 7.96500E+01 0.00000E+00 0.00000E+00
 -1      1209 8.26500E+01 0.00000E+00 0.00000E+00
 -1      1210 8.56500E+01 0.00000E+00 0.00000E+00
 -1      1211 8.86500E+01 0.00000E+00 0.00000E+00
 -1      1212 9.16500E+01 0.00000E+00 0.00000E+00
 -1      1213 9.46500E+01 0.00000E+00 0.00000E+00
 -1      1214 9.76500E+01 0.00000E+00 0.00000E+00
 -1      1215 1.00650E+02 0.00000E+00 0.00000E+00
 -1      1216 1.03650E+02 0.00000E+00 0.00000E+00
 -1      1217 1.06650E+02 0.00000E+00 0.00000E+00
 -1      1218 1.09650E+02 0.00000E+00 0.00000E+00
 -1      1219 1.12650E+02 0.00000E+00 0.00000E+00
 -1      1220 1.15650E+02 0.00000E+00 0.00000E+00
 -1      1221 1.18650E+02 0.00000E+00 0.00000E+00
 -1      1222 1.21650E+02 0.00000E+00 0.00000E+00
 -1      1223 1.24650E+02 0.00000E+00 0.00000E+00
 -1      1224 1.27650E+02 0.00000E+00 0.00000E+00
 -1      1225 1.30650E+02 0.00000E+00 0.00000E+00
 -1      1226 1.33650E+02 0.00000E+00 0.00000E+00
 -1      1227 1.36650E+02 0.00000E+00 0.00000E+00
 -1      1228 1.39650E+02 0.00000E+00 0.00000E+00
 -1      1229 1.42650E+02 0.00000E+00 0.00000E+00
 -1      1230 1.45650E+02 0.00000E+00 0.00000E+00
 -1      1231 1.48575E+02 0.00000E+00 0.00000E+00
 -1      1232 1.50000E+02 1.47500E+00 0.00000E+00
 -1      1233 1.50000E+02 4.42500E+00 0.00000E+00
 -1      1234 1.50000E+02 7.37500E+00 0.00000E+00
 -1      1235 1.50000E+02 1.03250E+01 0.00000E+00
 -1      1236 1.50000E+02 1.32750E+01 0.00000E+00
 -1      1237 1.50000E+02 1.62000E+01 0.00000E+00
 -1      1238 1.50000E+02 1.91250E+01 0.00000E+00
 -1      1239 1.50000E+02 2.20750E+01 0.00000E+00
 -1      1240 1.50000E+02 2.50250E+01 0.00000E+00
 -1      1241 1.50000E+02 2.79750E+01 0.00000E+00
 -1      1242 1.50000E+02 3.09250E+01 0.00000E+00
 -1      1243 1.50000E+02 3.38500E+01 0.00000E+00
 -1      1244 1.50000E+02 3.67750E+01 0.00000E+00
 -1      1245 1.50000E+02 3.97250E+01 0.00000E+00
 -1      1246 1.50000E+02 4.26750E+01 0.00000E+00
 -1      1247 1.50000E+02 4.56250E+01 0.00000E+00
 -1      1248 1.50000E+02 4.85500E+01 0.00000E+00
 -1      1249 1.23159E+02 2.13412E+01 0.00000E+00
 -1      1250 1.22861E+02 1.99270E+01 0.00000E+00
 -1      1251 1.22288E+02 1.86184E+01 0.00000E+00
 -1      1252 1.21455E+02 1.74480E+01 0.00000E+00
 -1      1253 1.20382E+02 1.64569E+01 0.00000E+00
 -1      1254 1.18993E+02 1.56510E+01 0.00000E+00
 -1      1255 1.17482E+02 1.51871E+01 0.00000E+00
 -1      1256 1.16004E+02 1.50708E+01 0.00000E+00
 -1      1257 1.14481E+02 1.52817E+01 0.00000E+00
 -1      1258 1.13098E+02 1.57912E+01 0.00000E+00
 -1      1259 1.11892E+02 1.65479E+01 0.00000E+00
 -1      1260 1.10814E+02 1.75927E+01 0.00000E+00
 -1      1261 1.09989E+02 1.88332E+01 0.00000E+00
 -1      1262 1.09458E+02 2.01751E+01 0.00000E+00
 -1      1263 1.09213E+02 2.15951E+01 0.00000E+00
 -1      1264 1.09269E+02 2.30722E+01 0.00000E+00
 -1      1265 1.09638E+02 2.45132E+01 0.00000E+00
 -1      1266 1.10265E+02 2.57845E+01 0.00000E+00
 -1      1267 1.11123E+02 2.68903E+01 0.00000E+00
 -1      1268 1.12184E+02 2.78039E+01 0.00000E+00
 -1      1269 1.13421E+02 2.84943E+01 0.00000E+00
 -1      1270 1.14821E+02 2.89317E+01 0.00000E+00
 -1      1271 1.16334E+02 2.90668E+01 0.00000E+00
 -1      1272 1.17788E+02 2.88848E+01 0.00000E+00
 -1      1273 1.19170E+02 2.84054E+01 0.00000E+00
 -1      1274 1.20404E+02 2.76630E+01 0.00000E+00
 -1      1275 1.21412E+02 2.67372E+01 0.00000E+00
 -1      1276 1.22255E+02 2.55741E+01 0.00000E+00
 -1      1277 1.22862E+02 2.42059E+01 0.00000E+00
 -1      1278 1.23161E+02 2.27786E+01 0.00000E+00
 -1      1279 1.57500E+00 4.85250E+01 0.00000E+00
 -1      1280 1.29900E+00 4.48375E+01 0.00000E+00
 -1      1281 1.29900E+00 4.63125E+01 0.00000E+00
 -1      1282 1.29900E+00 4.18875E+01 0.00000E+00
 -1      1283 1.29900E+00 4.33625E+01 0.00000E+00
 -1      1284 2.59800E+00 4.41000E+01 0.00000E+00
 -1      1285 1.29900E+00 3.89375E+01 0.00000E+00
 -1      1286 1.29900E+00 4.04125E+01 0.00000E+00
 -1      1287 2.59800E+00 4.11500E+01 0.00000E+00
 -1      1288 1.29900E+00 3.59875E+01 0.00000E+00
 -1      1289 1.29900E+00 3.74625E+01 0.00000E+00
 -1      1290 2.59800E+00 3.82000E+01 0.00000E+00
 -1      1291 1.29900E+00 3.30875E+01 0.00000E+00
 -1      1292 1.29900E+00 3.45375E+01 0.00000E+00
 -1      1293 2.59800E+00 3.52750E+01 0.00000E+00
 -1      1294 1.29900E+00 3.01375E+01 0.00000E+00
 -1      1295 1.29900E+00 3.16125E+01 0.00000E+00
 -1      1296 2.59800E+00 3.23500E+01 0.00000E+00
 -1      1297 1.29900E+00 2.71875E+01 0.00000E+00
 -1      1298 1.29900E+00 2.86625E+01 0.00000E+00
 -1      1299 2.59800E+00 2.94000E+01 0.00000E+00
 -1      1300 1.29900E+00 2.42375E+01 0.00000E+00
 -1      1301 1.29900E+00 2.57125E+01 0.00000E+00
 -1      1302 2.59800E+00 2.64500E+01 0.00000E+00
 -1      1303 1.29900E+00 2.12875E+01 0.00000E+00
 -1      1304 1.29900E+00 2.27625E+01 0.00000E+00
 -1      1305 2.59800E+00 2.35000E+01 0.00000E+00
 -1      1306 1.29900E+00 1.83375E+01 0.00000E+00
 -1      1307 1.29900E+00 1.98125E+01 0.00000E+00
 -1      1308 2.59800E+00 2.05500E+01 0.00000E+00
 -1      1309 1.29900E+00 1.54375E+01 0.00000E+00
 -1      1310 1.29900E+00 1.68875E+01 0.00000E+00
 -1      1311 2.59800E+00 1.76250E+01 0.00000E+00
 -1      1312 1.29900E+00 1.24875E+01 0.00000E+00
 -1      1313 1.29900E+00 1.39625E+01 0.00000E+00
 -1      1314 2.59800E+00 1.47000E+01 0.00000E+00
 -1      1315 1.29900E+00 9.53750E+00 0.00000E+00
 -1      1316 1.29900E+00 1.10125E+01 0.00000E+00
 -1      1317 2.59800E+00 1.17500E+01 0.00000E+00
 -1      1318 1.29900E+00 6.58750E+00 0.00000E+00
 -1      1319 1.29900E+00 8.06250E+00 0.00000E+00
 -1      1320 2.59800E+00 8.80000E+00 0.00000E+00
 -1      1321 1.29900E+00 3.63750E+00 0.00000E+00
 -1      1322 1.29900E+00 5.11250E+00 0.00000E+00
 -1      1323 2.59800E+00 5.85000E+00 0.00000E+00
 -1      1324 1.43700E+00 1.09375E+00 0.00000E+00
 -1      1325 1.43700E+00 2.54375E+00 0.00000E+00
 -1      1326 2.73600E+00 3.28125E+00 0.00000E+00
 -1      1327 3.01200E+00 1.09375E+00 0.00000E+00
 -1      1328 3.90000E+00 4.87010E+01 0.00000E+00
 -1      1329 5.40000E+00 4.87010E+01 0.00000E+00
 -1      1330 6.90000E+00 4.87010E+01 0.00000E+00
 -1      1331 8.40000E+00 4.87010E+01 0.00000E+00
 -1      1332 6.15000E+00 4.74020E+01 0.00000E+00
 -1      1333 9.90000E+00 4.87010E+01 0.00000E+00
 -1      1334 1.14000E+01 4.87010E+01 0.00000E+00
 -1      1335 9.15000E+00 4.74020E+01 0.00000E+00
 -1      1336 1.29000E+01 4.87010E+01 0.00000E+00
 -1      1337 1.44000E+01 4.87010E+01 0.00000E+00
 -1      1338 1.21500E+01 4.74020E+01 0.00000E+00
 -1      1339 1.59000E+01 4.87010E+01 0.00000E+00
 -1      1340 1.74000E+01 4.87010E+01 0.00000E+00
 -1      1341 1.51500E+01 4.74020E+01 0.00000E+00
 -1      1342 1.89000E+01 4.87010E+01 0.00000E+00
 -1      1343 2.04000E+01 4.87010E+01 0.00000E+00
 -1      1344 1.81500E+01 4.74020E+01 0.00000E+00
 -1      1345 2.19000E+01 4.87010E+01 0.00000E+00
 -1      1346 2.34000E+01 4.87010E+01 0.00000E+00
 -1      1347 2.11500E+01 4.74020E+01 0.00000E+00
 -1      1348 2.49000E+01 4.87010E+01 0.00000E+00
 -1      1349 2.64000E+01 4.87010E+01 0.00000E+00
 -1      1350 2.41500E+01 4.74020E+01 0.00000E+00
 -1      1351 2.79000E+01 4.87010E+01 0.00000E+00
 -1      1352 2.94000E+01 4.87010E+01 0.00000E+00
 -1      1353 2.71500E+01 4.74020E+01 0.00000E+00
 -1      1354 3.09000E+01 4.87010E+01 0.00000E+00
 -1      1355 3.24000E+01 4.87010E+01 0.00000E+00
 -1      1356 3.01500E+01 4.74020E+01 0.00000E+00
 -1      1357 3.39000E+01 4.87010E+01 0.00000E+00
 -1      1358 3.54000E+01 4.87010E+01 0.00000E+00
 -1      1359 3.31500E+01 4.74020E+01 0.00000E+00
 -1      1360 3.69000E+01 4.87010E+01 0.00000E+00
 -1      1361 3.84000E+01 4.87010E+01 0.00000E+00
 -1      1362 3.61500E+01 4.74020E+01 0.00000E+00
 -1      1363 3.99000E+01 4.87010E+01 0.00000E+00
 -1      1364 4.14000E+01 4.87010E+01 0.00000E+00
 -1      1365 3.91500E+01 4.74020E+01 0.00000E+00
 -1      1366 4.29000E+01 4.87010E+01 0.00000E+00
 -1      1367 4.44000E+01 4.87010E+01 0.00000E+00
 -1      1368 4.21500E+01 4.74020E+01 0.00000E+00
 -1      1369 4.59000E+01 4.87010E+01 0.00000E+00
 -1      1370 4.74000E+01 4.87010E+01 0.00000E+00
 -1      1371 4.51500E+01 4.74020E+01 0.00000E+00
 -1      1372 4.89000E+01 4.87010E+01 0.00000E+00
 -1      1373 5.04000E+01 4.87010E+01 0.00000E+00
 -1      1374 4.81500E+01 4.74020E+01 0.00000E+00
 -1      1375 5.19000E+01 4.87010E+01 0.00000E+00
 -1      1376 5.34000E+01 4.87010E+01 0.00000E+00
 -1      1377 5.11500E+01 4.74020E+01 0.00000E+00
 -1      1378 5.49000E+01 4.87010E+01 0.00000E+00
 -1      1379 5.64000E+01 4.87010E+01 0.00000E+00
 -1      1380 5.41500E+01 4.74020E+01 0.00000E+00
 -1      1381 5.79000E+01 4.87010E+01 0.00000E+00
 -1      1382 5.94000E+01 4.87010E+01 0.00000E+00
 -1      1383 5.71500E+01 4.74020E+01 0.00000E+00
 -1      1384 6.09000E+01 4.87010E+01 0.00000E+00
 -1      1385 6.24000E+01 4.87010E+01 0.00000E+00
 -1      1386 6.01500E+01 4.74020E+01 0.00000E+00
 -1      1387 6.39000E+01 4.87010E+01 0.00000E+00
 -1      1388 6.54000E+01 4.87010E+01 0.00000E+00
 -1      1389 6.31500E+01 4.74020E+01 0.00000E+00
 -1      1390 6.69000E+01 4.87010E+01 0.00000E+00
 -1      1391 6.84000E+01 4.87010E+01 0.00000E+00
 -1      1392 6.61500E+01 4.74020E+01 0.00000E+00
 -1      1393 6.99000E+01 4.87010E+01 0.00000E+00
 -1      1394 7.14000E+01 4.87010E+01 0.00000E+00
 -1      1395 6.91500E+01 4.74020E+01 0.00000E+00
 -1      1396 7.29000E+01 4.87010E+01 0.00000E+00
 -1      1397 7.44000E+01 4.87010E+01 0.00000E+00
 -1      1398 7.21500E+01 4.74020E+01 0.00000E+00
 -1      1399 7.59000E+01 4.87010E+01 0.00000E+00
 -1      1400 7.74000E+01 4.87010E+01 0.00000E+00
 -1      1401 7.51500E+01 4.74020E+01 0.00000E+00
 -1      1402 7.89000E+01 4.87010E+01 0.00000E+00
 -1      1403 8.04000E+01 4.87010E+01 0.00000E+00
 -1      1404 7.81500E+01 4.74020E+01 0.00000E+00
 -1      1405 8.19000E+01 4.87010E+01 0.00000E+00
 -1      1406 8.34000E+01 4.87010E+01 0.00000E+00
 -1      1407 8.11500E+01 4.74020E+01 0.00000E+00
 -1      1408 8.49000E+01 4.87010E+01 0.00000E+00
 -1      1409 8.64000E+01 4.87010E+01 0.00000E+00
 -1      1410 8.41500E+01 4.74020E+01 0.00000E+00
 -1      1411 8.79000E+01 4.87010E+01 0.00000E+00
 -1      1412 8.94000E+01 4.87010E+01 0.00000E+00
 -1      1413 8.71500E+01 4.74020E+01 0.00000E+00
 -1      1414 9.09000E+01 4.87010E+01 0.00000E+00
 -1      1415 9.24000E+01 4.87010E+01 0.00000E+00
 -1      1416 9.01500E+01 4.74020E+01 0.00000E+00
 -1      1417 9.39000E+01 4.87010E+01 0.00000E+00
 -1      1418 9.54000E+01 4.87010E+01 0.00000E+00
 -1      1419 9.31500E+01 4.74020E+01 0.00000E+00
 -1      1420 9.69000E+01 4.87010E+01 0.00000E+00
 -1      1421 9.84000E+01 4.87010E+01 0.00000E+00
 -1      1422 9.61500E+01 4.74020E+01 0.00000E+00
 -1      1423 9.99000E+01 4.87010E+01 0.00000E+00
 -1      1424 1.01400E+02 4.87010E+01 0.00000E+00
 -1      1425 9.91500E+01 4.74020E+01 0.00000E+00
 -1      1426 1.02900E+02 4.87010E+01 0.00000E+00
 -1      1427 1.04400E+02 4.87010E+01 0.00000E+00
 -1      1428 1.02150E+02 4.74020E+01 0.00000E+00
 -1      1429 1.05900E+02 4.87010E+01 0.00000E+00
 -1      1430 1.07400E+02 4.87010E+01 0.00000E+00
 -1      1431 1.05150E+02 4.74020E+01 0.00000E+00
 -1      1432 1.08900E+02 4.87010E+01 0.00000E+00
 -1      1433 1.10400E+02 4.87010E+01 0.00000E+00
 -1      1434 1.08150E+02 4.74020E+01 0.00000E+00
 -1      1435 1.11900E+02 4.87010E+01 0.00000E+00
 -1      1436 1.13400E+02 4.87010E+01 0.00000E+00
 -1      1437 1.11150E+02 4.74020E+01 0.00000E+00
 -1      1438 1.14900E+02 4.87010E+01 0.00000E+00
 -1      1439 1.16400E+02 4.87010E+01 0.00000E+00
 -1      1440 1.14150E+02 4.74020E+01 0.00000E+00
 -1      1441 1.17900E+02 4.87010E+01 0.00000E+00
 -1      1442 1.19400E+02 4.87010E+01 0.00000E+00
 -1      1443 1.17150E+02 4.74020E+01 0.00000E+00
 -1      1444 1.20900E+02 4.87010E+01 0.00000E+00
 -1      1445 1.22400E+02 4.87010E+01 0.00000E+00
 -1      1446 1.20150E+02 4.74020E+01 0.00000E+00
 -1      1447 1.23900E+02 4.87010E+01 0.00000E+00
 -1      1448 1.25400E+02 4.87010E+01 0.00000E+00
 -1      1449 1.23150E+02 4.74020E+01 0.00000E+00
 -1      1450 1.26900E+02 4.87010E+01 0.00000E+00
 -1      1451 1.28400E+02 4.87010E+01 0.00000E+00
 -1      1452 1.26150E+02 4.74020E+01 0.00000E+00
 -1      1453 1.29900E+02 4.87010E+01 0.00000E+00
 -1      1454 1.31400E+02 4.87010E+01 0.00000E+00
 -1      1455 1.29150E+02 4.74020E+01 0.00000E+00
 -1      1456 1.32900E+02 4.87010E+01 0.00000E+00
 -1      1457 1.34400E+02 4.87010E+01 0.00000E+00
 -1      1458 1.32150E+02 4.74020E+01 0.00000E+00
 -1      1459 1.35900E+02 4.87010E+01 0.00000E+00
 -1      1460 1.37400E+02 4.87010E+01 0.00000E+00
 -1      1461 1.35150E+02 4.74020E+01 0.00000E+00
 -1      1462 1.38900E+02 4.87010E+01 0.00000E+00
 -1      1463 1.40400E+02 4.87010E+01 0.00000E+00
 -1      1464 1.38150E+02 4.74020E+01 0.00000E+00
 -1      1465 1.41900E+02 4.87010E+01 0.00000E+00
 -1      1466 1.43400E+02 4.87010E+01 0.00000E+00
 -1      1467 1.41150E+02 4.74020E+01 0.00000E+00
 -1      1468 1.44900E+02 4.87010E+01 0.00000E+00
 -1      1469 1.46400E+02 4.87010E+01 0.00000E+00
 -1      1470 1.44150E+02 4.74020E+01 0.00000E+00
 -1      1471 1.48575E+02 4.85500E+01 0.00000E+00
 -1      1472 1.47825E+02 4.72510E+01 0.00000E+00
 -1      1473 6.01200E+00 1.09375E+00 0.00000E+00
 -1      1474 4.51200E+00 1.09375E+00 0.00000E+00
 -1      1475 4.37400E+00 2.18750E+00 0.00000E+00
 -1      1476 9.01200E+00 1.09375E+00 0.00000E+00
 -1      1477 7.51200E+00 1.09375E+00 0.00000E+00
 -1      1478 7.37400E+00 2.18750E+00 0.00000E+00
 -1      1479 1.20120E+01 1.09375E+00 0.00000E+00
 -1      1480 1.05120E+01 1.09375E+00 0.00000E+00
 -1      1481 1.03740E+01 2.18750E+00 0.00000E+00
 -1      1482 1.50120E+01 1.09375E+00 0.00000E+00
 -1      1483 1.35120E+01 1.09375E+00 0.00000E+00
 -1      1484 1.33740E+01 2.18750E+00 0.00000E+00
 -1      1485 1.80120E+01 1.09375E+00 0.00000E+00
 -1      1486 1.65120E+01 1.09375E+00 0.00000E+00
 -1      1487 1.63740E+01 2.18750E+00 0.00000E+00
 -1      1488 2.10120E+01 1.09375E+00 0.00000E+00
 -1      1489 1.95120E+01 1.09375E+00 0.00000E+00
 -1      1490 1.93740E+01 2.18750E+00 0.00000E+00
 -1      1491 2.40120E+01 1.09375E+00 0.00000E+00
 -1      1492 2.25120E+01 1.09375E+00 0.00000E+00
 -1      1493 2.23740E+01 2.18750E+00 0.00000E+00
 -1      1494 2.70120E+01 1.09375E+00 0.00000E+00
 -1      1495 2.55120E+01 1.09375E+00 0.00000E+00
 -1      1496 2.53740E+01 2.18750E+00 0.00000E+00
 -1      1497 3.00120E+01 1.09375E+00 0.00000E+00
 -1      1498 2.85120E+01 1.09375E+00 0.00000E+00
 -1      1499 2.83740E+01 2.18750E+00 0.00000E+00
 -1      1500 3.30120E+01 1.09375E+00 0.00000E+00
 -1      1501 3.15120E+01 1.09375E+00 0.00000E+00
 -1      1502 3.13740E+01 2.18750E+00 0.00000E+00
 -1      1503 3.60120E+01 1.09375E+00 0.00000E+00
 -1      1504 3.45120E+01 1.09375E+00 0.00000E+00
 -1      1505 3.43740E+01 2.18750E+00 0.00000E+00
 -1      1506 3.90120E+01 1.09375E+00 0.00000E+00
 -1      1507 3.75120E+01 1.09375E+00 0.00000E+00
 -1      1508 3.73740E+01 2.18750E+00 0.00000E+00
 -1      1509 4.20120E+01 1.09375E+00 0.00000E+00
 -1      1510 4.05120E+01 1.09375E+00 0.00000E+00
 -1      1511 4.03740E+01 2.18750E+00 0.00000E+00
 -1      1512 4.50120E+01 1.09375E+00 0.00000E+00
 -1      1513 4.35120E+01 1.09375E+00 0.00000E+00
 -1      1514 4.33740E+01 2.18750E+00 0.00000E+00
 -1      1515 4.80120E+01 1.09375E+00 0.00000E+00
 -1      1516 4.65120E+01 1.09375E+00 0.00000E+00
 -1      1517 4.63740E+01 2.18750E+00 0.00000E+00
 -1      1518 5.10120E+01 1.09375E+00 0.00000E+00
 -1      1519 4.95120E+01 1.09375E+00 0.00000E+00
 -1      1520 4.93740E+01 2.18750E+00 0.00000E+00
 -1      1521 5.40120E+01 1.09375E+00 0.00000E+00
 -1      1522 5.25120E+01 1.09375E+00 0.00000E+00
 -1      1523 5.23740E+01 2.18750E+00 0.00000E+00
 -1      1524 5.70120E+01 1.09375E+00 0.00000E+00
 -1      1525 5.55120E+01 1.09375E+00 0.00000E+00
 -1      1526 5.53740E+01 2.18750E+00 0.00000E+00
 -1      1527 6.00120E+01 1.09375E+00 0.00000E+00
 -1      1528 5.85120E+01 1.09375E+00 0.00000E+00
 -1      1529 5.83740E+01 2.18750E+00 0.00000E+00
 -1      1530 6.30120E+01 1.09375E+00 0.00000E+00
 -1      1531 6.15120E+01 1.09375E+00 0.00000E+00
 -1      1532 6.13740E+01 2.18750E+00 0.00000E+00
 -1      1533 6.60120E+01 1.09375E+00 0.00000E+00
 -1      1534 6.45120E+01 1.09375E+00 0.00000E+00
 -1      1535 6.43740E+01 2.18750E+00 0.00000E+00
 -1      1536 6.90120E+01 1.09375E+00 0.00000E+00
 -1      1537 6.75120E+01 1.09375E+00 0.00000E+00
 -1      1538 6.73740E+01 2.18750E+00 0.00000E+00
 -1      1539 7.20120E+01 1.09375E+00 0.00000E+00
 -1      1540 7.05120E+01 1.09375E+00 0.00000E+00
 -1      1541 7.03740E+01 2.18750E+00 0.00000E+00
 -1      1542 7.50120E+01 1.09375E+00 0.00000E+00
 -1      1543 7.35120E+01 1.09375E+00 0.00000E+00
 -1      1544 7.33740E+01 2.18750E+00 0.00000E+00
 -1      1545 7.80120E+01 1.09375E+00 0.00000E+00
 -1      1546 7.65120E+01 1.09375E+00 0.00000E+00
 -1      1547 7.63740E+01 2.18750E+00 0.00000E+00
 -1      1548 8.10120E+01 1.09375E+00 0.00000E+00
 -1      1549 7.95120E+01 1.09375E+00 0.00000E+00
 -1      1550 7.93740E+01 2.18750E+00 0.00000E+00
 -1      1551 8.40120E+01 1.09375E+00 0.00000E+00
 -1      1552 8.25120E+01 1.09375E+00 0.00000E+00
 -1      1553 8.23740E+01 2.18750E+00 0.00000E+00
 -1      1554 8.70120E+01 1.09375E+00 0.00000E+00
 -1      1555 8.55120E+01 1.09375E+00 0.00000E+00
 -1      1556 8.53740E+01 2.18750E+00 0.00000E+00
 -1      1557 9.00120E+01 1.09375E+00 0.00000E+00
 -1      1558 8.85120E+01 1.09375E+00 0.00000E+00
 -1      1559 8.83740E+01 2.18750E+00 0.00000E+00
 -1      1560 9.30120E+01 1.09375E+00 0.00000E+00
 -1      1561 9.15120E+01 1.09375E+00 0.00000E+00
 -1      1562 9.13740E+01 2.18750E+00 0.00000E+00
 -1      1563 9.60120E+01 1.09375E+00 0.00000E+00
 -1      1564 9.45120E+01 1.09375E+00 0.00000E+00
 -1      1565 9.43740E+01 2.18750E+00 0.00000E+00
 -1      1566 9.90120E+01 1.09375E+00 0.00000E+00
 -1      1567 9.75120E+01 1.09375E+00 0.00000E+00
 -1      1568 9.73740E+01 2.18750E+00 0.00000E+00
 -1      1569 1.02012E+02 1.09375E+00 0.00000E+00
 -1      1570 1.00512E+02 1.09375E+00 0.00000E+00
 -1      1571 1.00374E+02 2.18750E+00 0.00000E+00
 -1      1572 1.05012E+02 1.09375E+00 0.00000E+00
 -1      1573 1.03512E+02 1.09375E+00 0.00000E+00
 -1      1574 1.03374E+02 2.18750E+00 0.00000E+00
 -1      1575 1.08012E+02 1.09375E+00 0.00000E+00
 -1      1576 1.06512E+02 1.09375E+00 0.00000E+00
 -1      1577 1.06374E+02 2.18750E+00 0.00000E+00
 -1      1578 1.11012E+02 1.09375E+00 0.00000E+00
 -1      1579 1.09512E+02 1.09375E+00 0.00000E+00
 -1      1580 1.09374E+02 2.18750E+00 0.00000E+00
 -1      1581 1.14012E+02 1.09375E+00 0.00000E+00
 -1      1582 1.12512E+02 1.09375E+00 0.00000E+00
 -1      1583 1.12374E+02 2.18750E+00 0.00000E+00
 -1      1584 1.17012E+02 1.09375E+00 0.00000E+00
 -1      1585 1.15512E+02 1.09375E+00 0.00000E+00
 -1      1586 1.15374E+02 2.18750E+00 0.00000E+00
 -1      1587 1.20012E+02 1.09375E+00 0.00000E+00
 -1      1588 1.18512E+02 1.09375E+00 0.00000E+00
 -1      1589 1.18374E+02 2.18750E+00 0.00000E+00
 -1      1590 1.23012E+02 1.09375E+00 0.00000E+00
 -1      1591 1.21512E+02 1.09375E+00 0.00000E+00
 -1      1592 1.21374E+02 2.18750E+00 0.00000E+00
 -1      1593 1.26012E+02 1.09375E+00 0.00000E+00
 -1      1594 1.24512E+02 1.09375E+00 0.00000E+00
 -1      1595 1.24374E+02 2.18750E+00 0.00000E+00
 -1      1596 1.29012E+02 1.09375E+00 0.00000E+00
 -1      1597 1.27512E+02 1.09375E+00 0.00000E+00
 -1      1598 1.27374E+02 2.18750E+00 0.00000E+00
 -1      1599 1.32012E+02 1.09375E+00 0.00000E+00
 -1      1600 1.30512E+02 1.09375E+00 0.00000E+00
 -1      1601 1.30374E+02 2.18750E+00 0.00000E+00
 -1      1602 1.35012E+02 1.09375E+00 0.00000E+00
 -1      1603 1.33512E+02 1.09375E+00 0.00000E+00
 -1      1604 1.33374E+02 2.18750E+00 0.00000E+00
 -1      1605 1.38012E+02 1.09375E+00 0.00000E+00
 -1      1606 1.36512E+02 1.09375E+00 0.00000E+00
 -1      1607 1.36374E+02 2.18750E+00 0.00000E+00
 -1      1608 1.41012E+02 1.09375E+00 0.00000E+00
 -1      1609 1.39512E+02 1.09375E+00 0.00000E+00
 -1      1610 1.39374E+02 2.18750E+00 0.00000E+00
 -1      1611 1.44012E+02 1.09375E+00 0.00000E+00
 -1      1612 1.42512E+02 1.09375E+00 0.00000E+00
 -1      1613 1.42374E+02 2.18750E+00 0.00000E+00
 -1      1614 1.47012E+02 1.09375E+00 0.00000E+00
 -1      1615 1.45512E+02 1.09375E+00 0.00000E+00
 -1      1616 1.45374E+02 2.18750E+00 0.00000E+00
 -1      1617 1.48575E+02 1.47500E+00 0.00000E+00
 -1      1618 1.48701E+02 5.16250E+00 0.00000E+00
 -1      1619 1.48701E+02 3.68750E+00 0.00000E+00
 -1      1620 1.48701E+02 8.11250E+00 0.00000E+00
 -1      1621 1.48701E+02 6.63750E+00 0.00000E+00
 -1      1622 1.47402E+02 5.90000E+00 0.00000E+00
 -1      1623 1.48701E+02 1.10625E+01 0.00000E+00
 -1      1624 1.48701E+02 9.58750E+00 0.00000E+00
 -1      1625 1.47402E+02 8.85000E+00 0.00000E+00
 -1      1626 1.48701E+02 1.40125E+01 0.00000E+00
 -1      1627 1.48701E+02 1.25375E+01 0.00000E+00
 -1      1628 1.47402E+02 1.18000E+01 0.00000E+00
 -1      1629 1.48701E+02 1.69125E+01 0.00000E+00
 -1      1630 1.48701E+02 1.54625E+01 0.00000E+00
 -1      1631 1.47402E+02 1.47250E+01 0.00000E+00
 -1      1632 1.48701E+02 1.98625E+01 0.00000E+00
 -1      1633 1.48701E+02 1.83875E+01 0.00000E+00
 -1      1634 1.47402E+02 1.76500E+01 0.00000E+00
 -1      1635 1.48701E+02 2.28125E+01 0.00000E+00
 -1      1636 1.48701E+02 2.13375E+01 0.00000E+00
 -1      1637 1.47402E+02 2.06000E+01 0.00000E+00
 -1      1638 1.48701E+02 2.57625E+01 0.00000E+00
 -1      1639 1.48701E+02 2.42875E+01 0.00000E+00
 -1      1640 1.47402E+02 2.35500E+01 0.00000E+00
 -1      1641 1.48701E+02 2.87125E+01 0.00000E+00
 -1      1642 1.48701E+02 2.72375E+01 0.00000E+00
 -1      1643 1.47402E+02 2.65000E+01 0.00000E+00
 -1      1644 1.48701E+02 3.16625E+01 0.00000E+00
 -1      1645 1.48701E+02 3.01875E+01 0.00000E+00
 -1      1646 1.47402E+02 2.94500E+01 0.00000E+00
 -1      1647 1.48701E+02 3.45625E+01 0.00000E+00
 -1      1648 1.48701E+02 3.31125E+01 0.00000E+00
 -1      1649 1.47402E+02 3.23750E+01 0.00000E+00
 -1      1650 1.48701E+02 3.75125E+01 0.00000E+00
 -1      1651 1.48701E+02 3.60375E+01 0.00000E+00
 -1      1652 1.47402E+02 3.53000E+01 0.00000E+00
 -1      1653 1.48701E+02 4.04625E+01 0.00000E+00
 -1      1654 1.48701E+02 3.89875E+01 0.00000E+00
 -1      1655 1.47402E+02 3.82500E+01 0.00000E+00
 -1      1656 1.48701E+02 4.34125E+01 0.00000E+00
 -1      1657 1.48701E+02 4.19375E+01 0.00000E+00
 -1      1658 1.47402E+02 4.12000E+01 0.00000E+00
 -1      1659 1.48263E+02 4.60692E+01 0.00000E+00
 -1      1660 1.48263E+02 4.45942E+01 0.00000E+00
 -1      1661 1.46964E+02 4.38568E+01 0.00000E+00
 -1      1662 1.46088E+02 4.62202E+01 0.00000E+00
 -1      1663 1.23686E+02 2.09207E+01 0.00000E+00
 -1      1664 1.23762E+02 2.16437E+01 0.00000E+00
 -1      1665 1.23293E+02 1.94109E+01 0.00000E+00
 -1      1666 1.23513E+02 2.00948E+01 0.00000E+00
 -1      1667 1.22609E+02 1.80284E+01 0.00000E+00
 -1      1668 1.22959E+02 1.86465E+01 0.00000E+00
 -1      1669 1.21643E+02 1.68002E+01 0.00000E+00
 -1      1670 1.22122E+02 1.73454E+01 0.00000E+00
 -1      1671 1.20426E+02 1.57821E+01 0.00000E+00
 -1      1672 1.21016E+02 1.62219E+01 0.00000E+00
 -1      1673 1.18899E+02 1.47792E+01 0.00000E+00
 -1      1674 1.19696E+02 1.51267E+01 0.00000E+00
 -1      1675 1.17237E+02 1.45615E+01 0.00000E+00
 -1      1676 1.17936E+02 1.46921E+01 0.00000E+00
 -1      1677 1.15600E+02 1.44343E+01 0.00000E+00
 -1      1678 1.16371E+02 1.44131E+01 0.00000E+00
 -1      1679 1.13971E+02 1.48286E+01 0.00000E+00
 -1      1680 1.14714E+02 1.46409E+01 0.00000E+00
 -1      1681 1.12529E+02 1.54364E+01 0.00000E+00
 -1      1682 1.13163E+02 1.51232E+01 0.00000E+00
 -1      1683 1.11260E+02 1.63191E+01 0.00000E+00
 -1      1684 1.11825E+02 1.58787E+01 0.00000E+00
 -1      1685 1.10067E+02 1.74817E+01 0.00000E+00
 -1      1686 1.10569E+02 1.68780E+01 0.00000E+00
 -1      1687 1.09320E+02 1.88820E+01 0.00000E+00
 -1      1688 1.09646E+02 1.82570E+01 0.00000E+00
 -1      1689 1.08771E+02 2.03658E+01 0.00000E+00
 -1      1690 1.08971E+02 1.96549E+01 0.00000E+00
 -1      1691 1.08619E+02 2.19070E+01 0.00000E+00
 -1      1692 1.08667E+02 2.12061E+01 0.00000E+00
 -1      1693 1.08726E+02 2.35428E+01 0.00000E+00
 -1      1694 1.08615E+02 2.27752E+01 0.00000E+00
 -1      1695 1.09228E+02 2.50457E+01 0.00000E+00
 -1      1696 1.08979E+02 2.43788E+01 0.00000E+00
 -1      1697 1.09969E+02 2.63864E+01 0.00000E+00
 -1      1698 1.09594E+02 2.57883E+01 0.00000E+00
 -1      1699 1.10947E+02 2.75356E+01 0.00000E+00
 -1      1700 1.10469E+02 2.70327E+01 0.00000E+00
 -1      1701 1.12147E+02 2.84739E+01 0.00000E+00
 -1      1702 1.11568E+02 2.80687E+01 0.00000E+00
 -1      1703 1.13504E+02 2.91968E+01 0.00000E+00
 -1      1704 1.12853E+02 2.89154E+01 0.00000E+00
 -1      1705 1.15065E+02 2.96424E+01 0.00000E+00
 -1      1706 1.14323E+02 2.94935E+01 0.00000E+00
 -1      1707 1.16728E+02 2.97076E+01 0.00000E+00
 -1      1708 1.15966E+02 2.97226E+01 0.00000E+00
 -1      1709 1.18261E+02 2.93606E+01 0.00000E+00
 -1      1710 1.17575E+02 2.95206E+01 0.00000E+00
 -1      1711 1.19771E+02 2.87938E+01 0.00000E+00
 -1      1712 1.19084E+02 2.91159E+01 0.00000E+00
 -1      1713 1.21020E+02 2.79162E+01 0.00000E+00
 -1      1714 1.20476E+02 2.83257E+01 0.00000E+00
 -1      1715 1.22068E+02 2.68629E+01 0.00000E+00
 -1      1716 1.21609E+02 2.73751E+01 0.00000E+00
 -1      1717 1.23005E+02 2.55754E+01 0.00000E+00
 -1      1718 1.22630E+02 2.62238E+01 0.00000E+00
 -1      1719 1.23516E+02 2.40228E+01 0.00000E+00
 -1      1720 1.23287E+02 2.47348E+01 0.00000E+00
 -1      1721 1.23805E+02 2.24873E+01 0.00000E+00
 -1      1722 1.23733E+02 2.31941E+01 0.00000E+00
 -1      1723 1.21711E+02 1.60944E+01 0.00000E+00
 -1      1724 1.22825E+02 1.73557E+01 0.00000E+00
 -1      1725 1.48437E+02 2.56875E+00 0.00000E+00
 -1      1726 1.47138E+02 3.30625E+00 0.00000E+00
 -1      1727 1.24154E+02 2.03933E+01 0.00000E+00
 -1      1728 1.23646E+02 1.88031E+01 0.00000E+00
 -1      1729 1.24371E+02 2.20629E+01 0.00000E+00
 -1      1730 1.20353E+02 1.48606E+01 0.00000E+00
 -1      1731 1.18660E+02 1.41181E+01 0.00000E+00
 -1      1732 1.16832E+02 1.38824E+01 0.00000E+00
 -1      1733 1.15080E+02 1.39405E+01 0.00000E+00
 -1      1734 1.13386E+02 1.44416E+01 0.00000E+00
 -1      1735 1.11874E+02 1.51785E+01 0.00000E+00
 -1      1736 1.10478E+02 1.61798E+01 0.00000E+00
 -1      1737 1.09366E+02 1.75140E+01 0.00000E+00
 -1      1738 1.08596E+02 1.90622E+01 0.00000E+00
 -1      1739 1.08143E+02 2.06753E+01 0.00000E+00
 -1      1740 1.08034E+02 2.23838E+01 0.00000E+00
 -1      1741 1.08282E+02 2.40880E+01 0.00000E+00
 -1      1742 1.08902E+02 2.56666E+01 0.00000E+00
 -1      1743 1.09768E+02 2.70555E+01 0.00000E+00
 -1      1744 1.10889E+02 2.82349E+01 0.00000E+00
 -1      1745 1.12215E+02 2.92095E+01 0.00000E+00
 -1      1746 1.13740E+02 2.99478E+01 0.00000E+00
 -1      1747 1.15459E+02 3.03247E+01 0.00000E+00
 -1      1748 1.17208E+02 3.02179E+01 0.00000E+00
 -1      1749 1.18879E+02 2.97862E+01 0.00000E+00
 -1      1750 1.20408E+02 2.90735E+01 0.00000E+00
 -1      1751 1.21701E+02 2.80644E+01 0.00000E+00
 -1      1752 1.22853E+02 2.68843E+01 0.00000E+00
 -1      1753 1.23697E+02 2.54046E+01 0.00000E+00
 -1      1754 1.24196E+02 2.37352E+01 0.00000E+00
 -1      1755 2.87400E+00 4.77875E+01 0.00000E+00
 -1      1756 3.89700E+00 4.04125E+01 0.00000E+00
 -1      1757 3.89700E+00 4.18875E+01 0.00000E+00
 -1      1758 3.89700E+00 4.33625E+01 0.00000E+00
 -1      1759 3.89700E+00 4.48375E+01 0.00000E+00
 -1      1760 5.19600E+00 4.26250E+01 0.00000E+00
 -1      1761 3.89700E+00 3.45500E+01 0.00000E+00
 -1      1762 3.89700E+00 3.60000E+01 0.00000E+00
 -1      1763 3.89700E+00 3.16000E+01 0.00000E+00
 -1      1764 3.89700E+00 3.30750E+01 0.00000E+00
 -1      1765 5.19600E+00 3.38000E+01 0.00000E+00
 -1      1766 3.89700E+00 2.86500E+01 0.00000E+00
 -1      1767 3.89700E+00 3.01250E+01 0.00000E+00
 -1      1768 5.19600E+00 3.08500E+01 0.00000E+00
 -1      1769 3.89700E+00 2.57000E+01 0.00000E+00
 -1      1770 3.89700E+00 2.71750E+01 0.00000E+00
 -1      1771 5.19600E+00 2.79000E+01 0.00000E+00
 -1      1772 3.89700E+00 2.27500E+01 0.00000E+00
 -1      1773 3.89700E+00 2.42250E+01 0.00000E+00
 -1      1774 5.19600E+00 2.49500E+01 0.00000E+00
 -1      1775 3.89700E+00 1.98000E+01 0.00000E+00
 -1      1776 3.89700E+00 2.12750E+01 0.00000E+00
 -1      1777 5.19600E+00 2.20000E+01 0.00000E+00
 -1      1778 3.89700E+00 1.69000E+01 0.00000E+00
 -1      1779 3.89700E+00 1.83500E+01 0.00000E+00
 -1      1780 5.19600E+00 1.90750E+01 0.00000E+00
 -1      1781 3.89700E+00 1.39500E+01 0.00000E+00
 -1      1782 3.89700E+00 1.54250E+01 0.00000E+00
 -1      1783 5.19600E+00 1.61500E+01 0.00000E+00
 -1      1784 3.89700E+00 1.10000E+01 0.00000E+00
 -1      1785 3.89700E+00 1.24750E+01 0.00000E+00
 -1      1786 5.19600E+00 1.32000E+01 0.00000E+00
 -1      1787 3.89700E+00 8.05000E+00 0.00000E+00
 -1      1788 3.89700E+00 9.52500E+00 0.00000E+00
 -1      1789 5.19600E+00 1.02500E+01 0.00000E+00
 -1      1790 3.89700E+00 5.10000E+00 0.00000E+00
 -1      1791 3.89700E+00 6.57500E+00 0.00000E+00
 -1      1792 5.19600E+00 7.30000E+00 0.00000E+00
 -1      1793 4.20450E+00 3.09687E+00 0.00000E+00
 -1      1794 4.06650E+00 4.19063E+00 0.00000E+00
 -1      1795 5.36550E+00 4.91563E+00 0.00000E+00
 -1      1796 5.70450E+00 3.09687E+00 0.00000E+00
 -1      1797 3.62400E+00 4.64885E+01 0.00000E+00
 -1      1798 8.70450E+00 3.09687E+00 0.00000E+00
 -1      1799 7.20450E+00 3.09687E+00 0.00000E+00
 -1      1800 7.03500E+00 4.00625E+00 0.00000E+00
 -1      1801 4.92300E+00 4.57510E+01 0.00000E+00
 -1      1802 8.40000E+00 4.61030E+01 0.00000E+00
 -1      1803 9.90000E+00 4.61030E+01 0.00000E+00
 -1      1804 1.14000E+01 4.61030E+01 0.00000E+00
 -1      1805 1.29000E+01 4.61030E+01 0.00000E+00
 -1      1806 1.06500E+01 4.48040E+01 0.00000E+00
 -1      1807 1.44000E+01 4.61030E+01 0.00000E+00
 -1      1808 1.59000E+01 4.61030E+01 0.00000E+00
 -1      1809 1.36500E+01 4.48040E+01 0.00000E+00
 -1      1810 1.74000E+01 4.61030E+01 0.00000E+00
 -1      1811 1.89000E+01 4.61030E+01 0.00000E+00
 -1      1812 1.66500E+01 4.48040E+01 0.00000E+00
 -1      1813 2.04000E+01 4.61030E+01 0.00000E+00
 -1      1814 2.19000E+01 4.61030E+01 0.00000E+00
 -1      1815 1.96500E+01 4.48040E+01 0.00000E+00
 -1      1816 2.34000E+01 4.61030E+01 0.00000E+00
 -1      1817 2.49000E+01 4.61030E+01 0.00000E+00
 -1      1818 2.26500E+01 4.48040E+01 0.00000E+00
 -1      1819 2.64000E+01 4.61030E+01 0.00000E+00
 -1      1820 2.79000E+01 4.61030E+01 0.00000E+00
 -1      1821 2.56500E+01 4.48040E+01 0.00000E+00
 -1      1822 2.94000E+01 4.61030E+01 0.00000E+00
 -1      1823 3.09000E+01 4.61030E+01 0.00000E+00
 -1      1824 2.86500E+01 4.48040E+01 0.00000E+00
 -1      1825 3.24000E+01 4.61030E+01 0.00000E+00
 -1      1826 3.39000E+01 4.61030E+01 0.00000E+00
 -1      1827 3.16500E+01 4.48040E+01 0.00000E+00
 -1      1828 3.54000E+01 4.61030E+01 0.00000E+00
 -1      1829 3.69000E+01 4.61030E+01 0.00000E+00
 -1      1830 3.46500E+01 4.48040E+01 0.00000E+00
 -1      1831 3.84000E+01 4.61030E+01 0.00000E+00
 -1      1832 3.99000E+01 4.61030E+01 0.00000E+00
 -1      1833 3.76500E+01 4.48040E+01 0.00000E+00
 -1      1834 4.14000E+01 4.61030E+01 0.00000E+00
 -1      1835 4.29000E+01 4.61030E+01 0.00000E+00
 -1      1836 4.06500E+01 4.48040E+01 0.00000E+00
 -1      1837 4.44000E+01 4.61030E+01 0.00000E+00
 -1      1838 4.59000E+01 4.61030E+01 0.00000E+00
 -1      1839 4.36500E+01 4.48040E+01 0.00000E+00
 -1      1840 4.74000E+01 4.61030E+01 0.00000E+00
 -1      1841 4.89000E+01 4.61030E+01 0.00000E+00
 -1      1842 4.66500E+01 4.48040E+01 0.00000E+00
 -1      1843 5.04000E+01 4.61030E+01 0.00000E+00
 -1      1844 5.19000E+01 4.61030E+01 0.00000E+00
 -1      1845 4.96500E+01 4.48040E+01 0.00000E+00
 -1      1846 5.34000E+01 4.61030E+01 0.00000E+00
 -1      1847 5.49000E+01 4.61030E+01 0.00000E+00
 -1      1848 5.26500E+01 4.48040E+01 0.00000E+00
 -1      1849 5.64000E+01 4.61030E+01 0.00000E+00
 -1      1850 5.79000E+01 4.61030E+01 0.00000E+00
 -1      1851 5.56500E+01 4.48040E+01 0.00000E+00
 -1      1852 5.94000E+01 4.61030E+01 0.00000E+00
 -1      1853 6.09000E+01 4.61030E+01 0.00000E+00
 -1      1854 5.86500E+01 4.48040E+01 0.00000E+00
 -1      1855 6.24000E+01 4.61030E+01 0.00000E+00
 -1      1856 6.39000E+01 4.61030E+01 0.00000E+00
 -1      1857 6.16500E+01 4.48040E+01 0.00000E+00
 -1      1858 6.54000E+01 4.61030E+01 0.00000E+00
 -1      1859 6.69000E+01 4.61030E+01 0.00000E+00
 -1      1860 6.46500E+01 4.48040E+01 0.00000E+00
 -1      1861 6.84000E+01 4.61030E+01 0.00000E+00
 -1      1862 6.99000E+01 4.61030E+01 0.00000E+00
 -1      1863 6.76500E+01 4.48040E+01 0.00000E+00
 -1      1864 7.14000E+01 4.61030E+01 0.00000E+00
 -1      1865 7.29000E+01 4.61030E+01 0.00000E+00
 -1      1866 7.06500E+01 4.48040E+01 0.00000E+00
 -1      1867 7.44000E+01 4.61030E+01 0.00000E+00
 -1      1868 7.59000E+01 4.61030E+01 0.00000E+00
 -1      1869 7.36500E+01 4.48040E+01 0.00000E+00
 -1      1870 7.74000E+01 4.61030E+01 0.00000E+00
 -1      1871 7.89000E+01 4.61030E+01 0.00000E+00
 -1      1872 7.66500E+01 4.48040E+01 0.00000E+00
 -1      1873 8.04000E+01 4.61030E+01 0.00000E+00
 -1      1874 8.19000E+01 4.61030E+01 0.00000E+00
 -1      1875 7.96500E+01 4.48040E+01 0.00000E+00
 -1      1876 8.34000E+01 4.61030E+01 0.00000E+00
 -1      1877 8.49000E+01 4.61030E+01 0.00000E+00
 -1      1878 8.26500E+01 4.48040E+01 0.00000E+00
 -1      1879 8.64000E+01 4.61030E+01 0.00000E+00
 -1      1880 8.79000E+01 4.61030E+01 0.00000E+00
 -1      1881 8.56500E+01 4.48040E+01 0.00000E+00
 -1      1882 8.94000E+01 4.61030E+01 0.00000E+00
 -1      1883 9.09000E+01 4.61030E+01 0.00000E+00
 -1      1884 8.86500E+01 4.48040E+01 0.00000E+00
 -1      1885 9.24000E+01 4.61030E+01 0.00000E+00
 -1      1886 9.39000E+01 4.61030E+01 0.00000E+00
 -1      1887 9.16500E+01 4.48040E+01 0.00000E+00
 -1      1888 9.54000E+01 4.61030E+01 0.00000E+00
 -1      1889 9.69000E+01 4.61030E+01 0.00000E+00
 -1      1890 9.46500E+01 4.48040E+01 0.00000E+00
 -1      1891 9.84000E+01 4.61030E+01 0.00000E+00
 -1      1892 9.99000E+01 4.61030E+01 0.00000E+00
 -1      1893 9.76500E+01 4.48040E+01 0.00000E+00
 -1      1894 1.01400E+02 4.61030E+01 0.00000E+00
 -1      1895 1.02900E+02 4.61030E+01 0.00000E+00
 -1      1896 1.00650E+02 4.48040E+01 0.00000E+00
 -1      1897 1.04400E+02 4.61030E+01 0.00000E+00
 -1      1898 1.05900E+02 4.61030E+01 0.00000E+00
 -1      1899 1.03650E+02 4.48040E+01 0.00000E+00
 -1      1900 1.07400E+02 4.61030E+01 0.00000E+00
 -1      1901 1.08900E+02 4.61030E+01 0.00000E+00
 -1      1902 1.06650E+02 4.48040E+01 0.00000E+00
 -1      1903 1.10400E+02 4.61030E+01 0.00000E+00
 -1      1904 1.11900E+02 4.61030E+01 0.00000E+00
 -1      1905 1.09650E+02 4.48040E+01 0.00000E+00
 -1      1906 1.13400E+02 4.61030E+01 0.00000E+00
 -1      1907 1.14900E+02 4.61030E+01 0.00000E+00
 -1      1908 1.12650E+02 4.48040E+01 0.00000E+00
 -1      1909 1.16400E+02 4.61030E+01 0.00000E+00
 -1      1910 1.17900E+02 4.61030E+01 0.00000E+00
 -1      1911 1.15650E+02 4.48040E+01 0.00000E+00
 -1      1912 1.19400E+02 4.61030E+01 0.00000E+00
 -1      1913 1.20900E+02 4.61030E+01 0.00000E+00
 -1      1914 1.18650E+02 4.48040E+01 0.00000E+00
 -1      1915 1.22400E+02 4.61030E+01 0.00000E+00
 -1      1916 1.23900E+02 4.61030E+01 0.00000E+00
 -1      1917 1.21650E+02 4.48040E+01 0.00000E+00
 -1      1918 1.25400E+02 4.61030E+01 0.00000E+00
 -1      1919 1.26900E+02 4.61030E+01 0.00000E+00
 -1      1920 1.24650E+02 4.48040E+01 0.00000E+00
 -1      1921 1.28400E+02 4.61030E+01 0.00000E+00
 -1      1922 1.29900E+02 4.61030E+01 0.00000E+00
 -1      1923 1.27650E+02 4.48040E+01 0.00000E+00
 -1      1924 1.31400E+02 4.61030E+01 0.00000E+00
 -1      1925 1.32900E+02 4.61030E+01 0.00000E+00
 -1      1926 1.30650E+02 4.48040E+01 0.00000E+00
 -1      1927 1.34400E+02 4.61030E+01 0.00000E+00
 -1      1928 1.35900E+02 4.61030E+01 0.00000E+00
 -1      1929 1.33650E+02 4.48040E+01 0.00000E+00
 -1      1930 1.37400E+02 4.61030E+01 0.00000E+00
 -1      1931 1.38900E+02 4.61030E+01 0.00000E+00
 -1      1932 1.36650E+02 4.48040E+01 0.00000E+00
 -1      1933 1.40400E+02 4.61030E+01 0.00000E+00
 -1      1934 1.41900E+02 4.61030E+01 0.00000E+00
 -1      1935 1.39650E+02 4.48040E+01 0.00000E+00
 -1      1936 1.43244E+02 4.61616E+01 0.00000E+00
 -1      1937 1.44744E+02 4.61616E+01 0.00000E+00
 -1      1938 1.45182E+02 4.49799E+01 0.00000E+00
 -1      1939 1.42494E+02 4.48626E+01 0.00000E+00
 -1      1940 1.17045E+01 3.09687E+00 0.00000E+00
 -1      1941 1.02045E+01 3.09687E+00 0.00000E+00
 -1      1942 1.00350E+01 4.00625E+00 0.00000E+00
 -1      1943 1.47045E+01 3.09687E+00 0.00000E+00
 -1      1944 1.32045E+01 3.09687E+00 0.00000E+00
 -1      1945 1.30350E+01 4.00625E+00 0.00000E+00
 -1      1946 1.77045E+01 3.09687E+00 0.00000E+00
 -1      1947 1.62045E+01 3.09687E+00 0.00000E+00
 -1      1948 1.60350E+01 4.00625E+00 0.00000E+00
 -1      1949 2.07045E+01 3.09687E+00 0.00000E+00
 -1      1950 1.92045E+01 3.09687E+00 0.00000E+00
 -1      1951 1.90350E+01 4.00625E+00 0.00000E+00
 -1      1952 2.37045E+01 3.09687E+00 0.00000E+00
 -1      1953 2.22045E+01 3.09687E+00 0.00000E+00
 -1      1954 2.20350E+01 4.00625E+00 0.00000E+00
 -1      1955 2.67045E+01 3.09687E+00 0.00000E+00
 -1      1956 2.52045E+01 3.09687E+00 0.00000E+00
 -1      1957 2.50350E+01 4.00625E+00 0.00000E+00
 -1      1958 2.97045E+01 3.09687E+00 0.00000E+00
 -1      1959 2.82045E+01 3.09687E+00 0.00000E+00
 -1      1960 2.80350E+01 4.00625E+00 0.00000E+00
 -1      1961 3.27045E+01 3.09687E+00 0.00000E+00
 -1      1962 3.12045E+01 3.09687E+00 0.00000E+00
 -1      1963 3.10350E+01 4.00625E+00 0.00000E+00
 -1      1964 3.57045E+01 3.09687E+00 0.00000E+00
 -1      1965 3.42045E+01 3.09687E+00 0.00000E+00
 -1      1966 3.40350E+01 4.00625E+00 0.00000E+00
 -1      1967 3.87045E+01 3.09687E+00 0.00000E+00
 -1      1968 3.72045E+01 3.09687E+00 0.00000E+00
 -1      1969 3.70350E+01 4.00625E+00 0.00000E+00
 -1      1970 4.17045E+01 3.09687E+00 0.00000E+00
 -1      1971 4.02045E+01 3.09687E+00 0.00000E+00
 -1      1972 4.00350E+01 4.00625E+00 0.00000E+00
 -1      1973 4.47045E+01 3.09687E+00 0.00000E+00
 -1      1974 4.32045E+01 3.09687E+00 0.00000E+00
 -1      1975 4.30350E+01 4.00625E+00 0.00000E+00
 -1      1976 4.77045E+01 3.09687E+00 0.00000E+00
 -1      1977 4.62045E+01 3.09687E+00 0.00000E+00
 -1      1978 4.60350E+01 4.00625E+00 0.00000E+00
 -1      1979 5.07045E+01 3.09687E+00 0.00000E+00
 -1      1980 4.92045E+01 3.09687E+00 0.00000E+00
 -1      1981 4.90350E+01 4.00625E+00 0.00000E+00
 -1      1982 5.37045E+01 3.09687E+00 0.00000E+00
 -1      1983 5.22045E+01 3.09687E+00 0.00000E+00
 -1      1984 5.20350E+01 4.00625E+00 0.00000E+00
 -1      1985 5.67045E+01 3.09687E+00 0.00000E+00
 -1      1986 5.52045E+01 3.09687E+00 0.00000E+00
 -1      1987 5.50350E+01 4.00625E+00 0.00000E+00
 -1      1988 5.97045E+01 3.09687E+00 0.00000E+00
 -1      1989 5.82045E+01 3.09687E+00 0.00000E+00
 -1      1990 5.80350E+01 4.00625E+00 0.00000E+00
 -1      1991 6.27045E+01 3.09687E+00 0.00000E+00
 -1      1992 6.12045E+01 3.09687E+00 0.00000E+00
 -1      1993 6.10350E+01 4.00625E+00 0.00000E+00
 -1      1994 6.57045E+01 3.09687E+00 0.00000E+00
 -1      1995 6.42045E+01 3.09687E+00 0.00000E+00
 -1      1996 6.40350E+01 4.00625E+00 0.00000E+00
 -1      1997 6.87045E+01 3.09687E+00 0.00000E+00
 -1      1998 6.72045E+01 3.09687E+00 0.00000E+00
 -1      1999 6.70350E+01 4.00625E+00 0.00000E+00
 -1      2000 7.17045E+01 3.09687E+00 0.00000E+00
 -1      2001 7.02045E+01 3.09687E+00 0.00000E+00
 -1      2002 7.00350E+01 4.00625E+00 0.00000E+00
 -1      2003 7.47045E+01 3.09687E+00 0.00000E+00
 -1      2004 7.32045E+01 3.09687E+00 0.00000E+00
 -1      2005 7.30350E+01 4.00625E+00 0.00000E+00
 -1      2006 7.77045E+01 3.09687E+00 0.00000E+00
 -1      2007 7.62045E+01 3.09687E+00 0.00000E+00
 -1      2008 7.60350E+01 4.00625E+00 0.00000E+00
 -1      2009 8.07045E+01 3.09687E+00 0.00000E+00
 -1      2010 7.92045E+01 3.09687E+00 0.00000E+00
 -1      2011 7.90350E+01 4.00625E+00 0.00000E+00
 -1      2012 8.37045E+01 3.09687E+00 0.00000E+00
 -1      2013 8.22045E+01 3.09687E+00 0.00000E+00
 -1      2014 8.20350E+01 4.00625E+00 0.00000E+00
 -1      2015 8.67045E+01 3.09687E+00 0.00000E+00
 -1      2016 8.52045E+01 3.09687E+00 0.00000E+00
 -1      2017 8.50350E+01 4.00625E+00 0.00000E+00
 -1      2018 8.97045E+01 3.09687E+00 0.00000E+00
 -1      2019 8.82045E+01 3.09687E+00 0.00000E+00
 -1      2020 8.80350E+01 4.00625E+00 0.00000E+00
 -1      2021 9.27045E+01 3.09687E+00 0.00000E+00
 -1      2022 9.12045E+01 3.09687E+00 0.00000E+00
 -1      2023 9.10350E+01 4.00625E+00 0.00000E+00
 -1      2024 9.57045E+01 3.09687E+00 0.00000E+00
 -1      2025 9.42045E+01 3.09687E+00 0.00000E+00
 -1      2026 9.40350E+01 4.00625E+00 0.00000E+00
 -1      2027 9.87045E+01 3.09687E+00 0.00000E+00
 -1      2028 9.72045E+01 3.09687E+00 0.00000E+00
 -1      2029 9.70350E+01 4.00625E+00 0.00000E+00
 -1      2030 1.01704E+02 3.09687E+00 0.00000E+00
 -1      2031 1.00204E+02 3.09687E+00 0.00000E+00
 -1      2032 1.00035E+02 4.00625E+00 0.00000E+00
 -1      2033 1.04704E+02 3.09687E+00 0.00000E+00
 -1      2034 1.03204E+02 3.09687E+00 0.00000E+00
 -1      2035 1.03035E+02 4.00625E+00 0.00000E+00
 -1      2036 1.07704E+02 3.09687E+00 0.00000E+00
 -1      2037 1.06204E+02 3.09687E+00 0.00000E+00
 -1      2038 1.06035E+02 4.00625E+00 0.00000E+00
 -1      2039 1.10704E+02 3.09687E+00 0.00000E+00
 -1      2040 1.09204E+02 3.09687E+00 0.00000E+00
 -1      2041 1.09035E+02 4.00625E+00 0.00000E+00
 -1      2042 1.13704E+02 3.09687E+00 0.00000E+00
 -1      2043 1.12204E+02 3.09687E+00 0.00000E+00
 -1      2044 1.12035E+02 4.00625E+00 0.00000E+00
 -1      2045 1.16704E+02 3.09687E+00 0.00000E+00
 -1      2046 1.15204E+02 3.09687E+00 0.00000E+00
 -1      2047 1.15035E+02 4.00625E+00 0.00000E+00
 -1      2048 1.19704E+02 3.09687E+00 0.00000E+00
 -1      2049 1.18204E+02 3.09687E+00 0.00000E+00
 -1      2050 1.18035E+02 4.00625E+00 0.00000E+00
 -1      2051 1.22704E+02 3.09687E+00 0.00000E+00
 -1      2052 1.21204E+02 3.09687E+00 0.00000E+00
 -1      2053 1.21035E+02 4.00625E+00 0.00000E+00
 -1      2054 1.25704E+02 3.09687E+00 0.00000E+00
 -1      2055 1.24204E+02 3.09687E+00 0.00000E+00
 -1      2056 1.24035E+02 4.00625E+00 0.00000E+00
 -1      2057 1.28704E+02 3.09687E+00 0.00000E+00
 -1      2058 1.27204E+02 3.09687E+00 0.00000E+00
 -1      2059 1.27035E+02 4.00625E+00 0.00000E+00
 -1      2060 1.31704E+02 3.09687E+00 0.00000E+00
 -1      2061 1.30204E+02 3.09687E+00 0.00000E+00
 -1      2062 1.30035E+02 4.00625E+00 0.00000E+00
 -1      2063 1.34704E+02 3.09687E+00 0.00000E+00
 -1      2064 1.33204E+02 3.09687E+00 0.00000E+00
 -1      2065 1.33035E+02 4.00625E+00 0.00000E+00
 -1      2066 1.37704E+02 3.09687E+00 0.00000E+00
 -1      2067 1.36204E+02 3.09687E+00 0.00000E+00
 -1      2068 1.36035E+02 4.00625E+00 0.00000E+00
 -1      2069 1.40704E+02 3.09687E+00 0.00000E+00
 -1      2070 1.39204E+02 3.09687E+00 0.00000E+00
 -1      2071 1.39035E+02 4.00625E+00 0.00000E+00
 -1      2072 1.43704E+02 3.09687E+00 0.00000E+00
 -1      2073 1.42204E+02 3.09687E+00 0.00000E+00
 -1      2074 1.42035E+02 4.00625E+00 0.00000E+00
 -1      2075 1.46171E+02 3.20156E+00 0.00000E+00
 -1      2076 1.44671E+02 3.20156E+00 0.00000E+00
 -1      2077 1.44502E+02 4.11094E+00 0.00000E+00
 -1      2078 1.46435E+02 4.32031E+00 0.00000E+00
 -1      2079 1.46103E+02 1.25375E+01 0.00000E+00
 -1      2080 1.46103E+02 1.10625E+01 0.00000E+00
 -1      2081 1.46103E+02 9.58750E+00 0.00000E+00
 -1      2082 1.46103E+02 8.11250E+00 0.00000E+00
 -1      2083 1.44804E+02 1.03250E+01 0.00000E+00
 -1      2084 1.46269E+02 6.95391E+00 0.00000E+00
 -1      2085 1.46269E+02 5.47891E+00 0.00000E+00
 -1      2086 1.45302E+02 5.37422E+00 0.00000E+00
 -1      2087 1.44970E+02 7.69141E+00 0.00000E+00
 -1      2088 1.46103E+02 1.54375E+01 0.00000E+00
 -1      2089 1.46103E+02 1.39875E+01 0.00000E+00
 -1      2090 1.44804E+02 1.32500E+01 0.00000E+00
 -1      2091 1.46103E+02 1.83875E+01 0.00000E+00
 -1      2092 1.46103E+02 1.69125E+01 0.00000E+00
 -1      2093 1.44804E+02 1.61750E+01 0.00000E+00
 -1      2094 1.46103E+02 2.13375E+01 0.00000E+00
 -1      2095 1.46103E+02 1.98625E+01 0.00000E+00
 -1      2096 1.44804E+02 1.91250E+01 0.00000E+00
 -1      2097 1.46103E+02 2.42875E+01 0.00000E+00
 -1      2098 1.46103E+02 2.28125E+01 0.00000E+00
 -1      2099 1.44804E+02 2.20750E+01 0.00000E+00
 -1      2100 1.46103E+02 2.72375E+01 0.00000E+00
 -1      2101 1.46103E+02 2.57625E+01 0.00000E+00
 -1      2102 1.44804E+02 2.50250E+01 0.00000E+00
 -1      2103 1.46103E+02 3.01875E+01 0.00000E+00
 -1      2104 1.46103E+02 2.87125E+01 0.00000E+00
 -1      2105 1.44804E+02 2.79750E+01 0.00000E+00
 -1      2106 1.46103E+02 3.30875E+01 0.00000E+00
 -1      2107 1.46103E+02 3.16375E+01 0.00000E+00
 -1      2108 1.44804E+02 3.09000E+01 0.00000E+00
 -1      2109 1.46103E+02 3.60375E+01 0.00000E+00
 -1      2110 1.46103E+02 3.45625E+01 0.00000E+00
 -1      2111 1.44804E+02 3.38250E+01 0.00000E+00
 -1      2112 1.46103E+02 3.89875E+01 0.00000E+00
 -1      2113 1.46103E+02 3.75125E+01 0.00000E+00
 -1      2114 1.44804E+02 3.67750E+01 0.00000E+00
 -1      2115 1.46103E+02 4.19375E+01 0.00000E+00
 -1      2116 1.46103E+02 4.04625E+01 0.00000E+00
 -1      2117 1.44804E+02 3.97250E+01 0.00000E+00
 -1      2118 1.24072E+02 1.81610E+01 0.00000E+00
 -1      2119 1.24407E+02 1.89253E+01 0.00000E+00
 -1      2120 1.25080E+02 2.16034E+01 0.00000E+00
 -1      2121 1.25123E+02 2.24470E+01 0.00000E+00
 -1      2122 1.24824E+02 1.98214E+01 0.00000E+00
 -1      2123 1.24998E+02 2.06473E+01 0.00000E+00
 -1      2124 1.23143E+02 1.66138E+01 0.00000E+00
 -1      2125 1.23630E+02 1.72968E+01 0.00000E+00
 -1      2126 1.21865E+02 1.52979E+01 0.00000E+00
 -1      2127 1.22492E+02 1.58762E+01 0.00000E+00
 -1      2128 3.89700E+00 3.74688E+01 0.00000E+00
 -1      2129 3.89700E+00 3.89437E+01 0.00000E+00
 -1      2130 5.19600E+00 3.96813E+01 0.00000E+00
 -1      2131 5.19600E+00 3.67438E+01 0.00000E+00
 -1      2132 1.18241E+02 1.33873E+01 0.00000E+00
 -1      2133 1.19204E+02 1.34745E+01 0.00000E+00
 -1      2134 1.16510E+02 1.30904E+01 0.00000E+00
 -1      2135 1.17376E+02 1.32388E+01 0.00000E+00
 -1      2136 1.17919E+02 1.25953E+01 0.00000E+00
 -1      2137 1.14462E+02 1.32902E+01 0.00000E+00
 -1      2138 1.15348E+02 1.30837E+01 0.00000E+00
 -1      2139 1.12845E+02 1.38793E+01 0.00000E+00
 -1      2140 1.13653E+02 1.35848E+01 0.00000E+00
 -1      2141 1.13921E+02 1.27279E+01 0.00000E+00
 -1      2142 1.11154E+02 1.48154E+01 0.00000E+00
 -1      2143 1.11858E+02 1.43731E+01 0.00000E+00
 -1      2144 1.09699E+02 1.59227E+01 0.00000E+00
 -1      2145 1.10390E+02 1.53638E+01 0.00000E+00
 -1      2146 1.08476E+02 1.75326E+01 0.00000E+00
 -1      2147 1.08897E+02 1.67572E+01 0.00000E+00
 -1      2148 1.07831E+02 1.91819E+01 0.00000E+00
 -1      2149 1.08180E+02 1.84090E+01 0.00000E+00
 -1      2150 1.07323E+02 2.10000E+01 0.00000E+00
 -1      2151 1.07427E+02 2.01598E+01 0.00000E+00
 -1      2152 1.07341E+02 2.28141E+01 0.00000E+00
 -1      2153 1.07346E+02 2.19459E+01 0.00000E+00
 -1      2154 1.07588E+02 2.47546E+01 0.00000E+00
 -1      2155 1.07335E+02 2.39186E+01 0.00000E+00
 -1      2156 1.08503E+02 2.63244E+01 0.00000E+00
 -1      2157 1.08137E+02 2.55818E+01 0.00000E+00
 -1      2158 1.09506E+02 2.77755E+01 0.00000E+00
 -1      2159 1.09005E+02 2.71292E+01 0.00000E+00
 -1      2160 1.10750E+02 2.90248E+01 0.00000E+00
 -1      2161 1.10129E+02 2.84916E+01 0.00000E+00
 -1      2162 1.12158E+02 3.00863E+01 0.00000E+00
 -1      2163 1.11452E+02 2.96448E+01 0.00000E+00
 -1      2164 1.13885E+02 3.08236E+01 0.00000E+00
 -1      2165 1.13067E+02 3.05269E+01 0.00000E+00
 -1      2166 1.15841E+02 3.11356E+01 0.00000E+00
 -1      2167 1.14940E+02 3.10553E+01 0.00000E+00
 -1      2168 1.17790E+02 3.08391E+01 0.00000E+00
 -1      2169 1.16942E+02 3.10261E+01 0.00000E+00
 -1      2170 1.19437E+02 3.03498E+01 0.00000E+00
 -1      2171 1.18613E+02 3.05944E+01 0.00000E+00
 -1      2172 1.18347E+02 3.14026E+01 0.00000E+00
 -1      2173 1.21188E+02 2.94840E+01 0.00000E+00
 -1      2174 1.20483E+02 2.99521E+01 0.00000E+00
 -1      2175 1.22366E+02 2.84019E+01 0.00000E+00
 -1      2176 1.21777E+02 2.89430E+01 0.00000E+00
 -1      2177 1.21853E+02 2.98216E+01 0.00000E+00
 -1      2178 1.23683E+02 2.70482E+01 0.00000E+00
 -1      2179 1.23121E+02 2.76873E+01 0.00000E+00
 -1      2180 1.24532E+02 2.52169E+01 0.00000E+00
 -1      2181 1.24250E+02 2.60575E+01 0.00000E+00
 -1      2182 1.24967E+02 2.35594E+01 0.00000E+00
 -1      2183 1.24749E+02 2.43882E+01 0.00000E+00
 -1      2184 1.25302E+02 2.50411E+01 0.00000E+00
 -1      2185 1.20405E+02 1.39871E+01 0.00000E+00
 -1      2186 1.21135E+02 1.46425E+01 0.00000E+00
 -1      2187 1.21916E+02 1.44243E+01 0.00000E+00
 -1      2188 1.23297E+02 1.58174E+01 0.00000E+00
 -1      2189 6.42300E+00 4.57510E+01 0.00000E+00
 -1      2190 1.19566E+02 1.25255E+01 0.00000E+00
 -1      2191 1.19985E+02 1.32563E+01 0.00000E+00
 -1      2192 1.20767E+02 1.30382E+01 0.00000E+00
 -1      2193 7.17300E+00 4.44520E+01 0.00000E+00
 -1      2194 1.25251E+02 1.91793E+01 0.00000E+00
 -1      2195 1.25750E+02 2.10314E+01 0.00000E+00
 -1      2196 1.45665E+02 4.31193E+01 0.00000E+00
 -1      2197 1.24391E+02 1.74191E+01 0.00000E+00
 -1      2198 1.25676E+02 2.30999E+01 0.00000E+00
 -1      2199 1.23197E+02 2.85659E+01 0.00000E+00
 -1      2200 1.20217E+02 3.07603E+01 0.00000E+00
 -1      2201 1.16423E+02 3.17567E+01 0.00000E+00
 -1      2202 1.14267E+02 3.16344E+01 0.00000E+00
 -1      2203 1.12304E+02 3.09621E+01 0.00000E+00
 -1      2204 1.10692E+02 2.99015E+01 0.00000E+00
 -1      2205 1.09367E+02 2.85654E+01 0.00000E+00
 -1      2206 1.08241E+02 2.70444E+01 0.00000E+00
 -1      2207 1.07190E+02 2.54124E+01 0.00000E+00
 -1      2208 1.06647E+02 2.34808E+01 0.00000E+00
 -1      2209 1.06630E+02 2.14304E+01 0.00000E+00
 -1      2210 1.07011E+02 1.95065E+01 0.00000E+00
 -1      2211 1.07711E+02 1.76522E+01 0.00000E+00
 -1      2212 1.08808E+02 1.59412E+01 0.00000E+00
 -1      2213 1.12126E+02 1.35163E+01 0.00000E+00
 -1      2214 1.15892E+02 1.24401E+01 0.00000E+00
 -1      2215 1.10375E+02 1.45584E+01 0.00000E+00
 -1      2216 1.24518E+02 2.68606E+01 0.00000E+00
 -1      2217 1.07850E+01 5.30525E+00 0.00000E+00
 -1      2218 9.28500E+00 5.30525E+00 0.00000E+00
 -1      2219 6.49500E+00 3.01125E+01 0.00000E+00
 -1      2220 6.49500E+00 3.15875E+01 0.00000E+00
 -1      2221 6.49500E+00 3.30625E+01 0.00000E+00
 -1      2222 6.49500E+00 3.45375E+01 0.00000E+00
 -1      2223 7.79400E+00 3.23250E+01 0.00000E+00
 -1      2224 6.49500E+00 2.42125E+01 0.00000E+00
 -1      2225 6.49500E+00 2.56875E+01 0.00000E+00
 -1      2226 6.49500E+00 2.12625E+01 0.00000E+00
 -1      2227 6.49500E+00 2.27375E+01 0.00000E+00
 -1      2228 7.79400E+00 2.34750E+01 0.00000E+00
 -1      2229 6.49500E+00 1.83625E+01 0.00000E+00
 -1      2230 6.49500E+00 1.98125E+01 0.00000E+00
 -1      2231 7.79400E+00 2.05500E+01 0.00000E+00
 -1      2232 6.49500E+00 1.54125E+01 0.00000E+00
 -1      2233 6.49500E+00 1.68875E+01 0.00000E+00
 -1      2234 7.79400E+00 1.76250E+01 0.00000E+00
 -1      2235 6.49500E+00 1.24625E+01 0.00000E+00
 -1      2236 6.49500E+00 1.39375E+01 0.00000E+00
 -1      2237 7.79400E+00 1.46750E+01 0.00000E+00
 -1      2238 6.49500E+00 9.51250E+00 0.00000E+00
 -1      2239 6.49500E+00 1.09875E+01 0.00000E+00
 -1      2240 7.79400E+00 1.17250E+01 0.00000E+00
 -1      2241 1.23677E+02 1.48255E+01 0.00000E+00
 -1      2242 1.24328E+02 1.55631E+01 0.00000E+00
 -1      2243 1.37850E+01 5.30525E+00 0.00000E+00
 -1      2244 1.22850E+01 5.30525E+00 0.00000E+00
 -1      2245 1.15350E+01 6.60425E+00 0.00000E+00
 -1      2246 9.90000E+00 4.35050E+01 0.00000E+00
 -1      2247 1.14000E+01 4.35050E+01 0.00000E+00
 -1      2248 1.29000E+01 4.35050E+01 0.00000E+00
 -1      2249 1.44000E+01 4.35050E+01 0.00000E+00
 -1      2250 1.21500E+01 4.22060E+01 0.00000E+00
 -1      2251 1.59000E+01 4.35050E+01 0.00000E+00
 -1      2252 1.74000E+01 4.35050E+01 0.00000E+00
 -1      2253 1.51500E+01 4.22060E+01 0.00000E+00
 -1      2254 1.89000E+01 4.35050E+01 0.00000E+00
 -1      2255 2.04000E+01 4.35050E+01 0.00000E+00
 -1      2256 1.81500E+01 4.22060E+01 0.00000E+00
 -1      2257 2.19000E+01 4.35050E+01 0.00000E+00
 -1      2258 2.34000E+01 4.35050E+01 0.00000E+00
 -1      2259 2.11500E+01 4.22060E+01 0.00000E+00
 -1      2260 2.49000E+01 4.35050E+01 0.00000E+00
 -1      2261 2.64000E+01 4.35050E+01 0.00000E+00
 -1      2262 2.41500E+01 4.22060E+01 0.00000E+00
 -1      2263 2.79000E+01 4.35050E+01 0.00000E+00
 -1      2264 2.94000E+01 4.35050E+01 0.00000E+00
 -1      2265 2.71500E+01 4.22060E+01 0.00000E+00
 -1      2266 3.09000E+01 4.35050E+01 0.00000E+00
 -1      2267 3.24000E+01 4.35050E+01 0.00000E+00
 -1      2268 3.01500E+01 4.22060E+01 0.00000E+00
 -1      2269 3.39000E+01 4.35050E+01 0.00000E+00
 -1      2270 3.54000E+01 4.35050E+01 0.00000E+00
 -1      2271 3.31500E+01 4.22060E+01 0.00000E+00
 -1      2272 3.69000E+01 4.35050E+01 0.00000E+00
 -1      2273 3.84000E+01 4.35050E+01 0.00000E+00
 -1      2274 3.61500E+01 4.22060E+01 0.00000E+00
 -1      2275 3.99000E+01 4.35050E+01 0.00000E+00
 -1      2276 4.14000E+01 4.35050E+01 0.00000E+00
 -1      2277 3.91500E+01 4.22060E+01 0.00000E+00
 -1      2278 4.29000E+01 4.35050E+01 0.00000E+00
 -1      2279 4.44000E+01 4.35050E+01 0.00000E+00
 -1      2280 4.21500E+01 4.22060E+01 0.00000E+00
 -1      2281 4.59000E+01 4.35050E+01 0.00000E+00
 -1      2282 4.74000E+01 4.35050E+01 0.00000E+00
 -1      2283 4.51500E+01 4.22060E+01 0.00000E+00
 -1      2284 4.89000E+01 4.35050E+01 0.00000E+00
 -1      2285 5.04000E+01 4.35050E+01 0.00000E+00
 -1      2286 4.81500E+01 4.22060E+01 0.00000E+00
 -1      2287 5.19000E+01 4.35050E+01 0.00000E+00
 -1      2288 5.34000E+01 4.35050E+01 0.00000E+00
 -1      2289 5.11500E+01 4.22060E+01 0.00000E+00
 -1      2290 5.49000E+01 4.35050E+01 0.00000E+00
 -1      2291 5.64000E+01 4.35050E+01 0.00000E+00
 -1      2292 5.41500E+01 4.22060E+01 0.00000E+00
 -1      2293 5.79000E+01 4.35050E+01 0.00000E+00
 -1      2294 5.94000E+01 4.35050E+01 0.00000E+00
 -1      2295 5.71500E+01 4.22060E+01 0.00000E+00
 -1      2296 6.09000E+01 4.35050E+01 0.00000E+00
 -1      2297 6.24000E+01 4.35050E+01 0.00000E+00
 -1      2298 6.01500E+01 4.22060E+01 0.00000E+00
 -1      2299 6.39000E+01 4.35050E+01 0.00000E+00
 -1      2300 6.54000E+01 4.35050E+01 0.00000E+00
 -1      2301 6.31500E+01 4.22060E+01 0.00000E+00
 -1      2302 6.69000E+01 4.35050E+01 0.00000E+00
 -1      2303 6.84000E+01 4.35050E+01 0.00000E+00
 -1      2304 6.61500E+01 4.22060E+01 0.00000E+00
 -1      2305 6.99000E+01 4.35050E+01 0.00000E+00
 -1      2306 7.14000E+01 4.35050E+01 0.00000E+00
 -1      2307 6.91500E+01 4.22060E+01 0.00000E+00
 -1      2308 7.29000E+01 4.35050E+01 0.00000E+00
 -1      2309 7.44000E+01 4.35050E+01 0.00000E+00
 -1      2310 7.21500E+01 4.22060E+01 0.00000E+00
 -1      2311 7.59000E+01 4.35050E+01 0.00000E+00
 -1      2312 7.74000E+01 4.35050E+01 0.00000E+00
 -1      2313 7.51500E+01 4.22060E+01 0.00000E+00
 -1      2314 7.89000E+01 4.35050E+01 0.00000E+00
 -1      2315 8.04000E+01 4.35050E+01 0.00000E+00
 -1      2316 7.81500E+01 4.22060E+01 0.00000E+00
 -1      2317 8.19000E+01 4.35050E+01 0.00000E+00
 -1      2318 8.34000E+01 4.35050E+01 0.00000E+00
 -1      2319 8.11500E+01 4.22060E+01 0.00000E+00
 -1      2320 8.49000E+01 4.35050E+01 0.00000E+00
 -1      2321 8.64000E+01 4.35050E+01 0.00000E+00
 -1      2322 8.41500E+01 4.22060E+01 0.00000E+00
 -1      2323 8.79000E+01 4.35050E+01 0.00000E+00
 -1      2324 8.94000E+01 4.35050E+01 0.00000E+00
 -1      2325 8.71500E+01 4.22060E+01 0.00000E+00
 -1      2326 9.09000E+01 4.35050E+01 0.00000E+00
 -1      2327 9.24000E+01 4.35050E+01 0.00000E+00
 -1      2328 9.01500E+01 4.22060E+01 0.00000E+00
 -1      2329 9.39000E+01 4.35050E+01 0.00000E+00
 -1      2330 9.54000E+01 4.35050E+01 0.00000E+00
 -1      2331 9.31500E+01 4.22060E+01 0.00000E+00
 -1      2332 9.69000E+01 4.35050E+01 0.00000E+00
 -1      2333 9.84000E+01 4.35050E+01 0.00000E+00
 -1      2334 9.61500E+01 4.22060E+01 0.00000E+00
 -1      2335 9.99000E+01 4.35050E+01 0.00000E+00
 -1      2336 1.01400E+02 4.35050E+01 0.00000E+00
 -1      2337 9.91500E+01 4.22060E+01 0.00000E+00
 -1      2338 1.02900E+02 4.35050E+01 0.00000E+00
 -1      2339 1.04400E+02 4.35050E+01 0.00000E+00
 -1      2340 1.02150E+02 4.22060E+01 0.00000E+00
 -1      2341 1.05900E+02 4.35050E+01 0.00000E+00
 -1      2342 1.07400E+02 4.35050E+01 0.00000E+00
 -1      2343 1.05150E+02 4.22060E+01 0.00000E+00
 -1      2344 1.08900E+02 4.35050E+01 0.00000E+00
 -1      2345 1.10400E+02 4.35050E+01 0.00000E+00
 -1      2346 1.08150E+02 4.22060E+01 0.00000E+00
 -1      2347 1.11900E+02 4.35050E+01 0.00000E+00
 -1      2348 1.13400E+02 4.35050E+01 0.00000E+00
 -1      2349 1.11150E+02 4.22060E+01 0.00000E+00
 -1      2350 1.14900E+02 4.35050E+01 0.00000E+00
 -1      2351 1.16400E+02 4.35050E+01 0.00000E+00
 -1      2352 1.14150E+02 4.22060E+01 0.00000E+00
 -1      2353 1.17900E+02 4.35050E+01 0.00000E+00
 -1      2354 1.19400E+02 4.35050E+01 0.00000E+00
 -1      2355 1.17150E+02 4.22060E+01 0.00000E+00
 -1      2356 1.20900E+02 4.35050E+01 0.00000E+00
 -1      2357 1.22400E+02 4.35050E+01 0.00000E+00
 -1      2358 1.20150E+02 4.22060E+01 0.00000E+00
 -1      2359 1.23900E+02 4.35050E+01 0.00000E+00
 -1      2360 1.25400E+02 4.35050E+01 0.00000E+00
 -1      2361 1.23150E+02 4.22060E+01 0.00000E+00
 -1      2362 1.26900E+02 4.35050E+01 0.00000E+00
 -1      2363 1.28400E+02 4.35050E+01 0.00000E+00
 -1      2364 1.26150E+02 4.22060E+01 0.00000E+00
 -1      2365 1.29900E+02 4.35050E+01 0.00000E+00
 -1      2366 1.31400E+02 4.35050E+01 0.00000E+00
 -1      2367 1.29150E+02 4.22060E+01 0.00000E+00
 -1      2368 1.32900E+02 4.35050E+01 0.00000E+00
 -1      2369 1.34400E+02 4.35050E+01 0.00000E+00
 -1      2370 1.32150E+02 4.22060E+01 0.00000E+00
 -1      2371 1.35900E+02 4.35050E+01 0.00000E+00
 -1      2372 1.37400E+02 4.35050E+01 0.00000E+00
 -1      2373 1.35150E+02 4.22060E+01 0.00000E+00
 -1      2374 1.38900E+02 4.35050E+01 0.00000E+00
 -1      2375 1.40400E+02 4.35050E+01 0.00000E+00
 -1      2376 1.38150E+02 4.22060E+01 0.00000E+00
 -1      2377 1.97850E+01 5.30525E+00 0.00000E+00
 -1      2378 1.82850E+01 5.30525E+00 0.00000E+00
 -1      2379 2.27850E+01 5.30525E+00 0.00000E+00
 -1      2380 2.12850E+01 5.30525E+00 0.00000E+00
 -1      2381 2.05350E+01 6.60425E+00 0.00000E+00
 -1      2382 2.57850E+01 5.30525E+00 0.00000E+00
 -1      2383 2.42850E+01 5.30525E+00 0.00000E+00
 -1      2384 2.35350E+01 6.60425E+00 0.00000E+00
 -1      2385 2.87850E+01 5.30525E+00 0.00000E+00
 -1      2386 2.72850E+01 5.30525E+00 0.00000E+00
 -1      2387 2.65350E+01 6.60425E+00 0.00000E+00
 -1      2388 3.17850E+01 5.30525E+00 0.00000E+00
 -1      2389 3.02850E+01 5.30525E+00 0.00000E+00
 -1      2390 2.95350E+01 6.60425E+00 0.00000E+00
 -1      2391 3.47850E+01 5.30525E+00 0.00000E+00
 -1      2392 3.32850E+01 5.30525E+00 0.00000E+00
 -1      2393 3.25350E+01 6.60425E+00 0.00000E+00
 -1      2394 3.77850E+01 5.30525E+00 0.00000E+00
 -1      2395 3.62850E+01 5.30525E+00 0.00000E+00
 -1      2396 3.55350E+01 6.60425E+00 0.00000E+00
 -1      2397 4.07850E+01 5.30525E+00 0.00000E+00
 -1      2398 3.92850E+01 5.30525E+00 0.00000E+00
 -1      2399 3.85350E+01 6.60425E+00 0.00000E+00
 -1      2400 4.37850E+01 5.30525E+00 0.00000E+00
 -1      2401 4.22850E+01 5.30525E+00 0.00000E+00
 -1      2402 4.15350E+01 6.60425E+00 0.00000E+00
 -1      2403 4.67850E+01 5.30525E+00 0.00000E+00
 -1      2404 4.52850E+01 5.30525E+00 0.00000E+00
 -1      2405 4.45350E+01 6.60425E+00 0.00000E+00
 -1      2406 4.97850E+01 5.30525E+00 0.00000E+00
 -1      2407 4.82850E+01 5.30525E+00 0.00000E+00
 -1      2408 4.75350E+01 6.60425E+00 0.00000E+00
 -1      2409 5.27850E+01 5.30525E+00 0.00000E+00
 -1      2410 5.12850E+01 5.30525E+00 0.00000E+00
 -1      2411 5.05350E+01 6.60425E+00 0.00000E+00
 -1      2412 5.57850E+01 5.30525E+00 0.00000E+00
 -1      2413 5.42850E+01 5.30525E+00 0.00000E+00
 -1      2414 5.35350E+01 6.60425E+00 0.00000E+00
 -1      2415 5.87850E+01 5.30525E+00 0.00000E+00
 -1      2416 5.72850E+01 5.30525E+00 0.00000E+00
 -1      2417 5.65350E+01 6.60425E+00 0.00000E+00
 -1      2418 6.17850E+01 5.30525E+00 0.00000E+00
 -1      2419 6.02850E+01 5.30525E+00 0.00000E+00
 -1      2420 5.95350E+01 6.60425E+00 0.00000E+00
 -1      2421 6.47850E+01 5.30525E+00 0.00000E+00
 -1      2422 6.32850E+01 5.30525E+00 0.00000E+00
 -1      2423 6.25350E+01 6.60425E+00 0.00000E+00
 -1      2424 6.77850E+01 5.30525E+00 0.00000E+00
 -1      2425 6.62850E+01 5.30525E+00 0.00000E+00
 -1      2426 6.55350E+01 6.60425E+00 0.00000E+00
 -1      2427 7.07850E+01 5.30525E+00 0.00000E+00
 -1      2428 6.92850E+01 5.30525E+00 0.00000E+00
 -1      2429 6.85350E+01 6.60425E+00 0.00000E+00
 -1      2430 7.37850E+01 5.30525E+00 0.00000E+00
 -1      2431 7.22850E+01 5.30525E+00 0.00000E+00
 -1      2432 7.15350E+01 6.60425E+00 0.00000E+00
 -1      2433 7.67850E+01 5.30525E+00 0.00000E+00
 -1      2434 7.52850E+01 5.30525E+00 0.00000E+00
 -1      2435 7.45350E+01 6.60425E+00 0.00000E+00
 -1      2436 7.97850E+01 5.30525E+00 0.00000E+00
 -1      2437 7.82850E+01 5.30525E+00 0.00000E+00
 -1      2438 7.75350E+01 6.60425E+00 0.00000E+00
 -1      2439 8.27850E+01 5.30525E+00 0.00000E+00
 -1      2440 8.12850E+01 5.30525E+00 0.00000E+00
 -1      2441 8.05350E+01 6.60425E+00 0.00000E+00
 -1      2442 8.57850E+01 5.30525E+00 0.00000E+00
 -1      2443 8.42850E+01 5.30525E+00 0.00000E+00
 -1      2444 8.35350E+01 6.60425E+00 0.00000E+00
 -1      2445 8.87850E+01 5.30525E+00 0.00000E+00
 -1      2446 8.72850E+01 5.30525E+00 0.00000E+00
 -1      2447 8.65350E+01 6.60425E+00 0.00000E+00
 -1      2448 9.17850E+01 5.30525E+00 0.00000E+00
 -1      2449 9.02850E+01 5.30525E+00 0.00000E+00
 -1      2450 8.95350E+01 6.60425E+00 0.00000E+00
 -1      2451 9.47850E+01 5.30525E+00 0.00000E+00
 -1      2452 9.32850E+01 5.30525E+00 0.00000E+00
 -1      2453 9.25350E+01 6.60425E+00 0.00000E+00
 -1      2454 9.77850E+01 5.30525E+00 0.00000E+00
 -1      2455 9.62850E+01 5.30525E+00 0.00000E+00
 -1      2456 9.55350E+01 6.60425E+00 0.00000E+00
 -1      2457 1.00785E+02 5.30525E+00 0.00000E+00
 -1      2458 9.92850E+01 5.30525E+00 0.00000E+00
 -1      2459 9.85350E+01 6.60425E+00 0.00000E+00
 -1      2460 1.03785E+02 5.30525E+00 0.00000E+00
 -1      2461 1.02285E+02 5.30525E+00 0.00000E+00
 -1      2462 1.01535E+02 6.60425E+00 0.00000E+00
 -1      2463 1.06785E+02 5.30525E+00 0.00000E+00
 -1      2464 1.05285E+02 5.30525E+00 0.00000E+00
 -1      2465 1.04535E+02 6.60425E+00 0.00000E+00
 -1      2466 1.09785E+02 5.30525E+00 0.00000E+00
 -1      2467 1.08285E+02 5.30525E+00 0.00000E+00
 -1      2468 1.07535E+02 6.60425E+00 0.00000E+00
 -1      2469 1.12785E+02 5.30525E+00 0.00000E+00
 -1      2470 1.11285E+02 5.30525E+00 0.00000E+00
 -1      2471 1.10535E+02 6.60425E+00 0.00000E+00
 -1      2472 1.15785E+02 5.30525E+00 0.00000E+00
 -1      2473 1.14285E+02 5.30525E+00 0.00000E+00
 -1      2474 1.13535E+02 6.60425E+00 0.00000E+00
 -1      2475 1.18785E+02 5.30525E+00 0.00000E+00
 -1      2476 1.17285E+02 5.30525E+00 0.00000E+00
 -1      2477 1.16535E+02 6.60425E+00 0.00000E+00
 -1      2478 1.21785E+02 5.30525E+00 0.00000E+00
 -1      2479 1.20285E+02 5.30525E+00 0.00000E+00
 -1      2480 1.19535E+02 6.60425E+00 0.00000E+00
 -1      2481 1.24785E+02 5.30525E+00 0.00000E+00
 -1      2482 1.23285E+02 5.30525E+00 0.00000E+00
 -1      2483 1.22535E+02 6.60425E+00 0.00000E+00
 -1      2484 1.27785E+02 5.30525E+00 0.00000E+00
 -1      2485 1.26285E+02 5.30525E+00 0.00000E+00
 -1      2486 1.25535E+02 6.60425E+00 0.00000E+00
 -1      2487 1.30785E+02 5.30525E+00 0.00000E+00
 -1      2488 1.29285E+02 5.30525E+00 0.00000E+00
 -1      2489 1.28535E+02 6.60425E+00 0.00000E+00
 -1      2490 1.33785E+02 5.30525E+00 0.00000E+00
 -1      2491 1.32285E+02 5.30525E+00 0.00000E+00
 -1      2492 1.31535E+02 6.60425E+00 0.00000E+00
 -1      2493 1.36785E+02 5.30525E+00 0.00000E+00
 -1      2494 1.35285E+02 5.30525E+00 0.00000E+00
 -1      2495 1.34535E+02 6.60425E+00 0.00000E+00
 -1      2496 1.39785E+02 5.30525E+00 0.00000E+00
 -1      2497 1.38285E+02 5.30525E+00 0.00000E+00
 -1      2498 1.37535E+02 6.60425E+00 0.00000E+00
 -1      2499 1.42785E+02 5.30525E+00 0.00000E+00
 -1      2500 1.41285E+02 5.30525E+00 0.00000E+00
 -1      2501 1.40535E+02 6.60425E+00 0.00000E+00
 -1      2502 1.44336E+02 5.26953E+00 0.00000E+00
 -1      2503 1.43505E+02 1.69125E+01 0.00000E+00
 -1      2504 1.43505E+02 1.54375E+01 0.00000E+00
 -1      2505 1.43505E+02 1.98625E+01 0.00000E+00
 -1      2506 1.43505E+02 1.83875E+01 0.00000E+00
 -1      2507 1.42206E+02 1.76500E+01 0.00000E+00
 -1      2508 1.43505E+02 1.10625E+01 0.00000E+00
 -1      2509 1.43505E+02 9.58750E+00 0.00000E+00
 -1      2510 1.43505E+02 1.39750E+01 0.00000E+00
 -1      2511 1.43505E+02 1.25250E+01 0.00000E+00
 -1      2512 1.42206E+02 1.17875E+01 0.00000E+00
 -1      2513 1.42206E+02 1.47125E+01 0.00000E+00
 -1      2514 1.43505E+02 2.28125E+01 0.00000E+00
 -1      2515 1.43505E+02 2.13375E+01 0.00000E+00
 -1      2516 1.42206E+02 2.06000E+01 0.00000E+00
 -1      2517 1.43505E+02 2.57625E+01 0.00000E+00
 -1      2518 1.43505E+02 2.42875E+01 0.00000E+00
 -1      2519 1.42206E+02 2.35500E+01 0.00000E+00
 -1      2520 1.43505E+02 2.87125E+01 0.00000E+00
 -1      2521 1.43505E+02 2.72375E+01 0.00000E+00
 -1      2522 1.42206E+02 2.65000E+01 0.00000E+00
 -1      2523 1.43505E+02 3.16125E+01 0.00000E+00
 -1      2524 1.43505E+02 3.01625E+01 0.00000E+00
 -1      2525 1.42206E+02 2.94250E+01 0.00000E+00
 -1      2526 1.43505E+02 3.45625E+01 0.00000E+00
 -1      2527 1.43505E+02 3.30875E+01 0.00000E+00
 -1      2528 1.42206E+02 3.23500E+01 0.00000E+00
 -1      2529 1.43505E+02 3.75125E+01 0.00000E+00
 -1      2530 1.43505E+02 3.60375E+01 0.00000E+00
 -1      2531 1.42206E+02 3.53000E+01 0.00000E+00
 -1      2532 1.43505E+02 4.04625E+01 0.00000E+00
 -1      2533 1.43505E+02 3.89875E+01 0.00000E+00
 -1      2534 1.42206E+02 3.82500E+01 0.00000E+00
 -1      2535 1.26564E+02 2.04801E+01 0.00000E+00
 -1      2536 1.26646E+02 2.14361E+01 0.00000E+00
 -1      2537 1.24933E+02 1.65963E+01 0.00000E+00
 -1      2538 1.25375E+02 1.74604E+01 0.00000E+00
 -1      2539 1.67850E+01 5.30525E+00 0.00000E+00
 -1      2540 1.52850E+01 5.30525E+00 0.00000E+00
 -1      2541 1.75350E+01 6.60425E+00 0.00000E+00
 -1      2542 1.44321E+02 4.30606E+01 0.00000E+00
 -1      2543 1.26604E+02 2.26629E+01 0.00000E+00
 -1      2544 1.26447E+02 2.37753E+01 0.00000E+00
 -1      2545 1.25793E+02 1.83565E+01 0.00000E+00
 -1      2546 1.26210E+02 1.92526E+01 0.00000E+00
 -1      2547 1.26335E+02 1.75337E+01 0.00000E+00
 -1      2548 1.24164E+02 2.88314E+01 0.00000E+00
 -1      2549 1.23409E+02 2.95460E+01 0.00000E+00
 -1      2550 1.22217E+02 1.35147E+01 0.00000E+00
 -1      2551 1.22947E+02 1.41701E+01 0.00000E+00
 -1      2552 1.23978E+02 1.39159E+01 0.00000E+00
 -1      2553 1.17050E+02 3.24720E+01 0.00000E+00
 -1      2554 1.15949E+02 3.25814E+01 0.00000E+00
 -1      2555 6.49500E+00 2.71625E+01 0.00000E+00
 -1      2556 6.49500E+00 2.86375E+01 0.00000E+00
 -1      2557 7.79400E+00 2.93750E+01 0.00000E+00
 -1      2558 7.79400E+00 2.64250E+01 0.00000E+00
 -1      2559 1.09493E+02 1.41358E+01 0.00000E+00
 -1      2560 1.10257E+02 1.35874E+01 0.00000E+00
 -1      2561 1.17618E+02 1.17584E+01 0.00000E+00
 -1      2562 1.18483E+02 1.19068E+01 0.00000E+00
 -1      2563 1.15315E+02 1.16211E+01 0.00000E+00
 -1      2564 1.16478E+02 1.16278E+01 0.00000E+00
 -1      2565 1.13166E+02 1.19121E+01 0.00000E+00
 -1      2566 1.13974E+02 1.16175E+01 0.00000E+00
 -1      2567 1.25509E+02 2.67701E+01 0.00000E+00
 -1      2568 1.24943E+02 2.77609E+01 0.00000E+00
 -1      2569 1.11192E+02 1.28996E+01 0.00000E+00
 -1      2570 1.12179E+02 1.24058E+01 0.00000E+00
 -1      2571 1.12232E+02 1.12954E+01 0.00000E+00
 -1      2572 1.07849E+02 1.58223E+01 0.00000E+00
 -1      2573 1.08652E+02 1.49878E+01 0.00000E+00
 -1      2574 1.06869E+02 1.78566E+01 0.00000E+00
 -1      2575 1.07165E+02 1.69801E+01 0.00000E+00
 -1      2576 1.06061E+02 1.98123E+01 0.00000E+00
 -1      2577 1.06465E+02 1.88344E+01 0.00000E+00
 -1      2578 1.05920E+02 1.81623E+01 0.00000E+00
 -1      2579 1.05952E+02 2.19203E+01 0.00000E+00
 -1      2580 1.05929E+02 2.09744E+01 0.00000E+00
 -1      2581 1.05870E+02 2.40285E+01 0.00000E+00
 -1      2582 1.05877E+02 2.29240E+01 0.00000E+00
 -1      2583 1.06750E+02 2.63002E+01 0.00000E+00
 -1      2584 1.06201E+02 2.54731E+01 0.00000E+00
 -1      2585 1.07754E+02 2.79099E+01 0.00000E+00
 -1      2586 1.07252E+02 2.71051E+01 0.00000E+00
 -1      2587 1.06263E+02 2.71657E+01 0.00000E+00
 -1      2588 1.09001E+02 2.93422E+01 0.00000E+00
 -1      2589 1.08378E+02 2.86260E+01 0.00000E+00
 -1      2590 1.07389E+02 2.86867E+01 0.00000E+00
 -1      2591 1.10476E+02 3.08545E+01 0.00000E+00
 -1      2592 1.09774E+02 3.02345E+01 0.00000E+00
 -1      2593 1.12420E+02 3.18787E+01 0.00000E+00
 -1      2594 1.11512E+02 3.14381E+01 0.00000E+00
 -1      2595 1.14611E+02 3.25879E+01 0.00000E+00
 -1      2596 1.13556E+02 3.23561E+01 0.00000E+00
 -1      2597 1.19027E+02 3.21827E+01 0.00000E+00
 -1      2598 1.18203E+02 3.24273E+01 0.00000E+00
 -1      2599 1.21120E+02 3.13873E+01 0.00000E+00
 -1      2600 1.20073E+02 3.17850E+01 0.00000E+00
 -1      2601 1.19930E+02 3.28097E+01 0.00000E+00
 -1      2602 1.22820E+02 3.00870E+01 0.00000E+00
 -1      2603 1.22231E+02 3.06281E+01 0.00000E+00
 -1      2604 1.23787E+02 3.03525E+01 0.00000E+00
 -1      2605 1.26200E+02 2.48340E+01 0.00000E+00
 -1      2606 1.25982E+02 2.56627E+01 0.00000E+00
 -1      2607 6.55950E+00 4.28890E+01 0.00000E+00
 -1      2608 8.53650E+00 4.32410E+01 0.00000E+00
 -1      2609 9.28650E+00 4.19420E+01 0.00000E+00
 -1      2610 6.55950E+00 4.14140E+01 0.00000E+00
 -1      2611 8.07525E+00 5.11044E+00 0.00000E+00
 -1      2612 6.57525E+00 5.11044E+00 0.00000E+00
 -1      2613 6.40575E+00 6.01981E+00 0.00000E+00
 -1      2614 8.82525E+00 6.40944E+00 0.00000E+00
 -1      2615 1.10310E+02 1.24770E+01 0.00000E+00
 -1      2616 7.79400E+00 3.52687E+01 0.00000E+00
 -1      2617 6.49500E+00 3.60062E+01 0.00000E+00
 -1      2618 6.49500E+00 3.74750E+01 0.00000E+00
 -1      2619 1.25313E+02 1.56045E+01 0.00000E+00
 -1      2620 1.15238E+02 3.33031E+01 0.00000E+00
 -1      2621 6.40575E+00 7.49481E+00 0.00000E+00
 -1      2622 1.19264E+02 1.16887E+01 0.00000E+00
 -1      2623 1.20046E+02 1.14705E+01 0.00000E+00
 -1      2624 1.18962E+02 1.08518E+01 0.00000E+00
 -1      2625 1.21379E+02 1.20532E+01 0.00000E+00
 -1      2626 1.21798E+02 1.27839E+01 0.00000E+00
 -1      2627 1.22829E+02 1.25297E+01 0.00000E+00
 -1      2628 6.55950E+00 3.99453E+01 0.00000E+00
 -1      2629 1.22087E+02 3.16528E+01 0.00000E+00
 -1      2630 1.27128E+02 2.43970E+01 0.00000E+00
 -1      2631 1.43586E+02 6.56853E+00 0.00000E+00
 -1      2632 1.43419E+02 7.72713E+00 0.00000E+00
 -1      2633 7.70475E+00 8.23231E+00 0.00000E+00
 -1      2634 1.27417E+02 2.21115E+01 0.00000E+00
 -1      2635 1.27106E+02 1.96572E+01 0.00000E+00
 -1      2636 1.26407E+02 2.65630E+01 0.00000E+00
 -1      2637 1.12764E+02 3.28321E+01 0.00000E+00
 -1      2638 1.08785E+02 3.02951E+01 0.00000E+00
 -1      2639 1.45350E+01 6.60425E+00 0.00000E+00
 -1      2640 1.25155E+02 2.87410E+01 0.00000E+00
 -1      2641 1.17730E+02 3.32520E+01 0.00000E+00
 -1      2642 1.05430E+02 2.49163E+01 0.00000E+00
 -1      2643 1.04660E+02 2.43596E+01 0.00000E+00
 -1      2644 1.04990E+02 2.58041E+01 0.00000E+00
 -1      2645 1.05383E+02 2.03023E+01 0.00000E+00
 -1      2646 1.08534E+02 1.40168E+01 0.00000E+00
 -1      2647 1.14560E+02 1.08052E+01 0.00000E+00
 -1      2648 1.17041E+02 1.09394E+01 0.00000E+00
 -1      2649 1.07008E+02 1.60266E+01 0.00000E+00
 -1      2650 1.06851E+02 1.50732E+01 0.00000E+00
 -1      2651 1.06167E+02 1.62310E+01 0.00000E+00
 -1      2652 1.05175E+02 2.24681E+01 0.00000E+00
 -1      2653 1.10593E+02 3.17710E+01 0.00000E+00
 -1      2654 1.42758E+02 4.35929E+01 0.00000E+00
 -1      2655 1.43241E+02 4.17323E+01 0.00000E+00
 -1      2656 1.41942E+02 4.09948E+01 0.00000E+00
 -1      2657 1.41414E+02 4.35342E+01 0.00000E+00
 -1      2658 1.42120E+02 8.46463E+00 0.00000E+00
 -1      2659 1.40664E+02 4.22352E+01 0.00000E+00
 -1      2660 9.09300E+00 1.98250E+01 0.00000E+00
 -1      2661 9.09300E+00 2.12750E+01 0.00000E+00
 -1      2662 9.09300E+00 2.27500E+01 0.00000E+00
 -1      2663 9.09300E+00 2.42250E+01 0.00000E+00
 -1      2664 1.03920E+01 2.20250E+01 0.00000E+00
 -1      2665 9.09300E+00 1.39375E+01 0.00000E+00
 -1      2666 9.09300E+00 1.54125E+01 0.00000E+00
 -1      2667 9.09300E+00 1.09875E+01 0.00000E+00
 -1      2668 9.09300E+00 1.24625E+01 0.00000E+00
 -1      2669 1.03920E+01 1.32000E+01 0.00000E+00
 -1      2670 1.28295E+02 2.15276E+01 0.00000E+00
 -1      2671 1.28253E+02 2.27544E+01 0.00000E+00
 -1      2672 1.22850E+01 7.90325E+00 0.00000E+00
 -1      2673 1.07850E+01 7.90325E+00 0.00000E+00
 -1      2674 8.91450E+00 8.42712E+00 0.00000E+00
 -1      2675 1.44000E+01 4.09070E+01 0.00000E+00
 -1      2676 1.59000E+01 4.09070E+01 0.00000E+00
 -1      2677 1.74000E+01 4.09070E+01 0.00000E+00
 -1      2678 1.89000E+01 4.09070E+01 0.00000E+00
 -1      2679 1.66500E+01 3.96080E+01 0.00000E+00
 -1      2680 2.04000E+01 4.09070E+01 0.00000E+00
 -1      2681 2.19000E+01 4.09070E+01 0.00000E+00
 -1      2682 1.96500E+01 3.96080E+01 0.00000E+00
 -1      2683 2.34000E+01 4.09070E+01 0.00000E+00
 -1      2684 2.49000E+01 4.09070E+01 0.00000E+00
 -1      2685 2.26500E+01 3.96080E+01 0.00000E+00
 -1      2686 2.64000E+01 4.09070E+01 0.00000E+00
 -1      2687 2.79000E+01 4.09070E+01 0.00000E+00
 -1      2688 2.56500E+01 3.96080E+01 0.00000E+00
 -1      2689 2.94000E+01 4.09070E+01 0.00000E+00
 -1      2690 3.09000E+01 4.09070E+01 0.00000E+00
 -1      2691 2.86500E+01 3.96080E+01 0.00000E+00
 -1      2692 3.24000E+01 4.09070E+01 0.00000E+00
 -1      2693 3.39000E+01 4.09070E+01 0.00000E+00
 -1      2694 3.16500E+01 3.96080E+01 0.00000E+00
 -1      2695 3.54000E+01 4.09070E+01 0.00000E+00
 -1      2696 3.69000E+01 4.09070E+01 0.00000E+00
 -1      2697 3.46500E+01 3.96080E+01 0.00000E+00
 -1      2698 3.84000E+01 4.09070E+01 0.00000E+00
 -1      2699 3.99000E+01 4.09070E+01 0.00000E+00
 -1      2700 3.76500E+01 3.96080E+01 0.00000E+00
 -1      2701 4.14000E+01 4.09070E+01 0.00000E+00
 -1      2702 4.29000E+01 4.09070E+01 0.00000E+00
 -1      2703 4.06500E+01 3.96080E+01 0.00000E+00
 -1      2704 4.44000E+01 4.09070E+01 0.00000E+00
 -1      2705 4.59000E+01 4.09070E+01 0.00000E+00
 -1      2706 4.36500E+01 3.96080E+01 0.00000E+00
 -1      2707 4.74000E+01 4.09070E+01 0.00000E+00
 -1      2708 4.89000E+01 4.09070E+01 0.00000E+00
 -1      2709 4.66500E+01 3.96080E+01 0.00000E+00
 -1      2710 5.04000E+01 4.09070E+01 0.00000E+00
 -1      2711 5.19000E+01 4.09070E+01 0.00000E+00
 -1      2712 4.96500E+01 3.96080E+01 0.00000E+00
 -1      2713 5.34000E+01 4.09070E+01 0.00000E+00
 -1      2714 5.49000E+01 4.09070E+01 0.00000E+00
 -1      2715 5.26500E+01 3.96080E+01 0.00000E+00
 -1      2716 5.64000E+01 4.09070E+01 0.00000E+00
 -1      2717 5.79000E+01 4.09070E+01 0.00000E+00
 -1      2718 5.56500E+01 3.96080E+01 0.00000E+00
 -1      2719 5.94000E+01 4.09070E+01 0.00000E+00
 -1      2720 6.09000E+01 4.09070E+01 0.00000E+00
 -1      2721 5.86500E+01 3.96080E+01 0.00000E+00
 -1      2722 6.24000E+01 4.09070E+01 0.00000E+00
 -1      2723 6.39000E+01 4.09070E+01 0.00000E+00
 -1      2724 6.16500E+01 3.96080E+01 0.00000E+00
 -1      2725 6.54000E+01 4.09070E+01 0.00000E+00
 -1      2726 6.69000E+01 4.09070E+01 0.00000E+00
 -1      2727 6.46500E+01 3.96080E+01 0.00000E+00
 -1      2728 6.84000E+01 4.09070E+01 0.00000E+00
 -1      2729 6.99000E+01 4.09070E+01 0.00000E+00
 -1      2730 6.76500E+01 3.96080E+01 0.00000E+00
 -1      2731 7.14000E+01 4.09070E+01 0.00000E+00
 -1      2732 7.29000E+01 4.09070E+01 0.00000E+00
 -1      2733 7.06500E+01 3.96080E+01 0.00000E+00
 -1      2734 7.44000E+01 4.09070E+01 0.00000E+00
 -1      2735 7.59000E+01 4.09070E+01 0.00000E+00
 -1      2736 7.36500E+01 3.96080E+01 0.00000E+00
 -1      2737 7.74000E+01 4.09070E+01 0.00000E+00
 -1      2738 7.89000E+01 4.09070E+01 0.00000E+00
 -1      2739 7.66500E+01 3.96080E+01 0.00000E+00
 -1      2740 8.04000E+01 4.09070E+01 0.00000E+00
 -1      2741 8.19000E+01 4.09070E+01 0.00000E+00
 -1      2742 7.96500E+01 3.96080E+01 0.00000E+00
 -1      2743 8.34000E+01 4.09070E+01 0.00000E+00
 -1      2744 8.49000E+01 4.09070E+01 0.00000E+00
 -1      2745 8.26500E+01 3.96080E+01 0.00000E+00
 -1      2746 8.64000E+01 4.09070E+01 0.00000E+00
 -1      2747 8.79000E+01 4.09070E+01 0.00000E+00
 -1      2748 8.56500E+01 3.96080E+01 0.00000E+00
 -1      2749 8.94000E+01 4.09070E+01 0.00000E+00
 -1      2750 9.09000E+01 4.09070E+01 0.00000E+00
 -1      2751 8.86500E+01 3.96080E+01 0.00000E+00
 -1      2752 9.24000E+01 4.09070E+01 0.00000E+00
 -1      2753 9.39000E+01 4.09070E+01 0.00000E+00
 -1      2754 9.16500E+01 3.96080E+01 0.00000E+00
 -1      2755 9.54000E+01 4.09070E+01 0.00000E+00
 -1      2756 9.69000E+01 4.09070E+01 0.00000E+00
 -1      2757 9.46500E+01 3.96080E+01 0.00000E+00
 -1      2758 9.84000E+01 4.09070E+01 0.00000E+00
 -1      2759 9.99000E+01 4.09070E+01 0.00000E+00
 -1      2760 9.76500E+01 3.96080E+01 0.00000E+00
 -1      2761 1.01400E+02 4.09070E+01 0.00000E+00
 -1      2762 1.02900E+02 4.09070E+01 0.00000E+00
 -1      2763 1.00650E+02 3.96080E+01 0.00000E+00
 -1      2764 1.04400E+02 4.09070E+01 0.00000E+00
 -1      2765 1.05900E+02 4.09070E+01 0.00000E+00
 -1      2766 1.03650E+02 3.96080E+01 0.00000E+00
 -1      2767 1.07400E+02 4.09070E+01 0.00000E+00
 -1      2768 1.08900E+02 4.09070E+01 0.00000E+00
 -1      2769 1.06650E+02 3.96080E+01 0.00000E+00
 -1      2770 1.10400E+02 4.09070E+01 0.00000E+00
 -1      2771 1.11900E+02 4.09070E+01 0.00000E+00
 -1      2772 1.09650E+02 3.96080E+01 0.00000E+00
 -1      2773 1.13400E+02 4.09070E+01 0.00000E+00
 -1      2774 1.14900E+02 4.09070E+01 0.00000E+00
 -1      2775 1.12650E+02 3.96080E+01 0.00000E+00
 -1      2776 1.16400E+02 4.09070E+01 0.00000E+00
 -1      2777 1.17900E+02 4.09070E+01 0.00000E+00
 -1      2778 1.15650E+02 3.96080E+01 0.00000E+00
 -1      2779 1.19400E+02 4.09070E+01 0.00000E+00
 -1      2780 1.20900E+02 4.09070E+01 0.00000E+00
 -1      2781 1.18650E+02 3.96080E+01 0.00000E+00
 -1      2782 1.22400E+02 4.09070E+01 0.00000E+00
 -1      2783 1.23900E+02 4.09070E+01 0.00000E+00
 -1      2784 1.21650E+02 3.96080E+01 0.00000E+00
 -1      2785 1.25400E+02 4.09070E+01 0.00000E+00
 -1      2786 1.26900E+02 4.09070E+01 0.00000E+00
 -1      2787 1.24650E+02 3.96080E+01 0.00000E+00
 -1      2788 1.28400E+02 4.09070E+01 0.00000E+00
 -1      2789 1.29900E+02 4.09070E+01 0.00000E+00
 -1      2790 1.27650E+02 3.96080E+01 0.00000E+00
 -1      2791 1.31400E+02 4.09070E+01 0.00000E+00
 -1      2792 1.32900E+02 4.09070E+01 0.00000E+00
 -1      2793 1.30650E+02 3.96080E+01 0.00000E+00
 -1      2794 1.34400E+02 4.09070E+01 0.00000E+00
 -1      2795 1.35900E+02 4.09070E+01 0.00000E+00
 -1      2796 1.33650E+02 3.96080E+01 0.00000E+00
 -1      2797 1.37400E+02 4.09070E+01 0.00000E+00
 -1      2798 1.38900E+02 4.09070E+01 0.00000E+00
 -1      2799 1.36650E+02 3.96080E+01 0.00000E+00
 -1      2800 2.42850E+01 7.90325E+00 0.00000E+00
 -1      2801 2.27850E+01 7.90325E+00 0.00000E+00
 -1      2802 1.40706E+02 1.03250E+01 0.00000E+00
 -1      2803 1.40620E+02 8.46463E+00 0.00000E+00
 -1      2804 1.39120E+02 8.46463E+00 0.00000E+00
 -1      2805 1.28086E+02 2.40627E+01 0.00000E+00
 -1      2806 1.27839E+02 2.51213E+01 0.00000E+00
 -1      2807 2.12850E+01 7.90325E+00 0.00000E+00
 -1      2808 1.97850E+01 7.90325E+00 0.00000E+00
 -1      2809 2.20350E+01 9.20225E+00 0.00000E+00
 -1      2810 3.02850E+01 7.90325E+00 0.00000E+00
 -1      2811 2.87850E+01 7.90325E+00 0.00000E+00
 -1      2812 3.32850E+01 7.90325E+00 0.00000E+00
 -1      2813 3.17850E+01 7.90325E+00 0.00000E+00
 -1      2814 3.10350E+01 9.20225E+00 0.00000E+00
 -1      2815 3.62850E+01 7.90325E+00 0.00000E+00
 -1      2816 3.47850E+01 7.90325E+00 0.00000E+00
 -1      2817 3.40350E+01 9.20225E+00 0.00000E+00
 -1      2818 3.92850E+01 7.90325E+00 0.00000E+00
 -1      2819 3.77850E+01 7.90325E+00 0.00000E+00
 -1      2820 3.70350E+01 9.20225E+00 0.00000E+00
 -1      2821 4.22850E+01 7.90325E+00 0.00000E+00
 -1      2822 4.07850E+01 7.90325E+00 0.00000E+00
 -1      2823 4.00350E+01 9.20225E+00 0.00000E+00
 -1      2824 4.52850E+01 7.90325E+00 0.00000E+00
 -1      2825 4.37850E+01 7.90325E+00 0.00000E+00
 -1      2826 4.30350E+01 9.20225E+00 0.00000E+00
 -1      2827 4.82850E+01 7.90325E+00 0.00000E+00
 -1      2828 4.67850E+01 7.90325E+00 0.00000E+00
 -1      2829 4.60350E+01 9.20225E+00 0.00000E+00
 -1      2830 5.12850E+01 7.90325E+00 0.00000E+00
 -1      2831 4.97850E+01 7.90325E+00 0.00000E+00
 -1      2832 4.90350E+01 9.20225E+00 0.00000E+00
 -1      2833 5.42850E+01 7.90325E+00 0.00000E+00
 -1      2834 5.27850E+01 7.90325E+00 0.00000E+00
 -1      2835 5.20350E+01 9.20225E+00 0.00000E+00
 -1      2836 5.72850E+01 7.90325E+00 0.00000E+00
 -1      2837 5.57850E+01 7.90325E+00 0.00000E+00
 -1      2838 5.50350E+01 9.20225E+00 0.00000E+00
 -1      2839 6.02850E+01 7.90325E+00 0.00000E+00
 -1      2840 5.87850E+01 7.90325E+00 0.00000E+00
 -1      2841 5.80350E+01 9.20225E+00 0.00000E+00
 -1      2842 6.32850E+01 7.90325E+00 0.00000E+00
 -1      2843 6.17850E+01 7.90325E+00 0.00000E+00
 -1      2844 6.10350E+01 9.20225E+00 0.00000E+00
 -1      2845 6.62850E+01 7.90325E+00 0.00000E+00
 -1      2846 6.47850E+01 7.90325E+00 0.00000E+00
 -1      2847 6.40350E+01 9.20225E+00 0.00000E+00
 -1      2848 6.92850E+01 7.90325E+00 0.00000E+00
 -1      2849 6.77850E+01 7.90325E+00 0.00000E+00
 -1      2850 6.70350E+01 9.20225E+00 0.00000E+00
 -1      2851 7.22850E+01 7.90325E+00 0.00000E+00
 -1      2852 7.07850E+01 7.90325E+00 0.00000E+00
 -1      2853 7.00350E+01 9.20225E+00 0.00000E+00
 -1      2854 7.52850E+01 7.90325E+00 0.00000E+00
 -1      2855 7.37850E+01 7.90325E+00 0.00000E+00
 -1      2856 7.30350E+01 9.20225E+00 0.00000E+00
 -1      2857 7.82850E+01 7.90325E+00 0.00000E+00
 -1      2858 7.67850E+01 7.90325E+00 0.00000E+00
 -1      2859 7.60350E+01 9.20225E+00 0.00000E+00
 -1      2860 8.12850E+01 7.90325E+00 0.00000E+00
 -1      2861 7.97850E+01 7.90325E+00 0.00000E+00
 -1      2862 7.90350E+01 9.20225E+00 0.00000E+00
 -1      2863 8.42850E+01 7.90325E+00 0.00000E+00
 -1      2864 8.27850E+01 7.90325E+00 0.00000E+00
 -1      2865 8.20350E+01 9.20225E+00 0.00000E+00
 -1      2866 8.72850E+01 7.90325E+00 0.00000E+00
 -1      2867 8.57850E+01 7.90325E+00 0.00000E+00
 -1      2868 8.50350E+01 9.20225E+00 0.00000E+00
 -1      2869 9.02850E+01 7.90325E+00 0.00000E+00
 -1      2870 8.87850E+01 7.90325E+00 0.00000E+00
 -1      2871 8.80350E+01 9.20225E+00 0.00000E+00
 -1      2872 9.32850E+01 7.90325E+00 0.00000E+00
 -1      2873 9.17850E+01 7.90325E+00 0.00000E+00
 -1      2874 9.10350E+01 9.20225E+00 0.00000E+00
 -1      2875 9.62850E+01 7.90325E+00 0.00000E+00
 -1      2876 9.47850E+01 7.90325E+00 0.00000E+00
 -1      2877 9.40350E+01 9.20225E+00 0.00000E+00
 -1      2878 9.92850E+01 7.90325E+00 0.00000E+00
 -1      2879 9.77850E+01 7.90325E+00 0.00000E+00
 -1      2880 9.70350E+01 9.20225E+00 0.00000E+00
 -1      2881 1.02285E+02 7.90325E+00 0.00000E+00
 -1      2882 1.00785E+02 7.90325E+00 0.00000E+00
 -1      2883 1.00035E+02 9.20225E+00 0.00000E+00
 -1      2884 1.05285E+02 7.90325E+00 0.00000E+00
 -1      2885 1.03785E+02 7.90325E+00 0.00000E+00
 -1      2886 1.03035E+02 9.20225E+00 0.00000E+00
 -1      2887 1.08285E+02 7.90325E+00 0.00000E+00
 -1      2888 1.06785E+02 7.90325E+00 0.00000E+00
 -1      2889 1.06035E+02 9.20225E+00 0.00000E+00
 -1      2890 1.14127E+02 8.70294E+00 0.00000E+00
 -1      2891 1.12627E+02 8.70294E+00 0.00000E+00
 -1      2892 1.16968E+02 8.70651E+00 0.00000E+00
 -1      2893 1.15468E+02 8.70651E+00 0.00000E+00
 -1      2894 1.20389E+02 8.61897E+00 0.00000E+00
 -1      2895 1.18889E+02 8.61897E+00 0.00000E+00
 -1      2896 1.26285E+02 7.90325E+00 0.00000E+00
 -1      2897 1.24785E+02 7.90325E+00 0.00000E+00
 -1      2898 1.29285E+02 7.90325E+00 0.00000E+00
 -1      2899 1.27785E+02 7.90325E+00 0.00000E+00
 -1      2900 1.27035E+02 9.20225E+00 0.00000E+00
 -1      2901 1.32285E+02 7.90325E+00 0.00000E+00
 -1      2902 1.30785E+02 7.90325E+00 0.00000E+00
 -1      2903 1.30035E+02 9.20225E+00 0.00000E+00
 -1      2904 1.35285E+02 7.90325E+00 0.00000E+00
 -1      2905 1.33785E+02 7.90325E+00 0.00000E+00
 -1      2906 1.33035E+02 9.20225E+00 0.00000E+00
 -1      2907 1.37953E+02 8.18394E+00 0.00000E+00
 -1      2908 1.36453E+02 8.18394E+00 0.00000E+00
 -1      2909 1.35703E+02 9.48294E+00 0.00000E+00
 -1      2910 1.38038E+02 1.00443E+01 0.00000E+00
 -1      2911 1.40907E+02 2.42875E+01 0.00000E+00
 -1      2912 1.40907E+02 2.28125E+01 0.00000E+00
 -1      2913 1.39914E+02 4.09362E+01 0.00000E+00
 -1      2914 1.40928E+02 4.09655E+01 0.00000E+00
 -1      2915 1.39164E+02 3.96372E+01 0.00000E+00
 -1      2916 1.40907E+02 1.83875E+01 0.00000E+00
 -1      2917 1.40907E+02 1.69125E+01 0.00000E+00
 -1      2918 1.40907E+02 2.72375E+01 0.00000E+00
 -1      2919 1.40907E+02 2.57625E+01 0.00000E+00
 -1      2920 1.39608E+02 2.50250E+01 0.00000E+00
 -1      2921 1.40907E+02 2.13375E+01 0.00000E+00
 -1      2922 1.40907E+02 1.98625E+01 0.00000E+00
 -1      2923 1.39608E+02 1.91250E+01 0.00000E+00
 -1      2924 1.39608E+02 2.20750E+01 0.00000E+00
 -1      2925 1.15911E+02 3.40737E+01 0.00000E+00
 -1      2926 1.14572E+02 3.40801E+01 0.00000E+00
 -1      2927 1.40907E+02 3.01375E+01 0.00000E+00
 -1      2928 1.40907E+02 2.86875E+01 0.00000E+00
 -1      2929 1.39608E+02 2.79500E+01 0.00000E+00
 -1      2930 1.40907E+02 3.30875E+01 0.00000E+00
 -1      2931 1.40907E+02 3.16125E+01 0.00000E+00
 -1      2932 1.39608E+02 3.08750E+01 0.00000E+00
 -1      2933 1.40907E+02 3.60375E+01 0.00000E+00
 -1      2934 1.40907E+02 3.45625E+01 0.00000E+00
 -1      2935 1.39608E+02 3.38250E+01 0.00000E+00
 -1      2936 1.27055E+02 1.66527E+01 0.00000E+00
 -1      2937 1.27473E+02 1.75487E+01 0.00000E+00
 -1      2938 1.06927E+02 2.97177E+01 0.00000E+00
 -1      2939 1.06304E+02 2.90016E+01 0.00000E+00
 -1      2940 1.27834E+02 1.87831E+01 0.00000E+00
 -1      2941 1.28187E+02 2.00106E+01 0.00000E+00
 -1      2942 1.27432E+02 2.63462E+01 0.00000E+00
 -1      2943 1.26959E+02 2.74536E+01 0.00000E+00
 -1      2944 1.24298E+02 1.28253E+01 0.00000E+00
 -1      2945 1.25028E+02 1.34808E+01 0.00000E+00
 -1      2946 1.07384E+02 1.37225E+01 0.00000E+00
 -1      2947 1.08225E+02 1.28705E+01 0.00000E+00
 -1      2948 1.12999E+02 3.38614E+01 0.00000E+00
 -1      2949 1.11864E+02 3.33839E+01 0.00000E+00
 -1      2950 7.85850E+00 3.92077E+01 0.00000E+00
 -1      2951 1.82850E+01 7.90325E+00 0.00000E+00
 -1      2952 1.67850E+01 7.90325E+00 0.00000E+00
 -1      2953 1.90350E+01 9.20225E+00 0.00000E+00
 -1      2954 2.72850E+01 7.90325E+00 0.00000E+00
 -1      2955 2.57850E+01 7.90325E+00 0.00000E+00
 -1      2956 2.50350E+01 9.20225E+00 0.00000E+00
 -1      2957 2.80350E+01 9.20225E+00 0.00000E+00
 -1      2958 1.14000E+01 4.09070E+01 0.00000E+00
 -1      2959 1.29000E+01 4.09070E+01 0.00000E+00
 -1      2960 1.36500E+01 3.96080E+01 0.00000E+00
 -1      2961 1.26306E+02 2.87597E+01 0.00000E+00
 -1      2962 1.25526E+02 2.98302E+01 0.00000E+00
 -1      2963 9.09300E+00 1.68813E+01 0.00000E+00
 -1      2964 9.09300E+00 1.83563E+01 0.00000E+00
 -1      2965 1.03920E+01 1.90812E+01 0.00000E+00
 -1      2966 1.03920E+01 1.61437E+01 0.00000E+00
 -1      2967 1.25847E+02 1.45864E+01 0.00000E+00
 -1      2968 1.26451E+02 1.56195E+01 0.00000E+00
 -1      2969 1.27589E+02 1.56345E+01 0.00000E+00
 -1      2970 1.23174E+02 3.20503E+01 0.00000E+00
 -1      2971 1.22063E+02 3.28095E+01 0.00000E+00
 -1      2972 9.09300E+00 3.15875E+01 0.00000E+00
 -1      2973 9.09300E+00 3.30625E+01 0.00000E+00
 -1      2974 1.18346E+02 3.42540E+01 0.00000E+00
 -1      2975 1.17192E+02 3.42987E+01 0.00000E+00
 -1      2976 1.04324E+02 2.29087E+01 0.00000E+00
 -1      2977 1.04400E+02 2.19050E+01 0.00000E+00
 -1      2978 1.04964E+02 1.83398E+01 0.00000E+00
 -1      2979 1.05368E+02 1.73620E+01 0.00000E+00
 -1      2980 1.10649E+02 3.28829E+01 0.00000E+00
 -1      2981 1.09613E+02 3.22993E+01 0.00000E+00
 -1      2982 1.04465E+02 2.07862E+01 0.00000E+00
 -1      2983 1.04597E+02 1.96242E+01 0.00000E+00
 -1      2984 1.05801E+02 2.81968E+01 0.00000E+00
 -1      2985 1.05299E+02 2.73919E+01 0.00000E+00
 -1      2986 1.05340E+02 2.92278E+01 0.00000E+00
 -1      2987 1.52850E+01 7.90325E+00 0.00000E+00
 -1      2988 1.37850E+01 7.90325E+00 0.00000E+00
 -1      2989 1.30350E+01 9.20225E+00 0.00000E+00
 -1      2990 1.60350E+01 9.20225E+00 0.00000E+00
 -1      2991 1.41192E+02 3.96958E+01 0.00000E+00
 -1      2992 1.08472E+02 3.15023E+01 0.00000E+00
 -1      2993 1.07700E+02 3.06100E+01 0.00000E+00
 -1      2994 1.06615E+02 3.09249E+01 0.00000E+00
 -1      2995 1.20847E+02 3.36474E+01 0.00000E+00
 -1      2996 1.19800E+02 3.40451E+01 0.00000E+00
 -1      2997 1.24644E+02 3.06697E+01 0.00000E+00
 -1      2998 1.24055E+02 3.12108E+01 0.00000E+00
 -1      2999 1.24031E+02 3.23675E+01 0.00000E+00
 -1      3000 1.25795E+02 3.06885E+01 0.00000E+00
 -1      3001 1.09160E+02 1.21827E+01 0.00000E+00
 -1      3002 1.10095E+02 1.14949E+01 0.00000E+00
 -1      3003 1.08010E+02 1.18885E+01 0.00000E+00
 -1      3004 1.11680E+02 9.99916E+00 0.00000E+00
 -1      3005 1.11088E+02 7.90047E+00 0.00000E+00
 -1      3006 1.09588E+02 7.90047E+00 0.00000E+00
 -1      3007 1.10693E+02 1.04929E+01 0.00000E+00
 -1      3008 9.09300E+00 3.45313E+01 0.00000E+00
 -1      3009 9.09300E+00 3.60000E+01 0.00000E+00
 -1      3010 1.03920E+01 3.37938E+01 0.00000E+00
 -1      3011 1.03920E+01 2.49750E+01 0.00000E+00
 -1      3012 9.09300E+00 2.57000E+01 0.00000E+00
 -1      3013 9.09300E+00 2.71750E+01 0.00000E+00
 -1      3014 1.28964E+02 2.34788E+01 0.00000E+00
 -1      3015 1.29023E+02 2.06535E+01 0.00000E+00
 -1      3016 1.21077E+02 1.12163E+01 0.00000E+00
 -1      3017 1.22108E+02 1.09621E+01 0.00000E+00
 -1      3018 1.20775E+02 1.03795E+01 0.00000E+00
 -1      3019 9.66450E+00 9.72612E+00 0.00000E+00
 -1      3020 1.09543E+02 1.01987E+01 0.00000E+00
 -1      3021 1.03614E+02 2.12269E+01 0.00000E+00
 -1      3022 1.10884E+02 3.39122E+01 0.00000E+00
 -1      3023 1.04046E+02 1.88238E+01 0.00000E+00
 -1      3024 1.03884E+02 2.37965E+01 0.00000E+00
 -1      3025 1.03109E+02 2.32334E+01 0.00000E+00
 -1      3026 1.03444E+02 2.46843E+01 0.00000E+00
 -1      3027 1.39608E+02 1.61875E+01 0.00000E+00
 -1      3028 1.40907E+02 1.54500E+01 0.00000E+00
 -1      3029 1.40907E+02 1.39875E+01 0.00000E+00
 -1      3030 1.14345E+02 3.54024E+01 0.00000E+00
 -1      3031 1.13672E+02 3.46319E+01 0.00000E+00
 -1      3032 1.12772E+02 3.51837E+01 0.00000E+00
 -1      3033 1.08838E+02 9.19947E+00 0.00000E+00
 -1      3034 1.23671E+02 9.66374E+00 0.00000E+00
 -1      3035 1.22921E+02 8.36474E+00 0.00000E+00
 -1      3036 1.21421E+02 8.36474E+00 0.00000E+00
 -1      3037 1.28391E+02 2.60119E+01 0.00000E+00
 -1      3038 1.19263E+02 3.50918E+01 0.00000E+00
 -1      3039 1.16527E+02 3.50757E+01 0.00000E+00
 -1      3040 1.40706E+02 1.17875E+01 0.00000E+00
 -1      3041 1.06543E+02 1.39269E+01 0.00000E+00
 -1      3042 1.28554E+02 1.79021E+01 0.00000E+00
 -1      3043 1.21934E+02 3.40449E+01 0.00000E+00
 -1      3044 1.41192E+02 3.82207E+01 0.00000E+00
 -1      3045 1.23879E+02 1.20946E+01 0.00000E+00
 -1      3046 1.09635E+01 1.04636E+01 0.00000E+00
 -1      3047 1.27331E+02 2.85429E+01 0.00000E+00
 -1      3048 1.26166E+02 1.34958E+01 0.00000E+00
 -1      3049 1.04529E+02 2.68352E+01 0.00000E+00
 -1      3050 1.03758E+02 2.62784E+01 0.00000E+00
 -1      3051 1.04067E+02 2.78662E+01 0.00000E+00
 -1      3052 1.18108E+02 8.83712E+00 0.00000E+00
 -1      3053 9.09300E+00 2.86437E+01 0.00000E+00
 -1      3054 9.09300E+00 3.01187E+01 0.00000E+00
 -1      3055 1.03920E+01 3.08563E+01 0.00000E+00
 -1      3056 1.03920E+01 2.79188E+01 0.00000E+00
 -1      3057 9.15750E+00 3.77359E+01 0.00000E+00
 -1      3058 9.22200E+00 4.02061E+01 0.00000E+00
 -1      3059 1.05855E+01 4.04701E+01 0.00000E+00
 -1      3060 1.04565E+01 3.69984E+01 0.00000E+00
 -1      3061 1.05211E+02 1.64085E+01 0.00000E+00
 -1      3062 1.05054E+02 1.54550E+01 0.00000E+00
 -1      3063 1.04255E+02 1.65860E+01 0.00000E+00
 -1      3064 1.13355E+01 3.91711E+01 0.00000E+00
 -1      3065 1.08528E+02 3.26142E+01 0.00000E+00
 -1      3066 1.39529E+02 3.85602E+01 0.00000E+00
 -1      3067 1.40542E+02 3.71145E+01 0.00000E+00
 -1      3068 1.39243E+02 3.63770E+01 0.00000E+00
 -1      3069 1.38514E+02 3.85310E+01 0.00000E+00
 -1      3070 1.16910E+01 1.24625E+01 0.00000E+00
 -1      3071 1.16910E+01 1.39375E+01 0.00000E+00
 -1      3072 1.08240E+02 1.02014E+01 0.00000E+00
 -1      3073 1.04650E+02 3.02173E+01 0.00000E+00
 -1      3074 1.04148E+02 2.94125E+01 0.00000E+00
 -1      3075 1.28316E+02 1.45157E+01 0.00000E+00
 -1      3076 1.28921E+02 1.55488E+01 0.00000E+00
 -1      3077 1.89000E+01 3.83090E+01 0.00000E+00
 -1      3078 2.04000E+01 3.83090E+01 0.00000E+00
 -1      3079 2.19000E+01 3.83090E+01 0.00000E+00
 -1      3080 2.34000E+01 3.83090E+01 0.00000E+00
 -1      3081 2.11500E+01 3.70100E+01 0.00000E+00
 -1      3082 2.49000E+01 3.83090E+01 0.00000E+00
 -1      3083 2.64000E+01 3.83090E+01 0.00000E+00
 -1      3084 2.41500E+01 3.70100E+01 0.00000E+00
 -1      3085 2.79000E+01 3.83090E+01 0.00000E+00
 -1      3086 2.94000E+01 3.83090E+01 0.00000E+00
 -1      3087 2.71500E+01 3.70100E+01 0.00000E+00
 -1      3088 3.09000E+01 3.83090E+01 0.00000E+00
 -1      3089 3.24000E+01 3.83090E+01 0.00000E+00
 -1      3090 3.01500E+01 3.70100E+01 0.00000E+00
 -1      3091 3.39000E+01 3.83090E+01 0.00000E+00
 -1      3092 3.54000E+01 3.83090E+01 0.00000E+00
 -1      3093 3.31500E+01 3.70100E+01 0.00000E+00
 -1      3094 3.69000E+01 3.83090E+01 0.00000E+00
 -1      3095 3.84000E+01 3.83090E+01 0.00000E+00
 -1      3096 3.61500E+01 3.70100E+01 0.00000E+00
 -1      3097 3.99000E+01 3.83090E+01 0.00000E+00
 -1      3098 4.14000E+01 3.83090E+01 0.00000E+00
 -1      3099 3.91500E+01 3.70100E+01 0.00000E+00
 -1      3100 4.29000E+01 3.83090E+01 0.00000E+00
 -1      3101 4.44000E+01 3.83090E+01 0.00000E+00
 -1      3102 4.21500E+01 3.70100E+01 0.00000E+00
 -1      3103 4.59000E+01 3.83090E+01 0.00000E+00
 -1      3104 4.74000E+01 3.83090E+01 0.00000E+00
 -1      3105 4.51500E+01 3.70100E+01 0.00000E+00
 -1      3106 4.89000E+01 3.83090E+01 0.00000E+00
 -1      3107 5.04000E+01 3.83090E+01 0.00000E+00
 -1      3108 4.81500E+01 3.70100E+01 0.00000E+00
 -1      3109 5.19000E+01 3.83090E+01 0.00000E+00
 -1      3110 5.34000E+01 3.83090E+01 0.00000E+00
 -1      3111 5.11500E+01 3.70100E+01 0.00000E+00
 -1      3112 5.49000E+01 3.83090E+01 0.00000E+00
 -1      3113 5.64000E+01 3.83090E+01 0.00000E+00
 -1      3114 5.41500E+01 3.70100E+01 0.00000E+00
 -1      3115 5.79000E+01 3.83090E+01 0.00000E+00
 -1      3116 5.94000E+01 3.83090E+01 0.00000E+00
 -1      3117 5.71500E+01 3.70100E+01 0.00000E+00
 -1      3118 6.09000E+01 3.83090E+01 0.00000E+00
 -1      3119 6.24000E+01 3.83090E+01 0.00000E+00
 -1      3120 6.01500E+01 3.70100E+01 0.00000E+00
 -1      3121 6.39000E+01 3.83090E+01 0.00000E+00
 -1      3122 6.54000E+01 3.83090E+01 0.00000E+00
 -1      3123 6.31500E+01 3.70100E+01 0.00000E+00
 -1      3124 6.69000E+01 3.83090E+01 0.00000E+00
 -1      3125 6.84000E+01 3.83090E+01 0.00000E+00
 -1      3126 6.61500E+01 3.70100E+01 0.00000E+00
 -1      3127 6.99000E+01 3.83090E+01 0.00000E+00
 -1      3128 7.14000E+01 3.83090E+01 0.00000E+00
 -1      3129 6.91500E+01 3.70100E+01 0.00000E+00
 -1      3130 7.29000E+01 3.83090E+01 0.00000E+00
 -1      3131 7.44000E+01 3.83090E+01 0.00000E+00
 -1      3132 7.21500E+01 3.70100E+01 0.00000E+00
 -1      3133 7.59000E+01 3.83090E+01 0.00000E+00
 -1      3134 7.74000E+01 3.83090E+01 0.00000E+00
 -1      3135 7.51500E+01 3.70100E+01 0.00000E+00
 -1      3136 7.89000E+01 3.83090E+01 0.00000E+00
 -1      3137 8.04000E+01 3.83090E+01 0.00000E+00
 -1      3138 7.81500E+01 3.70100E+01 0.00000E+00
 -1      3139 8.19000E+01 3.83090E+01 0.00000E+00
 -1      3140 8.34000E+01 3.83090E+01 0.00000E+00
 -1      3141 8.11500E+01 3.70100E+01 0.00000E+00
 -1      3142 8.49000E+01 3.83090E+01 0.00000E+00
 -1      3143 8.64000E+01 3.83090E+01 0.00000E+00
 -1      3144 8.41500E+01 3.70100E+01 0.00000E+00
 -1      3145 8.79000E+01 3.83090E+01 0.00000E+00
 -1      3146 8.94000E+01 3.83090E+01 0.00000E+00
 -1      3147 8.71500E+01 3.70100E+01 0.00000E+00
 -1      3148 9.09000E+01 3.83090E+01 0.00000E+00
 -1      3149 9.24000E+01 3.83090E+01 0.00000E+00
 -1      3150 9.01500E+01 3.70100E+01 0.00000E+00
 -1      3151 9.39000E+01 3.83090E+01 0.00000E+00
 -1      3152 9.54000E+01 3.83090E+01 0.00000E+00
 -1      3153 9.31500E+01 3.70100E+01 0.00000E+00
 -1      3154 9.69000E+01 3.83090E+01 0.00000E+00
 -1      3155 9.84000E+01 3.83090E+01 0.00000E+00
 -1      3156 9.61500E+01 3.70100E+01 0.00000E+00
 -1      3157 9.99000E+01 3.83090E+01 0.00000E+00
 -1      3158 1.01400E+02 3.83090E+01 0.00000E+00
 -1      3159 9.91500E+01 3.70100E+01 0.00000E+00
 -1      3160 1.02900E+02 3.83090E+01 0.00000E+00
 -1      3161 1.04400E+02 3.83090E+01 0.00000E+00
 -1      3162 1.02150E+02 3.70100E+01 0.00000E+00
 -1      3163 1.05900E+02 3.83090E+01 0.00000E+00
 -1      3164 1.07400E+02 3.83090E+01 0.00000E+00
 -1      3165 1.05150E+02 3.70100E+01 0.00000E+00
 -1      3166 1.08900E+02 3.83090E+01 0.00000E+00
 -1      3167 1.10400E+02 3.83090E+01 0.00000E+00
 -1      3168 1.08150E+02 3.70100E+01 0.00000E+00
 -1      3169 1.12297E+02 3.77811E+01 0.00000E+00
 -1      3170 1.13797E+02 3.77811E+01 0.00000E+00
 -1      3171 1.17900E+02 3.83315E+01 0.00000E+00
 -1      3172 1.19400E+02 3.83315E+01 0.00000E+00
 -1      3173 1.20434E+02 3.72454E+01 0.00000E+00
 -1      3174 1.21934E+02 3.72454E+01 0.00000E+00
 -1      3175 1.26900E+02 3.83090E+01 0.00000E+00
 -1      3176 1.28400E+02 3.83090E+01 0.00000E+00
 -1      3177 1.29900E+02 3.83090E+01 0.00000E+00
 -1      3178 1.31400E+02 3.83090E+01 0.00000E+00
 -1      3179 1.29150E+02 3.70100E+01 0.00000E+00
 -1      3180 1.32900E+02 3.83090E+01 0.00000E+00
 -1      3181 1.34400E+02 3.83090E+01 0.00000E+00
 -1      3182 1.32150E+02 3.70100E+01 0.00000E+00
 -1      3183 1.35707E+02 3.84200E+01 0.00000E+00
 -1      3184 1.37207E+02 3.84200E+01 0.00000E+00
 -1      3185 1.37572E+02 3.73430E+01 0.00000E+00
 -1      3186 1.34957E+02 3.71210E+01 0.00000E+00
 -1      3187 1.08463E+02 3.39216E+01 0.00000E+00
 -1      3188 1.07323E+02 3.31246E+01 0.00000E+00
 -1      3189 1.29908E+02 1.98282E+01 0.00000E+00
 -1      3190 1.30016E+02 2.13451E+01 0.00000E+00
 -1      3191 3.47850E+01 1.05013E+01 0.00000E+00
 -1      3192 3.32850E+01 1.05013E+01 0.00000E+00
 -1      3193 3.17850E+01 1.05013E+01 0.00000E+00
 -1      3194 3.02850E+01 1.05013E+01 0.00000E+00
 -1      3195 3.25350E+01 1.18003E+01 0.00000E+00
 -1      3196 4.07850E+01 1.05013E+01 0.00000E+00
 -1      3197 3.92850E+01 1.05013E+01 0.00000E+00
 -1      3198 4.37850E+01 1.05013E+01 0.00000E+00
 -1      3199 4.22850E+01 1.05013E+01 0.00000E+00
 -1      3200 4.15350E+01 1.18003E+01 0.00000E+00
 -1      3201 4.67850E+01 1.05013E+01 0.00000E+00
 -1      3202 4.52850E+01 1.05013E+01 0.00000E+00
 -1      3203 4.45350E+01 1.18003E+01 0.00000E+00
 -1      3204 4.97850E+01 1.05013E+01 0.00000E+00
 -1      3205 4.82850E+01 1.05013E+01 0.00000E+00
 -1      3206 4.75350E+01 1.18003E+01 0.00000E+00
 -1      3207 5.27850E+01 1.05013E+01 0.00000E+00
 -1      3208 5.12850E+01 1.05013E+01 0.00000E+00
 -1      3209 5.05350E+01 1.18003E+01 0.00000E+00
 -1      3210 5.57850E+01 1.05013E+01 0.00000E+00
 -1      3211 5.42850E+01 1.05013E+01 0.00000E+00
 -1      3212 5.35350E+01 1.18003E+01 0.00000E+00
 -1      3213 5.87850E+01 1.05013E+01 0.00000E+00
 -1      3214 5.72850E+01 1.05013E+01 0.00000E+00
 -1      3215 5.65350E+01 1.18003E+01 0.00000E+00
 -1      3216 6.17850E+01 1.05013E+01 0.00000E+00
 -1      3217 6.02850E+01 1.05013E+01 0.00000E+00
 -1      3218 5.95350E+01 1.18003E+01 0.00000E+00
 -1      3219 6.47850E+01 1.05013E+01 0.00000E+00
 -1      3220 6.32850E+01 1.05013E+01 0.00000E+00
 -1      3221 6.25350E+01 1.18003E+01 0.00000E+00
 -1      3222 6.77850E+01 1.05013E+01 0.00000E+00
 -1      3223 6.62850E+01 1.05013E+01 0.00000E+00
 -1      3224 6.55350E+01 1.18003E+01 0.00000E+00
 -1      3225 7.07850E+01 1.05013E+01 0.00000E+00
 -1      3226 6.92850E+01 1.05013E+01 0.00000E+00
 -1      3227 6.85350E+01 1.18003E+01 0.00000E+00
 -1      3228 7.37850E+01 1.05013E+01 0.00000E+00
 -1      3229 7.22850E+01 1.05013E+01 0.00000E+00
 -1      3230 7.15350E+01 1.18003E+01 0.00000E+00
 -1      3231 7.67850E+01 1.05013E+01 0.00000E+00
 -1      3232 7.52850E+01 1.05013E+01 0.00000E+00
 -1      3233 7.45350E+01 1.18003E+01 0.00000E+00
 -1      3234 7.97850E+01 1.05013E+01 0.00000E+00
 -1      3235 7.82850E+01 1.05013E+01 0.00000E+00
 -1      3236 7.75350E+01 1.18003E+01 0.00000E+00
 -1      3237 8.27850E+01 1.05013E+01 0.00000E+00
 -1      3238 8.12850E+01 1.05013E+01 0.00000E+00
 -1      3239 8.05350E+01 1.18003E+01 0.00000E+00
 -1      3240 8.57850E+01 1.05013E+01 0.00000E+00
 -1      3241 8.42850E+01 1.05013E+01 0.00000E+00
 -1      3242 8.35350E+01 1.18003E+01 0.00000E+00
 -1      3243 8.87850E+01 1.05013E+01 0.00000E+00
 -1      3244 8.72850E+01 1.05013E+01 0.00000E+00
 -1      3245 8.65350E+01 1.18003E+01 0.00000E+00
 -1      3246 9.17850E+01 1.05013E+01 0.00000E+00
 -1      3247 9.02850E+01 1.05013E+01 0.00000E+00
 -1      3248 8.95350E+01 1.18003E+01 0.00000E+00
 -1      3249 9.47850E+01 1.05013E+01 0.00000E+00
 -1      3250 9.32850E+01 1.05013E+01 0.00000E+00
 -1      3251 9.25350E+01 1.18003E+01 0.00000E+00
 -1      3252 9.77850E+01 1.05013E+01 0.00000E+00
 -1      3253 9.62850E+01 1.05013E+01 0.00000E+00
 -1      3254 9.55350E+01 1.18003E+01 0.00000E+00
 -1      3255 1.00785E+02 1.05013E+01 0.00000E+00
 -1      3256 9.92850E+01 1.05013E+01 0.00000E+00
 -1      3257 9.85350E+01 1.18003E+01 0.00000E+00
 -1      3258 1.03785E+02 1.05013E+01 0.00000E+00
 -1      3259 1.02285E+02 1.05013E+01 0.00000E+00
 -1      3260 1.01535E+02 1.18003E+01 0.00000E+00
 -1      3261 1.27785E+02 1.05013E+01 0.00000E+00
 -1      3262 1.26285E+02 1.05013E+01 0.00000E+00
 -1      3263 1.16910E+01 2.12875E+01 0.00000E+00
 -1      3264 1.16910E+01 2.27625E+01 0.00000E+00
 -1      3265 1.06196E+02 3.20018E+01 0.00000E+00
 -1      3266 1.05423E+02 3.11096E+01 0.00000E+00
 -1      3267 1.04231E+02 3.12942E+01 0.00000E+00
 -1      3268 1.38309E+02 2.57625E+01 0.00000E+00
 -1      3269 1.38309E+02 2.42875E+01 0.00000E+00
 -1      3270 1.38309E+02 3.45625E+01 0.00000E+00
 -1      3271 1.38309E+02 3.30875E+01 0.00000E+00
 -1      3272 1.38309E+02 2.86625E+01 0.00000E+00
 -1      3273 1.38309E+02 2.72125E+01 0.00000E+00
 -1      3274 1.37010E+02 2.64750E+01 0.00000E+00
 -1      3275 1.17020E+02 3.60328E+01 0.00000E+00
 -1      3276 1.15738E+02 3.58078E+01 0.00000E+00
 -1      3277 1.38309E+02 3.16125E+01 0.00000E+00
 -1      3278 1.38309E+02 3.01375E+01 0.00000E+00
 -1      3279 1.37010E+02 2.94000E+01 0.00000E+00
 -1      3280 1.37010E+02 3.23500E+01 0.00000E+00
 -1      3281 1.33785E+02 1.05013E+01 0.00000E+00
 -1      3282 1.32285E+02 1.05013E+01 0.00000E+00
 -1      3283 1.30785E+02 1.05013E+01 0.00000E+00
 -1      3284 1.29285E+02 1.05013E+01 0.00000E+00
 -1      3285 1.28535E+02 1.18003E+01 0.00000E+00
 -1      3286 1.31535E+02 1.18003E+01 0.00000E+00
 -1      3287 1.02877E+02 1.91847E+01 0.00000E+00
 -1      3288 1.03243E+02 1.79004E+01 0.00000E+00
 -1      3289 3.77850E+01 1.05013E+01 0.00000E+00
 -1      3290 3.62850E+01 1.05013E+01 0.00000E+00
 -1      3291 3.55350E+01 1.18003E+01 0.00000E+00
 -1      3292 3.85350E+01 1.18003E+01 0.00000E+00
 -1      3293 2.27850E+01 1.05013E+01 0.00000E+00
 -1      3294 2.12850E+01 1.05013E+01 0.00000E+00
 -1      3295 1.30065E+02 2.29542E+01 0.00000E+00
 -1      3296 1.29898E+02 2.42625E+01 0.00000E+00
 -1      3297 1.97850E+01 1.05013E+01 0.00000E+00
 -1      3298 1.82850E+01 1.05013E+01 0.00000E+00
 -1      3299 2.05350E+01 1.18003E+01 0.00000E+00
 -1      3300 1.26192E+02 1.20952E+01 0.00000E+00
 -1      3301 1.27010E+02 1.32008E+01 0.00000E+00
 -1      3302 1.07305E+02 1.08893E+01 0.00000E+00
 -1      3303 1.28574E+02 2.83486E+01 0.00000E+00
 -1      3304 1.27921E+02 2.96547E+01 0.00000E+00
 -1      3305 1.39407E+02 1.25250E+01 0.00000E+00
 -1      3306 1.26488E+01 1.02017E+01 0.00000E+00
 -1      3307 1.20772E+01 1.14631E+01 0.00000E+00
 -1      3308 1.33763E+01 1.22006E+01 0.00000E+00
 -1      3309 1.41488E+01 1.02017E+01 0.00000E+00
 -1      3310 1.29519E+02 1.69503E+01 0.00000E+00
 -1      3311 1.29879E+02 1.81847E+01 0.00000E+00
 -1      3312 1.10875E+02 3.57116E+01 0.00000E+00
 -1      3313 1.09659E+02 3.52106E+01 0.00000E+00
 -1      3314 1.29408E+02 2.56697E+01 0.00000E+00
 -1      3315 1.29002E+02 2.68945E+01 0.00000E+00
 -1      3316 1.05245E+02 1.41955E+01 0.00000E+00
 -1      3317 1.05777E+02 1.28449E+01 0.00000E+00
 -1      3318 1.16460E+01 3.80848E+01 0.00000E+00
 -1      3319 1.24605E+01 3.85216E+01 0.00000E+00
 -1      3320 1.39605E+01 3.85216E+01 0.00000E+00
 -1      3321 1.15815E+01 3.63489E+01 0.00000E+00
 -1      3322 1.59000E+01 3.83090E+01 0.00000E+00
 -1      3323 1.74000E+01 3.83090E+01 0.00000E+00
 -1      3324 1.81500E+01 3.70100E+01 0.00000E+00
 -1      3325 1.02558E+02 2.17265E+01 0.00000E+00
 -1      3326 1.02623E+02 2.06078E+01 0.00000E+00
 -1      3327 1.22684E+02 3.56452E+01 0.00000E+00
 -1      3328 1.23900E+02 3.80078E+01 0.00000E+00
 -1      3329 1.25400E+02 3.80078E+01 0.00000E+00
 -1      3330 1.23900E+02 3.48073E+01 0.00000E+00
 -1      3331 1.05805E+02 1.08893E+01 0.00000E+00
 -1      3332 1.16910E+01 2.42375E+01 0.00000E+00
 -1      3333 1.16910E+01 2.57125E+01 0.00000E+00
 -1      3334 1.29900E+01 2.35000E+01 0.00000E+00
 -1      3335 1.28701E+02 3.05705E+01 0.00000E+00
 -1      3336 1.27457E+02 3.07647E+01 0.00000E+00
 -1      3337 1.01821E+02 1.96844E+01 0.00000E+00
 -1      3338 1.37010E+02 2.35500E+01 0.00000E+00
 -1      3339 1.38309E+02 2.28125E+01 0.00000E+00
 -1      3340 1.38309E+02 2.13375E+01 0.00000E+00
 -1      3341 1.30246E+02 1.58314E+01 0.00000E+00
 -1      3342 1.11547E+02 3.64821E+01 0.00000E+00
 -1      3343 1.02982E+02 2.57154E+01 0.00000E+00
 -1      3344 1.02207E+02 2.51523E+01 0.00000E+00
 -1      3345 1.02521E+02 2.67464E+01 0.00000E+00
 -1      3346 1.38309E+02 1.69188E+01 0.00000E+00
 -1      3347 1.38309E+02 1.54563E+01 0.00000E+00
 -1      3348 1.14838E+02 3.63596E+01 0.00000E+00
 -1      3349 1.15190E+02 3.81865E+01 0.00000E+00
 -1      3350 1.16690E+02 3.81865E+01 0.00000E+00
 -1      3351 1.06131E+02 3.33093E+01 0.00000E+00
 -1      3352 1.30872E+02 1.88763E+01 0.00000E+00
 -1      3353 1.30950E+02 2.21289E+01 0.00000E+00
 -1      3354 1.28341E+02 1.31151E+01 0.00000E+00
 -1      3355 2.57850E+01 1.05013E+01 0.00000E+00
 -1      3356 2.42850E+01 1.05013E+01 0.00000E+00
 -1      3357 2.35350E+01 1.18003E+01 0.00000E+00
 -1      3358 2.95350E+01 1.18003E+01 0.00000E+00
 -1      3359 2.87850E+01 1.05013E+01 0.00000E+00
 -1      3360 2.72850E+01 1.05013E+01 0.00000E+00
 -1      3361 1.16910E+01 3.30594E+01 0.00000E+00
 -1      3362 1.16910E+01 3.45281E+01 0.00000E+00
 -1      3363 1.25442E+02 1.07962E+01 0.00000E+00
 -1      3364 1.23577E+02 1.12577E+01 0.00000E+00
 -1      3365 1.02118E+02 2.26143E+01 0.00000E+00
 -1      3366 1.01127E+02 2.19952E+01 0.00000E+00
 -1      3367 1.01678E+02 2.35021E+01 0.00000E+00
 -1      3368 1.16910E+01 1.98188E+01 0.00000E+00
 -1      3369 1.29900E+01 2.05562E+01 0.00000E+00
 -1      3370 1.16910E+01 1.83500E+01 0.00000E+00
 -1      3371 1.26575E+02 3.16042E+01 0.00000E+00
 -1      3372 1.36120E+02 1.10626E+01 0.00000E+00
 -1      3373 1.34953E+02 1.07819E+01 0.00000E+00
 -1      3374 1.34203E+02 1.20809E+01 0.00000E+00
 -1      3375 1.38309E+02 1.98656E+01 0.00000E+00
 -1      3376 1.38309E+02 1.83906E+01 0.00000E+00
 -1      3377 1.37010E+02 1.76594E+01 0.00000E+00
 -1      3378 1.37010E+02 2.06031E+01 0.00000E+00
 -1      3379 1.29900E+01 1.46687E+01 0.00000E+00
 -1      3380 1.16910E+01 1.54063E+01 0.00000E+00
 -1      3381 1.16910E+01 1.68750E+01 0.00000E+00
 -1      3382 1.04289E+02 1.43730E+01 0.00000E+00
 -1      3383 1.01917E+02 1.73079E+01 0.00000E+00
 -1      3384 1.03086E+02 1.69469E+01 0.00000E+00
 -1      3385 1.02929E+02 1.59934E+01 0.00000E+00
 -1      3386 1.30508E+02 2.51451E+01 0.00000E+00
 -1      3387 1.18229E+02 3.61779E+01 0.00000E+00
 -1      3388 1.17440E+02 3.69100E+01 0.00000E+00
 -1      3389 1.02688E+02 2.98452E+01 0.00000E+00
 -1      3390 1.03377E+02 2.88557E+01 0.00000E+00
 -1      3391 1.02607E+02 2.82990E+01 0.00000E+00
 -1      3392 1.19684E+02 3.59690E+01 0.00000E+00
 -1      3393 1.05055E+02 1.21883E+01 0.00000E+00
 -1      3394 1.26150E+02 3.67088E+01 0.00000E+00
 -1      3395 1.29591E+02 2.80064E+01 0.00000E+00
 -1      3396 1.38274E+02 1.38503E+01 0.00000E+00
 -1      3397 1.38073E+02 1.16503E+01 0.00000E+00
 -1      3398 1.36905E+02 1.13696E+01 0.00000E+00
 -1      3399 1.36975E+02 1.45815E+01 0.00000E+00
 -1      3400 1.08454E+02 3.57211E+01 0.00000E+00
 -1      3401 1.16910E+01 3.01219E+01 0.00000E+00
 -1      3402 1.16910E+01 3.15906E+01 0.00000E+00
 -1      3403 1.29900E+01 3.23250E+01 0.00000E+00
 -1      3404 1.47105E+01 3.72226E+01 0.00000E+00
 -1      3405 1.24716E+02 3.37380E+01 0.00000E+00
 -1      3406 1.25466E+02 3.53383E+01 0.00000E+00
 -1      3407 1.26966E+02 3.56395E+01 0.00000E+00
 -1      3408 1.25597E+02 3.28985E+01 0.00000E+00
 -1      3409 1.69669E+01 1.03515E+01 0.00000E+00
 -1      3410 1.54669E+01 1.03515E+01 0.00000E+00
 -1      3411 1.50806E+01 1.13509E+01 0.00000E+00
 -1      3412 1.77169E+01 1.16505E+01 0.00000E+00
 -1      3413 1.37758E+02 3.64912E+01 0.00000E+00
 -1      3414 1.38123E+02 3.54142E+01 0.00000E+00
 -1      3415 1.36824E+02 3.46768E+01 0.00000E+00
 -1      3416 1.36451E+02 3.63802E+01 0.00000E+00
 -1      3417 1.30033E+02 3.04752E+01 0.00000E+00
 -1      3418 1.29569E+02 3.15851E+01 0.00000E+00
 -1      3419 1.00602E+02 2.02015E+01 0.00000E+00
 -1      3420 1.00856E+02 1.87785E+01 0.00000E+00
 -1      3421 2.34000E+01 3.57110E+01 0.00000E+00
 -1      3422 2.49000E+01 3.57110E+01 0.00000E+00
 -1      3423 2.64000E+01 3.57110E+01 0.00000E+00
 -1      3424 2.79000E+01 3.57110E+01 0.00000E+00
 -1      3425 2.56500E+01 3.44120E+01 0.00000E+00
 -1      3426 2.94000E+01 3.57110E+01 0.00000E+00
 -1      3427 3.09000E+01 3.57110E+01 0.00000E+00
 -1      3428 2.86500E+01 3.44120E+01 0.00000E+00
 -1      3429 3.24000E+01 3.57110E+01 0.00000E+00
 -1      3430 3.39000E+01 3.57110E+01 0.00000E+00
 -1      3431 3.16500E+01 3.44120E+01 0.00000E+00
 -1      3432 3.54000E+01 3.57110E+01 0.00000E+00
 -1      3433 3.69000E+01 3.57110E+01 0.00000E+00
 -1      3434 3.46500E+01 3.44120E+01 0.00000E+00
 -1      3435 3.84000E+01 3.57110E+01 0.00000E+00
 -1      3436 3.99000E+01 3.57110E+01 0.00000E+00
 -1      3437 3.76500E+01 3.44120E+01 0.00000E+00
 -1      3438 4.14000E+01 3.57110E+01 0.00000E+00
 -1      3439 4.29000E+01 3.57110E+01 0.00000E+00
 -1      3440 4.06500E+01 3.44120E+01 0.00000E+00
 -1      3441 4.44000E+01 3.57110E+01 0.00000E+00
 -1      3442 4.59000E+01 3.57110E+01 0.00000E+00
 -1      3443 4.36500E+01 3.44120E+01 0.00000E+00
 -1      3444 4.74000E+01 3.57110E+01 0.00000E+00
 -1      3445 4.89000E+01 3.57110E+01 0.00000E+00
 -1      3446 4.66500E+01 3.44120E+01 0.00000E+00
 -1      3447 5.04000E+01 3.57110E+01 0.00000E+00
 -1      3448 5.19000E+01 3.57110E+01 0.00000E+00
 -1      3449 4.96500E+01 3.44120E+01 0.00000E+00
 -1      3450 5.34000E+01 3.57110E+01 0.00000E+00
 -1      3451 5.49000E+01 3.57110E+01 0.00000E+00
 -1      3452 5.26500E+01 3.44120E+01 0.00000E+00
 -1      3453 5.64000E+01 3.57110E+01 0.00000E+00
 -1      3454 5.79000E+01 3.57110E+01 0.00000E+00
 -1      3455 5.56500E+01 3.44120E+01 0.00000E+00
 -1      3456 5.94000E+01 3.57110E+01 0.00000E+00
 -1      3457 6.09000E+01 3.57110E+01 0.00000E+00
 -1      3458 5.86500E+01 3.44120E+01 0.00000E+00
 -1      3459 6.24000E+01 3.57110E+01 0.00000E+00
 -1      3460 6.39000E+01 3.57110E+01 0.00000E+00
 -1      3461 6.16500E+01 3.44120E+01 0.00000E+00
 -1      3462 6.54000E+01 3.57110E+01 0.00000E+00
 -1      3463 6.69000E+01 3.57110E+01 0.00000E+00
 -1      3464 6.46500E+01 3.44120E+01 0.00000E+00
 -1      3465 6.84000E+01 3.57110E+01 0.00000E+00
 -1      3466 6.99000E+01 3.57110E+01 0.00000E+00
 -1      3467 6.76500E+01 3.44120E+01 0.00000E+00
 -1      3468 7.14000E+01 3.57110E+01 0.00000E+00
 -1      3469 7.29000E+01 3.57110E+01 0.00000E+00
 -1      3470 7.06500E+01 3.44120E+01 0.00000E+00
 -1      3471 7.44000E+01 3.57110E+01 0.00000E+00
 -1      3472 7.59000E+01 3.57110E+01 0.00000E+00
 -1      3473 7.36500E+01 3.44120E+01 0.00000E+00
 -1      3474 7.74000E+01 3.57110E+01 0.00000E+00
 -1      3475 7.89000E+01 3.57110E+01 0.00000E+00
 -1      3476 7.66500E+01 3.44120E+01 0.00000E+00
 -1      3477 8.04000E+01 3.57110E+01 0.00000E+00
 -1      3478 8.19000E+01 3.57110E+01 0.00000E+00
 -1      3479 7.96500E+01 3.44120E+01 0.00000E+00
 -1      3480 8.34000E+01 3.57110E+01 0.00000E+00
 -1      3481 8.49000E+01 3.57110E+01 0.00000E+00
 -1      3482 8.26500E+01 3.44120E+01 0.00000E+00
 -1      3483 8.64000E+01 3.57110E+01 0.00000E+00
 -1      3484 8.79000E+01 3.57110E+01 0.00000E+00
 -1      3485 8.56500E+01 3.44120E+01 0.00000E+00
 -1      3486 8.94000E+01 3.57110E+01 0.00000E+00
 -1      3487 9.09000E+01 3.57110E+01 0.00000E+00
 -1      3488 8.86500E+01 3.44120E+01 0.00000E+00
 -1      3489 9.24000E+01 3.57110E+01 0.00000E+00
 -1      3490 9.39000E+01 3.57110E+01 0.00000E+00
 -1      3491 9.16500E+01 3.44120E+01 0.00000E+00
 -1      3492 9.54000E+01 3.57110E+01 0.00000E+00
 -1      3493 9.69000E+01 3.57110E+01 0.00000E+00
 -1      3494 9.46500E+01 3.44120E+01 0.00000E+00
 -1      3495 9.84000E+01 3.57110E+01 0.00000E+00
 -1      3496 9.99000E+01 3.57110E+01 0.00000E+00
 -1      3497 9.76500E+01 3.44120E+01 0.00000E+00
 -1      3498 1.01400E+02 3.57110E+01 0.00000E+00
 -1      3499 1.02900E+02 3.57110E+01 0.00000E+00
 -1      3500 1.00650E+02 3.44120E+01 0.00000E+00
 -1      3501 1.06954E+02 3.57211E+01 0.00000E+00
 -1      3502 1.31400E+02 3.57110E+01 0.00000E+00
 -1      3503 1.32900E+02 3.57110E+01 0.00000E+00
 -1      3504 1.35992E+01 3.60377E+01 0.00000E+00
 -1      3505 1.55387E+01 3.58251E+01 0.00000E+00
 -1      3506 4.52850E+01 1.30992E+01 0.00000E+00
 -1      3507 4.37850E+01 1.30992E+01 0.00000E+00
 -1      3508 4.22850E+01 1.30992E+01 0.00000E+00
 -1      3509 4.07850E+01 1.30992E+01 0.00000E+00
 -1      3510 4.30350E+01 1.43982E+01 0.00000E+00
 -1      3511 5.12850E+01 1.30992E+01 0.00000E+00
 -1      3512 4.97850E+01 1.30992E+01 0.00000E+00
 -1      3513 5.42850E+01 1.30992E+01 0.00000E+00
 -1      3514 5.27850E+01 1.30992E+01 0.00000E+00
 -1      3515 5.20350E+01 1.43982E+01 0.00000E+00
 -1      3516 5.72850E+01 1.30992E+01 0.00000E+00
 -1      3517 5.57850E+01 1.30992E+01 0.00000E+00
 -1      3518 5.50350E+01 1.43982E+01 0.00000E+00
 -1      3519 6.02850E+01 1.30992E+01 0.00000E+00
 -1      3520 5.87850E+01 1.30992E+01 0.00000E+00
 -1      3521 5.80350E+01 1.43982E+01 0.00000E+00
 -1      3522 6.32850E+01 1.30992E+01 0.00000E+00
 -1      3523 6.17850E+01 1.30992E+01 0.00000E+00
 -1      3524 6.10350E+01 1.43982E+01 0.00000E+00
 -1      3525 6.62850E+01 1.30992E+01 0.00000E+00
 -1      3526 6.47850E+01 1.30992E+01 0.00000E+00
 -1      3527 6.40350E+01 1.43982E+01 0.00000E+00
 -1      3528 6.92850E+01 1.30992E+01 0.00000E+00
 -1      3529 6.77850E+01 1.30992E+01 0.00000E+00
 -1      3530 6.70350E+01 1.43982E+01 0.00000E+00
 -1      3531 7.22850E+01 1.30992E+01 0.00000E+00
 -1      3532 7.07850E+01 1.30992E+01 0.00000E+00
 -1      3533 7.00350E+01 1.43982E+01 0.00000E+00
 -1      3534 7.52850E+01 1.30992E+01 0.00000E+00
 -1      3535 7.37850E+01 1.30992E+01 0.00000E+00
 -1      3536 7.30350E+01 1.43982E+01 0.00000E+00
 -1      3537 7.82850E+01 1.30992E+01 0.00000E+00
 -1      3538 7.67850E+01 1.30992E+01 0.00000E+00
 -1      3539 7.60350E+01 1.43982E+01 0.00000E+00
 -1      3540 8.12850E+01 1.30992E+01 0.00000E+00
 -1      3541 7.97850E+01 1.30992E+01 0.00000E+00
 -1      3542 7.90350E+01 1.43982E+01 0.00000E+00
 -1      3543 8.42850E+01 1.30992E+01 0.00000E+00
 -1      3544 8.27850E+01 1.30992E+01 0.00000E+00
 -1      3545 8.20350E+01 1.43982E+01 0.00000E+00
 -1      3546 8.72850E+01 1.30992E+01 0.00000E+00
 -1      3547 8.57850E+01 1.30992E+01 0.00000E+00
 -1      3548 8.50350E+01 1.43982E+01 0.00000E+00
 -1      3549 9.02850E+01 1.30992E+01 0.00000E+00
 -1      3550 8.87850E+01 1.30992E+01 0.00000E+00
 -1      3551 8.80350E+01 1.43982E+01 0.00000E+00
 -1      3552 9.32850E+01 1.30992E+01 0.00000E+00
 -1      3553 9.17850E+01 1.30992E+01 0.00000E+00
 -1      3554 9.10350E+01 1.43982E+01 0.00000E+00
 -1      3555 9.62850E+01 1.30992E+01 0.00000E+00
 -1      3556 9.47850E+01 1.30992E+01 0.00000E+00
 -1      3557 9.40350E+01 1.43982E+01 0.00000E+00
 -1      3558 9.92850E+01 1.30992E+01 0.00000E+00
 -1      3559 9.77850E+01 1.30992E+01 0.00000E+00
 -1      3560 9.70350E+01 1.43982E+01 0.00000E+00
 -1      3561 1.02398E+02 1.40773E+01 0.00000E+00
 -1      3562 1.00898E+02 1.40773E+01 0.00000E+00
 -1      3563 1.32134E+02 1.80324E+01 0.00000E+00
 -1      3564 1.32163E+02 1.96759E+01 0.00000E+00
 -1      3565 1.03716E+02 3.25212E+01 0.00000E+00
 -1      3566 1.02943E+02 3.16289E+01 0.00000E+00
 -1      3567 1.05898E+02 3.46825E+01 0.00000E+00
 -1      3568 1.04771E+02 3.35597E+01 0.00000E+00
 -1      3569 1.03483E+02 3.38944E+01 0.00000E+00
 -1      3570 1.05594E+02 3.59715E+01 0.00000E+00
 -1      3571 1.31044E+02 1.46625E+01 0.00000E+00
 -1      3572 1.31642E+02 1.60640E+01 0.00000E+00
 -1      3573 1.35711E+02 2.72000E+01 0.00000E+00
 -1      3574 1.35711E+02 2.57500E+01 0.00000E+00
 -1      3575 2.12850E+01 1.30992E+01 0.00000E+00
 -1      3576 1.97850E+01 1.30992E+01 0.00000E+00
 -1      3577 4.82850E+01 1.30992E+01 0.00000E+00
 -1      3578 4.67850E+01 1.30992E+01 0.00000E+00
 -1      3579 4.60350E+01 1.43982E+01 0.00000E+00
 -1      3580 4.90350E+01 1.43982E+01 0.00000E+00
 -1      3581 3.32850E+01 1.30992E+01 0.00000E+00
 -1      3582 3.17850E+01 1.30992E+01 0.00000E+00
 -1      3583 1.32212E+02 2.12849E+01 0.00000E+00
 -1      3584 1.32260E+02 2.28939E+01 0.00000E+00
 -1      3585 1.33474E+02 2.04410E+01 0.00000E+00
 -1      3586 1.28433E+02 3.56752E+01 0.00000E+00
 -1      3587 1.29933E+02 3.56752E+01 0.00000E+00
 -1      3588 1.30683E+02 3.43762E+01 0.00000E+00
 -1      3589 1.27749E+02 3.43047E+01 0.00000E+00
 -1      3590 1.16910E+01 2.71844E+01 0.00000E+00
 -1      3591 1.16910E+01 2.86531E+01 0.00000E+00
 -1      3592 1.29900E+01 2.93875E+01 0.00000E+00
 -1      3593 1.29841E+02 1.31151E+01 0.00000E+00
 -1      3594 1.27259E+02 3.29747E+01 0.00000E+00
 -1      3595 1.74000E+01 3.57110E+01 0.00000E+00
 -1      3596 1.89000E+01 3.57110E+01 0.00000E+00
 -1      3597 2.04000E+01 3.57110E+01 0.00000E+00
 -1      3598 2.19000E+01 3.57110E+01 0.00000E+00
 -1      3599 2.26500E+01 3.44120E+01 0.00000E+00
 -1      3600 1.30888E+02 2.75669E+01 0.00000E+00
 -1      3601 1.30460E+02 2.90210E+01 0.00000E+00
 -1      3602 1.31329E+02 3.00357E+01 0.00000E+00
 -1      3603 1.31642E+02 2.47509E+01 0.00000E+00
 -1      3604 1.31153E+02 2.61581E+01 0.00000E+00
 -1      3605 9.94803E+01 1.83421E+01 0.00000E+00
 -1      3606 1.00699E+02 1.78250E+01 0.00000E+00
 -1      3607 1.00542E+02 1.68715E+01 0.00000E+00
 -1      3608 1.35266E+02 2.35375E+01 0.00000E+00
 -1      3609 1.35266E+02 2.20625E+01 0.00000E+00
 -1      3610 1.29900E+01 1.76125E+01 0.00000E+00
 -1      3611 1.01831E+02 2.77359E+01 0.00000E+00
 -1      3612 1.01056E+02 2.71728E+01 0.00000E+00
 -1      3613 1.01142E+02 2.87254E+01 0.00000E+00
 -1      3614 1.42890E+01 1.39344E+01 0.00000E+00
 -1      3615 1.42890E+01 1.54031E+01 0.00000E+00
 -1      3616 2.27850E+01 1.30992E+01 0.00000E+00
 -1      3617 2.20350E+01 1.43982E+01 0.00000E+00
 -1      3618 2.42850E+01 1.30992E+01 0.00000E+00
 -1      3619 1.32932E+02 1.68635E+01 0.00000E+00
 -1      3620 1.04094E+02 3.59715E+01 0.00000E+00
 -1      3621 1.29900E+01 2.64469E+01 0.00000E+00
 -1      3622 1.00754E+02 2.55642E+01 0.00000E+00
 -1      3623 1.01216E+02 2.45332E+01 0.00000E+00
 -1      3624 1.00225E+02 2.39141E+01 0.00000E+00
 -1      3625 1.30059E+02 3.29152E+01 0.00000E+00
 -1      3626 1.28726E+02 3.30105E+01 0.00000E+00
 -1      3627 1.62887E+01 3.45261E+01 0.00000E+00
 -1      3628 1.34022E+02 3.59901E+01 0.00000E+00
 -1      3629 1.35329E+02 3.61011E+01 0.00000E+00
 -1      3630 1.35515E+02 3.52494E+01 0.00000E+00
 -1      3631 1.33272E+02 3.46911E+01 0.00000E+00
 -1      3632 2.65350E+01 1.18003E+01 0.00000E+00
 -1      3633 3.02850E+01 1.30992E+01 0.00000E+00
 -1      3634 2.87850E+01 1.30992E+01 0.00000E+00
 -1      3635 3.10350E+01 1.43982E+01 0.00000E+00
 -1      3636 4.00350E+01 1.43982E+01 0.00000E+00
 -1      3637 3.92850E+01 1.30992E+01 0.00000E+00
 -1      3638 3.77850E+01 1.30992E+01 0.00000E+00
 -1      3639 1.01657E+02 3.22991E+01 0.00000E+00
 -1      3640 1.02172E+02 3.10722E+01 0.00000E+00
 -1      3641 1.01402E+02 3.05154E+01 0.00000E+00
 -1      3642 1.84669E+01 1.29495E+01 0.00000E+00
 -1      3643 1.71488E+01 1.27997E+01 0.00000E+00
 -1      3644 1.92169E+01 1.42485E+01 0.00000E+00
 -1      3645 1.32021E+02 2.71727E+01 0.00000E+00
 -1      3646 9.97221E+01 2.19771E+01 0.00000E+00
 -1      3647 1.00162E+02 2.10893E+01 0.00000E+00
 -1      3648 9.91971E+01 2.01834E+01 0.00000E+00
 -1      3649 1.36155E+02 1.26686E+01 0.00000E+00
 -1      3650 1.28805E+01 3.56145E+01 0.00000E+00
 -1      3651 1.33967E+02 2.42625E+01 0.00000E+00
 -1      3652 1.35218E+02 1.89816E+01 0.00000E+00
 -1      3653 1.35218E+02 1.75097E+01 0.00000E+00
 -1      3654 1.32904E+02 2.39069E+01 0.00000E+00
 -1      3655 1.32737E+02 1.33477E+01 0.00000E+00
 -1      3656 1.31237E+02 1.33477E+01 0.00000E+00
 -1      3657 3.62850E+01 1.30992E+01 0.00000E+00
 -1      3658 3.47850E+01 1.30992E+01 0.00000E+00
 -1      3659 3.40350E+01 1.43982E+01 0.00000E+00
 -1      3660 3.70350E+01 1.43982E+01 0.00000E+00
 -1      3661 1.96500E+01 3.44120E+01 0.00000E+00
 -1      3662 1.35702E+02 3.43976E+01 0.00000E+00
 -1      3663 1.42890E+01 2.27625E+01 0.00000E+00
 -1      3664 1.42890E+01 2.42375E+01 0.00000E+00
 -1      3665 1.34725E+02 1.55413E+01 0.00000E+00
 -1      3666 1.34690E+02 1.39354E+01 0.00000E+00
 -1      3667 1.42890E+01 2.12938E+01 0.00000E+00
 -1      3668 1.55880E+01 2.20313E+01 0.00000E+00
 -1      3669 1.42890E+01 1.98250E+01 0.00000E+00
 -1      3670 1.37087E+01 3.42169E+01 0.00000E+00
 -1      3671 1.34394E+02 3.34953E+01 0.00000E+00
 -1      3672 1.35702E+02 3.29226E+01 0.00000E+00
 -1      3673 1.35702E+02 3.14476E+01 0.00000E+00
 -1      3674 1.37087E+01 3.12794E+01 0.00000E+00
 -1      3675 1.37087E+01 3.27482E+01 0.00000E+00
 -1      3676 1.44274E+01 3.31713E+01 0.00000E+00
 -1      3677 1.03344E+02 3.46725E+01 0.00000E+00
 -1      3678 1.42890E+01 1.68766E+01 0.00000E+00
 -1      3679 1.42890E+01 1.83516E+01 0.00000E+00
 -1      3680 1.55880E+01 1.90891E+01 0.00000E+00
 -1      3681 1.55880E+01 1.61422E+01 0.00000E+00
 -1      3682 1.46944E+01 1.23503E+01 0.00000E+00
 -1      3683 1.59934E+01 1.30847E+01 0.00000E+00
 -1      3684 2.79000E+01 3.31130E+01 0.00000E+00
 -1      3685 2.94000E+01 3.31130E+01 0.00000E+00
 -1      3686 3.09000E+01 3.31130E+01 0.00000E+00
 -1      3687 3.24000E+01 3.31130E+01 0.00000E+00
 -1      3688 3.01500E+01 3.18140E+01 0.00000E+00
 -1      3689 3.39000E+01 3.31130E+01 0.00000E+00
 -1      3690 3.54000E+01 3.31130E+01 0.00000E+00
 -1      3691 3.31500E+01 3.18140E+01 0.00000E+00
 -1      3692 3.69000E+01 3.31130E+01 0.00000E+00
 -1      3693 3.84000E+01 3.31130E+01 0.00000E+00
 -1      3694 3.61500E+01 3.18140E+01 0.00000E+00
 -1      3695 3.99000E+01 3.31130E+01 0.00000E+00
 -1      3696 4.14000E+01 3.31130E+01 0.00000E+00
 -1      3697 3.91500E+01 3.18140E+01 0.00000E+00
 -1      3698 4.29000E+01 3.31130E+01 0.00000E+00
 -1      3699 4.44000E+01 3.31130E+01 0.00000E+00
 -1      3700 4.21500E+01 3.18140E+01 0.00000E+00
 -1      3701 4.59000E+01 3.31130E+01 0.00000E+00
 -1      3702 4.74000E+01 3.31130E+01 0.00000E+00
 -1      3703 4.51500E+01 3.18140E+01 0.00000E+00
 -1      3704 4.89000E+01 3.31130E+01 0.00000E+00
 -1      3705 5.04000E+01 3.31130E+01 0.00000E+00
 -1      3706 4.81500E+01 3.18140E+01 0.00000E+00
 -1      3707 5.19000E+01 3.31130E+01 0.00000E+00
 -1      3708 5.34000E+01 3.31130E+01 0.00000E+00
 -1      3709 5.11500E+01 3.18140E+01 0.00000E+00
 -1      3710 5.49000E+01 3.31130E+01 0.00000E+00
 -1      3711 5.64000E+01 3.31130E+01 0.00000E+00
 -1      3712 5.41500E+01 3.18140E+01 0.00000E+00
 -1      3713 5.79000E+01 3.31130E+01 0.00000E+00
 -1      3714 5.94000E+01 3.31130E+01 0.00000E+00
 -1      3715 5.71500E+01 3.18140E+01 0.00000E+00
 -1      3716 6.09000E+01 3.31130E+01 0.00000E+00
 -1      3717 6.24000E+01 3.31130E+01 0.00000E+00
 -1      3718 6.01500E+01 3.18140E+01 0.00000E+00
 -1      3719 6.39000E+01 3.31130E+01 0.00000E+00
 -1      3720 6.54000E+01 3.31130E+01 0.00000E+00
 -1      3721 6.31500E+01 3.18140E+01 0.00000E+00
 -1      3722 6.69000E+01 3.31130E+01 0.00000E+00
 -1      3723 6.84000E+01 3.31130E+01 0.00000E+00
 -1      3724 6.61500E+01 3.18140E+01 0.00000E+00
 -1      3725 6.99000E+01 3.31130E+01 0.00000E+00
 -1      3726 7.14000E+01 3.31130E+01 0.00000E+00
 -1      3727 6.91500E+01 3.18140E+01 0.00000E+00
 -1      3728 7.29000E+01 3.31130E+01 0.00000E+00
 -1      3729 7.44000E+01 3.31130E+01 0.00000E+00
 -1      3730 7.21500E+01 3.18140E+01 0.00000E+00
 -1      3731 7.59000E+01 3.31130E+01 0.00000E+00
 -1      3732 7.74000E+01 3.31130E+01 0.00000E+00
 -1      3733 7.51500E+01 3.18140E+01 0.00000E+00
 -1      3734 7.89000E+01 3.31130E+01 0.00000E+00
 -1      3735 8.04000E+01 3.31130E+01 0.00000E+00
 -1      3736 7.81500E+01 3.18140E+01 0.00000E+00
 -1      3737 8.19000E+01 3.31130E+01 0.00000E+00
 -1      3738 8.34000E+01 3.31130E+01 0.00000E+00
 -1      3739 8.11500E+01 3.18140E+01 0.00000E+00
 -1      3740 8.49000E+01 3.31130E+01 0.00000E+00
 -1      3741 8.64000E+01 3.31130E+01 0.00000E+00
 -1      3742 8.41500E+01 3.18140E+01 0.00000E+00
 -1      3743 8.79000E+01 3.31130E+01 0.00000E+00
 -1      3744 8.94000E+01 3.31130E+01 0.00000E+00
 -1      3745 8.71500E+01 3.18140E+01 0.00000E+00
 -1      3746 9.09000E+01 3.31130E+01 0.00000E+00
 -1      3747 9.24000E+01 3.31130E+01 0.00000E+00
 -1      3748 9.01500E+01 3.18140E+01 0.00000E+00
 -1      3749 9.39000E+01 3.31130E+01 0.00000E+00
 -1      3750 9.54000E+01 3.31130E+01 0.00000E+00
 -1      3751 9.31500E+01 3.18140E+01 0.00000E+00
 -1      3752 9.69000E+01 3.31130E+01 0.00000E+00
 -1      3753 9.84000E+01 3.31130E+01 0.00000E+00
 -1      3754 9.61500E+01 3.18140E+01 0.00000E+00
 -1      3755 1.31526E+02 3.29509E+01 0.00000E+00
 -1      3756 1.62887E+01 3.30573E+01 0.00000E+00
 -1      3757 1.33272E+02 3.32161E+01 0.00000E+00
 -1      3758 1.89000E+01 3.31130E+01 0.00000E+00
 -1      3759 2.04000E+01 3.31130E+01 0.00000E+00
 -1      3760 5.57850E+01 1.56973E+01 0.00000E+00
 -1      3761 5.42850E+01 1.56973E+01 0.00000E+00
 -1      3762 5.27850E+01 1.56973E+01 0.00000E+00
 -1      3763 5.12850E+01 1.56973E+01 0.00000E+00
 -1      3764 5.35350E+01 1.69963E+01 0.00000E+00
 -1      3765 6.17850E+01 1.56973E+01 0.00000E+00
 -1      3766 6.02850E+01 1.56973E+01 0.00000E+00
 -1      3767 6.47850E+01 1.56973E+01 0.00000E+00
 -1      3768 6.32850E+01 1.56973E+01 0.00000E+00
 -1      3769 6.25350E+01 1.69963E+01 0.00000E+00
 -1      3770 6.77850E+01 1.56973E+01 0.00000E+00
 -1      3771 6.62850E+01 1.56973E+01 0.00000E+00
 -1      3772 6.55350E+01 1.69963E+01 0.00000E+00
 -1      3773 7.07850E+01 1.56973E+01 0.00000E+00
 -1      3774 6.92850E+01 1.56973E+01 0.00000E+00
 -1      3775 6.85350E+01 1.69963E+01 0.00000E+00
 -1      3776 7.37850E+01 1.56973E+01 0.00000E+00
 -1      3777 7.22850E+01 1.56973E+01 0.00000E+00
 -1      3778 7.15350E+01 1.69963E+01 0.00000E+00
 -1      3779 7.67850E+01 1.56973E+01 0.00000E+00
 -1      3780 7.52850E+01 1.56973E+01 0.00000E+00
 -1      3781 7.45350E+01 1.69963E+01 0.00000E+00
 -1      3782 7.97850E+01 1.56973E+01 0.00000E+00
 -1      3783 7.82850E+01 1.56973E+01 0.00000E+00
 -1      3784 7.75350E+01 1.69963E+01 0.00000E+00
 -1      3785 8.27850E+01 1.56973E+01 0.00000E+00
 -1      3786 8.12850E+01 1.56973E+01 0.00000E+00
 -1      3787 8.05350E+01 1.69963E+01 0.00000E+00
 -1      3788 8.57850E+01 1.56973E+01 0.00000E+00
 -1      3789 8.42850E+01 1.56973E+01 0.00000E+00
 -1      3790 8.35350E+01 1.69963E+01 0.00000E+00
 -1      3791 8.87850E+01 1.56973E+01 0.00000E+00
 -1      3792 8.72850E+01 1.56973E+01 0.00000E+00
 -1      3793 8.65350E+01 1.69963E+01 0.00000E+00
 -1      3794 9.17850E+01 1.56973E+01 0.00000E+00
 -1      3795 9.02850E+01 1.56973E+01 0.00000E+00
 -1      3796 8.95350E+01 1.69963E+01 0.00000E+00
 -1      3797 9.47850E+01 1.56973E+01 0.00000E+00
 -1      3798 9.32850E+01 1.56973E+01 0.00000E+00
 -1      3799 9.25350E+01 1.69963E+01 0.00000E+00
 -1      3800 1.00148E+02 1.53763E+01 0.00000E+00
 -1      3801 1.03567E+02 1.37164E+01 0.00000E+00
 -1      3802 1.35266E+02 2.05906E+01 0.00000E+00
 -1      3803 4.37850E+01 1.56973E+01 0.00000E+00
 -1      3804 4.22850E+01 1.56973E+01 0.00000E+00
 -1      3805 1.35727E+02 2.86968E+01 0.00000E+00
 -1      3806 1.34428E+02 2.79718E+01 0.00000E+00
 -1      3807 1.03757E+02 1.24569E+01 0.00000E+00
 -1      3808 1.33366E+02 2.76162E+01 0.00000E+00
 -1      3809 1.33101E+02 2.90251E+01 0.00000E+00
 -1      3810 1.67434E+01 1.43837E+01 0.00000E+00
 -1      3811 1.35727E+02 3.01718E+01 0.00000E+00
 -1      3812 1.32648E+02 3.17550E+01 0.00000E+00
 -1      3813 9.89293E+01 1.58934E+01 0.00000E+00
 -1      3814 1.34419E+02 3.07444E+01 0.00000E+00
 -1      3815 1.33905E+02 1.36284E+01 0.00000E+00
 -1      3816 2.72850E+01 1.30992E+01 0.00000E+00
 -1      3817 2.57850E+01 1.30992E+01 0.00000E+00
 -1      3818 2.50350E+01 1.43982E+01 0.00000E+00
 -1      3819 1.42890E+01 2.57094E+01 0.00000E+00
 -1      3820 1.42890E+01 2.71812E+01 0.00000E+00
 -1      3821 1.55880E+01 2.49719E+01 0.00000E+00
 -1      3822 2.19000E+01 3.31130E+01 0.00000E+00
 -1      3823 2.34000E+01 3.31130E+01 0.00000E+00
 -1      3824 2.11500E+01 3.18140E+01 0.00000E+00
 -1      3825 5.87850E+01 1.56973E+01 0.00000E+00
 -1      3826 5.72850E+01 1.56973E+01 0.00000E+00
 -1      3827 5.95350E+01 1.69963E+01 0.00000E+00
 -1      3828 1.32673E+02 3.04792E+01 0.00000E+00
 -1      3829 2.49000E+01 3.31130E+01 0.00000E+00
 -1      3830 2.64000E+01 3.31130E+01 0.00000E+00
 -1      3831 2.71500E+01 3.18140E+01 0.00000E+00
 -1      3832 2.41500E+01 3.18140E+01 0.00000E+00
 -1      3833 1.42890E+01 2.86500E+01 0.00000E+00
 -1      3834 1.42890E+01 3.01187E+01 0.00000E+00
 -1      3835 1.55880E+01 2.79125E+01 0.00000E+00
 -1      3836 1.67434E+01 1.58572E+01 0.00000E+00
 -1      3837 1.67434E+01 1.73306E+01 0.00000E+00
 -1      3838 1.78988E+01 1.55721E+01 0.00000E+00
 -1      3839 2.27850E+01 1.56973E+01 0.00000E+00
 -1      3840 2.12850E+01 1.56973E+01 0.00000E+00
 -1      3841 9.92683E+01 3.17782E+01 0.00000E+00
 -1      3842 1.00018E+02 3.30772E+01 0.00000E+00
 -1      3843 1.01518E+02 3.30772E+01 0.00000E+00
 -1      3844 1.00065E+02 2.65537E+01 0.00000E+00
 -1      3845 5.65350E+01 1.69963E+01 0.00000E+00
 -1      3846 1.70387E+01 3.17583E+01 0.00000E+00
 -1      3847 3.17850E+01 1.56973E+01 0.00000E+00
 -1      3848 3.02850E+01 1.56973E+01 0.00000E+00
 -1      3849 4.07850E+01 1.56973E+01 0.00000E+00
 -1      3850 3.92850E+01 1.56973E+01 0.00000E+00
 -1      3851 4.15350E+01 1.69963E+01 0.00000E+00
 -1      3852 5.05350E+01 1.69963E+01 0.00000E+00
 -1      3853 4.97850E+01 1.56973E+01 0.00000E+00
 -1      3854 4.82850E+01 1.56973E+01 0.00000E+00
 -1      3855 9.77850E+01 1.56973E+01 0.00000E+00
 -1      3856 9.62850E+01 1.56973E+01 0.00000E+00
 -1      3857 1.92169E+01 1.57219E+01 0.00000E+00
 -1      3858 9.87987E+01 2.40392E+01 0.00000E+00
 -1      3859 9.92604E+01 2.30081E+01 0.00000E+00
 -1      3860 9.82954E+01 2.21022E+01 0.00000E+00
 -1      3861 4.52850E+01 1.56973E+01 0.00000E+00
 -1      3862 4.45350E+01 1.69963E+01 0.00000E+00
 -1      3863 4.67850E+01 1.56973E+01 0.00000E+00
 -1      3864 1.02289E+02 3.36339E+01 0.00000E+00
 -1      3865 1.99669E+01 1.70209E+01 0.00000E+00
 -1      3866 3.32850E+01 1.56973E+01 0.00000E+00
 -1      3867 3.25350E+01 1.69963E+01 0.00000E+00
 -1      3868 3.47850E+01 1.56973E+01 0.00000E+00
 -1      3869 9.81793E+01 1.71924E+01 0.00000E+00
 -1      3870 1.33349E+02 2.61194E+01 0.00000E+00
 -1      3871 2.80350E+01 1.43982E+01 0.00000E+00
 -1      3872 1.68870E+01 2.42359E+01 0.00000E+00
 -1      3873 1.68870E+01 2.57078E+01 0.00000E+00
 -1      3874 9.99473E+01 3.08653E+01 0.00000E+00
 -1      3875 1.00463E+02 2.96383E+01 0.00000E+00
 -1      3876 9.96870E+01 2.90752E+01 0.00000E+00
 -1      3877 9.83290E+01 3.09011E+01 0.00000E+00
 -1      3878 9.84928E+01 1.90994E+01 0.00000E+00
 -1      3879 9.83360E+01 1.81459E+01 0.00000E+00
 -1      3880 9.71917E+01 1.79497E+01 0.00000E+00
 -1      3881 9.55350E+01 1.69963E+01 0.00000E+00
 -1      3882 1.68870E+01 2.12984E+01 0.00000E+00
 -1      3883 1.68870E+01 2.27672E+01 0.00000E+00
 -1      3884 1.81860E+01 2.35031E+01 0.00000E+00
 -1      3885 1.50077E+01 3.05419E+01 0.00000E+00
 -1      3886 9.80528E+01 1.99872E+01 0.00000E+00
 -1      3887 2.42850E+01 1.56973E+01 0.00000E+00
 -1      3888 2.35350E+01 1.69963E+01 0.00000E+00
 -1      3889 2.57850E+01 1.56973E+01 0.00000E+00
 -1      3890 1.68870E+01 2.71766E+01 0.00000E+00
 -1      3891 1.68870E+01 2.86453E+01 0.00000E+00
 -1      3892 1.81860E+01 2.64406E+01 0.00000E+00
 -1      3893 9.89386E+01 2.75970E+01 0.00000E+00
 -1      3894 9.86374E+01 2.59884E+01 0.00000E+00
 -1      3895 3.24000E+01 3.05150E+01 0.00000E+00
 -1      3896 3.39000E+01 3.05150E+01 0.00000E+00
 -1      3897 3.54000E+01 3.05150E+01 0.00000E+00
 -1      3898 3.69000E+01 3.05150E+01 0.00000E+00
 -1      3899 3.46500E+01 2.92160E+01 0.00000E+00
 -1      3900 3.84000E+01 3.05150E+01 0.00000E+00
 -1      3901 3.99000E+01 3.05150E+01 0.00000E+00
 -1      3902 3.76500E+01 2.92160E+01 0.00000E+00
 -1      3903 4.14000E+01 3.05150E+01 0.00000E+00
 -1      3904 4.29000E+01 3.05150E+01 0.00000E+00
 -1      3905 4.06500E+01 2.92160E+01 0.00000E+00
 -1      3906 4.44000E+01 3.05150E+01 0.00000E+00
 -1      3907 4.59000E+01 3.05150E+01 0.00000E+00
 -1      3908 4.36500E+01 2.92160E+01 0.00000E+00
 -1      3909 4.74000E+01 3.05150E+01 0.00000E+00
 -1      3910 4.89000E+01 3.05150E+01 0.00000E+00
 -1      3911 4.66500E+01 2.92160E+01 0.00000E+00
 -1      3912 5.04000E+01 3.05150E+01 0.00000E+00
 -1      3913 5.19000E+01 3.05150E+01 0.00000E+00
 -1      3914 4.96500E+01 2.92160E+01 0.00000E+00
 -1      3915 5.34000E+01 3.05150E+01 0.00000E+00
 -1      3916 5.49000E+01 3.05150E+01 0.00000E+00
 -1      3917 5.26500E+01 2.92160E+01 0.00000E+00
 -1      3918 5.64000E+01 3.05150E+01 0.00000E+00
 -1      3919 5.79000E+01 3.05150E+01 0.00000E+00
 -1      3920 5.56500E+01 2.92160E+01 0.00000E+00
 -1      3921 5.94000E+01 3.05150E+01 0.00000E+00
 -1      3922 6.09000E+01 3.05150E+01 0.00000E+00
 -1      3923 5.86500E+01 2.92160E+01 0.00000E+00
 -1      3924 6.24000E+01 3.05150E+01 0.00000E+00
 -1      3925 6.39000E+01 3.05150E+01 0.00000E+00
 -1      3926 6.16500E+01 2.92160E+01 0.00000E+00
 -1      3927 6.54000E+01 3.05150E+01 0.00000E+00
 -1      3928 6.69000E+01 3.05150E+01 0.00000E+00
 -1      3929 6.46500E+01 2.92160E+01 0.00000E+00
 -1      3930 6.84000E+01 3.05150E+01 0.00000E+00
 -1      3931 6.99000E+01 3.05150E+01 0.00000E+00
 -1      3932 6.76500E+01 2.92160E+01 0.00000E+00
 -1      3933 7.14000E+01 3.05150E+01 0.00000E+00
 -1      3934 7.29000E+01 3.05150E+01 0.00000E+00
 -1      3935 7.06500E+01 2.92160E+01 0.00000E+00
 -1      3936 7.44000E+01 3.05150E+01 0.00000E+00
 -1      3937 7.59000E+01 3.05150E+01 0.00000E+00
 -1      3938 7.36500E+01 2.92160E+01 0.00000E+00
 -1      3939 7.74000E+01 3.05150E+01 0.00000E+00
 -1      3940 7.89000E+01 3.05150E+01 0.00000E+00
 -1      3941 7.66500E+01 2.92160E+01 0.00000E+00
 -1      3942 8.04000E+01 3.05150E+01 0.00000E+00
 -1      3943 8.19000E+01 3.05150E+01 0.00000E+00
 -1      3944 7.96500E+01 2.92160E+01 0.00000E+00
 -1      3945 8.34000E+01 3.05150E+01 0.00000E+00
 -1      3946 8.49000E+01 3.05150E+01 0.00000E+00
 -1      3947 8.26500E+01 2.92160E+01 0.00000E+00
 -1      3948 8.64000E+01 3.05150E+01 0.00000E+00
 -1      3949 8.79000E+01 3.05150E+01 0.00000E+00
 -1      3950 8.56500E+01 2.92160E+01 0.00000E+00
 -1      3951 8.94000E+01 3.05150E+01 0.00000E+00
 -1      3952 9.09000E+01 3.05150E+01 0.00000E+00
 -1      3953 8.86500E+01 2.92160E+01 0.00000E+00
 -1      3954 9.24000E+01 3.05150E+01 0.00000E+00
 -1      3955 9.39000E+01 3.05150E+01 0.00000E+00
 -1      3956 9.16500E+01 2.92160E+01 0.00000E+00
 -1      3957 9.53645E+01 3.07080E+01 0.00000E+00
 -1      3958 9.68645E+01 3.07080E+01 0.00000E+00
 -1      3959 9.75435E+01 2.97951E+01 0.00000E+00
 -1      3960 9.46145E+01 2.94090E+01 0.00000E+00
 -1      3961 6.92850E+01 1.82952E+01 0.00000E+00
 -1      3962 6.77850E+01 1.82952E+01 0.00000E+00
 -1      3963 5.42850E+01 1.82952E+01 0.00000E+00
 -1      3964 5.27850E+01 1.82952E+01 0.00000E+00
 -1      3965 9.58485E+01 1.89032E+01 0.00000E+00
 -1      3966 9.56917E+01 1.79497E+01 0.00000E+00
 -1      3967 9.41917E+01 1.79497E+01 0.00000E+00
 -1      3968 6.62850E+01 1.82952E+01 0.00000E+00
 -1      3969 6.47850E+01 1.82952E+01 0.00000E+00
 -1      3970 6.70350E+01 1.95942E+01 0.00000E+00
 -1      3971 6.32850E+01 1.82952E+01 0.00000E+00
 -1      3972 6.17850E+01 1.82952E+01 0.00000E+00
 -1      3973 6.40350E+01 1.95942E+01 0.00000E+00
 -1      3974 7.22850E+01 1.82952E+01 0.00000E+00
 -1      3975 7.07850E+01 1.82952E+01 0.00000E+00
 -1      3976 7.00350E+01 1.95942E+01 0.00000E+00
 -1      3977 7.52850E+01 1.82952E+01 0.00000E+00
 -1      3978 7.37850E+01 1.82952E+01 0.00000E+00
 -1      3979 7.30350E+01 1.95942E+01 0.00000E+00
 -1      3980 7.82850E+01 1.82952E+01 0.00000E+00
 -1      3981 7.67850E+01 1.82952E+01 0.00000E+00
 -1      3982 7.60350E+01 1.95942E+01 0.00000E+00
 -1      3983 8.12850E+01 1.82952E+01 0.00000E+00
 -1      3984 7.97850E+01 1.82952E+01 0.00000E+00
 -1      3985 7.90350E+01 1.95942E+01 0.00000E+00
 -1      3986 8.42850E+01 1.82952E+01 0.00000E+00
 -1      3987 8.27850E+01 1.82952E+01 0.00000E+00
 -1      3988 8.20350E+01 1.95942E+01 0.00000E+00
 -1      3989 8.72850E+01 1.82952E+01 0.00000E+00
 -1      3990 8.57850E+01 1.82952E+01 0.00000E+00
 -1      3991 8.50350E+01 1.95942E+01 0.00000E+00
 -1      3992 9.02850E+01 1.82952E+01 0.00000E+00
 -1      3993 8.87850E+01 1.82952E+01 0.00000E+00
 -1      3994 8.80350E+01 1.95942E+01 0.00000E+00
 -1      3995 9.29884E+01 1.81225E+01 0.00000E+00
 -1      3996 9.14884E+01 1.81225E+01 0.00000E+00
 -1      3997 9.07384E+01 1.94215E+01 0.00000E+00
 -1      3998 9.31451E+01 1.90760E+01 0.00000E+00
 -1      3999 2.95350E+01 1.69963E+01 0.00000E+00
 -1      4000 2.87850E+01 1.56973E+01 0.00000E+00
 -1      4001 2.72850E+01 1.56973E+01 0.00000E+00
 -1      4002 5.72850E+01 1.82952E+01 0.00000E+00
 -1      4003 5.57850E+01 1.82952E+01 0.00000E+00
 -1      4004 5.50350E+01 1.95942E+01 0.00000E+00
 -1      4005 3.77850E+01 1.56973E+01 0.00000E+00
 -1      4006 3.62850E+01 1.56973E+01 0.00000E+00
 -1      4007 3.55350E+01 1.69963E+01 0.00000E+00
 -1      4008 3.85350E+01 1.69963E+01 0.00000E+00
 -1      4009 1.68152E+01 1.85778E+01 0.00000E+00
 -1      4010 1.68152E+01 2.00512E+01 0.00000E+00
 -1      4011 1.81142E+01 2.07872E+01 0.00000E+00
 -1      4012 1.79706E+01 1.82928E+01 0.00000E+00
 -1      4013 2.00387E+01 1.82681E+01 0.00000E+00
 -1      4014 6.02850E+01 1.82952E+01 0.00000E+00
 -1      4015 5.87850E+01 1.82952E+01 0.00000E+00
 -1      4016 5.80350E+01 1.95942E+01 0.00000E+00
 -1      4017 2.94000E+01 3.05150E+01 0.00000E+00
 -1      4018 3.09000E+01 3.05150E+01 0.00000E+00
 -1      4019 3.16500E+01 2.92160E+01 0.00000E+00
 -1      4020 2.04000E+01 3.05150E+01 0.00000E+00
 -1      4021 2.19000E+01 3.05150E+01 0.00000E+00
 -1      4022 9.72571E+01 2.10712E+01 0.00000E+00
 -1      4023 9.65528E+01 1.99872E+01 0.00000E+00
 -1      4024 9.50528E+01 1.99872E+01 0.00000E+00
 -1      4025 1.94850E+01 2.57062E+01 0.00000E+00
 -1      4026 1.94850E+01 2.71750E+01 0.00000E+00
 -1      4027 9.82596E+01 2.85099E+01 0.00000E+00
 -1      4028 2.65350E+01 1.69963E+01 0.00000E+00
 -1      4029 6.10350E+01 1.95942E+01 0.00000E+00
 -1      4030 5.20350E+01 1.95942E+01 0.00000E+00
 -1      4031 5.12850E+01 1.82952E+01 0.00000E+00
 -1      4032 4.97850E+01 1.82952E+01 0.00000E+00
 -1      4033 4.22850E+01 1.82952E+01 0.00000E+00
 -1      4034 4.07850E+01 1.82952E+01 0.00000E+00
 -1      4035 3.02850E+01 1.82952E+01 0.00000E+00
 -1      4036 2.87850E+01 1.82952E+01 0.00000E+00
 -1      4037 1.94850E+01 2.27687E+01 0.00000E+00
 -1      4038 1.94850E+01 2.42375E+01 0.00000E+00
 -1      4039 2.07840E+01 2.49719E+01 0.00000E+00
 -1      4040 9.76724E+01 2.50825E+01 0.00000E+00
 -1      4041 4.75350E+01 1.69963E+01 0.00000E+00
 -1      4042 1.76190E+01 3.05976E+01 0.00000E+00
 -1      4043 2.17348E+01 1.87277E+01 0.00000E+00
 -1      4044 1.97385E+01 1.99996E+01 0.00000E+00
 -1      4045 2.47348E+01 1.87277E+01 0.00000E+00
 -1      4046 2.32348E+01 1.87277E+01 0.00000E+00
 -1      4047 2.29346E+01 2.04592E+01 0.00000E+00
 -1      4048 4.52850E+01 1.82952E+01 0.00000E+00
 -1      4049 4.37850E+01 1.82952E+01 0.00000E+00
 -1      4050 4.30350E+01 1.95942E+01 0.00000E+00
 -1      4051 9.67954E+01 2.21022E+01 0.00000E+00
 -1      4052 3.32850E+01 1.82952E+01 0.00000E+00
 -1      4053 3.17850E+01 1.82952E+01 0.00000E+00
 -1      4054 3.10350E+01 1.95942E+01 0.00000E+00
 -1      4055 2.79000E+01 3.05150E+01 0.00000E+00
 -1      4056 2.86500E+01 2.92160E+01 0.00000E+00
 -1      4057 2.64000E+01 3.05150E+01 0.00000E+00
 -1      4058 2.34000E+01 3.05150E+01 0.00000E+00
 -1      4059 2.49000E+01 3.05150E+01 0.00000E+00
 -1      4060 2.26500E+01 2.92160E+01 0.00000E+00
 -1      4061 1.89180E+01 2.98617E+01 0.00000E+00
 -1      4062 9.67951E+01 2.83169E+01 0.00000E+00
 -1      4063 5.87850E+01 2.08932E+01 0.00000E+00
 -1      4064 5.72850E+01 2.08932E+01 0.00000E+00
 -1      4065 3.69000E+01 2.79170E+01 0.00000E+00
 -1      4066 3.84000E+01 2.79170E+01 0.00000E+00
 -1      4067 3.99000E+01 2.79170E+01 0.00000E+00
 -1      4068 4.14000E+01 2.79170E+01 0.00000E+00
 -1      4069 3.91500E+01 2.66180E+01 0.00000E+00
 -1      4070 4.29000E+01 2.79170E+01 0.00000E+00
 -1      4071 4.44000E+01 2.79170E+01 0.00000E+00
 -1      4072 4.21500E+01 2.66180E+01 0.00000E+00
 -1      4073 4.59000E+01 2.79170E+01 0.00000E+00
 -1      4074 4.74000E+01 2.79170E+01 0.00000E+00
 -1      4075 4.51500E+01 2.66180E+01 0.00000E+00
 -1      4076 4.89000E+01 2.79170E+01 0.00000E+00
 -1      4077 5.04000E+01 2.79170E+01 0.00000E+00
 -1      4078 4.81500E+01 2.66180E+01 0.00000E+00
 -1      4079 5.19000E+01 2.79170E+01 0.00000E+00
 -1      4080 5.34000E+01 2.79170E+01 0.00000E+00
 -1      4081 5.11500E+01 2.66180E+01 0.00000E+00
 -1      4082 5.49000E+01 2.79170E+01 0.00000E+00
 -1      4083 5.64000E+01 2.79170E+01 0.00000E+00
 -1      4084 5.41500E+01 2.66180E+01 0.00000E+00
 -1      4085 5.79000E+01 2.79170E+01 0.00000E+00
 -1      4086 5.94000E+01 2.79170E+01 0.00000E+00
 -1      4087 5.71500E+01 2.66180E+01 0.00000E+00
 -1      4088 6.09000E+01 2.79170E+01 0.00000E+00
 -1      4089 6.24000E+01 2.79170E+01 0.00000E+00
 -1      4090 6.01500E+01 2.66180E+01 0.00000E+00
 -1      4091 6.39000E+01 2.79170E+01 0.00000E+00
 -1      4092 6.54000E+01 2.79170E+01 0.00000E+00
 -1      4093 6.31500E+01 2.66180E+01 0.00000E+00
 -1      4094 6.69000E+01 2.79170E+01 0.00000E+00
 -1      4095 6.84000E+01 2.79170E+01 0.00000E+00
 -1      4096 6.61500E+01 2.66180E+01 0.00000E+00
 -1      4097 6.99000E+01 2.79170E+01 0.00000E+00
 -1      4098 7.14000E+01 2.79170E+01 0.00000E+00
 -1      4099 6.91500E+01 2.66180E+01 0.00000E+00
 -1      4100 7.29000E+01 2.79170E+01 0.00000E+00
 -1      4101 7.44000E+01 2.79170E+01 0.00000E+00
 -1      4102 7.21500E+01 2.66180E+01 0.00000E+00
 -1      4103 7.59000E+01 2.79170E+01 0.00000E+00
 -1      4104 7.74000E+01 2.79170E+01 0.00000E+00
 -1      4105 7.51500E+01 2.66180E+01 0.00000E+00
 -1      4106 7.89000E+01 2.79170E+01 0.00000E+00
 -1      4107 8.04000E+01 2.79170E+01 0.00000E+00
 -1      4108 7.81500E+01 2.66180E+01 0.00000E+00
 -1      4109 8.19000E+01 2.79170E+01 0.00000E+00
 -1      4110 8.34000E+01 2.79170E+01 0.00000E+00
 -1      4111 8.11500E+01 2.66180E+01 0.00000E+00
 -1      4112 8.49000E+01 2.79170E+01 0.00000E+00
 -1      4113 8.64000E+01 2.79170E+01 0.00000E+00
 -1      4114 8.41500E+01 2.66180E+01 0.00000E+00
 -1      4115 8.79000E+01 2.79170E+01 0.00000E+00
 -1      4116 8.94000E+01 2.79170E+01 0.00000E+00
 -1      4117 8.71500E+01 2.66180E+01 0.00000E+00
 -1      4118 9.09000E+01 2.79170E+01 0.00000E+00
 -1      4119 9.24000E+01 2.79170E+01 0.00000E+00
 -1      4120 9.01500E+01 2.66180E+01 0.00000E+00
 -1      4121 6.17850E+01 2.08932E+01 0.00000E+00
 -1      4122 6.02850E+01 2.08932E+01 0.00000E+00
 -1      4123 5.95350E+01 2.21922E+01 0.00000E+00
 -1      4124 6.77850E+01 2.08932E+01 0.00000E+00
 -1      4125 6.62850E+01 2.08932E+01 0.00000E+00
 -1      4126 1.98103E+01 2.12468E+01 0.00000E+00
 -1      4127 6.47850E+01 2.08932E+01 0.00000E+00
 -1      4128 6.32850E+01 2.08932E+01 0.00000E+00
 -1      4129 6.55350E+01 2.21922E+01 0.00000E+00
 -1      4130 7.67850E+01 2.08932E+01 0.00000E+00
 -1      4131 7.52850E+01 2.08932E+01 0.00000E+00
 -1      4132 7.97850E+01 2.08932E+01 0.00000E+00
 -1      4133 7.82850E+01 2.08932E+01 0.00000E+00
 -1      4134 7.75350E+01 2.21922E+01 0.00000E+00
 -1      4135 8.27850E+01 2.08932E+01 0.00000E+00
 -1      4136 8.12850E+01 2.08932E+01 0.00000E+00
 -1      4137 8.05350E+01 2.21922E+01 0.00000E+00
 -1      4138 8.57850E+01 2.08932E+01 0.00000E+00
 -1      4139 8.42850E+01 2.08932E+01 0.00000E+00
 -1      4140 8.35350E+01 2.21922E+01 0.00000E+00
 -1      4141 8.87850E+01 2.08932E+01 0.00000E+00
 -1      4142 8.72850E+01 2.08932E+01 0.00000E+00
 -1      4143 8.65350E+01 2.21922E+01 0.00000E+00
 -1      4144 3.09000E+01 2.79170E+01 0.00000E+00
 -1      4145 3.24000E+01 2.79170E+01 0.00000E+00
 -1      4146 7.37850E+01 2.08932E+01 0.00000E+00
 -1      4147 7.22850E+01 2.08932E+01 0.00000E+00
 -1      4148 7.45350E+01 2.21922E+01 0.00000E+00
 -1      4149 4.82850E+01 1.82952E+01 0.00000E+00
 -1      4150 4.67850E+01 1.82952E+01 0.00000E+00
 -1      4151 4.60350E+01 1.95942E+01 0.00000E+00
 -1      4152 4.90350E+01 1.95942E+01 0.00000E+00
 -1      4153 7.07850E+01 2.08932E+01 0.00000E+00
 -1      4154 6.92850E+01 2.08932E+01 0.00000E+00
 -1      4155 6.85350E+01 2.21922E+01 0.00000E+00
 -1      4156 2.75099E+01 1.85115E+01 0.00000E+00
 -1      4157 2.60099E+01 1.85115E+01 0.00000E+00
 -1      4158 2.57097E+01 2.02430E+01 0.00000E+00
 -1      4159 2.82599E+01 1.98105E+01 0.00000E+00
 -1      4160 2.09670E+01 2.78283E+01 0.00000E+00
 -1      4161 1.96680E+01 2.85627E+01 0.00000E+00
 -1      4162 5.57850E+01 2.08932E+01 0.00000E+00
 -1      4163 5.42850E+01 2.08932E+01 0.00000E+00
 -1      4164 5.65350E+01 2.21922E+01 0.00000E+00
 -1      4165 4.00350E+01 1.95942E+01 0.00000E+00
 -1      4166 3.92850E+01 1.82952E+01 0.00000E+00
 -1      4167 3.77850E+01 1.82952E+01 0.00000E+00
 -1      4168 3.39000E+01 2.79170E+01 0.00000E+00
 -1      4169 3.54000E+01 2.79170E+01 0.00000E+00
 -1      4170 3.31500E+01 2.66180E+01 0.00000E+00
 -1      4171 9.63992E+01 2.35395E+01 0.00000E+00
 -1      4172 9.53609E+01 2.25084E+01 0.00000E+00
 -1      4173 9.45537E+01 2.12439E+01 0.00000E+00
 -1      4174 9.38494E+01 2.01600E+01 0.00000E+00
 -1      4175 9.26460E+01 2.03327E+01 0.00000E+00
 -1      4176 9.62380E+01 2.54887E+01 0.00000E+00
 -1      4177 2.11093E+01 2.19812E+01 0.00000E+00
 -1      4178 2.22840E+01 2.64406E+01 0.00000E+00
 -1      4179 2.24670E+01 2.78283E+01 0.00000E+00
 -1      4180 2.39670E+01 2.78283E+01 0.00000E+00
 -1      4181 5.27850E+01 2.08932E+01 0.00000E+00
 -1      4182 5.12850E+01 2.08932E+01 0.00000E+00
 -1      4183 5.35350E+01 2.21922E+01 0.00000E+00
 -1      4184 9.31500E+01 2.66180E+01 0.00000E+00
 -1      4185 9.39000E+01 2.79170E+01 0.00000E+00
 -1      4186 6.25350E+01 2.21922E+01 0.00000E+00
 -1      4187 9.53644E+01 2.81100E+01 0.00000E+00
 -1      4188 2.79000E+01 2.79170E+01 0.00000E+00
 -1      4189 2.94000E+01 2.79170E+01 0.00000E+00
 -1      4190 3.01500E+01 2.66180E+01 0.00000E+00
 -1      4191 2.22840E+01 2.49719E+01 0.00000E+00
 -1      4192 8.99884E+01 2.07205E+01 0.00000E+00
 -1      4193 8.92384E+01 2.20195E+01 0.00000E+00
 -1      4194 9.11917E+01 2.05477E+01 0.00000E+00
 -1      4195 7.15350E+01 2.21922E+01 0.00000E+00
 -1      4196 9.60806E+01 2.68248E+01 0.00000E+00
 -1      4197 3.61500E+01 2.66180E+01 0.00000E+00
 -1      4198 3.62850E+01 1.82952E+01 0.00000E+00
 -1      4199 3.47850E+01 1.82952E+01 0.00000E+00
 -1      4200 3.70350E+01 1.95942E+01 0.00000E+00
 -1      4201 4.37850E+01 2.08932E+01 0.00000E+00
 -1      4202 4.22850E+01 2.08932E+01 0.00000E+00
 -1      4203 2.91146E+01 2.09831E+01 0.00000E+00
 -1      4204 2.78396E+01 2.11993E+01 0.00000E+00
 -1      4205 9.48073E+01 2.52818E+01 0.00000E+00
 -1      4206 3.40350E+01 1.95942E+01 0.00000E+00
 -1      4207 4.07850E+01 2.08932E+01 0.00000E+00
 -1      4208 3.92850E+01 2.08932E+01 0.00000E+00
 -1      4209 4.15350E+01 2.21922E+01 0.00000E+00
 -1      4210 2.56500E+01 2.92160E+01 0.00000E+00
 -1      4211 9.41575E+01 2.26812E+01 0.00000E+00
 -1      4212 3.21146E+01 2.09831E+01 0.00000E+00
 -1      4213 3.06146E+01 2.09831E+01 0.00000E+00
 -1      4214 3.01943E+01 2.23719E+01 0.00000E+00
 -1      4215 9.33074E+01 2.52819E+01 0.00000E+00
 -1      4216 6.28425E+01 2.44051E+01 0.00000E+00
 -1      4217 6.13425E+01 2.44051E+01 0.00000E+00
 -1      4218 2.51835E+01 2.78727E+01 0.00000E+00
 -1      4219 2.66835E+01 2.78727E+01 0.00000E+00
 -1      4220 2.74335E+01 2.65737E+01 0.00000E+00
 -1      4221 2.50005E+01 2.64850E+01 0.00000E+00
 -1      4222 5.98425E+01 2.44051E+01 0.00000E+00
 -1      4223 5.83425E+01 2.44051E+01 0.00000E+00
 -1      4224 4.18425E+01 2.44051E+01 0.00000E+00
 -1      4225 4.33425E+01 2.44051E+01 0.00000E+00
 -1      4226 4.74000E+01 2.53190E+01 0.00000E+00
 -1      4227 4.89000E+01 2.53190E+01 0.00000E+00
 -1      4228 5.08425E+01 2.44051E+01 0.00000E+00
 -1      4229 5.23425E+01 2.44051E+01 0.00000E+00
 -1      4230 5.38425E+01 2.44051E+01 0.00000E+00
 -1      4231 5.53425E+01 2.44051E+01 0.00000E+00
 -1      4232 5.68425E+01 2.44051E+01 0.00000E+00
 -1      4233 6.43425E+01 2.44051E+01 0.00000E+00
 -1      4234 6.58425E+01 2.44051E+01 0.00000E+00
 -1      4235 6.73425E+01 2.44051E+01 0.00000E+00
 -1      4236 6.88425E+01 2.44051E+01 0.00000E+00
 -1      4237 7.03425E+01 2.44051E+01 0.00000E+00
 -1      4238 7.18425E+01 2.44051E+01 0.00000E+00
 -1      4239 7.33425E+01 2.44051E+01 0.00000E+00
 -1      4240 7.48425E+01 2.44051E+01 0.00000E+00
 -1      4241 7.63425E+01 2.44051E+01 0.00000E+00
 -1      4242 7.78425E+01 2.44051E+01 0.00000E+00
 -1      4243 7.93425E+01 2.44051E+01 0.00000E+00
 -1      4244 8.08425E+01 2.44051E+01 0.00000E+00
 -1      4245 8.23425E+01 2.44051E+01 0.00000E+00
 -1      4246 8.38425E+01 2.44051E+01 0.00000E+00
 -1      4247 8.53425E+01 2.44051E+01 0.00000E+00
 -1      4248 8.68425E+01 2.44051E+01 0.00000E+00
 -1      4249 8.83425E+01 2.44051E+01 0.00000E+00
 -1      4250 8.95459E+01 2.42324E+01 0.00000E+00
 -1      4251 9.10459E+01 2.42324E+01 0.00000E+00
 -1      4252 2.65645E+01 2.14156E+01 0.00000E+00
 -1      4253 2.52894E+01 2.16318E+01 0.00000E+00
 -1      4254 2.74192E+01 2.25882E+01 0.00000E+00
 -1      4255 2.25423E+01 2.14917E+01 0.00000E+00
 -1      4256 2.22170E+01 2.30137E+01 0.00000E+00
 -1      4257 2.37170E+01 2.44824E+01 0.00000E+00
 -1      4258 3.51146E+01 2.09831E+01 0.00000E+00
 -1      4259 3.36146E+01 2.09831E+01 0.00000E+00
 -1      4260 3.31943E+01 2.23719E+01 0.00000E+00
 -1      4261 3.79498E+01 2.09382E+01 0.00000E+00
 -1      4262 3.64498E+01 2.09382E+01 0.00000E+00
 -1      4263 3.60295E+01 2.23270E+01 0.00000E+00
 -1      4264 3.86998E+01 2.22372E+01 0.00000E+00
 -1      4265 4.52850E+01 2.08932E+01 0.00000E+00
 -1      4266 4.45350E+01 2.21922E+01 0.00000E+00
 -1      4267 4.67850E+01 2.08932E+01 0.00000E+00
 -1      4268 2.40423E+01 2.14917E+01 0.00000E+00
 -1      4269 3.16721E+01 2.44950E+01 0.00000E+00
 -1      4270 3.31721E+01 2.44950E+01 0.00000E+00
 -1      4271 3.60073E+01 2.44500E+01 0.00000E+00
 -1      4272 3.75073E+01 2.44500E+01 0.00000E+00
 -1      4273 3.88425E+01 2.44051E+01 0.00000E+00
 -1      4274 4.03425E+01 2.44051E+01 0.00000E+00
 -1      4275 9.18960E+01 2.16317E+01 0.00000E+00
 -1      4276 2.48970E+01 2.26643E+01 0.00000E+00
 -1      4277 4.48425E+01 2.44051E+01 0.00000E+00
 -1      4278 5.00925E+01 2.31061E+01 0.00000E+00
 -1      4279 4.63425E+01 2.44051E+01 0.00000E+00
 -1      4280 3.01611E+01 2.55565E+01 0.00000E+00
 -1      4281 3.01832E+01 2.34334E+01 0.00000E+00
 -1      4282 2.86832E+01 2.34334E+01 0.00000E+00
 -1      4283 2.86611E+01 2.55565E+01 0.00000E+00
 -1      4284 2.74081E+01 2.36497E+01 0.00000E+00
 -1      4285 2.49641E+01 2.46225E+01 0.00000E+00
 -1      4286 9.27033E+01 2.28962E+01 0.00000E+00
 -1      4287 4.70925E+01 2.31061E+01 0.00000E+00
 -1      4288 4.93425E+01 2.18071E+01 0.00000E+00
 -1      4289 2.61806E+01 2.46669E+01 0.00000E+00
 -1      4290 2.74446E+01 2.55121E+01 0.00000E+00
 -1      4291 4.78425E+01 2.18071E+01 0.00000E+00
 -1      4292 3.46721E+01 2.44950E+01 0.00000E+00
 -3
    3C                          2064                                     1
 -1       165    8    0    1
 -2         6         7        23      1115      1279      1132
 -1       166    8    0    1
 -2         7         8       165      1116      1280      1281
 -1       167    8    0    1
 -2         8         9       166      1117      1282      1283
 -1       168    8    0    1
 -2         8       166       165      1283      1284      1280
 -1       169    8    0    1
 -2         9        10       167      1118      1285      1286
 -1       170    8    0    1
 -2         9       167       166      1286      1287      1282
 -1       171    8    0    1
 -2        10        11       168      1119      1288      1289
 -1       172    8    0    1
 -2        10       168       167      1289      1290      1285
 -1       173    8    0    1
 -2        11        12       169      1120      1291      1292
 -1       174    8    0    1
 -2        11       169       168      1292      1293      1288
 -1       175    8    0    1
 -2        12        13       170      1121      1294      1295
 -1       176    8    0    1
 -2        12       170       169      1295      1296      1291
 -1       177    8    0    1
 -2        13        14       171      1122      1297      1298
 -1       178    8    0    1
 -2        13       171       170      1298      1299      1294
 -1       179    8    0    1
 -2        14        15       172      1123      1300      1301
 -1       180    8    0    1
 -2        14       172       171      1301      1302      1297
 -1       181    8    0    1
 -2        15        16       173      1124      1303      1304
 -1       182    8    0    1
 -2        15       173       172      1304      1305      1300
 -1       183    8    0    1
 -2        16        17       174      1125      1306      1307
 -1       184    8    0    1
 -2        16       174       173      1307      1308      1303
 -1       185    8    0    1
 -2        17        18       175      1126      1309      1310
 -1       186    8    0    1
 -2        17       175       174      1310      1311      1306
 -1       187    8    0    1
 -2        18        19       176      1127      1312      1313
 -1       188    8    0    1
 -2        18       176       175      1313      1314      1309
 -1       189    8    0    1
 -2        19        20       177      1128      1315      1316
 -1       190    8    0    1
 -2        19       177       176      1316      1317      1312
 -1       191    8    0    1
 -2        20        21       178      1129      1318      1319
 -1       192    8    0    1
 -2        20       178       177      1319      1320      1315
 -1       193    8    0    1
 -2        21        22       179      1130      1321      1322
 -1       194    8    0    1
 -2        21       179       178      1322      1323      1318
 -1       195    8    0    1
 -2        22         5       180      1131      1324      1325
 -1       196    8    0    1
 -2       179        22       180      1321      1325      1326
 -1       197    8    0    1
 -2         5        72       180      1182      1327      1324
 -1       198    8    0    1
 -2        24        23       181      1133      1328      1329
 -1       199    8    0    1
 -2        25        24       182      1134      1330      1331
 -1       200    8    0    1
 -2        24       181       182      1329      1332      1330
 -1       201    8    0    1
 -2        26        25       183      1135      1333      1334
 -1       202    8    0    1
 -2        25       182       183      1331      1335      1333
 -1       203    8    0    1
 -2        27        26       184      1136      1336      1337
 -1       204    8    0    1
 -2        26       183       184      1334      1338      1336
 -1       205    8    0    1
 -2        28        27       185      1137      1339      1340
 -1       206    8    0    1
 -2        27       184       185      1337      1341      1339
 -1       207    8    0    1
 -2        29        28       186      1138      1342      1343
 -1       208    8    0    1
 -2        28       185       186      1340      1344      1342
 -1       209    8    0    1
 -2        30        29       187      1139      1345      1346
 -1       210    8    0    1
 -2        29       186       187      1343      1347      1345
 -1       211    8    0    1
 -2        31        30       188      1140      1348      1349
 -1       212    8    0    1
 -2        30       187       188      1346      1350      1348
 -1       213    8    0    1
 -2        32        31       189      1141      1351      1352
 -1       214    8    0    1
 -2        31       188       189      1349      1353      1351
 -1       215    8    0    1
 -2        33        32       190      1142      1354      1355
 -1       216    8    0    1
 -2        32       189       190      1352      1356      1354
 -1       217    8    0    1
 -2        34        33       191      1143      1357      1358
 -1       218    8    0    1
 -2        33       190       191      1355      1359      1357
 -1       219    8    0    1
 -2        35        34       192      1144      1360      1361
 -1       220    8    0    1
 -2        34       191       192      1358      1362      1360
 -1       221    8    0    1
 -2        36        35       193      1145      1363      1364
 -1       222    8    0    1
 -2        35       192       193      1361      1365      1363
 -1       223    8    0    1
 -2        37        36       194      1146      1366      1367
 -1       224    8    0    1
 -2        36       193       194      1364      1368      1366
 -1       225    8    0    1
 -2        38        37       195      1147      1369      1370
 -1       226    8    0    1
 -2        37       194       195      1367      1371      1369
 -1       227    8    0    1
 -2        39        38       196      1148      1372      1373
 -1       228    8    0    1
 -2        38       195       196      1370      1374      1372
 -1       229    8    0    1
 -2        40        39       197      1149      1375      1376
 -1       230    8    0    1
 -2        39       196       197      1373      1377      1375
 -1       231    8    0    1
 -2        41        40       198      1150      1378      1379
 -1       232    8    0    1
 -2        40       197       198      1376      1380      1378
 -1       233    8    0    1
 -2        42        41       199      1151      1381      1382
 -1       234    8    0    1
 -2        41       198       199      1379      1383      1381
 -1       235    8    0    1
 -2        43        42       200      1152      1384      1385
 -1       236    8    0    1
 -2        42       199       200      1382      1386      1384
 -1       237    8    0    1
 -2        44        43       201      1153      1387      1388
 -1       238    8    0    1
 -2        43       200       201      1385      1389      1387
 -1       239    8    0    1
 -2        45        44       202      1154      1390      1391
 -1       240    8    0    1
 -2        44       201       202      1388      1392      1390
 -1       241    8    0    1
 -2        46        45       203      1155      1393      1394
 -1       242    8    0    1
 -2        45       202       203      1391      1395      1393
 -1       243    8    0    1
 -2        47        46       204      1156      1396      1397
 -1       244    8    0    1
 -2        46       203       204      1394      1398      1396
 -1       245    8    0    1
 -2        48        47       205      1157      1399      1400
 -1       246    8    0    1
 -2        47       204       205      1397      1401      1399
 -1       247    8    0    1
 -2        49        48       206      1158      1402      1403
 -1       248    8    0    1
 -2        48       205       206      1400      1404      1402
 -1       249    8    0    1
 -2        50        49       207      1159      1405      1406
 -1       250    8    0    1
 -2        49       206       207      1403      1407      1405
 -1       251    8    0    1
 -2        51        50       208      1160      1408      1409
 -1       252    8    0    1
 -2        50       207       208      1406      1410      1408
 -1       253    8    0    1
 -2        52        51       209      1161      1411      1412
 -1       254    8    0    1
 -2        51       208       209      1409      1413      1411
 -1       255    8    0    1
 -2        53        52       210      1162      1414      1415
 -1       256    8    0    1
 -2        52       209       210      1412      1416      1414
 -1       257    8    0    1
 -2        54        53       211      1163      1417      1418
 -1       258    8    0    1
 -2        53       210       211      1415      1419      1417
 -1       259    8    0    1
 -2        55        54       212      1164      1420      1421
 -1       260    8    0    1
 -2        54       211       212      1418      1422      1420
 -1       261    8    0    1
 -2        56        55       213      1165      1423      1424
 -1       262    8    0    1
 -2        55       212       213      1421      1425      1423
 -1       263    8    0    1
 -2        57        56       214      1166      1426      1427
 -1       264    8    0    1
 -2        56       213       214      1424      1428      1426
 -1       265    8    0    1
 -2        58        57       215      1167      1429      1430
 -1       266    8    0    1
 -2        57       214       215      1427      1431      1429
 -1       267    8    0    1
 -2        59        58       216      1168      1432      1433
 -1       268    8    0    1
 -2        58       215       216      1430      1434      1432
 -1       269    8    0    1
 -2        60        59       217      1169      1435      1436
 -1       270    8    0    1
 -2        59       216       217      1433      1437      1435
 -1       271    8    0    1
 -2        61        60       218      1170      1438      1439
 -1       272    8    0    1
 -2        60       217       218      1436      1440      1438
 -1       273    8    0    1
 -2        62        61       219      1171      1441      1442
 -1       274    8    0    1
 -2        61       218       219      1439      1443      1441
 -1       275    8    0    1
 -2        63        62       220      1172      1444      1445
 -1       276    8    0    1
 -2        62       219       220      1442      1446      1444
 -1       277    8    0    1
 -2        64        63       221      1173      1447      1448
 -1       278    8    0    1
 -2        63       220       221      1445      1449      1447
 -1       279    8    0    1
 -2        65        64       222      1174      1450      1451
 -1       280    8    0    1
 -2        64       221       222      1448      1452      1450
 -1       281    8    0    1
 -2        66        65       223      1175      1453      1454
 -1       282    8    0    1
 -2        65       222       223      1451      1455      1453
 -1       283    8    0    1
 -2        67        66       224      1176      1456      1457
 -1       284    8    0    1
 -2        66       223       224      1454      1458      1456
 -1       285    8    0    1
 -2        68        67       225      1177      1459      1460
 -1       286    8    0    1
 -2        67       224       225      1457      1461      1459
 -1       287    8    0    1
 -2        69        68       226      1178      1462      1463
 -1       288    8    0    1
 -2        68       225       226      1460      1464      1462
 -1       289    8    0    1
 -2        70        69       227      1179      1465      1466
 -1       290    8    0    1
 -2        69       226       227      1463      1467      1465
 -1       291    8    0    1
 -2        71        70       228      1180      1468      1469
 -1       292    8    0    1
 -2        70       227       228      1466      1470      1468
 -1       293    8    0    1
 -2         4        71       136      1181      1471      1248
 -1       294    8    0    1
 -2       136        71       228      1471      1469      1472
 -1       295    8    0    1
 -2        72        73       229      1183      1473      1474
 -1       296    8    0    1
 -2        72       229       180      1474      1475      1327
 -1       297    8    0    1
 -2        73        74       230      1184      1476      1477
 -1       298    8    0    1
 -2        73       230       229      1477      1478      1473
 -1       299    8    0    1
 -2        74        75       231      1185      1479      1480
 -1       300    8    0    1
 -2        74       231       230      1480      1481      1476
 -1       301    8    0    1
 -2        75        76       232      1186      1482      1483
 -1       302    8    0    1
 -2        75       232       231      1483      1484      1479
 -1       303    8    0    1
 -2        76        77       233      1187      1485      1486
 -1       304    8    0    1
 -2        76       233       232      1486      1487      1482
 -1       305    8    0    1
 -2        77        78       234      1188      1488      1489
 -1       306    8    0    1
 -2        77       234       233      1489      1490      1485
 -1       307    8    0    1
 -2        78        79       235      1189      1491      1492
 -1       308    8    0    1
 -2        78       235       234      1492      1493      1488
 -1       309    8    0    1
 -2        79        80       236      1190      1494      1495
 -1       310    8    0    1
 -2        79       236       235      1495      1496      1491
 -1       311    8    0    1
 -2        80        81       237      1191      1497      1498
 -1       312    8    0    1
 -2        80       237       236      1498      1499      1494
 -1       313    8    0    1
 -2        81        82       238      1192      1500      1501
 -1       314    8    0    1
 -2        81       238       237      1501      1502      1497
 -1       315    8    0    1
 -2        82        83       239      1193      1503      1504
 -1       316    8    0    1
 -2        82       239       238      1504      1505      1500
 -1       317    8    0    1
 -2        83        84       240      1194      1506      1507
 -1       318    8    0    1
 -2        83       240       239      1507      1508      1503
 -1       319    8    0    1
 -2        84        85       241      1195      1509      1510
 -1       320    8    0    1
 -2        84       241       240      1510      1511      1506
 -1       321    8    0    1
 -2        85        86       242      1196      1512      1513
 -1       322    8    0    1
 -2        85       242       241      1513      1514      1509
 -1       323    8    0    1
 -2        86        87       243      1197      1515      1516
 -1       324    8    0    1
 -2        86       243       242      1516      1517      1512
 -1       325    8    0    1
 -2        87        88       244      1198      1518      1519
 -1       326    8    0    1
 -2        87       244       243      1519      1520      1515
 -1       327    8    0    1
 -2        88        89       245      1199      1521      1522
 -1       328    8    0    1
 -2        88       245       244      1522      1523      1518
 -1       329    8    0    1
 -2        89        90       246      1200      1524      1525
 -1       330    8    0    1
 -2        89       246       245      1525      1526      1521
 -1       331    8    0    1
 -2        90        91       247      1201      1527      1528
 -1       332    8    0    1
 -2        90       247       246      1528      1529      1524
 -1       333    8    0    1
 -2        91        92       248      1202      1530      1531
 -1       334    8    0    1
 -2        91       248       247      1531      1532      1527
 -1       335    8    0    1
 -2        92        93       249      1203      1533      1534
 -1       336    8    0    1
 -2        92       249       248      1534      1535      1530
 -1       337    8    0    1
 -2        93        94       250      1204      1536      1537
 -1       338    8    0    1
 -2        93       250       249      1537      1538      1533
 -1       339    8    0    1
 -2        94        95       251      1205      1539      1540
 -1       340    8    0    1
 -2        94       251       250      1540      1541      1536
 -1       341    8    0    1
 -2        95        96       252      1206      1542      1543
 -1       342    8    0    1
 -2        95       252       251      1543      1544      1539
 -1       343    8    0    1
 -2        96        97       253      1207      1545      1546
 -1       344    8    0    1
 -2        96       253       252      1546      1547      1542
 -1       345    8    0    1
 -2        97        98       254      1208      1548      1549
 -1       346    8    0    1
 -2        97       254       253      1549      1550      1545
 -1       347    8    0    1
 -2        98        99       255      1209      1551      1552
 -1       348    8    0    1
 -2        98       255       254      1552      1553      1548
 -1       349    8    0    1
 -2        99       100       256      1210      1554      1555
 -1       350    8    0    1
 -2        99       256       255      1555      1556      1551
 -1       351    8    0    1
 -2       100       101       257      1211      1557      1558
 -1       352    8    0    1
 -2       100       257       256      1558      1559      1554
 -1       353    8    0    1
 -2       101       102       258      1212      1560      1561
 -1       354    8    0    1
 -2       101       258       257      1561      1562      1557
 -1       355    8    0    1
 -2       102       103       259      1213      1563      1564
 -1       356    8    0    1
 -2       102       259       258      1564      1565      1560
 -1       357    8    0    1
 -2       103       104       260      1214      1566      1567
 -1       358    8    0    1
 -2       103       260       259      1567      1568      1563
 -1       359    8    0    1
 -2       104       105       261      1215      1569      1570
 -1       360    8    0    1
 -2       104       261       260      1570      1571      1566
 -1       361    8    0    1
 -2       105       106       262      1216      1572      1573
 -1       362    8    0    1
 -2       105       262       261      1573      1574      1569
 -1       363    8    0    1
 -2       106       107       263      1217      1575      1576
 -1       364    8    0    1
 -2       106       263       262      1576      1577      1572
 -1       365    8    0    1
 -2       107       108       264      1218      1578      1579
 -1       366    8    0    1
 -2       107       264       263      1579      1580      1575
 -1       367    8    0    1
 -2       108       109       265      1219      1581      1582
 -1       368    8    0    1
 -2       108       265       264      1582      1583      1578
 -1       369    8    0    1
 -2       109       110       266      1220      1584      1585
 -1       370    8    0    1
 -2       109       266       265      1585      1586      1581
 -1       371    8    0    1
 -2       110       111       267      1221      1587      1588
 -1       372    8    0    1
 -2       110       267       266      1588      1589      1584
 -1       373    8    0    1
 -2       111       112       268      1222      1590      1591
 -1       374    8    0    1
 -2       111       268       267      1591      1592      1587
 -1       375    8    0    1
 -2       112       113       269      1223      1593      1594
 -1       376    8    0    1
 -2       112       269       268      1594      1595      1590
 -1       377    8    0    1
 -2       113       114       270      1224      1596      1597
 -1       378    8    0    1
 -2       113       270       269      1597      1598      1593
 -1       379    8    0    1
 -2       114       115       271      1225      1599      1600
 -1       380    8    0    1
 -2       114       271       270      1600      1601      1596
 -1       381    8    0    1
 -2       115       116       272      1226      1602      1603
 -1       382    8    0    1
 -2       115       272       271      1603      1604      1599
 -1       383    8    0    1
 -2       116       117       273      1227      1605      1606
 -1       384    8    0    1
 -2       116       273       272      1606      1607      1602
 -1       385    8    0    1
 -2       117       118       274      1228      1608      1609
 -1       386    8    0    1
 -2       117       274       273      1609      1610      1605
 -1       387    8    0    1
 -2       118       119       275      1229      1611      1612
 -1       388    8    0    1
 -2       118       275       274      1612      1613      1608
 -1       389    8    0    1
 -2       119       120       276      1230      1614      1615
 -1       390    8    0    1
 -2       119       276       275      1615      1616      1611
 -1       391    8    0    1
 -2       120         3       121      1231      1232      1617
 -1       392    8    0    1
 -2       121       122       277      1233      1618      1619
 -1       393    8    0    1
 -2       122       123       278      1234      1620      1621
 -1       394    8    0    1
 -2       122       278       277      1621      1622      1618
 -1       395    8    0    1
 -2       123       124       279      1235      1623      1624
 -1       396    8    0    1
 -2       123       279       278      1624      1625      1620
 -1       397    8    0    1
 -2       124       125       280      1236      1626      1627
 -1       398    8    0    1
 -2       124       280       279      1627      1628      1623
 -1       399    8    0    1
 -2       125       126       281      1237      1629      1630
 -1       400    8    0    1
 -2       125       281       280      1630      1631      1626
 -1       401    8    0    1
 -2       126       127       282      1238      1632      1633
 -1       402    8    0    1
 -2       126       282       281      1633      1634      1629
 -1       403    8    0    1
 -2       127       128       283      1239      1635      1636
 -1       404    8    0    1
 -2       127       283       282      1636      1637      1632
 -1       405    8    0    1
 -2       128       129       284      1240      1638      1639
 -1       406    8    0    1
 -2       128       284       283      1639      1640      1635
 -1       407    8    0    1
 -2       129       130       285      1241      1641      1642
 -1       408    8    0    1
 -2       129       285       284      1642      1643      1638
 -1       409    8    0    1
 -2       130       131       286      1242      1644      1645
 -1       410    8    0    1
 -2       130       286       285      1645      1646      1641
 -1       411    8    0    1
 -2       131       132       287      1243      1647      1648
 -1       412    8    0    1
 -2       131       287       286      1648      1649      1644
 -1       413    8    0    1
 -2       132       133       288      1244      1650      1651
 -1       414    8    0    1
 -2       132       288       287      1651      1652      1647
 -1       415    8    0    1
 -2       133       134       289      1245      1653      1654
 -1       416    8    0    1
 -2       133       289       288      1654      1655      1650
 -1       417    8    0    1
 -2       134       135       290      1246      1656      1657
 -1       418    8    0    1
 -2       134       290       289      1657      1658      1653
 -1       419    8    0    1
 -2       135       136       291      1247      1659      1660
 -1       420    8    0    1
 -2       290       135       291      1656      1660      1661
 -1       421    8    0    1
 -2       136       228       291      1472      1662      1659
 -1       422    8    0    1
 -2         2       137       292      1249      1663      1664
 -1       423    8    0    1
 -2       137       138       293      1250      1665      1666
 -1       424    8    0    1
 -2       138       139       294      1251      1667      1668
 -1       425    8    0    1
 -2       139       140       295      1252      1669      1670
 -1       426    8    0    1
 -2       140       141       296      1253      1671      1672
 -1       427    8    0    1
 -2       141       142       297      1254      1673      1674
 -1       428    8    0    1
 -2       142       143       298      1255      1675      1676
 -1       429    8    0    1
 -2       143       144       299      1256      1677      1678
 -1       430    8    0    1
 -2       144       145       300      1257      1679      1680
 -1       431    8    0    1
 -2       145       146       301      1258      1681      1682
 -1       432    8    0    1
 -2       146       147       302      1259      1683      1684
 -1       433    8    0    1
 -2       147       148       303      1260      1685      1686
 -1       434    8    0    1
 -2       148       149       304      1261      1687      1688
 -1       435    8    0    1
 -2       149       150       305      1262      1689      1690
 -1       436    8    0    1
 -2       150       151       306      1263      1691      1692
 -1       437    8    0    1
 -2       151       152       307      1264      1693      1694
 -1       438    8    0    1
 -2       152       153       308      1265      1695      1696
 -1       439    8    0    1
 -2       153         1       309      1266      1697      1698
 -1       440    8    0    1
 -2         1       154       310      1267      1699      1700
 -1       441    8    0    1
 -2       154       155       311      1268      1701      1702
 -1       442    8    0    1
 -2       155       156       312      1269      1703      1704
 -1       443    8    0    1
 -2       156       157       313      1270      1705      1706
 -1       444    8    0    1
 -2       157       158       314      1271      1707      1708
 -1       445    8    0    1
 -2       158       159       315      1272      1709      1710
 -1       446    8    0    1
 -2       159       160       316      1273      1711      1712
 -1       447    8    0    1
 -2       160       161       317      1274      1713      1714
 -1       448    8    0    1
 -2       161       162       318      1275      1715      1716
 -1       449    8    0    1
 -2       162       163       319      1276      1717      1718
 -1       450    8    0    1
 -2       163       164       320      1277      1719      1720
 -1       451    8    0    1
 -2       164         2       321      1278      1721      1722
 -1       452    8    0    1
 -2       295       140       296      1669      1672      1723
 -1       453    8    0    1
 -2       294       139       295      1667      1670      1724
 -1       454    8    0    1
 -2       120       121       276      1617      1725      1614
 -1       455    8    0    1
 -2       121       277       276      1619      1726      1725
 -1       456    8    0    1
 -2       292       137       293      1663      1666      1727
 -1       457    8    0    1
 -2       293       138       294      1665      1668      1728
 -1       458    8    0    1
 -2         2       292       321      1664      1729      1721
 -1       459    8    0    1
 -2       141       297       296      1674      1730      1671
 -1       460    8    0    1
 -2       142       298       297      1676      1731      1673
 -1       461    8    0    1
 -2       143       299       298      1678      1732      1675
 -1       462    8    0    1
 -2       144       300       299      1680      1733      1677
 -1       463    8    0    1
 -2       145       301       300      1682      1734      1679
 -1       464    8    0    1
 -2       146       302       301      1684      1735      1681
 -1       465    8    0    1
 -2       147       303       302      1686      1736      1683
 -1       466    8    0    1
 -2       148       304       303      1688      1737      1685
 -1       467    8    0    1
 -2       149       305       304      1690      1738      1687
 -1       468    8    0    1
 -2       150       306       305      1692      1739      1689
 -1       469    8    0    1
 -2       151       307       306      1694      1740      1691
 -1       470    8    0    1
 -2       152       308       307      1696      1741      1693
 -1       471    8    0    1
 -2       153       309       308      1698      1742      1695
 -1       472    8    0    1
 -2         1       310       309      1700      1743      1697
 -1       473    8    0    1
 -2       154       311       310      1702      1744      1699
 -1       474    8    0    1
 -2       155       312       311      1704      1745      1701
 -1       475    8    0    1
 -2       156       313       312      1706      1746      1703
 -1       476    8    0    1
 -2       157       314       313      1708      1747      1705
 -1       477    8    0    1
 -2       158       315       314      1710      1748      1707
 -1       478    8    0    1
 -2       159       316       315      1712      1749      1709
 -1       479    8    0    1
 -2       160       317       316      1714      1750      1711
 -1       480    8    0    1
 -2       161       318       317      1716      1751      1713
 -1       481    8    0    1
 -2       162       319       318      1718      1752      1715
 -1       482    8    0    1
 -2       163       320       319      1720      1753      1717
 -1       483    8    0    1
 -2       164       321       320      1722      1754      1719
 -1       484    8    0    1
 -2        23         7       165      1279      1281      1755
 -1       485    8    0    1
 -2       166       167       322      1287      1756      1757
 -1       486    8    0    1
 -2       165       166       323      1284      1758      1759
 -1       487    8    0    1
 -2       166       322       323      1757      1760      1758
 -1       488    8    0    1
 -2       168       169       324      1293      1761      1762
 -1       489    8    0    1
 -2       169       170       325      1296      1763      1764
 -1       490    8    0    1
 -2       169       325       324      1764      1765      1761
 -1       491    8    0    1
 -2       170       171       326      1299      1766      1767
 -1       492    8    0    1
 -2       170       326       325      1767      1768      1763
 -1       493    8    0    1
 -2       171       172       327      1302      1769      1770
 -1       494    8    0    1
 -2       171       327       326      1770      1771      1766
 -1       495    8    0    1
 -2       172       173       328      1305      1772      1773
 -1       496    8    0    1
 -2       172       328       327      1773      1774      1769
 -1       497    8    0    1
 -2       173       174       329      1308      1775      1776
 -1       498    8    0    1
 -2       173       329       328      1776      1777      1772
 -1       499    8    0    1
 -2       174       175       330      1311      1778      1779
 -1       500    8    0    1
 -2       174       330       329      1779      1780      1775
 -1       501    8    0    1
 -2       175       176       331      1314      1781      1782
 -1       502    8    0    1
 -2       175       331       330      1782      1783      1778
 -1       503    8    0    1
 -2       176       177       332      1317      1784      1785
 -1       504    8    0    1
 -2       176       332       331      1785      1786      1781
 -1       505    8    0    1
 -2       177       178       333      1320      1787      1788
 -1       506    8    0    1
 -2       177       333       332      1788      1789      1784
 -1       507    8    0    1
 -2       178       179       334      1323      1790      1791
 -1       508    8    0    1
 -2       178       334       333      1791      1792      1787
 -1       509    8    0    1
 -2       179       180       335      1326      1793      1794
 -1       510    8    0    1
 -2       334       179       335      1790      1794      1795
 -1       511    8    0    1
 -2       180       229       335      1475      1796      1793
 -1       512    8    0    1
 -2       181        23       165      1328      1755      1797
 -1       513    8    0    1
 -2       229       230       336      1478      1798      1799
 -1       514    8    0    1
 -2       229       336       335      1799      1800      1796
 -1       515    8    0    1
 -2       181       165       323      1797      1759      1801
 -1       516    8    0    1
 -2       183       182       337      1335      1802      1803
 -1       517    8    0    1
 -2       184       183       338      1338      1804      1805
 -1       518    8    0    1
 -2       183       337       338      1803      1806      1804
 -1       519    8    0    1
 -2       185       184       339      1341      1807      1808
 -1       520    8    0    1
 -2       184       338       339      1805      1809      1807
 -1       521    8    0    1
 -2       186       185       340      1344      1810      1811
 -1       522    8    0    1
 -2       185       339       340      1808      1812      1810
 -1       523    8    0    1
 -2       187       186       341      1347      1813      1814
 -1       524    8    0    1
 -2       186       340       341      1811      1815      1813
 -1       525    8    0    1
 -2       188       187       342      1350      1816      1817
 -1       526    8    0    1
 -2       187       341       342      1814      1818      1816
 -1       527    8    0    1
 -2       189       188       343      1353      1819      1820
 -1       528    8    0    1
 -2       188       342       343      1817      1821      1819
 -1       529    8    0    1
 -2       190       189       344      1356      1822      1823
 -1       530    8    0    1
 -2       189       343       344      1820      1824      1822
 -1       531    8    0    1
 -2       191       190       345      1359      1825      1826
 -1       532    8    0    1
 -2       190       344       345      1823      1827      1825
 -1       533    8    0    1
 -2       192       191       346      1362      1828      1829
 -1       534    8    0    1
 -2       191       345       346      1826      1830      1828
 -1       535    8    0    1
 -2       193       192       347      1365      1831      1832
 -1       536    8    0    1
 -2       192       346       347      1829      1833      1831
 -1       537    8    0    1
 -2       194       193       348      1368      1834      1835
 -1       538    8    0    1
 -2       193       347       348      1832      1836      1834
 -1       539    8    0    1
 -2       195       194       349      1371      1837      1838
 -1       540    8    0    1
 -2       194       348       349      1835      1839      1837
 -1       541    8    0    1
 -2       196       195       350      1374      1840      1841
 -1       542    8    0    1
 -2       195       349       350      1838      1842      1840
 -1       543    8    0    1
 -2       197       196       351      1377      1843      1844
 -1       544    8    0    1
 -2       196       350       351      1841      1845      1843
 -1       545    8    0    1
 -2       198       197       352      1380      1846      1847
 -1       546    8    0    1
 -2       197       351       352      1844      1848      1846
 -1       547    8    0    1
 -2       199       198       353      1383      1849      1850
 -1       548    8    0    1
 -2       198       352       353      1847      1851      1849
 -1       549    8    0    1
 -2       200       199       354      1386      1852      1853
 -1       550    8    0    1
 -2       199       353       354      1850      1854      1852
 -1       551    8    0    1
 -2       201       200       355      1389      1855      1856
 -1       552    8    0    1
 -2       200       354       355      1853      1857      1855
 -1       553    8    0    1
 -2       202       201       356      1392      1858      1859
 -1       554    8    0    1
 -2       201       355       356      1856      1860      1858
 -1       555    8    0    1
 -2       203       202       357      1395      1861      1862
 -1       556    8    0    1
 -2       202       356       357      1859      1863      1861
 -1       557    8    0    1
 -2       204       203       358      1398      1864      1865
 -1       558    8    0    1
 -2       203       357       358      1862      1866      1864
 -1       559    8    0    1
 -2       205       204       359      1401      1867      1868
 -1       560    8    0    1
 -2       204       358       359      1865      1869      1867
 -1       561    8    0    1
 -2       206       205       360      1404      1870      1871
 -1       562    8    0    1
 -2       205       359       360      1868      1872      1870
 -1       563    8    0    1
 -2       207       206       361      1407      1873      1874
 -1       564    8    0    1
 -2       206       360       361      1871      1875      1873
 -1       565    8    0    1
 -2       208       207       362      1410      1876      1877
 -1       566    8    0    1
 -2       207       361       362      1874      1878      1876
 -1       567    8    0    1
 -2       209       208       363      1413      1879      1880
 -1       568    8    0    1
 -2       208       362       363      1877      1881      1879
 -1       569    8    0    1
 -2       210       209       364      1416      1882      1883
 -1       570    8    0    1
 -2       209       363       364      1880      1884      1882
 -1       571    8    0    1
 -2       211       210       365      1419      1885      1886
 -1       572    8    0    1
 -2       210       364       365      1883      1887      1885
 -1       573    8    0    1
 -2       212       211       366      1422      1888      1889
 -1       574    8    0    1
 -2       211       365       366      1886      1890      1888
 -1       575    8    0    1
 -2       213       212       367      1425      1891      1892
 -1       576    8    0    1
 -2       212       366       367      1889      1893      1891
 -1       577    8    0    1
 -2       214       213       368      1428      1894      1895
 -1       578    8    0    1
 -2       213       367       368      1892      1896      1894
 -1       579    8    0    1
 -2       215       214       369      1431      1897      1898
 -1       580    8    0    1
 -2       214       368       369      1895      1899      1897
 -1       581    8    0    1
 -2       216       215       370      1434      1900      1901
 -1       582    8    0    1
 -2       215       369       370      1898      1902      1900
 -1       583    8    0    1
 -2       217       216       371      1437      1903      1904
 -1       584    8    0    1
 -2       216       370       371      1901      1905      1903
 -1       585    8    0    1
 -2       218       217       372      1440      1906      1907
 -1       586    8    0    1
 -2       217       371       372      1904      1908      1906
 -1       587    8    0    1
 -2       219       218       373      1443      1909      1910
 -1       588    8    0    1
 -2       218       372       373      1907      1911      1909
 -1       589    8    0    1
 -2       220       219       374      1446      1912      1913
 -1       590    8    0    1
 -2       219       373       374      1910      1914      1912
 -1       591    8    0    1
 -2       221       220       375      1449      1915      1916
 -1       592    8    0    1
 -2       220       374       375      1913      1917      1915
 -1       593    8    0    1
 -2       222       221       376      1452      1918      1919
 -1       594    8    0    1
 -2       221       375       376      1916      1920      1918
 -1       595    8    0    1
 -2       223       222       377      1455      1921      1922
 -1       596    8    0    1
 -2       222       376       377      1919      1923      1921
 -1       597    8    0    1
 -2       224       223       378      1458      1924      1925
 -1       598    8    0    1
 -2       223       377       378      1922      1926      1924
 -1       599    8    0    1
 -2       225       224       379      1461      1927      1928
 -1       600    8    0    1
 -2       224       378       379      1925      1929      1927
 -1       601    8    0    1
 -2       226       225       380      1464      1930      1931
 -1       602    8    0    1
 -2       225       379       380      1928      1932      1930
 -1       603    8    0    1
 -2       227       226       381      1467      1933      1934
 -1       604    8    0    1
 -2       226       380       381      1931      1935      1933
 -1       605    8    0    1
 -2       228       227       382      1470      1936      1937
 -1       606    8    0    1
 -2       291       228       382      1662      1937      1938
 -1       607    8    0    1
 -2       227       381       382      1934      1939      1936
 -1       608    8    0    1
 -2       230       231       383      1481      1940      1941
 -1       609    8    0    1
 -2       230       383       336      1941      1942      1798
 -1       610    8    0    1
 -2       231       232       384      1484      1943      1944
 -1       611    8    0    1
 -2       231       384       383      1944      1945      1940
 -1       612    8    0    1
 -2       232       233       385      1487      1946      1947
 -1       613    8    0    1
 -2       232       385       384      1947      1948      1943
 -1       614    8    0    1
 -2       233       234       386      1490      1949      1950
 -1       615    8    0    1
 -2       233       386       385      1950      1951      1946
 -1       616    8    0    1
 -2       234       235       387      1493      1952      1953
 -1       617    8    0    1
 -2       234       387       386      1953      1954      1949
 -1       618    8    0    1
 -2       235       236       388      1496      1955      1956
 -1       619    8    0    1
 -2       235       388       387      1956      1957      1952
 -1       620    8    0    1
 -2       236       237       389      1499      1958      1959
 -1       621    8    0    1
 -2       236       389       388      1959      1960      1955
 -1       622    8    0    1
 -2       237       238       390      1502      1961      1962
 -1       623    8    0    1
 -2       237       390       389      1962      1963      1958
 -1       624    8    0    1
 -2       238       239       391      1505      1964      1965
 -1       625    8    0    1
 -2       238       391       390      1965      1966      1961
 -1       626    8    0    1
 -2       239       240       392      1508      1967      1968
 -1       627    8    0    1
 -2       239       392       391      1968      1969      1964
 -1       628    8    0    1
 -2       240       241       393      1511      1970      1971
 -1       629    8    0    1
 -2       240       393       392      1971      1972      1967
 -1       630    8    0    1
 -2       241       242       394      1514      1973      1974
 -1       631    8    0    1
 -2       241       394       393      1974      1975      1970
 -1       632    8    0    1
 -2       242       243       395      1517      1976      1977
 -1       633    8    0    1
 -2       242       395       394      1977      1978      1973
 -1       634    8    0    1
 -2       243       244       396      1520      1979      1980
 -1       635    8    0    1
 -2       243       396       395      1980      1981      1976
 -1       636    8    0    1
 -2       244       245       397      1523      1982      1983
 -1       637    8    0    1
 -2       244       397       396      1983      1984      1979
 -1       638    8    0    1
 -2       245       246       398      1526      1985      1986
 -1       639    8    0    1
 -2       245       398       397      1986      1987      1982
 -1       640    8    0    1
 -2       246       247       399      1529      1988      1989
 -1       641    8    0    1
 -2       246       399       398      1989      1990      1985
 -1       642    8    0    1
 -2       247       248       400      1532      1991      1992
 -1       643    8    0    1
 -2       247       400       399      1992      1993      1988
 -1       644    8    0    1
 -2       248       249       401      1535      1994      1995
 -1       645    8    0    1
 -2       248       401       400      1995      1996      1991
 -1       646    8    0    1
 -2       249       250       402      1538      1997      1998
 -1       647    8    0    1
 -2       249       402       401      1998      1999      1994
 -1       648    8    0    1
 -2       250       251       403      1541      2000      2001
 -1       649    8    0    1
 -2       250       403       402      2001      2002      1997
 -1       650    8    0    1
 -2       251       252       404      1544      2003      2004
 -1       651    8    0    1
 -2       251       404       403      2004      2005      2000
 -1       652    8    0    1
 -2       252       253       405      1547      2006      2007
 -1       653    8    0    1
 -2       252       405       404      2007      2008      2003
 -1       654    8    0    1
 -2       253       254       406      1550      2009      2010
 -1       655    8    0    1
 -2       253       406       405      2010      2011      2006
 -1       656    8    0    1
 -2       254       255       407      1553      2012      2013
 -1       657    8    0    1
 -2       254       407       406      2013      2014      2009
 -1       658    8    0    1
 -2       255       256       408      1556      2015      2016
 -1       659    8    0    1
 -2       255       408       407      2016      2017      2012
 -1       660    8    0    1
 -2       256       257       409      1559      2018      2019
 -1       661    8    0    1
 -2       256       409       408      2019      2020      2015
 -1       662    8    0    1
 -2       257       258       410      1562      2021      2022
 -1       663    8    0    1
 -2       257       410       409      2022      2023      2018
 -1       664    8    0    1
 -2       258       259       411      1565      2024      2025
 -1       665    8    0    1
 -2       258       411       410      2025      2026      2021
 -1       666    8    0    1
 -2       259       260       412      1568      2027      2028
 -1       667    8    0    1
 -2       259       412       411      2028      2029      2024
 -1       668    8    0    1
 -2       260       261       413      1571      2030      2031
 -1       669    8    0    1
 -2       260       413       412      2031      2032      2027
 -1       670    8    0    1
 -2       261       262       414      1574      2033      2034
 -1       671    8    0    1
 -2       261       414       413      2034      2035      2030
 -1       672    8    0    1
 -2       262       263       415      1577      2036      2037
 -1       673    8    0    1
 -2       262       415       414      2037      2038      2033
 -1       674    8    0    1
 -2       263       264       416      1580      2039      2040
 -1       675    8    0    1
 -2       263       416       415      2040      2041      2036
 -1       676    8    0    1
 -2       264       265       417      1583      2042      2043
 -1       677    8    0    1
 -2       264       417       416      2043      2044      2039
 -1       678    8    0    1
 -2       265       266       418      1586      2045      2046
 -1       679    8    0    1
 -2       265       418       417      2046      2047      2042
 -1       680    8    0    1
 -2       266       267       419      1589      2048      2049
 -1       681    8    0    1
 -2       266       419       418      2049      2050      2045
 -1       682    8    0    1
 -2       267       268       420      1592      2051      2052
 -1       683    8    0    1
 -2       267       420       419      2052      2053      2048
 -1       684    8    0    1
 -2       268       269       421      1595      2054      2055
 -1       685    8    0    1
 -2       268       421       420      2055      2056      2051
 -1       686    8    0    1
 -2       269       270       422      1598      2057      2058
 -1       687    8    0    1
 -2       269       422       421      2058      2059      2054
 -1       688    8    0    1
 -2       270       271       423      1601      2060      2061
 -1       689    8    0    1
 -2       270       423       422      2061      2062      2057
 -1       690    8    0    1
 -2       271       272       424      1604      2063      2064
 -1       691    8    0    1
 -2       271       424       423      2064      2065      2060
 -1       692    8    0    1
 -2       272       273       425      1607      2066      2067
 -1       693    8    0    1
 -2       272       425       424      2067      2068      2063
 -1       694    8    0    1
 -2       273       274       426      1610      2069      2070
 -1       695    8    0    1
 -2       273       426       425      2070      2071      2066
 -1       696    8    0    1
 -2       274       275       427      1613      2072      2073
 -1       697    8    0    1
 -2       274       427       426      2073      2074      2069
 -1       698    8    0    1
 -2       275       276       428      1616      2075      2076
 -1       699    8    0    1
 -2       427       275       428      2072      2076      2077
 -1       700    8    0    1
 -2       276       277       428      1726      2078      2075
 -1       701    8    0    1
 -2       279       280       429      1628      2079      2080
 -1       702    8    0    1
 -2       278       279       430      1625      2081      2082
 -1       703    8    0    1
 -2       279       429       430      2080      2083      2081
 -1       704    8    0    1
 -2       277       278       431      1622      2084      2085
 -1       705    8    0    1
 -2       428       277       431      2078      2085      2086
 -1       706    8    0    1
 -2       278       430       431      2082      2087      2084
 -1       707    8    0    1
 -2       280       281       432      1631      2088      2089
 -1       708    8    0    1
 -2       280       432       429      2089      2090      2079
 -1       709    8    0    1
 -2       281       282       433      1634      2091      2092
 -1       710    8    0    1
 -2       281       433       432      2092      2093      2088
 -1       711    8    0    1
 -2       282       283       434      1637      2094      2095
 -1       712    8    0    1
 -2       282       434       433      2095      2096      2091
 -1       713    8    0    1
 -2       283       284       435      1640      2097      2098
 -1       714    8    0    1
 -2       283       435       434      2098      2099      2094
 -1       715    8    0    1
 -2       284       285       436      1643      2100      2101
 -1       716    8    0    1
 -2       284       436       435      2101      2102      2097
 -1       717    8    0    1
 -2       285       286       437      1646      2103      2104
 -1       718    8    0    1
 -2       285       437       436      2104      2105      2100
 -1       719    8    0    1
 -2       286       287       438      1649      2106      2107
 -1       720    8    0    1
 -2       286       438       437      2107      2108      2103
 -1       721    8    0    1
 -2       287       288       439      1652      2109      2110
 -1       722    8    0    1
 -2       287       439       438      2110      2111      2106
 -1       723    8    0    1
 -2       288       289       440      1655      2112      2113
 -1       724    8    0    1
 -2       288       440       439      2113      2114      2109
 -1       725    8    0    1
 -2       289       290       441      1658      2115      2116
 -1       726    8    0    1
 -2       289       441       440      2116      2117      2112
 -1       727    8    0    1
 -2       293       294       442      1728      2118      2119
 -1       728    8    0    1
 -2       321       292       443      1729      2120      2121
 -1       729    8    0    1
 -2       292       293       444      1727      2122      2123
 -1       730    8    0    1
 -2       294       295       445      1724      2124      2125
 -1       731    8    0    1
 -2       295       296       446      1723      2126      2127
 -1       732    8    0    1
 -2       167       168       447      1290      2128      2129
 -1       733    8    0    1
 -2       322       167       447      1756      2129      2130
 -1       734    8    0    1
 -2       168       324       447      1762      2131      2128
 -1       735    8    0    1
 -2       297       298       448      1731      2132      2133
 -1       736    8    0    1
 -2       298       299       449      1732      2134      2135
 -1       737    8    0    1
 -2       298       449       448      2135      2136      2132
 -1       738    8    0    1
 -2       299       300       450      1733      2137      2138
 -1       739    8    0    1
 -2       300       301       451      1734      2139      2140
 -1       740    8    0    1
 -2       300       451       450      2140      2141      2137
 -1       741    8    0    1
 -2       301       302       452      1735      2142      2143
 -1       742    8    0    1
 -2       302       303       453      1736      2144      2145
 -1       743    8    0    1
 -2       303       304       454      1737      2146      2147
 -1       744    8    0    1
 -2       304       305       455      1738      2148      2149
 -1       745    8    0    1
 -2       305       306       456      1739      2150      2151
 -1       746    8    0    1
 -2       306       307       457      1740      2152      2153
 -1       747    8    0    1
 -2       307       308       458      1741      2154      2155
 -1       748    8    0    1
 -2       308       309       459      1742      2156      2157
 -1       749    8    0    1
 -2       309       310       460      1743      2158      2159
 -1       750    8    0    1
 -2       310       311       461      1744      2160      2161
 -1       751    8    0    1
 -2       311       312       462      1745      2162      2163
 -1       752    8    0    1
 -2       312       313       463      1746      2164      2165
 -1       753    8    0    1
 -2       313       314       464      1747      2166      2167
 -1       754    8    0    1
 -2       314       315       465      1748      2168      2169
 -1       755    8    0    1
 -2       315       316       466      1749      2170      2171
 -1       756    8    0    1
 -2       315       466       465      2171      2172      2168
 -1       757    8    0    1
 -2       316       317       467      1750      2173      2174
 -1       758    8    0    1
 -2       317       318       468      1751      2175      2176
 -1       759    8    0    1
 -2       317       468       467      2176      2177      2173
 -1       760    8    0    1
 -2       318       319       469      1752      2178      2179
 -1       761    8    0    1
 -2       319       320       470      1753      2180      2181
 -1       762    8    0    1
 -2       320       321       471      1754      2182      2183
 -1       763    8    0    1
 -2       320       471       470      2183      2184      2180
 -1       764    8    0    1
 -2       296       297       472      1730      2185      2186
 -1       765    8    0    1
 -2       296       472       446      2186      2187      2126
 -1       766    8    0    1
 -2       445       295       446      2124      2127      2188
 -1       767    8    0    1
 -2       181       323       182      1801      2189      1332
 -1       768    8    0    1
 -2       297       448       473      2133      2190      2191
 -1       769    8    0    1
 -2       297       473       472      2191      2192      2185
 -1       770    8    0    1
 -2       337       182       323      1802      2189      2193
 -1       771    8    0    1
 -2       444       293       442      2122      2119      2194
 -1       772    8    0    1
 -2       443       292       444      2120      2123      2195
 -1       773    8    0    1
 -2       441       290       291      2115      1661      2196
 -1       774    8    0    1
 -2       442       294       445      2118      2125      2197
 -1       775    8    0    1
 -2       321       443       471      2121      2198      2182
 -1       776    8    0    1
 -2       468       318       469      2175      2179      2199
 -1       777    8    0    1
 -2       466       316       467      2170      2174      2200
 -1       778    8    0    1
 -2       464       314       465      2166      2169      2201
 -1       779    8    0    1
 -2       463       313       464      2164      2167      2202
 -1       780    8    0    1
 -2       462       312       463      2162      2165      2203
 -1       781    8    0    1
 -2       461       311       462      2160      2163      2204
 -1       782    8    0    1
 -2       460       310       461      2158      2161      2205
 -1       783    8    0    1
 -2       459       309       460      2156      2159      2206
 -1       784    8    0    1
 -2       458       308       459      2154      2157      2207
 -1       785    8    0    1
 -2       457       307       458      2152      2155      2208
 -1       786    8    0    1
 -2       456       306       457      2150      2153      2209
 -1       787    8    0    1
 -2       455       305       456      2148      2151      2210
 -1       788    8    0    1
 -2       454       304       455      2146      2149      2211
 -1       789    8    0    1
 -2       453       303       454      2144      2147      2212
 -1       790    8    0    1
 -2       451       301       452      2139      2143      2213
 -1       791    8    0    1
 -2       299       450       449      2138      2214      2134
 -1       792    8    0    1
 -2       452       302       453      2142      2145      2215
 -1       793    8    0    1
 -2       469       319       470      2178      2181      2216
 -1       794    8    0    1
 -2       336       383       474      1942      2217      2218
 -1       795    8    0    1
 -2       325       326       475      1768      2219      2220
 -1       796    8    0    1
 -2       324       325       476      1765      2221      2222
 -1       797    8    0    1
 -2       325       475       476      2220      2223      2221
 -1       798    8    0    1
 -2       327       328       477      1774      2224      2225
 -1       799    8    0    1
 -2       328       329       478      1777      2226      2227
 -1       800    8    0    1
 -2       328       478       477      2227      2228      2224
 -1       801    8    0    1
 -2       329       330       479      1780      2229      2230
 -1       802    8    0    1
 -2       329       479       478      2230      2231      2226
 -1       803    8    0    1
 -2       330       331       480      1783      2232      2233
 -1       804    8    0    1
 -2       330       480       479      2233      2234      2229
 -1       805    8    0    1
 -2       331       332       481      1786      2235      2236
 -1       806    8    0    1
 -2       331       481       480      2236      2237      2232
 -1       807    8    0    1
 -2       332       333       482      1789      2238      2239
 -1       808    8    0    1
 -2       332       482       481      2239      2240      2235
 -1       809    8    0    1
 -2       445       446       483      2188      2241      2242
 -1       810    8    0    1
 -2       383       384       484      1945      2243      2244
 -1       811    8    0    1
 -2       383       484       474      2244      2245      2217
 -1       812    8    0    1
 -2       338       337       485      1806      2246      2247
 -1       813    8    0    1
 -2       339       338       486      1809      2248      2249
 -1       814    8    0    1
 -2       338       485       486      2247      2250      2248
 -1       815    8    0    1
 -2       340       339       487      1812      2251      2252
 -1       816    8    0    1
 -2       339       486       487      2249      2253      2251
 -1       817    8    0    1
 -2       341       340       488      1815      2254      2255
 -1       818    8    0    1
 -2       340       487       488      2252      2256      2254
 -1       819    8    0    1
 -2       342       341       489      1818      2257      2258
 -1       820    8    0    1
 -2       341       488       489      2255      2259      2257
 -1       821    8    0    1
 -2       343       342       490      1821      2260      2261
 -1       822    8    0    1
 -2       342       489       490      2258      2262      2260
 -1       823    8    0    1
 -2       344       343       491      1824      2263      2264
 -1       824    8    0    1
 -2       343       490       491      2261      2265      2263
 -1       825    8    0    1
 -2       345       344       492      1827      2266      2267
 -1       826    8    0    1
 -2       344       491       492      2264      2268      2266
 -1       827    8    0    1
 -2       346       345       493      1830      2269      2270
 -1       828    8    0    1
 -2       345       492       493      2267      2271      2269
 -1       829    8    0    1
 -2       347       346       494      1833      2272      2273
 -1       830    8    0    1
 -2       346       493       494      2270      2274      2272
 -1       831    8    0    1
 -2       348       347       495      1836      2275      2276
 -1       832    8    0    1
 -2       347       494       495      2273      2277      2275
 -1       833    8    0    1
 -2       349       348       496      1839      2278      2279
 -1       834    8    0    1
 -2       348       495       496      2276      2280      2278
 -1       835    8    0    1
 -2       350       349       497      1842      2281      2282
 -1       836    8    0    1
 -2       349       496       497      2279      2283      2281
 -1       837    8    0    1
 -2       351       350       498      1845      2284      2285
 -1       838    8    0    1
 -2       350       497       498      2282      2286      2284
 -1       839    8    0    1
 -2       352       351       499      1848      2287      2288
 -1       840    8    0    1
 -2       351       498       499      2285      2289      2287
 -1       841    8    0    1
 -2       353       352       500      1851      2290      2291
 -1       842    8    0    1
 -2       352       499       500      2288      2292      2290
 -1       843    8    0    1
 -2       354       353       501      1854      2293      2294
 -1       844    8    0    1
 -2       353       500       501      2291      2295      2293
 -1       845    8    0    1
 -2       355       354       502      1857      2296      2297
 -1       846    8    0    1
 -2       354       501       502      2294      2298      2296
 -1       847    8    0    1
 -2       356       355       503      1860      2299      2300
 -1       848    8    0    1
 -2       355       502       503      2297      2301      2299
 -1       849    8    0    1
 -2       357       356       504      1863      2302      2303
 -1       850    8    0    1
 -2       356       503       504      2300      2304      2302
 -1       851    8    0    1
 -2       358       357       505      1866      2305      2306
 -1       852    8    0    1
 -2       357       504       505      2303      2307      2305
 -1       853    8    0    1
 -2       359       358       506      1869      2308      2309
 -1       854    8    0    1
 -2       358       505       506      2306      2310      2308
 -1       855    8    0    1
 -2       360       359       507      1872      2311      2312
 -1       856    8    0    1
 -2       359       506       507      2309      2313      2311
 -1       857    8    0    1
 -2       361       360       508      1875      2314      2315
 -1       858    8    0    1
 -2       360       507       508      2312      2316      2314
 -1       859    8    0    1
 -2       362       361       509      1878      2317      2318
 -1       860    8    0    1
 -2       361       508       509      2315      2319      2317
 -1       861    8    0    1
 -2       363       362       510      1881      2320      2321
 -1       862    8    0    1
 -2       362       509       510      2318      2322      2320
 -1       863    8    0    1
 -2       364       363       511      1884      2323      2324
 -1       864    8    0    1
 -2       363       510       511      2321      2325      2323
 -1       865    8    0    1
 -2       365       364       512      1887      2326      2327
 -1       866    8    0    1
 -2       364       511       512      2324      2328      2326
 -1       867    8    0    1
 -2       366       365       513      1890      2329      2330
 -1       868    8    0    1
 -2       365       512       513      2327      2331      2329
 -1       869    8    0    1
 -2       367       366       514      1893      2332      2333
 -1       870    8    0    1
 -2       366       513       514      2330      2334      2332
 -1       871    8    0    1
 -2       368       367       515      1896      2335      2336
 -1       872    8    0    1
 -2       367       514       515      2333      2337      2335
 -1       873    8    0    1
 -2       369       368       516      1899      2338      2339
 -1       874    8    0    1
 -2       368       515       516      2336      2340      2338
 -1       875    8    0    1
 -2       370       369       517      1902      2341      2342
 -1       876    8    0    1
 -2       369       516       517      2339      2343      2341
 -1       877    8    0    1
 -2       371       370       518      1905      2344      2345
 -1       878    8    0    1
 -2       370       517       518      2342      2346      2344
 -1       879    8    0    1
 -2       372       371       519      1908      2347      2348
 -1       880    8    0    1
 -2       371       518       519      2345      2349      2347
 -1       881    8    0    1
 -2       373       372       520      1911      2350      2351
 -1       882    8    0    1
 -2       372       519       520      2348      2352      2350
 -1       883    8    0    1
 -2       374       373       521      1914      2353      2354
 -1       884    8    0    1
 -2       373       520       521      2351      2355      2353
 -1       885    8    0    1
 -2       375       374       522      1917      2356      2357
 -1       886    8    0    1
 -2       374       521       522      2354      2358      2356
 -1       887    8    0    1
 -2       376       375       523      1920      2359      2360
 -1       888    8    0    1
 -2       375       522       523      2357      2361      2359
 -1       889    8    0    1
 -2       377       376       524      1923      2362      2363
 -1       890    8    0    1
 -2       376       523       524      2360      2364      2362
 -1       891    8    0    1
 -2       378       377       525      1926      2365      2366
 -1       892    8    0    1
 -2       377       524       525      2363      2367      2365
 -1       893    8    0    1
 -2       379       378       526      1929      2368      2369
 -1       894    8    0    1
 -2       378       525       526      2366      2370      2368
 -1       895    8    0    1
 -2       380       379       527      1932      2371      2372
 -1       896    8    0    1
 -2       379       526       527      2369      2373      2371
 -1       897    8    0    1
 -2       381       380       528      1935      2374      2375
 -1       898    8    0    1
 -2       380       527       528      2372      2376      2374
 -1       899    8    0    1
 -2       385       386       529      1951      2377      2378
 -1       900    8    0    1
 -2       386       387       530      1954      2379      2380
 -1       901    8    0    1
 -2       386       530       529      2380      2381      2377
 -1       902    8    0    1
 -2       387       388       531      1957      2382      2383
 -1       903    8    0    1
 -2       387       531       530      2383      2384      2379
 -1       904    8    0    1
 -2       388       389       532      1960      2385      2386
 -1       905    8    0    1
 -2       388       532       531      2386      2387      2382
 -1       906    8    0    1
 -2       389       390       533      1963      2388      2389
 -1       907    8    0    1
 -2       389       533       532      2389      2390      2385
 -1       908    8    0    1
 -2       390       391       534      1966      2391      2392
 -1       909    8    0    1
 -2       390       534       533      2392      2393      2388
 -1       910    8    0    1
 -2       391       392       535      1969      2394      2395
 -1       911    8    0    1
 -2       391       535       534      2395      2396      2391
 -1       912    8    0    1
 -2       392       393       536      1972      2397      2398
 -1       913    8    0    1
 -2       392       536       535      2398      2399      2394
 -1       914    8    0    1
 -2       393       394       537      1975      2400      2401
 -1       915    8    0    1
 -2       393       537       536      2401      2402      2397
 -1       916    8    0    1
 -2       394       395       538      1978      2403      2404
 -1       917    8    0    1
 -2       394       538       537      2404      2405      2400
 -1       918    8    0    1
 -2       395       396       539      1981      2406      2407
 -1       919    8    0    1
 -2       395       539       538      2407      2408      2403
 -1       920    8    0    1
 -2       396       397       540      1984      2409      2410
 -1       921    8    0    1
 -2       396       540       539      2410      2411      2406
 -1       922    8    0    1
 -2       397       398       541      1987      2412      2413
 -1       923    8    0    1
 -2       397       541       540      2413      2414      2409
 -1       924    8    0    1
 -2       398       399       542      1990      2415      2416
 -1       925    8    0    1
 -2       398       542       541      2416      2417      2412
 -1       926    8    0    1
 -2       399       400       543      1993      2418      2419
 -1       927    8    0    1
 -2       399       543       542      2419      2420      2415
 -1       928    8    0    1
 -2       400       401       544      1996      2421      2422
 -1       929    8    0    1
 -2       400       544       543      2422      2423      2418
 -1       930    8    0    1
 -2       401       402       545      1999      2424      2425
 -1       931    8    0    1
 -2       401       545       544      2425      2426      2421
 -1       932    8    0    1
 -2       402       403       546      2002      2427      2428
 -1       933    8    0    1
 -2       402       546       545      2428      2429      2424
 -1       934    8    0    1
 -2       403       404       547      2005      2430      2431
 -1       935    8    0    1
 -2       403       547       546      2431      2432      2427
 -1       936    8    0    1
 -2       404       405       548      2008      2433      2434
 -1       937    8    0    1
 -2       404       548       547      2434      2435      2430
 -1       938    8    0    1
 -2       405       406       549      2011      2436      2437
 -1       939    8    0    1
 -2       405       549       548      2437      2438      2433
 -1       940    8    0    1
 -2       406       407       550      2014      2439      2440
 -1       941    8    0    1
 -2       406       550       549      2440      2441      2436
 -1       942    8    0    1
 -2       407       408       551      2017      2442      2443
 -1       943    8    0    1
 -2       407       551       550      2443      2444      2439
 -1       944    8    0    1
 -2       408       409       552      2020      2445      2446
 -1       945    8    0    1
 -2       408       552       551      2446      2447      2442
 -1       946    8    0    1
 -2       409       410       553      2023      2448      2449
 -1       947    8    0    1
 -2       409       553       552      2449      2450      2445
 -1       948    8    0    1
 -2       410       411       554      2026      2451      2452
 -1       949    8    0    1
 -2       410       554       553      2452      2453      2448
 -1       950    8    0    1
 -2       411       412       555      2029      2454      2455
 -1       951    8    0    1
 -2       411       555       554      2455      2456      2451
 -1       952    8    0    1
 -2       412       413       556      2032      2457      2458
 -1       953    8    0    1
 -2       412       556       555      2458      2459      2454
 -1       954    8    0    1
 -2       413       414       557      2035      2460      2461
 -1       955    8    0    1
 -2       413       557       556      2461      2462      2457
 -1       956    8    0    1
 -2       414       415       558      2038      2463      2464
 -1       957    8    0    1
 -2       414       558       557      2464      2465      2460
 -1       958    8    0    1
 -2       415       416       559      2041      2466      2467
 -1       959    8    0    1
 -2       415       559       558      2467      2468      2463
 -1       960    8    0    1
 -2       416       417       560      2044      2469      2470
 -1       961    8    0    1
 -2       416       560       559      2470      2471      2466
 -1       962    8    0    1
 -2       417       418       561      2047      2472      2473
 -1       963    8    0    1
 -2       417       561       560      2473      2474      2469
 -1       964    8    0    1
 -2       418       419       562      2050      2475      2476
 -1       965    8    0    1
 -2       418       562       561      2476      2477      2472
 -1       966    8    0    1
 -2       419       420       563      2053      2478      2479
 -1       967    8    0    1
 -2       419       563       562      2479      2480      2475
 -1       968    8    0    1
 -2       420       421       564      2056      2481      2482
 -1       969    8    0    1
 -2       420       564       563      2482      2483      2478
 -1       970    8    0    1
 -2       421       422       565      2059      2484      2485
 -1       971    8    0    1
 -2       421       565       564      2485      2486      2481
 -1       972    8    0    1
 -2       422       423       566      2062      2487      2488
 -1       973    8    0    1
 -2       422       566       565      2488      2489      2484
 -1       974    8    0    1
 -2       423       424       567      2065      2490      2491
 -1       975    8    0    1
 -2       423       567       566      2491      2492      2487
 -1       976    8    0    1
 -2       424       425       568      2068      2493      2494
 -1       977    8    0    1
 -2       424       568       567      2494      2495      2490
 -1       978    8    0    1
 -2       425       426       569      2071      2496      2497
 -1       979    8    0    1
 -2       425       569       568      2497      2498      2493
 -1       980    8    0    1
 -2       426       427       570      2074      2499      2500
 -1       981    8    0    1
 -2       426       570       569      2500      2501      2496
 -1       982    8    0    1
 -2       427       428       431      2077      2086      2502
 -1       983    8    0    1
 -2       432       433       571      2093      2503      2504
 -1       984    8    0    1
 -2       433       434       572      2096      2505      2506
 -1       985    8    0    1
 -2       433       572       571      2506      2507      2503
 -1       986    8    0    1
 -2       430       429       573      2083      2508      2509
 -1       987    8    0    1
 -2       429       432       574      2090      2510      2511
 -1       988    8    0    1
 -2       573       429       574      2508      2511      2512
 -1       989    8    0    1
 -2       432       571       574      2504      2513      2510
 -1       990    8    0    1
 -2       434       435       575      2099      2514      2515
 -1       991    8    0    1
 -2       434       575       572      2515      2516      2505
 -1       992    8    0    1
 -2       435       436       576      2102      2517      2518
 -1       993    8    0    1
 -2       435       576       575      2518      2519      2514
 -1       994    8    0    1
 -2       436       437       577      2105      2520      2521
 -1       995    8    0    1
 -2       436       577       576      2521      2522      2517
 -1       996    8    0    1
 -2       437       438       578      2108      2523      2524
 -1       997    8    0    1
 -2       437       578       577      2524      2525      2520
 -1       998    8    0    1
 -2       438       439       579      2111      2526      2527
 -1       999    8    0    1
 -2       438       579       578      2527      2528      2523
 -1      1000    8    0    1
 -2       439       440       580      2114      2529      2530
 -1      1001    8    0    1
 -2       439       580       579      2530      2531      2526
 -1      1002    8    0    1
 -2       440       441       581      2117      2532      2533
 -1      1003    8    0    1
 -2       440       581       580      2533      2534      2529
 -1      1004    8    0    1
 -2       443       444       582      2195      2535      2536
 -1      1005    8    0    1
 -2       442       445       583      2197      2537      2538
 -1      1006    8    0    1
 -2       384       385       584      1948      2539      2540
 -1      1007    8    0    1
 -2       385       529       584      2378      2541      2539
 -1      1008    8    0    1
 -2       441       291       382      2196      1938      2542
 -1      1009    8    0    1
 -2       471       443       585      2198      2543      2544
 -1      1010    8    0    1
 -2       444       442       586      2194      2545      2546
 -1      1011    8    0    1
 -2       442       583       586      2538      2547      2545
 -1      1012    8    0    1
 -2       468       469       587      2199      2548      2549
 -1      1013    8    0    1
 -2       446       472       588      2187      2550      2551
 -1      1014    8    0    1
 -2       446       588       483      2551      2552      2241
 -1      1015    8    0    1
 -2       464       465       589      2201      2553      2554
 -1      1016    8    0    1
 -2       326       327       590      1771      2555      2556
 -1      1017    8    0    1
 -2       475       326       590      2219      2556      2557
 -1      1018    8    0    1
 -2       327       477       590      2225      2558      2555
 -1      1019    8    0    1
 -2       452       453       591      2215      2559      2560
 -1      1020    8    0    1
 -2       448       449       592      2136      2561      2562
 -1      1021    8    0    1
 -2       449       450       593      2214      2563      2564
 -1      1022    8    0    1
 -2       450       451       594      2141      2565      2566
 -1      1023    8    0    1
 -2       469       470       595      2216      2567      2568
 -1      1024    8    0    1
 -2       451       452       596      2213      2569      2570
 -1      1025    8    0    1
 -2       451       596       594      2570      2571      2565
 -1      1026    8    0    1
 -2       453       454       597      2212      2572      2573
 -1      1027    8    0    1
 -2       454       455       598      2211      2574      2575
 -1      1028    8    0    1
 -2       455       456       599      2210      2576      2577
 -1      1029    8    0    1
 -2       455       599       598      2577      2578      2574
 -1      1030    8    0    1
 -2       456       457       600      2209      2579      2580
 -1      1031    8    0    1
 -2       457       458       601      2208      2581      2582
 -1      1032    8    0    1
 -2       458       459       602      2207      2583      2584
 -1      1033    8    0    1
 -2       459       460       603      2206      2585      2586
 -1      1034    8    0    1
 -2       459       603       602      2586      2587      2583
 -1      1035    8    0    1
 -2       460       461       604      2205      2588      2589
 -1      1036    8    0    1
 -2       460       604       603      2589      2590      2585
 -1      1037    8    0    1
 -2       461       462       605      2204      2591      2592
 -1      1038    8    0    1
 -2       462       463       606      2203      2593      2594
 -1      1039    8    0    1
 -2       463       464       607      2202      2595      2596
 -1      1040    8    0    1
 -2       465       466       608      2172      2597      2598
 -1      1041    8    0    1
 -2       466       467       609      2200      2599      2600
 -1      1042    8    0    1
 -2       466       609       608      2600      2601      2597
 -1      1043    8    0    1
 -2       467       468       610      2177      2602      2603
 -1      1044    8    0    1
 -2       468       587       610      2549      2604      2602
 -1      1045    8    0    1
 -2       470       471       611      2184      2605      2606
 -1      1046    8    0    1
 -2       337       323       612      2193      2607      2608
 -1      1047    8    0    1
 -2       485       337       612      2246      2608      2609
 -1      1048    8    0    1
 -2       323       322       612      1760      2610      2607
 -1      1049    8    0    1
 -2       335       336       613      1800      2611      2612
 -1      1050    8    0    1
 -2       334       335       613      1795      2612      2613
 -1      1051    8    0    1
 -2       336       474       613      2218      2614      2611
 -1      1052    8    0    1
 -2       452       591       596      2560      2615      2569
 -1      1053    8    0    1
 -2       324       476       614      2222      2616      2617
 -1      1054    8    0    1
 -2       324       614       447      2617      2618      2131
 -1      1055    8    0    1
 -2       445       483       583      2242      2619      2537
 -1      1056    8    0    1
 -2       464       589       607      2554      2620      2595
 -1      1057    8    0    1
 -2       333       334       613      1792      2613      2621
 -1      1058    8    0    1
 -2       473       448       615      2190      2622      2623
 -1      1059    8    0    1
 -2       448       592       615      2562      2624      2622
 -1      1060    8    0    1
 -2       472       473       616      2192      2625      2626
 -1      1061    8    0    1
 -2       472       616       588      2626      2627      2550
 -1      1062    8    0    1
 -2       612       322       447      2610      2130      2628
 -1      1063    8    0    1
 -2       609       467       610      2599      2603      2629
 -1      1064    8    0    1
 -2       471       585       611      2544      2630      2605
 -1      1065    8    0    1
 -2       427       431       570      2502      2631      2499
 -1      1066    8    0    1
 -2       431       430       570      2087      2632      2631
 -1      1067    8    0    1
 -2       333       613       482      2621      2633      2238
 -1      1068    8    0    1
 -2       443       582       585      2536      2634      2543
 -1      1069    8    0    1
 -2       582       444       586      2535      2546      2635
 -1      1070    8    0    1
 -2       470       611       595      2606      2636      2567
 -1      1071    8    0    1
 -2       606       463       607      2593      2596      2637
 -1      1072    8    0    1
 -2       461       605       604      2592      2638      2588
 -1      1073    8    0    1
 -2       384       584       484      2540      2639      2243
 -1      1074    8    0    1
 -2       587       469       595      2548      2568      2640
 -1      1075    8    0    1
 -2       589       465       608      2553      2598      2641
 -1      1076    8    0    1
 -2       601       458       617      2581      2642      2643
 -1      1077    8    0    1
 -2       458       602       617      2584      2644      2642
 -1      1078    8    0    1
 -2       599       456       600      2576      2580      2645
 -1      1079    8    0    1
 -2       453       597       591      2573      2646      2559
 -1      1080    8    0    1
 -2       593       450       594      2563      2566      2647
 -1      1081    8    0    1
 -2       592       449       593      2561      2564      2648
 -1      1082    8    0    1
 -2       597       454       618      2572      2649      2650
 -1      1083    8    0    1
 -2       454       598       618      2575      2651      2649
 -1      1084    8    0    1
 -2       600       457       601      2579      2582      2652
 -1      1085    8    0    1
 -2       605       462       606      2591      2594      2653
 -1      1086    8    0    1
 -2       441       382       619      2542      2654      2655
 -1      1087    8    0    1
 -2       581       441       619      2532      2655      2656
 -1      1088    8    0    1
 -2       382       381       619      1939      2657      2654
 -1      1089    8    0    1
 -2       570       430       573      2632      2509      2658
 -1      1090    8    0    1
 -2       619       381       528      2657      2375      2659
 -1      1091    8    0    1
 -2       478       479       620      2231      2660      2661
 -1      1092    8    0    1
 -2       477       478       621      2228      2662      2663
 -1      1093    8    0    1
 -2       478       620       621      2661      2664      2662
 -1      1094    8    0    1
 -2       480       481       622      2237      2665      2666
 -1      1095    8    0    1
 -2       481       482       623      2240      2667      2668
 -1      1096    8    0    1
 -2       481       623       622      2668      2669      2665
 -1      1097    8    0    1
 -2       585       582       624      2634      2670      2671
 -1      1098    8    0    1
 -2       474       484       625      2245      2672      2673
 -1      1099    8    0    1
 -2       613       474       482      2614      2674      2633
 -1      1100    8    0    1
 -2       487       486       626      2253      2675      2676
 -1      1101    8    0    1
 -2       488       487       627      2256      2677      2678
 -1      1102    8    0    1
 -2       487       626       627      2676      2679      2677
 -1      1103    8    0    1
 -2       489       488       628      2259      2680      2681
 -1      1104    8    0    1
 -2       488       627       628      2678      2682      2680
 -1      1105    8    0    1
 -2       490       489       629      2262      2683      2684
 -1      1106    8    0    1
 -2       489       628       629      2681      2685      2683
 -1      1107    8    0    1
 -2       491       490       630      2265      2686      2687
 -1      1108    8    0    1
 -2       490       629       630      2684      2688      2686
 -1      1109    8    0    1
 -2       492       491       631      2268      2689      2690
 -1      1110    8    0    1
 -2       491       630       631      2687      2691      2689
 -1      1111    8    0    1
 -2       493       492       632      2271      2692      2693
 -1      1112    8    0    1
 -2       492       631       632      2690      2694      2692
 -1      1113    8    0    1
 -2       494       493       633      2274      2695      2696
 -1      1114    8    0    1
 -2       493       632       633      2693      2697      2695
 -1      1115    8    0    1
 -2       495       494       634      2277      2698      2699
 -1      1116    8    0    1
 -2       494       633       634      2696      2700      2698
 -1      1117    8    0    1
 -2       496       495       635      2280      2701      2702
 -1      1118    8    0    1
 -2       495       634       635      2699      2703      2701
 -1      1119    8    0    1
 -2       497       496       636      2283      2704      2705
 -1      1120    8    0    1
 -2       496       635       636      2702      2706      2704
 -1      1121    8    0    1
 -2       498       497       637      2286      2707      2708
 -1      1122    8    0    1
 -2       497       636       637      2705      2709      2707
 -1      1123    8    0    1
 -2       499       498       638      2289      2710      2711
 -1      1124    8    0    1
 -2       498       637       638      2708      2712      2710
 -1      1125    8    0    1
 -2       500       499       639      2292      2713      2714
 -1      1126    8    0    1
 -2       499       638       639      2711      2715      2713
 -1      1127    8    0    1
 -2       501       500       640      2295      2716      2717
 -1      1128    8    0    1
 -2       500       639       640      2714      2718      2716
 -1      1129    8    0    1
 -2       502       501       641      2298      2719      2720
 -1      1130    8    0    1
 -2       501       640       641      2717      2721      2719
 -1      1131    8    0    1
 -2       503       502       642      2301      2722      2723
 -1      1132    8    0    1
 -2       502       641       642      2720      2724      2722
 -1      1133    8    0    1
 -2       504       503       643      2304      2725      2726
 -1      1134    8    0    1
 -2       503       642       643      2723      2727      2725
 -1      1135    8    0    1
 -2       505       504       644      2307      2728      2729
 -1      1136    8    0    1
 -2       504       643       644      2726      2730      2728
 -1      1137    8    0    1
 -2       506       505       645      2310      2731      2732
 -1      1138    8    0    1
 -2       505       644       645      2729      2733      2731
 -1      1139    8    0    1
 -2       507       506       646      2313      2734      2735
 -1      1140    8    0    1
 -2       506       645       646      2732      2736      2734
 -1      1141    8    0    1
 -2       508       507       647      2316      2737      2738
 -1      1142    8    0    1
 -2       507       646       647      2735      2739      2737
 -1      1143    8    0    1
 -2       509       508       648      2319      2740      2741
 -1      1144    8    0    1
 -2       508       647       648      2738      2742      2740
 -1      1145    8    0    1
 -2       510       509       649      2322      2743      2744
 -1      1146    8    0    1
 -2       509       648       649      2741      2745      2743
 -1      1147    8    0    1
 -2       511       510       650      2325      2746      2747
 -1      1148    8    0    1
 -2       510       649       650      2744      2748      2746
 -1      1149    8    0    1
 -2       512       511       651      2328      2749      2750
 -1      1150    8    0    1
 -2       511       650       651      2747      2751      2749
 -1      1151    8    0    1
 -2       513       512       652      2331      2752      2753
 -1      1152    8    0    1
 -2       512       651       652      2750      2754      2752
 -1      1153    8    0    1
 -2       514       513       653      2334      2755      2756
 -1      1154    8    0    1
 -2       513       652       653      2753      2757      2755
 -1      1155    8    0    1
 -2       515       514       654      2337      2758      2759
 -1      1156    8    0    1
 -2       514       653       654      2756      2760      2758
 -1      1157    8    0    1
 -2       516       515       655      2340      2761      2762
 -1      1158    8    0    1
 -2       515       654       655      2759      2763      2761
 -1      1159    8    0    1
 -2       517       516       656      2343      2764      2765
 -1      1160    8    0    1
 -2       516       655       656      2762      2766      2764
 -1      1161    8    0    1
 -2       518       517       657      2346      2767      2768
 -1      1162    8    0    1
 -2       517       656       657      2765      2769      2767
 -1      1163    8    0    1
 -2       519       518       658      2349      2770      2771
 -1      1164    8    0    1
 -2       518       657       658      2768      2772      2770
 -1      1165    8    0    1
 -2       520       519       659      2352      2773      2774
 -1      1166    8    0    1
 -2       519       658       659      2771      2775      2773
 -1      1167    8    0    1
 -2       521       520       660      2355      2776      2777
 -1      1168    8    0    1
 -2       520       659       660      2774      2778      2776
 -1      1169    8    0    1
 -2       522       521       661      2358      2779      2780
 -1      1170    8    0    1
 -2       521       660       661      2777      2781      2779
 -1      1171    8    0    1
 -2       523       522       662      2361      2782      2783
 -1      1172    8    0    1
 -2       522       661       662      2780      2784      2782
 -1      1173    8    0    1
 -2       524       523       663      2364      2785      2786
 -1      1174    8    0    1
 -2       523       662       663      2783      2787      2785
 -1      1175    8    0    1
 -2       525       524       664      2367      2788      2789
 -1      1176    8    0    1
 -2       524       663       664      2786      2790      2788
 -1      1177    8    0    1
 -2       526       525       665      2370      2791      2792
 -1      1178    8    0    1
 -2       525       664       665      2789      2793      2791
 -1      1179    8    0    1
 -2       527       526       666      2373      2794      2795
 -1      1180    8    0    1
 -2       526       665       666      2792      2796      2794
 -1      1181    8    0    1
 -2       528       527       667      2376      2797      2798
 -1      1182    8    0    1
 -2       527       666       667      2795      2799      2797
 -1      1183    8    0    1
 -2       530       531       668      2384      2800      2801
 -1      1184    8    0    1
 -2       570       573       669      2658      2802      2803
 -1      1185    8    0    1
 -2       570       669       569      2803      2804      2501
 -1      1186    8    0    1
 -2       611       585       670      2630      2805      2806
 -1      1187    8    0    1
 -2       529       530       671      2381      2807      2808
 -1      1188    8    0    1
 -2       530       668       671      2801      2809      2807
 -1      1189    8    0    1
 -2       532       533       672      2390      2810      2811
 -1      1190    8    0    1
 -2       533       534       673      2393      2812      2813
 -1      1191    8    0    1
 -2       533       673       672      2813      2814      2810
 -1      1192    8    0    1
 -2       534       535       674      2396      2815      2816
 -1      1193    8    0    1
 -2       534       674       673      2816      2817      2812
 -1      1194    8    0    1
 -2       535       536       675      2399      2818      2819
 -1      1195    8    0    1
 -2       535       675       674      2819      2820      2815
 -1      1196    8    0    1
 -2       536       537       676      2402      2821      2822
 -1      1197    8    0    1
 -2       536       676       675      2822      2823      2818
 -1      1198    8    0    1
 -2       537       538       677      2405      2824      2825
 -1      1199    8    0    1
 -2       537       677       676      2825      2826      2821
 -1      1200    8    0    1
 -2       538       539       678      2408      2827      2828
 -1      1201    8    0    1
 -2       538       678       677      2828      2829      2824
 -1      1202    8    0    1
 -2       539       540       679      2411      2830      2831
 -1      1203    8    0    1
 -2       539       679       678      2831      2832      2827
 -1      1204    8    0    1
 -2       540       541       680      2414      2833      2834
 -1      1205    8    0    1
 -2       540       680       679      2834      2835      2830
 -1      1206    8    0    1
 -2       541       542       681      2417      2836      2837
 -1      1207    8    0    1
 -2       541       681       680      2837      2838      2833
 -1      1208    8    0    1
 -2       542       543       682      2420      2839      2840
 -1      1209    8    0    1
 -2       542       682       681      2840      2841      2836
 -1      1210    8    0    1
 -2       543       544       683      2423      2842      2843
 -1      1211    8    0    1
 -2       543       683       682      2843      2844      2839
 -1      1212    8    0    1
 -2       544       545       684      2426      2845      2846
 -1      1213    8    0    1
 -2       544       684       683      2846      2847      2842
 -1      1214    8    0    1
 -2       545       546       685      2429      2848      2849
 -1      1215    8    0    1
 -2       545       685       684      2849      2850      2845
 -1      1216    8    0    1
 -2       546       547       686      2432      2851      2852
 -1      1217    8    0    1
 -2       546       686       685      2852      2853      2848
 -1      1218    8    0    1
 -2       547       548       687      2435      2854      2855
 -1      1219    8    0    1
 -2       547       687       686      2855      2856      2851
 -1      1220    8    0    1
 -2       548       549       688      2438      2857      2858
 -1      1221    8    0    1
 -2       548       688       687      2858      2859      2854
 -1      1222    8    0    1
 -2       549       550       689      2441      2860      2861
 -1      1223    8    0    1
 -2       549       689       688      2861      2862      2857
 -1      1224    8    0    1
 -2       550       551       690      2444      2863      2864
 -1      1225    8    0    1
 -2       550       690       689      2864      2865      2860
 -1      1226    8    0    1
 -2       551       552       691      2447      2866      2867
 -1      1227    8    0    1
 -2       551       691       690      2867      2868      2863
 -1      1228    8    0    1
 -2       552       553       692      2450      2869      2870
 -1      1229    8    0    1
 -2       552       692       691      2870      2871      2866
 -1      1230    8    0    1
 -2       553       554       693      2453      2872      2873
 -1      1231    8    0    1
 -2       553       693       692      2873      2874      2869
 -1      1232    8    0    1
 -2       554       555       694      2456      2875      2876
 -1      1233    8    0    1
 -2       554       694       693      2876      2877      2872
 -1      1234    8    0    1
 -2       555       556       695      2459      2878      2879
 -1      1235    8    0    1
 -2       555       695       694      2879      2880      2875
 -1      1236    8    0    1
 -2       556       557       696      2462      2881      2882
 -1      1237    8    0    1
 -2       556       696       695      2882      2883      2878
 -1      1238    8    0    1
 -2       557       558       697      2465      2884      2885
 -1      1239    8    0    1
 -2       557       697       696      2885      2886      2881
 -1      1240    8    0    1
 -2       558       559       698      2468      2887      2888
 -1      1241    8    0    1
 -2       558       698       697      2888      2889      2884
 -1      1242    8    0    1
 -2       560       561       594      2474      2890      2891
 -1      1243    8    0    1
 -2       561       562       593      2477      2892      2893
 -1      1244    8    0    1
 -2       562       563       615      2480      2894      2895
 -1      1245    8    0    1
 -2       564       565       699      2486      2896      2897
 -1      1246    8    0    1
 -2       565       566       700      2489      2898      2899
 -1      1247    8    0    1
 -2       565       700       699      2899      2900      2896
 -1      1248    8    0    1
 -2       566       567       701      2492      2901      2902
 -1      1249    8    0    1
 -2       566       701       700      2902      2903      2898
 -1      1250    8    0    1
 -2       567       568       702      2495      2904      2905
 -1      1251    8    0    1
 -2       567       702       701      2905      2906      2901
 -1      1252    8    0    1
 -2       568       569       703      2498      2907      2908
 -1      1253    8    0    1
 -2       702       568       703      2904      2908      2909
 -1      1254    8    0    1
 -2       569       669       703      2804      2910      2907
 -1      1255    8    0    1
 -2       575       576       704      2519      2911      2912
 -1      1256    8    0    1
 -2       619       528       705      2659      2913      2914
 -1      1257    8    0    1
 -2       528       667       705      2798      2915      2913
 -1      1258    8    0    1
 -2       571       572       706      2507      2916      2917
 -1      1259    8    0    1
 -2       576       577       707      2522      2918      2919
 -1      1260    8    0    1
 -2       576       707       704      2919      2920      2911
 -1      1261    8    0    1
 -2       572       575       708      2516      2921      2922
 -1      1262    8    0    1
 -2       706       572       708      2916      2922      2923
 -1      1263    8    0    1
 -2       575       704       708      2912      2924      2921
 -1      1264    8    0    1
 -2       607       589       709      2620      2925      2926
 -1      1265    8    0    1
 -2       577       578       710      2525      2927      2928
 -1      1266    8    0    1
 -2       577       710       707      2928      2929      2918
 -1      1267    8    0    1
 -2       578       579       711      2528      2930      2931
 -1      1268    8    0    1
 -2       578       711       710      2931      2932      2927
 -1      1269    8    0    1
 -2       579       580       712      2531      2933      2934
 -1      1270    8    0    1
 -2       579       712       711      2934      2935      2930
 -1      1271    8    0    1
 -2       586       583       713      2547      2936      2937
 -1      1272    8    0    1
 -2       603       604       714      2590      2938      2939
 -1      1273    8    0    1
 -2       582       586       715      2635      2940      2941
 -1      1274    8    0    1
 -2       595       611       716      2636      2942      2943
 -1      1275    8    0    1
 -2       483       588       717      2552      2944      2945
 -1      1276    8    0    1
 -2       591       597       718      2646      2946      2947
 -1      1277    8    0    1
 -2       606       607       719      2637      2948      2949
 -1      1278    8    0    1
 -2       612       447       614      2628      2618      2950
 -1      1279    8    0    1
 -2       584       529       720      2541      2951      2952
 -1      1280    8    0    1
 -2       529       671       720      2808      2953      2951
 -1      1281    8    0    1
 -2       531       532       721      2387      2954      2955
 -1      1282    8    0    1
 -2       668       531       721      2800      2955      2956
 -1      1283    8    0    1
 -2       532       672       721      2811      2957      2954
 -1      1284    8    0    1
 -2       486       485       722      2250      2958      2959
 -1      1285    8    0    1
 -2       486       722       626      2959      2960      2675
 -1      1286    8    0    1
 -2       587       595       723      2640      2961      2962
 -1      1287    8    0    1
 -2       479       480       724      2234      2963      2964
 -1      1288    8    0    1
 -2       620       479       724      2660      2964      2965
 -1      1289    8    0    1
 -2       480       622       724      2666      2966      2963
 -1      1290    8    0    1
 -2       583       483       725      2619      2967      2968
 -1      1291    8    0    1
 -2       583       725       713      2968      2969      2936
 -1      1292    8    0    1
 -2       609       610       726      2629      2970      2971
 -1      1293    8    0    1
 -2       476       475       727      2223      2972      2973
 -1      1294    8    0    1
 -2       589       608       728      2641      2974      2975
 -1      1295    8    0    1
 -2       600       601       729      2652      2976      2977
 -1      1296    8    0    1
 -2       598       599       730      2578      2978      2979
 -1      1297    8    0    1
 -2       605       606       731      2653      2980      2981
 -1      1298    8    0    1
 -2       599       600       732      2645      2982      2983
 -1      1299    8    0    1
 -2       602       603       733      2587      2984      2985
 -1      1300    8    0    1
 -2       603       714       733      2939      2986      2984
 -1      1301    8    0    1
 -2       484       584       734      2639      2987      2988
 -1      1302    8    0    1
 -2       625       484       734      2672      2988      2989
 -1      1303    8    0    1
 -2       584       720       734      2952      2990      2987
 -1      1304    8    0    1
 -2       581       619       705      2656      2914      2991
 -1      1305    8    0    1
 -2       604       605       735      2638      2992      2993
 -1      1306    8    0    1
 -2       604       735       714      2993      2994      2938
 -1      1307    8    0    1
 -2       608       609       736      2601      2995      2996
 -1      1308    8    0    1
 -2       610       587       737      2604      2997      2998
 -1      1309    8    0    1
 -2       726       610       737      2970      2998      2999
 -1      1310    8    0    1
 -2       587       723       737      2962      3000      2997
 -1      1311    8    0    1
 -2       596       591       738      2615      3001      3002
 -1      1312    8    0    1
 -2       591       718       738      2947      3003      3001
 -1      1313    8    0    1
 -2       560       594       739      2891      3004      3005
 -1      1314    8    0    1
 -2       559       560       739      2471      3005      3006
 -1      1315    8    0    1
 -2       594       596       739      2571      3007      3004
 -1      1316    8    0    1
 -2       614       476       740      2616      3008      3009
 -1      1317    8    0    1
 -2       476       727       740      2973      3010      3008
 -1      1318    8    0    1
 -2       477       621       741      2663      3011      3012
 -1      1319    8    0    1
 -2       477       741       590      3012      3013      2558
 -1      1320    8    0    1
 -2       585       624       670      2671      3014      2805
 -1      1321    8    0    1
 -2       624       582       715      2670      2941      3015
 -1      1322    8    0    1
 -2       616       473       742      2625      3016      3017
 -1      1323    8    0    1
 -2       473       615       742      2623      3018      3016
 -1      1324    8    0    1
 -2       482       474       625      2674      2673      3019
 -1      1325    8    0    1
 -2       596       738       739      3002      3020      3007
 -1      1326    8    0    1
 -2       732       600       729      2982      2977      3021
 -1      1327    8    0    1
 -2       731       606       719      2980      2949      3022
 -1      1328    8    0    1
 -2       730       599       732      2978      2983      3023
 -1      1329    8    0    1
 -2       729       601       743      2976      3024      3025
 -1      1330    8    0    1
 -2       601       617       743      2643      3026      3024
 -1      1331    8    0    1
 -2       571       706       744      2917      3027      3028
 -1      1332    8    0    1
 -2       571       744       574      3028      3029      2513
 -1      1333    8    0    1
 -2       607       709       745      2926      3030      3031
 -1      1334    8    0    1
 -2       607       745       719      3031      3032      2948
 -1      1335    8    0    1
 -2       698       559       739      2887      3006      3033
 -1      1336    8    0    1
 -2       594       561       593      2890      2893      2647
 -1      1337    8    0    1
 -2       564       699       742      2897      3034      3035
 -1      1338    8    0    1
 -2       563       564       742      2483      3035      3036
 -1      1339    8    0    1
 -2       611       670       716      2806      3037      2942
 -1      1340    8    0    1
 -2       728       608       736      2974      2996      3038
 -1      1341    8    0    1
 -2       709       589       728      2925      2975      3039
 -1      1342    8    0    1
 -2       573       574       669      2512      3040      2802
 -1      1343    8    0    1
 -2       718       597       618      2946      2650      3041
 -1      1344    8    0    1
 -2       586       713       715      2937      3042      2940
 -1      1345    8    0    1
 -2       609       726       736      2971      3043      2995
 -1      1346    8    0    1
 -2       580       581       705      2534      2991      3044
 -1      1347    8    0    1
 -2       717       588       616      2944      2627      3045
 -1      1348    8    0    1
 -2       623       482       625      2667      3019      3046
 -1      1349    8    0    1
 -2       595       716       723      2943      3047      2961
 -1      1350    8    0    1
 -2       483       717       725      2945      3048      2967
 -1      1351    8    0    1
 -2       617       602       746      2644      3049      3050
 -1      1352    8    0    1
 -2       602       733       746      2985      3051      3049
 -1      1353    8    0    1
 -2       593       562       592      2892      3052      2648
 -1      1354    8    0    1
 -2       475       590       747      2557      3053      3054
 -1      1355    8    0    1
 -2       727       475       747      2972      3054      3055
 -1      1356    8    0    1
 -2       590       741       747      3013      3056      3053
 -1      1357    8    0    1
 -2       612       614       748      2950      3057      3058
 -1      1358    8    0    1
 -2       485       612       748      2609      3058      3059
 -1      1359    8    0    1
 -2       614       740       748      3009      3060      3057
 -1      1360    8    0    1
 -2       618       598       749      2651      3061      3062
 -1      1361    8    0    1
 -2       598       730       749      2979      3063      3061
 -1      1362    8    0    1
 -2       485       748       722      3059      3064      2958
 -1      1363    8    0    1
 -2       605       731       735      2981      3065      2992
 -1      1364    8    0    1
 -2       580       705       750      3044      3066      3067
 -1      1365    8    0    1
 -2       712       580       750      2933      3067      3068
 -1      1366    8    0    1
 -2       705       667       750      2915      3069      3066
 -1      1367    8    0    1
 -2       622       623       751      2669      3070      3071
 -1      1368    8    0    1
 -2       739       738       698      3020      3072      3033
 -1      1369    8    0    1
 -2       733       714       752      2986      3073      3074
 -1      1370    8    0    1
 -2       713       725       753      2969      3075      3076
 -1      1371    8    0    1
 -2       628       627       754      2682      3077      3078
 -1      1372    8    0    1
 -2       629       628       755      2685      3079      3080
 -1      1373    8    0    1
 -2       628       754       755      3078      3081      3079
 -1      1374    8    0    1
 -2       630       629       756      2688      3082      3083
 -1      1375    8    0    1
 -2       629       755       756      3080      3084      3082
 -1      1376    8    0    1
 -2       631       630       757      2691      3085      3086
 -1      1377    8    0    1
 -2       630       756       757      3083      3087      3085
 -1      1378    8    0    1
 -2       632       631       758      2694      3088      3089
 -1      1379    8    0    1
 -2       631       757       758      3086      3090      3088
 -1      1380    8    0    1
 -2       633       632       759      2697      3091      3092
 -1      1381    8    0    1
 -2       632       758       759      3089      3093      3091
 -1      1382    8    0    1
 -2       634       633       760      2700      3094      3095
 -1      1383    8    0    1
 -2       633       759       760      3092      3096      3094
 -1      1384    8    0    1
 -2       635       634       761      2703      3097      3098
 -1      1385    8    0    1
 -2       634       760       761      3095      3099      3097
 -1      1386    8    0    1
 -2       636       635       762      2706      3100      3101
 -1      1387    8    0    1
 -2       635       761       762      3098      3102      3100
 -1      1388    8    0    1
 -2       637       636       763      2709      3103      3104
 -1      1389    8    0    1
 -2       636       762       763      3101      3105      3103
 -1      1390    8    0    1
 -2       638       637       764      2712      3106      3107
 -1      1391    8    0    1
 -2       637       763       764      3104      3108      3106
 -1      1392    8    0    1
 -2       639       638       765      2715      3109      3110
 -1      1393    8    0    1
 -2       638       764       765      3107      3111      3109
 -1      1394    8    0    1
 -2       640       639       766      2718      3112      3113
 -1      1395    8    0    1
 -2       639       765       766      3110      3114      3112
 -1      1396    8    0    1
 -2       641       640       767      2721      3115      3116
 -1      1397    8    0    1
 -2       640       766       767      3113      3117      3115
 -1      1398    8    0    1
 -2       642       641       768      2724      3118      3119
 -1      1399    8    0    1
 -2       641       767       768      3116      3120      3118
 -1      1400    8    0    1
 -2       643       642       769      2727      3121      3122
 -1      1401    8    0    1
 -2       642       768       769      3119      3123      3121
 -1      1402    8    0    1
 -2       644       643       770      2730      3124      3125
 -1      1403    8    0    1
 -2       643       769       770      3122      3126      3124
 -1      1404    8    0    1
 -2       645       644       771      2733      3127      3128
 -1      1405    8    0    1
 -2       644       770       771      3125      3129      3127
 -1      1406    8    0    1
 -2       646       645       772      2736      3130      3131
 -1      1407    8    0    1
 -2       645       771       772      3128      3132      3130
 -1      1408    8    0    1
 -2       647       646       773      2739      3133      3134
 -1      1409    8    0    1
 -2       646       772       773      3131      3135      3133
 -1      1410    8    0    1
 -2       648       647       774      2742      3136      3137
 -1      1411    8    0    1
 -2       647       773       774      3134      3138      3136
 -1      1412    8    0    1
 -2       649       648       775      2745      3139      3140
 -1      1413    8    0    1
 -2       648       774       775      3137      3141      3139
 -1      1414    8    0    1
 -2       650       649       776      2748      3142      3143
 -1      1415    8    0    1
 -2       649       775       776      3140      3144      3142
 -1      1416    8    0    1
 -2       651       650       777      2751      3145      3146
 -1      1417    8    0    1
 -2       650       776       777      3143      3147      3145
 -1      1418    8    0    1
 -2       652       651       778      2754      3148      3149
 -1      1419    8    0    1
 -2       651       777       778      3146      3150      3148
 -1      1420    8    0    1
 -2       653       652       779      2757      3151      3152
 -1      1421    8    0    1
 -2       652       778       779      3149      3153      3151
 -1      1422    8    0    1
 -2       654       653       780      2760      3154      3155
 -1      1423    8    0    1
 -2       653       779       780      3152      3156      3154
 -1      1424    8    0    1
 -2       655       654       781      2763      3157      3158
 -1      1425    8    0    1
 -2       654       780       781      3155      3159      3157
 -1      1426    8    0    1
 -2       656       655       782      2766      3160      3161
 -1      1427    8    0    1
 -2       655       781       782      3158      3162      3160
 -1      1428    8    0    1
 -2       657       656       783      2769      3163      3164
 -1      1429    8    0    1
 -2       656       782       783      3161      3165      3163
 -1      1430    8    0    1
 -2       658       657       784      2772      3166      3167
 -1      1431    8    0    1
 -2       657       783       784      3164      3168      3166
 -1      1432    8    0    1
 -2       659       658       745      2775      3169      3170
 -1      1433    8    0    1
 -2       661       660       785      2781      3171      3172
 -1      1434    8    0    1
 -2       662       661       736      2784      3173      3174
 -1      1435    8    0    1
 -2       664       663       786      2790      3175      3176
 -1      1436    8    0    1
 -2       665       664       787      2793      3177      3178
 -1      1437    8    0    1
 -2       664       786       787      3176      3179      3177
 -1      1438    8    0    1
 -2       666       665       788      2796      3180      3181
 -1      1439    8    0    1
 -2       665       787       788      3178      3182      3180
 -1      1440    8    0    1
 -2       667       666       789      2799      3183      3184
 -1      1441    8    0    1
 -2       750       667       789      3069      3184      3185
 -1      1442    8    0    1
 -2       666       788       789      3181      3186      3183
 -1      1443    8    0    1
 -2       735       731       790      3065      3187      3188
 -1      1444    8    0    1
 -2       624       715       791      3015      3189      3190
 -1      1445    8    0    1
 -2       673       674       792      2817      3191      3192
 -1      1446    8    0    1
 -2       672       673       793      2814      3193      3194
 -1      1447    8    0    1
 -2       673       792       793      3192      3195      3193
 -1      1448    8    0    1
 -2       675       676       794      2823      3196      3197
 -1      1449    8    0    1
 -2       676       677       795      2826      3198      3199
 -1      1450    8    0    1
 -2       676       795       794      3199      3200      3196
 -1      1451    8    0    1
 -2       677       678       796      2829      3201      3202
 -1      1452    8    0    1
 -2       677       796       795      3202      3203      3198
 -1      1453    8    0    1
 -2       678       679       797      2832      3204      3205
 -1      1454    8    0    1
 -2       678       797       796      3205      3206      3201
 -1      1455    8    0    1
 -2       679       680       798      2835      3207      3208
 -1      1456    8    0    1
 -2       679       798       797      3208      3209      3204
 -1      1457    8    0    1
 -2       680       681       799      2838      3210      3211
 -1      1458    8    0    1
 -2       680       799       798      3211      3212      3207
 -1      1459    8    0    1
 -2       681       682       800      2841      3213      3214
 -1      1460    8    0    1
 -2       681       800       799      3214      3215      3210
 -1      1461    8    0    1
 -2       682       683       801      2844      3216      3217
 -1      1462    8    0    1
 -2       682       801       800      3217      3218      3213
 -1      1463    8    0    1
 -2       683       684       802      2847      3219      3220
 -1      1464    8    0    1
 -2       683       802       801      3220      3221      3216
 -1      1465    8    0    1
 -2       684       685       803      2850      3222      3223
 -1      1466    8    0    1
 -2       684       803       802      3223      3224      3219
 -1      1467    8    0    1
 -2       685       686       804      2853      3225      3226
 -1      1468    8    0    1
 -2       685       804       803      3226      3227      3222
 -1      1469    8    0    1
 -2       686       687       805      2856      3228      3229
 -1      1470    8    0    1
 -2       686       805       804      3229      3230      3225
 -1      1471    8    0    1
 -2       687       688       806      2859      3231      3232
 -1      1472    8    0    1
 -2       687       806       805      3232      3233      3228
 -1      1473    8    0    1
 -2       688       689       807      2862      3234      3235
 -1      1474    8    0    1
 -2       688       807       806      3235      3236      3231
 -1      1475    8    0    1
 -2       689       690       808      2865      3237      3238
 -1      1476    8    0    1
 -2       689       808       807      3238      3239      3234
 -1      1477    8    0    1
 -2       690       691       809      2868      3240      3241
 -1      1478    8    0    1
 -2       690       809       808      3241      3242      3237
 -1      1479    8    0    1
 -2       691       692       810      2871      3243      3244
 -1      1480    8    0    1
 -2       691       810       809      3244      3245      3240
 -1      1481    8    0    1
 -2       692       693       811      2874      3246      3247
 -1      1482    8    0    1
 -2       692       811       810      3247      3248      3243
 -1      1483    8    0    1
 -2       693       694       812      2877      3249      3250
 -1      1484    8    0    1
 -2       693       812       811      3250      3251      3246
 -1      1485    8    0    1
 -2       694       695       813      2880      3252      3253
 -1      1486    8    0    1
 -2       694       813       812      3253      3254      3249
 -1      1487    8    0    1
 -2       695       696       814      2883      3255      3256
 -1      1488    8    0    1
 -2       695       814       813      3256      3257      3252
 -1      1489    8    0    1
 -2       696       697       815      2886      3258      3259
 -1      1490    8    0    1
 -2       696       815       814      3259      3260      3255
 -1      1491    8    0    1
 -2       563       742       615      3036      3018      2894
 -1      1492    8    0    1
 -2       699       700       816      2900      3261      3262
 -1      1493    8    0    1
 -2       621       620       817      2664      3263      3264
 -1      1494    8    0    1
 -2       714       735       818      2994      3265      3266
 -1      1495    8    0    1
 -2       714       818       752      3266      3267      3073
 -1      1496    8    0    1
 -2       704       707       819      2920      3268      3269
 -1      1497    8    0    1
 -2       711       712       820      2935      3270      3271
 -1      1498    8    0    1
 -2       707       710       821      2929      3272      3273
 -1      1499    8    0    1
 -2       707       821       819      3273      3274      3268
 -1      1500    8    0    1
 -2       709       728       822      3039      3275      3276
 -1      1501    8    0    1
 -2       710       711       823      2932      3277      3278
 -1      1502    8    0    1
 -2       821       710       823      3272      3278      3279
 -1      1503    8    0    1
 -2       711       820       823      3271      3280      3277
 -1      1504    8    0    1
 -2       701       702       824      2906      3281      3282
 -1      1505    8    0    1
 -2       700       701       825      2903      3283      3284
 -1      1506    8    0    1
 -2       816       700       825      3261      3284      3285
 -1      1507    8    0    1
 -2       701       824       825      3282      3286      3283
 -1      1508    8    0    1
 -2       730       732       826      3023      3287      3288
 -1      1509    8    0    1
 -2       674       675       827      2820      3289      3290
 -1      1510    8    0    1
 -2       792       674       827      3191      3290      3291
 -1      1511    8    0    1
 -2       675       794       827      3197      3292      3289
 -1      1512    8    0    1
 -2       671       668       828      2809      3293      3294
 -1      1513    8    0    1
 -2       670       624       829      3014      3295      3296
 -1      1514    8    0    1
 -2       720       671       830      2953      3297      3298
 -1      1515    8    0    1
 -2       671       828       830      3294      3299      3297
 -1      1516    8    0    1
 -2       725       717       816      3048      3300      3301
 -1      1517    8    0    1
 -2       738       718       698      3003      3302      3072
 -1      1518    8    0    1
 -2       723       716       831      3047      3303      3304
 -1      1519    8    0    1
 -2       669       574       744      3040      3029      3305
 -1      1520    8    0    1
 -2       623       625       832      3046      3306      3307
 -1      1521    8    0    1
 -2       751       623       832      3070      3307      3308
 -1      1522    8    0    1
 -2       625       734       832      2989      3309      3306
 -1      1523    8    0    1
 -2       715       713       833      3042      3310      3311
 -1      1524    8    0    1
 -2       731       719       784      3022      3312      3313
 -1      1525    8    0    1
 -2       716       670       834      3037      3314      3315
 -1      1526    8    0    1
 -2       718       618       835      3041      3316      3317
 -1      1527    8    0    1
 -2       722       748       836      3064      3318      3319
 -1      1528    8    0    1
 -2       626       722       836      2960      3319      3320
 -1      1529    8    0    1
 -2       748       740       836      3060      3321      3318
 -1      1530    8    0    1
 -2       627       626       837      2679      3322      3323
 -1      1531    8    0    1
 -2       627       837       754      3323      3324      3077
 -1      1532    8    0    1
 -2       592       562       615      3052      2895      2624
 -1      1533    8    0    1
 -2       732       729       838      3021      3325      3326
 -1      1534    8    0    1
 -2       662       736       839      3174      3327      3328
 -1      1535    8    0    1
 -2       663       662       839      2787      3328      3329
 -1      1536    8    0    1
 -2       736       726       839      3043      3330      3327
 -1      1537    8    0    1
 -2       698       718       697      3302      3331      2889
 -1      1538    8    0    1
 -2       741       621       840      3011      3332      3333
 -1      1539    8    0    1
 -2       621       817       840      3264      3334      3332
 -1      1540    8    0    1
 -2       723       831       841      3304      3335      3336
 -1      1541    8    0    1
 -2       826       732       838      3287      3326      3337
 -1      1542    8    0    1
 -2       704       819       842      3269      3338      3339
 -1      1543    8    0    1
 -2       704       842       708      3339      3340      2924
 -1      1544    8    0    1
 -2       713       753       833      3076      3341      3310
 -1      1545    8    0    1
 -2       658       784       745      3167      3342      3169
 -1      1546    8    0    1
 -2       743       617       843      3026      3343      3344
 -1      1547    8    0    1
 -2       617       746       843      3050      3345      3343
 -1      1548    8    0    1
 -2       744       706       844      3027      3346      3347
 -1      1549    8    0    1
 -2       745       709       822      3030      3276      3348
 -1      1550    8    0    1
 -2       659       745       822      3170      3348      3349
 -1      1551    8    0    1
 -2       660       659       822      2778      3349      3350
 -1      1552    8    0    1
 -2       735       790       818      3188      3351      3265
 -1      1553    8    0    1
 -2       791       715       833      3189      3311      3352
 -1      1554    8    0    1
 -2       624       791       829      3190      3353      3295
 -1      1555    8    0    1
 -2       725       816       753      3301      3354      3075
 -1      1556    8    0    1
 -2       668       721       845      2956      3355      3356
 -1      1557    8    0    1
 -2       668       845       828      3356      3357      3293
 -1      1558    8    0    1
 -2       672       793       846      3194      3358      3359
 -1      1559    8    0    1
 -2       672       846       721      3359      3360      2957
 -1      1560    8    0    1
 -2       740       727       847      3010      3361      3362
 -1      1561    8    0    1
 -2       742       699       717      3034      3363      3364
 -1      1562    8    0    1
 -2       838       729       848      3325      3365      3366
 -1      1563    8    0    1
 -2       729       743       848      3025      3367      3365
 -1      1564    8    0    1
 -2       817       620       849      3263      3368      3369
 -1      1565    8    0    1
 -2       620       724       849      2965      3370      3368
 -1      1566    8    0    1
 -2       723       841       737      3336      3371      3000
 -1      1567    8    0    1
 -2       702       703       850      2909      3372      3373
 -1      1568    8    0    1
 -2       702       850       824      3373      3374      3281
 -1      1569    8    0    1
 -2       706       708       851      2923      3375      3376
 -1      1570    8    0    1
 -2       844       706       851      3346      3376      3377
 -1      1571    8    0    1
 -2       708       842       851      3340      3378      3375
 -1      1572    8    0    1
 -2       622       751       852      3071      3379      3380
 -1      1573    8    0    1
 -2       622       852       724      3380      3381      2966
 -1      1574    8    0    1
 -2       835       618       749      3316      3062      3382
 -1      1575    8    0    1
 -2       730       826       853      3288      3383      3384
 -1      1576    8    0    1
 -2       730       853       749      3384      3385      3063
 -1      1577    8    0    1
 -2       834       670       829      3314      3296      3386
 -1      1578    8    0    1
 -2       822       728       785      3275      3387      3388
 -1      1579    8    0    1
 -2       733       752       854      3074      3389      3390
 -1      1580    8    0    1
 -2       733       854       746      3390      3391      3051
 -1      1581    8    0    1
 -2       728       736       785      3038      3392      3387
 -1      1582    8    0    1
 -2       697       718       815      3331      3393      3258
 -1      1583    8    0    1
 -2       786       663       839      3175      3329      3394
 -1      1584    8    0    1
 -2       699       816       717      3262      3300      3363
 -1      1585    8    0    1
 -2       736       661       785      3173      3172      3392
 -1      1586    8    0    1
 -2       785       660       822      3171      3350      3388
 -1      1587    8    0    1
 -2       719       745       784      3032      3342      3312
 -1      1588    8    0    1
 -2       831       716       834      3303      3315      3395
 -1      1589    8    0    1
 -2       669       744       855      3305      3396      3397
 -1      1590    8    0    1
 -2       703       669       855      2910      3397      3398
 -1      1591    8    0    1
 -2       744       844       855      3347      3399      3396
 -1      1592    8    0    1
 -2       731       784       790      3313      3400      3187
 -1      1593    8    0    1
 -2       727       747       856      3055      3401      3402
 -1      1594    8    0    1
 -2       727       856       847      3402      3403      3361
 -1      1595    8    0    1
 -2       626       836       837      3320      3404      3322
 -1      1596    8    0    1
 -2       839       726       857      3330      3405      3406
 -1      1597    8    0    1
 -2       786       839       857      3394      3406      3407
 -1      1598    8    0    1
 -2       726       737       857      2999      3408      3405
 -1      1599    8    0    1
 -2       734       720       858      2990      3409      3410
 -1      1600    8    0    1
 -2       832       734       858      3309      3410      3411
 -1      1601    8    0    1
 -2       720       830       858      3298      3412      3409
 -1      1602    8    0    1
 -2       712       750       859      3068      3413      3414
 -1      1603    8    0    1
 -2       820       712       859      3270      3414      3415
 -1      1604    8    0    1
 -2       750       789       859      3185      3416      3413
 -1      1605    8    0    1
 -2       841       831       860      3335      3417      3418
 -1      1606    8    0    1
 -2       826       838       861      3337      3419      3420
 -1      1607    8    0    1
 -2       756       755       862      3084      3421      3422
 -1      1608    8    0    1
 -2       757       756       863      3087      3423      3424
 -1      1609    8    0    1
 -2       756       862       863      3422      3425      3423
 -1      1610    8    0    1
 -2       758       757       864      3090      3426      3427
 -1      1611    8    0    1
 -2       757       863       864      3424      3428      3426
 -1      1612    8    0    1
 -2       759       758       865      3093      3429      3430
 -1      1613    8    0    1
 -2       758       864       865      3427      3431      3429
 -1      1614    8    0    1
 -2       760       759       866      3096      3432      3433
 -1      1615    8    0    1
 -2       759       865       866      3430      3434      3432
 -1      1616    8    0    1
 -2       761       760       867      3099      3435      3436
 -1      1617    8    0    1
 -2       760       866       867      3433      3437      3435
 -1      1618    8    0    1
 -2       762       761       868      3102      3438      3439
 -1      1619    8    0    1
 -2       761       867       868      3436      3440      3438
 -1      1620    8    0    1
 -2       763       762       869      3105      3441      3442
 -1      1621    8    0    1
 -2       762       868       869      3439      3443      3441
 -1      1622    8    0    1
 -2       764       763       870      3108      3444      3445
 -1      1623    8    0    1
 -2       763       869       870      3442      3446      3444
 -1      1624    8    0    1
 -2       765       764       871      3111      3447      3448
 -1      1625    8    0    1
 -2       764       870       871      3445      3449      3447
 -1      1626    8    0    1
 -2       766       765       872      3114      3450      3451
 -1      1627    8    0    1
 -2       765       871       872      3448      3452      3450
 -1      1628    8    0    1
 -2       767       766       873      3117      3453      3454
 -1      1629    8    0    1
 -2       766       872       873      3451      3455      3453
 -1      1630    8    0    1
 -2       768       767       874      3120      3456      3457
 -1      1631    8    0    1
 -2       767       873       874      3454      3458      3456
 -1      1632    8    0    1
 -2       769       768       875      3123      3459      3460
 -1      1633    8    0    1
 -2       768       874       875      3457      3461      3459
 -1      1634    8    0    1
 -2       770       769       876      3126      3462      3463
 -1      1635    8    0    1
 -2       769       875       876      3460      3464      3462
 -1      1636    8    0    1
 -2       771       770       877      3129      3465      3466
 -1      1637    8    0    1
 -2       770       876       877      3463      3467      3465
 -1      1638    8    0    1
 -2       772       771       878      3132      3468      3469
 -1      1639    8    0    1
 -2       771       877       878      3466      3470      3468
 -1      1640    8    0    1
 -2       773       772       879      3135      3471      3472
 -1      1641    8    0    1
 -2       772       878       879      3469      3473      3471
 -1      1642    8    0    1
 -2       774       773       880      3138      3474      3475
 -1      1643    8    0    1
 -2       773       879       880      3472      3476      3474
 -1      1644    8    0    1
 -2       775       774       881      3141      3477      3478
 -1      1645    8    0    1
 -2       774       880       881      3475      3479      3477
 -1      1646    8    0    1
 -2       776       775       882      3144      3480      3481
 -1      1647    8    0    1
 -2       775       881       882      3478      3482      3480
 -1      1648    8    0    1
 -2       777       776       883      3147      3483      3484
 -1      1649    8    0    1
 -2       776       882       883      3481      3485      3483
 -1      1650    8    0    1
 -2       778       777       884      3150      3486      3487
 -1      1651    8    0    1
 -2       777       883       884      3484      3488      3486
 -1      1652    8    0    1
 -2       779       778       885      3153      3489      3490
 -1      1653    8    0    1
 -2       778       884       885      3487      3491      3489
 -1      1654    8    0    1
 -2       780       779       886      3156      3492      3493
 -1      1655    8    0    1
 -2       779       885       886      3490      3494      3492
 -1      1656    8    0    1
 -2       781       780       887      3159      3495      3496
 -1      1657    8    0    1
 -2       780       886       887      3493      3497      3495
 -1      1658    8    0    1
 -2       782       781       888      3162      3498      3499
 -1      1659    8    0    1
 -2       781       887       888      3496      3500      3498
 -1      1660    8    0    1
 -2       784       783       790      3168      3501      3400
 -1      1661    8    0    1
 -2       788       787       889      3182      3502      3503
 -1      1662    8    0    1
 -2       837       836       890      3404      3504      3505
 -1      1663    8    0    1
 -2       795       796       891      3203      3506      3507
 -1      1664    8    0    1
 -2       794       795       892      3200      3508      3509
 -1      1665    8    0    1
 -2       795       891       892      3507      3510      3508
 -1      1666    8    0    1
 -2       797       798       893      3209      3511      3512
 -1      1667    8    0    1
 -2       798       799       894      3212      3513      3514
 -1      1668    8    0    1
 -2       798       894       893      3514      3515      3511
 -1      1669    8    0    1
 -2       799       800       895      3215      3516      3517
 -1      1670    8    0    1
 -2       799       895       894      3517      3518      3513
 -1      1671    8    0    1
 -2       800       801       896      3218      3519      3520
 -1      1672    8    0    1
 -2       800       896       895      3520      3521      3516
 -1      1673    8    0    1
 -2       801       802       897      3221      3522      3523
 -1      1674    8    0    1
 -2       801       897       896      3523      3524      3519
 -1      1675    8    0    1
 -2       802       803       898      3224      3525      3526
 -1      1676    8    0    1
 -2       802       898       897      3526      3527      3522
 -1      1677    8    0    1
 -2       803       804       899      3227      3528      3529
 -1      1678    8    0    1
 -2       803       899       898      3529      3530      3525
 -1      1679    8    0    1
 -2       804       805       900      3230      3531      3532
 -1      1680    8    0    1
 -2       804       900       899      3532      3533      3528
 -1      1681    8    0    1
 -2       805       806       901      3233      3534      3535
 -1      1682    8    0    1
 -2       805       901       900      3535      3536      3531
 -1      1683    8    0    1
 -2       806       807       902      3236      3537      3538
 -1      1684    8    0    1
 -2       806       902       901      3538      3539      3534
 -1      1685    8    0    1
 -2       807       808       903      3239      3540      3541
 -1      1686    8    0    1
 -2       807       903       902      3541      3542      3537
 -1      1687    8    0    1
 -2       808       809       904      3242      3543      3544
 -1      1688    8    0    1
 -2       808       904       903      3544      3545      3540
 -1      1689    8    0    1
 -2       809       810       905      3245      3546      3547
 -1      1690    8    0    1
 -2       809       905       904      3547      3548      3543
 -1      1691    8    0    1
 -2       810       811       906      3248      3549      3550
 -1      1692    8    0    1
 -2       810       906       905      3550      3551      3546
 -1      1693    8    0    1
 -2       811       812       907      3251      3552      3553
 -1      1694    8    0    1
 -2       811       907       906      3553      3554      3549
 -1      1695    8    0    1
 -2       812       813       908      3254      3555      3556
 -1      1696    8    0    1
 -2       812       908       907      3556      3557      3552
 -1      1697    8    0    1
 -2       813       814       909      3257      3558      3559
 -1      1698    8    0    1
 -2       813       909       908      3559      3560      3555
 -1      1699    8    0    1
 -2       814       815       853      3260      3561      3562
 -1      1700    8    0    1
 -2       791       833       910      3352      3563      3564
 -1      1701    8    0    1
 -2       752       818       911      3267      3565      3566
 -1      1702    8    0    1
 -2       818       790       912      3351      3567      3568
 -1      1703    8    0    1
 -2       911       818       912      3565      3568      3569
 -1      1704    8    0    1
 -2       790       783       912      3501      3570      3567
 -1      1705    8    0    1
 -2       833       753       913      3341      3571      3572
 -1      1706    8    0    1
 -2       819       821       914      3274      3573      3574
 -1      1707    8    0    1
 -2       830       828       915      3299      3575      3576
 -1      1708    8    0    1
 -2       796       797       916      3206      3577      3578
 -1      1709    8    0    1
 -2       891       796       916      3506      3578      3579
 -1      1710    8    0    1
 -2       797       893       916      3512      3580      3577
 -1      1711    8    0    1
 -2       793       792       917      3195      3581      3582
 -1      1712    8    0    1
 -2       829       791       918      3353      3583      3584
 -1      1713    8    0    1
 -2       791       910       918      3564      3585      3583
 -1      1714    8    0    1
 -2       787       786       919      3179      3586      3587
 -1      1715    8    0    1
 -2       889       787       919      3502      3587      3588
 -1      1716    8    0    1
 -2       786       857       919      3407      3589      3586
 -1      1717    8    0    1
 -2       747       741       920      3056      3590      3591
 -1      1718    8    0    1
 -2       747       920       856      3591      3592      3401
 -1      1719    8    0    1
 -2       753       816       825      3354      3285      3593
 -1      1720    8    0    1
 -2       737       841       857      3371      3594      3408
 -1      1721    8    0    1
 -2       754       837       921      3324      3595      3596
 -1      1722    8    0    1
 -2       755       754       922      3081      3597      3598
 -1      1723    8    0    1
 -2       755       922       862      3598      3599      3421
 -1      1724    8    0    1
 -2       831       834       923      3395      3600      3601
 -1      1725    8    0    1
 -2       831       923       860      3601      3602      3417
 -1      1726    8    0    1
 -2       834       829       924      3386      3603      3604
 -1      1727    8    0    1
 -2       826       861       925      3420      3605      3606
 -1      1728    8    0    1
 -2       826       925       853      3606      3607      3383
 -1      1729    8    0    1
 -2       842       819       918      3338      3608      3609
 -1      1730    8    0    1
 -2       724       852       849      3381      3610      3370
 -1      1731    8    0    1
 -2       843       746       926      3345      3611      3612
 -1      1732    8    0    1
 -2       746       854       926      3391      3613      3611
 -1      1733    8    0    1
 -2       852       751       927      3379      3614      3615
 -1      1734    8    0    1
 -2       915       828       928      3575      3616      3617
 -1      1735    8    0    1
 -2       828       845       928      3357      3618      3616
 -1      1736    8    0    1
 -2       833       913       910      3572      3619      3563
 -1      1737    8    0    1
 -2       783       782       912      3165      3620      3570
 -1      1738    8    0    1
 -2       920       741       840      3590      3333      3621
 -1      1739    8    0    1
 -2       743       843       929      3344      3622      3623
 -1      1740    8    0    1
 -2       743       929       848      3623      3624      3367
 -1      1741    8    0    1
 -2       841       860       919      3418      3625      3626
 -1      1742    8    0    1
 -2       837       890       921      3505      3627      3595
 -1      1743    8    0    1
 -2       789       788       930      3186      3628      3629
 -1      1744    8    0    1
 -2       859       789       930      3416      3629      3630
 -1      1745    8    0    1
 -2       788       889       930      3503      3631      3628
 -1      1746    8    0    1
 -2       841       919       857      3626      3589      3594
 -1      1747    8    0    1
 -2       845       721       846      3355      3360      3632
 -1      1748    8    0    1
 -2       846       793       931      3358      3633      3634
 -1      1749    8    0    1
 -2       793       917       931      3582      3635      3633
 -1      1750    8    0    1
 -2       794       892       932      3509      3636      3637
 -1      1751    8    0    1
 -2       794       932       827      3637      3638      3292
 -1      1752    8    0    1
 -2       752       911       933      3566      3639      3640
 -1      1753    8    0    1
 -2       752       933       854      3640      3641      3389
 -1      1754    8    0    1
 -2       858       830       934      3412      3642      3643
 -1      1755    8    0    1
 -2       830       915       934      3576      3644      3642
 -1      1756    8    0    1
 -2       834       924       923      3604      3645      3600
 -1      1757    8    0    1
 -2       742       717       616      3364      3045      3017
 -1      1758    8    0    1
 -2       838       848       935      3366      3646      3647
 -1      1759    8    0    1
 -2       838       935       861      3647      3648      3419
 -1      1760    8    0    1
 -2       850       703       855      3372      3398      3649
 -1      1761    8    0    1
 -2       836       740       847      3321      3362      3650
 -1      1762    8    0    1
 -2       819       914       918      3574      3651      3608
 -1      1763    8    0    1
 -2       844       851       910      3377      3652      3653
 -1      1764    8    0    1
 -2       829       918       924      3584      3654      3603
 -1      1765    8    0    1
 -2       825       824       913      3286      3655      3656
 -1      1766    8    0    1
 -2       792       827       936      3291      3657      3658
 -1      1767    8    0    1
 -2       917       792       936      3581      3658      3659
 -1      1768    8    0    1
 -2       827       932       936      3638      3660      3657
 -1      1769    8    0    1
 -2       922       754       921      3597      3596      3661
 -1      1770    8    0    1
 -2       820       859       930      3415      3630      3662
 -1      1771    8    0    1
 -2       913       753       825      3571      3593      3656
 -1      1772    8    0    1
 -2       840       817       937      3334      3663      3664
 -1      1773    8    0    1
 -2       855       844       913      3399      3665      3666
 -1      1774    8    0    1
 -2       937       817       938      3663      3667      3668
 -1      1775    8    0    1
 -2       817       849       938      3369      3669      3667
 -1      1776    8    0    1
 -2       844       910       913      3653      3619      3665
 -1      1777    8    0    1
 -2       836       847       890      3650      3670      3504
 -1      1778    8    0    1
 -2       820       930       939      3662      3671      3672
 -1      1779    8    0    1
 -2       820       939       823      3672      3673      3280
 -1      1780    8    0    1
 -2       847       856       940      3403      3674      3675
 -1      1781    8    0    1
 -2       847       940       890      3675      3676      3670
 -1      1782    8    0    1
 -2       782       888       912      3499      3677      3620
 -1      1783    8    0    1
 -2       849       852       941      3610      3678      3679
 -1      1784    8    0    1
 -2       938       849       941      3669      3679      3680
 -1      1785    8    0    1
 -2       852       927       941      3615      3681      3678
 -1      1786    8    0    1
 -2       927       751       858      3614      3682      3683
 -1      1787    8    0    1
 -2       864       863       942      3428      3684      3685
 -1      1788    8    0    1
 -2       865       864       943      3431      3686      3687
 -1      1789    8    0    1
 -2       864       942       943      3685      3688      3686
 -1      1790    8    0    1
 -2       866       865       944      3434      3689      3690
 -1      1791    8    0    1
 -2       865       943       944      3687      3691      3689
 -1      1792    8    0    1
 -2       867       866       945      3437      3692      3693
 -1      1793    8    0    1
 -2       866       944       945      3690      3694      3692
 -1      1794    8    0    1
 -2       868       867       946      3440      3695      3696
 -1      1795    8    0    1
 -2       867       945       946      3693      3697      3695
 -1      1796    8    0    1
 -2       869       868       947      3443      3698      3699
 -1      1797    8    0    1
 -2       868       946       947      3696      3700      3698
 -1      1798    8    0    1
 -2       870       869       948      3446      3701      3702
 -1      1799    8    0    1
 -2       869       947       948      3699      3703      3701
 -1      1800    8    0    1
 -2       871       870       949      3449      3704      3705
 -1      1801    8    0    1
 -2       870       948       949      3702      3706      3704
 -1      1802    8    0    1
 -2       872       871       950      3452      3707      3708
 -1      1803    8    0    1
 -2       871       949       950      3705      3709      3707
 -1      1804    8    0    1
 -2       873       872       951      3455      3710      3711
 -1      1805    8    0    1
 -2       872       950       951      3708      3712      3710
 -1      1806    8    0    1
 -2       874       873       952      3458      3713      3714
 -1      1807    8    0    1
 -2       873       951       952      3711      3715      3713
 -1      1808    8    0    1
 -2       875       874       953      3461      3716      3717
 -1      1809    8    0    1
 -2       874       952       953      3714      3718      3716
 -1      1810    8    0    1
 -2       876       875       954      3464      3719      3720
 -1      1811    8    0    1
 -2       875       953       954      3717      3721      3719
 -1      1812    8    0    1
 -2       877       876       955      3467      3722      3723
 -1      1813    8    0    1
 -2       876       954       955      3720      3724      3722
 -1      1814    8    0    1
 -2       878       877       956      3470      3725      3726
 -1      1815    8    0    1
 -2       877       955       956      3723      3727      3725
 -1      1816    8    0    1
 -2       879       878       957      3473      3728      3729
 -1      1817    8    0    1
 -2       878       956       957      3726      3730      3728
 -1      1818    8    0    1
 -2       880       879       958      3476      3731      3732
 -1      1819    8    0    1
 -2       879       957       958      3729      3733      3731
 -1      1820    8    0    1
 -2       881       880       959      3479      3734      3735
 -1      1821    8    0    1
 -2       880       958       959      3732      3736      3734
 -1      1822    8    0    1
 -2       882       881       960      3482      3737      3738
 -1      1823    8    0    1
 -2       881       959       960      3735      3739      3737
 -1      1824    8    0    1
 -2       883       882       961      3485      3740      3741
 -1      1825    8    0    1
 -2       882       960       961      3738      3742      3740
 -1      1826    8    0    1
 -2       884       883       962      3488      3743      3744
 -1      1827    8    0    1
 -2       883       961       962      3741      3745      3743
 -1      1828    8    0    1
 -2       885       884       963      3491      3746      3747
 -1      1829    8    0    1
 -2       884       962       963      3744      3748      3746
 -1      1830    8    0    1
 -2       886       885       964      3494      3749      3750
 -1      1831    8    0    1
 -2       885       963       964      3747      3751      3749
 -1      1832    8    0    1
 -2       887       886       965      3497      3752      3753
 -1      1833    8    0    1
 -2       886       964       965      3750      3754      3752
 -1      1834    8    0    1
 -2       919       860       889      3625      3755      3588
 -1      1835    8    0    1
 -2       921       890       940      3627      3676      3756
 -1      1836    8    0    1
 -2       930       889       939      3631      3757      3671
 -1      1837    8    0    1
 -2       922       921       966      3661      3758      3759
 -1      1838    8    0    1
 -2       894       895       967      3518      3760      3761
 -1      1839    8    0    1
 -2       893       894       968      3515      3762      3763
 -1      1840    8    0    1
 -2       894       967       968      3761      3764      3762
 -1      1841    8    0    1
 -2       896       897       969      3524      3765      3766
 -1      1842    8    0    1
 -2       897       898       970      3527      3767      3768
 -1      1843    8    0    1
 -2       897       970       969      3768      3769      3765
 -1      1844    8    0    1
 -2       898       899       971      3530      3770      3771
 -1      1845    8    0    1
 -2       898       971       970      3771      3772      3767
 -1      1846    8    0    1
 -2       899       900       972      3533      3773      3774
 -1      1847    8    0    1
 -2       899       972       971      3774      3775      3770
 -1      1848    8    0    1
 -2       900       901       973      3536      3776      3777
 -1      1849    8    0    1
 -2       900       973       972      3777      3778      3773
 -1      1850    8    0    1
 -2       901       902       974      3539      3779      3780
 -1      1851    8    0    1
 -2       901       974       973      3780      3781      3776
 -1      1852    8    0    1
 -2       902       903       975      3542      3782      3783
 -1      1853    8    0    1
 -2       902       975       974      3783      3784      3779
 -1      1854    8    0    1
 -2       903       904       976      3545      3785      3786
 -1      1855    8    0    1
 -2       903       976       975      3786      3787      3782
 -1      1856    8    0    1
 -2       904       905       977      3548      3788      3789
 -1      1857    8    0    1
 -2       904       977       976      3789      3790      3785
 -1      1858    8    0    1
 -2       905       906       978      3551      3791      3792
 -1      1859    8    0    1
 -2       905       978       977      3792      3793      3788
 -1      1860    8    0    1
 -2       906       907       979      3554      3794      3795
 -1      1861    8    0    1
 -2       906       979       978      3795      3796      3791
 -1      1862    8    0    1
 -2       907       908       980      3557      3797      3798
 -1      1863    8    0    1
 -2       907       980       979      3798      3799      3794
 -1      1864    8    0    1
 -2       814       853       909      3562      3800      3558
 -1      1865    8    0    1
 -2       853       815       749      3561      3801      3385
 -1      1866    8    0    1
 -2       851       842       918      3378      3609      3802
 -1      1867    8    0    1
 -2       892       891       981      3510      3803      3804
 -1      1868    8    0    1
 -2       914       821       982      3573      3805      3806
 -1      1869    8    0    1
 -2       910       851       918      3652      3802      3585
 -1      1870    8    0    1
 -2       815       718       835      3393      3317      3807
 -1      1871    8    0    1
 -2       923       924       982      3645      3808      3809
 -1      1872    8    0    1
 -2       927       858       934      3683      3643      3810
 -1      1873    8    0    1
 -2       982       821       823      3805      3279      3811
 -1      1874    8    0    1
 -2       889       860       939      3755      3812      3757
 -1      1875    8    0    1
 -2       909       853       925      3800      3607      3813
 -1      1876    8    0    1
 -2       982       823       939      3811      3673      3814
 -1      1877    8    0    1
 -2       913       824       850      3655      3374      3815
 -1      1878    8    0    1
 -2       845       846       983      3632      3816      3817
 -1      1879    8    0    1
 -2       845       983       928      3817      3818      3618
 -1      1880    8    0    1
 -2       920       840       984      3621      3819      3820
 -1      1881    8    0    1
 -2       840       937       984      3664      3821      3819
 -1      1882    8    0    1
 -2       858       751       832      3682      3308      3411
 -1      1883    8    0    1
 -2       862       922       985      3599      3822      3823
 -1      1884    8    0    1
 -2       922       966       985      3759      3824      3822
 -1      1885    8    0    1
 -2       895       896       986      3521      3825      3826
 -1      1886    8    0    1
 -2       896       969       986      3766      3827      3825
 -1      1887    8    0    1
 -2       923       982       860      3809      3828      3602
 -1      1888    8    0    1
 -2       863       862       987      3425      3829      3830
 -1      1889    8    0    1
 -2       942       863       987      3684      3830      3831
 -1      1890    8    0    1
 -2       862       985       987      3823      3832      3829
 -1      1891    8    0    1
 -2       856       920       988      3592      3833      3834
 -1      1892    8    0    1
 -2       920       984       988      3820      3835      3833
 -1      1893    8    0    1
 -2       860       982       939      3828      3814      3812
 -1      1894    8    0    1
 -2       941       927       989      3681      3836      3837
 -1      1895    8    0    1
 -2       927       934       989      3810      3838      3836
 -1      1896    8    0    1
 -2       915       928       990      3617      3839      3840
 -1      1897    8    0    1
 -2       887       965       933      3753      3841      3842
 -1      1898    8    0    1
 -2       888       887       933      3500      3842      3843
 -1      1899    8    0    1
 -2       929       843       926      3622      3612      3844
 -1      1900    8    0    1
 -2       967       895       986      3760      3826      3845
 -1      1901    8    0    1
 -2       966       921       940      3758      3756      3846
 -1      1902    8    0    1
 -2       931       917       991      3635      3847      3848
 -1      1903    8    0    1
 -2       932       892       992      3636      3849      3850
 -1      1904    8    0    1
 -2       892       981       992      3804      3851      3849
 -1      1905    8    0    1
 -2       893       968       993      3763      3852      3853
 -1      1906    8    0    1
 -2       893       993       916      3853      3854      3580
 -1      1907    8    0    1
 -2       908       909       994      3560      3855      3856
 -1      1908    8    0    1
 -2       749       815       835      3801      3807      3382
 -1      1909    8    0    1
 -2       934       915       989      3644      3857      3838
 -1      1910    8    0    1
 -2       848       929       995      3624      3858      3859
 -1      1911    8    0    1
 -2       848       995       935      3859      3860      3646
 -1      1912    8    0    1
 -2       981       891       996      3803      3861      3862
 -1      1913    8    0    1
 -2       891       916       996      3579      3863      3861
 -1      1914    8    0    1
 -2       911       912       888      3569      3677      3864
 -1      1915    8    0    1
 -2       915       990       989      3840      3865      3857
 -1      1916    8    0    1
 -2       991       917       997      3847      3866      3867
 -1      1917    8    0    1
 -2       917       936       997      3659      3868      3866
 -1      1918    8    0    1
 -2       994       909       925      3855      3813      3869
 -1      1919    8    0    1
 -2       924       918       914      3654      3651      3870
 -1      1920    8    0    1
 -2       983       846       931      3816      3634      3871
 -1      1921    8    0    1
 -2       984       937       998      3821      3872      3873
 -1      1922    8    0    1
 -2       854       933       999      3641      3874      3875
 -1      1923    8    0    1
 -2       926       854       999      3613      3875      3876
 -1      1924    8    0    1
 -2       933       965       999      3841      3877      3874
 -1      1925    8    0    1
 -2       925       861      1000      3605      3878      3879
 -1      1926    8    0    1
 -2       925      1000       994      3879      3880      3869
 -1      1927    8    0    1
 -2       908       994       980      3856      3881      3797
 -1      1928    8    0    1
 -2       937       938      1001      3668      3882      3883
 -1      1929    8    0    1
 -2       937      1001       998      3883      3884      3872
 -1      1930    8    0    1
 -2       940       856       988      3674      3834      3885
 -1      1931    8    0    1
 -2      1000       861       935      3878      3648      3886
 -1      1932    8    0    1
 -2       990       928      1002      3839      3887      3888
 -1      1933    8    0    1
 -2       928       983      1002      3818      3889      3887
 -1      1934    8    0    1
 -2       988       984      1003      3835      3890      3891
 -1      1935    8    0    1
 -2       984       998      1003      3873      3892      3890
 -1      1936    8    0    1
 -2       929       926      1004      3844      3893      3894
 -1      1937    8    0    1
 -2       944       943      1005      3691      3895      3896
 -1      1938    8    0    1
 -2       945       944      1006      3694      3897      3898
 -1      1939    8    0    1
 -2       944      1005      1006      3896      3899      3897
 -1      1940    8    0    1
 -2       946       945      1007      3697      3900      3901
 -1      1941    8    0    1
 -2       945      1006      1007      3898      3902      3900
 -1      1942    8    0    1
 -2       947       946      1008      3700      3903      3904
 -1      1943    8    0    1
 -2       946      1007      1008      3901      3905      3903
 -1      1944    8    0    1
 -2       948       947      1009      3703      3906      3907
 -1      1945    8    0    1
 -2       947      1008      1009      3904      3908      3906
 -1      1946    8    0    1
 -2       949       948      1010      3706      3909      3910
 -1      1947    8    0    1
 -2       948      1009      1010      3907      3911      3909
 -1      1948    8    0    1
 -2       950       949      1011      3709      3912      3913
 -1      1949    8    0    1
 -2       949      1010      1011      3910      3914      3912
 -1      1950    8    0    1
 -2       951       950      1012      3712      3915      3916
 -1      1951    8    0    1
 -2       950      1011      1012      3913      3917      3915
 -1      1952    8    0    1
 -2       952       951      1013      3715      3918      3919
 -1      1953    8    0    1
 -2       951      1012      1013      3916      3920      3918
 -1      1954    8    0    1
 -2       953       952      1014      3718      3921      3922
 -1      1955    8    0    1
 -2       952      1013      1014      3919      3923      3921
 -1      1956    8    0    1
 -2       954       953      1015      3721      3924      3925
 -1      1957    8    0    1
 -2       953      1014      1015      3922      3926      3924
 -1      1958    8    0    1
 -2       955       954      1016      3724      3927      3928
 -1      1959    8    0    1
 -2       954      1015      1016      3925      3929      3927
 -1      1960    8    0    1
 -2       956       955      1017      3727      3930      3931
 -1      1961    8    0    1
 -2       955      1016      1017      3928      3932      3930
 -1      1962    8    0    1
 -2       957       956      1018      3730      3933      3934
 -1      1963    8    0    1
 -2       956      1017      1018      3931      3935      3933
 -1      1964    8    0    1
 -2       958       957      1019      3733      3936      3937
 -1      1965    8    0    1
 -2       957      1018      1019      3934      3938      3936
 -1      1966    8    0    1
 -2       959       958      1020      3736      3939      3940
 -1      1967    8    0    1
 -2       958      1019      1020      3937      3941      3939
 -1      1968    8    0    1
 -2       960       959      1021      3739      3942      3943
 -1      1969    8    0    1
 -2       959      1020      1021      3940      3944      3942
 -1      1970    8    0    1
 -2       961       960      1022      3742      3945      3946
 -1      1971    8    0    1
 -2       960      1021      1022      3943      3947      3945
 -1      1972    8    0    1
 -2       962       961      1023      3745      3948      3949
 -1      1973    8    0    1
 -2       961      1022      1023      3946      3950      3948
 -1      1974    8    0    1
 -2       963       962      1024      3748      3951      3952
 -1      1975    8    0    1
 -2       962      1023      1024      3949      3953      3951
 -1      1976    8    0    1
 -2       964       963      1025      3751      3954      3955
 -1      1977    8    0    1
 -2       963      1024      1025      3952      3956      3954
 -1      1978    8    0    1
 -2       965       964      1026      3754      3957      3958
 -1      1979    8    0    1
 -2       999       965      1026      3877      3958      3959
 -1      1980    8    0    1
 -2       964      1025      1026      3955      3960      3957
 -1      1981    8    0    1
 -2       971       972      1027      3775      3961      3962
 -1      1982    8    0    1
 -2       968       967      1028      3764      3963      3964
 -1      1983    8    0    1
 -2       994      1000      1029      3880      3965      3966
 -1      1984    8    0    1
 -2       994      1029       980      3966      3967      3881
 -1      1985    8    0    1
 -2       970       971      1030      3772      3968      3969
 -1      1986    8    0    1
 -2       971      1027      1030      3962      3970      3968
 -1      1987    8    0    1
 -2       969       970      1031      3769      3971      3972
 -1      1988    8    0    1
 -2       970      1030      1031      3969      3973      3971
 -1      1989    8    0    1
 -2       972       973      1032      3778      3974      3975
 -1      1990    8    0    1
 -2       972      1032      1027      3975      3976      3961
 -1      1991    8    0    1
 -2       973       974      1033      3781      3977      3978
 -1      1992    8    0    1
 -2       973      1033      1032      3978      3979      3974
 -1      1993    8    0    1
 -2       974       975      1034      3784      3980      3981
 -1      1994    8    0    1
 -2       974      1034      1033      3981      3982      3977
 -1      1995    8    0    1
 -2       975       976      1035      3787      3983      3984
 -1      1996    8    0    1
 -2       975      1035      1034      3984      3985      3980
 -1      1997    8    0    1
 -2       976       977      1036      3790      3986      3987
 -1      1998    8    0    1
 -2       976      1036      1035      3987      3988      3983
 -1      1999    8    0    1
 -2       977       978      1037      3793      3989      3990
 -1      2000    8    0    1
 -2       977      1037      1036      3990      3991      3986
 -1      2001    8    0    1
 -2       978       979      1038      3796      3992      3993
 -1      2002    8    0    1
 -2       978      1038      1037      3993      3994      3989
 -1      2003    8    0    1
 -2       979       980      1039      3799      3995      3996
 -1      2004    8    0    1
 -2      1038       979      1039      3992      3996      3997
 -1      2005    8    0    1
 -2       980      1029      1039      3967      3998      3995
 -1      2006    8    0    1
 -2       931       991      1040      3848      3999      4000
 -1      2007    8    0    1
 -2       931      1040       983      4000      4001      3871
 -1      2008    8    0    1
 -2       967       986      1041      3845      4002      4003
 -1      2009    8    0    1
 -2       967      1041      1028      4003      4004      3963
 -1      2010    8    0    1
 -2       914       982       924      3806      3808      3870
 -1      2011    8    0    1
 -2       936       932      1042      3660      4005      4006
 -1      2012    8    0    1
 -2       997       936      1042      3868      4006      4007
 -1      2013    8    0    1
 -2       932       992      1042      3850      4008      4005
 -1      2014    8    0    1
 -2       911       888       933      3864      3843      3639
 -1      2015    8    0    1
 -2       938       941      1043      3680      4009      4010
 -1      2016    8    0    1
 -2      1001       938      1043      3882      4010      4011
 -1      2017    8    0    1
 -2       941       989      1043      3837      4012      4009
 -1      2018    8    0    1
 -2       989       990      1043      3865      4013      4012
 -1      2019    8    0    1
 -2       986       969      1044      3827      4014      4015
 -1      2020    8    0    1
 -2       986      1044      1041      4015      4016      4002
 -1      2021    8    0    1
 -2       943       942      1045      3688      4017      4018
 -1      2022    8    0    1
 -2       943      1045      1005      4018      4019      3895
 -1      2023    8    0    1
 -2       985       966      1046      3824      4020      4021
 -1      2024    8    0    1
 -2      1000       935      1047      3886      4022      4023
 -1      2025    8    0    1
 -2      1000      1047      1029      4023      4024      3965
 -1      2026    8    0    1
 -2      1003       998      1048      3892      4025      4026
 -1      2027    8    0    1
 -2      1004       926       999      3893      3876      4027
 -1      2028    8    0    1
 -2      1002       983      1040      3889      4001      4028
 -1      2029    8    0    1
 -2       969      1031      1044      3972      4029      4014
 -1      2030    8    0    1
 -2       968      1028      1049      3964      4030      4031
 -1      2031    8    0    1
 -2       968      1049       993      4031      4032      3852
 -1      2032    8    0    1
 -2       913       850       855      3815      3649      3666
 -1      2033    8    0    1
 -2       992       981      1050      3851      4033      4034
 -1      2034    8    0    1
 -2      1040       991      1051      3999      4035      4036
 -1      2035    8    0    1
 -2       998      1001      1052      3884      4037      4038
 -1      2036    8    0    1
 -2       998      1052      1048      4038      4039      4025
 -1      2037    8    0    1
 -2       995       929      1004      3858      3894      4040
 -1      2038    8    0    1
 -2       996       916       993      3863      3854      4041
 -1      2039    8    0    1
 -2       940       988       966      3885      4042      3846
 -1      2040    8    0    1
 -2      1043       990      1053      4013      4043      4044
 -1      2041    8    0    1
 -2       990      1002      1054      3888      4045      4046
 -1      2042    8    0    1
 -2       990      1054      1053      4046      4047      4043
 -1      2043    8    0    1
 -2       981       996      1055      3862      4048      4049
 -1      2044    8    0    1
 -2       981      1055      1050      4049      4050      4033
 -1      2045    8    0    1
 -2      1047       935       995      4022      3860      4051
 -1      2046    8    0    1
 -2       991       997      1056      3867      4052      4053
 -1      2047    8    0    1
 -2       991      1056      1051      4053      4054      4035
 -1      2048    8    0    1
 -2      1045       942      1057      4017      4055      4056
 -1      2049    8    0    1
 -2       942       987      1057      3831      4057      4055
 -1      2050    8    0    1
 -2       987       985      1058      3832      4058      4059
 -1      2051    8    0    1
 -2       985      1046      1058      4021      4060      4058
 -1      2052    8    0    1
 -2       988      1003       966      3891      4061      4042
 -1      2053    8    0    1
 -2      1004       999      1026      4027      3959      4062
 -1      2054    8    0    1
 -2      1041      1044      1059      4016      4063      4064
 -1      2055    8    0    1
 -2      1007      1006      1060      3902      4065      4066
 -1      2056    8    0    1
 -2      1008      1007      1061      3905      4067      4068
 -1      2057    8    0    1
 -2      1007      1060      1061      4066      4069      4067
 -1      2058    8    0    1
 -2      1009      1008      1062      3908      4070      4071
 -1      2059    8    0    1
 -2      1008      1061      1062      4068      4072      4070
 -1      2060    8    0    1
 -2      1010      1009      1063      3911      4073      4074
 -1      2061    8    0    1
 -2      1009      1062      1063      4071      4075      4073
 -1      2062    8    0    1
 -2      1011      1010      1064      3914      4076      4077
 -1      2063    8    0    1
 -2      1010      1063      1064      4074      4078      4076
 -1      2064    8    0    1
 -2      1012      1011      1065      3917      4079      4080
 -1      2065    8    0    1
 -2      1011      1064      1065      4077      4081      4079
 -1      2066    8    0    1
 -2      1013      1012      1066      3920      4082      4083
 -1      2067    8    0    1
 -2      1012      1065      1066      4080      4084      4082
 -1      2068    8    0    1
 -2      1014      1013      1067      3923      4085      4086
 -1      2069    8    0    1
 -2      1013      1066      1067      4083      4087      4085
 -1      2070    8    0    1
 -2      1015      1014      1068      3926      4088      4089
 -1      2071    8    0    1
 -2      1014      1067      1068      4086      4090      4088
 -1      2072    8    0    1
 -2      1016      1015      1069      3929      4091      4092
 -1      2073    8    0    1
 -2      1015      1068      1069      4089      4093      4091
 -1      2074    8    0    1
 -2      1017      1016      1070      3932      4094      4095
 -1      2075    8    0    1
 -2      1016      1069      1070      4092      4096      4094
 -1      2076    8    0    1
 -2      1018      1017      1071      3935      4097      4098
 -1      2077    8    0    1
 -2      1017      1070      1071      4095      4099      4097
 -1      2078    8    0    1
 -2      1019      1018      1072      3938      4100      4101
 -1      2079    8    0    1
 -2      1018      1071      1072      4098      4102      4100
 -1      2080    8    0    1
 -2      1020      1019      1073      3941      4103      4104
 -1      2081    8    0    1
 -2      1019      1072      1073      4101      4105      4103
 -1      2082    8    0    1
 -2      1021      1020      1074      3944      4106      4107
 -1      2083    8    0    1
 -2      1020      1073      1074      4104      4108      4106
 -1      2084    8    0    1
 -2      1022      1021      1075      3947      4109      4110
 -1      2085    8    0    1
 -2      1021      1074      1075      4107      4111      4109
 -1      2086    8    0    1
 -2      1023      1022      1076      3950      4112      4113
 -1      2087    8    0    1
 -2      1022      1075      1076      4110      4114      4112
 -1      2088    8    0    1
 -2      1024      1023      1077      3953      4115      4116
 -1      2089    8    0    1
 -2      1023      1076      1077      4113      4117      4115
 -1      2090    8    0    1
 -2      1025      1024      1078      3956      4118      4119
 -1      2091    8    0    1
 -2      1024      1077      1078      4116      4120      4118
 -1      2092    8    0    1
 -2      1044      1031      1079      4029      4121      4122
 -1      2093    8    0    1
 -2      1044      1079      1059      4122      4123      4063
 -1      2094    8    0    1
 -2      1030      1027      1080      3970      4124      4125
 -1      2095    8    0    1
 -2      1001      1043      1053      4011      4044      4126
 -1      2096    8    0    1
 -2      1031      1030      1081      3973      4127      4128
 -1      2097    8    0    1
 -2      1030      1080      1081      4125      4129      4127
 -1      2098    8    0    1
 -2      1033      1034      1082      3982      4130      4131
 -1      2099    8    0    1
 -2      1034      1035      1083      3985      4132      4133
 -1      2100    8    0    1
 -2      1034      1083      1082      4133      4134      4130
 -1      2101    8    0    1
 -2      1035      1036      1084      3988      4135      4136
 -1      2102    8    0    1
 -2      1035      1084      1083      4136      4137      4132
 -1      2103    8    0    1
 -2      1036      1037      1085      3991      4138      4139
 -1      2104    8    0    1
 -2      1036      1085      1084      4139      4140      4135
 -1      2105    8    0    1
 -2      1037      1038      1086      3994      4141      4142
 -1      2106    8    0    1
 -2      1037      1086      1085      4142      4143      4138
 -1      2107    8    0    1
 -2      1005      1045      1087      4019      4144      4145
 -1      2108    8    0    1
 -2      1032      1033      1088      3979      4146      4147
 -1      2109    8    0    1
 -2      1033      1082      1088      4131      4148      4146
 -1      2110    8    0    1
 -2       996       993      1089      4041      4149      4150
 -1      2111    8    0    1
 -2      1055       996      1089      4048      4150      4151
 -1      2112    8    0    1
 -2       993      1049      1089      4032      4152      4149
 -1      2113    8    0    1
 -2      1027      1032      1090      3976      4153      4154
 -1      2114    8    0    1
 -2      1027      1090      1080      4154      4155      4124
 -1      2115    8    0    1
 -2      1002      1040      1091      4028      4156      4157
 -1      2116    8    0    1
 -2      1054      1002      1091      4045      4157      4158
 -1      2117    8    0    1
 -2      1040      1051      1091      4036      4159      4156
 -1      2118    8    0    1
 -2      1003      1048      1046      4026      4160      4161
 -1      2119    8    0    1
 -2      1028      1041      1092      4004      4162      4163
 -1      2120    8    0    1
 -2      1041      1059      1092      4064      4164      4162
 -1      2121    8    0    1
 -2       992      1050      1093      4034      4165      4166
 -1      2122    8    0    1
 -2       992      1093      1042      4166      4167      4008
 -1      2123    8    0    1
 -2      1006      1005      1094      3899      4168      4169
 -1      2124    8    0    1
 -2      1005      1087      1094      4145      4170      4168
 -1      2125    8    0    1
 -2       966      1003      1046      4061      4161      4020
 -1      2126    8    0    1
 -2      1047       995      1095      4051      4171      4172
 -1      2127    8    0    1
 -2      1029      1047      1096      4024      4173      4174
 -1      2128    8    0    1
 -2      1029      1096      1039      4174      4175      3998
 -1      2129    8    0    1
 -2       995      1004      1095      4040      4176      4171
 -1      2130    8    0    1
 -2      1001      1053      1052      4126      4177      4037
 -1      2131    8    0    1
 -2      1046      1048      1097      4160      4178      4179
 -1      2132    8    0    1
 -2      1046      1097      1058      4179      4180      4060
 -1      2133    8    0    1
 -2      1049      1028      1098      4030      4181      4182
 -1      2134    8    0    1
 -2      1028      1092      1098      4163      4183      4181
 -1      2135    8    0    1
 -2      1025      1078      1099      4119      4184      4185
 -1      2136    8    0    1
 -2      1079      1031      1081      4121      4128      4186
 -1      2137    8    0    1
 -2      1026      1025      1099      3960      4185      4187
 -1      2138    8    0    1
 -2      1045      1057      1100      4056      4188      4189
 -1      2139    8    0    1
 -2      1045      1100      1087      4189      4190      4144
 -1      2140    8    0    1
 -2      1097      1048      1052      4178      4039      4191
 -1      2141    8    0    1
 -2      1086      1038      1101      4141      4192      4193
 -1      2142    8    0    1
 -2      1038      1039      1101      3997      4194      4192
 -1      2143    8    0    1
 -2      1032      1088      1090      4147      4195      4153
 -1      2144    8    0    1
 -2      1004      1026      1099      4062      4187      4196
 -1      2145    8    0    1
 -2      1006      1094      1060      4169      4197      4065
 -1      2146    8    0    1
 -2       997      1042      1102      4007      4198      4199
 -1      2147    8    0    1
 -2      1042      1093      1102      4167      4200      4198
 -1      2148    8    0    1
 -2      1050      1055      1103      4050      4201      4202
 -1      2149    8    0    1
 -2      1091      1051      1104      4159      4203      4204
 -1      2150    8    0    1
 -2      1004      1099      1095      4196      4205      4176
 -1      2151    8    0    1
 -2      1056       997      1102      4052      4199      4206
 -1      2152    8    0    1
 -2      1093      1050      1105      4165      4207      4208
 -1      2153    8    0    1
 -2      1050      1103      1105      4202      4209      4207
 -1      2154    8    0    1
 -2      1057       987      1058      4057      4059      4210
 -1      2155    8    0    1
 -2      1096      1047      1095      4173      4172      4211
 -1      2156    8    0    1
 -2      1051      1056      1106      4054      4212      4213
 -1      2157    8    0    1
 -2      1051      1106      1104      4213      4214      4203
 -1      2158    8    0    1
 -2      1099      1078      1095      4184      4215      4205
 -1      2159    8    0    1
 -2      1079      1081      1068      4186      4216      4217
 -1      2160    8    0    1
 -2      1057      1058      1107      4210      4218      4219
 -1      2161    8    0    1
 -2      1100      1057      1107      4188      4219      4220
 -1      2162    8    0    1
 -2      1058      1097      1107      4180      4221      4218
 -1      2163    8    0    1
 -2      1059      1079      1067      4123      4222      4223
 -1      2164    8    0    1
 -2      1062      1061      1103      4072      4224      4225
 -1      2165    8    0    1
 -2      1064      1063      1108      4078      4226      4227
 -1      2166    8    0    1
 -2      1065      1064      1098      4081      4228      4229
 -1      2167    8    0    1
 -2      1066      1065      1092      4084      4230      4231
 -1      2168    8    0    1
 -2      1067      1066      1059      4087      4232      4223
 -1      2169    8    0    1
 -2      1068      1067      1079      4090      4222      4217
 -1      2170    8    0    1
 -2      1069      1068      1081      4093      4216      4233
 -1      2171    8    0    1
 -2      1070      1069      1080      4096      4234      4235
 -1      2172    8    0    1
 -2      1071      1070      1090      4099      4236      4237
 -1      2173    8    0    1
 -2      1072      1071      1088      4102      4238      4239
 -1      2174    8    0    1
 -2      1073      1072      1082      4105      4240      4241
 -1      2175    8    0    1
 -2      1074      1073      1083      4108      4242      4243
 -1      2176    8    0    1
 -2      1075      1074      1084      4111      4244      4245
 -1      2177    8    0    1
 -2      1076      1075      1085      4114      4246      4247
 -1      2178    8    0    1
 -2      1077      1076      1086      4117      4248      4249
 -1      2179    8    0    1
 -2      1078      1077      1101      4120      4250      4251
 -1      2180    8    0    1
 -2      1090      1070      1080      4236      4235      4155
 -1      2181    8    0    1
 -2      1086      1076      1085      4248      4247      4143
 -1      2182    8    0    1
 -2      1054      1091      1109      4158      4252      4253
 -1      2183    8    0    1
 -2      1091      1104      1109      4204      4254      4252
 -1      2184    8    0    1
 -2      1052      1053      1110      4177      4255      4256
 -1      2185    8    0    1
 -2      1082      1072      1088      4240      4239      4148
 -1      2186    8    0    1
 -2      1081      1080      1069      4129      4234      4233
 -1      2187    8    0    1
 -2      1083      1084      1074      4137      4244      4243
 -1      2188    8    0    1
 -2      1082      1083      1073      4134      4242      4241
 -1      2189    8    0    1
 -2      1085      1075      1084      4246      4245      4140
 -1      2190    8    0    1
 -2      1097      1052      1110      4191      4256      4257
 -1      2191    8    0    1
 -2      1090      1088      1071      4195      4238      4237
 -1      2192    8    0    1
 -2      1056      1102      1111      4206      4258      4259
 -1      2193    8    0    1
 -2      1056      1111      1106      4259      4260      4212
 -1      2194    8    0    1
 -2      1102      1093      1112      4200      4261      4262
 -1      2195    8    0    1
 -2      1111      1102      1112      4258      4262      4263
 -1      2196    8    0    1
 -2      1093      1105      1112      4208      4264      4261
 -1      2197    8    0    1
 -2      1103      1055      1113      4201      4265      4266
 -1      2198    8    0    1
 -2      1055      1089      1113      4151      4267      4265
 -1      2199    8    0    1
 -2      1053      1054      1110      4047      4268      4255
 -1      2200    8    0    1
 -2      1092      1059      1066      4164      4232      4231
 -1      2201    8    0    1
 -2      1092      1065      1098      4230      4229      4183
 -1      2202    8    0    1
 -2      1094      1087      1106      4170      4269      4270
 -1      2203    8    0    1
 -2      1060      1094      1112      4197      4271      4272
 -1      2204    8    0    1
 -2      1061      1060      1105      4069      4273      4274
 -1      2205    8    0    1
 -2      1039      1096      1101      4175      4275      4194
 -1      2206    8    0    1
 -2      1110      1054      1109      4268      4253      4276
 -1      2207    8    0    1
 -2      1103      1061      1105      4224      4274      4209
 -1      2208    8    0    1
 -2      1062      1103      1113      4225      4266      4277
 -1      2209    8    0    1
 -2      1064      1108      1098      4227      4278      4228
 -1      2210    8    0    1
 -2      1063      1062      1113      4075      4277      4279
 -1      2211    8    0    1
 -2      1106      1087      1114      4269      4280      4281
 -1      2212    8    0    1
 -2      1104      1106      1114      4214      4281      4282
 -1      2213    8    0    1
 -2      1087      1100      1114      4190      4283      4280
 -1      2214    8    0    1
 -2      1105      1060      1112      4273      4272      4264
 -1      2215    8    0    1
 -2      1109      1104      1114      4254      4282      4284
 -1      2216    8    0    1
 -2      1077      1086      1101      4249      4193      4250
 -1      2217    8    0    1
 -2      1110      1109      1097      4276      4285      4257
 -1      2218    8    0    1
 -2      1095      1078      1101      4215      4251      4286
 -1      2219    8    0    1
 -2      1063      1113      1108      4279      4287      4226
 -1      2220    8    0    1
 -2      1049      1098      1108      4182      4278      4288
 -1      2221    8    0    1
 -2      1107      1097      1109      4221      4285      4289
 -1      2222    8    0    1
 -2      1100      1107      1114      4220      4290      4283
 -1      2223    8    0    1
 -2      1113      1089      1108      4267      4291      4287
 -1      2224    8    0    1
 -2      1114      1107      1109      4290      4289      4284
 -1      2225    8    0    1
 -2      1094      1106      1111      4270      4260      4292
 -1      2226    8    0    1
 -2      1089      1049      1108      4152      4288      4291
 -1      2227    8    0    1
 -2      1112      1094      1111      4271      4292      4263
 -1      2228    8    0    1
 -2      1096      1095      1101      4211      4286      4275
 -3
    1PSTEP                         1           1           1          
  100CL  101 1.000000000        4292                     0    1           1
 -4  DISP        4    1
 -5  D1          1    2    1    0
 -5  D2          1    2    2    0
 -5  D3          1    2    3    0
 -5  ALL         1    2    0    0    1ALL
 -1         1 9.75629E-03-3.19908E-04-8.50920E-14
 -1         2 1.37977E-02 3.07666E-04-1.04227E-13
 -1         3 1.51732E-02 8.50927E-04-1.48129E-13
 -1         4 1.45260E-02 7.22131E-05-1.45327E-13
 -1         5 0.00000E+00 0.00000E+00 0.00000E+00
 -1         6 0.00000E+00 0.00000E+00 0.00000E+00
 -1         7 0.00000E+00 0.00000E+00 0.00000E+00
 -1         8 0.00000E+00 0.00000E+00 0.00000E+00
 -1         9 0.00000E+00 0.00000E+00 0.00000E+00
 -1        10 0.00000E+00 0.00000E+00 0.00000E+00
 -1        11 0.00000E+00 0.00000E+00 0.00000E+00
 -1        12 0.00000E+00 0.00000E+00 0.00000E+00
 -1        13 0.00000E+00 0.00000E+00 0.00000E+00
 -1        14 0.00000E+00 0.00000E+00 0.00000E+00
 -1        15 0.00000E+00 0.00000E+00 0.00000E+00
 -1        16 0.00000E+00 0.00000E+00 0.00000E+00
 -1        17 0.00000E+00 0.00000E+00 0.00000E+00
 -1        18 0.00000E+00 0.00000E+00 0.00000E+00
 -1        19 0.00000E+00 0.00000E+00 0.00000E+00
 -1        20 0.00000E+00 0.00000E+00 0.00000E+00
 -1        21 0.00000E+00 0.00000E+00 0.00000E+00
 -1        22 0.00000E+00 0.00000E+00 0.00000E+00
 -1        23 4.11399E-04-2.60755E-04 6.69427E-17
 -1        24 7.03394E-04-4.01022E-04-5.08220E-20
 -1        25 9.73467E-04-4.98423E-04-2.01211E-16
 -1        26 1.23796E-03-5.67190E-04-5.36382E-16
 -1        27 1.50148E-03-6.16464E-04-1.00676E-15
 -1        28 1.76613E-03-6.51632E-04-1.61415E-15
 -1        29 2.03286E-03-6.76400E-04-2.35994E-15
 -1        30 2.30203E-03-6.93459E-04-3.24323E-15
 -1        31 2.57369E-03-7.04823E-04-4.26457E-15
 -1        32 2.84770E-03-7.12009E-04-5.42590E-15
 -1        33 3.12382E-03-7.16160E-04-6.72172E-15
 -1        34 3.40179E-03-7.18120E-04-8.14591E-15
 -1        35 3.68133E-03-7.18504E-04-9.70273E-15
 -1        36 3.96217E-03-7.17740E-04-1.13906E-14
 -1        37 4.24411E-03-7.16113E-04-1.32103E-14
 -1        38 4.52697E-03-7.13797E-04-1.51653E-14
 -1        39 4.81064E-03-7.10879E-04-1.72534E-14
 -1        40 5.09507E-03-7.07389E-04-1.94770E-14
 -1        41 5.38031E-03-7.03317E-04-2.18317E-14
 -1        42 5.66648E-03-6.98640E-04-2.43163E-14
 -1        43 5.95378E-03-6.93348E-04-2.69301E-14
 -1        44 6.24256E-03-6.87474E-04-2.96677E-14
 -1        45 6.53327E-03-6.81139E-04-3.25283E-14
 -1        46 6.82649E-03-6.74597E-04-3.55136E-14
 -1        47 7.12293E-03-6.68303E-04-3.86171E-14
 -1        48 7.42341E-03-6.62987E-04-4.18372E-14
 -1        49 7.72882E-03-6.59740E-04-4.51712E-14
 -1        50 8.03996E-03-6.60091E-04-4.86132E-14
 -1        51 8.35742E-03-6.66055E-04-5.21573E-14
 -1        52 8.68129E-03-6.80092E-04-5.57997E-14
 -1        53 9.01075E-03-7.04900E-04-5.95344E-14
 -1        54 9.34360E-03-7.42911E-04-6.33692E-14
 -1        55 9.67597E-03-7.95393E-04-6.73011E-14
 -1        56 1.00022E-02-8.61155E-04-7.13266E-14
 -1        57 1.03158E-02-9.35117E-04-7.54492E-14
 -1        58 1.06107E-02-1.00749E-03-7.96596E-14
 -1        59 1.08846E-02-1.06460E-03-8.39645E-14
 -1        60 1.11404E-02-1.09211E-03-8.83574E-14
 -1        61 1.13866E-02-1.07977E-03-9.28322E-14
 -1        62 1.16347E-02-1.02552E-03-9.73915E-14
 -1        63 1.18947E-02-9.36154E-04-1.02037E-13
 -1        64 1.21715E-02-8.24241E-04-1.06746E-13
 -1        65 1.24641E-02-7.03106E-04-1.11500E-13
 -1        66 1.27672E-02-5.82789E-04-1.16293E-13
 -1        67 1.30741E-02-4.68286E-04-1.21120E-13
 -1        68 1.33786E-02-3.59894E-04-1.25973E-13
 -1        69 1.36771E-02-2.54680E-04-1.30846E-13
 -1        70 1.39686E-02-1.48338E-04-1.35728E-13
 -1        71 1.42551E-02-3.74139E-05-1.40636E-13
 -1        72 4.13845E-04 2.61460E-04 4.92939E-17
 -1        73 7.03217E-04 4.03729E-04-4.81250E-17
 -1        74 9.74004E-04 5.00195E-04-2.87619E-16
 -1        75 1.23878E-03 5.68901E-04-6.69796E-16
 -1        76 1.50244E-03 6.18225E-04-1.19275E-15
 -1        77 1.76716E-03 6.53485E-04-1.85475E-15
 -1        78 2.03392E-03 6.78363E-04-2.65578E-15
 -1        79 2.30312E-03 6.95545E-04-3.59379E-15
 -1        80 2.57479E-03 7.07037E-04-4.67085E-15
 -1        81 2.84880E-03 7.14356E-04-5.88830E-15
 -1        82 3.12493E-03 7.18640E-04-7.24138E-15
 -1        83 3.40290E-03 7.20733E-04-8.73079E-15
 -1        84 3.68243E-03 7.21249E-04-1.03572E-14
 -1        85 3.96327E-03 7.20614E-04-1.21227E-14
 -1        86 4.24518E-03 7.19111E-04-1.40308E-14
 -1        87 4.52801E-03 7.16907E-04-1.60835E-14
 -1        88 4.81165E-03 7.14084E-04-1.82714E-14
 -1        89 5.09603E-03 7.10657E-04-2.05912E-14
 -1        90 5.38122E-03 7.06597E-04-2.30406E-14
 -1        91 5.66732E-03 7.01854E-04-2.56206E-14
 -1        92 5.95457E-03 6.96375E-04-2.83288E-14
 -1        93 6.24336E-03 6.90136E-04-3.11611E-14
 -1        94 6.53420E-03 6.83181E-04-3.41163E-14
 -1        95 6.82781E-03 6.75670E-04-3.71778E-14
 -1        96 7.12515E-03 6.67956E-04-4.03485E-14
 -1        97 7.42743E-03 6.60686E-04-4.36312E-14
 -1        98 7.73617E-03 6.54943E-04-4.70327E-14
 -1        99 8.05316E-03 6.52445E-04-5.05228E-14
 -1       100 8.38040E-03 6.55781E-04-5.41166E-14
 -1       101 8.71987E-03 6.68691E-04-5.78209E-14
 -1       102 9.07298E-03 6.96270E-04-6.16273E-14
 -1       103 9.43973E-03 7.44890E-04-6.55372E-14
 -1       104 9.81728E-03 8.21381E-04-6.95454E-14
 -1       105 1.01984E-02 9.30808E-04-7.36603E-14
 -1       106 1.05704E-02 1.07233E-03-7.78794E-14
 -1       107 1.09175E-02 1.23384E-03-8.21988E-14
 -1       108 1.12268E-02 1.38892E-03-8.66177E-14
 -1       109 1.14975E-02 1.50195E-03-9.11430E-14
 -1       110 1.17466E-02 1.54361E-03-9.57505E-14
 -1       111 1.20018E-02 1.50761E-03-1.00430E-13
 -1       112 1.22859E-02 1.41418E-03-1.05169E-13
 -1       113 1.26054E-02 1.29732E-03-1.09936E-13
 -1       114 1.29512E-02 1.18715E-03-1.14722E-13
 -1       115 1.33071E-02 1.10006E-03-1.19521E-13
 -1       116 1.36582E-02 1.03889E-03-1.24330E-13
 -1       117 1.39949E-02 9.97730E-04-1.29145E-13
 -1       118 1.43132E-02 9.66782E-04-1.33956E-13
 -1       119 1.46140E-02 9.35721E-04-1.38760E-13
 -1       120 1.49026E-02 8.96522E-04-1.43569E-13
 -1       121 1.52233E-02 7.65821E-04-1.48024E-13
 -1       122 1.52823E-02 6.84561E-04-1.47928E-13
 -1       123 1.53492E-02 6.15353E-04-1.47829E-13
 -1       124 1.54166E-02 5.63563E-04-1.47718E-13
 -1       125 1.54744E-02 5.30932E-04-1.47578E-13
 -1       126 1.55123E-02 5.15868E-04-1.47456E-13
 -1       127 1.55233E-02 5.13019E-04-1.47332E-13
 -1       128 1.55018E-02 5.15579E-04-1.47202E-13
 -1       129 1.54473E-02 5.15517E-04-1.47052E-13
 -1       130 1.53633E-02 5.05757E-04-1.46847E-13
 -1       131 1.52569E-02 4.81566E-04-1.46647E-13
 -1       132 1.51381E-02 4.41924E-04-1.46454E-13
 -1       133 1.50105E-02 3.86195E-04-1.46241E-13
 -1       134 1.48822E-02 3.17435E-04-1.46009E-13
 -1       135 1.47576E-02 2.39047E-04-1.45794E-13
 -1       136 1.46386E-02 1.55643E-04-1.45570E-13
 -1       137 1.37602E-02 4.88949E-04-1.04044E-13
 -1       138 1.36278E-02 6.60122E-04-1.03415E-13
 -1       139 1.34090E-02 8.15599E-04-1.02386E-13
 -1       140 1.31046E-02 9.53667E-04-1.00947E-13
 -1       141 1.27240E-02 1.06420E-03-9.91514E-14
 -1       142 1.22109E-02 1.14857E-03-9.67289E-14
 -1       143 1.17530E-02 1.17143E-03-9.46152E-14
 -1       144 1.12520E-02 1.14788E-03-9.22831E-14
 -1       145 1.07682E-02 1.07618E-03-9.00427E-14
 -1       146 1.03579E-02 9.72849E-04-8.81286E-14
 -1       147 9.99503E-03 8.39976E-04-8.64217E-14
 -1       148 9.67492E-03 6.71548E-04-8.48954E-14
 -1       149 9.46798E-03 5.06773E-04-8.38959E-14
 -1       150 9.34061E-03 3.28802E-04-8.32729E-14
 -1       151 9.30841E-03 1.58254E-04-8.30873E-14
 -1       152 9.37446E-03-2.33997E-05-8.33640E-14
 -1       153 9.52592E-03-1.80082E-04-8.40459E-14
 -1       154 1.00520E-02-4.37294E-04-8.64468E-14
 -1       155 1.04131E-02-5.31242E-04-8.81104E-14
 -1       156 1.08220E-02-5.94810E-04-9.00165E-14
 -1       157 1.12913E-02-6.24183E-04-9.22275E-14
 -1       158 1.17758E-02-6.10801E-04-9.45342E-14
 -1       159 1.22178E-02-5.60660E-04-9.66438E-14
 -1       160 1.26630E-02-4.68296E-04-9.87830E-14
 -1       161 1.30205E-02-3.56167E-04-1.00502E-13
 -1       162 1.33251E-02-2.19648E-04-1.01977E-13
 -1       163 1.35790E-02-5.18816E-05-1.03200E-13
 -1       164 1.37392E-02 1.30266E-04-1.03962E-13
 -1       165 2.40408E-04-1.25532E-04-9.09375E-18
 -1       166 2.25275E-04-9.46328E-05-3.29970E-17
 -1       167 2.19520E-04-7.27904E-05-4.73458E-17
 -1       168 2.16708E-04-5.51203E-05-5.63379E-17
 -1       169 2.15220E-04-3.99784E-05-6.17351E-17
 -1       170 2.14385E-04-2.59225E-05-6.50420E-17
 -1       171 2.13967E-04-1.26478E-05-6.67665E-17
 -1       172 2.13845E-04 2.73037E-07-6.77050E-17
 -1       173 2.13986E-04 1.32064E-05-6.80540E-17
 -1       174 2.14426E-04 2.65209E-05-6.74814E-17
 -1       175 2.15269E-04 4.04039E-05-6.57602E-17
 -1       176 2.16817E-04 5.59263E-05-6.22501E-17
 -1       177 2.19672E-04 7.38302E-05-5.54502E-17
 -1       178 2.25445E-04 9.60320E-05-4.32969E-17
 -1       179 2.39338E-04 1.27610E-04-2.14638E-17
 -1       180 2.97717E-04 1.85517E-04 1.46367E-18
 -1       181 4.68635E-04-2.63579E-04-3.12081E-17
 -1       182 7.66781E-04-3.82193E-04-1.99503E-16
 -1       183 1.05063E-03-4.65098E-04-4.95514E-16
 -1       184 1.32801E-03-5.23891E-04-9.22487E-16
 -1       185 1.60260E-03-5.65596E-04-1.48258E-15
 -1       186 1.87647E-03-5.94898E-04-2.17746E-15
 -1       187 2.15075E-03-6.15096E-04-3.00800E-15
 -1       188 2.42603E-03-6.28609E-04-3.97407E-15
 -1       189 2.70258E-03-6.37241E-04-5.07604E-15
 -1       190 2.98045E-03-6.42340E-04-6.31328E-15
 -1       191 3.25961E-03-6.44906E-04-7.68196E-15
 -1       192 3.53995E-03-6.45667E-04-9.18000E-15
 -1       193 3.82133E-03-6.45138E-04-1.08096E-14
 -1       194 4.10362E-03-6.43664E-04-1.25699E-14
 -1       195 4.38673E-03-6.41460E-04-1.44629E-14
 -1       196 4.67058E-03-6.38642E-04-1.64889E-14
 -1       197 4.95512E-03-6.35251E-04-1.86480E-14
 -1       198 5.24039E-03-6.31275E-04-2.09397E-14
 -1       199 5.52645E-03-6.26676E-04-2.33617E-14
 -1       200 5.81347E-03-6.21412E-04-2.59108E-14
 -1       201 6.10165E-03-6.15464E-04-2.85890E-14
 -1       202 6.39133E-03-6.08877E-04-3.13900E-14
 -1       203 6.68289E-03-6.01802E-04-3.43154E-14
 -1       204 6.97681E-03-5.94556E-04-3.73629E-14
 -1       205 7.27368E-03-5.87699E-04-4.05268E-14
 -1       206 7.57408E-03-5.82117E-04-4.38025E-14
 -1       207 7.87861E-03-5.79122E-04-4.71884E-14
 -1       208 8.18776E-03-5.80530E-04-5.06795E-14
 -1       209 8.50175E-03-5.88698E-04-5.42697E-14
 -1       210 8.82036E-03-6.06432E-04-5.79611E-14
 -1       211 9.14267E-03-6.36662E-04-6.17464E-14
 -1       212 9.46681E-03-6.81753E-04-6.56277E-14
 -1       213 9.78988E-03-7.42324E-04-6.96029E-14
 -1       214 1.01081E-02-8.15681E-04-7.36716E-14
 -1       215 1.04174E-02-8.94325E-04-7.78338E-14
 -1       216 1.07150E-02-9.65605E-04-8.20903E-14
 -1       217 1.10007E-02-1.01371E-03-8.64348E-14
 -1       218 1.12775E-02-1.02434E-03-9.08666E-14
 -1       219 1.15517E-02-9.90272E-04-9.53800E-14
 -1       220 1.18299E-02-9.14410E-04-9.99797E-14
 -1       221 1.21162E-02-8.08274E-04-1.04650E-13
 -1       222 1.24118E-02-6.86829E-04-1.09374E-13
 -1       223 1.27142E-02-5.63054E-04-1.14140E-13
 -1       224 1.30196E-02-4.44796E-04-1.18946E-13
 -1       225 1.33242E-02-3.34317E-04-1.23782E-13
 -1       226 1.36250E-02-2.29574E-04-1.28638E-13
 -1       227 1.39207E-02-1.26116E-04-1.33511E-13
 -1       228 1.42112E-02-1.91195E-05-1.38406E-13
 -1       229 6.04579E-04 3.31074E-04-1.14492E-16
 -1       230 8.93673E-04 4.32711E-04-3.63648E-16
 -1       231 1.17256E-03 5.04477E-04-7.50312E-16
 -1       232 1.44690E-03 5.55581E-04-1.27392E-15
 -1       233 1.71969E-03 5.91842E-04-1.93445E-15
 -1       234 1.99257E-03 6.17237E-04-2.73140E-15
 -1       235 2.26636E-03 6.34634E-04-3.66584E-15
 -1       236 2.54147E-03 6.46158E-04-4.73747E-15
 -1       237 2.81804E-03 6.53402E-04-5.94596E-15
 -1       238 3.09604E-03 6.57557E-04-7.29061E-15
 -1       239 3.37538E-03 6.59499E-04-8.76964E-15
 -1       240 3.65592E-03 6.59862E-04-1.03849E-14
 -1       241 3.93750E-03 6.59084E-04-1.21396E-14
 -1       242 4.21999E-03 6.57452E-04-1.40316E-14
 -1       243 4.50328E-03 6.55134E-04-1.60643E-14
 -1       244 4.78730E-03 6.52207E-04-1.82338E-14
 -1       245 5.07204E-03 6.48677E-04-2.05357E-14
 -1       246 5.35755E-03 6.44502E-04-2.29667E-14
 -1       247 5.64394E-03 6.39613E-04-2.55258E-14
 -1       248 5.93142E-03 6.33934E-04-2.82167E-14
 -1       249 6.22029E-03 6.27408E-04-3.10323E-14
 -1       250 6.51101E-03 6.20038E-04-3.39675E-14
 -1       251 6.80413E-03 6.11932E-04-3.70109E-14
 -1       252 7.10040E-03 6.03373E-04-4.01639E-14
 -1       253 7.40076E-03 5.94924E-04-4.34289E-14
 -1       254 7.70632E-03 5.87567E-04-4.68096E-14
 -1       255 8.01837E-03 5.82901E-04-5.02896E-14
 -1       256 8.33831E-03 5.83399E-04-5.38701E-14
 -1       257 8.66745E-03 5.92714E-04-5.75592E-14
 -1       258 9.00675E-03 6.15952E-04-6.13503E-14
 -1       259 9.35627E-03 6.59718E-04-6.52398E-14
 -1       260 9.71442E-03 7.31477E-04-6.92272E-14
 -1       261 1.00772E-02 8.37523E-04-7.33193E-14
 -1       262 1.04375E-02 9.78810E-04-7.75147E-14
 -1       263 1.07861E-02 1.14496E-03-8.18112E-14
 -1       264 1.11150E-02 1.30973E-03-8.62030E-14
 -1       265 1.14222E-02 1.43468E-03-9.06958E-14
 -1       266 1.17157E-02 1.48556E-03-9.52770E-14
 -1       267 1.20105E-02 1.45256E-03-9.99335E-14
 -1       268 1.23198E-02 1.35636E-03-1.04656E-13
 -1       269 1.26474E-02 1.23421E-03-1.09417E-13
 -1       270 1.29880E-02 1.11940E-03-1.14202E-13
 -1       271 1.33323E-02 1.02993E-03-1.19000E-13
 -1       272 1.36717E-02 9.68829E-04-1.23807E-13
 -1       273 1.40004E-02 9.29674E-04-1.28615E-13
 -1       274 1.43158E-02 9.01924E-04-1.33426E-13
 -1       275 1.46186E-02 8.74438E-04-1.38234E-13
 -1       276 1.49111E-02 8.38130E-04-1.43041E-13
 -1       277 1.50048E-02 7.69110E-04-1.43805E-13
 -1       278 1.50715E-02 6.95226E-04-1.43698E-13
 -1       279 1.51438E-02 6.32158E-04-1.43583E-13
 -1       280 1.52121E-02 5.81625E-04-1.43463E-13
 -1       281 1.52647E-02 5.44081E-04-1.43335E-13
 -1       282 1.52934E-02 5.16036E-04-1.43200E-13
 -1       283 1.52898E-02 4.94128E-04-1.43058E-13
 -1       284 1.52508E-02 4.73104E-04-1.42900E-13
 -1       285 1.51786E-02 4.47731E-04-1.42721E-13
 -1       286 1.50790E-02 4.13912E-04-1.42527E-13
 -1       287 1.49627E-02 3.70210E-04-1.42323E-13
 -1       288 1.48341E-02 3.14722E-04-1.42109E-13
 -1       289 1.47025E-02 2.49171E-04-1.41886E-13
 -1       290 1.45734E-02 1.75516E-04-1.41657E-13
 -1       291 1.43904E-02 7.93592E-05-1.40038E-13
 -1       292 1.38162E-02 3.66676E-04-1.06071E-13
 -1       293 1.36937E-02 4.74308E-04-1.05599E-13
 -1       294 1.34572E-02 6.05165E-04-1.04618E-13
 -1       295 1.31362E-02 7.64035E-04-1.03156E-13
 -1       296 1.27611E-02 9.39933E-04-1.01251E-13
 -1       297 1.23051E-02 1.11621E-03-9.90434E-14
 -1       298 1.19120E-02 1.22641E-03-9.60750E-14
 -1       299 1.15281E-02 1.24912E-03-9.34520E-14
 -1       300 1.11215E-02 1.16018E-03-9.07667E-14
 -1       301 1.07254E-02 1.00618E-03-8.83456E-14
 -1       302 1.03397E-02 8.19324E-04-8.62458E-14
 -1       303 9.96438E-03 6.08747E-04-8.42036E-14
 -1       304 9.62612E-03 4.49010E-04-8.29324E-14
 -1       305 9.39892E-03 3.12646E-04-8.18882E-14
 -1       306 9.28802E-03 2.13085E-04-8.15306E-14
 -1       307 9.30895E-03 1.17335E-04-8.14589E-14
 -1       308 9.46453E-03 6.80808E-06-8.21114E-14
 -1       309 9.71493E-03-1.21253E-04-8.30966E-14
 -1       310 1.00303E-02-2.70194E-04-8.44774E-14
 -1       311 1.03824E-02-4.28059E-04-8.62225E-14
 -1       312 1.07559E-02-5.71859E-04-8.82431E-14
 -1       313 1.11343E-02-6.76961E-04-9.06366E-14
 -1       314 1.15145E-02-7.04251E-04-9.33320E-14
 -1       315 1.18954E-02-6.38118E-04-9.59284E-14
 -1       316 1.22780E-02-5.06330E-04-9.84776E-14
 -1       317 1.26758E-02-3.33873E-04-1.00703E-13
 -1       318 1.30386E-02-1.58598E-04-1.02590E-13
 -1       319 1.33730E-02 2.29868E-05-1.04413E-13
 -1       320 1.36537E-02 1.54856E-04-1.05377E-13
 -1       321 1.38042E-02 2.70172E-04-1.06137E-13
 -1       322 4.55395E-04-1.64822E-04-1.66882E-16
 -1       323 4.74259E-04-2.13007E-04-1.25361E-16
 -1       324 4.40450E-04-9.40373E-05-2.12781E-16
 -1       325 4.37487E-04-6.49280E-05-2.24731E-16
 -1       326 4.35865E-04-3.79168E-05-2.32338E-16
 -1       327 4.35156E-04-1.20211E-05-2.36410E-16
 -1       328 4.35187E-04 1.35404E-05-2.38192E-16
 -1       329 4.35963E-04 3.94938E-05-2.37613E-16
 -1       330 4.37627E-04 6.61571E-05-2.34022E-16
 -1       331 4.40681E-04 9.54376E-05-2.26361E-16
 -1       332 4.46067E-04 1.28353E-04-2.13097E-16
 -1       333 4.55900E-04 1.67335E-04-1.90769E-16
 -1       334 4.75894E-04 2.17077E-04-1.54316E-16
 -1       335 5.32023E-04 2.70006E-04-1.41820E-16
 -1       336 8.24503E-04 3.73561E-04-3.94704E-16
 -1       337 8.63274E-04-3.57462E-04-4.30604E-16
 -1       338 1.14963E-03-4.26235E-04-8.17644E-16
 -1       339 1.43241E-03-4.75420E-04-1.33378E-15
 -1       340 1.71312E-03-5.10167E-04-1.98064E-15
 -1       341 1.99288E-03-5.34266E-04-2.76061E-15
 -1       342 2.27246E-03-5.50536E-04-3.67344E-15
 -1       343 2.55232E-03-5.61086E-04-4.71905E-15
 -1       344 2.83272E-03-5.67495E-04-5.89885E-15
 -1       345 3.11379E-03-5.70940E-04-7.21104E-15
 -1       346 3.39555E-03-5.72281E-04-8.65280E-15
 -1       347 3.67799E-03-5.72134E-04-1.02244E-14
 -1       348 3.96106E-03-5.70921E-04-1.19261E-14
 -1       349 4.24472E-03-5.68913E-04-1.37581E-14
 -1       350 4.52892E-03-5.66263E-04-1.57239E-14
 -1       351 4.81366E-03-5.63038E-04-1.78205E-14
 -1       352 5.09894E-03-5.59238E-04-2.00479E-14
 -1       353 5.38480E-03-5.54824E-04-2.24070E-14
 -1       354 5.67135E-03-5.49738E-04-2.48952E-14
 -1       355 5.95871E-03-5.43928E-04-2.75113E-14
 -1       356 6.24709E-03-5.37381E-04-3.02537E-14
 -1       357 6.53673E-03-5.30166E-04-3.31203E-14
 -1       358 6.82796E-03-5.22481E-04-3.61106E-14
 -1       359 7.12115E-03-5.14722E-04-3.92184E-14
 -1       360 7.41674E-03-5.07565E-04-4.24378E-14
 -1       361 7.71522E-03-5.02062E-04-4.57664E-14
 -1       362 8.01707E-03-4.99737E-04-4.92051E-14
 -1       363 8.32276E-03-5.02666E-04-5.27463E-14
 -1       364 8.63267E-03-5.13486E-04-5.63856E-14
 -1       365 8.94692E-03-5.35252E-04-6.01236E-14
 -1       366 9.26525E-03-5.71019E-04-6.39575E-14
 -1       367 9.58669E-03-6.22979E-04-6.78852E-14
 -1       368 9.90928E-03-6.91040E-04-7.19048E-14
 -1       369 1.02299E-02-7.70951E-04-7.60151E-14
 -1       370 1.05449E-02-8.52655E-04-8.02185E-14
 -1       371 1.08513E-02-9.20319E-04-8.45170E-14
 -1       372 1.11490E-02-9.55798E-04-8.89064E-14
 -1       373 1.14416E-02-9.45438E-04-9.33766E-14
 -1       374 1.17352E-02-8.86502E-04-9.79314E-14
 -1       375 1.20345E-02-7.88508E-04-1.02565E-13
 -1       376 1.23410E-02-6.68015E-04-1.07262E-13
 -1       377 1.26522E-02-5.41290E-04-1.12002E-13
 -1       378 1.29644E-02-4.19305E-04-1.16780E-13
 -1       379 1.32743E-02-3.06475E-04-1.21596E-13
 -1       380 1.35793E-02-2.01888E-04-1.26434E-13
 -1       381 1.38784E-02-1.01356E-04-1.31291E-13
 -1       382 1.41364E-02-1.35219E-05-1.35655E-13
 -1       383 1.10998E-03 4.47899E-04-7.80710E-16
 -1       384 1.39072E-03 5.00978E-04-1.30120E-15
 -1       385 1.66902E-03 5.38601E-04-1.95584E-15
 -1       386 1.94641E-03 5.64889E-04-2.74584E-15
 -1       387 2.22381E-03 5.82843E-04-3.67202E-15
 -1       388 2.50176E-03 5.94694E-04-4.73363E-15
 -1       389 2.78054E-03 6.02111E-04-5.93097E-15
 -1       390 3.06026E-03 6.06338E-04-7.26384E-15
 -1       391 3.34091E-03 6.08292E-04-8.72917E-15
 -1       392 3.62244E-03 6.08632E-04-1.03302E-14
 -1       393 3.90478E-03 6.07816E-04-1.20687E-14
 -1       394 4.18785E-03 6.06142E-04-1.39438E-14
 -1       395 4.47158E-03 6.03785E-04-1.59564E-14
 -1       396 4.75593E-03 6.00822E-04-1.81073E-14
 -1       397 5.04091E-03 5.97260E-04-2.03894E-14
 -1       398 5.32656E-03 5.93050E-04-2.27994E-14
 -1       399 5.61297E-03 5.88113E-04-2.53392E-14
 -1       400 5.90032E-03 5.82359E-04-2.80104E-14
 -1       401 6.18885E-03 5.75712E-04-3.08076E-14
 -1       402 6.47889E-03 5.68146E-04-3.37219E-14
 -1       403 6.77088E-03 5.59728E-04-3.67473E-14
 -1       404 7.06539E-03 5.50691E-04-3.98824E-14
 -1       405 7.36309E-03 5.41526E-04-4.31294E-14
 -1       406 7.66482E-03 5.33119E-04-4.64898E-14
 -1       407 7.97152E-03 5.26941E-04-4.99548E-14
 -1       408 8.28424E-03 5.25301E-04-5.35208E-14
 -1       409 8.60408E-03 5.31647E-04-5.71939E-14
 -1       410 8.93204E-03 5.50880E-04-6.09666E-14
 -1       411 9.26886E-03 5.89485E-04-6.48385E-14
 -1       412 9.61461E-03 6.55135E-04-6.88069E-14
 -1       413 9.96804E-03 7.55063E-04-7.28764E-14
 -1       414 1.03257E-02 8.92352E-04-7.70485E-14
 -1       415 1.06812E-02 1.05976E-03-8.13197E-14
 -1       416 1.10262E-02 1.23326E-03-8.56883E-14
 -1       417 1.13554E-02 1.37238E-03-9.01528E-14
 -1       418 1.16723E-02 1.43607E-03-9.47059E-14
 -1       419 1.19890E-02 1.40840E-03-9.93456E-14
 -1       420 1.23165E-02 1.31024E-03-1.04057E-13
 -1       421 1.26564E-02 1.18329E-03-1.08809E-13
 -1       422 1.30024E-02 1.06448E-03-1.13592E-13
 -1       423 1.33461E-02 9.73066E-04-1.18388E-13
 -1       424 1.36817E-02 9.11961E-04-1.23194E-13
 -1       425 1.40063E-02 8.74316E-04-1.27999E-13
 -1       426 1.43190E-02 8.49225E-04-1.32809E-13
 -1       427 1.46207E-02 8.25237E-04-1.37617E-13
 -1       428 1.48144E-02 7.99816E-04-1.40710E-13
 -1       429 1.49396E-02 6.24957E-04-1.39338E-13
 -1       430 1.48630E-02 6.88657E-04-1.39460E-13
 -1       431 1.48356E-02 7.42204E-04-1.40087E-13
 -1       432 1.50056E-02 5.72114E-04-1.39214E-13
 -1       433 1.50521E-02 5.27629E-04-1.39075E-13
 -1       434 1.50678E-02 4.90005E-04-1.38925E-13
 -1       435 1.50467E-02 4.55129E-04-1.38764E-13
 -1       436 1.49884E-02 4.18256E-04-1.38590E-13
 -1       437 1.48978E-02 3.75310E-04-1.38405E-13
 -1       438 1.47855E-02 3.24825E-04-1.38205E-13
 -1       439 1.46571E-02 2.64547E-04-1.37987E-13
 -1       440 1.45231E-02 1.96175E-04-1.37759E-13
 -1       441 1.43901E-02 1.21331E-04-1.37529E-13
 -1       442 1.35750E-02 4.81923E-04-1.07034E-13
 -1       443 1.38478E-02 3.28982E-04-1.08436E-13
 -1       444 1.37838E-02 3.86790E-04-1.08272E-13
 -1       445 1.32621E-02 6.19077E-04-1.05720E-13
 -1       446 1.28875E-02 8.04280E-04-1.03741E-13
 -1       447 4.45599E-04-1.26512E-04-1.94364E-16
 -1       448 1.20254E-02 1.21791E-03-9.78201E-14
 -1       449 1.17290E-02 1.28332E-03-9.51700E-14
 -1       450 1.13439E-02 1.24001E-03-9.16490E-14
 -1       451 1.10407E-02 1.11551E-03-8.92157E-14
 -1       452 1.06154E-02 8.82948E-04-8.62826E-14
 -1       453 1.02406E-02 6.65960E-04-8.40360E-14
 -1       454 9.80697E-03 4.34157E-04-8.16978E-14
 -1       455 9.52085E-03 3.15971E-04-8.08006E-14
 -1       456 9.31135E-03 2.16894E-04-7.96078E-14
 -1       457 9.26336E-03 1.65455E-04-7.95996E-14
 -1       458 9.36841E-03 1.01558E-04-7.94972E-14
 -1       459 9.59837E-03 1.38160E-06-8.09564E-14
 -1       460 9.91101E-03-1.37082E-04-8.23006E-14
 -1       461 1.02679E-02-3.08335E-04-8.40079E-14
 -1       462 1.06212E-02-4.83757E-04-8.59684E-14
 -1       463 1.09770E-02-6.44218E-04-8.85751E-14
 -1       464 1.13291E-02-7.34131E-04-9.16781E-14
 -1       465 1.16875E-02-7.04823E-04-9.50114E-14
 -1       466 1.19858E-02-6.00108E-04-9.75541E-14
 -1       467 1.24006E-02-3.86787E-04-1.00822E-13
 -1       468 1.27242E-02-2.17327E-04-1.02717E-13
 -1       469 1.31345E-02-2.11034E-06-1.05159E-13
 -1       470 1.35275E-02 1.72097E-04-1.07051E-13
 -1       471 1.37349E-02 2.54781E-04-1.07827E-13
 -1       472 1.25027E-02 1.00158E-03-1.01514E-13
 -1       473 1.22451E-02 1.13065E-03-1.00276E-13
 -1       474 9.31254E-04 3.46095E-04-6.52907E-16
 -1       475 6.65851E-04-7.51605E-05-4.90564E-16
 -1       476 6.69808E-04-1.15929E-04-4.72472E-16
 -1       477 6.63187E-04 1.10513E-06-5.07512E-16
 -1       478 6.63905E-04 3.87808E-05-5.08345E-16
 -1       479 6.66040E-04 7.68467E-05-5.04290E-16
 -1       480 6.70124E-04 1.17769E-04-4.94044E-16
 -1       481 6.77122E-04 1.62394E-04-4.75653E-16
 -1       482 6.89028E-04 2.12763E-04-4.45699E-16
 -1       483 1.30834E-02 6.89101E-04-1.07038E-13
 -1       484 1.21713E-03 4.06600E-04-1.12430E-15
 -1       485 9.76290E-04-3.28716E-04-6.95567E-16
 -1       486 1.26221E-03-3.83584E-04-1.16952E-15
 -1       487 1.54723E-03-4.23353E-04-1.77073E-15
 -1       488 1.83135E-03-4.51417E-04-2.50158E-15
 -1       489 2.11488E-03-4.70678E-04-3.36345E-15
 -1       490 2.39814E-03-4.83420E-04-4.35577E-15
 -1       491 2.68138E-03-4.91404E-04-5.47971E-15
 -1       492 2.96476E-03-4.95962E-04-6.73406E-15
 -1       493 3.24838E-03-4.98084E-04-8.11986E-15
 -1       494 3.53227E-03-4.98487E-04-9.63497E-15
 -1       495 3.81647E-03-4.97675E-04-1.12788E-14
 -1       496 4.10097E-03-4.95981E-04-1.30520E-14
 -1       497 4.38576E-03-4.93606E-04-1.49562E-14
 -1       498 4.67086E-03-4.90652E-04-1.69928E-14
 -1       499 4.95625E-03-4.87141E-04-1.91586E-14
 -1       500 5.24198E-03-4.83045E-04-2.14546E-14
 -1       501 5.52808E-03-4.78305E-04-2.38812E-14
 -1       502 5.81463E-03-4.72851E-04-2.64355E-14
 -1       503 6.10173E-03-4.66633E-04-2.91196E-14
 -1       504 6.38951E-03-4.59653E-04-3.19281E-14
 -1       505 6.67815E-03-4.52007E-04-3.48596E-14
 -1       506 6.96789E-03-4.43942E-04-3.79115E-14
 -1       507 7.25901E-03-4.35921E-04-4.10757E-14
 -1       508 7.55190E-03-4.28714E-04-4.43487E-14
 -1       509 7.84704E-03-4.23486E-04-4.77336E-14
 -1       510 8.14503E-03-4.21899E-04-5.12249E-14
 -1       511 8.44664E-03-4.26188E-04-5.48144E-14
 -1       512 8.75281E-03-4.39171E-04-5.85035E-14
 -1       513 9.06453E-03-4.64118E-04-6.22892E-14
 -1       514 9.38256E-03-5.04336E-04-6.61711E-14
 -1       515 9.70693E-03-5.62227E-04-7.01420E-14
 -1       516 1.00360E-02-6.37565E-04-7.42021E-14
 -1       517 1.03661E-02-7.24886E-04-7.83533E-14
 -1       518 1.06915E-02-8.10915E-04-8.26015E-14
 -1       519 1.10080E-02-8.74660E-04-8.69436E-14
 -1       520 1.13162E-02-8.93880E-04-9.13754E-14
 -1       521 1.16223E-02-8.56274E-04-9.58878E-14
 -1       522 1.19339E-02-7.67252E-04-1.00486E-13
 -1       523 1.22539E-02-6.46127E-04-1.05154E-13
 -1       524 1.25792E-02-5.14592E-04-1.09868E-13
 -1       525 1.29043E-02-3.87986E-04-1.14624E-13
 -1       526 1.32244E-02-2.72900E-04-1.19416E-13
 -1       527 1.35368E-02-1.69115E-04-1.24233E-13
 -1       528 1.38409E-02-7.24355E-05-1.29071E-13
 -1       529 1.78397E-03 4.81181E-04-2.46229E-15
 -1       530 2.06595E-03 5.02528E-04-3.33087E-15
 -1       531 2.34769E-03 5.16821E-04-4.33344E-15
 -1       532 2.62951E-03 5.25963E-04-5.46974E-15
 -1       533 2.91163E-03 5.31387E-04-6.74008E-15
 -1       534 3.19417E-03 5.34159E-04-8.14271E-15
 -1       535 3.47716E-03 5.35058E-04-9.67753E-15
 -1       536 3.76061E-03 5.34630E-04-1.13475E-14
 -1       537 4.04450E-03 5.33243E-04-1.31526E-14
 -1       538 4.32882E-03 5.31124E-04-1.50934E-14
 -1       539 4.61355E-03 5.28389E-04-1.71697E-14
 -1       540 4.89870E-03 5.25071E-04-1.93814E-14
 -1       541 5.18428E-03 5.21138E-04-2.17206E-14
 -1       542 5.47036E-03 5.16515E-04-2.41887E-14
 -1       543 5.75702E-03 5.11106E-04-2.67885E-14
 -1       544 6.04439E-03 5.04813E-04-2.95167E-14
 -1       545 6.33263E-03 4.97564E-04-3.23648E-14
 -1       546 6.62199E-03 4.89355E-04-3.53266E-14
 -1       547 6.91274E-03 4.80303E-04-3.83987E-14
 -1       548 7.20522E-03 4.70717E-04-4.15855E-14
 -1       549 7.49987E-03 4.61210E-04-4.48806E-14
 -1       550 7.79718E-03 4.52842E-04-4.82855E-14
 -1       551 8.09779E-03 4.47323E-04-5.17946E-14
 -1       552 8.40253E-03 4.47260E-04-5.54096E-14
 -1       553 8.71250E-03 4.56460E-04-5.91267E-14
 -1       554 9.02928E-03 4.80216E-04-6.29399E-14
 -1       555 9.35505E-03 5.25457E-04-6.68515E-14
 -1       556 9.69246E-03 6.00403E-04-7.08566E-14
 -1       557 1.00436E-02 7.12932E-04-7.49613E-14
 -1       558 1.04075E-02 8.66312E-04-7.91656E-14
 -1       559 1.07773E-02 1.05057E-03-8.34642E-14
 -1       560 1.11404E-02 1.23148E-03-8.78569E-14
 -1       561 1.14884E-02 1.35235E-03-9.23452E-14
 -1       562 1.18293E-02 1.36836E-03-9.69265E-14
 -1       563 1.21780E-02 1.28451E-03-1.01599E-13
 -1       564 1.25398E-02 1.14905E-03-1.06330E-13
 -1       565 1.29038E-02 1.01579E-03-1.11095E-13
 -1       566 1.32587E-02 9.12166E-04-1.15885E-13
 -1       567 1.35986E-02 8.43662E-04-1.20685E-13
 -1       568 1.39232E-02 8.03533E-04-1.25489E-13
 -1       569 1.42347E-02 7.80791E-04-1.30298E-13
 -1       570 1.45355E-02 7.63696E-04-1.35106E-13
 -1       571 1.48011E-02 5.42824E-04-1.34962E-13
 -1       572 1.48386E-02 4.93919E-04-1.34805E-13
 -1       573 1.46567E-02 6.66075E-04-1.35223E-13
 -1       574 1.47362E-02 5.99854E-04-1.35101E-13
 -1       575 1.48383E-02 4.50166E-04-1.34642E-13
 -1       576 1.47963E-02 4.06328E-04-1.34467E-13
 -1       577 1.47157E-02 3.57176E-04-1.34282E-13
 -1       578 1.46074E-02 3.00455E-04-1.34086E-13
 -1       579 1.44789E-02 2.33593E-04-1.33870E-13
 -1       580 1.43423E-02 1.58910E-04-1.33645E-13
 -1       581 1.42055E-02 7.87959E-05-1.33413E-13
 -1       582 1.38711E-02 3.58553E-04-1.11086E-13
 -1       583 1.34530E-02 5.19120E-04-1.08851E-13
 -1       584 1.50124E-03 4.50285E-04-1.72722E-15
 -1       585 1.38464E-02 3.13362E-04-1.10814E-13
 -1       586 1.36977E-02 4.25189E-04-1.10089E-13
 -1       587 1.29006E-02-8.50780E-05-1.05697E-13
 -1       588 1.27513E-02 8.63110E-04-1.04793E-13
 -1       589 1.15069E-02-7.49421E-04-9.34659E-14
 -1       590 6.63793E-04-3.65352E-05-5.01938E-16
 -1       591 1.04584E-02 7.56508E-04-8.37823E-14
 -1       592 1.18750E-02 1.27958E-03-9.69672E-14
 -1       593 1.15556E-02 1.30290E-03-9.34926E-14
 -1       594 1.11840E-02 1.18623E-03-8.94711E-14
 -1       595 1.33496E-02 1.27138E-04-1.08281E-13
 -1       596 1.08485E-02 9.96396E-04-8.65316E-14
 -1       597 1.00409E-02 5.19789E-04-8.13342E-14
 -1       598 9.61811E-03 3.23048E-04-7.93429E-14
 -1       599 9.37316E-03 2.29081E-04-7.81597E-14
 -1       600 9.24325E-03 1.74756E-04-7.77101E-14
 -1       601 9.25636E-03 1.38840E-04-7.74235E-14
 -1       602 9.48653E-03 5.49773E-05-7.82058E-14
 -1       603 9.73695E-03-4.19121E-05-7.95215E-14
 -1       604 1.00358E-02-1.77365E-04-8.11948E-14
 -1       605 1.04185E-02-3.77336E-04-8.32866E-14
 -1       606 1.07933E-02-5.73421E-04-8.62024E-14
 -1       607 1.11435E-02-7.17224E-04-8.94679E-14
 -1       608 1.18242E-02-6.65564E-04-9.69730E-14
 -1       609 1.21621E-02-4.98243E-04-1.00240E-13
 -1       610 1.26167E-02-2.39254E-04-1.03786E-13
 -1       611 1.36734E-02 2.51044E-04-1.09908E-13
 -1       612 7.12628E-04-2.51879E-04-3.84970E-16
 -1       613 7.03816E-04 2.90944E-04-3.59383E-16
 -1       614 6.76632E-04-1.60098E-04-4.45834E-16
 -1       615 1.20833E-02 1.22245E-03-9.94129E-14
 -1       616 1.25171E-02 1.00272E-03-1.03542E-13
 -1       617 9.31058E-03 9.90805E-05-7.61406E-14
 -1       618 9.80831E-03 4.04089E-04-7.89714E-14
 -1       619 1.40395E-02-9.75775E-06-1.32353E-13
 -1       620 8.99813E-04 7.41426E-05-8.73518E-16
 -1       621 8.97731E-04 2.51899E-05-8.75934E-16
 -1       622 9.11857E-04 1.78290E-04-8.41405E-16
 -1       623 9.24213E-04 2.36863E-04-8.06894E-16
 -1       624 1.39383E-02 3.46816E-04-1.13674E-13
 -1       625 1.04888E-03 3.14002E-04-9.40186E-16
 -1       626 1.38331E-03-3.37154E-04-1.55077E-15
 -1       627 1.66950E-03-3.68075E-04-2.23409E-15
 -1       628 1.95571E-03-3.89853E-04-3.04543E-15
 -1       629 2.24175E-03-4.04632E-04-3.98621E-15
 -1       630 2.52761E-03-4.14194E-04-5.05641E-15
 -1       631 2.81333E-03-4.19946E-04-6.25558E-15
 -1       632 3.09895E-03-4.22963E-04-7.58415E-15
 -1       633 3.38453E-03-4.24042E-04-9.04226E-15
 -1       634 3.67009E-03-4.23756E-04-1.06294E-14
 -1       635 3.95567E-03-4.22497E-04-1.23444E-14
 -1       636 4.24127E-03-4.20513E-04-1.41881E-14
 -1       637 4.52690E-03-4.17943E-04-1.61641E-14
 -1       638 4.81259E-03-4.14842E-04-1.82697E-14
 -1       639 5.09833E-03-4.11201E-04-2.05050E-14
 -1       640 5.38415E-03-4.06969E-04-2.28702E-14
 -1       641 5.67005E-03-4.02076E-04-2.53643E-14
 -1       642 5.95607E-03-3.96450E-04-2.79875E-14
 -1       643 6.24225E-03-3.90047E-04-3.07373E-14
 -1       644 6.52865E-03-3.82882E-04-3.36099E-14
 -1       645 6.81536E-03-3.75073E-04-3.66048E-14
 -1       646 7.10254E-03-3.66892E-04-3.97138E-14
 -1       647 7.39043E-03-3.58830E-04-4.29337E-14
 -1       648 7.67941E-03-3.51681E-04-4.62634E-14
 -1       649 7.97007E-03-3.46625E-04-4.97027E-14
 -1       650 8.26331E-03-3.45335E-04-5.32442E-14
 -1       651 8.56044E-03-3.50075E-04-5.68844E-14
 -1       652 8.86323E-03-3.63780E-04-6.06227E-14
 -1       653 9.17387E-03-3.90070E-04-6.44563E-14
 -1       654 9.49451E-03-4.33014E-04-6.83819E-14
 -1       655 9.82620E-03-4.96231E-04-7.23946E-14
 -1       656 1.01672E-02-5.80554E-04-7.64959E-14
 -1       657 1.05116E-02-6.79503E-04-8.06913E-14
 -1       658 1.08504E-02-7.74123E-04-8.49877E-14
 -1       659 1.11779E-02-8.32784E-04-8.93745E-14
 -1       660 1.14974E-02-8.26912E-04-9.38458E-14
 -1       661 1.18210E-02-7.50336E-04-9.84087E-14
 -1       662 1.21552E-02-6.25198E-04-1.03046E-13
 -1       663 1.24980E-02-4.83365E-04-1.07739E-13
 -1       664 1.28404E-02-3.48541E-04-1.12471E-13
 -1       665 1.31745E-02-2.30283E-04-1.17242E-13
 -1       666 1.34969E-02-1.28017E-04-1.22037E-13
 -1       667 1.38073E-02-3.65837E-05-1.26858E-13
 -1       668 2.19066E-03 4.37535E-04-3.93214E-15
 -1       669 1.43683E-02 6.71387E-04-1.30412E-13
 -1       670 1.38260E-02 2.97773E-04-1.12987E-13
 -1       671 1.90567E-03 4.20796E-04-2.98728E-15
 -1       672 2.76010E-03 4.55297E-04-6.21715E-15
 -1       673 3.04477E-03 4.59056E-04-7.55705E-15
 -1       674 3.32952E-03 4.60671E-04-9.02740E-15
 -1       675 3.61439E-03 4.60775E-04-1.06311E-14
 -1       676 3.89939E-03 4.59805E-04-1.23680E-14
 -1       677 4.18453E-03 4.58043E-04-1.42385E-14
 -1       678 4.46984E-03 4.55648E-04-1.62432E-14
 -1       679 4.75531E-03 4.52687E-04-1.83808E-14
 -1       680 5.04095E-03 4.49157E-04-2.06510E-14
 -1       681 5.32679E-03 4.45000E-04-2.30492E-14
 -1       682 5.61285E-03 4.40130E-04-2.55774E-14
 -1       683 5.89917E-03 4.34445E-04-2.82343E-14
 -1       684 6.18580E-03 4.27857E-04-3.10157E-14
 -1       685 6.47279E-03 4.20320E-04-3.39141E-14
 -1       686 6.76021E-03 4.11873E-04-3.69253E-14
 -1       687 7.04814E-03 4.02694E-04-4.00487E-14
 -1       688 7.33668E-03 3.93183E-04-4.32844E-14
 -1       689 7.62595E-03 3.84058E-04-4.66282E-14
 -1       690 7.91618E-03 3.76497E-04-5.00781E-14
 -1       691 8.20779E-03 3.72305E-04-5.36332E-14
 -1       692 8.50157E-03 3.74134E-04-5.72928E-14
 -1       693 8.79903E-03 3.85736E-04-6.10536E-14
 -1       694 9.10289E-03 4.12294E-04-6.49080E-14
 -1       695 9.41761E-03 4.60864E-04-6.88563E-14
 -1       696 9.74949E-03 5.40855E-04-7.28976E-14
 -1       697 1.01047E-02 6.63158E-04-7.70353E-14
 -1       698 1.04851E-02 8.35847E-04-8.12661E-14
 -1       699 1.28100E-02 9.58821E-04-1.08605E-13
 -1       700 1.31839E-02 8.40091E-04-1.13381E-13
 -1       701 1.35323E-02 7.66537E-04-1.18173E-13
 -1       702 1.38574E-02 7.27136E-04-1.22975E-13
 -1       703 1.41185E-02 6.93770E-04-1.26690E-13
 -1       704 1.46060E-02 4.04116E-04-1.30360E-13
 -1       705 1.40084E-02 2.07386E-05-1.30129E-13
 -1       706 1.46013E-02 5.02138E-04-1.30705E-13
 -1       707 1.45372E-02 3.52499E-04-1.30173E-13
 -1       708 1.46273E-02 4.51457E-04-1.30540E-13
 -1       709 1.13245E-02-7.66741E-04-9.13620E-14
 -1       710 1.44321E-02 2.91927E-04-1.29978E-13
 -1       711 1.43011E-02 2.18747E-04-1.29769E-13
 -1       712 1.41597E-02 1.35984E-04-1.29547E-13
 -1       713 1.36478E-02 4.77972E-04-1.12480E-13
 -1       714 9.84525E-03-1.24726E-04-7.81298E-14
 -1       715 1.38636E-02 3.98744E-04-1.13502E-13
 -1       716 1.35714E-02 2.09490E-04-1.11548E-13
 -1       717 1.29648E-02 7.89813E-04-1.08165E-13
 -1       718 1.02031E-02 6.18526E-04-8.05373E-14
 -1       719 1.09251E-02-6.64721E-04-8.67538E-14
 -1       720 1.62032E-03 3.96317E-04-2.17455E-15
 -1       721 2.47542E-03 4.48518E-04-5.00837E-15
 -1       722 1.09773E-03-2.94739E-04-9.93932E-16
 -1       723 1.31721E-02 3.92946E-05-1.09315E-13
 -1       724 9.04252E-04 1.24664E-04-8.62645E-16
 -1       725 1.33508E-02 5.97875E-04-1.10658E-13
 -1       726 1.24122E-02-3.67958E-04-1.03552E-13
 -1       727 9.03880E-04-1.22255E-04-8.34761E-16
 -1       728 1.16304E-02-7.43409E-04-9.51882E-14
 -1       729 9.18628E-03 1.48520E-04-7.53513E-14
 -1       730 9.44760E-03 2.56170E-04-7.66974E-14
 -1       731 1.05710E-02-4.95974E-04-8.33114E-14
 -1       732 9.23738E-03 1.82351E-04-7.56118E-14
 -1       733 9.60288E-03-1.94833E-05-7.68325E-14
 -1       734 1.33462E-03 3.61643E-04-1.49247E-15
 -1       735 1.01743E-02-2.87814E-04-8.01804E-14
 -1       736 1.20027E-02-5.99185E-04-9.96642E-14
 -1       737 1.27857E-02-1.53553E-04-1.06426E-13
 -1       738 1.05608E-02 8.32258E-04-8.32342E-14
 -1       739 1.08279E-02 1.01895E-03-8.50121E-14
 -1       740 9.11263E-04-1.75685E-04-8.01730E-16
 -1       741 8.97668E-04-2.31669E-05-8.70472E-16
 -1       742 1.23500E-02 1.12126E-03-1.02668E-13
 -1       743 9.18264E-03 1.16365E-04-7.40825E-14
 -1       744 1.45387E-02 5.61448E-04-1.30856E-13
 -1       745 1.11076E-02-7.49830E-04-8.86184E-14
 -1       746 9.38803E-03 3.73601E-05-7.47823E-14
 -1       747 8.99606E-04-7.18567E-05-8.57086E-16
 -1       748 9.38228E-04-2.47225E-04-7.62787E-16
 -1       749 9.59164E-03 3.23247E-04-7.63204E-14
 -1       750 1.39831E-02 5.26850E-05-1.28203E-13
 -1       751 1.16156E-03 2.43706E-04-1.27156E-15
 -1       752 9.61574E-03-9.43337E-05-7.48330E-14
 -1       753 1.36141E-02 5.60925E-04-1.14915E-13
 -1       754 1.79734E-03-3.09587E-04-2.72277E-15
 -1       755 2.08502E-03-3.25653E-04-3.61201E-15
 -1       756 2.37282E-03-3.36397E-04-4.62934E-15
 -1       757 2.66054E-03-3.43160E-04-5.77442E-15
 -1       758 2.94805E-03-3.47015E-04-7.04810E-15
 -1       759 3.23532E-03-3.48787E-04-8.44978E-15
 -1       760 3.52234E-03-3.49087E-04-9.97880E-15
 -1       761 3.80912E-03-3.48343E-04-1.16366E-14
 -1       762 4.09568E-03-3.46843E-04-1.34219E-14
 -1       763 4.38203E-03-3.44759E-04-1.53371E-14
 -1       764 4.66818E-03-3.42175E-04-1.73827E-14
 -1       765 4.95413E-03-3.39107E-04-1.95568E-14
 -1       766 5.23987E-03-3.35524E-04-2.18612E-14
 -1       767 5.52539E-03-3.31362E-04-2.42953E-14
 -1       768 5.81064E-03-3.26546E-04-2.68586E-14
 -1       769 6.09561E-03-3.21006E-04-2.95485E-14
 -1       770 6.38025E-03-3.14702E-04-3.23631E-14
 -1       771 6.66454E-03-3.07654E-04-3.53005E-14
 -1       772 6.94849E-03-2.99977E-04-3.83541E-14
 -1       773 7.23218E-03-2.91926E-04-4.15214E-14
 -1       774 7.51581E-03-2.83955E-04-4.47989E-14
 -1       775 7.79979E-03-2.76778E-04-4.81849E-14
 -1       776 8.08486E-03-2.71462E-04-5.16748E-14
 -1       777 8.37227E-03-2.69534E-04-5.52661E-14
 -1       778 8.66395E-03-2.73154E-04-5.89572E-14
 -1       779 8.96271E-03-2.85365E-04-6.27429E-14
 -1       780 9.27223E-03-3.10446E-04-6.66236E-14
 -1       781 9.59654E-03-3.54157E-04-7.05918E-14
 -1       782 9.93845E-03-4.23159E-04-7.46450E-14
 -1       783 1.02962E-02-5.21490E-04-7.87899E-14
 -1       784 1.06601E-02-6.40554E-04-8.30333E-14
 -1       785 1.16976E-02-7.45489E-04-9.63293E-14
 -1       786 1.27786E-02-3.00583E-04-1.10319E-13
 -1       787 1.31292E-02-1.76322E-04-1.15069E-13
 -1       788 1.34622E-02-7.59517E-05-1.19846E-13
 -1       789 1.37276E-02-9.47180E-06-1.24014E-13
 -1       790 1.02954E-02-4.23827E-04-7.98289E-14
 -1       791 1.40147E-02 3.83894E-04-1.16589E-13
 -1       792 3.18008E-03 3.85424E-04-8.38164E-15
 -1       793 2.89350E-03 3.83033E-04-6.97497E-15
 -1       794 3.75278E-03 3.85696E-04-1.15888E-14
 -1       795 4.03894E-03 3.84393E-04-1.33908E-14
 -1       796 4.32500E-03 3.82444E-04-1.53260E-14
 -1       797 4.61097E-03 3.79952E-04-1.73929E-14
 -1       798 4.89685E-03 3.76942E-04-1.95920E-14
 -1       799 5.18264E-03 3.73385E-04-2.19189E-14
 -1       800 5.46832E-03 3.69215E-04-2.43761E-14
 -1       801 5.75387E-03 3.64344E-04-2.69623E-14
 -1       802 6.03925E-03 3.58684E-04-2.96756E-14
 -1       803 6.32438E-03 3.52175E-04-3.25102E-14
 -1       804 6.60918E-03 3.44812E-04-3.54595E-14
 -1       805 6.89353E-03 3.36690E-04-3.85215E-14
 -1       806 7.17727E-03 3.28057E-04-4.16964E-14
 -1       807 7.46022E-03 3.19382E-04-4.49818E-14
 -1       808 7.74224E-03 3.11436E-04-4.83736E-14
 -1       809 8.02325E-03 3.05393E-04-5.18694E-14
 -1       810 8.30345E-03 3.02933E-04-5.54715E-14
 -1       811 8.58358E-03 3.06393E-04-5.91754E-14
 -1       812 8.86547E-03 3.18975E-04-6.29757E-14
 -1       813 9.15276E-03 3.45210E-04-6.68689E-14
 -1       814 9.45169E-03 3.91994E-04-7.08549E-14
 -1       815 9.77486E-03 4.71787E-04-7.49309E-14
 -1       816 1.31397E-02 7.53822E-04-1.10877E-13
 -1       817 1.13834E-03 5.90803E-05-1.33813E-15
 -1       818 9.90176E-03-2.19367E-04-7.68425E-14
 -1       819 1.43679E-02 3.55645E-04-1.26089E-13
 -1       820 1.39770E-02 1.25402E-04-1.25470E-13
 -1       821 1.42653E-02 2.94751E-04-1.25894E-13
 -1       822 1.14268E-02-7.90355E-04-9.26945E-14
 -1       823 1.41280E-02 2.16950E-04-1.25688E-13
 -1       824 1.38118E-02 6.42337E-04-1.20457E-13
 -1       825 1.34920E-02 6.76811E-04-1.15660E-13
 -1       826 9.24669E-03 2.05344E-04-7.34895E-14
 -1       827 3.46650E-03 3.86149E-04-9.91954E-15
 -1       828 2.03276E-03 3.57729E-04-3.53165E-15
 -1       829 1.39920E-02 3.34937E-04-1.16550E-13
 -1       830 1.74571E-03 3.39174E-04-2.64356E-15
 -1       831 1.34722E-02 1.38219E-04-1.13274E-13
 -1       832 1.24622E-03 3.00937E-04-1.38521E-15
 -1       833 1.38911E-02 4.55440E-04-1.16679E-13
 -1       834 1.37820E-02 2.63740E-04-1.14817E-13
 -1       835 9.84293E-03 4.57519E-04-7.69028E-14
 -1       836 1.14350E-03-2.53669E-04-1.15317E-15
 -1       837 1.51026E-03-2.86588E-04-1.96103E-15
 -1       838 9.11330E-03 1.51563E-04-7.27148E-14
 -1       839 1.24396E-02-4.24682E-04-1.05653E-13
 -1       840 1.13698E-03 1.19846E-06-1.33554E-15
 -1       841 1.31841E-02-1.43116E-06-1.11655E-13
 -1       842 1.44190E-02 4.06281E-04-1.26274E-13
 -1       843 9.21394E-03 6.78011E-05-7.27400E-14
 -1       844 1.43505E-02 5.15732E-04-1.26609E-13
 -1       845 2.31982E-03 3.70257E-04-4.54937E-15
 -1       846 2.60675E-03 3.78288E-04-5.69711E-15
 -1       847 1.14929E-03-1.76182E-04-1.26074E-15
 -1       848 9.06096E-03 1.21843E-04-7.14674E-14
 -1       849 1.14243E-03 1.17856E-04-1.32932E-15
 -1       850 1.40684E-02 6.14822E-04-1.24172E-13
 -1       851 1.44108E-02 4.55730E-04-1.26450E-13
 -1       852 1.14985E-03 1.79179E-04-1.30782E-15
 -1       853 9.33950E-03 2.54118E-04-7.31134E-14
 -1       854 9.39714E-03-3.29666E-05-7.28098E-14
 -1       855 1.42411E-02 5.96934E-04-1.26658E-13
 -1       856 1.14209E-03-1.15255E-04-1.29819E-15
 -1       857 1.27565E-02-2.31035E-04-1.08383E-13
 -1       858 1.49561E-03 3.24237E-04-1.96381E-15
 -1       859 1.38518E-02 5.98210E-05-1.24742E-13
 -1       860 1.34928E-02 8.63898E-05-1.15887E-13
 -1       861 9.05133E-03 1.68635E-04-7.01910E-14
 -1       862 2.21845E-03-2.58912E-04-4.20126E-15
 -1       863 2.50755E-03-2.66166E-04-5.29286E-15
 -1       864 2.79658E-03-2.70564E-04-6.51116E-15
 -1       865 3.08535E-03-2.72882E-04-7.85701E-15
 -1       866 3.37376E-03-2.73713E-04-9.32935E-15
 -1       867 3.66176E-03-2.73491E-04-1.09287E-14
 -1       868 3.94935E-03-2.72516E-04-1.26566E-14
 -1       869 4.23652E-03-2.70979E-04-1.45129E-14
 -1       870 4.52327E-03-2.68987E-04-1.64981E-14
 -1       871 4.80960E-03-2.66578E-04-1.86124E-14
 -1       872 5.09549E-03-2.63744E-04-2.08552E-14
 -1       873 5.38089E-03-2.60436E-04-2.32293E-14
 -1       874 5.66574E-03-2.56589E-04-2.57327E-14
 -1       875 5.94994E-03-2.52125E-04-2.83633E-14
 -1       876 6.23339E-03-2.46975E-04-3.11211E-14
 -1       877 6.51597E-03-2.41097E-04-3.39996E-14
 -1       878 6.79754E-03-2.34494E-04-3.69991E-14
 -1       879 7.07803E-03-2.27247E-04-4.01112E-14
 -1       880 7.35742E-03-2.19540E-04-4.33356E-14
 -1       881 7.63585E-03-2.11704E-04-4.66700E-14
 -1       882 7.91371E-03-2.04267E-04-5.01103E-14
 -1       883 8.19182E-03-1.98033E-04-5.36513E-14
 -1       884 8.47164E-03-1.94221E-04-5.72953E-14
 -1       885 8.75563E-03-1.94740E-04-6.10346E-14
 -1       886 9.04759E-03-2.02714E-04-6.48685E-14
 -1       887 9.35304E-03-2.23476E-04-6.87928E-14
 -1       888 9.67900E-03-2.65731E-04-7.27997E-14
 -1       889 1.34400E-02-1.14922E-05-1.17654E-13
 -1       890 1.28778E-03-2.08601E-04-1.52932E-15
 -1       891 4.17932E-03 3.08654E-04-1.44179E-14
 -1       892 3.89238E-03 3.10082E-04-1.25524E-14
 -1       893 4.75222E-03 3.04313E-04-1.85431E-14
 -1       894 5.03817E-03 3.01458E-04-2.07998E-14
 -1       895 5.32373E-03 2.98104E-04-2.31861E-14
 -1       896 5.60886E-03 2.94186E-04-2.57016E-14
 -1       897 5.89343E-03 2.89635E-04-2.83462E-14
 -1       898 6.17731E-03 2.84390E-04-3.11162E-14
 -1       899 6.46031E-03 2.78433E-04-3.40020E-14
 -1       900 6.74216E-03 2.71812E-04-3.70017E-14
 -1       901 7.02256E-03 2.64683E-04-4.01163E-14
 -1       902 7.30109E-03 2.57353E-04-4.33431E-14
 -1       903 7.57732E-03 2.50325E-04-4.66776E-14
 -1       904 7.85076E-03 2.44352E-04-5.01165E-14
 -1       905 8.12098E-03 2.40464E-04-5.36595E-14
 -1       906 8.38775E-03 2.40003E-04-5.73064E-14
 -1       907 8.65134E-03 2.44662E-04-6.10521E-14
 -1       908 8.91306E-03 2.56637E-04-6.48939E-14
 -1       909 9.17677E-03 2.79307E-04-6.88282E-14
 -1       910 1.41385E-02 4.33465E-04-1.20717E-13
 -1       911 9.64232E-03-1.96675E-04-7.32826E-14
 -1       912 9.97735E-03-3.49540E-04-7.60184E-14
 -1       913 1.39048E-02 5.32165E-04-1.19354E-13
 -1       914 1.41141E-02 3.04484E-04-1.21825E-13
 -1       915 1.87599E-03 2.78827E-04-3.13466E-15
 -1       916 4.46593E-03 3.06712E-04-1.64145E-14
 -1       917 3.02957E-03 3.09452E-04-7.74208E-15
 -1       918 1.41748E-02 3.79219E-04-1.20684E-13
 -1       919 1.31111E-02-1.03800E-04-1.13007E-13
 -1       920 1.13818E-03-5.65334E-05-1.32245E-15
 -1       921 1.64171E-03-2.31837E-04-2.39934E-15
 -1       922 1.92964E-03-2.47841E-04-3.23681E-15
 -1       923 1.37805E-02 2.18156E-04-1.17448E-13
 -1       924 1.39899E-02 3.04078E-04-1.18479E-13
 -1       925 9.10160E-03 2.05408E-04-6.98219E-14
 -1       926 9.20546E-03 6.74075E-06-7.07931E-14
 -1       927 1.40135E-03 2.37147E-04-1.83699E-15
 -1       928 2.16430E-03 2.92094E-04-4.09378E-15
 -1       929 9.04262E-03 8.24920E-05-7.01493E-14
 -1       930 1.36490E-02 2.53836E-05-1.21192E-13
 -1       931 2.74133E-03 3.06394E-04-6.39797E-15
 -1       932 3.60511E-03 3.10865E-04-1.08176E-14
 -1       933 9.42606E-03-1.27760E-04-7.12806E-14
 -1       934 1.62457E-03 2.70169E-04-2.39218E-15
 -1       935 8.95899E-03 1.35855E-04-6.89691E-14
 -1       936 3.31751E-03 3.10773E-04-9.21453E-15
 -1       937 1.38114E-03 3.41196E-05-1.89501E-15
 -1       938 1.38428E-03 9.98790E-05-1.89120E-15
 -1       939 1.38152E-02 1.36944E-04-1.21411E-13
 -1       940 1.27887E-03-1.42591E-04-1.57735E-15
 -1       941 1.39081E-03 1.67316E-04-1.87234E-15
 -1       942 2.64548E-03-1.94141E-04-5.97533E-15
 -1       943 2.93540E-03-1.96656E-04-7.26467E-15
 -1       944 3.22498E-03-1.97820E-04-8.68065E-15
 -1       945 3.51408E-03-1.98019E-04-1.02229E-14
 -1       946 3.80266E-03-1.97533E-04-1.18934E-14
 -1       947 4.09067E-03-1.96547E-04-1.36908E-14
 -1       948 4.37810E-03-1.95173E-04-1.56176E-14
 -1       949 4.66494E-03-1.93465E-04-1.76717E-14
 -1       950 4.95116E-03-1.91431E-04-1.98542E-14
 -1       951 5.23670E-03-1.89044E-04-2.21670E-14
 -1       952 5.52147E-03-1.86254E-04-2.46103E-14
 -1       953 5.80536E-03-1.82992E-04-2.71827E-14
 -1       954 6.08820E-03-1.79184E-04-2.98804E-14
 -1       955 6.36979E-03-1.74758E-04-3.27029E-14
 -1       956 6.64992E-03-1.69657E-04-3.56465E-14
 -1       957 6.92834E-03-1.63845E-04-3.87061E-14
 -1       958 7.20484E-03-1.57330E-04-4.18766E-14
 -1       959 7.47928E-03-1.50170E-04-4.51593E-14
 -1       960 7.75163E-03-1.42500E-04-4.85472E-14
 -1       961 8.02212E-03-1.34560E-04-5.20378E-14
 -1       962 8.29142E-03-1.26763E-04-5.56352E-14
 -1       963 8.56087E-03-1.19857E-04-5.93271E-14
 -1       964 8.83298E-03-1.15318E-04-6.31173E-14
 -1       965 9.11207E-03-1.16189E-04-6.69971E-14
 -1       966 1.77689E-03-1.72734E-04-2.86372E-15
 -1       967 5.17928E-03 2.26549E-04-2.20065E-14
 -1       968 4.89358E-03 2.29023E-04-1.96914E-14
 -1       969 5.74853E-03 2.20306E-04-2.70273E-14
 -1       970 6.03176E-03 2.16447E-04-2.97285E-14
 -1       971 6.31375E-03 2.12064E-04-3.25522E-14
 -1       972 6.59418E-03 2.07188E-04-3.54901E-14
 -1       973 6.87264E-03 2.01925E-04-3.85445E-14
 -1       974 7.14860E-03 1.96487E-04-4.17115E-14
 -1       975 7.42144E-03 1.91223E-04-4.49899E-14
 -1       976 7.69043E-03 1.86641E-04-4.83708E-14
 -1       977 7.95472E-03 1.83415E-04-5.18561E-14
 -1       978 8.21333E-03 1.82359E-04-5.54474E-14
 -1       979 8.46524E-03 1.84375E-04-5.91388E-14
 -1       980 8.70945E-03 1.90372E-04-6.29276E-14
 -1       981 4.03311E-03 2.34208E-04-1.35196E-14
 -1       982 1.39657E-02 2.23603E-04-1.21676E-13
 -1       983 2.45285E-03 3.00908E-04-5.18148E-15
 -1       984 1.38105E-03-3.12697E-05-1.88472E-15
 -1       985 2.06572E-03-1.82883E-04-3.77476E-15
 -1       986 5.46431E-03 2.23659E-04-2.44534E-14
 -1       987 2.35546E-03-1.89764E-04-4.81194E-15
 -1       988 1.38397E-03-9.69583E-05-1.86082E-15
 -1       989 1.61281E-03 1.95271E-04-2.43714E-15
 -1       990 2.01029E-03 2.15266E-04-3.64461E-15
 -1       991 2.87882E-03 2.33080E-04-7.10896E-15
 -1       992 3.74526E-03 2.35097E-04-1.17220E-14
 -1       993 4.60729E-03 2.31121E-04-1.75058E-14
 -1       994 8.94515E-03 2.01411E-04-6.68129E-14
 -1       995 8.89441E-03 1.00072E-04-6.76791E-14
 -1       996 4.32046E-03 2.32857E-04-1.54474E-14
 -1       997 3.16807E-03 2.34821E-04-8.51781E-15
 -1       998 1.62768E-03 1.55834E-06-2.54106E-15
 -1       999 9.16881E-03-5.45037E-05-6.88906E-14
 -1      1000 8.91032E-03 1.64787E-04-6.71809E-14
 -1      1001 1.62941E-03 7.31164E-05-2.54551E-15
 -1      1002 2.29963E-03 2.24003E-04-4.67162E-15
 -1      1003 1.62924E-03-7.00260E-05-2.52027E-15
 -1      1004 8.94139E-03 2.43054E-05-6.70851E-14
 -1      1005 3.07664E-03-1.21714E-04-8.03403E-15
 -1      1006 3.36663E-03-1.22113E-04-9.51925E-15
 -1      1007 3.65605E-03-1.21986E-04-1.11307E-14
 -1      1008 3.94483E-03-1.21482E-04-1.28707E-14
 -1      1009 4.23293E-03-1.20695E-04-1.47379E-14
 -1      1010 4.52033E-03-1.19676E-04-1.67340E-14
 -1      1011 4.80700E-03-1.18442E-04-1.88573E-14
 -1      1012 5.09287E-03-1.16983E-04-2.11093E-14
 -1      1013 5.37785E-03-1.15267E-04-2.34914E-14
 -1      1014 5.66181E-03-1.13245E-04-2.60047E-14
 -1      1015 5.94456E-03-1.10854E-04-2.86438E-14
 -1      1016 6.22586E-03-1.08023E-04-3.14086E-14
 -1      1017 6.50542E-03-1.04670E-04-3.42948E-14
 -1      1018 6.78291E-03-1.00709E-04-3.73005E-14
 -1      1019 7.05796E-03-9.60462E-05-4.04200E-14
 -1      1020 7.33019E-03-9.05850E-05-4.36507E-14
 -1      1021 7.59922E-03-8.42213E-05-4.69880E-14
 -1      1022 7.86476E-03-7.68470E-05-5.04299E-14
 -1      1023 8.12663E-03-6.83644E-05-5.39733E-14
 -1      1024 8.38491E-03-5.87249E-05-5.76210E-14
 -1      1025 8.64016E-03-4.80836E-05-6.13650E-14
 -1      1026 8.89890E-03-4.81998E-05-6.50874E-14
 -1      1027 6.44927E-03 1.42060E-04-3.39874E-14
 -1      1028 5.03507E-03 1.54353E-04-2.08393E-14
 -1      1029 8.69220E-03 1.54221E-04-6.32914E-14
 -1      1030 6.16933E-03 1.45123E-04-3.11099E-14
 -1      1031 5.88764E-03 1.47898E-04-2.83525E-14
 -1      1032 6.72701E-03 1.38793E-04-3.69793E-14
 -1      1033 7.00200E-03 1.35479E-04-4.00877E-14
 -1      1034 7.27359E-03 1.32379E-04-4.33088E-14
 -1      1035 7.54093E-03 1.29869E-04-4.66341E-14
 -1      1036 7.80304E-03 1.28446E-04-5.00614E-14
 -1      1037 8.05865E-03 1.28709E-04-5.35948E-14
 -1      1038 8.30612E-03 1.31285E-04-5.72327E-14
 -1      1039 8.50182E-03 1.41840E-04-6.02308E-14
 -1      1040 2.58927E-03 2.29682E-04-5.82670E-15
 -1      1041 5.32028E-03 1.52500E-04-2.32143E-14
 -1      1042 3.45690E-03 2.35379E-04-1.00549E-14
 -1      1043 1.61979E-03 1.33909E-04-2.49746E-15
 -1      1044 5.60453E-03 1.50356E-04-2.57198E-14
 -1      1045 2.78622E-03-1.20579E-04-6.67527E-15
 -1      1046 1.91551E-03-1.09542E-04-3.35299E-15
 -1      1047 8.76276E-03 1.21853E-04-6.50482E-14
 -1      1048 1.87729E-03-3.64518E-05-3.27485E-15
 -1      1049 4.74904E-03 1.55938E-04-1.85950E-14
 -1      1050 3.88676E-03 1.59120E-04-1.26311E-14
 -1      1051 2.72866E-03 1.56805E-04-6.48338E-15
 -1      1052 1.87738E-03 3.98242E-05-3.29017E-15
 -1      1053 1.94374E-03 1.20675E-04-3.48720E-15
 -1      1054 2.23344E-03 1.26355E-04-4.49180E-15
 -1      1055 4.17485E-03 1.58342E-04-1.44901E-14
 -1      1056 3.01889E-03 1.58612E-04-7.82893E-15
 -1      1057 2.49560E-03-1.18427E-04-5.44241E-15
 -1      1058 2.20516E-03-1.14895E-04-4.33507E-15
 -1      1059 5.46131E-03 7.95338E-05-2.44237E-14
 -1      1060 3.50999E-03-4.60631E-05-1.03708E-14
 -1      1061 3.79937E-03-4.58955E-05-1.20524E-14
 -1      1062 4.08805E-03-4.55980E-05-1.38609E-14
 -1      1063 4.37598E-03-4.51981E-05-1.57965E-14
 -1      1064 4.66312E-03-4.47091E-05-1.78620E-14
 -1      1065 4.94942E-03-4.41265E-05-2.00546E-14
 -1      1066 5.23480E-03-4.34345E-05-2.23763E-14
 -1      1067 5.51911E-03-4.26063E-05-2.48300E-14
 -1      1068 5.80218E-03-4.16021E-05-2.74098E-14
 -1      1069 6.08377E-03-4.03677E-05-3.01176E-14
 -1      1070 6.36354E-03-3.88306E-05-3.29468E-14
 -1      1071 6.64112E-03-3.68952E-05-3.58963E-14
 -1      1072 6.91606E-03-3.44359E-05-3.89631E-14
 -1      1073 7.18782E-03-3.12881E-05-4.21436E-14
 -1      1074 7.45582E-03-2.72374E-05-4.54292E-14
 -1      1075 7.71939E-03-2.20091E-05-4.88194E-14
 -1      1076 7.97779E-03-1.52580E-05-5.23139E-14
 -1      1077 8.23022E-03-6.61512E-06-5.59129E-14
 -1      1078 8.47544E-03 4.35743E-06-5.96108E-14
 -1      1079 5.74469E-03 7.84095E-05-2.69858E-14
 -1      1080 6.30682E-03 7.58464E-05-3.24894E-14
 -1      1081 6.02664E-03 7.71683E-05-2.96761E-14
 -1      1082 7.13212E-03 7.24264E-05-4.16315E-14
 -1      1083 7.40002E-03 7.21529E-05-4.49014E-14
 -1      1084 7.66290E-03 7.28813E-05-4.82726E-14
 -1      1085 7.91959E-03 7.51052E-05-5.17509E-14
 -1      1086 8.16860E-03 7.93997E-05-5.53336E-14
 -1      1087 2.92939E-03-4.58047E-05-7.39120E-15
 -1      1088 6.86013E-03 7.33112E-05-3.84687E-14
 -1      1089 4.46228E-03 1.57269E-04-1.64781E-14
 -1      1090 6.58482E-03 7.45180E-05-3.54213E-14
 -1      1091 2.48103E-03 1.41937E-04-5.44174E-15
 -1      1092 5.17674E-03 8.05283E-05-2.19878E-14
 -1      1093 3.59804E-03 1.59525E-04-1.09010E-14
 -1      1094 3.21996E-03-4.60642E-05-8.81765E-15
 -1      1095 8.70418E-03 7.07128E-05-6.39266E-14
 -1      1096 8.58705E-03 1.07191E-04-6.19528E-14
 -1      1097 2.16687E-03-3.83540E-05-4.24828E-15
 -1      1098 4.89116E-03 8.13921E-05-1.96829E-14
 -1      1099 8.71270E-03 1.82227E-05-6.34067E-14
 -1      1100 2.63851E-03-4.52195E-05-6.08995E-15
 -1      1101 8.36238E-03 9.10021E-05-5.82925E-14
 -1      1102 3.30873E-03 1.59422E-04-9.30077E-15
 -1      1103 4.02940E-03 8.32025E-05-1.35428E-14
 -1      1104 2.64360E-03 7.64453E-05-6.13911E-15
 -1      1105 3.74066E-03 8.34930E-05-1.17529E-14
 -1      1106 2.93440E-03 7.75630E-05-7.44775E-15
 -1      1107 2.40255E-03-4.19092E-05-5.12838E-15
 -1      1108 4.51963E-03 2.97574E-05-1.68675E-14
 -1      1109 2.39602E-03 6.27611E-05-5.12525E-15
 -1      1110 2.15476E-03 6.85921E-05-4.22231E-15
 -1      1111 3.22486E-03 7.81230E-05-8.88225E-15
 -1      1112 3.48302E-03 8.09298E-05-1.02666E-14
 -1      1113 4.31743E-03 8.27385E-05-1.54602E-14
 -1      1114 2.64032E-03 1.56035E-05-6.12170E-15
 -1      1115 0.00000E+00 0.00000E+00 0.00000E+00
 -1      1116 0.00000E+00 0.00000E+00 0.00000E+00
 -1      1117 0.00000E+00 0.00000E+00 0.00000E+00
 -1      1118 0.00000E+00 0.00000E+00 0.00000E+00
 -1      1119 0.00000E+00 0.00000E+00 0.00000E+00
 -1      1120 0.00000E+00 0.00000E+00 0.00000E+00
 -1      1121 0.00000E+00 0.00000E+00 0.00000E+00
 -1      1122 0.00000E+00 0.00000E+00 0.00000E+00
 -1      1123 0.00000E+00 0.00000E+00 0.00000E+00
 -1      1124 0.00000E+00 0.00000E+00 0.00000E+00
 -1      1125 0.00000E+00 0.00000E+00 0.00000E+00
 -1      1126 0.00000E+00 0.00000E+00 0.00000E+00
 -1      1127 0.00000E+00 0.00000E+00 0.00000E+00
 -1      1128 0.00000E+00 0.00000E+00 0.00000E+00
 -1      1129 0.00000E+00 0.00000E+00 0.00000E+00
 -1      1130 0.00000E+00 0.00000E+00 0.00000E+00
 -1      1131 0.00000E+00 0.00000E+00 0.00000E+00
 -1      1132 2.11673E-04-1.48338E-04 3.08862E-17
 -1      1133 5.51649E-04-3.37533E-04 1.59378E-17
 -1      1134 8.33471E-04-4.59042E-04-1.16362E-16
 -1      1135 1.10304E-03-5.40740E-04-3.86355E-16
 -1      1136 1.36845E-03-5.98002E-04-7.90600E-16
 -1      1137 1.63325E-03-6.38721E-04-1.32996E-15
 -1      1138 1.89930E-03-6.67546E-04-2.00741E-15
 -1      1139 2.16743E-03-6.87592E-04-2.82153E-15
 -1      1140 2.43793E-03-7.01140E-04-3.77271E-15
 -1      1141 2.71081E-03-7.09906E-04-4.86473E-15
 -1      1142 2.98590E-03-7.15188E-04-6.09396E-15
 -1      1143 3.26295E-03-7.17953E-04-7.45282E-15
 -1      1144 3.54170E-03-7.18912E-04-8.94323E-15
 -1      1145 3.82188E-03-7.18571E-04-1.05662E-14
 -1      1146 4.10326E-03-7.17273E-04-1.23210E-14
 -1      1147 4.38566E-03-7.15237E-04-1.42082E-14
 -1      1148 4.66892E-03-7.12582E-04-1.62288E-14
 -1      1149 4.95298E-03-7.09358E-04-1.83837E-14
 -1      1150 5.23783E-03-7.05564E-04-2.06732E-14
 -1      1151 5.52356E-03-7.01175E-04-2.30929E-14
 -1      1152 5.81033E-03-6.96162E-04-2.56435E-14
 -1      1153 6.09841E-03-6.90522E-04-2.83194E-14
 -1      1154 6.38821E-03-6.84314E-04-3.11179E-14
 -1      1155 6.68023E-03-6.77707E-04-3.40385E-14
 -1      1156 6.97513E-03-6.71029E-04-3.70830E-14
 -1      1157 7.27365E-03-6.64850E-04-4.02449E-14
 -1      1158 7.57663E-03-6.60057E-04-4.35195E-14
 -1      1159 7.88491E-03-6.57951E-04-4.69049E-14
 -1      1160 8.19917E-03-6.60322E-04-5.03997E-14
 -1      1161 8.51973E-03-6.69477E-04-5.39948E-14
 -1      1162 8.84621E-03-6.88145E-04-5.76816E-14
 -1      1163 9.17714E-03-7.19149E-04-6.14643E-14
 -1      1164 9.50951E-03-7.64703E-04-6.53478E-14
 -1      1165 9.83866E-03-8.25245E-04-6.93271E-14
 -1      1166 1.01585E-02-8.97907E-04-7.34011E-14
 -1      1167 1.04629E-02-9.75131E-04-7.75662E-14
 -1      1168 1.07474E-02-1.04448E-03-8.18233E-14
 -1      1169 1.10123E-02-1.09071E-03-8.61731E-14
 -1      1170 1.12633E-02-1.10025E-03-9.06089E-14
 -1      1171 1.15104E-02-1.06627E-03-9.51231E-14
 -1      1172 1.17644E-02-9.91487E-04-9.97242E-14
 -1      1173 1.20330E-02-8.86743E-04-1.04403E-13
 -1      1174 1.23178E-02-7.66340E-04-1.09135E-13
 -1      1175 1.26157E-02-6.42917E-04-1.13904E-13
 -1      1176 1.29207E-02-5.24313E-04-1.18713E-13
 -1      1177 1.32263E-02-4.12973E-04-1.23549E-13
 -1      1178 1.35277E-02-3.07077E-04-1.28413E-13
 -1      1179 1.38226E-02-2.02381E-04-1.33292E-13
 -1      1180 1.41113E-02-9.42919E-05-1.38184E-13
 -1      1181 1.43896E-02 1.62425E-05-1.42985E-13
 -1      1182 2.28432E-04 1.60717E-04 2.56820E-17
 -1      1183 5.53821E-04 3.42166E-04-1.62630E-17
 -1      1184 8.34401E-04 4.61210E-04-1.84924E-16
 -1      1185 1.10394E-03 5.42427E-04-4.96849E-16
 -1      1186 1.36935E-03 5.99683E-04-9.50086E-16
 -1      1187 1.63421E-03 6.40492E-04-1.54286E-15
 -1      1188 1.90030E-03 6.69423E-04-2.27544E-15
 -1      1189 2.16847E-03 6.89588E-04-3.14485E-15
 -1      1190 2.43901E-03 7.03264E-04-4.15205E-15
 -1      1191 2.71190E-03 7.12164E-04-5.29901E-15
 -1      1192 2.98700E-03 7.17581E-04-6.58418E-15
 -1      1193 3.26405E-03 7.20484E-04-8.00621E-15
 -1      1194 3.54280E-03 7.21580E-04-9.56494E-15
 -1      1195 3.82297E-03 7.21373E-04-1.12602E-14
 -1      1196 4.10434E-03 7.20206E-04-1.30962E-14
 -1      1197 4.38671E-03 7.18292E-04-1.50775E-14
 -1      1198 4.66995E-03 7.15747E-04-1.71972E-14
 -1      1199 4.95396E-03 7.12609E-04-1.94507E-14
 -1      1200 5.23877E-03 7.08864E-04-2.18346E-14
 -1      1201 5.52443E-03 7.04461E-04-2.43501E-14
 -1      1202 5.81115E-03 6.99338E-04-2.69945E-14
 -1      1203 6.09923E-03 6.93443E-04-2.97628E-14
 -1      1204 6.38911E-03 6.86765E-04-3.26538E-14
 -1      1205 6.68143E-03 6.79380E-04-3.56620E-14
 -1      1206 6.97701E-03 6.71511E-04-3.87797E-14
 -1      1207 7.27694E-03 6.63609E-04-4.20065E-14
 -1      1208 7.58258E-03 6.56480E-04-4.53492E-14
 -1      1209 7.89556E-03 6.51451E-04-4.87935E-14
 -1      1210 8.21774E-03 6.50605E-04-5.23347E-14
 -1      1211 8.55108E-03 6.57064E-04-5.59844E-14
 -1      1212 8.89722E-03 6.75298E-04-5.97382E-14
 -1      1213 9.25686E-03 7.11305E-04-6.35958E-14
 -1      1214 9.62863E-03 7.72308E-04-6.75554E-14
 -1      1215 1.00077E-02 8.65343E-04-7.16173E-14
 -1      1216 1.03843E-02 9.93911E-04-7.57837E-14
 -1      1217 1.07444E-02 1.15252E-03-8.00507E-14
 -1      1218 1.10732E-02 1.32123E-03-8.44176E-14
 -1      1219 1.13631E-02 1.46573E-03-8.88953E-14
 -1      1220 1.16221E-02 1.54871E-03-9.34583E-14
 -1      1221 1.18731E-02 1.54934E-03-9.80970E-14
 -1      1222 1.21423E-02 1.47591E-03-1.02808E-13
 -1      1223 1.24445E-02 1.36015E-03-1.07559E-13
 -1      1224 1.27777E-02 1.23853E-03-1.12333E-13
 -1      1225 1.31289E-02 1.13610E-03-1.17121E-13
 -1      1226 1.34823E-02 1.06194E-03-1.21922E-13
 -1      1227 1.38260E-02 1.01304E-03-1.26735E-13
 -1      1228 1.41534E-02 9.80158E-04-1.31550E-13
 -1      1229 1.44629E-02 9.52113E-04-1.36358E-13
 -1      1230 1.47572E-02 9.18767E-04-1.41164E-13
 -1      1231 1.50361E-02 8.76054E-04-1.45854E-13
 -1      1232 1.51959E-02 8.10226E-04-1.48074E-13
 -1      1233 1.52503E-02 7.26344E-04-1.47980E-13
 -1      1234 1.53151E-02 6.50892E-04-1.47880E-13
 -1      1235 1.53852E-02 5.90406E-04-1.47777E-13
 -1      1236 1.54511E-02 5.48152E-04-1.47649E-13
 -1      1237 1.55019E-02 5.24194E-04-1.47508E-13
 -1      1238 1.55287E-02 5.14898E-04-1.47390E-13
 -1      1239 1.55244E-02 5.14419E-04-1.47264E-13
 -1      1240 1.54859E-02 5.15319E-04-1.47136E-13
 -1      1241 1.54149E-02 5.10078E-04-1.46949E-13
 -1      1242 1.53173E-02 4.92833E-04-1.46743E-13
 -1      1243 1.52020E-02 4.60681E-04-1.46553E-13
 -1      1244 1.50764E-02 4.13023E-04-1.46350E-13
 -1      1245 1.49465E-02 3.50856E-04-1.46124E-13
 -1      1246 1.48188E-02 2.77430E-04-1.45896E-13
 -1      1247 1.46966E-02 1.96541E-04-1.45683E-13
 -1      1248 1.45812E-02 1.12877E-04-1.45459E-13
 -1      1249 1.38329E-02 3.85663E-04-1.04191E-13
 -1      1250 1.37321E-02 5.40637E-04-1.03787E-13
 -1      1251 1.35305E-02 6.95854E-04-1.02959E-13
 -1      1252 1.32422E-02 8.50974E-04-1.01724E-13
 -1      1253 1.28814E-02 9.98149E-04-1.00095E-13
 -1      1254 1.24335E-02 1.12667E-03-9.79888E-14
 -1      1255 1.19609E-02 1.20300E-03-9.57186E-14
 -1      1256 1.15063E-02 1.20841E-03-9.34961E-14
 -1      1257 1.10365E-02 1.14859E-03-9.11994E-14
 -1      1258 1.06005E-02 1.03532E-03-8.91090E-14
 -1      1259 1.02079E-02 8.89906E-04-8.72794E-14
 -1      1260 9.84404E-03 7.18935E-04-8.56350E-14
 -1      1261 9.55453E-03 5.46971E-04-8.43611E-14
 -1      1262 9.36298E-03 3.87086E-04-8.35345E-14
 -1      1263 9.27179E-03 2.35342E-04-8.31287E-14
 -1      1264 9.29072E-03 8.46157E-05-8.31652E-14
 -1      1265 9.41987E-03-6.57418E-05-8.36683E-14
 -1      1266 9.63657E-03-2.09626E-04-8.45435E-14
 -1      1267 9.92423E-03-3.48625E-04-8.57533E-14
 -1      1268 1.02673E-02-4.76334E-04-8.72721E-14
 -1      1269 1.06531E-02-5.80922E-04-8.90717E-14
 -1      1270 1.10779E-02-6.48596E-04-9.11390E-14
 -1      1271 1.15314E-02-6.64285E-04-9.34039E-14
 -1      1272 1.19721E-02-6.23107E-04-9.56168E-14
 -1      1273 1.24041E-02-5.29215E-04-9.77558E-14
 -1      1274 1.28073E-02-3.99593E-04-9.96896E-14
 -1      1275 1.31554E-02-2.54910E-04-1.01291E-13
 -1      1276 1.34626E-02-9.40996E-05-1.02654E-13
 -1      1277 1.36972E-02 7.32113E-05-1.03651E-13
 -1      1278 1.38214E-02 2.32137E-04-1.04155E-13
 -1      1279 1.66702E-04-1.10347E-04 1.00289E-17
 -1      1280 1.12541E-04-5.69806E-05-1.85263E-17
 -1      1281 1.17623E-04-6.75877E-05-1.08962E-17
 -1      1282 1.08424E-04-4.34998E-05-3.13877E-17
 -1      1283 1.10286E-04-4.96138E-05-2.72541E-17
 -1      1284 2.26330E-04-1.07638E-04-6.40492E-17
 -1      1285 1.06841E-04-3.36165E-05-3.93159E-17
 -1      1286 1.07689E-04-3.83401E-05-3.68629E-17
 -1      1287 2.19110E-04-8.24734E-05-8.79830E-17
 -1      1288 1.06060E-04-2.53619E-05-4.46691E-17
 -1      1289 1.06490E-04-2.93935E-05-4.31784E-17
 -1      1290 2.15861E-04-6.32912E-05-1.03704E-16
 -1      1291 1.05661E-04-1.80983E-05-4.78404E-17
 -1      1292 1.05891E-04-2.16675E-05-4.70273E-17
 -1      1293 2.14209E-04-4.72060E-05-1.14045E-16
 -1      1294 1.05440E-04-1.12437E-05-5.00630E-17
 -1      1295 1.05563E-04-1.46301E-05-4.96429E-17
 -1      1296 2.13297E-04-3.27646E-05-1.20794E-16
 -1      1297 1.05340E-04-4.69110E-06-5.12286E-17
 -1      1298 1.05393E-04-7.94564E-06-5.10117E-17
 -1      1299 2.12799E-04-1.91973E-05-1.25036E-16
 -1      1300 1.05329E-04 1.74374E-06-5.19604E-17
 -1      1301 1.05327E-04-1.47099E-06-5.18249E-17
 -1      1302 2.12585E-04-6.16275E-06-1.27434E-16
 -1      1303 1.05401E-04 8.22823E-06-5.19468E-17
 -1      1304 1.05345E-04 4.96715E-06-5.19739E-17
 -1      1305 2.12593E-04 6.71134E-06-1.28424E-16
 -1      1306 1.05579E-04 1.49379E-05-5.14454E-17
 -1      1307 1.05451E-04 1.15369E-05-5.16351E-17
 -1      1308 2.12824E-04 1.97721E-05-1.27990E-16
 -1      1309 1.05911E-04 2.19586E-05-4.98733E-17
 -1      1310 1.05677E-04 1.83666E-05-5.03341E-17
 -1      1311 2.13335E-04 3.32787E-05-1.25822E-16
 -1      1312 1.06535E-04 2.98265E-05-4.71221E-17
 -1      1313 1.06096E-04 2.57491E-05-4.81115E-17
 -1      1314 2.14275E-04 4.78098E-05-1.21417E-16
 -1      1315 1.07725E-04 3.89257E-05-4.21755E-17
 -1      1316 1.06874E-04 3.41320E-05-4.41135E-17
 -1      1317 2.15979E-04 6.42245E-05-1.13801E-16
 -1      1318 1.10265E-04 5.03521E-05-3.37051E-17
 -1      1319 1.08427E-04 4.41686E-05-3.73643E-17
 -1      1320 2.19205E-04 8.37228E-05-1.00777E-16
 -1      1321 1.16939E-04 6.76238E-05-1.91768E-17
 -1      1322 1.12188E-04 5.77799E-05-2.62648E-17
 -1      1323 2.26318E-04 1.09457E-04-7.99464E-17
 -1      1324 1.57582E-04 1.09864E-04 4.28260E-18
 -1      1325 1.35663E-04 8.60954E-05-1.07200E-17
 -1      1326 2.56041E-04 1.52103E-04-5.43592E-17
 -1      1327 3.35091E-04 2.20748E-04-1.61004E-17
 -1      1328 4.21546E-04-2.61753E-04-1.21024E-17
 -1      1329 5.74644E-04-3.36820E-04-5.29226E-17
 -1      1330 7.21833E-04-3.97430E-04-1.29088E-16
 -1      1331 8.65000E-04-4.46734E-04-2.38403E-16
 -1      1332 6.12076E-04-3.30918E-04-1.33967E-16
 -1      1333 1.00502E-03-4.87814E-04-3.79810E-16
 -1      1334 1.14286E-03-5.21810E-04-5.54610E-16
 -1      1335 9.05308E-04-4.31633E-04-3.66569E-16
 -1      1336 1.27935E-03-5.50590E-04-7.62303E-16
 -1      1337 1.41499E-03-5.74632E-04-1.00385E-15
 -1      1338 1.18773E-03-5.01069E-04-7.28746E-16
 -1      1339 1.55023E-03-5.95001E-04-1.27884E-15
 -1      1340 1.68532E-03-6.12032E-04-1.58769E-15
 -1      1341 1.46465E-03-5.49853E-04-1.22270E-15
 -1      1342 1.82049E-03-6.26351E-04-1.93084E-15
 -1      1343 1.95587E-03-6.38252E-04-2.30810E-15
 -1      1344 1.73933E-03-5.84164E-04-1.85050E-15
 -1      1345 2.09157E-03-6.48135E-04-2.71896E-15
 -1      1346 2.22763E-03-6.56249E-04-3.16414E-15
 -1      1347 2.01361E-03-6.07982E-04-2.61295E-15
 -1      1348 2.36412E-03-6.62869E-04-3.64380E-15
 -1      1349 2.50104E-03-6.68198E-04-4.15721E-15
 -1      1350 2.28850E-03-6.24112E-04-3.51118E-15
 -1      1351 2.63840E-03-6.72431E-04-4.70571E-15
 -1      1352 2.77620E-03-6.75730E-04-5.28931E-15
 -1      1353 2.56446E-03-6.34622E-04-4.54510E-15
 -1      1354 2.91443E-03-6.78234E-04-5.90493E-15
 -1      1355 3.05306E-03-6.80068E-04-6.55393E-15
 -1      1356 2.84169E-03-6.41055E-04-5.71448E-15
 -1      1357 3.19209E-03-6.81330E-04-7.23587E-15
 -1      1358 3.33149E-03-6.82117E-04-7.94998E-15
 -1      1359 3.12021E-03-6.44559E-04-7.01693E-15
 -1      1360 3.47124E-03-6.82494E-04-8.69735E-15
 -1      1361 3.61131E-03-6.82532E-04-9.47788E-15
 -1      1362 3.39994E-03-6.45978E-04-8.45024E-15
 -1      1363 3.75167E-03-6.82275E-04-1.02915E-14
 -1      1364 3.89232E-03-6.81774E-04-1.11373E-14
 -1      1365 3.68079E-03-6.45917E-04-1.00149E-14
 -1      1366 4.03322E-03-6.81053E-04-1.20153E-14
 -1      1367 4.17435E-03-6.80147E-04-1.29277E-14
 -1      1368 3.96261E-03-6.44791E-04-1.17100E-14
 -1      1369 4.31571E-03-6.79067E-04-1.38734E-14
 -1      1370 4.45729E-03-6.77837E-04-1.48517E-14
 -1      1371 4.24531E-03-6.42870E-04-1.35367E-14
 -1      1372 4.59906E-03-6.76455E-04-1.58628E-14
 -1      1373 4.74102E-03-6.74937E-04-1.69077E-14
 -1      1374 4.52878E-03-6.40309E-04-1.54962E-14
 -1      1375 4.88317E-03-6.73273E-04-1.79865E-14
 -1      1376 5.02552E-03-6.71473E-04-1.90980E-14
 -1      1377 4.81297E-03-6.37175E-04-1.75887E-14
 -1      1378 5.16806E-03-6.69522E-04-2.02432E-14
 -1      1379 5.31081E-03-6.67427E-04-2.14217E-14
 -1      1380 5.09789E-03-6.33474E-04-1.98138E-14
 -1      1381 5.45379E-03-6.65171E-04-2.26315E-14
 -1      1382 5.59700E-03-6.62760E-04-2.38737E-14
 -1      1383 5.38357E-03-6.29173E-04-2.21699E-14
 -1      1384 5.74049E-03-6.60176E-04-2.51486E-14
 -1      1385 5.88427E-03-6.57433E-04-2.64566E-14
 -1      1386 5.67014E-03-6.24219E-04-2.46556E-14
 -1      1387 6.02839E-03-6.54514E-04-2.77949E-14
 -1      1388 6.17290E-03-6.51443E-04-2.91632E-14
 -1      1389 5.95778E-03-6.18571E-04-2.72696E-14
 -1      1390 6.31784E-03-6.48211E-04-3.05641E-14
 -1      1391 6.46326E-03-6.44857E-04-3.19948E-14
 -1      1392 6.24677E-03-6.12225E-04-3.00103E-14
 -1      1393 6.60924E-03-6.41386E-04-3.34556E-14
 -1      1394 6.75584E-03-6.37860E-04-3.49473E-14
 -1      1395 6.53745E-03-6.05261E-04-3.28727E-14
 -1      1396 6.90315E-03-6.34309E-04-3.64698E-14
 -1      1397 7.05123E-03-6.30823E-04-3.80227E-14
 -1      1398 6.83026E-03-5.97891E-04-3.58583E-14
 -1      1399 7.20018E-03-6.27467E-04-3.96036E-14
 -1      1400 7.35008E-03-6.24371E-04-4.12124E-14
 -1      1401 7.12573E-03-5.90530E-04-3.89623E-14
 -1      1402 7.50103E-03-6.21652E-04-4.28506E-14
 -1      1403 7.65310E-03-6.19486E-04-4.45159E-14
 -1      1404 7.42443E-03-5.83877E-04-4.21815E-14
 -1      1405 7.80638E-03-6.18057E-04-4.62080E-14
 -1      1406 7.96093E-03-6.17592E-04-4.79273E-14
 -1      1407 7.72694E-03-5.79013E-04-4.55113E-14
 -1      1408 8.11681E-03-6.18364E-04-4.96731E-14
 -1      1409 8.27403E-03-6.20645E-04-5.14461E-14
 -1      1410 8.03379E-03-5.77505E-04-4.89490E-14
 -1      1411 8.43261E-03-6.24802E-04-5.32423E-14
 -1      1412 8.59249E-03-6.31138E-04-5.50620E-14
 -1      1413 8.34529E-03-5.81474E-04-5.24900E-14
 -1      1414 8.75357E-03-6.40102E-04-5.69069E-14
 -1      1415 8.91569E-03-6.51982E-04-5.87745E-14
 -1      1416 8.66143E-03-5.93602E-04-5.61306E-14
 -1      1417 9.07864E-03-6.67248E-04-6.06664E-14
 -1      1418 9.24211E-03-6.86095E-04-6.25825E-14
 -1      1419 8.98163E-03-6.16949E-04-5.98676E-14
 -1      1420 9.40571E-03-7.08886E-04-6.45237E-14
 -1      1421 9.56898E-03-7.35587E-04-6.64895E-14
 -1      1422 9.30453E-03-6.54468E-04-6.37014E-14
 -1      1423 9.73140E-03-7.66246E-04-6.84772E-14
 -1      1424 9.89235E-03-8.00432E-04-7.04900E-14
 -1      1425 9.62779E-03-7.08051E-04-6.76298E-14
 -1      1426 1.00512E-02-8.37614E-04-7.25266E-14
 -1      1427 1.02075E-02-8.76805E-04-7.45845E-14
 -1      1428 9.94818E-03-7.77049E-04-7.16518E-14
 -1      1429 1.03605E-02-9.16706E-04-7.66670E-14
 -1      1430 1.05099E-02-9.55747E-04-7.87706E-14
 -1      1431 1.02619E-02-8.56526E-04-7.57678E-14
 -1      1432 1.06555E-02-9.91931E-04-8.08983E-14
 -1      1433 1.07973E-02-1.02335E-03-8.30501E-14
 -1      1434 1.05655E-02-9.36047E-04-7.99754E-14
 -1      1435 1.09355E-02-1.04779E-03-8.52234E-14
 -1      1436 1.10706E-02-1.06356E-03-8.74208E-14
 -1      1437 1.08573E-02-1.00036E-03-8.42759E-14
 -1      1438 1.12035E-02-1.06903E-03-8.96361E-14
 -1      1439 1.13351E-02-1.06334E-03-9.18703E-14
 -1      1440 1.11388E-02-1.03297E-03-8.86634E-14
 -1      1441 1.14665E-02-1.04619E-03-9.41286E-14
 -1      1442 1.15986E-02-1.01791E-03-9.64089E-14
 -1      1443 1.14145E-02-1.02194E-03-9.31357E-14
 -1      1444 1.17323E-02-9.79614E-04-9.87086E-14
 -1      1445 1.18684E-02-9.32656E-04-1.01025E-13
 -1      1446 1.16908E-02-9.64910E-04-9.76918E-14
 -1      1447 1.20074E-02-8.79042E-04-1.03361E-13
 -1      1448 1.21493E-02-8.20546E-04-1.05713E-13
 -1      1449 1.19733E-02-8.69999E-04-1.02325E-13
 -1      1450 1.22941E-02-7.59216E-04-1.08077E-13
 -1      1451 1.24415E-02-6.96619E-04-1.10451E-13
 -1      1452 1.22644E-02-7.51915E-04-1.07022E-13
 -1      1453 1.25910E-02-6.34182E-04-1.12834E-13
 -1      1454 1.27421E-02-5.72907E-04-1.15226E-13
 -1      1455 1.25634E-02-6.25895E-04-1.11766E-13
 -1      1456 1.28940E-02-5.13370E-04-1.17630E-13
 -1      1457 1.30463E-02-4.55937E-04-1.20042E-13
 -1      1458 1.28672E-02-5.02965E-04-1.16551E-13
 -1      1459 1.31984E-02-4.00441E-04-1.22458E-13
 -1      1460 1.33497E-02-3.46754E-04-1.24879E-13
 -1      1461 1.31719E-02-3.88166E-04-1.21368E-13
 -1      1462 1.35000E-02-2.94236E-04-1.27309E-13
 -1      1463 1.36491E-02-2.42463E-04-1.29746E-13
 -1      1464 1.34744E-02-2.81196E-04-1.26212E-13
 -1      1465 1.37967E-02-1.90628E-04-1.32186E-13
 -1      1466 1.39430E-02-1.38211E-04-1.34626E-13
 -1      1467 1.37725E-02-1.78244E-04-1.31076E-13
 -1      1468 1.40880E-02-8.45661E-05-1.37072E-13
 -1      1469 1.42320E-02-2.93562E-05-1.39525E-13
 -1      1470 1.40656E-02-7.40712E-05-1.35960E-13
 -1      1471 1.44454E-02 5.75928E-05-1.43109E-13
 -1      1472 1.44245E-02 6.56216E-05-1.41986E-13
 -1      1473 6.43087E-04 3.72038E-04-1.19804E-16
 -1      1474 4.92960E-04 3.03708E-04-4.98326E-17
 -1      1475 4.44887E-04 2.65911E-04-7.83065E-17
 -1      1476 9.28671E-04 4.72017E-04-3.65457E-16
 -1      1477 7.87809E-04 4.26519E-04-2.25175E-16
 -1      1478 7.44748E-04 3.90747E-04-2.58135E-16
 -1      1479 1.20356E-03 5.41451E-04-7.50065E-16
 -1      1480 1.06689E-03 5.09765E-04-5.40177E-16
 -1      1481 1.03079E-03 4.76203E-04-5.76660E-16
 -1      1482 1.47409E-03 5.90660E-04-1.27303E-15
 -1      1483 1.33905E-03 5.68196E-04-9.94295E-16
 -1      1484 1.30870E-03 5.36041E-04-1.03204E-15
 -1      1485 1.74360E-03 6.25562E-04-1.93473E-15
 -1      1486 1.60880E-03 6.09658E-04-1.58651E-15
 -1      1487 1.58291E-03 5.78339E-04-1.62401E-15
 -1      1488 2.01378E-03 6.50022E-04-2.73420E-15
 -1      1489 1.87852E-03 6.38925E-04-2.31733E-15
 -1      1490 1.85605E-03 6.08070E-04-2.35329E-15
 -1      1491 2.28542E-03 6.66783E-04-3.67023E-15
 -1      1492 2.14938E-03 6.59234E-04-3.18516E-15
 -1      1493 2.12954E-03 6.28615E-04-3.21931E-15
 -1      1494 2.55885E-03 6.77879E-04-4.74433E-15
 -1      1495 2.42190E-03 6.72939E-04-4.18972E-15
 -1      1496 2.40406E-03 6.42416E-04-4.22187E-15
 -1      1497 2.83411E-03 6.84841E-04-5.95642E-15
 -1      1498 2.69625E-03 6.81801E-04-5.33333E-15
 -1      1499 2.67993E-03 6.51292E-04-5.36124E-15
 -1      1500 3.11112E-03 6.88816E-04-7.30522E-15
 -1      1501 2.97241E-03 6.87145E-04-6.61407E-15
 -1      1502 2.95722E-03 6.56601E-04-6.63807E-15
 -1      1503 3.38970E-03 6.90651E-04-8.79070E-15
 -1      1504 3.25023E-03 6.89959E-04-8.03041E-15
 -1      1505 3.23588E-03 6.59356E-04-8.05000E-15
 -1      1506 3.66966E-03 6.90956E-04-1.04120E-14
 -1      1507 3.52952E-03 6.90965E-04-9.58423E-15
 -1      1508 3.51581E-03 6.60293E-04-9.59770E-15
 -1      1509 3.95080E-03 6.90154E-04-1.21711E-14
 -1      1510 3.81010E-03 6.90673E-04-1.12742E-14
 -1      1511 3.79685E-03 6.59932E-04-1.12823E-14
 -1      1512 4.23296E-03 6.88523E-04-1.40720E-14
 -1      1513 4.09176E-03 6.89430E-04-1.31038E-14
 -1      1514 4.07887E-03 6.58623E-04-1.31052E-14
 -1      1515 4.51599E-03 6.86221E-04-1.61134E-14
 -1      1516 4.37437E-03 6.87449E-04-1.50756E-14
 -1      1517 4.36175E-03 6.56582E-04-1.50681E-14
 -1      1518 4.79981E-03 6.83322E-04-1.82914E-14
 -1      1519 4.65780E-03 6.84843E-04-1.71858E-14
 -1      1520 4.64541E-03 6.53923E-04-1.71695E-14
 -1      1521 5.08439E-03 6.79829E-04-2.06007E-14
 -1      1522 4.94201E-03 6.81649E-04-1.94293E-14
 -1      1523 4.92980E-03 6.50676E-04-1.94040E-14
 -1      1524 5.36979E-03 6.75700E-04-2.30420E-14
 -1      1525 5.22699E-03 6.77844E-04-2.18052E-14
 -1      1526 5.21494E-03 6.46817E-04-2.17699E-14
 -1      1527 5.65613E-03 6.70867E-04-2.56121E-14
 -1      1528 5.51284E-03 6.73371E-04-2.43107E-14
 -1      1529 5.50091E-03 6.42281E-04-2.42667E-14
 -1      1530 5.94364E-03 6.65256E-04-2.83103E-14
 -1      1531 5.79972E-03 6.68155E-04-2.69449E-14
 -1      1532 5.78789E-03 6.36982E-04-2.68915E-14
 -1      1533 6.23267E-03 6.58815E-04-3.11307E-14
 -1      1534 6.08794E-03 6.62130E-04-2.97050E-14
 -1      1535 6.07612E-03 6.30841E-04-2.96428E-14
 -1      1536 6.52370E-03 6.51550E-04-3.40710E-14
 -1      1537 6.37790E-03 6.55267E-04-3.25870E-14
 -1      1538 6.36600E-03 6.23813E-04-3.25155E-14
 -1      1539 6.81740E-03 6.43572E-04-3.71261E-14
 -1      1540 6.67017E-03 6.47617E-04-3.55852E-14
 -1      1541 6.65801E-03 6.15928E-04-3.55043E-14
 -1      1542 7.11461E-03 6.35172E-04-4.02899E-14
 -1      1543 6.96551E-03 6.39371E-04-3.86940E-14
 -1      1544 6.95283E-03 6.07350E-04-3.86041E-14
 -1      1545 7.41641E-03 6.26918E-04-4.35654E-14
 -1      1546 7.26487E-03 6.30943E-04-4.19131E-14
 -1      1547 7.25129E-03 5.98456E-04-4.18149E-14
 -1      1548 7.72410E-03 6.19799E-04-4.69499E-14
 -1      1549 7.56943E-03 6.23092E-04-4.52445E-14
 -1      1550 7.55441E-03 5.89964E-04-4.51367E-14
 -1      1551 8.03917E-03 6.15429E-04-5.04355E-14
 -1      1552 7.88061E-03 6.17092E-04-4.86809E-14
 -1      1553 7.86338E-03 5.83098E-04-4.85651E-14
 -1      1554 8.36322E-03 6.16308E-04-5.40268E-14
 -1      1555 8.19996E-03 6.14967E-04-5.22168E-14
 -1      1556 8.17950E-03 5.79823E-04-5.20956E-14
 -1      1557 8.69773E-03 6.26151E-04-5.77181E-14
 -1      1558 8.52907E-03 6.19789E-04-5.58595E-14
 -1      1559 8.50408E-03 5.83158E-04-5.57304E-14
 -1      1560 9.04365E-03 6.50181E-04-6.15176E-14
 -1      1561 8.86921E-03 6.36007E-04-5.96055E-14
 -1      1562 8.83820E-03 5.97512E-04-5.94688E-14
 -1      1563 9.40071E-03 6.95205E-04-6.54161E-14
 -1      1564 9.22084E-03 6.69666E-04-6.34544E-14
 -1      1565 9.18230E-03 6.28948E-04-6.33085E-14
 -1      1566 9.76647E-03 7.68957E-04-6.94172E-14
 -1      1567 9.58273E-03 7.28190E-04-6.74043E-14
 -1      1568 9.53561E-03 6.85027E-04-6.72492E-14
 -1      1569 1.01354E-02 8.77937E-04-7.35203E-14
 -1      1570 9.95102E-03 8.19079E-04-7.14550E-14
 -1      1571 9.89544E-03 7.73612E-04-7.12900E-14
 -1      1572 1.04984E-02 1.02294E-03-7.77258E-14
 -1      1573 1.03184E-02 9.46627E-04-7.56103E-14
 -1      1574 1.02565E-02 8.99708E-04-7.54329E-14
 -1      1575 1.08443E-02 1.19279E-03-8.20296E-14
 -1      1576 1.06743E-02 1.10637E-03-7.98661E-14
 -1      1577 1.06110E-02 1.05985E-03-7.96772E-14
 -1      1578 1.11639E-02 1.35977E-03-8.64396E-14
 -1      1579 1.10077E-02 1.27900E-03-8.42214E-14
 -1      1580 1.09503E-02 1.23555E-03-8.40211E-14
 -1      1581 1.14563E-02 1.48426E-03-9.09462E-14
 -1      1582 1.13130E-02 1.42955E-03-8.86801E-14
 -1      1583 1.12686E-02 1.39155E-03-8.84646E-14
 -1      1584 1.17327E-02 1.53192E-03-9.55336E-14
 -1      1585 1.15953E-02 1.51851E-03-9.32309E-14
 -1      1586 1.15687E-02 1.48630E-03-9.29981E-14
 -1      1587 1.20118E-02 1.49416E-03-1.00199E-13
 -1      1588 1.18706E-02 1.52258E-03-9.78569E-14
 -1      1589 1.18626E-02 1.49399E-03-9.76147E-14
 -1      1590 1.23098E-02 1.39302E-03-1.04926E-13
 -1      1591 1.21578E-02 1.44908E-03-1.02555E-13
 -1      1592 1.21647E-02 1.42090E-03-1.02304E-13
 -1      1593 1.26315E-02 1.26704E-03-1.09684E-13
 -1      1594 1.24678E-02 1.33079E-03-1.07302E-13
 -1      1595 1.24837E-02 1.30074E-03-1.07043E-13
 -1      1596 1.29713E-02 1.15014E-03-1.14465E-13
 -1      1597 1.27998E-02 1.20613E-03-1.12072E-13
 -1      1598 1.28180E-02 1.17367E-03-1.11812E-13
 -1      1599 1.33179E-02 1.06016E-03-1.19258E-13
 -1      1600 1.31445E-02 1.10152E-03-1.16861E-13
 -1      1601 1.31603E-02 1.06732E-03-1.16599E-13
 -1      1602 1.36607E-02 9.99469E-04-1.24068E-13
 -1      1603 1.34903E-02 1.02656E-03-1.21663E-13
 -1      1604 1.35016E-02 9.91704E-04-1.21401E-13
 -1      1605 1.39923E-02 9.60979E-04-1.28880E-13
 -1      1606 1.38282E-02 9.78138E-04-1.26473E-13
 -1      1607 1.38351E-02 9.43652E-04-1.26211E-13
 -1      1608 1.43094E-02 9.33635E-04-1.33689E-13
 -1      1609 1.41528E-02 9.46629E-04-1.31285E-13
 -1      1610 1.41570E-02 9.13295E-04-1.31021E-13
 -1      1611 1.46124E-02 9.06004E-04-1.38496E-13
 -1      1612 1.44625E-02 9.20456E-04-1.36092E-13
 -1      1613 1.44661E-02 8.88756E-04-1.35828E-13
 -1      1614 1.49043E-02 8.68996E-04-1.43306E-13
 -1      1615 1.47594E-02 8.88965E-04-1.40901E-13
 -1      1616 1.47638E-02 8.59041E-04-1.40636E-13
 -1      1617 1.50601E-02 8.34093E-04-1.45795E-13
 -1      1618 1.51425E-02 7.31150E-04-1.45866E-13
 -1      1619 1.51121E-02 7.70262E-04-1.45918E-13
 -1      1620 1.52111E-02 6.60547E-04-1.45761E-13
 -1      1621 1.51758E-02 6.94402E-04-1.45814E-13
 -1      1622 1.50361E-02 7.33251E-04-1.43751E-13
 -1      1623 1.52834E-02 6.03053E-04-1.45648E-13
 -1      1624 1.52474E-02 6.30001E-04-1.45706E-13
 -1      1625 1.51083E-02 6.64923E-04-1.43641E-13
 -1      1626 1.53490E-02 5.60352E-04-1.45519E-13
 -1      1627 1.53177E-02 5.79840E-04-1.45587E-13
 -1      1628 1.51819E-02 6.08176E-04-1.43523E-13
 -1      1629 1.53963E-02 5.32072E-04-1.45390E-13
 -1      1630 1.53754E-02 5.44651E-04-1.45452E-13
 -1      1631 1.52455E-02 5.64045E-04-1.43395E-13
 -1      1632 1.54174E-02 5.14077E-04-1.45260E-13
 -1      1633 1.54107E-02 5.21995E-04-1.45326E-13
 -1      1634 1.52890E-02 5.30879E-04-1.43263E-13
 -1      1635 1.54051E-02 5.01791E-04-1.45122E-13
 -1      1636 1.54157E-02 5.07588E-04-1.45191E-13
 -1      1637 1.53031E-02 5.05466E-04-1.43124E-13
 -1      1638 1.53575E-02 4.89090E-04-1.44974E-13
 -1      1639 1.53856E-02 4.95870E-04-1.45053E-13
 -1      1640 1.52821E-02 4.83520E-04-1.42976E-13
 -1      1641 1.52778E-02 4.70195E-04-1.44779E-13
 -1      1642 1.53213E-02 4.80724E-04-1.44884E-13
 -1      1643 1.52253E-02 4.59862E-04-1.42811E-13
 -1      1644 1.51728E-02 4.40834E-04-1.44586E-13
 -1      1645 1.52280E-02 4.57007E-04-1.44680E-13
 -1      1646 1.51372E-02 4.29880E-04-1.42622E-13
 -1      1647 1.50533E-02 3.99665E-04-1.44384E-13
 -1      1648 1.51146E-02 4.21822E-04-1.44487E-13
 -1      1649 1.50266E-02 3.90816E-04-1.42422E-13
 -1      1650 1.49234E-02 3.45175E-04-1.44173E-13
 -1      1651 1.49889E-02 3.73948E-04-1.44280E-13
 -1      1652 1.49016E-02 3.41179E-04-1.42215E-13
 -1      1653 1.47922E-02 2.79443E-04-1.43945E-13
 -1      1654 1.48576E-02 3.13580E-04-1.44062E-13
 -1      1655 1.47693E-02 2.80732E-04-1.41996E-13
 -1      1656 1.46645E-02 2.04931E-04-1.43721E-13
 -1      1657 1.47277E-02 2.43103E-04-1.43832E-13
 -1      1658 1.46373E-02 2.11322E-04-1.41769E-13
 -1      1659 1.45134E-02 1.15548E-04-1.42800E-13
 -1      1660 1.45735E-02 1.56118E-04-1.42913E-13
 -1      1661 1.44809E-02 1.26352E-04-1.40846E-13
 -1      1662 1.42995E-02 2.93036E-05-1.39224E-13
 -1      1663 1.38312E-02 3.90068E-04-1.05057E-13
 -1      1664 1.38577E-02 3.41081E-04-1.05146E-13
 -1      1665 1.36787E-02 5.07504E-04-1.04512E-13
 -1      1666 1.37647E-02 4.51001E-04-1.04822E-13
 -1      1667 1.34189E-02 6.48469E-04-1.03512E-13
 -1      1668 1.35506E-02 5.79986E-04-1.04028E-13
 -1      1669 1.30787E-02 8.16150E-04-1.02063E-13
 -1      1670 1.32446E-02 7.35630E-04-1.02785E-13
 -1      1671 1.26914E-02 9.94746E-04-1.00209E-13
 -1      1672 1.28744E-02 9.11924E-04-1.01110E-13
 -1      1673 1.22190E-02 1.16737E-03-9.79065E-14
 -1      1674 1.24302E-02 1.08740E-03-9.91138E-14
 -1      1675 1.18292E-02 1.25258E-03-9.53832E-14
 -1      1676 1.20049E-02 1.22509E-03-9.64367E-14
 -1      1677 1.14289E-02 1.24949E-03-9.29145E-14
 -1      1678 1.16145E-02 1.26495E-03-9.40789E-14
 -1      1679 1.10091E-02 1.14393E-03-9.04563E-14
 -1      1680 1.12014E-02 1.20210E-03-9.15751E-14
 -1      1681 1.06114E-02 9.80880E-04-8.82818E-14
 -1      1682 1.07918E-02 1.06102E-03-8.92382E-14
 -1      1683 1.02214E-02 7.91003E-04-8.63703E-14
 -1      1684 1.04006E-02 8.80979E-04-8.72221E-14
 -1      1685 9.84250E-03 5.82698E-04-8.45767E-14
 -1      1686 1.00199E-02 6.75008E-04-8.53365E-14
 -1      1687 9.53219E-03 4.29230E-04-8.34274E-14
 -1      1688 9.65777E-03 4.97775E-04-8.39272E-14
 -1      1689 9.32894E-03 2.97248E-04-8.25861E-14
 -1      1690 9.41068E-03 3.52691E-04-8.28976E-14
 -1      1691 9.24905E-03 1.95655E-04-8.23080E-14
 -1      1692 9.26960E-03 2.40963E-04-8.24036E-14
 -1      1693 9.30517E-03 9.19633E-05-8.24145E-14
 -1      1694 9.26046E-03 1.41329E-04-8.22751E-14
 -1      1695 9.48561E-03-2.68526E-05-8.30896E-14
 -1      1696 9.38975E-03 2.82685E-05-8.27509E-14
 -1      1697 9.75686E-03-1.63426E-04-8.41102E-14
 -1      1698 9.62162E-03-9.73472E-05-8.35926E-14
 -1      1699 1.00855E-02-3.17247E-04-8.54818E-14
 -1      1700 9.92843E-03-2.44488E-04-8.48084E-14
 -1      1701 1.04486E-02-4.75650E-04-8.71926E-14
 -1      1702 1.02775E-02-4.02799E-04-8.63622E-14
 -1      1703 1.08277E-02-6.11907E-04-8.91621E-14
 -1      1704 1.06556E-02-5.52638E-04-8.82115E-14
 -1      1705 1.12184E-02-7.01592E-04-9.14626E-14
 -1      1706 1.10393E-02-6.68654E-04-9.03625E-14
 -1      1707 1.16114E-02-7.08455E-04-9.39564E-14
 -1      1708 1.14318E-02-7.16596E-04-9.28102E-14
 -1      1709 1.19977E-02-6.29243E-04-9.63036E-14
 -1      1710 1.18239E-02-6.72977E-04-9.52497E-14
 -1      1711 1.23985E-02-4.82339E-04-9.86497E-14
 -1      1712 1.22075E-02-5.58947E-04-9.75780E-14
 -1      1713 1.27901E-02-3.10615E-04-1.00623E-13
 -1      1714 1.26176E-02-3.90823E-04-9.97615E-14
 -1      1715 1.31510E-02-1.36199E-04-1.02296E-13
 -1      1716 1.29872E-02-2.16428E-04-1.01560E-13
 -1      1717 1.34805E-02 4.08504E-05-1.03820E-13
 -1      1718 1.33301E-02-3.45034E-05-1.03203E-13
 -1      1719 1.37345E-02 1.72746E-04-1.04680E-13
 -1      1720 1.36339E-02 1.11408E-04-1.04295E-13
 -1      1721 1.38512E-02 2.85721E-04-1.05184E-13
 -1      1722 1.38141E-02 2.38625E-04-1.05050E-13
 -1      1723 1.29178E-02 8.23107E-04-1.02214E-13
 -1      1724 1.32910E-02 6.39095E-04-1.03899E-13
 -1      1725 1.50658E-02 8.05458E-04-1.45535E-13
 -1      1726 1.49554E-02 8.05046E-04-1.43423E-13
 -1      1727 1.38015E-02 3.93264E-04-1.05833E-13
 -1      1728 1.35989E-02 4.95284E-04-1.05113E-13
 -1      1729 1.38650E-02 3.17060E-04-1.06101E-13
 -1      1730 1.24837E-02 1.02816E-03-1.00159E-13
 -1      1731 1.20826E-02 1.20685E-03-9.75814E-14
 -1      1732 1.17068E-02 1.28601E-03-9.48010E-14
 -1      1733 1.13475E-02 1.24912E-03-9.21531E-14
 -1      1734 1.09615E-02 1.10603E-03-8.95999E-14
 -1      1735 1.05739E-02 9.05646E-04-8.73318E-14
 -1      1736 1.01776E-02 6.80859E-04-8.52503E-14
 -1      1737 9.79485E-03 4.82644E-04-8.35845E-14
 -1      1738 9.48427E-03 3.38324E-04-8.24164E-14
 -1      1739 9.29557E-03 2.42057E-04-8.17101E-14
 -1      1740 9.24513E-03 1.70081E-04-8.14942E-14
 -1      1741 9.34616E-03 9.45104E-05-8.17905E-14
 -1      1742 9.57463E-03-1.26421E-05-8.26183E-14
 -1      1743 9.88529E-03-1.53619E-04-8.38065E-14
 -1      1744 1.02403E-02-3.24298E-04-8.53735E-14
 -1      1745 1.06125E-02-5.00948E-04-8.72614E-14
 -1      1746 1.09808E-02-6.52109E-04-8.94702E-14
 -1      1747 1.13362E-02-7.35414E-04-9.20112E-14
 -1      1748 1.16857E-02-7.14681E-04-9.46500E-14
 -1      1749 1.20521E-02-5.98136E-04-9.72197E-14
 -1      1750 1.24337E-02-4.17127E-04-9.96093E-14
 -1      1751 1.28250E-02-2.17924E-04-1.01663E-13
 -1      1752 1.31978E-02-2.27255E-05-1.03513E-13
 -1      1753 1.35364E-02 1.32106E-04-1.04905E-13
 -1      1754 1.37754E-02 2.40862E-04-1.05760E-13
 -1      1755 2.85244E-04-1.76239E-04-2.01120E-17
 -1      1756 3.32190E-04-1.16788E-04-1.43765E-16
 -1      1757 3.36328E-04-1.33033E-04-1.29576E-16
 -1      1758 3.42209E-04-1.52021E-04-1.13204E-16
 -1      1759 3.51762E-04-1.74023E-04-9.14931E-17
 -1      1760 4.58333E-04-1.88095E-04-1.87770E-16
 -1      1761 3.24570E-04-6.53899E-05-1.77701E-16
 -1      1762 3.25706E-04-7.66903E-05-1.71629E-16
 -1      1763 3.23077E-04-4.38958E-05-1.86754E-16
 -1      1764 3.23730E-04-5.43865E-05-1.82634E-16
 -1      1765 4.36517E-04-7.92955E-05-2.67147E-16
 -1      1766 3.22296E-04-2.37756E-05-1.92310E-16
 -1      1767 3.22626E-04-3.36904E-05-1.89844E-16
 -1      1768 4.34520E-04-5.13244E-05-2.78504E-16
 -1      1769 3.22004E-04-4.33781E-06-1.95211E-16
 -1      1770 3.22100E-04-1.39919E-05-1.93923E-16
 -1      1771 4.33504E-04-2.49279E-05-2.85335E-16
 -1      1772 3.22125E-04 1.49838E-05-1.96241E-16
 -1      1773 3.22012E-04 5.31956E-06-1.96051E-16
 -1      1774 4.33208E-04 7.57630E-07-2.88818E-16
 -1      1775 3.22689E-04 3.47361E-05-1.94953E-16
 -1      1776 3.22339E-04 2.47886E-05-1.95875E-16
 -1      1777 4.33562E-04 2.64722E-05-2.89455E-16
 -1      1778 3.23813E-04 5.51758E-05-1.90969E-16
 -1      1779 3.23153E-04 4.48122E-05-1.93422E-16
 -1      1780 4.34634E-04 5.27314E-05-2.86650E-16
 -1      1781 3.25865E-04 7.78281E-05-1.83542E-16
 -1      1782 3.24670E-04 6.62468E-05-1.87879E-16
 -1      1783 4.36682E-04 8.06136E-05-2.80090E-16
 -1      1784 3.29548E-04 1.03666E-04-1.70775E-16
 -1      1785 3.27403E-04 9.03158E-05-1.78229E-16
 -1      1786 4.40323E-04 1.11584E-04-2.68232E-16
 -1      1787 3.36578E-04 1.35123E-04-1.49457E-16
 -1      1788 3.32398E-04 1.18625E-04-1.61600E-16
 -1      1789 4.46786E-04 1.47353E-04-2.48337E-16
 -1      1790 3.52301E-04 1.77615E-04-1.15427E-16
 -1      1791 3.42807E-04 1.54770E-04-1.34739E-16
 -1      1792 4.59314E-04 1.91473E-04-2.16502E-16
 -1      1793 4.07701E-04 2.33698E-04-9.30788E-17
 -1      1794 3.78090E-04 2.02674E-04-1.08447E-16
 -1      1795 4.95854E-04 2.44012E-04-1.88353E-16
 -1      1796 5.58548E-04 3.02521E-04-1.66696E-16
 -1      1797 3.40023E-04-1.90919E-04-5.49013E-17
 -1      1798 8.53569E-04 4.07145E-04-4.18760E-16
 -1      1799 7.07165E-04 3.59399E-04-2.75848E-16
 -1      1800 6.73400E-04 3.28831E-04-2.89712E-16
 -1      1801 4.58955E-04-2.36732E-04-1.16010E-16
 -1      1802 8.07230E-04-3.74141E-04-3.46999E-16
 -1      1803 9.52496E-04-4.15331E-04-5.02501E-16
 -1      1804 1.09533E-03-4.50024E-04-6.89647E-16
 -1      1805 1.23700E-03-4.78922E-04-9.09619E-16
 -1      1806 1.00392E-03-3.97953E-04-6.45805E-16
 -1      1807 1.37740E-03-5.03406E-04-1.16184E-15
 -1      1808 1.51709E-03-5.23778E-04-1.44756E-15
 -1      1809 1.28960E-03-4.55918E-04-1.09709E-15
 -1      1810 1.65625E-03-5.40956E-04-1.76633E-15
 -1      1811 1.79508E-03-5.55177E-04-2.11859E-15
 -1      1812 1.57201E-03-4.96864E-04-1.67832E-15
 -1      1813 1.93379E-03-5.67049E-04-2.50383E-15
 -1      1814 2.07244E-03-5.76774E-04-2.92268E-15
 -1      1815 1.85261E-03-5.25402E-04-2.39145E-15
 -1      1816 2.21118E-03-5.84769E-04-3.37576E-15
 -1      1817 2.35001E-03-5.91205E-04-3.86204E-15
 -1      1818 2.13250E-03-5.44862E-04-3.23756E-15
 -1      1819 2.48904E-03-5.96377E-04-4.38176E-15
 -1      1820 2.62823E-03-6.00422E-04-4.93578E-15
 -1      1821 2.41235E-03-5.57691E-04-4.21673E-15
 -1      1822 2.76768E-03-6.03553E-04-5.52318E-15
 -1      1823 2.90734E-03-6.05880E-04-6.14314E-15
 -1      1824 2.69255E-03-5.65714E-04-5.32973E-15
 -1      1825 3.04726E-03-6.07551E-04-6.79693E-15
 -1      1826 3.18739E-03-6.08653E-04-7.48312E-15
 -1      1827 2.97333E-03-5.70285E-04-6.57528E-15
 -1      1828 3.32777E-03-6.09290E-04-8.20145E-15
 -1      1829 3.46836E-03-6.09527E-04-8.95292E-15
 -1      1830 3.25477E-03-5.72407E-04-7.95169E-15
 -1      1831 3.60918E-03-6.09433E-04-9.73710E-15
 -1      1832 3.75019E-03-6.09056E-04-1.05543E-14
 -1      1833 3.53688E-03-5.72803E-04-9.45858E-15
 -1      1834 3.89141E-03-6.08438E-04-1.14030E-14
 -1      1835 4.03281E-03-6.07614E-04-1.22845E-14
 -1      1836 3.81963E-03-5.71976E-04-1.10949E-14
 -1      1837 4.17440E-03-6.06607E-04-1.32000E-14
 -1      1838 4.31614E-03-6.05438E-04-1.41487E-14
 -1      1839 4.10300E-03-5.70264E-04-1.28626E-14
 -1      1840 4.45806E-03-6.04115E-04-1.51288E-14
 -1      1841 4.60014E-03-6.02653E-04-1.61424E-14
 -1      1842 4.38693E-03-5.67867E-04-1.47613E-14
 -1      1843 4.74238E-03-6.01047E-04-1.71908E-14
 -1      1844 4.88477E-03-5.99305E-04-1.82711E-14
 -1      1845 4.67141E-03-5.64886E-04-1.67920E-14
 -1      1846 5.02733E-03-5.97415E-04-1.93839E-14
 -1      1847 5.17005E-03-5.95382E-04-2.05299E-14
 -1      1848 4.95642E-03-5.61346E-04-1.89545E-14
 -1      1849 5.31296E-03-5.93187E-04-2.17092E-14
 -1      1850 5.45606E-03-5.90835E-04-2.29201E-14
 -1      1851 5.24201E-03-5.57218E-04-2.12480E-14
 -1      1852 5.59936E-03-5.88306E-04-2.41631E-14
 -1      1853 5.74290E-03-5.85605E-04-2.54384E-14
 -1      1854 5.52824E-03-5.52444E-04-2.36717E-14
 -1      1855 5.88668E-03-5.82715E-04-2.67461E-14
 -1      1856 6.03076E-03-5.79647E-04-2.80859E-14
 -1      1857 5.81522E-03-5.46956E-04-2.62230E-14
 -1      1858 6.17514E-03-5.76390E-04-2.94564E-14
 -1      1859 6.31989E-03-5.72964E-04-3.08580E-14
 -1      1860 6.10313E-03-5.40712E-04-2.89032E-14
 -1      1861 6.46501E-03-5.69372E-04-3.22899E-14
 -1      1862 6.61060E-03-5.65650E-04-3.37521E-14
 -1      1863 6.39218E-03-5.33721E-04-3.17068E-14
 -1      1864 6.75667E-03-5.61824E-04-3.52452E-14
 -1      1865 6.90331E-03-5.57950E-04-3.67687E-14
 -1      1866 6.68266E-03-5.26100E-04-3.46336E-14
 -1      1867 7.05052E-03-5.54089E-04-3.83212E-14
 -1      1868 7.19844E-03-5.50327E-04-3.99023E-14
 -1      1869 6.97492E-03-5.18123E-04-3.76804E-14
 -1      1870 7.34707E-03-5.46774E-04-4.15121E-14
 -1      1871 7.49652E-03-5.43554E-04-4.31491E-14
 -1      1872 7.26934E-03-5.10306E-04-4.08436E-14
 -1      1873 7.64680E-03-5.40845E-04-4.48153E-14
 -1      1874 7.79804E-03-5.38816E-04-4.65066E-14
 -1      1875 7.56639E-03-5.03494E-04-4.41181E-14
 -1      1876 7.95023E-03-5.37730E-04-4.82245E-14
 -1      1877 8.10346E-03-5.37808E-04-4.99698E-14
 -1      1878 7.86653E-03-4.98968E-04-4.75019E-14
 -1      1879 8.25774E-03-5.39410E-04-5.17401E-14
 -1      1880 8.41309E-03-5.42811E-04-5.35353E-14
 -1      1881 8.17023E-03-4.98542E-04-5.09908E-14
 -1      1882 8.56955E-03-5.48456E-04-5.53555E-14
 -1      1883 8.72699E-03-5.56662E-04-5.71999E-14
 -1      1884 8.47789E-03-5.04631E-04-5.45811E-14
 -1      1885 8.88551E-03-5.67918E-04-5.90680E-14
 -1      1886 9.04478E-03-5.82540E-04-6.09611E-14
 -1      1887 8.78980E-03-5.20205E-04-5.82694E-14
 -1      1888 9.20496E-03-6.00959E-04-6.28782E-14
 -1      1889 9.36546E-03-6.23400E-04-6.48186E-14
 -1      1890 9.10591E-03-5.48540E-04-6.20558E-14
 -1      1891 9.52650E-03-6.50056E-04-6.67813E-14
 -1      1892 9.68722E-03-6.80901E-04-6.87683E-14
 -1      1893 9.42570E-03-5.92592E-04-6.59347E-14
 -1      1894 9.84786E-03-7.15646E-04-7.07795E-14
 -1      1895 1.00073E-02-7.53787E-04-7.28132E-14
 -1      1896 9.74782E-03-6.53822E-04-6.99085E-14
 -1      1897 1.01659E-02-7.94319E-04-7.48699E-14
 -1      1898 1.03225E-02-8.36042E-04-7.69487E-14
 -1      1899 1.00698E-02-7.30428E-04-7.39728E-14
 -1      1900 1.04771E-02-8.77150E-04-7.90535E-14
 -1      1901 1.06293E-02-9.15743E-04-8.11797E-14
 -1      1902 1.03882E-02-8.15309E-04-7.81310E-14
 -1      1903 1.07789E-02-9.49483E-04-8.33272E-14
 -1      1904 1.09262E-02-9.76199E-04-8.55000E-14
 -1      1905 1.06992E-02-8.94910E-04-8.23828E-14
 -1      1906 1.10710E-02-9.93728E-04-8.76941E-14
 -1      1907 1.12146E-02-1.00043E-03-8.99075E-14
 -1      1908 1.10010E-02-9.50877E-04-8.67236E-14
 -1      1909 1.13566E-02-9.95218E-04-9.21434E-14
 -1      1910 1.14991E-02-9.77734E-04-9.44008E-14
 -1      1911 1.12953E-02-9.65700E-04-9.11538E-14
 -1      1912 1.16415E-02-9.48455E-04-9.66792E-14
 -1      1913 1.17857E-02-9.08523E-04-9.89769E-14
 -1      1914 1.15874E-02-9.30234E-04-9.56658E-14
 -1      1915 1.19312E-02-8.59705E-04-1.01292E-13
 -1      1916 1.20787E-02-8.03998E-04-1.03624E-13
 -1      1917 1.18834E-02-8.48318E-04-1.00262E-13
 -1      1918 1.22281E-02-7.43657E-04-1.05969E-13
 -1      1919 1.23791E-02-6.80634E-04-1.08330E-13
 -1      1920 1.21865E-02-7.34543E-04-1.04922E-13
 -1      1921 1.25316E-02-6.16819E-04-1.10702E-13
 -1      1922 1.26848E-02-5.53542E-04-1.13081E-13
 -1      1923 1.24959E-02-6.06904E-04-1.09638E-13
 -1      1924 1.28387E-02-4.91882E-04-1.15474E-13
 -1      1925 1.29924E-02-4.32378E-04-1.17874E-13
 -1      1926 1.28081E-02-4.79943E-04-1.14398E-13
 -1      1927 1.31460E-02-3.75257E-04-1.20279E-13
 -1      1928 1.32985E-02-3.20441E-04-1.22692E-13
 -1      1929 1.31195E-02-3.61511E-04-1.19193E-13
 -1      1930 1.34504E-02-2.67519E-04-1.25113E-13
 -1      1931 1.36008E-02-2.16032E-04-1.27538E-13
 -1      1932 1.34270E-02-2.53034E-04-1.24015E-13
 -1      1933 1.37501E-02-1.65238E-04-1.29972E-13
 -1      1934 1.38981E-02-1.14508E-04-1.32409E-13
 -1      1935 1.37290E-02-1.51450E-04-1.28866E-13
 -1      1936 1.40270E-02-7.01842E-05-1.34589E-13
 -1      1937 1.41725E-02-1.75813E-05-1.37035E-13
 -1      1938 1.42632E-02 3.11420E-05-1.37846E-13
 -1      1939 1.40074E-02-5.83953E-05-1.33476E-13
 -1      1940 1.13862E-03 4.80117E-04-8.05196E-16
 -1      1941 9.96849E-04 4.46862E-04-5.94861E-16
 -1      1942 9.64466E-04 4.17407E-04-6.09023E-16
 -1      1943 1.41772E-03 5.31603E-04-1.32663E-15
 -1      1944 1.27857E-03 5.08153E-04-1.04887E-15
 -1      1945 1.24894E-03 4.80016E-04-1.06187E-15
 -1      1946 1.69409E-03 5.67897E-04-1.98465E-15
 -1      1947 1.55606E-03 5.51405E-04-1.63877E-15
 -1      1948 1.52920E-03 5.24234E-04-1.64934E-15
 -1      1949 1.96964E-03 5.93173E-04-2.77842E-15
 -1      1950 1.83187E-03 5.81743E-04-2.36427E-15
 -1      1951 1.80742E-03 5.55211E-04-2.37191E-15
 -1      1952 2.24544E-03 6.10383E-04-3.70877E-15
 -1      1953 2.10746E-03 6.02662E-04-3.22645E-15
 -1      1954 2.08502E-03 5.76537E-04-3.22982E-15
 -1      1955 2.52207E-03 6.21694E-04-4.77470E-15
 -1      1956 2.38364E-03 6.16683E-04-4.22481E-15
 -1      1957 2.36282E-03 5.90807E-04-4.22375E-15
 -1      1958 2.79977E-03 6.28726E-04-5.97708E-15
 -1      1959 2.66078E-03 6.25676E-04-5.35859E-15
 -1      1960 2.64124E-03 5.99943E-04-5.35258E-15
 -1      1961 3.07861E-03 6.32682E-04-7.31529E-15
 -1      1962 2.93905E-03 6.31037E-04-6.62921E-15
 -1      1963 2.92052E-03 6.05379E-04-6.61722E-15
 -1      1964 3.35857E-03 6.34451E-04-8.78826E-15
 -1      1965 3.21846E-03 6.33803E-04-8.03479E-15
 -1      1966 3.20071E-03 6.08176E-04-8.01618E-15
 -1      1967 3.63956E-03 6.34668E-04-1.03976E-14
 -1      1968 3.49895E-03 6.34728E-04-9.57590E-15
 -1      1969 3.48180E-03 6.09103E-04-9.55028E-15
 -1      1970 3.92148E-03 6.33772E-04-1.21425E-14
 -1      1971 3.78041E-03 6.34342E-04-1.12526E-14
 -1      1972 3.76373E-03 6.08707E-04-1.12197E-14
 -1      1973 4.20422E-03 6.32050E-04-1.40275E-14
 -1      1974 4.06276E-03 6.33004E-04-1.30677E-14
 -1      1975 4.04643E-03 6.07352E-04-1.30262E-14
 -1      1976 4.48771E-03 6.29664E-04-1.60499E-14
 -1      1977 4.34588E-03 6.30935E-04-1.50215E-14
 -1      1978 4.32983E-03 6.05264E-04-1.49711E-14
 -1      1979 4.77190E-03 6.26687E-04-1.82088E-14
 -1      1980 4.62973E-03 6.28248E-04-1.71122E-14
 -1      1981 4.61387E-03 6.02560E-04-1.70524E-14
 -1      1982 5.05678E-03 6.23116E-04-2.04985E-14
 -1      1983 4.91426E-03 6.24976E-04-1.93375E-14
 -1      1984 4.89855E-03 5.99273E-04-1.92674E-14
 -1      1985 5.34240E-03 6.18902E-04-2.29207E-14
 -1      1986 5.19950E-03 6.21092E-04-2.16932E-14
 -1      1987 5.18388E-03 5.95374E-04-2.16137E-14
 -1      1988 5.62888E-03 6.13961E-04-2.54714E-14
 -1      1989 5.48552E-03 6.16524E-04-2.41799E-14
 -1      1990 5.46994E-03 5.90789E-04-2.40901E-14
 -1      1991 5.91640E-03 6.08201E-04-2.81503E-14
 -1      1992 5.77249E-03 6.11183E-04-2.67945E-14
 -1      1993 5.75686E-03 5.85424E-04-2.66953E-14
 -1      1994 6.20525E-03 6.01543E-04-3.09530E-14
 -1      1995 6.06063E-03 6.04980E-04-2.95362E-14
 -1      1996 6.04485E-03 5.79180E-04-2.94271E-14
 -1      1997 6.49581E-03 5.93960E-04-3.38742E-14
 -1      1998 6.35028E-03 5.97856E-04-3.23999E-14
 -1      1999 6.33420E-03 5.71991E-04-3.22810E-14
 -1      2000 6.78861E-03 5.85520E-04-3.69108E-14
 -1      2001 6.64189E-03 5.89826E-04-3.53794E-14
 -1      2002 6.62530E-03 5.63853E-04-3.52516E-14
 -1      2003 7.08429E-03 5.76454E-04-4.00565E-14
 -1      2004 6.93603E-03 5.81028E-04-3.84690E-14
 -1      2005 6.91866E-03 5.54886E-04-3.83327E-14
 -1      2006 7.38365E-03 5.67258E-04-4.33138E-14
 -1      2007 7.23344E-03 5.71813E-04-4.16709E-14
 -1      2008 7.21488E-03 5.45411E-04-4.15249E-14
 -1      2009 7.68766E-03 5.58829E-04-4.66798E-14
 -1      2010 7.53499E-03 5.62855E-04-4.49840E-14
 -1      2011 7.51471E-03 5.36064E-04-4.48283E-14
 -1      2012 7.99739E-03 5.52667E-04-5.01514E-14
 -1      2013 7.84171E-03 5.55328E-04-4.84029E-14
 -1      2014 7.81904E-03 5.27961E-04-4.82396E-14
 -1      2015 8.31400E-03 5.51142E-04-5.37279E-14
 -1      2016 8.15473E-03 5.51128E-04-5.19264E-14
 -1      2017 8.12881E-03 5.22927E-04-5.17552E-14
 -1      2018 8.63859E-03 5.57829E-04-5.74045E-14
 -1      2019 8.47519E-03 5.53188E-04-5.55535E-14
 -1      2020 8.44507E-03 5.23790E-04-5.53738E-14
 -1      2021 8.97201E-03 5.77847E-04-6.11865E-14
 -1      2022 8.80413E-03 5.65819E-04-5.92829E-14
 -1      2023 8.76880E-03 5.34736E-04-5.90951E-14
 -1      2024 9.31453E-03 6.18021E-04-6.50658E-14
 -1      2025 9.14216E-03 5.94997E-04-6.31135E-14
 -1      2026 9.10085E-03 5.61614E-04-6.29169E-14
 -1      2027 9.66534E-03 6.86422E-04-6.90475E-14
 -1      2028 9.48909E-03 6.48288E-04-6.70440E-14
 -1      2029 9.44166E-03 6.11941E-04-6.68381E-14
 -1      2030 1.00220E-02 7.90542E-04-7.31285E-14
 -1      2031 9.84338E-03 7.33825E-04-7.10760E-14
 -1      2032 9.79086E-03 6.94059E-04-7.08589E-14
 -1      2033 1.03797E-02 9.33076E-04-7.73113E-14
 -1      2034 1.02014E-02 8.57374E-04-7.52070E-14
 -1      2035 1.01465E-02 8.14516E-04-7.49806E-14
 -1      2036 1.07311E-02 1.10532E-03-8.15925E-14
 -1      2037 1.05570E-02 1.01681E-03-7.94408E-14
 -1      2038 1.05040E-02 9.72703E-04-7.92004E-14
 -1      2039 1.10685E-02 1.28102E-03-8.59753E-14
 -1      2040 1.09021E-02 1.19512E-03-8.37706E-14
 -1      2041 1.08558E-02 1.15336E-03-8.35205E-14
 -1      2042 1.13877E-02 1.41829E-03-9.04499E-14
 -1      2043 1.12300E-02 1.35702E-03-8.82011E-14
 -1      2044 1.11934E-02 1.32161E-03-8.79358E-14
 -1      2045 1.16942E-02 1.47702E-03-9.50143E-14
 -1      2046 1.15412E-02 1.45859E-03-9.27214E-14
 -1      2047 1.15148E-02 1.43082E-03-9.24430E-14
 -1      2048 1.20012E-02 1.44407E-03-9.96598E-14
 -1      2049 1.18462E-02 1.47094E-03-9.73277E-14
 -1      2050 1.18288E-02 1.44806E-03-9.70387E-14
 -1      2051 1.23203E-02 1.34138E-03-1.04369E-13
 -1      2052 1.21586E-02 1.39890E-03-1.02008E-13
 -1      2053 1.21496E-02 1.37669E-03-1.01712E-13
 -1      2054 1.26536E-02 1.21094E-03-1.09121E-13
 -1      2055 1.24854E-02 1.27720E-03-1.06740E-13
 -1      2056 1.24841E-02 1.25285E-03-1.06439E-13
 -1      2057 1.29955E-02 1.08988E-03-1.13899E-13
 -1      2058 1.28242E-02 1.14793E-03-1.11508E-13
 -1      2059 1.28285E-02 1.12120E-03-1.11203E-13
 -1      2060 1.33377E-02 9.97531E-04-1.18692E-13
 -1      2061 1.31673E-02 1.03992E-03-1.16295E-13
 -1      2062 1.31742E-02 1.01175E-03-1.15990E-13
 -1      2063 1.36738E-02 9.36462E-04-1.23500E-13
 -1      2064 1.35071E-02 9.63524E-04-1.21095E-13
 -1      2065 1.35140E-02 9.34978E-04-1.20788E-13
 -1      2066 1.39997E-02 8.99307E-04-1.28306E-13
 -1      2067 1.38383E-02 9.15582E-04-1.25900E-13
 -1      2068 1.38438E-02 8.87456E-04-1.25593E-13
 -1      2069 1.43139E-02 8.74575E-04-1.33116E-13
 -1      2070 1.41583E-02 8.86091E-04-1.30713E-13
 -1      2071 1.41622E-02 8.59004E-04-1.30402E-13
 -1      2072 1.46166E-02 8.50368E-04-1.37925E-13
 -1      2073 1.44666E-02 8.63012E-04-1.35521E-13
 -1      2074 1.44693E-02 8.37476E-04-1.35213E-13
 -1      2075 1.48603E-02 8.20760E-04-1.41877E-13
 -1      2076 1.47141E-02 8.37948E-04-1.39470E-13
 -1      2077 1.47164E-02 8.13993E-04-1.39164E-13
 -1      2078 1.49085E-02 7.86923E-04-1.42257E-13
 -1      2079 1.50803E-02 6.06022E-04-1.41401E-13
 -1      2080 1.50438E-02 6.33364E-04-1.41463E-13
 -1      2081 1.50058E-02 6.63438E-04-1.41520E-13
 -1      2082 1.49674E-02 6.96063E-04-1.41579E-13
 -1      2083 1.49036E-02 6.56896E-04-1.39401E-13
 -1      2084 1.49538E-02 7.21724E-04-1.41891E-13
 -1      2085 1.49184E-02 7.58456E-04-1.41946E-13
 -1      2086 1.48230E-02 7.71856E-04-1.40398E-13
 -1      2087 1.48490E-02 7.16227E-04-1.39773E-13
 -1      2088 1.51415E-02 5.59957E-04-1.41271E-13
 -1      2089 1.51130E-02 5.81801E-04-1.41336E-13
 -1      2090 1.49780E-02 5.98614E-04-1.39279E-13
 -1      2091 1.51804E-02 5.22340E-04-1.41135E-13
 -1      2092 1.51645E-02 5.40259E-04-1.41203E-13
 -1      2093 1.50374E-02 5.49847E-04-1.39145E-13
 -1      2094 1.51869E-02 4.90950E-04-1.40985E-13
 -1      2095 1.51881E-02 5.06286E-04-1.41062E-13
 -1      2096 1.50707E-02 5.08811E-04-1.38999E-13
 -1      2097 1.51566E-02 4.61384E-04-1.40828E-13
 -1      2098 1.51765E-02 4.76411E-04-1.40907E-13
 -1      2099 1.50689E-02 4.72646E-04-1.38844E-13
 -1      2100 1.50903E-02 4.28945E-04-1.40656E-13
 -1      2101 1.51277E-02 4.45938E-04-1.40746E-13
 -1      2102 1.50287E-02 4.36836E-04-1.38679E-13
 -1      2103 1.49938E-02 3.89773E-04-1.40461E-13
 -1      2104 1.50454E-02 4.10468E-04-1.40559E-13
 -1      2105 1.49525E-02 3.96874E-04-1.38498E-13
 -1      2106 1.48778E-02 3.42521E-04-1.40260E-13
 -1      2107 1.49379E-02 3.67319E-04-1.40361E-13
 -1      2108 1.48485E-02 3.49935E-04-1.38302E-13
 -1      2109 1.47478E-02 2.85041E-04-1.40044E-13
 -1      2110 1.48138E-02 3.14911E-04-1.40154E-13
 -1      2111 1.47257E-02 2.94350E-04-1.38093E-13
 -1      2112 1.46137E-02 2.18883E-04-1.39823E-13
 -1      2113 1.46808E-02 2.52898E-04-1.39935E-13
 -1      2114 1.45921E-02 2.29826E-04-1.37874E-13
 -1      2115 1.44816E-02 1.45594E-04-1.39593E-13
 -1      2116 1.45471E-02 1.82946E-04-1.39708E-13
 -1      2117 1.44568E-02 1.58139E-04-1.37648E-13
 -1      2118 1.35192E-02 4.87910E-04-1.05832E-13
 -1      2119 1.36502E-02 4.37057E-04-1.06319E-13
 -1      2120 1.38717E-02 3.32282E-04-1.07252E-13
 -1      2121 1.38665E-02 3.14081E-04-1.07282E-13
 -1      2122 1.37657E-02 3.86836E-04-1.06935E-13
 -1      2123 1.38354E-02 3.60031E-04-1.07168E-13
 -1      2124 1.31742E-02 6.40123E-04-1.04449E-13
 -1      2125 1.33446E-02 5.61457E-04-1.05181E-13
 -1      2126 1.27808E-02 8.43334E-04-1.02503E-13
 -1      2127 1.29675E-02 7.43371E-04-1.03461E-13
 -1      2128 3.27131E-04-8.89982E-05-1.64189E-16
 -1      2129 3.29241E-04-1.02142E-04-1.54621E-16
 -1      2130 4.46315E-04-1.45121E-04-2.24742E-16
 -1      2131 4.39999E-04-1.09961E-04-2.49922E-16
 -1      2132 1.19462E-02 1.25736E-03-9.69780E-14
 -1      2133 1.21138E-02 1.18780E-03-9.84548E-14
 -1      2134 1.16382E-02 1.30954E-03-9.43511E-14
 -1      2135 1.17877E-02 1.29550E-03-9.56604E-14
 -1      2136 1.18569E-02 1.28834E-03-9.65229E-14
 -1      2137 1.12779E-02 1.23434E-03-9.12548E-14
 -1      2138 1.14373E-02 1.28626E-03-9.25929E-14
 -1      2139 1.09455E-02 1.07148E-03-8.88247E-14
 -1      2140 1.11142E-02 1.16415E-03-9.00369E-14
 -1      2141 1.12224E-02 1.20860E-03-9.04717E-14
 -1      2142 1.05366E-02 8.30705E-04-8.63020E-14
 -1      2143 1.07166E-02 9.40620E-04-8.73509E-14
 -1      2144 1.01407E-02 5.95730E-04-8.41492E-14
 -1      2145 1.03327E-02 7.09352E-04-8.51691E-14
 -1      2146 9.72649E-03 3.90812E-04-8.23342E-14
 -1      2147 9.90324E-03 4.67997E-04-8.29680E-14
 -1      2148 9.43956E-03 2.78483E-04-8.13533E-14
 -1      2149 9.56575E-03 3.29047E-04-8.18761E-14
 -1      2150 9.26329E-03 2.04904E-04-8.05728E-14
 -1      2151 9.32481E-03 2.27797E-04-8.07526E-14
 -1      2152 9.24794E-03 1.62244E-04-8.05314E-14
 -1      2153 9.23598E-03 1.80705E-04-8.05686E-14
 -1      2154 9.39704E-03 1.02797E-04-8.08130E-14
 -1      2155 9.30898E-03 1.32742E-04-8.04872E-14
 -1      2156 9.66088E-03-5.71272E-06-8.20418E-14
 -1      2157 9.52352E-03 4.75710E-05-8.15516E-14
 -1      2158 9.99970E-03-1.57800E-04-8.34086E-14
 -1      2159 9.83444E-03-8.10466E-05-8.27225E-14
 -1      2160 1.03694E-02-3.44187E-04-8.51390E-14
 -1      2161 1.01967E-02-2.52740E-04-8.42694E-14
 -1      2162 1.07316E-02-5.31860E-04-8.71351E-14
 -1      2163 1.05650E-02-4.42707E-04-8.61269E-14
 -1      2164 1.10796E-02-6.90232E-04-8.96358E-14
 -1      2165 1.09242E-02-6.23561E-04-8.84444E-14
 -1      2166 1.14149E-02-7.60875E-04-9.25333E-14
 -1      2167 1.12666E-02-7.42306E-04-9.11910E-14
 -1      2168 1.17521E-02-7.06662E-04-9.54915E-14
 -1      2169 1.16024E-02-7.45648E-04-9.41981E-14
 -1      2170 1.20741E-02-5.66607E-04-9.80347E-14
 -1      2171 1.19120E-02-6.47742E-04-9.67586E-14
 -1      2172 1.18096E-02-6.84134E-04-9.63030E-14
 -1      2173 1.24756E-02-3.42655E-04-1.00785E-13
 -1      2174 1.22950E-02-4.45838E-04-9.96678E-14
 -1      2175 1.28347E-02-1.49956E-04-1.02672E-13
 -1      2176 1.26538E-02-2.48490E-04-1.01730E-13
 -1      2177 1.25230E-02-2.87464E-04-1.01789E-13
 -1      2178 1.32364E-02 5.91626E-05-1.04799E-13
 -1      2179 1.30580E-02-2.99553E-05-1.03886E-13
 -1      2180 1.36043E-02 2.05437E-04-1.06222E-13
 -1      2181 1.34534E-02 1.52644E-04-1.05737E-13
 -1      2182 1.38061E-02 2.79435E-04-1.06984E-13
 -1      2183 1.37197E-02 2.47682E-04-1.06604E-13
 -1      2184 1.36595E-02 2.48016E-04-1.07442E-13
 -1      2185 1.23636E-02 1.06265E-03-1.00291E-13
 -1      2186 1.25679E-02 9.53989E-04-1.01394E-13
 -1      2187 1.26558E-02 8.87382E-04-1.02636E-13
 -1      2188 1.30554E-02 6.73962E-04-1.04739E-13
 -1      2189 6.07879E-04-2.98148E-04-2.01038E-16
 -1      2190 1.21077E-02 1.19288E-03-9.90685E-14
 -1      2191 1.22221E-02 1.13205E-03-9.96799E-14
 -1      2192 1.23281E-02 1.07102E-03-1.00910E-13
 -1      2193 6.63598E-04-2.92437E-04-2.91745E-16
 -1      2194 1.37132E-02 3.96741E-04-1.07652E-13
 -1      2195 1.38633E-02 3.44340E-04-1.08351E-13
 -1      2196 1.43884E-02 9.90239E-05-1.38783E-13
 -1      2197 1.34257E-02 5.05438E-04-1.06382E-13
 -1      2198 1.38451E-02 3.07028E-04-1.08129E-13
 -1      2199 1.29087E-02-7.46449E-05-1.03954E-13
 -1      2200 1.21560E-02-5.06272E-04-9.92039E-14
 -1      2201 1.15030E-02-7.64728E-04-9.33678E-14
 -1      2202 1.11765E-02-7.25913E-04-9.01528E-14
 -1      2203 1.08380E-02-5.77861E-04-8.72991E-14
 -1      2204 1.04848E-02-3.83880E-04-8.50148E-14
 -1      2205 1.01143E-02-1.89452E-04-8.31778E-14
 -1      2206 9.75504E-03-2.41895E-05-8.16484E-14
 -1      2207 9.45751E-03 9.22151E-05-8.02396E-14
 -1      2208 9.26898E-03 1.50181E-04-7.95567E-14
 -1      2209 9.24059E-03 1.84382E-04-7.96084E-14
 -1      2210 9.37729E-03 2.32814E-04-8.02100E-14
 -1      2211 9.65322E-03 3.32946E-04-8.12622E-14
 -1      2212 1.00343E-02 5.08614E-04-8.28849E-14
 -1      2213 1.08684E-02 1.00959E-03-8.77826E-14
 -1      2214 1.15403E-02 1.31084E-03-9.34422E-14
 -1      2215 1.04626E-02 7.54490E-04-8.51874E-14
 -1      2216 1.33400E-02 1.29941E-04-1.06114E-13
 -1      2217 1.01658E-03 3.99850E-04-7.57329E-16
 -1      2218 8.72117E-04 3.63462E-04-5.59110E-16
 -1      2219 5.47795E-04-5.53151E-05-3.99393E-16
 -1      2220 5.48830E-04-7.20344E-05-3.93213E-16
 -1      2221 5.50248E-04-8.93583E-05-3.85637E-16
 -1      2222 5.52120E-04-1.07334E-04-3.76259E-16
 -1      2223 6.65298E-04-9.55173E-05-5.29551E-16
 -1      2224 5.46417E-04 8.85928E-06-4.11007E-16
 -1      2225 5.46397E-04-6.98326E-06-4.09612E-16
 -1      2226 5.47171E-04 4.08800E-05-4.10831E-16
 -1      2227 5.46672E-04 2.48007E-05-4.11658E-16
 -1      2228 6.61359E-04 1.99369E-05-5.57768E-16
 -1      2229 5.48994E-04 7.35099E-05-4.05925E-16
 -1      2230 5.47933E-04 5.70136E-05-4.08948E-16
 -1      2231 6.62683E-04 5.78036E-05-5.56047E-16
 -1      2232 5.52382E-04 1.08989E-04-3.95558E-16
 -1      2233 5.50460E-04 9.09110E-05-4.01561E-16
 -1      2234 6.65540E-04 9.72816E-05-5.48173E-16
 -1      2235 5.58257E-04 1.48326E-04-3.77411E-16
 -1      2236 5.54940E-04 1.28101E-04-3.87589E-16
 -1      2237 6.70625E-04 1.40059E-04-5.32736E-16
 -1      2238 5.68582E-04 1.93925E-04-3.48503E-16
 -1      2239 5.62745E-04 1.70207E-04-3.64699E-16
 -1      2240 6.79269E-04 1.87606E-04-5.07054E-16
 -1      2241 1.29586E-02 7.10475E-04-1.05395E-13
 -1      2242 1.31437E-02 6.16713E-04-1.06388E-13
 -1      2243 1.30203E-03 4.56795E-04-1.25215E-15
 -1      2244 1.15971E-03 4.30853E-04-9.88061E-16
 -1      2245 1.07176E-03 3.81374E-04-9.11692E-16
 -1      2246 9.15169E-04-3.46422E-04-5.97314E-16
 -1      2247 1.05926E-03-3.79746E-04-7.96916E-16
 -1      2248 1.20252E-03-4.08119E-04-1.02811E-15
 -1      2249 1.34533E-03-4.31991E-04-1.29164E-15
 -1      2250 1.11696E-03-3.60550E-04-9.55684E-16
 -1      2251 1.48750E-03-4.52210E-04-1.58695E-15
 -1      2252 1.62927E-03-4.69046E-04-1.91542E-15
 -1      2253 1.40329E-03-4.07314E-04-1.49287E-15
 -1      2254 1.77068E-03-4.83171E-04-2.27655E-15
 -1      2255 1.91186E-03-4.94799E-04-2.67031E-15
 -1      2256 1.68840E-03-4.40546E-04-2.15843E-15
 -1      2257 2.05287E-03-5.04425E-04-3.09687E-15
 -1      2258 2.19378E-03-5.12224E-04-3.55698E-15
 -1      2259 1.97258E-03-4.63570E-04-2.95418E-15
 -1      2260 2.33467E-03-5.18554E-04-4.04960E-15
 -1      2261 2.47555E-03-5.23558E-04-4.57571E-15
 -1      2262 2.25620E-03-4.79024E-04-3.88067E-15
 -1      2263 2.61648E-03-5.27498E-04-5.13504E-15
 -1      2264 2.75747E-03-5.30487E-04-5.72720E-15
 -1      2265 2.53960E-03-4.88937E-04-4.93881E-15
 -1      2266 2.89856E-03-5.32714E-04-6.35235E-15
 -1      2267 3.03972E-03-5.34266E-04-7.01009E-15
 -1      2268 2.82300E-03-4.94846E-04-6.12818E-15
 -1      2269 3.18102E-03-5.35279E-04-7.70049E-15
 -1      2270 3.32241E-03-5.35818E-04-8.42318E-15
 -1      2271 3.10656E-03-4.97903E-04-7.44801E-15
 -1      2272 3.46393E-03-5.35977E-04-9.17853E-15
 -1      2273 3.60555E-03-5.35804E-04-9.96657E-15
 -1      2274 3.39036E-03-4.98948E-04-8.89797E-15
 -1      2275 3.74730E-03-5.35361E-04-1.07868E-14
 -1      2276 3.88915E-03-5.34682E-04-1.16389E-14
 -1      2277 3.67443E-03-4.98582E-04-1.04772E-14
 -1      2278 4.03113E-03-5.33802E-04-1.25236E-14
 -1      2279 4.17320E-03-5.32746E-04-1.34423E-14
 -1      2280 3.95880E-03-4.97211E-04-1.21859E-14
 -1      2281 4.31539E-03-5.31530E-04-1.43942E-14
 -1      2282 4.45768E-03-5.30168E-04-1.53773E-14
 -1      2283 4.24346E-03-4.95094E-04-1.40244E-14
 -1      2284 4.60008E-03-5.28665E-04-1.63938E-14
 -1      2285 4.74258E-03-5.27026E-04-1.74438E-14
 -1      2286 4.52841E-03-4.92373E-04-1.59959E-14
 -1      2287 4.88519E-03-5.25245E-04-1.85259E-14
 -1      2288 5.02792E-03-5.23324E-04-1.96399E-14
 -1      2289 4.81367E-03-4.89102E-04-1.80965E-14
 -1      2290 5.17076E-03-5.21250E-04-2.07871E-14
 -1      2291 5.31372E-03-5.19021E-04-2.19673E-14
 -1      2292 5.09925E-03-4.85271E-04-2.03276E-14
 -1      2293 5.45682E-03-5.16621E-04-2.31805E-14
 -1      2294 5.60007E-03-5.14049E-04-2.44247E-14
 -1      2295 5.38518E-03-4.80825E-04-2.26886E-14
 -1      2296 5.74348E-03-5.11288E-04-2.57010E-14
 -1      2297 5.88706E-03-5.08339E-04-2.70105E-14
 -1      2298 5.67153E-03-4.75692E-04-2.51804E-14
 -1      2299 6.03084E-03-5.05190E-04-2.83502E-14
 -1      2300 6.17484E-03-5.01849E-04-2.97222E-14
 -1      2301 5.95838E-03-4.69800E-04-2.77987E-14
 -1      2302 6.31908E-03-4.98313E-04-3.11252E-14
 -1      2303 6.46360E-03-4.94601E-04-3.25582E-14
 -1      2304 6.24585E-03-4.63113E-04-3.05432E-14
 -1      2305 6.60841E-03-4.90728E-04-3.40236E-14
 -1      2306 6.75358E-03-4.86729E-04-3.55178E-14
 -1      2307 6.53409E-03-4.55662E-04-3.34125E-14
 -1      2308 6.89910E-03-4.82648E-04-3.70413E-14
 -1      2309 7.04508E-03-4.78542E-04-3.85946E-14
 -1      2310 6.82329E-03-4.47603E-04-3.64025E-14
 -1      2311 7.19149E-03-4.74496E-04-4.01773E-14
 -1      2312 7.33844E-03-4.70600E-04-4.17865E-14
 -1      2313 7.11373E-03-4.39272E-04-3.95102E-14
 -1      2314 7.48594E-03-4.66993E-04-4.34236E-14
 -1      2315 7.63410E-03-4.63811E-04-4.50891E-14
 -1      2316 7.40571E-03-4.31266E-04-4.27300E-14
 -1      2317 7.78293E-03-4.61259E-04-4.67798E-14
 -1      2318 7.93253E-03-4.59531E-04-4.84979E-14
 -1      2319 7.69966E-03-4.24539E-04-4.60579E-14
 -1      2320 8.08296E-03-4.58914E-04-5.02417E-14
 -1      2321 8.23428E-03-4.59669E-04-5.20118E-14
 -1      2322 7.99611E-03-4.20504E-04-4.94938E-14
 -1      2323 8.38661E-03-4.62163E-04-5.38078E-14
 -1      2324 8.53995E-03-4.66740E-04-5.56283E-14
 -1      2325 8.29576E-03-4.21129E-04-5.30345E-14
 -1      2326 8.69448E-03-4.73820E-04-5.74719E-14
 -1      2327 8.85011E-03-4.83820E-04-5.93401E-14
 -1      2328 8.59948E-03-4.29003E-04-5.66743E-14
 -1      2329 9.00712E-03-4.97160E-04-6.12321E-14
 -1      2330 9.16523E-03-5.14286E-04-6.31495E-14
 -1      2331 8.90827E-03-4.47297E-04-6.04100E-14
 -1      2332 9.32480E-03-5.35500E-04-6.50897E-14
 -1      2333 9.48530E-03-5.61158E-04-6.70519E-14
 -1      2334 9.22315E-03-4.79529E-04-6.42427E-14
 -1      2335 9.64712E-03-5.91270E-04-6.90392E-14
 -1      2336 9.80940E-03-6.25854E-04-7.10480E-14
 -1      2337 9.54469E-03-5.28919E-04-6.81699E-14
 -1      2338 9.97244E-03-6.64404E-04-7.30782E-14
 -1      2339 1.01351E-02-7.06221E-04-7.51325E-14
 -1      2340 9.87226E-03-5.97064E-04-7.21856E-14
 -1      2341 1.02974E-02-7.50076E-04-7.72108E-14
 -1      2342 1.04583E-02-7.94158E-04-7.93122E-14
 -1      2343 1.02031E-02-6.81642E-04-7.62921E-14
 -1      2344 1.06174E-02-8.36496E-04-8.14374E-14
 -1      2345 1.07744E-02-8.74196E-04-8.35840E-14
 -1      2346 1.05320E-02-7.73391E-04-8.04913E-14
 -1      2347 1.09286E-02-9.04884E-04-8.57548E-14
 -1      2348 1.10809E-02-9.25608E-04-8.79491E-14
 -1      2349 1.08531E-02-8.54163E-04-8.47872E-14
 -1      2350 1.12308E-02-9.34573E-04-9.01630E-14
 -1      2351 1.13803E-02-9.30032E-04-9.23977E-14
 -1      2352 1.11638E-02-9.00178E-04-8.91722E-14
 -1      2353 1.15291E-02-9.11671E-04-9.46558E-14
 -1      2354 1.16794E-02-8.80159E-04-9.69341E-14
 -1      2355 1.14682E-02-8.92041E-04-9.36445E-14
 -1      2356 1.18307E-02-8.36783E-04-9.92310E-14
 -1      2357 1.19845E-02-7.84264E-04-1.01546E-13
 -1      2358 1.17749E-02-8.25589E-04-9.82009E-14
 -1      2359 1.21402E-02-7.24741E-04-1.03875E-13
 -1      2360 1.22976E-02-6.61168E-04-1.06220E-13
 -1      2361 1.20902E-02-7.15143E-04-1.02830E-13
 -1      2362 1.24565E-02-5.95584E-04-1.08576E-13
 -1      2363 1.26158E-02-5.30167E-04-1.10945E-13
 -1      2364 1.24138E-02-5.83631E-04-1.07517E-13
 -1      2365 1.27755E-02-4.66235E-04-1.13324E-13
 -1      2366 1.29342E-02-4.04681E-04-1.15714E-13
 -1      2367 1.27405E-02-4.51072E-04-1.12252E-13
 -1      2368 1.30924E-02-3.46002E-04-1.18110E-13
 -1      2369 1.32489E-02-2.90168E-04-1.20510E-13
 -1      2370 1.30642E-02-3.28711E-04-1.17025E-13
 -1      2371 1.34041E-02-2.37014E-04-1.22921E-13
 -1      2372 1.35573E-02-1.85965E-04-1.25336E-13
 -1      2373 1.33811E-02-2.19257E-04-1.21826E-13
 -1      2374 1.37090E-02-1.36458E-04-1.27760E-13
 -1      2375 1.38588E-02-8.76596E-05-1.30190E-13
 -1      2376 1.36897E-02-1.19932E-04-1.26657E-13
 -1      2377 1.86516E-03 5.25270E-04-2.64328E-15
 -1      2378 1.72494E-03 5.12536E-04-2.24544E-15
 -1      2379 2.14521E-03 5.44498E-04-3.54077E-15
 -1      2380 2.00524E-03 5.35864E-04-3.07504E-15
 -1      2381 1.92450E-03 4.94645E-04-2.91913E-15
 -1      2382 2.42523E-03 5.57200E-04-4.57201E-15
 -1      2383 2.28521E-03 5.51560E-04-4.03952E-15
 -1      2384 2.20657E-03 5.11847E-04-3.85466E-15
 -1      2385 2.70560E-03 5.65168E-04-5.73855E-15
 -1      2386 2.56537E-03 5.61695E-04-5.13855E-15
 -1      2387 2.48849E-03 5.23062E-04-4.92350E-15
 -1      2388 2.98652E-03 5.69741E-04-7.03868E-15
 -1      2389 2.84599E-03 5.67818E-04-6.37154E-15
 -1      2390 2.77055E-03 5.29944E-04-6.12633E-15
 -1      2391 3.26808E-03 5.71903E-04-8.47286E-15
 -1      2392 3.12723E-03 5.71078E-04-7.73921E-15
 -1      2393 3.05293E-03 5.33730E-04-7.46205E-15
 -1      2394 3.55030E-03 5.72366E-04-1.00414E-14
 -1      2395 3.40912E-03 5.72314E-04-9.24013E-15
 -1      2396 3.33573E-03 5.35327E-04-8.93068E-15
 -1      2397 3.83314E-03 5.71625E-04-1.17445E-14
 -1      2398 3.69165E-03 5.72123E-04-1.08762E-14
 -1      2399 3.61896E-03 5.35384E-04-1.05327E-14
 -1      2400 4.11658E-03 5.70006E-04-1.35851E-14
 -1      2401 3.97480E-03 5.70910E-04-1.26474E-14
 -1      2402 3.90265E-03 5.34349E-04-1.22705E-14
 -1      2403 4.40057E-03 5.67702E-04-1.55623E-14
 -1      2404 4.25851E-03 5.68930E-04-1.45568E-14
 -1      2405 4.18676E-03 5.32507E-04-1.41439E-14
 -1      2406 4.68510E-03 5.64803E-04-1.76738E-14
 -1      2407 4.54277E-03 5.66323E-04-1.66012E-14
 -1      2408 4.47130E-03 5.30022E-04-1.61523E-14
 -1      2409 4.97016E-03 5.61322E-04-1.99196E-14
 -1      2410 4.82757E-03 5.63135E-04-1.87808E-14
 -1      2411 4.75624E-03 5.26958E-04-1.82957E-14
 -1      2412 5.25580E-03 5.57211E-04-2.22949E-14
 -1      2413 5.11291E-03 5.59346E-04-2.10908E-14
 -1      2414 5.04163E-03 5.23309E-04-2.05710E-14
 -1      2415 5.54209E-03 5.52384E-04-2.47997E-14
 -1      2416 5.39886E-03 5.54889E-04-2.35305E-14
 -1      2417 5.32748E-03 5.19012E-04-2.29745E-14
 -1      2418 5.82915E-03 5.46738E-04-2.74333E-14
 -1      2419 5.68551E-03 5.49665E-04-2.61005E-14
 -1      2420 5.61388E-03 5.13973E-04-2.55082E-14
 -1      2421 6.11719E-03 5.40171E-04-3.01931E-14
 -1      2422 5.97303E-03 5.43569E-04-2.87983E-14
 -1      2423 5.90093E-03 5.08081E-04-2.81711E-14
 -1      2424 6.40643E-03 5.32619E-04-3.30718E-14
 -1      2425 6.26163E-03 5.36514E-04-3.16181E-14
 -1      2426 6.18879E-03 5.01237E-04-3.09581E-14
 -1      2427 6.69723E-03 5.24094E-04-3.60668E-14
 -1      2428 6.55160E-03 5.28467E-04-3.45544E-14
 -1      2429 6.47765E-03 4.93386E-04-3.38617E-14
 -1      2430 6.98998E-03 5.14741E-04-3.91715E-14
 -1      2431 6.84331E-03 5.19499E-04-3.76049E-14
 -1      2432 6.76777E-03 4.84557E-04-3.68793E-14
 -1      2433 7.28519E-03 5.04930E-04-4.23878E-14
 -1      2434 7.13721E-03 5.09854E-04-4.07653E-14
 -1      2435 7.05945E-03 4.74932E-04-4.00093E-14
 -1      2436 7.58346E-03 4.95372E-04-4.57149E-14
 -1      2437 7.43387E-03 5.00056E-04-4.40380E-14
 -1      2438 7.35308E-03 4.64930E-04-4.32499E-14
 -1      2439 7.88549E-03 4.87293E-04-4.91477E-14
 -1      2440 7.73392E-03 4.91048E-04-4.74179E-14
 -1      2441 7.64909E-03 4.55338E-04-4.66002E-14
 -1      2442 8.19208E-03 4.82673E-04-5.26871E-14
 -1      2443 8.03812E-03 4.84399E-04-5.09047E-14
 -1      2444 7.94804E-03 4.47485E-04-5.00572E-14
 -1      2445 8.50416E-03 4.84545E-04-5.63284E-14
 -1      2446 8.34734E-03 4.82574E-04-5.44952E-14
 -1      2447 8.25062E-03 4.43476E-04-5.36181E-14
 -1      2448 8.82279E-03 4.97345E-04-6.00721E-14
 -1      2449 8.66257E-03 4.89258E-04-5.81871E-14
 -1      2450 8.55774E-03 4.46487E-04-5.72830E-14
 -1      2451 9.14921E-03 5.27196E-04-6.39146E-14
 -1      2452 8.98499E-03 5.09699E-04-6.19807E-14
 -1      2453 8.87075E-03 4.61100E-04-6.10483E-14
 -1      2454 9.48480E-03 5.81891E-04-6.78553E-14
 -1      2455 9.31592E-03 5.50886E-04-6.58724E-14
 -1      2456 9.19158E-03 4.93593E-04-6.49113E-14
 -1      2457 9.83068E-03 6.69981E-04-7.18946E-14
 -1      2458 9.65670E-03 6.21177E-04-6.98623E-14
 -1      2459 9.52289E-03 5.51973E-04-6.88705E-14
 -1      2460 1.01866E-02 7.98081E-04-7.60315E-14
 -1      2461 1.00080E-02 7.28737E-04-7.39507E-14
 -1      2462 9.86761E-03 6.45262E-04-7.29259E-14
 -1      2463 1.05489E-02 9.64898E-04-8.02679E-14
 -1      2464 1.03679E-02 8.77243E-04-7.81375E-14
 -1      2465 1.02270E-02 7.80774E-04-7.70806E-14
 -1      2466 1.09087E-02 1.15219E-03-8.45985E-14
 -1      2467 1.07302E-02 1.05803E-03-8.24198E-14
 -1      2468 1.05972E-02 9.57019E-04-8.13294E-14
 -1      2469 1.12548E-02 1.31974E-03-8.90272E-14
 -1      2470 1.10837E-02 1.24227E-03-8.68015E-14
 -1      2471 1.09666E-02 1.15307E-03-8.56722E-14
 -1      2472 1.15844E-02 1.41396E-03-9.35474E-14
 -1      2473 1.14201E-02 1.37896E-03-9.12768E-14
 -1      2474 1.13208E-02 1.31910E-03-9.01148E-14
 -1      2475 1.19093E-02 1.40409E-03-9.81597E-14
 -1      2476 1.17448E-02 1.42190E-03-9.58444E-14
 -1      2477 1.16581E-02 1.39360E-03-9.46509E-14
 -1      2478 1.22458E-02 1.30657E-03-1.02842E-13
 -1      2479 1.20751E-02 1.36346E-03-1.00492E-13
 -1      2480 1.19962E-02 1.35146E-03-9.92774E-14
 -1      2481 1.25964E-02 1.16946E-03-1.07577E-13
 -1      2482 1.24200E-02 1.23947E-03-1.05204E-13
 -1      2483 1.23511E-02 1.22702E-03-1.03972E-13
 -1      2484 1.29512E-02 1.03906E-03-1.12347E-13
 -1      2485 1.27745E-02 1.10137E-03-1.09960E-13
 -1      2486 1.27173E-02 1.08089E-03-1.08717E-13
 -1      2487 1.32998E-02 9.39417E-04-1.17136E-13
 -1      2488 1.31272E-02 9.84917E-04-1.14741E-13
 -1      2489 1.30800E-02 9.56360E-04-1.13492E-13
 -1      2490 1.36369E-02 8.74225E-04-1.21939E-13
 -1      2491 1.34703E-02 9.02867E-04-1.19536E-13
 -1      2492 1.34291E-02 8.69219E-04-1.18284E-13
 -1      2493 1.39612E-02 8.36221E-04-1.26741E-13
 -1      2494 1.38008E-02 8.52502E-04-1.24340E-13
 -1      2495 1.37618E-02 8.16541E-04-1.23085E-13
 -1      2496 1.42735E-02 8.13811E-04-1.31553E-13
 -1      2497 1.41188E-02 8.23808E-04-1.29147E-13
 -1      2498 1.40798E-02 7.87921E-04-1.27892E-13
 -1      2499 1.45753E-02 7.94880E-04-1.36363E-13
 -1      2500 1.44256E-02 8.04631E-04-1.33958E-13
 -1      2501 1.43858E-02 7.71090E-04-1.32702E-13
 -1      2502 1.47267E-02 7.83793E-04-1.38850E-13
 -1      2503 1.49335E-02 5.35148E-04-1.37014E-13
 -1      2504 1.49079E-02 5.59788E-04-1.37087E-13
 -1      2505 1.49607E-02 4.91404E-04-1.36862E-13
 -1      2506 1.49515E-02 5.12661E-04-1.36941E-13
 -1      2507 1.48299E-02 5.17231E-04-1.34885E-13
 -1      2508 1.48018E-02 6.45989E-04-1.37284E-13
 -1      2509 1.47608E-02 6.79671E-04-1.37342E-13
 -1      2510 1.48765E-02 5.86232E-04-1.37154E-13
 -1      2511 1.48407E-02 6.14876E-04-1.37218E-13
 -1      2512 1.47003E-02 6.31600E-04-1.35162E-13
 -1      2513 1.47758E-02 5.69882E-04-1.35029E-13
 -1      2514 1.49499E-02 4.51477E-04-1.36701E-13
 -1      2515 1.49603E-02 4.71435E-04-1.36783E-13
 -1      2516 1.48503E-02 4.71615E-04-1.34727E-13
 -1      2517 1.48989E-02 4.10420E-04-1.36531E-13
 -1      2518 1.49293E-02 4.31559E-04-1.36617E-13
 -1      2519 1.48293E-02 4.28695E-04-1.34560E-13
 -1      2520 1.48121E-02 3.63708E-04-1.36341E-13
 -1      2521 1.48595E-02 3.88100E-04-1.36438E-13
 -1      2522 1.47666E-02 3.82850E-04-1.34379E-13
 -1      2523 1.47006E-02 3.09684E-04-1.36142E-13
 -1      2524 1.47590E-02 3.37823E-04-1.36243E-13
 -1      2525 1.46696E-02 3.30046E-04-1.34186E-13
 -1      2526 1.45708E-02 2.46006E-04-1.35929E-13
 -1      2527 1.46371E-02 2.78890E-04-1.36038E-13
 -1      2528 1.45485E-02 2.68036E-04-1.33982E-13
 -1      2529 1.44344E-02 1.74727E-04-1.35708E-13
 -1      2530 1.45030E-02 2.11151E-04-1.35820E-13
 -1      2531 1.44134E-02 1.96781E-04-1.33766E-13
 -1      2532 1.42984E-02 9.77623E-05-1.35474E-13
 -1      2533 1.43660E-02 1.36757E-04-1.35590E-13
 -1      2534 1.42746E-02 1.18911E-04-1.33539E-13
 -1      2535 1.38570E-02 3.50744E-04-1.09674E-13
 -1      2536 1.38905E-02 3.40296E-04-1.09754E-13
 -1      2537 1.33519E-02 5.23035E-04-1.07292E-13
 -1      2538 1.35111E-02 4.61199E-04-1.07946E-13
 -1      2539 1.58443E-03 4.97115E-04-1.88109E-15
 -1      2540 1.44351E-03 4.78795E-04-1.54988E-15
 -1      2541 1.64178E-03 4.69257E-04-2.11723E-15
 -1      2542 1.42618E-02 5.39917E-05-1.36597E-13
 -1      2543 1.38803E-02 3.23660E-04-1.09623E-13
 -1      2544 1.38206E-02 3.08372E-04-1.09316E-13
 -1      2545 1.36485E-02 4.12098E-04-1.08562E-13
 -1      2546 1.37618E-02 3.79939E-04-1.09178E-13
 -1      2547 1.35917E-02 4.37751E-04-1.09471E-13
 -1      2548 1.29883E-02-9.43825E-06-1.05446E-13
 -1      2549 1.27835E-02-1.18920E-04-1.04225E-13
 -1      2550 1.25946E-02 9.16521E-04-1.03159E-13
 -1      2551 1.27751E-02 8.09973E-04-1.04276E-13
 -1      2552 1.28953E-02 7.52888E-04-1.05920E-13
 -1      2553 1.15789E-02-7.59993E-04-9.42651E-14
 -1      2554 1.14294E-02-7.76033E-04-9.26017E-14
 -1      2555 5.46610E-04-2.29081E-05-4.07253E-16
 -1      2556 5.47066E-04-3.89534E-05-4.03879E-16
 -1      2557 6.62532E-04-5.58326E-05-5.45164E-16
 -1      2558 6.61306E-04-1.77110E-05-5.54109E-16
 -1      2559 1.03928E-02 6.87780E-04-8.39392E-14
 -1      2560 1.05729E-02 8.02801E-04-8.50606E-14
 -1      2561 1.17947E-02 1.31333E-03-9.61021E-14
 -1      2562 1.19198E-02 1.27637E-03-9.74241E-14
 -1      2563 1.14700E-02 1.30600E-03-9.26108E-14
 -1      2564 1.16303E-02 1.32873E-03-9.43690E-14
 -1      2565 1.11522E-02 1.17022E-03-8.93835E-14
 -1      2566 1.12791E-02 1.23881E-03-9.05969E-14
 -1      2567 1.34364E-02 1.86955E-04-1.07676E-13
 -1      2568 1.32356E-02 1.06697E-04-1.06729E-13
 -1      2569 1.07849E-02 9.38738E-04-8.64442E-14
 -1      2570 1.09745E-02 1.06517E-03-8.79081E-14
 -1      2571 1.10446E-02 1.11020E-03-8.80279E-14
 -1      2572 9.94389E-03 4.40724E-04-8.15383E-14
 -1      2573 1.01638E-02 5.55738E-04-8.27061E-14
 -1      2574 9.56611E-03 2.82740E-04-8.00857E-14
 -1      2575 9.71044E-03 3.35717E-04-8.05342E-14
 -1      2576 9.31841E-03 2.02629E-04-7.88920E-14
 -1      2577 9.42744E-03 2.34231E-04-7.94879E-14
 -1      2578 9.47207E-03 2.43350E-04-7.87634E-14
 -1      2579 9.22195E-03 1.72013E-04-7.86611E-14
 -1      2580 9.24551E-03 1.80535E-04-7.86653E-14
 -1      2581 9.28288E-03 1.44825E-04-7.84699E-14
 -1      2582 9.23133E-03 1.58932E-04-7.85198E-14
 -1      2583 9.53868E-03 7.05544E-05-7.95970E-14
 -1      2584 9.41329E-03 1.07056E-04-7.88694E-14
 -1      2585 9.83662E-03-4.52050E-05-8.09305E-14
 -1      2586 9.67767E-03 1.92363E-05-8.02623E-14
 -1      2587 9.60352E-03 4.09692E-05-7.88858E-14
 -1      2588 1.01779E-02-2.10157E-04-8.26223E-14
 -1      2589 1.00030E-02-1.21563E-04-8.17739E-14
 -1      2590 9.89554E-03-7.62871E-05-8.03821E-14
 -1      2591 1.05541E-02-4.19446E-04-8.46534E-14
 -1      2592 1.03896E-02-3.23439E-04-8.36777E-14
 -1      2593 1.09135E-02-6.21280E-04-8.74161E-14
 -1      2594 1.07542E-02-5.31920E-04-8.61175E-14
 -1      2595 1.12452E-02-7.55348E-04-9.06013E-14
 -1      2596 1.10962E-02-7.04794E-04-8.90544E-14
 -1      2597 1.18671E-02-6.54206E-04-9.72834E-14
 -1      2598 1.17419E-02-7.12245E-04-9.60146E-14
 -1      2599 1.22323E-02-4.43877E-04-1.00551E-13
 -1      2600 1.20451E-02-5.60269E-04-9.89131E-14
 -1      2601 1.19652E-02-6.02945E-04-9.86223E-14
 -1      2602 1.26279E-02-2.06430E-04-1.03272E-13
 -1      2603 1.24756E-02-2.97983E-04-1.02321E-13
 -1      2604 1.27341E-02-1.41871E-04-1.04761E-13
 -1      2605 1.37222E-02 2.79582E-04-1.08870E-13
 -1      2606 1.36154E-02 2.50075E-04-1.08482E-13
 -1      2607 5.88501E-04-2.38000E-04-2.78315E-16
 -1      2608 7.81299E-04-3.04855E-04-4.50879E-16
 -1      2609 8.40730E-04-2.93635E-04-5.68501E-16
 -1      2610 5.78970E-04-2.10203E-04-3.05352E-16
 -1      2611 7.57878E-04 3.34253E-04-4.18394E-16
 -1      2612 6.11467E-04 2.84885E-04-2.80117E-16
 -1      2613 5.84744E-04 2.58116E-04-2.86053E-16
 -1      2614 8.13703E-04 3.22929E-04-5.35149E-16
 -1      2615 1.06863E-02 8.74211E-04-8.51807E-14
 -1      2616 6.70248E-04-1.37986E-04-5.05618E-16
 -1      2617 5.54624E-04-1.26235E-04-3.64929E-16
 -1      2618 5.57778E-04-1.46235E-04-3.51132E-16
 -1      2619 1.32638E-02 5.68615E-04-1.07948E-13
 -1      2620 1.13320E-02-7.74450E-04-9.14870E-14
 -1      2621 5.72246E-04 2.27921E-04-3.12643E-16
 -1      2622 1.20262E-02 1.23853E-03-9.86413E-14
 -1      2623 1.21307E-02 1.19264E-03-9.98659E-14
 -1      2624 1.19640E-02 1.27505E-03-9.82140E-14
 -1      2625 1.23549E-02 1.06827E-03-1.01919E-13
 -1      2626 1.24657E-02 9.93713E-04-1.02538E-13
 -1      2627 1.26018E-02 9.25572E-04-1.04174E-13
 -1      2628 5.71823E-04-1.85230E-04-3.27741E-16
 -1      2629 1.23549E-02-3.68924E-04-1.02029E-13
 -1      2630 1.37963E-02 3.03817E-04-1.10361E-13
 -1      2631 1.46861E-02 7.54915E-04-1.37596E-13
 -1      2632 1.47011E-02 7.25935E-04-1.37283E-13
 -1      2633 6.89529E-04 2.51279E-04-4.48941E-16
 -1      2634 1.39064E-02 3.36504E-04-1.10944E-13
 -1      2635 1.38265E-02 3.67834E-04-1.10582E-13
 -1      2636 1.35316E-02 2.24391E-04-1.09103E-13
 -1      2637 1.09974E-02-6.70339E-04-8.78584E-14
 -1      2638 1.02547E-02-2.57124E-04-8.22669E-14
 -1      2639 1.35777E-03 4.32779E-04-1.44841E-15
 -1      2640 1.31202E-02 5.65280E-05-1.07004E-13
 -1      2641 1.16539E-02-7.42846E-04-9.52383E-14
 -1      2642 9.32852E-03 1.27174E-04-7.78304E-14
 -1      2643 9.26093E-03 1.34575E-04-7.67984E-14
 -1      2644 9.37978E-03 1.03970E-04-7.71906E-14
 -1      2645 9.26727E-03 1.84948E-04-7.79452E-14
 -1      2646 1.02715E-02 6.12689E-04-8.25770E-14
 -1      2647 1.13803E-02 1.28335E-03-9.15076E-14
 -1      2648 1.17078E-02 1.33135E-03-9.52576E-14
 -1      2649 9.82650E-03 3.79015E-04-8.03538E-14
 -1      2650 9.93185E-03 4.29543E-04-8.01695E-14
 -1      2651 9.71727E-03 3.32947E-04-7.91760E-14
 -1      2652 9.21066E-03 1.60162E-04-7.75779E-14
 -1      2653 1.06388E-02-4.76744E-04-8.47687E-14
 -1      2654 1.40871E-02-1.31715E-05-1.34009E-13
 -1      2655 1.42157E-02 5.47215E-05-1.34944E-13
 -1      2656 1.41222E-02 3.45628E-05-1.32891E-13
 -1      2657 1.39579E-02-5.56058E-05-1.31831E-13
 -1      2658 1.45960E-02 7.13009E-04-1.35167E-13
 -1      2659 1.39405E-02-4.13311E-05-1.30720E-13
 -1      2660 7.80224E-04 7.73589E-05-7.24491E-16
 -1      2661 7.78966E-04 5.54908E-05-7.27527E-16
 -1      2662 7.78122E-04 3.35718E-05-7.28611E-16
 -1      2663 7.77701E-04 1.19004E-05-7.27811E-16
 -1      2664 8.96541E-04 4.96976E-05-9.22710E-16
 -1      2665 7.91545E-04 1.73176E-04-6.91138E-16
 -1      2666 7.87547E-04 1.47758E-04-7.03525E-16
 -1      2667 8.03396E-04 2.28379E-04-6.56796E-16
 -1      2668 7.96780E-04 1.99985E-04-6.75919E-16
 -1      2669 9.14845E-04 2.07879E-04-8.70316E-16
 -1      2670 1.39326E-02 3.46627E-04-1.12376E-13
 -1      2671 1.39192E-02 3.36904E-04-1.12241E-13
 -1      2672 1.12979E-03 3.62014E-04-1.07293E-15
 -1      2673 9.86191E-04 3.32943E-04-8.33494E-16
 -1      2674 8.03074E-04 2.78286E-04-5.90917E-16
 -1      2675 1.32013E-03-3.62823E-04-1.39571E-15
 -1      2676 1.46335E-03-3.81809E-04-1.70095E-15
 -1      2677 1.60638E-03-3.97890E-04-2.03802E-15
 -1      2678 1.74931E-03-4.11293E-04-2.40763E-15
 -1      2679 1.52497E-03-3.55482E-04-1.91597E-15
 -1      2680 1.89208E-03-4.22489E-04-2.80953E-15
 -1      2681 2.03473E-03-4.31666E-04-3.24342E-15
 -1      2682 1.81164E-03-3.81371E-04-2.66276E-15
 -1      2683 2.17727E-03-4.39196E-04-3.71025E-15
 -1      2684 2.31973E-03-4.45233E-04-4.20967E-15
 -1      2685 2.09810E-03-3.99193E-04-3.53840E-15
 -1      2686 2.46215E-03-4.50064E-04-4.74138E-15
 -1      2687 2.60451E-03-4.53809E-04-5.30599E-15
 -1      2688 2.38428E-03-4.10956E-04-4.54300E-15
 -1      2689 2.74686E-03-4.56684E-04-5.90364E-15
 -1      2690 2.88919E-03-4.58782E-04-6.53324E-15
 -1      2691 2.67022E-03-4.18271E-04-5.67753E-15
 -1      2692 3.03153E-03-4.60261E-04-7.19479E-15
 -1      2693 3.17388E-03-4.61192E-04-7.88931E-15
 -1      2694 2.95600E-03-4.22377E-04-6.94167E-15
 -1      2695 3.31626E-03-4.61688E-04-8.61674E-15
 -1      2696 3.45865E-03-4.61800E-04-9.37613E-15
 -1      2697 3.24168E-03-4.24205E-04-8.33483E-15
 -1      2698 3.60109E-03-4.61606E-04-1.01670E-14
 -1      2699 3.74355E-03-4.61141E-04-1.09911E-14
 -1      2700 3.52731E-03-4.24433E-04-9.85719E-15
 -1      2701 3.88605E-03-4.60457E-04-1.18473E-14
 -1      2702 4.02858E-03-4.59576E-04-1.27350E-14
 -1      2703 3.81292E-03-4.23534E-04-1.15074E-14
 -1      2704 4.17116E-03-4.58527E-04-1.36562E-14
 -1      2705 4.31378E-03-4.57325E-04-1.46106E-14
 -1      2706 4.09853E-03-4.21820E-04-1.32879E-14
 -1      2707 4.45644E-03-4.55982E-04-1.55971E-14
 -1      2708 4.59914E-03-4.54504E-04-1.66163E-14
 -1      2709 4.38417E-03-4.19479E-04-1.51983E-14
 -1      2710 4.74188E-03-4.52892E-04-1.76671E-14
 -1      2711 4.88467E-03-4.51146E-04-1.87511E-14
 -1      2712 4.66985E-03-4.16597E-04-1.72388E-14
 -1      2713 5.02751E-03-4.49258E-04-1.98678E-14
 -1      2714 5.17041E-03-4.47226E-04-2.10167E-14
 -1      2715 4.95559E-03-4.13192E-04-1.94079E-14
 -1      2716 5.31336E-03-4.45036E-04-2.21982E-14
 -1      2717 5.45637E-03-4.42682E-04-2.34126E-14
 -1      2718 5.24139E-03-4.09227E-04-2.17083E-14
 -1      2719 5.59944E-03-4.40151E-04-2.46588E-14
 -1      2720 5.74260E-03-4.37436E-04-2.59374E-14
 -1      2721 5.52727E-03-4.04631E-04-2.41385E-14
 -1      2722 5.88583E-03-4.34526E-04-2.72479E-14
 -1      2723 6.02916E-03-4.31418E-04-2.85890E-14
 -1      2724 5.81325E-03-3.99326E-04-2.66969E-14
 -1      2725 6.17258E-03-4.28107E-04-2.99631E-14
 -1      2726 6.31613E-03-4.24596E-04-3.13676E-14
 -1      2727 6.09937E-03-3.93241E-04-2.93828E-14
 -1      2728 6.45980E-03-4.20893E-04-3.28028E-14
 -1      2729 6.60363E-03-4.17014E-04-3.42686E-14
 -1      2730 6.38567E-03-3.86352E-04-3.21940E-14
 -1      2731 6.74762E-03-4.12985E-04-3.57646E-14
 -1      2732 6.89182E-03-4.08840E-04-3.72888E-14
 -1      2733 6.67222E-03-3.78708E-04-3.51257E-14
 -1      2734 7.03623E-03-4.04636E-04-3.88426E-14
 -1      2735 7.18092E-03-4.00431E-04-4.04254E-14
 -1      2736 6.95915E-03-3.70490E-04-3.81768E-14
 -1      2737 7.32588E-03-3.96324E-04-4.20353E-14
 -1      2738 7.47122E-03-3.92408E-04-4.36731E-14
 -1      2739 7.24664E-03-3.62063E-04-4.13415E-14
 -1      2740 7.61695E-03-3.88834E-04-4.53386E-14
 -1      2741 7.76317E-03-3.85748E-04-4.70289E-14
 -1      2742 7.53498E-03-3.54051E-04-4.46173E-14
 -1      2743 7.90994E-03-3.83359E-04-4.87465E-14
 -1      2744 8.05739E-03-3.81886E-04-5.04906E-14
 -1      2745 7.82466E-03-3.47428E-04-4.80004E-14
 -1      2746 8.20562E-03-3.81599E-04-5.22614E-14
 -1      2747 8.35477E-03-3.82814E-04-5.40578E-14
 -1      2748 8.11642E-03-3.43618E-04-5.14896E-14
 -1      2749 8.50502E-03-3.85854E-04-5.58776E-14
 -1      2750 8.65650E-03-3.91160E-04-5.77219E-14
 -1      2751 8.41136E-03-3.44597E-04-5.50808E-14
 -1      2752 8.80952E-03-3.99077E-04-5.95898E-14
 -1      2753 8.96412E-03-4.10185E-04-6.14810E-14
 -1      2754 8.71111E-03-3.53005E-04-5.87691E-14
 -1      2755 9.12074E-03-4.24801E-04-6.33974E-14
 -1      2756 9.27926E-03-4.43614E-04-6.53371E-14
 -1      2757 9.01775E-03-3.72218E-04-6.25527E-14
 -1      2758 9.44023E-03-4.66820E-04-6.72999E-14
 -1      2759 9.60316E-03-4.95059E-04-6.92865E-14
 -1      2760 9.33368E-03-4.06301E-04-6.64316E-14
 -1      2761 9.76859E-03-5.28260E-04-7.12936E-14
 -1      2762 9.93548E-03-5.66618E-04-7.33218E-14
 -1      2763 9.66080E-03-4.59558E-04-7.04015E-14
 -1      2764 1.01042E-02-6.09544E-04-7.53748E-14
 -1      2765 1.02730E-02-6.56105E-04-7.74513E-14
 -1      2766 9.99906E-03-5.35025E-04-7.44591E-14
 -1      2767 1.04419E-02-7.04961E-04-7.95510E-14
 -1      2768 1.06090E-02-7.53103E-04-8.16737E-14
 -1      2769 1.03443E-02-6.30985E-04-7.86101E-14
 -1      2770 1.07738E-02-7.98301E-04-8.38200E-14
 -1      2771 1.09357E-02-8.35780E-04-8.59903E-14
 -1      2772 1.06878E-02-7.35012E-04-8.28549E-14
 -1      2773 1.10937E-02-8.63049E-04-8.81837E-14
 -1      2774 1.12503E-02-8.75819E-04-9.03975E-14
 -1      2775 1.10197E-02-8.19790E-04-8.71944E-14
 -1      2776 1.14044E-02-8.72604E-04-9.26345E-14
 -1      2777 1.15597E-02-8.52412E-04-9.48939E-14
 -1      2778 1.13384E-02-8.51110E-04-9.16259E-14
 -1      2779 1.17158E-02-8.15957E-04-9.71711E-14
 -1      2780 1.18751E-02-7.66385E-04-9.94694E-14
 -1      2781 1.16551E-02-8.07835E-04-9.61415E-14
 -1      2782 1.20367E-02-7.06295E-04-1.01784E-13
 -1      2783 1.22015E-02-6.40271E-04-1.04113E-13
 -1      2784 1.19815E-02-6.99778E-04-1.00738E-13
 -1      2785 1.23684E-02-5.70680E-04-1.06456E-13
 -1      2786 1.25361E-02-5.01332E-04-1.08812E-13
 -1      2787 1.23210E-02-5.58503E-04-1.05397E-13
 -1      2788 1.27040E-02-4.33704E-04-1.11179E-13
 -1      2789 1.28705E-02-3.69330E-04-1.13557E-13
 -1      2790 1.26661E-02-4.15059E-04-1.10107E-13
 -1      2791 1.30357E-02-3.08788E-04-1.15944E-13
 -1      2792 1.31983E-02-2.52040E-04-1.18335E-13
 -1      2793 1.30067E-02-2.86489E-04-1.14860E-13
 -1      2794 1.33586E-02-1.99030E-04-1.20735E-13
 -1      2795 1.35161E-02-1.48949E-04-1.23140E-13
 -1      2796 1.33364E-02-1.76214E-04-1.19644E-13
 -1      2797 1.36712E-02-1.01377E-04-1.25552E-13
 -1      2798 1.38237E-02-5.51979E-05-1.27974E-13
 -1      2799 1.36535E-02-8.04775E-05-1.24452E-13
 -1      2800 2.26910E-03 4.78555E-04-4.17160E-15
 -1      2801 2.12729E-03 4.71738E-04-3.66867E-15
 -1      2802 1.45149E-02 6.68034E-04-1.32820E-13
 -1      2803 1.44495E-02 7.18012E-04-1.32761E-13
 -1      2804 1.43009E-02 7.22698E-04-1.30356E-13
 -1      2805 1.38578E-02 3.17960E-04-1.11903E-13
 -1      2806 1.37698E-02 2.97044E-04-1.11453E-13
 -1      2807 1.98538E-03 4.63291E-04-3.19895E-15
 -1      2808 1.84334E-03 4.53050E-04-2.76207E-15
 -1      2809 2.04758E-03 4.31350E-04-3.48270E-15
 -1      2810 2.83612E-03 4.94257E-04-6.51626E-15
 -1      2811 2.69436E-03 4.91739E-04-5.88058E-15
 -1      2812 3.11979E-03 4.97338E-04-7.88662E-15
 -1      2813 2.97794E-03 4.96098E-04-7.18486E-15
 -1      2814 2.90233E-03 4.58199E-04-6.90871E-15
 -1      2815 3.40368E-03 4.98442E-04-9.38999E-15
 -1      2816 3.26171E-03 4.98100E-04-8.62185E-15
 -1      2817 3.18711E-03 4.60640E-04-8.31323E-15
 -1      2818 3.68783E-03 4.98158E-04-1.10261E-14
 -1      2819 3.54572E-03 4.98448E-04-1.01911E-14
 -1      2820 3.47197E-03 4.61312E-04-9.85053E-15
 -1      2821 3.97226E-03 4.96883E-04-1.27973E-14
 -1      2822 3.83002E-03 4.97627E-04-1.18951E-14
 -1      2823 3.75693E-03 4.60738E-04-1.15207E-14
 -1      2824 4.25699E-03 4.94866E-04-1.47030E-14
 -1      2825 4.11459E-03 4.95957E-04-1.37324E-14
 -1      2826 4.04203E-03 4.59270E-04-1.33242E-14
 -1      2827 4.54199E-03 4.92241E-04-1.67427E-14
 -1      2828 4.39946E-03 4.93625E-04-1.57065E-14
 -1      2829 4.32728E-03 4.57121E-04-1.52620E-14
 -1      2830 4.82730E-03 4.89051E-04-1.89168E-14
 -1      2831 4.68461E-03 4.90716E-04-1.78131E-14
 -1      2832 4.61268E-03 4.54395E-04-1.73334E-14
 -1      2833 5.11291E-03 4.85271E-04-2.12206E-14
 -1      2834 4.97006E-03 4.87237E-04-2.00523E-14
 -1      2835 4.89826E-03 4.51116E-04-1.95365E-14
 -1      2836 5.39889E-03 4.80830E-04-2.36537E-14
 -1      2837 5.25585E-03 4.83137E-04-2.24211E-14
 -1      2838 5.18402E-03 4.47247E-04-2.18700E-14
 -1      2839 5.68527E-03 4.75625E-04-2.62170E-14
 -1      2840 5.54202E-03 4.78327E-04-2.49192E-14
 -1      2841 5.47000E-03 4.42706E-04-2.43324E-14
 -1      2842 5.97214E-03 4.69546E-04-2.89074E-14
 -1      2843 5.82863E-03 4.72699E-04-2.75468E-14
 -1      2844 5.75622E-03 4.37389E-04-2.69247E-14
 -1      2845 6.25960E-03 4.62499E-04-3.17208E-14
 -1      2846 6.11578E-03 4.66145E-04-3.02993E-14
 -1      2847 6.04273E-03 4.31190E-04-2.96430E-14
 -1      2848 6.54780E-03 4.54443E-04-3.46490E-14
 -1      2849 6.40359E-03 4.58595E-04-3.31702E-14
 -1      2850 6.32959E-03 4.24027E-04-3.24818E-14
 -1      2851 6.83689E-03 4.45433E-04-3.76922E-14
 -1      2852 6.69221E-03 4.50048E-04-3.61569E-14
 -1      2853 6.61684E-03 4.15875E-04-3.54364E-14
 -1      2854 7.12707E-03 4.35687E-04-4.08466E-14
 -1      2855 6.98181E-03 4.40631E-04-3.92553E-14
 -1      2856 6.90455E-03 4.06819E-04-3.85039E-14
 -1      2857 7.41859E-03 4.25678E-04-4.41114E-14
 -1      2858 7.27262E-03 4.30677E-04-4.24651E-14
 -1      2859 7.19280E-03 3.97117E-04-4.16828E-14
 -1      2860 7.71173E-03 4.16258E-04-4.74850E-14
 -1      2861 7.56490E-03 4.20830E-04-4.57853E-14
 -1      2862 7.48169E-03 3.87289E-04-4.49721E-14
 -1      2863 8.00690E-03 4.08831E-04-5.09661E-14
 -1      2864 7.85899E-03 4.12192E-04-4.92130E-14
 -1      2865 7.77137E-03 3.78239E-04-4.83714E-14
 -1      2866 8.30473E-03 4.05574E-04-5.45504E-14
 -1      2867 8.15540E-03 4.06522E-04-5.27449E-14
 -1      2868 8.06213E-03 3.71411E-04-5.18741E-14
 -1      2869 8.60619E-03 4.09713E-04-5.82358E-14
 -1      2870 8.45489E-03 4.06476E-04-5.63800E-14
 -1      2871 8.35453E-03 3.68984E-04-5.54797E-14
 -1      2872 8.91299E-03 4.25835E-04-6.20223E-14
 -1      2873 8.75877E-03 4.15912E-04-6.01170E-14
 -1      2874 8.64969E-03 3.74119E-04-5.91882E-14
 -1      2875 9.22791E-03 4.60219E-04-6.59051E-14
 -1      2876 9.06925E-03 4.40209E-04-6.39521E-14
 -1      2877 8.94976E-03 3.91263E-04-6.29954E-14
 -1      2878 9.55513E-03 5.21054E-04-6.98835E-14
 -1      2879 9.38982E-03 4.86584E-04-6.78819E-14
 -1      2880 9.25851E-03 4.26555E-04-6.68975E-14
 -1      2881 9.89963E-03 6.18012E-04-7.39561E-14
 -1      2882 9.72523E-03 5.64060E-04-7.19082E-14
 -1      2883 9.58188E-03 4.88417E-04-7.08939E-14
 -1      2884 1.02646E-02 7.60373E-04-7.81247E-14
 -1      2885 1.00801E-02 6.82934E-04-7.60271E-14
 -1      2886 9.92714E-03 5.88282E-04-7.49827E-14
 -1      2887 1.06468E-02 9.47182E-04-8.23862E-14
 -1      2888 1.04554E-02 8.48718E-04-8.02452E-14
 -1      2889 1.03002E-02 7.37796E-04-7.91643E-14
 -1      2890 1.13643E-02 1.29870E-03-9.09364E-14
 -1      2891 1.11781E-02 1.21926E-03-8.87026E-14
 -1      2892 1.17017E-02 1.36058E-03-9.52410E-14
 -1      2893 1.15217E-02 1.34652E-03-9.29578E-14
 -1      2894 1.21136E-02 1.26286E-03-1.00528E-13
 -1      2895 1.19269E-02 1.32315E-03-9.81959E-14
 -1      2896 1.28482E-02 9.85347E-04-1.09855E-13
 -1      2897 1.26593E-02 1.05721E-03-1.07474E-13
 -1      2898 1.32158E-02 8.72446E-04-1.14634E-13
 -1      2899 1.30353E-02 9.23815E-04-1.12243E-13
 -1      2900 1.29926E-02 8.88277E-04-1.10993E-13
 -1      2901 1.35619E-02 8.01025E-04-1.19430E-13
 -1      2902 1.33920E-02 8.32247E-04-1.17031E-13
 -1      2903 1.33584E-02 7.91789E-04-1.15778E-13
 -1      2904 1.38879E-02 7.62048E-04-1.24230E-13
 -1      2905 1.37273E-02 7.78462E-04-1.21829E-13
 -1      2906 1.36968E-02 7.37801E-04-1.20573E-13
 -1      2907 1.41741E-02 7.35565E-04-1.28494E-13
 -1      2908 1.40203E-02 7.43625E-04-1.26089E-13
 -1      2909 1.39902E-02 7.04485E-04-1.24830E-13
 -1      2910 1.42460E-02 6.78778E-04-1.28550E-13
 -1      2911 1.47078E-02 4.04721E-04-1.32416E-13
 -1      2912 1.47298E-02 4.27817E-04-1.32504E-13
 -1      2913 1.39242E-02-2.54161E-05-1.29612E-13
 -1      2914 1.40236E-02 4.47554E-06-1.31251E-13
 -1      2915 1.39088E-02-7.49421E-06-1.28503E-13
 -1      2916 1.47275E-02 4.96715E-04-1.32754E-13
 -1      2917 1.47060E-02 5.22635E-04-1.32831E-13
 -1      2918 1.46318E-02 3.54214E-04-1.32229E-13
 -1      2919 1.46747E-02 3.80606E-04-1.32325E-13
 -1      2920 1.45841E-02 3.80105E-04-1.30273E-13
 -1      2921 1.47403E-02 4.50001E-04-1.32588E-13
 -1      2922 1.47394E-02 4.72931E-04-1.32672E-13
 -1      2923 1.46265E-02 4.74888E-04-1.30621E-13
 -1      2924 1.46301E-02 4.27760E-04-1.30452E-13
 -1      2925 1.14126E-02-7.85052E-04-9.24435E-14
 -1      2926 1.12508E-02-7.68931E-04-9.04459E-14
 -1      2927 1.45239E-02 2.95247E-04-1.32033E-13
 -1      2928 1.45812E-02 3.26090E-04-1.32133E-13
 -1      2929 1.44943E-02 3.24932E-04-1.30085E-13
 -1      2930 1.43930E-02 2.24870E-04-1.31822E-13
 -1      2931 1.44603E-02 2.61294E-04-1.31928E-13
 -1      2932 1.43731E-02 2.58073E-04-1.29882E-13
 -1      2933 1.42530E-02 1.45997E-04-1.31604E-13
 -1      2934 1.43235E-02 1.86254E-04-1.31714E-13
 -1      2935 1.42338E-02 1.79363E-04-1.29668E-13
 -1      2936 1.35554E-02 4.66047E-04-1.10666E-13
 -1      2937 1.36777E-02 4.26157E-04-1.11283E-13
 -1      2938 9.95528E-03-1.21503E-04-7.96820E-14
 -1      2939 9.80830E-03-5.64512E-05-7.88514E-14
 -1      2940 1.38005E-02 3.87081E-04-1.11793E-13
 -1      2941 1.38903E-02 3.65922E-04-1.12287E-13
 -1      2942 1.36305E-02 2.55126E-04-1.10732E-13
 -1      2943 1.34675E-02 2.00416E-04-1.09920E-13
 -1      2944 1.28370E-02 8.07154E-04-1.06482E-13
 -1      2945 1.29975E-02 7.19668E-04-1.07607E-13
 -1      2946 1.01492E-02 5.47154E-04-8.09615E-14
 -1      2947 1.03500E-02 6.65618E-04-8.21803E-14
 -1      2948 1.10497E-02-7.08590E-04-8.81358E-14
 -1      2949 1.08915E-02-6.31636E-04-8.65085E-14
 -1      2950 6.88542E-04-2.04051E-04-4.63524E-16
 -1      2951 1.70113E-03 4.40598E-04-2.35821E-15
 -1      2952 1.55868E-03 4.25731E-04-1.98767E-15
 -1      2953 1.76208E-03 4.11271E-04-2.60454E-15
 -1      2954 2.55261E-03 4.88373E-04-5.27784E-15
 -1      2955 2.41087E-03 4.84056E-04-4.70808E-15
 -1      2956 2.33268E-03 4.44748E-04-4.49287E-15
 -1      2957 2.61755E-03 4.53243E-04-5.63475E-15
 -1      2958 1.03371E-03-3.14304E-04-8.80575E-16
 -1      2959 1.17693E-03-3.40414E-04-1.12243E-15
 -1      2960 1.23840E-03-3.19123E-04-1.29683E-15
 -1      2961 1.32479E-02 1.10385E-04-1.08807E-13
 -1      2962 1.30262E-02 7.24128E-06-1.07515E-13
 -1      2963 7.84406E-04 1.23497E-04-7.12727E-16
 -1      2964 7.82024E-04 1.00055E-04-7.19626E-16
 -1      2965 8.99645E-04 9.94811E-05-9.15676E-16
 -1      2966 9.05370E-04 1.51633E-04-8.98966E-16
 -1      2967 1.32098E-02 6.11721E-04-1.08851E-13
 -1      2968 1.33899E-02 5.30404E-04-1.09759E-13
 -1      2969 1.35068E-02 5.10259E-04-1.11568E-13
 -1      2970 1.24779E-02-2.98120E-04-1.03689E-13
 -1      2971 1.22642E-02-4.31333E-04-1.01910E-13
 -1      2972 7.81756E-04-9.80016E-05-6.98890E-16
 -1      2973 7.84062E-04-1.21362E-04-6.86788E-16
 -1      2974 1.17070E-02-7.28936E-04-9.60995E-14
 -1      2975 1.15669E-02-7.70939E-04-9.43515E-14
 -1      2976 9.19552E-03 1.51951E-04-7.63999E-14
 -1      2977 9.19070E-03 1.59000E-04-7.65410E-14
 -1      2978 9.39835E-03 2.19586E-04-7.74421E-14
 -1      2979 9.52267E-03 2.58252E-04-7.80322E-14
 -1      2980 1.07062E-02-5.34847E-04-8.47809E-14
 -1      2981 1.05309E-02-4.33371E-04-8.33309E-14
 -1      2982 9.21704E-03 1.70551E-04-7.66722E-14
 -1      2983 9.28167E-03 1.85622E-04-7.68962E-14
 -1      2984 9.67418E-03-3.81582E-07-7.81973E-14
 -1      2985 9.54643E-03 4.40143E-05-7.75425E-14
 -1      2986 9.72627E-03-4.79441E-05-7.75037E-14
 -1      2987 1.41602E-03 4.07913E-04-1.65028E-15
 -1      2988 1.27297E-03 3.86882E-04-1.34501E-15
 -1      2989 1.18964E-03 3.41561E-04-1.24118E-15
 -1      2990 1.47607E-03 3.82262E-04-1.85746E-15
 -1      2991 1.41080E-02 4.93747E-05-1.31779E-13
 -1      2992 1.03182E-02-3.14853E-04-8.17561E-14
 -1      2993 1.01379E-02-2.12801E-04-8.07170E-14
 -1      2994 1.00232E-02-1.86323E-04-7.91783E-14
 -1      2995 1.20501E-02-5.59931E-04-9.99719E-14
 -1      2996 1.18977E-02-6.46468E-04-9.83353E-14
 -1      2997 1.28174E-02-1.00189E-04-1.06079E-13
 -1      2998 1.26791E-02-1.78729E-04-1.05121E-13
 -1      2999 1.25753E-02-2.53378E-04-1.05002E-13
 -1      3000 1.29684E-02-3.51888E-05-1.07879E-13
 -1      3001 1.05423E-02 7.84966E-04-8.35350E-14
 -1      3002 1.07260E-02 9.09814E-04-8.49051E-14
 -1      3003 1.04003E-02 7.12363E-04-8.19028E-14
 -1      3004 1.10190E-02 1.11291E-03-8.72627E-14
 -1      3005 1.10044E-02 1.14211E-03-8.64536E-14
 -1      3006 1.08145E-02 1.03840E-03-8.42664E-14
 -1      3007 1.08665E-02 1.01062E-03-8.58052E-14
 -1      3008 7.87114E-04-1.45525E-04-6.72327E-16
 -1      3009 7.91021E-04-1.70703E-04-6.54790E-16
 -1      3010 9.04911E-04-1.49120E-04-8.64394E-16
 -1      3011 8.95519E-04 1.01117E-06-9.20962E-16
 -1      3012 7.77671E-04-9.72426E-06-7.25399E-16
 -1      3013 7.78033E-04-3.13796E-05-7.21537E-16
 -1      3014 1.39202E-02 3.31889E-04-1.13335E-13
 -1      3015 1.39440E-02 3.62783E-04-1.13588E-13
 -1      3016 1.22680E-02 1.12999E-03-1.01486E-13
 -1      3017 1.24059E-02 1.06537E-03-1.03113E-13
 -1      3018 1.21985E-02 1.18381E-03-1.01053E-13
 -1      3019 8.64841E-04 2.66608E-04-7.12944E-16
 -1      3020 1.07197E-02 9.28696E-04-8.41449E-14
 -1      3021 9.17856E-03 1.59891E-04-7.54980E-14
 -1      3022 1.07721E-02-5.91633E-04-8.50534E-14
 -1      3023 9.31157E-03 1.97198E-04-7.61699E-14
 -1      3024 9.20550E-03 1.38635E-04-7.57643E-14
 -1      3025 9.16076E-03 1.38214E-04-7.47349E-14
 -1      3026 9.22593E-03 1.22601E-04-7.51290E-14
 -1      3027 1.45791E-02 5.28787E-04-1.30778E-13
 -1      3028 1.46766E-02 5.50396E-04-1.32904E-13
 -1      3029 1.46406E-02 5.80774E-04-1.32974E-13
 -1      3030 1.12219E-02-7.79282E-04-9.00163E-14
 -1      3031 1.11419E-02-7.50626E-04-8.90734E-14
 -1      3032 1.10348E-02-7.25546E-04-8.77126E-14
 -1      3033 1.06692E-02 9.25561E-04-8.31560E-14
 -1      3034 1.25702E-02 1.03262E-03-1.05636E-13
 -1      3035 1.24312E-02 1.13659E-03-1.04507E-13
 -1      3036 1.22395E-02 1.21744E-03-1.02149E-13
 -1      3037 1.37248E-02 2.77277E-04-1.12273E-13
 -1      3038 1.18018E-02-6.98149E-04-9.74357E-14
 -1      3039 1.14781E-02-7.87357E-04-9.32943E-14
 -1      3040 1.45597E-02 6.31143E-04-1.32755E-13
 -1      3041 1.00197E-02 4.86383E-04-7.97743E-14
 -1      3042 1.37802E-02 4.14860E-04-1.12988E-13
 -1      3043 1.21801E-02-4.95275E-04-1.01621E-13
 -1      3044 1.41770E-02 9.17345E-05-1.31897E-13
 -1      3045 1.27233E-02 8.82327E-04-1.05855E-13
 -1      3046 9.82938E-04 2.75851E-04-9.16774E-16
 -1      3047 1.33796E-02 1.54103E-04-1.10435E-13
 -1      3048 1.31484E-02 6.70148E-04-1.09414E-13
 -1      3049 9.43648E-03 7.14600E-05-7.65109E-14
 -1      3050 9.33956E-03 8.72049E-05-7.54833E-14
 -1      3051 9.48661E-03 3.19367E-05-7.58285E-14
 -1      3052 1.18345E-02 1.34394E-03-9.69831E-14
 -1      3053 7.78809E-04-5.31723E-05-7.15899E-16
 -1      3054 7.80023E-04-7.53682E-05-7.08323E-16
 -1      3055 8.99361E-04-9.71315E-05-8.92854E-16
 -1      3056 8.96411E-04-4.75447E-05-9.11150E-16
 -1      3057 8.03074E-04-2.03389E-04-6.38297E-16
 -1      3058 8.21669E-04-2.53908E-04-6.00838E-16
 -1      3059 9.52796E-04-2.88317E-04-7.73795E-16
 -1      3060 9.21180E-04-2.11341E-04-8.28059E-16
 -1      3061 9.61169E-03 2.93900E-04-7.78481E-14
 -1      3062 9.69752E-03 3.35893E-04-7.76614E-14
 -1      3063 9.51402E-03 2.67083E-04-7.65271E-14
 -1      3064 1.01520E-03-2.72457E-04-9.16137E-16
 -1      3065 1.03955E-02-3.84833E-04-8.17668E-14
 -1      3066 1.39961E-02 3.62956E-05-1.29179E-13
 -1      3067 1.41657E-02 1.06269E-04-1.30931E-13
 -1      3068 1.40730E-02 9.59754E-05-1.28887E-13
 -1      3069 1.38955E-02 9.31967E-06-1.27542E-13
 -1      3070 1.04028E-03 2.43330E-04-1.06962E-15
 -1      3071 1.03367E-03 2.11603E-04-1.09022E-15
 -1      3072 1.05416E-02 8.28294E-04-8.22756E-14
 -1      3073 9.73430E-03-8.82807E-05-7.65002E-14
 -1      3074 9.61765E-03-3.87490E-05-7.58577E-14
 -1      3075 1.34839E-02 5.56217E-04-1.12786E-13
 -1      3076 1.36286E-02 5.01104E-04-1.13696E-13
 -1      3077 1.73168E-03-3.40534E-04-2.51468E-15
 -1      3078 1.87535E-03-3.50732E-04-2.92389E-15
 -1      3079 2.01901E-03-3.59207E-04-3.36500E-15
 -1      3080 2.16265E-03-3.66112E-04-3.83831E-15
 -1      3081 1.94019E-03-3.19409E-04-3.19081E-15
 -1      3082 2.30626E-03-3.71724E-04-4.34379E-15
 -1      3083 2.44980E-03-3.76169E-04-4.88124E-15
 -1      3084 2.22824E-03-3.32487E-04-4.14354E-15
 -1      3085 2.59330E-03-3.79664E-04-5.45149E-15
 -1      3086 2.73674E-03-3.82310E-04-6.05421E-15
 -1      3087 2.51622E-03-3.40943E-04-5.22497E-15
 -1      3088 2.88013E-03-3.84273E-04-6.68789E-15
 -1      3089 3.02345E-03-3.85628E-04-7.35421E-15
 -1      3090 2.80400E-03-3.45998E-04-6.43405E-15
 -1      3091 3.16674E-03-3.86501E-04-8.05286E-15
 -1      3092 3.30997E-03-3.86946E-04-8.78391E-15
 -1      3093 3.09151E-03-3.48605E-04-7.77106E-15
 -1      3094 3.45317E-03-3.87052E-04-9.54677E-15
 -1      3095 3.59633E-03-3.86857E-04-1.03413E-14
 -1      3096 3.37874E-03-3.49476E-04-9.23603E-15
 -1      3097 3.73945E-03-3.86423E-04-1.11689E-14
 -1      3098 3.88254E-03-3.85774E-04-1.20279E-14
 -1      3099 3.66571E-03-3.49127E-04-1.08299E-14
 -1      3100 4.02561E-03-3.84950E-04-1.29183E-14
 -1      3101 4.16864E-03-3.83963E-04-1.38431E-14
 -1      3102 3.95243E-03-3.47911E-04-1.25511E-14
 -1      3103 4.31166E-03-3.82838E-04-1.48001E-14
 -1      3104 4.45465E-03-3.81578E-04-1.57892E-14
 -1      3105 4.23892E-03-3.46050E-04-1.44016E-14
 -1      3106 4.59762E-03-3.80194E-04-1.68100E-14
 -1      3107 4.74057E-03-3.78684E-04-1.78633E-14
 -1      3108 4.52520E-03-3.43666E-04-1.63818E-14
 -1      3109 4.88350E-03-3.77048E-04-1.89499E-14
 -1      3110 5.02641E-03-3.75280E-04-2.00680E-14
 -1      3111 4.81127E-03-3.40803E-04-1.84916E-14
 -1      3112 5.16930E-03-3.73374E-04-2.12193E-14
 -1      3113 5.31218E-03-3.71320E-04-2.24032E-14
 -1      3114 5.09714E-03-3.37448E-04-2.07309E-14
 -1      3115 5.45504E-03-3.69109E-04-2.36192E-14
 -1      3116 5.59788E-03-3.66730E-04-2.48674E-14
 -1      3117 5.38279E-03-3.33546E-04-2.31002E-14
 -1      3118 5.74069E-03-3.64173E-04-2.61477E-14
 -1      3119 5.88349E-03-3.61429E-04-2.74595E-14
 -1      3120 5.66819E-03-3.29021E-04-2.55986E-14
 -1      3121 6.02626E-03-3.58490E-04-2.88025E-14
 -1      3122 6.16902E-03-3.55350E-04-3.01784E-14
 -1      3123 5.95332E-03-3.23791E-04-2.82241E-14
 -1      3124 6.31176E-03-3.52011E-04-3.15859E-14
 -1      3125 6.45448E-03-3.48471E-04-3.30221E-14
 -1      3126 6.23813E-03-3.17792E-04-3.09772E-14
 -1      3127 6.59719E-03-3.44747E-04-3.44886E-14
 -1      3128 6.73990E-03-3.40847E-04-3.59853E-14
 -1      3129 6.52259E-03-3.11002E-04-3.38518E-14
 -1      3130 6.88260E-03-3.36810E-04-3.75110E-14
 -1      3131 7.02535E-03-3.32659E-04-3.90647E-14
 -1      3132 6.80668E-03-3.03477E-04-3.68460E-14
 -1      3133 7.16812E-03-3.28461E-04-4.06481E-14
 -1      3134 7.31099E-03-3.24266E-04-4.22594E-14
 -1      3135 7.09044E-03-2.95386E-04-3.99560E-14
 -1      3136 7.45395E-03-3.20174E-04-4.38966E-14
 -1      3137 7.59711E-03-3.16276E-04-4.55630E-14
 -1      3138 7.37399E-03-2.87068E-04-4.31778E-14
 -1      3139 7.74049E-03-3.12712E-04-4.72561E-14
 -1      3140 7.88424E-03-3.09630E-04-4.89732E-14
 -1      3141 7.65763E-03-2.79089E-04-4.65101E-14
 -1      3142 8.02843E-03-3.07213E-04-5.07170E-14
 -1      3143 8.17324E-03-3.05698E-04-5.24873E-14
 -1      3144 7.94193E-03-2.72321E-04-4.99466E-14
 -1      3145 8.31885E-03-3.05304E-04-5.42836E-14
 -1      3146 8.46549E-03-3.06399E-04-5.61045E-14
 -1      3147 8.22789E-03-2.68038E-04-5.34868E-14
 -1      3148 8.61344E-03-3.09230E-04-5.79476E-14
 -1      3149 8.76299E-03-3.14356E-04-5.98157E-14
 -1      3150 8.51712E-03-2.68060E-04-5.71272E-14
 -1      3151 8.91459E-03-3.22028E-04-6.17089E-14
 -1      3152 9.06850E-03-3.33072E-04-6.36248E-14
 -1      3153 8.81208E-03-2.74964E-04-6.08647E-14
 -1      3154 9.22536E-03-3.47714E-04-6.55637E-14
 -1      3155 9.38524E-03-3.67076E-04-6.75263E-14
 -1      3156 9.11623E-03-2.92430E-04-6.46971E-14
 -1      3157 9.54897E-03-3.91309E-04-6.95108E-14
 -1      3158 9.71606E-03-4.21670E-04-7.15166E-14
 -1      3159 9.43381E-03-3.25676E-04-6.86213E-14
 -1      3160 9.88742E-03-4.58097E-04-7.35448E-14
 -1      3161 1.00614E-02-5.01334E-04-7.55961E-14
 -1      3162 9.76882E-03-3.81475E-04-7.26319E-14
 -1      3163 1.02386E-02-5.50925E-04-7.76708E-14
 -1      3164 1.04161E-02-6.05357E-04-7.97688E-14
 -1      3165 1.01221E-02-4.66712E-04-7.67331E-14
 -1      3166 1.05939E-02-6.63168E-04-8.18906E-14
 -1      3167 1.07690E-02-7.19058E-04-8.40358E-14
 -1      3168 1.04872E-02-5.81897E-04-8.09271E-14
 -1      3169 1.09849E-02-7.69167E-04-8.68272E-14
 -1      3170 1.11531E-02-8.05273E-04-8.90274E-14
 -1      3171 1.15899E-02-8.02816E-04-9.51107E-14
 -1      3172 1.17543E-02-7.58632E-04-9.73898E-14
 -1      3173 1.18901E-02-6.89452E-04-9.90627E-14
 -1      3174 1.20670E-02-6.13841E-04-1.01373E-13
 -1      3175 1.26280E-02-3.94181E-04-1.09035E-13
 -1      3176 1.28043E-02-3.24658E-04-1.11402E-13
 -1      3177 1.29787E-02-2.60958E-04-1.13777E-13
 -1      3178 1.31488E-02-2.02842E-04-1.16160E-13
 -1      3179 1.29517E-02-2.32797E-04-1.12694E-13
 -1      3180 1.33156E-02-1.50210E-04-1.18551E-13
 -1      3181 1.34781E-02-1.01640E-04-1.20947E-13
 -1      3182 1.32963E-02-1.20939E-04-1.17459E-13
 -1      3183 1.36115E-02-6.64768E-05-1.23032E-13
 -1      3184 1.37674E-02-2.32918E-05-1.25441E-13
 -1      3185 1.38571E-02 2.29958E-05-1.26114E-13
 -1      3186 1.35962E-02-3.97783E-05-1.21931E-13
 -1      3187 1.04489E-02-4.53209E-04-8.15921E-14
 -1      3188 1.02603E-02-3.49785E-04-8.00358E-14
 -1      3189 1.39615E-02 3.79900E-04-1.15045E-13
 -1      3190 1.39979E-02 3.62443E-04-1.15132E-13
 -1      3191 3.25493E-03 4.23637E-04-8.74229E-15
 -1      3192 3.11207E-03 4.22940E-04-8.00621E-15
 -1      3193 2.96917E-03 4.21764E-04-7.30268E-15
 -1      3194 2.82627E-03 4.20049E-04-6.63286E-15
 -1      3195 3.03664E-03 3.85025E-04-7.70044E-15
 -1      3196 3.82629E-03 4.23136E-04-1.20155E-14
 -1      3197 3.68346E-03 4.23657E-04-1.11470E-14
 -1      3198 4.11195E-03 4.21527E-04-1.38515E-14
 -1      3199 3.96912E-03 4.22420E-04-1.29173E-14
 -1      3200 3.89589E-03 3.85402E-04-1.25114E-14
 -1      3201 4.39764E-03 4.19292E-04-1.58213E-14
 -1      3202 4.25480E-03 4.20481E-04-1.48194E-14
 -1      3203 4.18204E-03 3.83698E-04-1.43794E-14
 -1      3204 4.68336E-03 4.16511E-04-1.79234E-14
 -1      3205 4.54050E-03 4.17968E-04-1.68558E-14
 -1      3206 4.46808E-03 3.81422E-04-1.63803E-14
 -1      3207 4.96912E-03 4.13191E-04-2.01558E-14
 -1      3208 4.82623E-03 4.14920E-04-1.90234E-14
 -1      3209 4.75403E-03 3.78631E-04-1.85127E-14
 -1      3210 5.25493E-03 4.09283E-04-2.25191E-14
 -1      3211 5.11202E-03 4.11315E-04-2.13214E-14
 -1      3212 5.03988E-03 3.75317E-04-2.07758E-14
 -1      3213 5.54080E-03 4.04703E-04-2.50116E-14
 -1      3214 5.39786E-03 4.07083E-04-2.37490E-14
 -1      3215 5.32565E-03 3.71424E-04-2.31680E-14
 -1      3216 5.82673E-03 3.99347E-04-2.76322E-14
 -1      3217 5.68376E-03 4.02128E-04-2.63061E-14
 -1      3218 5.61129E-03 3.66868E-04-2.56898E-14
 -1      3219 6.11272E-03 3.93117E-04-3.03777E-14
 -1      3220 5.96971E-03 3.96346E-04-2.89893E-14
 -1      3221 5.89679E-03 3.61550E-04-2.83384E-14
 -1      3222 6.39874E-03 3.85945E-04-3.32420E-14
 -1      3223 6.25572E-03 3.89651E-04-3.17958E-14
 -1      3224 6.18207E-03 3.55385E-04-3.11115E-14
 -1      3225 6.68479E-03 3.77833E-04-3.62229E-14
 -1      3226 6.54175E-03 3.82005E-04-3.47178E-14
 -1      3227 6.46707E-03 3.48325E-04-3.40022E-14
 -1      3228 6.97081E-03 3.68896E-04-3.93149E-14
 -1      3229 6.82779E-03 3.73458E-04-3.77548E-14
 -1      3230 6.75166E-03 3.40396E-04-3.70072E-14
 -1      3231 7.25676E-03 3.59429E-04-4.25193E-14
 -1      3232 7.11377E-03 3.64208E-04-4.09037E-14
 -1      3233 7.03570E-03 3.31748E-04-4.01258E-14
 -1      3234 7.54260E-03 3.49993E-04-4.58333E-14
 -1      3235 7.39967E-03 3.54670E-04-4.41625E-14
 -1      3236 7.31901E-03 3.22711E-04-4.33554E-14
 -1      3237 7.82833E-03 3.41522E-04-4.92552E-14
 -1      3238 7.68544E-03 3.45575E-04-4.75309E-14
 -1      3239 7.60139E-03 3.13874E-04-4.66941E-14
 -1      3240 8.11411E-03 3.35452E-04-5.27809E-14
 -1      3241 7.97115E-03 3.38089E-04-5.10048E-14
 -1      3242 7.88272E-03 3.06170E-04-5.01383E-14
 -1      3243 8.40044E-03 3.33893E-04-5.64090E-14
 -1      3244 8.25711E-03 3.33958E-04-5.45828E-14
 -1      3245 8.16300E-03 3.00982E-04-5.36874E-14
 -1      3246 8.68857E-03 3.39827E-04-6.01393E-14
 -1      3247 8.54412E-03 3.35689E-04-5.82617E-14
 -1      3248 8.44266E-03 3.00258E-04-5.73387E-14
 -1      3249 8.98100E-03 3.57407E-04-6.39664E-14
 -1      3250 8.83397E-03 3.46784E-04-6.20403E-14
 -1      3251 8.72298E-03 3.06664E-04-6.10892E-14
 -1      3252 9.28240E-03 3.92478E-04-6.78882E-14
 -1      3253 9.13017E-03 3.72128E-04-6.59155E-14
 -1      3254 9.00677E-03 3.23890E-04-6.49362E-14
 -1      3255 9.60062E-03 4.53773E-04-7.19024E-14
 -1      3256 9.43890E-03 4.18712E-04-6.98835E-14
 -1      3257 9.29947E-03 3.57341E-04-6.88773E-14
 -1      3258 9.94575E-03 5.54411E-04-7.60073E-14
 -1      3259 9.76951E-03 4.97500E-04-7.39441E-14
 -1      3260 9.61093E-03 4.15929E-04-7.29081E-14
 -1      3261 1.31494E-02 7.89483E-04-1.12131E-13
 -1      3262 1.29580E-02 8.48157E-04-1.09744E-13
 -1      3263 1.01662E-03 6.82289E-05-1.14023E-15
 -1      3264 1.01545E-03 4.12384E-05-1.14172E-15
 -1      3265 1.00483E-02-2.36237E-04-7.85317E-14
 -1      3266 9.88981E-03-1.56645E-04-7.75123E-14
 -1      3267 9.76248E-03-1.39593E-04-7.58627E-14
 -1      3268 1.44582E-02 3.55036E-04-1.28134E-13
 -1      3269 1.44957E-02 3.81279E-04-1.28228E-13
 -1      3270 1.40703E-02 1.30864E-04-1.27517E-13
 -1      3271 1.41444E-02 1.75793E-04-1.27625E-13
 -1      3272 1.43529E-02 2.94451E-04-1.27940E-13
 -1      3273 1.44100E-02 3.26564E-04-1.28038E-13
 -1      3274 1.43289E-02 3.29564E-04-1.25997E-13
 -1      3275 1.15223E-02-7.89664E-04-9.39627E-14
 -1      3276 1.13809E-02-7.98679E-04-9.20603E-14
 -1      3277 1.42174E-02 2.18540E-04-1.27733E-13
 -1      3278 1.42875E-02 2.58209E-04-1.27839E-13
 -1      3279 1.42048E-02 2.60905E-04-1.25799E-13
 -1      3280 1.40563E-02 1.75264E-04-1.25589E-13
 -1      3281 1.38323E-02 6.79969E-04-1.21716E-13
 -1      3282 1.36725E-02 6.94248E-04-1.19316E-13
 -1      3283 1.35063E-02 7.15127E-04-1.16920E-13
 -1      3284 1.33328E-02 7.46945E-04-1.14524E-13
 -1      3285 1.33155E-02 6.97439E-04-1.13269E-13
 -1      3286 1.36548E-02 6.47222E-04-1.18058E-13
 -1      3287 9.22816E-03 1.81000E-04-7.45682E-14
 -1      3288 9.33221E-03 2.10161E-04-7.51061E-14
 -1      3289 3.54062E-03 4.23940E-04-1.03122E-14
 -1      3290 3.39778E-03 4.23957E-04-9.51054E-15
 -1      3291 3.32322E-03 3.86395E-04-9.17232E-15
 -1      3292 3.60963E-03 3.86387E-04-1.07755E-14
 -1      3293 2.11105E-03 3.98780E-04-3.77106E-15
 -1      3294 1.96783E-03 3.90877E-04-3.29692E-15
 -1      3295 1.39853E-02 3.43962E-04-1.15113E-13
 -1      3296 1.39291E-02 3.27052E-04-1.14772E-13
 -1      3297 1.82455E-03 3.81219E-04-2.85577E-15
 -1      3298 1.68119E-03 3.69637E-04-2.44691E-15
 -1      3299 1.88827E-03 3.50495E-04-3.11181E-15
 -1      3300 1.30414E-02 7.56740E-04-1.09522E-13
 -1      3301 1.32296E-02 6.58653E-04-1.10771E-13
 -1      3302 1.03723E-02 7.22092E-04-8.09283E-14
 -1      3303 1.35199E-02 1.93328E-04-1.12414E-13
 -1      3304 1.33246E-02 1.12961E-04-1.11296E-13
 -1      3305 1.44603E-02 6.10997E-04-1.30636E-13
 -1      3306 1.14499E-03 3.10638E-04-1.19471E-15
 -1      3307 1.08236E-03 2.71709E-04-1.11932E-15
 -1      3308 1.20147E-03 2.73145E-04-1.37134E-15
 -1      3309 1.28815E-03 3.32610E-04-1.48095E-15
 -1      3310 1.37821E-02 4.46098E-04-1.14579E-13
 -1      3311 1.38867E-02 4.13147E-04-1.15090E-13
 -1      3312 1.08062E-02-6.56697E-04-8.49170E-14
 -1      3313 1.06443E-02-5.75263E-04-8.32059E-14
 -1      3314 1.38172E-02 2.95406E-04-1.13909E-13
 -1      3315 1.36897E-02 2.57104E-04-1.13185E-13
 -1      3316 9.84006E-03 4.09325E-04-7.79587E-14
 -1      3317 1.00262E-02 5.14273E-04-7.87333E-14
 -1      3318 1.03829E-03-2.53129E-04-9.89673E-16
 -1      3319 1.11800E-03-2.75609E-04-1.11470E-15
 -1      3320 1.26077E-03-2.96466E-04-1.38698E-15
 -1      3321 1.02405E-03-2.14605E-04-1.01391E-15
 -1      3322 1.44458E-03-3.13827E-04-1.79239E-15
 -1      3323 1.58809E-03-3.28283E-04-2.13784E-15
 -1      3324 1.65240E-03-3.00212E-04-2.36615E-15
 -1      3325 9.13153E-03 1.49010E-04-7.40484E-14
 -1      3326 9.15635E-03 1.58823E-04-7.41764E-14
 -1      3327 1.22112E-02-5.12302E-04-1.02661E-13
 -1      3328 1.22805E-02-5.34448E-04-1.04363E-13
 -1      3329 1.24598E-02-4.55867E-04-1.06707E-13
 -1      3330 1.24034E-02-3.95015E-04-1.04618E-13
 -1      3331 1.01752E-02 6.29815E-04-7.88144E-14
 -1      3332 1.01486E-03 1.44540E-05-1.14063E-15
 -1      3333 1.01482E-03-1.22314E-05-1.13695E-15
 -1      3334 1.13555E-03 3.01758E-05-1.38351E-15
 -1      3335 1.33267E-02 8.57329E-05-1.12465E-13
 -1      3336 1.31660E-02 3.56549E-05-1.10488E-13
 -1      3337 9.15195E-03 1.67115E-04-7.31250E-14
 -1      3338 1.44095E-02 3.82642E-04-1.26186E-13
 -1      3339 1.45204E-02 4.05027E-04-1.28319E-13
 -1      3340 1.45311E-02 4.28569E-04-1.28407E-13
 -1      3341 1.37680E-02 4.87782E-04-1.15798E-13
 -1      3342 1.08933E-02-7.09318E-04-8.58348E-14
 -1      3343 9.25580E-03 9.87087E-05-7.44567E-14
 -1      3344 9.18317E-03 1.03641E-04-7.34341E-14
 -1      3345 9.28769E-03 6.89822E-05-7.37833E-14
 -1      3346 1.44842E-02 5.05413E-04-1.28655E-13
 -1      3347 1.44480E-02 5.36483E-04-1.28728E-13
 -1      3348 1.12751E-02-7.98351E-04-9.06746E-14
 -1      3349 1.13008E-02-8.27565E-04-9.10575E-14
 -1      3350 1.14628E-02-8.22154E-04-9.33013E-14
 -1      3351 1.01133E-02-3.10715E-04-7.83590E-14
 -1      3352 1.39810E-02 4.06281E-04-1.16638E-13
 -1      3353 1.40395E-02 3.59567E-04-1.16574E-13
 -1      3354 1.33810E-02 6.31605E-04-1.12896E-13
 -1      3355 2.39730E-03 4.10400E-04-4.81753E-15
 -1      3356 2.25421E-03 4.05242E-04-4.27777E-15
 -1      3357 2.17563E-03 3.65658E-04-4.06375E-15
 -1      3358 2.74985E-03 3.81693E-04-6.35813E-15
 -1      3359 2.68332E-03 4.17656E-04-5.99531E-15
 -1      3360 2.54034E-03 4.14502E-04-5.39006E-15
 -1      3361 1.02371E-03-1.49155E-04-1.08213E-15
 -1      3362 1.02777E-03-1.78401E-04-1.06196E-15
 -1      3363 1.28613E-02 8.69628E-04-1.08391E-13
 -1      3364 1.26316E-02 9.51807E-04-1.05418E-13
 -1      3365 9.11202E-03 1.37112E-04-7.34206E-14
 -1      3366 9.06751E-03 1.36089E-04-7.21129E-14
 -1      3367 9.10412E-03 1.24841E-04-7.27928E-14
 -1      3368 1.01842E-03 9.54983E-05-1.13611E-15
 -1      3369 1.13820E-03 8.85890E-05-1.38023E-15
 -1      3370 1.02088E-03 1.23276E-04-1.12920E-15
 -1      3371 1.29799E-02-5.38724E-05-1.09043E-13
 -1      3372 1.40933E-02 6.50532E-04-1.25428E-13
 -1      3373 1.39648E-02 6.63422E-04-1.23572E-13
 -1      3374 1.39440E-02 6.20517E-04-1.22313E-13
 -1      3375 1.45277E-02 4.51886E-04-1.28493E-13
 -1      3376 1.45116E-02 4.77521E-04-1.28576E-13
 -1      3377 1.43928E-02 4.81163E-04-1.26530E-13
 -1      3378 1.44311E-02 4.29357E-04-1.26365E-13
 -1      3379 1.15310E-03 2.11873E-04-1.33522E-15
 -1      3380 1.02835E-03 1.81219E-04-1.10670E-15
 -1      3381 1.02418E-03 1.51885E-04-1.11970E-15
 -1      3382 9.71904E-03 3.68528E-04-7.66322E-14
 -1      3383 9.28269E-03 2.15118E-04-7.33250E-14
 -1      3384 9.39252E-03 2.36071E-04-7.49199E-14
 -1      3385 9.45608E-03 2.67611E-04-7.47323E-14
 -1      3386 1.39164E-02 3.13515E-04-1.15688E-13
 -1      3387 1.16577E-02-7.60749E-04-9.57791E-14
 -1      3388 1.15588E-02-7.91277E-04-9.45301E-14
 -1      3389 9.50289E-03-4.72842E-05-7.38447E-14
 -1      3390 9.50154E-03-6.43237E-06-7.48353E-14
 -1      3391 9.39310E-03 1.72470E-05-7.38194E-14
 -1      3392 1.18310E-02-6.94958E-04-9.80124E-14
 -1      3393 9.99063E-03 5.18042E-04-7.77447E-14
 -1      3394 1.26030E-02-3.58701E-04-1.07991E-13
 -1      3395 1.36413E-02 2.22366E-04-1.14050E-13
 -1      3396 1.43972E-02 5.74366E-04-1.28750E-13
 -1      3397 1.43054E-02 6.32235E-04-1.28535E-13
 -1      3398 1.41823E-02 6.40324E-04-1.26671E-13
 -1      3399 1.43036E-02 5.50293E-04-1.26632E-13
 -1      3400 1.05006E-02-5.38537E-04-8.14532E-14
 -1      3401 1.01814E-03-9.30270E-05-1.11228E-15
 -1      3402 1.02052E-03-1.20747E-04-1.09876E-15
 -1      3403 1.14332E-03-1.45943E-04-1.32495E-15
 -1      3404 1.32466E-03-2.73660E-04-1.57098E-15
 -1      3405 1.25720E-02-2.87785E-04-1.05971E-13
 -1      3406 1.25817E-02-3.27337E-04-1.07024E-13
 -1      3407 1.27554E-02-2.63448E-04-1.09357E-13
 -1      3408 1.27477E-02-1.83281E-04-1.07415E-13
 -1      3409 1.55629E-03 3.61570E-04-2.11030E-15
 -1      3410 1.41293E-03 3.45390E-04-1.76305E-15
 -1      3411 1.36910E-03 3.15142E-04-1.70334E-15
 -1      3412 1.61929E-03 3.33958E-04-2.33225E-15
 -1      3413 1.39183E-02 5.61984E-05-1.26482E-13
 -1      3414 1.40089E-02 9.98098E-05-1.27150E-13
 -1      3415 1.39161E-02 9.53381E-05-1.25116E-13
 -1      3416 1.37902E-02 2.73404E-05-1.24385E-13
 -1      3417 1.34782E-02 1.23923E-04-1.14585E-13
 -1      3418 1.33398E-02 5.73366E-05-1.13771E-13
 -1      3419 9.06994E-03 1.54271E-04-7.14723E-14
 -1      3420 9.13524E-03 1.76191E-04-7.18550E-14
 -1      3421 2.15047E-03-2.93414E-04-3.94347E-15
 -1      3422 2.29483E-03-2.98295E-04-4.45451E-15
 -1      3423 2.43919E-03-3.02214E-04-4.99751E-15
 -1      3424 2.58351E-03-3.05267E-04-5.57308E-15
 -1      3425 2.36231E-03-2.63584E-04-4.77072E-15
 -1      3426 2.72779E-03-3.07616E-04-6.17936E-15
 -1      3427 2.87199E-03-3.09334E-04-6.81794E-15
 -1      3428 2.65159E-03-2.69200E-04-5.92483E-15
 -1      3429 3.01612E-03-3.10547E-04-7.48883E-15
 -1      3430 3.16016E-03-3.11310E-04-8.19122E-15
 -1      3431 2.94066E-03-2.72378E-04-7.20634E-15
 -1      3432 3.30412E-03-3.11717E-04-8.92548E-15
 -1      3433 3.44798E-03-3.11806E-04-9.69171E-15
 -1      3434 3.22937E-03-2.73805E-04-8.61504E-15
 -1      3435 3.59176E-03-3.11646E-04-1.04900E-14
 -1      3436 3.73545E-03-3.11259E-04-1.13208E-14
 -1      3437 3.51767E-03-2.73993E-04-1.01510E-14
 -1      3438 3.87906E-03-3.10694E-04-1.21833E-14
 -1      3439 4.02257E-03-3.09964E-04-1.30770E-14
 -1      3440 3.80553E-03-2.73305E-04-1.18147E-14
 -1      3441 4.16601E-03-3.09099E-04-1.40037E-14
 -1      3442 4.30936E-03-3.08103E-04-1.49634E-14
 -1      3443 4.09296E-03-2.71981E-04-1.36070E-14
 -1      3444 4.45264E-03-3.06994E-04-1.59543E-14
 -1      3445 4.59583E-03-3.05770E-04-1.69775E-14
 -1      3446 4.37996E-03-2.70168E-04-1.55274E-14
 -1      3447 4.73895E-03-3.04437E-04-1.80340E-14
 -1      3448 4.88198E-03-3.02989E-04-1.91224E-14
 -1      3449 4.66654E-03-2.67931E-04-1.75774E-14
 -1      3450 5.02492E-03-3.01426E-04-2.02432E-14
 -1      3451 5.16779E-03-2.99737E-04-2.13962E-14
 -1      3452 4.95268E-03-2.65281E-04-1.97565E-14
 -1      3453 5.31055E-03-2.97917E-04-2.25820E-14
 -1      3454 5.45322E-03-2.95953E-04-2.38006E-14
 -1      3455 5.23834E-03-2.62185E-04-2.20643E-14
 -1      3456 5.59579E-03-2.93839E-04-2.50500E-14
 -1      3457 5.73824E-03-2.91560E-04-2.63328E-14
 -1      3458 5.52349E-03-2.58580E-04-2.45032E-14
 -1      3459 5.88057E-03-2.89111E-04-2.76470E-14
 -1      3460 6.02277E-03-2.86477E-04-2.89921E-14
 -1      3461 5.80803E-03-2.54388E-04-2.70699E-14
 -1      3462 6.16482E-03-2.83658E-04-3.03690E-14
 -1      3463 6.30674E-03-2.80640E-04-3.17781E-14
 -1      3464 6.09186E-03-2.49529E-04-2.97633E-14
 -1      3465 6.44847E-03-2.77434E-04-3.32164E-14
 -1      3466 6.59005E-03-2.74027E-04-3.46845E-14
 -1      3467 6.37487E-03-2.43939E-04-3.25809E-14
 -1      3468 6.73144E-03-2.70445E-04-3.61819E-14
 -1      3469 6.87266E-03-2.66684E-04-3.77084E-14
 -1      3470 6.65691E-03-2.37589E-04-3.55192E-14
 -1      3471 7.01367E-03-2.62786E-04-3.92639E-14
 -1      3472 7.15454E-03-2.58761E-04-4.08479E-14
 -1      3473 6.93788E-03-2.30509E-04-3.85731E-14
 -1      3474 7.29522E-03-2.54674E-04-4.24600E-14
 -1      3475 7.43579E-03-2.50558E-04-4.40992E-14
 -1      3476 7.21771E-03-2.22818E-04-4.17414E-14
 -1      3477 7.57625E-03-2.46501E-04-4.57655E-14
 -1      3478 7.71670E-03-2.42574E-04-4.74589E-14
 -1      3479 7.49646E-03-2.14756E-04-4.50216E-14
 -1      3480 7.85717E-03-2.38890E-04-4.91768E-14
 -1      3481 7.99786E-03-2.35579E-04-5.09206E-14
 -1      3482 7.77437E-03-2.06730E-04-4.84069E-14
 -1      3483 8.13882E-03-2.32776E-04-5.26914E-14
 -1      3484 8.28035E-03-2.30713E-04-5.44887E-14
 -1      3485 8.05203E-03-1.99372E-04-5.18975E-14
 -1      3486 8.42262E-03-2.29537E-04-5.63082E-14
 -1      3487 8.56603E-03-2.29650E-04-5.81514E-14
 -1      3488 8.33061E-03-1.93639E-04-5.54894E-14
 -1      3489 8.71088E-03-2.31199E-04-6.00215E-14
 -1      3490 8.85774E-03-2.34885E-04-6.19155E-14
 -1      3491 8.61209E-03-1.91003E-04-5.91791E-14
 -1      3492 9.00712E-03-2.40850E-04-6.38308E-14
 -1      3493 9.15968E-03-2.50278E-04-6.57706E-14
 -1      3494 8.89972E-03-1.93836E-04-6.29656E-14
 -1      3495 9.31623E-03-2.63325E-04-6.77317E-14
 -1      3496 9.47727E-03-2.81871E-04-6.97147E-14
 -1      3497 9.19847E-03-2.06204E-04-6.68435E-14
 -1      3498 9.64402E-03-3.06001E-04-7.17192E-14
 -1      3499 9.81609E-03-3.38320E-04-7.37459E-14
 -1      3500 9.51530E-03-2.35211E-04-7.08076E-14
 -1      3501 1.03114E-02-4.71901E-04-7.93410E-14
 -1      3502 1.32810E-02-8.80304E-05-1.16368E-13
 -1      3503 1.34480E-02-4.15300E-05-1.18756E-13
 -1      3504 1.21318E-03-2.33057E-04-1.37826E-15
 -1      3505 1.39669E-03-2.47951E-04-1.78176E-15
 -1      3506 4.25229E-03 3.45806E-04-1.49083E-14
 -1      3507 4.10905E-03 3.46752E-04-1.39422E-14
 -1      3508 3.96576E-03 3.47553E-04-1.30090E-14
 -1      3509 3.82242E-03 3.48201E-04-1.21084E-14
 -1      3510 4.03588E-03 3.09638E-04-1.35070E-14
 -1      3511 4.82468E-03 3.40788E-04-1.91020E-14
 -1      3512 4.68166E-03 3.42224E-04-1.80047E-14
 -1      3513 5.11055E-03 3.37536E-04-2.13946E-14
 -1      3514 4.96764E-03 3.39228E-04-2.02324E-14
 -1      3515 4.89533E-03 3.03024E-04-1.96915E-14
 -1      3516 5.39616E-03 3.33723E-04-2.38163E-14
 -1      3517 5.25339E-03 3.35705E-04-2.25891E-14
 -1      3518 5.18111E-03 2.99890E-04-2.20133E-14
 -1      3519 5.68147E-03 3.29267E-04-2.63674E-14
 -1      3520 5.53886E-03 3.31582E-04-2.50761E-14
 -1      3521 5.46648E-03 2.96223E-04-2.44648E-14
 -1      3522 5.96641E-03 3.24080E-04-2.90446E-14
 -1      3523 5.82399E-03 3.26771E-04-2.76904E-14
 -1      3524 5.75136E-03 2.91947E-04-2.70442E-14
 -1      3525 6.25085E-03 3.18092E-04-3.18441E-14
 -1      3526 6.10869E-03 3.21191E-04-3.04289E-14
 -1      3527 6.03561E-03 2.86987E-04-2.97500E-14
 -1      3528 6.53464E-03 3.11279E-04-3.47609E-14
 -1      3529 6.39283E-03 3.14791E-04-3.32888E-14
 -1      3530 6.31907E-03 2.81293E-04-3.25768E-14
 -1      3531 6.81758E-03 3.03696E-04-3.77916E-14
 -1      3532 6.67622E-03 3.07582E-04-3.62622E-14
 -1      3533 6.60150E-03 2.74868E-04-3.55195E-14
 -1      3534 7.09940E-03 2.95525E-04-4.09364E-14
 -1      3535 6.95863E-03 2.99676E-04-3.93500E-14
 -1      3536 6.88261E-03 2.67797E-04-3.85763E-14
 -1      3537 7.37980E-03 2.87127E-04-4.41912E-14
 -1      3538 7.23978E-03 2.91337E-04-4.25497E-14
 -1      3539 7.16202E-03 2.60291E-04-4.17464E-14
 -1      3540 7.65844E-03 2.79104E-04-4.75531E-14
 -1      3541 7.51934E-03 2.83038E-04-4.58586E-14
 -1      3542 7.43930E-03 2.52736E-04-4.50263E-14
 -1      3543 7.93501E-03 2.72366E-04-5.10221E-14
 -1      3544 7.79697E-03 2.75526E-04-4.92749E-14
 -1      3545 7.71394E-03 2.45735E-04-4.84131E-14
 -1      3546 8.20935E-03 2.68198E-04-5.45927E-14
 -1      3547 8.07241E-03 2.69889E-04-5.27937E-14
 -1      3548 7.98545E-03 2.40146E-04-5.19036E-14
 -1      3549 8.48173E-03 2.68325E-04-5.82668E-14
 -1      3550 8.34568E-03 2.67616E-04-5.64188E-14
 -1      3551 8.25346E-03 2.37110E-04-5.54985E-14
 -1      3552 8.75325E-03 2.75010E-04-6.20385E-14
 -1      3553 8.61737E-03 2.70673E-04-6.01407E-14
 -1      3554 8.51791E-03 2.38054E-04-5.91950E-14
 -1      3555 9.02671E-03 2.91365E-04-6.59059E-14
 -1      3556 8.88928E-03 2.81647E-04-6.39594E-14
 -1      3557 8.77953E-03 2.44713E-04-6.29871E-14
 -1      3558 9.30779E-03 3.22318E-04-6.98649E-14
 -1      3559 9.16542E-03 3.04398E-04-6.78745E-14
 -1      3560 9.04073E-03 2.59439E-04-6.68747E-14
 -1      3561 9.55004E-03 3.37068E-04-7.40498E-14
 -1      3562 9.40553E-03 3.09667E-04-7.20152E-14
 -1      3563 1.40319E-02 4.33077E-04-1.18700E-13
 -1      3564 1.40866E-02 4.02387E-04-1.18656E-13
 -1      3565 9.77627E-03-1.94509E-04-7.50787E-14
 -1      3566 9.63829E-03-1.34541E-04-7.40832E-14
 -1      3567 1.01444E-02-3.77217E-04-7.79414E-14
 -1      3568 9.95535E-03-2.77413E-04-7.64589E-14
 -1      3569 9.81551E-03-2.61801E-04-7.46698E-14
 -1      3570 1.01483E-02-4.31870E-04-7.74263E-14
 -1      3571 1.37673E-02 5.30913E-04-1.17131E-13
 -1      3572 1.39024E-02 4.82830E-04-1.18016E-13
 -1      3573 1.41947E-02 3.02739E-04-1.23863E-13
 -1      3574 1.42522E-02 3.34110E-04-1.23959E-13
 -1      3575 1.95320E-03 3.19065E-04-3.37282E-15
 -1      3576 1.80921E-03 3.10484E-04-2.92758E-15
 -1      3577 4.53859E-03 3.43538E-04-1.69401E-14
 -1      3578 4.39547E-03 3.44734E-04-1.59076E-14
 -1      3579 4.32269E-03 3.07895E-04-1.54378E-14
 -1      3580 4.60918E-03 3.05683E-04-1.74993E-14
 -1      3581 3.10471E-03 3.47983E-04-8.09953E-15
 -1      3582 2.96097E-03 3.46924E-04-7.39504E-15
 -1      3583 1.41102E-02 3.78956E-04-1.18638E-13
 -1      3584 1.41004E-02 3.59593E-04-1.18619E-13
 -1      3585 1.41807E-02 4.01693E-04-1.20706E-13
 -1      3586 1.29349E-02-1.97775E-04-1.11667E-13
 -1      3587 1.31134E-02-1.37259E-04-1.14041E-13
 -1      3588 1.32759E-02-4.84738E-05-1.15332E-13
 -1      3589 1.29296E-02-1.56113E-04-1.10694E-13
 -1      3590 1.01534E-03-3.89463E-05-1.13143E-15
 -1      3591 1.01643E-03-6.57965E-05-1.12323E-15
 -1      3592 1.13795E-03-8.60089E-05-1.35665E-15
 -1      3593 1.35489E-02 6.06141E-04-1.15290E-13
 -1      3594 1.29588E-02-1.03566E-04-1.10020E-13
 -1      3595 1.57405E-03-2.60772E-04-2.21702E-15
 -1      3596 1.71787E-03-2.71235E-04-2.60101E-15
 -1      3597 1.86192E-03-2.80058E-04-3.01689E-15
 -1      3598 2.00615E-03-2.87375E-04-3.46436E-15
 -1      3599 2.07307E-03-2.54652E-04-3.74337E-15
 -1      3600 1.37849E-02 2.53097E-04-1.16139E-13
 -1      3601 1.36358E-02 1.95105E-04-1.15362E-13
 -1      3602 1.36427E-02 1.66537E-04-1.16674E-13
 -1      3603 1.40060E-02 3.26978E-04-1.17518E-13
 -1      3604 1.38994E-02 2.95472E-04-1.16649E-13
 -1      3605 9.06530E-03 1.78703E-04-7.00319E-14
 -1      3606 9.16943E-03 1.94400E-04-7.16711E-14
 -1      3607 9.20901E-03 2.16209E-04-7.14846E-14
 -1      3608 1.42820E-02 3.69210E-04-1.23387E-13
 -1      3609 1.43030E-02 3.92457E-04-1.23478E-13
 -1      3610 1.14379E-03 1.48753E-04-1.36467E-15
 -1      3611 9.29458E-03 3.59936E-05-7.28024E-14
 -1      3612 9.20429E-03 4.85029E-05-7.17911E-14
 -1      3613 9.29370E-03-7.41286E-08-7.18245E-14
 -1      3614 1.27931E-03 2.42965E-04-1.58460E-15
 -1      3615 1.27319E-03 2.08757E-04-1.60539E-15
 -1      3616 2.09724E-03 3.26177E-04-3.85053E-15
 -1      3617 2.01917E-03 2.86955E-04-3.63857E-15
 -1      3618 2.24129E-03 3.31955E-04-4.36051E-15
 -1      3619 1.40443E-02 4.68292E-04-1.20039E-13
 -1      3620 9.96645E-03-3.82769E-04-7.53574E-14
 -1      3621 1.13547E-03-2.77039E-05-1.37557E-15
 -1      3622 9.11400E-03 8.47701E-05-7.14657E-14
 -1      3623 9.10536E-03 1.06598E-04-7.21283E-14
 -1      3624 9.03627E-03 1.07106E-04-7.08319E-14
 -1      3625 1.32993E-02 3.72508E-06-1.14451E-13
 -1      3626 1.31363E-02-4.47865E-05-1.12333E-13
 -1      3627 1.46270E-03-2.22469E-04-1.98111E-15
 -1      3628 1.35548E-02-2.16701E-05-1.20524E-13
 -1      3629 1.36877E-02 8.95550E-06-1.22607E-13
 -1      3630 1.37519E-02 4.52070E-05-1.22973E-13
 -1      3631 1.35451E-02 1.15603E-05-1.19427E-13
 -1      3632 2.46285E-03 3.75595E-04-5.14585E-15
 -1      3633 2.81715E-03 3.45348E-04-6.72358E-15
 -1      3634 2.67327E-03 3.43194E-04-6.08473E-15
 -1      3635 2.88515E-03 3.08686E-04-7.09201E-15
 -1      3636 3.74873E-03 3.10823E-04-1.17073E-14
 -1      3637 3.67900E-03 3.48663E-04-1.12406E-14
 -1      3638 3.53553E-03 3.48920E-04-1.04060E-14
 -1      3639 9.53439E-03-1.51371E-04-7.23022E-14
 -1      3640 9.52457E-03-9.89202E-05-7.30749E-14
 -1      3641 9.41529E-03-6.97218E-05-7.20704E-14
 -1      3642 1.68358E-03 3.05497E-04-2.55934E-15
 -1      3643 1.55813E-03 2.98903E-04-2.21615E-15
 -1      3644 1.74896E-03 2.76139E-04-2.79189E-15
 -1      3645 1.39009E-02 2.74004E-04-1.17968E-13
 -1      3646 8.99536E-03 1.28280E-04-7.02380E-14
 -1      3647 9.02727E-03 1.40583E-04-7.08547E-14
 -1      3648 8.99063E-03 1.47640E-04-6.96030E-14
 -1      3649 1.41587E-02 6.00608E-04-1.25410E-13
 -1      3650 1.14340E-03-2.15277E-04-1.25227E-15
 -1      3651 1.41740E-02 3.48239E-04-1.21262E-13
 -1      3652 1.42810E-02 4.40830E-04-1.23582E-13
 -1      3653 1.42467E-02 4.69820E-04-1.23662E-13
 -1      3654 1.41135E-02 3.48625E-04-1.19584E-13
 -1      3655 1.38590E-02 5.78497E-04-1.19905E-13
 -1      3656 1.37089E-02 5.84372E-04-1.17508E-13
 -1      3657 3.39199E-03 3.48920E-04-9.60439E-15
 -1      3658 3.24839E-03 3.48634E-04-8.83617E-15
 -1      3659 3.17336E-03 3.10703E-04-8.50067E-15
 -1      3660 3.46122E-03 3.11273E-04-1.00385E-14
 -1      3661 1.78432E-03-2.41347E-04-2.84291E-15
 -1      3662 1.38167E-02 8.05660E-05-1.23335E-13
 -1      3663 1.25755E-03 4.78665E-05-1.64983E-15
 -1      3664 1.25682E-03 1.67902E-05-1.64833E-15
 -1      3665 1.41397E-02 5.12850E-04-1.22976E-13
 -1      3666 1.40719E-02 5.59105E-04-1.23001E-13
 -1      3667 1.25901E-03 7.90268E-05-1.64803E-15
 -1      3668 1.38073E-03 6.71139E-05-1.93873E-15
 -1      3669 1.26120E-03 1.10522E-04-1.64266E-15
 -1      3670 1.21646E-03-1.93057E-04-1.43475E-15
 -1      3671 1.37322E-02 8.59079E-05-1.21308E-13
 -1      3672 1.38971E-02 1.33176E-04-1.23445E-13
 -1      3673 1.39779E-02 1.82887E-04-1.23554E-13
 -1      3674 1.20847E-03-1.29200E-04-1.47821E-15
 -1      3675 1.21199E-03-1.60775E-04-1.45837E-15
 -1      3676 1.28109E-03-1.75944E-04-1.59782E-15
 -1      3677 9.83158E-03-2.98041E-04-7.44259E-14
 -1      3678 1.26819E-03 1.75326E-04-1.62176E-15
 -1      3679 1.26425E-03 1.42597E-04-1.63403E-15
 -1      3680 1.38547E-03 1.33846E-04-1.92739E-15
 -1      3681 1.39387E-03 2.02667E-04-1.90009E-15
 -1      3682 1.32614E-03 2.85667E-04-1.64189E-15
 -1      3683 1.44606E-03 2.81048E-04-1.94521E-15
 -1      3684 2.57557E-03-2.30846E-04-5.67065E-15
 -1      3685 2.72044E-03-2.32742E-04-6.28133E-15
 -1      3686 2.86525E-03-2.34157E-04-6.92390E-15
 -1      3687 3.00998E-03-2.35138E-04-7.59859E-15
 -1      3688 2.78998E-03-1.95949E-04-6.64222E-15
 -1      3689 3.15460E-03-2.35775E-04-8.30465E-15
 -1      3690 3.29912E-03-2.36102E-04-9.04261E-15
 -1      3691 3.07989E-03-1.97670E-04-7.99455E-15
 -1      3692 3.44351E-03-2.36187E-04-9.81256E-15
 -1      3693 3.58778E-03-2.36052E-04-1.06136E-14
 -1      3694 3.36936E-03-1.98255E-04-9.47399E-15
 -1      3695 3.73193E-03-2.35747E-04-1.14470E-14
 -1      3696 3.87594E-03-2.35282E-04-1.23127E-14
 -1      3697 3.65829E-03-1.98035E-04-1.10799E-14
 -1      3698 4.01983E-03-2.34694E-04-1.32105E-14
 -1      3699 4.16358E-03-2.33984E-04-1.41399E-14
 -1      3700 3.94665E-03-1.97240E-04-1.28143E-14
 -1      3701 4.30721E-03-2.33176E-04-1.51021E-14
 -1      3702 4.45071E-03-2.32267E-04-1.60957E-14
 -1      3703 4.23442E-03-1.96017E-04-1.46765E-14
 -1      3704 4.59408E-03-2.31271E-04-1.71210E-14
 -1      3705 4.73732E-03-2.30178E-04-1.81796E-14
 -1      3706 4.52160E-03-1.94444E-04-1.66666E-14
 -1      3707 4.88042E-03-2.28996E-04-1.92704E-14
 -1      3708 5.02337E-03-2.27712E-04-2.03932E-14
 -1      3709 4.80816E-03-1.92549E-04-1.87853E-14
 -1      3710 5.16618E-03-2.26329E-04-2.15484E-14
 -1      3711 5.30883E-03-2.24831E-04-2.27365E-14
 -1      3712 5.09407E-03-1.90319E-04-2.10334E-14
 -1      3713 5.45131E-03-2.23218E-04-2.39572E-14
 -1      3714 5.59361E-03-2.21471E-04-2.52092E-14
 -1      3715 5.37925E-03-1.87711E-04-2.34115E-14
 -1      3716 5.73571E-03-2.19591E-04-2.64935E-14
 -1      3717 5.87760E-03-2.17555E-04-2.78096E-14
 -1      3718 5.66360E-03-1.84662E-04-2.59185E-14
 -1      3719 6.01925E-03-2.15366E-04-2.91581E-14
 -1      3720 6.16065E-03-2.13002E-04-3.05369E-14
 -1      3721 5.94697E-03-1.81096E-04-2.85530E-14
 -1      3722 6.30177E-03-2.10471E-04-3.19465E-14
 -1      3723 6.44261E-03-2.07748E-04-3.33865E-14
 -1      3724 6.22919E-03-1.76935E-04-3.13132E-14
 -1      3725 6.58311E-03-2.04850E-04-3.48570E-14
 -1      3726 6.72328E-03-2.01752E-04-3.63563E-14
 -1      3727 6.51002E-03-1.72106E-04-3.41944E-14
 -1      3728 6.86308E-03-1.98484E-04-3.78833E-14
 -1      3729 7.00250E-03-1.95023E-04-3.94395E-14
 -1      3730 6.78924E-03-1.66555E-04-3.71949E-14
 -1      3731 7.14151E-03-1.91411E-04-4.10254E-14
 -1      3732 7.28014E-03-1.87633E-04-4.26386E-14
 -1      3733 7.06661E-03-1.60260E-04-4.03100E-14
 -1      3734 7.41834E-03-1.83747E-04-4.42784E-14
 -1      3735 7.55619E-03-1.79751E-04-4.59452E-14
 -1      3736 7.34192E-03-1.53238E-04-4.35370E-14
 -1      3737 7.69364E-03-1.75717E-04-4.76381E-14
 -1      3738 7.83083E-03-1.71669E-04-4.93571E-14
 -1      3739 7.61509E-03-1.45567E-04-4.68701E-14
 -1      3740 7.96775E-03-1.67690E-04-5.11034E-14
 -1      3741 8.10462E-03-1.63854E-04-5.28756E-14
 -1      3742 7.88620E-03-1.37403E-04-5.03097E-14
 -1      3743 8.24147E-03-1.60245E-04-5.46710E-14
 -1      3744 8.37867E-03-1.57044E-04-5.64913E-14
 -1      3745 8.15568E-03-1.29015E-04-5.38526E-14
 -1      3746 8.51633E-03-1.54330E-04-5.83380E-14
 -1      3747 8.65503E-03-1.52475E-04-6.02082E-14
 -1      3748 8.42453E-03-1.20884E-04-5.74966E-14
 -1      3749 8.79499E-03-1.51540E-04-6.21012E-14
 -1      3750 8.93716E-03-1.52322E-04-6.40180E-14
 -1      3751 8.69468E-03-1.13921E-04-6.12374E-14
 -1      3752 9.08193E-03-1.54883E-04-6.59559E-14
 -1      3753 9.23067E-03-1.60806E-04-6.79160E-14
 -1      3754 8.96966E-03-1.10037E-04-6.50694E-14
 -1      3755 1.34609E-02 4.32927E-05-1.16778E-13
 -1      3756 1.45754E-03-1.86830E-04-2.01147E-15
 -1      3757 1.36313E-02 7.25071E-05-1.19538E-13
 -1      3758 1.70756E-03-2.03557E-04-2.66894E-15
 -1      3759 1.85176E-03-2.10530E-04-3.09052E-15
 -1      3760 5.25158E-03 2.62422E-04-2.26324E-14
 -1      3761 5.10884E-03 2.63958E-04-2.14406E-14
 -1      3762 4.96596E-03 2.65374E-04-2.02812E-14
 -1      3763 4.82296E-03 2.66685E-04-1.91538E-14
 -1      3764 5.03658E-03 2.27879E-04-2.08704E-14
 -1      3765 5.82098E-03 2.54966E-04-2.77208E-14
 -1      3766 5.67890E-03 2.57047E-04-2.64009E-14
 -1      3767 6.10446E-03 2.50339E-04-3.04542E-14
 -1      3768 5.96284E-03 2.52736E-04-2.90727E-14
 -1      3769 5.89037E-03 2.18366E-04-2.83974E-14
 -1      3770 6.38683E-03 2.45067E-04-3.33080E-14
 -1      3771 6.24580E-03 2.47789E-04-3.18662E-14
 -1      3772 6.17300E-03 2.14180E-04-3.11587E-14
 -1      3773 6.66780E-03 2.39178E-04-3.62767E-14
 -1      3774 6.52751E-03 2.42202E-04-3.47777E-14
 -1      3775 6.45421E-03 2.09456E-04-3.40386E-14
 -1      3776 6.94697E-03 2.32789E-04-3.93605E-14
 -1      3777 6.80763E-03 2.36045E-04-3.78047E-14
 -1      3778 6.73363E-03 2.04252E-04-3.70349E-14
 -1      3779 7.22386E-03 2.26141E-04-4.25571E-14
 -1      3780 7.08572E-03 2.29492E-04-4.09452E-14
 -1      3781 7.01079E-03 1.98714E-04-4.01453E-14
 -1      3782 7.49789E-03 2.19637E-04-4.58603E-14
 -1      3783 7.36125E-03 2.22859E-04-4.41950E-14
 -1      3784 7.28509E-03 1.93110E-04-4.33667E-14
 -1      3785 7.76842E-03 2.13868E-04-4.92714E-14
 -1      3786 7.63361E-03 2.16643E-04-4.75523E-14
 -1      3787 7.55583E-03 1.87854E-04-4.66948E-14
 -1      3788 8.03472E-03 2.09631E-04-5.27861E-14
 -1      3789 7.90210E-03 2.11536E-04-5.10173E-14
 -1      3790 7.82218E-03 1.83522E-04-5.01293E-14
 -1      3791 8.29611E-03 2.07902E-04-5.64042E-14
 -1      3792 8.16601E-03 2.08428E-04-5.45812E-14
 -1      3793 8.08319E-03 1.80831E-04-5.36688E-14
 -1      3794 8.55212E-03 2.09817E-04-6.01213E-14
 -1      3795 8.42471E-03 2.08381E-04-5.82504E-14
 -1      3796 8.33778E-03 1.80594E-04-5.73076E-14
 -1      3797 8.80276E-03 2.16570E-04-6.39358E-14
 -1      3798 8.67791E-03 2.12550E-04-6.20169E-14
 -1      3799 8.58484E-03 1.83623E-04-6.10482E-14
 -1      3800 9.26058E-03 2.55348E-04-7.09853E-14
 -1      3801 9.69627E-03 3.79690E-04-7.56552E-14
 -1      3802 1.43039E-02 4.15416E-04-1.23566E-13
 -1      3803 4.10624E-03 2.71679E-04-1.40056E-14
 -1      3804 3.96257E-03 2.72351E-04-1.30740E-14
 -1      3805 1.41254E-02 2.65734E-04-1.23787E-13
 -1      3806 1.40513E-02 2.72120E-04-1.21757E-13
 -1      3807 9.81473E-03 4.50200E-04-7.59400E-14
 -1      3808 1.39830E-02 2.72658E-04-1.20082E-13
 -1      3809 1.38763E-02 2.28607E-04-1.19565E-13
 -1      3810 1.51130E-03 2.54970E-04-2.14757E-15
 -1      3811 1.40495E-02 2.23626E-04-1.23685E-13
 -1      3812 1.36571E-02 1.19902E-04-1.18650E-13
 -1      3813 9.13309E-03 2.31586E-04-6.93526E-14
 -1      3814 1.38950E-02 1.87155E-04-1.21550E-13
 -1      3815 1.39851E-02 5.67557E-04-1.21761E-13
 -1      3816 2.52932E-03 3.40316E-04-5.47788E-15
 -1      3817 2.38533E-03 3.36632E-04-4.90287E-15
 -1      3818 2.30790E-03 2.97722E-04-4.66124E-15
 -1      3819 1.25677E-03-1.41546E-05-1.64375E-15
 -1      3820 1.25742E-03-4.51501E-05-1.63614E-15
 -1      3821 1.37914E-03 1.42628E-06-1.93546E-15
 -1      3822 1.99624E-03-2.16401E-04-3.54325E-15
 -1      3823 2.14095E-03-2.21239E-04-4.02776E-15
 -1      3824 1.92006E-03-1.78815E-04-3.34388E-15
 -1      3825 5.53663E-03 2.58974E-04-2.51129E-14
 -1      3826 5.39418E-03 2.60766E-04-2.38562E-14
 -1      3827 5.60662E-03 2.22017E-04-2.57605E-14
 -1      3828 1.37426E-02 1.70816E-04-1.18781E-13
 -1      3829 2.28578E-03-2.25195E-04-4.54385E-15
 -1      3830 2.43067E-03-2.28352E-04-5.09164E-15
 -1      3831 2.49981E-03-1.92643E-04-5.41693E-15
 -1      3832 2.20967E-03-1.87168E-04-4.31763E-15
 -1      3833 1.25878E-03-7.62778E-05-1.62519E-15
 -1      3834 1.26088E-03-1.07717E-04-1.61103E-15
 -1      3835 1.38054E-03-6.42282E-05-1.91798E-15
 -1      3836 1.50511E-03 2.18223E-04-2.17034E-15
 -1      3837 1.50006E-03 1.82088E-04-2.18829E-15
 -1      3838 1.61680E-03 2.33296E-04-2.45881E-15
 -1      3839 2.08615E-03 2.54144E-04-3.90839E-15
 -1      3840 1.94164E-03 2.48221E-04-3.42810E-15
 -1      3841 9.26591E-03-1.12584E-04-6.91493E-14
 -1      3842 9.39507E-03-1.69651E-04-7.00591E-14
 -1      3843 9.55521E-03-1.86124E-04-7.20643E-14
 -1      3844 9.10596E-03 5.70989E-05-7.04989E-14
 -1      3845 5.32197E-03 2.25171E-04-2.32509E-14
 -1      3846 1.52531E-03-1.59885E-04-2.21536E-15
 -1      3847 2.95384E-03 2.71710E-04-7.46227E-15
 -1      3848 2.80933E-03 2.70373E-04-6.78995E-15
 -1      3849 3.81879E-03 2.72883E-04-1.21749E-14
 -1      3850 3.67490E-03 2.73268E-04-1.13079E-14
 -1      3851 3.88917E-03 2.34896E-04-1.26433E-14
 -1      3852 4.75055E-03 2.30191E-04-1.86192E-14
 -1      3853 4.67983E-03 2.67887E-04-1.80586E-14
 -1      3854 4.53660E-03 2.68992E-04-1.69970E-14
 -1      3855 9.04916E-03 2.29678E-04-6.78404E-14
 -1      3856 8.92607E-03 2.22200E-04-6.58757E-14
 -1      3857 1.74264E-03 2.37302E-04-2.81851E-15
 -1      3858 8.95466E-03 9.47875E-05-6.89360E-14
 -1      3859 8.97029E-03 1.12249E-04-6.95872E-14
 -1      3860 8.91281E-03 1.17766E-04-6.83476E-14
 -1      3861 4.24980E-03 2.70892E-04-1.49700E-14
 -1      3862 4.17682E-03 2.33722E-04-1.45048E-14
 -1      3863 4.39325E-03 2.69992E-04-1.59672E-14
 -1      3864 9.66584E-03-2.23845E-04-7.30649E-14
 -1      3865 1.81001E-03 2.06954E-04-3.05210E-15
 -1      3866 3.09826E-03 2.72635E-04-8.16712E-15
 -1      3867 3.02315E-03 2.34477E-04-7.83554E-15
 -1      3868 3.24258E-03 2.73192E-04-8.90412E-15
 -1      3869 9.01825E-03 1.96034E-04-6.83339E-14
 -1      3870 1.40597E-02 3.09612E-04-1.20153E-13
 -1      3871 2.59663E-03 3.04626E-04-5.81222E-15
 -1      3872 1.50251E-03 1.87200E-05-2.25049E-15
 -1      3873 1.50246E-03-1.57299E-05-2.24465E-15
 -1      3874 9.29189E-03-7.95207E-05-7.01061E-14
 -1      3875 9.28118E-03-3.31664E-05-7.08645E-14
 -1      3876 9.18531E-03-1.53842E-05-6.98651E-14
 -1      3877 9.14040E-03-7.90004E-05-6.79652E-14
 -1      3878 8.97430E-03 1.61166E-04-6.87010E-14
 -1      3879 8.99451E-03 1.77364E-04-6.85195E-14
 -1      3880 8.91934E-03 1.77158E-04-6.70176E-14
 -1      3881 8.82335E-03 1.90571E-04-6.48822E-14
 -1      3882 1.50498E-03 8.77598E-05-2.25041E-15
 -1      3883 1.50334E-03 5.31548E-05-2.25244E-15
 -1      3884 1.62676E-03 3.74129E-05-2.58838E-15
 -1      3885 1.32948E-03-1.20738E-04-1.76015E-15
 -1      3886 8.92381E-03 1.45994E-04-6.80964E-14
 -1      3887 2.23076E-03 2.59019E-04-4.42092E-15
 -1      3888 2.15402E-03 2.20653E-04-4.18261E-15
 -1      3889 2.37542E-03 2.62951E-04-4.96531E-15
 -1      3890 1.50320E-03-5.01609E-05-2.23481E-15
 -1      3891 1.50473E-03-8.47648E-05-2.22106E-15
 -1      3892 1.62666E-03-3.42974E-05-2.57531E-15
 -1      3893 9.06322E-03 2.46837E-05-6.89545E-14
 -1      3894 8.98666E-03 5.92981E-05-6.86361E-14
 -1      3895 3.00534E-03-1.59546E-04-7.68545E-15
 -1      3896 3.15038E-03-1.59991E-04-8.39498E-15
 -1      3897 3.29529E-03-1.60232E-04-9.13565E-15
 -1      3898 3.44006E-03-1.60282E-04-9.90859E-15
 -1      3899 3.22138E-03-1.22157E-04-8.79886E-15
 -1      3900 3.58469E-03-1.60190E-04-1.07135E-14
 -1      3901 3.72917E-03-1.59961E-04-1.15497E-14
 -1      3902 3.51119E-03-1.22237E-04-1.03468E-14
 -1      3903 3.87348E-03-1.59631E-04-1.24178E-14
 -1      3904 4.01764E-03-1.59199E-04-1.33184E-14
 -1      3905 3.80038E-03-1.21880E-04-1.20224E-14
 -1      3906 4.16164E-03-1.58691E-04-1.42511E-14
 -1      3907 4.30547E-03-1.58101E-04-1.52160E-14
 -1      3908 4.08889E-03-1.21202E-04-1.38259E-14
 -1      3909 4.44913E-03-1.57447E-04-1.62120E-14
 -1      3910 4.59262E-03-1.56720E-04-1.72399E-14
 -1      3911 4.37669E-03-1.20276E-04-1.57575E-14
 -1      3912 4.73594E-03-1.55932E-04-1.83003E-14
 -1      3913 4.87908E-03-1.55069E-04-1.93935E-14
 -1      3914 4.66376E-03-1.19132E-04-1.78169E-14
 -1      3915 5.02203E-03-1.54140E-04-2.05190E-14
 -1      3916 5.16479E-03-1.53129E-04-2.16764E-14
 -1      3917 4.95007E-03-1.17772E-04-2.00046E-14
 -1      3918 5.30733E-03-1.52040E-04-2.28669E-14
 -1      3919 5.44964E-03-1.50855E-04-2.40895E-14
 -1      3920 5.23552E-03-1.16173E-04-2.23226E-14
 -1      3921 5.59171E-03-1.49578E-04-2.53436E-14
 -1      3922 5.73352E-03-1.48186E-04-2.66301E-14
 -1      3923 5.52001E-03-1.14293E-04-2.47700E-14
 -1      3924 5.87503E-03-1.46685E-04-2.79486E-14
 -1      3925 6.01623E-03-1.45049E-04-2.92986E-14
 -1      3926 5.80338E-03-1.12072E-04-2.73452E-14
 -1      3927 6.15708E-03-1.43285E-04-3.06795E-14
 -1      3928 6.29755E-03-1.41364E-04-3.20910E-14
 -1      3929 6.08540E-03-1.09441E-04-3.00466E-14
 -1      3930 6.43761E-03-1.39298E-04-3.35331E-14
 -1      3931 6.57723E-03-1.37053E-04-3.50051E-14
 -1      3932 6.36582E-03-1.06319E-04-3.28719E-14
 -1      3933 6.71634E-03-1.34648E-04-3.65065E-14
 -1      3934 6.85494E-03-1.32042E-04-3.80348E-14
 -1      3935 6.64431E-03-1.02619E-04-3.58169E-14
 -1      3936 6.99296E-03-1.29266E-04-3.95931E-14
 -1      3937 7.13040E-03-1.26272E-04-4.11811E-14
 -1      3938 6.92050E-03-9.82425E-05-3.88778E-14
 -1      3939 7.26717E-03-1.23099E-04-4.27945E-14
 -1      3940 7.40330E-03-1.19697E-04-4.44351E-14
 -1      3941 7.19401E-03-9.30876E-05-4.20519E-14
 -1      3942 7.53871E-03-1.16114E-04-4.61038E-14
 -1      3943 7.67345E-03-1.12296E-04-4.77965E-14
 -1      3944 7.46444E-03-8.70393E-05-4.53356E-14
 -1      3945 7.80743E-03-1.08300E-04-4.95156E-14
 -1      3946 7.94078E-03-1.04079E-04-5.12623E-14
 -1      3947 7.73144E-03-7.99683E-05-4.87241E-14
 -1      3948 8.07340E-03-9.96927E-05-5.30356E-14
 -1      3949 8.20552E-03-9.51124E-05-5.48322E-14
 -1      3950 7.99475E-03-7.17316E-05-5.22167E-14
 -1      3951 8.33704E-03-9.03879E-05-5.66536E-14
 -1      3952 8.46839E-03-8.55865E-05-5.85018E-14
 -1      3953 8.25430E-03-6.21695E-05-5.58133E-14
 -1      3954 8.59948E-03-8.07587E-05-6.03718E-14
 -1      3955 8.73103E-03-7.61105E-05-6.22656E-14
 -1      3956 8.51037E-03-5.11839E-05-5.95062E-14
 -1      3957 8.86520E-03-7.73522E-05-6.41264E-14
 -1      3958 8.99976E-03-7.42456E-05-6.60627E-14
 -1      3959 9.02880E-03-4.41580E-05-6.70025E-14
 -1      3960 8.76575E-03-4.41033E-05-6.32395E-14
 -1      3961 6.52135E-03 1.74505E-04-3.47692E-14
 -1      3962 6.38157E-03 1.76585E-04-3.33014E-14
 -1      3963 5.10721E-03 1.90569E-04-2.14594E-14
 -1      3964 4.96436E-03 1.91639E-04-2.03030E-14
 -1      3965 8.79705E-03 1.55305E-04-6.52480E-14
 -1      3966 8.80883E-03 1.72108E-04-6.50662E-14
 -1      3967 8.69487E-03 1.68364E-04-6.31372E-14
 -1      3968 6.24133E-03 1.78554E-04-3.18627E-14
 -1      3969 6.10065E-03 1.80432E-04-3.04532E-14
 -1      3970 6.30952E-03 1.43488E-04-3.25666E-14
 -1      3971 5.95960E-03 1.82190E-04-2.90737E-14
 -1      3972 5.81820E-03 1.83849E-04-2.77252E-14
 -1      3973 6.02871E-03 1.46467E-04-2.97497E-14
 -1      3974 6.79921E-03 1.70130E-04-3.77930E-14
 -1      3975 6.66057E-03 1.72361E-04-3.62666E-14
 -1      3976 6.58834E-03 1.40238E-04-3.55003E-14
 -1      3977 7.07435E-03 1.65605E-04-4.09304E-14
 -1      3978 6.93715E-03 1.67886E-04-3.93480E-14
 -1      3979 6.86467E-03 1.36830E-04-3.85512E-14
 -1      3980 7.34611E-03 1.61218E-04-4.41761E-14
 -1      3981 7.21069E-03 1.63391E-04-4.25397E-14
 -1      3982 7.13786E-03 1.33468E-04-4.17144E-14
 -1      3983 7.61364E-03 1.57395E-04-4.75288E-14
 -1      3984 7.48044E-03 1.59233E-04-4.58396E-14
 -1      3985 7.40717E-03 1.30461E-04-4.49862E-14
 -1      3986 7.87594E-03 1.54693E-04-5.09892E-14
 -1      3987 7.74549E-03 1.55904E-04-4.92457E-14
 -1      3988 7.67165E-03 1.28242E-04-4.83638E-14
 -1      3989 8.13180E-03 1.53762E-04-5.45480E-14
 -1      3990 8.00474E-03 1.54020E-04-5.27554E-14
 -1      3991 7.93014E-03 1.27357E-04-5.18447E-14
 -1      3992 8.37974E-03 1.55261E-04-5.82123E-14
 -1      3993 8.25682E-03 1.54241E-04-5.63678E-14
 -1      3994 8.18112E-03 1.28395E-04-5.54294E-14
 -1      3995 8.59805E-03 1.62403E-04-6.16006E-14
 -1      3996 8.47931E-03 1.60069E-04-5.97117E-14
 -1      3997 8.40129E-03 1.34617E-04-5.87506E-14
 -1      3998 8.59325E-03 1.45299E-04-6.17784E-14
 -1      3999 2.73359E-03 2.32052E-04-6.49012E-15
 -1      4000 2.66474E-03 2.68520E-04-6.14987E-15
 -1      4001 2.52010E-03 2.66089E-04-5.54153E-15
 -1      4002 5.39230E-03 1.88171E-04-2.38697E-14
 -1      4003 5.24986E-03 1.89418E-04-2.26482E-14
 -1      4004 5.17784E-03 1.53478E-04-2.20481E-14
 -1      4005 3.53090E-03 2.73466E-04-1.04734E-14
 -1      4006 3.38680E-03 2.73460E-04-9.67228E-15
 -1      4007 3.31231E-03 2.35508E-04-9.30844E-15
 -1      4008 3.60099E-03 2.35553E-04-1.09107E-14
 -1      4009 1.50342E-03 1.52323E-04-2.21767E-15
 -1      4010 1.50019E-03 1.17075E-04-2.22728E-15
 -1      4011 1.62292E-03 1.03827E-04-2.56568E-15
 -1      4012 1.61460E-03 1.65072E-04-2.51104E-15
 -1      4013 1.81317E-03 1.74563E-04-3.08774E-15
 -1      4014 5.67650E-03 1.85390E-04-2.64085E-14
 -1      4015 5.53452E-03 1.86834E-04-2.51235E-14
 -1      4016 5.46259E-03 1.51456E-04-2.44889E-14
 -1      4017 2.71498E-03-1.57835E-04-6.36199E-15
 -1      4018 2.86020E-03-1.58834E-04-7.00782E-15
 -1      4019 2.93102E-03-1.21454E-04-7.37752E-15
 -1      4020 1.84463E-03-1.42085E-04-3.14611E-15
 -1      4021 1.98922E-03-1.46224E-04-3.60352E-15
 -1      4022 8.85543E-03 1.26579E-04-6.70195E-14
 -1      4023 8.82491E-03 1.39778E-04-6.61324E-14
 -1      4024 8.72012E-03 1.34985E-04-6.41928E-14
 -1      4025 1.75088E-03-1.69332E-05-2.93916E-15
 -1      4026 1.75166E-03-5.40998E-05-2.92725E-15
 -1      4027 9.04304E-03-4.05711E-06-6.80117E-14
 -1      4028 2.44378E-03 2.27680E-04-5.27273E-15
 -1      4029 5.74630E-03 1.49126E-04-2.70560E-14
 -1      4030 4.89219E-03 1.55216E-04-1.97387E-14
 -1      4031 4.82134E-03 1.92622E-04-1.91795E-14
 -1      4032 4.67815E-03 1.93531E-04-1.80875E-14
 -1      4033 3.95985E-03 1.96880E-04-1.31117E-14
 -1      4034 3.81574E-03 1.97280E-04-1.22140E-14
 -1      4035 2.80315E-03 1.95235E-04-6.83320E-15
 -1      4036 2.65807E-03 1.93810E-04-6.19253E-15
 -1      4037 1.75180E-03 5.73655E-05-2.94912E-15
 -1      4038 1.75092E-03 2.01882E-05-2.94650E-15
 -1      4039 1.87575E-03 1.68266E-06-3.32622E-15
 -1      4040 8.90002E-03 6.89482E-05-6.74108E-14
 -1      4041 4.46396E-03 2.32138E-04-1.64972E-14
 -1      4042 1.57798E-03-1.34330E-04-2.38007E-15
 -1      4043 1.97533E-03 1.68074E-04-3.61028E-15
 -1      4044 1.78017E-03 1.28634E-04-3.01389E-15
 -1      4045 2.26520E-03 1.75399E-04-4.62578E-15
 -1      4046 2.12017E-03 1.72112E-04-4.10228E-15
 -1      4047 2.08747E-03 1.24118E-04-4.01464E-15
 -1      4048 4.24762E-03 1.95789E-04-1.50048E-14
 -1      4049 4.10381E-03 1.96384E-04-1.40423E-14
 -1      4050 4.03080E-03 1.58881E-04-1.35818E-14
 -1      4051 8.81848E-03 1.09973E-04-6.63835E-14
 -1      4052 3.09307E-03 1.97002E-04-8.21058E-15
 -1      4053 2.94816E-03 1.96286E-04-7.50567E-15
 -1      4054 2.87335E-03 1.58119E-04-7.17891E-15
 -1      4055 2.56971E-03-1.56472E-04-5.74707E-15
 -1      4056 2.64030E-03-1.19889E-04-6.08210E-15
 -1      4057 2.42444E-03-1.54706E-04-5.16410E-15
 -1      4058 2.13412E-03-1.49655E-04-4.09236E-15
 -1      4059 2.27922E-03-1.52454E-04-4.61271E-15
 -1      4060 2.05920E-03-1.12775E-04-3.86873E-15
 -1      4061 1.70086E-03-1.20698E-04-2.73537E-15
 -1      4062 8.91706E-03-6.15197E-06-6.61097E-14
 -1      4063 5.53288E-03 1.15049E-04-2.51068E-14
 -1      4064 5.39083E-03 1.15869E-04-2.38560E-14
 -1      4065 3.43787E-03-8.42090E-05-9.98140E-15
 -1      4066 3.58271E-03-8.41406E-05-1.07888E-14
 -1      4067 3.72739E-03-8.40090E-05-1.16272E-14
 -1      4068 3.87190E-03-8.38105E-05-1.24982E-14
 -1      4069 3.65457E-03-4.60366E-05-1.12330E-14
 -1      4070 4.01622E-03-8.35661E-05-1.34020E-14
 -1      4071 4.16036E-03-8.32698E-05-1.43370E-14
 -1      4072 3.94368E-03-4.57914E-05-1.29780E-14
 -1      4073 4.30432E-03-8.29371E-05-1.53038E-14
 -1      4074 4.44808E-03-8.25604E-05-1.63027E-14
 -1      4075 4.23204E-03-4.54346E-05-1.48500E-14
 -1      4076 4.59165E-03-8.21511E-05-1.73336E-14
 -1      4077 4.73502E-03-8.16975E-05-1.83969E-14
 -1      4078 4.51962E-03-4.49868E-05-1.68510E-14
 -1      4079 4.87818E-03-8.12097E-05-1.94924E-14
 -1      4080 5.02113E-03-8.06754E-05-2.06197E-14
 -1      4081 4.80639E-03-4.44436E-05-1.89802E-14
 -1      4082 5.16383E-03-8.01003E-05-2.17801E-14
 -1      4083 5.30630E-03-7.94703E-05-2.29731E-14
 -1      4084 5.09226E-03-4.38037E-05-2.12378E-14
 -1      4085 5.44849E-03-7.87900E-05-2.41973E-14
 -1      4086 5.59040E-03-7.80426E-05-2.54538E-14
 -1      4087 5.37713E-03-4.30425E-05-2.36252E-14
 -1      4088 5.73200E-03-7.72323E-05-2.67430E-14
 -1      4089 5.87325E-03-7.63388E-05-2.80632E-14
 -1      4090 5.66085E-03-4.21257E-05-2.61415E-14
 -1      4091 6.01413E-03-7.53669E-05-2.94158E-14
 -1      4092 6.15459E-03-7.42914E-05-3.07984E-14
 -1      4093 5.94318E-03-4.10058E-05-2.87842E-14
 -1      4094 6.29460E-03-7.31191E-05-3.22125E-14
 -1      4095 6.43411E-03-7.18182E-05-3.36564E-14
 -1      4096 6.22386E-03-3.96185E-05-3.15534E-14
 -1      4097 6.57307E-03-7.03981E-05-3.51297E-14
 -1      4098 6.71143E-03-6.88192E-05-3.66316E-14
 -1      4099 6.50251E-03-3.78787E-05-3.44429E-14
 -1      4100 6.84913E-03-6.70942E-05-3.81634E-14
 -1      4101 6.98612E-03-6.51733E-05-3.97240E-14
 -1      4102 6.77871E-03-3.56734E-05-3.74493E-14
 -1      4103 7.12233E-03-6.30728E-05-4.13115E-14
 -1      4104 7.25771E-03-6.07310E-05-4.29268E-14
 -1      4105 7.05196E-03-3.28535E-05-4.05719E-14
 -1      4106 7.39216E-03-5.81674E-05-4.45683E-14
 -1      4107 7.52567E-03-5.53062E-05-4.62374E-14
 -1      4108 7.32169E-03-2.92222E-05-4.38025E-14
 -1      4109 7.65811E-03-5.21691E-05-4.79326E-14
 -1      4110 7.78949E-03-4.86650E-05-4.96527E-14
 -1      4111 7.58723E-03-2.45214E-05-4.71392E-14
 -1      4112 7.91964E-03-4.48160E-05-5.13985E-14
 -1      4113 8.04865E-03-4.05215E-05-5.31720E-14
 -1      4114 7.84788E-03-1.84172E-05-5.05818E-14
 -1      4115 8.17626E-03-3.58154E-05-5.49712E-14
 -1      4116 8.30266E-03-3.05314E-05-5.67938E-14
 -1      4117 8.10281E-03-1.04967E-05-5.41281E-14
 -1      4118 8.42745E-03-2.47089E-05-5.86417E-14
 -1      4119 8.55114E-03-1.82608E-05-6.05133E-14
 -1      4120 8.35095E-03-2.38495E-07-5.77760E-14
 -1      4121 5.81607E-03 1.13244E-04-2.77038E-14
 -1      4122 5.67464E-03 1.14179E-04-2.63904E-14
 -1      4123 5.60320E-03 7.89700E-05-2.57260E-14
 -1      4124 6.37772E-03 1.08995E-04-3.32701E-14
 -1      4125 6.23801E-03 1.10134E-04-3.18332E-14
 -1      4126 1.78489E-03 9.67711E-05-3.04070E-15
 -1      4127 6.09780E-03 1.11216E-04-3.04267E-14
 -1      4128 5.95714E-03 1.12263E-04-2.90501E-14
 -1      4129 6.16694E-03 7.64526E-05-3.11024E-14
 -1      4130 7.20167E-03 1.02260E-04-4.24974E-14
 -1      4131 7.06644E-03 1.03269E-04-4.08894E-14
 -1      4132 7.46875E-03 1.00759E-04-4.57939E-14
 -1      4133 7.33580E-03 1.01440E-04-4.41331E-14
 -1      4134 7.26600E-03 7.19567E-05-4.32814E-14
 -1      4135 7.73051E-03 1.00270E-04-4.91976E-14
 -1      4136 7.60036E-03 1.00394E-04-4.74819E-14
 -1      4137 7.53117E-03 7.20680E-05-4.66031E-14
 -1      4138 7.98563E-03 1.01335E-04-5.27006E-14
 -1      4139 7.85898E-03 1.00626E-04-5.09364E-14
 -1      4140 7.79063E-03 7.34154E-05-5.00280E-14
 -1      4141 8.23241E-03 1.04519E-04-5.63101E-14
 -1      4142 8.11018E-03 1.02720E-04-5.44919E-14
 -1      4143 8.04301E-03 7.65477E-05-5.35574E-14
 -1      4144 2.85703E-03-8.34678E-05-7.06980E-15
 -1      4145 3.00241E-03-8.38336E-05-7.75043E-15
 -1      4146 6.93027E-03 1.04335E-04-3.93093E-14
 -1      4147 6.79322E-03 1.05495E-04-3.77558E-14
 -1      4148 6.99620E-03 7.26336E-05-4.00659E-14
 -1      4149 4.53479E-03 1.94360E-04-1.70274E-14
 -1      4150 4.39129E-03 1.95117E-04-1.60000E-14
 -1      4151 4.31862E-03 1.57923E-04-1.55051E-14
 -1      4152 4.60576E-03 1.56694E-04-1.75579E-14
 -1      4153 6.65540E-03 1.06655E-04-3.62321E-14
 -1      4154 6.51687E-03 1.07844E-04-3.47364E-14
 -1      4155 6.44602E-03 7.50839E-05-3.39742E-14
 -1      4156 2.53422E-03 1.86063E-04-5.67535E-15
 -1      4157 2.38907E-03 1.83814E-04-5.09336E-15
 -1      4158 2.35643E-03 1.34549E-04-4.99568E-15
 -1      4159 2.60424E-03 1.49759E-04-5.99052E-15
 -1      4160 1.89486E-03-7.30208E-05-3.35715E-15
 -1      4161 1.77075E-03-8.96920E-05-2.96422E-15
 -1      4162 5.24850E-03 1.16628E-04-2.26377E-14
 -1      4163 5.10592E-03 1.17340E-04-2.14513E-14
 -1      4164 5.31920E-03 8.00453E-05-2.32269E-14
 -1      4165 3.74233E-03 1.59516E-04-1.17876E-14
 -1      4166 3.67148E-03 1.97554E-04-1.13487E-14
 -1      4167 3.52709E-03 1.97697E-04-1.05152E-14
 -1      4168 3.14770E-03-8.40779E-05-8.46259E-15
 -1      4169 3.29286E-03-8.41899E-05-9.20581E-15
 -1      4170 3.07431E-03-4.60260E-05-8.12681E-15
 -1      4171 8.79463E-03 8.64563E-05-6.58164E-14
 -1      4172 8.72159E-03 9.66259E-05-6.45108E-14
 -1      4173 8.67031E-03 1.13135E-04-6.35155E-14
 -1      4174 8.63058E-03 1.28543E-04-6.26479E-14
 -1      4175 8.53885E-03 1.22455E-04-6.11159E-14
 -1      4176 8.80695E-03 5.26592E-05-6.55255E-14
 -1      4177 1.90895E-03 8.01649E-05-3.43195E-15
 -1      4178 2.02082E-03-3.75843E-05-3.78625E-15
 -1      4179 2.03964E-03-7.50357E-05-3.83007E-15
 -1      4180 2.18473E-03-7.66978E-05-4.33430E-15
 -1      4181 4.96311E-03 1.17996E-04-2.02977E-14
 -1      4182 4.82008E-03 1.18608E-04-1.91767E-14
 -1      4183 5.03409E-03 8.09874E-05-2.08570E-14
 -1      4184 8.59113E-03 1.30913E-05-6.15220E-14
 -1      4185 8.67322E-03-1.13834E-05-6.24085E-14
 -1      4186 5.88588E-03 7.77652E-05-2.83522E-14
 -1      4187 8.79612E-03-8.61343E-06-6.42715E-14
 -1      4188 2.56607E-03-8.22022E-05-5.80287E-15
 -1      4189 2.71156E-03-8.29257E-05-6.42071E-15
 -1      4190 2.78341E-03-4.56372E-05-6.76301E-15
 -1      4191 2.02048E-03 1.74979E-06-3.79792E-15
 -1      4192 8.32969E-03 1.09685E-04-5.77915E-14
 -1      4193 8.26334E-03 8.45366E-05-5.68327E-14
 -1      4194 8.42547E-03 1.15059E-04-5.92874E-14
 -1      4195 6.72263E-03 7.37571E-05-3.69627E-14
 -1      4196 8.82182E-03 2.47667E-05-6.52599E-14
 -1      4197 3.36476E-03-4.61346E-05-9.61660E-15
 -1      4198 3.38254E-03 1.97668E-04-9.71479E-15
 -1      4199 3.23787E-03 1.97454E-04-8.94703E-15
 -1      4200 3.45323E-03 1.59724E-04-1.01229E-14
 -1      4201 4.10201E-03 1.20921E-04-1.40525E-14
 -1      4202 3.95785E-03 1.21228E-04-1.31244E-14
 -1      4203 2.68529E-03 1.16759E-04-6.35150E-15
 -1      4204 2.56138E-03 1.09648E-04-5.82677E-15
 -1      4205 8.69943E-03 4.75972E-05-6.36912E-14
 -1      4206 3.16354E-03 1.59336E-04-8.58710E-15
 -1      4207 3.81351E-03 1.21462E-04-1.22279E-14
 -1      4208 3.66901E-03 1.21628E-04-1.13636E-14
 -1      4209 3.88499E-03 8.34326E-05-1.26692E-14
 -1      4210 2.34953E-03-1.17131E-04-4.91240E-15
 -1      4211 8.63646E-03 8.87831E-05-6.29627E-14
 -1      4212 2.97600E-03 1.18238E-04-7.67804E-15
 -1      4213 2.83068E-03 1.17619E-04-6.99920E-15
 -1      4214 2.78847E-03 7.72106E-05-6.81593E-15
 -1      4215 8.58683E-03 3.97514E-05-6.17808E-14
 -1      4216 5.91409E-03 1.82468E-05-2.85762E-14
 -1      4217 5.77308E-03 1.82764E-05-2.72434E-14
 -1      4218 2.30261E-03-7.90495E-05-4.76512E-15
 -1      4219 2.44804E-03-8.01895E-05-5.32583E-15
 -1      4220 2.51981E-03-4.36803E-05-5.63759E-15
 -1      4221 2.28379E-03-4.02525E-05-4.71750E-15
 -1      4222 5.63169E-03 1.83043E-05-2.59431E-14
 -1      4223 5.48996E-03 1.83554E-05-2.46723E-14
 -1      4224 3.91397E-03 1.87892E-05-1.28319E-14
 -1      4225 4.05830E-03 1.87814E-05-1.37481E-14
 -1      4226 4.44770E-03-7.65029E-06-1.63681E-14
 -1      4227 4.59130E-03-7.56723E-06-1.74012E-14
 -1      4228 4.77698E-03 1.86055E-05-1.88076E-14
 -1      4229 4.92008E-03 1.85614E-05-1.99161E-14
 -1      4230 5.06295E-03 1.85049E-05-2.10563E-14
 -1      4231 5.20556E-03 1.84572E-05-2.22305E-14
 -1      4232 5.34790E-03 1.83993E-05-2.34355E-14
 -1      4233 6.05468E-03 1.82556E-05-2.99407E-14
 -1      4234 6.19480E-03 1.82722E-05-3.13350E-14
 -1      4235 6.33441E-03 1.83509E-05-3.27614E-14
 -1      4236 6.47344E-03 1.84531E-05-3.42169E-14
 -1      4237 6.61184E-03 1.86526E-05-3.57012E-14
 -1      4238 6.74954E-03 1.89007E-05-3.72145E-14
 -1      4239 6.88647E-03 1.92967E-05-3.87573E-14
 -1      4240 7.02253E-03 1.97784E-05-4.03278E-14
 -1      4241 7.15767E-03 2.04789E-05-4.19257E-14
 -1      4242 7.29175E-03 2.13172E-05-4.35510E-14
 -1      4243 7.42471E-03 2.24706E-05-4.52012E-14
 -1      4244 7.55637E-03 2.38309E-05-4.68796E-14
 -1      4245 7.68670E-03 2.56335E-05-4.85837E-14
 -1      4246 7.81544E-03 2.77286E-05-5.03132E-14
 -1      4247 7.94256E-03 3.04311E-05-5.20683E-14
 -1      4248 8.06772E-03 3.35257E-05-5.38500E-14
 -1      4249 8.19090E-03 3.74535E-05-5.56587E-14
 -1      4250 8.28749E-03 4.41470E-05-5.71346E-14
 -1      4251 8.40620E-03 4.94950E-05-5.89859E-14
 -1      4252 2.43747E-03 1.02424E-04-5.32491E-15
 -1      4253 2.31360E-03 9.51120E-05-4.84561E-15
 -1      4254 2.51910E-03 6.97512E-05-5.65996E-15
 -1      4255 2.04791E-03 9.54627E-05-3.88844E-15
 -1      4256 2.01481E-03 5.41263E-05-3.78332E-15
 -1      4257 2.15914E-03 1.51969E-05-4.28063E-15
 -1      4258 3.26631E-03 1.18925E-04-9.13206E-15
 -1      4259 3.12122E-03 1.18665E-04-8.38937E-15
 -1      4260 3.07929E-03 7.80037E-05-8.18747E-15
 -1      4261 3.54020E-03 1.20379E-04-1.06224E-14
 -1      4262 3.39539E-03 1.20364E-04-9.81962E-15
 -1      4263 3.35370E-03 7.96478E-05-9.59984E-15
 -1      4264 3.61170E-03 8.23123E-05-1.10342E-14
 -1      4265 4.24599E-03 1.20563E-04-1.50128E-14
 -1      4266 4.17344E-03 8.30360E-05-1.45229E-14
 -1      4267 4.38979E-03 1.20144E-04-1.60051E-14
 -1      4268 2.19300E-03 9.75647E-05-4.39801E-15
 -1      4269 2.93079E-03 1.58908E-05-7.46525E-15
 -1      4270 3.07622E-03 1.59978E-05-8.16473E-15
 -1      4271 3.35076E-03 1.74135E-05-9.57386E-15
 -1      4272 3.49579E-03 1.74556E-05-1.03659E-14
 -1      4273 3.62474E-03 1.87840E-05-1.10969E-14
 -1      4274 3.76945E-03 1.87993E-05-1.19480E-14
 -1      4275 8.47197E-03 9.80077E-05-6.01372E-14
 -1      4276 2.27445E-03 6.59584E-05-4.70327E-15
 -1      4277 4.20244E-03 1.87540E-05-1.46956E-14
 -1      4278 4.70554E-03 5.57755E-05-1.82860E-14
 -1      4279 4.34638E-03 1.87290E-05-1.56755E-14
 -1      4280 2.78417E-03-1.49286E-05-6.78164E-15
 -1      4281 2.78670E-03 4.64908E-05-6.80808E-15
 -1      4282 2.64116E-03 4.61113E-05-6.17042E-15
 -1      4283 2.63860E-03-1.48438E-05-6.14587E-15
 -1      4284 2.51731E-03 3.95368E-05-5.65284E-15
 -1      4285 2.27992E-03 1.15413E-05-4.72079E-15
 -1      4286 8.52942E-03 7.93677E-05-6.11102E-14
 -1      4287 4.41849E-03 5.62063E-05-1.61955E-14
 -1      4288 4.63421E-03 9.31238E-05-1.77657E-14
 -1      4289 2.39788E-03 1.04591E-05-5.17140E-15
 -1      4290 2.52053E-03-1.34737E-05-5.65398E-15
 -1      4291 4.49071E-03 9.35121E-05-1.67185E-14
 -1      4292 3.22153E-03 1.60691E-05-8.89604E-15
 -3
    1PSTEP                         2           1           1          
  100CL  101 1.000000000        4292                     0    1           1
 -4  STRESS      6    1
 -5  SXX         1    4    1    1
 -5  SYY         1    4    2    2
 -5  SZZ         1    4    3    3
 -5  SXY         1    4    1    2
 -5  SYZ         1    4    2    3
 -5  SZX         1    4    3    1
 -1         1 4.07291E+00 4.85227E+00-8.69723E-01 4.64349E+00-2.39730E-12-1.82881E-12
 -1         2-7.36097E-01-2.63874E+01-3.58313E+00 3.19434E-02-2.95945E-12 4.37150E-13
 -1         3 1.99508E+01-5.23333E-02 6.42180E-02-5.13581E-02-5.84032E-13-7.67018E-13
 -1         4 1.99810E+01-1.91758E-02 4.33063E-02 1.95132E-02 8.19375E-14 1.13122E-13
 -1         5 3.27682E+01 6.14274E+00 2.74253E+00 6.22436E+00-3.94337E-14 2.82831E-12
 -1         6 3.57523E+01 1.22634E+01 5.12556E+00-8.64672E+00-1.40554E-13 3.27066E-12
 -1         7 2.08184E+01 6.09963E+00-1.28673E-01-4.72565E+00-1.98591E-14 9.82478E-13
 -1         8 1.96715E+01 5.93491E+00 5.09452E-02-3.27507E+00-3.77684E-14 1.90338E-13
 -1         9 1.91373E+01 5.77192E+00 4.91665E-02-2.52692E+00-3.75672E-14-2.73638E-13
 -1        10 1.88948E+01 5.69207E+00 5.09647E-02-1.95161E+00-2.95276E-14-5.33326E-13
 -1        11 1.87738E+01 5.65127E+00 5.03071E-02-1.45660E+00-2.36213E-14-6.81954E-13
 -1        12 1.87105E+01 5.62972E+00 4.88613E-02-1.01551E+00-1.19791E-14-7.63010E-13
 -1        13 1.86770E+01 5.61830E+00 4.74578E-02-5.95558E-01-1.06277E-14-7.98857E-13
 -1        14 1.86630E+01 5.61348E+00 4.67295E-02-1.91269E-01-3.45221E-15-8.19622E-13
 -1        15 1.86635E+01 5.61364E+00 4.67706E-02 2.08285E-01-2.15160E-16-8.32994E-13
 -1        16 1.86786E+01 5.61878E+00 4.75889E-02 6.13405E-01 5.56510E-15-8.33904E-13
 -1        17 1.87132E+01 5.63045E+00 4.90984E-02 1.03529E+00 8.20112E-15-8.20357E-13
 -1        18 1.87779E+01 5.65243E+00 5.08400E-02 1.47946E+00 1.37494E-14-7.75724E-13
 -1        19 1.89009E+01 5.69375E+00 5.15403E-02 1.98062E+00 2.49635E-14-6.80699E-13
 -1        20 1.91422E+01 5.77443E+00 4.87813E-02 2.56420E+00 3.33848E-14-4.77651E-13
 -1        21 1.96671E+01 5.94950E+00 4.59086E-02 3.30911E+00 3.96350E-14-7.32327E-14
 -1        22 2.12013E+01 6.38140E+00 1.39679E-01 4.52324E+00 7.31359E-15 7.95027E-13
 -1        23 2.30294E+01-1.37919E+00-9.38287E-01-7.11224E-01-9.08822E-14 2.74157E-12
 -1        24 1.93663E+01-9.94826E-02-3.09826E-01 6.32013E-02-2.38047E-14 2.26430E-12
 -1        25 1.86776E+01-5.63202E-02-6.88010E-02 6.07076E-02-9.03531E-15 1.77466E-12
 -1        26 1.84747E+01-2.20828E-02-6.48096E-03 3.29791E-02 4.07823E-15 1.46317E-12
 -1        27 1.84857E+01-1.17903E-02 1.61024E-03 2.25945E-02-1.92967E-14 1.27523E-12
 -1        28 1.85992E+01-6.22855E-03 1.80511E-03 1.62811E-02-1.99167E-14 1.10818E-12
 -1        29 1.87581E+01-3.07481E-03 1.74528E-03 1.21258E-02 2.02018E-14 1.00801E-12
 -1        30 1.89313E+01-1.22297E-03 1.93154E-03 9.15947E-03-1.27435E-15 8.69216E-13
 -1        31 1.91010E+01-1.34569E-04 2.09216E-03 6.92219E-03-2.36644E-14 6.34764E-13
 -1        32 1.92574E+01 4.78722E-04 2.11747E-03 5.18272E-03 5.03981E-15 4.40802E-13
 -1        33 1.93959E+01 7.84046E-04 2.01295E-03 3.81130E-03 5.11254E-14 4.47249E-13
 -1        34 1.95149E+01 8.84345E-04 1.81383E-03 2.72590E-03-3.03813E-14 3.91258E-13
 -1        35 1.96152E+01 8.45124E-04 1.55173E-03 1.86940E-03-1.68233E-14 2.52351E-13
 -1        36 1.96988E+01 7.08128E-04 1.24740E-03 1.19981E-03 3.07979E-14 2.07218E-13
 -1        37 1.97688E+01 4.98957E-04 9.11060E-04 6.86212E-04-2.67701E-14 2.00429E-13
 -1        38 1.98289E+01 2.31849E-04 5.44178E-04 3.07325E-04-2.68034E-14 3.15103E-14
 -1        39 1.98837E+01-8.68844E-05 1.41265E-04 5.13710E-05-1.96843E-14-5.93508E-14
 -1        40 1.99381E+01-4.55951E-04-3.08273E-04-8.32911E-05 5.73648E-16-1.28584E-13
 -1        41 1.99978E+01-8.76146E-04-8.17983E-04-8.71062E-05 1.07760E-14-2.62478E-13
 -1        42 2.00693E+01-1.34692E-03-1.40143E-03 6.19186E-05-1.56052E-14-3.01944E-13
 -1        43 2.01600E+01-1.86192E-03-2.06781E-03 3.99284E-04-2.53432E-14-2.04809E-13
 -1        44 2.02780E+01-2.40286E-03-2.81500E-03 9.74238E-04 3.14649E-14 5.19833E-14
 -1        45 2.04322E+01-2.93107E-03-3.61841E-03 1.84788E-03-5.99345E-14 1.03856E-13
 -1        46 2.06318E+01-3.37599E-03-4.41334E-03 3.08669E-03-5.64238E-15-9.46430E-14
 -1        47 2.08852E+01-3.62074E-03-5.06795E-03 4.74695E-03-1.27444E-14 1.51145E-13
 -1        48 2.11983E+01-3.48629E-03-5.34484E-03 6.84269E-03 4.06257E-14 2.70609E-13
 -1        49 2.15719E+01-2.72011E-03-4.85372E-03 9.28588E-03-3.08669E-14 1.97412E-13
 -1        50 2.19966E+01-1.00298E-03-3.01160E-03 1.17854E-02-8.63952E-14-1.33026E-13
 -1        51 2.24475E+01 1.99924E-03 9.42803E-04 1.36972E-02 4.97082E-14-1.63707E-13
 -1        52 2.28761E+01 6.49726E-03 7.78051E-03 1.38470E-02-3.10448E-14 6.88056E-14
 -1        53 2.32043E+01 1.23110E-02 1.78082E-02 1.04274E-02-3.11350E-15-5.71080E-14
 -1        54 2.33236E+01 1.84829E-02 2.99738E-02 1.21843E-03 8.33079E-15-1.97704E-13
 -1        55 2.31084E+01 2.29394E-02 4.07489E-02-1.54677E-02 1.75094E-14-2.10564E-13
 -1        56 2.24544E+01 2.26399E-02 4.37147E-02-3.88216E-02 1.91633E-14-2.81226E-13
 -1        57 2.13430E+01 1.47722E-02 3.14693E-02-6.31062E-02-1.67804E-14-1.85244E-13
 -1        58 1.99127E+01-9.40668E-04 1.10181E-03-7.71134E-02 3.67530E-14-4.21520E-13
 -1        59 1.84819E+01-2.01402E-02-3.93387E-02-6.87974E-02-2.62366E-14-4.95444E-13
 -1        60 1.74659E+01-3.46455E-02-7.13085E-02-3.47185E-02-1.10694E-13-5.59405E-13
 -1        61 1.71899E+01-3.70224E-02-7.67443E-02 1.35947E-02 9.91227E-14-5.38276E-13
 -1        62 1.77091E+01-2.58935E-02-5.19454E-02 5.47382E-02-3.11457E-14-4.67522E-13
 -1        63 1.87728E+01-7.04503E-03-1.12919E-02 7.20535E-02-7.71550E-14-6.25621E-13
 -1        64 1.99660E+01 1.07825E-02 2.48830E-02 6.37124E-02 3.46358E-14-6.19348E-13
 -1        65 2.09137E+01 2.13160E-02 4.39161E-02 3.98215E-02 5.83221E-14-3.35478E-14
 -1        66 2.14124E+01 2.30106E-02 4.46322E-02 1.30274E-02-4.57091E-14 2.00758E-13
 -1        67 2.14457E+01 1.78455E-02 3.28973E-02-8.15091E-03 7.05063E-14 1.79564E-13
 -1        68 2.11289E+01 8.87997E-03 1.50274E-02-2.02857E-02 1.36634E-14 4.30524E-13
 -1        69 2.06430E+01-1.00852E-03-4.56817E-03-2.24165E-02 4.51337E-14 3.06346E-13
 -1        70 2.01929E+01-6.88902E-03-1.89616E-02-1.10806E-02 3.17498E-14 7.51022E-13
 -1        71 1.99702E+01 4.85855E-03-6.03585E-03 9.59643E-03-4.24977E-14 5.97823E-13
 -1        72 2.10419E+01-4.04886E-01-9.80399E-01-3.11584E-01 5.26558E-14 2.51768E-12
 -1        73 1.93308E+01-6.58819E-02-2.91133E-01-5.38239E-02 2.24894E-14 1.83300E-12
 -1        74 1.86871E+01-2.05030E-02-6.42694E-02-2.03404E-02 1.96346E-14 1.35471E-12
 -1        75 1.84839E+01-9.87429E-03-9.30202E-03-1.54414E-02 3.03457E-15 9.88968E-13
 -1        76 1.84946E+01-5.16043E-03 6.94232E-04-1.23702E-02 9.38187E-15 7.33885E-13
 -1        77 1.86073E+01-2.60943E-03 1.76155E-03-1.00930E-02 2.31374E-14 5.14624E-13
 -1        78 1.87653E+01-1.14100E-03 1.89808E-03-8.34422E-03-9.12192E-15 4.55426E-13
 -1        79 1.89374E+01-2.80479E-04 2.08997E-03-6.89929E-03 1.00012E-15 4.13118E-13
 -1        80 1.91060E+01 2.12409E-04 2.22743E-03-5.65103E-03-7.14175E-15 1.91959E-13
 -1        81 1.92615E+01 4.71569E-04 2.23099E-03-4.55548E-03 8.14751E-15 6.21261E-14
 -1        82 1.93991E+01 5.77222E-04 2.10800E-03-3.59266E-03 2.74659E-14-6.33916E-14
 -1        83 1.95172E+01 5.79455E-04 1.89281E-03-2.74946E-03-1.00559E-14-1.09105E-13
 -1        84 1.96166E+01 5.09873E-04 1.61668E-03-2.01326E-03-6.62637E-15-4.68074E-14
 -1        85 1.96992E+01 3.87698E-04 1.30008E-03-1.37043E-03 4.34769E-14-1.67817E-13
 -1        86 1.97682E+01 2.23222E-04 9.52524E-04-8.06549E-04-1.62660E-15-4.80979E-13
 -1        87 1.98272E+01 1.99501E-05 5.73822E-04-3.07366E-04-1.24736E-14-5.41306E-13
 -1        88 1.98808E+01-2.23951E-04 1.55314E-04 1.39828E-04 9.35491E-15-5.89178E-13
 -1        89 1.99341E+01-5.14575E-04-3.19314E-04 5.44623E-04 1.87201E-14-6.46627E-13
 -1        90 1.99930E+01-8.61316E-04-8.73604E-04 9.11481E-04 2.18440E-14-7.09910E-13
 -1        91 2.00645E+01-1.27573E-03-1.53817E-03 1.23697E-03-8.34072E-15-6.81329E-13
 -1        92 2.01571E+01-1.76979E-03-2.35047E-03 1.50560E-03 2.75495E-14-6.51633E-13
 -1        93 2.02809E+01-2.35270E-03-3.35382E-03 1.68335E-03 8.99549E-16-6.06560E-13
 -1        94 2.04482E+01-3.02502E-03-4.59393E-03 1.70742E-03 2.04573E-14-9.26739E-13
 -1        95 2.06740E+01-3.76761E-03-6.10944E-03 1.47010E-03-7.01953E-15-8.94477E-13
 -1        96 2.09757E+01-4.52189E-03-7.90906E-03 7.94696E-04 1.02944E-14-7.46229E-13
 -1        97 2.13731E+01-5.15639E-03-9.92061E-03-5.97261E-04-3.11979E-16-8.18024E-13
 -1        98 2.18871E+01-5.41479E-03-1.18861E-02-3.12182E-03-8.29447E-14-4.18570E-13
 -1        99 2.25359E+01-4.84681E-03-1.31630E-02-7.34677E-03 3.73698E-14-4.39262E-13
 -1       100 2.33273E+01-2.74574E-03-1.23968E-02-1.39136E-02-2.27246E-14-4.19459E-13
 -1       101 2.42446E+01 1.82238E-03-7.11431E-03-2.32016E-02-2.93428E-14-3.69144E-13
 -1       102 2.52227E+01 9.67802E-03 6.38746E-03-3.44299E-02 5.40044E-14-6.44613E-13
 -1       103 2.61151E+01 2.05925E-02 3.18727E-02-4.39055E-02-1.61286E-15-7.95924E-13
 -1       104 2.66634E+01 3.15958E-02 6.90261E-02-4.28376E-02 9.62106E-14-7.07262E-13
 -1       105 2.65077E+01 3.54698E-02 1.05642E-01-1.73351E-02-8.99606E-14-9.67329E-13
 -1       106 2.53014E+01 2.29910E-02 1.11952E-01 4.35951E-02-7.10599E-14-6.31585E-13
 -1       107 2.29841E+01-7.66429E-03 5.34888E-02 1.27729E-01 1.32102E-13-8.46517E-13
 -1       108 2.01087E+01-4.11502E-02-6.85371E-02 1.83306E-01 8.63068E-15-1.45654E-12
 -1       109 1.78469E+01-5.40194E-02-1.83647E-01 1.48568E-01-7.35826E-15-1.00674E-12
 -1       110 1.73304E+01-3.79299E-02-2.02255E-01 2.60010E-02 6.56454E-14-9.65608E-13
 -1       111 1.87645E+01-6.27944E-03-1.07195E-01-1.04200E-01 1.96134E-14-1.54335E-12
 -1       112 2.12556E+01 2.00311E-02 2.29851E-02-1.62229E-01-1.25682E-13-9.56027E-13
 -1       113 2.35329E+01 3.20498E-02 1.04409E-01-1.36788E-01 1.82022E-14-6.14883E-13
 -1       114 2.47874E+01 3.01092E-02 1.15917E-01-7.42273E-02-1.14444E-13-5.92533E-13
 -1       115 2.48897E+01 2.03279E-02 8.54219E-02-1.58215E-02 1.44911E-13-9.40828E-13
 -1       116 2.41301E+01 8.29254E-03 4.40754E-02 2.28780E-02 1.70382E-15-1.25005E-12
 -1       117 2.29134E+01-3.03574E-03 7.30113E-03 4.34486E-02 3.42763E-14-1.49734E-12
 -1       118 2.16070E+01-1.26145E-02-2.38368E-02 5.13028E-02-3.26703E-14-1.46832E-12
 -1       119 2.05286E+01-1.82716E-02-4.70023E-02 4.45586E-02 4.67619E-14-1.39263E-12
 -1       120 1.99914E+01 1.69043E-02-1.57379E-02 3.00460E-03 2.85056E-13-1.33884E-12
 -1       121 1.99955E+01 2.47024E-02-1.75567E-02-1.04294E-02-1.21923E-12 1.53898E-13
 -1       122 1.99767E+01 5.74269E-01-4.62639E-02 2.97373E-02-6.96787E-13-1.08466E-13
 -1       123 1.99872E+01 1.66070E+00-2.56306E-02 5.00481E-02-7.61693E-13 1.61583E-14
 -1       124 2.00002E+01 2.99448E+00-1.21198E-03 5.60807E-02-3.84900E-14 3.15719E-13
 -1       125 2.00134E+01 4.32507E+00 2.16399E-02 5.13545E-02 5.18577E-13-1.63301E-13
 -1       126 2.00255E+01 5.40210E+00 4.07671E-02 3.76634E-02-7.09545E-13 1.79468E-14
 -1       127 2.00317E+01 6.05848E+00 5.15671E-02 1.54224E-02-7.19303E-13-2.10781E-13
 -1       128 2.00316E+01 6.15666E+00 5.08335E-02-9.48465E-03-1.76634E-12 8.36954E-14
 -1       129 2.00251E+01 5.70171E+00 3.88381E-02-3.04541E-02 2.93101E-13 2.90910E-13
 -1       130 2.00146E+01 4.81744E+00 2.02263E-02-4.24909E-02 5.59100E-13-7.92616E-14
 -1       131 2.00033E+01 3.70016E+00 1.42266E-03-4.44437E-02-3.90042E-13 1.62069E-13
 -1       132 1.99938E+01 2.56819E+00-1.28027E-02-3.86876E-02-7.48190E-13 2.44296E-13
 -1       133 1.99879E+01 1.54096E+00-2.13950E-02-2.89380E-02-4.17555E-13 6.18196E-14
 -1       134 1.99831E+01 7.32272E-01-2.71137E-02-1.95276E-02-5.96876E-13 8.09698E-14
 -1       135 1.99869E+01 2.08326E-01-2.38644E-02-1.08953E-02-1.19323E-12-1.46819E-14
 -1       136 1.99871E+01-2.13588E-03-4.92899E-03 2.56597E-02-8.79731E-13-3.10180E-14
 -1       137-1.44978E+00-2.18537E+01-3.31327E+00-4.15736E+00-8.08104E-13-8.77944E-14
 -1       138-1.84451E+00-1.03296E+01-2.49659E+00-3.73242E+00 4.24882E-13 1.84908E-13
 -1       139 2.07679E+00 2.20865E+00-1.28427E+00 2.49822E+00 8.90343E-13 6.35325E-13
 -1       140 1.37624E+01 1.02321E+01 1.84683E-01 1.18344E+01 5.99409E-13 4.04010E-13
 -1       141 3.34559E+01 1.05580E+01 1.75773E+00 1.81972E+01 6.40044E-13 1.48459E-12
 -1       142 5.61064E+01 5.54477E+00 3.16484E+00 1.60915E+01 1.03308E-12 3.01542E-12
 -1       143 6.76675E+01 1.28520E+00 3.79850E+00 5.16477E+00 2.48402E-13 1.99887E-12
 -1       144 6.51824E+01 1.99478E+00 3.64975E+00-8.46007E+00 9.78072E-14 4.16195E-13
 -1       145 4.91507E+01 6.84621E+00 2.69524E+00-1.75141E+01 6.37129E-13-1.45184E-12
 -1       146 2.90277E+01 1.05945E+01 1.36932E+00-1.72040E+01 1.73156E-12-2.63556E-12
 -1       147 1.14354E+01 8.81712E+00-1.30295E-01-1.00720E+01 2.96546E-12-2.97617E-12
 -1       148 5.81151E-01-5.01186E-01-1.59223E+00-6.35141E-01 3.38696E-12-2.37554E-12
 -1       149-1.98733E+00-1.27107E+01-2.64146E+00 4.26212E+00 2.03865E-12-9.61231E-13
 -1       150-1.23978E+00-2.26759E+01-3.26185E+00 3.56953E+00 3.44391E-13 2.66367E-14
 -1       151-7.35965E-01-2.50891E+01-3.37569E+00-8.26017E-01-1.10652E-12-1.94313E-13
 -1       152-1.54710E+00-1.82640E+01-2.94330E+00-4.12717E+00-2.78239E-12-7.21014E-13
 -1       153-1.22545E+00-6.36940E+00-2.06195E+00-2.32550E+00-3.06816E-12-1.38370E-12
 -1       154 1.63162E+01 1.07755E+01 4.59520E-01 1.31536E+01-1.63997E-12-1.91086E-12
 -1       155 3.45720E+01 1.01840E+01 1.78271E+00 1.82403E+01-1.17747E-12-2.00379E-12
 -1       156 5.32199E+01 5.55759E+00 2.86231E+00 1.58758E+01-5.96953E-13-1.63897E-12
 -1       157 6.54572E+01 1.45583E+00 3.51044E+00 5.56899E+00-1.09388E-13-1.02034E-12
 -1       158 6.46133E+01 1.79663E+00 3.48803E+00-7.79776E+00 1.32538E-13-4.77285E-13
 -1       159 5.17183E+01 6.37382E+00 2.85903E+00-1.70729E+01 4.82114E-14-3.24074E-13
 -1       160 3.16192E+01 1.09209E+01 1.68672E+00-1.81585E+01-2.39364E-13 3.69760E-13
 -1       161 1.43103E+01 1.04869E+01 3.34587E-01-1.21875E+01-7.41407E-13 7.10987E-13
 -1       162 3.00542E+00 3.25060E+00-1.06652E+00-3.45446E+00-1.13143E-12 8.81462E-13
 -1       163-1.68724E+00-9.49325E+00-2.36131E+00 3.37499E+00-2.26413E-12 9.37278E-13
 -1       164-1.41921E+00-2.16864E+01-3.27283E+00 3.94966E+00-3.23694E-12 6.59577E-13
 -1       165 2.10129E+01 3.69401E+00-5.73492E-02-3.61060E+00-4.09114E-13 5.29844E-13
 -1       166 1.99906E+01 4.20775E+00-4.57310E-02-2.80981E+00-4.27109E-13 9.34322E-15
 -1       167 1.95087E+01 4.47702E+00-3.15940E-02-2.19474E+00-3.73200E-13-3.00071E-13
 -1       168 1.92674E+01 4.61504E+00-2.37378E-02-1.67600E+00-2.97211E-13-4.83192E-13
 -1       169 1.91376E+01 4.69668E+00-1.94855E-02-1.21950E+00-2.27748E-13-5.81729E-13
 -1       170 1.90639E+01 4.74779E+00-1.74141E-02-7.92331E-01-1.67388E-13-6.39659E-13
 -1       171 1.90268E+01 4.77566E+00-1.64222E-02-3.87034E-01-9.77592E-14-6.70592E-13
 -1       172 1.90159E+01 4.78418E+00-1.61353E-02 8.27250E-03-3.28496E-14-6.80196E-13
 -1       173 1.90285E+01 4.77436E+00-1.64686E-02 4.03924E-01 3.59390E-14-6.92513E-13
 -1       174 1.90675E+01 4.74482E+00-1.75217E-02 8.10322E-01 1.05278E-13-6.87041E-13
 -1       175 1.91419E+01 4.69240E+00-1.96891E-02 1.23192E+00 1.75046E-13-6.60533E-13
 -1       176 1.92772E+01 4.60526E+00-2.40079E-02 1.69869E+00 2.64110E-13-5.94171E-13
 -1       177 1.95237E+01 4.45949E+00-3.28520E-02 2.22708E+00 3.35192E-13-4.56760E-13
 -1       178 2.00130E+01 4.18379E+00-4.72149E-02 2.84729E+00 4.12810E-13-1.96537E-13
 -1       179 2.11346E+01 3.46367E+00-5.97839E-02 3.53713E+00 4.16708E-13 3.16712E-13
 -1       180 2.24189E+01 1.14340E+00-3.36473E-01 3.01512E+00 3.29075E-13 1.00997E-12
 -1       181 2.19711E+01 8.58261E-01 6.58519E-04-1.95928E+00-3.44280E-13 1.06694E-12
 -1       182 2.04465E+01 1.90152E-01-9.99130E-03-7.64534E-01-2.96568E-13 8.58053E-13
 -1       183 1.96706E+01 1.01735E-01 1.35613E-02-2.86027E-01-2.05741E-13 7.03194E-13
 -1       184 1.93306E+01 4.71238E-02 1.00092E-02-6.83303E-02-1.44012E-13 5.52885E-13
 -1       185 1.92004E+01 2.25056E-02 5.15552E-03 3.88041E-02-9.83487E-14 4.79278E-13
 -1       186 1.91865E+01 9.48881E-03 2.42756E-03 9.13300E-02-8.26937E-14 4.34706E-13
 -1       187 1.92346E+01 2.10068E-03 1.12828E-03 1.13657E-01-7.09554E-14 3.66203E-13
 -1       188 1.93132E+01-2.11740E-03 4.97101E-04 1.18564E-01-1.44487E-13 3.20533E-13
 -1       189 1.94036E+01-4.38450E-03 1.65504E-04 1.13508E-01-1.12818E-13 3.19941E-13
 -1       190 1.94950E+01-5.39422E-03-1.58420E-05 1.03155E-01-7.41197E-14 2.42316E-13
 -1       191 1.95811E+01-5.57612E-03-1.09278E-04 9.05403E-02-4.95963E-14 7.29190E-14
 -1       192 1.96589E+01-5.20677E-03-1.45575E-04 7.76792E-02-8.23062E-14 3.10092E-14
 -1       193 1.97278E+01-4.46353E-03-1.42559E-04 6.59329E-02-2.91077E-14 3.08844E-14
 -1       194 1.97885E+01-3.45439E-03-1.11354E-04 5.62484E-02-3.90812E-14-2.31030E-14
 -1       195 1.98428E+01-2.23667E-03-5.89031E-05 4.93262E-02-7.06015E-14-6.40754E-15
 -1       196 1.98933E+01-8.30258E-04 1.06194E-05 4.57430E-02-5.12780E-14 6.83818E-14
 -1       197 1.99433E+01 7.71612E-04 9.47630E-05 4.60386E-02-2.82259E-14 1.39641E-14
 -1       198 1.99968E+01 2.59182E-03 1.91860E-04 5.07739E-02-6.34510E-14-6.81767E-14
 -1       199 2.00583E+01 4.65733E-03 3.00018E-04 6.05566E-02-6.08375E-14-6.97164E-14
 -1       200 2.01329E+01 6.98335E-03 4.15899E-04 7.60309E-02-7.89462E-15-1.50944E-13
 -1       201 2.02264E+01 9.55092E-03 5.33158E-04 9.78152E-02 7.31179E-14-2.35681E-13
 -1       202 2.03447E+01 1.22739E-02 6.40429E-04 1.26369E-01 3.75651E-14-1.54303E-13
 -1       203 2.04940E+01 1.49502E-02 7.18892E-04 1.61756E-01 4.33145E-14 5.88596E-15
 -1       204 2.06800E+01 1.71921E-02 7.39763E-04 2.03261E-01 1.17461E-13 1.41947E-13
 -1       205 2.09065E+01 1.83323E-02 6.62740E-04 2.48806E-01 3.95789E-14 1.07012E-13
 -1       206 2.11746E+01 1.73128E-02 4.37626E-04 2.94133E-01-1.22151E-13 1.14024E-13
 -1       207 2.14796E+01 1.25894E-02 1.30581E-05 3.31741E-01-1.73561E-13 5.87820E-14
 -1       208 2.18085E+01 2.14175E-03-6.42775E-04 3.49775E-01-2.80899E-14 5.67412E-14
 -1       209 2.21363E+01-1.62161E-02-1.50556E-03 3.31334E-01 8.98622E-14 5.39216E-14
 -1       210 2.24227E+01-4.38992E-02-2.44824E-03 2.55339E-01-1.78663E-13-2.99530E-14
 -1       211 2.26115E+01-7.96107E-02-3.20920E-03 1.00857E-01-8.42106E-14-2.80637E-14
 -1       212 2.26347E+01-1.16400E-01-3.42657E-03-1.42775E-01-3.56269E-15-1.22980E-13
 -1       213 2.24271E+01-1.39062E-01-2.78880E-03-4.59277E-01 1.98140E-14-1.82143E-13
 -1       214 2.19532E+01-1.25586E-01-1.26885E-03-7.87287E-01 7.73262E-14-8.93725E-14
 -1       215 2.12438E+01-5.78484E-02 6.11823E-04-1.01638E+00-1.16531E-13-1.84951E-13
 -1       216 2.04251E+01 5.85667E-02 2.00469E-03-1.01963E+00-5.69452E-14-9.47241E-14
 -1       217 1.97081E+01 1.80674E-01 2.67438E-03-7.28530E-01-3.73247E-14-2.57609E-13
 -1       218 1.93123E+01 2.45066E-01 2.93984E-03-2.06332E-01-7.90635E-14-1.39860E-13
 -1       219 1.93534E+01 2.12281E-01 2.98752E-03 3.55293E-01 1.74830E-14-4.59041E-13
 -1       220 1.97726E+01 1.01458E-01 2.49145E-03 7.38598E-01-1.11622E-13-4.17423E-13
 -1       221 2.03708E+01-2.58876E-02 1.20027E-03 8.27839E-01 5.11283E-14-3.50090E-13
 -1       222 2.09200E+01-1.14526E-01-4.98946E-04 6.52059E-01 4.39438E-13-1.10823E-13
 -1       223 2.12596E+01-1.44143E-01-1.97151E-03 3.32469E-01 2.05527E-13 2.86716E-13
 -1       224 2.13342E+01-1.24993E-01-2.51356E-03 1.33965E-03 2.26379E-13 6.54649E-13
 -1       225 2.11765E+01-7.80553E-02-2.13526E-03-2.48042E-01 9.65005E-14 5.72514E-13
 -1       226 2.08716E+01-2.03477E-02-1.33815E-03-3.69208E-01-8.52364E-14 3.54009E-13
 -1       227 2.05220E+01 3.96916E-02-3.59703E-04-3.49855E-01 5.82211E-14 2.44151E-13
 -1       228 2.02136E+01 8.98310E-02 3.08698E-04-2.06604E-01 8.10011E-14 3.55033E-13
 -1       229 2.09627E+01 2.77029E-01-5.13370E-02 1.16514E+00 3.19109E-13 8.66255E-13
 -1       230 1.98677E+01 1.26837E-01 8.30821E-03 4.43450E-01 2.35443E-13 6.41667E-13
 -1       231 1.93610E+01 5.80476E-02 1.27342E-02 1.50441E-01 1.92230E-13 4.66631E-13
 -1       232 1.91509E+01 2.76930E-02 7.62903E-03 1.12314E-02 1.52614E-13 3.07696E-13
 -1       233 1.91006E+01 1.30413E-02 3.82423E-03-5.78180E-02 1.19611E-13 1.88103E-13
 -1       234 1.91358E+01 5.09797E-03 1.90757E-03-9.01677E-02 2.36472E-14 1.24547E-13
 -1       235 1.92143E+01 5.66844E-04 1.00581E-03-1.01879E-01 6.39194E-14 6.03252E-14
 -1       236 1.93113E+01-2.00031E-03 5.47918E-04-1.01692E-01 1.18566E-13-2.99072E-15
 -1       237 1.94123E+01-3.34258E-03 2.88581E-04-9.48464E-02 8.33414E-14-1.05685E-13
 -1       238 1.95091E+01-3.88840E-03 1.33411E-04-8.46719E-02 5.09059E-14-1.20945E-13
 -1       239 1.95973E+01-3.90708E-03 4.27813E-05-7.33535E-02 1.29105E-14-1.12428E-13
 -1       240 1.96753E+01-3.57259E-03-3.86148E-06-6.23494E-02-1.10970E-14-1.05306E-13
 -1       241 1.97434E+01-2.99496E-03-1.90844E-05-5.26521E-02 1.48313E-13-2.14613E-13
 -1       242 1.98028E+01-2.23776E-03-1.10432E-05-4.49687E-02 9.76522E-14-2.17490E-13
 -1       243 1.98562E+01-1.32876E-03 1.50093E-05-3.98529E-02 2.22717E-14-2.84777E-13
 -1       244 1.99068E+01-2.67048E-04 5.58482E-05-3.78076E-02 2.82307E-14-3.27334E-13
 -1       245 1.99584E+01 9.72072E-04 1.09636E-04-3.93670E-02 3.07716E-14-3.82330E-13
 -1       246 2.00158E+01 2.43358E-03 1.75348E-04-4.51645E-02 8.92217E-14-4.16249E-13
 -1       247 2.00846E+01 4.17991E-03 2.52132E-04-5.59887E-02-4.74758E-14-4.20605E-13
 -1       248 2.01716E+01 6.28754E-03 3.38434E-04-7.28277E-02-2.38649E-14-3.78717E-13
 -1       249 2.02847E+01 8.84109E-03 4.30664E-04-9.68954E-02-2.79057E-14-2.83456E-13
 -1       250 2.04333E+01 1.19209E-02 5.21070E-04-1.29626E-01 1.10898E-13-3.87180E-13
 -1       251 2.06283E+01 1.55764E-02 5.94433E-04-1.72603E-01 4.46410E-14-4.81674E-13
 -1       252 2.08822E+01 1.97720E-02 6.23427E-04-2.27360E-01-9.72821E-14-6.34609E-13
 -1       253 2.12080E+01 2.42793E-02 5.63450E-04-2.94930E-01-8.50149E-14-2.13759E-13
 -1       254 2.16188E+01 2.84771E-02 3.50892E-04-3.74941E-01-1.18569E-13-1.13124E-13
 -1       255 2.21238E+01 3.10054E-02-8.44869E-05-4.63923E-01 6.67166E-14-3.73820E-13
 -1       256 2.27243E+01 2.92315E-02-7.71649E-04-5.52394E-01-1.14813E-13-2.67665E-13
 -1       257 2.34043E+01 1.85967E-02-1.58741E-03-6.20397E-01 3.68192E-14-2.48428E-13
 -1       258 2.41188E+01-7.67367E-03-2.08674E-03-6.31966E-01 1.04665E-13-2.80951E-13
 -1       259 2.47780E+01-5.70192E-02-1.42918E-03-5.31700E-01 2.16853E-14-2.25999E-13
 -1       260 2.52369E+01-1.31233E-01 1.40944E-03-2.52523E-01 6.72127E-14-2.42604E-13
 -1       261 2.53049E+01-2.13162E-01 6.32647E-03 2.49821E-01 6.37684E-15-1.48841E-13
 -1       262 2.48015E+01-2.51330E-01 9.65270E-03 9.22475E-01-1.81785E-13-9.71896E-14
 -1       263 2.36822E+01-1.67671E-01 5.34088E-03 1.52948E+00 2.77230E-13-2.11286E-13
 -1       264 2.21982E+01 6.98693E-02-9.75292E-03 1.67133E+00 1.77723E-13-1.32149E-13
 -1       265 2.09396E+01 3.42931E-01-2.75080E-02 1.05948E+00-1.15397E-13-3.91511E-13
 -1       266 2.05375E+01 4.38902E-01-3.13394E-02-9.36122E-02 1.54704E-13-6.70160E-13
 -1       267 2.11657E+01 2.74886E-01-1.43521E-02-1.12241E+00-2.03717E-14-4.57781E-13
 -1       268 2.23743E+01-8.20255E-03 4.93033E-03-1.47816E+00-1.81167E-13-4.18729E-13
 -1       269 2.34782E+01-2.04546E-01 1.20972E-02-1.13208E+00-4.02733E-14-5.28745E-13
 -1       270 2.40330E+01-2.49755E-01 8.48131E-03-4.54241E-01 6.04881E-14-4.74819E-13
 -1       271 2.39518E+01-1.95489E-01 2.54109E-03 1.92745E-01 3.82365E-13-7.41335E-13
 -1       272 2.33763E+01-1.10632E-01-1.24866E-03 6.28853E-01 6.49134E-14-8.44294E-13
 -1       273 2.25260E+01-3.20288E-02-2.46339E-03 8.24735E-01-1.77552E-14-7.01540E-13
 -1       274 2.16141E+01 3.34604E-02-3.34781E-03 8.11133E-01 6.47074E-15-5.60310E-13
 -1       275 2.08204E+01 9.75275E-02-3.30058E-03 6.16884E-01-1.04313E-14-6.89530E-13
 -1       276 2.02599E+01 1.43495E-01-1.59094E-04 2.78545E-01-1.64112E-13-5.59988E-13
 -1       277 2.01823E+01 4.99618E-01 2.08345E-03 5.02699E-01-3.06125E-13 3.70849E-13
 -1       278 2.01137E+01 1.14536E+00 1.13061E-03 8.33056E-01-1.61543E-13-1.10032E-13
 -1       279 2.00360E+01 1.96211E+00 5.03885E-05 1.00864E+00-1.38112E-13 3.16477E-13
 -1       280 1.99620E+01 2.83868E+00-1.44979E-03 1.00510E+00-2.92130E-13 3.77411E-13
 -1       281 1.98923E+01 3.62230E+00-3.35686E-03 8.28003E-01-3.48153E-13-6.77977E-13
 -1       282 1.98397E+01 4.19991E+00-4.57659E-03 4.95937E-01-2.54331E-13-2.14753E-13
 -1       283 1.98211E+01 4.44774E+00-5.08950E-03 7.44375E-02-8.82462E-14-5.16865E-13
 -1       284 1.98426E+01 4.32664E+00-4.83442E-03-3.44230E-01 1.83078E-13 8.61794E-13
 -1       285 1.98955E+01 3.87677E+00-3.89485E-03-6.70866E-01-1.96541E-13 3.98856E-15
 -1       286 1.99605E+01 3.20211E+00-2.42643E-03-8.51229E-01-2.64901E-14-3.30383E-13
 -1       287 2.00170E+01 2.44595E+00-6.59445E-04-8.80522E-01-6.82729E-14-4.75056E-13
 -1       288 2.00560E+01 1.69814E+00 8.52413E-04-7.91328E-01-3.25576E-13 1.61083E-13
 -1       289 2.00762E+01 1.05686E+00 1.91713E-03-6.28033E-01-4.36463E-13 1.00943E-13
 -1       290 2.00874E+01 5.65499E-01 2.06563E-03-4.22481E-01-4.16862E-13-2.16546E-13
 -1       291 2.01521E+01 2.93639E-01 2.90300E-03-3.41028E-01-1.62397E-13 1.36860E-13
 -1       292-1.02697E+00-1.19123E+01-1.06518E+00 9.76633E-01-1.13989E-12 8.94923E-13
 -1       293 2.31346E+00-9.76118E+00-9.07744E-01 3.16975E+00-6.44623E-13 4.82038E-13
 -1       294 8.73928E+00-6.01725E+00-5.92164E-01 5.33322E+00 2.24820E-14 3.68774E-13
 -1       295 1.77823E+01-1.82918E+00-1.82327E-01 7.12180E+00 2.40169E-13 6.19504E-14
 -1       296 2.85099E+01 1.95006E+00 2.95958E-01 7.84078E+00-4.70179E-14 9.70057E-13
 -1       297 3.78628E+01 4.04920E+00 4.43527E-01 4.14411E+00-1.66183E-13 8.19900E-13
 -1       298 4.63305E+01 6.47984E+00 1.02523E+00 3.48086E+00 6.41709E-13 7.04575E-13
 -1       299 4.65565E+01 7.16964E+00 9.65305E-01-1.21466E-01 7.86954E-13 4.65891E-13
 -1       300 4.46926E+01 5.80936E+00 9.80875E-01-4.03234E+00 9.55416E-13 2.68396E-14
 -1       301 3.66244E+01 3.92607E+00 6.28527E-01-6.50643E+00 1.22273E-12-5.20251E-13
 -1       302 2.64592E+01 1.09303E+00 1.74021E-01-7.27030E+00 1.35617E-12-8.31890E-13
 -1       303 1.65913E+01-3.26745E+00-2.38228E-01-6.47362E+00 1.28050E-12-9.01057E-13
 -1       304 6.94268E+00-6.69211E+00-6.45666E-01-4.56396E+00 9.74693E-13-1.56473E-12
 -1       305 1.41504E+00-9.64879E+00-8.38025E-01-2.67100E+00 2.68979E-13-1.15098E-12
 -1       306-1.25542E+00-1.15879E+01-1.00506E+00-3.72581E-01-1.41512E-13-6.83037E-13
 -1       307-4.44692E-01-1.05343E+01-8.93249E-01 1.81573E+00-5.00169E-13-8.68056E-13
 -1       308 3.57585E+00-8.29469E+00-7.67452E-01 3.80421E+00-9.73305E-13-8.01109E-13
 -1       309 1.03328E+01-4.45265E+00-4.56931E-01 5.79403E+00-1.19510E-12-6.17742E-13
 -1       310 1.92552E+01-5.95321E-01-7.04728E-02 7.33164E+00-1.03054E-12-3.86219E-13
 -1       311 2.91899E+01 2.62189E+00 3.37441E-01 7.70996E+00-5.51309E-13-9.91318E-13
 -1       312 3.81083E+01 4.76045E+00 6.28426E-01 5.91765E+00-6.87041E-13-7.35273E-13
 -1       313 4.37228E+01 6.51551E+00 7.85960E-01 2.84973E+00-4.75481E-13-4.23744E-13
 -1       314 4.57401E+01 7.18023E+00 8.74568E-01-4.62837E-01-2.25459E-13-3.78060E-13
 -1       315 4.46207E+01 6.25091E+00 9.51233E-01-4.31260E+00-1.17670E-13-3.42532E-13
 -1       316 3.72696E+01 4.64521E+00 6.45548E-01-6.50001E+00-2.52540E-13-2.89546E-13
 -1       317 2.79925E+01 2.09632E+00 3.05852E-01-7.90154E+00-2.54491E-13-8.99836E-14
 -1       318 1.82636E+01-1.38512E+00-1.14969E-01-7.28110E+00-3.70481E-13-1.28786E-14
 -1       319 1.01023E+01-5.77918E+00-4.37539E-01-6.04523E+00-6.90448E-13-4.93841E-14
 -1       320 2.45691E+00-9.53108E+00-8.59242E-01-3.36065E+00-1.22274E-12 1.30382E-14
 -1       321-9.04754E-01-1.12831E+01-9.63938E-01-1.29248E+00-1.29048E-12 2.92849E-13
 -1       322 2.01453E+01 3.01512E+00-1.79048E-02-2.11053E+00-4.50610E-13-4.71246E-14
 -1       323 2.07554E+01 2.20831E+00-1.78568E-02-2.36381E+00-4.67740E-13 2.64858E-13
 -1       324 1.95846E+01 3.69140E+00-1.51090E-02-1.31719E+00-3.09403E-13-3.73294E-13
 -1       325 1.94608E+01 3.84852E+00-1.35771E-02-9.23855E-01-2.36480E-13-4.64649E-13
 -1       326 1.93920E+01 3.93919E+00-1.26879E-02-5.44107E-01-1.55413E-13-4.96162E-13
 -1       327 1.93616E+01 3.98046E+00-1.22920E-02-1.73337E-01-7.64448E-14-5.13426E-13
 -1       328 1.93629E+01 3.97884E+00-1.23142E-02 1.94482E-01 1.27669E-14-5.11682E-13
 -1       329 1.93962E+01 3.93396E+00-1.27606E-02 5.65614E-01 8.84005E-14-5.19720E-13
 -1       330 1.94669E+01 3.84071E+00-1.37674E-02 9.39692E-01 1.78309E-13-5.11619E-13
 -1       331 1.95935E+01 3.67850E+00-1.56543E-02 1.33383E+00 2.71198E-13-4.45198E-13
 -1       332 1.98087E+01 3.40985E+00-1.88309E-02 1.73916E+00 3.62233E-13-3.64813E-13
 -1       333 2.01790E+01 2.95513E+00-2.29402E-02 2.12774E+00 4.38183E-13-1.99406E-13
 -1       334 2.07485E+01 2.12941E+00-3.04703E-02 2.32266E+00 4.56447E-13 9.38451E-14
 -1       335 2.10949E+01 1.18772E+00-2.49251E-02 1.92234E+00 4.10586E-13 4.01356E-13
 -1       336 2.03910E+01 4.89254E-01 8.33092E-03 9.27794E-01 3.31929E-13 2.92452E-13
 -1       337 2.04576E+01 6.75175E-01 1.23545E-02-1.02600E+00-3.36241E-13 3.01119E-13
 -1       338 2.00359E+01 3.36847E-01 7.19422E-03-4.58146E-01-2.63364E-13 2.47314E-13
 -1       339 1.97815E+01 1.76247E-01 4.12243E-03-1.49661E-01-1.82416E-13 2.10769E-13
 -1       340 1.96456E+01 9.03611E-02 1.87432E-03 2.14139E-02-1.30832E-13 1.51177E-13
 -1       341 1.95899E+01 4.12791E-02 7.83343E-04 1.12527E-01-8.96414E-14 1.25649E-13
 -1       342 1.95844E+01 1.23757E-02 2.71012E-04 1.55697E-01-1.24177E-13 7.48572E-14
 -1       343 1.96082E+01-4.47367E-03 1.67382E-05 1.69907E-01-9.39722E-14 1.29083E-13
 -1       344 1.96477E+01-1.36910E-02-1.14557E-04 1.67012E-01-1.23229E-13 1.08795E-13
 -1       345 1.96940E+01-1.79074E-02-1.76969E-04 1.54730E-01-1.71313E-13 5.15976E-14
 -1       346 1.97416E+01-1.87831E-02-1.95884E-04 1.38215E-01-1.42398E-13 1.20539E-14
 -1       347 1.97878E+01-1.73901E-02-1.85579E-04 1.20972E-01-6.03207E-14-7.90190E-14
 -1       348 1.98313E+01-1.44131E-02-1.54873E-04 1.05428E-01-1.25433E-14-2.88093E-17
 -1       349 1.98721E+01-1.02644E-02-1.09139E-04 9.33298E-02-5.72718E-14 1.32413E-14
 -1       350 1.99113E+01-5.16048E-03-5.13522E-05 8.60130E-02-1.51112E-14-5.45366E-15
 -1       351 1.99505E+01 8.22965E-04 1.71535E-05 8.46035E-02-5.15264E-14 4.10539E-14
 -1       352 1.99920E+01 7.70208E-03 9.60409E-05 9.01506E-02-2.52676E-14 1.18002E-13
 -1       353 2.00386E+01 1.55356E-02 1.85296E-04 1.03705E-01-5.11014E-14 2.12232E-13
 -1       354 2.00934E+01 2.43662E-02 2.84423E-04 1.26336E-01-1.22490E-13 7.19521E-14
 -1       355 2.01602E+01 3.41426E-02 3.91383E-04 1.59072E-01-5.45738E-14 1.71992E-14
 -1       356 2.02429E+01 4.46111E-02 5.01123E-04 2.02740E-01 1.13445E-13 1.12806E-14
 -1       357 2.03455E+01 5.51612E-02 6.03554E-04 2.57679E-01 1.95030E-13 1.48157E-13
 -1       358 2.04720E+01 6.46078E-02 6.80927E-04 3.23256E-01 1.03989E-13 1.08569E-13
 -1       359 2.06260E+01 7.09004E-02 7.04768E-04 3.97141E-01 9.36475E-14 2.46058E-14
 -1       360 2.08100E+01 7.07702E-02 6.33187E-04 4.74281E-01-2.50396E-14-1.99741E-13
 -1       361 2.10245E+01 5.93889E-02 4.10456E-04 5.45552E-01-1.90289E-13-1.23843E-13
 -1       362 2.12675E+01 3.02514E-02-2.70351E-05 5.96205E-01-4.25168E-14 4.04139E-14
 -1       363 2.15323E+01-2.42453E-02-7.33280E-04 6.04524E-01 8.32812E-15 7.35279E-15
 -1       364 2.18067E+01-1.10661E-01-1.71379E-03 5.41683E-01-8.86553E-14-8.40626E-14
 -1       365 2.20696E+01-2.29590E-01-2.86438E-03 3.74729E-01-1.36660E-13-5.30521E-14
 -1       366 2.22886E+01-3.67081E-01-3.90256E-03 7.57895E-02 1.04718E-14 2.63570E-14
 -1       367 2.24172E+01-4.84125E-01-4.35890E-03-3.59184E-01 9.11788E-14 1.18848E-13
 -1       368 2.23983E+01-5.12202E-01-3.71095E-03-8.82158E-01-4.08243E-14 7.61192E-14
 -1       369 2.21820E+01-3.71441E-01-1.66374E-03-1.36653E+00 1.67548E-14-7.53195E-16
 -1       370 2.17675E+01-2.64391E-02 1.03260E-03-1.61329E+00 1.02330E-14-4.24227E-15
 -1       371 2.12531E+01 4.39268E-01 2.91260E-03-1.43049E+00-1.09220E-13 6.39302E-14
 -1       372 2.08356E+01 8.12322E-01 4.12079E-03-7.82568E-01 1.42304E-14 1.07633E-13
 -1       373 2.07022E+01 8.78088E-01 5.23370E-03 1.16258E-01-1.30967E-13-6.34877E-14
 -1       374 2.08910E+01 5.88542E-01 4.31355E-03 8.87956E-01 4.00136E-15-1.84300E-13
 -1       375 2.12520E+01 1.19810E-01 1.88783E-03 1.23424E+00 1.00284E-13 6.02955E-14
 -1       376 2.15740E+01-2.91124E-01-8.90350E-04 1.10667E+00 3.84999E-13 3.70578E-13
 -1       377 2.17165E+01-5.03243E-01-3.30087E-03 6.63584E-01 4.77128E-13 5.85048E-14
 -1       378 2.16503E+01-5.09587E-01-4.08135E-03 1.27701E-01 4.81296E-13 2.49251E-13
 -1       379 2.14200E+01-3.77874E-01-3.47457E-03-3.27065E-01 8.38208E-14 1.51474E-13
 -1       380 2.10932E+01-1.81255E-01-1.99341E-03-6.06363E-01-3.36915E-13 2.74128E-13
 -1       381 2.07330E+01 3.07218E-02-4.44997E-04-6.79436E-01-1.70900E-13 2.89400E-13
 -1       382 2.04270E+01 1.91254E-01 2.26271E-03-5.67389E-01 3.54422E-14 1.93543E-13
 -1       383 1.98891E+01 2.28422E-01 1.07945E-02 3.99216E-01 2.70641E-13 2.04087E-13
 -1       384 1.96002E+01 1.15245E-01 6.17437E-03 1.20644E-01 2.28778E-13 1.20770E-13
 -1       385 1.94652E+01 5.75361E-02 2.80698E-03-2.80359E-02 1.68742E-13 2.15928E-14
 -1       386 1.94250E+01 2.56497E-02 1.17649E-03-1.04750E-01 7.99384E-14-3.68177E-14
 -1       387 1.94403E+01 7.23001E-03 4.48151E-04-1.39839E-01 6.28831E-14-1.03570E-13
 -1       388 1.94860E+01-3.41266E-03 1.02147E-04-1.50282E-01 1.43065E-13-8.74273E-14
 -1       389 1.95460E+01-9.21854E-03-7.63470E-05-1.46349E-01 1.01056E-13-1.06937E-13
 -1       390 1.96106E+01-1.18845E-02-1.67070E-04-1.34595E-01 2.58525E-14-1.26844E-13
 -1       391 1.96740E+01-1.24674E-02-2.03266E-04-1.19342E-01 1.71891E-14-1.01688E-13
 -1       392 1.97332E+01-1.16470E-02-2.02684E-04-1.03498E-01 2.02425E-14-1.32545E-13
 -1       393 1.97873E+01-9.85529E-03-1.76240E-04-8.90610E-02 1.80918E-13-1.68307E-13
 -1       394 1.98364E+01-7.34848E-03-1.30641E-04-7.74595E-02 1.05791E-13-1.46633E-13
 -1       395 1.98821E+01-4.24973E-03-6.95115E-05-6.97942E-02 4.62897E-14-9.98263E-14
 -1       396 1.99266E+01-5.77729E-04 5.90615E-06-6.70252E-02 1.24426E-13-1.69790E-13
 -1       397 1.99727E+01 3.73336E-03 9.62349E-05-7.01172E-02 9.41764E-14-2.12164E-13
 -1       398 2.00241E+01 8.81896E-03 2.03527E-04-8.01549E-02 9.30220E-14-2.36796E-13
 -1       399 2.00850E+01 1.48711E-02 3.30810E-04-9.84337E-02 1.12793E-14-1.89653E-13
 -1       400 2.01606E+01 2.21230E-02 4.81471E-04-1.26526E-01-7.31649E-14-2.21849E-13
 -1       401 2.02569E+01 3.08237E-02 6.58200E-04-1.66313E-01-5.06809E-14-1.77725E-13
 -1       402 2.03808E+01 4.11904E-02 8.61086E-04-2.19956E-01 1.84911E-13-2.20306E-13
 -1       403 2.05400E+01 5.33132E-02 1.08414E-03-2.89764E-01 6.87859E-14-2.71862E-13
 -1       404 2.07434E+01 6.69707E-02 1.30921E-03-3.77859E-01-9.53203E-14-2.14386E-13
 -1       405 2.09997E+01 8.12822E-02 1.49633E-03-4.85481E-01-2.33712E-13-1.69432E-13
 -1       406 2.13174E+01 9.40891E-02 1.57010E-03-6.11651E-01-1.25499E-13-2.14433E-13
 -1       407 2.17033E+01 1.00932E-01 1.40631E-03-7.50791E-01 9.76108E-14-1.31673E-14
 -1       408 2.21597E+01 9.35547E-02 8.29939E-04-8.88799E-01-4.31590E-14 6.81557E-15
 -1       409 2.26814E+01 5.82210E-02-3.48682E-04-9.97233E-01 4.90595E-14-7.45539E-14
 -1       410 2.32511E+01-2.47666E-02-2.22074E-03-1.02626E+00 1.19958E-13-6.52260E-14
 -1       411 2.38330E+01-1.76328E-01-4.59679E-03-9.00004E-01 1.41957E-14-1.46656E-13
 -1       412 2.43632E+01-4.00924E-01-6.86484E-03-5.25070E-01 1.60427E-14-3.02583E-13
 -1       413 2.47403E+01-6.50047E-01-7.40857E-03 1.68529E-01-1.26145E-13-3.91579E-14
 -1       414 2.48200E+01-7.77568E-01-6.14496E-03 1.13295E+00-1.79774E-13-9.38902E-14
 -1       415 2.44579E+01-5.55992E-01-6.63619E-03 2.07325E+00 2.38718E-13 1.22228E-13
 -1       416 2.36538E+01 1.40119E-01-9.33464E-03 2.42248E+00 2.66669E-13 2.56063E-13
 -1       417 2.27508E+01 1.01078E+00-1.37716E-02 1.67402E+00 1.64586E-13 4.12231E-14
 -1       418 2.23318E+01 1.38467E+00-1.83356E-02 3.81965E-02 2.57993E-13-2.70448E-13
 -1       419 2.26954E+01 9.00457E-01-1.00281E-02-1.50591E+00-9.54549E-14-5.65361E-13
 -1       420 2.34367E+01 1.54482E-02-1.92535E-03-2.07626E+00-8.69600E-14-5.80958E-13
 -1       421 2.39706E+01-6.27794E-01-3.88973E-03-1.57592E+00-2.15237E-13-5.84667E-13
 -1       422 2.40236E+01-7.93393E-01-8.78694E-03-5.78380E-01 1.09201E-15-4.27173E-13
 -1       423 2.36501E+01-6.33431E-01-9.59388E-03 3.77046E-01 1.93695E-13-2.83872E-13
 -1       424 2.30115E+01-3.64449E-01-7.42925E-03 1.02399E+00 2.06735E-13-8.12805E-14
 -1       425 2.22614E+01-1.09294E-01-3.54661E-03 1.31908E+00-5.56414E-14-1.88809E-13
 -1       426 2.15141E+01 1.01491E-01-2.16105E-04 1.30866E+00-4.00927E-15-1.34738E-13
 -1       427 2.08460E+01 2.81055E-01 1.62923E-03 1.04801E+00 7.76920E-14 2.43757E-13
 -1       428 2.04817E+01 4.06115E-01 2.40795E-03 8.08383E-01-1.95394E-13 3.91724E-13
 -1       429 1.99931E+01 1.81800E+00-1.87190E-04 1.68630E+00-1.16266E-13 4.82510E-13
 -1       430 2.02626E+01 1.20143E+00 3.20749E-03 1.55907E+00-1.17567E-13 1.20922E-13
 -1       431 2.04047E+01 7.92914E-01 4.03120E-03 1.23284E+00-2.37968E-13 7.91541E-14
 -1       432 1.97189E+01 2.42550E+00-2.76374E-03 1.54411E+00-4.87248E-13-5.87615E-13
 -1       433 1.94727E+01 2.94627E+00-4.64570E-03 1.11729E+00-1.43025E-13 3.36320E-15
 -1       434 1.93277E+01 3.25680E+00-5.66785E-03 4.75436E-01 7.06352E-14-1.05538E-13
 -1       435 1.93318E+01 3.28419E+00-5.72831E-03-2.45911E-01 2.86055E-13 4.30763E-13
 -1       436 1.94813E+01 3.02779E+00-4.83753E-03-8.83066E-01-1.43755E-13 2.77875E-14
 -1       437 1.97180E+01 2.56114E+00-3.17262E-03-1.30702E+00-8.55892E-14-5.90099E-14
 -1       438 1.99569E+01 2.00627E+00-1.15910E-03-1.46962E+00 1.29251E-13-1.74815E-13
 -1       439 2.01458E+01 1.44762E+00 7.58065E-04-1.40642E+00 3.11335E-13 2.70974E-14
 -1       440 2.02598E+01 9.64171E-01 2.46309E-03-1.18859E+00 1.24951E-14-2.08370E-14
 -1       441 2.03076E+01 5.86287E-01 3.73309E-03-8.94552E-01-1.67247E-13-3.06909E-13
 -1       442 9.72566E+00-6.36878E+00-9.40012E-02 6.84346E+00-6.74044E-13 6.08964E-13
 -1       443 1.25963E+00-4.84440E+00-4.77657E-02 6.42501E-02-2.90279E-13 9.71140E-13
 -1       444 3.79853E+00-5.19177E+00-3.76912E-02 4.41493E+00-6.37587E-13 7.02050E-13
 -1       445 1.84211E+01-6.06798E+00-4.46297E-02 7.00552E+00-6.85840E-14 1.17170E-13
 -1       446 2.65967E+01-4.04358E+00-1.15806E-03 4.96564E+00 4.47420E-14 6.24154E-13
 -1       447 1.97864E+01 3.43973E+00-2.09378E-02-1.72707E+00-3.93143E-13-2.52961E-13
 -1       448 3.56250E+01 5.48055E+00 3.27537E-02-1.18664E-01 3.12306E-13-3.78697E-13
 -1       449 3.65324E+01 7.84724E+00 7.78372E-02 3.97397E-02 5.21527E-13-2.09048E-13
 -1       450 3.58891E+01 7.10802E+00 4.91283E-02 9.01440E-01 1.23726E-12-1.27121E-14
 -1       451 3.56141E+01 4.01837E+00 8.15293E-02 3.42576E-01 1.25601E-12 5.69128E-14
 -1       452 3.16037E+01-9.79232E-01 1.24713E-02-2.04981E+00 9.31998E-13-6.07014E-14
 -1       453 2.55352E+01-4.44783E+00-5.87932E-03-4.62292E+00 7.62265E-13-2.31648E-13
 -1       454 1.65040E+01-6.23604E+00-2.14728E-02-6.74193E+00 1.79329E-13-5.63986E-13
 -1       455 8.10111E+00-6.02623E+00-8.67183E-02-6.12252E+00-5.44564E-14-1.61384E-12
 -1       456 2.65981E+00-4.70634E+00-2.85209E-02-3.13426E+00 2.90115E-14-7.30485E-13
 -1       457 1.03623E+00-4.85679E+00-6.77251E-02 1.07073E+00 1.62689E-13-1.06021E-12
 -1       458 5.51890E+00-4.64751E+00 4.11336E-02 5.54792E+00 1.45342E-13-7.28029E-13
 -1       459 1.12566E+01-5.90301E+00-7.24576E-02 7.01392E+00-1.25122E-13-1.44603E-13
 -1       460 1.93865E+01-5.18252E+00-4.02044E-02 6.66490E+00-1.76192E-13 1.93283E-13
 -1       461 2.69543E+01-2.94367E+00 9.07791E-03 4.51189E+00-1.90029E-13-1.40804E-13
 -1       462 3.18999E+01 4.36511E-01 1.82931E-03 1.57102E+00-1.88847E-13-5.89806E-14
 -1       463 3.43379E+01 4.80176E+00-1.72896E-02-3.28602E-01-4.85015E-13 6.02851E-14
 -1       464 3.51021E+01 7.91326E+00-1.70479E-02-4.64554E-01-2.87242E-13-6.17215E-14
 -1       465 3.57788E+01 7.60487E+00 4.43755E-02 1.85007E-02-1.75915E-13 2.41335E-14
 -1       466 3.52669E+01 4.91786E+00 7.83930E-02-4.49649E-01-1.64438E-13-3.01495E-13
 -1       467 3.15610E+01-2.46557E-01-2.24634E-03-2.12557E+00-2.06683E-13-3.48721E-13
 -1       468 2.73834E+01-3.25381E+00 2.77666E-02-4.72174E+00-1.23082E-13-9.90180E-14
 -1       469 1.96286E+01-5.84486E+00-5.70796E-03-6.97524E+00-1.99812E-13-5.04805E-13
 -1       470 1.00927E+01-6.06055E+00-4.54693E-02-7.14318E+00-1.62675E-13-7.46896E-13
 -1       471 4.10265E+00-5.50851E+00-5.64703E-02-4.86172E+00-3.30652E-13-3.76324E-13
 -1       472 3.22370E+01-4.49654E-01 7.35948E-03 1.82231E+00-3.54024E-13 5.74180E-13
 -1       473 3.23814E+01 1.77253E+00-9.41002E-02-1.11126E+00-1.91652E-14-1.54932E-13
 -1       474 2.03725E+01 8.31873E-01 4.00972E-03 9.72643E-01 3.47755E-13-4.22803E-14
 -1       475 1.97336E+01 3.10353E+00-5.34531E-03-6.34383E-01-1.85431E-13-4.07542E-13
 -1       476 1.98293E+01 2.93051E+00-5.77116E-03-9.51375E-01-2.56866E-13-3.60827E-13
 -1       477 1.96663E+01 3.22615E+00-5.02349E-03 8.82194E-03-4.47132E-14-4.42088E-13
 -1       478 1.96847E+01 3.19318E+00-5.10433E-03 3.30639E-01 3.63235E-14-4.55398E-13
 -1       479 1.97383E+01 3.09641E+00-5.41450E-03 6.46212E-01 1.27793E-13-4.42606E-13
 -1       480 1.98366E+01 2.91862E+00-5.94579E-03 9.61980E-01 2.30898E-13-4.24166E-13
 -1       481 1.99916E+01 2.63363E+00-6.52773E-03 1.25729E+00 2.99781E-13-3.47310E-13
 -1       482 2.02334E+01 2.18759E+00-5.70381E-03 1.50212E+00 3.74467E-13-2.48341E-13
 -1       483 2.45626E+01-6.03053E+00 3.21383E-02 4.73353E+00-2.99295E-13 2.28012E-13
 -1       484 2.01107E+01 4.53415E-01 5.07336E-03 4.64864E-01 3.16993E-13-8.89767E-14
 -1       485 2.03426E+01 9.75588E-01 2.95387E-03-9.44340E-01-3.28679E-13 4.06657E-14
 -1       486 2.01709E+01 5.42723E-01 1.82791E-03-4.69014E-01-2.47360E-13 3.54368E-14
 -1       487 2.00234E+01 3.03510E-01 1.01807E-03-1.67520E-01-1.78934E-13 3.97695E-14
 -1       488 1.99226E+01 1.61528E-01 4.35512E-04 1.38917E-02-1.52015E-13 1.48633E-14
 -1       489 1.98638E+01 7.53579E-02 1.54462E-04 1.16489E-01-1.46120E-13-6.32103E-15
 -1       490 1.98364E+01 2.28930E-02 2.23170E-05 1.67990E-01-8.81536E-14-6.91264E-14
 -1       491 1.98305E+01-8.14529E-03-4.51425E-05 1.87081E-01-9.81172E-14-9.00663E-14
 -1       492 1.98381E+01-2.50864E-02-7.87050E-05 1.86485E-01-1.57904E-13-4.89520E-14
 -1       493 1.98538E+01-3.25580E-02-9.14728E-05 1.74935E-01-1.61953E-13 9.98234E-15
 -1       494 1.98736E+01-3.35753E-02-9.02585E-05 1.58478E-01-1.17161E-13 3.82197E-14
 -1       495 1.98956E+01-3.01129E-02-7.93548E-05 1.41345E-01-1.34161E-14 5.13585E-14
 -1       496 1.99184E+01-2.34297E-02-6.15318E-05 1.26552E-01-3.77369E-15-2.12482E-14
 -1       497 1.99418E+01-1.42736E-02-3.83861E-05 1.16337E-01-4.23585E-14 6.01602E-14
 -1       498 1.99662E+01-3.02436E-03-1.06961E-05 1.12466E-01-1.88544E-15 1.68081E-13
 -1       499 1.99923E+01 1.01928E-02 2.13314E-05 1.16462E-01 1.10868E-14 1.73323E-13
 -1       500 2.00216E+01 2.54014E-02 5.77881E-05 1.29749E-01 6.81794E-15 9.61936E-14
 -1       501 2.00554E+01 4.26604E-02 9.87562E-05 1.53721E-01-1.76328E-13 8.46093E-14
 -1       502 2.00958E+01 6.19246E-02 1.43942E-04 1.89731E-01-1.22196E-13 1.60152E-13
 -1       503 2.01449E+01 8.28612E-02 1.92139E-04 2.38980E-01 5.24992E-14 1.95921E-13
 -1       504 2.02052E+01 1.04596E-01 2.40490E-04 3.02272E-01 1.24150E-13 5.90347E-14
 -1       505 2.02792E+01 1.25362E-01 2.83470E-04 3.79610E-01 1.39854E-13-8.35854E-14
 -1       506 2.03701E+01 1.42031E-01 3.11554E-04 4.69566E-01-4.55375E-15-2.24485E-13
 -1       507 2.04812E+01 1.49518E-01 3.09681E-04 5.68375E-01-1.08751E-13-2.32551E-13
 -1       508 2.06166E+01 1.40132E-01 2.55902E-04 6.68712E-01-3.62408E-14-2.70656E-13
 -1       509 2.07814E+01 1.03092E-01 1.20864E-04 7.58142E-01-6.30170E-14-4.02714E-14
 -1       510 2.09820E+01 2.47447E-02-1.28699E-04 8.17372E-01-7.44632E-14-8.40868E-14
 -1       511 2.12260E+01-1.09406E-01-5.23217E-04 8.18718E-01-6.14138E-14-6.52994E-15
 -1       512 2.15201E+01-3.09003E-01-1.06197E-03 7.25785E-01-3.92980E-15 1.86126E-13
 -1       513 2.18653E+01-5.67001E-01-1.66912E-03 4.96616E-01-5.31165E-14 2.65655E-13
 -1       514 2.22446E+01-8.40520E-01-2.15067E-03 9.47537E-02 9.85713E-15 1.45828E-13
 -1       515 2.26066E+01-1.02997E+00-2.27961E-03-4.85135E-01 1.07844E-13 2.28000E-13
 -1       516 2.28541E+01-9.77260E-01-1.97359E-03-1.17250E+00-1.44026E-13 3.24115E-13
 -1       517 2.28679E+01-5.24944E-01-1.10987E-03-1.77232E+00 3.54512E-14 2.49026E-14
 -1       518 2.25958E+01 3.33480E-01-1.35103E-03-1.97341E+00 1.38871E-14 1.45667E-13
 -1       519 2.21696E+01 1.29237E+00-4.50716E-03-1.50709E+00-7.67333E-14 1.13552E-13
 -1       520 2.18927E+01 1.81889E+00-3.11856E-03-4.48387E-01-2.26605E-13 6.85368E-15
 -1       521 2.19679E+01 1.55497E+00-7.78023E-04 7.25675E-01-1.27996E-13-1.55746E-14
 -1       522 2.22965E+01 6.68905E-01-2.02695E-03 1.42720E+00 1.87558E-13 1.82585E-13
 -1       523 2.25725E+01-2.91640E-01-1.49235E-03 1.43367E+00 2.90448E-13 1.58597E-13
 -1       524 2.25835E+01-9.06487E-01-2.49618E-03 9.16197E-01 2.22195E-13-1.70646E-13
 -1       525 2.23228E+01-1.06836E+00-2.45297E-03 2.10861E-01 4.19126E-13-2.56307E-13
 -1       526 2.18976E+01-8.91229E-01-2.24461E-03-4.17241E-01 1.91490E-13-2.51435E-13
 -1       527 2.14224E+01-5.38909E-01-1.35015E-03-8.37355E-01-3.01562E-14-2.95871E-13
 -1       528 2.09691E+01-1.32267E-01 1.62742E-05-1.00896E+00-1.80936E-13-2.13350E-13
 -1       529 1.98081E+01 1.28725E-01 1.00176E-03-1.85718E-02 1.52687E-13-1.12287E-13
 -1       530 1.97500E+01 5.94275E-02 3.66312E-04-1.16987E-01 1.18458E-13-1.56050E-13
 -1       531 1.97310E+01 1.78617E-02 8.36437E-05-1.65195E-01 1.01626E-13-1.35437E-13
 -1       532 1.97370E+01-6.58879E-03-5.05748E-05-1.82149E-01 8.70849E-14-7.95406E-14
 -1       533 1.97577E+01-1.99593E-02-1.17394E-04-1.80319E-01 6.65759E-14 3.48920E-15
 -1       534 1.97861E+01-2.59659E-02-1.45611E-04-1.68091E-01 7.41784E-14-8.31419E-14
 -1       535 1.98176E+01-2.69939E-02-1.48631E-04-1.51190E-01 5.22923E-14-1.05562E-13
 -1       536 1.98499E+01-2.45915E-02-1.34388E-04-1.33577E-01 8.58193E-14-1.19459E-13
 -1       537 1.98817E+01-1.97356E-02-1.07851E-04-1.18057E-01 1.25950E-13-7.92943E-14
 -1       538 1.99130E+01-1.29864E-02-7.19378E-05-1.06708E-01 1.29338E-14 2.60300E-16
 -1       539 1.99444E+01-4.58685E-03-2.79174E-05-1.01203E-01 1.00354E-13 3.30794E-14
 -1       540 1.99772E+01 5.46792E-03 2.42113E-05-1.03049E-01 1.38064E-13 1.13843E-13
 -1       541 2.00133E+01 1.73798E-02 8.54450E-05-1.13775E-01 1.29446E-13 1.30025E-13
 -1       542 2.00550E+01 3.15057E-02 1.57530E-04-1.35079E-01 1.85138E-14 8.67620E-14
 -1       543 2.01051E+01 4.83146E-02 2.42704E-04-1.68921E-01-7.68894E-14 5.39904E-14
 -1       544 2.01666E+01 6.83295E-02 3.43229E-04-2.17585E-01 3.31579E-14-7.30555E-14
 -1       545 2.02432E+01 9.20314E-02 4.60671E-04-2.83660E-01 5.96704E-14-2.17361E-13
 -1       546 2.03387E+01 1.19685E-01 5.94507E-04-3.69921E-01 1.15421E-13-6.83043E-14
 -1       547 2.04572E+01 1.51015E-01 7.39600E-04-4.79041E-01 2.59158E-14-4.53476E-14
 -1       548 2.06030E+01 1.84619E-01 8.81785E-04-6.12985E-01-1.44228E-13-1.41452E-13
 -1       549 2.07802E+01 2.16931E-01 9.90762E-04-7.71924E-01-1.32555E-13-2.83558E-13
 -1       550 2.09937E+01 2.40516E-01 1.00995E-03-9.52328E-01-8.55974E-14-3.21701E-13
 -1       551 2.12495E+01 2.41477E-01 8.46852E-04-1.14387E+00-7.60368E-14-2.79755E-13
 -1       552 2.15566E+01 1.96161E-01 3.68735E-04-1.32469E+00-9.98442E-14-8.02391E-14
 -1       553 2.19307E+01 6.84919E-02-5.73399E-04-1.45475E+00-3.07640E-14 3.27219E-14
 -1       554 2.23982E+01-1.87626E-01-2.04665E-03-1.46794E+00 8.58929E-14 8.69857E-14
 -1       555 2.29949E+01-6.09567E-01-3.96012E-03-1.26523E+00 4.71915E-14 1.51177E-13
 -1       556 2.37425E+01-1.17065E+00-6.35062E-03-7.24531E-01-2.30579E-13 3.16912E-13
 -1       557 2.45981E+01-1.68795E+00-6.27919E-03 2.48390E-01-1.58654E-13 4.93770E-13
 -1       558 2.53497E+01-1.72394E+00-8.59407E-03 1.57325E+00-1.25406E-13 5.77743E-13
 -1       559 2.56353E+01-7.29044E-01-2.71212E-02 2.76308E+00 8.24306E-14 7.01643E-13
 -1       560 2.52726E+01 1.24911E+00-2.85929E-02 2.86939E+00 4.49232E-13 6.93625E-13
 -1       561 2.44834E+01 2.97766E+00-9.52467E-02 1.24809E+00 5.21612E-13 2.89262E-13
 -1       562 2.43323E+01 2.79926E+00-1.17993E-01-1.15647E+00 4.20670E-13 1.37064E-13
 -1       563 2.51228E+01 8.50400E-01-3.39615E-02-2.46256E+00-1.78311E-13-3.79341E-13
 -1       564 2.53070E+01-1.07309E+00-1.58486E-02-2.08342E+00-3.16853E-13-1.63374E-13
 -1       565 2.47996E+01-1.81448E+00-1.27683E-02-8.04341E-01-1.87852E-13-4.21050E-13
 -1       566 2.38892E+01-1.65126E+00-8.65451E-03 5.05104E-01-5.99243E-14-5.84022E-14
 -1       567 2.29306E+01-1.07779E+00-6.10266E-03 1.41184E+00 1.76222E-13 1.30520E-13
 -1       568 2.21037E+01-4.67311E-01-1.88479E-03 1.86264E+00-3.55484E-14 8.28925E-14
 -1       569 2.14336E+01 4.64709E-02 3.30315E-04 1.93676E+00-7.97683E-14 7.07148E-14
 -1       570 2.08745E+01 4.60423E-01 1.53386E-03 1.72034E+00-7.54825E-14 3.02213E-13
 -1       571 1.91544E+01 1.98570E+00-1.55880E-03 1.79408E+00 2.29878E-13 2.48230E-13
 -1       572 1.87162E+01 2.37504E+00-2.32291E-03 1.07495E+00 3.59240E-13 1.00563E-13
 -1       573 2.02602E+01 9.84401E-01-1.76326E-03 2.14577E+00-3.07919E-13 1.80088E-13
 -1       574 1.97186E+01 1.48091E+00 2.06844E-03 2.14783E+00-4.19769E-13-1.56035E-13
 -1       575 1.85538E+01 2.52038E+00-2.48385E-03 1.23859E-01 2.35363E-13 1.22233E-15
 -1       576 1.87271E+01 2.36495E+00-2.46193E-03-8.25174E-01 5.76247E-14-8.46700E-14
 -1       577 1.91654E+01 1.96334E+00-1.86615E-03-1.53925E+00-5.03957E-14 6.73500E-14
 -1       578 1.96853E+01 1.46117E+00-1.23621E-03-1.89037E+00 1.50378E-13 5.98350E-14
 -1       579 2.01459E+01 9.73771E-01-5.07037E-06-1.90140E+00 3.48693E-13-1.85285E-13
 -1       580 2.04480E+01 5.88360E-01 1.39489E-03-1.66805E+00 1.89336E-13-4.70736E-13
 -1       581 2.05848E+01 3.29892E-01-7.95487E-04-1.30314E+00-8.70410E-14-2.28173E-13
 -1       582 5.60415E+00-1.82268E+00 1.82685E-01 2.44054E+00-2.51181E-13 5.20958E-13
 -1       583 1.69964E+01-5.65627E+00 9.22874E-02 7.10385E+00-6.88893E-13 4.93192E-13
 -1       584 1.99232E+01 2.46110E-01 2.45737E-03 1.59688E-01 2.38424E-13-1.07249E-13
 -1       585 5.61777E+00-1.97967E+00 1.84015E-01-2.84581E+00 1.45658E-13 1.63619E-14
 -1       586 1.06087E+01-3.90214E+00 1.54232E-01 6.48903E+00-6.71560E-13 5.85899E-13
 -1       587 2.52998E+01-5.64038E+00 2.85486E-02-4.53057E+00-3.28924E-13 6.55309E-14
 -1       588 2.86102E+01-4.36196E+00-7.76215E-02 1.88191E+00-2.60014E-13 2.79721E-13
 -1       589 3.02932E+01 7.47216E+00-1.76123E-01 6.87212E-02-2.52812E-13 2.54036E-13
 -1       590 1.96818E+01 3.19755E+00-5.10142E-03-3.13115E-01-1.09326E-13-4.58747E-13
 -1       591 2.87994E+01-4.11837E+00-4.88890E-02-1.08426E+00 5.88519E-13 3.43628E-13
 -1       592 3.10195E+01 5.80242E+00-1.69276E-01-1.34296E+00 2.21267E-13 2.73538E-13
 -1       593 3.04576E+01 6.93030E+00-1.86202E-01 6.88661E-01 8.39592E-13 4.10123E-14
 -1       594 3.00395E+01 3.90935E+00-1.80756E-01 2.76950E+00 1.04477E-12 2.37116E-13
 -1       595 1.75149E+01-5.70075E+00 8.36530E-02-7.20854E+00-1.23054E-13-6.81538E-14
 -1       596 3.07411E+01-1.36273E-01-1.34139E-01 1.97258E+00 7.29992E-13 4.23016E-13
 -1       597 2.31267E+01-5.96693E+00 4.00550E-03-4.68504E+00 1.34989E-13 3.53814E-14
 -1       598 1.42523E+01-5.01825E+00 1.12431E-01-6.61968E+00-3.63862E-13-9.72403E-13
 -1       599 7.90591E+00-3.15428E+00 1.46822E-01-5.14268E+00-1.70690E-13-1.06265E-12
 -1       600 4.10324E+00-1.97035E+00 1.55612E-01-9.31886E-01 1.80972E-13-6.34326E-13
 -1       601 5.44293E+00-1.91804E+00 1.77627E-01 3.15510E+00 3.09468E-13-8.65377E-13
 -1       602 1.24974E+01-4.17136E+00 1.29872E-01 6.83088E+00 3.27877E-13-2.83593E-14
 -1       603 1.83036E+01-5.58111E+00 7.68900E-02 6.68003E+00 1.72827E-13 2.77271E-13
 -1       604 2.39421E+01-5.55349E+00 4.40942E-03 4.76416E+00 6.37129E-14 1.40245E-13
 -1       605 2.87348E+01-3.09250E+00-5.94919E-02 1.06436E+00 1.03509E-13 1.84575E-15
 -1       606 3.05195E+01 1.44120E+00-1.17518E-01-1.46816E+00-1.08920E-13 1.39687E-13
 -1       607 2.99573E+01 5.66706E+00-1.74249E-01-1.84440E+00-3.68941E-13 2.14363E-13
 -1       608 3.00629E+01 5.14197E+00-1.72931E-01 1.57575E+00-1.48076E-14 3.34510E-13
 -1       609 3.04661E+01 1.00967E+00-1.13244E-01 1.18872E+00-4.19130E-13 1.42109E-14
 -1       610 2.84076E+01-3.95977E+00-6.60430E-02-1.97894E+00-3.05467E-13 1.88696E-13
 -1       611 1.00061E+01-3.69880E+00 1.48169E-01-6.36942E+00-2.17375E-13-8.60471E-13
 -1       612 2.03915E+01 1.77151E+00-5.65486E-03-1.54699E+00-4.15351E-13 1.36639E-14
 -1       613 2.05845E+01 1.30518E+00-1.00022E-03 1.54847E+00 3.96248E-13 1.25310E-14
 -1       614 1.99796E+01 2.66216E+00-6.53941E-03-1.25505E+00-3.36316E-13-2.70750E-13
 -1       615 2.96109E+01 3.09743E+00-1.61138E-01-2.26670E+00 9.71445E-14 3.80342E-13
 -1       616 2.96097E+01-1.91560E+00-3.28266E-02-8.88183E-01-2.30385E-13 1.41664E-13
 -1       617 1.02788E+01-2.03239E+00 1.52461E-01 5.21170E+00 3.94629E-13-5.15546E-13
 -1       618 2.02583E+01-5.45166E+00 5.47004E-02-5.39495E+00-2.28165E-13-2.58434E-13
 -1       619 2.06867E+01 1.32973E-01 4.91935E-04-9.86555E-01-2.40813E-13 1.55438E-13
 -1       620 1.99614E+01 2.44870E+00-1.58758E-03 3.94527E-01 8.19984E-14-3.79788E-13
 -1       621 1.99298E+01 2.52357E+00-1.51867E-03 1.35919E-01 6.02750E-15-3.78295E-13
 -1       622 2.01209E+01 2.04549E+00-1.58299E-03 8.51110E-01 2.26002E-13-3.29982E-13
 -1       623 2.02395E+01 1.67498E+00-2.21859E-03 9.92638E-01 3.08948E-13-2.36052E-13
 -1       624 8.04794E+00-2.81774E-01 1.56409E-01-2.54504E-01 2.35287E-13 9.14893E-14
 -1       625 2.03187E+01 1.03657E+00 2.85957E-03 8.32405E-01 3.31202E-13-1.78968E-13
 -1       626 2.02399E+01 6.68688E-01-3.42896E-04-3.94214E-01-2.14115E-13-8.78736E-14
 -1       627 2.01674E+01 3.91354E-01 2.03327E-04-1.41057E-01-1.75656E-13-1.05499E-13
 -1       628 2.01017E+01 2.12279E-01 3.88965E-05 2.07963E-02-1.41016E-13-9.26419E-14
 -1       629 2.00516E+01 9.83406E-02 6.09601E-06 1.15924E-01-1.41809E-13-7.07860E-14
 -1       630 2.00168E+01 2.73048E-02-1.42001E-05 1.65048E-01-9.63989E-14-8.05071E-14
 -1       631 1.99948E+01-1.49436E-02-2.49972E-05 1.83977E-01-6.86586E-14-1.50211E-14
 -1       632 1.99824E+01-3.75771E-02-3.01162E-05 1.84246E-01-8.11074E-14 6.67128E-14
 -1       633 1.99770E+01-4.67051E-02-3.08921E-05 1.74175E-01-1.07999E-13 1.33937E-13
 -1       634 1.99766E+01-4.64343E-02-2.83550E-05 1.59732E-01-1.07880E-13 1.18232E-13
 -1       635 1.99797E+01-3.94842E-02-2.34577E-05 1.45210E-01-8.74478E-14 7.48326E-14
 -1       636 1.99853E+01-2.75819E-02-1.67994E-05 1.33760E-01 2.79236E-14 6.19589E-15
 -1       637 1.99930E+01-1.17317E-02-8.74219E-06 1.27789E-01 3.59498E-14 6.33317E-14
 -1       638 2.00025E+01 7.57960E-03 5.99999E-07 1.29263E-01-1.31283E-14 1.02757E-13
 -1       639 2.00138E+01 3.02056E-02 1.12798E-05 1.39913E-01-6.97601E-14 7.97097E-14
 -1       640 2.00272E+01 5.61654E-02 2.33878E-05 1.61378E-01-5.69665E-14-2.24447E-14
 -1       641 2.00432E+01 8.54466E-02 3.70099E-05 1.95248E-01-8.17964E-14 8.22321E-14
 -1       642 2.00623E+01 1.17761E-01 5.20451E-05 2.43034E-01-7.65536E-14 1.25123E-13
 -1       643 2.00854E+01 1.52224E-01 6.80711E-05 3.06028E-01 1.57533E-14 7.43159E-14
 -1       644 2.01138E+01 1.86920E-01 8.40915E-05 3.85037E-01 3.50118E-14-4.89188E-14
 -1       645 2.01496E+01 2.18321E-01 9.81769E-05 4.79962E-01-4.89078E-15-3.69802E-14
 -1       646 2.01957E+01 2.40536E-01 1.06984E-04 5.89181E-01-1.39193E-13-1.12262E-13
 -1       647 2.02573E+01 2.44416E-01 1.05111E-04 7.08697E-01-9.81953E-14-1.02833E-13
 -1       648 2.03424E+01 2.16648E-01 8.41759E-05 8.30970E-01 6.98018E-14-1.83140E-14
 -1       649 2.04637E+01 1.39243E-01 3.03198E-05 9.43375E-01-2.64034E-14 5.51379E-14
 -1       650 2.06402E+01-9.66929E-03-7.34402E-05 1.02614E+00-2.99526E-14 2.34207E-13
 -1       651 2.08980E+01-2.51968E-01-2.56569E-04 1.04973E+00 2.18905E-15 3.27269E-13
 -1       652 2.12680E+01-5.99399E-01-5.17370E-04 9.71857E-01 6.84605E-14 3.36320E-13
 -1       653 2.17754E+01-1.03255E+00-7.86770E-04 7.36335E-01-3.27404E-14 3.60444E-13
 -1       654 2.24161E+01-1.46582E+00-9.59650E-04 2.81128E-01 4.42463E-14 3.63587E-13
 -1       655 2.31159E+01-1.70818E+00-1.65886E-03-4.29060E-01-8.18098E-14 3.58582E-13
 -1       656 2.36938E+01-1.46117E+00-4.74608E-03-1.31830E+00-1.37548E-13 4.15244E-13
 -1       657 2.39154E+01-4.57761E-01-7.69593E-03-2.08259E+00-2.91178E-14 2.68565E-13
 -1       658 2.36542E+01 1.19125E+00-7.25505E-03-2.19394E+00-9.26874E-14 8.41814E-14
 -1       659 2.31939E+01 2.68555E+00-2.70759E-02-1.31476E+00-2.38319E-13-7.18063E-14
 -1       660 2.31266E+01 2.95483E+00-2.70410E-02 2.65948E-01-1.18496E-13-6.77296E-15
 -1       661 2.34051E+01 1.81489E+00-2.47539E-02 1.52573E+00 6.31335E-14 1.29916E-13
 -1       662 2.38170E+01 2.60147E-02-7.65494E-04 1.73593E+00 6.98209E-14-5.42457E-14
 -1       663 2.37739E+01-1.25720E+00-4.57457E-03 1.11387E+00 1.10306E-13-2.67418E-13
 -1       664 2.32688E+01-1.74911E+00-3.08632E-03 1.80069E-01 3.30090E-13-1.99061E-13
 -1       665 2.25506E+01-1.58531E+00-1.87460E-03-6.28868E-01 1.67996E-13-3.53931E-13
 -1       666 2.18293E+01-1.07734E+00-1.01276E-03-1.15622E+00-5.69065E-14-5.30416E-13
 -1       667 2.12171E+01-4.61175E-01-3.62004E-04-1.38874E+00-9.97045E-14-5.27070E-13
 -1       668 1.99725E+01 8.78993E-02 5.46317E-05-1.18133E-01 8.42582E-14-7.77772E-14
 -1       669 2.05240E+01 3.14606E-01 7.95802E-04 2.54754E+00-3.24932E-13-9.03244E-14
 -1       670 1.03038E+01-1.44824E+00 1.48584E-01-4.47195E+00 1.01617E-13-2.90143E-13
 -1       671 2.00262E+01 1.89034E-01 1.84553E-04-1.95831E-02 1.37155E-13-1.24424E-13
 -1       672 1.99255E+01-1.19466E-02-2.79827E-05-1.87296E-01 5.50738E-14-1.81082E-14
 -1       673 1.99215E+01-3.20800E-02-4.26602E-05-1.86994E-01 9.49804E-14-8.46006E-15
 -1       674 1.99251E+01-4.05610E-02-4.80752E-05-1.76017E-01 5.48773E-14 4.90157E-14
 -1       675 1.99335E+01-4.09873E-02-4.66059E-05-1.60416E-01 6.02976E-14 3.87387E-14
 -1       676 1.99448E+01-3.57229E-02-4.01579E-05-1.44509E-01 7.67278E-14 9.01935E-14
 -1       677 1.99582E+01-2.62431E-02-2.99565E-05-1.31442E-01 2.41446E-14 1.21632E-13
 -1       678 1.99732E+01-1.33564E-02-1.66994E-05-1.23629E-01-1.83373E-15 1.26886E-13
 -1       679 1.99899E+01 2.63955E-03-5.94949E-07-1.23080E-01 4.76405E-14 1.43542E-13
 -1       680 2.00087E+01 2.18448E-02 1.85224E-05-1.31654E-01 1.35514E-13 3.16443E-13
 -1       681 2.00302E+01 4.46665E-02 4.11313E-05-1.51243E-01 1.20259E-13 2.88959E-13
 -1       682 2.00553E+01 7.17378E-02 6.81035E-05-1.83910E-01 9.14771E-15 1.48479E-13
 -1       683 2.00848E+01 1.03823E-01 1.00340E-04-2.31967E-01 2.28331E-14 4.42180E-14
 -1       684 2.01197E+01 1.41685E-01 1.38765E-04-2.97989E-01 1.00035E-13 1.31547E-13
 -1       685 2.01607E+01 1.85866E-01 1.84022E-04-3.84747E-01 4.91610E-14 6.99761E-14
 -1       686 2.02084E+01 2.36310E-01 2.35985E-04-4.95022E-01 3.90763E-14 1.77286E-14
 -1       687 2.02634E+01 2.91705E-01 2.92811E-04-6.31248E-01-2.04214E-14 1.41782E-13
 -1       688 2.03260E+01 3.48339E-01 3.49225E-04-7.94905E-01-2.06004E-14 6.07627E-14
 -1       689 2.03979E+01 3.98212E-01 3.93539E-04-9.85549E-01-1.85069E-13 2.94755E-14
 -1       690 2.04832E+01 4.26076E-01 4.02501E-04-1.19930E+00-7.48085E-14 4.43375E-14
 -1       691 2.05931E+01 4.05271E-01 3.41219E-04-1.42658E+00-1.83542E-13 2.09051E-13
 -1       692 2.07519E+01 2.92873E-01 1.60116E-04-1.64856E+00-1.01783E-13 2.06897E-13
 -1       693 2.10080E+01 2.67405E-02-1.63368E-04-1.83139E+00-3.84426E-14 2.10554E-13
 -1       694 2.14459E+01-4.68509E-01-4.97740E-04-1.91643E+00 5.54109E-14 2.96870E-13
 -1       695 2.22002E+01-1.25088E+00-1.03006E-05-1.79463E+00-1.69003E-13 4.94981E-13
 -1       696 2.33741E+01-2.22506E+00-2.25595E-03-1.28608E+00-3.65527E-13 4.35353E-13
 -1       697 2.50112E+01-3.06307E+00-6.05634E-03-1.73748E-01-3.40565E-13 6.92641E-13
 -1       698 2.66497E+01-2.67007E+00-4.06647E-02 1.52114E+00-2.42618E-14 8.24232E-13
 -1       699 2.62861E+01-2.87492E+00-4.98369E-03-6.16899E-01-3.69337E-13 3.54943E-13
 -1       700 2.45338E+01-2.99172E+00-1.80534E-03 1.03683E+00-2.45193E-13 4.06159E-13
 -1       701 2.29365E+01-2.08645E+00-4.35809E-04 2.03958E+00 1.57820E-14 1.60425E-13
 -1       702 2.18170E+01-1.05858E+00 8.60636E-04 2.45736E+00 1.76703E-13 4.94887E-14
 -1       703 2.10542E+01-3.43746E-01 1.04811E-03 2.61067E+00 1.87519E-13-2.08620E-13
 -1       704 1.76303E+01 1.88318E+00-8.40028E-04-5.29934E-01 3.64323E-13-1.44864E-14
 -1       705 2.08783E+01-4.70874E-02 1.62213E-03-1.39340E+00 2.51988E-14-4.92268E-13
 -1       706 1.81978E+01 1.59352E+00 9.09504E-04 1.84222E+00 3.22747E-13 1.96642E-13
 -1       707 1.82205E+01 1.49175E+00 5.71506E-04-1.62706E+00 2.75906E-13-3.85899E-13
 -1       708 1.76199E+01 1.91506E+00-1.90276E-03 7.46526E-01 4.17928E-13-5.88283E-14
 -1       709 2.72109E+01 6.05807E+00-1.57515E-01-9.75426E-01-3.28980E-13 4.27766E-13
 -1       710 1.90991E+01 9.27863E-01-6.38926E-04-2.23742E+00 1.25124E-13 9.60062E-14
 -1       711 1.99703E+01 3.89070E-01-3.66272E-04-2.35396E+00-4.11332E-14 1.21737E-13
 -1       712 2.05884E+01 2.60805E-02 2.85368E-04-2.08660E+00 1.31913E-13-3.81624E-13
 -1       713 1.61823E+01-3.56932E+00 1.11305E-01 6.17166E+00-5.33157E-13 5.49789E-13
 -1       714 2.23615E+01-5.19987E+00 3.50803E-02 4.55986E+00 2.42431E-13 7.97123E-14
 -1       715 1.07403E+01-1.38813E+00 1.43792E-01 4.49945E+00-9.96703E-14 2.54595E-13
 -1       716 1.55924E+01-3.77688E+00 1.01009E-01-6.49342E+00-2.32075E-13-4.52208E-13
 -1       717 2.65689E+01-5.20925E+00-5.49142E-02 1.98685E+00-5.19635E-13 8.52339E-14
 -1       718 2.60319E+01-5.06300E+00 3.19403E-03-1.84111E+00-7.63157E-14 5.93631E-13
 -1       719 2.78742E+01 2.58513E+00-1.12611E-01-2.44490E+00-2.84321E-13 3.42015E-13
 -1       720 2.01047E+01 3.52726E-01 6.37686E-04 1.50230E-01 2.03167E-13-1.17917E-13
 -1       721 1.99408E+01 2.52697E-02-2.93295E-07-1.68377E-01 4.90883E-14-5.00578E-14
 -1       722 2.02915E+01 1.12224E+00 1.61152E-03-7.62222E-01-2.73790E-13-9.11534E-14
 -1       723 2.24219E+01-5.48352E+00 4.55283E-02-5.20532E+00-3.39690E-13 3.45564E-13
 -1       724 2.00250E+01 2.29421E+00-1.65207E-03 6.38411E-01 1.54800E-13-3.49498E-13
 -1       725 2.16806E+01-5.23386E+00 5.72786E-02 5.29809E+00-5.63986E-13 2.27689E-13
 -1       726 2.81831E+01-2.24741E+00-7.92169E-02 5.82778E-01-3.03672E-13-3.15682E-13
 -1       727 2.00197E+01 2.30419E+00-1.68539E-03-6.29413E-01-2.04239E-13-3.14825E-13
 -1       728 2.66862E+01 5.32447E+00-1.42943E-01 1.04929E+00-1.54612E-13 4.78948E-13
 -1       729 7.24590E+00-3.36323E-01 1.69134E-01 7.87672E-01 1.84628E-13-7.14651E-13
 -1       730 1.32383E+01-2.97094E+00 1.31746E-01-5.62133E+00-3.91763E-13-1.08769E-12
 -1       731 2.80784E+01-1.45513E+00-7.92165E-02-1.39529E+00-2.62932E-14 1.78042E-13
 -1       732 8.28958E+00-8.50432E-01 1.55138E-01-2.89565E+00 3.93314E-14-4.43277E-13
 -1       733 1.81514E+01-4.37675E+00 7.57975E-02 5.89292E+00 3.56312E-13 1.10145E-13
 -1       734 2.02053E+01 6.13513E-01 9.75471E-04 4.21348E-01 2.64758E-13-1.48138E-13
 -1       735 2.61778E+01-4.56926E+00-2.98778E-02 1.72147E+00 1.51094E-13 9.43447E-14
 -1       736 2.73193E+01 1.97406E+00-9.50521E-02 2.18930E+00-7.64805E-14 1.11505E-13
 -1       737 2.64907E+01-4.92503E+00-2.36722E-02-2.40849E+00-1.95653E-13-1.98869E-14
 -1       738 2.83229E+01-3.05889E+00-4.09719E-02 1.08675E+00 2.65033E-13 7.96911E-13
 -1       739 2.74791E+01-6.60916E-01-8.55829E-02 2.90974E+00 2.12684E-13 6.18554E-13
 -1       740 2.01137E+01 2.06373E+00-1.71041E-03-8.48259E-01-2.69459E-13-2.59503E-13
 -1       741 1.99289E+01 2.52512E+00-1.52274E-03-1.26652E-01-8.00437E-14-4.24260E-13
 -1       742 2.86578E+01-4.70560E-01-7.56032E-02-2.26075E+00-6.06112E-15 3.51202E-13
 -1       743 9.94326E+00-4.25461E-01 1.22318E-01 3.12671E+00 2.74503E-13-6.48467E-13
 -1       744 1.91064E+01 1.07777E+00-1.54771E-04 2.48684E+00 1.21211E-13 4.93002E-13
 -1       745 2.59793E+01 3.87286E+00-9.47328E-02-2.13114E+00-3.98091E-13 2.49051E-13
 -1       746 1.52637E+01-2.69242E+00 9.21563E-02 5.47733E+00 3.78276E-13 1.22503E-13
 -1       747 1.99583E+01 2.45434E+00-1.58421E-03-3.84767E-01-1.33604E-13-3.67411E-13
 -1       748 2.02551E+01 1.60139E+00-9.12412E-04-9.93829E-01-3.32385E-13-1.45325E-13
 -1       749 1.79360E+01-3.75062E+00 5.48253E-02-5.19128E+00-4.40589E-13-4.45042E-13
 -1       750 2.09681E+01-2.94901E-01 1.49586E-03-1.78667E+00-1.77810E-13-6.91406E-13
 -1       751 2.02720E+01 1.30077E+00 8.20023E-04 6.31769E-01 2.35078E-13-2.12524E-13
 -1       752 2.07114E+01-3.95077E+00 2.98061E-02 4.21405E+00 2.65954E-13-1.10171E-13
 -1       753 1.99726E+01-3.38255E+00 3.58903E-02 4.88086E+00-2.66267E-13 4.62203E-13
 -1       754 2.02629E+01 4.32826E-01 6.16519E-05-9.45357E-02-1.60826E-13-1.52799E-13
 -1       755 2.02229E+01 2.34243E-01-4.64806E-06 3.46866E-02-1.21376E-13-1.21000E-13
 -1       756 2.01817E+01 1.04577E-01-7.58929E-06 1.12080E-01-1.22318E-13-1.32346E-13
 -1       757 2.01444E+01 2.28092E-02-7.67873E-06 1.52331E-01-3.15469E-14-1.19810E-13
 -1       758 2.01129E+01-2.54731E-02-8.14454E-06 1.67635E-01-4.80174E-15-4.73790E-14
 -1       759 2.00873E+01-5.02679E-02-8.47449E-06 1.67497E-01-4.18997E-14 3.13082E-14
 -1       760 2.00670E+01-5.85525E-02-8.05850E-06 1.59041E-01-9.66466E-14 7.51019E-14
 -1       761 2.00514E+01-5.51115E-02-7.01862E-06 1.47516E-01-8.55155E-14 1.41308E-13
 -1       762 2.00396E+01-4.31292E-02-5.38926E-06 1.36801E-01-6.44881E-14 1.04200E-13
 -1       763 2.00306E+01-2.46051E-02-3.53409E-06 1.29822E-01-1.57799E-14-3.44604E-15
 -1       764 2.00238E+01-6.61988E-04-1.52132E-06 1.28886E-01-7.11458E-15-3.74497E-14
 -1       765 2.00181E+01 2.81925E-02 7.06256E-07 1.35940E-01-5.54883E-14-9.13241E-14
 -1       766 2.00130E+01 6.18282E-02 3.22146E-06 1.52758E-01-1.21496E-13-1.18387E-13
 -1       767 2.00077E+01 1.00243E-01 6.20518E-06 1.81050E-01-1.81602E-14-1.06514E-13
 -1       768 2.00014E+01 1.43275E-01 9.66764E-06 2.22509E-01-3.52516E-14-7.39609E-15
 -1       769 1.99936E+01 1.90245E-01 1.36506E-05 2.78773E-01-9.94695E-14-9.52914E-14
 -1       770 1.99841E+01 2.39491E-01 1.81978E-05 3.51315E-01-5.18316E-14-1.27351E-13
 -1       771 1.99735E+01 2.87760E-01 2.32924E-05 4.41240E-01 3.50509E-14-9.62807E-14
 -1       772 1.99633E+01 3.29408E-01 2.88181E-05 5.48993E-01-2.86851E-14-8.02830E-14
 -1       773 1.99573E+01 3.55405E-01 3.44874E-05 6.73938E-01-1.08629E-13 8.08195E-14
 -1       774 1.99628E+01 3.52185E-01 3.95726E-05 8.13794E-01 4.81630E-14 5.92203E-14
 -1       775 1.99928E+01 3.00518E-01 4.18209E-05 9.63780E-01 1.48690E-14 1.57289E-13
 -1       776 2.00685E+01 1.74885E-01 3.01398E-05 1.11519E+00 6.50427E-14 1.63756E-13
 -1       777 2.02228E+01-5.55024E-02 9.34067E-07 1.25272E+00 6.09523E-14 2.27616E-13
 -1       778 2.05034E+01-4.21722E-01-8.37463E-05 1.34944E+00-3.06640E-14 2.98689E-13
 -1       779 2.09719E+01-9.41479E-01-1.19347E-04 1.35776E+00-8.21782E-14 8.87933E-14
 -1       780 2.16917E+01-1.58698E+00 1.95260E-04 1.19624E+00 3.25383E-14-1.00992E-13
 -1       781 2.26857E+01-2.22250E+00 4.03773E-04 7.49361E-01 1.19583E-14-1.77953E-13
 -1       782 2.38748E+01-2.52221E+00 7.65406E-04-1.00014E-01 3.87089E-14-3.46917E-14
 -1       783 2.49386E+01-1.93045E+00-8.82756E-03-1.32826E+00-6.95932E-14 1.82715E-13
 -1       784 2.53762E+01-4.19486E-02-4.92646E-02-2.43489E+00-1.35733E-13 2.75255E-13
 -1       785 2.49352E+01 3.64210E+00-1.11970E-01 1.23366E+00 4.89192E-14-5.56846E-15
 -1       786 2.44332E+01-2.54915E+00-3.53949E-03-2.25698E-02 3.98357E-13-6.37550E-14
 -1       787 2.32737E+01-2.44652E+00-1.50683E-03-1.06522E+00 2.21351E-13 2.71229E-14
 -1       788 2.21967E+01-1.75751E+00-7.64517E-04-1.65337E+00-1.54013E-13-2.07584E-13
 -1       789 2.14865E+01-1.00607E+00 4.61308E-04-1.80749E+00-2.38165E-13-3.90057E-13
 -1       790 2.61492E+01-2.95897E+00-2.09237E-02-5.05007E-01 6.44550E-14 9.78618E-14
 -1       791 1.13111E+01 2.05808E-01 8.57876E-02 1.97779E+00 1.48832E-13 1.22530E-13
 -1       792 2.00434E+01-4.49208E-02-1.35980E-05-1.76370E-01-1.29711E-14-1.58869E-14
 -1       793 2.00632E+01-2.09971E-02-1.18218E-05-1.76540E-01 5.10736E-14-8.39186E-14
 -1       794 2.00208E+01-5.17310E-02-1.22405E-05-1.54046E-01-3.71181E-15 3.05930E-14
 -1       795 2.00157E+01-4.20210E-02-1.01705E-05-1.41598E-01 4.07037E-14 3.39212E-14
 -1       796 2.00134E+01-2.63424E-02-6.95627E-06-1.32735E-01 3.65180E-14 6.95501E-14
 -1       797 2.00134E+01-5.61883E-03-2.82359E-06-1.29891E-01 1.36908E-14 3.11127E-14
 -1       798 2.00149E+01 1.98997E-02 2.00156E-06-1.35151E-01-4.50091E-14 9.15446E-14
 -1       799 2.00173E+01 5.04765E-02 7.25484E-06-1.50476E-01 1.43307E-13 1.27362E-13
 -1       800 2.00201E+01 8.67558E-02 1.36096E-05-1.77853E-01 6.50397E-14 2.07115E-13
 -1       801 2.00224E+01 1.29631E-01 2.12891E-05-2.19402E-01 6.58655E-14 1.36780E-13
 -1       802 2.00232E+01 1.80077E-01 3.06591E-05-2.77413E-01-3.99164E-15 1.65808E-13
 -1       803 2.00209E+01 2.38915E-01 4.20813E-05-3.54320E-01 8.10556E-14 2.63103E-13
 -1       804 2.00136E+01 3.06451E-01 5.60176E-05-4.52609E-01 9.19526E-14 2.58185E-13
 -1       805 1.99987E+01 3.81863E-01 7.29931E-05-5.74651E-01-5.93650E-14 1.20696E-13
 -1       806 1.99733E+01 4.62214E-01 9.35030E-05-7.22489E-01-9.17200E-15 1.32089E-13
 -1       807 1.99346E+01 5.40817E-01 1.17649E-04-8.97601E-01-6.57875E-14 2.37075E-13
 -1       808 1.98820E+01 6.04677E-01 1.43696E-04-1.10075E+00-1.42251E-13 1.54511E-13
 -1       809 1.98194E+01 6.30633E-01 1.62880E-04-1.33197E+00-1.73497E-13 1.75365E-13
 -1       810 1.97623E+01 5.80143E-01 1.83824E-04-1.59067E+00-2.90535E-13 2.06040E-13
 -1       811 1.97476E+01 3.93178E-01 2.36263E-04-1.87528E+00-4.38912E-14 2.88235E-13
 -1       812 1.98518E+01-1.64757E-02 6.74935E-04-2.17906E+00-9.64838E-14 1.40867E-13
 -1       813 2.02054E+01-7.49260E-01 2.62561E-03-2.47735E+00-2.12014E-13 2.92574E-13
 -1       814 2.10749E+01-1.94557E+00-7.81648E-03-2.69951E+00-2.60242E-13 4.35061E-13
 -1       815 2.28234E+01-3.48343E+00 2.29672E-02-2.59463E+00-5.97461E-13 7.60233E-13
 -1       816 2.49723E+01-4.57205E+00-9.97095E-03 2.41554E+00-3.74258E-13 1.53853E-13
 -1       817 2.01405E+01 1.88799E+00-3.34193E-04 1.99473E-01 4.06980E-14-3.12099E-13
 -1       818 2.38916E+01-4.44618E+00 3.68403E-03 2.50785E+00 1.26098E-13-3.94383E-14
 -1       819 1.67440E+01 1.17230E+00-3.03525E-03-1.56869E+00 2.84473E-13-3.45641E-13
 -1       820 2.06534E+01-6.88769E-01 8.77323E-04-2.53911E+00-3.04742E-13-1.89187E-13
 -1       821 1.80615E+01 4.75870E-01 2.55773E-03-2.57440E+00 2.21053E-13-1.84015E-13
 -1       822 2.50239E+01 4.80813E+00-1.00460E-01-2.35400E-01-2.23630E-13 2.04224E-13
 -1       823 1.95288E+01-2.42665E-01 4.72404E-04-2.85935E+00 7.04413E-14 6.11964E-14
 -1       824 2.10467E+01-1.69430E+00-3.63656E-03 3.27512E+00 2.62209E-13 6.58009E-13
 -1       825 2.25259E+01-3.21177E+00 2.08821E-02 3.23451E+00-7.34838E-14 4.18849E-13
 -1       826 1.27956E+01-8.61086E-01 9.46510E-02-3.85872E+00-7.09580E-14-7.14408E-13
 -1       827 2.00297E+01-5.36792E-02-1.36023E-05-1.67002E-01 4.57304E-14 4.55283E-14
 -1       828 2.01710E+01 2.23998E-01 1.76219E-05-3.09381E-02 7.74584E-14-8.96695E-14
 -1       829 1.14619E+01 1.65305E-01 7.58379E-02-2.18274E+00 1.56109E-13 1.27835E-13
 -1       830 2.02200E+01 4.13475E-01-1.77784E-04 1.12401E-01 1.42720E-13-1.13413E-13
 -1       831 1.98015E+01-3.81256E+00 5.30912E-02-5.24813E+00-7.80391E-14 1.78797E-13
 -1       832 2.02762E+01 9.43324E-01 2.60001E-05 5.54016E-01 2.57841E-13-1.41301E-13
 -1       833 1.53473E+01-1.31713E+00 6.21756E-02 4.66211E+00-8.84961E-14 2.45030E-13
 -1       834 1.45245E+01-1.82389E+00 7.34839E-02-5.08923E+00 1.06359E-13-5.30003E-13
 -1       835 2.28055E+01-4.31083E+00 1.11789E-01-3.32026E+00-5.21798E-13 6.80053E-13
 -1       836 2.02724E+01 1.28223E+00 4.59817E-04-6.68446E-01-2.57890E-13-1.40670E-13
 -1       837 2.02912E+01 7.24811E-01 7.47750E-05-2.90595E-01-1.92179E-13-1.31689E-13
 -1       838 1.02278E+01 4.04292E-01 9.64267E-02-9.34446E-01 5.08812E-14-4.58762E-13
 -1       839 2.55787E+01-1.76143E+00-2.11100E-02 1.14907E+00 1.39723E-14 9.90167E-14
 -1       840 2.01289E+01 1.92643E+00-3.18328E-04 3.33684E-03-1.74603E-14-3.34051E-13
 -1       841 2.32431E+01-4.49690E+00 2.61869E-02-3.65796E+00 3.48697E-14-6.74663E-13
 -1       842 1.62887E+01 1.50114E+00 1.26016E-02 5.48281E-02 2.56547E-13-1.09086E-13
 -1       843 1.35427E+01-1.11245E+00 6.13216E-02 4.27522E+00 3.39934E-13-1.96714E-13
 -1       844 1.80507E+01 6.93964E-01 1.61420E-03 2.73586E+00 2.58148E-13 5.44157E-13
 -1       845 2.01265E+01 1.01567E-01-1.05280E-05-1.15922E-01 3.76609E-14-8.32540E-14
 -1       846 2.00905E+01 2.46335E-02-9.64976E-06-1.59842E-01 2.37482E-14-9.28377E-14
 -1       847 2.02138E+01 1.59821E+00-5.43622E-04-5.32713E-01-2.17721E-13-2.53501E-13
 -1       848 1.12148E+01 5.69932E-01 6.58193E-02 1.10890E+00 1.53084E-13-6.18009E-13
 -1       849 2.01724E+01 1.77498E+00-3.57762E-04 3.81810E-01 9.77700E-14-3.15728E-13
 -1       850 2.01984E+01-6.48961E-01-3.33706E-03 3.15096E+00 4.23609E-13 6.96077E-13
 -1       851 1.67601E+01 1.28811E+00 2.90065E-03 1.71460E+00 2.49601E-13 2.65518E-13
 -1       852 2.02202E+01 1.58153E+00-2.66990E-04 5.34946E-01 1.57404E-13-2.83908E-13
 -1       853 1.62398E+01-1.84297E+00 4.82335E-02-4.34663E+00-3.60296E-13-4.63693E-13
 -1       854 1.83408E+01-2.75123E+00 3.59969E-02 4.45220E+00 1.49313E-13-1.06636E-13
 -1       855 1.97369E+01-2.03273E-02-5.50251E-03 3.01654E+00 3.63496E-13 5.23449E-13
 -1       856 2.01672E+01 1.78212E+00-1.12543E-03-3.74630E-01-1.59043E-13-2.84688E-13
 -1       857 2.57159E+01-3.65363E+00-5.51545E-03-7.37590E-01 1.46909E-13-2.65255E-13
 -1       858 2.02536E+01 6.30014E-01-4.54319E-04 2.97809E-01 1.95795E-13-1.42721E-13
 -1       859 2.11363E+01-9.12129E-01-1.43504E-03-2.21594E+00-5.31024E-13-8.21156E-13
 -1       860 2.12607E+01-3.13895E+00 1.22378E-02-3.88467E+00 1.31368E-13-5.48304E-13
 -1       861 1.32364E+01 3.96228E-01 4.18174E-02-2.12330E+00-5.42251E-14-1.89199E-13
 -1       862 2.03064E+01 2.28052E-01-1.32767E-05 4.65261E-02-9.07218E-14-1.17183E-13
 -1       863 2.02704E+01 9.41146E-02-3.15276E-06 1.02788E-01-5.60938E-14-6.93102E-14
 -1       864 2.02313E+01 9.76358E-03-1.16954E-06 1.31472E-01-2.60244E-14-5.95123E-14
 -1       865 2.01933E+01-3.88280E-02-1.59056E-06 1.41644E-01-2.87732E-14-1.20629E-13
 -1       866 2.01583E+01-6.18623E-02-2.22156E-06 1.40581E-01-2.10838E-14-6.71763E-14
 -1       867 2.01273E+01-6.66313E-02-2.54961E-06 1.33808E-01-1.26061E-13-9.62530E-14
 -1       868 2.01001E+01-5.81572E-02-1.95758E-06 1.25523E-01-8.04490E-14-8.85170E-14
 -1       869 2.00763E+01-3.97930E-02-1.16482E-06 1.18893E-01-6.10111E-14-7.83997E-14
 -1       870 2.00547E+01-1.35786E-02-7.49347E-07 1.16367E-01-2.74593E-14-1.43393E-13
 -1       871 2.00343E+01 1.93975E-02-8.27354E-07 1.19955E-01-6.59540E-14-1.27353E-13
 -1       872 2.00136E+01 5.87019E-02-1.15516E-06 1.31421E-01-4.34539E-14-1.71665E-13
 -1       873 1.99910E+01 1.04265E-01-1.13941E-06 1.52447E-01-5.69771E-14-5.19899E-14
 -1       874 1.99647E+01 1.56052E-01-1.04335E-06 1.84729E-01 2.74272E-14-5.44091E-14
 -1       875 1.99330E+01 2.13700E-01-9.56253E-07 2.30021E-01-1.22924E-13 1.50176E-14
 -1       876 1.98943E+01 2.76061E-01-7.90530E-07 2.90148E-01-4.07397E-14 6.02960E-16
 -1       877 1.98474E+01 3.40618E-01-4.17424E-07 3.66981E-01-9.57714E-15 2.58528E-14
 -1       878 1.97918E+01 4.02738E-01 3.70418E-07 4.62396E-01 4.65565E-14 4.98108E-14
 -1       879 1.97288E+01 4.54727E-01 1.96454E-06 5.78229E-01-2.55279E-14-1.38067E-14
 -1       880 1.96624E+01 4.84686E-01 5.07770E-06 7.16246E-01-2.56009E-14 2.51086E-14
 -1       881 1.96013E+01 4.75169E-01 1.05859E-05 8.78093E-01-4.53620E-14 6.19956E-14
 -1       882 1.95615E+01 4.01803E-01 1.78654E-05 1.06505E+00-5.72633E-15-5.37334E-14
 -1       883 1.95705E+01 2.32117E-01 3.96196E-06 1.27707E+00 7.86986E-14-9.10954E-14
 -1       884 1.96736E+01-7.42989E-02 2.98767E-05 1.50953E+00 5.22065E-14-1.80049E-13
 -1       885 1.99402E+01-5.61910E-01 4.74266E-05 1.74567E+00-7.57404E-14-2.08318E-13
 -1       886 2.04732E+01-1.26656E+00 6.72355E-04 1.93849E+00 3.39906E-14 4.13797E-15
 -1       887 2.14074E+01-2.17377E+00 2.59519E-03 1.97342E+00-2.30394E-14 8.28964E-14
 -1       888 2.28600E+01-3.08762E+00 1.25507E-02 1.64698E+00 1.94094E-13 1.49576E-13
 -1       889 2.22964E+01-2.53247E+00 3.67670E-04-2.46655E+00-1.80548E-14-6.72350E-13
 -1       890 2.02796E+01 1.25074E+00 4.17061E-04-4.48315E-01-2.09851E-13-2.20453E-13
 -1       891 2.00626E+01-4.16420E-02-1.70178E-06-1.28112E-01 1.73667E-14-1.93450E-14
 -1       892 2.00810E+01-5.73052E-02-8.47850E-07-1.36458E-01 9.50671E-15-5.12633E-14
 -1       893 2.00325E+01 1.13601E-02 1.12647E-06-1.25873E-01-1.75604E-14 5.55842E-14
 -1       894 2.00183E+01 4.77063E-02 1.39503E-06-1.36077E-01 3.66846E-14-5.43010E-14
 -1       895 2.00026E+01 9.10357E-02 1.90281E-06-1.56265E-01 6.14868E-14 1.35100E-14
 -1       896 1.99835E+01 1.42214E-01 2.65403E-06-1.88232E-01 2.58128E-14-1.71119E-15
 -1       897 1.99585E+01 2.02299E-01 3.95054E-06-2.33829E-01-2.71270E-14 2.20515E-13
 -1       898 1.99247E+01 2.72301E-01 5.81327E-06-2.94952E-01 6.41517E-14 1.55812E-13
 -1       899 1.98781E+01 3.52850E-01 8.45155E-06-3.73493E-01 1.24550E-13 2.45033E-14
 -1       900 1.98142E+01 4.43695E-01 1.22517E-05-4.71268E-01 4.83118E-14 2.86185E-14
 -1       901 1.97274E+01 5.42939E-01 1.77726E-05-5.89979E-01-3.29731E-14 6.87826E-14
 -1       902 1.96115E+01 6.45867E-01 2.55655E-05-7.31324E-01-1.17644E-13 1.47611E-14
 -1       903 1.94600E+01 7.43157E-01 3.50907E-05-8.97474E-01-1.36249E-13 5.77491E-14
 -1       904 1.92679E+01 8.18196E-01 3.95982E-05-1.09226E+00-1.69937E-13 1.57813E-13
 -1       905 1.90345E+01 8.43109E-01-2.65104E-06-1.32346E+00-2.12344E-13 8.71129E-14
 -1       906 1.87696E+01 7.73355E-01-5.56573E-05-1.60643E+00-1.63961E-13-1.59898E-13
 -1       907 1.85029E+01 5.41560E-01-5.94872E-05-1.96960E+00-5.92929E-14-5.49443E-14
 -1       908 1.83092E+01 4.10326E-02-5.46602E-04-2.45837E+00-3.63524E-13-2.27357E-14
 -1       909 1.84326E+01-8.77007E-01 1.46172E-02-3.12348E+00-3.70220E-13 1.53991E-13
 -1       910 1.49334E+01 3.86163E-01 2.55774E-02 2.70879E+00 1.17666E-13 2.51128E-13
 -1       911 2.22902E+01-3.43259E+00 1.23646E-02 2.53381E+00 1.05855E-13-2.00139E-14
 -1       912 2.43733E+01-3.32697E+00-7.49511E-03 5.91126E-01 1.30371E-13-8.51085E-14
 -1       913 1.85961E+01-1.44097E+00 2.35804E-02 4.19230E+00 4.77791E-14 4.96205E-13
 -1       914 1.63742E+01 1.41123E-01 2.76929E-02-2.95461E+00 2.06044E-13-4.09926E-13
 -1       915 2.03033E+01 4.26337E-01-3.29671E-04 6.63541E-02 9.98890E-14-1.09157E-13
 -1       916 2.00468E+01-1.84561E-02-3.78854E-07-1.23857E-01-4.03014E-14 2.14103E-14
 -1       917 2.01599E+01-3.33401E-02-2.60969E-06-1.54751E-01 3.26426E-14-1.04960E-13
 -1       918 1.35962E+01 1.00031E+00 2.42926E-02-2.06142E-02 1.83261E-13-6.68831E-14
 -1       919 2.38394E+01-3.49126E+00 6.90289E-03-1.96149E+00 1.89000E-13-5.05677E-13
 -1       920 2.01395E+01 1.89136E+00-2.65563E-04-1.92471E-01-1.13997E-13-3.64839E-13
 -1       921 2.03380E+01 7.18796E-01-2.35422E-04-1.90877E-01-1.57375E-13-1.81818E-13
 -1       922 2.03323E+01 4.30407E-01 5.95595E-05-4.72431E-02-1.21430E-13-1.75630E-13
 -1       923 1.79136E+01-1.87901E+00 3.37397E-02-4.50549E+00 1.97780E-13 1.11626E-13
 -1       924 1.46601E+01-3.00055E-01 4.17279E-02-3.47327E+00 2.77927E-13-4.44650E-13
 -1       925 1.52061E+01-1.94045E-01 2.25072E-02-2.98959E+00-2.81879E-13-5.78741E-13
 -1       926 1.65723E+01-1.46403E+00 3.68360E-02 4.06047E+00 5.56178E-14-1.07075E-13
 -1       927 2.03039E+01 1.00278E+00-2.87323E-04 3.67252E-01 1.71645E-13-1.77994E-13
 -1       928 2.02708E+01 2.29819E-01-2.40321E-05-4.43611E-02 5.16426E-14-1.16589E-13
 -1       929 1.32220E+01 1.50775E-01 2.86026E-02 2.65143E+00 1.84746E-13-3.84686E-13
 -1       930 2.16103E+01-1.67665E+00 3.42810E-04-2.37859E+00-2.54337E-13-4.00581E-13
 -1       931 2.01948E+01 1.51420E-02-4.29080E-06-1.42605E-01 3.01939E-14-8.46125E-14
 -1       932 2.01030E+01-6.35638E-02-8.47247E-07-1.46200E-01 2.36740E-14-9.08704E-14
 -1       933 2.05794E+01-2.79679E+00 1.80420E-03 3.18785E+00 9.92626E-14-1.24971E-13
 -1       934 2.03066E+01 6.66988E-01 2.59058E-04 2.06662E-01 1.38546E-13-1.27478E-13
 -1       935 1.29842E+01 8.88522E-01 3.15639E-02-6.28814E-01 1.16895E-13-3.42973E-13
 -1       936 2.01291E+01-5.72214E-02-2.25577E-06-1.53855E-01-3.26326E-14-1.15283E-13
 -1       937 2.02775E+01 1.40527E+00-2.07897E-05 6.95894E-02-1.32929E-15-2.74759E-13
 -1       938 2.02865E+01 1.33712E+00-2.38190E-04 1.97067E-01 4.42062E-14-2.90032E-13
 -1       939 2.04258E+01-1.52549E+00 2.29731E-04-3.23369E+00 5.56924E-14-2.86996E-13
 -1       940 2.02596E+01 1.43861E+00-2.41308E-04-3.42825E-01-1.61023E-13-2.26874E-13
 -1       941 2.02999E+01 1.20308E+00-1.04439E-04 3.01949E-01 8.20103E-14-2.45092E-13
 -1       942 2.03269E+01 7.02455E-02-2.49019E-06 8.57112E-02-2.48093E-14-1.53226E-13
 -1       943 2.02852E+01-9.33653E-03 5.35691E-06 1.02932E-01-2.23841E-14-1.74979E-13
 -1       944 2.02419E+01-5.29860E-02 7.36145E-06 1.08174E-01 1.55319E-15-1.39975E-13
 -1       945 2.02002E+01-7.08230E-02 3.92636E-08 1.06402E-01-5.46011E-14-1.31737E-13
 -1       946 2.01612E+01-6.97754E-02 4.89164E-07 1.01446E-01-6.58314E-14-7.65203E-14
 -1       947 2.01254E+01-5.48421E-02 3.66667E-07 9.63397E-02-5.56856E-14-6.73843E-14
 -1       948 2.00919E+01-2.92353E-02 4.52915E-07 9.33499E-02-3.17413E-14 1.22708E-14
 -1       949 2.00597E+01 5.20440E-03-2.53249E-07 9.43362E-02-5.75982E-14-1.11270E-14
 -1       950 2.00270E+01 4.75376E-02-3.38158E-06 1.00866E-01-9.18907E-14-1.63905E-14
 -1       951 1.99916E+01 9.75188E-02-5.57877E-06 1.14420E-01-1.97090E-14-9.60549E-14
 -1       952 1.99512E+01 1.55171E-01-7.89705E-06 1.36505E-01 5.43535E-14-6.43113E-14
 -1       953 1.99031E+01 2.20442E-01-1.09906E-05 1.68739E-01 3.76144E-14 2.52569E-14
 -1       954 1.98444E+01 2.92775E-01-1.49307E-05 2.12940E-01-8.39631E-14 1.02781E-13
 -1       955 1.97724E+01 3.70588E-01-1.98437E-05 2.71207E-01-6.76921E-14 1.05855E-13
 -1       956 1.96846E+01 4.50623E-01-2.59660E-05 3.46039E-01-2.42315E-14-2.80712E-14
 -1       957 1.95794E+01 5.27145E-01-3.36481E-05 4.40508E-01-1.70979E-14-6.12407E-14
 -1       958 1.94566E+01 5.90969E-01-4.33668E-05 5.58557E-01 4.62958E-14 2.19732E-14
 -1       959 1.93189E+01 6.28287E-01-5.58764E-05 7.05475E-01 6.07412E-14 1.00176E-13
 -1       960 1.91734E+01 6.19295E-01-7.33735E-05 8.88574E-01-1.13382E-13 1.62162E-13
 -1       961 1.90345E+01 5.36536E-01-1.07582E-04 1.11802E+00-1.08044E-13 9.43882E-14
 -1       962 1.89290E+01 3.42572E-01-2.37307E-04 1.40727E+00-4.21035E-14-6.01636E-15
 -1       963 1.89063E+01-1.27012E-02-8.40734E-05 1.77037E+00 7.19979E-14 7.48375E-14
 -1       964 1.90471E+01-5.89951E-01 4.96065E-04 2.21420E+00 8.83730E-14 1.89580E-13
 -1       965 1.94982E+01-1.46097E+00 4.34514E-03 2.70970E+00 2.70105E-14 1.25771E-13
 -1       966 2.03824E+01 6.65585E-01-1.31363E-04-1.03577E-01-1.16115E-13-2.10983E-13
 -1       967 2.00023E+01 8.46632E-02 8.37395E-07-1.24128E-01 5.93516E-14-1.72080E-14
 -1       968 2.00320E+01 3.70504E-02 1.88522E-06-1.11279E-01 4.23725E-14 5.44985E-15
 -1       969 1.99251E+01 2.07157E-01-3.82258E-06-1.77391E-01-6.46716E-14-8.81218E-15
 -1       970 1.98707E+01 2.84079E-01-5.88895E-06-2.20433E-01 4.73346E-14-1.59092E-13
 -1       971 1.97995E+01 3.72611E-01-8.02609E-06-2.76001E-01 1.01506E-13-9.50549E-14
 -1       972 1.97059E+01 4.72904E-01-1.03260E-05-3.45086E-01 7.77418E-14 9.44709E-14
 -1       973 1.95827E+01 5.83887E-01-1.30598E-05-4.28478E-01-4.93676E-14-3.52576E-14
 -1       974 1.94217E+01 7.02483E-01-1.72082E-05-5.26883E-01-3.72293E-14-2.98786E-16
 -1       975 1.92128E+01 8.22549E-01-2.58563E-05-6.41385E-01-1.63965E-13 4.95872E-15
 -1       976 1.89444E+01 9.33437E-01-4.81351E-05-7.74619E-01-1.36621E-13-1.63587E-13
 -1       977 1.86030E+01 1.01796E+00-1.18572E-04-9.33318E-01-1.18595E-13-2.90396E-13
 -1       978 1.81744E+01 1.04908E+00-2.84701E-04-1.13224E+00-6.26812E-14-2.16144E-13
 -1       979 1.76415E+01 9.84239E-01-1.21420E-03-1.39924E+00-1.65314E-13-1.87631E-13
 -1       980 1.69913E+01 7.68752E-01-1.45887E-03-1.79281E+00-1.91239E-13-1.53629E-13
 -1       981 2.01164E+01-5.66777E-02 6.07896E-06-1.10584E-01-1.26473E-14-3.12829E-14
 -1       982 1.87213E+01-8.89665E-01 9.84140E-03-3.54894E+00 2.98735E-13-1.29892E-13
 -1       983 2.02328E+01 9.82034E-02-2.16905E-05-1.09186E-01 3.95034E-14-1.10525E-13
 -1       984 2.02768E+01 1.40711E+00 2.99246E-05-6.59015E-02-5.84536E-14-2.77053E-13
 -1       985 2.03825E+01 3.92985E-01-9.54317E-05-1.02178E-02-7.08565E-14-1.63609E-13
 -1       986 1.99677E+01 1.41035E-01-1.64937E-06-1.45714E-01 1.46878E-14 4.31363E-14
 -1       987 2.03620E+01 1.98790E-01-2.17497E-05 5.02741E-02-7.15461E-14-1.54747E-13
 -1       988 2.02888E+01 1.34066E+00 1.25110E-03-1.95413E-01-1.36894E-13-3.00718E-13
 -1       989 2.03499E+01 8.33046E-01 9.22447E-04 1.89971E-01 9.43571E-14-1.69953E-13
 -1       990 2.03648E+01 4.01564E-01-2.76093E-04 2.32357E-02 5.49208E-14-1.37673E-13
 -1       991 2.02632E+01-1.56305E-03-5.88367E-06-1.17440E-01 2.91444E-14-1.04467E-13
 -1       992 2.01483E+01-6.88941E-02 8.73081E-06-1.17052E-01 4.64359E-15-8.66735E-14
 -1       993 2.00597E+01-2.47536E-03 6.31947E-07-1.05790E-01-7.50889E-14 2.76153E-14
 -1       994 1.62311E+01 3.10533E-01 8.56301E-03-2.41736E+00-4.41582E-13-2.99719E-13
 -1       995 1.36112E+01 9.18519E-01 1.44034E-02 9.09076E-01 1.23689E-13-6.66303E-13
 -1       996 2.00872E+01-3.39430E-02 1.93840E-06-1.06130E-01-3.93520E-14 9.68343E-14
 -1       997 2.02224E+01-4.74772E-02-5.05969E-06-1.24577E-01 1.74933E-14-8.93611E-14
 -1       998 2.03713E+01 9.97413E-01 4.18332E-05 1.50569E-03-5.34600E-14-2.26541E-13
 -1       999 1.83741E+01-1.55634E+00 1.34283E-02 3.38697E+00-1.14924E-13-1.10768E-13
 -1      1000 1.48268E+01 7.21164E-01 1.73217E-02-1.75797E+00-1.62563E-13-7.05156E-14
 -1      1001 2.03712E+01 9.68126E-01 3.62851E-04 8.05257E-02-6.96458E-16-2.25972E-13
 -1      1002 2.03389E+01 2.11733E-01 5.41686E-05-5.17127E-02 2.15749E-14-1.24608E-13
 -1      1003 2.03698E+01 9.67900E-01-7.00210E-04-7.67922E-02-1.02829E-13-2.54855E-13
 -1      1004 1.58328E+01-4.75965E-02 1.09008E-02 2.76979E+00 8.22666E-14-3.49239E-13
 -1      1005 2.03106E+01-3.10051E-02-6.13630E-06 6.73656E-02 4.85662E-14-1.56534E-13
 -1      1006 2.02633E+01-6.57908E-02-6.34314E-06 6.92233E-02-1.46060E-14-1.73387E-13
 -1      1007 2.02167E+01-7.57170E-02-3.97926E-06 6.73078E-02-3.95426E-14-1.51830E-13
 -1      1008 2.01725E+01-6.73643E-02-2.45807E-06 6.43654E-02-5.58720E-15-7.81774E-14
 -1      1009 2.01305E+01-4.52576E-02-4.53925E-06 6.20064E-02-9.39070E-14-9.02488E-14
 -1      1010 2.00899E+01-1.21610E-02 4.93430E-06 6.15903E-02-5.57525E-14-1.32552E-13
 -1      1011 2.00492E+01 3.02834E-02-1.02370E-05 6.43877E-02-6.89852E-14-1.41854E-13
 -1      1012 2.00058E+01 8.16131E-02-1.78686E-05 7.14218E-02-5.58869E-14-5.46419E-14
 -1      1013 1.99571E+01 1.41762E-01-2.50568E-05 8.38538E-02 1.09327E-14 5.27829E-15
 -1      1014 1.98999E+01 2.10885E-01-3.41459E-05 1.02935E-01 6.67914E-14-5.49311E-14
 -1      1015 1.98305E+01 2.88958E-01-4.50965E-05 1.30155E-01 4.86387E-14-1.42366E-13
 -1      1016 1.97449E+01 3.75308E-01-5.79375E-05 1.67375E-01-2.40813E-15-8.86751E-14
 -1      1017 1.96390E+01 4.68067E-01-7.29803E-05 2.16995E-01-5.34533E-14 6.08985E-14
 -1      1018 1.95088E+01 5.63527E-01-9.09831E-05 2.82207E-01-8.30982E-14 1.34212E-13
 -1      1019 1.93506E+01 6.55394E-01-1.13559E-04 3.67386E-01 4.78999E-14 3.29236E-14
 -1      1020 1.91613E+01 7.33916E-01-1.44135E-04 4.78712E-01 7.98624E-14 8.14446E-14
 -1      1021 1.89394E+01 7.84901E-01-1.90825E-04 6.25142E-01-7.26779E-14 5.18254E-14
 -1      1022 1.86856E+01 7.88493E-01-2.60089E-04 8.19829E-01-2.18412E-14 5.83021E-14
 -1      1023 1.84037E+01 7.18163E-01-4.52257E-04 1.08229E+00-9.00538E-14 2.77134E-13
 -1      1024 1.81070E+01 5.34905E-01-9.24402E-04 1.44307E+00-2.34765E-14 1.83467E-13
 -1      1025 1.78262E+01 1.82363E-01 8.55286E-05 1.94032E+00 5.14945E-14-1.46724E-13
 -1      1026 1.78592E+01-4.86610E-01 1.24353E-03 2.62146E+00 3.26634E-14-1.71229E-13
 -1      1027 1.96633E+01 4.70759E-01-5.44246E-05-2.15023E-01-9.24671E-15-1.11311E-13
 -1      1028 2.00157E+01 6.93877E-02 1.92331E-06-8.57184E-02 3.73257E-14 8.45919E-14
 -1      1029 1.60701E+01 1.03257E+00 2.81174E-03-1.26311E+00-3.09576E-13 1.68605E-13
 -1      1030 1.97702E+01 3.67098E-01-4.21138E-05-1.74544E-01 7.15763E-14 3.71367E-15
 -1      1031 1.98533E+01 2.75662E-01-3.15115E-05-1.41659E-01 3.41324E-14 4.69914E-14
 -1      1032 1.95251E+01 5.86001E-01-6.94004E-05-2.62849E-01 6.92600E-14-1.35890E-13
 -1      1033 1.93469E+01 7.10676E-01-8.92269E-05-3.17355E-01-1.16026E-13-9.49246E-14
 -1      1034 1.91176E+01 8.40483E-01-1.18825E-04-3.77605E-01-7.43228E-14-3.73858E-14
 -1      1035 1.88236E+01 9.68280E-01-1.67312E-04-4.42929E-01-7.00607E-14-1.30917E-13
 -1      1036 1.84464E+01 1.08349E+00-2.36556E-04-5.14148E-01-8.41152E-14-7.92269E-14
 -1      1037 1.79597E+01 1.17199E+00-3.34912E-04-5.96697E-01-1.51550E-13-1.10143E-14
 -1      1038 1.73258E+01 1.20855E+00-5.71931E-04-7.04366E-01-2.04296E-13 6.97399E-14
 -1      1039 1.67520E+01 1.16959E+00 2.10309E-03-9.23867E-01-2.28743E-13 1.66290E-13
 -1      1040 2.03036E+01 8.04259E-02 5.10740E-05-9.56078E-02 1.28450E-14-1.02939E-13
 -1      1041 1.99713E+01 1.27690E-01-1.35581E-05-9.77839E-02 2.34334E-14 8.92778E-14
 -1      1042 2.01837E+01-6.74610E-02 7.41018E-06-1.22855E-01-2.30232E-14-1.05405E-13
 -1      1043 2.03663E+01 9.16542E-01 5.76019E-04 1.41572E-01 5.10217E-14-2.32746E-13
 -1      1044 1.99186E+01 1.96134E-01-2.21279E-05-1.16222E-01 2.15585E-14 1.06120E-13
 -1      1045 2.03556E+01 3.80188E-02-3.32691E-05 5.95102E-02-2.71531E-14-1.95216E-13
 -1      1046 2.04137E+01 5.87091E-01 7.09568E-05-4.06034E-02-4.15256E-14-2.65798E-13
 -1      1047 1.48588E+01 1.13907E+00 7.55247E-03-4.38560E-01-1.54863E-13-1.48368E-13
 -1      1048 2.04195E+01 6.67903E-01 5.13847E-04-1.77437E-02-6.86255E-14-1.82854E-13
 -1      1049 2.00550E+01 2.04827E-02-3.63514E-05-7.92560E-02 1.44550E-14 3.38230E-14
 -1      1050 2.01694E+01-6.89236E-02 1.42409E-05-8.20753E-02-8.93881E-14 9.41808E-14
 -1      1051 2.03449E+01 5.12615E-02-6.05430E-05-7.31673E-02 2.89114E-16-5.24673E-14
 -1      1052 2.04219E+01 6.62566E-01-5.28073E-05 1.73069E-02-3.77678E-14-1.94530E-13
 -1      1053 2.04102E+01 5.49819E-01-5.88323E-04 3.44591E-02 2.54965E-14-1.77229E-13
 -1      1054 2.04114E+01 3.07291E-01 1.18845E-04-1.52255E-02-4.36260E-15-1.28762E-13
 -1      1055 2.01299E+01-4.96233E-02 3.63145E-06-7.85414E-02-5.15908E-14 1.01502E-13
 -1      1056 2.03013E+01-2.21414E-02 1.92288E-05-8.51939E-02 9.19289E-15-8.61190E-15
 -1      1057 2.03933E+01 1.53950E-01 2.81635E-05 4.15944E-02-4.20152E-14-2.17659E-13
 -1      1058 2.04160E+01 3.31299E-01 1.17998E-04 1.03167E-02-5.31099E-14-2.52418E-13
 -1      1059 1.99317E+01 1.73029E-01-1.26740E-05-5.62465E-02 6.48807E-14-1.09000E-13
 -1      1060 2.02618E+01-7.41256E-02 7.26934E-05 2.64693E-02-5.48801E-16-2.92008E-13
 -1      1061 2.02130E+01-7.51302E-02 4.96201E-05 2.57350E-02-5.95707E-15-2.37977E-13
 -1      1062 2.01659E+01-5.91149E-02 3.18468E-05 2.47993E-02-3.69991E-14-2.44922E-13
 -1      1063 2.01198E+01-2.98409E-02-3.80230E-05 2.44253E-02-5.75769E-14-2.07000E-13
 -1      1064 2.00752E+01 9.76177E-03 5.78994E-05 2.51008E-02-8.26625E-14-1.91496E-13
 -1      1065 2.00280E+01 5.97359E-02 2.76942E-05 2.74976E-02-3.23124E-15-1.63961E-13
 -1      1066 1.99762E+01 1.19135E-01 2.70195E-05 3.22062E-02 9.20754E-14-1.03800E-13
 -1      1067 1.99161E+01 1.88348E-01 3.28945E-05 3.99012E-02 6.51940E-14 6.21336E-14
 -1      1068 1.98438E+01 2.67738E-01 4.18791E-05 5.15396E-02-6.92315E-14-3.05367E-15
 -1      1069 1.97548E+01 3.57361E-01 5.55083E-05 6.84288E-02-1.05300E-13-9.81380E-14
 -1      1070 1.96437E+01 4.56528E-01 7.57292E-05 9.23955E-02-1.35195E-14-2.55745E-13
 -1      1071 1.95051E+01 5.63286E-01 1.05540E-04 1.26028E-01 3.72000E-14-1.15646E-13
 -1      1072 1.93327E+01 6.73845E-01 1.49751E-04 1.73023E-01-2.27020E-14 4.72713E-14
 -1      1073 1.91196E+01 7.81973E-01 2.15798E-04 2.38697E-01 3.72117E-14-1.19350E-14
 -1      1074 1.88581E+01 8.78401E-01 3.13793E-04 3.30765E-01 4.53792E-14-2.07946E-15
 -1      1075 1.85389E+01 9.50275E-01 4.49586E-04 4.60559E-01-1.50379E-13 6.40968E-15
 -1      1076 1.81497E+01 9.79879E-01 3.61481E-04 6.45444E-01-7.72297E-14-2.13785E-13
 -1      1077 1.76699E+01 9.42182E-01-1.39352E-03 9.07156E-01-1.73495E-13-3.66592E-13
 -1      1078 1.71125E+01 8.15346E-01-4.84204E-04 1.28059E+00-1.78162E-13-3.85454E-13
 -1      1079 1.98631E+01 2.51390E-01-1.88429E-05-6.63169E-02 2.08955E-14-1.10150E-13
 -1      1080 1.96698E+01 4.43201E-01-4.55542E-05-9.38565E-02 7.25063E-14 1.47206E-13
 -1      1081 1.97777E+01 3.41352E-01-2.93081E-05-7.90408E-02 4.51709E-14 9.16863E-15
 -1      1082 1.91349E+01 8.07659E-01-1.55575E-04-1.36078E-01-9.75622E-14-2.62489E-14
 -1      1083 1.88523E+01 9.36225E-01-2.30979E-04-1.40354E-01-2.83374E-14-1.02116E-13
 -1      1084 1.84933E+01 1.05638E+00-3.41763E-04-1.32898E-01-1.41624E-13-1.70572E-13
 -1      1085 1.80343E+01 1.15725E+00-4.34400E-04-1.08352E-01-1.60283E-13-6.15767E-14
 -1      1086 1.74402E+01 1.23200E+00 2.47080E-03-5.81481E-02-1.47742E-13-1.02293E-13
 -1      1087 2.03583E+01 3.38594E-03-2.77486E-04 2.43349E-02 3.48461E-14-2.00334E-13
 -1      1088 1.93574E+01 6.79092E-01-1.04631E-04-1.24630E-01-3.76554E-15 1.09691E-13
 -1      1089 2.00925E+01-1.91939E-02 9.63121E-06-7.72799E-02 5.61155E-14 5.31296E-14
 -1      1090 1.95324E+01 5.56395E-01-6.96360E-05-1.09659E-01 6.99391E-14 2.07627E-13
 -1      1091 2.03841E+01 1.55426E-01-4.61304E-05-4.83254E-02-6.09298E-15-8.14699E-14
 -1      1092 1.99884E+01 1.05584E-01-9.22452E-06-4.89990E-02 5.04444E-14-1.71967E-14
 -1      1093 2.02113E+01-7.40173E-02 4.30401E-05-8.59707E-02-3.71016E-14 3.05165E-14
 -1      1094 2.03139E+01-5.17457E-02 2.01837E-04 2.63026E-02-3.19996E-14-2.81435E-13
 -1      1095 1.53320E+01 1.02918E+00-4.15571E-04 9.30446E-01-6.45104E-14-5.16275E-13
 -1      1096 1.59226E+01 1.23178E+00 1.02969E-02-2.60469E-01-2.45005E-13-4.12723E-14
 -1      1097 2.04390E+01 3.83184E-01-1.76413E-04 6.64769E-04-5.72374E-14-2.08099E-13
 -1      1098 2.00375E+01 4.83135E-02 1.29003E-07-4.43177E-02-2.01990E-15 3.19918E-15
 -1      1099 1.64309E+01 5.16309E-01 6.37259E-03 1.84689E+00-4.46904E-14-4.06810E-13
 -1      1100 2.03996E+01 1.01996E-01 2.00766E-04 1.94022E-02-5.96863E-15-2.20283E-13
 -1      1101 1.68056E+01 1.27060E+00-4.24138E-03-1.14008E-01-2.39188E-13-9.25844E-14
 -1      1102 2.02557E+01-6.07963E-02 3.25308E-05-8.78119E-02-1.55017E-14 1.21587E-14
 -1      1103 2.01707E+01-6.32374E-02-1.13175E-05-4.37059E-02 1.46418E-14-1.72707E-13
 -1      1104 2.03921E+01 9.71018E-02 2.37922E-04-3.24959E-02-3.48643E-14-8.04475E-14
 -1      1105 2.02168E+01-7.62029E-02-5.75719E-05-4.54474E-02-1.80991E-14-1.02629E-13
 -1      1106 2.03532E+01-1.03520E-04-6.26803E-05-4.04535E-02-3.32557E-14-1.45392E-13
 -1      1107 2.04254E+01 2.20135E-01-1.94385E-04 1.21090E-02-2.88227E-14-2.04442E-13
 -1      1108 2.00989E+01-1.11373E-02 6.91539E-06-1.53530E-02-3.64361E-14-1.62315E-13
 -1      1109 2.04238E+01 2.20453E-01-9.31910E-05-1.61104E-02-5.59247E-14-9.01522E-14
 -1      1110 2.04305E+01 3.89314E-01-6.88109E-05-3.50870E-04-1.41807E-14-1.32702E-13
 -1      1111 2.03016E+01-5.04823E-02-3.61152E-04-4.36309E-02-3.59125E-14-7.51689E-14
 -1      1112 2.02604E+01-7.30521E-02-2.36285E-05-4.52463E-02-2.74443E-14-2.30605E-14
 -1      1113 2.01268E+01-3.68635E-02 1.36764E-05-4.24278E-02 2.26635E-15-1.15233E-13
 -1      1114 2.04061E+01 9.97526E-02 3.59773E-04-6.31291E-03 5.04531E-15-1.88617E-13
 -1      1115 2.79631E+01 9.08660E+00 2.32537E+00-6.69846E+00-3.30846E-14 2.09469E-12
 -1      1116 2.05472E+01 6.22710E+00 2.09712E-01-3.90437E+00-2.52298E-14 6.62526E-13
 -1      1117 1.94345E+01 5.85295E+00 7.53629E-02-2.88848E+00-2.13163E-14-2.55351E-14
 -1      1118 1.90258E+01 5.72584E+00 6.03101E-02-2.23554E+00-1.52413E-14-3.86872E-13
 -1      1119 1.88395E+01 5.66911E+00 5.75293E-02-1.70208E+00-1.18846E-14-5.92873E-13
 -1      1120 1.87462E+01 5.64055E+00 5.55937E-02-1.23468E+00-8.22085E-15-7.04204E-13
 -1      1121 1.86974E+01 5.62538E+00 5.38293E-02-8.04694E-01-5.33471E-15-7.68339E-13
 -1      1122 1.86735E+01 5.61782E+00 5.25646E-02-3.93018E-01-3.74505E-15-7.91634E-13
 -1      1123 1.86666E+01 5.61565E+00 5.21642E-02 8.48774E-03-1.74557E-16-8.11665E-13
 -1      1124 1.86745E+01 5.61816E+00 5.26753E-02 4.10405E-01 1.64864E-15-8.15272E-13
 -1      1125 1.86995E+01 5.62609E+00 5.40596E-02 8.23414E-01 2.12460E-15-8.13651E-13
 -1      1126 1.87501E+01 5.64191E+00 5.62595E-02 1.25597E+00 6.39593E-15-7.82097E-13
 -1      1127 1.88451E+01 5.67107E+00 5.84602E-02 1.72784E+00 9.78211E-15-7.09221E-13
 -1      1128 1.90314E+01 5.72753E+00 6.03985E-02 2.26893E+00 1.51164E-14-5.61950E-13
 -1      1129 1.94309E+01 5.85003E+00 6.91994E-02 2.92903E+00 2.05114E-14-2.56671E-13
 -1      1130 2.04533E+01 6.18199E+00 1.53256E-01 3.87895E+00 2.38698E-14 3.63279E-13
 -1      1131 2.52174E+01 7.99439E+00 1.43045E+00 5.84665E+00 5.87863E-14 1.72262E-12
 -1      1132 2.88129E+01 3.61643E+00 1.27136E+00-4.21721E+00-1.66006E-13 3.03130E-12
 -1      1133 2.02274E+01-1.77724E-01-6.16300E-01-1.09933E-01-5.04319E-14 2.63467E-12
 -1      1134 1.88328E+01-9.63568E-02-2.36354E-01 6.25058E-02-1.23443E-14 2.02117E-12
 -1      1135 1.84984E+01-4.80820E-02-5.96140E-02 4.05052E-02-1.46597E-14 1.63083E-12
 -1      1136 1.84430E+01-2.45930E-02-1.51792E-02 2.67929E-02-1.13796E-14 1.37945E-12
 -1      1137 1.85242E+01-1.30412E-02-4.94797E-03 1.90513E-02-2.23374E-14 1.22266E-12
 -1      1138 1.86704E+01-6.60039E-03-1.45335E-03 1.40975E-02 1.91817E-15 1.05768E-12
 -1      1139 1.88420E+01-2.83238E-03 5.84205E-04 1.06606E-02-3.94969E-15 9.48821E-13
 -1      1140 1.90166E+01-6.05853E-04 1.90048E-03 8.11213E-03-8.10119E-15 7.92468E-13
 -1      1141 1.91815E+01 6.74049E-04 2.63476E-03 6.14338E-03-1.24750E-14 5.08182E-13
 -1      1142 1.93298E+01 1.34588E-03 2.91909E-03 4.59106E-03 2.43441E-14 4.11412E-13
 -1      1143 1.94588E+01 1.61608E-03 2.88344E-03 3.35793E-03-5.18197E-15 4.59714E-13
 -1      1144 1.95683E+01 1.61585E-03 2.62998E-03 2.37906E-03-1.43772E-14 3.07684E-13
 -1      1145 1.96598E+01 1.42953E-03 2.22871E-03 1.60759E-03 3.81670E-15 2.40516E-13
 -1      1146 1.97359E+01 1.10999E-03 1.72232E-03 1.00874E-03 7.20109E-15 2.46000E-13
 -1      1147 1.98002E+01 6.87874E-04 1.13208E-03 5.57536E-04-2.69975E-14 9.30572E-14
 -1      1148 1.98568E+01 1.77955E-04 4.62949E-04 2.38265E-04-1.10062E-14-1.64230E-15
 -1      1149 1.99103E+01-4.15937E-04-2.92043E-04 4.48457E-05-8.21904E-15-7.39692E-14
 -1      1150 1.99662E+01-1.09625E-03-1.14729E-03-1.82929E-05-5.63786E-15-1.96161E-13
 -1      1151 2.00305E+01-1.86660E-03-2.11936E-03 6.49063E-05-6.75482E-15-2.92514E-13
 -1      1152 2.01100E+01-2.72544E-03-3.21987E-03 3.23158E-04 2.64995E-15-3.00449E-13
 -1      1153 2.02127E+01-3.65740E-03-4.44510E-03 7.98251E-04-9.03466E-15-3.64496E-14
 -1      1154 2.03471E+01-4.62117E-03-5.76016E-03 1.54384E-03-1.74670E-14 1.17500E-13
 -1      1155 2.05223E+01-5.53261E-03-7.07506E-03 2.62071E-03-3.86097E-14 1.81040E-14
 -1      1156 2.07475E+01-6.24177E-03-8.20920E-03 4.08502E-03 6.88268E-15-1.33222E-14
 -1      1157 2.10302E+01-6.50426E-03-8.84183E-03 5.96373E-03 2.92366E-15 2.77329E-13
 -1      1158 2.13744E+01-5.95095E-03-8.45087E-03 8.20836E-03 2.07040E-14 2.67916E-13
 -1      1159 2.17769E+01-4.06925E-03-6.25656E-03 1.06153E-02-6.70098E-14 1.35118E-14
 -1      1160 2.22217E+01-2.26954E-04-1.21927E-03 1.27040E-02 9.99464E-15-1.92657E-13
 -1      1161 2.26734E+01 6.20213E-03 7.80095E-03 1.35610E-02 1.58943E-14-4.29136E-14
 -1      1162 2.30692E+01 1.55191E-02 2.15420E-02 1.17119E-02-3.86392E-14 9.49206E-14
 -1      1163 2.33148E+01 2.70987E-02 3.93047E-02 5.19106E-03 4.15466E-16-1.64126E-13
 -1      1164 2.32882E+01 3.85460E-02 5.74414E-02-7.88027E-03 2.51275E-14-2.30708E-13
 -1      1165 2.28653E+01 4.50405E-02 6.81806E-02-2.78772E-02 1.81105E-14-2.44471E-13
 -1      1166 2.19720E+01 3.99650E-02 6.07097E-02-5.15332E-02 2.27652E-14-2.96388E-13
 -1      1167 2.06591E+01 1.81449E-02 2.67730E-02-7.04727E-02 1.91249E-14-2.32397E-13
 -1      1168 1.91601E+01-1.83721E-02-2.98901E-02-7.31753E-02 2.53038E-14-5.34468E-13
 -1      1169 1.78671E+01-5.61999E-02-8.81581E-02-5.19102E-02-3.83252E-14-5.71647E-13
 -1      1170 1.71850E+01-7.60128E-02-1.18426E-01-1.06753E-02-1.92225E-14-5.59313E-13
 -1      1171 1.73251E+01-6.58733E-02-1.02832E-01 3.40986E-02 2.04446E-14-4.54855E-13
 -1      1172 1.81793E+01-3.16473E-02-5.01289E-02 6.33755E-02-2.06870E-14-5.03576E-13
 -1      1173 1.93815E+01 7.91608E-03 1.13624E-02 6.79821E-02-2.39944E-14-6.81059E-13
 -1      1174 2.05054E+01 3.59018E-02 5.52442E-02 5.20818E-02 8.08177E-14-3.61475E-13
 -1      1175 2.12484E+01 4.56521E-02 7.07456E-02 2.69768E-02-2.44865E-14 2.08951E-13
 -1      1176 2.15047E+01 3.99892E-02 6.19112E-02 3.13994E-03 1.18759E-14 1.51849E-13
 -1      1177 2.13353E+01 2.51893E-02 3.85448E-02-1.34906E-02-1.14904E-15 4.08703E-13
 -1      1178 2.08990E+01 6.89738E-03 9.21791E-03-2.07477E-02-1.27068E-15 2.33202E-13
 -1      1179 2.03953E+01-1.05728E-02-1.86625E-02-1.70874E-02 8.60930E-14 5.71867E-13
 -1      1180 2.00378E+01-2.45407E-02-2.90896E-02 4.35433E-04-6.23796E-14 6.04200E-13
 -1      1181 1.99683E+01 1.12691E-02 2.08745E-02 1.10297E-02 6.50396E-14 4.11237E-13
 -1      1182 2.77926E+01 5.25756E-01 3.77108E-01 1.96670E+00-3.04826E-14 2.85894E-12
 -1      1183 2.00849E+01-6.62401E-02-5.73624E-01 1.29479E-01 2.35714E-14 2.20829E-12
 -1      1184 1.89074E+01-4.06068E-02-1.93234E-01 1.94170E-02 1.70723E-14 1.60374E-12
 -1      1185 1.85274E+01-2.14189E-02-5.05610E-02 1.45858E-03 1.41549E-14 1.17938E-12
 -1      1186 1.84556E+01-1.24050E-02-1.34056E-02-4.08038E-03 6.54489E-15 8.82936E-13
 -1      1187 1.85305E+01-7.39876E-03-4.65553E-03-5.53556E-03 1.91848E-14 6.25954E-13
 -1      1188 1.86736E+01-4.32106E-03-1.92262E-03-5.72114E-03 7.61110E-15 4.74586E-13
 -1      1189 1.88436E+01-2.34968E-03-3.34818E-04-5.43526E-03-1.42202E-14 4.77826E-13
 -1      1190 1.90172E+01-1.07927E-03 7.84011E-04-4.92951E-03-3.42201E-16 3.10214E-13
 -1      1191 1.91814E+01-2.79892E-04 1.49166E-03-4.31653E-03 3.07886E-15 1.28048E-13
 -1      1192 1.93293E+01 1.92803E-04 1.84848E-03-3.66165E-03 8.63409E-15 1.98331E-14
 -1      1193 1.94581E+01 4.33893E-04 1.93780E-03-3.00535E-03 1.04080E-14-1.23947E-13
 -1      1194 1.95673E+01 5.06512E-04 1.83384E-03-2.37118E-03-5.49853E-16-7.72143E-14
 -1      1195 1.96585E+01 4.51378E-04 1.58977E-03-1.77021E-03-2.23841E-14-5.61029E-14
 -1      1196 1.97343E+01 2.92327E-04 1.23755E-03-1.20450E-03 3.36964E-14-3.14947E-13
 -1      1197 1.97981E+01 3.97368E-05 7.90497E-04-6.69740E-04 1.17186E-15-5.42903E-13
 -1      1198 1.98540E+01-3.07283E-04 2.45771E-04-1.57605E-04-7.96743E-15-5.66370E-13
 -1      1199 1.99068E+01-7.59465E-04-4.13988E-04 3.42195E-04 2.61627E-14-6.09850E-13
 -1      1200 1.99620E+01-1.33640E-03-1.21970E-03 8.39830E-04 1.31316E-14-6.88245E-13
 -1      1201 2.00260E+01-2.06562E-03-2.21542E-03 1.34295E-03 3.99333E-15-6.97290E-13
 -1      1202 2.01066E+01-2.98119E-03-3.45795E-03 1.85344E-03 2.88151E-14-6.86873E-13
 -1      1203 2.02128E+01-4.12067E-03-5.01546E-03 2.36233E-03 1.22571E-14-6.04676E-13
 -1      1204 2.03559E+01-5.51849E-03-6.96304E-03 2.84167E-03 9.66138E-15-7.60364E-13
 -1      1205 2.05492E+01-7.19179E-03-9.37052E-03 3.23088E-03-4.22069E-15-9.43687E-13
 -1      1206 2.08089E+01-9.11197E-03-1.22735E-02 3.41431E-03 9.82721E-16-8.35476E-13
 -1      1207 2.11538E+01-1.11506E-02-1.56101E-02 3.18624E-03 1.71412E-14-7.67500E-13
 -1      1208 2.16043E+01-1.29835E-02-1.90930E-02 2.20060E-03-4.22417E-14-6.85301E-13
 -1      1209 2.21808E+01-1.39360E-02-2.19693E-02-8.80120E-05-1.72666E-14-4.04326E-13
 -1      1210 2.28981E+01-1.27702E-02-2.26225E-02-4.45825E-03-4.66337E-15-4.76258E-13
 -1      1211 2.37551E+01-7.48917E-03-1.80377E-02-1.18278E-02-1.14986E-14-3.26288E-13
 -1      1212 2.47164E+01 4.56295E-03-3.45082E-03-2.27915E-02 4.81687E-15-5.26270E-13
 -1      1213 2.56833E+01 2.56188E-02 2.68102E-02-3.64099E-02 4.84140E-14-7.43659E-13
 -1      1214 2.64587E+01 5.46196E-02 7.54193E-02-4.80214E-02 4.05231E-15-8.41775E-13
 -1      1215 2.67281E+01 8.23753E-02 1.33405E-01-4.70576E-02-2.80938E-15-8.57479E-13
 -1      1216 2.61100E+01 8.83811E-02 1.70060E-01-1.88159E-02-3.24350E-14-8.23758E-13
 -1      1217 2.43474E+01 5.01105E-02 1.37571E-01 4.39183E-02 2.40745E-14-6.74988E-13
 -1      1218 2.16415E+01-3.01441E-02 9.15128E-03 1.20325E-01 6.06979E-14-1.14031E-12
 -1      1219 1.88825E+01-1.04616E-01-1.64804E-01 1.58577E-01 6.74721E-15-1.34139E-12
 -1      1220 1.73404E+01-1.17232E-01-2.67388E-01 1.15923E-01-1.19262E-14-9.27654E-13
 -1      1221 1.77889E+01-6.42089E-02-2.21043E-01 1.07193E-02 9.76268E-14-1.26402E-12
 -1      1222 1.98697E+01 5.74856E-03-6.99052E-02-8.96127E-02-5.20608E-14-1.34998E-12
 -1      1223 2.23993E+01 4.74497E-02 7.33365E-02-1.30504E-01-2.80626E-14-7.71050E-13
 -1      1224 2.42527E+01 5.58105E-02 1.38120E-01-1.10885E-01-2.15687E-14-5.82145E-13
 -1      1225 2.49512E+01 4.44007E-02 1.30119E-01-6.34425E-02 2.00968E-14-7.48582E-13
 -1      1226 2.46023E+01 2.61830E-02 8.71119E-02-1.69738E-02 4.97566E-14-1.11612E-12
 -1      1227 2.35789E+01 7.27578E-03 3.81348E-02 1.68524E-02-2.77642E-15-1.42561E-12
 -1      1228 2.22771E+01-1.17238E-02-6.89469E-03 3.77618E-02 1.70725E-14-1.44345E-12
 -1      1229 2.10372E+01-3.06946E-02-4.70710E-02 4.68982E-02-1.65840E-15-1.38667E-12
 -1      1230 2.01711E+01-3.86235E-02-6.30750E-02 3.50532E-02 1.31323E-13-1.43269E-12
 -1      1231 1.99554E+01 1.56420E-02 2.84200E-02-1.61443E-02 1.40079E-14-1.05056E-12
 -1      1232 2.00166E+01-4.49538E-02 2.59050E-02-1.37716E-02-1.06348E-12-1.54650E-13
 -1      1233 1.99567E+01 1.86466E-01-6.71481E-02 4.10096E-03-9.68253E-13-1.43674E-14
 -1      1234 1.99664E+01 1.05086E+00-5.56639E-02 4.01286E-02-7.70974E-13-9.50390E-14
 -1      1235 1.99882E+01 2.30541E+00-2.00351E-02 5.30409E-02-3.99937E-13 8.85043E-14
 -1      1236 2.00131E+01 3.68414E+00 1.77947E-02 5.36536E-02 4.89740E-13 2.95701E-14
 -1      1237 2.00371E+01 4.93005E+00 5.24056E-02 4.39621E-02-2.94820E-13-1.37110E-13
 -1      1238 2.00546E+01 5.82812E+00 7.70859E-02 2.65408E-02-6.88213E-13 1.02019E-14
 -1      1239 2.00611E+01 6.21675E+00 8.58679E-02 3.04760E-03-1.20982E-12-2.57753E-13
 -1      1240 2.00542E+01 6.02583E+00 7.55017E-02-1.98028E-02-9.76948E-13 2.51927E-13
 -1      1241 2.00366E+01 5.32495E+00 5.01663E-02-3.62965E-02 7.80959E-13 7.22799E-14
 -1      1242 2.00145E+01 4.28489E+00 1.89701E-02-4.33187E-02 3.19259E-14-8.62678E-14
 -1      1243 1.99953E+01 3.12534E+00-8.59525E-03-4.13623E-02-6.36081E-13 1.35556E-13
 -1      1244 1.99814E+01 2.02155E+00-2.75233E-02-3.40117E-02-5.96391E-13 9.80860E-14
 -1      1245 1.99740E+01 1.08980E+00-3.86319E-02-2.40003E-02-2.87173E-13 1.21904E-13
 -1      1246 1.99720E+01 4.02008E-01-4.58276E-02-1.62530E-02-1.12657E-12 6.40208E-14
 -1      1247 1.99658E+01 4.51521E-02-3.44356E-02 1.25216E-02-1.15631E-12-1.08520E-13
 -1      1248 2.00109E+01-3.18018E-02 1.95293E-02 1.04849E-02-4.28852E-13 4.16069E-14
 -1      1249-1.10746E+00-2.59618E+01-3.94908E+00-2.34555E+00-1.78446E-12 2.34084E-13
 -1      1250-1.94968E+00-1.72461E+01-3.29744E+00-4.59429E+00-2.65121E-13 3.66374E-14
 -1      1251-4.19575E-01-4.36152E+00-2.11240E+00-1.20671E+00 8.08908E-13 4.61298E-13
 -1      1252 7.42059E+00 6.67789E+00-5.51252E-01 7.03143E+00 7.89369E-13 5.43121E-13
 -1      1253 2.38228E+01 1.13711E+01 1.33301E+00 1.56783E+01 4.31655E-13 6.11067E-13
 -1      1254 4.60183E+01 8.82477E+00 2.99103E+00 1.80384E+01 9.51461E-13 2.53308E-12
 -1      1255 6.46445E+01 3.56859E+00 4.30085E+00 1.13381E+01 6.59570E-13 2.60314E-12
 -1      1256 6.89283E+01 1.88608E+00 4.47769E+00-1.72350E+00 1.04541E-13 1.23151E-12
 -1      1257 5.92484E+01 4.65683E+00 3.81153E+00-1.38268E+01 3.23297E-13-4.99711E-13
 -1      1258 3.98853E+01 9.41612E+00 2.45431E+00-1.81121E+01 1.20981E-12-2.19114E-12
 -1      1259 2.01449E+01 1.04237E+01 7.91255E-01-1.40538E+01 2.38565E-12-2.97140E-12
 -1      1260 5.39866E+00 4.50027E+00-9.22180E-01-5.10301E+00 3.25251E-12-2.76801E-12
 -1      1261-1.21334E+00-7.15918E+00-2.40177E+00 2.51873E+00 2.97828E-12-1.70663E-12
 -1      1262-1.88849E+00-1.89764E+01-3.36778E+00 4.49538E+00 9.86322E-13-4.51666E-13
 -1      1263-9.94518E-01-2.57055E+01-3.82285E+00 1.56092E+00-1.11022E-13-3.84623E-14
 -1      1264-1.21215E+00-2.32926E+01-3.60149E+00-2.86509E+00-2.19191E-12-5.15088E-13
 -1      1265-1.75745E+00-1.32332E+01-2.85668E+00-3.87981E+00-3.12594E-12-1.18239E-12
 -1      1266 8.92185E-01-8.27567E-01-1.62451E+00 6.97368E-01-2.64389E-12-1.64158E-12
 -1      1267 9.82812E+00 8.34600E+00-1.52260E-01 8.90691E+00-2.15028E-12-1.97486E-12
 -1      1268 2.57029E+01 1.12719E+01 1.42182E+00 1.62695E+01-1.34703E-12-1.99551E-12
 -1      1269 4.51568E+01 8.57074E+00 2.88080E+00 1.78955E+01-9.48130E-13-1.93956E-12
 -1      1270 6.16295E+01 3.86033E+00 3.92202E+00 1.13764E+01-2.58807E-13-1.39555E-12
 -1      1271 6.76143E+01 1.82068E+00 4.26438E+00-1.17755E+00-6.58362E-14-7.15927E-13
 -1      1272 6.03345E+01 4.36604E+00 3.86401E+00-1.31357E+01 1.43191E-13-4.83169E-13
 -1      1273 4.27073E+01 9.32165E+00 2.74444E+00-1.84618E+01-6.12843E-14 1.56319E-13
 -1      1274 2.30739E+01 1.15155E+01 1.28020E+00-1.56413E+01-5.86198E-13 5.37570E-13
 -1      1275 8.18716E+00 7.33067E+00-3.72539E-01-7.76004E+00-8.67084E-13 7.41851E-13
 -1      1276 6.46966E-02-3.28911E+00-1.91562E+00 4.89116E-01-1.66200E-12 8.89289E-13
 -1      1277-1.80222E+00-1.68648E+01-3.22007E+00 4.41182E+00-2.80753E-12 9.45521E-13
 -1      1278-1.20411E+00-2.57559E+01-3.93229E+00 2.25307E+00-3.49115E-12 4.66134E-13
 -1      1279 2.22665E+01 1.83817E+00-7.25870E-01-2.79080E+00-5.80647E-14 1.83348E-12
 -1      1280 2.03590E+01 4.69019E+00-4.86526E-02-3.30741E+00-2.16993E-13 3.44405E-13
 -1      1281 2.08664E+01 4.81067E+00-1.13371E-01-4.16159E+00-2.64677E-13 7.04062E-13
 -1      1282 1.95316E+01 4.99335E+00-1.96064E-02-2.65517E+00-2.41675E-13-1.82999E-13
 -1      1283 1.98294E+01 5.09021E+00 2.57563E-04-3.04615E+00-2.66051E-13 4.92037E-14
 -1      1284 2.05256E+01 3.95284E+00-2.58930E-02-3.07546E+00-3.91909E-13 3.08392E-13
 -1      1285 1.91839E+01 5.08416E+00-3.64415E-03-2.07094E+00-2.09168E-13-4.72119E-13
 -1      1286 1.93332E+01 5.13939E+00 1.05966E-02-2.36406E+00-2.33584E-13-3.36470E-13
 -1      1287 1.97540E+01 4.36603E+00-2.42719E-02-2.49015E+00-3.82857E-13-1.34642E-13
 -1      1288 1.90090E+01 5.13085E+00 3.29152E-03-1.56540E+00-1.68376E-13-6.41823E-13
 -1      1289 1.90863E+01 5.16071E+00 1.25606E-02-1.81537E+00-1.84214E-13-5.61440E-13
 -1      1290 1.93925E+01 4.55562E+00-1.95378E-02-1.93184E+00-3.14960E-13-3.81861E-13
 -1      1291 1.89160E+01 5.16059E+00 6.61340E-03-1.11752E+00-1.23948E-13-7.34223E-13
 -1      1292 1.89581E+01 5.17685E+00 1.27363E-02-1.33906E+00-1.44110E-13-6.85639E-13
 -1      1293 1.92060E+01 4.66125E+00-1.60554E-02-1.44550E+00-2.53651E-13-5.23991E-13
 -1      1294 1.88646E+01 5.18045E+00 8.21177E-03-6.94101E-01-9.12027E-14-7.83614E-13
 -1      1295 1.88875E+01 5.18928E+00 1.20398E-02-9.04382E-01-1.01977E-13-7.63545E-13
 -1      1296 1.91034E+01 4.72664E+00-1.39462E-02-1.00463E+00-1.86890E-13-6.09381E-13
 -1      1297 1.88408E+01 5.19238E+00 9.29925E-03-2.89287E-01-4.83080E-14-8.06979E-13
 -1      1298 1.88506E+01 5.19619E+00 1.10762E-02-4.91471E-01-6.53522E-14-7.92054E-13
 -1      1299 1.90477E+01 4.76563E+00-1.29108E-02-5.89016E-01-1.28372E-13-6.44693E-13
 -1      1300 1.88371E+01 5.19732E+00 1.02284E-02 1.08258E-01-1.10799E-14-8.16933E-13
 -1      1301 1.88368E+01 5.19718E+00 1.01561E-02-9.14813E-02-2.65747E-14-8.10203E-13
 -1      1302 1.90236E+01 4.78364E+00-1.24755E-02-1.89179E-01-6.38156E-14-6.72122E-13
 -1      1303 1.88523E+01 5.19583E+00 1.11650E-02 5.08839E-01 2.81411E-14-8.24361E-13
 -1      1304 1.88418E+01 5.19173E+00 9.23305E-03 3.06234E-01 1.19619E-14-8.23924E-13
 -1      1305 1.90245E+01 4.78299E+00-1.24949E-02 2.05860E-01 2.51210E-15-6.79110E-13
 -1      1306 1.88908E+01 5.18812E+00 1.20967E-02 9.23244E-01 6.58813E-14-8.15360E-13
 -1      1307 1.88671E+01 5.17912E+00 8.14212E-03 7.12005E-01 5.33792E-14-8.22890E-13
 -1      1308 1.90503E+01 4.76356E+00-1.29806E-02 6.06403E-01 6.87694E-14-6.84432E-13
 -1      1309 1.89624E+01 5.17511E+00 1.28997E-02 1.35657E+00 1.08769E-13-7.78020E-13
 -1      1310 1.89193E+01 5.15841E+00 6.45583E-03 1.13363E+00 9.22032E-14-8.01373E-13
 -1      1311 1.91076E+01 4.72313E+00-1.40029E-02 1.01986E+00 1.33196E-13-6.67001E-13
 -1      1312 1.90949E+01 5.15663E+00 1.28248E-02 1.84130E+00 1.62658E-13-6.96491E-13
 -1      1313 1.90155E+01 5.12632E+00 3.14818E-03 1.58847E+00 1.41057E-13-7.47118E-13
 -1      1314 1.92128E+01 4.65477E+00-1.61469E-02 1.46307E+00 2.10635E-13-6.21548E-13
 -1      1315 1.93433E+01 5.13337E+00 1.01653E-02 2.39841E+00 2.12774E-13-5.21746E-13
 -1      1316 1.91933E+01 5.07629E+00-4.37629E-03 2.10113E+00 1.86465E-13-6.29226E-13
 -1      1317 1.94052E+01 4.54235E+00-1.99858E-02 1.95881E+00 2.84581E-13-5.20119E-13
 -1      1318 1.98548E+01 5.09933E+00 6.03941E-03 3.08448E+00 2.59848E-13-1.88405E-13
 -1      1319 1.95428E+01 4.98435E+00-2.05462E-02 2.69713E+00 2.28650E-13-3.90500E-13
 -1      1320 1.97743E+01 4.34636E+00-2.45644E-02 2.52868E+00 3.57641E-13-3.13596E-13
 -1      1321 2.11026E+01 4.90693E+00 8.29964E-03 4.05441E+00 2.35839E-13 4.88151E-13
 -1      1322 2.03336E+01 4.73379E+00-4.79776E-02 3.41682E+00 2.28068E-13 7.22547E-14
 -1      1323 2.05638E+01 3.91591E+00-2.24180E-02 3.17898E+00 3.97599E-13 7.08322E-14
 -1      1324 2.72024E+01 3.20541E+00 9.29078E-01 4.58254E+00 1.26399E-13 1.82931E-12
 -1      1325 2.20194E+01 3.52216E+00-1.82008E-01 3.88538E+00 1.26843E-13 8.88206E-13
 -1      1326 2.21116E+01 2.56180E+00-3.25594E-02 3.45708E+00 3.91318E-13 6.85452E-13
 -1      1327 2.14262E+01 3.59602E-01-7.63535E-01 1.18409E+00 2.20705E-13 1.73533E-12
 -1      1328 2.20005E+01 1.31379E-01-4.00867E-01-1.28594E+00-2.04503E-13 1.87672E-12
 -1      1329 2.06775E+01 3.06718E-01-1.64821E-01-8.05968E-01-1.97273E-13 1.65201E-12
 -1      1330 2.00797E+01 1.53470E-01-7.35375E-02-4.02348E-01-1.48940E-13 1.52687E-12
 -1      1331 1.96096E+01 9.11858E-02-1.49366E-02-3.30199E-01-1.44357E-13 1.30067E-12
 -1      1332 2.09714E+01 3.69182E-01-1.04235E-01-1.27433E+00-3.42261E-13 9.90708E-13
 -1      1333 1.92520E+01 6.45241E-02 3.02258E-03-1.35567E-01-1.10745E-13 1.21449E-12
 -1      1334 1.90974E+01 4.12831E-02 1.32059E-02-1.17746E-01-9.94239E-14 1.06701E-12
 -1      1335 1.99203E+01 1.33902E-01-3.51575E-02-5.04428E-01-2.54269E-13 7.91894E-13
 -1      1336 1.89369E+01 3.15094E-02 1.32389E-02-2.82329E-02-6.54628E-14 9.92807E-13
 -1      1337 1.89171E+01 1.93545E-02 1.10620E-02-1.88734E-02-8.19882E-14 8.89656E-13
 -1      1338 1.94426E+01 5.54818E-02-8.50510E-03-1.70413E-01-1.73809E-13 6.46842E-13
 -1      1339 1.88608E+01 1.59811E-02 8.77787E-03 2.47046E-02-5.44818E-14 8.59203E-13
 -1      1340 1.89028E+01 9.05160E-03 6.43420E-03 2.93179E-02-5.79389E-14 7.88369E-13
 -1      1341 1.92333E+01 2.43411E-02-3.50207E-03-1.17017E-02-1.28566E-13 5.15995E-13
 -1      1342 1.89024E+01 7.83484E-03 4.67280E-03 5.04332E-02-5.00696E-14 7.52788E-13
 -1      1343 1.89723E+01 3.48973E-03 3.64127E-03 5.23148E-02-2.36306E-14 7.06955E-13
 -1      1344 1.91758E+01 1.01489E-02-2.21939E-03 6.68444E-02-9.70814E-14 4.74969E-13
 -1      1345 1.90014E+01 3.17116E-03 2.44816E-03 6.10789E-02-2.81580E-14 6.76069E-13
 -1      1346 1.90814E+01 3.22007E-04 2.21574E-03 6.13384E-02-4.78077E-14 6.04495E-13
 -1      1347 1.92013E+01 2.74703E-03-1.32208E-03 1.03587E-01-6.64674E-14 4.12903E-13
 -1      1348 1.91246E+01 4.32333E-04 1.34299E-03 6.30043E-02-6.19085E-14 5.87102E-13
 -1      1349 1.92048E+01-1.46153E-03 1.44881E-03 6.23163E-02-8.29561E-14 4.87545E-13
 -1      1350 1.92696E+01-1.32817E-03-5.58038E-04 1.16798E-01-1.07353E-13 3.53533E-13
 -1      1351 1.92530E+01-1.13737E-03 7.62744E-04 5.99442E-02-7.46375E-14 4.44444E-13
 -1      1352 1.93280E+01-2.38200E-03 9.85309E-04 5.87464E-02-5.71098E-14 3.75500E-13
 -1      1353 1.93572E+01-3.51376E-03-3.34986E-06 1.16462E-01-1.41897E-13 3.14326E-13
 -1      1354 1.93759E+01-1.95765E-03 4.31587E-04 5.42476E-02-3.59391E-14 3.46411E-13
 -1      1355 1.94430E+01-2.74391E-03 6.80482E-04 5.28310E-02-4.58046E-15 3.12153E-13
 -1      1356 1.94498E+01-4.53582E-03 3.40501E-04 1.08580E-01-9.88872E-14 3.00306E-13
 -1      1357 1.94877E+01-2.28325E-03 2.34010E-04 4.74463E-02 3.98911E-15 2.57209E-13
 -1      1358 1.95457E+01-2.73850E-03 4.73995E-04 4.60055E-02-4.62504E-14 2.26891E-13
 -1      1359 1.95394E+01-4.81142E-03 5.17094E-04 9.69717E-02-4.56632E-14 1.29784E-13
 -1      1360 1.95859E+01-2.27665E-03 1.17761E-04 4.05575E-02-5.92990E-14 2.07151E-13
 -1      1361 1.96351E+01-2.48916E-03 3.36025E-04 3.92227E-02-6.52866E-14 1.30506E-13
 -1      1362 1.96218E+01-4.59956E-03 5.73040E-04 8.41461E-02-7.38093E-14 6.00419E-14
 -1      1363 1.96704E+01-2.04271E-03 5.49176E-05 3.42657E-02-1.38258E-14 1.53884E-13
 -1      1364 1.97118E+01-2.07448E-03 2.48823E-04 3.31257E-02-4.64071E-15 1.18878E-13
 -1      1365 1.96952E+01-4.06482E-03 5.44377E-04 7.17795E-02-4.96290E-14 3.99374E-14
 -1      1366 1.97427E+01-1.64720E-03 2.81887E-05 2.90446E-02 1.61090E-14 8.88436E-14
 -1      1367 1.97776E+01-1.54145E-03 2.00505E-04 2.81623E-02-4.08470E-14 7.05012E-14
 -1      1368 1.97597E+01-3.30904E-03 4.55731E-04 6.10177E-02-3.09657E-14 3.89854E-14
 -1      1369 1.98051E+01-1.12775E-03 2.57651E-05 2.52422E-02-5.39168E-14 6.07418E-14
 -1      1370 1.98353E+01-9.14136E-04 1.82568E-04 2.46674E-02-5.94056E-14 1.38445E-14
 -1      1371 1.98167E+01-2.38927E-03 3.22531E-04 5.26781E-02-7.67462E-14-4.92278E-14
 -1      1372 1.98607E+01-5.01303E-04 3.89116E-05 2.31432E-02-3.58547E-14 3.48458E-14
 -1      1373 1.98885E+01-2.00003E-04 1.88515E-04 2.29215E-02-4.35859E-14-2.78087E-14
 -1      1374 1.98685E+01-1.32952E-03 1.53282E-04 4.73951E-02-5.14445E-14 5.83622E-14
 -1      1375 1.99136E+01 2.30222E-04 6.05020E-05 2.30147E-02-1.91954E-14-4.74133E-14
 -1      1376 1.99412E+01 6.04720E-04 2.12859E-04 2.31941E-02-2.48267E-15-8.93457E-14
 -1      1377 1.99180E+01-1.29601E-04-4.85551E-05 4.57236E-02-5.42591E-14 5.38901E-14
 -1      1378 1.99680E+01 1.07470E-03 8.39335E-05 2.51362E-02-4.00882E-14-1.22444E-13
 -1      1379 1.99985E+01 1.50959E-03 2.50216E-04 2.57713E-02-4.14237E-14-1.64086E-13
 -1      1380 1.99688E+01 1.22694E-03-2.82912E-04 4.82122E-02-4.40577E-14-2.94181E-14
 -1      1381 2.00293E+01 2.04415E-03 1.02212E-04 2.98144E-02-6.95483E-15-1.70184E-13
 -1      1382 2.00657E+01 2.52358E-03 2.94377E-04 3.09679E-02-3.12416E-14-1.88865E-13
 -1      1383 2.00253E+01 2.76426E-03-5.51464E-04 5.54450E-02-6.71507E-14-7.27976E-14
 -1      1384 2.01031E+01 3.14753E-03 1.07134E-04 3.73805E-02-5.45684E-15-2.30210E-13
 -1      1385 2.01491E+01 3.64663E-03 3.37261E-04 3.91202E-02-1.13657E-14-2.24621E-13
 -1      1386 2.00923E+01 4.50347E-03-8.55730E-04 6.80498E-02-4.30446E-14-7.81645E-14
 -1      1387 2.01960E+01 4.38077E-03 8.86010E-05 4.81614E-02 3.29190E-14-1.80907E-13
 -1      1388 2.02555E+01 4.85780E-03 3.67806E-04 5.05528E-02 7.62563E-14-6.89858E-14
 -1      1389 2.01751E+01 6.44744E-03-1.19464E-03 8.66624E-02 2.23664E-14-2.39893E-13
 -1      1390 2.03152E+01 5.71220E-03 3.42755E-05 6.24161E-02 5.21293E-14-7.95468E-14
 -1      1391 2.03924E+01 6.09802E-03 3.70983E-04 6.55062E-02-2.39544E-15-5.33255E-14
 -1      1392 2.02798E+01 8.55845E-03-1.56120E-03 1.11830E-01 6.59155E-14-1.83167E-13
 -1      1393 2.04680E+01 7.06107E-03-6.99113E-05 8.02211E-02-2.70884E-14 2.97271E-14
 -1      1394 2.05674E+01 7.24546E-03 3.27523E-04 8.40107E-02-1.49863E-14-3.37766E-14
 -1      1395 2.04124E+01 1.07246E-02-1.93774E-03 1.43828E-01 4.19220E-14-4.84403E-14
 -1      1396 2.06617E+01 8.26651E-03-2.37385E-04 1.01281E-01 5.61663E-14 1.58090E-14
 -1      1397 2.07872E+01 8.08142E-03 2.15580E-04 1.05679E-01 6.98332E-14 8.85741E-14
 -1      1398 2.05790E+01 1.27107E-02-2.28913E-03 1.82351E-01 5.15005E-14 1.05247E-13
 -1      1399 2.09025E+01 9.04512E-03-4.74896E-04 1.24639E-01 2.47979E-14 1.28015E-13
 -1      1400 2.10566E+01 8.24708E-03 1.65276E-05 1.29393E-01 4.05019E-14 1.59361E-13
 -1      1401 2.07847E+01 1.40893E-02-2.55318E-03 2.26036E-01 9.48135E-14 1.20717E-13
 -1      1402 2.11935E+01 8.93863E-03-7.70184E-04 1.48259E-01-2.86853E-14 1.64877E-13
 -1      1403 2.13759E+01 7.19766E-03-2.71903E-04 1.52856E-01-8.24609E-14 1.20937E-13
 -1      1404 2.10323E+01 1.41529E-02-2.62794E-03 2.71754E-01-4.43070E-14 1.43361E-13
 -1      1405 2.15321E+01 7.26342E-03-1.07063E-03 1.68481E-01-1.07486E-13 7.97556E-14
 -1      1406 2.17378E+01 4.17589E-03-6.12259E-04 1.72015E-01-1.28341E-13-2.56722E-14
 -1      1407 2.13207E+01 1.18253E-02-2.35680E-03 3.13678E-01-1.55969E-13 4.58789E-14
 -1      1408 2.19068E+01 3.09635E-03-1.25337E-03 1.79419E-01-5.31887E-14-4.24331E-14
 -1      1409 2.21228E+01-1.74285E-03-8.95181E-04 1.80454E-01 2.35351E-14-7.17143E-14
 -1      1410 2.16415E+01 5.62262E-03-1.51671E-03 3.42175E-01-9.70660E-14 5.80232E-14
 -1      1411 2.22916E+01-4.62522E-03-1.09742E-03 1.72531E-01 4.56122E-14-6.04222E-14
 -1      1412 2.24938E+01-1.14324E-02-9.13187E-04 1.69019E-01 1.66244E-14 3.07818E-14
 -1      1413 2.19766E+01-6.21191E-03 1.75788E-04 3.42875E-01 3.73221E-14 1.76482E-14
 -1      1414 2.26415E+01-1.67492E-02-2.91709E-04 1.36915E-01-6.34202E-14-3.23925E-14
 -1      1415 2.27922E+01-2.51730E-02-3.79896E-04 1.26338E-01-6.83394E-14-3.74622E-14
 -1      1416 2.22936E+01-2.51739E-02 3.00910E-03 2.96687E-01-3.66690E-14-1.74739E-14
 -1      1417 2.28893E+01-3.31173E-02 1.45813E-03 6.12909E-02-3.56087E-14-4.24079E-14
 -1      1418 2.29371E+01-4.16560E-02 9.40244E-04 4.13021E-02-2.96633E-14-6.28575E-14
 -1      1419 2.25441E+01-5.12655E-02 7.11795E-03 1.82280E-01-1.47178E-13-1.67488E-15
 -1      1420 2.29477E+01-5.12631E-02 4.15606E-03-6.10581E-02 8.11677E-15-1.49283E-13
 -1      1421 2.28358E+01-5.66798E-02 2.94513E-03-9.11740E-02 1.26236E-14-1.73397E-13
 -1      1422 2.26640E+01-8.09241E-02 1.21664E-02-1.68077E-02-5.43723E-14-5.18340E-14
 -1      1423 2.27248E+01-6.50297E-02 7.10983E-03-2.23790E-01 2.52055E-15-1.47559E-13
 -1      1424 2.24086E+01-6.24030E-02 4.84052E-03-2.60795E-01-1.60835E-14-2.10592E-13
 -1      1425 2.25824E+01-1.04746E-01 1.68982E-02-2.98748E-01 2.13735E-14-1.78261E-13
 -1      1426 2.21564E+01-6.45650E-02 8.69782E-03-3.97656E-01 4.04156E-14-1.80408E-13
 -1      1427 2.16330E+01-4.90327E-02 5.03738E-03-4.32167E-01 3.21236E-14-1.40769E-13
 -1      1428 2.22423E+01-1.07260E-01 1.88305E-02-6.25553E-01 2.70730E-14-1.79956E-13
 -1      1429 2.12552E+01-4.01424E-02 6.83419E-03-5.26938E-01-8.83408E-14-1.37820E-13
 -1      1430 2.05931E+01-1.08562E-02 1.87909E-03-5.44010E-01-5.56551E-14-2.58772E-13
 -1      1431 2.16345E+01-7.23778E-02 1.47390E-02-9.10906E-01-2.82673E-14-9.49761E-14
 -1      1432 2.01566E+01 9.27979E-03 6.48450E-04-5.44043E-01 1.45786E-14-2.58002E-13
 -1      1433 1.95018E+01 4.49857E-02-4.58802E-03-5.29548E-01-2.52420E-14-2.88485E-13
 -1      1434 2.08356E+01 3.73004E-03 2.65766E-03-1.03324E+00-6.71304E-14-1.70503E-13
 -1      1435 1.91195E+01 6.80889E-02-7.55535E-03-4.07059E-01-1.96102E-14-3.11914E-13
 -1      1436 1.86564E+01 9.53814E-02-1.13581E-02-3.58595E-01-5.43628E-14-4.00773E-13
 -1      1437 2.00231E+01 9.99773E-02-1.47444E-02-8.90017E-01-4.93139E-14-1.89404E-13
 -1      1438 1.84465E+01 1.07861E-01-1.31158E-02-1.40384E-01-1.27801E-13-2.87638E-13
 -1      1439 1.83168E+01 1.12746E-01-1.39985E-02-7.37736E-02 6.95277E-15-3.40533E-13
 -1      1440 1.94319E+01 1.74124E-01-2.90231E-02-4.75886E-01-8.23040E-14-2.83107E-13
 -1      1441 1.83418E+01 1.05830E-01-1.25461E-02 1.60642E-01 5.42899E-14-5.11913E-13
 -1      1442 1.85692E+01 8.55821E-02-1.01841E-02 2.18033E-01-4.47732E-14-5.13537E-13
 -1      1443 1.92487E+01 1.86546E-01-3.13941E-02 7.86656E-02 1.09635E-15-3.08695E-13
 -1      1444 1.87972E+01 6.35123E-02-6.56207E-03 3.78697E-01-5.34902E-14-5.10720E-13
 -1      1445 1.92727E+01 2.91343E-02-2.19968E-03 4.05119E-01-7.26710E-14-5.68344E-13
 -1      1446 1.95056E+01 1.29646E-01-2.02010E-02 5.61254E-01-6.31977E-14-4.89868E-13
 -1      1447 1.95965E+01 5.27335E-03 6.50746E-04 4.43603E-01-5.33859E-14-5.36751E-13
 -1      1448 2.01372E+01-2.71637E-02 5.26735E-03 4.35089E-01 6.88391E-14-5.15789E-13
 -1      1449 2.00586E+01 3.39368E-02-2.63926E-03 7.99652E-01-6.98875E-14-3.62198E-13
 -1      1450 2.04343E+01-4.15829E-02 5.38208E-03 3.62739E-01 1.96926E-13-3.33809E-13
 -1      1451 2.08711E+01-6.11872E-02 9.01196E-03 3.30769E-01 2.44100E-13-1.39284E-13
 -1      1452 2.06725E+01-5.44873E-02 1.20968E-02 7.51484E-01 2.60775E-13-2.27759E-13
 -1      1453 2.10558E+01-6.31578E-02 6.54096E-03 1.97629E-01 1.09177E-13 9.26551E-14
 -1      1454 2.12923E+01-6.77431E-02 8.72991E-03 1.58657E-01 7.01479E-14 1.95727E-13
 -1      1455 2.11392E+01-1.04489E-01 1.89204E-02 4.96386E-01 3.64583E-13 7.94816E-14
 -1      1456 2.13356E+01-6.06165E-02 5.19965E-03 2.00052E-02 6.09781E-14 3.30074E-13
 -1      1457 2.13594E+01-5.38187E-02 6.12913E-03-1.30385E-02 1.27226E-13 3.05616E-13
 -1      1458 2.13485E+01-1.10371E-01 1.82375E-02 1.64938E-01 2.00656E-13 4.77161E-13
 -1      1459 2.12792E+01-4.24845E-02 2.81978E-03-1.17808E-01 1.39148E-13 3.71049E-13
 -1      1460 2.11402E+01-2.94028E-02 2.74435E-03-1.38039E-01 9.58235E-14 4.83200E-13
 -1      1461 2.12945E+01-8.41336E-02 1.29018E-02-1.28808E-01 1.76268E-13 6.00224E-13
 -1      1462 2.09820E+01-1.71414E-02 2.89086E-06-1.89105E-01-7.23791E-14 3.82683E-13
 -1      1463 2.07629E+01-1.88601E-03-7.07031E-04-1.94092E-01-5.38300E-14 3.51519E-13
 -1      1464 2.10434E+01-4.12896E-02 5.58739E-03-3.15465E-01-6.70449E-14 4.06317E-13
 -1      1465 2.05817E+01 1.00975E-02-3.22346E-03-1.86064E-01 7.97242E-14 3.22034E-13
 -1      1466 2.03755E+01 2.42961E-02-3.06646E-03-1.75284E-01 6.74304E-14 5.18214E-13
 -1      1467 2.06958E+01 7.48550E-03-1.63006E-03-3.66384E-01 2.61566E-14 2.38606E-13
 -1      1468 2.02198E+01 3.66310E-02-4.63749E-03-1.12680E-01 2.54278E-14 5.70510E-13
 -1      1469 2.01072E+01 3.87553E-02-2.49373E-04-9.09521E-02-2.88415E-14 4.77886E-13
 -1      1470 2.03545E+01 5.72218E-02-5.69678E-03-2.83877E-01 8.00082E-14 2.71594E-13
 -1      1471 1.99978E+01 1.30825E-02 1.56382E-03 4.87748E-03-4.00483E-13 3.36289E-13
 -1      1472 2.00772E+01 6.67534E-02-3.02457E-03-8.63307E-02-3.26257E-13 2.25356E-13
 -1      1473 2.02584E+01 7.54783E-02-1.52101E-01 4.84056E-01 1.83631E-13 1.33014E-12
 -1      1474 2.15290E+01 2.16129E-01-2.29289E-01 7.21057E-01 1.62120E-13 1.62703E-12
 -1      1475 2.17276E+01 8.81799E-01-8.54620E-02 2.06522E+00 3.25157E-13 1.02299E-12
 -1      1476 1.93296E+01 3.23782E-02-2.13361E-02 1.86217E-01 1.33336E-13 9.86582E-13
 -1      1477 1.97506E+01 1.13614E-01-6.27061E-02 2.38224E-01 1.25174E-13 1.19412E-12
 -1      1478 2.03020E+01 1.87684E-01-5.51896E-02 7.86560E-01 2.72622E-13 7.74511E-13
 -1      1479 1.89473E+01 1.50983E-02 5.66730E-03 5.37341E-02 8.91873E-14 7.14876E-13
 -1      1480 1.90862E+01 5.16156E-02 9.74762E-04 8.00401E-02 1.01233E-13 8.82763E-13
 -1      1481 1.95565E+01 7.18324E-02-1.21528E-02 2.99392E-01 2.16299E-13 5.69329E-13
 -1      1482 1.88362E+01 7.11050E-03 6.97913E-03-8.72463E-03 8.84943E-14 5.20641E-13
 -1      1483 1.88512E+01 2.58428E-02 1.10885E-02 5.66214E-03 7.71249E-14 6.31762E-13
 -1      1484 1.92206E+01 3.10197E-02-2.45753E-03 8.39507E-02 1.66082E-13 3.94232E-13
 -1      1485 1.88615E+01 3.19750E-03 4.78669E-03-3.89268E-02 6.62437E-14 3.53611E-13
 -1      1486 1.88181E+01 1.37864E-02 8.52089E-03-3.08247E-02 6.53082E-14 4.36115E-13
 -1      1487 1.91034E+01 1.32398E-02-1.61090E-03-2.09481E-02 1.48315E-13 2.46034E-13
 -1      1488 1.89547E+01 1.04157E-03 3.29790E-03-5.23023E-02 1.39698E-14 2.79918E-13
 -1      1489 1.88847E+01 7.25545E-03 5.36841E-03-4.78496E-02 2.38909E-14 3.16445E-13
 -1      1490 1.91039E+01 4.51317E-03-1.62463E-03-7.23396E-02 6.72268E-14 1.78353E-13
 -1      1491 1.90779E+01-2.02133E-04 2.51466E-03-5.62055E-02 3.84412E-14 2.32864E-13
 -1      1492 1.89984E+01 3.42378E-03 3.43209E-03-5.40112E-02 1.96639E-14 2.49366E-13
 -1      1493 1.91658E+01-1.35395E-04-1.36895E-03-9.48847E-02 3.76483E-14 9.73215E-14
 -1      1494 1.92095E+01-9.00892E-04 2.04898E-03-5.46828E-02 5.85769E-14 8.88040E-14
 -1      1495 1.91300E+01 1.09963E-03 2.33085E-03-5.39056E-02 6.26006E-14 1.83452E-13
 -1      1496 1.92569E+01-2.64083E-03-9.93602E-04-1.01012E-01 1.00527E-13 3.68479E-14
 -1      1497 1.93370E+01-1.24859E-03 1.70327E-03-5.01868E-02 4.72006E-14-2.99413E-14
 -1      1498 1.92628E+01-2.92117E-04 1.65490E-03-5.02807E-02 4.08676E-14 4.47125E-14
 -1      1499 1.93582E+01-3.88827E-03-6.52357E-04-9.77526E-02 1.03537E-13-3.73061E-14
 -1      1500 1.94538E+01-1.36299E-03 1.41014E-03-4.42869E-02 4.51995E-14-6.91209E-14
 -1      1501 1.93875E+01-1.07156E-03 1.19813E-03-4.48835E-02 2.61056E-14-4.15570E-14
 -1      1502 1.94586E+01-4.35185E-03-3.92191E-04-8.94206E-02 5.76018E-14-1.37391E-13
 -1      1503 1.95567E+01-1.32071E-03 1.15120E-03-3.80138E-02-6.00729E-16-1.22019E-13
 -1      1504 1.94994E+01-1.43582E-03 8.71354E-04-3.88591E-02 1.96699E-14-1.06032E-13
 -1      1505 1.95521E+01-4.31527E-03-2.11009E-04-7.87947E-02 4.78090E-14-1.04452E-13
 -1      1506 1.96454E+01-1.17192E-03 9.21320E-04-3.20541E-02 1.73941E-14-8.42998E-14
 -1      1507 1.95969E+01-1.51246E-03 6.33352E-04-3.29692E-02-6.28648E-15-1.04760E-13
 -1      1508 1.96358E+01-3.95844E-03-9.53547E-05-6.77100E-02-1.38929E-14-1.01283E-13
 -1      1509 1.97207E+01-9.47933E-04 7.17641E-04-2.68736E-02 8.51569E-14-1.91965E-13
 -1      1510 1.96802E+01-1.38413E-03 4.61417E-04-2.77292E-02 3.90943E-14-1.30519E-13
 -1      1511 1.97092E+01-3.39578E-03-3.30242E-05-5.74009E-02 6.30207E-14-1.54374E-13
 -1      1512 1.97851E+01-6.65795E-04 5.36789E-04-2.28046E-02 3.89599E-14-3.46076E-13
 -1      1513 1.97510E+01-1.10163E-03 3.40946E-04-2.35016E-02 9.11169E-14-2.17736E-13
 -1      1514 1.97731E+01-2.69637E-03-1.57638E-05-4.87226E-02 1.44654E-13-2.02535E-13
 -1      1515 1.98416E+01-3.31282E-04 3.74334E-04-2.01105E-02 3.26623E-15-4.19143E-13
 -1      1516 1.98121E+01-6.91460E-04 2.61757E-04-2.05648E-02 1.55053E-14-3.97398E-13
 -1      1517 1.98294E+01-1.89574E-03-3.94122E-05-4.23084E-02 5.18635E-14-2.63003E-13
 -1      1518 1.98939E+01 5.90451E-05 2.24763E-04-1.90363E-02 1.53629E-14-4.76085E-13
 -1      1519 1.98670E+01-1.60584E-04 2.16531E-04-1.91667E-02 5.49787E-15-4.23216E-13
 -1      1520 1.98811E+01-1.00339E-03-1.03691E-04-3.86867E-02 2.36017E-14-3.09940E-13
 -1      1521 1.99467E+01 5.16366E-04 8.15095E-05-1.98500E-02 3.69519E-14-5.16400E-13
 -1      1522 1.99198E+01 5.00492E-04 1.99992E-04-1.95673E-02 3.23753E-14-4.88482E-13
 -1      1523 1.99318E+01-8.04961E-06-2.12108E-04-3.83745E-02 3.46163E-14-3.63258E-13
 -1      1524 2.00053E+01 1.05850E-03-6.30880E-05-2.28773E-02 3.34582E-14-5.59613E-13
 -1      1525 1.99755E+01 1.31569E-03 2.08325E-04-2.20740E-02 4.01664E-14-5.50490E-13
 -1      1526 1.99857E+01 1.11860E-03-3.72040E-04-4.19517E-02 6.36044E-14-4.21879E-13
 -1      1527 2.00761E+01 1.70886E-03-2.17996E-04-2.85302E-02-1.93497E-14-5.42380E-13
 -1      1528 2.00399E+01 2.32189E-03 2.38613E-04-2.70709E-02-4.33843E-16-5.44897E-13
 -1      1529 2.00480E+01 2.41909E-03-5.94952E-04-5.01236E-02 1.84371E-14-3.88917E-13
 -1      1530 2.01667E+01 2.49507E-03-3.93863E-04-3.73305E-02 5.73055E-15-5.10962E-13
 -1      1531 2.01199E+01 3.56739E-03 2.88115E-04-3.50428E-02-9.90446E-15-5.11827E-13
 -1      1532 2.01248E+01 3.94746E-03-8.96695E-04-6.37711E-02-2.65820E-14-4.14343E-13
 -1      1533 2.02860E+01 3.44621E-03-6.03583E-04-4.99252E-02-6.04996E-15-4.49843E-13
 -1      1534 2.02237E+01 5.10926E-03 3.53198E-04-4.65912E-02-1.26242E-14-4.57787E-13
 -1      1535 2.02235E+01 5.76556E-03-1.29771E-03-8.39862E-02-3.96835E-14-3.23048E-13
 -1      1536 2.04451E+01 4.58721E-03-8.62834E-04-6.70848E-02 6.99410E-14-6.23493E-13
 -1      1537 2.03613E+01 7.00727E-03 4.27637E-04-6.24352E-02 5.31248E-14-4.72831E-13
 -1      1538 2.03525E+01 7.93598E-03-1.82276E-03-1.12084E-01 5.28449E-14-3.12260E-13
 -1      1539 2.06569E+01 5.92718E-03-1.18997E-03-8.96682E-02 2.13929E-14-6.60093E-13
 -1      1540 2.05442E+01 9.31059E-03 5.00020E-04-8.33840E-02 4.87322E-14-6.78759E-13
 -1      1541 2.05221E+01 1.05075E-02-2.49922E-03-1.49567E-01 9.39830E-14-4.41461E-13
 -1      1542 2.09361E+01 7.43591E-03-1.60331E-03-1.18519E-01-5.47262E-14-6.87891E-13
 -1      1543 2.07863E+01 1.20292E-02 5.50186E-04-1.10250E-01-6.96973E-14-7.64052E-13
 -1      1544 2.07438E+01 1.34844E-02-3.35205E-03-1.97995E-01-3.35166E-14-5.86429E-13
 -1      1545 2.12994E+01 8.99906E-03-2.11112E-03-1.54225E-01-1.68925E-14-5.02598E-13
 -1      1546 2.11029E+01 1.50759E-02 5.45549E-04-1.43646E-01 2.10621E-14-5.08935E-13
 -1      1547 2.10306E+01 1.67654E-02-4.39112E-03-2.58673E-01-6.63610E-14-4.37327E-13
 -1      1548 2.17633E+01 1.03373E-02-2.68359E-03-1.96630E-01-1.28994E-13-2.31761E-13
 -1      1549 2.15103E+01 1.81570E-02 4.40878E-04-1.83573E-01-1.09150E-13-4.28338E-13
 -1      1550 2.13956E+01 2.00256E-02-5.58301E-03-3.31993E-01-1.44676E-13-1.24953E-13
 -1      1551 2.23410E+01 1.08723E-02-3.18666E-03-2.43903E-01 5.66882E-14-3.91100E-13
 -1      1552 2.20236E+01 2.05777E-02 1.91202E-04-2.28626E-01 1.94584E-14-3.88048E-13
 -1      1553 2.18505E+01 2.25042E-02-6.79261E-03-4.16170E-01 2.43507E-14-2.52472E-13
 -1      1554 2.30361E+01 9.53308E-03-3.24965E-03-2.90923E-01-5.51219E-14-3.72244E-13
 -1      1555 2.26516E+01 2.09353E-02-2.02128E-04-2.74618E-01-3.86169E-14-3.69930E-13
 -1      1556 2.24017E+01 2.26568E-02-7.67488E-03-5.04996E-01-7.12893E-14-3.12807E-13
 -1      1557 2.38307E+01 4.55189E-03-2.05772E-03-3.26758E-01 2.23831E-14-2.62429E-13
 -1      1558 2.33891E+01 1.67213E-02-5.83422E-04-3.12404E-01-3.23266E-15-2.81315E-13
 -1      1559 2.30438E+01 1.76706E-02-7.50375E-03-5.84200E-01-6.24552E-14-2.72007E-13
 -1      1560 2.46675E+01-6.51994E-03 1.82223E-03-3.31521E-01 6.89426E-14-4.30527E-13
 -1      1561 2.42023E+01 4.06148E-03-4.65808E-04-3.25056E-01 3.01642E-14-3.69281E-13
 -1      1562 2.37492E+01 3.04003E-03-4.98762E-03-6.26455E-01 9.64736E-14-2.83588E-13
 -1      1563 2.54266E+01-2.59518E-02 1.01896E-02-2.74397E-01 4.70110E-16-5.01425E-13
 -1      1564 2.50097E+01-2.16764E-02 1.10276E-03-2.85695E-01 5.13079E-14-4.54262E-13
 -1      1565 2.44541E+01-2.70472E-02 1.69014E-03-5.86682E-01 8.58914E-14-2.49498E-13
 -1      1566 2.59074E+01-5.31535E-02 2.37464E-02-1.18093E-01 5.85868E-14-4.77536E-13
 -1      1567 2.56607E+01-6.29305E-02 5.31371E-03-1.60043E-01-1.36956E-14-4.58737E-13
 -1      1568 2.50438E+01-7.68524E-02 1.40404E-02-4.03553E-01 7.07767E-16-2.08814E-13
 -1      1569 2.58417E+01-7.96273E-02 3.86422E-02 1.61271E-01-3.82055E-14-5.67515E-13
 -1      1570 2.59288E+01-1.13220E-01 1.23133E-02 7.88144E-02 9.02230E-14-3.71878E-13
 -1      1571 2.53476E+01-1.41072E-01 3.11764E-02-1.92998E-02 8.34003E-14-2.43424E-13
 -1      1572 2.49818E+01-8.47523E-02 4.25949E-02 5.31803E-01-1.00982E-13-3.63591E-13
 -1      1573 2.55517E+01-1.48475E-01 1.84097E-02 4.15890E-01-1.33268E-13-4.83419E-13
 -1      1574 2.51662E+01-1.92907E-01 4.59618E-02 5.66848E-01-1.48926E-13-1.48406E-13
 -1      1575 2.32913E+01-4.26902E-02 1.87590E-02 8.58212E-01 2.06429E-13-5.06706E-13
 -1      1576 2.43574E+01-1.27737E-01 1.49123E-02 7.49196E-01 8.43665E-14-4.06966E-13
 -1      1577 2.43617E+01-1.78554E-01 4.44590E-02 1.21647E+00 7.95024E-14-1.89859E-13
 -1      1578 2.11711E+01 4.77698E-02-3.67256E-02 9.17705E-01 1.29278E-13-8.11656E-13
 -1      1579 2.24745E+01-2.30468E-02-6.38297E-03 8.84327E-01 1.75351E-13-5.40290E-13
 -1      1580 2.30149E+01-4.39104E-02 1.64159E-02 1.61113E+00 2.12858E-13-1.44308E-13
 -1      1581 1.94709E+01 1.34308E-01-9.28490E-02 5.58721E-01-5.85140E-14-7.10619E-13
 -1      1582 2.04869E+01 1.28168E-01-4.01106E-02 6.47501E-01-9.10383E-14-8.94271E-13
 -1      1583 2.15553E+01 1.86525E-01-2.88577E-02 1.39128E+00 2.64545E-14-2.44020E-13
 -1      1584 1.90304E+01 1.45862E-01-1.02439E-01-8.77929E-02 5.11969E-14-7.40866E-13
 -1      1585 1.92620E+01 2.22884E-01-6.11677E-02 8.54817E-02 2.94487E-14-7.66335E-13
 -1      1586 2.06458E+01 3.63784E-01-6.16225E-02 5.02205E-01 4.07729E-14-5.92033E-13
 -1      1587 2.00282E+01 7.32042E-02-5.11525E-02-6.49137E-01 2.17430E-14-9.51295E-13
 -1      1588 1.93879E+01 1.89316E-01-4.73664E-02-4.94024E-01 1.31211E-13-7.28813E-13
 -1      1589 2.07374E+01 3.39888E-01-5.68657E-02-6.09845E-01 9.71515E-14-6.04107E-13
 -1      1590 2.18227E+01-2.30926E-02 1.86614E-02-8.27998E-01-1.62953E-13-6.91877E-13
 -1      1591 2.07043E+01 6.32375E-02-8.21359E-03-7.69485E-01-1.08823E-13-9.59205E-13
 -1      1592 2.16878E+01 1.27064E-01-2.65766E-02-1.31482E+00-1.42227E-13-3.94858E-13
 -1      1593 2.34711E+01-7.89790E-02 5.91858E-02-6.20922E-01-4.69225E-14-5.43565E-13
 -1      1594 2.24406E+01-5.90768E-02 2.53016E-02-6.58984E-01-7.56305E-14-7.65263E-13
 -1      1595 2.28962E+01-1.12275E-01 7.36376E-04-1.31602E+00-7.73617E-14-6.14623E-13
 -1      1596 2.43605E+01-8.40486E-02 6.03681E-02-2.41605E-01-2.33528E-14-5.34118E-13
 -1      1597 2.37869E+01-1.15233E-01 3.60949E-02-3.24645E-01 4.15015E-14-5.09426E-13
 -1      1598 2.37691E+01-2.28545E-01 1.47313E-02-7.96231E-01 7.79585E-15-4.16840E-13
 -1      1599 2.43767E+01-6.03856E-02 4.05211E-02 1.10200E-01 2.90067E-13-8.60099E-13
 -1      1600 2.43288E+01-1.10625E-01 2.83419E-02 2.94514E-02 1.27473E-13-7.03684E-13
 -1      1601 2.40297E+01-2.17941E-01 1.72618E-02-1.29435E-01 1.72884E-13-6.62567E-13
 -1      1602 2.37246E+01-3.04998E-02 1.77719E-02 3.41163E-01 1.34094E-14-1.04983E-12
 -1      1603 2.40779E+01-7.62283E-02 1.46415E-02 2.84763E-01 9.90544E-14-9.17058E-13
 -1      1604 2.37058E+01-1.44934E-01 1.39277E-02 4.12848E-01 2.57584E-13-8.19097E-13
 -1      1605 2.27092E+01-4.37204E-03 1.33826E-04 4.40557E-01-2.03268E-14-1.11439E-12
 -1      1606 2.32793E+01-3.58300E-02 3.10618E-03 4.12337E-01-3.94463E-14-9.87380E-13
 -1      1607 2.29840E+01-6.41303E-02 8.38411E-03 7.28784E-01-1.34927E-14-8.39650E-13
 -1      1608 2.16187E+01 1.74154E-02-1.27651E-02 4.27637E-01-2.60592E-14-1.02359E-12
 -1      1609 2.22321E+01 2.00191E-03-4.52766E-03 4.25406E-01 2.44507E-14-1.05704E-12
 -1      1610 2.20858E+01 3.34003E-03 1.52519E-03 8.20933E-01 1.00202E-15-6.01571E-13
 -1      1611 2.06989E+01 3.78302E-02-2.05900E-02 3.17385E-01-4.45555E-14-1.07352E-12
 -1      1612 2.12046E+01 3.87292E-02-9.59819E-03 3.41945E-01-4.44822E-14-1.11468E-12
 -1      1613 2.12097E+01 6.06099E-02-6.40743E-03 7.20477E-01 1.33461E-14-6.38202E-13
 -1      1614 2.01551E+01 5.84600E-02-5.31991E-03 1.31362E-01-4.28028E-14-9.80986E-13
 -1      1615 2.04155E+01 7.09594E-02-9.71817E-03 1.77175E-01-8.41818E-15-1.05688E-12
 -1      1616 2.05100E+01 1.14033E-01-1.19867E-02 4.54170E-01-1.83148E-14-6.47641E-13
 -1      1617 2.00256E+01 4.67510E-02-1.31401E-03 1.55117E-02-4.77505E-13-5.00543E-13
 -1      1618 2.00712E+01 5.70432E-01-1.08597E-02 2.78325E-01-4.82290E-13 1.02985E-13
 -1      1619 2.00846E+01 2.86341E-01-6.67856E-04 2.25681E-01-6.87736E-13 2.04924E-13
 -1      1620 2.00401E+01 1.41758E+00-5.07484E-03 4.47262E-01-4.61957E-13 1.36315E-14
 -1      1621 2.00604E+01 9.05364E-01-7.68381E-03 4.19435E-01-4.57337E-13-1.11265E-13
 -1      1622 2.01319E+01 7.79913E-01-1.38902E-02 6.72803E-01-2.75336E-13 6.08368E-15
 -1      1623 2.00056E+01 2.46827E+00-9.54896E-04 5.29643E-01-1.00468E-13 3.27815E-13
 -1      1624 2.00277E+01 1.84245E+00-4.54551E-03 5.20411E-01-3.89289E-13 1.86429E-13
 -1      1625 2.00605E+01 1.52857E+00-9.54045E-03 9.29780E-01-8.04678E-14 1.38663E-13
 -1      1626 1.99711E+01 3.55008E+00 1.61365E-03 5.18735E-01 1.00156E-13 1.02656E-13
 -1      1627 1.99929E+01 2.92626E+00-1.29023E-03 5.28342E-01-2.34660E-13 4.20690E-13
 -1      1628 1.99993E+01 2.40211E+00-2.52939E-04 1.01628E+00-2.45494E-13 3.98557E-13
 -1      1629 1.99403E+01 4.46359E+00 3.39641E-03 4.17462E-01-4.87926E-13-3.98039E-13
 -1      1630 1.99583E+01 3.95940E+00 1.18687E-03 4.44452E-01 3.21028E-14-4.75264E-13
 -1      1631 1.99409E+01 3.26285E+00 1.00475E-02 9.25187E-01-3.17813E-13-2.62862E-13
 -1      1632 1.99197E+01 5.07401E+00 4.63095E-03 2.37449E-01-5.15208E-13-1.90500E-13
 -1      1633 1.99306E+01 4.76633E+00 3.41635E-03 2.78852E-01-3.98362E-13-1.58510E-14
 -1      1634 1.98927E+01 3.97045E+00 1.90635E-02 6.68903E-01-2.67329E-13-3.20262E-13
 -1      1635 1.99164E+01 5.25173E+00 4.54029E-03 1.54699E-02-8.44172E-13-3.26133E-13
 -1      1636 1.99165E+01 5.20362E+00 4.33778E-03 6.17475E-02-4.25758E-13-4.14142E-13
 -1      1637 1.98648E+01 4.39888E+00 2.46148E-02 2.87676E-01-2.82372E-13-3.00943E-13
 -1      1638 1.99315E+01 4.97859E+00 2.95930E-03-1.99495E-01 1.38538E-13 6.54060E-13
 -1      1639 1.99210E+01 5.18810E+00 3.76112E-03-1.58999E-01-7.36473E-13 5.77624E-13
 -1      1640 1.98661E+01 4.46219E+00 2.44229E-02-1.37557E-01 6.05505E-14 9.48373E-14
 -1      1641 1.99591E+01 4.33157E+00 4.22171E-04-3.62119E-01 1.41182E-13-3.99195E-14
 -1      1642 1.99420E+01 4.74311E+00 2.00234E-03-3.35750E-01 9.41330E-14 1.55151E-13
 -1      1643 1.98955E+01 4.16112E+00 1.86529E-02-5.14282E-01 5.87204E-15 4.83478E-13
 -1      1644 1.99897E+01 3.45473E+00-1.97112E-03-4.46847E-01-1.34243E-13-1.59443E-13
 -1      1645 1.99716E+01 3.97923E+00 5.84985E-05-4.37659E-01 1.64549E-13-1.31560E-13
 -1      1646 1.99420E+01 3.57364E+00 9.67932E-03-7.69418E-01-1.74505E-13-1.39462E-13
 -1      1647 2.00145E+01 2.52514E+00-3.30593E-03-4.54096E-01-4.00430E-13-1.32967E-13
 -1      1648 1.99998E+01 3.06122E+00-1.21275E-03-4.59372E-01-1.87867E-13-1.37072E-13
 -1      1649 1.99908E+01 2.83132E+00 7.93127E-04-8.72983E-01 3.62098E-14-4.85900E-13
 -1      1650 2.00308E+01 1.64534E+00-3.73242E-03-4.02135E-01-4.06307E-13 3.33414E-14
 -1      1651 2.00205E+01 2.13673E+00-1.74030E-03-4.17069E-01-5.62383E-13 2.87573E-13
 -1      1652 2.00287E+01 2.05800E+00-5.87201E-03-8.41142E-01-2.54398E-13-2.76393E-14
 -1      1653 2.00388E+01 9.24394E-01-3.62299E-03-3.14949E-01-4.86732E-13 5.34360E-14
 -1      1654 2.00325E+01 1.31384E+00-1.83045E-03-3.33857E-01-4.92047E-13 1.44399E-13
 -1      1655 2.00530E+01 1.34965E+00-9.69797E-03-7.12333E-01-3.73884E-13 1.03317E-13
 -1      1656 2.00457E+01 4.20034E-01 5.29571E-04-2.12063E-01-7.68594E-13-1.02706E-13
 -1      1657 2.00350E+01 6.73739E-01-3.01241E-03-2.30290E-01-5.89349E-13-1.13994E-13
 -1      1658 2.00681E+01 7.77956E-01-1.02928E-02-5.28149E-01-4.39341E-13-1.35374E-13
 -1      1659 2.00691E+01 1.62527E-01 5.20892E-03-1.42282E-01-4.92562E-13 7.23380E-15
 -1      1660 2.00667E+01 2.82579E-01-1.78270E-03-1.80509E-01-6.14713E-13 4.57468E-14
 -1      1661 2.01100E+01 4.06917E-01-7.12092E-03-3.79008E-01-3.25027E-13 6.60097E-14
 -1      1662 2.01781E+01 1.77094E-01-4.22394E-03-2.74425E-01 1.11066E-15 2.04613E-13
 -1      1663-7.40024E-01-1.63600E+01-1.86294E+00-1.24561E+00-9.86100E-13 4.24216E-13
 -1      1664-6.82624E-01-1.83442E+01-2.02243E+00 2.09897E-01-1.93465E-12 7.15900E-13
 -1      1665 8.91555E-01-9.82435E+00-1.40450E+00-1.57099E-01-1.78857E-13 3.55160E-13
 -1      1666 3.18357E-01-1.49382E+01-1.90801E+00-5.49696E-01-7.64055E-13 1.57444E-13
 -1      1667 5.93505E+00-1.85860E+00-7.18651E-01 3.75353E+00 4.39204E-13 4.23217E-13
 -1      1668 3.25394E+00-7.59200E+00-1.46726E+00 1.07798E+00 2.39142E-13 2.73892E-13
 -1      1669 1.58283E+01 4.26230E+00 9.05323E-02 9.06446E+00 4.22329E-13 2.58016E-13
 -1      1670 9.77218E+00 2.65781E-01-8.06921E-01 5.21675E+00 4.78728E-13 3.69371E-13
 -1      1671 3.00571E+01 6.34648E+00 8.34618E-01 1.26089E+01 2.92544E-13 1.10378E-12
 -1      1672 2.08608E+01 5.64201E+00-1.83688E-02 1.00868E+01 2.79998E-13 6.15952E-13
 -1      1673 4.55653E+01 4.89771E+00 1.45125E+00 9.81370E+00 4.81448E-13 1.88327E-12
 -1      1674 3.57611E+01 6.29291E+00 7.42612E-01 1.09859E+01 2.67786E-13 1.37956E-12
 -1      1675 5.57351E+01 3.77365E+00 2.00874E+00 4.66970E+00 5.22526E-13 1.42425E-12
 -1      1676 5.04843E+01 5.24315E+00 1.62115E+00 9.43755E+00 8.26644E-13 1.84008E-12
 -1      1677 5.49214E+01 4.01854E+00 1.83759E+00-3.69314E+00 4.32321E-13 4.79283E-13
 -1      1678 5.59996E+01 3.80071E+00 1.91550E+00 2.02019E+00 4.34208E-13 1.12402E-12
 -1      1679 4.65007E+01 5.56093E+00 1.44606E+00-1.04968E+01 6.87943E-13-6.10068E-13
 -1      1680 5.36647E+01 3.87705E+00 1.94433E+00-6.53291E+00 4.87027E-13 2.10942E-13
 -1      1681 3.26718E+01 6.48341E+00 6.79432E-01-1.18853E+01 1.35675E-12-1.52189E-12
 -1      1682 4.19012E+01 5.55485E+00 1.46333E+00-1.18394E+01 9.75942E-13-9.86100E-13
 -1      1683 1.88418E+01 4.63759E+00-1.57652E-01-9.01190E+00 2.06335E-12-1.87450E-12
 -1      1684 2.73250E+01 6.04685E+00 7.52334E-01-1.18576E+01 1.59162E-12-1.73461E-12
 -1      1685 8.56975E+00-1.73784E+00-9.35582E-01-4.04755E+00 2.23288E-12-1.70908E-12
 -1      1686 1.42787E+01 2.69792E+00-6.44696E-02-7.84803E+00 2.11298E-12-1.87883E-12
 -1      1687 2.24713E+00-9.02498E+00-1.54058E+00-3.39254E-01 1.52400E-12-1.24589E-12
 -1      1688 4.27866E+00-3.46362E+00-8.79614E-01-2.48943E+00 2.22777E-12-1.84974E-12
 -1      1689 3.84064E-02-1.52637E+01-1.81484E+00 5.15848E-01 2.96874E-13-6.04489E-13
 -1      1690 3.80292E-01-1.09009E+01-1.42290E+00 5.81436E-01 1.07969E-12-1.08953E-12
 -1      1691-7.49836E-01-1.75907E+01-1.89160E+00-2.93378E-01-5.92804E-13-4.07008E-13
 -1      1692-8.16264E-01-1.65139E+01-1.80838E+00 1.25708E+00 1.14575E-13-3.16358E-13
 -1      1693-4.27182E-01-1.39768E+01-1.59216E+00-8.10588E-01-1.58595E-12-6.72962E-13
 -1      1694-4.82855E-01-1.69914E+01-1.86052E+00 2.64824E-01-8.92952E-13-5.79176E-13
 -1      1695 1.79035E+00-7.15244E+00-1.14229E+00 7.62322E-01-2.02627E-12-1.02457E-12
 -1      1696 8.52545E-01-1.24445E+01-1.68415E+00-1.72502E-01-1.79368E-12-7.92623E-13
 -1      1697 7.61514E+00 2.18199E-01-4.88291E-01 4.99720E+00-1.75571E-12-1.15818E-12
 -1      1698 4.37280E+00-4.97249E+00-1.22302E+00 2.04992E+00-2.07434E-12-9.48963E-13
 -1      1699 1.77413E+01 5.14466E+00 2.46951E-01 9.84224E+00-1.39411E-12-1.11877E-12
 -1      1700 1.15520E+01 2.05530E+00-5.72605E-01 6.37076E+00-1.71352E-12-1.09679E-12
 -1      1701 3.11943E+01 6.55447E+00 9.43726E-01 1.26472E+01-8.61533E-13-1.45639E-12
 -1      1702 2.26126E+01 6.17665E+00 1.53516E-01 1.06637E+01-1.00897E-12-1.38667E-12
 -1      1703 4.44718E+01 5.21783E+00 1.44117E+00 1.08050E+01-6.80678E-13-1.18083E-12
 -1      1704 3.60948E+01 6.60801E+00 8.29498E-01 1.19597E+01-8.86513E-13-1.37490E-12
 -1      1705 5.32391E+01 3.83627E+00 1.71240E+00 4.50062E+00-2.82607E-13-7.30804E-13
 -1      1706 4.78520E+01 5.20794E+00 1.35664E+00 8.90968E+00-4.80754E-13-9.92539E-13
 -1      1707 5.41953E+01 4.00154E+00 1.72849E+00-3.63522E+00-8.90399E-14-4.27991E-13
 -1      1708 5.44850E+01 3.81637E+00 1.69943E+00 2.01905E+00-1.88682E-13-6.02823E-13
 -1      1709 4.76117E+01 5.54921E+00 1.48188E+00-1.03520E+01 2.81719E-15-4.28768E-13
 -1      1710 5.33704E+01 3.93624E+00 1.83538E+00-6.29934E+00 8.12961E-14-4.12614E-13
 -1      1711 3.43058E+01 6.90171E+00 8.10946E-01-1.22574E+01-2.21378E-13 4.61853E-14
 -1      1712 4.34644E+01 5.62496E+00 1.51517E+00-1.16238E+01-1.27898E-13-3.05866E-13
 -1      1713 2.09634E+01 5.83752E+00 8.61464E-02-1.02835E+01-5.26135E-13 2.81997E-13
 -1      1714 2.92034E+01 6.68096E+00 9.18734E-01-1.26412E+01-3.06422E-13 1.18572E-13
 -1      1715 1.04737E+01 1.03636E+00-6.53946E-01-5.73934E+00-7.76268E-13 4.79283E-13
 -1      1716 1.63213E+01 4.64509E+00 1.97731E-01-9.33662E+00-5.43343E-13 4.21885E-13
 -1      1717 4.09958E+00-7.06093E+00-1.31097E+00-1.74076E+00-1.45262E-12 4.09173E-13
 -1      1718 7.14789E+00-1.35363E+00-5.43559E-01-4.57821E+00-9.54570E-13 4.35207E-13
 -1      1719 3.64440E-01-1.47644E+01-1.87503E+00 3.69291E-01-2.05536E-12 4.50605E-13
 -1      1720 9.82035E-01-9.28925E+00-1.32350E+00-8.64562E-02-1.77325E-12 4.84224E-13
 -1      1721-6.22370E-01-1.79430E+01-1.95382E+00-3.47414E-01-2.09785E-12 3.92519E-13
 -1      1722-6.22291E-01-1.59033E+01-1.76614E+00 9.59770E-01-2.28445E-12 3.55632E-13
 -1      1723 2.33334E+01 2.98496E-01 1.92625E-01 7.57056E+00 1.28564E-13 4.04565E-13
 -1      1724 1.31060E+01-4.09682E+00-4.68949E-01 6.19183E+00 1.18239E-13 1.86906E-13
 -1      1725 2.00940E+01 1.16438E-01-1.17041E-02 1.29858E-01-6.49136E-13-2.20536E-13
 -1      1726 2.02124E+01 3.04908E-01-8.17682E-03 3.86026E-01-2.68135E-13 3.49503E-14
 -1      1727 1.35123E-01-1.17068E+01-1.35681E+00 2.00262E+00-9.21097E-13 5.92248E-13
 -1      1728 5.15868E+00-8.45095E+00-9.97507E-01 4.14123E+00-2.88769E-13 5.51288E-13
 -1      1729-1.47549E+00-1.25816E+01-1.41883E+00-1.69740E-01-1.22529E-12 7.13707E-13
 -1      1730 3.44497E+01 3.47587E+00 8.01472E-01 6.40642E+00-1.58901E-13 1.13776E-12
 -1      1731 4.27897E+01 5.96428E+00 1.12970E+00 3.94432E+00 3.05006E-13 6.43596E-13
 -1      1732 4.79457E+01 7.54832E+00 1.60774E+00 1.68245E+00 7.36189E-13 5.91527E-13
 -1      1733 4.70909E+01 7.21193E+00 1.56896E+00-2.12613E+00 8.82683E-13 3.35398E-13
 -1      1734 4.17223E+01 5.42766E+00 1.25578E+00-5.41310E+00 1.14995E-12-2.20268E-13
 -1      1735 3.20927E+01 2.89669E+00 6.66278E-01-7.06211E+00 1.26971E-12-7.69163E-13
 -1      1736 2.15297E+01-1.08118E+00-7.22614E-03-6.78504E+00 1.30029E-12-8.81073E-13
 -1      1737 1.16206E+01-5.12126E+00-5.27567E-01-5.60819E+00 1.27998E-12-1.29363E-12
 -1      1738 3.77534E+00-8.86366E+00-1.02599E+00-3.45977E+00 5.60663E-13-1.42654E-12
 -1      1739-4.30818E-01-1.14272E+01-1.28182E+00-1.46691E+00 1.08358E-13-8.60756E-13
 -1      1740-1.34293E+00-1.20392E+01-1.34083E+00 6.92945E-01-3.89855E-13-8.79241E-13
 -1      1741 1.11018E+00-1.02215E+01-1.16506E+00 2.73916E+00-7.42295E-13-8.53373E-13
 -1      1742 6.62935E+00-6.83564E+00-8.25280E-01 4.69666E+00-1.20759E-12-6.85701E-13
 -1      1743 1.47152E+01-2.58839E+00-2.96119E-01 6.55592E+00-1.08935E-12-5.50171E-13
 -1      1744 2.45039E+01 1.27295E+00 2.92228E-01 7.63083E+00-7.81153E-13-7.31304E-13
 -1      1745 3.44958E+01 4.22113E+00 8.67771E-01 7.03183E+00-6.33882E-13-9.85101E-13
 -1      1746 4.21840E+01 6.29881E+00 1.24353E+00 4.54432E+00-6.11483E-13-5.86420E-13
 -1      1747 4.61546E+01 7.60584E+00 1.43428E+00 1.24708E+00-3.44558E-13-3.22770E-13
 -1      1748 4.66324E+01 7.40987E+00 1.50535E+00-2.43010E+00-1.71363E-13-3.96710E-13
 -1      1749 4.19910E+01 6.08027E+00 1.26888E+00-5.58081E+00-2.16896E-13-3.75255E-13
 -1      1750 3.33679E+01 3.82321E+00 8.07206E-01-7.41697E+00-2.80581E-13-1.48881E-13
 -1      1751 2.33031E+01 5.65688E-01 2.05497E-01-7.66735E+00-2.74225E-13 1.46549E-14
 -1      1752 1.40105E+01-3.88346E+00-3.84523E-01-6.50359E+00-5.60774E-13-9.84768E-14
 -1      1753 5.92685E+00-8.03486E+00-8.50152E-01-4.72293E+00-1.07769E-12-5.22603E-14
 -1      1754 2.75113E-01-1.13300E+01-1.28853E+00-2.19923E+00-1.32611E-12 1.36335E-13
 -1      1755 2.28593E+01 1.98495E+00-2.35547E-02-2.72267E+00-2.54338E-13 1.53791E-12
 -1      1756 1.98251E+01 3.71356E+00-3.54673E-02-2.15331E+00-4.05839E-13-1.29254E-13
 -1      1757 2.00578E+01 3.56262E+00-4.02545E-02-2.44556E+00-4.44710E-13 1.48700E-14
 -1      1758 2.03632E+01 3.18154E+00-4.57861E-02-2.58535E+00-4.33640E-13 1.97349E-13
 -1      1759 2.05833E+01 2.80978E+00-1.42540E-01-2.85362E+00-4.33858E-13 4.47718E-13
 -1      1760 2.04239E+01 2.69282E+00-4.24297E-03-2.22486E+00-4.57266E-13 1.13201E-13
 -1      1761 1.93553E+01 4.18867E+00-2.00469E-02-1.27084E+00-2.68485E-13-4.22263E-13
 -1      1762 1.94292E+01 4.14910E+00-1.68901E-02-1.49529E+00-3.09427E-13-3.73816E-13
 -1      1763 1.92587E+01 4.29457E+00-1.67473E-02-8.59858E-01-2.02984E-13-4.91470E-13
 -1      1764 1.93014E+01 4.27062E+00-1.42399E-02-1.07066E+00-2.35049E-13-4.63234E-13
 -1      1765 1.95274E+01 3.78298E+00-8.95634E-03-1.11978E+00-2.68399E-13-4.21113E-13
 -1      1766 1.92073E+01 4.35495E+00-1.47914E-02-4.66948E-01-1.28576E-13-5.26754E-13
 -1      1767 1.92291E+01 4.34210E+00-1.33052E-02-6.67295E-01-1.60815E-13-5.07061E-13
 -1      1768 1.94301E+01 3.90312E+00-9.15306E-03-7.33423E-01-1.87190E-13-4.81448E-13
 -1      1769 1.91879E+01 4.38052E+00-1.36697E-02-8.36628E-02-5.49768E-14-5.35955E-13
 -1      1770 1.91943E+01 4.37661E+00-1.32174E-02-2.79172E-01-8.96311E-14-5.33512E-13
 -1      1771 1.93799E+01 3.96750E+00-9.15255E-03-3.58437E-01-1.18938E-13-5.08435E-13
 -1      1772 1.91960E+01 4.37522E+00-1.31742E-02 2.98235E-01 2.53239E-14-5.38205E-13
 -1      1773 1.91884E+01 4.37969E+00-1.37548E-02 1.02562E-01-1.03123E-14-5.35049E-13
 -1      1774 1.93652E+01 3.98688E+00-9.14730E-03 1.05608E-02-3.21647E-14-5.14084E-13
 -1      1775 1.92332E+01 4.33805E+00-1.33330E-02 6.87102E-01 9.91533E-14-5.43062E-13
 -1      1776 1.92100E+01 4.35174E+00-1.49183E-02 4.86239E-01 6.42145E-14-5.47867E-13
 -1      1777 1.93827E+01 3.96418E+00-9.18961E-03 3.79754E-01 5.16118E-14-5.19232E-13
 -1      1778 1.93066E+01 4.26467E+00-1.44140E-02 1.08487E+00 1.78896E-13-5.26384E-13
 -1      1779 1.92633E+01 4.28913E+00-1.69727E-02 8.76853E-01 1.42160E-13-5.38507E-13
 -1      1780 1.94354E+01 3.89671E+00-9.19470E-03 7.52045E-01 1.32516E-13-5.14573E-13
 -1      1781 1.94381E+01 4.13750E+00-1.74070E-02 1.51494E+00 2.75417E-13-4.57648E-13
 -1      1782 1.93617E+01 4.18008E+00-2.05004E-02 1.28538E+00 2.20054E-13-4.94995E-13
 -1      1783 1.95349E+01 3.77285E+00-9.24084E-03 1.13590E+00 2.16904E-13-4.84737E-13
 -1      1784 1.96671E+01 3.92100E+00-2.51971E-02 1.98004E+00 3.51935E-13-3.60129E-13
 -1      1785 1.95344E+01 3.99776E+00-2.69008E-02 1.72270E+00 3.10312E-13-4.22367E-13
 -1      1786 1.97081E+01 3.56583E+00-8.69697E-03 1.53567E+00 3.14823E-13-4.03226E-13
 -1      1787 2.00757E+01 3.52273E+00-4.51891E-02 2.47246E+00 4.31943E-13-1.54404E-13
 -1      1788 1.98357E+01 3.68317E+00-3.97209E-02 2.18337E+00 3.78492E-13-2.69548E-13
 -1      1789 2.00044E+01 3.22276E+00-5.27221E-03 1.93502E+00 3.95505E-13-2.75377E-13
 -1      1790 2.09210E+01 2.68181E+00-5.76527E-02 2.85811E+00 4.40092E-13 2.45193E-13
 -1      1791 2.04136E+01 3.09692E+00-5.04275E-02 2.61635E+00 4.23053E-13-2.90046E-15
 -1      1792 2.05174E+01 2.60988E+00 3.18752E-03 2.24497E+00 4.38490E-13-5.62397E-14
 -1      1793 2.17313E+01 1.21299E+00-1.22096E-01 2.33010E+00 3.75679E-13 7.46139E-13
 -1      1794 2.12748E+01 2.26306E+00 1.18520E-04 2.74074E+00 4.05913E-13 4.14335E-13
 -1      1795 2.09375E+01 1.68502E+00-2.29639E-02 2.14054E+00 4.40453E-13 2.47965E-13
 -1      1796 2.09525E+01 7.78684E-01-6.24546E-02 1.52442E+00 3.71578E-13 6.41391E-13
 -1      1797 2.17972E+01 2.45826E+00 9.09135E-02-3.04845E+00-3.57225E-13 8.43728E-13
 -1      1798 2.01015E+01 2.97929E-01-8.92038E-03 6.57286E-01 2.85941E-13 4.65929E-13
 -1      1799 2.06537E+01 4.40404E-01-1.24697E-02 1.03431E+00 3.07671E-13 5.81115E-13
 -1      1800 2.07449E+01 8.45124E-01 2.24997E-03 1.41545E+00 3.67147E-13 3.61711E-13
 -1      1801 2.15075E+01 1.74235E+00 7.94368E-02-2.33744E+00-3.95434E-13 6.61970E-13
 -1      1802 2.05210E+01 5.00567E-01 3.24017E-02-9.21992E-01-3.09856E-13 5.77602E-13
 -1      1803 2.00891E+01 3.52056E-01 7.56672E-03-6.30147E-01-2.65113E-13 4.98429E-13
 -1      1804 1.98945E+01 2.57361E-01 2.74225E-02-3.91619E-01-2.31281E-13 4.78243E-13
 -1      1805 1.97035E+01 1.77930E-01 1.04183E-02-2.53839E-01-2.00822E-13 3.98640E-13
 -1      1806 2.01989E+01 4.83392E-01-5.96149E-03-7.23196E-01-2.98214E-13 2.83882E-13
 -1      1807 1.95813E+01 1.32525E-01 1.66508E-02-1.20504E-01-1.64073E-13 3.76433E-13
 -1      1808 1.95030E+01 9.28814E-02 6.95218E-03-4.98219E-02-1.36253E-13 3.29595E-13
 -1      1809 1.98729E+01 2.43652E-01-5.75766E-03-2.96243E-01-2.29574E-13 2.27791E-13
 -1      1810 1.94379E+01 6.82284E-02 8.67056E-03 2.35806E-02-1.15830E-13 3.13340E-13
 -1      1811 1.94230E+01 4.65461E-02 4.09233E-03 5.96552E-02-1.08246E-13 2.81516E-13
 -1      1812 1.96898E+01 1.24949E-01-4.65429E-03-5.98282E-02-1.61818E-13 1.83832E-13
 -1      1813 1.93968E+01 3.22069E-02 4.23087E-03 9.82500E-02-8.93262E-14 2.85825E-13
 -1      1814 1.94162E+01 1.97612E-02 2.42080E-03 1.14915E-01-6.65985E-14 2.42547E-13
 -1      1815 1.96029E+01 6.06772E-02-3.46674E-03 6.95237E-02-1.14197E-13 1.41500E-13
 -1      1816 1.94142E+01 1.11280E-02 1.85421E-03 1.32711E-01-9.70698E-14 2.24155E-13
 -1      1817 1.94508E+01 3.95880E-03 1.44334E-03 1.38033E-01-1.27701E-13 2.09249E-13
 -1      1818 1.95782E+01 2.37823E-02-2.33947E-03 1.35662E-01-1.07907E-13 1.00152E-13
 -1      1819 1.94630E+01-1.20883E-03 5.57660E-04 1.43324E-01-1.32038E-13 2.35278E-13
 -1      1820 1.95068E+01-5.15078E-03 8.38640E-04 1.42038E-01-1.00224E-13 2.33456E-13
 -1      1821 1.95912E+01 2.29378E-03-1.44185E-03 1.63741E-01-1.16910E-13 1.11112E-13
 -1      1822 1.95266E+01-8.08401E-03-1.57778E-04 1.39994E-01-1.05215E-13 2.46845E-13
 -1      1823 1.95715E+01-9.96553E-03 4.56014E-04 1.35074E-01-1.02491E-13 2.01186E-13
 -1      1824 1.96254E+01-9.84197E-03-8.03276E-04 1.69003E-01-1.09509E-13 1.18737E-13
 -1      1825 1.95945E+01-1.14089E-02-5.35298E-04 1.29054E-01-1.20694E-13 1.51054E-13
 -1      1826 1.96373E+01-1.19439E-02 2.23492E-04 1.22445E-01-9.90430E-14 8.41517E-14
 -1      1827 1.96699E+01-1.60009E-02-3.81372E-04 1.61151E-01-1.50002E-13 6.18841E-14
 -1      1828 1.96609E+01-1.23752E-02-7.03616E-04 1.14689E-01-1.06019E-13 4.30569E-14
 -1      1829 1.96999E+01-1.20172E-02 1.00711E-04 1.07687E-01-9.97379E-14 4.96629E-15
 -1      1830 1.97177E+01-1.82280E-02-1.22769E-04 1.46573E-01-1.54746E-13 3.39074E-14
 -1      1831 1.97227E+01-1.17504E-02-7.38510E-04 9.97134E-02-4.69604E-14-3.67534E-14
 -1      1832 1.97574E+01-1.07883E-02 6.23306E-05 9.32017E-02-3.77751E-14-2.93732E-14
 -1      1833 1.97651E+01-1.78199E-02 1.68258E-05 1.29570E-01-9.74453E-14-4.20058E-14
 -1      1834 1.97789E+01-1.00273E-02-6.87878E-04 8.60608E-02-1.78814E-14-1.41576E-14
 -1      1835 1.98096E+01-8.63783E-03 9.22064E-05 8.06557E-02-1.58445E-14 2.14960E-15
 -1      1836 1.98101E+01-1.56068E-02 7.00098E-05 1.13089E-01-3.93438E-14-4.28959E-14
 -1      1837 1.98297E+01-7.50873E-03-5.82874E-04 7.51014E-02-6.20058E-14-3.49948E-14
 -1      1838 1.98574E+01-5.78866E-03 1.80762E-04 7.12591E-02-5.87259E-14 1.40021E-14
 -1      1839 1.98521E+01-1.21048E-02 5.96421E-05 9.92023E-02-4.86387E-14-9.81239E-15
 -1      1840 1.98766E+01-4.36076E-03-4.43730E-04 6.78700E-02-2.64694E-14 3.19230E-14
 -1      1841 1.99025E+01-2.34890E-03 3.23223E-04 6.59613E-02-1.04063E-14 6.99719E-14
 -1      1842 1.98919E+01-7.60693E-03 1.29094E-06 8.94422E-02-3.73775E-14 5.75915E-17
 -1      1843 1.99218E+01-6.50834E-04-2.83365E-04 6.52271E-02-5.07934E-14 6.07180E-14
 -1      1844 1.99475E+01 1.65444E-03 5.18022E-04 6.55916E-02-4.64676E-14 6.72716E-14
 -1      1845 1.99306E+01-2.24577E-03-9.47652E-05 8.50323E-02-1.41859E-14-1.18507E-14
 -1      1846 1.99678E+01 3.62059E-03-1.09920E-04 6.79725E-02-5.52474E-14 5.42503E-14
 -1      1847 1.99954E+01 6.24501E-03 7.65080E-04 7.09533E-02-4.73883E-14 3.22625E-14
 -1      1848 1.99704E+01 3.95667E-03-2.21890E-04 8.70558E-02-5.03125E-14 9.60469E-14
 -1      1849 2.00183E+01 8.48916E-03 7.12449E-05 7.69148E-02-4.04391E-14 5.96090E-14
 -1      1850 2.00500E+01 1.14645E-02 1.06366E-03 8.28743E-02-4.75254E-14 5.76875E-14
 -1      1851 2.00138E+01 1.10425E-02-3.75655E-04 9.65605E-02-3.86851E-14 1.68668E-13
 -1      1852 2.00769E+01 1.39912E-02 2.55815E-04 9.28942E-02-9.65072E-14 7.90641E-16
 -1      1853 2.01153E+01 1.73323E-02 1.40950E-03 1.02207E-01-5.57696E-14-1.77300E-14
 -1      1854 2.00638E+01 1.90663E-02-5.52495E-04 1.14607E-01-9.23594E-14 1.24803E-13
 -1      1855 2.01481E+01 2.01176E-02 4.38888E-04 1.16749E-01-3.78000E-14-7.89827E-14
 -1      1856 2.01960E+01 2.37907E-02 1.79074E-03 1.29766E-01 1.86147E-15-1.55768E-13
 -1      1857 2.01238E+01 2.80291E-02-7.48367E-04 1.42249E-01-1.01366E-13 2.63317E-14
 -1      1858 2.02366E+01 2.67506E-02 6.13366E-04 1.49211E-01 6.12165E-14-9.89669E-14
 -1      1859 2.02970E+01 3.06278E-02 2.18228E-03 1.66178E-01 6.52756E-14-5.63242E-14
 -1      1860 2.01977E+01 3.77887E-02-9.57415E-04 1.80423E-01 2.62015E-14 2.04001E-14
 -1      1861 2.03475E+01 3.35725E-02 7.68430E-04 1.90688E-01 9.37880E-14 6.28692E-14
 -1      1862 2.04234E+01 3.73668E-02 2.53805E-03 2.11612E-01 1.50350E-13 8.78505E-14
 -1      1863 2.02895E+01 4.79315E-02-1.17066E-03 2.29729E-01 1.72168E-13 1.00105E-13
 -1      1864 2.04859E+01 3.99371E-02 8.88302E-04 2.40919E-01 7.15552E-14 5.14649E-14
 -1      1865 2.05799E+01 4.31114E-02 2.78126E-03 2.65341E-01 9.66758E-14 1.02798E-13
 -1      1866 2.04033E+01 5.75904E-02-1.37482E-03 2.90046E-01 1.29136E-13 1.24308E-13
 -1      1867 2.06562E+01 4.46936E-02 9.51758E-04 2.98415E-01 1.14243E-13 7.50390E-14
 -1      1868 2.07702E+01 4.63431E-02 2.79367E-03 3.25085E-01 7.38891E-14 6.61916E-14
 -1      1869 2.05431E+01 6.51957E-02-1.55132E-03 3.59931E-01 1.21841E-13 7.31853E-14
 -1      1870 2.08615E+01 4.59648E-02 9.33203E-04 3.59664E-01 2.59569E-15-6.16225E-15
 -1      1871 2.09955E+01 4.46838E-02 2.40723E-03 3.86076E-01-7.78908E-14 4.16204E-15
 -1      1872 2.07119E+01 6.81572E-02-1.67560E-03 4.35746E-01 3.14873E-14-8.92368E-14
 -1      1873 2.11026E+01 4.09131E-02 8.06192E-04 4.18045E-01-1.71930E-13 1.16964E-14
 -1      1874 2.12538E+01 3.46920E-02 1.40628E-03 4.39861E-01-1.83586E-13-3.11827E-15
 -1      1875 2.09117E+01 6.25203E-02-1.71600E-03 5.10471E-01-1.26577E-13-1.80514E-13
 -1      1876 2.13759E+01 2.56017E-02 5.49729E-04 4.62529E-01-1.30587E-13 5.48632E-14
 -1      1877 2.15371E+01 1.18692E-02-4.44599E-04 4.72978E-01-4.86018E-14 6.99885E-14
 -1      1878 2.11418E+01 4.27355E-02-1.63048E-03 5.72244E-01-9.82837E-14-6.79980E-14
 -1      1879 2.16713E+01-4.79239E-03 1.54271E-04 4.76444E-01-2.10005E-14 7.73917E-14
 -1      1880 2.18295E+01-2.87479E-02-3.32276E-03 4.65983E-01 9.12708E-14 8.50136E-14
 -1      1881 2.13982E+01 1.88305E-03-1.35739E-03 6.02889E-01-3.85597E-14-1.56743E-15
 -1      1882 2.19701E+01-5.49185E-02-3.79459E-04 4.37050E-01 4.48860E-15 4.44480E-14
 -1      1883 2.21047E+01-9.07612E-02-7.19002E-03 3.93889E-01-1.61691E-13 3.35712E-15
 -1      1884 2.16717E+01-6.69846E-02-7.95155E-04 5.77105E-01-2.53734E-14-3.02483E-14
 -1      1885 2.22415E+01-1.26583E-01-1.06344E-03 3.17450E-01-1.88243E-13-1.36811E-14
 -1      1886 2.23247E+01-1.72547E-01-1.15438E-02 2.29963E-01-9.91199E-14-6.29570E-14
 -1      1887 2.19458E+01-1.67334E-01 2.30650E-04 4.63778E-01-9.34476E-14-6.57991E-14
 -1      1888 2.24412E+01-2.13760E-01-1.96993E-03 9.33033E-02-6.68966E-14-5.44994E-14
 -1      1889 2.24407E+01-2.61095E-01-1.51445E-02-4.44283E-02-2.89699E-14 5.45229E-15
 -1      1890 2.21937E+01-2.92447E-01 1.98016E-03 2.31898E-01-7.52141E-14-1.76454E-14
 -1      1891 2.25123E+01-2.95801E-01-3.26091E-03-2.42865E-01-1.16842E-14 5.63080E-15
 -1      1892 2.23997E+01-3.25631E-01-1.59610E-02-4.21941E-01 6.21690E-14-5.73012E-14
 -1      1893 2.23753E+01-4.15979E-01 4.68619E-03-1.35634E-01 1.80515E-14 1.13532E-13
 -1      1894 2.23947E+01-3.32856E-01-5.04568E-03-6.59485E-01 3.09371E-14-6.80651E-14
 -1      1895 2.21583E+01-3.17901E-01-1.17900E-02-8.46088E-01 5.38632E-14-1.38492E-14
 -1      1896 2.24370E+01-4.84759E-01 8.14353E-03-6.18409E-01 2.89061E-14 3.11265E-14
 -1      1897 2.20479E+01-2.73046E-01-6.85326E-03-1.06412E+00 4.75696E-14-9.52680E-14
 -1      1898 2.17088E+01-1.90544E-01-2.03763E-03-1.19663E+00-1.91201E-14-8.68298E-14
 -1      1899 2.23214E+01-4.26357E-01 1.09579E-02-1.13025E+00-1.74743E-14-2.62242E-14
 -1      1900 2.14901E+01-8.26097E-02-7.21614E-03-1.30465E+00-3.88170E-14-1.54110E-13
 -1      1901 2.11108E+01 6.11692E-02 9.97582E-03-1.31068E+00-1.37387E-14-1.91808E-14
 -1      1902 2.19973E+01-1.86307E-01 1.00776E-02-1.50693E+00 9.39591E-15 7.71809E-14
 -1      1903 2.08359E+01 2.06387E-01-3.83431E-03-1.22380E+00-1.14551E-13-7.70651E-15
 -1      1904 2.05106E+01 3.58190E-01 1.76800E-02-1.06229E+00-9.77430E-14-6.17614E-14
 -1      1905 2.15101E+01 2.08037E-01 2.35187E-03-1.54684E+00-2.35189E-14 3.78191E-14
 -1      1906 2.02869E+01 4.74561E-01 4.73835E-03-7.67032E-01-1.17970E-14-8.58523E-14
 -1      1907 2.01066E+01 5.54740E-01 1.65022E-02-4.72634E-01 1.61919E-14 4.15646E-14
 -1      1908 2.10153E+01 6.10437E-01-9.96448E-03-1.12737E+00-6.64260E-14 2.06744E-14
 -1      1909 2.00375E+01 5.75465E-01 1.51808E-02-6.60776E-02-7.83783E-14-4.29643E-14
 -1      1910 2.00486E+01 5.34241E-01 7.89694E-03 2.51460E-01-3.16032E-14-1.41037E-13
 -1      1911 2.07228E+01 8.19543E-01-1.69933E-02-3.37063E-01-6.23971E-14 3.18844E-14
 -1      1912 2.01552E+01 4.44385E-01 1.98916E-02 6.01487E-01 6.91981E-15-2.62577E-13
 -1      1913 2.03340E+01 3.06066E-01-2.07292E-03 8.16018E-01-1.29922E-14-1.93225E-13
 -1      1914 2.07589E+01 7.13085E-01-1.26738E-02 5.18542E-01-7.31897E-14-1.71999E-13
 -1      1915 2.05334E+01 1.60397E-01 1.47455E-02 9.76254E-01-4.03046E-14-7.15547E-14
 -1      1916 2.07984E+01 2.42609E-03-7.85628E-03 1.02287E+00 7.37408E-14-3.69548E-14
 -1      1917 2.10611E+01 3.49900E-01-1.40031E-03 1.08652E+00 5.87200E-14-9.53630E-14
 -1      1918 2.09747E+01-1.25447E-01 3.18939E-03 9.69069E-01 2.10461E-13 7.48056E-14
 -1      1919 2.12275E+01-2.34174E-01-8.45215E-03 8.66477E-01 4.31287E-13 1.58875E-13
 -1      1920 2.14292E+01-7.55242E-02 8.34664E-03 1.19139E+00 2.61099E-13 2.25624E-13
 -1      1921 2.13046E+01-3.00715E-01-8.06028E-03 6.67802E-01 4.98133E-13 2.84529E-14
 -1      1922 2.14695E+01-3.35464E-01-6.24912E-03 4.85979E-01 4.13103E-13 2.29980E-13
 -1      1923 2.16750E+01-3.81674E-01 1.12923E-02 8.94754E-01 3.81452E-13 2.14435E-13
 -1      1924 2.14338E+01-3.38583E-01-1.42097E-02 2.42749E-01 2.84509E-13 4.22952E-13
 -1      1925 2.14793E+01-3.12636E-01-3.01988E-03 5.62084E-02 3.57722E-13 6.20797E-13
 -1      1926 2.17131E+01-4.92082E-01 9.21138E-03 3.94903E-01 5.20884E-13 1.35315E-13
 -1      1927 2.13564E+01-2.73271E-01-1.46639E-02-1.51616E-01 1.79264E-13 5.45876E-13
 -1      1928 2.12926E+01-2.12992E-01 2.74782E-04-2.91269E-01 6.51328E-14 4.91572E-13
 -1      1929 2.15570E+01-4.33847E-01 5.36763E-03-1.06607E-01 2.80696E-13 1.52801E-13
 -1      1930 2.11198E+01-1.53574E-01-1.14842E-02-4.19653E-01-2.05526E-13 4.15558E-13
 -1      1931 2.09838E+01-8.10251E-02 3.23259E-03-4.87046E-01-1.93975E-13 3.08821E-13
 -1      1932 2.12680E+01-2.74878E-01 1.81112E-03-4.76269E-01-1.11429E-13 1.23670E-13
 -1      1933 2.07947E+01-1.69433E-02-7.15697E-03-5.22085E-01-6.92025E-14 3.06394E-13
 -1      1934 2.06334E+01 5.45279E-02 5.38100E-03-5.11702E-01-5.12670E-14 2.95473E-13
 -1      1935 2.09157E+01-7.69633E-02-6.98710E-04-6.52831E-01-2.61897E-13 2.78711E-13
 -1      1936 2.04697E+01 1.01864E-01-3.49697E-03-4.57419E-01 2.26895E-14 2.50026E-13
 -1      1937 2.03286E+01 1.56952E-01 7.50655E-03-3.83662E-01 1.18458E-13 2.14888E-13
 -1      1938 2.02911E+01 2.32082E-01-5.16579E-04-4.60705E-01-5.59426E-14 2.04628E-13
 -1      1939 2.05761E+01 1.17877E-01 1.02048E-03-6.29687E-01-7.34161E-14 1.38573E-13
 -1      1940 1.96186E+01 1.42003E-01 7.87882E-03 2.59703E-01 2.45973E-13 3.38554E-13
 -1      1941 1.98908E+01 2.04071E-01 1.64322E-02 4.32681E-01 2.48440E-13 4.21880E-13
 -1      1942 2.01024E+01 3.50523E-01-1.53024E-03 6.55315E-01 3.02317E-13 2.48926E-13
 -1      1943 1.93760E+01 7.18615E-02 6.94493E-03 5.68013E-02 1.85813E-13 2.14466E-13
 -1      1944 1.94911E+01 1.01752E-01 1.41949E-02 1.45280E-01 2.09388E-13 3.03120E-13
 -1      1945 1.97095E+01 1.65130E-01-1.94103E-03 2.56629E-01 2.51609E-13 1.73981E-13
 -1      1946 1.92851E+01 3.60925E-02 4.42793E-03-4.85685E-02 1.43358E-13 1.12215E-13
 -1      1947 1.93155E+01 5.19050E-02 8.33609E-03-1.40662E-03 1.58980E-13 1.62956E-13
 -1      1948 1.95089E+01 8.06043E-02-2.82051E-03 4.47407E-02 2.09221E-13 6.22601E-14
 -1      1949 1.92830E+01 1.61636E-02 2.85958E-03-1.00980E-01 4.91582E-14 4.63609E-14
 -1      1950 1.92680E+01 2.50178E-02 4.35207E-03-7.64014E-02 9.46784E-14 9.23710E-14
 -1      1951 1.94296E+01 3.74068E-02-2.83768E-03-6.70611E-02 1.17201E-13 5.06214E-15
 -1      1952 1.93298E+01 4.56141E-03 1.98547E-03-1.23033E-01 6.08618E-14-1.65859E-14
 -1      1953 1.92917E+01 9.57947E-03 2.14855E-03-1.11631E-01 3.34324E-14-7.41204E-15
 -1      1954 1.94227E+01 1.36019E-02-2.31097E-03-1.22543E-01 6.80602E-14-7.82900E-14
 -1      1955 1.94008E+01-2.17606E-03 1.44571E-03-1.27282E-01 1.22691E-13-5.65463E-14
 -1      1956 1.93526E+01 5.46148E-04 9.53593E-04-1.23779E-01 1.04960E-13-2.12097E-14
 -1      1957 1.94569E+01 7.44649E-05-1.69411E-03-1.45097E-01 1.18519E-13-8.38706E-14
 -1      1958 1.94811E+01-5.86000E-03 1.07013E-03-1.21316E-01 8.88173E-14-1.15739E-13
 -1      1959 1.94303E+01-4.57589E-03 2.86876E-04-1.22479E-01 1.04166E-13-6.23440E-14
 -1      1960 1.95123E+01-7.43483E-03-1.17558E-03-1.48242E-01 1.12641E-13-9.19285E-14
 -1      1961 1.95614E+01-7.54759E-03 7.94686E-04-1.09978E-01 2.42088E-14-1.37972E-13
 -1      1962 1.95126E+01-7.18146E-03-8.67226E-05-1.13715E-01 4.14705E-14-1.33233E-13
 -1      1963 1.95762E+01-1.11821E-02-7.89488E-04-1.40340E-01 6.43164E-14-1.19251E-13
 -1      1964 1.96370E+01-7.90277E-03 5.93715E-04-9.64630E-02 2.61258E-14-8.81039E-14
 -1      1965 1.95922E+01-8.12205E-03-2.81484E-04-1.01371E-01 4.86281E-14-1.24310E-13
 -1      1966 1.96413E+01-1.24886E-02-5.17750E-04-1.26805E-01 3.69278E-14-1.14502E-13
 -1      1967 1.97053E+01-7.35401E-03 4.53831E-04-8.29146E-02-2.47859E-15-1.15493E-13
 -1      1968 1.96657E+01-7.94257E-03-3.59478E-04-8.80360E-02 3.18029E-15-1.08151E-13
 -1      1969 1.97032E+01-1.21802E-02-3.35379E-04-1.11239E-01-2.69275E-15-1.03439E-13
 -1      1970 1.97662E+01-6.17330E-03 3.66727E-04-7.08025E-02 1.96230E-13-1.88847E-13
 -1      1971 1.97315E+01-6.99316E-03-3.58192E-04-7.54648E-02 8.44452E-14-1.24223E-13
 -1      1972 1.97601E+01-1.07818E-02-2.21901E-04-9.60856E-02 1.03308E-13-1.54406E-13
 -1      1973 1.98204E+01-4.52025E-03 3.27466E-04-6.11780E-02 9.58827E-14-1.94361E-13
 -1      1974 1.97900E+01-5.48888E-03-3.01275E-04-6.48866E-02 1.40084E-13-1.88505E-13
 -1      1975 1.98118E+01-8.61604E-03-1.62480E-04-8.30520E-02 1.48689E-13-1.54739E-13
 -1      1976 1.98699E+01-2.46891E-03 3.34011E-04-5.48592E-02 2.75358E-14-2.00288E-13
 -1      1977 1.98426E+01-3.54455E-03-2.03302E-04-5.72169E-02 6.60947E-14-1.69921E-13
 -1      1978 1.98591E+01-5.85874E-03-1.47078E-04-7.33966E-02 7.52328E-14-1.28810E-13
 -1      1979 1.99174E+01-2.56100E-05 3.87028E-04-5.25744E-02 4.48139E-14-2.27054E-13
 -1      1980 1.98915E+01-1.19716E-03-7.23859E-05-5.32184E-02 5.04898E-14-2.23204E-13
 -1      1981 1.99040E+01-2.57330E-03-1.69430E-04-6.81449E-02 9.11566E-14-1.56485E-13
 -1      1982 1.99664E+01 2.85843E-03 4.89785E-04-5.50750E-02 4.77766E-14-3.01547E-13
 -1      1983 1.99399E+01 1.57890E-03 8.80937E-05-5.36251E-02 6.26301E-14-2.46937E-13
 -1      1984 1.99488E+01 1.26621E-03-2.26262E-04-6.82545E-02 1.07896E-13-1.66057E-13
 -1      1985 2.00210E+01 6.27767E-03 6.48025E-04-6.32258E-02 1.02719E-13-3.38341E-13
 -1      1986 1.99916E+01 4.86064E-03 2.78188E-04-5.92423E-02 6.46317E-14-3.22286E-13
 -1      1987 1.99970E+01 5.75860E-03-3.16698E-04-7.47448E-02 9.46124E-14-2.29835E-13
 -1      1988 2.00862E+01 1.03638E-02 8.69638E-04-7.80786E-02-3.66589E-14-3.10253E-13
 -1      1989 2.00510E+01 8.76747E-03 5.00237E-04-7.10258E-02 6.50988E-14-2.73688E-13
 -1      1990 2.00524E+01 1.10624E-02-4.41787E-04-8.88007E-02 5.06715E-14-2.28394E-13
 -1      1991 2.01680E+01 1.52754E-02 1.16385E-03-1.00926E-01-4.28745E-14-3.61269E-13
 -1      1992 2.01236E+01 1.34516E-02 7.57641E-04-9.01433E-02-6.33788E-14-3.63014E-13
 -1      1993 2.01198E+01 1.73823E-02-6.04065E-04-1.11851E-01-2.72180E-14-2.11172E-13
 -1      1994 2.02734E+01 2.11799E-02 1.53936E-03-1.33332E-01-3.86937E-14-2.66874E-13
 -1      1995 2.02157E+01 1.90838E-02 1.05322E-03-1.18013E-01-4.60784E-14-2.72137E-13
 -1      1996 2.02046E+01 2.49502E-02-8.07143E-04-1.45616E-01-7.74081E-14-1.89110E-13
 -1      1997 2.04105E+01 2.82199E-02 2.00046E-03-1.77106E-01 1.50452E-13-3.63911E-13
 -1      1998 2.03348E+01 2.58268E-02 1.38670E-03-1.56305E-01 8.45712E-14-2.49760E-13
 -1      1999 2.03134E+01 3.39900E-02-1.05533E-03-1.92114E-01 8.62138E-14-1.66576E-13
 -1      2000 2.05887E+01 3.64453E-02 2.53938E-03-2.34206E-01 5.68317E-14-4.07432E-13
 -1      2001 2.04896E+01 3.37835E-02 1.75057E-03-2.06872E-01 9.49997E-14-3.64724E-13
 -1      2002 2.04535E+01 4.46491E-02-1.35336E-03-2.53582E-01 1.21172E-13-2.97148E-13
 -1      2003 2.08185E+01 4.56806E-02 3.12243E-03-3.06454E-01-7.78561E-14-4.44479E-13
 -1      2004 2.06898E+01 4.28943E-02 2.12340E-03-2.71559E-01-5.93859E-14-3.79818E-13
 -1      2005 2.06331E+01 5.68635E-02-1.70635E-03-3.32248E-01-2.08509E-14-2.51266E-13
 -1      2006 2.11109E+01 5.52770E-02 3.66674E-03-3.94952E-01-1.88911E-13-2.34310E-13
 -1      2007 2.09461E+01 5.27422E-02 2.45960E-03-3.51759E-01-1.57759E-13-3.73178E-13
 -1      2008 2.08611E+01 7.00997E-02-2.12003E-03-4.29829E-01-1.58118E-13-1.53418E-13
 -1      2009 2.14764E+01 6.36727E-02 4.00612E-03-4.98926E-01-1.01362E-13-2.26229E-13
 -1      2010 2.12694E+01 6.21984E-02 2.67537E-03-4.47551E-01-1.62358E-13-1.70795E-13
 -1      2011 2.11465E+01 8.28864E-02-2.60052E-03-5.46533E-01-2.02202E-13-2.03470E-13
 -1      2012 2.19224E+01 6.76717E-02 3.85139E-03-6.13647E-01 1.03408E-13-1.90610E-13
 -1      2013 2.16691E+01 6.88206E-02 2.63439E-03-5.56090E-01 4.95307E-14-1.29465E-13
 -1      2014 2.14970E+01 9.20165E-02-3.15099E-03-6.79234E-01 1.91479E-14-1.60553E-13
 -1      2015 2.24498E+01 6.14100E-02 2.76932E-03-7.26935E-01-9.58860E-14-1.43192E-13
 -1      2016 2.21509E+01 6.79312E-02 2.14421E-03-6.68862E-01-5.57306E-14-1.78610E-13
 -1      2017 2.19179E+01 9.13228E-02-3.75737E-03-8.18367E-01-7.85916E-15 1.95777E-14
 -1      2018 2.30469E+01 3.52539E-02 2.43148E-04-8.13942E-01 1.84120E-14-1.95712E-13
 -1      2019 2.27120E+01 5.14577E-02 9.86980E-04-7.67413E-01-6.49311E-14-1.58732E-13
 -1      2020 2.24084E+01 7.01325E-02-4.34732E-03-9.43091E-01-1.59096E-15-8.96028E-14
 -1      2021 2.36808E+01-2.42654E-02-4.06662E-03-8.30817E-01 1.45036E-13-2.13023E-13
 -1      2022 2.33345E+01 7.16701E-03-9.83845E-04-8.17699E-01 1.04938E-13-1.95901E-13
 -1      2023 2.29584E+01 1.22184E-02-4.69727E-03-1.01485E+00 9.12679E-14-6.47546E-14
 -1      2024 2.42880E+01-1.30484E-01-9.74266E-03-7.10816E-01 3.71400E-14-2.30885E-13
 -1      2025 2.39764E+01-7.96515E-02-3.68429E-03-7.65058E-01 6.66923E-14-2.22060E-13
 -1      2026 2.35425E+01-1.02081E-01-4.27533E-03-9.71269E-01 7.63391E-14-7.09797E-14
 -1      2027 2.47665E+01-2.83426E-01-1.47667E-02-3.73216E-01 4.82106E-14-3.74985E-13
 -1      2028 2.45594E+01-2.17523E-01-6.70742E-03-5.36487E-01-1.74253E-15-2.94033E-13
 -1      2029 2.41116E+01-2.84511E-01-2.07497E-03-7.27293E-01-1.03736E-15-2.39146E-13
 -1      2030 2.49777E+01-4.44040E-01-1.50353E-02 2.37520E-01-4.61211E-14-8.11478E-14
 -1      2031 2.49605E+01-3.88048E-01-9.05077E-03-6.39288E-02 4.20601E-14-1.90538E-13
 -1      2032 2.45828E+01-5.12997E-01 3.15352E-03-1.98582E-01-1.71235E-14-2.01425E-13
 -1      2033 2.47720E+01-5.07734E-01-7.77186E-03 1.06493E+00-1.81542E-13-1.07156E-13
 -1      2034 2.50171E+01-5.15320E-01-1.03201E-02 6.53827E-01-1.36245E-13-5.33670E-14
 -1      2035 2.48300E+01-6.90089E-01 1.18243E-02 6.32892E-01-1.79516E-13-1.19158E-14
 -1      2036 2.40613E+01-3.26544E-01 2.73570E-03 1.83323E+00 2.98764E-13-4.70804E-14
 -1      2037 2.45768E+01-4.57500E-01-1.16458E-02 1.45274E+00 6.15549E-14-1.66846E-14
 -1      2038 2.46993E+01-6.33586E-01 1.83142E-02 1.60463E+00 2.21871E-14-1.06274E-13
 -1      2039 2.29515E+01 1.52324E-01 3.36651E-03 2.05396E+00 1.52055E-13 5.81410E-14
 -1      2040 2.36305E+01-9.05376E-02-1.14746E-02 1.94647E+00 2.16537E-13 2.83142E-14
 -1      2041 2.41037E+01-1.81993E-01 1.10262E-02 2.28415E+00 2.54971E-13 2.29629E-13
 -1      2042 2.18768E+01 6.94136E-01-1.54708E-02 1.34268E+00-1.70003E-14-2.02574E-13
 -1      2043 2.24725E+01 4.86427E-01-8.18209E-03 1.68332E+00 1.22739E-13-4.02456E-14
 -1      2044 2.32102E+01 5.77646E-01-9.91234E-03 2.10640E+00 2.69139E-13 1.31473E-13
 -1      2045 2.14390E+01 8.74717E-01-3.96049E-02-6.49541E-02 2.91985E-13-4.51503E-13
 -1      2046 2.16760E+01 8.76121E-01-2.85440E-03 5.88633E-01 9.66380E-14-3.00177E-13
 -1      2047 2.25185E+01 1.16591E+00-3.20021E-02 8.86533E-01 1.59664E-13-1.23499E-13
 -1      2048 2.19070E+01 5.31383E-01-3.54892E-02-1.33984E+00-1.37505E-13-4.68462E-13
 -1      2049 2.16722E+01 7.48255E-01 3.92069E-03-7.70609E-01 9.08995E-14-5.47855E-13
 -1      2050 2.24911E+01 1.11212E+00-2.86125E-02-7.69885E-01 1.18495E-13-3.84769E-13
 -1      2051 2.28912E+01-3.40783E-02-8.64971E-03-1.78417E+00-1.71210E-13-4.93459E-13
 -1      2052 2.23428E+01 2.26923E-01 3.57799E-03-1.59251E+00-1.60722E-13-4.56878E-13
 -1      2053 2.30614E+01 4.65736E-01-4.19826E-03-1.84663E+00-1.28312E-13-5.67846E-13
 -1      2054 2.37354E+01-4.20097E-01 1.36415E-02-1.35034E+00-9.89018E-14-5.83778E-13
 -1      2055 2.31873E+01-2.87786E-01-7.63775E-03-1.53113E+00-1.02092E-13-6.00492E-13
 -1      2056 2.37170E+01-2.82432E-01 8.98531E-03-1.85600E+00-8.38314E-14-6.41287E-13
 -1      2057 2.40544E+01-5.06186E-01 1.88518E-02-5.06232E-01 2.15210E-14-4.11245E-13
 -1      2058 2.37460E+01-5.12399E-01-1.61659E-02-8.59022E-01-6.45595E-14-4.00832E-13
 -1      2059 2.40093E+01-6.93264E-01 2.36338E-03-1.07702E+00-1.70461E-13-5.27996E-13
 -1      2060 2.38251E+01-3.94797E-01 1.36072E-02 2.96904E-01 2.68762E-13-4.91694E-13
 -1      2061 2.38268E+01-4.73141E-01-1.75281E-02-4.11541E-02 1.12936E-13-4.21773E-13
 -1      2062 2.38462E+01-7.06678E-01-5.12386E-03-8.68033E-02 1.39408E-13-3.45185E-13
 -1      2063 2.32086E+01-2.21128E-01 6.21712E-03 8.36762E-01 1.11178E-13-4.32068E-13
 -1      2064 2.34652E+01-3.10672E-01-1.34013E-02 6.05188E-01 3.06137E-13-3.70013E-13
 -1      2065 2.33378E+01-4.98707E-01-7.35388E-03 7.15484E-01 2.32540E-13-2.51590E-13
 -1      2066 2.24006E+01-5.80955E-02 1.80444E-03 1.07785E+00 1.19913E-16-4.94991E-13
 -1      2067 2.28052E+01-1.33079E-01-7.12945E-03 9.70268E-01-1.36783E-14-4.31558E-13
 -1      2068 2.26407E+01-2.39386E-01-5.69363E-03 1.18336E+00 1.24432E-14-5.85816E-15
 -1      2069 2.15684E+01 7.86119E-02 3.75134E-04 1.06004E+00-4.97558E-14-2.54738E-13
 -1      2070 2.20121E+01 1.96555E-02-1.21801E-03 1.06425E+00-4.46098E-15-3.51155E-13
 -1      2071 2.18865E+01-8.96837E-03-3.84052E-03 1.32271E+00-2.31985E-14-3.18410E-13
 -1      2072 2.08423E+01 2.01307E-01 2.44719E-03 8.25745E-01 6.90112E-14-1.83777E-13
 -1      2073 2.12293E+01 1.48394E-01 2.02500E-03 9.31918E-01 9.42918E-14-1.76876E-13
 -1      2074 2.11720E+01 1.84335E-01-3.29459E-03 1.18769E+00 5.13535E-14 2.29860E-14
 -1      2075 2.03784E+01 2.91627E-01 6.26433E-03 5.32051E-01-1.96134E-13-4.29758E-14
 -1      2076 2.06634E+01 2.47550E-01 2.46344E-03 7.12499E-01-9.75721E-14-1.52215E-13
 -1      2077 2.06548E+01 3.28095E-01-4.66572E-03 9.28508E-01-6.07973E-14 3.23265E-13
 -1      2078 2.03306E+01 4.51153E-01-1.01205E-03 6.54708E-01-2.57824E-13 5.16632E-13
 -1      2079 1.99498E+01 2.31625E+00-6.41289E-03 1.34071E+00-1.37888E-13 3.37036E-13
 -1      2080 2.00416E+01 1.89872E+00 4.45941E-03 1.34288E+00-1.39742E-13 3.28785E-13
 -1      2081 2.01282E+01 1.57875E+00-8.33263E-04 1.28748E+00-1.64453E-13 1.31385E-13
 -1      2082 2.02132E+01 1.18598E+00 6.51199E-03 1.18589E+00-1.04475E-13 5.89659E-14
 -1      2083 2.01230E+01 1.50218E+00-2.41960E-03 1.63794E+00-1.28638E-13 3.40125E-13
 -1      2084 2.02497E+01 9.79155E-01 2.45655E-03 1.03229E+00-2.15286E-13-1.59001E-13
 -1      2085 2.03139E+01 6.56083E-01 6.67493E-03 8.52763E-01-2.73526E-13 2.19800E-13
 -1      2086 2.04500E+01 6.00818E-01 4.65965E-03 1.01528E+00-1.63009E-13 3.58027E-13
 -1      2087 2.03221E+01 9.94407E-01-1.08078E-03 1.39733E+00-1.75513E-13 7.79663E-14
 -1      2088 1.97746E+01 3.00030E+00-1.28232E-02 1.17358E+00-5.16313E-13-6.24055E-13
 -1      2089 1.98636E+01 2.62942E+00-7.10316E-04 1.27523E+00-3.42967E-13-7.52094E-14
 -1      2090 1.98577E+01 2.13007E+00 1.09013E-03 1.62857E+00-3.20048E-13-4.58484E-14
 -1      2091 1.96288E+01 3.54204E+00-1.65498E-02 7.89190E-01-1.76670E-13-2.92599E-13
 -1      2092 1.96968E+01 3.27056E+00-6.76639E-03 9.81492E-01-3.15980E-13-2.05480E-13
 -1      2093 1.96095E+01 2.71608E+00 8.27184E-03 1.34346E+00-3.11853E-13-2.61383E-13
 -1      2094 1.95591E+01 3.82064E+00-1.60210E-02 2.56369E-01-7.95718E-15-2.08475E-13
 -1      2095 1.95834E+01 3.70293E+00-1.29564E-02 5.01038E-01-9.18944E-14-1.66859E-13
 -1      2096 1.94227E+01 3.14936E+00 1.42444E-02 8.04122E-01 1.34901E-14-1.73396E-13
 -1      2097 1.95877E+01 3.78018E+00-1.19665E-02-3.10287E-01 2.88189E-13 6.08362E-13
 -1      2098 1.95601E+01 3.83384E+00-1.72872E-02-6.69178E-02 2.00102E-13-2.28194E-14
 -1      2099 1.93560E+01 3.32534E+00 1.67082E-02 1.14616E-01 1.49805E-13 3.02605E-14
 -1      2100 1.97023E+01 3.43759E+00-6.42890E-03-7.85766E-01-9.39782E-14 4.29431E-15
 -1      2101 1.96341E+01 3.64550E+00-1.79438E-02-5.95936E-01-6.46531E-15 4.60226E-13
 -1      2102 1.94294E+01 3.20453E+00 1.42926E-02-5.72457E-01 1.85719E-14 3.59357E-13
 -1      2103 1.98594E+01 2.87782E+00-1.55738E-03-1.08111E+00-5.09206E-14-1.84563E-13
 -1      2104 1.97762E+01 3.19457E+00-1.42549E-02-9.76548E-01-1.57994E-13-2.08921E-14
 -1      2105 1.96133E+01 2.82625E+00 8.24664E-03-1.10758E+00-1.05914E-13-8.27689E-14
 -1      2106 2.00067E+01 2.23082E+00 1.90700E-03-1.17180E+00 2.39986E-14-3.88717E-13
 -1      2107 1.99343E+01 2.59151E+00-7.59372E-03-1.15462E+00 3.20555E-14-1.90200E-13
 -1      2108 1.98421E+01 2.29531E+00 1.85367E-03-1.40034E+00 4.91792E-14-8.65781E-14
 -1      2109 2.01164E+01 1.58302E+00 3.88138E-03-1.09271E+00-1.03255E-14 1.19032E-13
 -1      2110 2.00666E+01 1.94497E+00-4.76225E-04-1.14428E+00 1.18746E-13-1.97361E-13
 -1      2111 2.00474E+01 1.72153E+00-3.22403E-03-1.44748E+00 2.73344E-13-1.43613E-13
 -1      2112 2.01780E+01 1.02233E+00 4.75981E-03-9.00640E-01-1.78349E-13 6.25632E-14
 -1      2113 2.01526E+01 1.33828E+00 5.22300E-03-9.95071E-01-8.35946E-14 4.52706E-14
 -1      2114 2.01942E+01 1.19011E+00-5.35669E-03-1.30289E+00 1.63376E-13 4.85107E-14
 -1      2115 2.02033E+01 5.81277E-01 3.14100E-03-6.54119E-01-3.36893E-13-2.71156E-13
 -1      2116 2.01903E+01 8.30536E-01 6.63622E-03-7.68717E-01-2.74822E-13-1.52925E-13
 -1      2117 2.02742E+01 7.54383E-01-5.39610E-03-1.04320E+00-1.26409E-13-1.90758E-13
 -1      2118 9.44096E+00-6.08254E+00-2.18950E-01 6.20711E+00-2.65454E-13 5.11244E-13
 -1      2119 5.95091E+00-7.79103E+00-4.83946E-01 4.95593E+00-5.69045E-13 5.80341E-13
 -1      2120 2.75079E-01-8.02089E+00-4.30312E-01 7.71155E-01-6.47607E-13 9.55458E-13
 -1      2121 2.84499E-01-7.72587E+00-3.85761E-01-8.35952E-01-7.57561E-13 6.65579E-13
 -1      2122 3.31707E+00-7.25152E+00-3.18869E-01 4.06705E+00-6.22946E-13 5.76150E-13
 -1      2123 1.43494E+00-8.10285E+00-4.49564E-01 2.57870E+00-8.95978E-13 6.61138E-13
 -1      2124 1.82066E+01-3.94304E+00-2.97488E-02 7.08053E+00 1.20348E-13 8.67084E-14
 -1      2125 1.35379E+01-6.00135E+00-3.77836E-01 6.19134E+00-5.91749E-14 2.79166E-13
 -1      2126 2.73353E+01-1.09743E+00 1.33095E-01 6.35522E+00-1.60982E-15 7.39631E-13
 -1      2127 2.21352E+01-3.11792E+00-2.22289E-01 5.99771E+00 1.77192E-13 3.32623E-13
 -1      2128 1.95186E+01 4.01549E+00-2.70152E-02-1.70345E+00-3.41477E-13-3.13095E-13
 -1      2129 1.96463E+01 3.94595E+00-2.46456E-02-1.95478E+00-3.90696E-13-2.20424E-13
 -1      2130 1.99714E+01 3.24680E+00-1.39020E-02-1.91902E+00-4.09565E-13-1.47073E-13
 -1      2131 1.96974E+01 3.58473E+00-7.26423E-03-1.52143E+00-3.41568E-13-3.09171E-13
 -1      2132 4.08088E+01 6.07152E+00 5.42777E-01 1.91476E+00 4.47586E-13 1.56430E-13
 -1      2133 3.66316E+01 4.66350E+00 1.32713E-01 1.95515E+00 1.34670E-13 1.76192E-13
 -1      2134 4.09526E+01 7.37236E+00 3.25889E-01 2.53060E-01 7.10765E-13 8.09630E-14
 -1      2135 4.11204E+01 6.86470E+00 3.85967E-01 1.34630E+00 5.51947E-13 1.89848E-13
 -1      2136 3.66760E+01 7.02608E+00 3.10489E-01-4.47644E-02 4.27158E-13-3.31762E-13
 -1      2137 3.99357E+01 6.14217E+00 3.21698E-01-1.09625E+00 1.16401E-12-7.54952E-14
 -1      2138 4.06000E+01 6.98742E+00 3.05216E-01 9.93086E-02 1.02796E-12 1.62814E-13
 -1      2139 3.60371E+01 3.63428E+00 1.66907E-01-2.79875E+00 1.28494E-12-2.12719E-13
 -1      2140 3.95517E+01 4.81219E+00 3.75103E-01-1.95694E+00 1.18233E-12-3.58602E-14
 -1      2141 3.63906E+01 5.96829E+00 3.66524E-01 6.30907E-01 1.25289E-12 3.09752E-14
 -1      2142 2.89646E+01-2.77367E-01-7.00500E-02-4.56024E+00 1.12971E-12-4.41869E-13
 -1      2143 3.37648E+01 1.52050E+00 2.88549E-01-4.30932E+00 1.08619E-12-3.16747E-13
 -1      2144 2.09623E+01-3.88016E+00-2.14282E-01-5.52053E+00 9.74665E-13-5.63050E-13
 -1      2145 2.60049E+01-1.68333E+00 1.36708E-01-5.92059E+00 1.09285E-12-4.85445E-13
 -1      2146 1.17661E+01-6.38857E+00-3.60786E-01-5.70553E+00 5.41456E-13-1.09215E-12
 -1      2147 1.65386E+01-4.73801E+00-6.41365E-02-6.65998E+00 7.98139E-13-5.86586E-13
 -1      2148 4.68564E+00-7.55247E+00-4.39202E-01-4.31414E+00 9.50906E-14-1.33626E-12
 -1      2149 7.75731E+00-6.30811E+00-2.66452E-01-5.46552E+00 4.37206E-13-1.56151E-12
 -1      2150 7.57912E-01-7.74147E+00-4.25956E-01-1.61291E+00-2.95319E-14-6.49314E-13
 -1      2151 2.23959E+00-6.93380E+00-2.99642E-01-3.14567E+00 1.47549E-13-9.00169E-13
 -1      2152 3.79161E-01-7.35876E+00-3.62753E-01 1.63438E+00-1.86157E-13-9.19986E-13
 -1      2153-1.39409E-02-7.90851E+00-4.36295E-01 1.27088E-01 5.78565E-14-9.00835E-13
 -1      2154 4.83441E+00-6.32818E+00-2.12239E-01 4.97403E+00-4.02844E-13-7.70661E-13
 -1      2155 2.57522E+00-7.11867E+00-3.20260E-01 3.60506E+00-1.41720E-13-7.96974E-13
 -1      2156 1.09880E+01-5.06160E+00-1.39412E-01 6.49570E+00-6.80456E-13-3.61974E-13
 -1      2157 7.34337E+00-6.84176E+00-4.09972E-01 5.40824E+00-5.30687E-13-4.67765E-13
 -1      2158 1.93728E+01-2.85168E+00 1.24311E-02 6.98770E+00-6.55365E-13-4.65739E-14
 -1      2159 1.47899E+01-4.83194E+00-3.28485E-01 6.22567E+00-6.02074E-13-2.61874E-13
 -1      2160 2.78511E+01-2.05005E-01 1.48497E-01 6.02825E+00-3.65097E-13-5.41789E-13
 -1      2161 2.30587E+01-2.00346E+00-1.67181E-01 5.87761E+00-5.54057E-13-2.79166E-13
 -1      2162 3.44778E+01 2.52518E+00 2.01970E-01 3.70813E+00-4.29906E-13-3.25961E-13
 -1      2163 3.05315E+01 1.08758E+00-4.96566E-03 4.39484E+00-3.75311E-13-5.45675E-13
 -1      2164 3.83963E+01 5.57555E+00 2.26194E-01 1.41255E+00-5.57887E-13-1.58651E-13
 -1      2165 3.59923E+01 4.43480E+00 1.20889E-01 2.43760E+00-6.05516E-13-3.24962E-13
 -1      2166 3.99002E+01 7.42599E+00 2.72374E-01-1.44693E-01-2.57072E-13-1.74603E-13
 -1      2167 3.89883E+01 6.97004E+00 1.97992E-01 8.13086E-01-3.62932E-13-2.50522E-13
 -1      2168 3.98712E+01 6.65223E+00 3.27771E-01-1.73667E+00-2.27818E-13-1.42941E-13
 -1      2169 4.01575E+01 7.22201E+00 2.53268E-01-4.59947E-01-1.83187E-13-2.61721E-13
 -1      2170 3.60484E+01 4.45348E+00 1.58270E-01-3.21799E+00-1.28564E-13-2.91989E-13
 -1      2171 3.94340E+01 5.55541E+00 4.00206E-01-2.52630E+00-1.71863E-13-2.89213E-13
 -1      2172 3.61295E+01 6.67991E+00 3.49593E-01-2.20819E-01-2.42084E-13-9.73388E-14
 -1      2173 2.97878E+01 4.88278E-01-1.86566E-02-4.85307E+00-1.52101E-13-2.52243E-13
 -1      2174 3.40067E+01 2.19283E+00 2.63197E-01-4.31217E+00-1.70704E-13-2.98761E-13
 -1      2175 2.28805E+01-2.45862E+00-1.48618E-01-6.04665E+00-1.79967E-13-1.11411E-13
 -1      2176 2.76618E+01-5.41088E-01 2.02656E-01-6.27190E+00-1.46383E-13-1.08469E-13
 -1      2177 2.98110E+01-1.59347E+00 1.46384E-01-3.52268E+00-1.26760E-13-2.56350E-13
 -1      2178 1.48521E+01-5.70450E+00-2.55324E-01-6.49247E+00-4.21330E-13-3.39284E-13
 -1      2179 1.91511E+01-3.67712E+00 2.37640E-02-7.16967E+00-3.10196E-13-4.82225E-13
 -1      2180 6.31090E+00-7.57043E+00-4.37873E-01-5.24357E+00-6.92724E-13-3.22492E-13
 -1      2181 1.01610E+01-5.82045E+00-1.50744E-01-6.69828E+00-3.98015E-13-3.65243E-13
 -1      2182 1.55934E+00-8.04090E+00-4.43723E-01-2.93942E+00-8.15681E-13 1.94289E-14
 -1      2183 3.58280E+00-7.34084E+00-3.22134E-01-4.35377E+00-7.45515E-13-2.04864E-13
 -1      2184 6.99648E+00-6.02713E+00-1.51195E-01-6.02214E+00-2.98039E-13-5.04430E-13
 -1      2185 3.44198E+01 1.74731E+00 7.31716E-02 3.07053E+00-2.74773E-13 7.20868E-13
 -1      2186 3.06982E+01 4.42206E-01 8.64368E-02 4.62372E+00-2.51688E-13 9.01057E-13
 -1      2187 2.99435E+01-1.99303E+00 1.95232E-01 3.46968E+00-2.01977E-13 6.80511E-13
 -1      2188 2.26904E+01-5.09899E+00 2.43955E-02 6.01852E+00 4.53526E-14 2.99039E-13
 -1      2189 2.07354E+01 1.10843E+00-2.07732E-02-1.61625E+00-3.86587E-13 5.56988E-13
 -1      2190 3.38477E+01 3.46983E+00-1.13243E-01-6.84872E-01 1.57735E-13-2.04392E-13
 -1      2191 3.50473E+01 2.81710E+00 1.71317E-01 1.30027E+00-9.03028E-14 2.72227E-13
 -1      2192 3.26707E+01 9.31073E-01 9.91863E-02 4.21510E-01-1.87045E-13 2.42528E-13
 -1      2193 2.06260E+01 1.33005E+00-1.86664E-02-1.67816E+00-4.10002E-13 3.02786E-13
 -1      2194 6.54235E+00-6.17115E+00-1.93680E-01 5.60138E+00-6.47871E-13 6.93390E-13
 -1      2195 2.31806E+00-5.38515E+00-1.88419E-01 2.25851E+00-4.84141E-13 8.62255E-13
 -1      2196 2.02348E+01 4.44878E-01 4.49752E-03-6.07374E-01-2.21360E-13-1.77037E-14
 -1      2197 1.40264E+01-6.39007E+00-1.14813E-01 7.01059E+00-3.74367E-13 3.21347E-13
 -1      2198 2.31773E+00-5.57590E+00-1.98783E-01-2.41747E+00-3.90271E-13 2.54241E-13
 -1      2199 2.36307E+01-4.64953E+00 2.28304E-02-5.81426E+00-1.94234E-13-2.53242E-13
 -1      2200 3.39843E+01 2.55717E+00 2.33474E-01-1.29503E+00-1.60830E-13-3.29792E-13
 -1      2201 3.61476E+01 8.13434E+00 2.70348E-01-2.31100E-01-2.05613E-13-4.77743E-15
 -1      2202 3.53566E+01 6.71242E+00 2.34505E-01-4.12426E-01-4.13003E-13 1.49880E-14
 -1      2203 3.37098E+01 2.89953E+00 2.22252E-01 6.53648E-01-3.48194E-13-2.37033E-14
 -1      2204 2.99178E+01-1.06888E+00 1.79979E-01 3.10981E+00-1.70072E-13-2.45692E-13
 -1      2205 2.33537E+01-4.04174E+00 4.18135E-02 5.70006E+00-2.59404E-13 1.55431E-15
 -1      2206 1.52803E+01-5.70533E+00-9.98939E-02 6.88716E+00-1.43441E-13 2.83384E-14
 -1      2207 8.10756E+00-5.73500E+00-1.72872E-01 6.23205E+00-1.26565E-14-4.94688E-13
 -1      2208 2.94200E+00-5.02937E+00-1.38299E-01 3.37077E+00 1.07941E-13-8.96783E-13
 -1      2209 1.60332E+00-5.09945E+00-1.88070E-01-1.06764E+00 6.70158E-14-8.54761E-13
 -1      2210 5.13937E+00-5.74229E+00-1.76148E-01-4.63645E+00-4.21885E-15-1.27515E-12
 -1      2211 1.22758E+01-6.15582E+00-7.10317E-02-6.53535E+00 6.30607E-14-1.14675E-12
 -1      2212 2.10114E+01-5.59187E+00-4.41749E-02-5.73820E+00 5.39346E-13-4.24771E-13
 -1      2213 3.42695E+01 1.76277E+00 2.59072E-01-8.91861E-01 1.10398E-12-1.08802E-14
 -1      2214 3.70109E+01 7.85814E+00 3.29483E-01 4.61971E-01 8.61200E-13-9.06081E-14
 -1      2215 2.88596E+01-2.63186E+00 1.11966E-01-3.34293E+00 8.79463E-13-1.37668E-13
 -1      2216 1.48438E+01-6.17569E+00-5.48731E-02-7.17238E+00-1.67311E-13-6.28917E-13
 -1      2217 2.01471E+01 5.06373E-01 3.72555E-03 6.78502E-01 3.00402E-13 8.10077E-14
 -1      2218 2.04152E+01 6.99927E-01 2.07825E-02 9.70076E-01 3.37093E-13 1.27520E-13
 -1      2219 1.95606E+01 3.51580E+00-1.10817E-02-5.91878E-01-1.68660E-13-4.51000E-13
 -1      2220 1.95960E+01 3.47003E+00-1.04182E-02-7.76278E-01-2.14025E-13-4.42939E-13
 -1      2221 1.96425E+01 3.38210E+00-1.26584E-02-9.40764E-01-2.43074E-13-4.22141E-13
 -1      2222 1.97034E+01 3.30115E+00-1.26577E-02-1.13020E+00-2.89226E-13-3.70286E-13
 -1      2223 1.97874E+01 3.03300E+00 3.33920E-04-7.92915E-01-2.15979E-13-3.89752E-13
 -1      2224 1.95135E+01 3.59822E+00-9.62141E-03 9.95056E-02-1.13690E-14-4.80621E-13
 -1      2225 1.95128E+01 3.59904E+00-9.62471E-03-8.01002E-02-6.30809E-14-4.81673E-13
 -1      2226 1.95396E+01 3.55884E+00-9.72409E-03 4.45813E-01 6.56069E-14-4.88388E-13
 -1      2227 1.95222E+01 3.58140E+00-1.01392E-02 2.64864E-01 2.34259E-14-4.87324E-13
 -1      2228 1.96798E+01 3.22088E+00-8.99612E-04 1.69724E-01-1.88598E-15-4.51683E-13
 -1      2229 1.96013E+01 3.46235E+00-1.06100E-02 7.90012E-01 1.59959E-13-4.81674E-13
 -1      2230 1.95650E+01 3.50934E+00-1.12095E-02 6.08471E-01 1.03957E-13-4.86448E-13
 -1      2231 1.97165E+01 3.15740E+00-5.01275E-04 4.88420E-01 8.01822E-14-4.49885E-13
 -1      2232 1.97117E+01 3.28866E+00-1.29516E-02 1.14356E+00 2.53561E-13-4.37828E-13
 -1      2233 1.96492E+01 3.37197E+00-1.28718E-02 9.54204E-01 1.98401E-13-4.69863E-13
 -1      2234 1.97933E+01 3.02378E+00 2.71406E-04 8.04328E-01 1.77322E-13-4.35282E-13
 -1      2235 1.98907E+01 3.00317E+00-1.81701E-02 1.49070E+00 3.38044E-13-3.59757E-13
 -1      2236 1.97913E+01 3.14443E+00-1.51762E-02 1.30026E+00 2.82171E-13-3.99016E-13
 -1      2237 1.99222E+01 2.79872E+00 1.95910E-03 1.11077E+00 2.65158E-13-3.86153E-13
 -1      2238 2.01689E+01 2.54370E+00-2.84022E-02 1.79510E+00 4.18902E-13-2.27235E-13
 -1      2239 2.00178E+01 2.78303E+00-1.70897E-02 1.62061E+00 3.66658E-13-3.05218E-13
 -1      2240 2.01166E+01 2.44814E+00 5.81721E-03 1.37659E+00 3.34469E-13-2.96662E-13
 -1      2241 2.53318E+01-5.21661E+00-4.88905E-02 4.88725E+00-8.97615E-14 3.76366E-13
 -1      2242 2.17055E+01-5.99568E+00 8.89936E-03 5.79417E+00-2.07279E-13 1.53447E-13
 -1      2243 1.98698E+01 2.68097E-01 4.72523E-03 2.86055E-01 2.73283E-13 7.22794E-15
 -1      2244 2.00307E+01 3.67889E-01 2.01706E-02 4.43155E-01 2.90573E-13 6.91305E-14
 -1      2245 2.02099E+01 6.34472E-01-2.24602E-03 7.05498E-01 3.41110E-13-4.87600E-14
 -1      2246 2.04005E+01 8.54942E-01 1.29852E-02-1.00139E+00-3.24793E-13 1.65540E-13
 -1      2247 2.01897E+01 6.27996E-01-4.00218E-03-6.91306E-01-2.95629E-13 1.43273E-13
 -1      2248 2.01239E+01 4.68748E-01 1.61412E-02-4.76040E-01-2.52216E-13 1.46880E-13
 -1      2249 1.99825E+01 3.43979E-01-1.14288E-06-3.04703E-01-2.11897E-13 1.35382E-13
 -1      2250 2.02441E+01 7.44499E-01-1.85024E-03-6.94975E-01-2.95972E-13 3.89110E-14
 -1      2251 1.99190E+01 2.59298E-01 1.08552E-02-1.67130E-01-1.84275E-13 1.47224E-13
 -1      2252 1.98400E+01 1.87832E-01 6.63497E-04-6.99953E-02-1.58128E-13 1.13174E-13
 -1      2253 2.00792E+01 4.15748E-01-3.86036E-03-3.11647E-01-2.16760E-13 3.61874E-14
 -1      2254 1.97956E+01 1.38336E-01 6.37908E-03 1.20276E-02-1.33957E-13 1.07895E-13
 -1      2255 1.97603E+01 9.59977E-02 7.00945E-04 6.52498E-02-1.22248E-13 7.87095E-14
 -1      2256 1.99586E+01 2.27034E-01-3.65834E-03-7.26868E-02-1.62449E-13 3.27701E-14
 -1      2257 1.97344E+01 6.61145E-02 3.57589E-03 1.10874E-01-1.13128E-13 4.21916E-14
 -1      2258 1.97268E+01 4.06197E-02 6.16404E-04 1.37368E-01-1.19898E-13 1.35988E-14
 -1      2259 1.98827E+01 1.14574E-01-2.94439E-03 6.78515E-02-1.62158E-13 1.90332E-15
 -1      2260 1.97151E+01 2.24272E-02 1.85911E-03 1.59576E-01-1.13717E-13-8.63270E-15
 -1      2261 1.97241E+01 7.27725E-03 5.06390E-04 1.69694E-01-8.28263E-14 9.10911E-15
 -1      2262 1.98429E+01 4.65544E-02-2.13051E-03 1.43943E-01-1.19590E-13-2.21389E-14
 -1      2263 1.97221E+01-3.50636E-03 7.98967E-04 1.77148E-01-8.73119E-14 1.78784E-14
 -1      2264 1.97402E+01-1.20052E-02 4.02979E-04 1.77443E-01-1.09183E-13 2.52653E-15
 -1      2265 1.98288E+01 5.73564E-03-1.44837E-03 1.78595E-01-8.89162E-14-9.05051E-14
 -1      2266 1.97444E+01-1.79095E-02 1.50716E-04 1.76015E-01-1.51698E-13 2.18328E-14
 -1      2267 1.97667E+01-2.20144E-02 3.24004E-04 1.70788E-01-1.78557E-13 7.16741E-15
 -1      2268 1.98314E+01-1.76005E-02-9.37691E-04 1.87404E-01-1.24350E-13-6.64299E-14
 -1      2269 1.97745E+01-2.46322E-02-2.30268E-04 1.64494E-01-1.67600E-13 4.40718E-14
 -1      2270 1.97981E+01-2.57856E-02 2.77297E-04 1.56637E-01-1.41429E-13 4.60129E-14
 -1      2271 1.98442E+01-2.93699E-02-5.80142E-04 1.81028E-01-1.63753E-13-3.13227E-14
 -1      2272 1.98078E+01-2.61561E-02-4.34909E-04 1.48251E-01-1.31212E-13 3.27025E-14
 -1      2273 1.98310E+01-2.52972E-02 2.65361E-04 1.39741E-01-1.00865E-13 4.71316E-15
 -1      2274 1.98628E+01-3.33406E-02-3.44855E-04 1.66813E-01-1.37003E-13-2.67711E-15
 -1      2275 1.98416E+01-2.41025E-02-5.23630E-04 1.31196E-01-4.43156E-14-9.33958E-15
 -1      2276 1.98637E+01-2.18354E-02 2.88810E-04 1.23410E-01-5.69721E-16 5.12844E-14
 -1      2277 1.98841E+01-3.19659E-02-2.03170E-04 1.49869E-01-8.17432E-14 5.37407E-14
 -1      2278 1.98746E+01-1.95117E-02-5.37819E-04 1.16084E-01-1.81926E-14 1.86938E-14
 -1      2279 1.98956E+01-1.62055E-02 3.48313E-04 1.10013E-01-3.85881E-14 2.39715E-14
 -1      2280 1.99067E+01-2.68317E-02-1.32287E-04 1.33798E-01 6.91883E-15 1.74187E-14
 -1      2281 1.99067E+01-1.30127E-02-5.06050E-04 1.04926E-01-4.49179E-14 6.11635E-14
 -1      2282 1.99270E+01-8.86721E-03 4.45302E-04 1.01330E-01-4.11744E-14 3.35230E-14
 -1      2283 1.99298E+01-1.89189E-02-1.14922E-04 1.21211E-01-2.84525E-14-7.14871E-15
 -1      2284 1.99385E+01-4.93818E-03-4.47955E-04 9.92905E-02-4.61885E-15 6.32161E-14
 -1      2285 1.99590E+01-3.24628E-05 5.81818E-04 9.88004E-02-6.46256E-15 7.67035E-14
 -1      2286 1.99536E+01-8.77549E-03-1.38351E-04 1.14099E-01-1.85792E-14 1.03099E-13
 -1      2287 1.99714E+01 4.58816E-03-3.76763E-04 1.00511E-01-2.34377E-14 1.03036E-13
 -1      2288 1.99931E+01 1.02540E-02 7.59848E-04 1.03708E-01 2.70439E-14 1.65653E-13
 -1      2289 1.99786E+01 3.35734E-03-1.93333E-04 1.14100E-01-7.81836E-15 1.46052E-13
 -1      2290 2.00069E+01 1.55728E-02-3.00997E-04 1.09830E-01 4.45561E-15 1.27165E-13
 -1      2291 2.00313E+01 2.20359E-02 9.80149E-04 1.17285E-01-2.52848E-14 1.54780E-13
 -1      2292 2.00060E+01 1.74367E-02-2.73082E-04 1.22682E-01 1.02407E-14 1.56818E-13
 -1      2293 2.00473E+01 2.80706E-02-2.25570E-04 1.28475E-01-1.22251E-13 1.49342E-13
 -1      2294 2.00760E+01 3.53571E-02 1.24047E-03 1.40759E-01-1.47149E-13 1.14510E-13
 -1      2295 2.00372E+01 3.35099E-02-3.72421E-04 1.41252E-01-7.59961E-14 2.61649E-14
 -1      2296 2.00952E+01 4.20873E-02-1.52349E-04 1.57661E-01-1.40597E-13 1.33724E-13
 -1      2297 2.01300E+01 5.01496E-02 1.53303E-03 1.75312E-01-1.13252E-13 6.73375E-14
 -1      2298 2.00739E+01 5.15895E-02-4.87097E-04 1.71188E-01-1.55810E-13 1.63326E-13
 -1      2299 2.01534E+01 5.74510E-02-8.01623E-05 1.98502E-01-2.19361E-15 1.15533E-13
 -1      2300 2.01963E+01 6.60823E-02 1.84090E-03 2.21945E-01 8.70243E-14 1.01648E-13
 -1      2301 2.01182E+01 7.14930E-02-6.13471E-04 2.13772E-01-3.85023E-14 1.39895E-13
 -1      2302 2.02250E+01 7.36349E-02-4.10592E-06 2.51820E-01 1.22442E-13 3.19130E-14
 -1      2303 2.02780E+01 8.23497E-02 2.13319E-03 2.81212E-01 1.73300E-13 5.30061E-14
 -1      2304 2.01724E+01 9.26243E-02-7.48778E-04 2.70021E-01 8.58096E-14 1.39593E-13
 -1      2305 2.03136E+01 8.95114E-02 8.60343E-05 3.17787E-01 1.67508E-13-3.08183E-14
 -1      2306 2.03785E+01 9.73800E-02 2.35883E-03 3.52770E-01 1.47867E-13 1.20239E-14
 -1      2307 2.02390E+01 1.13673E-01-8.92268E-04 3.40361E-01 1.24777E-13-1.01935E-14
 -1      2308 2.04226E+01 1.03015E-01 2.08401E-04 3.95374E-01 8.51559E-14-2.96547E-14
 -1      2309 2.05010E+01 1.08446E-01 2.43926E-03 4.34701E-01 6.55893E-14-6.60628E-14
 -1      2310 2.03211E+01 1.32200E-01-1.04765E-03 4.24113E-01 8.26112E-14-1.49809E-13
 -1      2311 2.05555E+01 1.10706E-01 3.92598E-04 4.81533E-01-2.62442E-14-1.25722E-13
 -1      2312 2.06483E+01 1.11185E-01 2.26138E-03 5.22555E-01-6.02962E-14-1.78008E-13
 -1      2313 2.04217E+01 1.44108E-01-1.22708E-03 5.18724E-01-5.59487E-14-2.63556E-13
 -1      2314 2.07156E+01 1.07273E-01 6.83087E-04 5.70071E-01-3.39991E-14-2.66133E-13
 -1      2315 2.08226E+01 9.91096E-02 1.67344E-03 6.08056E-01-9.59124E-14-1.99947E-13
 -1      2316 2.05446E+01 1.43009E-01-1.45603E-03 6.18712E-01-8.95665E-14-2.26211E-13
 -1      2317 2.09058E+01 8.51040E-02 1.13888E-03 6.50194E-01-1.01449E-13-1.09227E-13
 -1      2318 2.10253E+01 6.33359E-02 4.90401E-04 6.77572E-01-1.45751E-14 3.90484E-14
 -1      2319 2.06944E+01 1.19653E-01-1.77634E-03 7.14273E-01-3.11805E-14-1.77777E-13
 -1      2320 2.11283E+01 3.42824E-02 1.82204E-03 7.04866E-01-2.09359E-14-4.06208E-14
 -1      2321 2.12563E+01-6.93576E-03-1.47991E-03 7.10576E-01 2.19192E-15-6.21780E-14
 -1      2322 2.08767E+01 6.17892E-02-2.23905E-03 7.89623E-01-9.27846E-14-6.73644E-14
 -1      2323 2.13836E+01-5.62423E-02 2.75700E-03 7.09387E-01-2.60231E-14-6.82838E-14
 -1      2324 2.15130E+01-1.22159E-01-4.36748E-03 6.78820E-01-7.94408E-14-5.21135E-14
 -1      2325 2.10983E+01-4.46974E-02-2.87122E-03 8.21336E-01-4.48324E-14-5.44539E-14
 -1      2326 2.16687E+01-1.95005E-01 3.84341E-03 6.31227E-01-5.45048E-14-2.08822E-14
 -1      2327 2.17884E+01-2.86782E-01-8.08648E-03 5.47670E-01-5.55012E-14 4.82855E-14
 -1      2328 2.13667E+01-2.11882E-01-3.58996E-03 7.77359E-01-5.36063E-14 1.35373E-13
 -1      2329 2.19728E+01-3.80106E-01 4.69976E-03 4.33226E-01-1.21125E-13 6.70671E-14
 -1      2330 2.20668E+01-4.88490E-01-1.20517E-02 2.82275E-01-1.29584E-15 1.43684E-13
 -1      2331 2.16863E+01-4.40893E-01-4.03319E-03 6.18297E-01-2.89779E-14 2.37153E-13
 -1      2332 2.22702E+01-5.85887E-01 4.48242E-03 8.39033E-02 3.96772E-14 5.75383E-14
 -1      2333 2.23176E+01-6.82790E-01-1.48050E-02-1.37480E-01 1.13373E-13 1.61860E-13
 -1      2334 2.20505E+01-7.06190E-01-3.37917E-03 3.04242E-01-3.34136E-14 2.05961E-13
 -1      2335 2.25101E+01-7.47296E-01 1.86260E-03-4.20368E-01 1.06162E-13 1.76231E-13
 -1      2336 2.24886E+01-7.80495E-01-1.38370E-02-6.89826E-01-3.91354E-15 2.11819E-13
 -1      2337 2.24276E+01-9.35398E-01-4.65077E-04-1.87258E-01 4.35377E-14 1.56445E-13
 -1      2338 2.26146E+01-7.54970E-01-4.29729E-03-1.01959E+00-7.03383E-14 2.46499E-13
 -1      2339 2.25096E+01-6.58942E-01-6.44078E-03-1.27490E+00-4.98095E-14 1.76002E-13
 -1      2340 2.27442E+01-9.98301E-01 5.28437E-03-8.26296E-01 2.03269E-14 2.65868E-13
 -1      2341 2.25021E+01-4.88636E-01-1.28753E-02-1.55460E+00-1.83729E-15 7.14183E-14
 -1      2342 2.23223E+01-2.26816E-01 7.07483E-03-1.69348E+00 1.46600E-15 2.82933E-15
 -1      2343 2.28882E+01-7.38497E-01 1.17339E-02-1.48252E+00-1.08573E-13 1.96996E-13
 -1      2344 2.21538E+01 8.71458E-02-1.94099E-02-1.77580E+00-4.44303E-14 3.95131E-14
 -1      2345 2.19445E+01 4.56787E-01 1.90010E-02-1.69303E+00-6.18433E-14 8.39775E-14
 -1      2346 2.27622E+01-7.84250E-02 1.29206E-02-1.90043E+00 5.55795E-14 9.09368E-14
 -1      2347 2.16942E+01 8.01519E-01-1.70302E-02-1.46030E+00-1.11090E-13 5.18869E-14
 -1      2348 2.15289E+01 1.10453E+00 1.83519E-02-1.12929E+00-9.45129E-14 7.89581E-14
 -1      2349 2.23964E+01 8.20172E-01 8.08466E-04-1.77772E+00-3.58741E-14 9.78139E-14
 -1      2350 2.13687E+01 1.29342E+00-9.77371E-04-6.22839E-01-1.06269E-13 3.32831E-14
 -1      2351 2.13094E+01 1.34776E+00 5.40911E-03-1.54346E-01-1.65472E-13-6.19034E-14
 -1      2352 2.20214E+01 1.54537E+00-1.41412E-02-9.99630E-01-1.56923E-13 3.27903E-14
 -1      2353 2.13594E+01 1.25347E+00 1.80409E-02 4.04762E-01-1.11728E-13-1.31450E-13
 -1      2354 2.14182E+01 1.01599E+00-1.21515E-02 8.04131E-01-4.38178E-14-1.70732E-13
 -1      2355 2.19148E+01 1.67524E+00-1.49413E-02 1.49605E-01-1.90983E-13-7.98797E-15
 -1      2356 2.16194E+01 6.99364E-01 2.27980E-02 1.14591E+00 4.00886E-14-1.02280E-13
 -1      2357 2.17467E+01 3.23323E-01-2.13740E-02 1.31546E+00 1.60428E-13 5.67294E-14
 -1      2358 2.21369E+01 1.11162E+00-3.33409E-03 1.11346E+00 1.51372E-14 7.19505E-14
 -1      2359 2.19233E+01-2.45486E-02 1.32901E-02 1.33166E+00 2.31151E-13 6.17058E-14
 -1      2360 2.20467E+01-3.43150E-01-1.73347E-02 1.25338E+00 4.07816E-13 1.85218E-13
 -1      2361 2.24591E+01 2.05573E-01 9.78691E-03 1.46442E+00 2.30294E-13 2.24287E-13
 -1      2362 2.20747E+01-5.71405E-01-1.51730E-03 1.01583E+00 2.82173E-13 8.56758E-14
 -1      2363 2.21347E+01-7.24557E-01-8.33776E-03 7.79659E-01 2.63766E-13-1.00072E-16
 -1      2364 2.26075E+01-5.83585E-01 1.25038E-02 1.19100E+00 3.04772E-13 5.47088E-15
 -1      2365 2.20068E+01-7.89561E-01-1.18293E-02 4.43597E-01 4.66164E-13-8.64460E-14
 -1      2366 2.19833E+01-7.81658E-01 2.85823E-04 1.66610E-01 5.33334E-13-7.23822E-14
 -1      2367 2.24717E+01-9.79667E-01 7.39467E-03 5.64054E-01 2.91593E-13-1.97468E-13
 -1      2368 2.17599E+01-7.22155E-01-1.51358E-02-1.38989E-01 3.35340E-13-2.07891E-13
 -1      2369 2.16642E+01-6.12387E-01 5.57147E-03-3.69945E-01 1.21790E-13-1.83353E-13
 -1      2370 2.21141E+01-9.79159E-01 8.63948E-04-1.11443E-01 2.93842E-13-2.74113E-13
 -1      2371 2.14096E+01-4.86435E-01-1.36055E-02-5.77813E-01 4.70032E-14-1.28759E-13
 -1      2372 2.12673E+01-3.32759E-01 8.09376E-03-7.17247E-01-1.02453E-13 8.31366E-16
 -1      2373 2.16549E+01-7.18134E-01-2.95514E-03-6.38547E-01 6.51003E-14-2.42899E-13
 -1      2374 2.10219E+01-1.83763E-01-9.67279E-03-8.07089E-01-2.88576E-13 1.07557E-13
 -1      2375 2.08576E+01-2.97907E-02 6.48935E-03-8.39223E-01-2.41575E-13 9.83351E-14
 -1      2376 2.11875E+01-3.40910E-01-3.55469E-03-9.36101E-01-6.01416E-14-3.05889E-13
 -1      2377 1.96218E+01 7.24413E-02 2.07020E-03-6.51491E-02 1.12957E-13-7.66871E-14
 -1      2378 1.96493E+01 1.04153E-01 6.91424E-03-1.90581E-02 1.57843E-13-3.59081E-14
 -1      2379 1.95979E+01 3.06720E-02 1.34028E-03-1.30773E-01 8.42569E-14-1.35027E-13
 -1      2380 1.95950E+01 4.95423E-02 3.68510E-03-1.08286E-01 9.72624E-14-1.00059E-13
 -1      2381 1.97668E+01 8.97037E-02-3.17402E-03-7.03831E-02 1.34877E-13-1.33172E-13
 -1      2382 1.96098E+01 5.76619E-03 8.78802E-04-1.59283E-01 1.30853E-13-1.15552E-13
 -1      2383 1.95899E+01 1.69414E-02 1.82021E-03-1.51007E-01 9.32741E-14-1.17967E-13
 -1      2384 1.97325E+01 3.58555E-02-2.29244E-03-1.42724E-01 1.14705E-13-1.48210E-13
 -1      2385 1.96419E+01-8.62643E-03 5.69905E-04-1.65224E-01 9.71559E-14-7.48808E-14
 -1      2386 1.96136E+01-2.31804E-03 7.25012E-04-1.65401E-01 1.14486E-13-6.74580E-14
 -1      2387 1.97291E+01 3.95390E-03-1.52774E-03-1.74686E-01 8.93556E-14-1.09080E-13
 -1      2388 1.96840E+01-1.61710E-02 3.63970E-04-1.58048E-01 5.39930E-14-6.10112E-14
 -1      2389 1.96526E+01-1.30514E-02 7.70792E-05-1.62963E-01 8.99870E-14-3.38964E-14
 -1      2390 1.97445E+01-1.42094E-02-9.59221E-04-1.81831E-01 8.78367E-14-2.89625E-14
 -1      2391 1.97296E+01-1.91466E-02 2.38370E-04-1.44063E-01 3.91393E-14-8.12812E-14
 -1      2392 1.96983E+01-1.81573E-02-2.91311E-04-1.51246E-01 5.74536E-14-8.00099E-14
 -1      2393 1.97704E+01-2.34111E-02-5.67249E-04-1.74517E-01 7.26189E-14-4.85930E-14
 -1      2394 1.97749E+01-1.90226E-02 1.79058E-04-1.27552E-01 4.75495E-14-1.33592E-13
 -1      2395 1.97453E+01-1.94794E-02-4.77909E-04-1.35325E-01 3.01730E-14-1.06406E-13
 -1      2396 1.98012E+01-2.66334E-02-3.14011E-04-1.59756E-01 6.31729E-14-9.62380E-14
 -1      2397 1.98182E+01-1.67478E-02 1.76487E-04-1.11473E-01 1.25553E-13-1.56550E-13
 -1      2398 1.97909E+01-1.82132E-02-5.44733E-04-1.18673E-01 6.89578E-14-1.45404E-13
 -1      2399 1.98335E+01-2.57923E-02-1.65544E-04-1.42359E-01 6.48606E-14-1.33812E-13
 -1      2400 1.98588E+01-1.29093E-02 2.25178E-04-9.79260E-02 1.20847E-13-1.14239E-13
 -1      2401 1.98338E+01-1.51199E-02-5.33060E-04-1.03716E-01 1.59786E-13-1.25711E-13
 -1      2402 1.98658E+01-2.21134E-02-9.56098E-05-1.25691E-01 1.22352E-13-8.53260E-14
 -1      2403 1.98976E+01-7.82584E-03 3.23480E-04-8.84924E-02 3.48779E-14-3.65231E-14
 -1      2404 1.98742E+01-1.06493E-02-4.70744E-04-9.22230E-02 6.34204E-14-4.42091E-14
 -1      2405 1.98973E+01-1.63396E-02-8.52494E-05-1.12179E-01 4.94169E-14-5.94218E-14
 -1      2406 1.99359E+01-1.60952E-03 4.73241E-04-8.44845E-02 1.30653E-13-8.62885E-14
 -1      2407 1.99129E+01-5.01491E-03-3.76329E-04-8.55926E-02 7.93537E-14-1.54733E-14
 -1      2408 1.99284E+01-8.85572E-03-1.21281E-04-1.03686E-01 6.95750E-14-2.83378E-15
 -1      2409 1.99758E+01 5.79076E-03 6.79371E-04-8.71391E-02 9.64702E-14-5.22262E-14
 -1      2410 1.99519E+01 1.75339E-03-2.61855E-04-8.50659E-02 1.29501E-13-3.55795E-14
 -1      2411 1.99602E+01 2.29850E-04-1.94704E-04-1.01793E-01 1.11973E-13 6.54252E-14
 -1      2412 2.00200E+01 1.45569E-02 9.49346E-04-9.77677E-02 9.82154E-14-5.25370E-14
 -1      2413 1.99934E+01 9.77233E-03-1.34906E-04-9.18958E-02 1.20392E-13-3.71785E-14
 -1      2414 1.99942E+01 1.10264E-02-2.99440E-04-1.08012E-01 1.46520E-13 1.31882E-13
 -1      2415 2.00719E+01 2.49736E-02 1.29247E-03-1.17872E-01 1.97262E-14-5.72632E-14
 -1      2416 2.00403E+01 1.92755E-02-2.00506E-07-1.07476E-01 6.57402E-14-6.43088E-14
 -1      2417 2.00325E+01 2.38164E-02-4.31124E-04-1.23950E-01 7.36961E-14 9.22395E-14
 -1      2418 2.01354E+01 3.73978E-02 1.71859E-03-1.49228E-01-9.10008E-14-4.92237E-14
 -1      2419 2.00963E+01 3.05854E-02 1.39109E-04-1.33439E-01-3.19071E-14-2.93656E-14
 -1      2420 2.00777E+01 3.90143E-02-5.85986E-04-1.51435E-01-3.52986E-14 7.03357E-14
 -1      2421 2.02151E+01 5.22136E-02 2.23581E-03-1.93922E-01-5.68974E-14-1.41673E-13
 -1      2422 2.01654E+01 4.40771E-02 2.80294E-04-1.71715E-01-5.58089E-14-8.13981E-14
 -1      2423 2.01328E+01 5.71182E-02-7.59745E-04-1.92587E-01-2.83638E-14-2.66842E-14
 -1      2424 2.03161E+01 6.97534E-02 2.84630E-03-2.54332E-01 1.00594E-13-1.77554E-13
 -1      2425 2.02525E+01 6.01210E-02 4.20059E-04-2.24544E-01 1.22237E-14-2.15109E-13
 -1      2426 2.02011E+01 7.86343E-02-9.46593E-04-2.49844E-01 5.50662E-14-1.85752E-13
 -1      2427 2.04443E+01 9.01520E-02 3.53892E-03-3.32995E-01 1.01434E-13-1.48336E-13
 -1      2428 2.03628E+01 7.89773E-02 5.53819E-04-2.94402E-01 1.59951E-13-1.48514E-13
 -1      2429 2.02862E+01 1.03944E-01-1.13871E-03-3.25896E-01 8.29994E-14-1.58024E-13
 -1      2430 2.06059E+01 1.13072E-01 4.27647E-03-4.32281E-01-2.75799E-14-1.40388E-13
 -1      2431 2.05023E+01 1.00599E-01 6.75644E-04-3.83788E-01 4.44656E-14-1.37580E-13
 -1      2432 2.03924E+01 1.33059E-01-1.32711E-03-4.23486E-01 7.36619E-14-1.62128E-14
 -1      2433 2.08073E+01 1.37206E-01 4.97507E-03-5.53737E-01-2.18443E-13-1.41435E-13
 -1      2434 2.06774E+01 1.24264E-01 7.79779E-04-4.94754E-01-1.54877E-13-1.49375E-13
 -1      2435 2.05237E+01 1.65164E-01-1.50558E-03-5.44964E-01-6.82098E-14-1.18690E-13
 -1      2436 2.10549E+01 1.59398E-01 5.47328E-03-6.96848E-01-1.56343E-13-2.31695E-13
 -1      2437 2.08946E+01 1.47922E-01 8.65594E-04-6.28009E-01-1.73908E-13-1.99419E-13
 -1      2438 2.06845E+01 1.97807E-01-1.68052E-03-6.91462E-01-1.34609E-13-1.73579E-13
 -1      2439 2.13540E+01 1.73222E-01 5.49221E-03-8.56875E-01 1.09775E-14-1.55998E-13
 -1      2440 2.11606E+01 1.67078E-01 9.49239E-04-7.81282E-01-8.48533E-14-2.55679E-13
 -1      2441 2.08795E+01 2.25517E-01-1.89103E-03-8.61403E-01-1.18787E-13-2.93530E-13
 -1      2442 2.17084E+01 1.66884E-01 4.59666E-03-1.02132E+00-4.10657E-14-1.26228E-13
 -1      2443 2.14814E+01 1.73045E-01 1.08740E-03-9.46554E-01-1.15129E-14-1.32666E-13
 -1      2444 2.11138E+01 2.37634E-01-2.24212E-03-1.04803E+00-6.20579E-14-2.84936E-13
 -1      2445 2.21198E+01 1.20755E-01 2.18491E-03-1.16463E+00-4.47059E-14-6.04074E-14
 -1      2446 2.18629E+01 1.50588E-01 1.41412E-03-1.10567E+00-4.48130E-14-2.17439E-14
 -1      2447 2.13947E+01 2.15323E-01-2.94723E-03-1.23550E+00-7.10540E-14-2.31887E-13
 -1      2448 2.25874E+01 6.04888E-03-2.43211E-03-1.24145E+00 2.25839E-15 5.19541E-14
 -1      2449 2.23105E+01 7.56662E-02 2.17777E-03-1.22408E+00 3.24146E-14 1.26253E-14
 -1      2450 2.17341E+01 1.28513E-01-4.35237E-03-1.39319E+00-9.44237E-14-3.62281E-14
 -1      2451 2.31064E+01-2.10759E-01-9.78075E-03-1.18042E+00 8.88404E-14-3.28990E-15
 -1      2452 2.28289E+01-8.40148E-02 3.70458E-03-1.24328E+00 9.58300E-14 7.26693E-14
 -1      2453 2.21518E+01-6.43106E-02-6.83831E-03-1.46845E+00 9.37510E-15 1.37928E-13
 -1      2454 2.36631E+01-5.47043E-01-1.93998E-02-8.85101E-01 2.48178E-14-5.23405E-14
 -1      2455 2.34177E+01-3.58649E-01 5.99634E-03-1.07554E+00 2.66905E-14 1.52365E-14
 -1      2456 2.26785E+01-4.05696E-01-1.04269E-02-1.37911E+00 8.32047E-14 9.30660E-14
 -1      2457 2.42195E+01-9.55690E-01-2.83073E-02-2.60228E-01-1.95535E-13 1.47309E-13
 -1      2458 2.40544E+01-7.42773E-01 7.62169E-03-6.14071E-01-8.55193E-14 7.04502E-14
 -1      2459 2.33456E+01-8.99777E-01-1.35692E-02-1.01342E+00-1.05979E-13 1.71679E-13
 -1      2460 2.46850E+01-1.25174E+00-2.91060E-02 7.15719E-01-1.42258E-13 2.25555E-13
 -1      2461 2.46624E+01-1.13263E+00 6.03726E-03 2.19453E-01-1.51987E-13 2.00042E-13
 -1      2462 2.41491E+01-1.44164E+00-1.27856E-02-2.60980E-01-1.96651E-13 3.93798E-13
 -1      2463 2.48922E+01-1.08780E+00-1.74567E-02 1.84706E+00-2.94964E-14 3.31608E-13
 -1      2464 2.50612E+01-1.25591E+00-6.75434E-03 1.35365E+00-1.94466E-13 2.20744E-13
 -1      2465 2.49749E+01-1.70746E+00-1.35226E-03 8.98882E-01-1.25684E-13 5.61575E-13
 -1      2466 2.46563E+01-1.53281E-01 6.54165E-04 2.59664E+00 2.32554E-13 4.96774E-13
 -1      2467 2.50070E+01-7.29353E-01-3.56508E-02 2.39552E+00 1.37467E-13 4.66244E-13
 -1      2468 2.55349E+01-1.22064E+00 3.81479E-03 2.19142E+00-4.86746E-14 5.90377E-13
 -1      2469 2.40492E+01 1.30375E+00 1.07666E-02 2.24682E+00 3.60507E-13 3.77375E-13
 -1      2470 2.44233E+01 5.52376E-01-5.94209E-02 2.60494E+00 4.04669E-13 4.79936E-13
 -1      2471 2.55105E+01 3.09080E-01-9.49863E-03 2.89127E+00 2.76838E-13 7.33000E-13
 -1      2472 2.35354E+01 2.18133E+00-3.22783E-02 6.29487E-01 3.25684E-13-6.61251E-14
 -1      2473 2.36930E+01 1.85573E+00-7.06455E-02 1.42694E+00 3.57589E-13 2.02883E-13
 -1      2474 2.49941E+01 2.22478E+00-1.60823E-02 2.17310E+00 5.07525E-13 5.43007E-13
 -1      2475 2.36426E+01 1.65676E+00-8.06472E-02-1.29798E+00 1.49575E-13-3.30696E-13
 -1      2476 2.35150E+01 2.10182E+00-3.63373E-02-5.61801E-01 3.49866E-13-1.53532E-13
 -1      2477 2.47184E+01 3.00290E+00 9.51700E-04 8.20612E-02 4.29393E-13 1.47747E-13
 -1      2478 2.42332E+01 2.80813E-01-5.69602E-02-2.23252E+00-1.31891E-13-5.62645E-13
 -1      2479 2.39581E+01 1.04668E+00 1.57075E-02-1.98115E+00-1.24768E-13-6.17971E-13
 -1      2480 2.49594E+01 1.90990E+00-1.60838E-02-1.91735E+00 1.63911E-13-1.99375E-13
 -1      2481 2.45792E+01-8.97899E-01-2.80839E-02-1.79498E+00-2.74741E-13-3.36710E-13
 -1      2482 2.43693E+01-3.97300E-01 4.17612E-03-2.07732E+00-9.72295E-14-3.64885E-13
 -1      2483 2.52890E+01-1.21438E-01-7.86168E-03-2.36426E+00-2.95619E-13-2.46454E-13
 -1      2484 2.43786E+01-1.28724E+00-3.45173E-03-6.85637E-01-5.43441E-14-4.53749E-13
 -1      2485 2.43426E+01-1.18615E+00-2.08571E-02-1.19452E+00-2.10618E-13-4.11514E-13
 -1      2486 2.50681E+01-1.41664E+00-4.86970E-03-1.46320E+00-2.49439E-13-3.12689E-13
 -1      2487 2.37623E+01-1.09057E+00 7.74580E-03 4.31564E-01 9.28528E-14-1.25081E-13
 -1      2488 2.39131E+01-1.24322E+00-3.02496E-02-4.08281E-02 4.13888E-14-2.19037E-13
 -1      2489 2.43344E+01-1.73884E+00-9.38058E-03-1.31286E-01-1.59757E-13-3.35165E-13
 -1      2490 2.29778E+01-6.66507E-01 9.43140E-03 1.20661E+00 2.35335E-13-2.87457E-14
 -1      2491 2.32610E+01-8.92861E-01-2.51127E-02 8.91577E-01 1.35287E-13-4.46661E-14
 -1      2492 2.33824E+01-1.37794E+00-1.59344E-02 9.81200E-01 4.19907E-14 2.26304E-14
 -1      2493 2.21951E+01-2.44616E-01 9.11566E-03 1.58137E+00-3.60085E-15-1.50236E-14
 -1      2494 2.25398E+01-4.53369E-01-1.62020E-02 1.44046E+00 1.02023E-13 1.12031E-13
 -1      2495 2.24838E+01-7.83354E-01-1.49609E-02 1.65667E+00 8.91206E-14 1.72363E-13
 -1      2496 2.14855E+01 1.06582E-01 8.57444E-03 1.61299E+00-7.05235E-14 1.57556E-14
 -1      2497 2.18383E+01-6.29711E-02-7.28148E-03 1.62495E+00-8.05300E-14-1.91266E-14
 -1      2498 2.17375E+01-2.16990E-01-1.06734E-02 1.91369E+00-3.26710E-14 4.02031E-14
 -1      2499 2.08748E+01 3.96182E-01 8.63647E-03 1.37462E+00-1.04587E-13 2.43661E-13
 -1      2500 2.11986E+01 2.55859E-01-9.44418E-04 1.51050E+00-2.43176E-14 9.28749E-14
 -1      2501 2.11304E+01 2.50075E-01-7.97744E-03 1.83818E+00-8.16581E-14 1.54637E-13
 -1      2502 2.06315E+01 5.19165E-01 2.68772E-03 1.14216E+00-1.19844E-13 2.46894E-13
 -1      2503 1.92727E+01 2.44032E+00-1.83276E-02 1.44296E+00 2.36440E-14 2.31181E-13
 -1      2504 1.94712E+01 2.21150E+00 5.42683E-03 1.66703E+00-1.32360E-13-2.38164E-13
 -1      2505 1.89955E+01 2.78989E+00-1.68463E-02 7.59932E-01 2.31441E-13-2.34500E-14
 -1      2506 1.91148E+01 2.65371E+00-2.15047E-03 1.10101E+00 1.21245E-13 5.11331E-14
 -1      2507 1.89477E+01 2.20648E+00 9.72632E-03 1.45039E+00 2.95188E-13 2.38783E-13
 -1      2508 2.00897E+01 1.40023E+00-7.03729E-03 1.90780E+00-2.09313E-13 3.76403E-13
 -1      2509 2.02956E+01 1.10344E+00 9.12003E-03 1.84538E+00-1.84383E-13 1.10032E-13
 -1      2510 1.96828E+01 1.93450E+00-1.30042E-02 1.83764E+00-4.65709E-13-3.63759E-13
 -1      2511 1.98976E+01 1.66218E+00 1.04068E-02 1.90380E+00-3.43124E-13 2.10182E-13
 -1      2512 1.99595E+01 1.23139E+00-6.50750E-03 2.15259E+00-4.14145E-13 8.63480E-14
 -1      2513 1.94421E+01 1.73879E+00 1.75024E-03 1.99361E+00-8.42838E-14-9.34229E-14
 -1      2514 1.89402E+01 2.88331E+00-1.00984E-02-7.30336E-02 2.03536E-13 2.46747E-13
 -1      2515 1.89373E+01 2.86926E+00-1.11780E-02 3.11747E-01 1.26850E-13-6.04490E-14
 -1      2516 1.86554E+01 2.48801E+00 1.58190E-02 6.05440E-01 2.58552E-13-5.29891E-14
 -1      2517 1.91251E+01 2.68931E+00-1.33691E-03-8.59416E-01-1.03987E-13-6.24483E-14
 -1      2518 1.90023E+01 2.79764E+00-1.81200E-02-5.19950E-01 6.11950E-14 2.53770E-13
 -1      2519 1.86609E+01 2.48332E+00 1.58380E-02-3.56791E-01 1.65112E-13 1.30291E-13
 -1      2520 1.94747E+01 2.26606E+00 5.17809E-03-1.42132E+00-9.85700E-14-2.61943E-14
 -1      2521 1.92825E+01 2.46927E+00-1.93813E-02-1.19780E+00-1.51828E-13-5.67207E-14
 -1      2522 1.89588E+01 2.19159E+00 9.70137E-03-1.19833E+00-2.15610E-15-1.12062E-13
 -1      2523 1.98545E+01 1.74398E+00 7.92310E-03-1.67380E+00 1.39345E-13-5.23525E-14
 -1      2524 1.96624E+01 1.99282E+00-1.47411E-02-1.58982E+00 4.32076E-14-1.59902E-14
 -1      2525 1.94293E+01 1.72101E+00 1.79380E-03-1.73217E+00 6.14103E-14 5.29018E-14
 -1      2526 2.01717E+01 1.22276E+00 7.82904E-03-1.64654E+00 3.02882E-13-7.97800E-14
 -1      2527 2.00227E+01 1.48159E+00-7.06276E-03-1.68272E+00 2.76648E-13-1.21890E-13
 -1      2528 1.99107E+01 1.21064E+00-4.61258E-03-1.91040E+00 3.21676E-13-2.97847E-14
 -1      2529 2.03678E+01 7.87725E-01 5.23472E-03-1.42075E+00 1.13108E-13-1.99018E-13
 -1      2530 2.02810E+01 1.01998E+00-1.40034E-04-1.53558E+00 2.37386E-13-1.31024E-13
 -1      2531 2.02904E+01 7.67342E-01-6.57908E-03-1.79046E+00 2.01686E-13-3.30605E-13
 -1      2532 2.04552E+01 4.72276E-01 5.48196E-03-1.09585E+00-1.28768E-13-2.64932E-13
 -1      2533 2.04210E+01 6.57913E-01 5.92806E-03-1.24602E+00-4.02226E-14-1.10148E-13
 -1      2534 2.05238E+01 4.53642E-01 4.65758E-04-1.48505E+00 8.96727E-14-3.10477E-13
 -1      2535 4.69015E+00-3.44172E+00 7.28680E-02 3.49474E+00-4.24993E-13 6.20726E-13
 -1      2536 3.51388E+00-3.19944E+00 8.67421E-02 1.17785E+00-2.96516E-13 7.20479E-13
 -1      2537 1.75197E+01-5.94786E+00-1.61564E-02 7.12633E+00-3.57325E-13 3.59528E-13
 -1      2538 1.34957E+01-5.88054E+00 2.04253E-02 6.92907E+00-7.40852E-13 5.94066E-13
 -1      2539 1.97031E+01 1.43190E-01 3.26764E-03 6.08228E-02 2.06181E-13-4.73669E-14
 -1      2540 1.97818E+01 1.98008E-01 1.23835E-02 1.46977E-01 2.36031E-13-1.82124E-15
 -1      2541 1.98479E+01 1.80730E-01-3.86329E-03 6.64066E-02 2.00751E-13-1.06264E-13
 -1      2542 2.03632E+01 3.61565E-01-2.94003E-03-7.27794E-01-5.52799E-14 1.03256E-13
 -1      2543 3.42712E+00-3.29217E+00 7.84560E-02-1.35631E+00-3.85594E-14 4.83391E-13
 -1      2544 4.82169E+00-3.69657E+00 6.74138E-02-3.93513E+00-8.01581E-14-2.53964E-13
 -1      2545 1.01979E+01-5.15288E+00 3.44527E-02 6.76597E+00-7.66498E-13 6.72407E-13
 -1      2546 7.24865E+00-4.40795E+00 7.92056E-02 5.43242E+00-6.65829E-13 5.89029E-13
 -1      2547 1.38628E+01-4.87224E+00 1.25543E-01 6.80903E+00-7.13624E-13 6.08957E-13
 -1      2548 2.26569E+01-5.64587E+00 3.33618E-02-5.62656E+00-2.85799E-13-1.47410E-13
 -1      2549 2.61090E+01-4.59580E+00-2.92848E-02-4.63071E+00-2.40086E-13-7.71605E-15
 -1      2550 3.00338E+01-2.49350E+00-1.10930E-01 1.82939E+00-3.02980E-13 3.99403E-13
 -1      2551 2.77091E+01-4.23260E+00-5.43026E-02 3.22172E+00-1.76859E-13 5.24053E-13
 -1      2552 2.68483E+01-5.23027E+00 4.01584E-02 3.25821E+00-2.53519E-13 3.09724E-13
 -1      2553 3.28990E+01 7.47503E+00-1.12567E-01 1.97054E-01-2.18270E-13 1.67200E-13
 -1      2554 3.25137E+01 7.67692E+00-1.49617E-01-3.04600E-01-2.49578E-13 1.74416E-13
 -1      2555 1.95201E+01 3.58442E+00-1.00905E-02-2.45475E-01-9.22014E-14-4.98851E-13
 -1      2556 1.95361E+01 3.56377E+00-9.65171E-03-4.26305E-01-1.37699E-13-4.81329E-13
 -1      2557 1.97125E+01 3.16310E+00-5.61873E-04-4.73752E-01-1.43350E-13-4.28485E-13
 -1      2558 1.96783E+01 3.22297E+00-9.17442E-04-1.52140E-01-7.98152E-14-4.55754E-13
 -1      2559 2.72863E+01-4.20509E+00-2.38174E-02-2.68629E+00 6.47329E-13 1.13715E-13
 -1      2560 2.99113E+01-2.71533E+00-9.92791E-02-1.60550E+00 7.67067E-13 2.24154E-13
 -1      2561 3.35635E+01 6.79225E+00-9.34403E-02-4.55111E-01 3.68483E-13 4.37428E-14
 -1      2562 3.32334E+01 5.56774E+00-1.30177E-01-8.32618E-01 2.64455E-13-1.53877E-13
 -1      2563 3.30949E+01 7.00398E+00-1.31654E-01 9.52307E-01 1.04738E-12-6.60583E-15
 -1      2564 3.34208E+01 7.29417E+00-1.22683E-01 1.65451E-01 6.72740E-13-3.74561E-14
 -1      2565 3.26805E+01 3.83904E+00-1.27113E-01 1.73232E+00 1.09895E-12 2.19297E-13
 -1      2566 3.25659E+01 5.28452E+00-2.10311E-01 1.63483E+00 1.12432E-12 1.79523E-13
 -1      2567 1.39861E+01-5.71449E+00 7.19002E-02-7.11360E+00-8.88734E-14-5.16809E-13
 -1      2568 1.83037E+01-5.91672E+00-4.02987E-02-7.18303E+00-1.33504E-13-2.35856E-13
 -1      2569 3.12088E+01-5.29114E-01-9.81394E-02 1.85367E-01 7.90833E-13 2.14773E-13
 -1      2570 3.27232E+01 1.83491E+00-1.31469E-01 1.09512E+00 9.71806E-13 2.79277E-13
 -1      2571 3.08284E+01 2.02219E+00-2.30655E-02 2.31058E+00 9.59510E-13 3.06588E-13
 -1      2572 1.99510E+01-5.94464E+00 2.78570E-02-5.74770E+00 1.46105E-13-2.28859E-13
 -1      2573 2.41383E+01-5.34026E+00-3.90799E-02-4.77089E+00 4.05342E-13-8.39051E-14
 -1      2574 1.13102E+01-5.47438E+00 2.83641E-02-6.29260E+00-2.57683E-13-1.24170E-12
 -1      2575 1.50744E+01-5.69037E+00-3.02151E-02-6.64449E+00-1.02585E-13-7.61648E-13
 -1      2576 5.37066E+00-3.83378E+00 8.41775E-02-4.08154E+00-4.33820E-14-9.02056E-13
 -1      2577 7.91434E+00-4.65241E+00 4.14693E-03-5.70909E+00-1.02057E-13-1.31087E-12
 -1      2578 1.10903E+01-4.18418E+00 1.42580E-01-5.95396E+00-3.14249E-13-1.09113E-12
 -1      2579 2.62365E+00-3.37262E+00 4.44943E-02 1.53240E-01 1.51375E-13-8.28282E-13
 -1      2580 3.32746E+00-3.30511E+00 5.05797E-02-2.08233E+00 9.17877E-14-6.09401E-13
 -1      2581 5.29128E+00-3.30723E+00 6.76733E-02 4.30534E+00 2.65038E-13-7.59837E-13
 -1      2582 3.32880E+00-3.33850E+00 7.64270E-02 2.06385E+00 2.79610E-13-9.62175E-13
 -1      2583 1.19424E+01-5.02678E+00 6.73433E-02 7.03689E+00 1.04250E-13-7.24421E-14
 -1      2584 9.03782E+00-4.26094E+00 1.02390E-01 6.22940E+00 2.30566E-13-3.61711E-13
 -1      2585 1.87308E+01-5.44054E+00 1.36932E-02 6.74260E+00 6.51701E-14 2.83350E-13
 -1      2586 1.48922E+01-5.63519E+00 8.13359E-03 6.85055E+00 7.58282E-14 1.05055E-13
 -1      2587 1.53655E+01-5.00800E+00 7.97719E-02 6.77498E+00 2.42750E-13 1.50602E-13
 -1      2588 2.51227E+01-4.39805E+00-7.03238E-02 4.68570E+00-1.09079E-13 7.52731E-14
 -1      2589 2.17232E+01-5.33852E+00-2.07465E-02 5.61415E+00-4.98213E-14 1.74166E-13
 -1      2590 2.12120E+01-5.61431E+00 7.75700E-02 5.77207E+00 9.87543E-14 1.82368E-13
 -1      2591 2.99449E+01-1.50857E+00-1.36571E-01 1.40930E+00-2.11064E-14-7.35800E-14
 -1      2592 2.80216E+01-3.03517E+00-8.98109E-03 2.62931E+00 2.23571E-14-9.85323E-14
 -1      2593 3.21180E+01 2.96916E+00-1.61633E-01-7.80558E-01-2.88991E-13 1.14658E-13
 -1      2594 3.12401E+01 9.88613E-01-5.27867E-02-9.24245E-02-1.92457E-13 1.09246E-13
 -1      2595 3.22795E+01 6.67370E+00-1.71722E-01-1.01706E+00-3.42615E-13 9.63812E-14
 -1      2596 3.21115E+01 5.26724E+00-1.07086E-01-1.24906E+00-3.25767E-13 1.55848E-13
 -1      2597 3.24913E+01 4.95575E+00-1.05230E-01 7.64346E-01-1.20737E-13-1.51545E-14
 -1      2598 3.25473E+01 6.22260E+00-1.68800E-01 6.94635E-01-5.05151E-14 2.44887E-13
 -1      2599 3.10655E+01 4.35447E-01-6.36805E-02-3.12452E-01-3.45002E-13-1.44107E-13
 -1      2600 3.24742E+01 2.79751E+00-1.19662E-01 2.91411E-01-2.58210E-13-1.80633E-13
 -1      2601 3.05530E+01 3.19513E+00-4.34784E-02 1.39652E+00-2.16521E-13 1.11772E-13
 -1      2602 2.78524E+01-3.63265E+00-3.78437E-02-3.19102E+00-1.84699E-13-1.44884E-14
 -1      2603 2.96415E+01-2.28400E+00-1.28342E-01-2.12297E+00-2.69819E-13-8.03801E-14
 -1      2604 2.69619E+01-4.72227E+00 4.27047E-02-3.25586E+00-2.84717E-13 1.16657E-13
 -1      2605 7.20489E+00-4.47017E+00 7.44634E-02-5.52992E+00-1.83409E-13-5.44120E-13
 -1      2606 9.92575E+00-4.86677E+00 2.34589E-02-6.83481E+00-1.99396E-13-8.43936E-13
 -1      2607 2.05472E+01 1.95510E+00-1.36904E-02-1.89882E+00-4.35809E-13 1.21077E-13
 -1      2608 2.04104E+01 1.21411E+00-7.24131E-03-1.28770E+00-3.81324E-13 1.49635E-13
 -1      2609 2.03811E+01 1.38019E+00 7.27136E-03-1.23784E+00-3.65262E-13 4.21048E-14
 -1      2610 2.02894E+01 2.38484E+00-4.83251E-03-1.84303E+00-4.33561E-13-8.38218E-15
 -1      2611 2.04897E+01 8.74900E-01-7.31863E-03 1.22727E+00 3.67600E-13 1.55810E-13
 -1      2612 2.08403E+01 1.25691E+00-6.05408E-03 1.72795E+00 3.94951E-13 2.02640E-13
 -1      2613 2.06462E+01 1.71559E+00-1.57941E-02 1.92215E+00 4.24894E-13 5.16323E-14
 -1      2614 2.04484E+01 1.05796E+00-9.39901E-03 1.24214E+00 3.79974E-13-6.75089E-15
 -1      2615 3.01026E+01-2.04164E+00-1.07530E-02 4.69962E-01 6.50003E-13 4.23550E-13
 -1      2616 1.99137E+01 2.81566E+00 2.62093E-03-1.09931E+00-2.93988E-13-3.10994E-13
 -1      2617 1.97828E+01 3.16006E+00-1.45337E-02-1.28495E+00-3.14898E-13-3.27589E-13
 -1      2618 1.98770E+01 3.03657E+00-1.75108E-02-1.48392E+00-3.71572E-13-2.70145E-13
 -1      2619 2.09554E+01-5.92518E+00 9.46485E-02 6.05796E+00-4.75120E-13 3.03346E-13
 -1      2620 3.03612E+01 6.78752E+00-1.07451E-01-9.19232E-01-3.20105E-13 2.33563E-13
 -1      2621 2.04220E+01 2.11571E+00-1.27773E-02 1.87518E+00 4.12406E-13-1.00735E-13
 -1      2622 3.25728E+01 4.08025E+00-8.77120E-02-1.23570E+00 1.59012E-13-1.33588E-13
 -1      2623 3.10720E+01 2.49425E+00-1.17143E-01-1.58935E+00 6.97775E-14-6.55309E-14
 -1      2624 3.03912E+01 4.53458E+00-1.19793E-01-1.89697E+00 1.19932E-13 2.95403E-13
 -1      2625 3.07635E+01-2.31869E-01-1.47530E-01-1.09643E+00-1.16254E-13 6.48093E-14
 -1      2626 3.09160E+01-1.34323E+00-2.87261E-02 3.57794E-01-2.77847E-13 3.58602E-13
 -1      2627 2.92013E+01-2.97895E+00 4.37923E-03 5.96634E-01-2.90898E-13 2.35811E-13
 -1      2628 2.01129E+01 2.62129E+00-1.16947E-02-1.67915E+00-4.00135E-13-1.21557E-13
 -1      2629 2.98329E+01-1.46559E+00-1.40316E-02-3.98677E-01-4.03455E-13 9.49241E-14
 -1      2630 7.79073E+00-2.91547E+00 1.65468E-01-4.65561E+00-4.81837E-14-4.13725E-13
 -1      2631 2.06317E+01 6.21580E-01 1.73349E-03 1.48448E+00-2.10923E-13 2.60359E-13
 -1      2632 2.05365E+01 8.12744E-01-1.09902E-03 1.64423E+00-2.17135E-14 2.19577E-13
 -1      2633 2.04361E+01 1.80791E+00 1.25389E-02 1.56299E+00 3.86058E-13-1.23846E-13
 -1      2634 5.50235E+00-1.94521E+00 1.81776E-01-1.91251E-01-3.59383E-14 4.15890E-13
 -1      2635 7.97904E+00-2.94280E+00 1.65124E-01 4.53850E+00-4.41258E-13 4.78340E-13
 -1      2636 1.37815E+01-4.75074E+00 1.38064E-01-6.89359E+00-2.54907E-13-5.63133E-13
 -1      2637 3.05396E+01 3.71999E+00-5.93462E-02-1.70683E+00-2.38337E-13 1.68199E-13
 -1      2638 2.66578E+01-4.32208E+00 4.80640E-02 3.00059E+00 1.21125E-13 3.76643E-14
 -1      2639 1.99938E+01 3.40061E-01-3.53307E-03 3.05452E-01 2.79747E-13-1.09667E-13
 -1      2640 2.16181E+01-5.83013E+00 8.00162E-02-5.96206E+00-2.49217E-13 1.08254E-13
 -1      2641 3.04568E+01 6.48313E+00-7.02191E-02 8.79661E-01-1.69920E-13 3.33678E-13
 -1      2642 8.21438E+00-3.22337E+00 1.56698E-01 5.37439E+00 3.09003E-13-6.84675E-13
 -1      2643 7.88091E+00-1.94152E+00 1.72424E-01 4.32505E+00 3.64250E-13-6.97359E-13
 -1      2644 1.11724E+01-3.18830E+00 7.78663E-02 5.93833E+00 3.58741E-13-3.60906E-13
 -1      2645 5.87925E+00-2.60922E+00 1.44157E-01-3.10620E+00 3.20716E-14-8.50209E-13
 -1      2646 2.62624E+01-5.14411E+00 3.70079E-02-2.93358E+00 3.80543E-13 9.95870E-14
 -1      2647 3.07098E+01 5.77833E+00-2.43874E-02 1.88612E+00 9.65616E-13 3.46945E-15
 -1      2648 3.11463E+01 6.60925E+00-2.98802E-02-3.86592E-01 5.27578E-13 2.21989E-13
 -1      2649 1.86689E+01-5.76534E+00 8.68347E-02-6.04806E+00-7.62168E-14-4.04309E-13
 -1      2650 2.14003E+01-5.90251E+00-9.68308E-02-5.06102E+00-3.35842E-14-1.06450E-13
 -1      2651 1.74298E+01-5.07439E+00 1.56753E-01-6.10598E+00-2.52659E-13-5.48131E-13
 -1      2652 4.70569E+00-2.03187E+00 1.56117E-01 1.16311E+00 2.02352E-13-8.10019E-13
 -1      2653 2.99008E+01-7.89378E-01-1.11721E-02-2.34927E-01-5.92859E-14 5.97300E-14
 -1      2654 2.05624E+01 1.81638E-01 6.89305E-03-7.74608E-01-7.21273E-14 1.23030E-13
 -1      2655 2.04968E+01 3.59847E-01 4.01977E-03-9.53276E-01-1.09986E-13-6.11523E-14
 -1      2656 2.06313E+01 2.13629E-01-6.35199E-03-1.14463E+00-2.10294E-13-8.82075E-14
 -1      2657 2.07041E+01 6.33504E-02-6.78783E-03-8.28542E-01-2.26736E-13 2.40620E-13
 -1      2658 2.05920E+01 7.08277E-01 7.97723E-04 1.94215E+00-1.12323E-13 1.95620E-13
 -1      2659 2.08270E+01 4.16030E-03 9.76989E-04-1.00045E+00-2.68717E-13 1.21981E-14
 -1      2660 1.98461E+01 2.76446E+00-6.30021E-03 5.16656E-01 1.02202E-13-4.07050E-13
 -1      2661 1.98214E+01 2.81420E+00-5.70003E-03 3.65688E-01 5.49565E-14-4.14811E-13
 -1      2662 1.98045E+01 2.85170E+00-5.61949E-03 2.30064E-01 2.03060E-14-4.26292E-13
 -1      2663 1.97960E+01 2.86857E+00-5.43477E-03 7.53289E-02-2.16030E-14-4.08271E-13
 -1      2664 1.99510E+01 2.50039E+00 3.64153E-03 2.65507E-01 4.37420E-14-3.85711E-13
 -1      2665 2.00440E+01 2.32358E+00-1.07304E-02 1.04672E+00 2.66464E-13-3.41270E-13
 -1      2666 1.99801E+01 2.47248E+00-6.30487E-03 9.11073E-01 2.25762E-13-3.79032E-13
 -1      2667 2.02169E+01 1.90788E+00-1.20293E-02 1.22808E+00 3.40279E-13-2.49348E-13
 -1      2668 2.01246E+01 2.14595E+00-4.79623E-03 1.13461E+00 2.98205E-13-2.91034E-13
 -1      2669 2.01897E+01 1.88614E+00 6.44112E-03 9.27302E-01 2.70685E-13-2.76867E-13
 -1      2670 6.73938E+00-1.08932E+00 1.20863E-01 1.09455E+00-4.97276E-14 3.21937E-13
 -1      2671 6.81059E+00-1.14796E+00 1.42198E-01-1.55295E+00 1.97044E-13 1.33504E-14
 -1      2672 2.02120E+01 7.26718E-01-3.49706E-03 6.43592E-01 3.21401E-13-1.31811E-13
 -1      2673 2.03541E+01 9.51625E-01 9.14612E-03 9.07363E-01 3.34104E-13-1.14445E-13
 -1      2674 2.03376E+01 1.50012E+00-1.89922E-03 1.26780E+00 3.59873E-13-1.50943E-13
 -1      2675 2.02166E+01 6.26906E-01 8.57313E-03-4.39157E-01-2.27999E-13-3.12163E-14
 -1      2676 2.01313E+01 4.75775E-01-3.37243E-03-2.79571E-01-1.91348E-13-4.05859E-14
 -1      2677 2.01059E+01 3.62389E-01 6.64487E-03-1.59733E-01-1.65115E-13-4.15032E-14
 -1      2678 2.00465E+01 2.67614E-01-1.79836E-03-6.21055E-02-1.64380E-13-5.86161E-14
 -1      2679 2.01950E+01 5.29532E-01-1.45084E-03-2.62490E-01-1.93763E-13-9.71326E-14
 -1      2680 2.00204E+01 1.97479E-01 4.50204E-03 1.31701E-02-1.42258E-13-4.34204E-14
 -1      2681 1.99845E+01 1.38055E-01-8.37035E-04 6.97844E-02-1.46166E-13-3.57843E-14
 -1      2682 2.01263E+01 2.98553E-01-2.09863E-03-5.67569E-02-1.63752E-13-9.25964E-14
 -1      2683 1.99637E+01 9.40596E-02 2.89944E-03 1.13247E-01-1.44217E-13-2.13138E-14
 -1      2684 1.99456E+01 5.69873E-02-2.80032E-04 1.42808E-01-1.11663E-13-4.76367E-14
 -1      2685 2.00698E+01 1.52724E-01-1.90575E-03 7.07333E-02-1.45194E-13-9.28220E-14
 -1      2686 1.99307E+01 2.97975E-02 1.73214E-03 1.64493E-01-8.83178E-14-6.78844E-14
 -1      2687 1.99249E+01 7.40588E-03 3.12466E-05 1.76679E-01-9.94098E-14-7.53552E-14
 -1      2688 2.00289E+01 6.08645E-02-1.53227E-03 1.42059E-01-1.21574E-13-7.78556E-14
 -1      2689 1.99153E+01-8.64213E-03 9.23703E-04 1.84194E-01-8.08892E-14-5.71133E-14
 -1      2690 1.99174E+01-2.11909E-02 2.04321E-04 1.85670E-01-9.70805E-14-2.17547E-14
 -1      2691 2.00019E+01 4.76463E-03-1.15747E-03 1.75514E-01-7.69921E-14-4.99540E-14
 -1      2692 1.99119E+01-2.96975E-02 3.79527E-04 1.84523E-01-1.06521E-13 1.40647E-14
 -1      2693 1.99189E+01-3.55495E-02 3.03119E-04 1.79909E-01-1.21580E-13 2.26151E-14
 -1      2694 1.99858E+01-2.72579E-02-8.43678E-04 1.84701E-01-8.24706E-14 5.26867E-14
 -1      2695 1.99163E+01-3.88832E-02 2.52958E-05 1.74055E-01-1.45505E-13 6.15479E-14
 -1      2696 1.99260E+01-4.01302E-02 3.65425E-04 1.66574E-01-1.11291E-13 7.35494E-14
 -1      2697 1.99777E+01-4.28327E-02-6.03217E-04 1.79505E-01-9.14386E-14 8.76370E-14
 -1      2698 1.99256E+01-3.98711E-02-1.96205E-04 1.58834E-01-9.99903E-14 9.30462E-14
 -1      2699 1.99367E+01-3.79023E-02 4.14357E-04 1.50753E-01-7.52268E-14 8.44344E-14
 -1      2700 1.99754E+01-4.70479E-02-4.29213E-04 1.67036E-01-1.08332E-13 1.24045E-13
 -1      2701 1.99378E+01-3.50921E-02-3.28433E-04 1.43152E-01-5.91272E-14 5.74947E-14
 -1      2702 1.99496E+01-3.08047E-02 4.64901E-04 1.36095E-01-4.72160E-14 1.43733E-14
 -1      2703 1.99771E+01-4.32981E-02-3.10600E-04 1.52401E-01-9.89885E-14 9.04251E-14
 -1      2704 1.99518E+01-2.61019E-02-4.03751E-04 1.30116E-01 7.20745E-15-1.85806E-14
 -1      2705 1.99642E+01-2.00379E-02 5.27597E-04 1.25288E-01-9.81044E-15-8.90408E-15
 -1      2706 1.99817E+01-3.37903E-02-2.36057E-04 1.39300E-01-4.32311E-14 4.75281E-14
 -1      2707 1.99673E+01-1.38229E-02-4.46055E-04 1.22064E-01-5.15652E-15 7.50715E-14
 -1      2708 1.99803E+01-6.26722E-03 6.10178E-04 1.20414E-01 8.79413E-15 1.31073E-13
 -1      2709 1.99885E+01-1.98765E-02-1.95578E-04 1.30500E-01 4.25780E-14 1.55572E-14
 -1      2710 1.99842E+01 1.27807E-03-4.72672E-04 1.20876E-01-2.60769E-14 1.72041E-13
 -1      2711 1.99983E+01 1.02190E-02 7.18232E-04 1.23215E-01-1.24582E-14 1.48915E-13
 -1      2712 1.99971E+01-2.29144E-03-1.81002E-04 1.28175E-01-1.25503E-15 5.95440E-14
 -1      2713 2.00029E+01 1.90429E-02-4.95634E-04 1.28188E-01-2.98901E-14 1.50384E-13
 -1      2714 2.00187E+01 2.93689E-02 8.55182E-04 1.35264E-01-3.26758E-14 1.13501E-13
 -1      2715 2.00075E+01 1.86568E-02-1.85726E-04 1.34166E-01-2.76205E-14 1.02427E-13
 -1      2716 2.00243E+01 3.94815E-02-5.22408E-04 1.45537E-01-2.04416E-14 3.47798E-14
 -1      2717 2.00426E+01 5.12214E-02 1.02170E-03 1.58073E-01-9.24058E-14 5.11995E-14
 -1      2718 2.00198E+01 4.29114E-02-2.04709E-04 1.50156E-01-9.25826E-14 2.26519E-15
 -1      2719 2.00492E+01 6.26168E-02-5.55941E-04 1.74420E-01-1.31612E-13 1.05881E-13
 -1      2720 2.00709E+01 7.57367E-02 1.21478E-03 1.93109E-01-8.72875E-14 1.67059E-13
 -1      2721 2.00344E+01 7.04812E-02-2.34393E-04 1.77757E-01-4.63191E-14 4.37153E-14
 -1      2722 2.00790E+01 8.82955E-02-5.94036E-04 2.16270E-01-6.80189E-14 1.69293E-13
 -1      2723 2.01053E+01 1.02579E-01 1.42625E-03 2.41718E-01-8.36465E-15 2.01463E-13
 -1      2724 2.00518E+01 1.01220E-01-2.73151E-04 2.18525E-01-8.60990E-14 9.23682E-14
 -1      2725 2.01152E+01 1.15939E-01-6.27766E-04 2.72333E-01 2.50766E-14 1.47746E-13
 -1      2726 2.01471E+01 1.30827E-01 1.64098E-03 3.04941E-01 7.10270E-14 8.47680E-14
 -1      2727 2.00727E+01 1.34545E-01-3.22508E-04 2.73869E-01-2.52609E-14 9.75845E-14
 -1      2728 2.01596E+01 1.44203E-01-6.38713E-04 3.43408E-01 8.75348E-14 2.07030E-14
 -1      2729 2.01986E+01 1.58573E-01 1.83446E-03 3.83170E-01 8.39483E-14-6.22915E-14
 -1      2730 2.00983E+01 1.69052E-01-3.89464E-04 3.44852E-01 7.35742E-15 1.80335E-14
 -1      2731 2.02147E+01 1.70525E-01-5.94772E-04 4.29435E-01 7.42075E-14-7.07882E-14
 -1      2732 2.02620E+01 1.82400E-01 1.97026E-03 4.75630E-01 2.60583E-15-9.05620E-14
 -1      2733 2.01302E+01 2.02012E-01-4.90518E-04 4.31851E-01 3.89780E-14-1.03982E-13
 -1      2734 2.02835E+01 1.90514E-01-4.44413E-04 5.28863E-01-9.15483E-14-1.95244E-13
 -1      2735 2.03406E+01 1.96694E-01 1.99691E-03 5.79625E-01-1.11841E-13-2.12993E-13
 -1      2736 2.01708E+01 2.28693E-01-6.57910E-04 5.34037E-01-9.03514E-14-2.12358E-14
 -1      2737 2.03704E+01 1.97220E-01-1.09843E-04 6.37766E-01-1.03974E-13-1.91236E-13
 -1      2738 2.04391E+01 1.92880E-01 1.84423E-03 6.89498E-01-7.38486E-14-1.87624E-13
 -1      2739 2.02241E+01 2.41527E-01-9.48122E-04 6.48643E-01-1.17384E-13-1.51056E-13
 -1      2740 2.04817E+01 1.80367E-01 5.18880E-04 7.48641E-01 1.66598E-14-1.44089E-13
 -1      2741 2.05640E+01 1.58717E-01 1.41722E-03 7.95289E-01 1.38242E-14-5.06253E-14
 -1      2742 2.02964E+01 2.29202E-01-1.45118E-03 7.69955E-01-4.21362E-14-4.21161E-14
 -1      2743 2.06264E+01 1.25845E-01 1.58226E-03 8.48849E-01-5.25166E-14-5.76003E-14
 -1      2744 2.07248E+01 7.81675E-02 5.86679E-04 8.81089E-01-8.11364E-14 3.18437E-16
 -1      2745 2.03977E+01 1.75935E-01-2.29557E-03 8.87968E-01 5.16952E-14-4.73037E-14
 -1      2746 2.08174E+01 1.61831E-02 3.23194E-03 9.18728E-01-6.67289E-14 8.33614E-14
 -1      2747 2.09349E+01-6.71709E-02-8.25337E-04 9.23238E-01-1.24917E-14 9.45331E-14
 -1      2748 2.05435E+01 6.16112E-02-3.63309E-03 9.86586E-01-4.40498E-14 2.07636E-13
 -1      2749 2.10717E+01-1.66625E-01 5.55546E-03 9.29553E-01-2.50605E-14 1.54886E-13
 -1      2750 2.12104E+01-2.93167E-01-3.04721E-03 8.88798E-01 1.88224E-14 2.45689E-13
 -1      2751 2.07559E+01-1.35844E-01-5.57432E-03 1.04128E+00-9.80393E-15 2.87785E-13
 -1      2752 2.14078E+01-4.33528E-01 8.42453E-03 8.42063E-01 3.81885E-14 2.75941E-13
 -1      2753 2.15667E+01-6.01815E-01-6.26092E-03 7.35542E-01 1.09567E-14 3.54426E-13
 -1      2754 2.10636E+01-4.33363E-01-8.02121E-03 1.01631E+00 5.77966E-14 2.90308E-13
 -1      2755 2.18372E+01-7.72779E-01 1.11616E-02 6.07782E-01-4.00392E-14 3.19466E-13
 -1      2756 2.20073E+01-9.60207E-01-1.02459E-02 4.16696E-01-6.79188E-15 2.73367E-13
 -1      2757 2.14959E+01-8.26809E-01-1.02870E-02 8.62513E-01-3.48920E-14 3.50483E-13
 -1      2758 2.23464E+01-1.12413E+00 1.20283E-02 1.79086E-01 1.01418E-14 2.46063E-13
 -1      2759 2.25042E+01-1.27109E+00-1.37311E-02-1.02129E-01 8.52604E-14 2.66039E-13
 -1      2760 2.20674E+01-1.26226E+00-1.06677E-02 5.20186E-01 3.87059E-14 3.63147E-13
 -1      2761 2.28683E+01-1.34992E+00 7.72562E-03-4.61178E-01 2.50041E-14 2.81174E-13
 -1      2762 2.29740E+01-1.35055E+00-1.35232E-02-8.03716E-01-1.02480E-13 2.75193E-13
 -1      2763 2.27456E+01-1.59867E+00-6.82595E-03-6.14059E-02-5.47789E-14 4.20280E-13
 -1      2764 2.32619E+01-1.23067E+00-5.37131E-03-1.23697E+00-1.83505E-13 3.37226E-13
 -1      2765 2.32731E+01-9.62621E-01-5.48251E-03-1.55059E+00-8.48560E-14 2.34752E-13
 -1      2766 2.34082E+01-1.58683E+00 1.76647E-03-8.67494E-01-6.02825E-14 3.44550E-13
 -1      2767 2.33541E+01-5.52007E-01-2.47142E-02-1.90385E+00 4.86180E-14 1.70808E-13
 -1      2768 2.32629E+01 2.10194E-02 1.10473E-02-2.03158E+00 6.18854E-14 1.95802E-13
 -1      2769 2.38377E+01-9.46060E-01 1.04941E-02-1.71430E+00-1.06171E-13 4.07128E-13
 -1      2770 2.30786E+01 6.67414E-01-4.12347E-02-2.05616E+00-6.61754E-15 1.03889E-13
 -1      2771 2.29376E+01 1.34763E+00 1.70897E-02-1.84071E+00-5.27113E-14 1.67929E-13
 -1      2772 2.38371E+01 4.08494E-01 1.11937E-02-2.19267E+00-3.86791E-14 7.14732E-14
 -1      2773 2.26711E+01 1.90417E+00-3.79430E-02-1.38983E+00-8.49060E-14 5.36396E-14
 -1      2774 2.25662E+01 2.29084E+00-2.64585E-03-8.64216E-01-2.29490E-13 5.63161E-14
 -1      2775 2.34715E+01 1.90877E+00-1.42363E-02-1.79862E+00-1.59119E-13-5.15768E-14
 -1      2776 2.25229E+01 2.40043E+00-4.71303E-03-9.55484E-02-2.51379E-13 8.17987E-15
 -1      2777 2.25311E+01 2.20062E+00-2.72727E-02 4.89083E-01-1.69176E-13 1.54802E-15
 -1      2778 2.31897E+01 2.85249E+00-2.58231E-02-5.18523E-01-2.23937E-13-2.62290E-15
 -1      2779 2.27483E+01 1.76569E+00 2.05527E-02 1.09415E+00-3.89220E-14 1.03599E-13
 -1      2780 2.28178E+01 1.11819E+00-5.14935E-02 1.42985E+00 1.59152E-13 1.72145E-13
 -1      2781 2.33479E+01 2.41495E+00-8.70143E-03 9.33826E-01-1.38847E-14 5.81930E-14
 -1      2782 2.30823E+01 4.66109E-01 1.99671E-02 1.57295E+00 1.52194E-13 1.09301E-13
 -1      2783 2.31483E+01-1.99915E-01-3.60860E-02 1.55224E+00 1.88469E-13 4.95264E-14
 -1      2784 2.36655E+01 9.14546E-01 6.15216E-03 1.69901E+00 5.77988E-14 4.53318E-14
 -1      2785 2.31657E+01-7.21987E-01 6.55311E-04 1.27509E+00 1.46713E-13 7.07420E-15
 -1      2786 2.31539E+01-1.10802E+00-1.31996E-02 9.99425E-01 1.57199E-13-2.41766E-13
 -1      2787 2.38303E+01-5.71872E-01 9.07816E-03 1.46240E+00 1.49926E-13-1.22324E-13
 -1      2788 2.29141E+01-1.32607E+00-1.26000E-02 5.52009E-01 2.54907E-13-2.33579E-13
 -1      2789 2.27980E+01-1.39493E+00 3.71002E-03 1.96846E-01 3.24322E-13-2.65837E-13
 -1      2790 2.35316E+01-1.50381E+00 3.88175E-03 6.45638E-01 2.04092E-13-2.40358E-13
 -1      2791 2.24276E+01-1.35012E+00-1.50738E-02-2.07954E-01 3.06849E-13-2.96336E-13
 -1      2792 2.22404E+01-1.20621E+00 1.17433E-02-5.13959E-01 2.60983E-13-1.90437E-13
 -1      2793 2.28941E+01-1.67723E+00-5.12305E-03-2.37224E-01 2.72684E-13-3.21650E-13
 -1      2794 2.18597E+01-1.01691E+00-1.29980E-02-7.88113E-01 1.17458E-13-2.41312E-13
 -1      2795 2.16457E+01-7.74854E-01 1.29334E-02-9.88086E-01-5.46315E-14-3.59298E-13
 -1      2796 2.21640E+01-1.34684E+00-9.93289E-03-9.06533E-01 4.44639E-14-4.17914E-13
 -1      2797 2.13174E+01-5.28740E-01-8.71499E-03-1.11569E+00-1.22547E-13-3.83881E-13
 -1      2798 2.11089E+01-2.73374E-01 9.33307E-03-1.19151E+00-1.11557E-13-4.04327E-13
 -1      2799 2.14992E+01-7.75463E-01-7.08095E-03-1.28553E+00-7.39436E-14-5.61403E-13
 -1      2800 1.98538E+01 4.94116E-02 5.69410E-05-1.42667E-01 8.85741E-14-9.79956E-14
 -1      2801 1.98678E+01 8.11547E-02 3.16383E-03-1.14296E-01 1.10142E-13-1.03888E-13
 -1      2802 2.03881E+01 6.65814E-01 4.24905E-03 2.34668E+00-3.70339E-13 1.40797E-13
 -1      2803 2.07536E+01 4.32669E-01 1.05079E-02 2.11297E+00-1.87476E-13-1.30716E-14
 -1      2804 2.10034E+01 1.60636E-01-1.46346E-03 2.23788E+00-1.43696E-13-1.63998E-13
 -1      2805 8.05277E+00-1.69320E+00 1.65702E-01-3.63199E+00 6.14647E-14-2.33868E-13
 -1      2806 9.98786E+00-2.63384E+00 7.90007E-02-5.44220E+00-5.99243E-14-6.96998E-13
 -1      2807 1.98908E+01 1.18620E-01-2.44639E-04-6.97631E-02 1.25549E-13-1.40853E-13
 -1      2808 1.99265E+01 1.70123E-01 5.20466E-03-1.42949E-02 1.47148E-13-1.17287E-13
 -1      2809 1.99910E+01 1.35346E-01-2.34934E-03-7.13525E-02 1.09515E-13-1.05213E-13
 -1      2810 1.98426E+01-1.70624E-02 2.78902E-04-1.84220E-01 6.09261E-14-4.16193E-15
 -1      2811 1.98340E+01-6.34069E-03 8.80484E-04-1.83382E-01 7.73714E-14-5.13990E-14
 -1      2812 1.98545E+01-2.94857E-02 3.09430E-04-1.77799E-01 8.89690E-14-3.90585E-14
 -1      2813 1.98412E+01-2.43896E-02 2.94938E-04-1.82862E-01 7.52797E-14-6.77195E-15
 -1      2814 1.99207E+01-2.30078E-02-8.79430E-04-1.87753E-01 8.12162E-14-3.13182E-14
 -1      2815 1.98719E+01-3.37839E-02 3.30094E-04-1.63772E-01 4.39170E-14-5.97597E-15
 -1      2816 1.98564E+01-3.25241E-02-7.03904E-05-1.71626E-01 7.60141E-14-2.93043E-14
 -1      2817 1.99215E+01-3.69554E-02-5.90028E-04-1.81812E-01 8.01373E-14 2.43249E-14
 -1      2818 1.98921E+01-3.24593E-02 3.56923E-04-1.47131E-01 4.87785E-14-1.99920E-14
 -1      2819 1.98759E+01-3.38594E-02-2.85159E-04-1.55609E-01 3.92456E-14 5.97887E-15
 -1      2820 1.99281E+01-4.11729E-02-3.92420E-04-1.68310E-01 5.60904E-14 4.25751E-14
 -1      2821 1.99137E+01-2.71323E-02 4.00139E-04-1.31425E-01 8.64707E-14 1.30483E-14
 -1      2822 1.98974E+01-3.04407E-02-3.99401E-04-1.38987E-01 7.80724E-14-2.07339E-14
 -1      2823 1.99383E+01-3.86126E-02-2.67640E-04-1.52402E-01 7.22358E-14 2.54244E-14
 -1      2824 1.99361E+01-1.87831E-02 4.67650E-04-1.19260E-01 1.01148E-15 3.54530E-14
 -1      2825 1.99198E+01-2.35604E-02-4.49614E-04-1.24763E-01 5.69680E-14 2.82905E-14
 -1      2826 1.99509E+01-3.11716E-02-1.99103E-04-1.37800E-01 5.88291E-14 1.28471E-13
 -1      2827 1.99594E+01-7.90886E-03 5.66503E-04-1.12673E-01 4.50922E-14 8.85792E-14
 -1      2828 1.99429E+01-1.39530E-02-4.62479E-04-1.15202E-01 1.28963E-14 7.89263E-14
 -1      2829 1.99652E+01-1.99750E-02-1.73696E-04-1.27269E-01 6.04310E-15 9.37136E-14
 -1      2830 1.99844E+01 5.36669E-03 7.03562E-04-1.13420E-01 1.23629E-13 1.40780E-13
 -1      2831 1.99670E+01-1.92626E-03-4.57569E-04-1.12159E-01 8.54189E-14 1.21742E-13
 -1      2832 1.99810E+01-5.56298E-03-1.80983E-04-1.23009E-01 2.21521E-14 1.34674E-13
 -1      2833 2.00121E+01 2.12119E-02 8.85682E-04-1.23194E-01 1.33840E-13 2.49607E-13
 -1      2834 1.99929E+01 1.25437E-02-4.49621E-04-1.17326E-01 1.55590E-13 2.35644E-13
 -1      2835 1.99986E+01 1.19754E-02-2.12452E-04-1.26943E-01 8.84328E-14 2.14026E-13
 -1      2836 2.00440E+01 4.00214E-02 1.11958E-03-1.43786E-01 5.14710E-14 2.01992E-13
 -1      2837 2.00218E+01 2.97402E-02-4.50139E-04-1.32422E-01 1.17663E-13 2.28741E-13
 -1      2838 2.00185E+01 3.29021E-02-2.60560E-04-1.40942E-01 1.40522E-13 2.98811E-13
 -1      2839 2.00819E+01 6.23527E-02 1.41127E-03-1.77206E-01-3.67577E-14 7.94810E-14
 -1      2840 2.00553E+01 5.01428E-02-4.68565E-04-1.59333E-01 1.74573E-15 1.14328E-13
 -1      2841 2.00416E+01 5.77452E-02-3.17653E-04-1.66979E-01 5.27988E-14 2.11806E-13
 -1      2842 2.01279E+01 8.88482E-02 1.76474E-03-2.25745E-01 4.40928E-14-2.15962E-14
 -1      2843 2.00952E+01 7.43596E-02-5.13008E-04-2.00200E-01-5.21339E-16 2.63353E-14
 -1      2844 2.00686E+01 8.72122E-02-3.75355E-04-2.07238E-01 3.52500E-14 9.39826E-14
 -1      2845 2.01840E+01 1.20116E-01 2.18006E-03-2.91974E-01 8.36502E-14 2.15108E-15
 -1      2846 2.01435E+01 1.03033E-01-5.90327E-04-2.57460E-01 1.01288E-13 5.89938E-14
 -1      2847 2.01006E+01 1.22078E-01-4.23682E-04-2.64164E-01 4.23539E-14 6.61632E-14
 -1      2848 2.02527E+01 1.56526E-01 2.65035E-03-3.78652E-01 5.70122E-14-2.62112E-14
 -1      2849 2.02023E+01 1.36686E-01-7.05146E-04-3.33797E-01 7.96242E-14-3.85366E-14
 -1      2850 2.01383E+01 1.63008E-01-4.51131E-04-3.40436E-01 9.23253E-14 1.24407E-13
 -1      2851 2.03362E+01 1.97852E-01 3.15731E-03-4.88479E-01 3.74818E-14-1.04807E-14
 -1      2852 2.02740E+01 1.75456E-01-8.56907E-04-4.31997E-01 7.05576E-14-1.29173E-14
 -1      2853 2.01826E+01 2.10265E-01-4.46457E-04-4.38840E-01 3.26784E-14 2.38961E-14
 -1      2854 2.04368E+01 2.42629E-01 3.66494E-03-6.23627E-01-3.50323E-14-1.05719E-14
 -1      2855 2.03607E+01 2.18621E-01-1.03344E-03-5.54617E-01 1.74849E-15 5.29103E-14
 -1      2856 2.02340E+01 2.63183E-01-4.04088E-04-5.62003E-01-4.84081E-15 9.76527E-14
 -1      2857 2.05569E+01 2.87051E-01 4.11153E-03-7.84887E-01-1.00845E-13-1.51053E-13
 -1      2858 2.04648E+01 2.63752E-01-1.19855E-03-7.03373E-01-4.45963E-14-2.56993E-14
 -1      2859 2.02930E+01 3.19258E-01-3.36693E-04-7.11918E-01-1.04953E-14 1.03626E-13
 -1      2860 2.06995E+01 3.23138E-01 4.39983E-03-9.70255E-01-1.53226E-13-1.62099E-13
 -1      2861 2.05895E+01 3.05302E-01-1.27005E-03-8.78091E-01-1.14900E-13-1.29660E-13
 -1      2862 2.03605E+01 3.72619E-01-3.00485E-04-8.89151E-01-9.92858E-14 5.17529E-14
 -1      2863 2.08701E+01 3.35939E-01 4.38705E-03-1.17266E+00-4.83645E-14-9.21430E-14
 -1      2864 2.07394E+01 3.32324E-01-1.08415E-03-1.07497E+00-7.41972E-14-1.30481E-13
 -1      2865 2.04390E+01 4.11557E-01-4.40648E-04-1.09162E+00-1.48847E-13 2.30274E-14
 -1      2866 2.10787E+01 2.99764E-01 3.87170E-03-1.37652E+00-1.32977E-13 2.20841E-14
 -1      2867 2.09237E+01 3.25174E-01-3.40191E-04-1.28383E+00-1.33504E-13-3.75763E-14
 -1      2868 2.05355E+01 4.14893E-01-1.06010E-03-1.31272E+00-1.08090E-13 1.19182E-13
 -1      2869 2.13461E+01 1.74380E-01 2.55931E-03-1.55275E+00-5.76322E-14 2.43127E-14
 -1      2870 2.11600E+01 2.51532E-01 1.46304E-03-1.48389E+00-5.43139E-14 3.98812E-14
 -1      2871 2.06663E+01 3.47363E-01-2.70387E-03-1.53840E+00-1.21970E-13 2.29940E-13
 -1      2872 2.17102E+01-9.53372E-02 2.05778E-05-1.65194E+00-1.18135E-15 1.10337E-13
 -1      2873 2.14818E+01 6.36336E-02 5.08311E-03-1.63747E+00-1.60591E-14 1.17232E-13
 -1      2874 2.08655E+01 1.55539E-01-6.21206E-03-1.74266E+00-1.07706E-13 2.22090E-13
 -1      2875 2.22306E+01-5.67795E-01-4.87030E-03-1.59618E+00 6.83099E-14 2.44533E-13
 -1      2876 2.19459E+01-2.97551E-01 1.14846E-02-1.68099E+00 6.03569E-14 1.87105E-13
 -1      2877 2.11960E+01-2.30511E-01-1.25101E-02-1.87965E+00 1.44011E-14 2.06801E-13
 -1      2878 2.29808E+01-1.25464E+00-1.29529E-02-1.26877E+00-2.00414E-13 3.21785E-13
 -1      2879 2.26338E+01-8.77670E-01 2.08774E-02-1.51018E+00-2.91544E-14 3.62067E-13
 -1      2880 2.17626E+01-8.79679E-01-2.21692E-02-1.86885E+00-2.43612E-14 3.56858E-13
 -1      2881 2.39920E+01-2.01472E+00-2.37467E-02-5.33000E-01-3.02924E-13 4.62375E-13
 -1      2882 2.36087E+01-1.62912E+00 2.89173E-02-9.78544E-01-2.84752E-13 3.99214E-13
 -1      2883 2.26991E+01-1.77608E+00-3.26019E-02-1.56028E+00-2.80373E-13 4.29166E-13
 -1      2884 2.51779E+01-2.40051E+00-2.40617E-02 6.82193E-01-1.18532E-13 6.42515E-13
 -1      2885 2.48352E+01-2.29033E+00 2.79347E-02 5.15001E-02-2.21015E-13 5.81921E-13
 -1      2886 2.40652E+01-2.69707E+00-4.66755E-02-7.74513E-01-3.70056E-13 5.07239E-13
 -1      2887 2.61577E+01-1.64555E+00-3.66355E-02 2.14024E+00-2.38351E-15 7.31516E-13
 -1      2888 2.60073E+01-2.21817E+00-1.10388E-02 1.53715E+00-3.60137E-14 7.39286E-13
 -1      2889 2.58044E+01-2.87708E+00-1.66170E-02 6.82162E-01-1.50808E-13 8.06859E-13
 -1      2890 2.69897E+01 3.71976E+00-1.53285E-01 2.02356E+00 8.04329E-13 2.78239E-13
 -1      2891 2.73430E+01 2.36304E+00-1.51575E-01 2.82141E+00 7.02244E-13 4.57086E-13
 -1      2892 2.69256E+01 4.77951E+00-2.05192E-01-2.71329E-01 5.48728E-13 2.03543E-13
 -1      2893 2.70290E+01 4.73773E+00-2.26497E-01 9.01395E-01 6.80261E-13 1.41519E-13
 -1      2894 2.71511E+01 1.80622E+00-1.41739E-01-2.34471E+00-2.97123E-14 2.45633E-13
 -1      2895 2.68825E+01 3.24267E+00-1.14102E-01-1.73186E+00 3.12333E-13 3.78721E-13
 -1      2896 2.55386E+01-2.34877E+00-2.81605E-03-6.95729E-01-2.63439E-13-5.25691E-14
 -1      2897 2.57551E+01-1.96823E+00-2.63024E-02-1.29535E+00-3.26494E-13-2.30571E-14
 -1      2898 2.42518E+01-2.24502E+00 2.76162E-02 7.42239E-01-2.00142E-13 7.74728E-14
 -1      2899 2.46662E+01-2.43468E+00-2.79215E-02 1.25394E-01-2.33126E-13-6.41787E-14
 -1      2900 2.52903E+01-3.01525E+00-4.52429E-02 2.32346E-01-3.08475E-13 4.08881E-13
 -1      2901 2.29841E+01-1.50944E+00 2.87371E-02 1.69675E+00 1.06907E-13 6.94813E-14
 -1      2902 2.34201E+01-1.92609E+00-2.16310E-02 1.28432E+00-4.95107E-14 3.71942E-14
 -1      2903 2.36237E+01-2.59183E+00-3.80500E-02 1.57455E+00-1.20184E-13 2.99412E-13
 -1      2904 2.20089E+01-7.07836E-01 2.56067E-02 2.13516E+00 6.83574E-14 4.11724E-14
 -1      2905 2.23780E+01-1.11255E+00-1.17999E-02 1.94042E+00 1.89544E-13 1.16264E-13
 -1      2906 2.22792E+01-1.60030E+00-3.08753E-02 2.27053E+00 8.96785E-14 4.16468E-14
 -1      2907 2.12867E+01-1.10934E-01 1.57975E-02 2.25304E+00 1.43486E-13-1.78700E-13
 -1      2908 2.15869E+01-4.43399E-01-6.55025E-03 2.23823E+00 1.43742E-13-8.57262E-14
 -1      2909 2.13582E+01-7.33641E-01-2.68189E-02 2.54786E+00 2.24829E-13-3.24797E-14
 -1      2910 2.07205E+01-2.76880E-02-2.24442E-02 2.57457E+00-5.26170E-14-2.35222E-13
 -1      2911 1.82005E+01 2.11834E+00 9.62567E-04-6.84704E-01 2.58885E-13-4.85269E-14
 -1      2912 1.80762E+01 2.17932E+00-1.34368E-02-1.90346E-01 3.66884E-13 1.50726E-14
 -1      2913 2.09212E+01-1.01392E-01-3.98396E-03-1.19516E+00-9.28503E-15-4.06832E-13
 -1      2914 2.07921E+01 6.09761E-02 6.39777E-03-1.17741E+00-9.17586E-14-1.23709E-13
 -1      2915 2.10302E+01-2.53869E-01-4.81730E-03-1.39713E+00-6.18083E-14-6.00971E-13
 -1      2916 1.84110E+01 1.95417E+00-2.03645E-02 1.44387E+00 3.76215E-13 1.54200E-13
 -1      2917 1.87255E+01 1.79996E+00 1.27423E-02 1.81364E+00 3.48190E-13 3.17130E-13
 -1      2918 1.87394E+01 1.73813E+00 1.24117E-02-1.57746E+00 1.30121E-13-1.51359E-13
 -1      2919 1.84247E+01 1.89953E+00-2.14839E-02-1.21060E+00 2.20991E-13-3.13323E-13
 -1      2920 1.79430E+01 1.71849E+00 1.66179E-02-1.09785E+00 2.95325E-13-2.61818E-13
 -1      2921 1.80723E+01 2.19686E+00-1.24394E-02 4.21564E-01 3.01203E-13-9.11983E-14
 -1      2922 1.81902E+01 2.13922E+00-1.20722E-04 9.17651E-01 3.85803E-13 5.08024E-14
 -1      2923 1.79261E+01 1.78016E+00 1.45794E-02 1.31203E+00 3.61771E-13 4.62137E-14
 -1      2924 1.76408E+01 1.93459E+00 1.61630E-02 1.07452E-01 4.10453E-13 3.05102E-14
 -1      2925 2.87135E+01 6.75257E+00-1.69542E-01-4.27783E-01-3.01786E-13 2.96778E-13
 -1      2926 2.85525E+01 5.93248E+00-1.60050E-01-1.40785E+00-3.68261E-13 2.39836E-13
 -1      2927 1.94431E+01 1.21436E+00 1.58787E-02-2.05300E+00 1.27155E-13 4.97706E-14
 -1      2928 1.90774E+01 1.42192E+00-2.04922E-02-1.87726E+00 1.10098E-13 1.69879E-13
 -1      2929 1.86633E+01 1.21581E+00 3.59742E-03-1.95669E+00 1.90082E-13-1.28951E-13
 -1      2930 2.00981E+01 7.01961E-01 1.40125E-02-2.11599E+00 1.68984E-13-9.49538E-14
 -1      2931 1.97831E+01 9.12554E-01-1.30126E-02-2.11828E+00 8.31951E-14 7.79359E-14
 -1      2932 1.95261E+01 6.45045E-01-7.21110E-03-2.31790E+00 7.24247E-16 1.17259E-13
 -1      2933 2.05424E+01 3.31671E-01 1.19614E-02-1.86744E+00 1.73635E-13-4.57463E-13
 -1      2934 2.03428E+01 4.97375E-01-3.72310E-03-1.99493E+00 2.29839E-13-2.63478E-13
 -1      2935 2.02721E+01 1.84039E-01-1.02546E-02-2.23276E+00 1.69772E-14-9.60741E-14
 -1      2936 1.63649E+01-4.68216E+00 2.67482E-02 6.66779E+00-6.54032E-13 5.56222E-13
 -1      2937 1.35663E+01-3.65767E+00 1.57333E-01 6.25280E+00-5.62009E-13 6.27609E-13
 -1      2938 2.29604E+01-5.48347E+00-4.32960E-02 4.73064E+00 1.56292E-13 9.09273E-14
 -1      2939 2.04166E+01-5.29556E+00 6.59286E-02 5.55634E+00 2.16771E-13 1.29195E-13
 -1      2940 1.05040E+01-2.70972E+00 8.22427E-02 5.50018E+00-3.55424E-13 3.28931E-13
 -1      2941 8.23573E+00-1.56237E+00 1.71442E-01 3.47863E+00-1.30354E-13 2.77806E-13
 -1      2942 1.29734E+01-3.63753E+00 1.72230E-01-6.36526E+00-2.73476E-13-7.02105E-13
 -1      2943 1.62175E+01-4.86519E+00-2.54874E-02-6.90979E+00-1.94345E-13-2.56531E-13
 -1      2944 2.74511E+01-4.95944E+00-1.15288E-01 2.03957E+00-3.38077E-13 1.25344E-13
 -1      2945 2.57216E+01-5.30536E+00 9.77420E-02 3.21780E+00-4.12455E-13 1.86642E-13
 -1      2946 2.49352E+01-5.37426E+00 1.00162E-01-3.15161E+00 8.81378E-14 2.28921E-13
 -1      2947 2.70740E+01-4.73229E+00-1.11959E-01-1.55541E+00 2.53679E-13 3.96738E-13
 -1      2948 2.87534E+01 4.05052E+00-1.86005E-01-2.12215E+00-3.63209E-13 3.16872E-13
 -1      2949 2.92617E+01 2.17558E+00-6.90382E-02-2.07308E+00-1.01280E-13 1.44024E-13
 -1      2950 2.01804E+01 2.27258E+00 3.33552E-04-1.42406E+00-3.71738E-13-1.26947E-13
 -1      2951 1.99601E+01 2.30961E-01-7.71889E-04 6.37496E-02 1.74838E-13-1.22358E-13
 -1      2952 2.00258E+01 3.14808E-01 7.82294E-03 1.61489E-01 2.16437E-13-1.08327E-13
 -1      2953 2.00557E+01 2.65662E-01-2.69210E-03 6.17384E-02 1.77238E-13-1.26990E-13
 -1      2954 1.98404E+01 7.28547E-03 2.10095E-04-1.75918E-01 6.19261E-14-7.42426E-14
 -1      2955 1.98403E+01 2.63713E-02 1.78728E-03-1.64653E-01 7.47574E-14-8.36745E-14
 -1      2956 1.99506E+01 5.43808E-02-1.78344E-03-1.44896E-01 7.02690E-14-6.23785E-14
 -1      2957 1.99289E+01 5.15239E-03-1.27733E-03-1.78870E-01 4.92512E-14-2.90103E-14
 -1      2958 2.03125E+01 1.06015E+00 3.23428E-03-8.58198E-01-3.03360E-13-2.73232E-14
 -1      2959 2.02251E+01 8.16155E-01-5.62366E-03-6.12877E-01-2.62820E-13-3.51553E-14
 -1      2960 2.02587E+01 8.83324E-01-2.86485E-03-5.70190E-01-2.50400E-13-8.76278E-14
 -1      2961 2.02908E+01-5.42849E+00 1.52709E-01-6.09508E+00-2.01977E-13 2.16679E-13
 -1      2962 2.35497E+01-5.76187E+00-7.64553E-02-4.95644E+00-3.36342E-13 1.13642E-13
 -1      2963 1.99243E+01 2.59542E+00-7.88677E-03 7.95068E-01 2.00850E-13-3.92202E-13
 -1      2964 1.98807E+01 2.68756E+00-6.12380E-03 6.45987E-01 1.41326E-13-3.93081E-13
 -1      2965 1.99995E+01 2.38786E+00 4.33290E-03 5.17242E-01 1.15152E-13-3.66783E-13
 -1      2966 2.00806E+01 2.19013E+00 5.59705E-03 7.46437E-01 1.87338E-13-3.39292E-13
 -1      2967 2.27533E+01-5.76333E+00-6.52127E-02 5.09520E+00-4.45088E-13 1.41618E-13
 -1      2968 1.95182E+01-5.34562E+00 1.13561E-01 6.11834E+00-6.11566E-13 2.58828E-13
 -1      2969 1.90708E+01-4.43865E+00 1.30197E-01 5.76922E+00-5.62508E-13 3.88023E-13
 -1      2970 2.84989E+01-2.90531E+00-6.83121E-03-5.92505E-01-3.29181E-13-3.06838E-14
 -1      2971 2.90976E+01-7.76887E-01-1.79181E-01 7.94499E-01-4.21829E-13-9.68114E-14
 -1      2972 1.98757E+01 2.69591E+00-6.14729E-03-6.35633E-01-1.86921E-13-3.62002E-13
 -1      2973 1.99186E+01 2.60626E+00-7.71425E-03-7.85202E-01-2.35057E-13-3.40714E-13
 -1      2974 2.83462E+01 5.35678E+00-1.29015E-01 1.37753E+00-1.54460E-13 3.51857E-13
 -1      2975 2.83325E+01 6.26397E+00-1.99888E-01 4.89623E-01-2.18270E-13 3.45236E-13
 -1      2976 6.22678E+00-1.15970E+00 1.35219E-01 1.95168E+00 2.32148E-13-7.90229E-13
 -1      2977 5.69982E+00-1.12949E+00 1.63212E-01-8.25082E-02 1.93498E-13-6.87617E-13
 -1      2978 1.06934E+01-3.01986E+00 1.63204E-01-5.34758E+00-3.15997E-13-1.09293E-12
 -1      2979 1.35685E+01-4.08349E+00 6.10567E-02-6.12702E+00-4.09589E-13-1.08960E-12
 -1      2980 2.90274E+01-2.25218E-01-1.96517E-01-1.31218E+00-4.33126E-14 1.19488E-13
 -1      2981 2.85201E+01-2.07182E+00-4.01530E-03-2.69027E-01 1.92901E-15 1.49922E-13
 -1      2982 6.24311E+00-1.36287E+00 1.57991E-01-1.91284E+00 1.35364E-13-5.20806E-13
 -1      2983 7.93863E+00-2.03191E+00 9.69684E-02-4.01782E+00-9.94343E-14-7.61669E-13
 -1      2984 1.81687E+01-4.98806E+00 6.04696E-02 6.31882E+00 2.26402E-13 2.15647E-13
 -1      2985 1.53922E+01-4.24694E+00 9.69305E-02 6.38112E+00 3.03896E-13 1.01433E-13
 -1      2986 2.03345E+01-4.82071E+00 7.71947E-02 5.25291E+00 3.38340E-13 7.58785E-14
 -1      2987 2.00692E+01 4.15233E-01-1.54676E-03 2.88877E-01 2.56796E-13-1.31402E-13
 -1      2988 2.01704E+01 5.53520E-01 1.04314E-02 4.51514E-01 2.91085E-13-1.23639E-13
 -1      2989 2.02531E+01 8.21247E-01 6.07960E-04 6.18220E-01 3.06001E-13-1.58725E-13
 -1      2990 2.01454E+01 4.76715E-01-2.14894E-03 2.81550E-01 2.32764E-13-1.36605E-13
 -1      2991 2.07284E+01 1.32762E-01-2.24967E-03-1.35213E+00-1.28526E-14-3.02633E-13
 -1      2992 2.71566E+01-4.02372E+00-1.50165E-01 1.48850E+00 1.06547E-13 7.80903E-14
 -1      2993 2.52624E+01-4.91837E+00 3.63146E-02 3.14815E+00 1.25892E-13 7.99222E-14
 -1      2994 2.44401E+01-4.92770E+00 4.29577E-02 3.19345E+00 1.53703E-13 5.69336E-14
 -1      2995 2.89404E+01 1.62306E+00-7.02483E-02 1.79296E+00-2.94015E-13 1.05888E-13
 -1      2996 2.84995E+01 3.39641E+00-2.12194E-01 1.76928E+00-1.14908E-14 2.48163E-13
 -1      2997 2.59731E+01-5.06834E+00 6.19562E-02-3.32859E+00-2.40585E-13 1.18405E-13
 -1      2998 2.72276E+01-4.52276E+00-1.20446E-01-2.27966E+00-2.29719E-13 1.99382E-13
 -1      2999 2.75702E+01-3.61199E+00-2.15184E-02-8.81336E-01-2.36110E-13-2.30413E-13
 -1      3000 2.44762E+01-5.34423E+00-8.26409E-03-3.88338E+00-3.40061E-13 1.22825E-13
 -1      3001 2.86035E+01-3.49169E+00-1.48791E-02 1.40417E-01 4.40531E-13 5.33878E-13
 -1      3002 2.93368E+01-1.70624E+00-1.29953E-01 1.50040E+00 5.18259E-13 6.07236E-13
 -1      3003 2.73413E+01-4.08157E+00 1.52205E-02-2.98640E-01 9.58678E-14 6.67855E-13
 -1      3004 2.86633E+01 1.50177E+00-1.18572E-01 2.93390E+00 6.31190E-13 3.92186E-13
 -1      3005 2.63899E+01 4.31683E-01-4.27830E-02 2.84075E+00 3.57200E-13 6.63377E-13
 -1      3006 2.65471E+01-7.96626E-01-8.62833E-02 2.78163E+00 1.61513E-13 7.56336E-13
 -1      3007 2.90414E+01-5.16454E-01-1.25427E-01 2.53123E+00 4.58730E-13 4.26603E-13
 -1      3008 1.99721E+01 2.48495E+00-6.80986E-03-9.02751E-01-2.62401E-13-3.08555E-13
 -1      3009 2.00264E+01 2.34031E+00-1.41980E-02-1.04090E+00-3.09806E-13-2.69994E-13
 -1      3010 2.00748E+01 2.20236E+00 5.52960E-03-7.39042E-01-2.40809E-13-2.87838E-13
 -1      3011 1.99345E+01 2.53789E+00 3.43551E-03 4.65603E-03-3.17768E-14-3.92596E-13
 -1      3012 1.97954E+01 2.86937E+00-5.49474E-03-6.19404E-02-6.10887E-14-4.32043E-13
 -1      3013 1.98028E+01 2.85472E+00-5.55335E-03-2.16787E-01-9.89771E-14-4.37683E-13
 -1      3014 9.20050E+00-8.08145E-01 2.04488E-01-2.40221E+00 2.00000E-13-7.01661E-14
 -1      3015 9.27760E+00-7.36785E-01 1.94574E-01 2.19730E+00 3.43128E-14 2.05613E-13
 -1      3016 3.03837E+01 4.76583E-01-1.31975E-01-1.62886E+00 1.46272E-14 1.12799E-13
 -1      3017 2.94772E+01-9.90645E-01 6.61941E-02-1.57138E+00-3.22797E-14 2.18936E-13
 -1      3018 2.90268E+01 1.32227E+00-1.45048E-01-2.34017E+00 4.14807E-14 4.86056E-13
 -1      3019 2.02902E+01 1.58769E+00-1.13024E-03 1.16679E+00 3.49266E-13-2.00098E-13
 -1      3020 2.79753E+01-1.76228E+00-4.37640E-02 1.93483E+00 2.08049E-13 6.92259E-13
 -1      3021 7.75613E+00-5.80628E-01 1.94121E-01-1.04999E+00 1.19675E-13-5.89556E-13
 -1      3022 2.81505E+01 5.58101E-01-6.64650E-02-2.00785E+00-1.40873E-13 2.02283E-13
 -1      3023 1.07087E+01-1.90321E+00 1.78644E-01-4.35774E+00-2.05669E-13-8.52485E-13
 -1      3024 7.94971E+00-1.10057E+00 1.99406E-01 3.14920E+00 2.79513E-13-7.61696E-13
 -1      3025 8.58970E+00-3.78898E-01 1.49968E-01 2.06848E+00 2.17590E-13-7.04103E-13
 -1      3026 9.90752E+00-1.29677E+00 7.69073E-02 4.08640E+00 3.55257E-13-5.39666E-13
 -1      3027 1.86587E+01 1.34399E+00 5.26392E-03 2.18010E+00 2.14897E-13 3.50809E-13
 -1      3028 1.90625E+01 1.51172E+00-2.32140E-02 2.11976E+00 2.27070E-13 3.03778E-13
 -1      3029 1.94678E+01 1.30850E+00 2.07960E-02 2.31392E+00-6.33309E-14 1.03626E-13
 -1      3030 2.65704E+01 5.01166E+00-1.21931E-01-1.56708E+00-3.90438E-13 3.89189E-13
 -1      3031 2.78728E+01 4.61074E+00-1.50574E-01-1.97511E+00-4.18526E-13 2.60403E-13
 -1      3032 2.69510E+01 3.36048E+00-6.58746E-02-2.26131E+00-3.97904E-13 3.23595E-13
 -1      3033 2.71351E+01-1.66525E+00-3.39642E-02 2.22530E+00 6.69534E-14 7.80549E-13
 -1      3034 2.73274E+01-1.95727E+00-1.01417E-01-1.41332E+00-2.79166E-13 2.52347E-13
 -1      3035 2.68203E+01-8.37773E-01-4.47869E-02-2.17956E+00-2.38299E-13 8.55531E-14
 -1      3036 2.66846E+01 5.03612E-01-4.57856E-02-2.32103E+00-1.13597E-13 1.25706E-13
 -1      3037 1.29807E+01-2.57700E+00 1.72274E-01-5.55170E+00-7.74381E-15-4.98740E-13
 -1      3038 2.71468E+01 3.78515E+00-8.67537E-02 1.72008E+00-7.33302E-14 2.67703E-13
 -1      3039 2.70355E+01 5.74899E+00-1.33879E-01 3.18528E-02-2.19408E-13 5.31859E-13
 -1      3040 2.00403E+01 8.65218E-01-1.32781E-02 2.36866E+00-3.91057E-13-2.96342E-14
 -1      3041 2.34242E+01-5.29480E+00 6.72053E-02-3.74115E+00-1.04000E-13 1.04635E-13
 -1      3042 1.35635E+01-2.50834E+00 1.65767E-01 5.42034E+00-3.50817E-13 3.55563E-13
 -1      3043 2.79671E+01-1.53204E-01-7.46839E-02 1.39638E+00-2.47503E-13-8.64586E-14
 -1      3044 2.06599E+01 2.44729E-01-1.18572E-03-1.54099E+00 9.88848E-14-4.35479E-13
 -1      3045 2.79203E+01-3.90031E+00-1.61846E-01 6.65292E-01-4.19494E-13 1.10953E-13
 -1      3046 2.02802E+01 1.36627E+00 2.30827E-03 9.20828E-01 3.23154E-13-2.07680E-13
 -1      3047 1.91820E+01-4.67751E+00 1.17616E-01-5.95653E+00-2.77833E-13 1.00437E-13
 -1      3048 2.43343E+01-5.09378E+00 1.04373E-01 3.72829E+00-5.41588E-13 2.37820E-13
 -1      3049 1.40595E+01-3.41492E+00 1.39662E-01 6.12980E+00 3.58172E-13-4.78229E-14
 -1      3050 1.27795E+01-2.35952E+00 1.18353E-01 5.43657E+00 3.40422E-13-1.85810E-13
 -1      3051 1.66218E+01-3.56618E+00 7.16969E-02 5.65842E+00 3.58373E-13 7.84997E-14
 -1      3052 2.72616E+01 4.12446E+00-2.38620E-01-1.36288E+00 3.08018E-13 3.39048E-13
 -1      3053 1.98183E+01 2.81921E+00-5.71829E-03-3.52089E-01-1.18459E-13-3.99814E-13
 -1      3054 1.98423E+01 2.77092E+00-6.21070E-03-5.05850E-01-1.65816E-13-3.78757E-13
 -1      3055 1.99953E+01 2.39543E+00 4.25870E-03-5.07888E-01-1.65348E-13-3.37750E-13
 -1      3056 1.99491E+01 2.50379E+00 3.62644E-03-2.56033E-01-1.04606E-13-4.00136E-13
 -1      3057 2.01408E+01 2.12935E+00 1.27870E-03-1.14247E+00-3.24577E-13-2.04410E-13
 -1      3058 2.02908E+01 1.68128E+00-1.10001E-02-1.24896E+00-3.72969E-13-6.97003E-14
 -1      3059 2.02869E+01 1.30283E+00-1.30397E-03-9.75948E-01-3.34491E-13-4.92156E-14
 -1      3060 2.02032E+01 1.85645E+00 8.84495E-03-9.30082E-01-2.95788E-13-1.97969E-13
 -1      3061 1.63102E+01-4.31320E+00 1.25523E-01-5.88977E+00-3.83152E-13-7.01869E-13
 -1      3062 1.86602E+01-4.67486E+00-6.73451E-02-5.20809E+00-3.50303E-13-3.46959E-13
 -1      3063 1.56822E+01-3.37837E+00 1.04923E-01-5.51710E+00-3.86358E-13-7.89729E-13
 -1      3064 2.02753E+01 1.36693E+00 2.28645E-03-8.81231E-01-3.06117E-13-1.09217E-13
 -1      3065 2.73721E+01-3.07219E+00-7.87289E-03 1.63679E-01 9.05387E-14 1.09815E-13
 -1      3066 2.09423E+01-1.55565E-01 1.05335E-02-1.58774E+00-1.07032E-13-5.59418E-13
 -1      3067 2.06824E+01 1.40832E-01-4.00679E-03-1.73979E+00 8.22943E-14-6.16721E-13
 -1      3068 2.07696E+01-1.57572E-01-7.62812E-03-1.94547E+00-7.69372E-15-5.46471E-13
 -1      3069 2.10989E+01-3.98159E-01-3.85101E-03-1.58474E+00-1.38405E-13-6.27259E-13
 -1      3070 2.02400E+01 1.47487E+00-8.01712E-03 8.01963E-01 2.67201E-13-2.21467E-13
 -1      3071 2.02008E+01 1.66936E+00-4.57429E-04 7.47110E-01 2.26491E-13-2.64755E-13
 -1      3072 2.74658E+01-2.94176E+00-6.81022E-02 1.25599E+00 8.92984E-14 8.21981E-13
 -1      3073 2.13435E+01-4.61897E+00-1.81854E-02 4.43098E+00 2.76251E-13 4.22232E-14
 -1      3074 1.94790E+01-4.11728E+00 5.95739E-02 4.99859E+00 3.64292E-13 8.85403E-15
 -1      3075 2.05559E+01-4.43398E+00-5.62194E-02 5.13224E+00-3.78933E-13 3.33809E-13
 -1      3076 1.82468E+01-3.37698E+00 1.16034E-01 5.42314E+00-3.79211E-13 4.53623E-13
 -1      3077 2.02216E+01 4.23206E-01 4.32028E-03-1.21330E-01-1.73075E-13-1.16903E-13
 -1      3078 2.01818E+01 3.15105E-01-2.33470E-03-3.65818E-02-1.60410E-13-1.29929E-13
 -1      3079 2.01679E+01 2.31544E-01 3.17354E-03 2.48793E-02-1.43502E-13-1.13721E-13
 -1      3080 2.01377E+01 1.61132E-01-1.29789E-03 7.58523E-02-1.40016E-13-1.15079E-13
 -1      3081 2.02385E+01 3.31888E-01-8.06209E-04-2.74394E-02-1.40433E-13-1.36932E-13
 -1      3082 2.01210E+01 1.07387E-01 2.23162E-03 1.11764E-01-1.31054E-13-9.40680E-14
 -1      3083 2.01000E+01 6.26005E-02-6.06257E-04 1.39108E-01-1.08811E-13-1.16599E-13
 -1      3084 2.01980E+01 1.67759E-01-1.01872E-03 7.52671E-02-1.21207E-13-1.25999E-13
 -1      3085 2.00839E+01 2.90891E-02 1.45802E-03 1.57033E-01-6.22098E-14-1.13248E-13
 -1      3086 2.00705E+01 1.93103E-03-1.61850E-04 1.68651E-01-5.10322E-14-9.13203E-14
 -1      3087 2.01592E+01 6.22817E-02-9.77346E-04 1.33502E-01-8.16593E-14-1.26482E-13
 -1      3088 2.00561E+01-1.76356E-02 8.65432E-04 1.74624E-01-3.68845E-14-3.15858E-14
 -1      3089 2.00485E+01-3.25589E-02 1.18946E-04 1.76382E-01-4.20672E-14 2.65503E-15
 -1      3090 2.01255E+01-2.48890E-03-8.51428E-04 1.60816E-01-1.85198E-14-9.93856E-14
 -1      3091 2.00364E+01-4.24359E-02 4.33214E-04 1.75054E-01-5.88683E-14 2.61242E-14
 -1      3092 2.00330E+01-4.88296E-02 2.94307E-04 1.71229E-01-6.00511E-14 8.29128E-14
 -1      3093 2.00976E+01-3.87950E-02-7.08261E-04 1.68049E-01-2.28095E-14-7.01395E-15
 -1      3094 2.00230E+01-5.19349E-02 1.27730E-04 1.66065E-01-1.07542E-13 1.11541E-13
 -1      3095 2.00226E+01-5.23417E-02 4.05115E-04 1.59740E-01-1.13166E-13 9.07967E-14
 -1      3096 2.00752E+01-5.51365E-02-5.72588E-04 1.63496E-01-7.23352E-14 4.79346E-14
 -1      3097 2.00146E+01-5.06561E-02-8.58183E-05 1.53281E-01-9.81803E-14 1.32361E-13
 -1      3098 2.00163E+01-4.67840E-02 4.79730E-04 1.46691E-01-6.87570E-14 1.28495E-13
 -1      3099 2.00577E+01-5.73961E-02-4.53444E-04 1.53317E-01-9.78734E-14 1.17392E-13
 -1      3100 2.00099E+01-4.16151E-02-2.36991E-04 1.40808E-01-7.62887E-14 1.15574E-13
 -1      3101 2.00132E+01-3.45637E-02 5.38095E-04 1.35596E-01-1.61379E-14 8.12943E-14
 -1      3102 2.00443E+01-4.95562E-02-3.53172E-04 1.42057E-01-6.81022E-14 1.35466E-13
 -1      3103 2.00080E+01-2.67265E-02-3.49949E-04 1.31698E-01 1.97875E-14 4.71197E-14
 -1      3104 2.00126E+01-1.71463E-02 5.94506E-04 1.29120E-01 1.12928E-14 3.79427E-14
 -1      3105 2.00342E+01-3.42014E-02-2.69047E-04 1.33103E-01-3.50141E-14 4.18449E-14
 -1      3106 2.00083E+01-7.09369E-03-4.43707E-04 1.28320E-01 8.02451E-15 3.80552E-15
 -1      3107 2.00139E+01 4.68977E-03 6.59175E-04 1.29398E-01-3.57075E-17 4.94803E-16
 -1      3108 2.00265E+01-1.28870E-02-1.97915E-04 1.29057E-01-1.63337E-14-3.01011E-14
 -1      3109 2.00101E+01 1.67573E-02-5.32438E-04 1.32642E-01-3.36769E-14 1.89666E-14
 -1      3110 2.00168E+01 3.06345E-02 7.39163E-04 1.38268E-01-5.71539E-14-3.15582E-14
 -1      3111 2.00204E+01 1.35788E-02-1.35676E-04 1.32040E-01-2.99855E-14-6.52873E-14
 -1      3112 2.00131E+01 4.46691E-02-6.26051E-04 1.46423E-01-9.21040E-14-2.95208E-14
 -1      3113 2.00210E+01 6.06408E-02 8.38633E-04 1.57431E-01-9.56120E-14-9.37390E-14
 -1      3114 2.00152E+01 4.48830E-02-7.86990E-05 1.43903E-01-8.84924E-14-1.25681E-13
 -1      3115 2.00170E+01 7.66417E-02-7.30006E-04 1.71343E-01-5.67650E-14-8.20360E-14
 -1      3116 2.00264E+01 9.47006E-02 9.59039E-04 1.88536E-01-5.91467E-14-5.78271E-14
 -1      3117 2.00102E+01 8.09647E-02-2.43483E-05 1.66387E-01-7.66002E-14-1.17062E-13
 -1      3118 2.00217E+01 1.12590E-01-8.44812E-04 2.09046E-01-4.78270E-14 6.28959E-14
 -1      3119 2.00329E+01 1.32578E-01 1.09910E-03 2.33179E-01-4.73670E-14 5.08144E-14
 -1      3120 2.00045E+01 1.21745E-01 2.81503E-05 2.01192E-01-1.74589E-14-4.44950E-14
 -1      3121 2.00272E+01 1.52048E-01-9.64665E-04 2.61106E-01-1.05518E-13 2.45000E-14
 -1      3122 2.00406E+01 1.73470E-01 1.25500E-03 2.92821E-01-2.85156E-14-8.44636E-15
 -1      3123 1.99976E+01 1.66805E-01 7.59189E-05 2.49988E-01-7.78524E-14-4.15520E-14
 -1      3124 2.00340E+01 1.93773E-01-1.07498E-03 3.28898E-01-2.81556E-14-4.38410E-14
 -1      3125 2.00502E+01 2.15555E-01 1.42071E-03 3.68601E-01-4.46063E-14-4.89687E-14
 -1      3126 1.99891E+01 2.14969E-01 1.09834E-04 3.14337E-01-7.81111E-14-1.39532E-13
 -1      3127 2.00429E+01 2.35237E-01-1.14875E-03 4.13364E-01 3.00071E-14-8.67649E-14
 -1      3128 2.00629E+01 2.55399E-01 1.58874E-03 4.61026E-01 3.16629E-14-1.13833E-13
 -1      3129 1.99791E+01 2.63766E-01 1.10242E-04 3.95537E-01-2.15735E-14-9.14118E-14
 -1      3130 2.00558E+01 2.71935E-01-1.14115E-03 5.14646E-01-7.09572E-14-6.57682E-14
 -1      3131 2.00810E+01 2.87177E-01 1.75123E-03 5.69523E-01-1.07444E-13-4.06420E-14
 -1      3132 1.99687E+01 3.08717E-01 4.03738E-05 4.94379E-01 1.68093E-14-8.52928E-14
 -1      3133 2.00763E+01 2.96530E-01-9.81902E-04 6.31565E-01-1.21825E-13 1.55574E-14
 -1      3134 2.01091E+01 3.01728E-01 1.90045E-03 6.91809E-01-1.11055E-13 4.63516E-14
 -1      3135 1.99602E+01 3.42429E-01-1.63250E-04 6.10788E-01-6.43472E-14-3.59427E-15
 -1      3136 2.01107E+01 2.97841E-01-5.64892E-04 7.60892E-01-2.62234E-14 2.62125E-14
 -1      3137 2.01549E+01 2.85515E-01 2.02537E-03 8.23039E-01 5.01286E-14 4.98446E-14
 -1      3138 1.99591E+01 3.53505E-01-6.03835E-04 7.43332E-01-4.51884E-14 7.90597E-14
 -1      3139 2.01698E+01 2.59859E-01 2.65059E-04 8.96331E-01 4.72996E-14 8.26064E-14
 -1      3140 2.02314E+01 2.19779E-01 2.09460E-03 9.54616E-01 1.52795E-14 1.31738E-13
 -1      3141 1.99749E+01 3.25387E-01-1.44002E-03 8.88521E-01 2.56406E-14 5.55273E-14
 -1      3142 2.02710E+01 1.61217E-01 1.72246E-03 1.02701E+00 1.13296E-14 1.64965E-13
 -1      3143 2.03590E+01 8.05597E-02 2.01652E-03 1.07244E+00 9.97828E-15 2.24421E-13
 -1      3144 2.00241E+01 2.35455E-01-2.90112E-03 1.03968E+00 5.93474E-14 1.58678E-13
 -1      3145 2.04408E+01-2.38477E-02 4.09227E-03 1.13510E+00-3.37536E-14 2.59489E-13
 -1      3146 2.05672E+01-1.58966E-01 1.55398E-03 1.15423E+00 2.20657E-15 3.18681E-13
 -1      3147 2.01330E+01 5.51990E-02-5.27712E-03 1.18496E+00 5.41000E-14 1.99646E-13
 -1      3148 2.07164E+01-3.21073E-01 7.66046E-03 1.19207E+00-4.27331E-14 3.67388E-13
 -1      3149 2.08947E+01-5.21032E-01 1.98914E-04 1.16545E+00 5.12616E-14 3.06815E-13
 -1      3150 2.03409E+01-2.46708E-01-8.84175E-03 1.30352E+00 6.80570E-15 2.95982E-13
 -1      3151 2.11437E+01-7.44533E-01 1.25951E-02 1.15285E+00-3.26913E-14 2.35575E-13
 -1      3152 2.13838E+01-1.00561E+00-2.82324E-03 1.05390E+00-8.50817E-14 2.19545E-13
 -1      3153 2.07020E+01-6.95144E-01-1.36385E-02 1.35868E+00-1.89866E-14 1.85528E-13
 -1      3154 2.17649E+01-1.27148E+00 1.83071E-02 9.49428E-01-8.95724E-15 1.36288E-13
 -1      3155 2.20618E+01-1.55469E+00-7.93030E-03 7.46608E-01 5.05509E-14 7.24874E-14
 -1      3156 2.12804E+01-1.28509E+00-1.87038E-02 1.28686E+00-5.40944E-14 2.12482E-15
 -1      3157 2.25848E+01-1.79730E+00 2.18780E-02 4.94982E-01 2.24842E-14 1.14313E-13
 -1      3158 2.29016E+01-2.00040E+00-1.52124E-02 1.65889E-01-6.84316E-14 1.30996E-13
 -1      3159 2.21266E+01-1.93214E+00-2.10844E-02 9.88407E-01 5.43415E-14-1.77655E-13
 -1      3160 2.35136E+01-2.07624E+00 1.67155E-02-2.82311E-01-4.27445E-14 1.92374E-13
 -1      3161 2.37682E+01-2.01083E+00-2.16298E-02-7.10772E-01-4.98919E-14 2.44795E-13
 -1      3162 2.32261E+01-2.40206E+00-1.57379E-02 3.45941E-01 6.29065E-15-7.67643E-14
 -1      3163 2.42950E+01-1.69923E+00-6.66546E-03-1.31417E+00-8.51914E-14 3.16720E-13
 -1      3164 2.43953E+01-1.14280E+00-1.54137E-02-1.70026E+00-7.49270E-14 3.03684E-13
 -1      3165 2.43721E+01-2.28287E+00-1.67678E-02-6.90500E-01-1.53662E-14 9.71749E-14
 -1      3166 2.46087E+01-3.39286E-01-5.23740E-02-2.18293E+00-9.70769E-14 3.02726E-13
 -1      3167 2.45187E+01 7.26070E-01 6.95067E-03-2.28427E+00-1.30222E-13 2.25423E-13
 -1      3168 2.51783E+01-1.00654E+00-3.11765E-02-1.86942E+00-9.27765E-14 2.12507E-13
 -1      3169 2.46975E+01 2.33204E+00-7.98400E-02-2.15680E+00-2.34663E-13 9.41920E-14
 -1      3170 2.45090E+01 3.34569E+00-4.75199E-02-1.70638E+00-2.86521E-13-7.70217E-16
 -1      3171 2.40127E+01 3.39836E+00-3.86323E-02 7.71595E-01 2.45498E-14 1.84670E-14
 -1      3172 2.40700E+01 2.68559E+00-9.08171E-02 1.36138E+00 5.85920E-14 2.78102E-14
 -1      3173 2.52161E+01 2.01670E+00-4.99423E-02 1.83553E+00-1.57721E-14 8.62973E-14
 -1      3174 2.53866E+01 7.51757E-01-6.76426E-02 1.90503E+00-5.52440E-14-2.03674E-14
 -1      3175 2.40927E+01-1.90718E+00-1.77149E-02 5.38764E-01 2.21817E-13-1.70635E-13
 -1      3176 2.38651E+01-2.11644E+00 1.08430E-02 8.34417E-02 3.30275E-13-2.17251E-13
 -1      3177 2.32673E+01-2.13081E+00-1.81060E-02-4.48429E-01 2.61931E-13-9.95937E-14
 -1      3178 2.29437E+01-1.96410E+00 2.07383E-02-8.28101E-01 1.52667E-13-2.18208E-13
 -1      3179 2.38007E+01-2.53551E+00-2.00264E-02-5.67423E-01 3.32386E-13-1.14594E-13
 -1      3180 2.23807E+01-1.71228E+00-1.22107E-02-1.15408E+00-4.82704E-14-3.40258E-13
 -1      3181 2.20438E+01-1.37744E+00 1.70775E-02-1.39064E+00-1.06857E-13-3.47282E-13
 -1      3182 2.26738E+01-2.13714E+00-2.18032E-02-1.38170E+00-5.13695E-16-9.24438E-14
 -1      3183 2.16650E+01-1.07008E+00-6.50499E-03-1.48891E+00-1.88084E-13-4.34774E-13
 -1      3184 2.13735E+01-7.05872E-01 1.21534E-02-1.59166E+00-1.69954E-13-4.01115E-13
 -1      3185 2.12037E+01-6.46441E-01-3.84992E-03-1.79725E+00-2.79572E-13-5.83313E-13
 -1      3186 2.17978E+01-1.39006E+00-1.22409E-02-1.73712E+00-1.31311E-13-3.32401E-13
 -1      3187 2.69019E+01-2.35453E+00-1.24584E-01-8.76443E-01 1.88460E-14 1.42567E-13
 -1      3188 2.63165E+01-3.56662E+00 5.64214E-02 5.00039E-01 9.86884E-14 1.17517E-13
 -1      3189 1.08109E+01-6.79426E-01 3.11024E-02 3.22955E+00 2.44839E-14 3.01037E-13
 -1      3190 9.71142E+00-3.85608E-02 1.19878E-01 8.78914E-01 1.83147E-13 1.25663E-13
 -1      3191 1.99851E+01-4.31459E-02 3.02734E-04-1.76557E-01 1.67288E-14 4.50257E-15
 -1      3192 1.99840E+01-3.69447E-02 4.21477E-04-1.80852E-01 4.36998E-14-1.55527E-14
 -1      3193 1.99933E+01-2.76438E-02 1.54670E-04-1.82207E-01 7.11962E-14-5.34583E-14
 -1      3194 1.99968E+01-1.37501E-02 9.00137E-04-1.80670E-01 5.80128E-14-6.14191E-14
 -1      3195 2.00506E+01-3.39150E-02-7.62475E-04-1.76986E-01 2.06684E-14-4.23018E-14
 -1      3196 1.99835E+01-4.32605E-02 4.64312E-04-1.49567E-01 3.53305E-14 5.73101E-14
 -1      3197 1.99777E+01-4.62381E-02-1.23973E-04-1.56913E-01 5.18901E-14 1.96739E-14
 -1      3198 1.99876E+01-3.33757E-02 5.23318E-04-1.36806E-01 5.01255E-14 1.32455E-13
 -1      3199 1.99805E+01-3.91818E-02-2.69207E-04-1.42879E-01 6.61153E-14 1.22237E-13
 -1      3200 2.00171E+01-4.72820E-02-3.41382E-04-1.47730E-01 7.16016E-15 2.44498E-14
 -1      3201 1.99941E+01-1.88442E-02 5.88243E-04-1.28484E-01 3.10124E-16 1.02842E-13
 -1      3202 1.99859E+01-2.69264E-02-3.69939E-04-1.32008E-01 3.64611E-14 1.20932E-13
 -1      3203 2.00137E+01-3.44978E-02-2.64071E-04-1.36961E-01 5.06537E-14 4.64250E-14
 -1      3204 2.00025E+01-2.47305E-04 6.69438E-04-1.26820E-01 2.16031E-14 7.64649E-14
 -1      3205 1.99932E+01-1.03833E-02-4.48574E-04-1.26740E-01 1.53020E-14 8.30961E-14
 -1      3206 2.00127E+01-1.62368E-02-2.07067E-04-1.31015E-01 2.33263E-14 3.42047E-14
 -1      3207 2.00127E+01 2.23616E-02 7.74604E-04-1.33783E-01 2.92706E-14 2.06379E-13
 -1      3208 2.00022E+01 1.01381E-02-5.23176E-04-1.29134E-01-2.39945E-14 1.15149E-13
 -1      3209 2.00135E+01 6.92427E-03-1.62966E-04-1.32139E-01-3.15404E-14 5.37832E-14
 -1      3210 2.00248E+01 4.93316E-02 9.09242E-04-1.51295E-01 1.39887E-13 1.78508E-13
 -1      3211 2.00127E+01 3.47924E-02-6.08576E-04-1.41110E-01 1.47942E-13 2.28442E-13
 -1      3212 2.00156E+01 3.50005E-02-1.24671E-04-1.42350E-01 6.88813E-14 1.45465E-13
 -1      3213 2.00389E+01 8.13088E-02 1.07732E-03-1.81378E-01 3.24535E-14 1.75678E-13
 -1      3214 2.00248E+01 6.40850E-02-7.17261E-04-1.64616E-01 1.09222E-13 2.26289E-13
 -1      3215 2.00183E+01 6.84579E-02-8.25310E-05-1.63615E-01 1.06717E-13 1.41314E-13
 -1      3216 2.00549E+01 1.19121E-01 1.27999E-03-2.26236E-01 4.49913E-14 1.12434E-13
 -1      3217 2.00384E+01 9.87649E-02-8.60159E-04-2.01754E-01 6.12238E-14 1.87737E-13
 -1      3218 2.00210E+01 1.08076E-01-2.65529E-05-1.97986E-01 5.19189E-14 1.95335E-13
 -1      3219 2.00729E+01 1.63626E-01 1.51550E-03-2.88292E-01 5.72854E-14 7.63079E-14
 -1      3220 2.00534E+01 1.39695E-01-1.04669E-03-2.54833E-01 2.90930E-14 1.01298E-13
 -1      3221 2.00227E+01 1.54804E-01 5.54911E-05-2.47666E-01 3.30118E-14 1.33611E-13
 -1      3222 2.00923E+01 2.15484E-01 1.77885E-03-3.70133E-01 7.54274E-14 1.42215E-13
 -1      3223 2.00694E+01 1.87669E-01-1.28423E-03-3.26369E-01 1.21374E-13 1.68422E-13
 -1      3224 2.00223E+01 2.09558E-01 1.77467E-04-3.15022E-01 4.35786E-14 2.02166E-13
 -1      3225 2.01126E+01 2.74783E-01 2.06231E-03-4.74371E-01 6.52960E-14 9.92745E-14
 -1      3226 2.00860E+01 2.43123E-01-1.57609E-03-4.18998E-01 7.69270E-14 1.40232E-13
 -1      3227 2.00180E+01 2.72921E-01 3.53469E-04-4.02518E-01 8.88457E-14 2.48436E-13
 -1      3228 2.01325E+01 3.40408E-01 2.35774E-03-6.03390E-01-6.58877E-14 1.17051E-13
 -1      3229 2.01020E+01 3.05652E-01-1.91732E-03-5.35306E-01-2.18872E-14 1.02371E-13
 -1      3230 2.00076E+01 3.44656E-01 5.93693E-04-5.12593E-01 2.15850E-14 1.96033E-13
 -1      3231 2.01510E+01 4.08977E-01 2.66302E-03-7.58942E-01-6.74910E-15 1.35669E-13
 -1      3232 2.01163E+01 3.73185E-01-2.28695E-03-6.77528E-01-8.67656E-15 1.47920E-13
 -1      3233 1.99883E+01 4.22896E-01 8.94972E-04-6.47464E-01-5.07886E-14 8.80715E-14
 -1      3234 2.01674E+01 4.73090E-01 2.99459E-03-9.41561E-01-1.63829E-13 1.22568E-13
 -1      3235 2.01279E+01 4.40623E-01-2.63389E-03-8.47119E-01-1.47373E-14 1.61076E-13
 -1      3236 1.99573E+01 5.02820E-01 1.22164E-03-8.08902E-01-3.32604E-14 2.13648E-13
 -1      3237 2.01838E+01 5.18583E-01 3.40623E-03-1.14978E+00-1.41085E-13 1.02866E-13
 -1      3238 2.01374E+01 4.97630E-01-2.85266E-03-1.04415E+00-1.76312E-13 7.66681E-14
 -1      3239 1.99127E+01 5.74520E-01 1.46953E-03-9.98030E-01-1.01279E-13 1.56071E-13
 -1      3240 2.02083E+01 5.20527E-01 4.01539E-03-1.37903E+00-1.92284E-13 1.72724E-13
 -1      3241 2.01494E+01 5.25286E-01-2.74302E-03-1.26653E+00-1.27829E-13 1.51575E-13
 -1      3242 1.98553E+01 6.19741E-01 1.40280E-03-1.21524E+00-1.33725E-13 1.72960E-13
 -1      3243 2.02618E+01 4.38124E-01 5.01729E-03-1.62006E+00-1.98581E-13 2.44172E-13
 -1      3244 2.01780E+01 4.91500E-01-1.92355E-03-1.50875E+00-2.03676E-13 2.26923E-13
 -1      3245 1.97938E+01 6.07230E-01 5.66332E-04-1.46024E+00-2.45553E-13 1.45801E-13
 -1      3246 2.03882E+01 2.09800E-01 6.57185E-03-1.85594E+00-6.37745E-14 2.88110E-13
 -1      3247 2.02556E+01 3.45810E-01 3.05321E-04-1.75983E+00-9.61381E-14 2.97886E-13
 -1      3248 1.97520E+01 4.86989E-01-1.82113E-03-1.73192E+00-1.70864E-13 2.71209E-13
 -1      3249 2.06696E+01-2.46420E-01 8.87141E-03-2.05478E+00-6.18589E-14 2.43753E-13
 -1      3250 2.04469E+01 1.61322E-02 5.27745E-03-1.99811E+00-6.81089E-14 2.24762E-13
 -1      3251 1.97824E+01 1.84379E-01-6.97993E-03-2.02651E+00-8.54513E-14 1.84353E-13
 -1      3252 2.12457E+01-1.01523E+00 1.30929E-02-2.15293E+00-1.86072E-13 4.30411E-13
 -1      3253 2.08657E+01-5.83556E-01 1.56115E-02-2.17985E+00-4.39835E-14 3.29986E-13
 -1      3254 1.99855E+01-3.97856E-01-1.59204E-02-2.32808E+00-1.37459E-13 1.96356E-13
 -1      3255 2.22968E+01-2.12588E+00 1.09140E-02-2.02508E+00-2.90401E-13 3.82246E-13
 -1      3256 2.16999E+01-1.53417E+00 3.20652E-02-2.21464E+00-2.14781E-13 5.13414E-13
 -1      3257 2.05158E+01-1.35728E+00-3.25075E-02-2.59284E+00-2.24994E-13 3.03740E-13
 -1      3258 2.39166E+01-3.32497E+00-4.68274E-03-1.39149E+00-5.46438E-13 6.02384E-13
 -1      3259 2.31935E+01-2.69804E+00 7.20634E-02-1.82578E+00-4.38357E-13 4.76787E-13
 -1      3260 2.17810E+01-2.80979E+00-6.19584E-02-2.66874E+00-4.03726E-13 4.90436E-13
 -1      3261 2.48862E+01-3.65225E+00 6.04037E-02 1.63658E+00-3.70968E-13 3.30427E-13
 -1      3262 2.58432E+01-3.71330E+00 1.42313E-02 8.28209E-01-4.13487E-13 2.77386E-13
 -1      3263 2.00464E+01 2.15991E+00-4.29722E-03 2.93016E-01 6.64909E-14-3.48484E-13
 -1      3264 2.00333E+01 2.19869E+00-3.32537E-03 1.71138E-01 1.72712E-14-3.45969E-13
 -1      3265 2.47743E+01-4.65033E+00-1.03401E-01 2.20913E+00 1.29723E-13 5.86128E-14
 -1      3266 2.32229E+01-4.69744E+00 6.76638E-02 3.45095E+00 1.66103E-13 6.45491E-14
 -1      3267 2.23737E+01-4.20947E+00 4.59498E-02 3.41467E+00 1.97658E-13-1.10289E-13
 -1      3268 1.75445E+01 1.34509E+00 1.65490E-02-1.58986E+00 2.86841E-13-3.65327E-13
 -1      3269 1.71359E+01 1.50490E+00-2.15999E-02-1.01905E+00 2.41703E-13-2.39361E-13
 -1      3270 2.06505E+01-3.02599E-01 1.50062E-02-2.29824E+00-9.04592E-14-3.11063E-13
 -1      3271 2.02746E+01-1.56212E-01-7.55680E-03-2.45170E+00-1.02523E-13 7.92611E-15
 -1      3272 1.86589E+01 7.31312E-01 2.72205E-02-2.38983E+00 1.82591E-13-9.86602E-14
 -1      3273 1.80701E+01 9.50190E-01-2.57172E-02-2.08542E+00 2.57997E-13-2.51641E-13
 -1      3274 1.74251E+01 8.29413E-01 1.17871E-02-2.10770E+00 2.92284E-13-2.34114E-13
 -1      3275 2.58747E+01 5.16855E+00-9.20961E-02 3.79518E-01-1.46022E-13 4.16471E-13
 -1      3276 2.61264E+01 5.35914E+00-1.44554E-01-6.53076E-01-2.29330E-13 3.71947E-13
 -1      3277 1.98091E+01 1.07046E-01 2.32858E-02-2.59002E+00 1.85767E-15 1.36002E-13
 -1      3278 1.92428E+01 3.25027E-01-2.04574E-02-2.54492E+00 9.07447E-14 8.57996E-14
 -1      3279 1.87790E+01 9.27805E-02-8.74696E-03-2.75460E+00 1.38191E-13-8.99723E-14
 -1      3280 2.00880E+01-4.98822E-01-1.23540E-02-2.72098E+00-7.23974E-14-1.97815E-14
 -1      3281 2.15332E+01-1.32167E+00 3.66196E-02 2.83889E+00 2.15673E-13 3.81523E-13
 -1      3282 2.20629E+01-1.93777E+00 7.69599E-03 2.67929E+00 1.34550E-13 3.82819E-13
 -1      3283 2.28319E+01-2.54776E+00 5.24981E-02 2.56419E+00-1.28500E-14 3.87730E-13
 -1      3284 2.36024E+01-3.17278E+00 1.39387E-03 2.15611E+00-1.12988E-13 3.42514E-13
 -1      3285 2.34960E+01-3.99100E+00-6.41715E-02 2.89751E+00-2.56529E-13 2.39154E-13
 -1      3286 2.16507E+01-2.48069E+00-2.84361E-02 3.28219E+00 6.25472E-14 5.99840E-13
 -1      3287 1.05971E+01-8.44353E-01 1.27891E-01-3.40651E+00 1.81799E-14-5.91638E-13
 -1      3288 1.28734E+01-1.95751E+00 6.92100E-02-4.72508E+00-2.12531E-13-9.61980E-13
 -1      3289 1.99823E+01-4.72365E-02 3.97130E-04-1.64024E-01 5.42844E-14 1.83946E-14
 -1      3290 1.99784E+01-4.64017E-02 9.42662E-05-1.70981E-01 4.06887E-14 3.74047E-14
 -1      3291 2.00345E+01-5.00149E-02-5.84908E-04-1.71941E-01 1.20499E-14 8.36534E-15
 -1      3292 2.00237E+01-5.32411E-02-4.46338E-04-1.60579E-01 3.77223E-14 4.42794E-14
 -1      3293 2.00727E+01 1.50554E-01-1.12109E-03-7.53014E-02 7.33283E-14-9.79817E-14
 -1      3294 2.01052E+01 2.15698E-01 3.69092E-03-2.17959E-02 1.05115E-13-9.62883E-14
 -1      3295 9.77302E+00-8.44335E-02 8.69905E-02-1.25739E+00 2.78793E-13 9.44800E-14
 -1      3296 1.07790E+01-6.71392E-01 6.37182E-02-3.30319E+00 9.61314E-14 7.81181E-14
 -1      3297 2.01242E+01 2.93123E-01-1.98670E-03 4.54784E-02 1.46890E-13-1.19097E-13
 -1      3298 2.01694E+01 3.94056E-01 4.35958E-03 1.35710E-01 1.84453E-13-1.12154E-13
 -1      3299 2.01900E+01 3.15389E-01-1.56559E-03 3.74999E-02 1.07165E-13-9.17705E-14
 -1      3300 2.54922E+01-4.96335E+00-1.37916E-01 2.28850E+00-3.62883E-13 4.39752E-15
 -1      3301 2.35232E+01-4.79811E+00 7.56946E-02 3.76913E+00-3.98008E-13 2.62551E-13
 -1      3302 2.65029E+01-3.79459E+00-2.13022E-02-4.81309E-02-1.32741E-14 6.70283E-13
 -1      3303 1.79759E+01-3.68915E+00 1.53560E-01-5.81503E+00-2.36193E-13-7.88050E-14
 -1      3304 2.08089E+01-4.72336E+00-3.85044E-02-5.26111E+00-2.00256E-13 3.53415E-13
 -1      3305 1.98069E+01 6.66073E-01-4.82503E-03 2.56584E+00-8.80700E-14 2.19050E-13
 -1      3306 2.02894E+01 9.89447E-01-7.78365E-04 6.90981E-01 2.96899E-13-1.71293E-13
 -1      3307 2.02686E+01 1.31102E+00 4.57626E-03 7.74256E-01 2.80287E-13-1.81831E-13
 -1      3308 2.02834E+01 1.13051E+00 5.35362E-03 5.98304E-01 2.41454E-13-1.76009E-13
 -1      3309 2.02317E+01 7.75469E-01-3.85010E-03 4.83888E-01 2.62920E-13-1.47343E-13
 -1      3310 1.55066E+01-2.53087E+00-8.32061E-03 5.40714E+00-2.68729E-13 3.56423E-13
 -1      3311 1.32890E+01-1.29123E+00 1.51340E-01 4.53826E+00-1.06002E-13 3.82513E-13
 -1      3312 2.64298E+01 1.01170E+00-1.57284E-01-2.39506E+00-2.25889E-13 2.87582E-13
 -1      3313 2.67400E+01-5.01365E-01-6.22171E-03-2.03031E+00-8.67847E-14 2.36741E-13
 -1      3314 1.25227E+01-1.61645E+00 1.30556E-01-4.73833E+00 9.47159E-14-3.53939E-13
 -1      3315 1.47945E+01-2.90670E+00-1.47525E-02-5.80749E+00-8.66668E-14-5.01543E-13
 -1      3316 2.17312E+01-4.81621E+00 1.34628E-01-4.26683E+00-3.48450E-13 1.45788E-13
 -1      3317 2.41035E+01-4.87467E+00-3.86630E-02-2.73153E+00-3.41394E-13 6.40056E-13
 -1      3318 2.02478E+01 1.43055E+00-6.96238E-03-8.23878E-01-3.00371E-13-1.47868E-13
 -1      3319 2.02901E+01 1.21974E+00 8.70872E-03-7.18742E-01-2.58256E-13-1.19819E-13
 -1      3320 2.02538E+01 9.56147E-01-5.31583E-03-5.30960E-01-2.33564E-13-1.19476E-13
 -1      3321 2.02015E+01 1.66907E+00-6.02880E-04-7.69515E-01-2.63037E-13-1.97336E-13
 -1      3322 2.02752E+01 7.14167E-01 6.97501E-03-3.45312E-01-1.98814E-13-1.12227E-13
 -1      3323 2.02266E+01 5.48371E-01-4.26564E-03-2.17201E-01-1.81987E-13-1.21532E-13
 -1      3324 2.02721E+01 5.79730E-01-4.08429E-04-1.90408E-01-1.80193E-13-1.31784E-13
 -1      3325 8.71294E+00 1.88189E-02 1.08804E-01-8.50519E-02 8.48111E-14-5.56499E-13
 -1      3326 9.19545E+00-2.30951E-01 9.62074E-02-1.89270E+00 7.95475E-14-3.93713E-13
 -1      3327 2.64110E+01-1.14405E-01-6.71244E-02 1.72108E+00-4.48322E-14 1.47975E-13
 -1      3328 2.46864E+01-7.83274E-01-3.95904E-03 1.43335E+00-5.91020E-15 2.74815E-14
 -1      3329 2.46646E+01-1.52005E+00-2.20753E-02 1.10640E+00 1.16328E-13-1.34674E-13
 -1      3330 2.68811E+01-1.99298E+00-2.68776E-02 9.38523E-01-6.43270E-14-6.27554E-14
 -1      3331 2.55659E+01-3.96722E+00 3.40706E-02-8.59911E-01-2.88552E-13 7.13032E-13
 -1      3332 2.00263E+01 2.21754E+00-3.67916E-03 6.61068E-02 2.90432E-15-3.45783E-13
 -1      3333 2.00259E+01 2.21833E+00-3.66252E-03-5.80943E-02-5.50857E-14-3.74180E-13
 -1      3334 2.01404E+01 1.92173E+00 4.95375E-03 1.01667E-01 1.42892E-14-3.18885E-13
 -1      3335 2.15564E+01-4.21450E+00 2.61101E-02-4.49468E+00 2.92648E-14-2.19937E-13
 -1      3336 2.29690E+01-4.79981E+00 1.20493E-01-4.30389E+00-1.53624E-13-1.83819E-13
 -1      3337 1.14193E+01-1.84696E-01 1.22140E-01-2.45767E+00 3.26926E-14-5.56624E-13
 -1      3338 1.65201E+01 1.37206E+00 2.00272E-02-7.51419E-01 1.74135E-13-2.74554E-13
 -1      3339 1.69578E+01 1.67108E+00-1.29979E-03-2.36367E-01 2.66898E-13 3.32872E-14
 -1      3340 1.69435E+01 1.68554E+00-5.19537E-03 4.02914E-01 3.87887E-13-6.49385E-14
 -1      3341 1.77736E+01-2.34131E+00 9.61244E-02 4.81509E+00-1.82073E-13 3.61197E-13
 -1      3342 2.57113E+01 1.83145E+00-6.32074E-02-2.39027E+00-2.63359E-13 1.91409E-13
 -1      3343 1.21087E+01-1.52174E+00 1.51532E-01 4.72165E+00 3.49089E-13-3.03979E-13
 -1      3344 1.17427E+01-7.84774E-01 8.91547E-02 3.81109E+00 2.93834E-13-4.75259E-13
 -1      3345 1.43138E+01-1.93352E+00 5.57570E-02 4.81358E+00 3.71661E-13 6.13398E-15
 -1      3346 1.80372E+01 1.09890E+00-3.10219E-02 2.26345E+00 1.63628E-13 3.48853E-13
 -1      3347 1.86777E+01 9.33987E-01 4.01703E-02 2.58664E+00 8.56289E-14 6.16777E-13
 -1      3348 2.55590E+01 4.46123E+00-9.60402E-02-1.15530E+00-2.93848E-13 2.79835E-13
 -1      3349 2.40329E+01 3.75568E+00-6.14209E-02-7.93938E-01-2.98206E-13 2.71918E-14
 -1      3350 2.40084E+01 3.80712E+00-7.75876E-02-5.73796E-03-1.44398E-13 5.89854E-14
 -1      3351 2.51833E+01-3.77291E+00 1.21342E-02 1.00668E+00 1.06894E-13-1.45370E-14
 -1      3352 1.33333E+01-5.18739E-01 1.04309E-01 3.45046E+00-9.88792E-15 2.05336E-13
 -1      3353 1.14001E+01 2.87340E-01 1.43520E-01-1.30455E-01 2.69209E-13 2.47025E-14
 -1      3354 2.25926E+01-4.02891E+00 6.54189E-02 3.73560E+00-2.90098E-13 3.39202E-13
 -1      3355 2.00347E+01 5.99286E-02-4.90134E-04-1.42809E-01 4.83316E-14-7.14505E-14
 -1      3356 2.00545E+01 1.01222E-01 2.50964E-03-1.14504E-01 6.22551E-14-9.07128E-14
 -1      3357 2.01434E+01 1.60803E-01-1.37808E-03-7.55478E-02 5.38073E-14-9.50224E-14
 -1      3358 2.00734E+01 5.54068E-04-9.75867E-04-1.69098E-01 4.25779E-14-1.02429E-13
 -1      3359 2.00090E+01 4.25142E-03-8.79734E-05-1.74111E-01 2.26016E-14-7.01722E-14
 -1      3360 2.00193E+01 2.92745E-02 1.57736E-03-1.62300E-01 2.49355E-14-8.59167E-14
 -1      3361 2.01200E+01 1.93957E+00-2.96610E-03-5.83503E-01-2.15854E-13-2.76914E-13
 -1      3362 2.01544E+01 1.81726E+00-6.62153E-03-6.83685E-01-2.43370E-13-2.59672E-13
 -1      3363 2.66208E+01-3.81165E+00 4.38926E-02 5.09014E-01-4.75172E-13 3.15054E-13
 -1      3364 2.80036E+01-2.96541E+00-5.01871E-02-2.59729E-01-3.32213E-13 2.15966E-13
 -1      3365 9.42317E+00 1.62929E-01 1.45215E-01 9.41613E-01 1.47887E-13-7.09460E-13
 -1      3366 1.07211E+01 4.74951E-01 8.12520E-02 1.71470E-01 5.36845E-14-5.74894E-13
 -1      3367 1.04470E+01 3.31149E-02 4.83371E-02 2.05648E+00 2.31710E-13-6.34534E-13
 -1      3368 2.00666E+01 2.10453E+00-3.06345E-03 3.91714E-01 8.70176E-14-3.46563E-13
 -1      3369 2.01625E+01 1.84684E+00 5.22839E-03 2.91503E-01 6.93040E-14-3.12301E-13
 -1      3370 2.00917E+01 2.02428E+00-5.41073E-03 5.05143E-01 1.28431E-13-3.33972E-13
 -1      3371 2.46100E+01-4.85530E+00-5.67591E-02-3.12072E+00-9.86503E-14-4.19645E-13
 -1      3372 2.07052E+01-4.61269E-01 3.04077E-02 2.88187E+00 1.82925E-13 2.79688E-13
 -1      3373 2.10439E+01-8.82925E-01 6.22042E-03 2.83905E+00 2.47212E-13 3.47795E-13
 -1      3374 2.05478E+01-1.17370E+00-2.59519E-02 3.21388E+00 3.82919E-13 6.88687E-13
 -1      3375 1.71342E+01 1.58266E+00-1.62314E-02 1.20888E+00 3.45940E-13 1.02921E-13
 -1      3376 1.75402E+01 1.44742E+00 1.93262E-02 1.76487E+00 2.39308E-13 2.90311E-13
 -1      3377 1.74956E+01 9.86072E-01 2.74083E-02 2.23947E+00 1.79236E-13 3.69717E-13
 -1      3378 1.64878E+01 1.43855E+00 1.77681E-02 8.85166E-01 3.18911E-13 4.97944E-14
 -1      3379 2.02517E+01 1.46171E+00 6.26138E-03 5.87283E-01 1.98640E-13-2.44165E-13
 -1      3380 2.01596E+01 1.80054E+00-6.98495E-03 6.86369E-01 1.90050E-13-3.15876E-13
 -1      3381 2.01246E+01 1.93015E+00-2.49944E-03 5.90693E-01 1.49773E-13-3.19018E-13
 -1      3382 2.06165E+01-3.99323E+00 1.52922E-01-4.26239E+00-4.58099E-13 1.37822E-13
 -1      3383 1.45040E+01-1.31527E+00 8.19815E-02-4.10778E+00-2.04239E-13-6.74391E-13
 -1      3384 1.49299E+01-2.29997E+00 1.46691E-01-4.84643E+00-3.36189E-13-7.93234E-13
 -1      3385 1.67961E+01-2.93449E+00-4.64292E-02-4.80500E+00-3.90236E-13-5.46049E-13
 -1      3386 1.29917E+01-7.50503E-01 1.27708E-01-3.65426E+00 9.55798E-14-2.20615E-13
 -1      3387 2.58104E+01 4.33250E+00-1.61986E-01 1.11327E+00-3.68178E-14 3.03865E-13
 -1      3388 2.50303E+01 4.26666E+00-9.11213E-02 5.78418E-01-1.12604E-13 1.22180E-13
 -1      3389 1.95332E+01-3.33922E+00 4.95428E-02 4.32163E+00 2.50503E-13-1.07679E-13
 -1      3390 1.82338E+01-3.55070E+00 5.53257E-02 5.16854E+00 3.23540E-13-2.20657E-15
 -1      3391 1.68055E+01-2.71448E+00 5.40472E-02 4.96401E+00 2.55126E-13 1.16622E-13
 -1      3392 2.62361E+01 3.02510E+00-6.20769E-02 1.75148E+00 1.74444E-14 5.57540E-15
 -1      3393 2.40272E+01-4.31900E+00-2.53896E-02-2.24473E+00-3.91326E-13 6.99080E-13
 -1      3394 2.49624E+01-2.17166E+00-2.20960E-02 5.30499E-01 1.66185E-13 4.06105E-14
 -1      3395 1.72635E+01-2.84390E+00 9.20677E-02-5.27883E+00-3.41879E-14-1.79731E-13
 -1      3396 1.93004E+01 4.93476E-01-3.65332E-02 2.77136E+00 1.92379E-13 4.90441E-13
 -1      3397 2.02130E+01 1.91841E-01 3.02353E-02 2.76587E+00 3.58411E-14 1.83510E-13
 -1      3398 2.04372E+01-1.94004E-01 8.30940E-03 2.82858E+00 1.74694E-13 1.46314E-13
 -1      3399 1.88553E+01 3.27732E-01-7.96278E-03 2.94226E+00 3.46540E-13 5.79775E-13
 -1      3400 2.59184E+01-1.43728E+00-1.88587E-02-1.52326E+00-5.54071E-15 1.91409E-13
 -1      3401 2.00634E+01 2.10975E+00-3.40948E-03-3.84429E-01-1.41297E-13-3.41244E-13
 -1      3402 2.00879E+01 2.03361E+00-5.03689E-03-4.98735E-01-1.85119E-13-3.00116E-13
 -1      3403 2.01953E+01 1.70197E+00 3.37587E-03-4.53982E-01-1.92708E-13-2.53542E-13
 -1      3404 2.02773E+01 9.89202E-01-1.93442E-03-4.70468E-01-2.25719E-13-1.28425E-13
 -1      3405 2.67157E+01-3.04181E+00-8.09618E-02-1.22047E-01-5.68729E-14-3.71109E-13
 -1      3406 2.57125E+01-2.71243E+00-1.49465E-02 1.78608E-01 4.99410E-14-9.41825E-14
 -1      3407 2.51493E+01-2.99615E+00 4.03345E-02-3.33136E-01 3.01760E-13-2.72863E-14
 -1      3408 2.62603E+01-4.15672E+00 5.50529E-02-1.45627E+00 3.62900E-14-2.77146E-13
 -1      3409 2.01760E+01 4.88394E-01-2.07954E-03 2.22178E-01 1.98154E-13-1.37660E-13
 -1      3410 2.02323E+01 6.34548E-01 4.14324E-03 3.63482E-01 2.16103E-13-1.47847E-13
 -1      3411 2.02562E+01 7.76445E-01-4.84326E-03 4.20724E-01 2.30660E-13-1.34040E-13
 -1      3412 2.02290E+01 5.23497E-01-1.38559E-03 2.00882E-01 1.79196E-13-1.35135E-13
 -1      3413 2.10747E+01-5.74275E-01 1.17182E-02-1.98821E+00-4.29004E-13-7.57637E-13
 -1      3414 2.08384E+01-4.33981E-01-2.59842E-03-2.15226E+00-1.73518E-13-6.40417E-13
 -1      3415 2.08739E+01-8.16263E-01-9.40606E-03-2.38212E+00-3.81894E-13-5.09992E-13
 -1      3416 2.13266E+01-9.74153E-01-1.90721E-03-2.00834E+00-4.34358E-13-6.21303E-13
 -1      3417 2.07151E+01-3.34626E+00 1.03208E-01-4.45298E+00 9.83181E-14-2.05455E-13
 -1      3418 2.20436E+01-3.89492E+00-6.09643E-02-3.79189E+00 5.90500E-14-6.18845E-13
 -1      3419 1.17401E+01 3.92726E-01 6.30292E-02-1.58425E+00 3.11339E-14-3.36058E-13
 -1      3420 1.29334E+01-2.26860E-01 4.95034E-02-2.95268E+00-6.13919E-14-3.74645E-13
 -1      3421 2.02683E+01 2.37127E-01 2.12846E-03 3.86721E-02-1.08855E-13-1.29190E-13
 -1      3422 2.02439E+01 1.62186E-01-1.26709E-03 7.95497E-02-1.07861E-13-1.40007E-13
 -1      3423 2.02291E+01 1.03843E-01 1.61059E-03 1.05809E-01-9.15548E-14-1.05979E-13
 -1      3424 2.02078E+01 5.57665E-02-6.29850E-04 1.27928E-01-4.24713E-14-7.87712E-14
 -1      3425 2.02857E+01 1.60094E-01-4.37415E-04 7.60619E-02-7.53658E-14-8.93996E-14
 -1      3426 2.01903E+01 1.94291E-02 1.11275E-03 1.40608E-01-2.36683E-14-5.47894E-14
 -1      3427 2.01728E+01-9.42746E-03-1.87586E-04 1.49980E-01-1.76598E-14-5.36193E-14
 -1      3428 2.02481E+01 5.09213E-02-5.87072E-04 1.18098E-01-3.61427E-14-4.91748E-14
 -1      3429 2.01549E+01-3.01123E-02 7.00520E-04 1.53649E-01-1.71885E-14-6.40883E-14
 -1      3430 2.01411E+01-4.52883E-02 1.05701E-04 1.55014E-01-3.83909E-14-4.30452E-14
 -1      3431 2.02098E+01-1.54753E-02-6.20038E-04 1.37172E-01-2.42558E-14-1.09773E-13
 -1      3432 2.01242E+01-5.48805E-02 3.79726E-04 1.53303E-01-4.24235E-14-1.49108E-15
 -1      3433 2.01136E+01-6.03478E-02 2.92614E-04 1.50241E-01-4.79941E-14-4.64974E-15
 -1      3434 2.01736E+01-5.11818E-02-5.92015E-04 1.41457E-01-2.68856E-14-9.54751E-14
 -1      3435 2.00981E+01-6.20573E-02 1.34525E-04 1.45901E-01-1.06033E-13 5.55577E-15
 -1      3436 2.00902E+01-6.05790E-02 4.09645E-04 1.41067E-01-1.19893E-13 1.07075E-14
 -1      3437 2.01410E+01-6.49528E-02-5.23719E-04 1.37337E-01-7.30324E-14-7.65947E-14
 -1      3438 2.00764E+01-5.65968E-02-5.47746E-05 1.36167E-01-9.98649E-14-1.18632E-14
 -1      3439 2.00707E+01-5.00368E-02 4.83068E-04 1.31537E-01-7.82414E-14 9.08036E-17
 -1      3440 2.01122E+01-6.29717E-02-4.38275E-04 1.29655E-01-1.19573E-13-1.03218E-13
 -1      3441 2.00582E+01-4.18104E-02-2.06646E-04 1.27637E-01-6.33472E-14-2.44781E-14
 -1      3442 2.00542E+01-3.13548E-02 5.32576E-04 1.24701E-01-3.49429E-14-6.25714E-14
 -1      3443 2.00870E+01-4.94237E-02-3.41463E-04 1.22083E-01-6.44462E-14-7.54597E-14
 -1      3444 2.00427E+01-1.97593E-02-3.39224E-04 1.23005E-01-2.03246E-14-9.31571E-14
 -1      3445 2.00400E+01-6.08177E-03 5.72659E-04 1.22938E-01-2.96466E-14-8.67499E-14
 -1      3446 2.00646E+01-2.70071E-02-2.37708E-04 1.17413E-01-2.84717E-14-1.04252E-13
 -1      3447 2.00288E+01 8.42081E-03-4.66323E-04 1.24438E-01-5.44158E-14-1.11333E-13
 -1      3448 2.00269E+01 2.50072E-02 6.13799E-04 1.28227E-01-4.34027E-14-1.21314E-13
 -1      3449 2.00440E+01 2.71397E-03-1.29220E-04 1.17866E-01-6.77846E-14-1.45055E-13
 -1      3450 2.00155E+01 4.22352E-02-5.98949E-04 1.33801E-01-4.05470E-14-1.33845E-13
 -1      3451 2.00139E+01 6.16460E-02 6.63601E-04 1.42335E-01-1.07817E-13-1.04817E-13
 -1      3452 2.00238E+01 3.89848E-02-1.38394E-05 1.25323E-01-2.51918E-14-1.72446E-13
 -1      3453 2.00014E+01 8.15682E-02-7.44548E-04 1.52825E-01-1.02038E-13-9.19622E-14
 -1      3454 1.99999E+01 1.03806E-01 7.27209E-04 1.66958E-01-2.24159E-14-6.62235E-14
 -1      3455 2.00024E+01 8.15556E-02 1.09277E-04 1.41499E-01-7.32507E-14-1.06443E-13
 -1      3456 1.99853E+01 1.26395E-01-9.06942E-04 1.83219E-01 1.58869E-14-7.13485E-14
 -1      3457 1.99836E+01 1.51391E-01 8.07865E-04 2.03786E-01 1.30300E-15-7.87356E-14
 -1      3458 1.99784E+01 1.30379E-01 2.41105E-04 1.68082E-01-2.05086E-14-2.39754E-14
 -1      3459 1.99661E+01 1.76455E-01-1.08576E-03 2.26708E-01-1.03537E-13-2.25851E-14
 -1      3460 1.99638E+01 2.03876E-01 9.08671E-04 2.54514E-01-1.09094E-13-7.15387E-14
 -1      3461 1.99498E+01 1.85259E-01 3.79513E-04 2.06795E-01-2.83081E-14 4.07242E-15
 -1      3462 1.99426E+01 2.30845E-01-1.27458E-03 2.85019E-01-5.98840E-14-7.31259E-14
 -1      3463 1.99397E+01 2.59848E-01 1.03424E-03 3.20792E-01-2.62704E-14-5.26881E-14
 -1      3464 1.99151E+01 2.45437E-01 5.17492E-04 2.59428E-01-8.46285E-14-1.61712E-14
 -1      3465 1.99142E+01 2.87501E-01-1.45889E-03 3.59814E-01-1.65213E-14-3.68164E-14
 -1      3466 1.99109E+01 3.16415E-01 1.19325E-03 4.04120E-01 1.12272E-14-5.71235E-15
 -1      3467 1.98727E+01 3.09069E-01 6.39590E-04 3.27832E-01-2.53912E-14 2.59236E-14
 -1      3468 1.98809E+01 3.42516E-01-1.61282E-03 4.52563E-01 3.84295E-14-1.77643E-14
 -1      3469 1.98781E+01 3.68434E-01 1.40242E-03 5.05675E-01 3.49624E-14-1.26919E-14
 -1      3470 1.98217E+01 3.72558E-01 7.16533E-04 4.13881E-01 2.53975E-14 1.97849E-14
 -1      3471 1.98443E+01 3.89282E-01-1.69403E-03 5.64365E-01-2.25245E-14-8.14849E-14
 -1      3472 1.98439E+01 4.07545E-01 1.69138E-03 6.26102E-01-6.33473E-14-2.27206E-14
 -1      3473 1.97626E+01 4.29696E-01 6.97312E-04 5.19433E-01-1.07529E-14 4.23925E-14
 -1      3474 1.98085E+01 4.17421E-01-1.63500E-03 6.95717E-01-6.89790E-14-1.27627E-14
 -1      3475 1.98141E+01 4.21025E-01 2.10693E-03 7.65213E-01 6.65430E-15 2.32989E-14
 -1      3476 1.96976E+01 4.70607E-01 4.97358E-04 6.46289E-01-2.73086E-14-4.05404E-16
 -1      3477 1.97816E+01 4.11578E-01-1.32747E-03 8.46183E-01-1.29611E-14 1.62435E-14
 -1      3478 1.97997E+01 3.90529E-01 2.71115E-03 9.21561E-01-2.69181E-14 5.54264E-14
 -1      3479 1.96328E+01 4.80490E-01-1.92999E-05 7.96156E-01-6.00256E-14 6.89345E-14
 -1      3480 1.97786E+01 3.50222E-01-5.93418E-04 1.01382E+00 8.03590E-15 5.00667E-14
 -1      3481 1.98198E+01 2.91017E-01 3.55147E-03 1.09162E+00 3.70780E-14 3.72750E-14
 -1      3482 1.95799E+01 4.38225E-01-1.06751E-03 9.70506E-01 6.41619E-15-2.65702E-14
 -1      3483 1.98246E+01 2.04888E-01 8.55853E-04 1.19393E+00 3.10388E-14 2.99338E-14
 -1      3484 1.99049E+01 9.05067E-02 4.59684E-03 1.26795E+00 8.43460E-14 2.56536E-14
 -1      3485 1.95597E+01 3.15055E-01-2.98981E-03 1.17001E+00 3.47518E-14-7.74506E-14
 -1      3486 1.99594E+01-5.90155E-02 3.54943E-03 1.37604E+00 7.90250E-14 4.16622E-14
 -1      3487 2.01019E+01-2.47640E-01 5.59739E-03 1.43507E+00 3.10932E-14 6.91505E-14
 -1      3488 1.96071E+01 7.39353E-02-6.27628E-03 1.39252E+00 6.04054E-14-1.21425E-13
 -1      3489 2.02430E+01-4.77535E-01 8.23943E-03 1.53758E+00-6.80999E-14-1.03309E-14
 -1      3490 2.04760E+01-7.56706E-01 5.76408E-03 1.56111E+00-4.98811E-14-9.81163E-14
 -1      3491 1.97774E+01-3.28184E-01-1.14842E-02 1.62773E+00-2.43689E-14-1.97888E-13
 -1      3492 2.07584E+01-1.07465E+00 1.62116E-02 1.63023E+00-5.50235E-14-2.16366E-14
 -1      3493 2.11082E+01-1.44423E+00 3.58227E-03 1.58176E+00 1.61720E-15-4.07183E-14
 -1      3494 2.01542E+01-9.33257E-01-1.92687E-02 1.84509E+00 1.40437E-15-1.04157E-13
 -1      3495 2.16019E+01-1.82739E+00 2.78981E-02 1.55614E+00-6.94431E-15-8.93491E-16
 -1      3496 2.20719E+01-2.23428E+00-2.87278E-03 1.37855E+00-1.27866E-14-1.21931E-13
 -1      3497 2.08552E+01-1.75259E+00-2.85720E-02 1.96716E+00-2.87758E-15 4.41040E-14
 -1      3498 2.28276E+01-2.59095E+00 3.59151E-02 1.15147E+00 4.70735E-14-3.65081E-14
 -1      3499 2.33858E+01-2.86856E+00-1.50828E-02 7.71387E-01 1.00421E-13-3.80550E-14
 -1      3500 2.20291E+01-2.66816E+00-2.60021E-02 1.83289E+00 7.32871E-14 1.48651E-13
 -1      3501 2.56037E+01-2.34802E+00 2.38345E-02-9.59946E-01 5.58754E-15 1.32533E-13
 -1      3502 2.28170E+01-2.53797E+00-6.94376E-03-1.79222E+00 4.63804E-14-3.12822E-13
 -1      3503 2.22908E+01-2.08799E+00 2.26625E-02-2.03035E+00-1.77160E-13-3.77175E-13
 -1      3504 2.02737E+01 1.27758E+00 2.22806E-03-5.56076E-01-2.37400E-13-1.74547E-13
 -1      3505 2.02809E+01 9.70452E-01-5.64093E-03-3.66388E-01-2.04318E-13-1.82199E-13
 -1      3506 2.00388E+01-3.31429E-02 5.49648E-04-1.30767E-01 8.50914E-15 1.45021E-14
 -1      3507 2.00394E+01-4.21763E-02-2.20373E-04-1.34645E-01 9.20101E-15-3.19772E-14
 -1      3508 2.00491E+01-4.90777E-02 4.93809E-04-1.39393E-01 9.73140E-15-2.34016E-14
 -1      3509 2.00515E+01-5.44545E-02-6.51361E-05-1.44899E-01-1.49135E-14-1.47349E-14
 -1      3510 2.00706E+01-4.99250E-02-3.50102E-04-1.32165E-01 1.87998E-14-2.99428E-14
 -1      3511 2.00244E+01 1.69015E-02 6.55153E-04-1.30827E-01-3.89550E-14 5.42641E-14
 -1      3512 2.00228E+01 1.90752E-03-4.71457E-04-1.27881E-01-2.64821E-14 7.51642E-14
 -1      3513 2.00186E+01 5.05627E-02 7.19370E-04-1.43576E-01 9.57774E-14 5.52511E-14
 -1      3514 2.00162E+01 3.25638E-02-6.01617E-04-1.35702E-01 2.79077E-14 1.77584E-14
 -1      3515 2.00251E+01 2.94160E-02-5.25604E-05-1.30593E-01 1.18417E-14-1.46110E-14
 -1      3516 2.00121E+01 9.05735E-02 7.97191E-04-1.67337E-01 5.11614E-14 1.08458E-13
 -1      3517 2.00094E+01 6.92312E-02-7.53002E-04-1.53551E-01 9.15170E-14 6.86624E-14
 -1      3518 2.00105E+01 6.93796E-02 6.74028E-05-1.45715E-01 5.25539E-14-9.86315E-15
 -1      3519 2.00036E+01 1.37813E-01 8.88325E-04-2.04057E-01 5.36461E-14 4.52810E-14
 -1      3520 2.00010E+01 1.12647E-01-9.37477E-04-1.83329E-01 5.99195E-14 9.99373E-14
 -1      3521 1.99935E+01 1.16781E-01 2.11634E-04-1.71716E-01 4.72556E-14-6.87502E-15
 -1      3522 1.99914E+01 1.93289E-01 9.89567E-04-2.55795E-01-4.28251E-14 2.30018E-13
 -1      3523 1.99893E+01 1.63776E-01-1.16507E-03-2.27033E-01 2.70344E-14 1.51916E-13
 -1      3524 1.99719E+01 1.72601E-01 3.93577E-04-2.10420E-01 7.17445E-15 8.56783E-14
 -1      3525 1.99732E+01 2.57902E-01 1.09527E-03-3.24698E-01 2.37450E-14 2.28736E-13
 -1      3526 1.99724E+01 2.23607E-01-1.44512E-03-2.86769E-01-1.04533E-14 1.96701E-13
 -1      3527 1.99431E+01 2.37892E-01 6.28384E-04-2.63701E-01 7.79482E-15 2.02801E-13
 -1      3528 1.99460E+01 3.32096E-01 1.19948E-03-4.12938E-01 8.64149E-14 1.80716E-13
 -1      3529 1.99474E+01 2.92866E-01-1.78552E-03-3.64712E-01 9.11923E-14 1.48263E-13
 -1      3530 1.99038E+01 3.13497E-01 9.32896E-04-3.33457E-01 9.78452E-14 5.35616E-14
 -1      3531 1.99062E+01 4.15318E-01 1.30068E-03-5.22588E-01 2.93175E-14 8.14844E-14
 -1      3532 1.99112E+01 3.71582E-01-2.19191E-03-4.63026E-01 8.29458E-14 1.78186E-13
 -1      3533 1.98497E+01 3.99630E-01 1.32401E-03-4.21545E-01 8.73901E-14 3.80455E-14
 -1      3534 1.98495E+01 5.05149E-01 1.41189E-03-6.55511E-01-3.76391E-14 2.66801E-14
 -1      3535 1.98596E+01 4.58399E-01-2.66663E-03-5.83762E-01-3.43590E-14 6.56648E-14
 -1      3536 1.97758E+01 4.95240E-01 1.81423E-03-5.29726E-01 9.41109E-15 4.99053E-14
 -1      3537 1.97717E+01 5.95936E-01 1.58002E-03-8.13306E-01-9.28318E-14 1.23967E-13
 -1      3538 1.97880E+01 5.49484E-01-3.20689E-03-7.28791E-01-5.86131E-14 7.80202E-14
 -1      3539 1.96762E+01 5.97039E-01 2.40273E-03-6.59691E-01-1.07013E-13 6.21396E-14
 -1      3540 1.96691E+01 6.76663E-01 1.91796E-03-9.97501E-01-1.27862E-13 1.16111E-13
 -1      3541 1.96920E+01 6.36803E-01-3.80120E-03-8.99919E-01-6.34181E-14 1.49457E-13
 -1      3542 1.95446E+01 6.98002E-01 3.05809E-03-8.13345E-01-8.55839E-14 5.83653E-15
 -1      3543 1.95419E+01 7.27737E-01 2.64411E-03-1.21020E+00-1.76318E-13 1.83921E-13
 -1      3544 1.95688E+01 7.05491E-01-4.41960E-03-1.09937E+00-1.57552E-13 1.61464E-13
 -1      3545 1.93750E+01 7.85107E-01 3.68399E-03-9.93614E-01-1.75879E-13 6.77752E-14
 -1      3546 1.93981E+01 7.16432E-01 4.15081E-03-1.45531E+00-2.71098E-13 1.22419E-13
 -1      3547 1.94208E+01 7.29967E-01-4.99249E-03-1.33087E+00-1.89845E-13 1.62716E-13
 -1      3548 1.91641E+01 8.35949E-01 4.04715E-03-1.20617E+00-1.89742E-13 1.67192E-13
 -1      3549 1.92628E+01 5.91141E-01 7.11813E-03-1.74034E+00-1.03173E-13 9.30780E-14
 -1      3550 1.92613E+01 6.68779E-01-5.26839E-03-1.60141E+00-2.40439E-13 4.69640E-14
 -1      3551 1.89150E+01 8.13974E-01 3.70537E-03-1.46240E+00-1.93154E-13-9.07476E-14
 -1      3552 1.91917E+01 2.74699E-01 1.24351E-02-2.07747E+00-5.83978E-14 3.35607E-14
 -1      3553 1.91262E+01 4.58648E-01-4.54079E-03-1.92344E+00-4.56936E-14 1.27471E-13
 -1      3554 1.86454E+01 6.62569E-01 1.97251E-03-1.78361E+00-1.25007E-13-7.19234E-14
 -1      3555 1.92863E+01-3.42433E-01 1.81205E-02-2.47674E+00-3.04305E-13 1.16214E-13
 -1      3556 1.90960E+01 6.20202E-03-9.49177E-04-2.31342E+00-1.72614E-13 4.52725E-14
 -1      3557 1.84022E+01 2.95190E-01-2.46796E-03-2.20642E+00-1.64112E-13-3.97972E-14
 -1      3558 1.98077E+01-1.37775E+00 2.79440E-02-2.88969E+00-3.37864E-13 3.98999E-13
 -1      3559 1.93320E+01-8.06953E-01 1.16767E-02-2.75935E+00-3.30960E-13 2.61210E-13
 -1      3560 1.83277E+01-4.18258E-01-2.31794E-03-2.78056E+00-3.96836E-13-1.79470E-14
 -1      3561 1.97362E+01-2.78179E+00 6.14365E-02-3.70730E+00-5.36564E-13 2.67115E-13
 -1      3562 1.89634E+01-1.92685E+00 5.48964E-02-3.57227E+00-3.73286E-13 1.94358E-13
 -1      3563 1.48429E+01-5.72729E-01-5.73424E-02 3.69347E+00 6.78277E-15 1.81709E-13
 -1      3564 1.32847E+01 3.34374E-01 8.82095E-02 2.31207E+00 1.28959E-13 2.75106E-13
 -1      3565 2.29210E+01-4.00876E+00-5.00582E-02 2.57044E+00 8.20732E-14-7.61387E-14
 -1      3566 2.15283E+01-3.64077E+00 2.66411E-02 3.33702E+00 1.39372E-13-1.58532E-13
 -1      3567 2.50966E+01-3.25324E+00-6.93718E-02 1.09280E-01 7.40944E-14-3.65025E-14
 -1      3568 2.42632E+01-3.76228E+00 5.16890E-02 1.47029E+00 9.46803E-14-9.61540E-14
 -1      3569 2.34306E+01-3.42145E+00 2.10342E-02 1.58124E+00 1.02721E-13-2.35853E-14
 -1      3570 2.47066E+01-2.69933E+00-1.95945E-02-3.50685E-01 2.71632E-14 2.32644E-14
 -1      3571 1.90064E+01-2.51837E+00-6.97169E-02 4.58419E+00-2.29906E-13 4.77465E-13
 -1      3572 1.71584E+01-1.30467E+00 1.07223E-01 4.38482E+00-6.38205E-14 1.66776E-13
 -1      3573 1.73421E+01 3.36513E-01 4.71626E-02-2.72024E+00 1.59438E-13-2.58139E-13
 -1      3574 1.64440E+01 6.14620E-01-2.95899E-02-2.26466E+00 3.53065E-13-3.73103E-13
 -1      3575 2.02356E+01 3.21096E-01-1.98821E-03 1.74139E-02 8.98343E-14-1.03200E-13
 -1      3576 2.02667E+01 4.29510E-01 3.18135E-03 9.20622E-02 1.11310E-13-1.11961E-13
 -1      3577 2.00309E+01-1.09688E-02 6.00172E-04-1.27201E-01-8.41366E-15 1.11712E-14
 -1      3578 2.00302E+01-2.30744E-02-3.49667E-04-1.28199E-01 2.37383E-14 3.62884E-14
 -1      3579 2.00538E+01-3.03860E-02-2.55154E-04-1.25763E-01-2.66305E-15 4.07421E-15
 -1      3580 2.00390E+01-3.77343E-03-1.55811E-04-1.24560E-01-4.07235E-14 6.58422E-14
 -1      3581 2.01024E+01-3.99992E-02 1.11864E-04-1.66001E-01 1.00782E-14-4.97238E-14
 -1      3582 2.01136E+01-2.49012E-02 7.73814E-04-1.64573E-01 4.06382E-14-7.04683E-14
 -1      3583 1.24115E+01 5.94558E-01 2.47327E-02 9.49308E-01 1.81724E-13-4.69208E-14
 -1      3584 1.25232E+01 6.01873E-01 4.95586E-02-1.05733E+00 1.67447E-13 1.02529E-13
 -1      3585 1.43368E+01 7.68109E-01 7.87473E-02 1.39620E+00 1.69685E-13 6.32307E-14
 -1      3586 2.41617E+01-3.07958E+00-1.76441E-02-9.99785E-01 3.66508E-13-2.58772E-13
 -1      3587 2.36205E+01-2.87756E+00 4.13150E-02-1.46410E+00 2.52319E-13-2.62594E-13
 -1      3588 2.29331E+01-3.08573E+00-4.55344E-02-2.24935E+00 8.87827E-14-6.59239E-13
 -1      3589 2.46182E+01-3.67065E+00-5.92377E-02-1.40487E+00 1.71910E-13-2.58731E-13
 -1      3590 2.00323E+01 2.20100E+00-3.35472E-03-1.62990E-01-9.37005E-14-3.90217E-13
 -1      3591 2.00445E+01 2.16450E+00-4.17591E-03-2.84706E-01-1.26720E-13-3.70657E-13
 -1      3592 2.01609E+01 1.85011E+00 4.77959E-03-2.84337E-01-1.42671E-13-3.30784E-13
 -1      3593 2.14013E+01-3.23853E+00 7.91286E-02 3.99937E+00-1.72761E-13 4.25023E-13
 -1      3594 2.46211E+01-4.19705E+00 3.95915E-03-2.22438E+00 1.08410E-13-4.70752E-13
 -1      3595 2.03219E+01 7.38406E-01 5.79846E-03-2.44366E-01-1.73258E-13-1.66300E-13
 -1      3596 2.02960E+01 5.72028E-01-3.28965E-03-1.43368E-01-1.52236E-13-1.73715E-13
 -1      3597 2.03020E+01 4.39459E-01 2.89834E-03-7.28951E-02-1.33130E-13-1.70626E-13
 -1      3598 2.02765E+01 3.26417E-01-2.14540E-03-6.30366E-03-1.21274E-13-1.58646E-13
 -1      3599 2.03172E+01 3.28331E-01-6.55746E-05 1.39356E-03-1.14266E-13-1.58160E-13
 -1      3600 1.64008E+01-1.79644E+00 9.51018E-02-4.75375E+00 1.51996E-13-1.67477E-13
 -1      3601 1.86050E+01-2.92162E+00-3.51392E-02-4.90531E+00 4.72677E-14 9.63361E-14
 -1      3602 1.95251E+01-2.56734E+00-5.07282E-03-4.28144E+00 1.94629E-13-2.00102E-13
 -1      3603 1.30139E+01-1.09538E-01 3.11977E-02-2.77622E+00 2.16839E-13-2.27499E-13
 -1      3604 1.44781E+01-1.08000E+00 2.13068E-02-4.24570E+00 2.57253E-13-5.31949E-13
 -1      3605 1.42160E+01 6.02383E-02 2.16711E-02-2.60419E+00-1.64720E-13-3.46844E-13
 -1      3606 1.41685E+01-4.90964E-01 9.12921E-02-3.36106E+00-1.92097E-13-5.90077E-13
 -1      3607 1.55028E+01-9.66364E-01 4.32145E-04-3.59356E+00-3.07044E-13-5.95437E-13
 -1      3608 1.52850E+01 1.09913E+00 2.97390E-02-9.04892E-01 2.44769E-13-1.90107E-13
 -1      3609 1.50440E+01 1.18083E+00-3.59907E-03 3.08476E-02 2.46101E-13-2.16220E-13
 -1      3610 2.02031E+01 1.69525E+00 5.73595E-03 4.60143E-01 1.32158E-13-2.99070E-13
 -1      3611 1.59803E+01-2.08349E+00 6.23812E-02 4.73419E+00 2.24501E-13 7.46937E-14
 -1      3612 1.51256E+01-1.27858E+00 6.68222E-02 4.18927E+00 2.05738E-13-9.38104E-14
 -1      3613 1.74582E+01-2.11466E+00 3.98923E-02 4.19537E+00 7.18627E-14-7.83731E-14
 -1      3614 2.02783E+01 1.14057E+00-5.13382E-03 4.94497E-01 2.13177E-13-2.10637E-13
 -1      3615 2.02675E+01 1.28574E+00 2.89422E-05 4.54810E-01 1.57864E-13-2.33537E-13
 -1      3616 2.02255E+01 2.34126E-01 2.67428E-03-3.54053E-02 6.63586E-14-8.82913E-14
 -1      3617 2.02823E+01 3.29263E-01-4.79384E-04 7.94402E-03 7.81591E-14-1.09419E-13
 -1      3618 2.01987E+01 1.61182E-01-1.29143E-03-8.04377E-02 3.94251E-14-8.60590E-14
 -1      3619 1.66838E+01-4.84658E-01 4.51940E-02 3.58283E+00 9.34582E-14 1.80769E-13
 -1      3620 2.41997E+01-2.83663E+00 4.16551E-02 2.24745E-01 1.33100E-13-9.02503E-14
 -1      3621 2.01397E+01 1.92350E+00 4.97799E-03-9.47982E-02-6.65844E-14-3.51775E-13
 -1      3622 1.32264E+01-5.49214E-01-1.01803E-02 3.44287E+00 2.67698E-13-3.15088E-13
 -1      3623 1.17799E+01-8.69346E-02 1.16214E-01 2.84689E+00 2.35402E-13-4.93057E-13
 -1      3624 1.21904E+01 3.66895E-01 4.54383E-02 1.94747E+00 1.70523E-13-4.53838E-13
 -1      3625 2.26679E+01-3.38456E+00 1.80623E-02-2.94453E+00 7.18470E-14-5.33426E-13
 -1      3626 2.37287E+01-3.85432E+00 8.69051E-02-2.73347E+00 1.13466E-13-5.37501E-13
 -1      3627 2.03072E+01 9.67632E-01-3.32557E-03-3.12815E-01-1.85673E-13-1.98177E-13
 -1      3628 2.19384E+01-1.73304E+00 2.59740E-03-2.01153E+00-1.87984E-13-3.04867E-13
 -1      3629 2.15766E+01-1.31472E+00 1.18019E-02-2.07314E+00-1.48969E-13-5.00309E-13
 -1      3630 2.13633E+01-1.27721E+00 3.87819E-03-2.29396E+00-3.72822E-13-6.72267E-13
 -1      3631 2.19006E+01-2.11324E+00-1.46240E-02-2.42274E+00-1.45710E-13-4.84232E-13
 -1      3632 2.01041E+01 6.14607E-02-1.20588E-03-1.39295E-01 3.82692E-14-8.40679E-14
 -1      3633 2.01298E+01-4.68745E-03-1.79078E-04-1.60019E-01 2.20776E-14-6.85228E-14
 -1      3634 2.01455E+01 2.34089E-02 1.25756E-03-1.49775E-01 2.46533E-14-7.38672E-14
 -1      3635 2.01746E+01-1.01377E-02-7.16674E-04-1.49383E-01 2.55482E-14-8.59209E-14
 -1      3636 2.00904E+01-6.10130E-02-4.46378E-04-1.41336E-01 2.60154E-14-8.76038E-14
 -1      3637 2.00627E+01-5.74024E-02 4.17622E-04-1.50513E-01 1.98396E-14-1.93327E-14
 -1      3638 2.00673E+01-5.80257E-02 1.34979E-04-1.56066E-01 4.57401E-14-4.67041E-15
 -1      3639 2.13746E+01-3.15697E+00-2.16698E-02 2.87018E+00 1.19512E-13-8.09457E-14
 -1      3640 2.06443E+01-3.37450E+00 9.52312E-03 3.68648E+00 1.39153E-13-1.62283E-13
 -1      3641 1.94787E+01-2.75915E+00 1.83226E-02 3.81352E+00 1.24886E-13-1.98610E-13
 -1      3642 2.02619E+01 5.33744E-01-2.48763E-03 1.57975E-01 1.32504E-13-1.30340E-13
 -1      3643 2.02805E+01 6.52702E-01-7.10742E-05 2.54111E-01 1.68364E-13-1.46948E-13
 -1      3644 2.03019E+01 5.39799E-01-2.18468E-03 1.32678E-01 1.17537E-13-1.06436E-13
 -1      3645 1.63754E+01-1.06795E+00 6.88512E-02-4.02211E+00 2.27231E-13-3.34212E-14
 -1      3646 1.20051E+01 6.89755E-01 1.45644E-02 1.82182E-01 1.33456E-13-4.63810E-13
 -1      3647 1.17598E+01 6.65623E-01 8.87349E-02-7.95169E-01 8.63580E-14-4.46032E-13
 -1      3648 1.30884E+01 6.35728E-01 3.42630E-02-1.33357E+00 1.95278E-14-3.12309E-13
 -1      3649 1.99376E+01-3.42184E-01-1.85436E-02 3.05401E+00 4.22536E-13 6.33828E-13
 -1      3650 2.02490E+01 1.45830E+00 4.16011E-03-6.06136E-01-2.41187E-13-1.98375E-13
 -1      3651 1.48253E+01 6.18516E-01 2.53531E-02-1.65006E+00 2.57225E-13-1.90275E-13
 -1      3652 1.58305E+01 7.99681E-01-1.79979E-02 2.18270E+00 1.79616E-13 2.55712E-13
 -1      3653 1.66285E+01 5.71654E-01 3.45739E-02 2.71825E+00 2.29765E-13 3.31309E-13
 -1      3654 1.38850E+01 4.26740E-01 2.99667E-02-1.73333E+00 2.51087E-13-1.58998E-13
 -1      3655 1.99517E+01-1.60002E+00 2.90079E-02 3.74007E+00 1.05969E-13 6.46021E-13
 -1      3656 2.05936E+01-2.38250E+00 4.23698E-02 3.81625E+00-1.02519E-13 5.52187E-13
 -1      3657 2.00803E+01-5.56697E-02 2.99367E-04-1.60846E-01-7.83363E-16-3.97318E-14
 -1      3658 2.00877E+01-4.97591E-02 4.06108E-04-1.64344E-01-2.58744E-14-5.45936E-14
 -1      3659 2.01422E+01-4.61503E-02-6.36244E-04-1.54707E-01 1.12631E-14-1.02928E-13
 -1      3660 2.01141E+01-6.11140E-02-5.44726E-04-1.50201E-01-1.70000E-14-1.17669E-13
 -1      3661 2.03315E+01 5.80470E-01 1.00735E-03-1.15835E-01-1.36805E-13-1.67565E-13
 -1      3662 2.11091E+01-1.17541E+00 2.24406E-03-2.46445E+00-3.74504E-13-3.16911E-13
 -1      3663 2.02048E+01 1.63878E+00-3.34115E-03 1.30696E-01 2.24186E-14-2.95014E-13
 -1      3664 2.02008E+01 1.65882E+00-2.62583E-03 3.99558E-02-6.97204E-15-3.20191E-13
 -1      3665 1.80895E+01-3.56071E-01-3.60352E-02 3.43644E+00 3.50992E-13 4.96405E-13
 -1      3666 1.92280E+01-6.51850E-01 2.02908E-02 3.48811E+00 3.65297E-13 6.53267E-13
 -1      3667 2.02134E+01 1.60581E+00-2.02340E-03 2.01773E-01 4.44299E-14-3.04118E-13
 -1      3668 2.02879E+01 1.38510E+00 4.94036E-03 1.33914E-01 2.41490E-14-2.74223E-13
 -1      3669 2.02236E+01 1.54728E+00-4.09177E-03 2.85520E-01 7.06006E-14-3.06324E-13
 -1      3670 2.02469E+01 1.43270E+00 1.59732E-03-4.97812E-01-2.09161E-13-2.37044E-13
 -1      3671 2.10647E+01-1.63289E+00-1.47573E-03-2.80874E+00-1.38410E-13-2.93820E-13
 -1      3672 2.05945E+01-1.07811E+00 1.62711E-02-2.85768E+00-1.76329E-13-2.12378E-13
 -1      3673 1.99073E+01-8.69301E-01-1.19055E-02-3.03526E+00 6.63460E-14-1.20088E-13
 -1      3674 2.02066E+01 1.60799E+00-4.13946E-03-3.59065E-01-1.57107E-13-2.48692E-13
 -1      3675 2.02271E+01 1.52095E+00-3.42899E-03-4.33813E-01-1.87385E-13-2.39857E-13
 -1      3676 2.02757E+01 1.36326E+00 5.92562E-03-3.99327E-01-1.77185E-13-2.16788E-13
 -1      3677 2.34867E+01-3.27725E+00-4.63075E-02 1.15719E+00 1.97067E-13 4.08059E-14
 -1      3678 2.02522E+01 1.38189E+00-4.87041E-03 4.14231E-01 1.27883E-13-2.62690E-13
 -1      3679 2.02385E+01 1.48189E+00-1.27849E-03 3.45467E-01 8.79057E-14-2.84183E-13
 -1      3680 2.02989E+01 1.28346E+00 4.56420E-03 2.50558E-01 6.00762E-14-2.69741E-13
 -1      3681 2.03067E+01 1.11452E+00 3.60675E-03 3.36179E-01 1.27221E-13-2.03139E-13
 -1      3682 2.02721E+01 9.56173E-01 2.05612E-03 4.64263E-01 2.20405E-13-1.69552E-13
 -1      3683 2.02862E+01 8.22484E-01 2.13391E-03 3.38032E-01 1.89082E-13-1.55045E-13
 -1      3684 2.03008E+01 8.53174E-02 1.05406E-03 9.30829E-02-3.71907E-14-9.18779E-14
 -1      3685 2.02794E+01 3.81159E-02-4.93943E-04 1.08898E-01-3.50796E-14-9.90147E-14
 -1      3686 2.02601E+01 2.44115E-03 7.71583E-04 1.16208E-01-3.07533E-14-1.05801E-13
 -1      3687 2.02399E+01-2.51070E-02-1.13053E-04 1.22698E-01-3.04913E-14-1.29592E-13
 -1      3688 2.03040E+01 2.96588E-02-3.68041E-04 9.49584E-02-2.81635E-14-1.59321E-13
 -1      3689 2.02191E+01-4.44574E-02 5.11569E-04 1.24094E-01-2.11283E-14-1.15411E-13
 -1      3690 2.02009E+01-5.78239E-02 1.38413E-04 1.24832E-01-8.86080E-15-1.10271E-13
 -1      3691 2.02614E+01-3.19496E-02-4.67438E-04 1.05937E-01-1.44086E-14-1.53291E-13
 -1      3692 2.01804E+01-6.54967E-02 2.91839E-04 1.22856E-01-4.99962E-14-9.32485E-14
 -1      3693 2.01646E+01-6.86585E-02 2.95378E-04 1.20551E-01-9.36147E-14-9.76017E-14
 -1      3694 2.02191E+01-6.26553E-02-4.99324E-04 1.07504E-01-3.03548E-14-1.54419E-13
 -1      3695 2.01451E+01-6.78567E-02 1.05507E-04 1.17151E-01-7.98134E-14-1.06537E-13
 -1      3696 2.01315E+01-6.35707E-02 3.89422E-04 1.13903E-01-4.76051E-14-6.98058E-14
 -1      3697 2.01790E+01-7.09664E-02-4.69962E-04 1.03984E-01-6.96837E-14-1.10196E-13
 -1      3698 2.01133E+01-5.65466E-02-5.19050E-05 1.10606E-01-5.27338E-14-6.32059E-14
 -1      3699 2.01016E+01-4.66920E-02 4.39776E-04 1.07987E-01-6.72029E-14-5.32271E-14
 -1      3700 2.01419E+01-6.28513E-02-3.92192E-04 9.88468E-02-5.34476E-14-6.85127E-14
 -1      3701 2.00843E+01-3.48892E-02-1.95758E-04 1.05938E-01-3.45428E-14-4.34261E-15
 -1      3702 2.00740E+01-2.06071E-02 4.65503E-04 1.05170E-01-1.86555E-14-3.06303E-14
 -1      3703 2.01076E+01-4.24405E-02-2.85095E-04 9.47160E-02-3.83903E-14-3.34959E-14
 -1      3704 2.00572E+01-4.85575E-03-3.37618E-04 1.05302E-01-4.23140E-14-2.96053E-14
 -1      3705 2.00476E+01 1.32360E-02 4.77747E-04 1.07390E-01-7.15311E-14-3.09346E-14
 -1      3706 2.00751E+01-1.22618E-02-1.56289E-04 9.36410E-02-4.15445E-14-1.94034E-15
 -1      3707 2.00303E+01 3.25214E-02-4.87271E-04 1.10500E-01-7.77759E-14-2.96758E-14
 -1      3708 2.00207E+01 5.41770E-02 4.86893E-04 1.16312E-01-6.49799E-14-1.05198E-13
 -1      3709 2.00431E+01 2.63040E-02-4.87983E-06 9.73385E-02-7.69800E-14-7.91211E-15
 -1      3710 2.00020E+01 7.68799E-02-6.52708E-04 1.23153E-01-1.24555E-14-1.28146E-13
 -1      3711 1.99916E+01 1.02070E-01 5.01189E-04 1.33518E-01-2.30025E-14-9.49989E-14
 -1      3712 2.00096E+01 7.26506E-02 1.62410E-04 1.07318E-01-6.35315E-14-5.73767E-14
 -1      3713 1.99701E+01 1.28185E-01-8.39032E-04 1.44864E-01-1.02307E-14-7.57941E-14
 -1      3714 1.99581E+01 1.56917E-01 5.25787E-04 1.60606E-01 1.83775E-14-6.04422E-14
 -1      3715 1.99722E+01 1.26681E-01 3.50625E-04 1.25074E-01 1.76685E-14-1.16344E-13
 -1      3716 1.99326E+01 1.86384E-01-1.05114E-03 1.77293E-01 3.41394E-14-9.54652E-15
 -1      3717 1.99181E+01 2.18519E-01 5.66821E-04 1.99261E-01-2.19681E-14 2.68399E-14
 -1      3718 1.99286E+01 1.88382E-01 5.58403E-04 1.52163E-01 4.37888E-14-2.35236E-14
 -1      3719 1.98870E+01 2.51013E-01-1.29045E-03 2.22227E-01-1.01725E-13 6.40494E-14
 -1      3720 1.98692E+01 2.86030E-01 6.33245E-04 2.51307E-01-7.40999E-14 5.89366E-14
 -1      3721 1.98759E+01 2.57450E-01 7.82384E-04 1.90300E-01-1.76328E-14 6.81287E-14
 -1      3722 1.98312E+01 3.20705E-01-1.55474E-03 2.81627E-01-5.98867E-14 3.72732E-14
 -1      3723 1.98096E+01 3.57416E-01 7.39642E-04 3.18736E-01-2.31683E-14 1.51283E-14
 -1      3724 1.98112E+01 3.32813E-01 1.01453E-03 2.41441E-01-9.10185E-14 1.14986E-13
 -1      3725 1.97634E+01 3.92574E-01-1.83753E-03 3.57666E-01-6.28058E-15 5.41780E-15
 -1      3726 1.97378E+01 4.28755E-01 9.10898E-04 4.03752E-01 2.51324E-14 1.99987E-14
 -1      3727 1.97321E+01 4.12040E-01 1.23843E-03 3.07879E-01-3.18380E-14 2.60541E-14
 -1      3728 1.96826E+01 4.61438E-01-2.12670E-03 4.52799E-01 1.82222E-14 2.38125E-14
 -1      3729 1.96537E+01 4.93381E-01 1.18895E-03 5.08840E-01 1.74732E-14 1.08783E-14
 -1      3730 1.96363E+01 4.90611E-01 1.42457E-03 3.92389E-01-2.40725E-14-3.81524E-14
 -1      3731 1.95895E+01 5.18865E-01-2.40147E-03 5.69879E-01 4.20488E-14 1.60038E-15
 -1      3732 1.95595E+01 5.40827E-01 1.64180E-03 6.36913E-01 2.82997E-14 5.58455E-14
 -1      3733 1.95228E+01 5.61024E-01 1.52334E-03 4.98463E-01 4.18080E-14-8.20947E-15
 -1      3734 1.94875E+01 5.52018E-01-2.62496E-03 7.12366E-01 2.41070E-14 5.30775E-14
 -1      3735 1.94609E+01 5.55581E-01 2.37371E-03 7.91532E-01 1.45934E-14 1.38335E-13
 -1      3736 1.93928E+01 6.11711E-01 1.45334E-03 6.30690E-01 2.97846E-14 2.63842E-14
 -1      3737 1.93848E+01 5.42330E-01-2.72598E-03 8.84624E-01-6.07992E-14 1.54357E-13
 -1      3738 1.93700E+01 5.15682E-01 3.53623E-03 9.77148E-01-7.01002E-14 1.00288E-13
 -1      3739 1.92506E+01 6.25743E-01 1.08013E-03 7.95335E-01-1.46898E-14 1.65159E-13
 -1      3740 1.92971E+01 4.64085E-01-2.55199E-03 1.09216E+00-9.54727E-14 6.37605E-14
 -1      3741 1.93082E+01 3.91210E-01 5.29184E-03 1.19907E+00-1.96461E-14 2.84413E-14
 -1      3742 1.91065E+01 5.79298E-01 1.75573E-04 1.00108E+00-1.15830E-13 1.11479E-13
 -1      3743 1.92525E+01 2.82929E-01-1.78667E-03 1.34125E+00 4.81306E-14-6.94711E-14
 -1      3744 1.93125E+01 1.42880E-01 7.77879E-03 1.46215E+00 4.28187E-14-9.76481E-14
 -1      3745 1.89798E+01 4.39599E-01-1.71301E-03 1.25971E+00-6.44934E-14-2.25653E-15
 -1      3746 1.92999E+01-4.48692E-02 5.32156E-04 1.63585E+00 1.03065E-14-1.41840E-13
 -1      3747 1.94429E+01-2.77657E-01 1.09869E-02 1.76547E+00-4.06066E-15-3.65526E-14
 -1      3748 1.89063E+01 1.61839E-01-5.29857E-03 1.58525E+00-3.02181E-15 1.19469E-14
 -1      3749 1.95188E+01-5.69343E-01 6.07599E-03 1.96946E+00 4.43665E-14 1.55451E-14
 -1      3750 1.97912E+01-9.24028E-01 1.34664E-02 2.09031E+00 1.06436E-13 1.52310E-13
 -1      3751 1.89493E+01-3.10697E-01-1.11609E-02 1.98822E+00 8.99875E-14 1.73509E-13
 -1      3752 2.00410E+01-1.33869E+00 1.93506E-02 2.30309E+00 6.70761E-14 6.55630E-14
 -1      3753 2.04986E+01-1.83283E+00 1.41713E-02 2.36724E+00 3.71430E-14 1.09487E-13
 -1      3754 1.92187E+01-1.04786E+00-2.00479E-02 2.46037E+00 4.90014E-14 1.79720E-13
 -1      3755 2.18869E+01-2.79024E+00 3.05082E-02-3.12411E+00 6.37997E-14-6.33224E-13
 -1      3756 2.02995E+01 1.05824E+00-4.74681E-03-2.71505E-01-1.61670E-13-1.94850E-13
 -1      3757 2.14204E+01-2.03395E+00 2.30855E-02-2.86506E+00 8.01384E-14-5.03068E-13
 -1      3758 2.03660E+01 7.04175E-01 4.54387E-03-1.45680E-01-1.38642E-13-1.86852E-13
 -1      3759 2.03525E+01 5.43736E-01-3.50441E-03-7.51298E-02-1.18171E-13-1.75100E-13
 -1      3760 2.00028E+01 8.90961E-02 5.51333E-04-1.40329E-01 6.32258E-14-2.70784E-15
 -1      3761 2.00097E+01 6.49310E-02-6.59657E-04-1.30300E-01 4.03456E-14-3.82323E-14
 -1      3762 2.00257E+01 4.35095E-02 5.40262E-04-1.23890E-01 4.08262E-14-1.19743E-14
 -1      3763 2.00320E+01 2.32331E-02-4.95906E-04-1.18633E-01 3.86753E-14 3.54624E-14
 -1      3764 2.00173E+01 6.09286E-02 1.27630E-04-1.17366E-01 4.57542E-14 3.62310E-15
 -1      3765 1.99418E+01 2.06159E-01 5.58118E-04-2.05498E-01-7.01355E-14 7.09139E-14
 -1      3766 1.99530E+01 1.72805E-01-1.08395E-03-1.83344E-01-4.35799E-14 2.32746E-14
 -1      3767 1.98972E+01 2.79665E-01 5.42634E-04-2.57387E-01 8.21699E-14 2.90184E-14
 -1      3768 1.99128E+01 2.40950E-01-1.36006E-03-2.27886E-01 4.22125E-15 6.56501E-14
 -1      3769 1.99001E+01 2.46486E-01 8.69516E-04-1.98411E-01-2.74291E-14-1.08580E-13
 -1      3770 1.98379E+01 3.64192E-01 5.03544E-04-3.24177E-01 1.20074E-13-2.67409E-14
 -1      3771 1.98597E+01 3.19822E-01-1.69130E-03-2.86511E-01 1.35359E-13 2.21795E-14
 -1      3772 1.98384E+01 3.29626E-01 1.24577E-03-2.47672E-01 8.97674E-14-1.34543E-13
 -1      3773 1.97585E+01 4.59678E-01 4.34619E-04-4.07250E-01 6.84677E-14 3.67441E-14
 -1      3774 1.97888E+01 4.09802E-01-2.08816E-03-3.60676E-01 1.30405E-13 6.30358E-14
 -1      3775 1.97573E+01 4.24566E-01 1.71800E-03-3.09965E-01 7.87560E-14 3.08172E-14
 -1      3776 1.96527E+01 5.64643E-01 3.39425E-04-5.07832E-01-4.70016E-14 3.50444E-14
 -1      3777 1.96943E+01 5.10212E-01-2.56552E-03-4.51705E-01-3.49777E-14-4.84005E-15
 -1      3778 1.96507E+01 5.30875E-01 2.30952E-03-3.86180E-01 2.25915E-14 6.44982E-14
 -1      3779 1.95132E+01 6.75248E-01 2.45394E-04-6.27115E-01-8.10360E-14 2.98312E-14
 -1      3780 1.95693E+01 6.18517E-01-3.14877E-03-5.60827E-01-1.85242E-14 7.01090E-14
 -1      3781 1.95109E+01 6.46517E-01 3.04576E-03-4.77058E-01-6.09457E-14-2.54366E-14
 -1      3782 1.93318E+01 7.83920E-01 2.29033E-04-7.66732E-01-1.50264E-13 1.83942E-15
 -1      3783 1.94054E+01 7.29176E-01-3.88551E-03-6.89465E-01-1.11934E-13 1.15484E-14
 -1      3784 1.93287E+01 7.66923E-01 3.95318E-03-5.83465E-01-7.90126E-14 2.45031E-14
 -1      3785 1.91004E+01 8.77372E-01 4.58315E-04-9.29965E-01-1.42099E-13-4.18934E-14
 -1      3786 1.91936E+01 8.31974E-01-4.86499E-03-8.40057E-01-1.57272E-13-2.58874E-14
 -1      3787 1.90936E+01 8.83743E-01 5.05770E-03-7.07191E-01-1.56079E-13-5.96640E-14
 -1      3788 1.88122E+01 9.33634E-01 1.19146E-03-1.12422E+00-1.82252E-13-1.01277E-13
 -1      3789 1.89247E+01 9.09627E-01-6.24134E-03-1.01791E+00-1.30040E-13-2.22340E-14
 -1      3790 1.87931E+01 9.83137E-01 6.37288E-03-8.52753E-01-1.38115E-13-2.84143E-13
 -1      3791 1.84655E+01 9.18158E-01 3.04200E-03-1.36498E+00-1.30541E-13-2.08690E-13
 -1      3792 1.85911E+01 9.34247E-01-8.25892E-03-1.23440E+00-1.39927E-13-7.89918E-14
 -1      3793 1.84133E+01 1.04295E+00 7.79420E-03-1.03082E+00-8.00315E-14-2.92022E-13
 -1      3794 1.80687E+01 7.78938E-01 7.10980E-03-1.68186E+00-1.44070E-13-1.03446E-13
 -1      3795 1.81901E+01 8.62320E-01-1.12139E-02-1.51259E+00-1.78467E-13-1.65061E-13
 -1      3796 1.79379E+01 1.02846E+00 8.54843E-03-1.26264E+00-1.48693E-13-1.82442E-13
 -1      3797 1.76512E+01 4.32438E-01 1.33577E-02-2.12731E+00-3.08033E-13-4.54181E-14
 -1      3798 1.77328E+01 6.28829E-01-1.46241E-02-1.89577E+00-1.27586E-13-1.38569E-13
 -1      3799 1.73559E+01 8.91406E-01 1.02024E-02-1.58676E+00-1.35788E-13-1.52271E-13
 -1      3800 1.73983E+01-1.37006E+00 1.45466E-02-3.68983E+00-3.57799E-13-2.69923E-14
 -1      3801 2.08136E+01-3.57946E+00 1.20126E-01-3.88083E+00-5.48943E-13 3.46416E-13
 -1      3802 1.52272E+01 1.11539E+00 2.36514E-04 9.84181E-01 2.45645E-13 4.66988E-15
 -1      3803 2.00903E+01-4.85270E-02 4.69741E-04-1.19728E-01-8.00033E-16-2.35491E-14
 -1      3804 2.00992E+01-5.70133E-02-5.23347E-05-1.23183E-01-9.74306E-15-4.20974E-14
 -1      3805 1.82792E+01-2.30101E-01-2.47666E-02-3.04289E+00 2.33816E-13-2.32179E-13
 -1      3806 1.75623E+01-4.19932E-01 8.89503E-04-3.26672E+00 1.99215E-13-1.80862E-13
 -1      3807 2.26188E+01-3.92944E+00 1.01530E-02-2.94408E+00-5.44322E-13 8.33420E-13
 -1      3808 1.68527E+01-6.20501E-01 2.65550E-02-3.62228E+00 2.60183E-13-1.13558E-13
 -1      3809 1.83714E+01-1.33814E+00 4.44976E-02-3.99706E+00 2.79775E-13 7.81927E-15
 -1      3810 2.03056E+01 8.39036E-01 1.61408E-03 2.89339E-01 1.58912E-13-1.45744E-13
 -1      3811 1.92141E+01-5.15087E-01 4.06019E-02-3.15288E+00 1.24046E-13-1.16672E-13
 -1      3812 2.07763E+01-2.28927E+00 6.58967E-03-3.56277E+00 1.47134E-13-4.52779E-13
 -1      3813 1.67882E+01-5.81726E-01-5.91614E-03-3.13683E+00-3.36654E-13-2.56426E-13
 -1      3814 1.94983E+01-1.23248E+00-1.78941E-02-3.40119E+00 1.38624E-13-2.46463E-13
 -1      3815 1.95107E+01-1.05371E+00 6.37707E-03 3.60688E+00 3.37348E-13 7.49046E-13
 -1      3816 2.01622E+01 5.84601E-02-6.25178E-04-1.34939E-01 3.77325E-14-7.88503E-14
 -1      3817 2.01832E+01 1.04968E-01 1.84428E-03-1.10665E-01 2.75774E-14-9.29425E-14
 -1      3818 2.02484E+01 1.62633E-01-7.46454E-04-7.82503E-02 4.44776E-14-1.26312E-13
 -1      3819 2.02004E+01 1.65966E+00-2.63967E-03-3.48380E-02-3.33947E-14-3.10942E-13
 -1      3820 2.02042E+01 1.64165E+00-3.13426E-03-1.25240E-01-8.22070E-14-3.28041E-13
 -1      3821 2.02827E+01 1.42004E+00 5.02377E-03 1.73484E-03-2.51458E-14-2.82529E-13
 -1      3822 2.03593E+01 4.16702E-01 1.47156E-03-3.00730E-02-9.40305E-14-1.57427E-13
 -1      3823 2.03433E+01 3.06388E-01-1.74493E-03 1.78641E-02-7.75478E-14-1.35241E-13
 -1      3824 2.03802E+01 5.33136E-01 6.76919E-04-5.53793E-02-9.43800E-14-1.78349E-13
 -1      3825 1.99758E+01 1.42975E-01 5.58576E-04-1.67001E-01-7.64119E-15 4.17539E-14
 -1      3826 1.99843E+01 1.14481E-01-8.53665E-04-1.51340E-01 4.05665E-14 1.74068E-14
 -1      3827 1.99478E+01 1.74638E-01 5.68746E-04-1.61103E-01-1.78488E-14 6.81491E-14
 -1      3828 1.98359E+01-2.03356E+00-1.50880E-03-3.76052E+00 2.68511E-13-3.14256E-13
 -1      3829 2.03365E+01 2.17545E-01 1.31247E-03 4.71321E-02-7.19232E-14-1.15329E-13
 -1      3830 2.03160E+01 1.43501E-01-1.02209E-03 7.66347E-02-7.06184E-14-1.07648E-13
 -1      3831 2.03427E+01 1.33804E-01-1.57282E-04 6.88891E-02-5.15113E-14-1.43698E-13
 -1      3832 2.03712E+01 2.95475E-01 2.05882E-04 2.11257E-02-6.95936E-14-1.59793E-13
 -1      3833 2.02107E+01 1.61193E+00-1.82029E-03-1.97128E-01-1.24918E-13-3.33345E-13
 -1      3834 2.02225E+01 1.56039E+00-1.60767E-03-2.78063E-01-1.48691E-13-3.00449E-13
 -1      3835 2.02875E+01 1.39034E+00 5.85879E-03-1.32280E-01-9.92336E-14-2.75484E-13
 -1      3836 2.03208E+01 9.17285E-01-2.19178E-03 2.74904E-01 1.27239E-13-1.69020E-13
 -1      3837 2.03246E+01 1.01708E+00 2.13206E-04 2.49082E-01 8.32284E-14-2.05102E-13
 -1      3838 2.03310E+01 7.60680E-01 3.50925E-03 2.00663E-01 1.17618E-13-1.41464E-13
 -1      3839 2.03154E+01 3.13841E-01-1.76590E-03-1.09728E-02 5.37729E-14-1.43140E-13
 -1      3840 2.03390E+01 4.24313E-01 3.73381E-03 4.61341E-02 7.95970E-14-1.26451E-13
 -1      3841 1.99295E+01-2.12852E+00-1.98048E-02 2.96246E+00 3.84181E-14 1.80160E-14
 -1      3842 2.10686E+01-2.42513E+00 3.24757E-02 2.53241E+00 6.64311E-14 5.82175E-14
 -1      3843 2.17961E+01-2.97457E+00 1.89442E-02 2.43767E+00 2.00277E-13 6.62803E-14
 -1      3844 1.48619E+01-6.58813E-01 4.98720E-02 3.45286E+00 1.19760E-13-2.67435E-13
 -1      3845 1.99857E+01 1.13129E-01 3.26321E-04-1.34526E-01 4.17995E-14-1.26155E-14
 -1      3846 2.03249E+01 1.03145E+00-1.14953E-03-2.18460E-01-1.47750E-13-2.14587E-13
 -1      3847 2.02122E+01-1.86980E-02-1.39500E-04-1.36521E-01 2.41965E-14-1.00950E-13
 -1      3848 2.02311E+01 9.37245E-03 8.96191E-04-1.28902E-01 3.77140E-14-9.05862E-14
 -1      3849 2.01155E+01-6.27363E-02 4.10753E-04-1.27172E-01 1.25420E-14-5.11622E-14
 -1      3850 2.01265E+01-6.58128E-02 1.21113E-04-1.31126E-01 1.18225E-16-7.69797E-14
 -1      3851 2.01309E+01-6.33439E-02-4.03702E-04-1.13784E-01 6.76577E-15-7.39957E-14
 -1      3852 2.00455E+01 1.71461E-02-5.02971E-05-1.08252E-01-8.13466E-15 3.07882E-14
 -1      3853 2.00467E+01 5.43992E-03 5.27164E-04-1.16108E-01-5.11151E-14 3.87310E-14
 -1      3854 2.00532E+01-1.11485E-02-3.48183E-04-1.14758E-01-9.12088E-14 1.31871E-14
 -1      3855 1.72705E+01-2.76901E-01 1.24827E-02-2.81104E+00-4.44240E-13-2.14071E-13
 -1      3856 1.72493E+01 1.37065E-01-1.77837E-02-2.45438E+00-4.66373E-13-1.36972E-13
 -1      3857 2.03261E+01 6.17659E-01-2.86115E-03 1.28353E-01 9.20085E-14-1.38166E-13
 -1      3858 1.32564E+01 4.75113E-01-3.60022E-02 1.76758E+00 1.41325E-13-5.04520E-13
 -1      3859 1.25906E+01 7.81169E-01 8.89327E-02 9.86456E-01 1.68662E-13-6.09020E-13
 -1      3860 1.32683E+01 9.04823E-01 1.98590E-02 1.68553E-01 1.36635E-13-4.61142E-13
 -1      3861 2.00752E+01-3.81702E-02-2.05738E-04-1.16923E-01 7.37087E-15 2.20038E-14
 -1      3862 2.01007E+01-4.57360E-02-3.06024E-04-1.08227E-01-2.55833E-14 4.51175E-14
 -1      3863 2.00677E+01-2.53599E-02 5.04512E-04-1.15325E-01-5.87854E-14 3.52168E-14
 -1      3864 2.26906E+01-3.19231E+00 6.49393E-02 2.08858E+00 2.26490E-13 9.91533E-14
 -1      3865 2.03539E+01 6.02802E-01-2.51245E-03 1.01898E-01 8.49732E-14-1.46622E-13
 -1      3866 2.01928E+01-3.86939E-02 5.86053E-04-1.38779E-01 2.41349E-14-1.05760E-13
 -1      3867 2.02405E+01-2.54085E-02-5.59166E-04-1.21496E-01 2.44526E-14-8.97285E-14
 -1      3868 2.01766E+01-5.28688E-02 1.31568E-04-1.39654E-01-5.27578E-15-9.61600E-14
 -1      3869 1.57800E+01 1.03873E-01 4.46946E-02-2.69154E+00-3.73015E-13-4.67244E-13
 -1      3870 1.55755E+01-5.11665E-02 5.19844E-02-3.21471E+00 1.77566E-13-4.45487E-13
 -1      3871 2.02107E+01 5.54654E-02-7.66571E-04-1.26991E-01 4.29841E-14-9.85925E-14
 -1      3872 2.03212E+01 1.19440E+00-2.62319E-03 3.20011E-02-2.35076E-14-2.43655E-13
 -1      3873 2.03210E+01 1.19521E+00-2.55303E-03-2.90682E-02-6.39882E-14-2.56848E-13
 -1      3874 1.94732E+01-2.15454E+00 2.29063E-02 3.30509E+00-4.29648E-14-1.35623E-13
 -1      3875 1.83440E+01-2.17124E+00 1.15012E-02 3.90660E+00-2.16702E-14-1.89916E-13
 -1      3876 1.74905E+01-1.50461E+00 2.64375E-02 3.67858E+00 2.44596E-15-1.55214E-13
 -1      3877 1.89485E+01-1.48935E+00 1.42766E-02 3.01044E+00-8.56457E-14 3.95821E-14
 -1      3878 1.41442E+01 6.08243E-01 7.13619E-02-1.93352E+00-1.18900E-13-1.36120E-13
 -1      3879 1.49455E+01 2.55488E-01 5.86573E-03-2.34422E+00-1.90959E-13-3.05388E-13
 -1      3880 1.54634E+01 4.71603E-01-1.67545E-02-2.11441E+00-2.52482E-13-1.91164E-13
 -1      3881 1.66605E+01 5.60283E-01 1.69680E-02-2.08167E+00-3.39427E-13-1.96144E-13
 -1      3882 2.03237E+01 1.14552E+00-3.25456E-03 1.33890E-01 2.56229E-14-2.59254E-13
 -1      3883 2.03224E+01 1.18151E+00-1.72371E-03 7.78005E-02-4.12088E-15-2.41728E-13
 -1      3884 2.03758E+01 9.96900E-01 4.83717E-03 4.15904E-02-1.87854E-14-2.20263E-13
 -1      3885 2.02814E+01 1.39987E+00 5.68523E-03-2.66254E-01-1.47955E-13-2.76737E-13
 -1      3886 1.38528E+01 7.55729E-01-1.50316E-03-1.23675E+00-4.48114E-14-1.98078E-13
 -1      3887 2.03071E+01 2.24966E-01 1.50941E-03-4.60951E-02 3.75688E-14-1.25863E-13
 -1      3888 2.03479E+01 3.08581E-01-3.02556E-04-1.57883E-02 4.08929E-14-1.22187E-13
 -1      3889 2.02857E+01 1.51291E-01-9.54797E-04-8.06890E-02 3.71239E-14-1.22724E-13
 -1      3890 2.03228E+01 1.18061E+00-2.07222E-03-7.48991E-02-8.25618E-14-2.54143E-13
 -1      3891 2.03259E+01 1.14151E+00-4.09599E-03-1.35122E-01-1.24862E-13-2.78155E-13
 -1      3892 2.03757E+01 9.94800E-01 4.07829E-03-3.77233E-02-8.20922E-14-2.30483E-13
 -1      3893 1.60494E+01-8.01028E-01-2.60314E-02 3.40980E+00 3.74535E-14-2.97104E-13
 -1      3894 1.46642E+01 1.05945E-01 6.61448E-02 2.71714E+00 1.55909E-13-3.91244E-13
 -1      3895 2.02993E+01-1.86813E-02 5.05852E-04 8.44174E-02 1.27884E-14-1.98245E-13
 -1      3896 2.02769E+01-4.23747E-02 1.18124E-05 8.81945E-02 2.00525E-14-1.56749E-13
 -1      3897 2.02537E+01-5.83482E-02 3.59884E-04 8.80345E-02-3.74570E-15-1.65050E-13
 -1      3898 2.02325E+01-6.83131E-02 1.92660E-04 8.82415E-02-2.52663E-14-1.75015E-13
 -1      3899 2.02849E+01-4.90631E-02-4.71129E-04 6.84926E-02 1.43715E-14-1.61007E-13
 -1      3900 2.02094E+01-7.27044E-02 2.08232E-04 8.63055E-02-3.85098E-14-1.53602E-13
 -1      3901 2.01898E+01-7.24698E-02 2.96562E-04 8.48155E-02-7.20255E-14-1.01594E-13
 -1      3902 2.02381E+01-7.15308E-02-5.10121E-04 6.83109E-02-3.25274E-14-1.81405E-13
 -1      3903 2.01675E+01-6.83384E-02 8.37292E-05 8.24892E-02-5.78832E-14-8.29362E-14
 -1      3904 2.01497E+01-6.06425E-02 3.45071E-04 8.07364E-02-3.14247E-14-7.99652E-14
 -1      3905 2.01930E+01-7.21874E-02-4.58025E-04 6.58325E-02-2.42762E-14-1.17466E-13
 -1      3906 2.01284E+01-5.01223E-02-4.67035E-05 7.88887E-02-6.32631E-14-5.71911E-14
 -1      3907 2.01119E+01-3.66768E-02 3.54989E-04 7.79902E-02-7.10136E-14-5.67575E-14
 -1      3908 2.01502E+01-5.68144E-02-3.56764E-04 6.31099E-02-3.24412E-14-4.47575E-14
 -1      3909 2.00911E+01-2.10478E-02-1.77668E-04 7.73263E-02-5.37933E-14-7.11174E-14
 -1      3910 2.00753E+01-2.81970E-03 3.44323E-04 7.81956E-02-5.26729E-14-7.85163E-14
 -1      3911 2.01094E+01-2.90609E-02-2.18211E-04 6.16812E-02-7.96564E-14-1.44911E-13
 -1      3912 2.00543E+01 1.71491E-02-3.24834E-04 7.93833E-02-6.26892E-14-1.11255E-13
 -1      3913 2.00384E+01 3.96370E-02 3.18001E-04 8.27516E-02-8.57514E-14-9.79253E-14
 -1      3914 2.00692E+01 8.96404E-03-4.12513E-05 6.28372E-02-5.75693E-14-1.39561E-13
 -1      3915 2.00159E+01 6.37071E-02-4.95706E-04 8.63217E-02-7.19259E-14-1.01607E-13
 -1      3916 1.99988E+01 9.03542E-02 2.88149E-04 9.29255E-02-4.51016E-14-8.33720E-14
 -1      3917 2.00277E+01 5.60382E-02 1.32619E-04 6.76925E-02-7.91999E-14-1.00653E-13
 -1      3918 1.99735E+01 1.18476E-01-6.86770E-04 9.94951E-02-2.19914E-14-6.26662E-14
 -1      3919 1.99540E+01 1.49315E-01 2.58935E-04 1.10049E-01 4.28952E-14-3.37968E-14
 -1      3920 1.99823E+01 1.12036E-01 3.53202E-04 7.73737E-02-1.64428E-14-2.68890E-14
 -1      3921 1.99243E+01 1.81528E-01-9.09897E-04 1.20283E-01 6.66591E-14-5.47412E-14
 -1      3922 1.99011E+01 2.16587E-01 2.37017E-04 1.35553E-01 4.07071E-14-4.62251E-14
 -1      3923 1.99301E+01 1.76966E-01 6.06169E-04 9.30711E-02 4.11057E-14-5.62335E-14
 -1      3924 1.98650E+01 2.52809E-01-1.17181E-03 1.50243E-01 1.56569E-14-6.34424E-14
 -1      3925 1.98368E+01 2.91895E-01 2.31429E-04 1.71091E-01-1.62506E-14-7.87212E-14
 -1      3926 1.98676E+01 2.50899E-01 8.91118E-04 1.16149E-01 4.11309E-14-9.30212E-14
 -1      3927 1.97923E+01 3.31686E-01-1.47877E-03 1.91217E-01-6.27677E-14 2.25535E-14
 -1      3928 1.97577E+01 3.74131E-01 2.55884E-04 2.18647E-01-6.73556E-14 4.80292E-14
 -1      3929 1.97910E+01 3.33493E-01 1.20816E-03 1.48277E-01 4.02848E-14-1.29180E-13
 -1      3930 1.97027E+01 4.16415E-01-1.83809E-03 2.45459E-01-7.53539E-14 1.19506E-13
 -1      3931 1.96605E+01 4.60766E-01 3.32578E-04 2.80676E-01-6.26292E-14-1.62728E-14
 -1      3932 1.96964E+01 4.23478E-01 1.55442E-03 1.91576E-01-2.89899E-14-2.34461E-14
 -1      3933 1.95931E+01 5.03481E-01-2.25957E-03 3.15810E-01-5.98544E-14 4.20675E-14
 -1      3934 1.95426E+01 5.47135E-01 4.97732E-04 3.60328E-01-5.45221E-14 1.46061E-14
 -1      3935 1.95795E+01 5.18066E-01 1.92229E-03 2.48830E-01-6.81496E-14 1.07784E-13
 -1      3936 1.94606E+01 5.86823E-01-2.75780E-03 4.05989E-01-1.60003E-14-1.90700E-14
 -1      3937 1.94020E+01 6.25592E-01 8.09918E-04 4.61792E-01 3.03894E-14 5.07133E-14
 -1      3938 1.94366E+01 6.12250E-01 2.29776E-03 3.23800E-01-1.72803E-14 7.94009E-14
 -1      3939 1.93038E+01 6.56901E-01-3.35492E-03 5.21040E-01 2.69833E-14 6.50936E-14
 -1      3940 1.92387E+01 6.84506E-01 1.36258E-03 5.90852E-01 5.99915E-14 1.01775E-13
 -1      3941 1.92642E+01 6.97994E-01 2.65783E-03 4.21729E-01 5.31601E-14 2.43239E-14
 -1      3942 1.91233E+01 6.99618E-01-4.08119E-03 6.68056E-01 2.81886E-15 6.05589E-14
 -1      3943 1.90557E+01 7.07091E-01 2.29825E-03 7.55729E-01-6.99092E-14 7.39815E-14
 -1      3944 1.90600E+01 7.63308E-01 2.96422E-03 5.50128E-01 1.85932E-14 6.09790E-14
 -1      3945 1.89231E+01 6.95032E-01-4.96871E-03 8.57204E-01-6.74405E-14 5.76559E-14
 -1      3946 1.88609E+01 6.70036E-01 3.85917E-03 9.68194E-01-3.84583E-14 9.95971E-14
 -1      3947 1.88233E+01 7.91127E-01 3.14715E-03 7.19984E-01-5.76933E-14 1.23995E-15
 -1      3948 1.87130E+01 6.15935E-01-6.01382E-03 1.10323E+00-8.39084E-14 1.79340E-13
 -1      3949 1.86706E+01 5.41668E-01 6.34072E-03 1.24508E+00-9.36968E-14 1.56008E-13
 -1      3950 1.85563E+01 7.58050E-01 3.07049E-03 9.47394E-01-2.92732E-14 1.85404E-13
 -1      3951 1.85135E+01 4.25208E-01-7.02306E-03 1.42777E+00-6.34236E-14 1.15809E-13
 -1      3952 1.85169E+01 2.77710E-01 1.03696E-02 1.60956E+00 6.91488E-14 1.57647E-13
 -1      3953 1.82656E+01 6.31808E-01 2.16424E-03 1.25759E+00-8.65806E-14 2.26572E-13
 -1      3954 1.83688E+01 7.13613E-02-5.89956E-03 1.85685E+00 9.08438E-14 1.55659E-15
 -1      3955 1.84558E+01-1.81654E-01 1.67188E-02 2.08602E+00 6.09843E-14-3.99340E-14
 -1      3956 1.79704E+01 3.59640E-01-1.33154E-03 1.68451E+00 3.12892E-14 2.06096E-14
 -1      3957 1.84669E+01-5.41592E-01-3.87091E-04 2.40399E+00 1.83289E-14 2.72005E-14
 -1      3958 1.87063E+01-9.62723E-01 1.89106E-02 2.67645E+00 2.09652E-14 3.68396E-15
 -1      3959 1.80580E+01-1.04960E+00-1.54848E-02 3.00748E+00-2.98472E-14-1.40048E-13
 -1      3960 1.78186E+01-1.51616E-01-6.83660E-03 2.26979E+00 3.04141E-14-1.69947E-13
 -1      3961 1.96823E+01 4.72106E-01-2.63293E-04-2.78812E-01 1.59405E-15-4.08071E-14
 -1      3962 1.97282E+01 4.19285E-01-1.77622E-03-2.46933E-01 2.77693E-14-1.09577E-13
 -1      3963 2.00091E+01 7.78600E-02 3.37179E-04-1.04966E-01 5.09590E-14 8.73000E-14
 -1      3964 2.00234E+01 5.23585E-02-4.85490E-04-9.86425E-02 2.04864E-14 5.44569E-14
 -1      3965 1.55392E+01 9.15294E-01 3.95894E-02-1.48699E+00-2.39953E-13 4.15969E-14
 -1      3966 1.61162E+01 6.90735E-01 4.11502E-03-1.81283E+00-3.34828E-13-3.64283E-14
 -1      3967 1.64704E+01 8.69821E-01-2.39299E-02-1.54002E+00-2.25773E-13-2.15702E-15
 -1      3968 1.97833E+01 3.70396E-01-5.83873E-05-2.24437E-01 6.42578E-14-4.62640E-14
 -1      3969 1.98181E+01 3.23540E-01-1.43168E-03-1.98546E-01 6.74441E-14-1.44912E-13
 -1      3970 1.97217E+01 4.20875E-01 1.81011E-03-1.94472E-01 3.38850E-14-1.69874E-14
 -1      3971 1.98611E+01 2.80579E-01 9.14881E-05-1.80521E-01 1.34410E-14-1.00999E-13
 -1      3972 1.98875E+01 2.39685E-01-1.13942E-03-1.60289E-01-1.01449E-15-2.99797E-14
 -1      3973 1.98153E+01 3.22772E-01 1.31790E-03-1.57786E-01 3.91311E-14 1.38297E-14
 -1      3974 1.95506E+01 5.84840E-01-5.35204E-04-3.43894E-01 6.36490E-14-8.52295E-14
 -1      3975 1.96114E+01 5.26658E-01-2.18776E-03-3.05843E-01 8.03948E-14-7.47602E-15
 -1      3976 1.96010E+01 5.31021E-01 2.42039E-03-2.38649E-01 2.14765E-14-1.29199E-13
 -1      3977 1.93797E+01 7.06000E-01-8.79214E-04-4.19673E-01-1.17320E-13-7.98876E-14
 -1      3978 1.94595E+01 6.44009E-01-2.69432E-03-3.75370E-01-7.70703E-14-1.08271E-13
 -1      3979 1.94451E+01 6.51856E-01 3.18308E-03-2.89859E-01-1.13223E-14-1.06323E-13
 -1      3980 1.91589E+01 8.30434E-01-1.28487E-03-5.06191E-01-1.43481E-13-1.43227E-14
 -1      3981 1.92628E+01 7.67552E-01-3.35217E-03-4.55446E-01-7.19180E-14-3.95870E-14
 -1      3982 1.92444E+01 7.80211E-01 4.14771E-03-3.47293E-01-1.03963E-13-6.28756E-14
 -1      3983 1.88756E+01 9.49436E-01-1.71131E-03-6.04386E-01-1.18948E-13-1.35789E-13
 -1      3984 1.90093E+01 8.90442E-01-4.27349E-03-5.46358E-01-1.57375E-13-9.32384E-14
 -1      3985 1.89866E+01 9.10452E-01 5.39278E-03-4.10116E-01-7.69647E-14-9.16496E-14
 -1      3986 1.85137E+01 1.04957E+00-2.02611E-03-7.17945E-01-9.94133E-14-2.09319E-13
 -1      3987 1.86835E+01 1.00165E+00-5.67248E-03-6.49982E-01-1.16624E-13-1.79204E-13
 -1      3988 1.86564E+01 1.03384E+00 7.06049E-03-4.78343E-01-8.75440E-14-1.16288E-13
 -1      3989 1.80534E+01 1.11082E+00-1.86053E-03-8.57134E-01-7.65023E-14-1.60404E-13
 -1      3990 1.82654E+01 1.08473E+00-7.88719E-03-7.72677E-01-9.90855E-14-1.76142E-13
 -1      3991 1.82324E+01 1.13820E+00 9.42210E-03-5.54805E-01-1.17228E-13-5.82645E-14
 -1      3992 1.74687E+01 1.10295E+00 3.21371E-04-1.04558E+00-1.86865E-13-8.44247E-14
 -1      3993 1.77292E+01 1.11529E+00-1.09946E-02-9.30965E-01-1.42448E-13-6.93382E-14
 -1      3994 1.76811E+01 1.20562E+00 1.19416E-02-6.49703E-01-1.92029E-13 3.22307E-14
 -1      3995 1.68499E+01 9.79342E-01 7.41532E-04-1.34736E+00-1.95147E-13-5.07171E-14
 -1      3996 1.71593E+01 1.05099E+00-1.77349E-02-1.17367E+00-1.71034E-13-3.54003E-14
 -1      3997 1.70828E+01 1.20709E+00 1.70181E-02-8.07655E-01-1.98652E-13 1.57670E-13
 -1      3998 1.64667E+01 1.13081E+00 2.60175E-02-1.08367E+00-2.68206E-13 1.41182E-13
 -1      3999 2.02810E+01 3.81950E-02-5.03785E-04-1.07330E-01 2.59297E-14-8.32658E-14
 -1      4000 2.02495E+01 4.54486E-02-4.98358E-04-1.19460E-01 2.01068E-14-9.22193E-14
 -1      4001 2.02705E+01 9.27333E-02 1.21639E-03-1.00942E-01 1.85929E-14-1.11707E-13
 -1      4002 1.99694E+01 1.35198E-01 2.78434E-04-1.21650E-01 2.48180E-14 7.37861E-14
 -1      4003 1.99860E+01 1.05031E-01-6.78357E-04-1.11275E-01 5.05479E-14 6.00926E-14
 -1      4004 1.99942E+01 9.88130E-02 3.21593E-04-9.14923E-02 5.03052E-14 9.72801E-14
 -1      4005 2.01442E+01-6.55180E-02 3.07386E-04-1.34972E-01-2.31303E-14-1.14930E-13
 -1      4006 2.01577E+01-6.13723E-02 3.25334E-04-1.37671E-01-3.48167E-14-1.11793E-13
 -1      4007 2.02010E+01-5.82898E-02-5.49419E-04-1.23953E-01-4.77523E-17-7.01513E-14
 -1      4008 2.01642E+01-6.88754E-02-4.89711E-04-1.20044E-01-2.35988E-14-1.09809E-13
 -1      4009 2.03254E+01 1.05517E+00-3.56530E-03 2.16025E-01 6.40597E-14-2.38845E-13
 -1      4010 2.03237E+01 1.12427E+00-1.34613E-03 1.71391E-01 3.36619E-14-2.54524E-13
 -1      4011 2.03752E+01 9.57887E-01 6.30642E-03 1.12652E-01 1.73993E-14-2.29364E-13
 -1      4012 2.03647E+01 8.85338E-01 5.37978E-03 1.66804E-01 8.07908E-14-2.02527E-13
 -1      4013 2.03670E+01 6.44457E-01-2.01572E-03 8.55678E-02 5.57179E-14-1.79082E-13
 -1      4014 1.99214E+01 2.02445E-01 1.99781E-04-1.46521E-01-1.07006E-14 5.11729E-14
 -1      4015 1.99419E+01 1.67160E-01-8.90332E-04-1.31490E-01 1.98408E-14 7.03069E-14
 -1      4016 1.99465E+01 1.62494E-01 5.91322E-04-1.06721E-01 2.08402E-14 8.46926E-14
 -1      4017 2.03427E+01 5.60966E-02 5.98121E-04 7.17597E-02-2.37286E-14-2.01368E-13
 -1      4018 2.03208E+01 1.33110E-02-2.94201E-04 8.15676E-02-1.69939E-14-2.03633E-13
 -1      4019 2.03312E+01 2.75409E-03-3.58655E-04 6.38573E-02 2.14316E-14-1.57370E-13
 -1      4020 2.03944E+01 6.31502E-01-8.51592E-04-7.39321E-02-6.84924E-14-2.63036E-13
 -1      4021 2.03965E+01 4.87387E-01-1.46013E-03-2.53028E-02-4.59805E-14-2.28216E-13
 -1      4022 1.40419E+01 1.05005E+00 5.53440E-02-5.27036E-01-3.10342E-15-2.31050E-13
 -1      4023 1.48087E+01 9.34766E-01 7.96253E-03-1.06887E+00-1.31646E-13-7.37379E-14
 -1      4024 1.54095E+01 1.04018E+00-2.32364E-02-8.84018E-01-2.36100E-13 3.05845E-14
 -1      4025 2.03951E+01 8.26220E-01-1.34179E-03-1.08947E-02-5.86235E-14-2.15383E-13
 -1      4026 2.03911E+01 8.11321E-01-2.63358E-03-4.36734E-02-8.61696E-14-2.30041E-13
 -1      4027 1.70971E+01-8.10907E-01 2.04277E-02 3.12267E+00-2.68795E-15-2.08011E-13
 -1      4028 2.03191E+01 1.44532E-01-3.23303E-04-7.46482E-02 1.53060E-14-1.23542E-13
 -1      4029 1.98884E+01 2.36843E-01 9.18253E-04-1.28636E-01 4.43991E-14 8.05595E-14
 -1      4030 2.00353E+01 4.49747E-02 7.21382E-05-8.22776E-02 1.76178E-14 6.87670E-14
 -1      4031 2.00439E+01 2.95928E-02 3.72320E-04-9.53444E-02 7.00561E-15 6.53399E-15
 -1      4032 2.00571E+01 8.36565E-03-3.60478E-04-9.23737E-02-2.14753E-14 1.64782E-14
 -1      4033 2.01437E+01-6.23355E-02 3.80225E-04-9.67267E-02-2.81015E-14 2.80013E-14
 -1      4034 2.01596E+01-6.86154E-02 1.03641E-04-9.91272E-02-2.76435E-14-5.75199E-15
 -1      4035 2.03046E+01 2.36446E-02-1.93813E-04-9.57140E-02 1.96284E-14-9.94379E-14
 -1      4036 2.03257E+01 6.76120E-02 4.98075E-04-8.34468E-02 1.49060E-14-9.87628E-14
 -1      4037 2.03922E+01 8.07162E-01-3.13626E-03 4.74417E-02-1.70467E-14-2.06267E-13
 -1      4038 2.03941E+01 8.23735E-01-2.18162E-03 1.31549E-02-4.56706E-14-2.16117E-13
 -1      4039 2.04241E+01 6.73682E-01 3.06011E-03-1.30582E-03-5.16422E-14-1.88853E-13
 -1      4040 1.46582E+01 4.44297E-01 1.37731E-02 1.92102E+00 1.04633E-13-4.50388E-13
 -1      4041 2.00727E+01-1.84761E-02-1.83489E-04-1.05746E-01-6.34874E-14 5.62206E-14
 -1      4042 2.03380E+01 9.83246E-01-2.91559E-03-1.54054E-01-1.29343E-13-2.50915E-13
 -1      4043 2.03931E+01 4.86555E-01 3.10270E-03 3.16683E-02 4.21871E-14-1.65005E-13
 -1      4044 2.03847E+01 7.20159E-01-3.73878E-03 8.54090E-02 4.75210E-14-2.13272E-13
 -1      4045 2.03761E+01 2.60387E-01-3.10673E-04-3.38943E-02 5.92537E-15-1.33837E-13
 -1      4046 2.03884E+01 3.57376E-01-5.83819E-04 2.53881E-03 2.31192E-14-1.44937E-13
 -1      4047 2.04100E+01 4.30304E-01 5.42106E-04 1.05673E-02 1.57145E-14-1.51233E-13
 -1      4048 2.01093E+01-4.11728E-02 4.02436E-04-9.26765E-02-6.13427E-14 1.31751E-13
 -1      4049 2.01236E+01-5.32213E-02-4.56472E-05-9.42644E-02-4.85171E-14 7.27881E-14
 -1      4050 2.01483E+01-5.98091E-02-3.71069E-04-8.02357E-02-8.12457E-14 1.10046E-13
 -1      4051 1.41478E+01 9.91033E-01-2.71972E-02 1.82118E-01-2.50217E-14-4.27506E-13
 -1      4052 2.02627E+01-3.54282E-02 7.65563E-05-1.05347E-01 2.08404E-14-9.06262E-14
 -1      4053 2.02834E+01-1.01692E-02 5.07002E-04-1.00353E-01 2.14502E-14-9.38695E-14
 -1      4054 2.03209E+01 1.35993E-02-4.37442E-04-7.93387E-02 1.21329E-14-1.52879E-14
 -1      4055 2.03601E+01 1.10236E-01-6.08603E-04 6.38687E-02-3.62475E-14-1.96054E-13
 -1      4056 2.03730E+01 9.48533E-02-1.86780E-04 5.11458E-02-4.80979E-14-2.11034E-13
 -1      4057 2.03788E+01 1.78496E-01 5.58327E-04 4.49519E-02-5.20042E-14-1.89629E-13
 -1      4058 2.03996E+01 3.64541E-01 3.91210E-04-1.35265E-03-5.78515E-14-2.30880E-13
 -1      4059 2.03887E+01 2.62558E-01-8.97088E-04 3.00728E-02-6.00536E-14-2.18889E-13
 -1      4060 2.04144E+01 4.57743E-01 3.57195E-04-1.42445E-02-4.15290E-14-2.63711E-13
 -1      4061 2.03808E+01 8.29835E-01 3.04860E-03-9.49863E-02-1.07322E-13-2.45860E-13
 -1      4062 1.68783E+01-3.00100E-01-3.41957E-03 2.69963E+00 5.11611E-14-2.62124E-13
 -1      4063 1.99247E+01 1.84534E-01-1.21009E-04-8.59304E-02 3.22998E-14 2.25786E-14
 -1      4064 1.99509E+01 1.49189E-01-6.24666E-04-7.74819E-02 3.58166E-14 3.88410E-15
 -1      4065 2.02628E+01-6.95240E-02 2.12848E-04 4.70327E-02-1.77964E-14-1.99052E-13
 -1      4066 2.02397E+01-7.45623E-02 3.75591E-04 4.76299E-02-3.07856E-14-1.89244E-13
 -1      4067 2.02150E+01-7.49874E-02 2.03593E-04 4.58682E-02-1.83395E-14-1.79531E-13
 -1      4068 2.01931E+01-7.07196E-02 3.89894E-04 4.56619E-02 7.20815E-16-1.64213E-13
 -1      4069 2.02341E+01-7.62939E-02-1.02251E-03 2.58054E-02-7.87449E-15-2.41256E-13
 -1      4070 2.01693E+01-6.30761E-02 9.76738E-05 4.40439E-02-2.62075E-15-1.59477E-13
 -1      4071 2.01486E+01-5.16666E-02 3.52835E-04 4.38317E-02-6.24739E-14-1.56977E-13
 -1      4072 2.01867E+01-6.84163E-02-8.19667E-04 2.49930E-02-1.57828E-14-2.54863E-13
 -1      4073 2.01255E+01-3.77693E-02-3.55378E-05 4.27669E-02-1.06894E-13-1.56160E-13
 -1      4074 2.01053E+01-2.06658E-02 2.26830E-04 4.31386E-02-7.27122E-14-1.67144E-13
 -1      4075 2.01414E+01-4.52772E-02-4.51967E-04 2.44650E-02-5.28380E-14-1.85792E-13
 -1      4076 2.00825E+01-1.39833E-03-1.12441E-04 4.32397E-02-6.94507E-14-1.64333E-13
 -1      4077 2.00624E+01 2.04486E-02 2.21127E-04 4.48737E-02-6.43559E-14-1.49081E-13
 -1      4078 2.00966E+01-1.02734E-02-1.35113E-04 2.47100E-02-7.79108E-14-2.13487E-13
 -1      4079 2.00383E+01 4.43367E-02-3.28168E-04 4.58135E-02-1.78580E-14-1.09797E-13
 -1      4080 2.00171E+01 7.09909E-02 1.70379E-04 4.93280E-02-2.30800E-14-2.42928E-14
 -1      4081 2.00517E+01 3.47858E-02 1.55223E-04 2.60528E-02-3.74491E-14-2.01844E-13
 -1      4082 1.99904E+01 9.93244E-02-5.27103E-04 5.18054E-02 3.45295E-15-3.13009E-14
 -1      4083 1.99667E+01 1.30651E-01 9.55163E-05 5.76239E-02 4.34889E-14 2.06759E-14
 -1      4084 2.00033E+01 8.98863E-02 5.65302E-04 2.96416E-02 3.31572E-14-1.44671E-13
 -1      4085 1.99358E+01 1.63556E-01-7.68595E-04 6.20084E-02 3.75599E-14 1.05720E-13
 -1      4086 1.99080E+01 1.99700E-01 2.06418E-05 7.06964E-02 7.60652E-14 9.64037E-14
 -1      4087 1.99487E+01 1.54753E-01 1.07657E-03 3.58385E-02 9.06959E-14-1.23499E-15
 -1      4088 1.98707E+01 2.37271E-01-1.06019E-03 7.75246E-02 5.49485E-15 8.45193E-14
 -1      4089 1.98371E+01 2.78320E-01-4.76477E-05 8.97551E-02-1.48314E-14 3.85315E-14
 -1      4090 1.98842E+01 2.29706E-01 1.67519E-03 4.54925E-02 8.14100E-17 3.08861E-14
 -1      4091 1.97911E+01 3.20463E-01-1.41368E-03 9.97565E-02 1.51302E-14-6.05501E-14
 -1      4092 1.97497E+01 3.66222E-01-9.91618E-05 1.16370E-01 3.51608E-15-1.04794E-13
 -1      4093 1.98054E+01 3.14974E-01 2.37474E-03 5.97354E-02-9.32683E-14-7.82270E-14
 -1      4094 1.96923E+01 4.12414E-01-1.84548E-03 1.30548E-01-4.46443E-15-1.80452E-13
 -1      4095 1.96413E+01 4.62155E-01-1.17363E-04 1.52638E-01-2.00693E-14-1.38115E-13
 -1      4096 1.97076E+01 4.10263E-01 3.19394E-03 8.01295E-02-5.13967E-14-1.76739E-13
 -1      4097 1.95696E+01 5.11162E-01-2.37919E-03 1.72387E-01-1.89852E-14-1.64881E-14
 -1      4098 1.95070E+01 5.63333E-01-7.57151E-05 2.01427E-01-5.04633E-14-7.05564E-15
 -1      4099 1.95855E+01 5.14283E-01 4.15701E-03 1.08873E-01 1.84513E-14-2.05035E-13
 -1      4100 1.94177E+01 6.12880E-01-3.05091E-03 2.28701E-01-7.64814E-14 6.55411E-14
 -1      4101 1.93419E+01 6.64780E-01 6.76759E-05 2.66741E-01 8.27696E-15 6.00368E-14
 -1      4102 1.94332E+01 6.24200E-01 5.29953E-03 1.49093E-01 2.40193E-14-6.76940E-14
 -1      4103 1.92312E+01 7.11173E-01-3.91888E-03 3.04303E-01 6.44994E-14 8.96657E-15
 -1      4104 1.91412E+01 7.58607E-01 3.78412E-04 3.54272E-01 7.61300E-14 8.09683E-15
 -1      4105 1.92444E+01 7.35067E-01 6.68066E-03 2.05270E-01-1.63988E-14 5.29940E-14
 -1      4106 1.90049E+01 7.96317E-01-5.07960E-03 4.06079E-01 7.14757E-14 7.60779E-14
 -1      4107 1.89004E+01 8.33235E-01 9.60027E-04 4.72260E-01-3.83476E-14 7.40476E-14
 -1      4108 1.90119E+01 8.39238E-01 8.40450E-03 2.83872E-01 5.31647E-14-2.15911E-14
 -1      4109 1.87332E+01 8.54437E-01-6.69284E-03 5.44073E-01-1.41731E-13 1.01312E-13
 -1      4110 1.86156E+01 8.72559E-01 1.99374E-03 6.32809E-01-1.13966E-13 1.03407E-13
 -1      4111 1.87279E+01 9.25835E-01 1.06515E-02 3.94351E-01-4.32821E-14-3.25340E-14
 -1      4112 1.84105E+01 8.66259E-01-9.05860E-03 7.33214E-01-5.77260E-14-6.00266E-15
 -1      4113 1.82827E+01 8.54197E-01 3.33403E-03 8.53974E-01-3.37801E-14 2.62371E-14
 -1      4114 1.83824E+01 9.80179E-01 1.36837E-02 5.50780E-01-1.42290E-13-4.96545E-14
 -1      4115 1.80313E+01 8.08702E-01-1.19383E-02 9.93894E-01-1.52040E-13-4.04109E-14
 -1      4116 1.79010E+01 7.51906E-01 6.22263E-03 1.16207E+00-1.35050E-13-5.28410E-14
 -1      4117 1.79643E+01 9.80364E-01 1.75912E-02 7.73444E-01-1.08778E-13-3.45869E-13
 -1      4118 1.75860E+01 6.49588E-01-1.61689E-02 1.36926E+00-1.47694E-13-1.06400E-13
 -1      4119 1.74776E+01 5.18462E-01 1.18888E-02 1.60953E+00-6.69590E-14-2.33125E-13
 -1      4120 1.74344E+01 9.03053E-01 1.76093E-02 1.08240E+00-1.87317E-13-3.40621E-13
 -1      4121 1.98575E+01 2.63148E-01-3.22707E-04-1.03470E-01 5.23568E-14 9.31971E-15
 -1      4122 1.98900E+01 2.22239E-01-8.42179E-04-9.20770E-02 3.13601E-14 3.57325E-14
 -1      4123 1.99010E+01 2.13488E-01 1.35724E-03-6.12220E-02 2.20019E-14-1.29393E-13
 -1      4124 1.96649E+01 4.55592E-01-9.23162E-04-1.53315E-01 6.27473E-14 5.53759E-14
 -1      4125 1.97186E+01 4.02870E-01-1.37467E-03-1.35931E-01 1.13153E-13 8.77627E-14
 -1      4126 2.03913E+01 7.48982E-01-1.91578E-03 5.99357E-02 1.18230E-15-2.07757E-13
 -1      4127 1.97728E+01 3.53410E-01-5.83308E-04-1.26006E-01 4.85925E-14 3.38838E-14
 -1      4128 1.98144E+01 3.06614E-01-1.09032E-03-1.11571E-01 4.75596E-14 5.05960E-14
 -1      4129 1.97316E+01 3.95137E-01 2.79949E-03-8.63706E-02 6.55472E-14 7.31046E-14
 -1      4130 1.91216E+01 8.19793E-01-2.71933E-03-2.54085E-01-7.54959E-14-7.34547E-14
 -1      4131 1.92379E+01 7.55545E-01-2.56753E-03-2.30955E-01-9.15127E-14-6.07737E-14
 -1      4132 1.88315E+01 9.46512E-01-3.73187E-03-2.88047E-01-4.25385E-14-9.68653E-14
 -1      4133 1.89811E+01 8.84039E-01-3.20464E-03-2.64635E-01-5.36959E-14-6.25744E-14
 -1      4134 1.90172E+01 8.80551E-01 7.91884E-03-1.38356E-01-8.63056E-14-9.04285E-14
 -1      4135 1.84608E+01 1.06242E+00-5.09023E-03-3.18862E-01-8.81810E-14-7.60543E-14
 -1      4136 1.86532E+01 1.00691E+00-4.13466E-03-2.95536E-01-7.33178E-14-6.68452E-14
 -1      4137 1.87037E+01 1.00738E+00 1.01595E-02-1.36881E-01-7.00655E-14-1.09257E-13
 -1      4138 1.79839E+01 1.15499E+00-6.96898E-03-3.46132E-01-1.64455E-13 2.86852E-14
 -1      4139 1.82329E+01 1.11301E+00-5.58974E-03-3.21690E-01-8.37186E-14 4.93280E-14
 -1      4140 1.83049E+01 1.12122E+00 1.33021E-02-1.21025E-01-1.38196E-13-1.67000E-13
 -1      4141 1.73694E+01 1.21192E+00-5.62892E-03-3.71701E-01-1.64723E-13 1.02988E-14
 -1      4142 1.76883E+01 1.18942E+00-7.44405E-03-3.43306E-01-1.56900E-13 4.59674E-14
 -1      4143 1.77941E+01 1.21129E+00 1.85092E-02-8.51495E-02-1.82254E-13-7.87721E-14
 -1      4144 2.03585E+01 2.21823E-02 4.77422E-04 4.14521E-02 1.26947E-14-1.73887E-13
 -1      4145 2.03350E+01-1.41411E-02-1.79170E-04 4.70031E-02 4.78177E-14-1.61047E-13
 -1      4146 1.93488E+01 6.91800E-01-1.95245E-03-2.18905E-01-5.10610E-14 1.45275E-15
 -1      4147 1.94390E+01 6.29432E-01-2.08959E-03-1.96921E-01 8.22581E-15-1.33976E-14
 -1      4148 1.92643E+01 7.50069E-01 6.20839E-03-1.30400E-01-6.21615E-14 2.74155E-14
 -1      4149 2.00767E+01-1.01865E-02 4.34411E-04-9.17583E-02-4.35834E-15 4.68297E-14
 -1      4150 2.00900E+01-2.70065E-02-1.94420E-04-9.14939E-02 4.60279E-15 8.48333E-14
 -1      4151 2.01102E+01-3.48275E-02-2.47782E-04-7.77592E-02 1.49458E-14 6.78327E-14
 -1      4152 2.00734E+01 5.03335E-04-8.21299E-05-7.81910E-02 3.84965E-14 4.63752E-14
 -1      4153 1.95264E+01 5.69066E-01-1.36841E-03-1.84702E-01 4.37116E-14 1.00250E-14
 -1      4154 1.95960E+01 5.10894E-01-1.70278E-03-1.64710E-01 4.20693E-14 3.94161E-14
 -1      4155 1.96117E+01 5.03696E-01 3.72899E-03-1.01697E-01 7.01774E-14 1.92123E-13
 -1      4156 2.03446E+01 1.17247E-01-3.42186E-04-7.23624E-02 1.92435E-14-1.23323E-13
 -1      4157 2.03632E+01 1.84715E-01 1.55589E-04-4.97375E-02 9.70370E-15-1.23426E-13
 -1      4158 2.03964E+01 2.31417E-01 1.68610E-04-3.11008E-02-8.76020E-15-9.66313E-14
 -1      4159 2.03624E+01 1.03054E-01-2.38873E-04-6.06267E-02-1.26222E-14-7.28678E-14
 -1      4160 2.04180E+01 6.33535E-01 1.99231E-03-2.89629E-02-6.87976E-14-2.15542E-13
 -1      4161 2.03924E+01 7.79650E-01 9.15552E-04-6.22324E-02-7.59750E-14-2.60463E-13
 -1      4162 1.99797E+01 1.16840E-01 3.83635E-05-7.32586E-02 2.55888E-14 1.27607E-14
 -1      4163 2.00017E+01 8.66495E-02-4.20565E-04-6.75317E-02 4.20963E-14 1.33040E-14
 -1      4164 1.99621E+01 1.39976E-01 7.94367E-04-5.25914E-02 6.32938E-14-4.25242E-14
 -1      4165 2.01886E+01-7.22310E-02-4.66243E-04-8.40736E-02-5.94214E-14 3.15360E-14
 -1      4166 2.01806E+01-7.12991E-02 3.22797E-04-1.01947E-01-9.33176E-15-5.59560E-14
 -1      4167 2.01984E+01-7.01349E-02 2.37095E-04-1.03798E-01-1.39911E-14-4.62851E-14
 -1      4168 2.03123E+01-3.95001E-02 6.72245E-04 4.59549E-02 1.20899E-14-1.74980E-13
 -1      4169 2.02881E+01-5.77071E-02 4.28812E-04 4.87720E-02-2.17583E-14-1.94211E-13
 -1      4170 2.03326E+01-2.54522E-02-1.03591E-03 2.62544E-02 3.60097E-15-2.21633E-13
 -1      4171 1.45690E+01 1.03882E+00 4.88928E-02 9.27835E-01 4.16032E-14-6.12360E-13
 -1      4172 1.50715E+01 1.07215E+00 7.75410E-04 2.94029E-01-1.26135E-13-3.99854E-13
 -1      4173 1.54510E+01 1.21673E+00 3.44688E-02-3.43207E-01-2.18884E-13-9.65370E-14
 -1      4174 1.59684E+01 1.13362E+00 4.91387E-03-7.45548E-01-3.12838E-13 2.02905E-14
 -1      4175 1.62877E+01 1.17506E+00-1.53388E-02-5.98369E-01-2.29834E-13 7.09431E-14
 -1      4176 1.54511E+01 4.99727E-01-1.31618E-02 1.81700E+00 2.75400E-14-3.78041E-13
 -1      4177 2.04209E+01 6.16940E-01 3.52166E-03 2.69300E-02-9.23780E-15-1.80391E-13
 -1      4178 2.04279E+01 5.21162E-01-6.29426E-04-8.59576E-03-6.18039E-14-1.81945E-13
 -1      4179 2.04262E+01 4.82875E-01-6.28244E-04-1.62878E-02-5.33479E-14-2.33162E-13
 -1      4180 2.04272E+01 3.61918E-01 8.78623E-04 6.98858E-03-5.74711E-14-2.25412E-13
 -1      4181 2.00267E+01 5.91925E-02 1.75263E-04-6.50591E-02 3.46686E-14 1.08494E-14
 -1      4182 2.00464E+01 3.37933E-02-2.01132E-04-6.17588E-02 2.84168E-14 2.41979E-14
 -1      4183 2.00137E+01 7.70956E-02 2.96962E-04-4.67148E-02 2.31327E-14 3.74666E-14
 -1      4184 1.67911E+01 6.44025E-01-5.15093E-03 1.56919E+00-8.62838E-14-3.98004E-13
 -1      4185 1.71098E+01 3.23725E-01-1.22440E-02 1.89645E+00-3.68108E-15-2.60429E-13
 -1      4186 1.98259E+01 2.98370E-01 2.01822E-03-7.26025E-02 4.12198E-14-4.70153E-14
 -1      4187 1.71546E+01 6.13632E-02 2.71121E-02 2.23707E+00 1.76508E-14-3.00063E-13
 -1      4188 2.03975E+01 1.28265E-01 5.42404E-05 2.98318E-02-2.59766E-14-2.30326E-13
 -1      4189 2.03781E+01 6.87949E-02-3.09798E-04 4.00500E-02-2.61335E-14-2.02178E-13
 -1      4190 2.03775E+01 5.00127E-02-6.11190E-04 2.26515E-02 1.37455E-14-2.04092E-13
 -1      4191 2.04303E+01 5.19348E-01-1.09974E-03 3.34971E-03-4.55613E-14-2.01826E-13
 -1      4192 1.70448E+01 1.20688E+00-1.76682E-02-4.22478E-01-2.36244E-13 8.30889E-15
 -1      4193 1.71978E+01 1.27842E+00 2.75064E-02-7.75619E-02-1.87502E-13-8.91107E-14
 -1      4194 1.67804E+01 1.20181E+00-4.59797E-03-5.08918E-01-2.49660E-13 7.41878E-14
 -1      4195 1.94589E+01 6.22899E-01 4.84542E-03-1.17124E-01 4.28890E-14 1.86050E-13
 -1      4196 1.61683E+01 2.57030E-01 2.08319E-02 2.27030E+00 1.07080E-14-3.84285E-13
 -1      4197 2.02831E+01-6.46788E-02-1.21118E-03 2.61010E-02-1.02163E-14-3.12191E-13
 -1      4198 2.02206E+01-6.42867E-02 2.34271E-04-1.05816E-01-3.97550E-15-6.17253E-14
 -1      4199 2.02401E+01-5.31568E-02 3.38643E-04-1.05394E-01-1.66727E-15-6.22782E-14
 -1      4200 2.02315E+01-6.84050E-02-5.41659E-04-8.69562E-02-2.68551E-14 3.29463E-14
 -1      4201 2.01505E+01-5.58380E-02 3.41883E-04-6.14719E-02-3.17690E-15-6.34792E-14
 -1      4202 2.01703E+01-6.57063E-02 1.75580E-04-6.22048E-02-5.54130E-14-2.09685E-14
 -1      4203 2.03692E+01 7.45823E-02 3.92262E-05-5.37998E-02-1.99363E-14-6.35839E-14
 -1      4204 2.03887E+01 1.25495E-01-1.45298E-04-4.00041E-02-3.13601E-14-6.04167E-14
 -1      4205 1.58314E+01 7.63786E-01-7.55222E-03 1.39151E+00-5.67593E-14-4.02124E-13
 -1      4206 2.02764E+01-4.28370E-02-6.10063E-04-8.65241E-02-2.33665E-15-4.17795E-15
 -1      4207 2.01933E+01-7.19938E-02 3.56627E-04-6.42838E-02-7.21200E-14 6.58585E-15
 -1      4208 2.02146E+01-7.44465E-02 3.28819E-04-6.49592E-02-5.08758E-14 4.89232E-15
 -1      4209 2.01906E+01-7.10553E-02-1.02210E-03-4.49860E-02-6.04903E-15-1.46754E-13
 -1      4210 2.04041E+01 2.41037E-01 1.31124E-04 2.63825E-02-4.06811E-14-2.20974E-13
 -1      4211 1.56164E+01 1.10714E+00-3.08230E-03 3.24675E-01-1.50457E-13-2.99736E-13
 -1      4212 2.03280E+01-8.98717E-03 6.67552E-04-6.41033E-02-8.88117E-15-3.27694E-14
 -1      4213 2.03498E+01 2.64720E-02 2.36732E-04-5.67653E-02-5.15278E-15-6.34535E-14
 -1      4214 2.03697E+01 4.57625E-02-8.20035E-04-3.69598E-02-2.11740E-14-1.14194E-13
 -1      4215 1.62499E+01 9.14608E-01-5.29455E-03 1.10393E+00-1.16138E-13-4.17156E-13
 -1      4216 1.98048E+01 3.03174E-01-1.76477E-03-1.17907E-02-1.89077E-14-7.59788E-14
 -1      4217 1.98486E+01 2.60100E-01-9.80573E-04-7.75106E-03-2.65373E-14-1.25926E-13
 -1      4218 2.04209E+01 2.74291E-01-6.45516E-04 1.13314E-02-2.81305E-14-2.18886E-13
 -1      4219 2.04101E+01 1.87919E-01 1.06841E-04 2.70662E-02-2.38670E-14-2.22873E-13
 -1      4220 2.04114E+01 1.59659E-01-2.61027E-04 1.50422E-02-1.88493E-14-2.19677E-13
 -1      4221 2.04299E+01 3.02045E-01-3.81322E-04 5.43681E-03-3.77383E-14-1.98592E-13
 -1      4222 1.98856E+01 2.18942E-01-1.22140E-03-1.18156E-02 1.13897E-14-1.19770E-13
 -1      4223 1.99208E+01 1.81182E-01-6.42444E-04-8.38471E-03 7.41077E-14-1.26075E-13
 -1      4224 2.01950E+01-6.89513E-02 5.85957E-04-9.18438E-03 4.35071E-15-2.07283E-13
 -1      4225 2.01709E+01-6.03630E-02 5.18566E-04-8.98339E-03-1.21430E-14-2.19856E-13
 -1      4226 2.01098E+01-2.05226E-02 1.96861E-05 4.83875E-03-3.64408E-14-2.08577E-13
 -1      4227 2.00873E+01-7.91277E-04 1.27726E-04 5.33397E-03-7.17599E-14-1.74186E-13
 -1      4228 2.00563E+01 2.89832E-02-1.01590E-04-9.58244E-03-5.11033E-14-1.11253E-13
 -1      4229 2.00325E+01 5.45308E-02-8.89101E-05-8.43064E-03-3.13778E-14-1.01719E-13
 -1      4230 2.00073E+01 8.23511E-02-3.85840E-04-1.02168E-02 1.95097E-14-1.11542E-13
 -1      4231 1.99807E+01 1.12831E-01-3.47226E-04-8.46845E-03 8.18931E-14-1.19051E-13
 -1      4232 1.99516E+01 1.45504E-01-7.66276E-04-1.10940E-02 1.05771E-13-1.46677E-13
 -1      4233 1.97592E+01 3.49954E-01-1.36674E-03-5.82613E-03-4.54524E-14-7.95944E-14
 -1      4234 1.97039E+01 3.98342E-01-2.41642E-03-1.00583E-02-7.62853E-14 1.45453E-14
 -1      4235 1.96472E+01 4.50542E-01-1.80750E-03-1.40857E-03 1.33263E-14-4.06274E-14
 -1      4236 1.95769E+01 5.03789E-01-3.20501E-03-5.11314E-03 2.47679E-14 2.87222E-14
 -1      4237 1.95061E+01 5.60623E-01-2.31161E-03 7.36309E-03 6.34286E-14 6.45925E-14
 -1      4238 1.94166E+01 6.17564E-01-4.17338E-03 5.31033E-03 4.42775E-14 2.44947E-14
 -1      4239 1.93285E+01 6.77401E-01-2.89411E-03 2.32728E-02 1.82775E-15 6.76217E-14
 -1      4240 1.92148E+01 7.35878E-01-5.39043E-03 2.45068E-02-5.79272E-14 2.10871E-14
 -1      4241 1.91059E+01 7.95979E-01-3.58502E-03 5.03655E-02-4.11947E-14 2.19574E-14
 -1      4242 1.89614E+01 8.52561E-01-6.97318E-03 5.71297E-02 3.99217E-15-4.43094E-14
 -1      4243 1.88275E+01 9.08857E-01-4.44468E-03 9.43841E-02 3.97103E-14-4.15145E-14
 -1      4244 1.86439E+01 9.58589E-01-9.12559E-03 1.09608E-01-5.34926E-14-9.17449E-14
 -1      4245 1.84796E+01 1.00553E+00-5.59001E-03 1.63357E-01-1.47019E-13-1.67668E-13
 -1      4246 1.82447E+01 1.04173E+00-1.22016E-02 1.90727E-01-1.65521E-13-1.27330E-13
 -1      4247 1.80428E+01 1.07216E+00-7.31174E-03 2.68629E-01-1.60316E-13-1.90863E-13
 -1      4248 1.77378E+01 1.08824E+00-1.62415E-02 3.13367E-01-1.29789E-13-2.48417E-13
 -1      4249 1.74816E+01 1.08618E+00-1.22575E-02 4.28701E-01-1.50097E-13-3.14709E-13
 -1      4250 1.71633E+01 1.09265E+00-1.81654E-02 4.41053E-01-1.66124E-13-2.53205E-13
 -1      4251 1.68842E+01 1.07404E+00-2.50871E-03 5.85216E-01-1.58199E-13-2.82262E-13
 -1      4252 2.04039E+01 1.89820E-01 3.47954E-04-3.28263E-02-3.30796E-14-7.50788E-14
 -1      4253 2.04172E+01 2.63887E-01 6.99954E-06-1.53577E-02-2.72603E-14-1.01414E-13
 -1      4254 2.04062E+01 1.57040E-01-2.82597E-04-2.38747E-02-5.74333E-14-8.14328E-14
 -1      4255 2.04180E+01 4.66055E-01-2.10608E-03 1.64471E-02 2.31343E-15-1.50438E-13
 -1      4256 2.04269E+01 5.23317E-01-1.68989E-04 1.13556E-02-3.17364E-14-1.77929E-13
 -1      4257 2.04382E+01 3.94509E-01 1.97500E-03-8.23870E-05-4.19672E-14-1.81081E-13
 -1      4258 2.02803E+01-5.53477E-02 2.82142E-04-6.66444E-02-2.07483E-14 1.13857E-14
 -1      4259 2.03031E+01-3.71720E-02-9.28996E-05-6.38358E-02-2.43528E-14-1.00571E-14
 -1      4260 2.03251E+01-2.63477E-02-8.10223E-04-4.13372E-02-4.12129E-14-1.35281E-13
 -1      4261 2.02361E+01-7.27640E-02 3.91175E-04-6.63694E-02-4.32109E-14 4.78491E-14
 -1      4262 2.02590E+01-6.62415E-02 4.26489E-04-6.59079E-02-1.93524E-14 2.14547E-14
 -1      4263 2.02786E+01-6.31216E-02-1.03105E-03-4.49970E-02-2.37271E-14-5.22297E-14
 -1      4264 2.02349E+01-7.61899E-02-1.29004E-03-4.59363E-02-2.93954E-14-2.32116E-14
 -1      4265 2.01282E+01-4.31168E-02 3.91037E-05-5.98195E-02 2.19217E-14-3.95387E-14
 -1      4266 2.01465E+01-5.10170E-02-6.66736E-04-4.32822E-02 2.01204E-14-1.27359E-13
 -1      4267 2.01094E+01-2.75283E-02 1.69420E-04-5.98708E-02 4.34359E-14-4.53931E-14
 -1      4268 2.04203E+01 3.49109E-01 3.04975E-04-8.93390E-03-1.11563E-15-1.20925E-13
 -1      4269 2.03598E+01 6.06595E-03 1.22644E-03-8.80211E-03-7.93610E-15-1.96379E-13
 -1      4270 2.03359E+01-2.66367E-02-7.19609E-05-7.79406E-03-3.94808E-14-2.33924E-13
 -1      4271 2.02901E+01-6.27798E-02 3.76553E-04-9.13841E-03-3.34831E-14-2.24077E-13
 -1      4272 2.02650E+01-7.18679E-02 9.23531E-04-8.50119E-03-2.52450E-15-2.11853E-13
 -1      4273 2.02432E+01-7.47761E-02 7.11925E-04-9.48720E-03 1.63899E-14-2.41525E-13
 -1      4274 2.02184E+01-7.45523E-02 7.12559E-04-9.22366E-03 6.53829E-15-2.13245E-13
 -1      4275 1.64125E+01 1.24480E+00 6.04802E-03-2.08295E-01-2.47158E-13-4.47992E-14
 -1      4276 2.04261E+01 3.04333E-01-2.44826E-04-9.56530E-03-2.10301E-14-9.35518E-14
 -1      4277 2.01483E+01-4.79365E-02 3.28112E-04-9.09476E-03-3.28935E-14-1.66514E-13
 -1      4278 2.00675E+01 1.81594E-02-6.91044E-05-2.95077E-02-1.25965E-14-8.01579E-14
 -1      4279 2.01251E+01-3.27450E-02 2.95407E-04-8.82764E-03-2.19753E-14-1.63283E-13
 -1      4280 2.03824E+01 4.92919E-02-3.56601E-04 7.28029E-03 1.97043E-14-2.17399E-13
 -1      4281 2.03784E+01 4.68986E-02-6.33801E-04-2.17544E-02-6.44991E-15-1.79892E-13
 -1      4282 2.03998E+01 1.01750E-01 1.41612E-03-1.91254E-02-1.20647E-14-1.27485E-13
 -1      4283 2.04041E+01 1.04092E-01 1.43734E-03 6.50625E-03 3.21477E-15-2.08031E-13
 -1      4284 2.04129E+01 1.58203E-01-8.24857E-04-1.33663E-02-4.55983E-14-1.28239E-13
 -1      4285 2.04322E+01 3.02296E-01-5.45442E-04-4.08739E-03-5.10514E-14-1.57008E-13
 -1      4286 1.61191E+01 1.16871E+00 3.37459E-03 3.70858E-01-1.63038E-13-3.15397E-13
 -1      4287 2.01125E+01-2.41169E-02-1.65263E-04-2.92218E-02-3.44230E-14-1.34195E-13
 -1      4288 2.00770E+01 5.14318E-03 9.64632E-05-4.77791E-02 1.60471E-14-6.20387E-14
 -1      4289 2.04274E+01 2.25751E-01 1.22518E-03-8.22881E-04-5.59199E-14-1.49518E-13
 -1      4290 2.04153E+01 1.58452E-01-4.67621E-04 4.54471E-03-3.04501E-14-1.90915E-13
 -1      4291 2.00964E+01-1.49097E-02-4.25703E-05-4.66232E-02 1.49501E-14-4.72539E-14
 -1      4292 2.03125E+01-4.85429E-02 1.17487E-03-8.93972E-03-3.62812E-14-2.23632E-13
 -3
    1PSTEP                         3           1           1          
  100CL  101 1.000000000        4292                     0    1           1
 -4  TOSTRAIN    6    1
 -5  EXX         1    4    1    1
 -5  EYY         1    4    2    2
 -5  EZZ         1    4    3    3
 -5  EXY         1    4    1    2
 -5  EYZ         1    4    2    3
 -5  EZX         1    4    3    1
 -1         1 1.37055E-05 1.85301E-05-1.68918E-05 2.87454E-05-1.48421E-17-1.13202E-17
 -1         2 3.93099E-05-1.19484E-04 2.16854E-05 1.97745E-07-1.83206E-17 2.70603E-18
 -1         3 9.49869E-05-2.88421E-05-2.81206E-05-3.17931E-07-3.61544E-18-4.74820E-18
 -1         4 9.51131E-05-2.86974E-05-2.83106E-05 1.20796E-07 5.07224E-19 7.00283E-19
 -1         5 1.43346E-04-2.14784E-05-4.25274E-05 3.85317E-05-2.44157E-19 1.75089E-17
 -1         6 1.45408E-04 2.57566E-10-4.41864E-05-5.35273E-05-8.70326E-19 2.02487E-17
 -1         7 9.06054E-05-5.10925E-07-3.90671E-05-2.92541E-05-1.23137E-19 6.08207E-18
 -1         8 8.51228E-05 8.65078E-08-3.63380E-05-2.02742E-05-2.33887E-19 1.17824E-18
 -1         9 8.28144E-05 7.60361E-08-3.53505E-05-1.56429E-05-2.32550E-19-1.69396E-18
 -1        10 8.17710E-05 3.96836E-08-3.48815E-05-1.20814E-05-1.82794E-19-3.30155E-18
 -1        11 8.12537E-05 1.92733E-08-3.46533E-05-9.01705E-06-1.46206E-19-4.22161E-18
 -1        12 8.09854E-05 9.10274E-09-3.45391E-05-6.28648E-06-7.41452E-20-4.72340E-18
 -1        13 8.08443E-05 4.55009E-09-3.44816E-05-3.68679E-06-6.57931E-20-4.94531E-18
 -1        14 8.07854E-05 2.70459E-09-3.44582E-05-1.18405E-06-2.13710E-20-5.07385E-18
 -1        15 8.07874E-05 2.69022E-09-3.44589E-05 1.28938E-06-1.33114E-21-5.15663E-18
 -1        16 8.08507E-05 4.48168E-09-3.44839E-05 3.79727E-06 3.44529E-20-5.16226E-18
 -1        17 8.09969E-05 8.37484E-09-3.45429E-05 6.40896E-06 5.07723E-20-5.07841E-18
 -1        18 8.12710E-05 1.81541E-08-3.46584E-05 9.15854E-06 8.51037E-20-4.80210E-18
 -1        19 8.17967E-05 3.81960E-08-3.48898E-05 1.22610E-05 1.54570E-19-4.21385E-18
 -1        20 8.28346E-05 8.15501E-08-3.53629E-05 1.58736E-05 2.06703E-19-2.95687E-18
 -1        21 8.50880E-05 1.69526E-07-3.63765E-05 2.04850E-05 2.45243E-19-4.53310E-19
 -1        22 9.16428E-05-9.95273E-08-3.87387E-05 2.80010E-05 4.49986E-20 4.92151E-18
 -1        23 1.12974E-04-3.81263E-05-3.53969E-05-4.40281E-06-5.62562E-19 1.69713E-17
 -1        24 9.28054E-05-2.76973E-05-2.89994E-05 3.91246E-07-1.47357E-19 1.40170E-17
 -1        25 8.91196E-05-2.68522E-05-2.69294E-05 3.75809E-07-5.59406E-20 1.09860E-17
 -1        26 8.80158E-05-2.64884E-05-2.63918E-05 2.04157E-07 2.52489E-20 9.05769E-18
 -1        27 8.80416E-05-2.64666E-05-2.63836E-05 1.39871E-07-1.19454E-19 7.89427E-18
 -1        28 8.85738E-05-2.66025E-05-2.65527E-05 1.00788E-07-1.23295E-19 6.86015E-18
 -1        29 8.93263E-05-2.68144E-05-2.67846E-05 7.50643E-08 1.25059E-19 6.24009E-18
 -1        30 9.01480E-05-2.70533E-05-2.70338E-05 5.67015E-08-7.88846E-21 5.38086E-18
 -1        31 9.09542E-05-2.72907E-05-2.72769E-05 4.28517E-08-1.46494E-19 3.92949E-18
 -1        32 9.16983E-05-2.75113E-05-2.75012E-05 3.20835E-08 3.11989E-20 2.72878E-18
 -1        33 9.23574E-05-2.77076E-05-2.77000E-05 2.35938E-08 3.16490E-19 2.76869E-18
 -1        34 9.29245E-05-2.78769E-05-2.78711E-05 1.68746E-08-1.88074E-19 2.42207E-18
 -1        35 9.34024E-05-2.80199E-05-2.80156E-05 1.15725E-08-1.04145E-19 1.56217E-18
 -1        36 9.38011E-05-2.81396E-05-2.81362E-05 7.42740E-09 1.90653E-19 1.28278E-18
 -1        37 9.41351E-05-2.82400E-05-2.82375E-05 4.24798E-09-1.65720E-19 1.24075E-18
 -1        38 9.44224E-05-2.83267E-05-2.83248E-05 1.90249E-09-1.65926E-19 1.95064E-19
 -1        39 9.46842E-05-2.84059E-05-2.84045E-05 3.18011E-10-1.21855E-19-3.67410E-19
 -1        40 9.49444E-05-2.84847E-05-2.84838E-05-5.15611E-10 3.55122E-21-7.95997E-19
 -1        41 9.52301E-05-2.85713E-05-2.85710E-05-5.39229E-10 6.67085E-20-1.62486E-18
 -1        42 9.55723E-05-2.86749E-05-2.86752E-05 3.83306E-10-9.66038E-20-1.86918E-18
 -1        43 9.60057E-05-2.88059E-05-2.88072E-05 2.47176E-09-1.56887E-19-1.26787E-18
 -1        44 9.65694E-05-2.89760E-05-2.89785E-05 6.03099E-09 1.94783E-19 3.21803E-19
 -1        45 9.73056E-05-2.91977E-05-2.92019E-05 1.14393E-08-3.71023E-19 6.42918E-19
 -1        46 9.82577E-05-2.94838E-05-2.94902E-05 1.91081E-08-3.49296E-20-5.85885E-19
 -1        47 9.94656E-05-2.98460E-05-2.98549E-05 2.93859E-08-7.88940E-20 9.35659E-19
 -1        48 1.00957E-04-3.02923E-05-3.03038E-05 4.23595E-08 2.51492E-19 1.67519E-18
 -1        49 1.02734E-04-3.08230E-05-3.08362E-05 5.74840E-08-1.91081E-19 1.22207E-18
 -1        50 1.04752E-04-3.14242E-05-3.14366E-05 7.29575E-08-5.34827E-19-8.23505E-19
 -1        51 1.06889E-04-3.20597E-05-3.20662E-05 8.47925E-08 3.07718E-19-1.01344E-18
 -1        52 1.08913E-04-3.26603E-05-3.26524E-05 8.57195E-08-1.92182E-19 4.25932E-19
 -1        53 1.10454E-04-3.31159E-05-3.30818E-05 6.45505E-08-1.92712E-20-3.53530E-19
 -1        54 1.10995E-04-3.32742E-05-3.32031E-05 7.54268E-09 5.15722E-20-1.22388E-18
 -1        55 1.09949E-04-3.29610E-05-3.28507E-05-9.57525E-08 1.08389E-19-1.30351E-18
 -1        56 1.06831E-04-3.20323E-05-3.19018E-05-2.40324E-07 1.18630E-19-1.74090E-18
 -1        57 1.01567E-04-3.04646E-05-3.03613E-05-3.90657E-07-1.03881E-19-1.14670E-18
 -1        58 9.48221E-05-2.84528E-05-2.84401E-05-4.77369E-07 2.27517E-19-2.60944E-18
 -1        59 8.80941E-05-2.64425E-05-2.65613E-05-4.25889E-07-1.62412E-19-3.06697E-18
 -1        60 8.33222E-05-2.50143E-05-2.52413E-05-2.14924E-07-6.85236E-19-3.46297E-18
 -1        61 8.20190E-05-2.46236E-05-2.48695E-05 8.41574E-08 6.13614E-19-3.33219E-18
 -1        62 8.44404E-05-2.53478E-05-2.55091E-05 3.38855E-07-1.92817E-19-2.89415E-18
 -1        63 8.94205E-05-2.68357E-05-2.68620E-05 4.46045E-07-4.77626E-19-3.87290E-18
 -1        64 9.50250E-05-2.85070E-05-2.84197E-05 3.94410E-07 2.14413E-19-3.83398E-18
 -1        65 9.94959E-05-2.98380E-05-2.96981E-05 2.46514E-07 3.61044E-19-2.07629E-19
 -1        66 1.01867E-04-3.05434E-05-3.04095E-05 8.06457E-08-2.82959E-19 1.24278E-18
 -1        67 1.02050E-04-3.05987E-05-3.05056E-05-5.04580E-08 4.36471E-19 1.11158E-18
 -1        68 1.00580E-04-3.01633E-05-3.01253E-05-1.25578E-07 8.45821E-20 2.66512E-18
 -1        69 9.83081E-05-2.94883E-05-2.95104E-05-1.38769E-07 2.79400E-19 1.89642E-18
 -1        70 9.61934E-05-2.88526E-05-2.89274E-05-6.85940E-08 1.96546E-19 4.64919E-18
 -1        71 9.50979E-05-2.84971E-05-2.85646E-05 5.94065E-08-2.63082E-19 3.70081E-18
 -1        72 1.02178E-04-3.05873E-05-3.41500E-05-1.92885E-06 3.25949E-19 1.55857E-17
 -1        73 9.25616E-05-2.75133E-05-2.89077E-05-3.33196E-07 1.39234E-19 1.13471E-17
 -1        74 8.91073E-05-2.67017E-05-2.69726E-05-1.25917E-07 1.21539E-19 8.38633E-18
 -1        75 8.80459E-05-2.64393E-05-2.64357E-05-9.55894E-08 1.87873E-20 6.12221E-18
 -1        76 8.80761E-05-2.64465E-05-2.64102E-05-7.65775E-08 5.80792E-20 4.54309E-18
 -1        77 8.86075E-05-2.65968E-05-2.65698E-05-6.24808E-08 1.43232E-19 3.18578E-18
 -1        78 8.93573E-05-2.68157E-05-2.67969E-05-5.16547E-08-5.64688E-20 2.81931E-18
 -1        79 9.01755E-05-2.70577E-05-2.70431E-05-4.27099E-08 6.19129E-21 2.55739E-18
 -1        80 9.09777E-05-2.72965E-05-2.72840E-05-3.49826E-08-4.42108E-20 1.18831E-18
 -1        81 9.17176E-05-2.75174E-05-2.75065E-05-2.82006E-08 5.04370E-20 3.84588E-19
 -1        82 9.23727E-05-2.77132E-05-2.77037E-05-2.22403E-08 1.70027E-19-3.92423E-19
 -1        83 9.29356E-05-2.78817E-05-2.78736E-05-1.70204E-08-6.22507E-20-6.75411E-19
 -1        84 9.34093E-05-2.80236E-05-2.80167E-05-1.24630E-08-4.10204E-20-2.89761E-19
 -1        85 9.38034E-05-2.81418E-05-2.81361E-05-8.48363E-09 2.69143E-19-1.03887E-18
 -1        86 9.41326E-05-2.82406E-05-2.82361E-05-4.99292E-09-1.00694E-20-2.97749E-18
 -1        87 9.44146E-05-2.83254E-05-2.83219E-05-1.90274E-09-7.72174E-20-3.35094E-18
 -1        88 9.46708E-05-2.84025E-05-2.84001E-05 8.65603E-10 5.79114E-20-3.64729E-18
 -1        89 9.49254E-05-2.84793E-05-2.84780E-05 3.37148E-09 1.15886E-19-4.00293E-18
 -1        90 9.52070E-05-2.85642E-05-2.85643E-05 5.64250E-09 1.35225E-19-4.39468E-18
 -1        91 9.55491E-05-2.86674E-05-2.86690E-05 7.65742E-09-5.16328E-20-4.21775E-18
 -1        92 9.59919E-05-2.88009E-05-2.88045E-05 9.32036E-09 1.70544E-19-4.03392E-18
 -1        93 9.65838E-05-2.89791E-05-2.89853E-05 1.04208E-08 5.56858E-21-3.75490E-18
 -1        94 9.73835E-05-2.92196E-05-2.92293E-05 1.05698E-08 1.26640E-19-5.73696E-18
 -1        95 9.84617E-05-2.95435E-05-2.95580E-05 9.10060E-09-4.34528E-20-5.53724E-18
 -1        96 9.99018E-05-2.99755E-05-2.99964E-05 4.91955E-09 6.37262E-20-4.61952E-18
 -1        97 1.01798E-04-3.05434E-05-3.05728E-05-3.69733E-09-1.93043E-21-5.06394E-18
 -1        98 1.04249E-04-3.12761E-05-3.13162E-05-1.93256E-08-5.13469E-19-2.59113E-18
 -1        99 1.07339E-04-3.21984E-05-3.22499E-05-4.54800E-08 2.31338E-19-2.71923E-18
 -1       100 1.11104E-04-3.33201E-05-3.33798E-05-8.61318E-08-1.40675E-19-2.59664E-18
 -1       101 1.15458E-04-3.46164E-05-3.46717E-05-1.43629E-07-1.81645E-19-2.28519E-18
 -1       102 1.20085E-04-3.59955E-05-3.60159E-05-2.13137E-07 3.34314E-19-3.99048E-18
 -1       103 1.24282E-04-3.72547E-05-3.71849E-05-2.71796E-07-9.99151E-21-4.92711E-18
 -1       104 1.26825E-04-3.80388E-05-3.78071E-05-2.65185E-07 5.95580E-19-4.37829E-18
 -1       105 1.26026E-04-3.78502E-05-3.74158E-05-1.07313E-07-5.56911E-19-5.98821E-18
 -1       106 1.20290E-04-3.61953E-05-3.56446E-05 2.69874E-07-4.39881E-19-3.90998E-18
 -1       107 1.09383E-04-3.29474E-05-3.25688E-05 7.90702E-07 8.17771E-19-5.24043E-18
 -1       108 9.59125E-05-2.88248E-05-2.89943E-05 1.13475E-06 5.34375E-20-9.01672E-18
 -1       109 8.53246E-05-2.54904E-05-2.62929E-05 9.19705E-07-4.55346E-20-6.23202E-18
 -1       110 8.28687E-05-2.46494E-05-2.56666E-05 1.60959E-07 4.06384E-19-5.97760E-18
 -1       111 8.95169E-05-2.66832E-05-2.73079E-05-6.45048E-07 1.21419E-19-9.55406E-18
 -1       112 1.01155E-04-3.03025E-05-3.02842E-05-1.00427E-06-7.78026E-19-5.91827E-18
 -1       113 1.11867E-04-3.36150E-05-3.31671E-05-8.46784E-07 1.12684E-19-3.80630E-18
 -1       114 1.17826E-04-3.54327E-05-3.49015E-05-4.59502E-07-7.08465E-19-3.66809E-18
 -1       115 1.18371E-04-3.55819E-05-3.51789E-05-9.79425E-08 8.97068E-19-5.82418E-18
 -1       116 1.14830E-04-3.44950E-05-3.42735E-05 1.41626E-07 1.05432E-20-7.73843E-18
 -1       117 1.09106E-04-3.27584E-05-3.26944E-05 2.68968E-07 2.12187E-19-9.26933E-18
 -1       118 1.02943E-04-3.08932E-05-3.09627E-05 3.17589E-07-2.02243E-19-9.08968E-18
 -1       119 9.78486E-05-2.93465E-05-2.95243E-05 2.75839E-07 2.89473E-19-8.62103E-18
 -1       120 9.51956E-05-2.84562E-05-2.86583E-05 1.85999E-08 1.76463E-18-8.28808E-18
 -1       121 9.52064E-05-2.84223E-05-2.86839E-05-6.45628E-08-7.54762E-18 9.52698E-19
 -1       122 9.43729E-05-2.57375E-05-2.95789E-05 1.84088E-07-4.31342E-18-6.71455E-19
 -1       123 9.28412E-05-2.06084E-05-3.10476E-05 3.09822E-07-4.71522E-18 1.00027E-19
 -1       124 9.09631E-05-1.43106E-05-3.28554E-05 3.47166E-07-2.38254E-19 1.95445E-18
 -1       125 8.90924E-05-8.02594E-06-3.46662E-05 3.17909E-07 3.21023E-18-1.01091E-18
 -1       126 8.75838E-05-2.94175E-06-3.61310E-05 2.33154E-07-4.39243E-18 1.11099E-19
 -1       127 8.66603E-05 1.59588E-07-3.70261E-05 9.54720E-08-4.45283E-18-1.30482E-18
 -1       128 8.65207E-05 6.28262E-07-3.71697E-05-5.87145E-08-1.09345E-17 5.18118E-19
 -1       129 8.71567E-05-1.51174E-06-3.65676E-05-1.88525E-07 1.81446E-18 1.80086E-18
 -1       130 8.83965E-05-5.68091E-06-3.53780E-05-2.63039E-07 3.46110E-18-4.90666E-19
 -1       131 8.99660E-05-1.09584E-05-3.38554E-05-2.75128E-07-2.41449E-18 1.00329E-18
 -1       132 9.15580E-05-1.63148E-05-3.22924E-05-2.39494E-07-4.63167E-18 1.51231E-18
 -1       133 9.30095E-05-2.11856E-05-3.08573E-05-1.79140E-07-2.58487E-18 3.82691E-19
 -1       134 9.41505E-05-2.50216E-05-2.97226E-05-1.20885E-07-3.69495E-18 5.01240E-19
 -1       135 9.49124E-05-2.75266E-05-2.89640E-05-6.74474E-08-7.38664E-18-9.08881E-20
 -1       136 9.51870E-05-2.85562E-05-2.85735E-05 1.58846E-07-5.44596E-18-1.92017E-19
 -1       137 2.90490E-05-9.72607E-05 1.75132E-05-2.57360E-05-5.00215E-18-5.43504E-19
 -1       138 9.53971E-06-4.29869E-05 5.50305E-06-2.31055E-05 2.63088E-18 1.14477E-18
 -1       139 8.56892E-06 9.38520E-06-1.22376E-05 1.54652E-05 5.51164E-18 3.93235E-18
 -1       140 5.06540E-05 2.87997E-05-3.33983E-05 7.32607E-05 3.71043E-18 2.50002E-18
 -1       141 1.41720E-04-2.87391E-08-5.45069E-05 1.12649E-04 3.96327E-18 9.19073E-18
 -1       142 2.54731E-04-5.82695E-05-7.30024E-05 9.96142E-05 6.39542E-18 1.86669E-17
 -1       143 3.14964E-04-9.59744E-05-8.04158E-05 3.19724E-05 1.53768E-18 1.23738E-17
 -1       144 3.02329E-04-8.88327E-05-7.85876E-05-5.23719E-05 6.05453E-19 2.57625E-18
 -1       145 2.20421E-04-4.14647E-05-6.71612E-05-1.08420E-04 3.94442E-18-8.98617E-18
 -1       146 1.21136E-04 7.02561E-06-5.00826E-05-1.06501E-04 1.07190E-17-1.63143E-17
 -1       147 4.20445E-05 2.58361E-05-2.95526E-05-6.23505E-05 1.83569E-17-1.84230E-17
 -1       148 5.75798E-06-9.42204E-07-7.69627E-06-3.93183E-06 2.09679E-17-1.47058E-17
 -1       149 1.24681E-05-5.39144E-05 8.41878E-06 2.63845E-05 1.26204E-17-5.95041E-18
 -1       150 3.11501E-05-1.01549E-04 1.86326E-05 2.20971E-05 2.13156E-18 1.64801E-19
 -1       151 3.71594E-05-1.13598E-04 2.08183E-05-5.11344E-06-6.84985E-18-1.20308E-18
 -1       152 2.29290E-05-8.05565E-05 1.42858E-05-2.55491E-05-1.72236E-17-4.46333E-18
 -1       153 6.20931E-06-2.56342E-05 1.03097E-06-1.43960E-05-1.89917E-17-8.56477E-18
 -1       154 6.16460E-05 2.73467E-05-3.65142E-05 8.14268E-05-1.01538E-17-1.18292E-17
 -1       155 1.47533E-04-3.44015E-06-5.54480E-05 1.12916E-04-7.28872E-18-1.24027E-17
 -1       156 2.41400E-04-5.36527E-05-7.03378E-05 9.82785E-05-3.69539E-18-1.01453E-17
 -1       157 3.04606E-04-9.15927E-05-7.88737E-05 3.44747E-05-6.77203E-19-6.31643E-18
 -1       158 3.00133E-04-8.87322E-05-7.82617E-05-4.82718E-05 8.20530E-19-2.95435E-18
 -1       159 2.33088E-04-4.76161E-05-6.93744E-05-1.05690E-04 2.98579E-19-2.00620E-18
 -1       160 1.32557E-04 4.42454E-06-5.27396E-05-1.12410E-04-1.48252E-18 2.28868E-18
 -1       161 5.26847E-05 2.90166E-05-3.38313E-05-7.54466E-05-4.59050E-18 4.40076E-18
 -1       162 1.11914E-05 1.27092E-05-1.40158E-05-2.13847E-05-7.00327E-18 5.45489E-18
 -1       163 8.90061E-06-3.94223E-05 4.72777E-06 2.08928E-05-1.40167E-17 5.80218E-18
 -1       164 2.88979E-05-9.65657E-05 1.74231E-05 2.44502E-05-2.00378E-17 4.08320E-18
 -1       165 9.48664E-05-1.23460E-05-3.55687E-05-2.23513E-05-2.53259E-18 3.28000E-18
 -1       166 8.92477E-05-8.45578E-06-3.47869E-05-1.73941E-05-2.64400E-18 5.78762E-20
 -1       167 8.65480E-05-6.50532E-06-3.44158E-05-1.35865E-05-2.31028E-18-1.85761E-18
 -1       168 8.51904E-05-5.51452E-06-3.42308E-05-1.03752E-05-1.83988E-18-2.99121E-18
 -1       169 8.44497E-05-4.94643E-06-3.41417E-05-7.54926E-06-1.40987E-18-3.60119E-18
 -1       170 8.40226E-05-4.60071E-06-3.40996E-05-4.90490E-06-1.03621E-18-3.95977E-18
 -1       171 8.38048E-05-4.41642E-06-3.40817E-05-2.39592E-06-6.05177E-19-4.15126E-18
 -1       172 8.37406E-05-4.36078E-06-3.40770E-05 5.12107E-08-2.03355E-19-4.21073E-18
 -1       173 8.38147E-05-4.42493E-06-3.40825E-05 2.50048E-06 2.22479E-19-4.28697E-18
 -1       174 8.40444E-05-4.61989E-06-3.41011E-05 5.01628E-06 6.51722E-19-4.25311E-18
 -1       175 8.44764E-05-4.97263E-06-3.41427E-05 7.62620E-06 1.08362E-18-4.08903E-18
 -1       176 8.52513E-05-5.57467E-06-3.42321E-05 1.05157E-05 1.63497E-18-3.67819E-18
 -1       177 8.66465E-05-6.60849E-06-3.44182E-05 1.37867E-05 2.07500E-18-2.82757E-18
 -1       178 8.93907E-05-8.59976E-06-3.47917E-05 1.76261E-05 2.55548E-18-1.21663E-18
 -1       179 9.57783E-05-1.36132E-05-3.54251E-05 2.18965E-05 2.57960E-18 1.96072E-18
 -1       180 1.05604E-04-2.61016E-05-3.52628E-05 1.86651E-05 2.03717E-18 6.25248E-18
 -1       181 1.03397E-04-2.73013E-05-3.26103E-05-1.21289E-05-2.13124E-18 6.60485E-18
 -1       182 9.71069E-05-2.82895E-05-2.95285E-05-4.73283E-06-1.83589E-18 5.31174E-18
 -1       183 9.35047E-05-2.76357E-05-2.81816E-05-1.77064E-06-1.27363E-18 4.35311E-18
 -1       184 9.19687E-05-2.74050E-05-2.76348E-05-4.22997E-07-8.91509E-19 3.42262E-18
 -1       185 9.13911E-05-2.73294E-05-2.74368E-05 2.40216E-07-6.08824E-19 2.96696E-18
 -1       186 9.13472E-05-2.73675E-05-2.74112E-05 5.65376E-07-5.11914E-19 2.69103E-18
 -1       187 9.15885E-05-2.74695E-05-2.74756E-05 7.03589E-07-4.39248E-19 2.26697E-18
 -1       188 9.19698E-05-2.76010E-05-2.75848E-05 7.33966E-07-8.94446E-19 1.98426E-18
 -1       189 9.24043E-05-2.77406E-05-2.77124E-05 7.02669E-07-6.98398E-19 1.98059E-18
 -1       190 9.28410E-05-2.78756E-05-2.78423E-05 6.38580E-07-4.58836E-19 1.50005E-18
 -1       191 9.32512E-05-2.79993E-05-2.79655E-05 5.60488E-07-3.07025E-19 4.51403E-19
 -1       192 9.36216E-05-2.81088E-05-2.80774E-05 4.80871E-07-5.09515E-19 1.91962E-19
 -1       193 9.39486E-05-2.82037E-05-2.81769E-05 4.08156E-07-1.80190E-19 1.91189E-19
 -1       194 9.42361E-05-2.82856E-05-2.82649E-05 3.48204E-07-2.41932E-19-1.43019E-19
 -1       195 9.44927E-05-2.83574E-05-2.83439E-05 3.05353E-07-4.37057E-19-3.96656E-20
 -1       196 9.47310E-05-2.84229E-05-2.84177E-05 2.83171E-07-3.17436E-19 4.23316E-19
 -1       197 9.49667E-05-2.84869E-05-2.84910E-05 2.85001E-07-1.74732E-19 8.64443E-20
 -1       198 9.52187E-05-2.85547E-05-2.85696E-05 3.14314E-07-3.92792E-19-4.22046E-19
 -1       199 9.55085E-05-2.86329E-05-2.86599E-05 3.74874E-07-3.76613E-19-4.31578E-19
 -1       200 9.58605E-05-2.87287E-05-2.87693E-05 4.70668E-07-4.88711E-20-9.34415E-19
 -1       201 9.63017E-05-2.88501E-05-2.89059E-05 6.05523E-07 4.52634E-19-1.45898E-18
 -1       202 9.68611E-05-2.90063E-05-2.90783E-05 7.82284E-07 2.32545E-19-9.55211E-19
 -1       203 9.75682E-05-2.92070E-05-2.92951E-05 1.00135E-06 2.68138E-19 3.64364E-20
 -1       204 9.84504E-05-2.94620E-05-2.95638E-05 1.25828E-06 7.27142E-19 8.78721E-19
 -1       205 9.95277E-05-2.97801E-05-2.98895E-05 1.54023E-06 2.45013E-19 6.62457E-19
 -1       206 1.00806E-04-3.01676E-05-3.02721E-05 1.82082E-06-7.56172E-19 7.05864E-19
 -1       207 1.02266E-04-3.06252E-05-3.07031E-05 2.05364E-06-1.07443E-18 3.63889E-19
 -1       208 1.03848E-04-3.11439E-05-3.11612E-05 2.16527E-06-1.73890E-19 3.51259E-19
 -1       209 1.05436E-04-3.16984E-05-3.16073E-05 2.05111E-06 5.56290E-19 3.33800E-19
 -1       210 1.06841E-04-3.22380E-05-3.19814E-05 1.58067E-06-1.10601E-18-1.85425E-19
 -1       211 1.07792E-04-3.26766E-05-3.22037E-05 6.24354E-07-5.21306E-19-1.73724E-19
 -1       212 1.07955E-04-3.28847E-05-3.21853E-05-8.83848E-07-2.20609E-20-7.61304E-19
 -1       213 1.06999E-04-3.26970E-05-3.18534E-05-2.84314E-06 1.22658E-19-1.12756E-18
 -1       214 1.04720E-04-3.19580E-05-3.11884E-05-4.87368E-06 4.78683E-19-5.53258E-19
 -1       215 1.01243E-04-3.06246E-05-3.02627E-05-6.29185E-06-7.21382E-19-1.14495E-18
 -1       216 9.71757E-05-2.89026E-05-2.92528E-05-6.31200E-06-3.52522E-19-5.86388E-19
 -1       217 9.35861E-05-2.72979E-05-2.83998E-05-4.50995E-06-2.31055E-19-1.59472E-18
 -1       218 9.16090E-05-2.64262E-05-2.79251E-05-1.27729E-06-4.89439E-19-8.65802E-19
 -1       219 9.18517E-05-2.66412E-05-2.79368E-05 2.19943E-06 1.08232E-19-2.84168E-18
 -1       220 9.40066E-05-2.77670E-05-2.83796E-05 4.57227E-06-6.90997E-19-2.58405E-18
 -1       221 9.70391E-05-2.92262E-05-2.90585E-05 5.12471E-06 3.16509E-19-2.16722E-18
 -1       222 9.97832E-05-3.04303E-05-2.97244E-05 4.03655E-06 2.72033E-18-6.86054E-19
 -1       223 1.01445E-04-3.10544E-05-3.01743E-05 2.05814E-06 1.27231E-18 1.77490E-18
 -1       224 1.01773E-04-3.10690E-05-3.03108E-05 8.29305E-09 1.40139E-18 4.05259E-18
 -1       225 1.00955E-04-3.06208E-05-3.01508E-05-1.53550E-06 5.97387E-19 3.54413E-18
 -1       226 9.94194E-05-2.99115E-05-2.97938E-05-2.28557E-06-5.27653E-19 2.19149E-18
 -1       227 9.76677E-05-2.91276E-05-2.93756E-05-2.16577E-06 3.60416E-19 1.51141E-18
 -1       228 9.61267E-05-2.84493E-05-2.90035E-05-1.27898E-06 5.01435E-19 2.19782E-18
 -1       229 9.95002E-05-2.85543E-05-3.05870E-05 7.21280E-06 1.97537E-18 5.36252E-18
 -1       230 9.44150E-05-2.77903E-05-2.85240E-05 2.74517E-06 1.45752E-18 3.97222E-18
 -1       231 9.20941E-05-2.74003E-05-2.76808E-05 9.31299E-07 1.19000E-18 2.88867E-18
 -1       232 9.11443E-05-2.72375E-05-2.73617E-05 6.95280E-08 9.44756E-19 1.90479E-18
 -1       233 9.09312E-05-2.72299E-05-2.72870E-05-3.57921E-07 7.40448E-19 1.16445E-18
 -1       234 9.11130E-05-2.73153E-05-2.73351E-05-5.58181E-07 1.46386E-19 7.71003E-19
 -1       235 9.14943E-05-2.74477E-05-2.74450E-05-6.30679E-07 3.95692E-19 3.73442E-19
 -1       236 9.19606E-05-2.75979E-05-2.75821E-05-6.29524E-07 7.33978E-19-1.85140E-20
 -1       237 9.24440E-05-2.77482E-05-2.77258E-05-5.87145E-07 5.15923E-19-6.54240E-19
 -1       238 9.29059E-05-2.78889E-05-2.78640E-05-5.24159E-07 3.15132E-19-7.48706E-19
 -1       239 9.33261E-05-2.80148E-05-2.79904E-05-4.54093E-07 7.99221E-20-6.95986E-19
 -1       240 9.36972E-05-2.81246E-05-2.81025E-05-3.85972E-07-6.86957E-20-6.51897E-19
 -1       241 9.40203E-05-2.82190E-05-2.82006E-05-3.25941E-07 9.18128E-19-1.32856E-18
 -1       242 9.43025E-05-2.83004E-05-2.82866E-05-2.78378E-07 6.04514E-19-1.34637E-18
 -1       243 9.45554E-05-2.83724E-05-2.83641E-05-2.46709E-07 1.37873E-19-1.76290E-18
 -1       244 9.47944E-05-2.84396E-05-2.84376E-05-2.34047E-07 1.74762E-19-2.02635E-18
 -1       245 9.50383E-05-2.85075E-05-2.85128E-05-2.43700E-07 1.90490E-19-2.36680E-18
 -1       246 9.53095E-05-2.85826E-05-2.85966E-05-2.79590E-07 5.52325E-19-2.57678E-18
 -1       247 9.56348E-05-2.86728E-05-2.86971E-05-3.46597E-07-2.93898E-19-2.60374E-18
 -1       248 9.60460E-05-2.87872E-05-2.88240E-05-4.50838E-07-1.47735E-19-2.34444E-18
 -1       249 9.65807E-05-2.89367E-05-2.89888E-05-5.99828E-07-1.72749E-19-1.75473E-18
 -1       250 9.72838E-05-2.91344E-05-2.92050E-05-8.02447E-07 6.86511E-19-2.39683E-18
 -1       251 9.82071E-05-2.93957E-05-2.94885E-05-1.06850E-06 2.76347E-19-2.98179E-18
 -1       252 9.94098E-05-2.97384E-05-2.98569E-05-1.40747E-06-6.02222E-19-3.92853E-18
 -1       253 1.00955E-04-3.01824E-05-3.03292E-05-1.82576E-06-5.26280E-19-1.32327E-18
 -1       254 1.02905E-04-3.07489E-05-3.09230E-05-2.32107E-06-7.33995E-19-7.00294E-19
 -1       255 1.05307E-04-3.14577E-05-3.16502E-05-2.87190E-06 4.13006E-19-2.31411E-18
 -1       256 1.08170E-04-3.23230E-05-3.25087E-05-3.41958E-06-7.10745E-19-1.65698E-18
 -1       257 1.11425E-04-3.33440E-05-3.34689E-05-3.84055E-06 2.27929E-19-1.53788E-18
 -1       258 1.14865E-04-3.44890E-05-3.44544E-05-3.91217E-06 6.47928E-19-1.73921E-18
 -1       259 1.18074E-04-3.56666E-05-3.53224E-05-3.29148E-06 1.34243E-19-1.39905E-18
 -1       260 1.20361E-04-3.66797E-05-3.58586E-05-1.56324E-06 4.16072E-19-1.50183E-18
 -1       261 1.20795E-04-3.71740E-05-3.58152E-05 1.54651E-06 3.94863E-20-9.21396E-19
 -1       262 1.18448E-04-3.66413E-05-3.50257E-05 5.71056E-06-1.12535E-18-6.01671E-19
 -1       263 1.13004E-04-3.46378E-05-3.35667E-05 9.46821E-06 1.71619E-18-1.30798E-18
 -1       264 1.05620E-04-3.13650E-05-3.18579E-05 1.03463E-05 1.10019E-18-8.18075E-19
 -1       265 9.92620E-05-2.82415E-05-3.05347E-05 6.55869E-06-7.14320E-19-2.42361E-18
 -1       266 9.72153E-05-2.72045E-05-3.01155E-05-5.79504E-07 9.57663E-19-4.14862E-18
 -1       267 1.00417E-04-2.89072E-05-3.06977E-05-6.94825E-06-1.26115E-19-2.83383E-18
 -1       268 1.06549E-04-3.20094E-05-3.19281E-05-9.15054E-06-1.12151E-18-2.59217E-18
 -1       269 1.12076E-04-3.45317E-05-3.31905E-05-7.00810E-06-2.49316E-19-3.27322E-18
 -1       270 1.14788E-04-3.55343E-05-3.39357E-05-2.81197E-06 3.74448E-19-2.93936E-18
 -1       271 1.14332E-04-3.51514E-05-3.39255E-05 1.19318E-06 2.36703E-18-4.58922E-18
 -1       272 1.11475E-04-3.39197E-05-3.32426E-05 3.89290E-06 4.01838E-19-5.22657E-18
 -1       273 1.07316E-04-3.23290E-05-3.21460E-05 5.10550E-06-1.09915E-19-4.34286E-18
 -1       274 1.02881E-04-3.07131E-05-3.09410E-05 5.02130E-06 4.00546E-20-3.46858E-18
 -1       275 9.90101E-05-2.92743E-05-2.98985E-05 3.81880E-06-6.45763E-20-4.26852E-18
 -1       276 9.62708E-05-2.82591E-05-2.91484E-05 1.72433E-06-1.01593E-18-3.46659E-18
 -1       277 9.53893E-05-2.64556E-05-2.95356E-05 3.11195E-06-1.89506E-18 2.29573E-18
 -1       278 9.41419E-05-2.32814E-05-3.03648E-05 5.15701E-06-1.00004E-18-6.81148E-19
 -1       279 9.26062E-05-1.92795E-05-3.14256E-05 6.24394E-06-8.54984E-19 1.95915E-18
 -1       280 9.10042E-05-1.49976E-05-3.25794E-05 6.22204E-06-1.80843E-18 2.33636E-18
 -1       281 8.95555E-05-1.11638E-05-3.36083E-05 5.12573E-06-2.15524E-18-4.19700E-18
 -1       282 8.84815E-05-8.33634E-06-3.43641E-05 3.07009E-06-1.57443E-18-1.32941E-18
 -1       283 8.80395E-05-7.12884E-06-3.46940E-05 4.60804E-07-5.46286E-19-3.19963E-18
 -1       284 8.83143E-05-7.73655E-06-3.45504E-05-2.13095E-06 1.13334E-18 5.33491E-18
 -1       285 8.92078E-05-9.95578E-06-3.39789E-05-4.15298E-06-1.21668E-18 2.46765E-20
 -1       286 9.04792E-05-1.32635E-05-3.31010E-05-5.26951E-06-1.63995E-19-2.04523E-18
 -1       287 9.18255E-05-1.69473E-05-3.20930E-05-5.45085E-06-4.22651E-19-2.94082E-18
 -1       288 9.30778E-05-2.05663E-05-3.10733E-05-4.89870E-06-2.01546E-18 9.97176E-19
 -1       289 9.40884E-05-2.36504E-05-3.01810E-05-3.88782E-06-2.70191E-18 6.24884E-19
 -1       290 9.48437E-05-2.60065E-05-2.94944E-05-2.61536E-06-2.58057E-18-1.34052E-18
 -1       291 9.55385E-05-2.73945E-05-2.91943E-05-2.11113E-06-1.00532E-18 8.47232E-19
 -1       292 1.36490E-05-5.37366E-05 1.34124E-05 6.04582E-06-7.05642E-18 5.54002E-18
 -1       293 2.62578E-05-4.84900E-05 6.31701E-06 1.96222E-05-3.99016E-18 2.98415E-18
 -1       294 5.10576E-05-4.02923E-05-6.70845E-06 3.30151E-05 1.39337E-19 2.28275E-18
 -1       295 8.75514E-05-3.38532E-05-2.36585E-05 4.40873E-05 1.48824E-18 3.83494E-19
 -1       296 1.32553E-04-3.18653E-05-4.21049E-05 4.85382E-05-2.91168E-19 6.00568E-18
 -1       297 1.73881E-04-3.54414E-05-5.77622E-05 2.56540E-05-1.02867E-18 5.07457E-18
 -1       298 2.09900E-04-3.67947E-05-7.05613E-05 2.15482E-05 3.97258E-18 4.36148E-18
 -1       299 2.10076E-04-3.37472E-05-7.21550E-05-7.51934E-07 4.87213E-18 2.88399E-18
 -1       300 2.03121E-04-3.75842E-05-6.74748E-05-2.49621E-05 5.91441E-18 1.66865E-19
 -1       301 1.67895E-04-3.45229E-05-5.49363E-05-4.02779E-05 7.56930E-18-3.22042E-18
 -1       302 1.24186E-04-3.28425E-05-3.85316E-05-4.50066E-05 8.39558E-18-5.15038E-18
 -1       303 8.40142E-05-3.89208E-05-2.01685E-05-4.00748E-05 7.92696E-18-5.57739E-18
 -1       304 4.35429E-05-4.08629E-05-3.43257E-06-2.82531E-05 6.03363E-18-9.68635E-18
 -1       305 2.17194E-05-4.67709E-05 7.77191E-06-1.65348E-05 1.66506E-18-7.12524E-18
 -1       306 1.20117E-05-5.19511E-05 1.35616E-05-2.30645E-06-8.75885E-19-4.22828E-18
 -1       307 1.42075E-05-4.82521E-05 1.14308E-05 1.12402E-05-3.09643E-18-5.37337E-18
 -1       308 2.99738E-05-4.35105E-05 3.08666E-06 2.35498E-05-6.02558E-18-4.95906E-18
 -1       309 5.62176E-05-3.53115E-05-1.05761E-05 3.58678E-05-7.39820E-18-3.82393E-18
 -1       310 9.26427E-05-3.02417E-05-2.69926E-05 4.53863E-05-6.37943E-18-2.39139E-18
 -1       311 1.34772E-04-2.96968E-05-4.38386E-05 4.77283E-05-3.41238E-18-6.13591E-18
 -1       312 1.73770E-04-3.26694E-05-5.82486E-05 3.66331E-05-4.25306E-18-4.55132E-18
 -1       313 1.97773E-04-3.25577E-05-6.80263E-05 1.76412E-05-2.94376E-18-2.62273E-18
 -1       314 2.06303E-04-3.24008E-05-7.14358E-05-2.86518E-06-1.39549E-18-2.34040E-18
 -1       315 2.02191E-04-3.53366E-05-6.81441E-05-2.66971E-05-7.28448E-19-2.11991E-18
 -1       316 1.69916E-04-3.20445E-05-5.68043E-05-4.02381E-05-1.56328E-18-1.79190E-18
 -1       317 1.29866E-04-3.04437E-05-4.15275E-05-4.89143E-05-1.57548E-18-5.56501E-19
 -1       318 8.91124E-05-3.25224E-05-2.46596E-05-4.50735E-05-2.29398E-18-8.02564E-20
 -1       319 5.69871E-05-4.13267E-05-8.25938E-06-3.74228E-05-4.27476E-18-3.05726E-19
 -1       320 2.65429E-05-4.76685E-05 6.01433E-06-2.08040E-05-7.56909E-18 8.06799E-20
 -1       321 1.31874E-05-5.10593E-05 1.28210E-05-8.00105E-06-7.98858E-18 1.81318E-18
 -1       322 9.16481E-05-1.43957E-05-3.31715E-05-1.30652E-05-2.78949E-18-2.91757E-19
 -1       323 9.57059E-05-1.91093E-05-3.28903E-05-1.46331E-05-2.89553E-18 1.63963E-18
 -1       324 8.80083E-05-1.03784E-05-3.33234E-05-8.15403E-06-1.91535E-18-2.31086E-18
 -1       325 8.71922E-05-9.45554E-06-3.33637E-05-5.71911E-06-1.46392E-18-2.87640E-18
 -1       326 8.67337E-05-8.92669E-06-3.33907E-05-3.36828E-06-9.62080E-19-3.07147E-18
 -1       327 8.65294E-05-8.68732E-06-3.34044E-05-1.07304E-06-4.73229E-19-3.17835E-18
 -1       328 8.65380E-05-8.69688E-06-3.34041E-05 1.20394E-06 7.90333E-20-3.16755E-18
 -1       329 8.67613E-05-8.95753E-06-3.33896E-05 3.50142E-06 5.47241E-19-3.21732E-18
 -1       330 8.72323E-05-9.50105E-06-3.33621E-05 5.81714E-06 1.10382E-18-3.16718E-18
 -1       331 8.80697E-05-1.04517E-05-3.33203E-05 8.25704E-06 1.67885E-18-2.75601E-18
 -1       332 8.94830E-05-1.20339E-05-3.32591E-05 1.07662E-05 2.24239E-18-2.25838E-18
 -1       333 9.19016E-05-1.47223E-05-3.31580E-05 1.31717E-05 2.71257E-18-1.23441E-18
 -1       334 9.58038E-05-1.94571E-05-3.28278E-05 1.43784E-05 2.82562E-18 5.80952E-19
 -1       335 9.87906E-05-2.44441E-05-3.19510E-05 1.19002E-05 2.54169E-18 2.48459E-18
 -1       336 9.63889E-05-2.68121E-05-2.97892E-05 5.74349E-06 2.05482E-18 1.81042E-18
 -1       337 9.64348E-05-2.60276E-05-3.01308E-05-6.35143E-06-2.08149E-18 1.86407E-18
 -1       338 9.49174E-05-2.70289E-05-2.90696E-05-2.83614E-06-1.63035E-18 1.53100E-18
 -1       339 9.39398E-05-2.74258E-05-2.84914E-05-9.26475E-07-1.12924E-18 1.30476E-18
 -1       340 9.34186E-05-2.76375E-05-2.81853E-05 1.32562E-07-8.09911E-19 9.35855E-19
 -1       341 9.32253E-05-2.77902E-05-2.80408E-05 6.96596E-07-5.54923E-19 7.77829E-19
 -1       342 9.32409E-05-2.79191E-05-2.79941E-05 9.63841E-07-7.68717E-19 4.63402E-19
 -1       343 9.33789E-05-2.80331E-05-2.80053E-05 1.05181E-06-5.81733E-19 7.99083E-19
 -1       344 9.35802E-05-2.81332E-05-2.80491E-05 1.03388E-06-7.62847E-19 6.73496E-19
 -1       345 9.38065E-05-2.82192E-05-2.81095E-05 9.57850E-07-1.06051E-18 3.19414E-19
 -1       346 9.40349E-05-2.82915E-05-2.81764E-05 8.55617E-07-8.81511E-19 7.46193E-20
 -1       347 9.42527E-05-2.83508E-05-2.82443E-05 7.48872E-07-3.73414E-19-4.89165E-19
 -1       348 9.44555E-05-2.83988E-05-2.83106E-05 6.52651E-07-7.76488E-20-1.78348E-22
 -1       349 9.46440E-05-2.84375E-05-2.83746E-05 5.77756E-07-3.54540E-19 8.19702E-20
 -1       350 9.48232E-05-2.84692E-05-2.84376E-05 5.32461E-07-9.35456E-20-3.37608E-20
 -1       351 9.50012E-05-2.84968E-05-2.85018E-05 5.23736E-07-3.18973E-19 2.54143E-19
 -1       352 9.51889E-05-2.85235E-05-2.85705E-05 5.58075E-07-1.56418E-19 7.30487E-19
 -1       353 9.53993E-05-2.85528E-05-2.86478E-05 6.41986E-07-3.16342E-19 1.31382E-18
 -1       354 9.56479E-05-2.85893E-05-2.87384E-05 7.82083E-07-7.58270E-19 4.45418E-19
 -1       355 9.59518E-05-2.86383E-05-2.88472E-05 9.84729E-07-3.37838E-19 1.06471E-19
 -1       356 9.63302E-05-2.87067E-05-2.89797E-05 1.25506E-06 7.02276E-19 6.98325E-20
 -1       357 9.68035E-05-2.88031E-05-2.91409E-05 1.59516E-06 1.20733E-18 9.17162E-19
 -1       358 9.73925E-05-2.89390E-05-2.93348E-05 2.00111E-06 6.43743E-19 6.72091E-19
 -1       359 9.81168E-05-2.91291E-05-2.95637E-05 2.45849E-06 5.79722E-19 1.52322E-19
 -1       360 9.89931E-05-2.93924E-05-2.98266E-05 2.93603E-06-1.55007E-19-1.23649E-18
 -1       361 1.00031E-04-2.97528E-05-3.01179E-05 3.37722E-06-1.17798E-18-7.66649E-19
 -1       362 1.01230E-04-3.02380E-05-3.04254E-05 3.69079E-06-2.63199E-19 2.50181E-19
 -1       363 1.02571E-04-3.08749E-05-3.07294E-05 3.74229E-06 5.15548E-20 4.55166E-20
 -1       364 1.04002E-04-3.16770E-05-3.10025E-05 3.35328E-06-5.48819E-19-5.20389E-19
 -1       365 1.05425E-04-3.26172E-05-3.12137E-05 2.31975E-06-8.45988E-19-3.28417E-19
 -1       366 1.06666E-04-3.35832E-05-3.13350E-05 4.69173E-07 6.48270E-20 1.63162E-19
 -1       367 1.07446E-04-3.43237E-05-3.13537E-05-2.22352E-06 5.64436E-19 7.35728E-19
 -1       368 1.07395E-04-3.44313E-05-3.12835E-05-5.46097E-06-2.52722E-19 4.71213E-19
 -1       369 1.06162E-04-3.34550E-05-3.11659E-05-8.45949E-06 1.03717E-19-4.66530E-21
 -1       370 1.03691E-04-3.12239E-05-3.10538E-05-9.98702E-06 6.33476E-20-2.62597E-20
 -1       371 1.00574E-04-2.82740E-05-3.09753E-05-8.85544E-06-6.76129E-19 3.95759E-19
 -1       372 9.80510E-05-2.59029E-05-3.09060E-05-4.84447E-06 8.80848E-20 6.66302E-19
 -1       373 9.73201E-05-2.54007E-05-3.08041E-05 7.19691E-07-8.10751E-19-3.93020E-19
 -1       374 9.86340E-05-2.70479E-05-3.06645E-05 5.49687E-06 2.47790E-20-1.14091E-18
 -1       375 1.01026E-04-2.97921E-05-3.05221E-05 7.64054E-06 6.20809E-19 3.73260E-19
 -1       376 1.03151E-04-3.22051E-05-3.04084E-05 6.85082E-06 2.38333E-18 2.29405E-18
 -1       377 1.04135E-04-3.34152E-05-3.03203E-05 4.10790E-06 2.95365E-18 3.62172E-19
 -1       378 1.03830E-04-3.33498E-05-3.02204E-05 7.90530E-07 2.97945E-18 1.54298E-18
 -1       379 1.02545E-04-3.23945E-05-3.00768E-05-2.02469E-06 5.18889E-19 9.37699E-19
 -1       380 1.00705E-04-3.09934E-05-2.98836E-05-3.75368E-06-2.08566E-18 1.69699E-18
 -1       381 9.86855E-05-2.94717E-05-2.96646E-05-4.20603E-06-1.05795E-18 1.79153E-18
 -1       382 9.69948E-05-2.82739E-05-2.94438E-05-3.51241E-06 2.19405E-19 1.19812E-18
 -1       383 9.43682E-05-2.73407E-05-2.86879E-05 2.47133E-06 1.67541E-18 1.26340E-18
 -1       384 9.31607E-05-2.74603E-05-2.81355E-05 7.46844E-07 1.41625E-18 7.47633E-19
 -1       385 9.26052E-05-2.75375E-05-2.78763E-05-1.73556E-07 1.04460E-18 1.33669E-19
 -1       386 9.24616E-05-2.76295E-05-2.77810E-05-6.48450E-07 4.94856E-19-2.27918E-19
 -1       387 9.25619E-05-2.77381E-05-2.77801E-05-8.65667E-07 3.89276E-19-6.41149E-19
 -1       388 9.27951E-05-2.78535E-05-2.78317E-05-9.30316E-07 8.85641E-19-5.41216E-19
 -1       389 9.30896E-05-2.79667E-05-2.79101E-05-9.05972E-07 6.25587E-19-6.61993E-19
 -1       390 9.34012E-05-2.80716E-05-2.79990E-05-8.33209E-07 1.60039E-19-7.85226E-19
 -1       391 9.37040E-05-2.81648E-05-2.80889E-05-7.38782E-07 1.06409E-19-6.29495E-19
 -1       392 9.39848E-05-2.82455E-05-2.81747E-05-6.40699E-07 1.25311E-19-8.20517E-19
 -1       393 9.42394E-05-2.83142E-05-2.82543E-05-5.51330E-07 1.11997E-18-1.04190E-18
 -1       394 9.44698E-05-2.83726E-05-2.83279E-05-4.79511E-07 6.54899E-19-9.07731E-19
 -1       395 9.46830E-05-2.84232E-05-2.83973E-05-4.32059E-07 2.86555E-19-6.17972E-19
 -1       396 9.48893E-05-2.84693E-05-2.84657E-05-4.14918E-07 7.70255E-19-1.05108E-18
 -1       397 9.51026E-05-2.85148E-05-2.85373E-05-4.34059E-07 5.82997E-19-1.31340E-18
 -1       398 9.53398E-05-2.85641E-05-2.86174E-05-4.96197E-07 5.75851E-19-1.46588E-18
 -1       399 9.56211E-05-2.86225E-05-2.87125E-05-6.09352E-07 6.98240E-20-1.17404E-18
 -1       400 9.59706E-05-2.86962E-05-2.88302E-05-7.83258E-07-4.52926E-19-1.37335E-18
 -1       401 9.64164E-05-2.87926E-05-2.89793E-05-1.02956E-06-3.13739E-19-1.10020E-18
 -1       402 9.69912E-05-2.89205E-05-2.91701E-05-1.36163E-06 1.14469E-18-1.36380E-18
 -1       403 9.77320E-05-2.90906E-05-2.94139E-05-1.79377E-06 4.25816E-19-1.68296E-18
 -1       404 9.86803E-05-2.93163E-05-2.97228E-05-2.33913E-06-5.90078E-19-1.32715E-18
 -1       405 9.98801E-05-2.96146E-05-3.01085E-05-3.00536E-06-1.44679E-18-1.04886E-18
 -1       406 1.01375E-04-3.00077E-05-3.05804E-05-3.78641E-06-7.76898E-19-1.32744E-18
 -1       407 1.03203E-04-3.05261E-05-3.11422E-05-4.64775E-06 6.04259E-19-8.15116E-20
 -1       408 1.05387E-04-3.12123E-05-3.17864E-05-5.50209E-06-2.67175E-19 4.21887E-20
 -1       409 1.07924E-04-3.21242E-05-3.24868E-05-6.17335E-06 3.03702E-19-4.61521E-19
 -1       410 1.10758E-04-3.33306E-05-3.31910E-05-6.35304E-06 7.42599E-19-4.03782E-19
 -1       411 1.13749E-04-3.48802E-05-3.38171E-05-5.57145E-06 8.78764E-20-9.07874E-19
 -1       412 1.16598E-04-3.67040E-05-3.42645E-05-3.25043E-06 9.93163E-20-1.87313E-18
 -1       413 1.18750E-04-3.84281E-05-3.44499E-05 1.04328E-06-7.80892E-19-2.42411E-19
 -1       414 1.19310E-04-3.91510E-05-3.43755E-05 7.01349E-06-1.11290E-18-5.81223E-19
 -1       415 1.17270E-04-3.75779E-05-3.41771E-05 1.28344E-05 1.47777E-18 7.56652E-19
 -1       416 1.12450E-04-3.31106E-05-3.40358E-05 1.49963E-05 1.65081E-18 1.58516E-18
 -1       417 1.06913E-04-2.76683E-05-3.40107E-05 1.03630E-05 1.01886E-18 2.55192E-19
 -1       418 1.04390E-04-2.52828E-05-3.39680E-05 2.36455E-07 1.59712E-18-1.67420E-18
 -1       419 1.06801E-04-2.81198E-05-3.37562E-05-9.32229E-06-5.90878E-19-3.49986E-18
 -1       420 1.11584E-04-3.34047E-05-3.35122E-05-1.28530E-05-5.38318E-19-3.59642E-18
 -1       421 1.15048E-04-3.72277E-05-3.33654E-05-9.75569E-06-1.33241E-18-3.61937E-18
 -1       422 1.15544E-04-3.80849E-05-3.32279E-05-3.58045E-06 6.75310E-21-2.64441E-18
 -1       423 1.13538E-04-3.67885E-05-3.29266E-05 2.33409E-06 1.19906E-18-1.75731E-18
 -1       424 1.10110E-04-3.45984E-05-3.23883E-05 6.33897E-06 1.27980E-18-5.03166E-19
 -1       425 1.06168E-04-3.23173E-05-3.16627E-05 8.16571E-06-3.44448E-19-1.16882E-18
 -1       426 1.02303E-04-3.02508E-05-3.08804E-05 8.10122E-06-2.48206E-20-8.34093E-19
 -1       427 9.88629E-05-2.84440E-05-3.01738E-05 6.48769E-06 4.80950E-19 1.50897E-18
 -1       428 9.69481E-05-2.73291E-05-2.98282E-05 5.00428E-06-1.20958E-18 2.42496E-18
 -1       429 9.26081E-05-1.99041E-05-3.11595E-05 1.04390E-05-7.19742E-19 2.98696E-18
 -1       430 9.47676E-05-2.32300E-05-3.06476E-05 9.65137E-06-7.27792E-19 7.48563E-19
 -1       431 9.60267E-05-2.53795E-05-3.02631E-05 7.63185E-06-1.47314E-18 4.90002E-19
 -1       432 9.04384E-05-1.66159E-05-3.16480E-05 9.55878E-06-3.01630E-18-3.63762E-18
 -1       433 8.85248E-05-1.37816E-05-3.20492E-05 6.91658E-06-8.85392E-19 2.08185E-20
 -1       434 8.73922E-05-1.20943E-05-3.22906E-05 2.94318E-06 4.37265E-19-6.53327E-19
 -1       435 8.73728E-05-1.19697E-05-3.23359E-05-1.52231E-06 1.77081E-18 2.66663E-18
 -1       436 8.84498E-05-1.34055E-05-3.21789E-05-5.46660E-06-8.89912E-19 1.72019E-19
 -1       437 9.02408E-05-1.59681E-05-3.18424E-05-8.09109E-06-5.29837E-19-3.65300E-19
 -1       438 9.21684E-05-1.89546E-05-3.13815E-05-9.09762E-06 8.00125E-19-1.08219E-18
 -1       439 9.38632E-05-2.18874E-05-3.08441E-05-8.70640E-06 1.92731E-18 1.67747E-19
 -1       440 9.50942E-05-2.43548E-05-3.03082E-05-7.35796E-06 7.73503E-20-1.28991E-19
 -1       441 9.58600E-05-2.62244E-05-2.98307E-05-5.53770E-06-1.03534E-18-1.89991E-18
 -1       442 5.55452E-05-4.40870E-05-5.24317E-06 4.23643E-05-4.17280E-18 3.76967E-18
 -1       443 1.29870E-05-2.47998E-05 4.89365E-06 3.97739E-07-1.79699E-18 6.01171E-18
 -1       444 2.55589E-05-3.00953E-05 1.81086E-06 2.73305E-05-3.94728E-18 4.34602E-18
 -1       445 9.64517E-05-5.51472E-05-1.78598E-05 4.33675E-05-4.24681E-19 7.25404E-19
 -1       446 1.32429E-04-5.72487E-05-3.22242E-05 3.07397E-05 2.77086E-19 3.86353E-18
 -1       447 8.93369E-05-1.18567E-05-3.32799E-05-1.06914E-05-2.43374E-18-1.56595E-18
 -1       448 1.61766E-04-2.48417E-05-5.85662E-05-7.34585E-07 1.93346E-18-2.34395E-18
 -1       449 1.62642E-04-1.49325E-05-6.30288E-05 2.46008E-07 3.22847E-18-1.29403E-18
 -1       450 1.60676E-04-1.74925E-05-6.11905E-05 5.58034E-06 7.65887E-18-7.86152E-20
 -1       451 1.63734E-04-3.18587E-05-5.62296E-05 2.12071E-06 7.77518E-18 3.51942E-19
 -1       452 1.51875E-04-4.98289E-05-4.36898E-05-1.26893E-05 5.76970E-18-3.75871E-19
 -1       453 1.27959E-04-5.76507E-05-3.01529E-05-2.86181E-05 4.71850E-18-1.43403E-18
 -1       454 8.75299E-05-5.32419E-05-1.47708E-05-4.17358E-05 1.10993E-18-3.49127E-18
 -1       455 4.73095E-05-4.01455E-05-3.37706E-06-3.79013E-05-3.37331E-19-9.99059E-18
 -1       456 1.94298E-05-2.61701E-05 2.78781E-06-1.94025E-05 1.79518E-19-4.52189E-18
 -1       457 1.19695E-05-2.45112E-05 5.13544E-06 6.62835E-06 1.00719E-18-6.56366E-18
 -1       458 3.28610E-05-3.00739E-05-1.04897E-06 3.43443E-05 8.99231E-19-4.50685E-18
 -1       459 6.21391E-05-4.40869E-05-7.99298E-06 4.34195E-05-7.74506E-19-8.95287E-19
 -1       460 9.97776E-05-5.23162E-05-2.04828E-05 4.12589E-05-1.09087E-18 1.19643E-18
 -1       461 1.32546E-04-5.25366E-05-3.42577E-05 2.79308E-05-1.17626E-18-8.71703E-19
 -1       462 1.51278E-04-4.34952E-05-4.61861E-05 9.72534E-06-1.16908E-18-3.64542E-19
 -1       463 1.56679E-04-2.61639E-05-5.59961E-05-2.03420E-06-3.00220E-18 3.73012E-19
 -1       464 1.55872E-04-1.24393E-05-6.15316E-05-2.87581E-06-1.77792E-18-3.81932E-19
 -1       465 1.59448E-04-1.49624E-05-6.17654E-05 1.14528E-07-1.08865E-18 1.49448E-19
 -1       466 1.60800E-04-2.70749E-05-5.70335E-05-2.78354E-06-1.01750E-18-1.86644E-18
 -1       467 1.50646E-04-4.62580E-05-4.47456E-05-1.31583E-05-1.27954E-18-2.15888E-18
 -1       468 1.35006E-04-5.46532E-05-3.43386E-05-2.92298E-05-7.62224E-19-6.12828E-19
 -1       469 1.01827E-04-5.58653E-05-1.97182E-05-4.31800E-05-1.23709E-18-3.12486E-18
 -1       470 5.67831E-05-4.32129E-05-5.97666E-06-4.42197E-05-1.00723E-18-4.62353E-18
 -1       471 2.74864E-05-3.20112E-05 1.73946E-06-3.00964E-05-2.04696E-18-2.32955E-18
 -1       472 1.54141E-04-4.82046E-05-4.53754E-05 1.12810E-05-2.19162E-18 3.55479E-18
 -1       473 1.51800E-04-3.76842E-05-4.92395E-05-6.87924E-06-1.18690E-19-9.59265E-19
 -1       474 9.58180E-05-2.51481E-05-3.02729E-05 6.02113E-06 2.15277E-18-2.61735E-19
 -1       475 8.95437E-05-1.34045E-05-3.26500E-05-3.92713E-06-1.14791E-18-2.52288E-18
 -1       476 9.02471E-05-1.43645E-05-3.25415E-05-5.88946E-06-1.59012E-18-2.23369E-18
 -1       477 8.90474E-05-1.27249E-05-3.27274E-05 5.46120E-08-2.76796E-19-2.73673E-18
 -1       478 8.91822E-05-1.29081E-05-3.27070E-05 2.04681E-06 2.24860E-19-2.81912E-18
 -1       479 8.95761E-05-1.34450E-05-3.26468E-05 4.00036E-06 7.91100E-19-2.73994E-18
 -1       480 9.02989E-05-1.44313E-05-3.25357E-05 5.95512E-06 1.42937E-18-2.62579E-18
 -1       481 9.14449E-05-1.60090E-05-3.23528E-05 7.78320E-06 1.85578E-18-2.15002E-18
 -1       482 9.32323E-05-1.84796E-05-3.20571E-05 9.29881E-06 2.31813E-18-1.53734E-18
 -1       483 1.25534E-04-6.38522E-05-2.63214E-05 2.93028E-05-1.85288E-18 1.41147E-18
 -1       484 9.51103E-05-2.65777E-05-2.93532E-05 2.87773E-06 1.96233E-18-5.50809E-19
 -1       485 9.54716E-05-2.44194E-05-3.04405E-05-5.84591E-06-2.03468E-18 2.51739E-19
 -1       486 9.52740E-05-2.62338E-05-2.95822E-05-2.90342E-06-1.53128E-18 2.19371E-19
 -1       487 9.49145E-05-2.71610E-05-2.90336E-05-1.03703E-06-1.10769E-18 2.46192E-19
 -1       488 9.46383E-05-2.76923E-05-2.86896E-05 8.59963E-08-9.41043E-19 9.20112E-20
 -1       489 9.44817E-05-2.80182E-05-2.84838E-05 7.21125E-07-9.04552E-19-3.91300E-20
 -1       490 9.44265E-05-2.82288E-05-2.83704E-05 1.03994E-06-5.45712E-19-4.27925E-19
 -1       491 9.44427E-05-2.83680E-05-2.83179E-05 1.15812E-06-6.07392E-19-5.57553E-19
 -1       492 9.45033E-05-2.84595E-05-2.83047E-05 1.15443E-06-9.77500E-19-3.03036E-19
 -1       493 9.45883E-05-2.85174E-05-2.83164E-05 1.08293E-06-1.00256E-18 6.17955E-20
 -1       494 9.46845E-05-2.85507E-05-2.83434E-05 9.81053E-07-7.25285E-19 2.36598E-19
 -1       495 9.47839E-05-2.85655E-05-2.83796E-05 8.74991E-07-8.30520E-20 3.17934E-19
 -1       496 9.48830E-05-2.85663E-05-2.84217E-05 7.83419E-07-2.33609E-20-1.31536E-19
 -1       497 9.49814E-05-2.85562E-05-2.84681E-05 7.20179E-07-2.62219E-19 3.72420E-19
 -1       498 9.50813E-05-2.85375E-05-2.85188E-05 6.96216E-07-1.16717E-20 1.04050E-18
 -1       499 9.51870E-05-2.85120E-05-2.85749E-05 7.20956E-07 6.86326E-20 1.07295E-18
 -1       500 9.53044E-05-2.84814E-05-2.86382E-05 8.03209E-07 4.22063E-20 5.95484E-19
 -1       501 9.54409E-05-2.84476E-05-2.87111E-05 9.51607E-07-1.09155E-18 5.23772E-19
 -1       502 9.56057E-05-2.84137E-05-2.87961E-05 1.17453E-06-7.56451E-19 9.91418E-19
 -1       503 9.58096E-05-2.83842E-05-2.88959E-05 1.47940E-06 3.24995E-19 1.21284E-18
 -1       504 9.60653E-05-2.83668E-05-2.90128E-05 1.87121E-06 7.68545E-19 3.65453E-19
 -1       505 9.63881E-05-2.83737E-05-2.91480E-05 2.34997E-06 8.65765E-19-5.17433E-19
 -1       506 9.67970E-05-2.84242E-05-2.93015E-05 2.90684E-06-2.81901E-20-1.38967E-18
 -1       507 9.73153E-05-2.85473E-05-2.94709E-05 3.51851E-06-6.73219E-19-1.43960E-18
 -1       508 9.79737E-05-2.87853E-05-2.96512E-05 4.13965E-06-2.24348E-19-1.67549E-18
 -1       509 9.88117E-05-2.91970E-05-2.98344E-05 4.69326E-06-3.90105E-19-2.49299E-19
 -1       510 9.98793E-05-2.98563E-05-3.00103E-05 5.05992E-06-4.60963E-19-5.20537E-19
 -1       511 1.01233E-04-3.08431E-05-3.01690E-05 5.06826E-06-3.80181E-19-4.04234E-20
 -1       512 1.02920E-04-3.22130E-05-3.03067E-05 4.49296E-06-2.43279E-20 1.15221E-18
 -1       513 1.04933E-04-3.39338E-05-3.04341E-05 3.07429E-06-3.28816E-19 1.64453E-18
 -1       514 1.07131E-04-3.57774E-05-3.05875E-05 5.86571E-07 6.10217E-20 9.02744E-19
 -1       515 1.09125E-04-3.71965E-05-3.08347E-05-3.00322E-06 6.67606E-19 1.41143E-18
 -1       516 1.10228E-04-3.72994E-05-3.12620E-05-7.25831E-06-8.91586E-19 2.00643E-18
 -1       517 1.09646E-04-3.51665E-05-3.19237E-05-1.09715E-05 2.19458E-19 1.54158E-19
 -1       518 1.07125E-04-3.06898E-05-3.27626E-05-1.22164E-05 8.59666E-20 9.01749E-19
 -1       519 1.03730E-04-2.55103E-05-3.35386E-05-9.32958E-06-4.75023E-19 7.02936E-19
 -1       520 1.01657E-04-2.26095E-05-3.38886E-05-2.77573E-06-1.40280E-18 4.24277E-20
 -1       521 1.02389E-04-2.39770E-05-3.36078E-05 4.49227E-06-7.92360E-19-9.64145E-20
 -1       522 1.05221E-04-2.86640E-05-3.28174E-05 8.83503E-06 1.16107E-18 1.13030E-18
 -1       523 1.07907E-04-3.36330E-05-3.18369E-05 8.87508E-06 1.79801E-18 9.81787E-19
 -1       524 1.08839E-04-3.65751E-05-3.09790E-05 5.67169E-06 1.37550E-18-1.05638E-18
 -1       525 1.07829E-04-3.69736E-05-3.03751E-05 1.30533E-06 2.59459E-18-1.58666E-18
 -1       526 1.05551E-04-3.55230E-05-3.00197E-05-2.58292E-06 1.18542E-18-1.55650E-18
 -1       527 1.02783E-04-3.31677E-05-2.98399E-05-5.18363E-06-1.86681E-19-1.83159E-18
 -1       528 1.00042E-04-3.05857E-05-2.97668E-05-6.24595E-06-1.12008E-18-1.32074E-18
 -1       529 9.41390E-05-2.76857E-05-2.84764E-05-1.14969E-07 9.45207E-19-6.95113E-19
 -1       530 9.39621E-05-2.79318E-05-2.82974E-05-7.24206E-07 7.33315E-19-9.66022E-19
 -1       531 9.39316E-05-2.81022E-05-2.82123E-05-1.02263E-06 6.29115E-19-8.38422E-19
 -1       532 9.39954E-05-2.82271E-05-2.81866E-05-1.12759E-06 5.39097E-19-4.92394E-19
 -1       533 9.41131E-05-2.83202E-05-2.81974E-05-1.11626E-06 4.12137E-19 2.15999E-20
 -1       534 9.42566E-05-2.83892E-05-2.82294E-05-1.04057E-06 4.59199E-19-5.14688E-19
 -1       535 9.44084E-05-2.84392E-05-2.82730E-05-9.35938E-07 3.23714E-19-6.53478E-19
 -1       536 9.45586E-05-2.84739E-05-2.83225E-05-8.26904E-07 5.31262E-19-7.39509E-19
 -1       537 9.47031E-05-2.84963E-05-2.83748E-05-7.30827E-07 7.79692E-19-4.90869E-19
 -1       538 9.48423E-05-2.85088E-05-2.84289E-05-6.60576E-07 8.00661E-20 1.61140E-21
 -1       539 9.49797E-05-2.85137E-05-2.84855E-05-6.26497E-07 6.21240E-19 2.04777E-19
 -1       540 9.51216E-05-2.85128E-05-2.85465E-05-6.37920E-07 8.54680E-19 7.04745E-19
 -1       541 9.52765E-05-2.85078E-05-2.86149E-05-7.04322E-07 8.01333E-19 8.04916E-19
 -1       542 9.54548E-05-2.85002E-05-2.86943E-05-8.36201E-07 1.14609E-19 5.37098E-19
 -1       543 9.56690E-05-2.84918E-05-2.87894E-05-1.04570E-06-4.75982E-19 3.34226E-19
 -1       544 9.59334E-05-2.84846E-05-2.89054E-05-1.34696E-06 2.05263E-19-4.52248E-19
 -1       545 9.62642E-05-2.84813E-05-2.90482E-05-1.75599E-06 3.69388E-19-1.34557E-18
 -1       546 9.66793E-05-2.84863E-05-2.92235E-05-2.28999E-06 7.14510E-19-4.22836E-19
 -1       547 9.71986E-05-2.85066E-05-2.94368E-05-2.96549E-06 1.60431E-19-2.80723E-19
 -1       548 9.78443E-05-2.85549E-05-2.96923E-05-3.79467E-06-8.92840E-19-8.75656E-19
 -1       549 9.86421E-05-2.86544E-05-2.99912E-05-4.77857E-06-8.20578E-19-1.75536E-18
 -1       550 9.96252E-05-2.88472E-05-3.03298E-05-5.89537E-06-5.29889E-19-1.99148E-18
 -1       551 1.00842E-04-2.92077E-05-3.06973E-05-7.08111E-06-4.70704E-19-1.73182E-18
 -1       552 1.02370E-04-2.98615E-05-3.10736E-05-8.20044E-06-6.18083E-19-4.96718E-19
 -1       553 1.04335E-04-3.10026E-05-3.14302E-05-9.00557E-06-1.90444E-19 2.02564E-19
 -1       554 1.06929E-04-3.28879E-05-3.17391E-05-9.08725E-06 5.31717E-19 5.38482E-19
 -1       555 1.10376E-04-3.57468E-05-3.19978E-05-7.83238E-06 2.92135E-19 9.35862E-19
 -1       556 1.14741E-04-3.94832E-05-3.22757E-05-4.48519E-06-1.42739E-18 1.96184E-18
 -1       557 1.19554E-04-4.31690E-05-3.27587E-05 1.53765E-06-9.82141E-19 3.05667E-18
 -1       558 1.23188E-04-4.44108E-05-3.37920E-05 9.73918E-06-7.76331E-19 3.57650E-18
 -1       559 1.23153E-04-4.00547E-05-3.57095E-05 1.71048E-05 5.10278E-19 4.34351E-18
 -1       560 1.18602E-04-3.01147E-05-3.80243E-05 1.77629E-05 2.78095E-18 4.29389E-18
 -1       561 1.12470E-04-2.06609E-05-3.96837E-05 7.72624E-06 3.22902E-18 1.79069E-18
 -1       562 1.12038E-04-2.12621E-05-3.93213E-05-7.15913E-06 2.60411E-18 8.48462E-19
 -1       563 1.18466E-04-3.17916E-05-3.72663E-05-1.52444E-05-1.10382E-18-2.34832E-18
 -1       564 1.22065E-04-4.12402E-05-3.46954E-05-1.28973E-05-1.96147E-18-1.01137E-18
 -1       565 1.20704E-04-4.40501E-05-3.28967E-05-4.97926E-06-1.16290E-18-2.60651E-18
 -1       566 1.16130E-04-4.19783E-05-3.18098E-05 3.12684E-06-3.70960E-19-3.61536E-19
 -1       567 1.10742E-04-3.78816E-05-3.12474E-05 8.73998E-06 1.09090E-18 8.07984E-19
 -1       568 1.05926E-04-3.37993E-05-3.09181E-05 1.15307E-05-2.20065E-19 5.13143E-19
 -1       569 1.01998E-04-3.03987E-05-3.06843E-05 1.19895E-05-4.93804E-19 4.37758E-19
 -1       570 9.87423E-05-2.76304E-05-3.04711E-05 1.06497E-05-4.67272E-19 1.87084E-18
 -1       571 8.83768E-05-1.79054E-05-3.02075E-05 1.11062E-05 1.42305E-18 1.53666E-18
 -1       572 8.57353E-05-1.54244E-05-3.01415E-05 6.65443E-06 2.22386E-18 6.22530E-19
 -1       573 9.50735E-05-2.42530E-05-3.03579E-05 1.32834E-05-1.90616E-18 1.11483E-18
 -1       574 9.17797E-05-2.11205E-05-3.02752E-05 1.32961E-05-2.59857E-18-9.65931E-19
 -1       575 8.47546E-05-1.45001E-05-3.01178E-05 7.66747E-07 1.45701E-18 7.56539E-21
 -1       576 8.58016E-05-1.54878E-05-3.01432E-05-5.10822E-06 3.56724E-19-5.24146E-19
 -1       577 8.84618E-05-1.80272E-05-3.01928E-05-9.52871E-06-3.11973E-19 4.16930E-19
 -1       578 9.16540E-05-2.11622E-05-3.02152E-05-1.17023E-05 9.30908E-19 3.70408E-19
 -1       579 9.45417E-05-2.41428E-05-3.01710E-05-1.17705E-05 2.15857E-18-1.14700E-18
 -1       580 9.65289E-05-2.64117E-05-3.00453E-05-1.03260E-05 1.17208E-18-2.91408E-18
 -1       581 9.75526E-05-2.78348E-05-2.98819E-05-8.06703E-06-5.38825E-19-1.41250E-18
 -1       582 2.90293E-05-1.69463E-05-4.53217E-06 1.51081E-05-1.55501E-18 3.22529E-18
 -1       583 8.88838E-05-5.13470E-05-1.57607E-05 4.39762E-05-4.26455E-18 3.05308E-18
 -1       584 9.45171E-05-2.72932E-05-2.88015E-05 9.88543E-07 1.47596E-18-6.63922E-19
 -1       585 2.93165E-05-1.77153E-05-4.32103E-06-1.76169E-05 9.01746E-19 1.01220E-19
 -1       586 5.58717E-05-3.39572E-05-8.84634E-06 4.01702E-05-4.15697E-18 3.62710E-18
 -1       587 1.28492E-04-6.30423E-05-2.79489E-05-2.80464E-05-2.03640E-18 4.05729E-19
 -1       588 1.42581E-04-6.15321E-05-3.50100E-05 1.16499E-05-1.60960E-18 1.73171E-18
 -1       589 1.33830E-04-7.44260E-06-5.47891E-05 4.25417E-07-1.56521E-18 1.57260E-18
 -1       590 8.91623E-05-1.28832E-05-3.27091E-05-1.93833E-06-6.76781E-19-2.83986E-18
 -1       591 1.43093E-04-6.06835E-05-3.54915E-05-6.71206E-06 3.64333E-18 2.12716E-18
 -1       592 1.39664E-04-1.64412E-05-5.34088E-05-8.31354E-06 1.36997E-18 1.69354E-18
 -1       593 1.35402E-04-1.02435E-05-5.42980E-05 4.26314E-06 5.19718E-18 2.53964E-19
 -1       594 1.37719E-04-2.40394E-05-4.93590E-05 1.71445E-05 6.46794E-18 1.46770E-18
 -1       595 9.14288E-05-5.22873E-05-1.64790E-05-4.46243E-05-7.61694E-19-4.21862E-19
 -1       596 1.46772E-04-4.43731E-05-4.43599E-05 1.22112E-05 4.51895E-18 2.61881E-18
 -1       597 1.18646E-04-6.14578E-05-2.44949E-05-2.90026E-05 8.35598E-19 2.19024E-19
 -1       598 7.48763E-05-4.44175E-05-1.26561E-05-4.09789E-05-2.25253E-18-6.01965E-18
 -1       599 4.19436E-05-2.65243E-05-6.08889E-06-3.18356E-05-1.05667E-18-6.57848E-18
 -1       600 2.21317E-05-1.54667E-05-2.30597E-06-5.76882E-06 1.12029E-18-3.92674E-18
 -1       601 2.84050E-05-1.71629E-05-4.18972E-06 1.95316E-05 1.91580E-18-5.35695E-18
 -1       602 6.52850E-05-3.79026E-05-1.12759E-05 4.22864E-05 2.02965E-18-1.75601E-19
 -1       603 9.50230E-05-5.28345E-05-1.78088E-05 4.13526E-05 1.06986E-18 1.71645E-18
 -1       604 1.21937E-04-6.06544E-05-2.62484E-05 2.94924E-05 3.94400E-19 8.68076E-19
 -1       605 1.41335E-04-5.56909E-05-3.69152E-05 6.58887E-06 6.40727E-19 1.12232E-20
 -1       606 1.43440E-04-3.65685E-05-4.62177E-05-9.08864E-06-6.74344E-19 8.64715E-19
 -1       607 1.34807E-04-1.55613E-05-5.17218E-05-1.14177E-05-2.28408E-18 1.32706E-18
 -1       608 1.36058E-04-1.82144E-05-5.11162E-05 9.75466E-06-9.15325E-20 2.07076E-18
 -1       609 1.43796E-04-3.85533E-05-4.55046E-05 7.35876E-06-2.59483E-18 8.80385E-20
 -1       610 1.41026E-04-5.93440E-05-3.52400E-05-1.22506E-05-1.89105E-18 1.16806E-18
 -1       611 5.27203E-05-3.21194E-05-8.30483E-06-3.94297E-05-1.34556E-18-5.32657E-18
 -1       612 9.45797E-05-2.06869E-05-3.16883E-05-9.57660E-06-2.57123E-18 8.45858E-20
 -1       613 9.61583E-05-2.31899E-05-3.12757E-05 9.58580E-06 2.45295E-18 7.75747E-20
 -1       614 9.13473E-05-1.58560E-05-3.23765E-05-7.76937E-06-2.08195E-18-1.67607E-18
 -1       615 1.36810E-04-2.73214E-05-4.74935E-05-1.40319E-05 6.01446E-19 2.35449E-18
 -1       616 1.43782E-04-5.13746E-05-3.97193E-05-5.49828E-06-1.42619E-18 8.76891E-19
 -1       617 5.16322E-05-2.45798E-05-1.10546E-05 3.22629E-05 2.44290E-18-3.19130E-18
 -1       618 1.04178E-04-5.49788E-05-2.08919E-05-3.33973E-05-1.41240E-18-1.59979E-18
 -1       619 9.83176E-05-2.89200E-05-2.97401E-05-6.10724E-06-1.49075E-18 9.62236E-19
 -1       620 9.15586E-05-1.68536E-05-3.20220E-05 2.44231E-06 5.07609E-19-2.35107E-18
 -1       621 9.13007E-05-1.64519E-05-3.20834E-05 8.41405E-07 3.73130E-20-2.34183E-18
 -1       622 9.28938E-05-1.90014E-05-3.16737E-05 5.26877E-06 1.39906E-18-2.04275E-18
 -1       623 9.39890E-05-2.09343E-05-3.13170E-05 6.14491E-06 1.91254E-18-1.46127E-18
 -1       624 3.85026E-05-1.30623E-05-1.03497E-05-1.57550E-06 1.45654E-18 5.66242E-19
 -1       625 9.52709E-05-2.40948E-05-3.04939E-05 5.15299E-06 2.05030E-18-1.10790E-18
 -1       626 9.54256E-05-2.57294E-05-2.98710E-05-2.44037E-06-1.32548E-18-5.43979E-19
 -1       627 9.54761E-05-2.69473E-05-2.93688E-05-8.73211E-07-1.08740E-18-6.53089E-19
 -1       628 9.54192E-05-2.77059E-05-2.90198E-05 1.28739E-07-8.72954E-19-5.73498E-19
 -1       629 9.53435E-05-2.81769E-05-2.87857E-05 7.17624E-07-8.77862E-19-4.38199E-19
 -1       630 9.52793E-05-2.84655E-05-2.86346E-05 1.02172E-06-5.96755E-19-4.98377E-19
 -1       631 9.52346E-05-2.86351E-05-2.85427E-05 1.13891E-06-4.25029E-19-9.29876E-20
 -1       632 9.52079E-05-2.87252E-05-2.84927E-05 1.14057E-06-5.02094E-19 4.12984E-19
 -1       633 9.51953E-05-2.87609E-05-2.84720E-05 1.07823E-06-6.68567E-19 8.29134E-19
 -1       634 9.51930E-05-2.87591E-05-2.84718E-05 9.88818E-07-6.67831E-19 7.31915E-19
 -1       635 9.51977E-05-2.87304E-05-2.84861E-05 8.98919E-07-5.41344E-19 4.63249E-19
 -1       636 9.52076E-05-2.86818E-05-2.85111E-05 8.28038E-07 1.72860E-19 3.83555E-20
 -1       637 9.52215E-05-2.86173E-05-2.85447E-05 7.91078E-07 2.22546E-19 3.92054E-19
 -1       638 9.52391E-05-2.85389E-05-2.85858E-05 8.00198E-07-8.12704E-20 6.36112E-19
 -1       639 9.52607E-05-2.84473E-05-2.86343E-05 8.66131E-07-4.31848E-19 4.93441E-19
 -1       640 9.52875E-05-2.83429E-05-2.86905E-05 9.99006E-07-3.52650E-19-1.38943E-19
 -1       641 9.53216E-05-2.82263E-05-2.87550E-05 1.20868E-06-5.06359E-19 5.09056E-19
 -1       642 9.53663E-05-2.80997E-05-2.88284E-05 1.50450E-06-4.73903E-19 7.74574E-19
 -1       643 9.54271E-05-2.79686E-05-2.89105E-05 1.89446E-06 9.75202E-20 4.60050E-19
 -1       644 9.55130E-05-2.78441E-05-2.90007E-05 2.38356E-06 2.16740E-19-3.02831E-19
 -1       645 9.56383E-05-2.77456E-05-2.90965E-05 2.97119E-06-3.02763E-20-2.28925E-19
 -1       646 9.58263E-05-2.77058E-05-2.91941E-05 3.64731E-06-8.61672E-19-6.94956E-19
 -1       647 9.61140E-05-2.77752E-05-2.92876E-05 4.38717E-06-6.07875E-19-6.36588E-19
 -1       648 9.65588E-05-2.80290E-05-2.93696E-05 5.14410E-06 4.32106E-19-1.13372E-19
 -1       649 9.72471E-05-2.85708E-05-2.94326E-05 5.83994E-06-1.63449E-19 3.41330E-19
 -1       650 9.83006E-05-2.95319E-05-2.94725E-05 6.35231E-06-1.85421E-19 1.44985E-18
 -1       651 9.98747E-05-3.10538E-05-2.94956E-05 6.49830E-06 1.35511E-20 2.02595E-18
 -1       652 1.02133E-04-3.32363E-05-2.95290E-05 6.01625E-06 4.23803E-19 2.08198E-18
 -1       653 1.05169E-04-3.60235E-05-2.96364E-05 4.55826E-06-2.02678E-19 2.23132E-18
 -1       654 1.08839E-04-3.90017E-05-2.99335E-05 1.74032E-06 2.73907E-19 2.25078E-18
 -1       655 1.12519E-04-4.11546E-05-3.05904E-05-2.65608E-06-5.06441E-19 2.21979E-18
 -1       656 1.14922E-04-4.07994E-05-3.17835E-05-8.16092E-06-8.51484E-19 2.57056E-18
 -1       657 1.14548E-04-3.63337E-05-3.35476E-05-1.28922E-05-1.80252E-19 1.66254E-18
 -1       658 1.10948E-04-2.81088E-05-3.55281E-05-1.35815E-05-5.73772E-19 5.21119E-19
 -1       659 1.06649E-04-2.03071E-05-3.70995E-05-8.13900E-06-1.47530E-18-4.44504E-19
 -1       660 1.05944E-04-1.89288E-05-3.73880E-05 1.64634E-06-7.33524E-19-4.19294E-20
 -1       661 1.08896E-04-2.47582E-05-3.61464E-05 9.44497E-06 3.90843E-19 8.04258E-19
 -1       662 1.13378E-04-3.38993E-05-3.40651E-05 1.07462E-05 4.32220E-19-3.35791E-19
 -1       663 1.15011E-04-3.99428E-05-3.21885E-05 6.89541E-06 6.82847E-19-1.65544E-18
 -1       664 1.13307E-04-4.15658E-05-3.07571E-05 1.11471E-06 2.04341E-18-1.23229E-18
 -1       665 1.09651E-04-3.97615E-05-2.99593E-05-3.89300E-06 1.03998E-18-2.19100E-18
 -1       666 1.05490E-04-3.63135E-05-2.96505E-05-7.15752E-06-3.52279E-19-3.28352E-18
 -1       667 1.01693E-04-3.25057E-05-2.96530E-05-8.59696E-06-6.17218E-19-3.26282E-18
 -1       668 9.49816E-05-2.81137E-05-2.86575E-05-7.31297E-07 5.21598E-19-4.81478E-19
 -1       669 9.72827E-05-2.78230E-05-2.97656E-05 1.57705E-05-2.01149E-18-5.59151E-19
 -1       670 5.09225E-05-2.18284E-05-1.19433E-05-2.76835E-05 6.29081E-19-1.79608E-18
 -1       671 9.50926E-05-2.77090E-05-2.88780E-05-1.21229E-07 8.49056E-19-7.70244E-19
 -1       672 9.49004E-05-2.85218E-05-2.84481E-05-1.15945E-06 3.40933E-19-1.12099E-19
 -1       673 9.49104E-05-2.86121E-05-2.84137E-05-1.15758E-06 5.87974E-19-5.23718E-20
 -1       674 9.49395E-05-2.86575E-05-2.84067E-05-1.08963E-06 3.39717E-19 3.03431E-19
 -1       675 9.49798E-05-2.86715E-05-2.84180E-05-9.93054E-07 3.73271E-19 2.39811E-19
 -1       676 9.50264E-05-2.86626E-05-2.84418E-05-8.94578E-07 4.74982E-19 5.58341E-19
 -1       677 9.50766E-05-2.86366E-05-2.84744E-05-8.13686E-07 1.49467E-19 7.52958E-19
 -1       678 9.51297E-05-2.85968E-05-2.85142E-05-7.65320E-07-1.13517E-20 7.85485E-19
 -1       679 9.51863E-05-2.85445E-05-2.85608E-05-7.61924E-07 2.94917E-19 8.88590E-19
 -1       680 9.52483E-05-2.84799E-05-2.86150E-05-8.14998E-07 8.38899E-19 1.95893E-18
 -1       681 9.53182E-05-2.84020E-05-2.86782E-05-9.36264E-07 7.44459E-19 1.78879E-18
 -1       682 9.53988E-05-2.83089E-05-2.87526E-05-1.13849E-06 5.66287E-20 9.19158E-19
 -1       683 9.54935E-05-2.81983E-05-2.88404E-05-1.43599E-06 1.41348E-19 2.73731E-19
 -1       684 9.56054E-05-2.80679E-05-2.89442E-05-1.84469E-06 6.19262E-19 8.14339E-19
 -1       685 9.57375E-05-2.79162E-05-2.90656E-05-2.38177E-06 3.04330E-19 4.33186E-19
 -1       686 9.58927E-05-2.77442E-05-2.92057E-05-3.06442E-06 2.41901E-19 1.09748E-19
 -1       687 9.60751E-05-2.75590E-05-2.93630E-05-3.90772E-06-1.26419E-19 8.77698E-19
 -1       688 9.62925E-05-2.73789E-05-2.95332E-05-4.92084E-06-1.27526E-19 3.76150E-19
 -1       689 9.65634E-05-2.72442E-05-2.97068E-05-6.10101E-06-1.14566E-18 1.82468E-19
 -1       690 9.69300E-05-2.72334E-05-2.98685E-05-7.42426E-06-4.63101E-19 2.74470E-19
 -1       691 9.74828E-05-2.74893E-05-2.99960E-05-8.83121E-06-1.13621E-18 1.29412E-18
 -1       692 9.83999E-05-2.82511E-05-3.00632E-05-1.02054E-05-6.30084E-19 1.28079E-18
 -1       693 1.00000E-04-2.98839E-05-3.00504E-05-1.13372E-05-2.37979E-19 1.30343E-18
 -1       694 1.02793E-04-3.28673E-05-2.99701E-05-1.18636E-05 3.43021E-19 1.83777E-18
 -1       695 1.07502E-04-3.76712E-05-2.99277E-05-1.11096E-05-1.04621E-18 3.06417E-18
 -1       696 1.14487E-04-4.39839E-05-3.02237E-05-7.96146E-06-2.26279E-18 2.69504E-18
 -1       697 1.23485E-04-5.03077E-05-3.13833E-05-1.07559E-06-2.10825E-18 4.28777E-18
 -1       698 1.30776E-04-5.07275E-05-3.44503E-05 9.41657E-06-1.50176E-19 5.10239E-18
 -1       699 1.29286E-04-5.12345E-05-3.34682E-05-3.81890E-06-2.28638E-18 2.19726E-18
 -1       700 1.21104E-04-4.92920E-05-3.07830E-05 6.41848E-06-1.51785E-18 2.51431E-18
 -1       701 1.12203E-04-4.27012E-05-2.97878E-05 1.26260E-05 9.77018E-20 9.93101E-19
 -1       702 1.05402E-04-3.62093E-05-2.96508E-05 1.52123E-05 1.09387E-18 3.06358E-19
 -1       703 1.00748E-04-3.17158E-05-2.95814E-05 1.61613E-05 1.16083E-18-1.29146E-18
 -1       704 8.12648E-05-1.62174E-05-2.78804E-05-3.28054E-06 2.25533E-18-8.96788E-20
 -1       705 9.94852E-05-3.00526E-05-2.97511E-05-8.62582E-06 1.55993E-19-3.04737E-18
 -1       706 8.43786E-05-1.84100E-05-2.82690E-05 1.14042E-05 1.99796E-18 1.21731E-18
 -1       707 8.46323E-05-1.89265E-05-2.81576E-05-1.00723E-05 1.70799E-18-2.38890E-18
 -1       708 8.11714E-05-1.60493E-05-2.79162E-05 4.62135E-06 2.58717E-18-3.64176E-19
 -1       709 1.21146E-04-9.79975E-06-4.82772E-05-6.03835E-06-2.03680E-18 2.64807E-18
 -1       710 8.96233E-05-2.28651E-05-2.86129E-05-1.38507E-05 7.74578E-19 5.94325E-19
 -1       711 9.45414E-05-2.66758E-05-2.90866E-05-1.45721E-05-2.54633E-19 7.53611E-19
 -1       712 9.80022E-05-2.92882E-05-2.94479E-05-1.29170E-05 8.16604E-19-2.36243E-18
 -1       713 8.19987E-05-4.02734E-05-1.74885E-05 3.82055E-05-3.30062E-18 3.40346E-18
 -1       714 1.13862E-04-5.67564E-05-2.43495E-05 2.82277E-05 1.50068E-18 4.93476E-19
 -1       715 5.29219E-05-2.21588E-05-1.26755E-05 2.78537E-05-6.17050E-19 1.57617E-18
 -1       716 7.95009E-05-4.04043E-05-1.63984E-05-4.01974E-05-1.43665E-18-2.79939E-18
 -1       717 1.34039E-04-6.26831E-05-3.07753E-05 1.22995E-05-3.21685E-18 5.27649E-19
 -1       718 1.31190E-04-6.13025E-05-2.99403E-05-1.13973E-05-4.72393E-19 3.67485E-18
 -1       719 1.29202E-04-2.73493E-05-4.40496E-05-1.51351E-05-1.76021E-18 2.11728E-18
 -1       720 9.52317E-05-2.70422E-05-2.92218E-05 9.29998E-07 1.25770E-18-7.29962E-19
 -1       721 9.49202E-05-2.83666E-05-2.85230E-05-1.04233E-06 3.03880E-19-3.09882E-19
 -1       722 9.50209E-05-2.36462E-05-3.05834E-05-4.71852E-06-1.69489E-18-5.64282E-19
 -1       723 1.14539E-04-5.82083E-05-2.39809E-05-3.22234E-05-2.10289E-18 2.13919E-18
 -1       724 9.20821E-05-1.76800E-05-3.18925E-05 3.95207E-06 9.58285E-19-2.16356E-18
 -1       725 1.10636E-04-5.59772E-05-2.32226E-05 3.27977E-05-3.49128E-18 1.40949E-18
 -1       726 1.37529E-04-5.08503E-05-3.74282E-05 3.60767E-06-1.87988E-18-1.95418E-18
 -1       727 9.20426E-05-1.76248E-05-3.18993E-05-3.89637E-06-1.26434E-18-1.94892E-18
 -1       728 1.19675E-04-1.25644E-05-4.64103E-05 6.49560E-06-9.57121E-19 2.96491E-18
 -1       729 3.47431E-05-1.21944E-05-9.06542E-06 4.87606E-06 1.14294E-18-4.42426E-18
 -1       730 6.70956E-05-3.32474E-05-1.40403E-05-3.47987E-05-2.42527E-18-6.73338E-18
 -1       731 1.35899E-04-4.69281E-05-3.84105E-05-8.63754E-06-1.62789E-19 1.10218E-18
 -1       732 4.04675E-05-1.61136E-05-9.88860E-06-1.79255E-05 2.43562E-19-2.74417E-18
 -1       733 9.25794E-05-4.68805E-05-1.93171E-05 3.64800E-05 2.20570E-18 6.81875E-19
 -1       734 9.53379E-05-2.59446E-05-2.97365E-05 2.60834E-06 1.63898E-18-9.17043E-19
 -1       735 1.31226E-04-5.91125E-05-3.10116E-05 1.06567E-05 9.35349E-19 5.84069E-19
 -1       736 1.27408E-04-2.94915E-05-4.23003E-05 1.35528E-05-4.73438E-19 6.90266E-19
 -1       737 1.33216E-04-6.12626E-05-3.09209E-05-1.49097E-05-1.21119E-18-1.23098E-19
 -1       738 1.39299E-04-5.49689E-05-3.62865E-05 6.72752E-06 1.64070E-18 4.93336E-18
 -1       739 1.31919E-04-4.22809E-05-3.87193E-05 1.80127E-05 1.31665E-18 3.82914E-18
 -1       740 9.28337E-05-1.89041E-05-3.16901E-05-5.25113E-06-1.66808E-18-1.60645E-18
 -1       741 9.12945E-05-1.64433E-05-3.20845E-05-7.84034E-07-4.95509E-19-2.62637E-18
 -1       742 1.37246E-04-4.30724E-05-4.06275E-05-1.39951E-05-3.75341E-20 2.17404E-18
 -1       743 4.77819E-05-1.64054E-05-1.30144E-05 1.93558E-05 1.69930E-18-4.01425E-18
 -1       744 8.94435E-05-2.21624E-05-2.88353E-05 1.53947E-05 7.50351E-19 3.05191E-18
 -1       745 1.18314E-04-1.85358E-05-4.30971E-05-1.31928E-05-2.46439E-18 1.54175E-18
 -1       746 7.63990E-05-3.47580E-05-1.75201E-05 3.39073E-05 2.34175E-18 7.58333E-19
 -1       747 9.15355E-05-1.68222E-05-3.20256E-05-2.38189E-06-8.27074E-19-2.27445E-18
 -1       748 9.41663E-05-2.13088E-05-3.12278E-05-6.15228E-06-2.05762E-18-8.99634E-19
 -1       749 9.06894E-05-4.35613E-05-2.00038E-05-3.21365E-05-2.72746E-18-2.75500E-18
 -1       750 1.00267E-04-3.13608E-05-2.95260E-05-1.10603E-05-1.10073E-18-4.28013E-18
 -1       751 9.46741E-05-2.27671E-05-3.08144E-05 3.91095E-06 1.45525E-18-1.31563E-18
 -1       752 1.04227E-04-4.84435E-05-2.38019E-05 2.60870E-05 1.64638E-18-6.82010E-19
 -1       753 9.98886E-05-4.46910E-05-2.35292E-05 3.02148E-05-1.64833E-18 2.86127E-18
 -1       754 9.58715E-05-2.68860E-05-2.95650E-05-5.85221E-07-9.95591E-19-9.45898E-19
 -1       755 9.59647E-05-2.77744E-05-2.92245E-05 2.14727E-07-7.51373E-19-7.49050E-19
 -1       756 9.59537E-05-2.83329E-05-2.89804E-05 6.93826E-07-7.57205E-19-8.19286E-19
 -1       757 9.58931E-05-2.86691E-05-2.88103E-05 9.43000E-07-1.95290E-19-7.41682E-19
 -1       758 9.58120E-05-2.88540E-05-2.86963E-05 1.03774E-06-2.97250E-20-2.93298E-19
 -1       759 9.57254E-05-2.89354E-05-2.86243E-05 1.03689E-06-2.59379E-19 1.93812E-19
 -1       760 9.56410E-05-2.89460E-05-2.85836E-05 9.84542E-07-5.98288E-19 4.64917E-19
 -1       761 9.55618E-05-2.89073E-05-2.85662E-05 9.13192E-07-5.29381E-19 8.74767E-19
 -1       762 9.54882E-05-2.88334E-05-2.85664E-05 8.46865E-07-3.99212E-19 6.45050E-19
 -1       763 9.54191E-05-2.87324E-05-2.85801E-05 8.03662E-07-9.76852E-20-2.13326E-20
 -1       764 9.53522E-05-2.86085E-05-2.86044E-05 7.97866E-07-4.40427E-20-2.31832E-19
 -1       765 9.52842E-05-2.84631E-05-2.86376E-05 8.41535E-07-3.43499E-19-5.65340E-19
 -1       766 9.52118E-05-2.82956E-05-2.86784E-05 9.45642E-07-7.52119E-19-7.32873E-19
 -1       767 9.51314E-05-2.81050E-05-2.87256E-05 1.12079E-06-1.12420E-19-6.59371E-19
 -1       768 9.50399E-05-2.78911E-05-2.87780E-05 1.37744E-06-2.18224E-19-4.57853E-20
 -1       769 9.49358E-05-2.76564E-05-2.88340E-05 1.72574E-06-6.15763E-19-5.89899E-19
 -1       770 9.48204E-05-2.74084E-05-2.88908E-05 2.17481E-06-3.20863E-19-7.88364E-19
 -1       771 9.47007E-05-2.71633E-05-2.89445E-05 2.73149E-06 2.16982E-19-5.96023E-19
 -1       772 9.45926E-05-2.69504E-05-2.89894E-05 3.39853E-06-1.77575E-19-4.96990E-19
 -1       773 9.45270E-05-2.68181E-05-2.90180E-05 4.17200E-06-6.72462E-19 5.00312E-19
 -1       774 9.45580E-05-2.68413E-05-2.90213E-05 5.03777E-06 2.98152E-19 3.66602E-19
 -1       775 9.47745E-05-2.71302E-05-2.89903E-05 5.96626E-06 9.20464E-20 9.73695E-19
 -1       776 9.53142E-05-2.78365E-05-2.89189E-05 6.90355E-06 4.02645E-19 1.01373E-18
 -1       777 9.63783E-05-2.91540E-05-2.88104E-05 7.75491E-06 3.77324E-19 1.40905E-18
 -1       778 9.82378E-05-3.12987E-05-2.86885E-05 8.35370E-06-1.89825E-19 1.84902E-18
 -1       779 1.01211E-04-3.44429E-05-2.86155E-05 8.40519E-06-5.08721E-19 5.49672E-19
 -1       780 1.05561E-04-3.85455E-05-2.87202E-05 7.40527E-06 2.01430E-19-6.25186E-19
 -1       781 1.11201E-04-4.29920E-05-2.92312E-05 4.63890E-06 7.40278E-20-1.10161E-18
 -1       782 1.17292E-04-4.61185E-05-3.05001E-05-6.19133E-07 2.39623E-19-2.14758E-19
 -1       783 1.21526E-04-4.48066E-05-3.29109E-05-8.22257E-06-4.30819E-19 1.13110E-18
 -1       784 1.20969E-04-3.63811E-05-3.64263E-05-1.50731E-05-8.40270E-19 1.70393E-18
 -1       785 1.13696E-04-1.81183E-05-4.13579E-05 7.63696E-06 3.02814E-19-3.44537E-20
 -1       786 1.19995E-04-4.70384E-05-3.12798E-05-1.39718E-07 2.46603E-18-3.94675E-19
 -1       787 1.14324E-04-4.48961E-05-2.97603E-05-6.59421E-06 1.37027E-18 1.67907E-19
 -1       788 1.08210E-04-4.00775E-05-2.92024E-05-1.02352E-05-9.53416E-19-1.28504E-18
 -1       789 1.03753E-04-3.54864E-05-2.92555E-05-1.11892E-05-1.47436E-18-2.41464E-18
 -1       790 1.28777E-04-5.14165E-05-3.32286E-05-3.12624E-06 3.98994E-19 6.05801E-19
 -1       791 5.34459E-05-1.53012E-05-1.60442E-05 1.22435E-05 9.21340E-19 7.58518E-19
 -1       792 9.55088E-05-2.88473E-05-2.85693E-05-1.09182E-06-8.02969E-20-9.83473E-20
 -1       793 9.55690E-05-2.87617E-05-2.86318E-05-1.09286E-06 3.16170E-19-5.19496E-19
 -1       794 9.54110E-05-2.88474E-05-2.85273E-05-9.53616E-07-2.29779E-20 1.89386E-19
 -1       795 9.53727E-05-2.87939E-05-2.85338E-05-8.76562E-07 2.51976E-19 2.09988E-19
 -1       796 9.53397E-05-2.87160E-05-2.85530E-05-8.21695E-07 2.26064E-19 4.30548E-19
 -1       797 9.53098E-05-2.86173E-05-2.85825E-05-8.04089E-07 8.47524E-20 1.92602E-19
 -1       798 9.52804E-05-2.84979E-05-2.86211E-05-8.36652E-07-2.78627E-19 5.66705E-19
 -1       799 9.52484E-05-2.83558E-05-2.86682E-05-9.31518E-07 8.87136E-19 7.88432E-19
 -1       800 9.52099E-05-2.81870E-05-2.87240E-05-1.10099E-06 4.02627E-19 1.28214E-18
 -1       801 9.51597E-05-2.79862E-05-2.87886E-05-1.35820E-06 4.07739E-19 8.46731E-19
 -1       802 9.50913E-05-2.77471E-05-2.88617E-05-1.71732E-06-2.47101E-20 1.02643E-18
 -1       803 9.49964E-05-2.74637E-05-2.89424E-05-2.19341E-06 5.01773E-19 1.62873E-18
 -1       804 9.48650E-05-2.71317E-05-2.90284E-05-2.80186E-06 5.69230E-19 1.59829E-18
 -1       805 9.46863E-05-2.67513E-05-2.91147E-05-3.55736E-06-3.67498E-19 7.47164E-19
 -1       806 9.44504E-05-2.63324E-05-2.91931E-05-4.47255E-06-5.67793E-20 8.17692E-19
 -1       807 9.41541E-05-2.59029E-05-2.92501E-05-5.55658E-06-4.07256E-19 1.46761E-18
 -1       808 9.38120E-05-2.55236E-05-2.92659E-05-6.81416E-06-8.80603E-19 9.56496E-19
 -1       809 9.34769E-05-2.53106E-05-2.92136E-05-8.24553E-06-1.07403E-18 1.08559E-18
 -1       810 9.32770E-05-2.54695E-05-2.90597E-05-9.84703E-06-1.79855E-18 1.27548E-18
 -1       811 9.34742E-05-2.63389E-05-2.87714E-05-1.16089E-05-2.71708E-19 1.78431E-18
 -1       812 9.45551E-05-2.84392E-05-2.83330E-05-1.34894E-05-5.97280E-19 8.72035E-19
 -1       813 9.72829E-05-3.24365E-05-2.77820E-05-1.53360E-05-1.31247E-18 1.81117E-18
 -1       814 1.03147E-04-3.93605E-05-2.73648E-05-1.67112E-05-1.61102E-18 2.69323E-18
 -1       815 1.13627E-04-4.92255E-05-2.75192E-05-1.60620E-05-3.69857E-18 4.70621E-18
 -1       816 1.25461E-04-5.74322E-05-2.91907E-05 1.49534E-05-2.31683E-18 9.52429E-19
 -1       817 9.32105E-05-1.97812E-05-3.14709E-05 1.23484E-06 2.51940E-19-1.93204E-18
 -1       818 1.20116E-04-5.53084E-05-2.77616E-05 1.55248E-05 7.80600E-19-2.44135E-19
 -1       819 7.80629E-05-1.83333E-05-2.56092E-05-9.71094E-06 1.76102E-18-2.13968E-18
 -1       820 9.93323E-05-3.27860E-05-2.85167E-05-1.57183E-05-1.88650E-18-1.17116E-18
 -1       821 8.53236E-05-2.35397E-05-2.64698E-05-1.59368E-05 1.36843E-18-1.13914E-18
 -1       822 1.12436E-04-1.27090E-05-4.30955E-05-1.45724E-06-1.38440E-18 1.26425E-18
 -1       823 9.33401E-05-2.90545E-05-2.75493E-05-1.77008E-05 4.36064E-19 3.78833E-19
 -1       824 1.02648E-04-3.81297E-05-2.76637E-05 2.02746E-05 1.62321E-18 4.07340E-18
 -1       825 1.11825E-04-4.75039E-05-2.74922E-05 2.00231E-05-4.54898E-19 2.59288E-18
 -1       826 6.20264E-05-2.25151E-05-1.65986E-05-2.38873E-05-4.39292E-19-4.42254E-18
 -1       827 9.54560E-05-2.88694E-05-2.85372E-05-1.03382E-06 2.83093E-19 2.81842E-19
 -1       828 9.57324E-05-2.77491E-05-2.91356E-05-1.91522E-07 4.79505E-19-5.55097E-19
 -1       829 5.42362E-05-1.56954E-05-1.62492E-05-1.35122E-05 9.66359E-19 7.91446E-19
 -1       830 9.56952E-05-2.69165E-05-2.94772E-05 6.95813E-07 8.83508E-19-7.02080E-19
 -1       831 9.96637E-05-4.65188E-05-2.25886E-05-3.24884E-05-4.83093E-19 1.10683E-18
 -1       832 9.52055E-05-2.44740E-05-3.03134E-05 3.42962E-06 1.59616E-18-8.74722E-19
 -1       833 7.48752E-05-2.82856E-05-1.97471E-05 2.88606E-05-5.47812E-19 1.51681E-18
 -1       834 7.16650E-05-2.95395E-05-1.77938E-05-3.15047E-05 6.58423E-19-3.28101E-18
 -1       835 1.14596E-04-5.32668E-05-2.58886E-05-2.05540E-05-3.23018E-18 4.20986E-18
 -1       836 9.47030E-05-2.28554E-05-3.07902E-05-4.13800E-06-1.59646E-18-8.70814E-19
 -1       837 9.55892E-05-2.55361E-05-3.00225E-05-1.79892E-06-1.18968E-18-8.15218E-19
 -1       838 4.79886E-05-1.28237E-05-1.47296E-05-5.78467E-06 3.14985E-19-2.84002E-18
 -1       839 1.24350E-04-4.48987E-05-3.41253E-05 7.11328E-06 8.64900E-20 6.12956E-19
 -1       840 9.31003E-05-1.95816E-05-3.15091E-05 2.06566E-08-1.08088E-19-2.06794E-18
 -1       841 1.17068E-04-5.46556E-05-2.66556E-05-2.26445E-05 2.15845E-19-4.17647E-18
 -1       842 7.54029E-05-1.61393E-05-2.53541E-05 3.39412E-07 1.58815E-18-6.75294E-19
 -1       843 6.59907E-05-2.47317E-05-1.74655E-05 2.64657E-05 2.10435E-18-1.21770E-18
 -1       844 8.49622E-05-2.24845E-05-2.67705E-05 1.69363E-05 1.59805E-18 3.36859E-18
 -1       845 9.56953E-05-2.82684E-05-2.88972E-05-7.17614E-07 2.33139E-19-5.15382E-19
 -1       846 9.56340E-05-2.85834E-05-2.87360E-05-9.89496E-07 1.47013E-19-5.74709E-19
 -1       847 9.39737E-05-2.12655E-05-3.11626E-05-3.29775E-06-1.34780E-18-1.56929E-18
 -1       848 5.24957E-05-1.34012E-05-1.65219E-05 6.86459E-06 9.47653E-19-3.82580E-18
 -1       849 9.35239E-05-2.03649E-05-3.13551E-05 2.36359E-06 6.05243E-19-1.95450E-18
 -1       850 9.71146E-05-3.19403E-05-2.79436E-05 1.95060E-05 2.62234E-18 4.30905E-18
 -1       851 7.79656E-05-1.78132E-05-2.57693E-05 1.06142E-05 1.54515E-18 1.64368E-18
 -1       852 9.40276E-05-2.13545E-05-3.11466E-05 3.31157E-06 9.74407E-19-1.75752E-18
 -1       853 7.98963E-05-3.20447E-05-2.03372E-05-2.69077E-05-2.23037E-18-2.87049E-18
 -1       854 9.12158E-05-3.93536E-05-2.20993E-05 2.75612E-05 9.24292E-19-6.60130E-19
 -1       855 9.40220E-05-2.82845E-05-2.81927E-05 1.86738E-05 2.25021E-18 3.24040E-18
 -1       856 9.34898E-05-2.03223E-05-3.13615E-05-2.31914E-06-9.84554E-19-1.76235E-18
 -1       857 1.27684E-04-5.41274E-05-3.15438E-05-4.56603E-06 9.09429E-19-1.64204E-18
 -1       858 9.55466E-05-2.59331E-05-2.98360E-05 1.84358E-06 1.21207E-18-8.83511E-19
 -1       859 1.01954E-04-3.45362E-05-2.88986E-05-1.37177E-05-3.28729E-18-5.08334E-18
 -1       860 1.05708E-04-4.53373E-05-2.58299E-05-2.40479E-05 8.13228E-19-3.39426E-18
 -1       861 6.24048E-05-1.70821E-05-1.92761E-05-1.31443E-05-3.35684E-19-1.17123E-18
 -1       862 9.63712E-05-2.79231E-05-2.93349E-05 2.88019E-07-5.61611E-19-7.25420E-19
 -1       863 9.63911E-05-2.85095E-05-2.90921E-05 6.36309E-07-3.47248E-19-4.29063E-19
 -1       864 9.63257E-05-2.88554E-05-2.89158E-05 8.13873E-07-1.61103E-19-3.68409E-19
 -1       865 9.62140E-05-2.90324E-05-2.87921E-05 8.76845E-07-1.78120E-19-7.46753E-19
 -1       866 9.60805E-05-2.90922E-05-2.87093E-05 8.70261E-07-1.30519E-19-4.15853E-19
 -1       867 9.59396E-05-2.90706E-05-2.86581E-05 8.28333E-07-7.80378E-19-5.95852E-19
 -1       868 9.57981E-05-2.89914E-05-2.86314E-05 7.77045E-07-4.98018E-19-5.47962E-19
 -1       869 9.56581E-05-2.88699E-05-2.86235E-05 7.36004E-07-3.77687E-19-4.85331E-19
 -1       870 9.55181E-05-2.87143E-05-2.86302E-05 7.20366E-07-1.69986E-19-8.87670E-19
 -1       871 9.53738E-05-2.85281E-05-2.86482E-05 7.42578E-07-4.08287E-19-7.88373E-19
 -1       872 9.52189E-05-2.83113E-05-2.86747E-05 8.13557E-07-2.69000E-19-1.06269E-18
 -1       873 9.50461E-05-2.80620E-05-2.87075E-05 9.43721E-07-3.52715E-19-3.21842E-19
 -1       874 9.48470E-05-2.77779E-05-2.87439E-05 1.14356E-06 1.69788E-19-3.36818E-19
 -1       875 9.46139E-05-2.74581E-05-2.87810E-05 1.42394E-06-7.60955E-19 9.29658E-20
 -1       876 9.43406E-05-2.71059E-05-2.88149E-05 1.79615E-06-2.52198E-19 3.73261E-21
 -1       877 9.40248E-05-2.67314E-05-2.88400E-05 2.27179E-06-5.92871E-20 1.60041E-19
 -1       878 9.36713E-05-2.63562E-05-2.88493E-05 2.86245E-06 2.88207E-19 3.08353E-19
 -1       879 9.32970E-05-2.60186E-05-2.88336E-05 3.57951E-06-1.58030E-19-8.54699E-20
 -1       880 9.29380E-05-2.57811E-05-2.87815E-05 4.43390E-06-1.58482E-19 1.55434E-19
 -1       881 9.26605E-05-2.57391E-05-2.86806E-05 5.43581E-06-2.80813E-19 3.83782E-19
 -1       882 9.25757E-05-2.60316E-05-2.85188E-05 6.59318E-06-3.54490E-20-3.32635E-19
 -1       883 9.28614E-05-2.68526E-05-2.82895E-05 7.90564E-06 4.87182E-19-5.63924E-19
 -1       884 9.37899E-05-2.84590E-05-2.79989E-05 9.34470E-06 3.23183E-19-1.11459E-18
 -1       885 9.57561E-05-3.11619E-05-2.76831E-05 1.08065E-05-4.68871E-19-1.28959E-18
 -1       886 9.92997E-05-3.52796E-05-2.74348E-05 1.20002E-05 2.10419E-19 2.56132E-20
 -1       887 1.05042E-04-4.09370E-05-2.74643E-05 1.22164E-05-1.42627E-19 5.13173E-19
 -1       888 1.13250E-04-4.73781E-05-2.81866E-05 1.01956E-05 1.20153E-18 9.25945E-19
 -1       889 1.09791E-04-4.39119E-05-2.82324E-05-1.52691E-05-1.11767E-19-4.16216E-18
 -1       890 9.47820E-05-2.30155E-05-3.07556E-05-2.77528E-06-1.29908E-18-1.36471E-18
 -1       891 9.55957E-05-2.88591E-05-2.86014E-05-7.93073E-07 1.07508E-19-1.19755E-19
 -1       892 9.57057E-05-2.89600E-05-2.86053E-05-8.44741E-07 5.88510E-20-3.17344E-19
 -1       893 9.53766E-05-2.85638E-05-2.86341E-05-7.79212E-07-1.08707E-19 3.44092E-19
 -1       894 9.52571E-05-2.83704E-05-2.86657E-05-8.42381E-07 2.27095E-19-3.36149E-19
 -1       895 9.51206E-05-2.81417E-05-2.87053E-05-9.67353E-07 3.80633E-19 8.36331E-20
 -1       896 9.49565E-05-2.78707E-05-2.87511E-05-1.16524E-06 1.59794E-19-1.05931E-20
 -1       897 9.47517E-05-2.75489E-05-2.88012E-05-1.44751E-06-1.67929E-19 1.36509E-18
 -1       898 9.44903E-05-2.71671E-05-2.88528E-05-1.82589E-06 3.97130E-19 9.64550E-19
 -1       899 9.41535E-05-2.67170E-05-2.89013E-05-2.31210E-06 7.71026E-19 1.51687E-19
 -1       900 9.37194E-05-2.61932E-05-2.89398E-05-2.91737E-06 2.99073E-19 1.77162E-19
 -1       901 9.31644E-05-2.55966E-05-2.89575E-05-3.65225E-06-2.04119E-19 4.25797E-19
 -1       902 9.24652E-05-2.49408E-05-2.89389E-05-4.52724E-06-7.28275E-19 9.13781E-20
 -1       903 9.16047E-05-2.42611E-05-2.88614E-05-5.55579E-06-8.43448E-19 3.57495E-19
 -1       904 9.05828E-05-2.36294E-05-2.86942E-05-6.76161E-06-1.05199E-18 9.76939E-19
 -1       905 8.94360E-05-2.31773E-05-2.83966E-05-8.19282E-06-1.31451E-18 5.39270E-19
 -1       906 8.82741E-05-2.31309E-05-2.79187E-05-9.94457E-06-1.01499E-18-9.89845E-19
 -1       907 8.73356E-05-2.38538E-05-2.72067E-05-1.21928E-05-3.67052E-19-3.40130E-19
 -1       908 8.71290E-05-2.59599E-05-2.62173E-05-1.52185E-05-2.25038E-18-1.40745E-19
 -1       909 8.90060E-05-3.05293E-05-2.50097E-05-1.93359E-05-2.29184E-18 9.53273E-19
 -1       910 7.05234E-05-1.95312E-05-2.17634E-05 1.67687E-05 7.28413E-19 1.55461E-18
 -1       911 1.11030E-04-4.82065E-05-2.68806E-05 1.56855E-05 6.55290E-19-1.23900E-19
 -1       912 1.20827E-04-5.06510E-05-3.01019E-05 3.65935E-06 8.07050E-19-5.26854E-19
 -1       913 9.05779E-05-3.34614E-05-2.43951E-05 2.59523E-05 2.95783E-19 3.07174E-18
 -1       914 7.77312E-05-2.27593E-05-2.34614E-05-1.82905E-05 1.27550E-18-2.53764E-18
 -1       915 9.60738E-05-2.69741E-05-2.96153E-05 4.10763E-07 6.18360E-19-6.75731E-19
 -1       916 9.54874E-05-2.87262E-05-2.86119E-05-7.66731E-07-2.49485E-19 1.32540E-19
 -1       917 9.60470E-05-2.89586E-05-2.87522E-05-9.57984E-07 2.02073E-19-6.49751E-19
 -1       918 6.32802E-05-1.46945E-05-2.07365E-05-1.27612E-07 1.13447E-18-4.14034E-19
 -1       919 1.18499E-04-5.06912E-05-2.90359E-05-1.21425E-05 1.16999E-18-3.13039E-18
 -1       920 9.32008E-05-1.97638E-05-3.14739E-05-1.19149E-06-7.05695E-19-2.25853E-18
 -1       921 9.58211E-05-2.56311E-05-3.00822E-05-1.18162E-06-9.74227E-19-1.12554E-18
 -1       922 9.62056E-05-2.69967E-05-2.96607E-05-2.92457E-07-7.51710E-19-1.08723E-18
 -1       923 8.79392E-05-3.45868E-05-2.27460E-05-2.78911E-05 1.22437E-18 6.91027E-19
 -1       924 7.01792E-05-2.24315E-05-2.03157E-05-2.15012E-05 1.72051E-18-2.75257E-18
 -1       925 7.26549E-05-2.26791E-05-2.13386E-05-1.85070E-05-1.74496E-18-3.58270E-18
 -1       926 8.09545E-05-3.06989E-05-2.14078E-05 2.51363E-05 3.44289E-19-6.62846E-19
 -1       927 9.52532E-05-2.42300E-05-3.04395E-05 2.27347E-06 1.06256E-18-1.10187E-18
 -1       928 9.61992E-05-2.78638E-05-2.92867E-05-2.74617E-07 3.19692E-19-7.21741E-19
 -1       929 6.27057E-05-1.82115E-05-1.89678E-05 1.64136E-05 1.14367E-18-2.38139E-18
 -1       930 1.05301E-04-3.88564E-05-2.84750E-05-1.47246E-05-1.57447E-18-2.47978E-18
 -1       931 9.61443E-05-2.87777E-05-2.88714E-05-8.82791E-07 1.86915E-19-5.23791E-19
 -1       932 9.58192E-05-2.90212E-05-2.86277E-05-9.05048E-07 1.46554E-19-5.62531E-19
 -1       933 1.01990E-04-4.27198E-05-2.53951E-05 1.97343E-05 6.14476E-19-7.73626E-19
 -1       934 9.57451E-05-2.58337E-05-2.99611E-05 1.27933E-06 8.57669E-19-7.89151E-19
 -1       935 6.05153E-05-1.43629E-05-1.96679E-05-3.89266E-06 7.23640E-19-2.12317E-18
 -1       936 9.59348E-05-2.90284E-05-2.86742E-05-9.52438E-07-2.02011E-19-7.13657E-19
 -1       937 9.45522E-05-2.22761E-05-3.09755E-05 4.30791E-07-8.22891E-21-1.70089E-18
 -1       938 9.46927E-05-2.26132E-05-3.08921E-05 1.21994E-06 2.73657E-19-1.79544E-18
 -1       939 9.94449E-05-3.64444E-05-2.69994E-05-2.00181E-05 3.44754E-19-1.77664E-18
 -1       940 9.44193E-05-2.20914E-05-3.09985E-05-2.12225E-06-9.96810E-19-1.40446E-18
 -1       941 9.49476E-05-2.32708E-05-3.07190E-05 1.86921E-06 5.07683E-19-1.51724E-18
 -1       942 9.66944E-05-2.87039E-05-2.91388E-05 5.30593E-07-1.53582E-19-9.48544E-19
 -1       943 9.66094E-05-2.90233E-05-2.89655E-05 6.37200E-07-1.38568E-19-1.08320E-18
 -1       944 9.64658E-05-2.91694E-05-2.88413E-05 6.69650E-07 9.61489E-21-8.66514E-19
 -1       945 9.62926E-05-2.91947E-05-2.87562E-05 6.58678E-07-3.38007E-19-8.15514E-19
 -1       946 9.61056E-05-2.91340E-05-2.87021E-05 6.28001E-07-4.07528E-19-4.73697E-19
 -1       947 9.59133E-05-2.90117E-05-2.86722E-05 5.96389E-07-3.44720E-19-4.17141E-19
 -1       948 9.57175E-05-2.88419E-05-2.86610E-05 5.77880E-07-1.96494E-19 7.59619E-20
 -1       949 9.55148E-05-2.86319E-05-2.86641E-05 5.83986E-07-3.56560E-19-6.88816E-20
 -1       950 9.52985E-05-2.83836E-05-2.86779E-05 6.24408E-07-5.68847E-19-1.01465E-19
 -1       951 9.50588E-05-2.80951E-05-2.86988E-05 7.08313E-07-1.22008E-19-5.94626E-19
 -1       952 9.47842E-05-2.77628E-05-2.87235E-05 8.45031E-07 3.36474E-19-3.98118E-19
 -1       953 9.44618E-05-2.73833E-05-2.87480E-05 1.04458E-06 2.32851E-19 1.56353E-19
 -1       954 9.40791E-05-2.69550E-05-2.87675E-05 1.31820E-06-5.19772E-19 6.36266E-19
 -1       955 9.36250E-05-2.64816E-05-2.87758E-05 1.67890E-06-4.19047E-19 6.55291E-19
 -1       956 9.30925E-05-2.59750E-05-2.87647E-05 2.14215E-06-1.50005E-19-1.73774E-19
 -1       957 9.24820E-05-2.54603E-05-2.87237E-05 2.72695E-06-1.05844E-19-3.79110E-19
 -1       958 9.18062E-05-2.49809E-05-2.86396E-05 3.45773E-06 2.86593E-19 1.36025E-19
 -1       959 9.10973E-05-2.46065E-05-2.84962E-05 4.36723E-06 3.76017E-19 6.20137E-19
 -1       960 9.04172E-05-2.44414E-05-2.82756E-05 5.50070E-06-7.01887E-19 1.00386E-18
 -1       961 8.98739E-05-2.46370E-05-2.79591E-05 6.92106E-06-6.68845E-19 5.84308E-19
 -1       962 8.96492E-05-2.54098E-05-2.75320E-05 8.71164E-06-2.60641E-19-3.72445E-20
 -1       963 9.00485E-05-2.70694E-05-2.69913E-05 1.09594E-05 4.45702E-19 4.63280E-19
 -1       964 9.15425E-05-3.00201E-05-2.63650E-05 1.37069E-05 5.47070E-19 1.17359E-18
 -1       965 9.49295E-05-3.48178E-05-2.57468E-05 1.67743E-05 1.67206E-19 7.78585E-19
 -1       966 9.61082E-05-2.59480E-05-3.00691E-05-6.41192E-07-7.18805E-19-1.30609E-18
 -1       967 9.51280E-05-2.81715E-05-2.86956E-05-7.68413E-07 3.67415E-19-1.06526E-19
 -1       968 9.53377E-05-2.84408E-05-2.86701E-05-6.88870E-07 2.62306E-19 3.37371E-20
 -1       969 9.45857E-05-2.74780E-05-2.87605E-05-1.09814E-06-4.00348E-19-5.45515E-20
 -1       970 9.42164E-05-2.70339E-05-2.87925E-05-1.36458E-06 2.93024E-19-9.84853E-19
 -1       971 9.37511E-05-2.65107E-05-2.88174E-05-1.70858E-06 6.28373E-19-5.88435E-19
 -1       972 9.31619E-05-2.58993E-05-2.88269E-05-2.13625E-06 4.81259E-19 5.84819E-19
 -1       973 9.24170E-05-2.51949E-05-2.88095E-05-2.65248E-06-3.05609E-19-2.18261E-19
 -1       974 9.14808E-05-2.44001E-05-2.87489E-05-3.26166E-06-2.30467E-19-1.84937E-21
 -1       975 9.03146E-05-2.35300E-05-2.86221E-05-3.97048E-06-1.01502E-18 3.06970E-20
 -1       976 8.88780E-05-2.26184E-05-2.83971E-05-4.79526E-06-8.45748E-19-1.01268E-18
 -1       977 8.71318E-05-2.17281E-05-2.80306E-05-5.77768E-06-7.34159E-19-1.79769E-18
 -1       978 8.50467E-05-2.09675E-05-2.74635E-05-7.00911E-06-3.88027E-19-1.33803E-18
 -1       979 8.26028E-05-2.05136E-05-2.66140E-05-8.66194E-06-1.02337E-18-1.16152E-18
 -1       980 7.98149E-05-2.06105E-05-2.53785E-05-1.10983E-05-1.18386E-18-9.51039E-19
 -1       981 9.58732E-05-2.90076E-05-2.86567E-05-6.84569E-07-7.82927E-20-1.93656E-19
 -1       982 9.04061E-05-3.09953E-05-2.54270E-05-2.19697E-05 1.84931E-18-8.04094E-19
 -1       983 9.62064E-05-2.84363E-05-2.90444E-05-6.75911E-07 2.44545E-19-6.84200E-19
 -1       984 9.45459E-05-2.22663E-05-3.09768E-05-4.07962E-07-3.61855E-19-1.71509E-18
 -1       985 9.64981E-05-2.72463E-05-2.96797E-05-6.32531E-08-4.38635E-19-1.01282E-18
 -1       986 9.48829E-05-2.78537E-05-2.87268E-05-9.02042E-07 9.09244E-20 2.67034E-19
 -1       987 9.66779E-05-2.81419E-05-2.93727E-05 3.11221E-07-4.42905E-19-9.57957E-19
 -1       988 9.46964E-05-2.26017E-05-3.08933E-05-1.20970E-06-8.47441E-19-1.86159E-18
 -1       989 9.57127E-05-2.51057E-05-3.02569E-05 1.17601E-06 5.84116E-19-1.05209E-18
 -1       990 9.64020E-05-2.71800E-05-2.96676E-05 1.43840E-07 3.39986E-19-8.52260E-19
 -1       991 9.64935E-05-2.89548E-05-2.89452E-05-7.27009E-07 1.80418E-19-6.46702E-19
 -1       992 9.60429E-05-2.91114E-05-2.86849E-05-7.24607E-07 2.87461E-20-5.36550E-19
 -1       993 9.55257E-05-2.86684E-05-2.86531E-05-6.54891E-07-4.64836E-19 1.70952E-19
 -1       994 7.68349E-05-2.17207E-05-2.35901E-05-1.49646E-05-2.73361E-18-1.85540E-18
 -1       995 6.34823E-05-1.50912E-05-2.06881E-05 5.62761E-06 7.65698E-19-4.12474E-18
 -1       996 9.57019E-05-2.88576E-05-2.86475E-05-6.56995E-07-2.43607E-19 5.99451E-19
 -1       997 9.63650E-05-2.91152E-05-2.88214E-05-7.71188E-07 1.08292E-19-5.53188E-19
 -1       998 9.55812E-05-2.43523E-05-3.05265E-05 9.32094E-09-3.30943E-19-1.40240E-18
 -1       999 8.97001E-05-3.36791E-05-2.39615E-05 2.09669E-05-7.11435E-19-6.85704E-19
 -1      1000 6.95488E-05-1.77718E-05-2.21289E-05-1.08827E-05-1.00634E-18-4.36520E-19
 -1      1001 9.56223E-05-2.44922E-05-3.04831E-05 4.98493E-07-4.31119E-21-1.39888E-18
 -1      1002 9.65491E-05-2.80473E-05-2.93577E-05-3.20126E-07 1.33559E-19-7.71385E-19
 -1      1003 9.56173E-05-2.44897E-05-3.04858E-05-4.75380E-07-6.36559E-19-1.57768E-18
 -1      1004 7.54466E-05-2.28605E-05-2.24984E-05 1.71463E-05 5.09271E-19-2.16195E-18
 -1      1005 9.67616E-05-2.91628E-05-2.89709E-05 4.17025E-07 3.00648E-19-9.69023E-19
 -1      1006 9.65858E-05-2.92608E-05-2.88536E-05 4.28525E-07-9.04178E-20-1.07335E-18
 -1      1007 9.63784E-05-2.92416E-05-2.87729E-05 4.16668E-07-2.44788E-19-9.39902E-19
 -1      1008 9.61557E-05-2.91386E-05-2.87216E-05 3.98453E-07-3.45874E-20-4.83956E-19
 -1      1009 9.59242E-05-2.89734E-05-2.86932E-05 3.83849E-07-5.81329E-19-5.58683E-19
 -1      1010 9.56838E-05-2.87578E-05-2.86825E-05 3.81274E-07-3.45135E-19-8.20562E-19
 -1      1011 9.54290E-05-2.84974E-05-2.86850E-05 3.98591E-07-4.27051E-19-8.78142E-19
 -1      1012 9.51493E-05-2.81911E-05-2.86964E-05 4.42135E-07-3.45967E-19-3.38259E-19
 -1      1013 9.48316E-05-2.78351E-05-2.87128E-05 5.19095E-07 6.76787E-20 3.26751E-20
 -1      1014 9.44603E-05-2.74242E-05-2.87299E-05 6.37215E-07 4.13470E-19-3.40050E-19
 -1      1015 9.40180E-05-2.69532E-05-2.87422E-05 8.05722E-07 3.01097E-19-8.81314E-19
 -1      1016 9.34871E-05-2.64197E-05-2.87434E-05 1.03613E-06-1.49074E-20-5.48941E-19
 -1      1017 9.28505E-05-2.58267E-05-2.87247E-05 1.34331E-06-3.30901E-19 3.76991E-19
 -1      1018 9.20942E-05-2.51861E-05-2.86752E-05 1.74699E-06-5.14418E-19 8.30835E-19
 -1      1019 9.12095E-05-2.45226E-05-2.85805E-05 2.27429E-06 2.96524E-19 2.03813E-19
 -1      1020 9.01961E-05-2.38783E-05-2.84224E-05 2.96345E-06 4.94386E-19 5.04181E-19
 -1      1021 8.90667E-05-2.33184E-05-2.81785E-05 3.86992E-06-4.49911E-19 3.20824E-19
 -1      1022 8.78531E-05-2.29386E-05-2.78214E-05 5.07513E-06-1.35207E-19 3.60917E-19
 -1      1023 8.66114E-05-2.28705E-05-2.73191E-05 6.69991E-06-5.57476E-19 1.71559E-18
 -1      1024 8.54611E-05-2.33187E-05-2.66357E-05 8.93327E-06-1.45330E-19 1.13575E-18
 -1      1025 8.46258E-05-2.45977E-05-2.57261E-05 1.20115E-05 3.18776E-19-9.08288E-19
 -1      1026 8.57374E-05-2.78322E-05-2.48121E-05 1.62281E-05 2.02201E-19-1.05999E-18
 -1      1027 9.29622E-05-2.58486E-05-2.87631E-05-1.33110E-06-5.72415E-20-6.89068E-19
 -1      1028 9.52136E-05-2.82634E-05-2.86929E-05-5.30638E-07 2.31064E-19 5.23664E-19
 -1      1029 7.50452E-05-1.80443E-05-2.44190E-05-7.81928E-06-1.91642E-18 1.04375E-18
 -1      1030 9.36195E-05-2.64950E-05-2.87678E-05-1.08051E-06 4.43091E-19 2.29895E-20
 -1      1031 9.41458E-05-2.70491E-05-2.87558E-05-8.76938E-07 2.11296E-19 2.90899E-19
 -1      1032 9.21397E-05-2.51024E-05-2.87305E-05-1.62716E-06 4.28753E-19-8.41227E-19
 -1      1033 9.11129E-05-2.42541E-05-2.86541E-05-1.96458E-06-7.18255E-19-5.87628E-19
 -1      1034 8.98358E-05-2.33084E-05-2.85121E-05-2.33756E-06-4.60094E-19-2.31436E-19
 -1      1035 8.82530E-05-2.22797E-05-2.82749E-05-2.74194E-06-4.33709E-19-8.10440E-19
 -1      1036 8.62927E-05-2.11922E-05-2.79010E-05-3.18282E-06-5.20713E-19-4.90452E-19
 -1      1037 8.38488E-05-2.00754E-05-2.73327E-05-3.69384E-06-9.38169E-19-6.81837E-20
 -1      1038 8.07779E-05-1.89953E-05-2.64803E-05-4.36036E-06-1.26469E-18 4.31723E-19
 -1      1039 7.80974E-05-1.83649E-05-2.55922E-05-5.71917E-06-1.41603E-18 1.02942E-18
 -1      1040 9.65690E-05-2.86223E-05-2.91198E-05-5.91858E-07 7.95166E-20-6.37244E-19
 -1      1041 9.49192E-05-2.79224E-05-2.87130E-05-6.05329E-07 1.45064E-19 5.52672E-19
 -1      1042 9.62093E-05-2.91551E-05-2.87375E-05-7.60528E-07-1.42525E-19-6.52509E-19
 -1      1043 9.56721E-05-2.47310E-05-3.04013E-05 8.76397E-07 3.15848E-19-1.44081E-18
 -1      1044 9.45705E-05-2.75212E-05-2.87355E-05-7.19467E-07 1.33457E-19 6.56933E-19
 -1      1045 9.68772E-05-2.88984E-05-2.91339E-05 3.68396E-07-1.68090E-19-1.20848E-18
 -1      1046 9.63691E-05-2.63668E-05-3.00007E-05-2.51354E-07-2.57064E-19-1.64542E-18
 -1      1047 6.91182E-05-1.58135E-05-2.28182E-05-2.71490E-06-9.58672E-19-9.18467E-19
 -1      1048 9.62807E-05-2.59909E-05-3.01224E-05-1.09842E-07-4.24824E-19-1.13195E-18
 -1      1049 9.54709E-05-2.85524E-05-2.86795E-05-4.90632E-07 8.94836E-20 2.09381E-19
 -1      1050 9.61431E-05-2.91416E-05-2.87149E-05-5.08085E-07-5.53355E-19 5.83024E-19
 -1      1051 9.68071E-05-2.88199E-05-2.91376E-05-4.52941E-07 1.78973E-21-3.24798E-19
 -1      1052 9.63006E-05-2.60190E-05-3.01209E-05 1.07138E-07-2.33801E-19-1.20423E-18
 -1      1053 9.64067E-05-2.65384E-05-2.99457E-05 2.13318E-07 1.57835E-19-1.09713E-18
 -1      1054 9.67580E-05-2.76960E-05-2.95976E-05-9.42534E-08-2.70066E-20-7.97100E-19
 -1      1055 9.59276E-05-2.89933E-05-2.86861E-05-4.86208E-07-3.19372E-19 6.28348E-19
 -1      1056 9.67044E-05-2.91073E-05-2.89701E-05-5.27391E-07 5.69084E-20-5.33118E-20
 -1      1057 9.68909E-05-2.84002E-05-2.93531E-05 2.57489E-07-2.60094E-19-1.34741E-18
 -1      1058 9.67455E-05-2.75882E-05-2.96384E-05 6.38654E-08-3.28775E-19-1.56259E-18
 -1      1059 9.46655E-05-2.76498E-05-2.87210E-05-3.48193E-07 4.01643E-19-6.74760E-19
 -1      1060 9.65906E-05-2.92985E-05-2.88392E-05 1.63857E-07-3.39733E-21-1.80767E-18
 -1      1061 9.63594E-05-2.92335E-05-2.87681E-05 1.59312E-07-3.68771E-20-1.47319E-18
 -1      1062 9.61123E-05-2.90899E-05-2.87238E-05 1.53519E-07-2.29042E-19-1.51618E-18
 -1      1063 9.58514E-05-2.88847E-05-2.87002E-05 1.51204E-07-3.56428E-19-1.28143E-18
 -1      1064 9.55821E-05-2.86324E-05-2.86925E-05 1.55386E-07-5.11720E-19-1.18545E-18
 -1      1065 9.52863E-05-2.83271E-05-2.86967E-05 1.70223E-07-2.00029E-20-1.01500E-18
 -1      1066 9.49543E-05-2.79701E-05-2.87074E-05 1.99372E-07 5.69990E-19-6.42572E-19
 -1      1067 9.45694E-05-2.75547E-05-2.87205E-05 2.47007E-07 4.03582E-19 3.84636E-19
 -1      1068 9.41119E-05-2.70734E-05-2.87306E-05 3.19054E-07-4.28576E-19-1.89037E-20
 -1      1069 9.35597E-05-2.65194E-05-2.87313E-05 4.23607E-07-6.51855E-19-6.07521E-19
 -1      1070 9.28893E-05-2.58886E-05-2.87143E-05 5.71972E-07-8.36919E-20-1.58318E-18
 -1      1071 9.20766E-05-2.51823E-05-2.86686E-05 7.80173E-07 2.30286E-19-7.15906E-19
 -1      1072 9.10975E-05-2.44095E-05-2.85800E-05 1.07109E-06-1.40536E-19 2.92632E-19
 -1      1073 8.99281E-05-2.35903E-05-2.84297E-05 1.47765E-06 2.30357E-19-7.38837E-20
 -1      1074 8.85450E-05-2.27577E-05-2.81935E-05 2.04760E-06 2.80919E-19-1.28725E-20
 -1      1075 8.69221E-05-2.19596E-05-2.78395E-05 2.85108E-06-9.30917E-19 3.96785E-20
 -1      1076 8.50267E-05-2.12625E-05-2.73262E-05 3.99560E-06-4.78090E-19-1.32343E-18
 -1      1077 8.27983E-05-2.07541E-05-2.65953E-05 5.61573E-06-1.07402E-18-2.26938E-18
 -1      1078 8.03241E-05-2.05632E-05-2.56135E-05 7.92748E-06-1.10291E-18-2.38615E-18
 -1      1079 9.42269E-05-2.71787E-05-2.87350E-05-4.10533E-07 1.29353E-19-6.81883E-19
 -1      1080 9.30326E-05-2.59892E-05-2.87331E-05-5.81016E-07 4.48849E-19 9.11273E-19
 -1      1081 9.36920E-05-2.66284E-05-2.87417E-05-4.89300E-07 2.79629E-19 5.67581E-20
 -1      1082 8.99649E-05-2.34893E-05-2.84901E-05-8.42390E-07-6.03956E-19-1.62493E-19
 -1      1083 8.84359E-05-2.24734E-05-2.82705E-05-8.68858E-07-1.75422E-19-6.32149E-19
 -1      1084 8.65546E-05-2.13881E-05-2.79297E-05-8.22704E-07-8.76718E-19-1.05592E-18
 -1      1085 8.42252E-05-2.02520E-05-2.74186E-05-6.70751E-07-9.92226E-19-3.81189E-19
 -1      1086 8.12850E-05-1.90514E-05-2.66628E-05-3.59964E-07-9.14590E-19-6.33242E-19
 -1      1087 9.69399E-05-2.90668E-05-2.90895E-05 1.50645E-07 2.15714E-19-1.24017E-18
 -1      1088 9.12082E-05-2.44195E-05-2.86241E-05-7.71522E-07-2.33109E-20 6.79038E-19
 -1      1089 9.57060E-05-2.87950E-05-2.86761E-05-4.78399E-07 3.47382E-19 3.28898E-19
 -1      1090 9.22168E-05-2.52539E-05-2.86986E-05-6.78844E-07 4.32956E-19 1.28531E-18
 -1      1091 9.68451E-05-2.83799E-05-2.93424E-05-2.99157E-07-3.77184E-20-5.04338E-19
 -1      1092 9.50323E-05-2.80521E-05-2.87058E-05-3.03327E-07 3.12275E-19-1.06455E-19
 -1      1093 9.63500E-05-2.92258E-05-2.87674E-05-5.32200E-07-2.29677E-19 1.88911E-19
 -1      1094 9.68067E-05-2.92666E-05-2.89450E-05 1.62825E-07-1.98093E-19-1.74222E-18
 -1      1095 7.15398E-05-1.70014E-05-2.33751E-05 5.75990E-06-3.99350E-19-3.19599E-18
 -1      1096 7.40473E-05-1.68956E-05-2.44572E-05-1.61243E-06-1.51670E-18-2.55490E-19
 -1      1097 9.67816E-05-2.73737E-05-2.97469E-05 4.11524E-09-3.54327E-19-1.28823E-18
 -1      1098 9.53478E-05-2.83950E-05-2.86941E-05-2.74348E-07-1.25041E-20 1.98045E-20
 -1      1099 7.74957E-05-2.10232E-05-2.41799E-05 1.14331E-05-2.76657E-19-2.51835E-18
 -1      1100 9.69952E-05-2.86569E-05-2.92871E-05 1.20109E-07-3.69486E-20-1.36366E-18
 -1      1101 7.82177E-05-1.79515E-05-2.58434E-05-7.05762E-07-1.48069E-18-5.73140E-19
 -1      1102 9.65427E-05-2.92263E-05-2.88498E-05-5.43598E-07-9.59630E-20 7.52685E-20
 -1      1103 9.61411E-05-2.91163E-05-2.87249E-05-2.70560E-07 9.06394E-20-1.06914E-18
 -1      1104 9.69661E-05-2.86695E-05-2.92691E-05-2.01165E-07-2.15826E-19-4.98008E-19
 -1      1105 9.63794E-05-2.92439E-05-2.87726E-05-2.81341E-07-1.12042E-19-6.35323E-19
 -1      1106 9.69203E-05-2.90764E-05-2.90762E-05-2.50426E-07-2.05868E-19-9.00044E-19
 -1      1107 9.69496E-05-2.81306E-05-2.94946E-05 7.49603E-08-1.78426E-19-1.26559E-18
 -1      1108 9.57251E-05-2.87658E-05-2.86968E-05-9.50424E-08-2.25557E-19-1.00480E-18
 -1      1109 9.69414E-05-2.81270E-05-2.94923E-05-9.97312E-08-3.46200E-19-5.58085E-19
 -1      1110 9.67321E-05-2.73325E-05-2.97429E-05-2.17205E-09-8.77850E-20-8.21491E-19
 -1      1111 9.67471E-05-2.92422E-05-2.89319E-05-2.70096E-07-2.22315E-19-4.65332E-19
 -1      1112 9.65827E-05-2.92913E-05-2.88392E-05-2.80096E-07-1.69894E-19-1.42755E-19
 -1      1113 9.58943E-05-2.89281E-05-2.86998E-05-2.62648E-07 1.40298E-20-7.13348E-19
 -1      1114 9.70291E-05-2.86771E-05-2.92924E-05-3.90799E-08 3.12329E-20-1.16763E-18
 -1      1115 1.16855E-04 2.57566E-10-4.18550E-05-4.14666E-05-2.04982E-19 1.29681E-17
 -1      1116 8.86485E-05 7.19129E-11-3.72504E-05-2.41699E-05-1.56172E-19 4.10133E-18
 -1      1117 8.40760E-05 4.14504E-11-3.57660E-05-1.78811E-05-1.32137E-19-1.58130E-19
 -1      1118 8.23331E-05 3.20241E-11-3.50723E-05-1.38390E-05-9.43912E-20-2.39493E-18
 -1      1119 8.15310E-05 2.73325E-11-3.47384E-05-1.05367E-05-7.35595E-20-3.67016E-18
 -1      1120 8.11303E-05 2.46153E-11-3.45735E-05-7.64328E-06-5.08749E-20-4.35935E-18
 -1      1121 8.09222E-05 2.29590E-11-3.44905E-05-4.98144E-06-3.30244E-20-4.75639E-18
 -1      1122 8.08207E-05 2.20647E-11-3.44515E-05-2.43297E-06-2.31859E-20-4.90057E-18
 -1      1123 8.07919E-05 2.17948E-11-3.44406E-05 5.25431E-08-1.08030E-21-5.02461E-18
 -1      1124 8.08251E-05 2.21090E-11-3.44530E-05 2.54060E-06 1.02041E-20-5.04692E-18
 -1      1125 8.09310E-05 2.30580E-11-3.44935E-05 5.09732E-06 1.31621E-20-5.03689E-18
 -1      1126 8.11458E-05 2.47725E-11-3.45778E-05 7.77504E-06 3.95988E-20-4.84155E-18
 -1      1127 8.15535E-05 2.76432E-11-3.47447E-05 1.06962E-05 6.05232E-20-4.39041E-18
 -1      1128 8.23570E-05 3.24997E-11-3.50822E-05 1.40457E-05 9.35971E-20-3.47872E-18
 -1      1129 8.40719E-05 4.19217E-11-3.57860E-05 1.81321E-05 1.26896E-19-1.58890E-18
 -1      1130 8.83465E-05 6.67385E-11-3.73207E-05 2.40126E-05 1.47807E-19 2.24885E-18
 -1      1131 1.06619E-04 1.63918E-10-4.06338E-05 3.61936E-05 3.63589E-19 1.06640E-17
 -1      1132 1.30222E-04-2.57564E-05-4.02735E-05-2.61065E-05-1.02766E-18 1.87664E-17
 -1      1133 9.74553E-05-2.88622E-05-3.15772E-05-6.80540E-07-3.12211E-19 1.63098E-17
 -1      1134 9.01554E-05-2.70252E-05-2.78919E-05 3.86941E-07-7.64447E-20 1.25120E-17
 -1      1135 8.82416E-05-2.65701E-05-2.66415E-05 2.50746E-07-9.07516E-20 1.00956E-17
 -1      1136 8.78804E-05-2.64425E-05-2.63842E-05 1.65861E-07-7.04410E-20 8.53944E-18
 -1      1137 8.82363E-05-2.65182E-05-2.64681E-05 1.17936E-07-1.38281E-19 7.56887E-18
 -1      1138 8.89180E-05-2.67013E-05-2.66694E-05 8.72703E-08 1.18750E-20 6.54754E-18
 -1      1139 8.97271E-05-2.69315E-05-2.69103E-05 6.59942E-08-2.44500E-20 5.87363E-18
 -1      1140 9.05536E-05-2.71722E-05-2.71567E-05 5.02179E-08-5.01502E-20 4.90574E-18
 -1      1141 9.13356E-05-2.74026E-05-2.73905E-05 3.80304E-08-7.72260E-20 3.14589E-18
 -1      1142 9.20404E-05-2.76117E-05-2.76020E-05 2.84208E-08 1.50702E-19 2.54684E-18
 -1      1143 9.26545E-05-2.77947E-05-2.77868E-05 2.07872E-08-3.20790E-20 2.84585E-18
 -1      1144 9.31763E-05-2.79508E-05-2.79445E-05 1.47275E-08-8.90018E-20 1.90471E-18
 -1      1145 9.36128E-05-2.80818E-05-2.80768E-05 9.95174E-09 2.36272E-20 1.48891E-18
 -1      1146 9.39766E-05-2.81914E-05-2.81876E-05 6.24458E-09 4.45783E-20 1.52285E-18
 -1      1147 9.42842E-05-2.82844E-05-2.82816E-05 3.45141E-09-1.67127E-19 5.76068E-19
 -1      1148 9.45552E-05-2.83666E-05-2.83649E-05 1.47498E-09-6.81338E-20-1.01667E-20
 -1      1149 9.48120E-05-2.84449E-05-2.84441E-05 2.77616E-10-5.08798E-20-4.57905E-19
 -1      1150 9.50802E-05-2.85267E-05-2.85270E-05-1.13242E-10-3.49011E-20-1.21433E-18
 -1      1151 9.53888E-05-2.86208E-05-2.86224E-05 4.01801E-10-4.18155E-20-1.81080E-18
 -1      1152 9.57706E-05-2.87370E-05-2.87401E-05 2.00050E-09 1.64042E-20-1.85992E-18
 -1      1153 9.62626E-05-2.88864E-05-2.88913E-05 4.94155E-09-5.59294E-20-2.25640E-19
 -1      1154 9.69057E-05-2.90810E-05-2.90881E-05 9.55713E-09-1.08128E-19 7.27383E-19
 -1      1155 9.77433E-05-2.93338E-05-2.93434E-05 1.62235E-08-2.39013E-19 1.12073E-19
 -1      1156 9.88181E-05-2.96572E-05-2.96694E-05 2.52882E-08 4.26072E-20-8.24699E-20
 -1      1157 1.00166E-04-3.00615E-05-3.00759E-05 3.69183E-08 1.80987E-20 1.71678E-18
 -1      1158 1.01804E-04-3.05512E-05-3.05666E-05 5.08136E-08 1.28168E-19 1.65852E-18
 -1      1159 1.03714E-04-3.11203E-05-3.11339E-05 6.57139E-08-4.14822E-19 8.36445E-20
 -1      1160 1.05820E-04-3.17447E-05-3.17508E-05 7.86440E-08 6.18714E-20-1.19268E-18
 -1      1161 1.07948E-04-3.23721E-05-3.23622E-05 8.39490E-08 9.83935E-20-2.65651E-19
 -1      1162 1.09801E-04-3.29129E-05-3.28757E-05 7.25021E-08-2.39196E-19 5.87603E-19
 -1      1163 1.10928E-04-3.32339E-05-3.31584E-05 3.21352E-08 2.56922E-21-1.01602E-18
 -1      1164 1.10759E-04-3.31674E-05-3.30504E-05-4.87826E-08 1.55556E-19-1.42819E-18
 -1      1165 1.08720E-04-3.25476E-05-3.24043E-05-1.72573E-07 1.12109E-19-1.51338E-18
 -1      1166 1.04485E-04-3.12849E-05-3.11565E-05-3.19015E-07 1.40928E-19-1.83483E-18
 -1      1167 9.83124E-05-2.94648E-05-2.94114E-05-4.36260E-07 1.18390E-19-1.43874E-18
 -1      1168 9.13077E-05-2.74164E-05-2.74877E-05-4.52990E-07 1.56643E-19-3.30862E-18
 -1      1169 8.52875E-05-2.56661E-05-2.58639E-05-3.21349E-07-2.37249E-19-3.53869E-18
 -1      1170 8.21112E-05-2.47428E-05-2.50054E-05-6.60853E-08-1.19002E-19-3.46241E-18
 -1      1171 8.27417E-05-2.49170E-05-2.51458E-05 2.11086E-07 1.26555E-19-2.81575E-18
 -1      1172 8.66850E-05-2.60495E-05-2.61640E-05 3.92324E-07-1.28061E-19-3.11735E-18
 -1      1173 9.22655E-05-2.76665E-05-2.76451E-05 4.20842E-07-1.48536E-19-4.21600E-18
 -1      1174 9.75146E-05-2.92014E-05-2.90817E-05 3.22411E-07 5.00305E-19-2.23760E-18
 -1      1175 1.01017E-04-3.02386E-05-3.00832E-05 1.66999E-07-1.51579E-19 1.29353E-18
 -1      1176 1.02258E-04-3.06190E-05-3.04833E-05 1.94377E-08 7.35264E-20 9.40015E-19
 -1      1177 1.01506E-04-3.04142E-05-3.03315E-05-8.35132E-08-7.11541E-21 2.53007E-18
 -1      1178 9.94959E-05-2.98360E-05-2.98216E-05-1.28438E-07-7.86483E-21 1.44361E-18
 -1      1179 9.71623E-05-2.91599E-05-2.92099E-05-1.05779E-07 5.32956E-19 3.54015E-18
 -1      1180 9.54948E-05-2.87008E-05-2.87289E-05 2.69554E-09-3.86159E-19 3.74030E-18
 -1      1181 9.50410E-05-2.85022E-05-2.84428E-05 6.82789E-08 4.02622E-19 2.54576E-18
 -1      1182 1.31056E-04-3.77388E-05-3.86590E-05 1.21748E-05-1.88650E-19 1.76979E-17
 -1      1183 9.65566E-05-2.81887E-05-3.13297E-05 8.01534E-07 1.45928E-19 1.36703E-17
 -1      1184 9.03694E-05-2.69279E-05-2.78728E-05 1.20200E-07 1.05681E-19 9.92795E-18
 -1      1185 8.83285E-05-2.64975E-05-2.66779E-05 9.02931E-09 8.76216E-20 7.30095E-18
 -1      1186 8.79209E-05-2.64051E-05-2.64113E-05-2.52595E-08 4.05203E-20 5.46585E-18
 -1      1187 8.82578E-05-2.65008E-05-2.64838E-05-3.42678E-08 1.18765E-19 3.87491E-18
 -1      1188 8.89308E-05-2.66944E-05-2.66796E-05-3.54166E-08 4.71162E-20 2.93792E-18
 -1      1189 8.97351E-05-2.69301E-05-2.69176E-05-3.36469E-08-8.80294E-20 2.95798E-18
 -1      1190 9.05585E-05-2.71737E-05-2.71621E-05-3.05160E-08-2.11841E-21 1.92036E-18
 -1      1191 9.13383E-05-2.74055E-05-2.73945E-05-2.67214E-08 1.90597E-20 7.92677E-19
 -1      1192 9.20416E-05-2.76151E-05-2.76048E-05-2.26673E-08 5.34492E-20 1.22780E-19
 -1      1193 9.26541E-05-2.77980E-05-2.77886E-05-1.86045E-08 6.44306E-20-7.67289E-19
 -1      1194 9.31744E-05-2.79535E-05-2.79453E-05-1.46787E-08-3.40364E-21-4.77988E-19
 -1      1195 9.36092E-05-2.80837E-05-2.80767E-05-1.09584E-08-1.38569E-19-3.47303E-19
 -1      1196 9.39707E-05-2.81922E-05-2.81864E-05-7.45641E-09 2.08596E-19-1.94967E-18
 -1      1197 9.42754E-05-2.82839E-05-2.82793E-05-4.14601E-09 7.25443E-21-3.36083E-18
 -1      1198 9.45429E-05-2.83647E-05-2.83612E-05-9.75648E-10-4.93222E-20-3.50610E-18
 -1      1199 9.47959E-05-2.84413E-05-2.84392E-05 2.11835E-09 1.61959E-19-3.77526E-18
 -1      1200 9.50607E-05-2.85217E-05-2.85210E-05 5.19895E-09 8.12907E-20-4.26057E-18
 -1      1201 9.53682E-05-2.86153E-05-2.86162E-05 8.31353E-09 2.47206E-20-4.31656E-18
 -1      1202 9.57548E-05-2.87329E-05-2.87359E-05 1.14736E-08 1.78379E-19-4.25207E-18
 -1      1203 9.62645E-05-2.88879E-05-2.88934E-05 1.46239E-08 7.58775E-20-3.74323E-18
 -1      1204 9.69505E-05-2.90961E-05-2.91051E-05 1.75913E-08 5.98081E-20-4.70702E-18
 -1      1205 9.78771E-05-2.93769E-05-2.93904E-05 2.00007E-08-2.61282E-20-5.84187E-18
 -1      1206 9.91208E-05-2.97529E-05-2.97725E-05 2.11362E-08 6.08309E-21-5.17199E-18
 -1      1207 1.00770E-04-3.02505E-05-3.02781E-05 1.97244E-08 1.06115E-19-4.75119E-18
 -1      1208 1.02923E-04-3.08978E-05-3.09357E-05 1.36228E-08-2.61497E-19-4.24232E-18
 -1      1209 1.05674E-04-3.17219E-05-3.17716E-05-5.44836E-10-1.06887E-19-2.50297E-18
 -1      1210 1.09089E-04-3.27401E-05-3.28011E-05-2.75987E-08-2.88669E-20-2.94828E-18
 -1      1211 1.13156E-04-3.39458E-05-3.40111E-05-7.32197E-08-7.11797E-20-2.01980E-18
 -1      1212 1.17696E-04-3.52825E-05-3.53321E-05-1.41090E-07 2.98187E-20-3.25782E-18
 -1      1213 1.22227E-04-3.66067E-05-3.65994E-05-2.25395E-07 2.99707E-19-4.60368E-18
 -1      1214 1.25808E-04-3.76458E-05-3.75170E-05-2.97275E-07 2.50768E-20-5.21100E-18
 -1      1215 1.26969E-04-3.79814E-05-3.76655E-05-2.91309E-07-1.74105E-20-5.30820E-18
 -1      1216 1.23964E-04-3.71220E-05-3.66164E-05-1.16480E-07-2.00793E-19-5.09951E-18
 -1      1217 1.15672E-04-3.47399E-05-3.41985E-05 2.71875E-07 1.49038E-19-4.17873E-18
 -1      1218 1.03085E-04-3.10731E-05-3.08298E-05 7.44867E-07 3.75745E-19-7.05896E-18
 -1      1219 9.03014E-05-2.72377E-05-2.76103E-05 9.81665E-07 4.17892E-20-8.30389E-18
 -1      1220 8.31230E-05-2.49483E-05-2.58779E-05 7.17619E-07-7.38375E-20-5.74257E-18
 -1      1221 8.51166E-05-2.54027E-05-2.63736E-05 6.63575E-08 6.04371E-19-7.82489E-18
 -1      1222 9.47095E-05-2.82581E-05-2.87265E-05-5.54745E-07-3.22279E-19-8.35725E-18
 -1      1223 1.06491E-04-3.18778E-05-3.17176E-05-8.07882E-07-1.73718E-19-4.77335E-18
 -1      1224 1.15212E-04-3.45783E-05-3.40687E-05-6.86433E-07-1.33514E-19-3.60381E-18
 -1      1225 1.18566E-04-3.56190E-05-3.50884E-05-3.92739E-07 1.24415E-19-4.63414E-18
 -1      1226 1.16992E-04-3.51459E-05-3.47688E-05-1.05076E-07 3.08012E-19-6.90931E-18
 -1      1227 1.12215E-04-3.37039E-05-3.35129E-05 1.04324E-07-1.71905E-20-8.82524E-18
 -1      1228 1.06108E-04-3.18704E-05-3.18405E-05 2.33764E-07 1.05687E-19-8.93572E-18
 -1      1229 1.00288E-04-3.01320E-05-3.02334E-05 2.90322E-07-1.02686E-20-8.58420E-18
 -1      1230 9.61982E-05-2.89097E-05-2.90611E-05 2.16996E-07 8.12948E-19-8.86899E-18
 -1      1231 9.49629E-05-2.84739E-05-2.83948E-05-9.99408E-08 8.67117E-20-6.50348E-18
 -1      1232 9.53442E-05-2.88462E-05-2.84075E-05-8.52525E-08-6.58345E-18-9.57361E-19
 -1      1233 9.48614E-05-2.75257E-05-2.90957E-05 2.53869E-08-5.99395E-18-8.89418E-20
 -1      1234 9.36566E-05-2.34399E-05-3.02898E-05 2.48415E-07-4.77261E-18-5.88331E-19
 -1      1235 9.19173E-05-1.75479E-05-3.19435E-05 3.28349E-07-2.47572E-18 5.47883E-19
 -1      1236 9.00118E-05-1.10720E-05-3.37684E-05 3.32141E-07 3.03169E-18 1.83054E-19
 -1      1237 8.82967E-05-5.22279E-06-3.54177E-05 2.72146E-07-1.82509E-18-8.48777E-19
 -1      1238 8.70623E-05-1.00665E-06-3.66083E-05 1.64300E-07-4.26036E-18 6.31602E-20
 -1      1239 8.65255E-05 8.22126E-07-3.71309E-05 1.88661E-08-7.48935E-18-1.59560E-18
 -1      1240 8.67799E-05-6.22578E-08-3.68976E-05-1.22588E-07-6.04778E-18 1.55955E-18
 -1      1241 8.77335E-05-3.33845E-06-3.59918E-05-2.24693E-07 4.83455E-18 4.47442E-19
 -1      1242 8.91589E-05-8.21507E-06-3.46231E-05-2.68163E-07 1.97650E-19-5.34039E-19
 -1      1243 9.07632E-05-1.36699E-05-3.30704E-05-2.56052E-07-3.93764E-18 8.39156E-19
 -1      1244 9.23012E-05-1.88792E-05-3.15639E-05-2.10548E-07-3.69195E-18 6.07200E-19
 -1      1245 9.36126E-05-2.32896E-05-3.02751E-05-1.48573E-07-1.77771E-18 7.54642E-19
 -1      1246 9.45959E-05-2.65516E-05-2.93240E-05-1.00614E-07-6.97405E-18 3.96317E-19
 -1      1247 9.50599E-05-2.82584E-05-2.87511E-05 7.75150E-08-7.15811E-18-6.71790E-19
 -1      1248 9.53076E-05-2.87664E-05-2.84486E-05 6.49068E-08-2.65481E-18 2.57569E-19
 -1      1249 3.74562E-05-1.16404E-04 1.98653E-05-1.45201E-05-1.10457E-17 1.44880E-18
 -1      1250 2.00637E-05-7.46283E-05 1.17204E-05-2.84408E-05-1.63986E-18 2.26793E-19
 -1      1251 7.25048E-06-1.71520E-05-3.22892E-06-7.47012E-06 5.01105E-18 2.85620E-18
 -1      1252 2.65838E-05 2.19861E-05-2.27657E-05 4.35279E-05 4.88907E-18 3.36272E-18
 -1      1253 9.52930E-05 1.82113E-05-4.39293E-05 9.70561E-05 2.67239E-18 3.78116E-18
 -1      1254 2.02255E-04-2.79907E-05-6.41043E-05 1.11666E-04 5.89027E-18 1.56820E-17
 -1      1255 2.96589E-04-8.15000E-05-7.69670E-05 7.01881E-05 4.08323E-18 1.61148E-17
 -1      1256 3.19139E-04-9.58844E-05-7.98411E-05-1.06693E-05 6.47027E-19 7.62414E-18
 -1      1257 2.70038E-04-6.79103E-05-7.31430E-05-8.55947E-05 2.00175E-18-3.09336E-18
 -1      1258 1.72972E-04-1.56465E-05-5.87434E-05-1.12123E-04 7.48947E-18-1.35627E-17
 -1      1259 7.99066E-05 1.97278E-05-3.99015E-05-8.69997E-05 1.47663E-17-1.83942E-17
 -1      1260 2.05963E-05 1.50349E-05-1.85327E-05-3.15900E-05 2.01323E-17-1.71355E-17
 -1      1261 7.88070E-06-2.89269E-05 5.23756E-07 1.55921E-05 1.84399E-17-1.05642E-17
 -1      1262 2.29275E-05-8.28550E-05 1.37700E-05 2.78286E-05 6.10541E-18-2.79627E-18
 -1      1263 3.74476E-05-1.15525E-04 1.99388E-05 9.66286E-06-6.87791E-19-2.38202E-19
 -1      1264 3.26480E-05-1.04041E-04 1.78568E-05-1.77363E-05-1.35678E-17-3.18866E-18
 -1      1265 1.46167E-05-5.64236E-05 7.81197E-06-2.40179E-05-1.93496E-17-7.31921E-18
 -1      1266 7.75147E-06-2.89462E-06-7.82808E-06 4.31704E-06-1.63647E-17-1.01627E-17
 -1      1267 3.50952E-05 2.59202E-05-2.66881E-05 5.51380E-05-1.33154E-17-1.22227E-17
 -1      1268 1.04261E-04 1.49261E-05-4.60505E-05 1.00716E-04-8.33904E-18-1.23531E-17
 -1      1269 1.98673E-04-2.78122E-05-6.30356E-05 1.10782E-04-5.86951E-18-1.20058E-17
 -1      1270 2.82356E-04-7.52626E-05-7.48807E-05 7.04254E-05-1.60206E-18-8.63889E-18
 -1      1271 3.13280E-04-9.40139E-05-7.88863E-05-7.28957E-06-4.07529E-19-4.43168E-18
 -1      1272 2.75550E-04-7.09215E-05-7.40293E-05-8.13164E-05 8.86420E-19-2.99257E-18
 -1      1273 1.86131E-04-2.05422E-05-6.12583E-05-1.14287E-04-3.80318E-19 9.69006E-19
 -1      1274 9.15963E-05 2.00441E-05-4.33173E-05-9.68269E-05-3.63038E-18 3.32884E-18
 -1      1275 2.90463E-05 2.37442E-05-2.39423E-05-4.80383E-05-5.36849E-18 4.59092E-18
 -1      1276 7.74341E-06-1.30183E-05-4.51568E-06 3.02786E-06-1.02881E-17 5.50487E-18
 -1      1277 2.01107E-05-7.31340E-05 1.13335E-05 2.73113E-05-1.73794E-17 5.85300E-18
 -1      1278 3.66779E-05-1.15310E-04 1.97892E-05 1.39476E-05-2.16125E-17 2.88558E-18
 -1      1279 1.04442E-04-2.20192E-05-3.78918E-05-1.72764E-05-3.59354E-19 1.13502E-17
 -1      1280 9.03167E-05-6.68052E-06-3.60162E-05-2.04745E-05-1.34329E-18 2.13203E-18
 -1      1281 9.26534E-05-6.73925E-06-3.72214E-05-2.57622E-05-1.63859E-18 4.35836E-18
 -1      1282 8.59021E-05-4.09638E-06-3.51290E-05-1.64367E-05-1.49597E-18-1.13288E-18
 -1      1283 8.71538E-05-4.08902E-06-3.55983E-05-1.88571E-05-1.64706E-18 3.04535E-19
 -1      1284 9.21308E-05-1.04622E-05-3.50924E-05-1.90385E-05-2.42606E-18 1.90911E-18
 -1      1285 8.40941E-05-3.19008E-06-3.46860E-05-1.28201E-05-1.29486E-18-2.92266E-18
 -1      1286 8.47056E-05-3.16066E-06-3.49103E-05-1.46347E-05-1.44599E-18-2.08293E-18
 -1      1287 8.78640E-05-7.39466E-06-3.45727E-05-1.54152E-05-2.37005E-18-8.33480E-19
 -1      1288 8.31845E-05-2.72778E-06-3.44698E-05-9.69054E-06-1.04232E-18-3.97318E-18
 -1      1289 8.34970E-05-2.70935E-06-3.45788E-05-1.12380E-05-1.14037E-18-3.47561E-18
 -1      1290 8.58650E-05-5.98219E-06-3.43046E-05-1.19590E-05-1.94976E-18-2.36391E-18
 -1      1291 8.26942E-05-2.45797E-06-3.43636E-05-6.91797E-06-7.67289E-19-4.54519E-18
 -1      1292 8.28632E-05-2.44959E-06-3.44179E-05-8.28945E-06-8.92098E-19-4.24444E-18
 -1      1293 8.48209E-05-5.21773E-06-3.41725E-05-8.94833E-06-1.57022E-18-3.24371E-18
 -1      1294 8.24192E-05-2.29242E-06-3.43110E-05-4.29682E-06-5.64589E-19-4.85096E-18
 -1      1295 8.25102E-05-2.28852E-06-3.43381E-05-5.59856E-06-6.31278E-19-4.72671E-18
 -1      1296 8.42361E-05-4.76281E-06-3.41093E-05-6.21916E-06-1.15694E-18-3.77234E-18
 -1      1297 8.22871E-05-2.20308E-06-3.42888E-05-1.79082E-06-2.99049E-19-4.99558E-18
 -1      1298 8.23259E-05-2.20151E-06-3.42999E-05-3.04244E-06-4.04567E-19-4.90318E-18
 -1      1299 8.39139E-05-4.49910E-06-3.40806E-05-3.64629E-06-7.94685E-19-3.99093E-18
 -1      1300 8.22611E-05-2.17562E-06-3.42862E-05 6.70169E-07-6.85898E-20-5.05721E-18
 -1      1301 8.22598E-05-2.17566E-06-3.42858E-05-5.66313E-07-1.64510E-19-5.01553E-18
 -1      1302 8.37728E-05-4.37960E-06-3.40698E-05-1.17111E-06-3.95049E-19-4.16074E-18
 -1      1303 8.23345E-05-2.20584E-06-3.43014E-05 3.14996E-06 1.74206E-19-5.10319E-18
 -1      1304 8.22928E-05-2.20748E-06-3.42896E-05 1.89574E-06 7.40500E-20-5.10049E-18
 -1      1305 8.37778E-05-4.38384E-06-3.40702E-05 1.27437E-06 1.55506E-20-4.20401E-18
 -1      1306 8.25272E-05-2.29875E-06-3.43408E-05 5.71532E-06 4.07833E-19-5.04750E-18
 -1      1307 8.24329E-05-2.30213E-06-3.43130E-05 4.40765E-06 3.30445E-19-5.09412E-18
 -1      1308 8.39294E-05-4.51264E-06-3.40817E-05 3.75393E-06 4.25715E-19-4.23695E-18
 -1      1309 8.28859E-05-2.46426E-06-3.44208E-05 8.39781E-06 6.73345E-19-4.81634E-18
 -1      1310 8.27135E-05-2.47296E-06-3.43660E-05 7.01771E-06 5.70788E-19-4.96090E-18
 -1      1311 8.42612E-05-4.78544E-06-3.41106E-05 6.31339E-06 8.24545E-19-4.12907E-18
 -1      1312 8.35431E-05-2.74132E-06-3.45840E-05 1.13985E-05 1.00694E-18-4.31161E-18
 -1      1313 8.32222E-05-2.75843E-06-3.44733E-05 9.83336E-06 8.73205E-19-4.62501E-18
 -1      1314 8.48630E-05-5.25822E-06-3.41734E-05 9.05710E-06 1.30393E-18-3.84770E-18
 -1      1315 8.47633E-05-3.20325E-06-3.49183E-05 1.48473E-05 1.31719E-18-3.22984E-18
 -1      1316 8.41513E-05-3.24001E-06-3.46917E-05 1.30070E-05 1.15437E-18-3.89521E-18
 -1      1317 8.59451E-05-6.06290E-06-3.43059E-05 1.21260E-05 1.76170E-18-3.21976E-18
 -1      1318 8.72532E-05-4.09008E-06-3.56199E-05 1.90944E-05 1.60852E-18-1.16621E-18
 -1      1319 8.59700E-05-4.15399E-06-3.51367E-05 1.66965E-05 1.41552E-18-2.41738E-18
 -1      1320 8.79892E-05-7.51691E-06-3.45750E-05 1.56538E-05 2.21397E-18-1.94132E-18
 -1      1321 9.34666E-05-6.79200E-06-3.71169E-05 2.50988E-05 1.45997E-18 3.02190E-18
 -1      1322 9.01325E-05-6.43755E-06-3.60390E-05 2.11518E-05 1.41169E-18 4.47339E-19
 -1      1323 9.23609E-05-1.06977E-05-3.50778E-05 1.96794E-05 2.46127E-18 4.38657E-19
 -1      1324 1.23629E-04-2.49239E-05-3.90155E-05 2.83681E-05 7.82447E-19 1.13248E-17
 -1      1325 1.00082E-04-1.44240E-05-3.73546E-05 2.40523E-05 7.84988E-19 5.49873E-18
 -1      1326 1.01680E-04-1.93424E-05-3.54027E-05 2.14009E-05 2.42240E-18 4.24321E-18
 -1      1327 1.02606E-04-2.78056E-05-3.47584E-05 7.33007E-06 1.36626E-18 1.07425E-17
 -1      1328 1.05149E-04-3.02310E-05-3.35258E-05-7.96061E-06-1.26600E-18 1.16177E-17
 -1      1329 9.82617E-05-2.78433E-05-3.07624E-05-4.98932E-06-1.22110E-18 1.02268E-17
 -1      1330 9.55033E-05-2.78494E-05-2.92547E-05-2.49073E-06-9.22048E-19 9.45204E-18
 -1      1331 9.32701E-05-2.75582E-05-2.82151E-05-2.04409E-06-8.93673E-19 8.05174E-18
 -1      1332 9.94853E-05-2.80522E-05-3.09829E-05-7.88872E-06-2.11869E-18 6.13289E-18
 -1      1333 9.15796E-05-2.71999E-05-2.75806E-05-8.39222E-07-6.85567E-19 7.51829E-18
 -1      1334 9.08621E-05-2.71043E-05-2.72781E-05-7.28902E-07-6.15482E-19 6.60532E-18
 -1      1335 9.47173E-05-2.77697E-05-2.88162E-05-3.12265E-06-1.57403E-18 4.90222E-18
 -1      1336 9.01116E-05-2.69215E-05-2.70346E-05-1.74775E-07-4.05249E-19 6.14594E-18
 -1      1337 9.00381E-05-2.69481E-05-2.69995E-05-1.16835E-07-5.07545E-19 5.50738E-18
 -1      1338 9.25169E-05-2.74988E-05-2.78950E-05-1.05494E-06-1.07596E-18 4.00427E-18
 -1      1339 8.97779E-05-2.68804E-05-2.69250E-05 1.52933E-07-3.37270E-19 5.31889E-18
 -1      1340 8.99910E-05-2.69700E-05-2.69862E-05 1.81492E-07-3.58672E-19 4.88038E-18
 -1      1341 9.15572E-05-2.73552E-05-2.75275E-05-7.24394E-08-7.95873E-19 3.19425E-18
 -1      1342 8.99938E-05-2.69729E-05-2.69924E-05 3.12206E-07-3.09955E-19 4.66011E-18
 -1      1343 9.03341E-05-2.70919E-05-2.70909E-05 3.23853E-07-1.46284E-19 4.37639E-18
 -1      1344 9.13022E-05-2.73426E-05-2.74191E-05 4.13799E-07-6.00980E-19 2.94029E-18
 -1      1345 9.04749E-05-2.71333E-05-2.71378E-05 3.78108E-07-1.74312E-19 4.18519E-18
 -1      1346 9.08603E-05-2.72608E-05-2.72491E-05 3.79714E-07-2.95953E-19 3.74211E-18
 -1      1347 9.14327E-05-2.74155E-05-2.74407E-05 6.41251E-07-4.11465E-19 2.55606E-18
 -1      1348 9.10670E-05-2.73207E-05-2.73151E-05 3.90027E-07-3.83243E-19 3.63444E-18
 -1      1349 9.14516E-05-2.74445E-05-2.74265E-05 3.85768E-07-5.13538E-19 3.01813E-18
 -1      1350 9.17628E-05-2.75336E-05-2.75288E-05 7.23036E-07-6.64566E-19 2.18854E-18
 -1      1351 9.16816E-05-2.75108E-05-2.74991E-05 3.71083E-07-4.62042E-19 2.75132E-18
 -1      1352 9.20402E-05-2.76242E-05-2.76034E-05 3.63668E-07-3.53537E-19 2.32452E-18
 -1      1353 9.21820E-05-2.76698E-05-2.76481E-05 7.20954E-07-8.78410E-19 1.94583E-18
 -1      1354 9.22685E-05-2.76898E-05-2.76750E-05 3.35818E-07-2.22480E-19 2.14445E-18
 -1      1355 9.25885E-05-2.77897E-05-2.77685E-05 3.27049E-07-2.83555E-20 1.93238E-18
 -1      1356 9.26241E-05-2.78075E-05-2.77773E-05 6.72159E-07-6.12159E-19 1.85904E-18
 -1      1357 9.28013E-05-2.78507E-05-2.78351E-05 2.93715E-07 2.46947E-20 1.59225E-18
 -1      1358 9.30782E-05-2.79362E-05-2.79163E-05 2.84796E-07-2.86312E-19 1.40457E-18
 -1      1359 9.30510E-05-2.79371E-05-2.79041E-05 6.00301E-07-2.82677E-19 8.03427E-19
 -1      1360 9.32692E-05-2.79908E-05-2.79760E-05 2.51070E-07-3.67089E-19 1.28236E-18
 -1      1361 9.35038E-05-2.80625E-05-2.80451E-05 2.42807E-07-4.04155E-19 8.07893E-19
 -1      1362 9.34428E-05-2.80538E-05-2.80218E-05 5.20904E-07-4.56916E-19 3.71688E-19
 -1      1363 9.36716E-05-2.81104E-05-2.80974E-05 2.12121E-07-8.55886E-20 9.52616E-19
 -1      1364 9.38683E-05-2.81700E-05-2.81556E-05 2.05064E-07-2.87282E-20 7.35910E-19
 -1      1365 9.37915E-05-2.81561E-05-2.81275E-05 4.44349E-07-3.07227E-19 2.47231E-19
 -1      1366 9.40152E-05-2.82117E-05-2.82014E-05 1.79800E-07 9.97227E-20 5.49984E-19
 -1      1367 9.41809E-05-2.82613E-05-2.82505E-05 1.74338E-07-2.52862E-19 4.36437E-19
 -1      1368 9.40978E-05-2.82445E-05-2.82212E-05 3.77728E-07-1.91692E-19 2.41338E-19
 -1      1369 9.43114E-05-2.82983E-05-2.82912E-05 1.56261E-07-3.33770E-19 3.76021E-19
 -1      1370 9.44548E-05-2.83408E-05-2.83340E-05 1.52703E-07-3.67749E-19 8.57042E-20
 -1      1371 9.43682E-05-2.83214E-05-2.83046E-05 3.26103E-07-4.75096E-19-3.04744E-19
 -1      1372 9.45755E-05-2.83749E-05-2.83716E-05 1.43268E-07-2.21958E-19 2.15712E-19
 -1      1373 9.47070E-05-2.84133E-05-2.84109E-05 1.41895E-07-2.69818E-19-1.72149E-19
 -1      1374 9.46134E-05-2.83901E-05-2.83809E-05 2.93398E-07-3.18466E-19 3.61290E-19
 -1      1375 9.48260E-05-2.84469E-05-2.84480E-05 1.42472E-07-1.18829E-19-2.93511E-19
 -1      1376 9.49572E-05-2.84849E-05-2.84874E-05 1.43583E-07-1.53689E-20-5.53092E-19
 -1      1377 9.48477E-05-2.84548E-05-2.84543E-05 2.83051E-07-3.35890E-19 3.33605E-19
 -1      1378 9.50842E-05-2.85208E-05-2.85269E-05 1.55605E-07-2.48165E-19-7.57989E-19
 -1      1379 9.52284E-05-2.85624E-05-2.85702E-05 1.59537E-07-2.56432E-19-1.01577E-18
 -1      1380 9.50884E-05-2.85207E-05-2.85300E-05 2.98456E-07-2.72738E-19-1.82112E-19
 -1      1381 9.53744E-05-2.86037E-05-2.86157E-05 1.84565E-07-4.30539E-20-1.05352E-18
 -1      1382 9.55469E-05-2.86537E-05-2.86675E-05 1.91706E-07-1.93401E-19-1.16916E-18
 -1      1383 9.53556E-05-2.85937E-05-2.86142E-05 3.43231E-07-4.15695E-19-4.50652E-19
 -1      1384 9.57245E-05-2.87039E-05-2.87227E-05 2.31403E-07-3.37800E-20-1.42511E-18
 -1      1385 9.59422E-05-2.87675E-05-2.87880E-05 2.42173E-07-7.03592E-20-1.39051E-18
 -1      1386 9.56724E-05-2.86806E-05-2.87138E-05 4.21261E-07-2.66465E-19-4.83875E-19
 -1      1387 9.61652E-05-2.88308E-05-2.88573E-05 2.98142E-07 2.03785E-19-1.11990E-18
 -1      1388 9.64473E-05-2.89138E-05-2.89416E-05 3.12946E-07 4.72062E-19-4.27054E-19
 -1      1389 9.60646E-05-2.87892E-05-2.88365E-05 5.36481E-07 1.38458E-19-1.48505E-18
 -1      1390 9.67307E-05-2.89945E-05-2.90297E-05 3.86385E-07 3.22704E-19-4.92431E-19
 -1      1391 9.70976E-05-2.91035E-05-2.91390E-05 4.05515E-07-1.48289E-20-3.30110E-19
 -1      1392 9.65603E-05-2.89281E-05-2.89907E-05 6.92280E-07 4.08047E-19-1.13389E-18
 -1      1393 9.74566E-05-2.92062E-05-2.92504E-05 4.96607E-07-1.67689E-19 1.84025E-19
 -1      1394 9.79291E-05-2.93479E-05-2.93908E-05 5.20066E-07-9.27733E-20-2.09091E-19
 -1      1395 9.71892E-05-2.91067E-05-2.91851E-05 8.90362E-07 2.59518E-19-2.99868E-19
 -1      1396 9.83778E-05-2.94771E-05-2.95297E-05 6.26978E-07 3.47697E-19 9.78654E-20
 -1      1397 9.89748E-05-2.96578E-05-2.97065E-05 6.54205E-07 4.32300E-19 5.48317E-19
 -1      1398 9.79802E-05-2.93347E-05-2.94276E-05 1.12884E-06 3.18813E-19 6.51526E-19
 -1      1399 9.95236E-05-2.98170E-05-2.98759E-05 7.71573E-07 1.53511E-19 7.92472E-19
 -1      1400 1.00258E-04-3.00416E-05-3.00925E-05 8.01007E-07 2.50727E-19 9.86519E-19
 -1      1401 9.89582E-05-2.96217E-05-2.97247E-05 1.39927E-06 5.86941E-19 7.47294E-19
 -1      1402 1.00910E-04-3.02327E-05-3.02928E-05 9.17791E-07-1.77576E-19 1.02067E-18
 -1      1403 1.01780E-04-3.05024E-05-3.05486E-05 9.46250E-07-5.10473E-19 7.48655E-19
 -1      1404 1.00138E-04-2.99750E-05-3.00789E-05 1.68229E-06-2.74283E-19 8.87473E-19
 -1      1405 1.02525E-04-3.07241E-05-3.07757E-05 1.04298E-06-6.65391E-19 4.93721E-19
 -1      1406 1.03508E-04-3.10333E-05-3.10629E-05 1.06486E-06-7.94492E-19-1.58925E-19
 -1      1407 1.01513E-04-3.03984E-05-3.04862E-05 1.94181E-06-9.65521E-19 2.84014E-19
 -1      1408 1.04315E-04-3.12789E-05-3.13058E-05 1.11069E-06-3.29263E-19-2.62686E-19
 -1      1409 1.05350E-04-3.16110E-05-3.16058E-05 1.11709E-06 1.45693E-19-4.43951E-19
 -1      1410 1.03049E-04-3.08875E-05-3.09317E-05 2.11822E-06-6.00885E-19 3.59195E-19
 -1      1411 1.06159E-04-3.18656E-05-3.18437E-05 1.06805E-06 2.82361E-19-3.74044E-19
 -1      1412 1.07131E-04-3.21872E-05-3.21220E-05 1.04631E-06 1.02913E-19 1.90549E-19
 -1      1413 1.04659E-04-3.14249E-05-3.13854E-05 2.12256E-06 2.31043E-19 1.09249E-19
 -1      1414 1.07841E-04-3.24244E-05-3.23225E-05 8.47567E-07-3.92600E-19-2.00528E-19
 -1      1415 1.08571E-04-3.26795E-05-3.25261E-05 7.82095E-07-4.23053E-19-2.31922E-19
 -1      1416 1.06192E-04-3.19722E-05-3.17977E-05 1.83663E-06-2.26998E-19-1.08169E-19
 -1      1417 1.09042E-04-3.28588E-05-3.26447E-05 3.79420E-07-2.20437E-19-2.62524E-19
 -1      1418 1.09283E-04-3.29670E-05-3.27034E-05 2.55680E-07-1.83634E-19-3.89116E-19
 -1      1419 1.07416E-04-3.24602E-05-3.20987E-05 1.12840E-06-9.11106E-19-1.03695E-20
 -1      1420 1.09342E-04-3.30325E-05-3.26894E-05-3.77979E-07 5.02430E-20-9.24129E-19
 -1      1421 1.08819E-04-3.28967E-05-3.25276E-05-5.64411E-07 7.81454E-20-1.07340E-18
 -1      1422 1.08022E-04-3.27798E-05-3.22036E-05-1.04048E-07-3.36603E-19-3.20872E-19
 -1      1423 1.08296E-04-3.27838E-05-3.23372E-05-1.38537E-06 1.55973E-20-9.13472E-19
 -1      1424 1.06790E-04-3.23163E-05-3.19001E-05-1.61444E-06-9.95661E-20-1.30366E-18
 -1      1425 1.07661E-04-3.27835E-05-3.20304E-05-1.84939E-06 1.32303E-19-1.10352E-18
 -1      1426 1.05586E-04-3.19719E-05-3.15183E-05-2.46168E-06 2.50186E-19-1.11679E-18
 -1      1427 1.03077E-04-3.11450E-05-3.08103E-05-2.67532E-06 1.98864E-19-8.71412E-19
 -1      1428 1.06042E-04-3.23123E-05-3.15318E-05-3.87247E-06 1.67587E-19-1.11402E-18
 -1      1429 1.01263E-04-3.05655E-05-3.02747E-05-3.26199E-06-5.46874E-19-8.53174E-19
 -1      1430 9.80752E-05-2.94731E-05-2.93943E-05-3.36768E-06-3.44532E-19-1.60200E-18
 -1      1431 1.03104E-04-3.12721E-05-3.07328E-05-5.63894E-06-1.74988E-19-5.87960E-19
 -1      1432 9.59696E-05-2.87519E-05-2.88053E-05-3.36789E-06 9.02438E-20-1.59716E-18
 -1      1433 9.28080E-05-2.76390E-05-2.79458E-05-3.27815E-06-1.56254E-19-1.78584E-18
 -1      1434 9.92078E-05-2.97511E-05-2.97578E-05-6.39624E-06-4.15571E-19-1.05550E-18
 -1      1435 9.09589E-05-2.69786E-05-2.74469E-05-2.51989E-06-1.21390E-19-1.93086E-18
 -1      1436 8.87199E-05-2.61816E-05-2.68423E-05-2.21987E-06-3.36530E-19-2.48095E-18
 -1      1437 9.52262E-05-2.81072E-05-2.88174E-05-5.50963E-06-3.05283E-19-1.17251E-18
 -1      1438 8.77052E-05-2.58198E-05-2.65687E-05-8.69045E-07-7.91135E-19-1.78061E-18
 -1      1439 8.70818E-05-2.56100E-05-2.63946E-05-4.56694E-07 4.30399E-20-2.10806E-18
 -1      1440 9.23256E-05-2.68893E-05-2.81468E-05-2.94596E-06-5.09490E-19-1.75257E-18
 -1      1441 8.72084E-05-2.56806E-05-2.64134E-05 9.94452E-07 3.36093E-19-3.16901E-18
 -1      1442 8.83172E-05-2.61054E-05-2.66982E-05 1.34973E-06-2.77165E-19-3.17907E-18
 -1      1443 9.14388E-05-2.65650E-05-2.79141E-05 4.86977E-07 6.78950E-21-1.91097E-18
 -1      1444 8.94291E-05-2.65413E-05-2.69751E-05 2.34432E-06-3.31140E-19-3.16163E-18
 -1      1445 9.17362E-05-2.73905E-05-2.75845E-05 2.50788E-06-4.49870E-19-3.51839E-18
 -1      1446 9.27276E-05-2.72190E-05-2.81466E-05 3.47443E-06-3.91237E-19-3.03249E-18
 -1      1447 9.33082E-05-2.79708E-05-2.79994E-05 2.74611E-06-3.30485E-19-3.32280E-18
 -1      1448 9.59229E-05-2.89044E-05-2.87036E-05 2.69341E-06 4.26146E-19-3.19294E-18
 -1      1449 9.54724E-05-2.84898E-05-2.87162E-05 4.95023E-06-4.32634E-19-2.24216E-18
 -1      1450 9.73578E-05-2.93975E-05-2.91068E-05 2.24553E-06 1.21907E-18-2.06639E-18
 -1      1451 9.94606E-05-3.01201E-05-2.96855E-05 2.04762E-06 1.51109E-18-8.62200E-19
 -1      1452 9.85011E-05-2.98089E-05-2.93967E-05 4.65204E-06 1.61432E-18-1.40993E-18
 -1      1453 1.00347E-04-3.03898E-05-2.99583E-05 1.22342E-06 6.75860E-19 5.73600E-19
 -1      1454 1.01476E-04-3.07526E-05-3.02792E-05 9.82162E-07 4.34237E-19 1.21164E-18
 -1      1455 1.00785E-04-3.07234E-05-2.99594E-05 3.07286E-06 2.25695E-18 4.92014E-19
 -1      1456 1.01677E-04-3.07754E-05-3.03680E-05 1.23841E-07 3.77482E-19 2.04331E-18
 -1      1457 1.01780E-04-3.07785E-05-3.04074E-05-8.07147E-08 7.87592E-19 1.89191E-18
 -1      1458 1.01791E-04-3.10494E-05-3.02533E-05 1.02105E-06 1.24216E-18 2.95386E-18
 -1      1459 1.01386E-04-3.06052E-05-3.03247E-05-7.29285E-07 8.61393E-19 2.29696E-18
 -1      1460 1.00706E-04-3.03443E-05-3.01453E-05-8.54527E-07 5.93191E-19 2.99124E-18
 -1      1461 1.01504E-04-3.08398E-05-3.02391E-05-7.97385E-07 1.09118E-18 3.71567E-18
 -1      1462 9.99390E-05-3.00560E-05-2.99499E-05-1.17065E-06-4.48061E-19 2.36899E-18
 -1      1463 9.88745E-05-2.96692E-05-2.96619E-05-1.20152E-06-3.33231E-19 2.17608E-18
 -1      1464 1.00258E-04-3.02667E-05-2.99765E-05-1.95288E-06-4.15040E-19 2.51530E-18
 -1      1465 9.79983E-05-2.93497E-05-2.94322E-05-1.15183E-06 4.93531E-19 1.99355E-18
 -1      1466 9.69959E-05-2.89878E-05-2.91572E-05-1.08509E-06 4.17425E-19 3.20800E-18
 -1      1467 9.85432E-05-2.95275E-05-2.95839E-05-2.26809E-06 1.61922E-19 1.47709E-18
 -1      1468 9.62390E-05-2.87044E-05-2.89598E-05-6.97543E-07 1.57410E-19 3.53173E-18
 -1      1469 9.56935E-05-2.85396E-05-2.87811E-05-5.63037E-07-1.78544E-19 2.95834E-18
 -1      1470 9.68525E-05-2.87972E-05-2.91867E-05-1.75733E-06 4.95288E-19 1.68129E-18
 -1      1471 9.52066E-05-2.85082E-05-2.85795E-05 3.01939E-08-2.47918E-18 2.08179E-18
 -1      1472 9.55149E-05-2.83596E-05-2.87915E-05-5.34428E-07-2.01969E-18 1.39506E-18
 -1      1473 9.65781E-05-2.83639E-05-2.97727E-05 2.99654E-06 1.13677E-18 8.23417E-18
 -1      1474 1.02538E-04-2.93990E-05-3.21563E-05 4.46369E-06 1.00368E-18 1.00720E-17
 -1      1475 1.02327E-04-2.67183E-05-3.27061E-05 1.27847E-05 2.01292E-18 6.33263E-18
 -1      1476 9.20300E-05-2.74291E-05-2.77616E-05 1.15277E-06 8.25407E-19 6.10748E-18
 -1      1477 9.39775E-05-2.75845E-05-2.86760E-05 1.47472E-06 7.74929E-19 7.39214E-18
 -1      1478 9.64868E-05-2.80303E-05-2.95338E-05 4.86918E-06 1.68766E-18 4.79457E-18
 -1      1479 9.01956E-05-2.70038E-05-2.70622E-05 3.32639E-07 5.52120E-19 4.42546E-18
 -1      1480 9.08115E-05-2.70216E-05-2.73351E-05 4.95486E-07 6.26685E-19 5.46474E-18
 -1      1481 9.30407E-05-2.75784E-05-2.80983E-05 1.85338E-06 1.33900E-18 3.52441E-18
 -1      1482 8.96761E-05-2.68850E-05-2.68858E-05-5.40096E-08 5.47825E-19 3.22304E-18
 -1      1483 8.97146E-05-2.68230E-05-2.69143E-05 3.50513E-08 4.77445E-19 3.91095E-18
 -1      1484 9.14858E-05-2.73068E-05-2.75140E-05 5.19695E-07 1.02813E-18 2.44049E-18
 -1      1485 8.98052E-05-2.69366E-05-2.69267E-05-2.40976E-07 4.10080E-19 2.18902E-18
 -1      1486 8.95782E-05-2.68295E-05-2.68621E-05-1.90820E-07 4.04286E-19 2.69976E-18
 -1      1487 9.09519E-05-2.72252E-05-2.73171E-05-1.29679E-07 9.18141E-19 1.52306E-18
 -1      1488 9.02542E-05-2.70779E-05-2.70639E-05-3.23776E-07 8.64801E-20 1.73283E-18
 -1      1489 8.99093E-05-2.69513E-05-2.69630E-05-2.96212E-07 1.47895E-19 1.95895E-18
 -1      1490 9.09667E-05-2.72674E-05-2.73054E-05-4.47817E-07 4.16165E-19 1.10410E-18
 -1      1491 9.08441E-05-2.72588E-05-2.72419E-05-3.47939E-07 2.37970E-19 1.44153E-18
 -1      1492 9.04589E-05-2.71292E-05-2.71292E-05-3.34355E-07 1.21729E-19 1.54369E-18
 -1      1493 9.12679E-05-2.73784E-05-2.73860E-05-5.87382E-07 2.33061E-19 6.02465E-19
 -1      1494 9.14723E-05-2.74494E-05-2.74311E-05-3.38513E-07 3.62619E-19 5.49734E-19
 -1      1495 9.10905E-05-2.73267E-05-2.73191E-05-3.33701E-07 3.87528E-19 1.13565E-18
 -1      1496 9.17046E-05-2.75210E-05-2.75108E-05-6.25314E-07 6.22308E-19 2.28107E-19
 -1      1497 9.20805E-05-2.76327E-05-2.76144E-05-3.10680E-07 2.92194E-19-1.85351E-19
 -1      1498 9.17258E-05-2.75221E-05-2.75100E-05-3.11261E-07 2.52990E-19 2.76788E-19
 -1      1499 9.21882E-05-2.76721E-05-2.76521E-05-6.05135E-07 6.40942E-19-2.30944E-19
 -1      1500 9.26369E-05-2.77996E-05-2.77824E-05-2.74157E-07 2.79806E-19-4.27894E-19
 -1      1501 9.23214E-05-2.77033E-05-2.76892E-05-2.77850E-07 1.61605E-19-2.57260E-19
 -1      1502 9.26667E-05-2.78181E-05-2.77936E-05-5.53556E-07 3.56582E-19-8.50514E-19
 -1      1503 9.31275E-05-2.79461E-05-2.79308E-05-2.35324E-07-3.71849E-21-7.55357E-19
 -1      1504 9.28553E-05-2.78644E-05-2.78501E-05-2.40556E-07 1.21766E-19-6.56391E-19
 -1      1505 9.31116E-05-2.79518E-05-2.79264E-05-4.87777E-07 2.95960E-19-6.46606E-19
 -1      1506 9.35497E-05-2.80717E-05-2.80587E-05-1.98430E-07 1.07678E-19-5.21856E-19
 -1      1507 9.33197E-05-2.80036E-05-2.79904E-05-2.04095E-07-3.89164E-20-6.48513E-19
 -1      1508 9.35097E-05-2.80699E-05-2.80460E-05-4.19157E-07-8.60032E-20-6.26990E-19
 -1      1509 9.39086E-05-2.81780E-05-2.81677E-05-1.66360E-07 5.27162E-19-1.18835E-18
 -1      1510 9.37164E-05-2.81218E-05-2.81103E-05-1.71657E-07 2.42013E-19-8.07976E-19
 -1      1511 9.38581E-05-2.81721E-05-2.81513E-05-3.55339E-07 3.90128E-19-9.55649E-19
 -1      1512 9.42150E-05-2.82684E-05-2.82609E-05-1.41172E-07 2.41180E-19-2.14237E-18
 -1      1513 9.40535E-05-2.82215E-05-2.82125E-05-1.45486E-07 5.64057E-19-1.34789E-18
 -1      1514 9.41613E-05-2.82600E-05-2.82434E-05-3.01616E-07 8.95475E-19-1.25379E-18
 -1      1515 9.44836E-05-2.83472E-05-2.83428E-05-1.24494E-07 2.02196E-20-2.59470E-18
 -1      1516 9.43441E-05-2.83067E-05-2.83008E-05-1.27306E-07 9.59853E-20-2.46008E-18
 -1      1517 9.44286E-05-2.83367E-05-2.83252E-05-2.61909E-07 3.21059E-19-1.62811E-18
 -1      1518 9.47326E-05-2.84199E-05-2.84189E-05-1.17844E-07 9.51039E-20-2.94719E-18
 -1      1519 9.46047E-05-2.83825E-05-2.83802E-05-1.18651E-07 3.40344E-20-2.61991E-18
 -1      1520 9.46737E-05-2.84063E-05-2.84007E-05-2.39489E-07 1.46106E-19-1.91868E-18
 -1      1521 9.49835E-05-2.84930E-05-2.84957E-05-1.22881E-07 2.28750E-19-3.19676E-18
 -1      1522 9.48552E-05-2.84548E-05-2.84566E-05-1.21131E-07 2.00419E-19-3.02394E-18
 -1      1523 9.49136E-05-2.84737E-05-2.84750E-05-2.37556E-07 2.14291E-19-2.24874E-18
 -1      1524 9.52621E-05-2.85739E-05-2.85809E-05-1.41622E-07 2.07123E-19-3.46427E-18
 -1      1525 9.51192E-05-2.85305E-05-2.85373E-05-1.36649E-07 2.48649E-19-3.40779E-18
 -1      1526 9.51689E-05-2.85451E-05-2.85543E-05-2.59701E-07 3.93741E-19-2.61164E-18
 -1      1527 9.55984E-05-2.86717E-05-2.86837E-05-1.76615E-07-1.19784E-19-3.35759E-18
 -1      1528 9.54244E-05-2.86177E-05-2.86306E-05-1.67582E-07-2.68606E-21-3.37317E-18
 -1      1529 9.54640E-05-2.86276E-05-2.86463E-05-3.10289E-07 1.14134E-19-2.40758E-18
 -1      1530 9.60287E-05-2.87971E-05-2.88149E-05-2.31093E-07 3.54749E-20-3.16310E-18
 -1      1531 9.58035E-05-2.87261E-05-2.87464E-05-2.16932E-07-6.13131E-20-3.16845E-18
 -1      1532 9.58281E-05-2.87297E-05-2.87597E-05-3.94773E-07-1.64555E-19-2.56498E-18
 -1      1533 9.65961E-05-2.89628E-05-2.89878E-05-3.09061E-07-3.74518E-20-2.78474E-18
 -1      1534 9.62957E-05-2.88672E-05-2.88967E-05-2.88422E-07-7.81504E-20-2.83392E-18
 -1      1535 9.62958E-05-2.88613E-05-2.89051E-05-5.19915E-07-2.45661E-19-1.99982E-18
 -1      1536 9.73524E-05-2.91842E-05-2.92180E-05-4.15287E-07 4.32969E-19-3.85972E-18
 -1      1537 9.69478E-05-2.90548E-05-2.90955E-05-3.86504E-07 3.28868E-19-2.92705E-18
 -1      1538 9.69080E-05-2.90346E-05-2.90950E-05-6.93854E-07 3.27136E-19-1.93304E-18
 -1      1539 9.83592E-05-2.94799E-05-2.95239E-05-5.55089E-07 1.32432E-19-4.08629E-18
 -1      1540 9.78156E-05-2.93053E-05-2.93598E-05-5.16187E-07 3.01675E-19-4.20184E-18
 -1      1541 9.77128E-05-2.92637E-05-2.93442E-05-9.25891E-07 5.81799E-19-2.73285E-18
 -1      1542 9.96875E-05-2.98711E-05-2.99270E-05-7.33687E-07-3.38782E-19-4.25837E-18
 -1      1543 9.89643E-05-2.96382E-05-2.97092E-05-6.82500E-07-4.31462E-19-4.72984E-18
 -1      1544 9.87656E-05-2.95650E-05-2.96693E-05-1.22568E-06-2.07487E-19-3.63028E-18
 -1      1545 1.01416E-04-3.03819E-05-3.04507E-05-9.54724E-07-1.04571E-19-3.11132E-18
 -1      1546 1.00468E-04-3.00759E-05-3.01659E-05-8.89240E-07 1.30387E-19-3.15055E-18
 -1      1547 1.00128E-04-2.99576E-05-3.00885E-05-1.60131E-06-4.10801E-19-2.70726E-18
 -1      1548 1.03624E-04-3.10374E-05-3.11180E-05-1.21723E-06-7.98539E-19-1.43471E-18
 -1      1549 1.02404E-04-3.06432E-05-3.07529E-05-1.13640E-06-6.75694E-19-2.65160E-18
 -1      1550 1.01863E-04-3.04618E-05-3.06203E-05-2.05519E-06-8.95612E-19-7.73517E-19
 -1      1551 1.06375E-04-3.18595E-05-3.19465E-05-1.50988E-06 3.50928E-19-2.42108E-18
 -1      1552 1.04845E-04-3.13645E-05-3.14907E-05-1.41530E-06 1.20454E-19-2.40220E-18
 -1      1553 1.04028E-04-3.10981E-05-3.12795E-05-2.57629E-06 1.50742E-19-1.56292E-18
 -1      1554 1.09687E-04-3.28587E-05-3.29379E-05-1.80095E-06-3.41230E-19-2.30439E-18
 -1      1555 1.07835E-04-3.22595E-05-3.23903E-05-1.70002E-06-2.39059E-19-2.29003E-18
 -1      1556 1.06654E-04-3.18836E-05-3.20714E-05-3.12616E-06-4.41312E-19-1.93642E-18
 -1      1557 1.13476E-04-3.40193E-05-3.40602E-05-2.02279E-06 1.38563E-19-1.62458E-18
 -1      1558 1.11354E-04-3.33325E-05-3.34396E-05-1.93393E-06-2.00112E-20-1.74147E-18
 -1      1559 1.09718E-04-3.28249E-05-3.29807E-05-3.61647E-06-3.86629E-19-1.68386E-18
 -1      1560 1.17471E-04-3.52729E-05-3.52213E-05-2.05227E-06 4.26787E-19-2.66522E-18
 -1      1561 1.15244E-04-3.45547E-05-3.45827E-05-2.01225E-06 1.86732E-19-2.28602E-18
 -1      1562 1.13094E-04-3.39059E-05-3.39556E-05-3.87805E-06 5.97219E-19-1.75555E-18
 -1      1563 1.21101E-04-3.64618E-05-3.62380E-05-1.69865E-06 2.90837E-21-3.10401E-18
 -1      1564 1.19123E-04-3.58329E-05-3.56919E-05-1.76859E-06 3.17627E-19-2.81211E-18
 -1      1565 1.16485E-04-3.50657E-05-3.48878E-05-3.63184E-06 5.31712E-19-1.54450E-18
 -1      1566 1.23410E-04-3.72975E-05-3.68215E-05-7.31053E-07 3.62669E-19-2.95618E-18
 -1      1567 1.22276E-04-3.69654E-05-3.65429E-05-9.90745E-07-8.47827E-20-2.83978E-18
 -1      1568 1.19346E-04-3.61629E-05-3.56002E-05-2.49819E-06 4.38075E-21-1.29266E-18
 -1      1569 1.23114E-04-3.73512E-05-3.66190E-05 9.98345E-07-2.36521E-19-3.51315E-18
 -1      1570 1.23615E-04-3.75979E-05-3.68208E-05 4.87899E-07 5.58512E-19-2.30210E-18
 -1      1571 1.20860E-04-3.69271E-05-3.58608E-05-1.19475E-07 5.16267E-19-1.50692E-18
 -1      1572 1.19021E-04-3.61527E-05-3.53643E-05 3.29211E-06-6.25124E-19-2.25083E-18
 -1      1573 1.21861E-04-3.72358E-05-3.62027E-05 2.57456E-06-8.24984E-19-2.99259E-18
 -1      1574 1.20049E-04-3.69360E-05-3.54573E-05 3.50906E-06-9.21929E-19-9.18713E-19
 -1      1575 1.10945E-04-3.35034E-05-3.31230E-05 5.31274E-06 1.27789E-18-3.13677E-18
 -1      1576 1.16149E-04-3.54259E-05-3.45428E-05 4.63788E-06 5.22269E-19-2.51934E-18
 -1      1577 1.16200E-04-3.57162E-05-3.43356E-05 7.53051E-06 4.92166E-19-1.17536E-18
 -1      1578 1.00799E-04-2.99645E-05-3.04875E-05 5.68103E-06 8.00281E-19-5.02449E-18
 -1      1579 1.07064E-04-3.22071E-05-3.21039E-05 5.47440E-06 1.08550E-18-3.34462E-18
 -1      1580 1.09634E-04-3.31109E-05-3.27375E-05 9.97364E-06 1.31768E-18-8.93302E-19
 -1      1581 9.26592E-05-2.70433E-05-2.84495E-05 3.45875E-06-3.62212E-19-4.39896E-18
 -1      1582 9.74310E-05-2.85994E-05-2.96411E-05 4.00834E-06-5.63528E-19-5.53589E-18
 -1      1583 1.02419E-04-2.98639E-05-3.11972E-05 8.61270E-06 1.63742E-19-1.51066E-18
 -1      1584 9.05590E-05-2.63454E-05-2.78825E-05-5.43480E-07 3.16936E-19-4.58631E-18
 -1      1585 9.14927E-05-2.63684E-05-2.81268E-05 5.29173E-07 1.82271E-19-4.74394E-18
 -1      1586 9.78815E-05-2.76736E-05-3.03071E-05 3.10889E-06 2.52389E-19-3.66497E-18
 -1      1587 9.53411E-05-2.81901E-05-2.89599E-05-4.01847E-06 1.34612E-19-5.88889E-18
 -1      1588 9.21204E-05-2.67278E-05-2.81930E-05-3.05824E-06 8.12238E-19-4.51175E-18
 -1      1589 9.83454E-05-2.79252E-05-3.03812E-05-3.77523E-06 6.01393E-19-3.73974E-18
 -1      1590 1.03924E-04-3.13119E-05-3.10534E-05-5.12570E-06-1.00875E-18-4.28302E-18
 -1      1591 9.85134E-05-2.92647E-05-2.97071E-05-4.76348E-06-6.73663E-19-5.93791E-18
 -1      1592 1.03132E-04-3.03395E-05-3.12907E-05-8.13938E-06-8.80451E-19-2.44440E-18
 -1      1593 1.11796E-04-3.39909E-05-3.31355E-05-3.84380E-06-2.90479E-19-3.36505E-18
 -1      1594 1.06908E-04-3.23755E-05-3.18531E-05-4.07942E-06-4.68178E-19-4.73735E-18
 -1      1595 1.09189E-04-3.32446E-05-3.25450E-05-8.14677E-06-4.78898E-19-3.80487E-18
 -1      1596 1.16036E-04-3.52872E-05-3.43932E-05-1.49565E-06-1.44565E-19-3.30645E-18
 -1      1597 1.13384E-04-3.45815E-05-3.36447E-05-2.00971E-06 2.56916E-19-3.15356E-18
 -1      1598 1.13492E-04-3.50653E-05-3.35593E-05-4.92905E-06 4.82279E-20-2.58046E-18
 -1      1599 1.16108E-04-3.51693E-05-3.45446E-05 6.82191E-07 1.79566E-18-5.32443E-18
 -1      1600 1.15969E-04-3.53227E-05-3.44624E-05 1.82318E-07 7.89144E-19-4.35616E-18
 -1      1601 1.14714E-04-3.53906E-05-3.39345E-05-8.01262E-07 1.07023E-18-4.10159E-18
 -1      1602 1.12992E-04-3.40629E-05-3.37641E-05 2.11196E-06 8.30125E-20-6.49897E-18
 -1      1603 1.14745E-04-3.47809E-05-3.42184E-05 1.76282E-06 6.13192E-19-5.67702E-18
 -1      1604 1.13072E-04-3.45755E-05-3.35921E-05 2.55573E-06 1.59458E-18-5.07060E-18
 -1      1605 1.08145E-04-3.24627E-05-3.24348E-05 2.72726E-06-1.25834E-19-6.89858E-18
 -1      1606 1.10900E-04-3.34311E-05-3.31901E-05 2.55256E-06-2.44197E-19-6.11238E-18
 -1      1607 1.09527E-04-3.31516E-05-3.27027E-05 4.51152E-06-8.35386E-20-5.19782E-18
 -1      1608 1.02939E-04-3.07826E-05-3.09695E-05 2.64728E-06-1.61320E-19-6.33655E-18
 -1      1609 1.05871E-04-3.17442E-05-3.17846E-05 2.63347E-06 1.51362E-19-6.54362E-18
 -1      1610 1.05163E-04-3.15373E-05-3.15486E-05 5.08197E-06 6.20303E-21-3.72399E-18
 -1      1611 9.85416E-05-2.93603E-05-2.97220E-05 1.96477E-06-2.75822E-19-6.64560E-18
 -1      1612 1.00933E-04-3.00942E-05-3.03933E-05 2.11680E-06-2.75362E-19-6.90043E-18
 -1      1613 1.00921E-04-3.00018E-05-3.04166E-05 4.46010E-06 8.26122E-20-3.95077E-18
 -1      1614 9.59009E-05-2.85071E-05-2.89019E-05 8.13194E-07-2.64969E-19-6.07277E-18
 -1      1615 9.71290E-05-2.88132E-05-2.93126E-05 1.09680E-06-5.21157E-20-6.54261E-18
 -1      1616 9.75207E-05-2.87398E-05-2.95199E-05 2.81153E-06-1.13380E-19-4.00921E-18
 -1      1617 9.52949E-05-2.83834E-05-2.86810E-05 9.60246E-08-2.95598E-18-3.09860E-18
 -1      1618 9.47778E-05-2.59413E-05-2.95398E-05 1.72296E-06-2.98561E-18 6.37525E-19
 -1      1619 9.52328E-05-2.73278E-05-2.91045E-05 1.39707E-06-4.25741E-18 1.26858E-18
 -1      1620 9.34113E-05-2.18711E-05-3.06780E-05 2.76876E-06-2.85974E-18 8.43823E-20
 -1      1621 9.42432E-05-2.43354E-05-2.99877E-05 2.59650E-06-2.83114E-18-6.88783E-19
 -1      1622 9.47718E-05-2.50261E-05-2.99401E-05 4.16497E-06-1.70446E-18 3.76533E-20
 -1      1623 9.17399E-05-1.68244E-05-3.21100E-05 3.27874E-06-6.21934E-19 2.02933E-18
 -1      1624 9.27443E-05-1.98309E-05-3.12647E-05 3.22159E-06-2.40991E-18 1.15409E-18
 -1      1625 9.33560E-05-2.13653E-05-3.08869E-05 5.75578E-06-4.98141E-19 8.58382E-19
 -1      1626 9.00265E-05-1.16273E-05-3.35940E-05 3.21122E-06 6.20002E-19 6.35490E-19
 -1      1627 9.10259E-05-1.46249E-05-3.27478E-05 3.27069E-06-1.45264E-18 2.60427E-18
 -1      1628 9.18035E-05-1.71315E-05-3.20032E-05 6.29126E-06-1.51972E-18 2.46726E-18
 -1      1629 8.85726E-05-7.23586E-06-3.48466E-05 2.58429E-06-3.02052E-18-2.46405E-18
 -1      1630 8.93816E-05-9.65929E-06-3.41625E-05 2.75137E-06 1.98656E-19-2.94211E-18
 -1      1631 9.02812E-05-1.29640E-05-3.31004E-05 5.72735E-06-1.96741E-18-1.62724E-18
 -1      1632 8.76004E-05-4.30134E-06-3.56832E-05 1.46992E-06-3.18938E-18-1.17928E-18
 -1      1633 8.80939E-05-5.78043E-06-3.52651E-05 1.72623E-06-2.46606E-18-9.81301E-20
 -1      1634 8.90277E-05-9.53841E-06-3.39994E-05 4.14083E-06-1.65488E-18-1.98257E-18
 -1      1635 8.73313E-05-3.45030E-06-3.59329E-05 9.57658E-08-5.22581E-18-2.01891E-18
 -1      1636 8.74006E-05-3.67923E-06-3.58652E-05 3.82246E-07-2.63566E-18-2.56373E-18
 -1      1637 8.82752E-05-7.46647E-06-3.45452E-05 1.78085E-06-1.74802E-18-1.86299E-18
 -1      1638 8.77955E-05-4.77024E-06-3.55718E-05-1.23497E-06 8.57621E-19 4.04894E-18
 -1      1639 8.74452E-05-3.75879E-06-3.58523E-05-9.84278E-07-4.55912E-18 3.57576E-18
 -1      1640 8.81912E-05-7.16656E-06-3.46385E-05-8.51542E-07 3.74839E-19 5.87093E-19
 -1      1641 8.88550E-05-7.88714E-06-3.46990E-05-2.24169E-06 8.74006E-19-2.47119E-19
 -1      1642 8.81833E-05-5.90525E-06-3.52549E-05-2.07845E-06 5.82759E-19 9.60453E-19
 -1      1643 8.87692E-05-8.63388E-06-3.42777E-05-3.18365E-06 3.63562E-20 2.99294E-18
 -1      1644 9.02564E-05-1.21028E-05-3.35014E-05-2.76620E-06-8.31019E-19-9.87032E-19
 -1      1645 8.94181E-05-9.58220E-06-3.42152E-05-2.70932E-06 1.01864E-18-8.14421E-19
 -1      1646 8.98427E-05-1.14850E-05-3.35476E-05-4.76306E-06-1.08028E-18-8.63342E-19
 -1      1647 9.17045E-05-1.65629E-05-3.22152E-05-2.81107E-06-2.47889E-18-8.23128E-19
 -1      1648 9.08655E-05-1.39921E-05-3.29500E-05-2.84373E-06-1.16298E-18-8.48543E-19
 -1      1649 9.11482E-05-1.50769E-05-3.25992E-05-5.40418E-06 2.24159E-19-3.00795E-18
 -1      1650 9.30397E-05-2.07752E-05-3.09837E-05-2.48941E-06-2.51521E-18 2.06398E-19
 -1      1651 9.22855E-05-1.84233E-05-3.16614E-05-2.58186E-06-3.48141E-18 1.78022E-18
 -1      1652 9.24433E-05-1.88041E-05-3.15804E-05-5.20707E-06-1.57485E-18-1.71101E-19
 -1      1653 9.41075E-05-2.42198E-05-2.99647E-05-1.94968E-06-3.01309E-18 3.30796E-19
 -1      1654 9.35184E-05-2.23588E-05-3.05035E-05-2.06674E-06-3.04601E-18 8.93891E-19
 -1      1655 9.35763E-05-2.22064E-05-3.06214E-05-4.40968E-06-2.31451E-18 6.39573E-19
 -1      1656 9.48548E-05-2.66373E-05-2.92342E-05-1.31277E-06-4.75796E-18-6.35794E-19
 -1      1657 9.44464E-05-2.54088E-05-2.95982E-05-1.42560E-06-3.64835E-18-7.05678E-19
 -1      1658 9.44656E-05-2.49494E-05-2.98291E-05-3.26949E-06-2.71973E-18-8.38033E-19
 -1      1659 9.53273E-05-2.79036E-05-2.88775E-05-8.80795E-07-3.04920E-18 4.47802E-20
 -1      1660 9.51544E-05-2.73185E-05-2.90788E-05-1.11743E-06-3.80537E-18 2.83195E-19
 -1      1661 9.51906E-05-2.67807E-05-2.93437E-05-2.34624E-06-2.01207E-18 4.08634E-19
 -1      1662 9.58390E-05-2.79764E-05-2.90989E-05-1.69882E-06 6.87470E-21 1.26665E-18
 -1      1663 2.25088E-05-7.41861E-05 1.55574E-05-7.71094E-06-6.10414E-18 2.62665E-18
 -1      1664 2.58446E-05-8.34890E-05 1.75505E-05 1.29936E-06-1.19764E-17 4.43210E-18
 -1      1665 2.02867E-05-4.60498E-05 6.07305E-06-9.72521E-07-1.10792E-18 2.19858E-18
 -1      1666 2.55820E-05-6.88633E-05 1.17997E-05-3.40288E-06-4.72898E-18 9.74723E-19
 -1      1667 3.19439E-05-1.63025E-05-9.24565E-06 2.32361E-05 2.71898E-18 2.61987E-18
 -1      1668 2.84367E-05-3.87048E-05-7.89707E-07 6.67320E-06 1.48061E-18 1.69576E-18
 -1      1669 6.91543E-05-2.44446E-06-2.82697E-05 5.61133E-05 2.61648E-18 1.59750E-18
 -1      1670 4.73072E-05-1.15419E-05-1.81824E-05 3.22942E-05 2.96462E-18 2.28529E-18
 -1      1671 1.32871E-04-1.39098E-05-4.80308E-05 7.80552E-05 1.81096E-18 6.83386E-18
 -1      1672 9.13032E-05-2.90814E-06-3.79486E-05 6.24422E-05 1.73303E-18 3.81165E-18
 -1      1673 2.07908E-04-4.38441E-05-6.51793E-05 6.07515E-05 2.98050E-18 1.16594E-17
 -1      1674 1.60240E-04-2.21819E-05-5.65408E-05 6.80079E-05 1.65849E-18 8.54063E-18
 -1      1675 2.57145E-04-6.45214E-05-7.54470E-05 2.89077E-05 3.23503E-18 8.81677E-18
 -1      1676 2.30595E-04-4.94690E-05-7.18909E-05 5.84229E-05 5.11767E-18 1.13909E-17
 -1      1677 2.53165E-04-6.19484E-05-7.54495E-05-2.28623E-05 2.67599E-18 2.96716E-18
 -1      1678 2.58499E-04-6.46373E-05-7.63076E-05 1.25059E-05 2.68827E-18 6.95811E-18
 -1      1679 2.11422E-04-4.20147E-05-6.74877E-05-6.49804E-05 4.25883E-18-3.77777E-18
 -1      1680 2.47230E-04-6.09794E-05-7.29439E-05-4.04418E-05 3.01512E-18 1.30485E-18
 -1      1681 1.45347E-04-1.67713E-05-5.27007E-05-7.35757E-05 8.39833E-18-9.42070E-18
 -1      1682 1.89503E-04-3.54976E-05-6.08261E-05-7.32917E-05 6.04104E-18-6.10541E-18
 -1      1683 8.33230E-05-4.60788E-06-3.42927E-05-5.57880E-05 1.27733E-17-1.16035E-17
 -1      1684 1.20406E-04-1.13160E-05-4.40916E-05-7.34042E-05 9.85269E-18-1.07370E-17
 -1      1685 4.46275E-05-1.91814E-05-1.42150E-05-2.50563E-05 1.38210E-17-1.05811E-17
 -1      1686 6.42319E-05-7.45886E-06-2.45594E-05-4.85830E-05 1.30799E-17-1.16289E-17
 -1      1687 2.57943E-05-4.39855E-05 2.34655E-06-2.10015E-06 9.43425E-18-7.71266E-18
 -1      1688 2.65792E-05-2.13492E-05-5.35298E-06-1.54108E-05 1.37931E-17-1.14510E-17
 -1      1689 2.45807E-05-7.01463E-05 1.31083E-05 3.19334E-06 1.83806E-18-3.74209E-18
 -1      1690 1.94164E-05-5.04198E-05 8.25379E-06 3.59937E-06 6.68309E-18-6.74482E-18
 -1      1691 2.42612E-05-7.99916E-05 1.71931E-05-1.81615E-06-3.66974E-18-2.51992E-18
 -1      1692 2.22878E-05-7.48884E-05 1.61461E-05 7.78191E-06 7.08967E-19-1.95834E-18
 -1      1693 2.02071E-05-6.36712E-05 1.29953E-05-5.01793E-06-9.81838E-18-4.16571E-18
 -1      1694 2.46320E-05-7.75638E-05 1.61036E-05 1.63938E-06-5.52774E-18-3.58528E-18
 -1      1695 2.03751E-05-3.49850E-05 2.22067E-06 4.71914E-06-1.25429E-17-6.34195E-18
 -1      1696 2.42436E-05-5.80716E-05 8.54023E-06-1.06787E-06-1.11029E-17-4.90660E-18
 -1      1697 3.66484E-05-9.14217E-06-1.35157E-05 3.09350E-05-1.08691E-17-7.17013E-18
 -1      1698 2.96736E-05-2.81782E-05-4.96722E-06 1.26900E-05-1.28410E-17-5.87417E-18
 -1      1699 7.67799E-05-1.19907E-06-3.15182E-05 6.09282E-05-8.63127E-18-6.92619E-18
 -1      1700 5.28914E-05-5.89772E-06-2.21657E-05 3.94380E-05-1.06099E-17-6.78897E-18
 -1      1701 1.37833E-04-1.46997E-05-4.94329E-05 7.82924E-05-5.33292E-18-9.01328E-18
 -1      1702 9.86361E-05-3.11046E-06-4.03965E-05 6.60133E-05-6.24433E-18-8.58553E-18
 -1      1703 2.02258E-04-4.07432E-05-6.41225E-05 6.68880E-05-4.21378E-18-7.30989E-18
 -1      1704 1.61255E-04-2.12823E-05-5.70541E-05 7.40365E-05-5.48750E-18-8.51183E-18
 -1      1705 2.45593E-04-6.02342E-05-7.33820E-05 2.78610E-05-1.74912E-18-4.52443E-18
 -1      1706 2.18489E-04-4.54983E-05-6.93397E-05 5.51552E-05-2.97610E-18-6.14353E-18
 -1      1707 2.49887E-04-6.08362E-05-7.49074E-05-2.25038E-05-5.50995E-19-2.64931E-18
 -1      1708 2.51573E-04-6.20903E-05-7.51952E-05 1.24989E-05-1.16806E-18-3.73171E-18
 -1      1709 2.16678E-04-4.37089E-05-6.88876E-05-6.40840E-05 1.74171E-20-2.65630E-18
 -1      1710 2.45900E-04-6.01214E-05-7.31268E-05-3.89959E-05 5.03349E-19-2.55423E-18
 -1      1711 1.52343E-04-1.73015E-05-5.50063E-05-7.58792E-05-1.37092E-18 2.85450E-19
 -1      1712 1.96773E-04-3.74710E-05-6.29125E-05-7.19567E-05-7.91552E-19-1.89312E-18
 -1      1713 9.13633E-05-2.27306E-06-3.78768E-05-6.36598E-05-3.25769E-18 1.74658E-18
 -1      1714 1.28207E-04-1.12175E-05-4.68885E-05-7.82549E-05-1.89735E-18 7.35225E-19
 -1      1715 4.93284E-05-9.09316E-06-1.95569E-05-3.55292E-05-4.80606E-18 2.96546E-18
 -1      1716 7.08023E-05-1.47921E-06-2.90105E-05-5.77981E-05-3.36357E-18 2.61140E-18
 -1      1717 3.14817E-05-3.76072E-05-2.01222E-06-1.07761E-05-8.99549E-18 2.53263E-18
 -1      1718 3.67478E-05-1.58806E-05-1.08659E-05-2.83413E-05-5.90890E-18 2.69441E-18
 -1      1719 2.55060E-05-6.81486E-05 1.16426E-05 2.28609E-06-1.27241E-17 2.78960E-18
 -1      1720 1.98374E-05-4.37467E-05 5.56509E-06-5.35205E-07-1.09775E-17 2.99765E-18
 -1      1721 2.54603E-05-8.17625E-05 1.72180E-05-2.15066E-06-1.29867E-17 2.43014E-18
 -1      1722 2.22788E-05-7.23179E-05 1.51978E-05 5.94143E-06-1.41416E-17 2.20229E-18
 -1      1723 1.10410E-04-3.21872E-05-3.28426E-05 4.68654E-05 7.95364E-19 2.50468E-18
 -1      1724 6.89319E-05-3.75616E-05-1.51033E-05 3.83304E-05 7.33531E-19 1.15662E-18
 -1      1725 9.55360E-05-2.81345E-05-2.89278E-05 8.03886E-07-4.01846E-18-1.36523E-18
 -1      1726 9.58257E-05-2.74113E-05-2.93494E-05 2.38968E-06-1.65988E-18 2.16357E-19
 -1      1727 1.93057E-05-5.40012E-05 1.00699E-05 1.23972E-05-5.70180E-18 3.66638E-18
 -1      1728 3.80630E-05-4.61872E-05-4.67893E-08 2.56362E-05-1.78809E-18 3.41254E-18
 -1      1729 1.29744E-05-5.57775E-05 1.33251E-05-1.05077E-06-7.58507E-18 4.41855E-18
 -1      1730 1.57935E-04-3.38070E-05-5.03628E-05 3.96588E-05-9.83617E-19 7.04138E-18
 -1      1731 1.93626E-04-3.43407E-05-6.42691E-05 2.44172E-05 1.88804E-18 3.98275E-18
 -1      1732 2.15233E-04-3.48462E-05-7.16213E-05 1.04152E-05 4.55704E-18 3.66151E-18
 -1      1733 2.11698E-04-3.51715E-05-7.01042E-05-1.31617E-05 5.46506E-18 2.07650E-18
 -1      1734 1.89130E-04-3.55513E-05-6.13772E-05-3.35096E-05 7.11862E-18-1.36372E-18
 -1      1735 1.47732E-04-3.30047E-05-4.68121E-05-4.37178E-05 7.86004E-18-4.76117E-18
 -1      1736 1.04077E-04-3.58948E-05-2.92465E-05-4.20026E-05 8.04935E-18-5.45489E-18
 -1      1737 6.34059E-05-4.02341E-05-1.17970E-05-3.47174E-05 7.92230E-18-8.00806E-18
 -1      1738 3.21059E-05-4.61355E-05 2.38333E-06-2.14176E-05 3.47114E-18-8.83106E-18
 -1      1739 1.61042E-05-5.19685E-05 1.08361E-05-9.08085E-06 6.70850E-19-5.32784E-18
 -1      1740 1.27194E-05-5.34954E-05 1.27324E-05 4.28966E-06-2.41341E-18-5.44303E-18
 -1      1741 2.15530E-05-4.85952E-05 7.46821E-06 1.69567E-05-4.59473E-18-5.28252E-18
 -1      1742 4.25125E-05-4.08422E-05-3.63521E-06 2.90745E-05-7.47676E-18-4.24480E-18
 -1      1743 7.41930E-05-3.29243E-05-1.87341E-05 4.05843E-05-6.74238E-18-3.40550E-18
 -1      1744 1.14449E-04-2.93613E-05-3.54325E-05 4.72385E-05-4.83529E-18-4.52739E-18
 -1      1745 1.56996E-04-3.04188E-05-5.11776E-05 4.35304E-05-3.92367E-18-6.09864E-18
 -1      1746 1.90101E-04-3.20449E-05-6.33396E-05 2.81315E-05-3.78539E-18-3.63038E-18
 -1      1747 2.06869E-04-3.17658E-05-6.99707E-05 7.72005E-06-2.13325E-18-1.99836E-18
 -1      1748 2.09323E-04-3.34831E-05-7.00349E-05-1.50435E-05-1.06091E-18-2.45576E-18
 -1      1749 1.89459E-04-3.28462E-05-6.26310E-05-3.45479E-05-1.34286E-18-2.32172E-18
 -1      1750 1.52280E-04-3.06158E-05-4.92863E-05-4.59146E-05-1.73663E-18-9.20725E-19
 -1      1751 1.09865E-04-3.08899E-05-3.31197E-05-4.74645E-05-1.69788E-18 8.97855E-20
 -1      1752 7.28137E-05-3.79583E-05-1.62983E-05-4.02603E-05-3.47114E-18-6.10287E-19
 -1      1753 4.09160E-05-4.55137E-05-1.03690E-06-2.92372E-05-6.67123E-18-3.23381E-19
 -1      1754 1.93366E-05-5.25048E-05 9.65688E-06-1.36143E-05-8.20902E-18 8.44492E-19
 -1      1755 1.06052E-04-2.31704E-05-3.56040E-05-1.68546E-05-1.57450E-18 9.52023E-18
 -1      1756 8.91510E-05-1.05873E-05-3.37956E-05-1.33300E-05-2.51234E-18-8.00181E-19
 -1      1757 9.04814E-05-1.16317E-05-3.39352E-05-1.51392E-05-2.75297E-18 9.20619E-20
 -1      1758 9.24880E-05-1.38747E-05-3.38534E-05-1.60045E-05-2.68444E-18 1.22174E-18
 -1      1759 9.42052E-05-1.58211E-05-3.40974E-05-1.76653E-05-2.68581E-18 2.77165E-18
 -1      1760 9.34158E-05-1.63480E-05-3.30441E-05-1.37730E-05-2.83069E-18 7.00761E-19
 -1      1761 8.62130E-05-7.67575E-06-3.37297E-05-7.86712E-06-1.66205E-18-2.61401E-18
 -1      1762 8.66168E-05-7.97423E-06-3.37637E-05-9.25657E-06-1.91550E-18-2.31411E-18
 -1      1763 8.55968E-05-7.03814E-06-3.37272E-05-5.32293E-06-1.25657E-18-3.04241E-18
 -1      1764 8.58309E-05-7.21683E-06-3.37421E-05-6.62788E-06-1.45506E-18-2.86762E-18
 -1      1765 8.75961E-05-9.86929E-06-3.33432E-05-6.93197E-06-1.66152E-18-2.60686E-18
 -1      1766 8.52630E-05-6.67999E-06-3.37308E-05-2.89063E-06-7.95945E-19-3.26085E-18
 -1      1767 8.53834E-05-6.77456E-06-3.37366E-05-4.13087E-06-9.95518E-19-3.13895E-18
 -1      1768 8.69614E-05-9.15789E-06-3.33767E-05-4.54024E-06-1.15879E-18-2.98040E-18
 -1      1769 8.51328E-05-6.53219E-06-3.37343E-05-5.17912E-07-3.40333E-19-3.31783E-18
 -1      1770 8.51682E-05-6.56062E-06-3.37357E-05-1.72821E-06-5.54859E-19-3.30269E-18
 -1      1771 8.66306E-05-8.77971E-06-3.33971E-05-2.21889E-06-7.36286E-19-3.14746E-18
 -1      1772 8.51781E-05-6.56966E-06-3.37359E-05 1.84621E-06 1.56767E-19-3.33174E-18
 -1      1773 8.51365E-05-6.53675E-06-3.37343E-05 6.34905E-07-6.38383E-20-3.31220E-18
 -1      1774 8.65330E-05-8.66642E-06-3.34037E-05 6.53766E-08-1.99115E-19-3.18244E-18
 -1      1775 8.54086E-05-6.79960E-06-3.37367E-05 4.25349E-06 6.13806E-19-3.36185E-18
 -1      1776 8.52809E-05-6.69904E-06-3.37307E-05 3.01005E-06 3.97518E-19-3.39156E-18
 -1      1777 8.66484E-05-8.79934E-06-3.33964E-05 2.35086E-06 3.19502E-19-3.21428E-18
 -1      1778 8.58644E-05-7.25233E-06-3.37419E-05 6.71586E-06 1.10745E-18-3.25859E-18
 -1      1779 8.56270E-05-7.07032E-06-3.37272E-05 5.42813E-06 8.80037E-19-3.33360E-18
 -1      1780 8.69957E-05-9.19590E-06-3.33753E-05 4.65552E-06 8.20335E-19-3.18545E-18
 -1      1781 8.66764E-05-8.04140E-06-3.37623E-05 9.37823E-06 1.70496E-18-2.83309E-18
 -1      1782 8.62562E-05-7.72510E-06-3.37287E-05 7.95712E-06 1.36223E-18-3.06426E-18
 -1      1783 8.76466E-05-9.92779E-06-3.33407E-05 7.03179E-06 1.34274E-18-3.00075E-18
 -1      1784 8.80876E-05-9.38847E-06-3.38173E-05 1.22574E-05 2.17866E-18-2.22936E-18
 -1      1785 8.73481E-05-8.83082E-06-3.37454E-05 1.06643E-05 1.92098E-18-2.61466E-18
 -1      1786 8.87663E-05-1.11618E-05-3.32899E-05 9.50656E-06 1.94890E-18-2.49618E-18
 -1      1787 9.06306E-05-1.18401E-05-3.39272E-05 1.53057E-05 2.67392E-18-9.55771E-19
 -1      1788 8.92506E-05-1.07410E-05-3.37875E-05 1.35161E-05 2.34305E-18-1.66865E-18
 -1      1789 9.06624E-05-1.32236E-05-3.32067E-05 1.19787E-05 2.44837E-18-1.70472E-18
 -1      1790 9.58749E-05-1.70342E-05-3.39928E-05 1.76931E-05 2.72436E-18 1.51794E-18
 -1      1791 9.28555E-05-1.43430E-05-3.38266E-05 1.61965E-05 2.61889E-18-1.78936E-20
 -1      1792 9.39690E-05-1.68871E-05-3.30238E-05 1.38974E-05 2.71446E-18-3.48104E-19
 -1      1793 1.01924E-04-2.50942E-05-3.33590E-05 1.44245E-05 2.32569E-18 4.61887E-18
 -1      1794 9.80754E-05-1.96163E-05-3.36250E-05 1.69665E-05 2.51279E-18 2.56497E-18
 -1      1795 9.73280E-05-2.18540E-05-3.24272E-05 1.32510E-05 2.72660E-18 1.53504E-18
 -1      1796 9.87509E-05-2.61350E-05-3.13420E-05 9.43689E-06 2.30025E-18 3.97049E-18
 -1      1797 1.00155E-04-1.95627E-05-3.42177E-05-1.88713E-05-2.21143E-18 5.22312E-18
 -1      1798 9.53087E-05-2.72850E-05-2.91846E-05 4.06892E-06 1.77011E-18 2.88433E-18
 -1      1799 9.77398E-05-2.73904E-05-3.01939E-05 6.40289E-06 1.90466E-18 3.59739E-18
 -1      1800 9.75748E-05-2.56144E-05-3.08322E-05 8.76228E-06 2.27283E-18 2.23916E-18
 -1      1801 9.98140E-05-2.25416E-05-3.28358E-05-1.44698E-05-2.44795E-18 4.09789E-18
 -1      1802 9.69575E-05-2.69783E-05-2.98765E-05-5.70757E-06-1.91819E-18 3.57564E-18
 -1      1803 9.51487E-05-2.70331E-05-2.91656E-05-3.90091E-06-1.64118E-18 3.08551E-18
 -1      1804 9.43291E-05-2.72344E-05-2.86579E-05-2.42431E-06-1.43174E-18 2.96055E-18
 -1      1805 9.35571E-05-2.73155E-05-2.83524E-05-1.57138E-06-1.24319E-18 2.46778E-18
 -1      1806 9.55033E-05-2.65452E-05-2.95746E-05-4.47693E-06-1.84608E-18 1.75737E-18
 -1      1807 9.30313E-05-2.73661E-05-2.80834E-05-7.45979E-07-1.01569E-18 2.33029E-18
 -1      1808 9.27286E-05-2.74290E-05-2.79609E-05-3.08421E-07-8.43473E-19 2.04035E-18
 -1      1809 9.42931E-05-2.72214E-05-2.87654E-05-1.83388E-06-1.42118E-18 1.41013E-18
 -1      1810 9.24514E-05-2.74559E-05-2.78246E-05 1.45975E-07-7.17045E-19 1.93972E-18
 -1      1811 9.24183E-05-2.75314E-05-2.77942E-05 3.69294E-07-6.70091E-19 1.74272E-18
 -1      1812 9.35892E-05-2.75267E-05-2.83290E-05-3.70365E-07-1.00173E-18 1.13801E-18
 -1      1813 9.23135E-05-2.75623E-05-2.77355E-05 6.08214E-07-5.52971E-19 1.76939E-18
 -1      1814 9.24262E-05-2.76467E-05-2.77541E-05 7.11376E-07-4.12277E-19 1.50148E-18
 -1      1815 9.32653E-05-2.77102E-05-2.81073E-05 4.30385E-07-7.06936E-19 8.75950E-19
 -1      1816 9.24300E-05-2.76842E-05-2.77416E-05 8.21543E-07-6.00909E-19 1.38763E-18
 -1      1817 9.26151E-05-2.77700E-05-2.77856E-05 8.54490E-07-7.90528E-19 1.29535E-18
 -1      1818 9.31989E-05-2.78523E-05-2.80140E-05 8.39810E-07-6.67998E-19 6.19988E-19
 -1      1819 9.26821E-05-2.78109E-05-2.78000E-05 8.87243E-07-8.17375E-19 1.45648E-18
 -1      1820 9.28956E-05-2.78925E-05-2.78555E-05 8.79281E-07-6.20433E-19 1.44520E-18
 -1      1821 9.32904E-05-2.79745E-05-2.79976E-05 1.01363E-06-7.23726E-19 6.87834E-19
 -1      1822 9.29954E-05-2.79334E-05-2.78843E-05 8.66628E-07-6.51330E-19 1.52809E-18
 -1      1823 9.32111E-05-2.80074E-05-2.79428E-05 8.36171E-07-6.34466E-19 1.24544E-18
 -1      1824 9.34696E-05-2.80820E-05-2.80261E-05 1.04621E-06-6.77912E-19 7.35041E-19
 -1      1825 9.33241E-05-2.80457E-05-2.79784E-05 7.98909E-07-7.47153E-19 9.35098E-19
 -1      1826 9.35275E-05-2.81104E-05-2.80351E-05 7.57990E-07-6.13123E-19 5.20939E-19
 -1      1827 9.36894E-05-2.81754E-05-2.80788E-05 9.97602E-07-9.28585E-19 3.83092E-19
 -1      1828 9.36419E-05-2.81449E-05-2.80726E-05 7.09979E-07-6.56309E-19 2.66543E-19
 -1      1829 9.38260E-05-2.82001E-05-2.81250E-05 6.66634E-07-6.17425E-19 3.07438E-20
 -1      1830 9.39202E-05-2.82548E-05-2.81428E-05 9.07358E-07-9.57951E-19 2.09903E-19
 -1      1831 9.39354E-05-2.82302E-05-2.81620E-05 6.17274E-07-2.90707E-19-2.27521E-19
 -1      1832 9.40983E-05-2.82764E-05-2.82092E-05 5.76963E-07-2.33846E-19-1.81834E-19
 -1      1833 9.41451E-05-2.83208E-05-2.82104E-05 8.02101E-07-6.03233E-19-2.60036E-19
 -1      1834 9.42004E-05-2.83023E-05-2.82445E-05 5.32757E-07-1.10695E-19-8.76419E-20
 -1      1835 9.43438E-05-2.83407E-05-2.82867E-05 4.99297E-07-9.80850E-20 1.33071E-20
 -1      1836 9.43560E-05-2.83746E-05-2.82775E-05 7.00073E-07-2.43557E-19-2.65546E-19
 -1      1837 9.44388E-05-2.83631E-05-2.83202E-05 4.64914E-07-3.83845E-19-2.16634E-19
 -1      1838 9.45671E-05-2.83955E-05-2.83586E-05 4.41128E-07-3.63541E-19 8.66794E-20
 -1      1839 9.45512E-05-2.84179E-05-2.83426E-05 6.14110E-07-3.01097E-19-6.07433E-20
 -1      1840 9.46576E-05-2.84153E-05-2.83911E-05 4.20148E-07-1.63858E-19 1.97619E-19
 -1      1841 9.47768E-05-2.84438E-05-2.84273E-05 4.08332E-07-6.44200E-20 4.33159E-19
 -1      1842 9.47340E-05-2.84532E-05-2.84061E-05 5.53690E-07-2.31385E-19 3.56567E-22
 -1      1843 9.48669E-05-2.84623E-05-2.84601E-05 4.03787E-07-3.14436E-19 3.75873E-19
 -1      1844 9.49850E-05-2.84893E-05-2.84963E-05 4.06043E-07-2.87657E-19 4.16443E-19
 -1      1845 9.49111E-05-2.84829E-05-2.84696E-05 5.26391E-07-8.78176E-20-7.33612E-20
 -1      1846 9.50800E-05-2.85081E-05-2.85312E-05 4.20782E-07-3.42008E-19 3.35835E-19
 -1      1847 9.52063E-05-2.85363E-05-2.85702E-05 4.39235E-07-2.93356E-19 1.99720E-19
 -1      1848 9.50919E-05-2.85100E-05-2.85359E-05 5.38917E-07-3.11458E-19 5.94576E-19
 -1      1849 9.53128E-05-2.85572E-05-2.86093E-05 4.76139E-07-2.50338E-19 3.69008E-19
 -1      1850 9.54581E-05-2.85897E-05-2.86541E-05 5.13032E-07-2.94205E-19 3.57113E-19
 -1      1851 9.52886E-05-2.85380E-05-2.86087E-05 5.97756E-07-2.39480E-19 1.04413E-18
 -1      1852 9.55838E-05-2.86150E-05-2.87000E-05 5.75059E-07-5.97426E-19 4.89453E-21
 -1      1853 9.57602E-05-2.86556E-05-2.87541E-05 6.32712E-07-3.45240E-19-1.09757E-19
 -1      1854 9.55154E-05-2.85710E-05-2.86924E-05 7.09474E-07-5.71749E-19 7.72587E-19
 -1      1855 9.59137E-05-2.86878E-05-2.88096E-05 7.22735E-07-2.34000E-19-4.88941E-19
 -1      1856 9.61347E-05-2.87406E-05-2.88768E-05 8.03316E-07 1.15226E-20-9.64277E-19
 -1      1857 9.57887E-05-2.86138E-05-2.87919E-05 8.80587E-07-6.27504E-19 1.63006E-19
 -1      1858 9.63256E-05-2.87829E-05-2.89447E-05 9.23685E-07 3.78960E-19-6.12652E-19
 -1      1859 9.66055E-05-2.88530E-05-2.90291E-05 1.02872E-06 4.04087E-19-3.48674E-19
 -1      1860 9.61268E-05-2.86725E-05-2.89124E-05 1.11690E-06 1.62200E-19 1.26286E-19
 -1      1861 9.68439E-05-2.89091E-05-2.91122E-05 1.18045E-06 5.80591E-19 3.89190E-19
 -1      1862 9.71974E-05-2.90020E-05-2.92176E-05 1.30998E-06 9.30740E-19 5.43836E-19
 -1      1863 9.65497E-05-2.87550E-05-2.90590E-05 1.42213E-06 1.06580E-18 6.19700E-19
 -1      1864 9.74935E-05-2.90767E-05-2.93184E-05 1.49140E-06 4.42960E-19 3.18592E-19
 -1      1865 9.79342E-05-2.91986E-05-2.94483E-05 1.64259E-06 5.98469E-19 6.36370E-19
 -1      1866 9.70782E-05-2.88714E-05-2.92364E-05 1.79552E-06 7.99415E-19 7.69525E-19
 -1      1867 9.82976E-05-2.92974E-05-2.95681E-05 1.84733E-06 7.07220E-19 4.64527E-19
 -1      1868 9.88353E-05-2.94550E-05-2.97245E-05 2.01243E-06 4.57410E-19 4.09757E-19
 -1      1869 9.77331E-05-2.90345E-05-2.94477E-05 2.22814E-06 7.54253E-19 4.53052E-19
 -1      1870 9.92737E-05-2.95847E-05-2.98634E-05 2.22649E-06 1.60688E-20-3.81471E-20
 -1      1871 9.99114E-05-2.97843E-05-3.00460E-05 2.38999E-06-4.82179E-19 2.57646E-20
 -1      1872 9.85332E-05-2.92615E-05-2.96938E-05 2.69748E-06 1.94921E-19-5.52418E-19
 -1      1873 1.00429E-04-2.99529E-05-3.02012E-05 2.58790E-06-1.06433E-18 7.24060E-20
 -1      1874 1.01157E-04-3.01994E-05-3.04055E-05 2.72295E-06-1.13649E-18-1.93047E-20
 -1      1875 9.94925E-05-2.95736E-05-2.99713E-05 3.16006E-06-7.83571E-19-1.11747E-18
 -1      1876 1.01752E-04-3.04158E-05-3.05709E-05 2.86327E-06-8.08395E-19 3.39628E-19
 -1      1877 1.02541E-04-3.07102E-05-3.07864E-05 2.92796E-06-3.00868E-19 4.33264E-19
 -1      1878 1.00616E-04-2.99967E-05-3.02713E-05 3.54247E-06-6.08423E-19-4.20940E-19
 -1      1879 1.03203E-04-3.09821E-05-3.09515E-05 2.94941E-06-1.30004E-19 4.79091E-19
 -1      1880 1.03996E-04-3.13172E-05-3.11598E-05 2.88466E-06 5.65010E-19 5.26274E-19
 -1      1881 1.01895E-04-3.05579E-05-3.05780E-05 3.73217E-06-2.38703E-19-9.70366E-21
 -1      1882 1.04699E-04-3.16469E-05-3.13092E-05 2.70555E-06 2.77867E-20 2.75157E-19
 -1      1883 1.05400E-04-3.20001E-05-3.14827E-05 2.43836E-06-1.00095E-18 2.07771E-20
 -1      1884 1.03295E-04-3.12774E-05-3.08677E-05 3.57255E-06-1.57074E-19-1.87251E-19
 -1      1885 1.06094E-04-3.23748E-05-3.15978E-05 1.96517E-06-1.16531E-18-8.46917E-20
 -1      1886 1.06571E-04-3.26975E-05-3.17008E-05 1.42358E-06-6.13596E-19-3.89732E-19
 -1      1887 1.04742E-04-3.21483E-05-3.11110E-05 2.87101E-06-5.78484E-19-4.07328E-19
 -1      1888 1.07171E-04-3.30739E-05-3.17628E-05 5.77592E-07-4.14120E-19-3.37374E-19
 -1      1889 1.07255E-04-3.32799E-05-3.17573E-05-2.75033E-07-1.79336E-19 3.37523E-20
 -1      1890 1.06099E-04-3.31007E-05-3.12780E-05 1.43556E-06-4.65610E-19-1.09233E-19
 -1      1891 1.07629E-04-3.35643E-05-3.17534E-05-1.50345E-06-7.23320E-20 3.48557E-20
 -1      1892 1.07153E-04-3.35274E-05-3.16104E-05-2.61201E-06 3.84851E-19-3.54722E-19
 -1      1893 1.07137E-04-3.39522E-05-3.13481E-05-8.39640E-07 1.11749E-19 7.02815E-19
 -1      1894 1.07124E-04-3.35702E-05-3.15409E-05-4.08253E-06 1.91522E-19-4.21357E-19
 -1      1895 1.05987E-04-3.31517E-05-3.12567E-05-5.23769E-06 3.33427E-19-8.57290E-20
 -1      1896 1.07524E-04-3.43729E-05-3.13216E-05-3.82825E-06 1.78942E-19 1.92688E-19
 -1      1897 1.05390E-04-3.27875E-05-3.11396E-05-6.58741E-06 2.94473E-19-5.89753E-19
 -1      1898 1.03650E-04-3.19169E-05-3.07500E-05-7.40772E-06-1.18356E-19-5.37528E-19
 -1      1899 1.06886E-04-3.39336E-05-3.12264E-05-6.99676E-06-1.08172E-19-1.62342E-19
 -1      1900 1.02462E-04-3.10833E-05-3.06165E-05-8.07643E-06-2.40293E-19-9.54017E-19
 -1      1901 1.00426E-04-2.98812E-05-3.01981E-05-8.11376E-06-8.50491E-20-1.18737E-19
 -1      1902 1.05001E-04-3.23262E-05-3.11105E-05-9.32863E-06 5.81657E-20 4.77786E-19
 -1      1903 9.89293E-05-2.87773E-05-3.00787E-05-7.57590E-06-7.09129E-19-4.77118E-20
 -1      1904 9.71324E-05-2.76204E-05-2.97283E-05-6.57606E-06-6.05073E-19-3.82329E-19
 -1      1905 1.02129E-04-2.97414E-05-3.10147E-05-9.57570E-06-1.45600E-19 2.34119E-19
 -1      1906 9.59197E-05-2.67283E-05-2.96367E-05-4.74830E-06-7.30235E-20-5.31467E-19
 -1      1907 9.49299E-05-2.61057E-05-2.94377E-05-2.92583E-06 1.00221E-19 2.57304E-19
 -1      1908 9.92149E-05-2.71007E-05-3.09413E-05-6.97898E-06-4.11211E-19 1.27985E-19
 -1      1909 9.45729E-05-2.59064E-05-2.93748E-05-4.09052E-07-4.85204E-19-2.65970E-19
 -1      1910 9.46950E-05-2.61081E-05-2.93664E-05 1.55665E-06-1.95632E-19-8.73089E-19
 -1      1911 9.75334E-05-2.56771E-05-3.08557E-05-2.08658E-06-3.86280E-19 1.97378E-19
 -1      1912 9.53137E-05-2.67054E-05-2.93332E-05 3.72349E-06 4.28347E-20-1.62548E-18
 -1      1913 9.63944E-05-2.75882E-05-2.94957E-05 5.05154E-06-8.04284E-20-1.19615E-18
 -1      1914 9.78514E-05-2.62418E-05-3.07346E-05 3.21002E-06-4.53077E-19-1.06476E-18
 -1      1915 9.75279E-05-2.85907E-05-2.94923E-05 6.04348E-06-2.49504E-19-4.42945E-19
 -1      1916 9.90479E-05-2.96893E-05-2.97529E-05 6.33208E-06 4.56491E-19-2.28765E-19
 -1      1917 9.97930E-05-2.84191E-05-3.05938E-05 6.72605E-06 3.63506E-19-5.90346E-19
 -1      1918 1.00054E-04-3.05657E-05-2.97694E-05 5.99900E-06 1.30286E-18 4.63076E-19
 -1      1919 1.01430E-04-3.14280E-05-3.00307E-05 5.36390E-06 2.66987E-18 9.83501E-19
 -1      1920 1.02140E-04-3.09847E-05-3.04655E-05 7.37529E-06 1.61633E-18 1.39672E-18
 -1      1921 1.01892E-04-3.18557E-05-3.00440E-05 4.13401E-06 3.08369E-18 1.76137E-19
 -1      1922 1.02724E-04-3.22593E-05-3.02213E-05 3.00844E-06 2.55732E-18 1.42369E-18
 -1      1923 1.03743E-04-3.27979E-05-3.03653E-05 5.53896E-06 2.36137E-18 1.32745E-18
 -1      1924 1.02570E-04-3.22117E-05-3.02037E-05 1.50273E-06 1.76125E-18 2.61828E-18
 -1      1925 1.02733E-04-3.21691E-05-3.02524E-05 3.47957E-07 2.21447E-18 3.84303E-18
 -1      1926 1.04086E-04-3.33752E-05-3.02719E-05 2.44464E-06 3.22452E-18 8.37663E-19
 -1      1927 1.02109E-04-3.17895E-05-3.01886E-05-9.38575E-07 1.10973E-18 3.37923E-18
 -1      1928 1.01697E-04-3.14327E-05-3.01125E-05-1.80309E-06 4.03204E-19 3.04306E-18
 -1      1929 1.03265E-04-3.28694E-05-3.01504E-05-6.59949E-07 1.73764E-18 9.45913E-19
 -1      1930 1.00806E-04-3.08860E-05-3.00064E-05-2.59785E-06-1.27230E-18 2.57250E-18
 -1      1931 1.00034E-04-3.03673E-05-2.98457E-05-3.01504E-06-1.20079E-18 1.91174E-18
 -1      1932 1.01666E-04-3.16944E-05-2.99816E-05-2.94833E-06-6.89802E-19 7.65575E-19
 -1      1933 9.90568E-05-2.97772E-05-2.97166E-05-3.23196E-06-4.28397E-19 1.89672E-18
 -1      1934 9.81689E-05-2.92244E-05-2.95286E-05-3.16768E-06-3.17367E-19 1.82912E-18
 -1      1935 9.97096E-05-3.02451E-05-2.97730E-05-4.04133E-06-1.62126E-18 1.72536E-18
 -1      1936 9.73345E-05-2.87524E-05-2.94047E-05-2.83164E-06 1.40459E-19 1.54778E-18
 -1      1937 9.65679E-05-2.83042E-05-2.92293E-05-2.37505E-06 7.33312E-19 1.33026E-18
 -1      1938 9.62933E-05-2.78813E-05-2.93212E-05-2.85199E-06-3.46310E-19 1.26675E-18
 -1      1939 9.78117E-05-2.88346E-05-2.95580E-05-3.89806E-06-4.54480E-19 8.57835E-19
 -1      1940 9.32077E-05-2.73616E-05-2.81919E-05 1.60768E-06 1.52271E-18 2.09578E-18
 -1      1941 9.44031E-05-2.74671E-05-2.86287E-05 2.67850E-06 1.53796E-18 2.61164E-18
 -1      1942 9.52272E-05-2.70464E-05-2.92258E-05 4.05671E-06 1.87151E-18 1.54097E-18
 -1      1943 9.21539E-05-2.73477E-05-2.77495E-05 3.51627E-07 1.15028E-18 1.32766E-18
 -1      1944 9.26492E-05-2.73802E-05-2.79222E-05 8.99355E-07 1.29621E-18 1.87646E-18
 -1      1945 9.36214E-05-2.73673E-05-2.84015E-05 1.58865E-06 1.55757E-18 1.07704E-18
 -1      1946 9.17761E-05-2.73846E-05-2.75807E-05-3.00662E-07 8.87456E-19 6.94656E-19
 -1      1947 9.18925E-05-2.73583E-05-2.76280E-05-8.70766E-09 9.84161E-19 1.00878E-18
 -1      1948 9.27886E-05-2.74820E-05-2.79985E-05 2.76966E-07 1.29518E-18 3.85423E-19
 -1      1949 9.17967E-05-2.74743E-05-2.75566E-05-6.25117E-07 3.04310E-19 2.86999E-19
 -1      1950 9.17106E-05-2.74128E-05-2.75408E-05-4.72961E-07 5.86104E-19 5.71820E-19
 -1      1951 9.24724E-05-2.75743E-05-2.78235E-05-4.15140E-07 7.25530E-19 3.13353E-20
 -1      1952 9.20372E-05-2.75951E-05-2.76110E-05-7.61633E-07 3.76764E-19-1.02673E-19
 -1      1953 9.18485E-05-2.75170E-05-2.75630E-05-6.91051E-07 2.06962E-19-4.58845E-20
 -1      1954 9.24729E-05-2.76786E-05-2.77771E-05-7.58600E-07 4.21325E-19-4.84652E-19
 -1      1955 9.23859E-05-2.77279E-05-2.77055E-05-7.87938E-07 7.59516E-19-3.50049E-19
 -1      1956 9.21531E-05-2.76453E-05-2.76428E-05-7.66252E-07 6.49753E-19-1.31297E-19
 -1      1957 9.26543E-05-2.77928E-05-2.78038E-05-8.98222E-07 7.33688E-19-5.19199E-19
 -1      1958 9.27738E-05-2.78595E-05-2.78166E-05-7.51001E-07 5.49821E-19-7.16478E-19
 -1      1959 9.25314E-05-2.77798E-05-2.77497E-05-7.58206E-07 6.44838E-19-3.85939E-19
 -1      1960 9.29278E-05-2.79084E-05-2.78696E-05-9.17689E-07 6.97301E-19-5.69081E-19
 -1      1961 9.31593E-05-2.79820E-05-2.79303E-05-6.80817E-07 1.49864E-19-8.54113E-19
 -1      1962 9.29273E-05-2.79091E-05-2.78652E-05-7.03950E-07 2.56722E-19-8.24776E-19
 -1      1963 9.32373E-05-2.80182E-05-2.79538E-05-8.68771E-07 3.98149E-19-7.38221E-19
 -1      1964 9.35198E-05-2.80913E-05-2.80387E-05-5.97152E-07 1.61731E-19-5.45405E-19
 -1      1965 9.33083E-05-2.80272E-05-2.79786E-05-6.27538E-07 3.01031E-19-7.69537E-19
 -1      1966 9.35485E-05-2.81177E-05-2.80436E-05-7.84982E-07 2.28601E-19-7.08823E-19
 -1      1967 9.38448E-05-2.81862E-05-2.81378E-05-5.13281E-07-1.53436E-20-7.14956E-19
 -1      1968 9.36578E-05-2.81311E-05-2.80842E-05-5.44985E-07 1.96875E-20-6.69507E-19
 -1      1969 9.38427E-05-2.82050E-05-2.81316E-05-6.88620E-07-1.66693E-20-6.40338E-19
 -1      1970 9.41330E-05-2.82673E-05-2.82268E-05-4.38301E-07 1.21476E-18-1.16906E-18
 -1      1971 9.39700E-05-2.82206E-05-2.81796E-05-4.67163E-07 5.22756E-19-7.68998E-19
 -1      1972 9.41116E-05-2.82798E-05-2.82144E-05-5.94815E-07 6.39526E-19-9.55848E-19
 -1      1973 9.43889E-05-2.83369E-05-2.83069E-05-3.78721E-07 5.93560E-19-1.20319E-18
 -1      1974 9.42463E-05-2.82971E-05-2.82650E-05-4.01679E-07 8.67187E-19-1.16693E-18
 -1      1975 9.43545E-05-2.83434E-05-2.82911E-05-5.14132E-07 9.20453E-19-9.57906E-19
 -1      1976 9.46217E-05-2.83978E-05-2.83805E-05-3.39604E-07 1.70460E-19-1.23988E-18
 -1      1977 9.44938E-05-2.83631E-05-2.83424E-05-3.54200E-07 4.09158E-19-1.05189E-18
 -1      1978 9.45759E-05-2.83979E-05-2.83625E-05-4.54360E-07 4.65726E-19-7.97397E-19
 -1      1979 9.48444E-05-2.84542E-05-2.84516E-05-3.25461E-07 2.77419E-19-1.40557E-18
 -1      1980 9.47234E-05-2.84221E-05-2.84151E-05-3.29447E-07 3.12556E-19-1.38174E-18
 -1      1981 9.47846E-05-2.84462E-05-2.84313E-05-4.21850E-07 5.64303E-19-9.68717E-19
 -1      1982 9.50734E-05-2.85105E-05-2.85252E-05-3.40940E-07 2.95760E-19-1.86672E-18
 -1      1983 9.49497E-05-2.84782E-05-2.84875E-05-3.31965E-07 3.87710E-19-1.52866E-18
 -1      1984 9.49929E-05-2.84920E-05-2.85012E-05-4.22528E-07 6.67929E-19-1.02797E-18
 -1      1985 9.53283E-05-2.85725E-05-2.86073E-05-3.91398E-07 6.35879E-19-2.09449E-18
 -1      1986 9.51908E-05-2.85367E-05-2.85650E-05-3.66738E-07 4.00101E-19-1.99511E-18
 -1      1987 9.52160E-05-2.85392E-05-2.85769E-05-4.62706E-07 5.85696E-19-1.42279E-18
 -1      1988 9.56327E-05-2.86465E-05-2.87053E-05-4.83344E-07-2.26937E-19-1.92061E-18
 -1      1989 9.54678E-05-2.86033E-05-2.86545E-05-4.39683E-07 4.02993E-19-1.69426E-18
 -1      1990 9.54725E-05-2.85930E-05-2.86642E-05-5.49719E-07 3.13681E-19-1.41387E-18
 -1      1991 9.60148E-05-2.87404E-05-2.88278E-05-6.24783E-07-2.65413E-19-2.23643E-18
 -1      1992 9.58064E-05-2.86851E-05-2.87636E-05-5.58030E-07-3.92345E-19-2.24723E-18
 -1      1993 9.57845E-05-2.86589E-05-2.87702E-05-6.92408E-07-1.68493E-19-1.30726E-18
 -1      1994 9.65074E-05-2.88633E-05-2.89849E-05-8.25386E-07-2.39533E-19-1.65208E-18
 -1      1995 9.62366E-05-2.87902E-05-2.89019E-05-7.30557E-07-2.85247E-19-1.68466E-18
 -1      1996 9.61780E-05-2.87438E-05-2.89032E-05-9.01430E-07-4.79193E-19-1.17068E-18
 -1      1997 9.71495E-05-2.90263E-05-2.91886E-05-1.09637E-06 9.31371E-19-2.25278E-18
 -1      1998 9.67937E-05-2.89288E-05-2.90801E-05-9.67600E-07 5.23537E-19-1.54614E-18
 -1      1999 9.66834E-05-2.88558E-05-2.90727E-05-1.18928E-06 5.33705E-19-1.03119E-18
 -1      2000 9.79856E-05-2.92425E-05-2.94524E-05-1.44985E-06 3.51816E-19-2.52220E-18
 -1      2001 9.75188E-05-2.91125E-05-2.93108E-05-1.28064E-06 5.88092E-19-2.25782E-18
 -1      2002 9.73356E-05-2.90047E-05-2.92895E-05-1.56979E-06 7.50114E-19-1.83949E-18
 -1      2003 9.90659E-05-2.95276E-05-2.97911E-05-1.89710E-06-4.81963E-19-2.75154E-18
 -1      2004 9.84585E-05-2.93556E-05-2.96080E-05-1.68108E-06-3.67627E-19-2.35126E-18
 -1      2005 9.81739E-05-2.92026E-05-2.95652E-05-2.05678E-06-1.29077E-19-1.55546E-18
 -1      2006 1.00444E-04-2.99005E-05-3.02200E-05-2.44494E-06-1.16945E-18-1.45049E-18
 -1      2007 9.96645E-05-2.96754E-05-2.99866E-05-2.17756E-06-9.76604E-19-2.31015E-18
 -1      2008 9.92415E-05-2.94647E-05-2.99118E-05-2.66085E-06-9.78823E-19-9.49730E-19
 -1      2009 1.02172E-04-3.03830E-05-3.07524E-05-3.08859E-06-6.27474E-19-1.40047E-18
 -1      2010 1.01190E-04-3.00924E-05-3.04609E-05-2.77055E-06-1.00507E-18-1.05730E-18
 -1      2011 1.00583E-04-2.98108E-05-3.03400E-05-3.38330E-06-1.25172E-18-1.25958E-18
 -1      2012 1.04290E-04-3.10009E-05-3.13960E-05-3.79876E-06 6.40145E-19-1.17996E-18
 -1      2013 1.03084E-04-3.06319E-05-3.10416E-05-3.44246E-06 3.06621E-19-8.01449E-19
 -1      2014 1.02240E-04-3.02674E-05-3.08565E-05-4.20478E-06 1.18535E-19-9.93902E-19
 -1      2015 1.06812E-04-3.17827E-05-3.21457E-05-4.50007E-06-5.93578E-19-8.86430E-19
 -1      2016 1.05380E-04-3.13237E-05-3.17310E-05-4.14057E-06-3.44996E-19-1.10568E-18
 -1      2017 1.04246E-04-3.08710E-05-3.14596E-05-5.06608E-06-4.86515E-20 1.21195E-19
 -1      2018 1.09697E-04-3.27567E-05-3.29734E-05-5.03869E-06 1.13979E-19-1.21154E-18
 -1      2019 1.08077E-04-3.22020E-05-3.25145E-05-4.75065E-06-4.01954E-19-9.82631E-19
 -1      2020 1.06613E-04-3.16718E-05-3.21329E-05-5.83818E-06-9.84841E-21-5.54683E-19
 -1      2021 1.12806E-04-3.39395E-05-3.38145E-05-5.14315E-06 8.97844E-19-1.31872E-18
 -1      2022 1.11108E-04-3.32995E-05-3.33500E-05-5.06195E-06 6.49613E-19-1.21271E-18
 -1      2023 1.09315E-04-3.27329E-05-3.28376E-05-6.28238E-06 5.64990E-19-4.00865E-19
 -1      2024 1.15858E-04-3.53046E-05-3.45572E-05-4.40029E-06 2.29917E-19-1.42929E-18
 -1      2025 1.14292E-04-3.46260E-05-3.41558E-05-4.73607E-06 4.12862E-19-1.37465E-18
 -1      2026 1.12259E-04-3.41121E-05-3.35066E-05-6.01261E-06 4.72575E-19-4.39398E-19
 -1      2027 1.18362E-04-3.67093E-05-3.50461E-05-2.31038E-06 2.98440E-19-2.32134E-18
 -1      2028 1.17270E-04-3.61111E-05-3.48060E-05-3.32111E-06-1.07732E-20-1.82019E-18
 -1      2029 1.15227E-04-3.57970E-05-3.40486E-05-4.50229E-06-6.41892E-21-1.48043E-18
 -1      2030 1.19597E-04-3.77755E-05-3.51197E-05 1.47036E-06-2.85503E-19-5.02343E-19
 -1      2031 1.19427E-04-3.74928E-05-3.51466E-05-3.95750E-07 2.60357E-19-1.17953E-18
 -1      2032 1.17789E-04-3.75657E-05-3.43704E-05-1.22931E-06-1.06005E-19-1.24693E-18
 -1      2033 1.18699E-04-3.77953E-05-3.47003E-05 6.59243E-06-1.12385E-18-6.63359E-19
 -1      2034 1.19880E-04-3.81778E-05-3.50516E-05 4.04750E-06-8.43433E-19-3.30363E-19
 -1      2035 1.19207E-04-3.87745E-05-3.44293E-05 3.91790E-06-1.11128E-18-7.37647E-20
 -1      2036 1.15040E-04-3.59321E-05-3.38937E-05 1.13485E-05 1.84949E-18-2.91459E-19
 -1      2037 1.17703E-04-3.72717E-05-3.45116E-05 8.99318E-06 3.81046E-19-1.03312E-19
 -1      2038 1.18495E-04-3.83280E-05-3.42924E-05 9.93341E-06 1.37338E-19-6.57887E-19
 -1      2039 1.09070E-04-3.20673E-05-3.29894E-05 1.27150E-05 9.41305E-19 3.59963E-19
 -1      2040 1.12672E-04-3.41725E-05-3.36831E-05 1.20496E-05 1.34046E-18 1.75283E-19
 -1      2041 1.15024E-04-3.53162E-05-3.41213E-05 1.41400E-05 1.57839E-18 1.42152E-18
 -1      2042 1.03206E-04-2.79251E-05-3.23179E-05 8.31182E-06-1.05244E-19-1.25403E-18
 -1      2043 1.06328E-04-2.97755E-05-3.28374E-05 1.04206E-05 7.59841E-19-2.49134E-19
 -1      2044 1.09714E-04-3.03925E-05-3.40298E-05 1.30396E-05 1.66609E-18 8.13880E-19
 -1      2045 1.00898E-04-2.64053E-05-3.20654E-05-4.02097E-07 1.80754E-18-2.79501E-18
 -1      2046 1.01972E-04-2.67897E-05-3.22310E-05 3.64392E-06 5.98243E-19-1.85824E-18
 -1      2047 1.05611E-04-2.65715E-05-3.39872E-05 5.48806E-06 9.88329E-19-7.64527E-19
 -1      2048 1.03611E-04-2.87147E-05-3.22239E-05-8.29423E-06-8.51228E-19-2.90000E-18
 -1      2049 1.02126E-04-2.74027E-05-3.20105E-05-4.77044E-06 5.62695E-19-3.39148E-18
 -1      2050 1.05553E-04-2.67934E-05-3.38551E-05-4.76596E-06 7.33610E-19-2.38190E-18
 -1      2051 1.09067E-04-3.28516E-05-3.26942E-05-1.10449E-05-1.05987E-18-3.05477E-18
 -1      2052 1.06065E-04-3.08428E-05-3.22254E-05-9.85838E-06-9.94933E-19-2.82827E-18
 -1      2053 1.09157E-04-3.07211E-05-3.36302E-05-1.14315E-05-7.94305E-19-3.51525E-18
 -1      2054 1.13606E-04-3.59277E-05-3.32426E-05-8.35925E-06-6.12239E-19-3.61385E-18
 -1      2055 1.10838E-04-3.44842E-05-3.27499E-05-9.47845E-06-6.31992E-19-3.71734E-18
 -1      2056 1.13329E-04-3.52392E-05-3.34352E-05-1.14895E-05-5.18957E-19-3.96988E-18
 -1      2057 1.15241E-04-3.68008E-05-3.35505E-05-3.13381E-06 1.33222E-19-2.54580E-18
 -1      2058 1.13831E-04-3.63398E-05-3.32679E-05-5.31775E-06-3.99667E-19-2.48135E-18
 -1      2059 1.15317E-04-3.76036E-05-3.32974E-05-6.66727E-06-1.05522E-18-3.26855E-18
 -1      2060 1.13998E-04-3.59354E-05-3.34071E-05 1.83797E-06 1.66376E-18-3.04382E-18
 -1      2061 1.14162E-04-3.62663E-05-3.34458E-05-2.54763E-07 6.99120E-19-2.61097E-18
 -1      2062 1.14570E-04-3.74239E-05-3.30809E-05-5.37354E-07 8.62994E-19-2.13686E-18
 -1      2063 1.10824E-04-3.42171E-05-3.28097E-05 5.17995E-06 6.88247E-19-2.67469E-18
 -1      2064 1.12202E-04-3.49819E-05-3.31417E-05 3.74640E-06 1.89517E-18-2.29056E-18
 -1      2065 1.11855E-04-3.57040E-05-3.26623E-05 4.42919E-06 1.43953E-18-1.55747E-18
 -1      2066 1.06750E-04-3.22801E-05-3.19093E-05 6.67243E-06 7.42808E-22-3.06423E-18
 -1      2067 1.08796E-04-3.32024E-05-3.24227E-05 6.00642E-06-8.46834E-20-2.67155E-18
 -1      2068 1.08163E-04-3.34756E-05-3.20290E-05 7.32556E-06 7.70304E-20-3.62570E-20
 -1      2069 1.02594E-04-3.04381E-05-3.09225E-05 6.56215E-06-3.08012E-19-1.57695E-18
 -1      2070 1.04793E-04-3.13505E-05-3.14797E-05 6.58820E-06-2.76149E-20-2.17382E-18
 -1      2071 1.04240E-04-3.13036E-05-3.12719E-05 8.18818E-06-1.43609E-19-1.97111E-18
 -1      2072 9.89580E-05-2.88196E-05-3.00506E-05 5.11176E-06 4.27209E-19-1.13767E-18
 -1      2073 1.00877E-04-2.96238E-05-3.05299E-05 5.76902E-06 5.83705E-19-1.09496E-18
 -1      2074 1.00560E-04-2.93632E-05-3.05248E-05 7.35237E-06 3.17902E-19 1.42292E-19
 -1      2075 9.66142E-05-2.77322E-05-2.94987E-05 3.29365E-06-1.21417E-18-2.66039E-19
 -1      2076 9.80402E-05-2.83439E-05-2.98611E-05 4.41071E-06-6.04017E-19-9.42284E-19
 -1      2077 9.78940E-05-2.79378E-05-2.99977E-05 5.74790E-06-3.76364E-19 2.00117E-18
 -1      2078 9.61694E-05-2.68940E-05-2.96931E-05 4.05295E-06-1.59605E-18 3.19820E-18
 -1      2079 9.16992E-05-1.74608E-05-3.18392E-05 8.29961E-06-8.53594E-19 2.08642E-18
 -1      2080 9.27174E-05-1.95957E-05-3.13221E-05 8.31307E-06-8.65075E-19 2.03533E-18
 -1      2081 9.35942E-05-2.12354E-05-3.10138E-05 7.97012E-06-1.01805E-18 8.13340E-19
 -1      2082 9.45497E-05-2.32377E-05-3.05392E-05 7.34121E-06-6.46756E-19 3.65025E-19
 -1      2083 9.36813E-05-2.15904E-05-3.09046E-05 1.01396E-05-7.96327E-19 2.10554E-18
 -1      2084 9.50250E-05-2.42691E-05-3.03153E-05 6.39036E-06-1.33273E-18-9.84292E-19
 -1      2085 9.57859E-05-2.59051E-05-2.99253E-05 5.27901E-06-1.69326E-18 1.36065E-18
 -1      2086 9.65161E-05-2.63600E-05-3.00505E-05 6.28509E-06-1.00911E-18 2.21636E-18
 -1      2087 9.53529E-05-2.42948E-05-3.04573E-05 8.65012E-06-1.08651E-18 4.82648E-19
 -1      2088 8.98968E-05-1.39439E-05-3.25966E-05 7.26501E-06-3.19623E-18-3.86319E-18
 -1      2089 9.08334E-05-1.58545E-05-3.21363E-05 7.89430E-06-2.12313E-18-4.65587E-19
 -1      2090 9.15161E-05-1.82265E-05-3.14059E-05 1.00816E-05-1.98125E-18-2.83824E-19
 -1      2091 8.84343E-05-1.11507E-05-3.31801E-05 4.88546E-06-1.09367E-18-1.81133E-18
 -1      2092 8.91319E-05-1.25546E-05-3.28428E-05 6.07590E-06-1.95607E-18-1.27203E-18
 -1      2093 8.94866E-05-1.50917E-05-3.18543E-05 8.31667E-06-1.93051E-18-1.61808E-18
 -1      2094 8.77033E-05-9.72514E-06-3.34759E-05 1.58705E-06-4.92598E-20-1.29055E-18
 -1      2095 8.79830E-05-1.03248E-05-3.33279E-05 3.10167E-06-5.68869E-19-1.03293E-18
 -1      2096 8.79698E-05-1.27702E-05-3.21780E-05 4.97790E-06 8.35130E-20-1.07340E-18
 -1      2097 8.78915E-05-9.96445E-06-3.34397E-05-1.92082E-06 1.78403E-18 3.76605E-18
 -1      2098 8.76913E-05-9.66196E-06-3.35023E-05-4.14253E-07 1.23873E-18-1.41256E-19
 -1      2099 8.73972E-05-1.18404E-05-3.23224E-05 7.09527E-07 9.27364E-19 1.87323E-19
 -1      2100 8.89189E-05-1.17675E-05-3.30876E-05-4.86427E-06-5.81769E-19 2.65757E-20
 -1      2101 8.83135E-05-1.06636E-05-3.33420E-05-3.68913E-06-4.00256E-20 2.84902E-18
 -1      2102 8.79226E-05-1.25170E-05-3.22661E-05-3.54378E-06 1.14971E-19 2.22460E-18
 -1      2103 9.04594E-05-1.46644E-05-3.24891E-05-6.69261E-06-3.15229E-19-1.14253E-18
 -1      2104 8.96290E-05-1.30191E-05-3.28832E-05-6.04530E-06-9.78058E-19-1.29341E-19
 -1      2105 8.93476E-05-1.45725E-05-3.20173E-05-6.85645E-06-6.55658E-19-5.12382E-19
 -1      2106 9.20804E-05-1.79608E-05-3.17588E-05-7.25399E-06 1.48562E-19-2.40634E-18
 -1      2107 9.12337E-05-1.61261E-05-3.22158E-05-7.14766E-06 1.98437E-19-1.17743E-18
 -1      2108 9.12045E-05-1.74185E-05-3.16160E-05-8.66878E-06 3.04441E-19-5.35958E-19
 -1      2109 9.35255E-05-2.12051E-05-3.09807E-05-6.76438E-06-6.39179E-20 7.36866E-19
 -1      2110 9.27772E-05-1.94041E-05-3.14473E-05-7.08366E-06 7.35096E-19-1.22176E-18
 -1      2111 9.30091E-05-2.04368E-05-3.11138E-05-8.96057E-06 1.69213E-18-8.89030E-19
 -1      2112 9.46187E-05-2.39644E-05-3.02636E-05-5.57539E-06-1.10407E-18 3.87299E-19
 -1      2113 9.40457E-05-2.24242E-05-3.06764E-05-6.15997E-06-5.17487E-19 2.80245E-19
 -1      2114 9.44704E-05-2.31740E-05-3.05745E-05-8.06550E-06 1.01137E-18 3.00306E-19
 -1      2115 9.53715E-05-2.60984E-05-2.96774E-05-4.04931E-06-2.08553E-18-1.67858E-18
 -1      2116 9.49485E-05-2.48979E-05-2.99982E-05-4.75872E-06-1.70128E-18-9.46678E-19
 -1      2117 9.54738E-05-2.53631E-05-3.00665E-05-6.45791E-06-7.82532E-19-1.18088E-18
 -1      2118 5.39591E-05-4.21388E-05-5.84036E-06 3.84249E-05-1.64282E-18 3.16465E-18
 -1      2119 4.01590E-05-4.49101E-05 3.24233E-07 3.06795E-05-3.52281E-18 3.59269E-18
 -1      2120 1.33830E-05-3.79729E-05 9.01634E-06 4.77382E-06-4.00901E-18 5.91483E-18
 -1      2121 1.29428E-05-3.66452E-05 8.79357E-06-5.17494E-06-4.68949E-18 4.11997E-18
 -1      2122 2.66104E-05-3.88142E-05 4.10221E-06 2.51770E-05-3.85569E-18 3.56686E-18
 -1      2123 1.90508E-05-3.99927E-05 7.38481E-06 1.59634E-05-5.54658E-18 4.09329E-18
 -1      2124 9.23735E-05-4.47433E-05-2.05182E-05 4.38319E-05 7.46236E-19 5.37019E-19
 -1      2125 7.35795E-05-4.73780E-05-1.25658E-05 3.83273E-05-3.66342E-19 1.72837E-18
 -1      2126 1.31546E-04-4.44665E-05-3.68489E-05 3.93418E-05-9.31736E-21 4.57821E-18
 -1      2127 1.10178E-04-4.61514E-05-2.82261E-05 3.71287E-05 1.09691E-18 2.05956E-18
 -1      2128 8.72477E-05-8.72365E-06-3.37487E-05-1.05451E-05-2.11391E-18-1.93822E-18
 -1      2129 8.79519E-05-9.24070E-06-3.38206E-05-1.21010E-05-2.41859E-18-1.36453E-18
 -1      2130 9.04834E-05-1.30498E-05-3.32350E-05-1.18796E-05-2.53540E-18-9.10468E-19
 -1      2131 8.86865E-05-1.10586E-05-3.32948E-05-9.41841E-06-2.11447E-18-1.91392E-18
 -1      2132 1.84879E-04-3.01617E-05-6.43872E-05 1.18533E-05 2.77064E-18 9.68582E-19
 -1      2133 1.67584E-04-3.03133E-05-5.83610E-05 1.21033E-05 8.33904E-19 1.09098E-18
 -1      2134 1.84015E-04-2.38628E-05-6.74839E-05 1.56656E-06 4.39991E-18 5.01205E-19
 -1      2135 1.85453E-04-2.66058E-05-6.67123E-05 8.33425E-06 3.41651E-18 1.17568E-18
 -1      2136 1.64167E-04-1.93803E-05-6.09530E-05-2.77113E-07 2.64401E-18-2.05363E-18
 -1      2137 1.80936E-04-2.82622E-05-6.42937E-05-6.78628E-06 7.20529E-18-4.67139E-19
 -1      2138 1.82915E-04-2.51625E-05-6.65286E-05 6.14768E-07 6.36376E-18 1.00797E-18
 -1      2139 1.66175E-04-3.44139E-05-5.58786E-05-1.73256E-05 7.95438E-18-1.31714E-18
 -1      2140 1.80931E-04-3.41231E-05-6.15908E-05-1.21144E-05 7.31921E-18-2.21923E-19
 -1      2141 1.64239E-04-2.40898E-05-5.87674E-05 3.90561E-06 7.75586E-18 1.91853E-19
 -1      2142 1.38423E-04-4.25987E-05-4.13153E-05-2.82301E-05 6.99310E-18-2.73592E-18
 -1      2143 1.58200E-04-4.14071E-05-4.90335E-05-2.66768E-05 6.72428E-18-1.96003E-18
 -1      2144 1.05670E-04-4.81169E-05-2.54234E-05-3.41747E-05 6.03342E-18-3.48512E-18
 -1      2145 1.26042E-04-4.53610E-05-3.40941E-05-3.66513E-05 6.76441E-18-3.00527E-18
 -1      2146 6.56708E-05-4.67150E-05-9.40015E-06-3.53199E-05 3.35044E-18-6.76081E-18
 -1      2147 8.56153E-05-4.60968E-05-1.71633E-05-4.12285E-05 4.94032E-18-3.63081E-18
 -1      2148 3.37293E-05-4.20305E-05 2.00404E-06-2.67066E-05 5.88688E-19-8.27255E-18
 -1      2149 4.63318E-05-4.07398E-05-3.33911E-06-3.38342E-05 2.70627E-18-9.66666E-18
 -1      2150 1.52769E-05-3.73384E-05 7.94815E-06-9.98469E-06-1.82853E-19-4.01959E-18
 -1      2151 2.09982E-05-3.57894E-05 5.27914E-06-1.94732E-05 9.13102E-19-5.57263E-18
 -1      2152 1.28363E-05-3.50652E-05 8.24346E-06 1.01176E-05-1.15281E-18-5.69545E-18
 -1      2153 1.18548E-05-3.70164E-05 9.24020E-06 7.86733E-07 3.58163E-19-5.57602E-18
 -1      2154 3.23644E-05-3.67373E-05 1.12330E-06 3.07916E-05-2.49409E-18-4.77091E-18
 -1      2155 2.28900E-05-3.71198E-05 4.96559E-06 2.23171E-05-8.77526E-19-4.93376E-18
 -1      2156 5.97537E-05-3.96008E-05-9.13010E-06 4.02115E-05-4.21187E-18-2.24035E-18
 -1      2157 4.53281E-05-4.24847E-05-2.66884E-06 3.34796E-05-3.28522E-18-2.89574E-18
 -1      2158 9.63074E-05-4.12726E-05-2.35424E-05 4.32572E-05-4.05686E-18-2.88838E-19
 -1      2159 7.78001E-05-4.36684E-05-1.57899E-05 3.85399E-05-3.72737E-18-1.62059E-18
 -1      2160 1.32705E-04-4.09757E-05-3.87873E-05 3.73177E-05-2.26031E-18-3.35298E-18
 -1      2161 1.12904E-04-4.22424E-05-3.08749E-05 3.63852E-05-3.43006E-18-1.72879E-18
 -1      2162 1.60284E-04-3.75178E-05-5.18996E-05 2.29551E-05-2.66130E-18-2.01721E-18
 -1      2163 1.43842E-04-3.84304E-05-4.51938E-05 2.72061E-05-2.32362E-18-3.37754E-18
 -1      2164 1.74551E-04-2.86247E-05-6.17398E-05 8.74433E-06-3.45378E-18-9.82135E-19
 -1      2165 1.64884E-04-3.04721E-05-5.71773E-05 1.50899E-05-3.74833E-18-2.01255E-18
 -1      2166 1.79003E-04-2.20275E-05-6.63118E-05-8.95718E-07-1.59115E-18-1.08087E-18
 -1      2167 1.75418E-04-2.27897E-05-6.47119E-05 5.03339E-06-2.24718E-18-1.55049E-18
 -1      2168 1.79892E-04-2.57498E-05-6.49013E-05-1.07508E-05-1.41031E-18-8.84938E-19
 -1      2169 1.80547E-04-2.33391E-05-6.64790E-05-2.84729E-06-1.13418E-18-1.62027E-18
 -1      2170 1.65071E-04-3.05167E-05-5.71061E-05-1.99209E-05-7.95787E-19-1.80757E-18
 -1      2171 1.79273E-04-3.04517E-05-6.23649E-05-1.56390E-05-1.06387E-18-1.79063E-18
 -1      2172 1.62003E-04-2.03039E-05-5.94915E-05-1.36698E-06-1.49755E-18-6.02452E-19
 -1      2173 1.41176E-04-4.02023E-05-4.33404E-05-3.00428E-05-9.41689E-19-1.56108E-18
 -1      2174 1.58428E-04-3.85150E-05-5.04603E-05-2.66944E-05-1.05659E-18-1.84950E-18
 -1      2175 1.12679E-04-4.41818E-05-2.98818E-05-3.74317E-05-1.11470E-18-6.89485E-19
 -1      2176 1.32206E-04-4.23829E-05-3.77788E-05-3.88261E-05-9.06749E-19-6.71697E-19
 -1      2177 1.44024E-04-5.03842E-05-3.96137E-05-2.18070E-05-7.84988E-19-1.58692E-18
 -1      2178 7.92384E-05-4.80169E-05-1.42839E-05-4.01915E-05-2.60801E-18-2.10022E-18
 -1      2179 9.64147E-05-4.49027E-05-2.19925E-05-4.43837E-05-1.92022E-18-2.98537E-18
 -1      2180 4.14924E-05-4.44397E-05-2.85790E-07-3.24602E-05-4.28853E-18-1.99624E-18
 -1      2181 5.69158E-05-4.20167E-05-6.91856E-06-4.14656E-05-2.46487E-18-2.26084E-18
 -1      2182 1.95463E-05-3.98837E-05 7.14640E-06-1.81964E-05-5.04959E-18 1.19855E-19
 -1      2183 2.80080E-05-3.96145E-05 3.83466E-06-2.69519E-05-4.61464E-18-1.26843E-18
 -1      2184 4.21427E-05-3.84796E-05-2.10476E-06-3.72799E-05-1.84484E-18-3.12259E-18
 -1      2185 1.61303E-04-4.09552E-05-5.13189E-05 1.90081E-05-1.70097E-18 4.46259E-18
 -1      2186 1.45427E-04-4.18723E-05-4.40747E-05 2.86230E-05-1.55791E-18 5.57771E-18
 -1      2187 1.45156E-04-5.25459E-05-3.89995E-05 2.14790E-05-1.25033E-18 4.21272E-18
 -1      2188 1.15299E-04-5.67305E-05-2.50144E-05 3.72575E-05 2.80791E-19 1.85056E-18
 -1      2189 9.71864E-05-2.43141E-05-3.13044E-05-1.00053E-05-2.39316E-18 3.44805E-18
 -1      2190 1.56385E-04-3.16691E-05-5.38501E-05-4.23968E-06 9.76417E-19-1.26526E-18
 -1      2191 1.62623E-04-3.68976E-05-5.32762E-05 8.04928E-06-5.59042E-19 1.68560E-18
 -1      2192 1.54103E-04-4.23804E-05-4.75302E-05 2.60935E-06-1.15800E-18 1.50158E-18
 -1      2193 9.63456E-05-2.31055E-05-3.14547E-05-1.03886E-05-2.53809E-18 1.87440E-18
 -1      2194 4.02467E-05-3.84560E-05-1.45256E-06 3.46752E-05-4.01155E-18 4.29234E-18
 -1      2195 1.90006E-05-2.86859E-05 3.48433E-06 1.39812E-05-2.99712E-18 5.33843E-18
 -1      2196 9.57141E-05-2.67948E-05-2.95209E-05-3.75994E-06-1.37032E-18-1.09588E-19
 -1      2197 7.60850E-05-5.03026E-05-1.14558E-05 4.33989E-05-2.31791E-18 1.98920E-18
 -1      2198 1.92864E-05-2.95790E-05 3.70794E-06-1.49653E-05-2.41616E-18 1.57336E-18
 -1      2199 1.19137E-04-5.59315E-05-2.70073E-05-3.59931E-05-1.20236E-18-1.56786E-18
 -1      2200 1.57844E-04-3.67056E-05-5.10904E-05-8.01687E-06-9.95475E-19-2.04135E-18
 -1      2201 1.60125E-04-1.32907E-05-6.19726E-05-1.43062E-06-1.27309E-18-2.95932E-20
 -1      2202 1.58441E-04-1.88806E-05-5.89819E-05-2.55311E-06-2.55677E-18 9.29619E-20
 -1      2203 1.56063E-04-3.46671E-05-5.12407E-05 4.04639E-06-2.15528E-18-1.46537E-19
 -1      2204 1.43736E-04-4.80867E-05-4.03557E-05 1.92512E-05-1.05286E-18-1.52085E-18
 -1      2205 1.16922E-04-5.26685E-05-2.73894E-05 3.52861E-05-1.60597E-18 9.74088E-21
 -1      2206 8.10564E-05-4.88545E-05-1.41542E-05 4.26348E-05-8.87691E-19 1.75336E-19
 -1      2207 4.70473E-05-3.86448E-05-4.21257E-06 3.85793E-05-7.79270E-20-3.06266E-18
 -1      2208 2.13919E-05-2.79547E-05 2.32340E-06 2.08667E-05 6.68097E-19-5.55230E-18
 -1      2209 1.51885E-05-2.63049E-05 4.09891E-06-6.60920E-06 4.14887E-19-5.29141E-18
 -1      2210 3.29281E-05-3.44346E-05 2.25129E-08-2.87018E-05-2.64698E-20-7.89392E-18
 -1      2211 6.73517E-05-4.67488E-05-9.08106E-06-4.04569E-05 3.90482E-19-7.09893E-18
 -1      2212 1.08106E-04-5.65811E-05-2.22382E-05-3.55222E-05 3.33816E-18-2.62961E-18
 -1      2213 1.60300E-04-4.09324E-05-5.02410E-05-5.52104E-06 6.83439E-18-6.81862E-20
 -1      2214 1.64546E-04-1.59237E-05-6.25297E-05 2.85982E-06 5.33123E-18-5.60842E-19
 -1      2215 1.41026E-04-5.39206E-05-3.69350E-05-2.06944E-05 5.44430E-18-8.52539E-19
 -1      2216 7.95858E-05-5.05352E-05-1.26444E-05-4.44005E-05-1.03592E-18-3.89323E-18
 -1      2217 9.52101E-05-2.63757E-05-2.94873E-05 4.20025E-06 1.85963E-18 5.01477E-19
 -1      2218 9.61855E-05-2.58612E-05-3.00655E-05 6.00523E-06 2.08677E-18 7.89405E-19
 -1      2219 8.81390E-05-1.11860E-05-3.30191E-05-3.66400E-06-1.04409E-18-2.79189E-18
 -1      2220 8.83721E-05-1.14555E-05-3.30011E-05-4.80553E-06-1.32492E-18-2.74201E-18
 -1      2221 8.87220E-05-1.19373E-05-3.29525E-05-5.82378E-06-1.50474E-18-2.61326E-18
 -1      2222 8.91280E-05-1.24099E-05-3.29240E-05-6.99648E-06-1.79045E-18-2.29224E-18
 -1      2223 8.98925E-05-1.38254E-05-3.25990E-05-4.90852E-06-1.33701E-18-2.41276E-18
 -1      2224 8.77950E-05-1.07284E-05-3.30626E-05 6.15987E-07-7.03793E-20-2.97526E-18
 -1      2225 8.77905E-05-1.07234E-05-3.30628E-05-4.95858E-07-3.90500E-19-2.98177E-18
 -1      2226 8.79753E-05-1.09529E-05-3.30440E-05 2.75980E-06 4.06138E-19-3.02335E-18
 -1      2227 8.78609E-05-1.08201E-05-3.30534E-05 1.63964E-06 1.45017E-19-3.01677E-18
 -1      2228 8.91131E-05-1.27751E-05-3.27195E-05 1.05067E-06-1.16752E-20-2.79613E-18
 -1      2229 8.84083E-05-1.14993E-05-3.29985E-05 4.89055E-06 9.90222E-19-2.98180E-18
 -1      2230 8.81695E-05-1.12229E-05-3.30168E-05 3.76672E-06 6.43544E-19-3.01135E-18
 -1      2231 8.93780E-05-1.31304E-05-3.26793E-05 3.02356E-06 4.96366E-19-2.78500E-18
 -1      2232 8.91858E-05-1.24808E-05-3.29194E-05 7.07919E-06 1.56967E-18-2.71038E-18
 -1      2233 8.87689E-05-1.19949E-05-3.29487E-05 5.90698E-06 1.22820E-18-2.90867E-18
 -1      2234 8.99338E-05-1.38776E-05-3.25946E-05 4.97917E-06 1.09771E-18-2.69460E-18
 -1      2235 9.04532E-05-1.40885E-05-3.27920E-05 9.22817E-06 2.09265E-18-2.22708E-18
 -1      2236 8.97738E-05-1.32781E-05-3.28375E-05 8.04923E-06 1.74677E-18-2.47011E-18
 -1      2237 9.08669E-05-1.51359E-05-3.24492E-05 6.87618E-06 1.64145E-18-2.39047E-18
 -1      2238 9.24490E-05-1.66593E-05-3.25818E-05 1.11125E-05 2.59320E-18-1.40668E-18
 -1      2239 9.13714E-05-1.53199E-05-3.26540E-05 1.00323E-05 2.26979E-18-1.88943E-18
 -1      2240 9.22878E-05-1.70885E-05-3.22077E-05 8.52176E-06 2.07052E-18-1.83647E-18
 -1      2241 1.28150E-04-6.09594E-05-2.89688E-05 3.02544E-05-5.55654E-19 2.33008E-18
 -1      2242 1.11912E-04-5.95714E-05-2.24002E-05 3.58687E-05-1.28283E-18 9.49842E-19
 -1      2243 9.42284E-05-2.71156E-05-2.87460E-05 1.77082E-06 1.69175E-18 4.47472E-20
 -1      2244 9.48298E-05-2.68922E-05-2.90448E-05 2.74334E-06 1.79878E-18 4.27957E-19
 -1      2245 9.53345E-05-2.58468E-05-2.97884E-05 4.36737E-06 2.11163E-18-3.01848E-19
 -1      2246 9.59054E-05-2.50910E-05-3.03031E-05-6.19908E-06-2.01063E-18 1.02477E-18
 -1      2247 9.52499E-05-2.58462E-05-2.97586E-05-4.27951E-06-1.83008E-18 8.86929E-19
 -1      2248 9.51355E-05-2.65394E-05-2.93412E-05-2.94692E-06-1.56133E-18 9.09258E-19
 -1      2249 9.46636E-05-2.69085E-05-2.90379E-05-1.88626E-06-1.31174E-18 8.38083E-19
 -1      2250 9.53395E-05-2.53722E-05-2.99925E-05-4.30223E-06-1.83221E-18 2.40878E-19
 -1      2251 9.44665E-05-2.72365E-05-2.87745E-05-1.03462E-06-1.14075E-18 9.11386E-19
 -1      2252 9.42068E-05-2.74493E-05-2.86080E-05-4.33304E-07-9.78890E-19 7.00602E-19
 -1      2253 9.50268E-05-2.66993E-05-2.92969E-05-1.92924E-06-1.34185E-18 2.24017E-19
 -1      2254 9.40580E-05-2.76298E-05-2.84467E-05 7.44565E-08-8.29258E-19 6.67919E-19
 -1      2255 9.39586E-05-2.77729E-05-2.83628E-05 4.03928E-07-7.56770E-19 4.87250E-19
 -1      2256 9.47216E-05-2.74259E-05-2.88540E-05-4.49966E-07-1.00564E-18 2.02864E-19
 -1      2257 9.38737E-05-2.78822E-05-2.82694E-05 6.86362E-07-7.00314E-19 2.61186E-19
 -1      2258 9.38785E-05-2.79887E-05-2.82363E-05 8.50374E-07-7.42226E-19 8.41835E-20
 -1      2259 9.45201E-05-2.78541E-05-2.85816E-05 4.20033E-07-1.00383E-18 1.17824E-20
 -1      2260 9.38468E-05-2.80603E-05-2.81876E-05 9.87854E-07-7.03963E-19-5.34405E-20
 -1      2261 9.39132E-05-2.81434E-05-2.81853E-05 1.05049E-06-5.12734E-19 5.63896E-20
 -1      2262 9.44267E-05-2.81223E-05-2.84237E-05 8.91078E-07-7.40320E-19-1.37050E-19
 -1      2263 9.39188E-05-2.81923E-05-2.81657E-05 1.09663E-06-5.40502E-19 1.10676E-19
 -1      2264 9.40174E-05-2.82580E-05-2.81812E-05 1.09846E-06-6.75893E-19 1.56403E-20
 -1      2265 9.44166E-05-2.82974E-05-2.83419E-05 1.10559E-06-5.50433E-19-5.60269E-19
 -1      2266 9.40463E-05-2.82918E-05-2.81800E-05 1.08962E-06-9.39084E-19 1.35155E-19
 -1      2267 9.41580E-05-2.83434E-05-2.82051E-05 1.05726E-06-1.10536E-18 4.43696E-20
 -1      2268 9.44617E-05-2.84130E-05-2.83099E-05 1.16012E-06-7.69783E-19-4.11232E-19
 -1      2269 9.41998E-05-2.83663E-05-2.82152E-05 1.01830E-06-1.03752E-18 2.72825E-19
 -1      2270 9.43129E-05-2.84061E-05-2.82448E-05 9.69659E-07-8.75514E-19 2.84842E-19
 -1      2271 9.45391E-05-2.84879E-05-2.83097E-05 1.12065E-06-1.01371E-18-1.93902E-19
 -1      2272 9.43608E-05-2.84208E-05-2.82615E-05 9.17745E-07-8.12263E-19 2.02444E-19
 -1      2273 9.44690E-05-2.84508E-05-2.82926E-05 8.65061E-07-6.24401E-19 2.91767E-20
 -1      2274 9.46327E-05-2.85336E-05-2.83294E-05 1.03265E-06-8.48115E-19-1.65725E-20
 -1      2275 9.45187E-05-2.84591E-05-2.83131E-05 8.12168E-07-2.74334E-19-5.78164E-20
 -1      2276 9.46197E-05-2.84811E-05-2.83441E-05 7.63964E-07-3.52679E-21 3.17475E-19
 -1      2277 9.47322E-05-2.85578E-05-2.83612E-05 9.27759E-07-5.06029E-19 3.32680E-19
 -1      2278 9.46695E-05-2.84844E-05-2.83669E-05 7.18615E-07-1.12621E-19 1.15723E-19
 -1      2279 9.47634E-05-2.84999E-05-2.83974E-05 6.81034E-07-2.38878E-19 1.48395E-19
 -1      2280 9.48322E-05-2.85657E-05-2.84004E-05 8.28271E-07 4.28308E-20 1.07830E-19
 -1      2281 9.48131E-05-2.84994E-05-2.84220E-05 6.49544E-07-2.78063E-19 3.78631E-19
 -1      2282 9.49026E-05-2.85100E-05-2.84524E-05 6.27279E-07-2.54889E-19 2.07524E-19
 -1      2283 9.49310E-05-2.85611E-05-2.84447E-05 7.50351E-07-1.76135E-19-4.42539E-20
 -1      2284 9.49531E-05-2.85065E-05-2.84787E-05 6.14655E-07-2.85929E-20 3.91337E-19
 -1      2285 9.50421E-05-2.85139E-05-2.85101E-05 6.11622E-07-4.00063E-20 4.74831E-19
 -1      2286 9.50298E-05-2.85467E-05-2.84932E-05 7.06325E-07-1.15014E-19 6.38231E-19
 -1      2287 9.50957E-05-2.85081E-05-2.85389E-05 6.22209E-07-1.45091E-19 6.37840E-19
 -1      2288 9.51895E-05-2.85138E-05-2.85726E-05 6.42000E-07 1.67415E-19 1.02547E-18
 -1      2289 9.51318E-05-2.85246E-05-2.85466E-05 7.06331E-07-4.83994E-20 9.04133E-19
 -1      2290 9.52491E-05-2.85067E-05-2.86049E-05 6.79900E-07 2.75823E-20 7.87210E-19
 -1      2291 9.53544E-05-2.85126E-05-2.86430E-05 7.26050E-07-1.56525E-19 9.58162E-19
 -1      2292 9.52422E-05-2.84966E-05-2.86062E-05 7.59457E-07 6.33949E-20 9.70776E-19
 -1      2293 9.54236E-05-2.85050E-05-2.86802E-05 7.95323E-07-7.56791E-19 9.24497E-19
 -1      2294 9.55479E-05-2.85135E-05-2.87247E-05 8.71364E-07-9.10921E-19 7.08874E-19
 -1      2295 9.53678E-05-2.84644E-05-2.86742E-05 8.74418E-07-4.70452E-19 1.61973E-19
 -1      2296 9.56314E-05-2.85067E-05-2.87682E-05 9.75994E-07-8.70364E-19 8.27814E-19
 -1      2297 9.57834E-05-2.85205E-05-2.88215E-05 1.08526E-06-7.01082E-19 4.16851E-19
 -1      2298 9.55169E-05-2.84306E-05-2.87530E-05 1.05973E-06-9.64539E-19 1.01107E-18
 -1      2299 9.58864E-05-2.85168E-05-2.88730E-05 1.22882E-06-1.35794E-20 7.15205E-19
 -1      2300 9.60756E-05-2.85397E-05-2.89374E-05 1.37395E-06 5.38722E-19 6.29250E-19
 -1      2301 9.56995E-05-2.83989E-05-2.88453E-05 1.32335E-06-2.38348E-19 8.66020E-19
 -1      2302 9.62046E-05-2.85423E-05-2.89981E-05 1.55889E-06 7.57972E-19 1.97557E-19
 -1      2303 9.64412E-05-2.85795E-05-2.90760E-05 1.74084E-06 1.07281E-18 3.28133E-19
 -1      2304 9.59276E-05-2.83755E-05-2.89536E-05 1.67156E-06 5.31202E-19 8.64144E-19
 -1      2305 9.66036E-05-2.85934E-05-2.91469E-05 1.96725E-06 1.03695E-18-1.90780E-19
 -1      2306 9.68980E-05-2.86518E-05-2.92400E-05 2.18381E-06 9.15370E-19 7.44337E-20
 -1      2307 9.62153E-05-2.83704E-05-2.90796E-05 2.10700E-06 7.72428E-19-6.31025E-20
 -1      2308 9.71031E-05-2.86849E-05-2.93214E-05 2.44755E-06 5.27156E-19-1.83576E-19
 -1      2309 9.74653E-05-2.87742E-05-2.94304E-05 2.69101E-06 4.06029E-19-4.08960E-19
 -1      2310 9.65797E-05-2.83991E-05-2.92240E-05 2.62546E-06 5.11402E-19-9.27386E-19
 -1      2311 9.77247E-05-2.88384E-05-2.95213E-05 2.98092E-06-1.62464E-19-7.78279E-19
 -1      2312 9.81630E-05-2.89713E-05-2.96456E-05 3.23486E-06-3.73262E-19-1.10196E-18
 -1      2313 9.70420E-05-2.84859E-05-2.93856E-05 3.21115E-06-3.46349E-19-1.63154E-18
 -1      2314 9.84915E-05-2.90839E-05-2.97437E-05 3.52901E-06-2.10471E-19-1.64749E-18
 -1      2315 9.90113E-05-2.92770E-05-2.98802E-05 3.76416E-06-5.93744E-19-1.23777E-18
 -1      2316 9.76293E-05-2.86664E-05-2.95607E-05 3.83012E-06-5.54459E-19-1.40035E-18
 -1      2317 9.94283E-05-2.94618E-05-2.99816E-05 4.02501E-06-6.28017E-19-6.76170E-19
 -1      2318 1.00030E-04-2.97353E-05-3.01244E-05 4.19449E-06-9.02274E-20 2.41728E-19
 -1      2319 9.83763E-05-2.89911E-05-2.97428E-05 4.42169E-06-1.93022E-19-1.10052E-18
 -1      2320 1.00559E-04-3.00226E-05-3.02236E-05 4.36346E-06-1.29603E-19-2.51461E-19
 -1      2321 1.01233E-04-3.03971E-05-3.03633E-05 4.39881E-06 1.35690E-20-3.84911E-19
 -1      2322 9.93276E-05-2.95264E-05-2.99227E-05 4.88814E-06-5.74380E-19-4.17017E-19
 -1      2323 1.01903E-04-3.08197E-05-3.04545E-05 4.39145E-06-1.61095E-19-4.22709E-19
 -1      2324 1.02624E-04-3.13083E-05-3.05791E-05 4.20222E-06-4.91776E-19-3.22608E-19
 -1      2325 1.00536E-04-3.03492E-05-3.00903E-05 5.08446E-06-2.77534E-19-3.37095E-19
 -1      2326 1.03457E-04-3.18893E-05-3.06583E-05 3.90759E-06-3.37411E-19-1.29272E-19
 -1      2327 1.04175E-04-3.24803E-05-3.07551E-05 3.39034E-06-3.43578E-19 2.98910E-19
 -1      2328 1.02054E-04-3.15277E-05-3.02383E-05 4.81223E-06-3.31849E-19 8.38025E-19
 -1      2329 1.05169E-04-3.32065E-05-3.08244E-05 2.68188E-06-7.49823E-19 4.15177E-19
 -1      2330 1.05795E-04-3.38330E-05-3.08836E-05 1.74742E-06-8.02200E-21 8.89475E-19
 -1      2331 1.03904E-04-3.30741E-05-3.03698E-05 3.82755E-06-1.79386E-19 1.46809E-18
 -1      2332 1.06879E-04-3.46109E-05-3.09562E-05 5.19401E-07 2.45623E-19 3.56188E-19
 -1      2333 1.07271E-04-3.51125E-05-3.09774E-05-8.51064E-07 7.01833E-19 1.00199E-18
 -1      2334 1.06016E-04-3.48587E-05-3.05080E-05 1.88340E-06-2.06846E-19 1.27499E-18
 -1      2335 1.08256E-04-3.57185E-05-3.10808E-05-2.60228E-06 6.57195E-19 1.09096E-18
 -1      2336 1.08223E-04-3.58234E-05-3.10774E-05-4.27035E-06-2.42198E-20 1.31126E-18
 -1      2337 1.08135E-04-3.64930E-05-3.07053E-05-1.15922E-06 2.69520E-19 9.68467E-19
 -1      2338 1.08773E-04-3.58955E-05-3.12485E-05-6.31174E-06-4.35428E-19 1.52594E-18
 -1      2339 1.08139E-04-3.52852E-05-3.12459E-05-7.89222E-06-3.08345E-19 1.08953E-18
 -1      2340 1.09724E-04-3.72530E-05-3.10404E-05-5.11517E-06 1.25835E-19 1.64585E-18
 -1      2341 1.07870E-04-3.44544E-05-3.15092E-05-9.62368E-06-1.13754E-20 4.42113E-19
 -1      2342 1.06611E-04-3.29792E-05-3.15313E-05-1.04834E-05 9.07500E-21 1.75180E-20
 -1      2343 1.10030E-04-3.62308E-05-3.15865E-05-9.17750E-06-6.72115E-19 1.21950E-18
 -1      2344 1.05397E-04-3.12055E-05-3.18651E-05-1.09931E-05-2.75045E-19 2.44606E-19
 -1      2345 1.03818E-04-2.92012E-05-3.19113E-05-1.04807E-05-3.82842E-19 5.19862E-19
 -1      2346 1.08485E-04-3.29093E-05-3.23438E-05-1.17646E-05 3.44056E-19 5.62943E-19
 -1      2347 1.02185E-04-2.71507E-05-3.22179E-05-9.03995E-06-6.87698E-19 3.21207E-19
 -1      2348 1.00915E-04-2.55222E-05-3.22461E-05-6.99085E-06-5.85095E-19 4.88788E-19
 -1      2349 1.05476E-04-2.80904E-05-3.31626E-05-1.10049E-05-2.22078E-19 6.05514E-19
 -1      2350 9.99096E-05-2.43662E-05-3.23792E-05-3.85567E-06-6.57860E-19 2.06036E-19
 -1      2351 9.95400E-05-2.40318E-05-3.23415E-05-9.55476E-07-1.02435E-18-3.83211E-19
 -1      2352 1.02676E-04-2.40800E-05-3.37341E-05-6.18818E-06-9.71428E-19 2.02986E-19
 -1      2353 9.98948E-05-2.45702E-05-3.22181E-05 2.50567E-06-6.91649E-19-8.13739E-19
 -1      2354 1.00557E-04-2.57420E-05-3.21067E-05 4.97795E-06-2.71249E-19-1.05692E-18
 -1      2355 1.01984E-04-2.33082E-05-3.37712E-05 9.26125E-07-1.18228E-18-4.94464E-20
 -1      2356 1.01918E-04-2.75871E-05-3.17753E-05 7.09373E-06 2.48171E-19-6.33164E-19
 -1      2357 1.03124E-04-2.94965E-05-3.16304E-05 8.14332E-06 9.93123E-19 3.51184E-19
 -1      2358 1.03830E-04-2.63259E-05-3.32280E-05 6.89285E-06 9.37014E-20 4.45409E-19
 -1      2359 1.04413E-04-3.14549E-05-3.12206E-05 8.24359E-06 1.43094E-18 3.81987E-19
 -1      2360 1.05499E-04-3.31045E-05-3.10876E-05 7.75901E-06 2.52457E-18 1.14658E-18
 -1      2361 1.06640E-04-3.11195E-05-3.23315E-05 9.06548E-06 1.42563E-18 1.38844E-18
 -1      2362 1.05936E-04-3.42541E-05-3.07263E-05 6.28846E-06 1.74678E-18 5.30375E-19
 -1      2363 1.06451E-04-3.50594E-05-3.06257E-05 4.82646E-06 1.63283E-18-6.19558E-22
 -1      2364 1.08471E-04-3.50933E-05-3.14032E-05 7.37289E-06 1.88669E-18 3.38673E-20
 -1      2365 1.05939E-04-3.51813E-05-3.03667E-05 2.74608E-06 2.88578E-18-5.35143E-19
 -1      2366 1.05798E-04-3.51273E-05-3.02867E-05 1.03140E-06 3.30159E-18-4.48080E-19
 -1      2367 1.08397E-04-3.67780E-05-3.06677E-05 3.49176E-06 1.80510E-18-1.22242E-18
 -1      2368 1.04672E-04-3.45028E-05-3.01260E-05-8.60410E-07 2.07592E-18-1.28694E-18
 -1      2369 1.04030E-04-3.38729E-05-3.00475E-05-2.29014E-06 7.53935E-19-1.13504E-18
 -1      2370 1.06703E-04-3.62555E-05-3.01887E-05-6.89888E-07 1.81902E-18-1.69689E-18
 -1      2371 1.02665E-04-3.28821E-05-2.99551E-05-3.57694E-06 2.90969E-19-7.97078E-19
 -1      2372 1.01737E-04-3.19780E-05-2.98679E-05-4.44010E-06-6.34233E-19 5.14589E-21
 -1      2373 1.04149E-04-3.43510E-05-2.99237E-05-3.95291E-06 4.03002E-19-1.50366E-18
 -1      2374 1.00381E-04-3.08926E-05-2.98149E-05-4.99627E-06-1.78642E-18 6.65827E-19
 -1      2375 9.93550E-05-2.99476E-05-2.97230E-05-5.19519E-06-1.49546E-18 6.08743E-19
 -1      2376 1.01385E-04-3.18862E-05-2.97978E-05-5.79491E-06-3.72305E-19-1.89360E-18
 -1      2377 9.33306E-05-2.76891E-05-2.81247E-05-4.03304E-07 6.99255E-19-4.74731E-19
 -1      2378 9.34097E-05-2.75844E-05-2.81864E-05-1.17979E-07 9.77123E-19-2.22289E-19
 -1      2379 9.32778E-05-2.78529E-05-2.80345E-05-8.09546E-07 5.21590E-19-8.35880E-19
 -1      2380 9.32337E-05-2.77623E-05-2.80462E-05-6.70345E-07 6.02100E-19-6.19410E-19
 -1      2381 9.40041E-05-2.78066E-05-2.83816E-05-4.35705E-07 8.34951E-19-8.24395E-19
 -1      2382 9.33703E-05-2.79877E-05-2.80180E-05-9.86037E-07 8.10041E-19-7.15319E-19
 -1      2383 9.32583E-05-2.79075E-05-2.80011E-05-9.34808E-07 5.77411E-19-7.30274E-19
 -1      2384 9.39164E-05-2.80153E-05-2.82514E-05-8.83531E-07 7.10077E-19-9.17488E-19
 -1      2385 9.35442E-05-2.81017E-05-2.80448E-05-1.02281E-06 6.01441E-19-4.63548E-19
 -1      2386 9.34002E-05-2.80315E-05-2.80126E-05-1.02391E-06 7.08720E-19-4.17597E-19
 -1      2387 9.39445E-05-2.81634E-05-2.81973E-05-1.08139E-06 5.53154E-19-6.75260E-19
 -1      2388 9.37558E-05-2.81975E-05-2.80951E-05-9.78390E-07 3.34243E-19-3.77688E-19
 -1      2389 9.36023E-05-2.81374E-05-2.80561E-05-1.00882E-06 5.57062E-19-2.09835E-19
 -1      2390 9.40431E-05-2.82727E-05-2.81907E-05-1.12562E-06 5.43751E-19-1.79291E-19
 -1      2391 9.39774E-05-2.82766E-05-2.81566E-05-8.91818E-07 2.42291E-19-5.03169E-19
 -1      2392 9.38276E-05-2.82264E-05-2.81158E-05-9.36282E-07 3.55666E-19-4.95300E-19
 -1      2393 9.41789E-05-2.83541E-05-2.82127E-05-1.08035E-06 4.49546E-19-3.00814E-19
 -1      2394 9.41932E-05-2.83407E-05-2.82219E-05-7.89610E-07 2.94354E-19-8.26995E-19
 -1      2395 9.40538E-05-2.82997E-05-2.81820E-05-8.37727E-07 1.86785E-19-6.58706E-19
 -1      2396 9.43298E-05-2.84138E-05-2.82508E-05-9.88964E-07 3.91070E-19-5.95759E-19
 -1      2397 9.43958E-05-2.83917E-05-2.82869E-05-6.90071E-07 7.77231E-19-9.69118E-19
 -1      2398 9.42691E-05-2.83586E-05-2.82493E-05-7.34643E-07 4.26882E-19-9.00119E-19
 -1      2399 9.44826E-05-2.84562E-05-2.82976E-05-8.81271E-07 4.01518E-19-8.28357E-19
 -1      2400 9.45840E-05-2.84316E-05-2.83503E-05-6.06209E-07 7.48099E-19-7.07196E-19
 -1      2401 9.44691E-05-2.84053E-05-2.83150E-05-6.42050E-07 9.89153E-19-7.78209E-19
 -1      2402 9.46306E-05-2.84848E-05-2.83485E-05-7.78089E-07 7.57419E-19-5.28209E-19
 -1      2403 9.47612E-05-2.84629E-05-2.84124E-05-5.47810E-07 2.15911E-19-2.26095E-19
 -1      2404 9.46548E-05-2.84417E-05-2.83787E-05-5.70904E-07 3.92603E-19-2.73675E-19
 -1      2405 9.47723E-05-2.85023E-05-2.84017E-05-6.94443E-07 3.05914E-19-3.67849E-19
 -1      2406 9.49344E-05-2.84882E-05-2.84753E-05-5.23000E-07 8.08806E-19-5.34167E-19
 -1      2407 9.48313E-05-2.84704E-05-2.84417E-05-5.29859E-07 4.91237E-19-9.57869E-20
 -1      2408 9.49099E-05-2.85111E-05-2.84570E-05-6.41867E-07 4.30703E-19-1.75425E-20
 -1      2409 9.51136E-05-2.85102E-05-2.85419E-05-5.39433E-07 5.97197E-19-3.23305E-19
 -1      2410 9.50069E-05-2.84940E-05-2.85065E-05-5.26599E-07 8.01671E-19-2.20254E-19
 -1      2411 9.50483E-05-2.85131E-05-2.85158E-05-6.30147E-07 6.93168E-19 4.05013E-19
 -1      2412 9.53113E-05-2.85321E-05-2.86163E-05-6.05229E-07 6.08000E-19-3.25229E-19
 -1      2413 9.51928E-05-2.85152E-05-2.85766E-05-5.68879E-07 7.45285E-19-2.30152E-19
 -1      2414 9.51950E-05-2.85102E-05-2.85803E-05-6.68643E-07 9.07028E-19 8.16414E-19
 -1      2415 9.55431E-05-2.85571E-05-2.87037E-05-7.29686E-07 1.22115E-19-3.54487E-19
 -1      2416 9.54027E-05-2.85373E-05-2.86566E-05-6.65329E-07 4.06963E-19-3.98102E-19
 -1      2417 9.53596E-05-2.85039E-05-2.86540E-05-7.67312E-07 4.56214E-19 5.71006E-19
 -1      2418 9.58271E-05-2.85893E-05-2.88101E-05-9.23791E-07-5.63339E-19-3.04718E-19
 -1      2419 9.56529E-05-2.85636E-05-2.87521E-05-8.26052E-07-1.97520E-19-1.81787E-19
 -1      2420 9.55534E-05-2.84959E-05-2.87410E-05-9.37456E-07-2.18515E-19 4.35412E-19
 -1      2421 9.61845E-05-2.86332E-05-2.89426E-05-1.20047E-06-3.52223E-19-8.77026E-19
 -1      2422 9.59626E-05-2.85983E-05-2.88694E-05-1.06300E-06-3.45484E-19-5.03893E-19
 -1      2423 9.57900E-05-2.84881E-05-2.88464E-05-1.19221E-06-1.75585E-19-1.65188E-19
 -1      2424 9.66395E-05-2.86949E-05-2.91091E-05-1.57444E-06 6.22726E-19-1.09915E-18
 -1      2425 9.63539E-05-2.86464E-05-2.90160E-05-1.39004E-06 7.56705E-20-1.33163E-18
 -1      2426 9.60845E-05-2.84829E-05-2.89755E-05-1.54665E-06 3.40886E-19-1.14989E-18
 -1      2427 9.72198E-05-2.87818E-05-2.93180E-05-2.06140E-06 6.27926E-19-9.18271E-19
 -1      2428 9.68520E-05-2.87144E-05-2.91999E-05-1.82249E-06 9.90170E-19-9.19372E-19
 -1      2429 9.64543E-05-2.84838E-05-2.91343E-05-2.01745E-06 5.13806E-19-9.78243E-19
 -1      2430 9.79555E-05-2.89046E-05-2.95781E-05-2.67603E-06-1.70734E-19-8.69070E-19
 -1      2431 9.74853E-05-2.88109E-05-2.94295E-05-2.37583E-06 2.75264E-19-8.51686E-19
 -1      2432 9.69184E-05-2.84965E-05-2.93284E-05-2.62158E-06 4.56003E-19-1.00365E-19
 -1      2433 9.88794E-05-2.90785E-05-2.98971E-05-3.42790E-06-1.35226E-18-8.75550E-19
 -1      2434 9.82851E-05-2.89485E-05-2.97129E-05-3.06276E-06-9.58765E-19-9.24700E-19
 -1      2435 9.74981E-05-2.85309E-05-2.95627E-05-3.37359E-06-4.22252E-19-7.34745E-19
 -1      2436 1.00026E-04-2.93272E-05-3.02801E-05-4.31382E-06-9.67839E-19-1.43430E-18
 -1      2437 9.92857E-05-2.91463E-05-3.00567E-05-3.88768E-06-1.07657E-18-1.23450E-18
 -1      2438 9.82176E-05-2.86050E-05-2.98399E-05-4.28048E-06-8.33296E-19-1.07453E-18
 -1      2439 1.01430E-04-2.96886E-05-3.07270E-05-5.30447E-06 6.79579E-20-9.65701E-19
 -1      2440 1.00525E-04-2.94351E-05-3.04636E-05-4.83651E-06-5.25282E-19-1.58277E-18
 -1      2441 9.91065E-05-2.87512E-05-3.01590E-05-5.33250E-06-7.35349E-19-1.81709E-18
 -1      2442 1.03128E-04-3.02238E-05-3.12285E-05-6.32245E-06-2.54217E-19-7.81410E-19
 -1      2443 1.02044E-04-2.98653E-05-3.09298E-05-5.85962E-06-7.12699E-20-8.21265E-19
 -1      2444 1.00206E-04-2.90277E-05-3.05127E-05-6.48780E-06-3.84167E-19-1.76389E-18
 -1      2445 1.05157E-04-3.10279E-05-3.17619E-05-7.20963E-06-2.76750E-19-3.73948E-19
 -1      2446 1.03892E-04-3.05177E-05-3.14412E-05-6.84465E-06-2.77414E-19-1.34605E-19
 -1      2447 1.01576E-04-2.95343E-05-3.08855E-05-7.64830E-06-4.39858E-19-1.43549E-18
 -1      2448 1.07554E-04-3.22355E-05-3.22880E-05-7.68517E-06 1.39810E-20 3.21621E-19
 -1      2449 1.06129E-04-3.15150E-05-3.19699E-05-7.57763E-06 2.00662E-19 7.81586E-20
 -1      2450 1.03318E-04-3.04305E-05-3.12530E-05-8.62453E-06-5.84528E-19-2.24269E-19
 -1      2451 1.10345E-04-3.39988E-05-3.27546E-05-7.30738E-06 5.49959E-19-2.03685E-20
 -1      2452 1.08824E-04-3.30181E-05-3.24750E-05-7.69649E-06 5.93234E-19 4.49857E-19
 -1      2453 1.05587E-04-3.19420E-05-3.15862E-05-9.09043E-06 5.80371E-20 8.53843E-19
 -1      2454 1.13491E-04-3.63817E-05-3.31153E-05-5.47920E-06 1.53631E-19-3.24013E-19
 -1      2455 1.12017E-04-3.51703E-05-3.29129E-05-6.65808E-06 1.65221E-19 9.43218E-20
 -1      2456 1.08587E-04-3.43149E-05-3.18680E-05-8.53736E-06 5.15070E-19 5.76124E-19
 -1      2457 1.16737E-04-3.91097E-05-3.33688E-05-1.61093E-06-1.21044E-18 9.11909E-19
 -1      2458 1.15595E-04-3.79114E-05-3.32661E-05-3.80139E-06-5.29406E-19 4.36116E-19
 -1      2459 1.12474E-04-3.76161E-05-3.21301E-05-6.27358E-06-6.56063E-19 1.06278E-18
 -1      2460 1.19378E-04-4.11834E-05-3.36147E-05 4.43064E-06-8.80636E-19 1.39629E-18
 -1      2461 1.19050E-04-4.06341E-05-3.35852E-05 1.35852E-06-9.40855E-19 1.23835E-18
 -1      2462 1.17073E-04-4.13454E-05-3.25001E-05-1.61559E-06-1.21737E-18 2.43780E-18
 -1      2463 1.20113E-04-4.07153E-05-3.40894E-05 1.14342E-05-1.82608E-19 2.05280E-18
 -1      2464 1.21143E-04-4.17726E-05-3.40398E-05 8.37973E-06-1.20385E-18 1.36651E-18
 -1      2465 1.21369E-04-4.38073E-05-3.32457E-05 5.56451E-06-7.78046E-19 3.47642E-18
 -1      2466 1.17629E-04-3.59541E-05-3.50011E-05 1.60744E-05 1.43961E-18 3.07527E-18
 -1      2467 1.20174E-04-3.91465E-05-3.48521E-05 1.48294E-05 8.50980E-19 2.88626E-18
 -1      2468 1.23333E-04-4.22965E-05-3.47165E-05 1.35659E-05-3.01325E-19 3.65470E-18
 -1      2469 1.12642E-04-2.81631E-05-3.61673E-05 1.39089E-05 2.23167E-18 2.33615E-18
 -1      2470 1.15597E-04-3.21751E-05-3.59624E-05 1.61258E-05 2.50509E-18 2.97102E-18
 -1      2471 1.21051E-04-3.49582E-05-3.69303E-05 1.78983E-05 1.71373E-18 4.53766E-18
 -1      2472 1.09003E-04-2.31886E-05-3.68919E-05 3.89682E-06 2.01615E-18-4.09342E-19
 -1      2473 1.10273E-04-2.49094E-05-3.68345E-05 8.83344E-06 2.21367E-18 1.25595E-18
 -1      2474 1.15864E-04-2.50887E-05-3.89608E-05 1.34525E-05 3.14183E-18 3.36150E-18
 -1      2475 1.10332E-04-2.57707E-05-3.65260E-05-8.03514E-06 9.25913E-19-2.04715E-18
 -1      2476 1.09026E-04-2.35323E-05-3.67685E-05-3.47782E-06 2.16581E-18-9.50434E-19
 -1      2477 1.13415E-04-2.10138E-05-3.95973E-05 5.07998E-07 2.65799E-18 9.14633E-19
 -1      2478 1.15076E-04-3.32003E-05-3.52912E-05-1.38203E-05-8.16460E-19-3.48304E-18
 -1      2479 1.12569E-04-2.92641E-05-3.56463E-05-1.22642E-05-7.72388E-19-3.82553E-18
 -1      2480 1.16149E-04-2.65385E-05-3.84613E-05-1.18693E-05 1.01464E-18-1.23421E-18
 -1      2481 1.18367E-04-3.93487E-05-3.39641E-05-1.11118E-05-1.70078E-18-2.08440E-18
 -1      2482 1.16606E-04-3.67112E-05-3.42259E-05-1.28596E-05-6.01896E-19-2.25881E-18
 -1      2483 1.20609E-04-3.66942E-05-3.59911E-05-1.46359E-05-1.83001E-18-1.52569E-18
 -1      2484 1.17932E-04-4.09514E-05-3.30041E-05-4.24442E-06-3.36414E-19-2.80892E-18
 -1      2485 1.17641E-04-4.03936E-05-3.31799E-05-7.39464E-06-1.30383E-18-2.54748E-18
 -1      2486 1.21403E-04-4.25505E-05-3.38110E-05-9.05791E-06-1.54415E-18-1.93570E-18
 -1      2487 1.14701E-04-3.91505E-05-3.23514E-05 2.67158E-06 5.74804E-19-7.74314E-19
 -1      2488 1.15691E-04-4.00384E-05-3.25295E-05-2.52745E-07 2.56201E-19-1.35595E-18
 -1      2489 1.18376E-04-4.30303E-05-3.23241E-05-8.12723E-07-9.88976E-19-2.07483E-18
 -1      2490 1.10357E-04-3.60127E-05-3.18283E-05 7.46951E-06 1.45684E-18-1.77953E-19
 -1      2491 1.12078E-04-3.74459E-05-3.20741E-05 5.51929E-06 8.37491E-19-2.76505E-19
 -1      2492 1.13336E-04-3.99423E-05-3.15108E-05 6.07410E-06 2.59940E-19 1.40094E-19
 -1      2493 1.06027E-04-3.28851E-05-3.13144E-05 9.78941E-06-2.22942E-20-9.30016E-20
 -1      2494 1.08003E-04-3.43355E-05-3.16293E-05 8.91712E-06 6.31576E-19 6.93521E-19
 -1      2495 1.08206E-04-3.58286E-05-3.10719E-05 1.02556E-05 5.51701E-19 1.06701E-18
 -1      2496 1.02147E-04-3.01982E-05-3.08049E-05 9.98519E-06-4.36574E-19 9.75362E-20
 -1      2497 1.04092E-04-3.14870E-05-3.11423E-05 1.00592E-05-4.98517E-19-1.18409E-19
 -1      2498 1.03837E-04-3.20716E-05-3.07944E-05 1.18466E-05-2.02250E-19 2.48876E-19
 -1      2499 9.88256E-05-2.79469E-05-3.03460E-05 8.50957E-06-6.47446E-19 1.50838E-18
 -1      2500 1.00581E-04-2.90639E-05-3.06537E-05 9.35070E-06-1.50537E-19 5.74937E-19
 -1      2501 1.00275E-04-2.89841E-05-3.05816E-05 1.13792E-05-5.05501E-19 9.57278E-19
 -1      2502 9.74999E-05-2.70052E-05-3.02025E-05 7.07052E-06-7.41895E-19 1.52839E-18
 -1      2503 8.83146E-05-1.58856E-05-3.11058E-05 8.93262E-06 1.46366E-19 1.43113E-18
 -1      2504 8.95531E-05-1.72929E-05-3.09495E-05 1.03197E-05-8.19370E-19-1.47435E-18
 -1      2505 8.64935E-05-1.38272E-05-3.12023E-05 4.70434E-06 1.43273E-18-1.45164E-19
 -1      2506 8.72347E-05-1.46670E-05-3.11081E-05 6.81578E-06 7.50565E-19 3.16532E-19
 -1      2507 8.70610E-05-1.65750E-05-3.01739E-05 8.97858E-06 1.82735E-18 1.47818E-18
 -1      2508 9.36749E-05-2.20217E-05-3.07334E-05 1.18102E-05-1.29575E-18 2.33012E-18
 -1      2509 9.50562E-05-2.37522E-05-3.05266E-05 1.14238E-05-1.14142E-18 6.81149E-19
 -1      2510 9.09828E-05-1.88879E-05-3.09438E-05 1.13759E-05-2.88296E-18-2.25184E-18
 -1      2511 9.23608E-05-2.05248E-05-3.07501E-05 1.17854E-05-2.12410E-18 1.30113E-18
 -1      2512 9.32952E-05-2.26405E-05-3.03036E-05 1.33256E-05-2.56375E-18 5.34536E-19
 -1      2513 9.00949E-05-1.94970E-05-3.02501E-05 1.23414E-05-5.21756E-19-5.78332E-19
 -1      2514 8.60867E-05-1.33129E-05-3.12245E-05-4.52113E-07 1.25998E-18 1.52748E-18
 -1      2515 8.60945E-05-1.33741E-05-3.12054E-05 1.92986E-06 7.85263E-19-3.74207E-19
 -1      2516 8.52582E-05-1.48255E-05-3.01295E-05 3.74796E-06 1.60055E-18-3.28030E-19
 -1      2517 8.72319E-05-1.45134E-05-3.11698E-05-5.32020E-06-6.43725E-19-3.86585E-19
 -1      2518 8.65163E-05-1.37981E-05-3.12290E-05-3.21874E-06 3.78827E-19 1.57096E-18
 -1      2519 8.52912E-05-1.48557E-05-3.01306E-05-2.20870E-06 1.02212E-18 8.06559E-19
 -1      2520 8.94921E-05-1.70377E-05-3.10336E-05-8.79866E-06-6.10195E-19-1.62157E-19
 -1      2521 8.83215E-05-1.57603E-05-3.11662E-05-7.41492E-06-9.39886E-19-3.51132E-19
 -1      2522 8.71354E-05-1.66618E-05-3.01687E-05-7.41825E-06-1.33475E-20-6.93713E-19
 -1      2523 9.20427E-05-2.00703E-05-3.08173E-05-1.03616E-05 8.62612E-19-3.24086E-19
 -1      2524 9.08048E-05-1.85785E-05-3.10063E-05-9.84173E-06 2.67475E-19-9.89887E-20
 -1      2525 9.00591E-05-1.95634E-05-3.02061E-05-1.07230E-05 3.80159E-19 3.27489E-19
 -1      2526 9.42978E-05-2.30052E-05-3.05262E-05-1.01929E-05 1.87498E-18-4.93876E-19
 -1      2527 9.32396E-05-2.15385E-05-3.07540E-05-1.04168E-05 1.71259E-18-7.54554E-19
 -1      2528 9.30900E-05-2.26723E-05-3.01953E-05-1.18263E-05 1.99132E-18-1.84381E-19
 -1      2529 9.58568E-05-2.53533E-05-3.01973E-05-8.79514E-06 7.00190E-19-1.23202E-18
 -1      2530 9.51193E-05-2.41156E-05-3.04306E-05-9.50599E-06 1.46954E-18-8.11099E-19
 -1      2531 9.55340E-05-2.53228E-05-3.01138E-05-1.10838E-05 1.24853E-18-2.04660E-18
 -1      2532 9.67233E-05-2.69806E-05-2.98703E-05-6.78385E-06-7.97132E-19-1.64006E-18
 -1      2533 9.62946E-05-2.60484E-05-3.00845E-05-7.71348E-06-2.48996E-19-6.81870E-19
 -1      2534 9.70834E-05-2.71601E-05-2.99655E-05-9.19315E-06 5.55116E-19-1.92200E-18
 -1      2535 2.71467E-05-2.31935E-05-1.43648E-06 2.16341E-05-2.63110E-18 3.84256E-18
 -1      2536 2.11795E-05-2.03792E-05-3.61497E-08 7.29146E-06-1.83555E-18 4.46048E-18
 -1      2537 9.19471E-05-5.33282E-05-1.66081E-05 4.41154E-05-2.21224E-18 2.22568E-18
 -1      2538 7.26369E-05-4.73113E-05-1.07816E-05 4.28942E-05-4.58584E-18 3.67739E-18
 -1      2539 9.36151E-05-2.74701E-05-2.83363E-05 3.76522E-07 1.27636E-18-2.93224E-19
 -1      2540 9.38986E-05-2.73345E-05-2.84837E-05 9.09859E-07 1.46115E-18-1.12728E-20
 -1      2541 9.42613E-05-2.74881E-05-2.86308E-05 4.11088E-07 1.24274E-18-6.57828E-19
 -1      2542 9.64552E-05-2.73643E-05-2.96208E-05-4.50539E-06-3.42208E-19 6.39202E-19
 -1      2543 2.09107E-05-2.06850E-05 1.80805E-07-8.39618E-06-2.38757E-19 2.99214E-18
 -1      2544 2.81449E-05-2.45871E-05-1.28630E-06-2.43603E-05-4.96573E-19-1.57252E-18
 -1      2545 5.58734E-05-3.91552E-05-7.04309E-06 4.18846E-05-4.74466E-18 4.16232E-18
 -1      2546 4.07013E-05-3.14586E-05-3.68097E-06 3.36293E-05-4.12166E-18 3.64605E-18
 -1      2547 7.27944E-05-4.31845E-05-1.22458E-05 4.21511E-05-4.41728E-18 3.76972E-18
 -1      2548 1.15908E-04-5.92998E-05-2.41427E-05-3.48311E-05-1.76903E-18-9.12360E-19
 -1      2549 1.30936E-04-5.91414E-05-3.08726E-05-2.86663E-05-1.48612E-18-4.78574E-20
 -1      2550 1.46739E-04-5.46208E-05-3.98715E-05 1.13248E-05-1.87554E-18 2.47249E-18
 -1      2551 1.38072E-04-5.96621E-05-3.37965E-05 1.99440E-05-1.09511E-18 3.24414E-18
 -1      2552 1.35264E-04-6.33182E-05-3.06917E-05 2.01698E-05-1.56955E-18 1.91758E-18
 -1      2553 1.46144E-04-1.12423E-05-5.82132E-05 1.21986E-06-1.35144E-18 1.03497E-18
 -1      2554 1.44074E-04-9.67767E-06-5.81277E-05-1.88562E-06-1.54499E-18 1.07970E-18
 -1      2555 8.78467E-05-1.08028E-05-3.30545E-05-1.51960E-06-5.70770E-19-3.08812E-18
 -1      2556 8.79516E-05-1.09245E-05-3.30457E-05-2.63903E-06-8.52420E-19-2.97965E-18
 -1      2557 8.93510E-05-1.30975E-05-3.26820E-05-2.93275E-06-8.87402E-19-2.65252E-18
 -1      2558 8.91034E-05-1.27631E-05-3.27205E-05-9.41819E-07-4.94094E-19-2.82133E-18
 -1      2559 1.35976E-04-5.89707E-05-3.30866E-05-1.66294E-05 4.00731E-18 7.04096E-19
 -1      2560 1.46456E-04-5.55188E-05-3.93242E-05-9.93879E-06 4.74863E-18 1.38765E-18
 -1      2561 1.50256E-04-1.54703E-05-5.80960E-05-2.81736E-06 2.28064E-18 2.70839E-19
 -1      2562 1.50486E-04-2.07773E-05-5.60501E-05-5.15430E-06 1.63689E-18-9.52489E-19
 -1      2563 1.47777E-04-1.37382E-05-5.79111E-05 5.89523E-06 6.48319E-18-4.08693E-20
 -1      2564 1.48902E-04-1.28346E-05-5.87484E-05 1.02422E-06 4.16486E-18-2.31875E-19
 -1      2565 1.50319E-04-2.82237E-05-5.27761E-05 1.07239E-05 6.80337E-18 1.35758E-18
 -1      2566 1.47827E-04-2.10580E-05-5.50736E-05 1.01204E-05 6.96028E-18 1.11131E-18
 -1      2567 7.46611E-05-4.72947E-05-1.14741E-05-4.40365E-05-5.50148E-19-3.19935E-18
 -1      2568 9.56704E-05-5.42654E-05-1.78875E-05-4.44664E-05-8.26492E-19-1.46010E-18
 -1      2569 1.49509E-04-4.69634E-05-4.42955E-05 1.14751E-06 4.89574E-18 1.32984E-18
 -1      2570 1.53391E-04-3.78220E-05-4.99948E-05 6.77931E-06 6.01616E-18 1.72901E-18
 -1      2571 1.43946E-04-3.43781E-05-4.70392E-05 1.43036E-05 5.93992E-18 1.89778E-18
 -1      2572 1.03457E-04-5.68490E-05-1.98764E-05-3.55810E-05 9.04208E-19-1.41666E-18
 -1      2573 1.22629E-04-5.98572E-05-2.70404E-05-2.95341E-05 2.50891E-18-5.19443E-19
 -1      2574 6.16380E-05-4.22664E-05-8.20177E-06-3.89542E-05-1.59539E-18-7.68661E-18
 -1      2575 7.99554E-05-4.85888E-05-1.35497E-05-4.11326E-05-6.35063E-19-4.71490E-18
 -1      2576 3.09312E-05-2.60487E-05-1.79470E-06-2.52667E-05-2.68615E-19-5.58449E-18
 -1      2577 4.43277E-05-3.34664E-05-4.64016E-06-3.53420E-05-6.31675E-19-8.11479E-18
 -1      2578 5.85845E-05-3.59716E-05-9.18689E-06-3.68578E-05-1.94542E-18-6.75509E-18
 -1      2579 1.72480E-05-1.98717E-05 1.28183E-06 9.48628E-07 9.37096E-19-5.12751E-18
 -1      2580 2.04944E-05-2.05644E-05 2.08927E-07-1.28906E-05 5.68253E-19-3.77268E-18
 -1      2581 2.98245E-05-2.34044E-05-2.51210E-06 2.66521E-05 1.64070E-18-4.70357E-18
 -1      2582 2.05115E-05-2.07622E-05 3.77795E-07 1.27762E-05 1.73086E-18-5.95676E-18
 -1      2583 6.39533E-05-4.10938E-05-9.55872E-06 4.35617E-05 6.45016E-19-4.48504E-19
 -1      2584 4.89780E-05-3.33476E-05-6.33655E-06 3.85630E-05 1.42725E-18-2.23934E-18
 -1      2585 9.69471E-05-5.26852E-05-1.89209E-05 4.17399E-05 4.03399E-19 1.75405E-18
 -1      2586 7.89540E-05-4.81205E-05-1.31856E-05 4.24082E-05 4.69468E-19 6.50204E-19
 -1      2587 8.02094E-05-4.59123E-05-1.44166E-05 4.19403E-05 1.50264E-18 9.32213E-19
 -1      2588 1.26015E-04-5.67322E-05-2.99415E-05 2.90067E-05-6.74874E-19 4.66292E-19
 -1      2589 1.11100E-04-5.64250E-05-2.35055E-05 3.47542E-05-3.08532E-19 1.07827E-18
 -1      2590 1.08919E-04-5.71485E-05-2.19131E-05 3.57318E-05 6.11346E-19 1.12891E-18
 -1      2591 1.44945E-04-4.97670E-05-4.12737E-05 8.72425E-06-1.30681E-19-4.55280E-19
 -1      2592 1.37785E-04-5.44713E-05-3.57377E-05 1.62767E-05 1.38490E-19-6.10287E-19
 -1      2593 1.48932E-04-3.15131E-05-5.08942E-05-4.83203E-06-1.78915E-18 7.09602E-19
 -1      2594 1.47425E-04-3.98456E-05-4.62924E-05-5.72151E-07-1.19156E-18 6.76568E-19
 -1      2595 1.44424E-04-1.40888E-05-5.64652E-05-6.29608E-06-2.12118E-18 5.96417E-19
 -1      2596 1.45540E-04-2.06385E-05-5.39082E-05-7.73230E-06-2.01657E-18 9.64771E-19
 -1      2597 1.47791E-04-2.26670E-05-5.39969E-05 4.73166E-06-7.46660E-19-9.38089E-20
 -1      2598 1.46339E-04-1.66236E-05-5.61895E-05 4.30012E-06-3.12343E-19 1.51629E-18
 -1      2599 1.47400E-04-4.22148E-05-4.53046E-05-1.93423E-06-2.13579E-18-8.91714E-19
 -1      2600 1.50814E-04-3.28993E-05-5.09580E-05 1.80397E-06-1.59835E-18-1.11830E-18
 -1      2601 1.40988E-04-2.83701E-05-4.84187E-05 8.64509E-06-1.34064E-18 6.92132E-19
 -1      2602 1.37874E-04-5.70334E-05-3.47798E-05-1.97539E-05-1.14371E-18-8.95737E-20
 -1      2603 1.44596E-04-5.30378E-05-3.96932E-05-1.31422E-05-1.67035E-18-4.98055E-19
 -1      2604 1.35075E-04-6.10650E-05-3.15676E-05-2.01553E-05-1.76278E-18 7.21990E-19
 -1      2605 4.05886E-05-3.16856E-05-3.55215E-06-3.42328E-05-1.13587E-18-3.36844E-18
 -1      2606 5.41845E-05-3.73882E-05-7.11542E-06-4.23107E-05-1.23455E-18-5.22408E-18
 -1      2607 9.50703E-05-2.00236E-05-3.22113E-05-1.17546E-05-2.69787E-18 7.49545E-19
 -1      2608 9.54681E-05-2.33659E-05-3.09266E-05-7.97148E-06-2.36057E-18 9.26310E-19
 -1      2609 9.50705E-05-2.25538E-05-3.10529E-05-7.66279E-06-2.26114E-18 2.60650E-19
 -1      2610 9.32163E-05-1.76216E-05-3.24148E-05-1.14092E-05-2.68395E-18-5.18808E-20
 -1      2611 9.63304E-05-2.50943E-05-3.05556E-05 7.59741E-06 2.27563E-18 9.64539E-19
 -1      2612 9.74525E-05-2.37779E-05-3.15963E-05 1.06968E-05 2.44493E-18 1.25446E-18
 -1      2613 9.58871E-05-2.13026E-05-3.20207E-05 1.18990E-05 2.63029E-18 3.19636E-19
 -1      2614 9.58753E-05-2.41607E-05-3.07681E-05 7.68945E-06 2.35221E-18-4.17867E-20
 -1      2615 1.46278E-04-5.27104E-05-4.01383E-05 2.90929E-06 4.02390E-18 2.62199E-18
 -1      2616 9.08009E-05-1.50439E-05-3.24580E-05-6.80527E-06-1.81993E-18-1.92520E-18
 -1      2617 8.97103E-05-1.31925E-05-3.28447E-05-7.95444E-06-1.94937E-18-2.02794E-18
 -1      2618 9.03396E-05-1.39109E-05-3.28171E-05-9.18618E-06-2.30021E-18-1.67232E-18
 -1      2619 1.08117E-04-5.82867E-05-2.10211E-05 3.75017E-05-2.94111E-18 1.87781E-18
 -1      2620 1.35034E-04-1.08981E-05-5.35813E-05-5.69048E-06-1.98163E-18 1.44589E-18
 -1      2621 9.42435E-05-1.90813E-05-3.22576E-05 1.16083E-05 2.55299E-18-6.23602E-19
 -1      2622 1.49405E-04-2.69775E-05-5.27792E-05-7.64955E-06 9.84252E-19-8.26704E-19
 -1      2623 1.44566E-04-3.23438E-05-4.85096E-05-9.83881E-06 4.32199E-19-4.05517E-19
 -1      2624 1.38413E-04-2.16516E-05-5.04644E-05-1.17431E-05 7.42636E-19 1.82874E-18
 -1      2625 1.47035E-04-4.48412E-05-4.43191E-05-6.78740E-06-7.19554E-19 4.00858E-19
 -1      2626 1.49179E-04-5.05211E-05-4.23837E-05 2.21492E-06-1.72003E-18 2.22007E-18
 -1      2627 1.43303E-04-5.59079E-05-3.74397E-05 3.69345E-06-1.80078E-18 1.46007E-18
 -1      2628 9.20476E-05-1.62336E-05-3.25331E-05-1.03947E-05-2.47703E-18-7.52483E-19
 -1      2629 1.44175E-04-4.95773E-05-4.05915E-05-2.46800E-06-2.49758E-18 5.87841E-19
 -1      2630 4.10273E-05-2.52492E-05-6.17672E-06-2.88204E-05-2.98156E-19-2.56100E-18
 -1      2631 9.73560E-05-2.65165E-05-3.03536E-05 9.18965E-06-1.30571E-18 1.61175E-18
 -1      2632 9.66332E-05-2.54660E-05-3.05041E-05 1.01786E-05-1.34419E-19 1.35929E-18
 -1      2633 9.47141E-05-2.06032E-05-3.17174E-05 9.67565E-06 2.38989E-18-7.66657E-19
 -1      2634 2.87208E-05-1.73831E-05-4.21602E-06-1.18393E-06-2.22426E-19 2.57413E-18
 -1      2635 4.19636E-05-2.56479E-05-6.40833E-06 2.80955E-05-2.73147E-18 2.96186E-18
 -1      2636 7.22159E-05-4.25077E-05-1.22437E-05-4.26746E-05-1.57781E-18-3.48596E-18
 -1      2637 1.40197E-04-2.58289E-05-4.92248E-05-1.05661E-05-1.47532E-18 1.04100E-18
 -1      2638 1.33048E-04-5.87326E-05-3.16793E-05 1.85751E-05 7.49836E-19 2.33040E-19
 -1      2639 9.47279E-05-2.69382E-05-2.90652E-05 1.89090E-06 1.73177E-18-6.78889E-19
 -1      2640 1.11158E-04-5.87599E-05-2.21733E-05-3.69080E-05-1.54287E-18 6.70109E-19
 -1      2641 1.35871E-04-1.25373E-05-5.31057E-05 5.44552E-06-1.05180E-18 2.06554E-18
 -1      2642 4.34971E-05-2.73081E-05-6.38383E-06 3.32700E-05 1.91302E-18-4.23813E-18
 -1      2643 4.00554E-05-2.07501E-05-7.66378E-06 2.67741E-05 2.25480E-18-4.31690E-18
 -1      2644 5.76456E-05-3.12542E-05-1.10351E-05 3.67611E-05 2.22071E-18-2.23394E-18
 -1      2645 3.15180E-05-2.10297E-05-3.98502E-06-1.92289E-05 1.98523E-19-5.26325E-18
 -1      2646 1.32355E-04-6.20663E-05-2.99927E-05-1.81603E-05 2.35592E-18 6.16640E-19
 -1      2647 1.38017E-04-1.63204E-05-5.22420E-05 1.16760E-05 5.97730E-18 2.13876E-20
 -1      2648 1.38917E-04-1.29794E-05-5.40788E-05-2.39319E-06 3.26637E-18 1.37431E-18
 -1      2649 9.70117E-05-5.42479E-05-1.80202E-05-3.74404E-05-4.72009E-19-2.50283E-18
 -1      2650 1.10477E-04-5.85407E-05-2.26008E-05-3.13302E-05-2.07947E-19-6.58952E-19
 -1      2651 9.00242E-05-4.92874E-05-1.69041E-05-3.77989E-05-1.56415E-18-3.39306E-18
 -1      2652 2.50877E-05-1.66210E-05-3.07633E-06 7.20022E-06 1.25274E-18-5.01465E-18
 -1      2653 1.43528E-04-4.64584E-05-4.16409E-05-1.45431E-06-3.67030E-19 3.69730E-19
 -1      2654 9.76468E-05-2.85198E-05-2.96015E-05-4.79520E-06-4.46502E-19 7.61613E-19
 -1      2655 9.70838E-05-2.75733E-05-2.97760E-05-5.90123E-06-6.80866E-19-3.78563E-19
 -1      2656 9.79483E-05-2.84470E-05-2.98087E-05-7.08583E-06-1.30182E-18-5.46047E-19
 -1      2657 9.85100E-05-2.92659E-05-2.97001E-05-5.12907E-06-1.40360E-18 1.48955E-18
 -1      2658 9.70441E-05-2.60455E-05-3.04252E-05 1.20229E-05-6.95336E-19 1.21098E-18
 -1      2659 9.91687E-05-2.97344E-05-2.97541E-05-6.19328E-06-1.66348E-18 7.55117E-20
 -1      2660 9.05650E-05-1.51784E-05-3.23308E-05 3.19835E-06 6.32682E-19-2.51983E-18
 -1      2661 9.03753E-05-1.49071E-05-3.23637E-05 2.26378E-06 3.40207E-19-2.56788E-18
 -1      2662 9.02414E-05-1.47046E-05-3.23928E-05 1.42421E-06 1.25704E-19-2.63895E-18
 -1      2663 9.01766E-05-1.46124E-05-3.24039E-05 4.66322E-07-1.33733E-19-2.52739E-18
 -1      2664 9.14277E-05-1.66001E-05-3.20561E-05 1.64362E-06 2.70784E-19-2.38773E-18
 -1      2665 9.21435E-05-1.75543E-05-3.20048E-05 6.47966E-06 1.64954E-18-2.11262E-18
 -1      2666 9.16201E-05-1.67602E-05-3.21051E-05 5.63997E-06 1.39757E-18-2.34639E-18
 -1      2667 9.35626E-05-1.97790E-05-3.16641E-05 7.60239E-06 2.10649E-18-1.54359E-18
 -1      2668 9.27727E-05-1.85238E-05-3.18379E-05 7.02380E-06 1.84603E-18-1.80164E-18
 -1      2669 9.34378E-05-1.98700E-05-3.15062E-05 5.74044E-06 1.67567E-18-1.71394E-18
 -1      2670 3.34758E-05-1.49876E-05-7.49598E-06 6.77576E-06-3.07844E-19 1.99286E-18
 -1      2671 3.38682E-05-1.53990E-05-7.41233E-06-9.61350E-06 1.21973E-18 8.23740E-20
 -1      2672 9.52145E-05-2.54087E-05-2.99291E-05 3.98414E-06 1.98962E-18-8.15973E-19
 -1      2673 9.55515E-05-2.45587E-05-3.03931E-05 5.61701E-06 2.06827E-18-7.08471E-19
 -1      2674 9.47053E-05-2.19075E-05-3.12057E-05 7.84827E-06 2.22779E-18-9.34396E-19
 -1      2675 9.53618E-05-2.59079E-05-2.97356E-05-2.71859E-06-1.41142E-18-1.93244E-19
 -1      2676 9.51885E-05-2.64886E-05-2.94547E-05-1.73068E-06-1.18454E-18-2.51246E-19
 -1      2677 9.52152E-05-2.70066E-05-2.92088E-05-9.88823E-07-1.02214E-18-2.56924E-19
 -1      2678 9.50798E-05-2.73609E-05-2.90287E-05-3.84463E-07-1.01759E-18-3.62861E-19
 -1      2679 9.54122E-05-2.63263E-05-2.96134E-05-1.62494E-06-1.19948E-18-6.01297E-19
 -1      2680 9.50465E-05-2.76666E-05-2.88612E-05 8.15294E-08-8.80644E-19-2.68793E-19
 -1      2681 9.49685E-05-2.78907E-05-2.87506E-05 4.31999E-07-9.04840E-19-2.21522E-19
 -1      2682 9.54161E-05-2.73272E-05-2.91884E-05-3.51352E-07-1.01370E-18-5.73216E-19
 -1      2683 9.49266E-05-2.80758E-05-2.86401E-05 7.01052E-07-8.92768E-19-1.31942E-19
 -1      2684 9.48981E-05-2.82219E-05-2.85765E-05 8.84050E-07-6.91246E-19-2.94894E-19
 -1      2685 9.53552E-05-2.79412E-05-2.88984E-05 4.37873E-07-8.98820E-19-5.74612E-19
 -1      2686 9.48631E-05-2.83330E-05-2.85068E-05 1.01829E-06-5.46729E-19-4.20237E-19
 -1      2687 9.48700E-05-2.84290E-05-2.84746E-05 1.09373E-06-6.15394E-19-4.66485E-19
 -1      2688 9.52912E-05-2.83208E-05-2.87070E-05 8.79414E-07-7.52602E-19-4.81963E-19
 -1      2689 9.48458E-05-2.84929E-05-2.84337E-05 1.14025E-06-5.00743E-19-3.53558E-19
 -1      2690 9.48750E-05-2.85547E-05-2.84222E-05 1.14938E-06-6.00975E-19-1.34672E-19
 -1      2691 9.52420E-05-2.85498E-05-2.85865E-05 1.08652E-06-4.76618E-19-3.09239E-19
 -1      2692 9.48604E-05-2.85875E-05-2.84013E-05 1.14229E-06-6.59416E-19 8.70671E-20
 -1      2693 9.49020E-05-2.86252E-05-2.84033E-05 1.11372E-06-7.52636E-19 1.39998E-19
 -1      2694 9.52105E-05-2.86797E-05-2.85162E-05 1.14339E-06-5.10532E-19 3.26156E-19
 -1      2695 9.48951E-05-2.86371E-05-2.83962E-05 1.07748E-06-9.00745E-19 3.81011E-19
 -1      2696 9.49424E-05-2.86573E-05-2.84066E-05 1.03117E-06-6.88942E-19 4.55306E-19
 -1      2697 9.51940E-05-2.87427E-05-2.84813E-05 1.11122E-06-5.66049E-19 5.42515E-19
 -1      2698 9.49409E-05-2.86547E-05-2.84091E-05 9.83259E-07-6.18988E-19 5.76000E-19
 -1      2699 9.49901E-05-2.86620E-05-2.84248E-05 9.33233E-07-4.65689E-19 5.22689E-19
 -1      2700 9.51888E-05-2.87597E-05-2.84711E-05 1.03404E-06-6.70624E-19 7.67896E-19
 -1      2701 9.49924E-05-2.86492E-05-2.84340E-05 8.86180E-07-3.66025E-19 3.55920E-19
 -1      2702 9.50415E-05-2.86468E-05-2.84532E-05 8.42492E-07-2.92290E-19 8.89774E-20
 -1      2703 9.51915E-05-2.87445E-05-2.84784E-05 9.43432E-07-6.12786E-19 5.59774E-19
 -1      2704 9.50466E-05-2.86263E-05-2.84672E-05 8.05480E-07 4.46176E-20-1.15023E-19
 -1      2705 9.50954E-05-2.86164E-05-2.84891E-05 7.75589E-07-6.07313E-20-5.51205E-20
 -1      2706 9.51998E-05-2.87059E-05-2.84982E-05 8.62335E-07-2.67621E-19 2.94222E-19
 -1      2707 9.51027E-05-2.85899E-05-2.85071E-05 7.55636E-07-3.19213E-20 4.64728E-19
 -1      2708 9.51524E-05-2.85740E-05-2.85314E-05 7.45422E-07 5.44399E-20 8.11403E-19
 -1      2709 9.52121E-05-2.86494E-05-2.85276E-05 8.07856E-07 2.63578E-19 9.63066E-20
 -1      2710 9.51616E-05-2.85421E-05-2.85529E-05 7.48279E-07-1.61428E-19 1.06502E-18
 -1      2711 9.52142E-05-2.85213E-05-2.85801E-05 7.62759E-07-7.71224E-20 9.21852E-19
 -1      2712 9.52280E-05-2.85780E-05-2.85649E-05 7.93462E-07-7.76918E-21 3.68606E-19
 -1      2713 9.52255E-05-2.84842E-05-2.86052E-05 7.93545E-07-1.85034E-19 9.30946E-19
 -1      2714 9.52840E-05-2.84595E-05-2.86360E-05 8.37351E-07-2.02279E-19 7.02628E-19
 -1      2715 9.52475E-05-2.84931E-05-2.86097E-05 8.30553E-07-1.70984E-19 6.34073E-19
 -1      2716 9.52980E-05-2.84173E-05-2.86650E-05 9.00943E-07-1.26543E-19 2.15303E-19
 -1      2717 9.53661E-05-2.83898E-05-2.87005E-05 9.78550E-07-5.72036E-19 3.16949E-19
 -1      2718 9.52714E-05-2.83951E-05-2.86620E-05 9.29536E-07-5.73130E-19 1.40226E-20
 -1      2719 9.53838E-05-2.83428E-05-2.87338E-05 1.07974E-06-8.14741E-19 6.55456E-19
 -1      2720 9.54660E-05-2.83139E-05-2.87752E-05 1.19544E-06-5.40351E-19 1.03417E-18
 -1      2721 9.53015E-05-2.82846E-05-2.87223E-05 1.10040E-06-2.86737E-19 2.70618E-19
 -1      2722 9.54890E-05-2.82630E-05-2.88133E-05 1.33881E-06-4.21069E-19 1.04800E-18
 -1      2723 9.55907E-05-2.82354E-05-2.88615E-05 1.49635E-06-5.17812E-20 1.24715E-18
 -1      2724 9.53404E-05-2.81630E-05-2.87913E-05 1.35277E-06-5.32994E-19 5.71803E-19
 -1      2725 9.56219E-05-2.81830E-05-2.89046E-05 1.68587E-06 1.55236E-19 9.14618E-19
 -1      2726 9.57495E-05-2.81610E-05-2.89607E-05 1.88773E-06 4.39691E-19 5.24754E-19
 -1      2727 9.53927E-05-2.80342E-05-2.88691E-05 1.69538E-06-1.56377E-19 6.04095E-19
 -1      2728 9.57932E-05-2.81119E-05-2.90085E-05 2.12586E-06 5.41882E-19 1.28161E-19
 -1      2729 9.59545E-05-2.81026E-05-2.90729E-05 2.37200E-06 5.19680E-19-3.85614E-19
 -1      2730 9.54655E-05-2.79064E-05-2.89553E-05 2.13480E-06 4.55459E-20 1.11636E-19
 -1      2731 9.60178E-05-2.80653E-05-2.91246E-05 2.65840E-06 4.59380E-19-4.38213E-19
 -1      2732 9.62222E-05-2.80799E-05-2.91969E-05 2.94438E-06 1.61313E-20-5.60622E-19
 -1      2733 9.55704E-05-2.77948E-05-2.90484E-05 2.67337E-06 2.41293E-19-6.43698E-19
 -1      2734 9.63168E-05-2.80686E-05-2.92508E-05 3.27391E-06-5.66727E-19-1.20865E-18
 -1      2735 9.65764E-05-2.81243E-05-2.93295E-05 3.58816E-06-6.92350E-19-1.31853E-18
 -1      2736 9.57259E-05-2.77255E-05-2.91453E-05 3.30595E-06-5.59318E-19-1.31460E-19
 -1      2737 9.67206E-05-2.81613E-05-2.93829E-05 3.94808E-06-6.43648E-19-1.18384E-18
 -1      2738 9.70509E-05-2.82829E-05-2.94655E-05 4.26832E-06-4.57157E-19-1.16148E-18
 -1      2739 9.59616E-05-2.77401E-05-2.92412E-05 4.01541E-06-7.26663E-19-9.35106E-19
 -1      2740 9.72734E-05-2.84014E-05-2.95147E-05 4.63444E-06 1.03132E-19-8.91979E-19
 -1      2741 9.76949E-05-2.86233E-05-2.95971E-05 4.92322E-06 8.55782E-20-3.13395E-19
 -1      2742 9.63241E-05-2.79013E-05-2.93292E-05 4.76639E-06-2.60843E-19-2.60718E-19
 -1      2743 9.80388E-05-2.88692E-05-2.96385E-05 5.25478E-06-3.25103E-19-3.56573E-19
 -1      2744 9.85771E-05-2.92355E-05-2.97158E-05 5.45436E-06-5.02273E-19 1.97138E-21
 -1      2745 9.68839E-05-2.82985E-05-2.94018E-05 5.49695E-06 3.20018E-19-2.92832E-19
 -1      2746 9.91028E-05-2.96667E-05-2.97469E-05 5.68737E-06-4.13084E-19 5.16047E-19
 -1      2747 9.97869E-05-3.02256E-05-2.98149E-05 5.71528E-06-7.73301E-20 5.85205E-19
 -1      2748 9.77434E-05-2.90493E-05-2.94532E-05 6.10744E-06-2.72689E-19 1.28537E-18
 -1      2749 1.00572E-04-3.09038E-05-2.98380E-05 5.75438E-06-1.55137E-19 9.58819E-19
 -1      2750 1.01425E-04-3.16922E-05-2.98963E-05 5.50209E-06 1.16519E-19 1.52093E-18
 -1      2751 9.90398E-05-3.02903E-05-2.94838E-05 6.44604E-06-6.06915E-20 1.78153E-18
 -1      2752 1.02549E-04-3.26590E-05-2.99231E-05 5.21277E-06 2.36405E-19 1.70821E-18
 -1      2753 1.03567E-04-3.36664E-05-2.99797E-05 4.55335E-06 6.78288E-20 2.19406E-18
 -1      2754 1.00933E-04-3.21430E-05-2.95099E-05 6.29147E-06 3.57788E-19 1.79714E-18
 -1      2755 1.05075E-04-3.48918E-05-3.00389E-05 3.76246E-06-2.47862E-19 1.97765E-18
 -1      2756 1.06183E-04-3.59968E-05-3.01161E-05 2.57955E-06-4.20439E-20 1.69227E-18
 -1      2757 1.03557E-04-3.46309E-05-2.95763E-05 5.33937E-06-2.15999E-19 2.16966E-18
 -1      2758 1.08000E-04-3.72936E-05-3.02602E-05 1.10863E-06 6.27836E-20 1.52325E-18
 -1      2759 1.08998E-04-3.81820E-05-3.03984E-05-6.32228E-07 5.27804E-19 1.64691E-18
 -1      2760 1.06901E-04-3.75204E-05-2.97725E-05 3.22020E-06 2.39609E-19 2.24805E-18
 -1      2761 1.10814E-04-3.91083E-05-3.07038E-05-2.85491E-06 1.54786E-19 1.74060E-18
 -1      2762 1.11349E-04-3.92318E-05-3.09550E-05-4.97538E-06-6.34402E-19 1.70358E-18
 -1      2763 1.10606E-04-4.00967E-05-3.02424E-05-3.80132E-07-3.39105E-19 2.60173E-18
 -1      2764 1.12537E-04-3.90839E-05-3.14987E-05-7.65741E-06-1.13598E-18 2.08759E-18
 -1      2765 1.12207E-04-3.78233E-05-3.18982E-05-9.59891E-06-5.25296E-19 1.45322E-18
 -1      2766 1.13732E-04-4.09991E-05-3.11649E-05-5.37020E-06-3.73174E-19 2.13293E-18
 -1      2767 1.12034E-04-3.59562E-05-3.26920E-05-1.17857E-05 3.00967E-19 1.05738E-18
 -1      2768 1.10730E-04-3.31484E-05-3.32101E-05-1.25764E-05 3.83100E-19 1.21211E-18
 -1      2769 1.14850E-04-3.85739E-05-3.26524E-05-1.06123E-05-6.57255E-19 2.52032E-18
 -1      2770 1.09004E-04-2.97324E-05-3.41192E-05-1.27286E-05-4.09620E-20 6.43130E-19
 -1      2771 1.07277E-04-2.63751E-05-3.46117E-05-1.13949E-05-3.26306E-19 1.03956E-18
 -1      2772 1.12911E-04-3.21238E-05-3.45833E-05-1.35737E-05-2.39432E-19 4.42449E-19
 -1      2773 1.05291E-04-2.32656E-05-3.52882E-05-8.60371E-06-5.25610E-19 3.32048E-19
 -1      2774 1.04189E-04-2.13249E-05-3.55227E-05-5.34991E-06-1.42069E-18 3.48624E-19
 -1      2775 1.09063E-04-2.44210E-05-3.63253E-05-1.11343E-05-9.85017E-19-3.19272E-19
 -1      2776 1.03829E-04-2.07381E-05-3.56271E-05-5.91490E-07-1.55616E-18 5.06400E-20
 -1      2777 1.04186E-04-2.16692E-05-3.54609E-05 3.02766E-06-1.04726E-18 9.58620E-21
 -1      2778 1.06389E-04-1.95079E-05-3.73260E-05-3.20990E-06-1.38628E-18-1.62425E-20
 -1      2779 1.05774E-04-2.41189E-05-3.49222E-05 6.77331E-06-2.40928E-19 6.41343E-19
 -1      2780 1.07132E-04-2.71986E-05-3.44395E-05 8.85145E-06 9.85225E-19 1.06569E-18
 -1      2781 1.07743E-04-2.18420E-05-3.68456E-05 5.78083E-06-8.59341E-20 3.60254E-19
 -1      2782 1.09221E-04-3.07836E-05-3.35455E-05 9.73729E-06 9.42152E-19 6.76625E-19
 -1      2783 1.10567E-04-3.39694E-05-3.29553E-05 9.60910E-06 1.16672E-18 3.06588E-19
 -1      2784 1.11378E-04-2.94617E-05-3.50851E-05 1.05177E-05 3.57795E-19 2.80606E-19
 -1      2785 1.11343E-04-3.65328E-05-3.20593E-05 7.89342E-06 9.08221E-19 4.37943E-20
 -1      2786 1.11858E-04-3.83344E-05-3.15569E-05 6.18692E-06 9.73135E-19-1.49664E-18
 -1      2787 1.14282E-04-3.67795E-05-3.31831E-05 9.05295E-06 9.28113E-19-7.57234E-19
 -1      2788 1.11027E-04-3.90311E-05-3.09001E-05 3.41720E-06 1.57799E-18-1.44596E-18
 -1      2789 1.10550E-04-3.92164E-05-3.05582E-05 1.21857E-06 2.00770E-18-1.64566E-18
 -1      2790 1.14198E-04-4.07832E-05-3.14498E-05 3.99681E-06 1.26343E-18-1.48793E-18
 -1      2791 1.08748E-04-3.84470E-05-3.01824E-05-1.28734E-06 1.89954E-18-1.83446E-18
 -1      2792 1.07613E-04-3.75326E-05-2.99929E-05-3.18165E-06 1.61561E-18-1.17890E-18
 -1      2793 1.11423E-04-4.06854E-05-3.03342E-05-1.46853E-06 1.68804E-18-1.99117E-18
 -1      2794 1.05565E-04-3.60520E-05-2.98373E-05-4.87879E-06 7.27122E-19-1.49384E-18
 -1      2795 1.04163E-04-3.46307E-05-2.97540E-05-6.11672E-06-3.38194E-19-2.22423E-18
 -1      2796 1.07481E-04-3.80622E-05-2.97861E-05-5.61187E-06 2.75251E-19-2.58709E-18
 -1      2797 1.02279E-04-3.29588E-05-2.97396E-05-6.90666E-06-7.58627E-19-2.37641E-18
 -1      2798 1.00896E-04-3.14707E-05-2.97206E-05-7.37600E-06-6.90592E-19-2.50298E-18
 -1      2799 1.03495E-04-3.43958E-05-2.96391E-05-7.95802E-06-4.57747E-19-3.47535E-18
 -1      2800 9.44712E-05-2.81273E-05-2.84329E-05-8.83174E-07 5.48316E-19-6.06640E-19
 -1      2801 9.44881E-05-2.80006E-05-2.84834E-05-7.07548E-07 6.81829E-19-6.43114E-19
 -1      2802 9.61287E-05-2.59613E-05-3.00567E-05 1.45271E-05-2.29257E-18 8.71600E-19
 -1      2803 9.81935E-05-2.76027E-05-3.02160E-05 1.30803E-05-1.16056E-18-8.09189E-20
 -1      2804 9.97887E-05-2.92378E-05-3.02413E-05 1.38535E-05-8.89548E-19-1.01523E-18
 -1      2805 4.05287E-05-1.98036E-05-8.29605E-06-2.24837E-05 3.80530E-19-1.44758E-18
 -1      2806 5.12110E-05-2.69233E-05-1.01296E-05-3.36898E-05-3.71106E-19-4.31479E-18
 -1      2807 9.45488E-05-2.78502E-05-2.85860E-05-4.31867E-07 7.77209E-19-8.71949E-19
 -1      2808 9.46378E-05-2.76638E-05-2.86847E-05-8.84925E-08 9.10918E-19-7.26061E-19
 -1      2809 9.50054E-05-2.79108E-05-2.87632E-05-4.41706E-07 6.77953E-19-6.51316E-19
 -1      2810 9.45126E-05-2.84282E-05-2.83209E-05-1.14041E-06 3.77162E-19-2.57644E-20
 -1      2811 9.44553E-05-2.83657E-05-2.83210E-05-1.13522E-06 4.78965E-19-3.18185E-19
 -1      2812 9.45870E-05-2.85044E-05-2.83200E-05-1.10066E-06 5.50760E-19-2.41791E-19
 -1      2813 9.45164E-05-2.84611E-05-2.83083E-05-1.13201E-06 4.66017E-19-4.19217E-20
 -1      2814 9.48945E-05-2.85664E-05-2.84294E-05-1.16228E-06 5.02767E-19-1.93875E-19
 -1      2815 9.46759E-05-2.85498E-05-2.83386E-05-1.01383E-06 2.71867E-19-3.69941E-20
 -1      2816 9.46009E-05-2.85211E-05-2.83202E-05-1.06245E-06 4.70563E-19-1.81408E-19
 -1      2817 9.49177E-05-2.86344E-05-2.84092E-05-1.12551E-06 4.96088E-19 1.50583E-19
 -1      2818 9.47702E-05-2.85724E-05-2.83692E-05-9.10810E-07 3.01962E-19-1.23760E-19
 -1      2819 9.46958E-05-2.85549E-05-2.83471E-05-9.63296E-07 2.42949E-19 3.70120E-20
 -1      2820 9.49549E-05-2.86642E-05-2.84117E-05-1.04192E-06 3.47226E-19 2.63560E-19
 -1      2821 9.48654E-05-2.85779E-05-2.84075E-05-8.13583E-07 5.35295E-19 8.07749E-20
 -1      2822 9.47936E-05-2.85692E-05-2.83833E-05-8.60398E-07 4.83306E-19-1.28353E-19
 -1      2823 9.49999E-05-2.86668E-05-2.84294E-05-9.43443E-07 4.47174E-19 1.57389E-19
 -1      2824 9.49600E-05-2.85703E-05-2.84511E-05-7.38274E-07 6.26152E-21 2.19471E-19
 -1      2825 9.48907E-05-2.85685E-05-2.84254E-05-7.72344E-07 3.52659E-19 1.75131E-19
 -1      2826 9.50491E-05-2.86495E-05-2.84577E-05-8.53051E-07 3.64180E-19 7.95294E-19
 -1      2827 9.50555E-05-2.85520E-05-2.84995E-05-6.97498E-07 2.79142E-19 5.48347E-19
 -1      2828 9.49869E-05-2.85557E-05-2.84722E-05-7.13157E-07 7.98341E-20 4.88591E-19
 -1      2829 9.51010E-05-2.86165E-05-2.84940E-05-7.87858E-07 3.74097E-20 5.80132E-19
 -1      2830 9.51552E-05-2.85246E-05-2.85535E-05-7.02124E-07 7.65325E-19 8.71494E-19
 -1      2831 9.50844E-05-2.85328E-05-2.85237E-05-6.94317E-07 5.28784E-19 7.53643E-19
 -1      2832 9.51557E-05-2.85705E-05-2.85372E-05-7.61483E-07 1.37132E-19 8.33695E-19
 -1      2833 9.52642E-05-2.84890E-05-2.86148E-05-7.62627E-07 8.28532E-19 1.54519E-18
 -1      2834 9.51869E-05-2.85009E-05-2.85813E-05-7.26301E-07 9.63177E-19 1.45875E-18
 -1      2835 9.52146E-05-2.85121E-05-2.85875E-05-7.85840E-07 5.47441E-19 1.32492E-18
 -1      2836 9.53890E-05-2.84453E-05-2.86862E-05-8.90103E-07 3.18630E-19 1.25043E-18
 -1      2837 9.52999E-05-2.84603E-05-2.86472E-05-8.19753E-07 7.28392E-19 1.41602E-18
 -1      2838 9.52798E-05-2.84409E-05-2.86462E-05-8.72500E-07 8.69899E-19 1.84978E-18
 -1      2839 9.55372E-05-2.83936E-05-2.87708E-05-1.09699E-06-2.27548E-19 4.92025E-19
 -1      2840 9.54303E-05-2.84109E-05-2.87242E-05-9.86345E-07 1.08068E-20 7.07746E-19
 -1      2841 9.53541E-05-2.83554E-05-2.87149E-05-1.03368E-06 3.26849E-19 1.31118E-18
 -1      2842 9.57176E-05-2.83335E-05-2.88726E-05-1.39747E-06 2.72955E-19-1.33691E-19
 -1      2843 9.55857E-05-2.83525E-05-2.88160E-05-1.23934E-06-3.22745E-21 1.63028E-19
 -1      2844 9.54409E-05-2.82536E-05-2.87959E-05-1.28290E-06 2.18215E-19 5.81797E-19
 -1      2845 9.59397E-05-2.82655E-05-2.89955E-05-1.80746E-06 5.17834E-19 1.33163E-20
 -1      2846 9.57749E-05-2.82849E-05-2.89264E-05-1.59380E-06 6.27019E-19 3.65199E-19
 -1      2847 9.55433E-05-2.81332E-05-2.88915E-05-1.63530E-06 2.62191E-19 4.09582E-19
 -1      2848 9.62140E-05-2.81908E-05-2.91434E-05-2.34403E-06 3.52933E-19-1.62260E-19
 -1      2849 9.60072E-05-2.82086E-05-2.90591E-05-2.06636E-06 4.92912E-19-2.38560E-19
 -1      2850 9.56646E-05-2.79922E-05-2.90041E-05-2.10746E-06 5.71537E-19 7.70138E-19
 -1      2851 9.65517E-05-2.81140E-05-2.93193E-05-3.02392E-06 2.32031E-19-6.48806E-20
 -1      2852 9.62932E-05-2.81261E-05-2.92175E-05-2.67427E-06 4.36785E-19-7.99645E-20
 -1      2853 9.58080E-05-2.78304E-05-2.91348E-05-2.71663E-06 2.02295E-19 1.47928E-19
 -1      2854 9.69660E-05-2.80452E-05-2.95245E-05-3.86055E-06-2.16867E-19-6.54454E-20
 -1      2855 9.66447E-05-2.80441E-05-2.94039E-05-3.43334E-06 1.08243E-20 3.27540E-19
 -1      2856 9.59771E-05-2.76519E-05-2.92836E-05-3.47907E-06-2.99670E-20 6.04516E-19
 -1      2857 9.74738E-05-2.80059E-05-2.97574E-05-4.85882E-06-6.24277E-19-9.35093E-19
 -1      2858 9.70765E-05-2.79778E-05-2.96180E-05-4.35421E-06-2.76073E-19-1.59091E-19
 -1      2859 9.61777E-05-2.74692E-05-2.94477E-05-4.40711E-06-6.49708E-20 6.41492E-19
 -1      2860 9.81014E-05-2.80383E-05-3.00115E-05-6.00634E-06-9.48542E-19-1.00347E-18
 -1      2861 9.76109E-05-2.79579E-05-2.98558E-05-5.43580E-06-7.11287E-19-8.02654E-19
 -1      2862 9.64227E-05-2.73116E-05-2.96201E-05-5.50427E-06-6.14627E-19 3.20375E-19
 -1      2863 9.88950E-05-2.82209E-05-3.02734E-05-7.25933E-06-2.99400E-19-5.70409E-19
 -1      2864 9.82861E-05-2.80437E-05-3.01077E-05-6.65458E-06-4.59316E-19-8.07737E-19
 -1      2865 9.67413E-05-2.72382E-05-2.97886E-05-6.75766E-06-9.21435E-19 1.42551E-19
 -1      2866 9.99411E-05-2.86905E-05-3.05223E-05-8.52131E-06-8.23189E-19 1.36711E-19
 -1      2867 9.91726E-05-2.83421E-05-3.03571E-05-7.94753E-06-8.26456E-19-2.32615E-19
 -1      2868 9.71970E-05-2.73593E-05-2.99342E-05-8.12634E-06-6.69126E-19 7.37796E-19
 -1      2869 1.01396E-04-2.96678E-05-3.07314E-05-9.61223E-06-3.56771E-19 1.50508E-19
 -1      2870 1.00400E-04-2.90329E-05-3.05809E-05-9.18599E-06-3.36229E-19 2.46884E-19
 -1      2871 9.79187E-05-2.78653E-05-3.00324E-05-9.52346E-06-7.55054E-19 1.42344E-18
 -1      2872 1.03518E-04-3.14687E-05-3.08783E-05-1.02263E-05-7.31393E-21 6.83038E-19
 -1      2873 1.02196E-04-3.03925E-05-3.07550E-05-1.01367E-05-9.94136E-20 7.25724E-19
 -1      2874 9.91460E-05-2.90583E-05-3.00596E-05-1.07879E-05-6.66752E-19 1.37484E-18
 -1      2875 1.06678E-04-3.44549E-05-3.09701E-05-9.88110E-06 4.22868E-19 1.51378E-18
 -1      2876 1.04913E-04-3.27845E-05-3.08715E-05-1.04061E-05 3.73637E-19 1.15827E-18
 -1      2877 1.01281E-04-3.13598E-05-3.00103E-05-1.16359E-05 8.91498E-20 1.28020E-18
 -1      2878 1.11243E-04-3.87857E-05-3.10991E-05-7.85431E-06-1.24066E-18 1.99200E-18
 -1      2879 1.09004E-04-3.65432E-05-3.09808E-05-9.34876E-06-1.80478E-19 2.24137E-18
 -1      2880 1.04920E-04-3.52467E-05-2.99383E-05-1.15691E-05-1.50808E-19 2.20911E-18
 -1      2881 1.17160E-04-4.38343E-05-3.15093E-05-3.29953E-06-1.87525E-18 2.86232E-18
 -1      2882 1.14709E-04-4.15258E-05-3.12617E-05-6.05765E-06-1.76275E-18 2.47131E-18
 -1      2883 1.10675E-04-4.08382E-05-3.00453E-05-9.65888E-06-1.73564E-18 2.65675E-18
 -1      2884 1.23358E-04-4.73650E-05-3.26537E-05 4.22310E-06-7.33769E-19 3.97746E-18
 -1      2885 1.21495E-04-4.64251E-05-3.20739E-05 3.18810E-07-1.36819E-18 3.60237E-18
 -1      2886 1.18516E-04-4.71554E-05-3.07482E-05-4.79460E-06-2.29084E-18 3.14005E-18
 -1      2887 1.26964E-04-4.51518E-05-3.51918E-05 1.32491E-05-1.47437E-20 4.52843E-18
 -1      2888 1.27029E-04-4.77001E-05-3.40370E-05 9.51566E-06-2.22928E-19 4.57653E-18
 -1      2889 1.27012E-04-5.05401E-05-3.28325E-05 4.22291E-06-9.33576E-19 4.99484E-18
 -1      2890 1.23427E-04-2.06245E-05-4.46005E-05 1.25268E-05 4.97918E-18 1.72236E-18
 -1      2891 1.27045E-04-2.75923E-05-4.31589E-05 1.74659E-05 4.34724E-18 2.82957E-18
 -1      2892 1.21683E-04-1.54125E-05-4.62702E-05-1.67966E-06 3.39724E-18 1.26004E-18
 -1      2893 1.22265E-04-1.57286E-05-4.64596E-05 5.58006E-06 4.21092E-18 8.76150E-19
 -1      2894 1.26913E-04-2.99837E-05-4.20425E-05-1.45148E-05-1.83912E-19 1.52050E-18
 -1      2895 1.23543E-04-2.27993E-05-4.35794E-05-1.07210E-05 1.93346E-18 2.34440E-18
 -1      2896 1.24972E-04-4.76643E-05-3.31417E-05-4.30690E-06-1.63080E-18-3.25406E-19
 -1      2897 1.25493E-04-4.61279E-05-3.41065E-05-8.01881E-06-2.02116E-18-1.42738E-19
 -1      2898 1.18652E-04-4.53755E-05-3.13067E-05 4.59481E-06-1.23897E-18 4.79593E-19
 -1      2899 1.20976E-04-4.67913E-05-3.18923E-05 7.76251E-07-1.44316E-18-3.97292E-19
 -1      2900 1.24802E-04-5.04227E-05-3.20370E-05 1.43834E-06-1.90960E-18 2.53118E-18
 -1      2901 1.11563E-04-4.00633E-05-3.05413E-05 1.05037E-05 6.61804E-19 4.30124E-19
 -1      2902 1.14307E-04-4.25983E-05-3.08088E-05 7.95055E-06-3.06494E-19 2.30246E-19
 -1      2903 1.16251E-04-4.60358E-05-3.02267E-05 9.74723E-06-7.43986E-19 1.85350E-18
 -1      2904 1.05779E-04-3.48485E-05-3.03082E-05 1.32177E-05 4.23162E-19 2.54875E-19
 -1      2905 1.08168E-04-3.72495E-05-3.04354E-05 1.20121E-05 1.17337E-18 7.19729E-19
 -1      2906 1.08422E-04-3.94038E-05-2.96883E-05 1.40556E-05 5.55156E-19 2.57816E-19
 -1      2907 1.01501E-04-3.09604E-05-3.01759E-05 1.39474E-05 8.88248E-19-1.10624E-18
 -1      2908 1.03437E-04-3.29405E-05-3.02362E-05 1.38557E-05 8.89828E-19-5.30687E-19
 -1      2909 1.02792E-04-3.39670E-05-2.95914E-05 1.57725E-05 1.39180E-18-2.01064E-19
 -1      2910 9.87409E-05-2.97006E-05-2.96681E-05 1.59378E-05-3.25724E-19-1.45614E-18
 -1      2911 8.36415E-05-1.59147E-05-2.90223E-05-4.23865E-06 1.60262E-18-3.00406E-19
 -1      2912 8.29828E-05-1.54262E-05-2.90004E-05-1.17833E-06 2.27119E-18 9.33060E-20
 -1      2913 9.97753E-05-3.03646E-05-2.97616E-05-7.39858E-06-5.74788E-20-2.51849E-18
 -1      2914 9.89136E-05-2.94217E-05-2.97596E-05-7.28873E-06-5.68029E-19-7.65819E-19
 -1      2915 1.00513E-04-3.12452E-05-2.97035E-05-8.64891E-06-3.82622E-19-3.72030E-18
 -1      2916 8.49089E-05-1.69668E-05-2.91901E-05 8.93824E-06 2.32895E-18 9.54570E-19
 -1      2917 8.65793E-05-1.81976E-05-2.92614E-05 1.12273E-05 2.15546E-18 1.96319E-18
 -1      2918 8.67345E-05-1.85115E-05-2.91945E-05-9.76521E-06 8.05512E-19-9.36984E-19
 -1      2919 8.50540E-05-1.72450E-05-2.91370E-05-7.49422E-06 1.36804E-18-1.93962E-18
 -1      2920 8.29642E-05-1.74733E-05-2.80087E-05-6.79621E-06 1.82820E-18-1.62078E-18
 -1      2921 8.29379E-05-1.53385E-05-2.90152E-05 2.60968E-06 1.86459E-18-5.64562E-19
 -1      2922 8.35643E-05-1.57991E-05-2.90427E-05 5.68070E-06 2.38830E-18 3.14492E-19
 -1      2923 8.27986E-05-1.71526E-05-2.80824E-05 8.12207E-06 2.23954E-18 2.86085E-19
 -1      2924 8.12172E-05-1.60120E-05-2.78879E-05 6.65182E-07 2.54090E-18 1.88873E-19
 -1      2925 1.27326E-04-8.62194E-06-5.14731E-05-2.64818E-06-1.86834E-18 1.83720E-18
 -1      2926 1.27718E-04-1.23107E-05-5.00264E-05-8.71528E-06-2.27958E-18 1.48480E-18
 -1      2927 9.08286E-05-2.20159E-05-2.94350E-05-1.27091E-05 7.87151E-19 3.08104E-19
 -1      2928 8.88426E-05-2.04531E-05-2.93823E-05-1.16212E-05 6.81558E-19 1.05163E-18
 -1      2929 8.71306E-05-2.08774E-05-2.83815E-05-1.21128E-05 1.17670E-18-7.98267E-19
 -1      2930 9.46822E-05-2.53889E-05-2.96476E-05-1.30990E-05 1.04609E-18-5.87809E-19
 -1      2931 9.29200E-05-2.38974E-05-2.96271E-05-1.31131E-05 5.15016E-19 4.82461E-19
 -1      2932 9.20702E-05-2.48125E-05-2.88502E-05-1.43489E-05 4.48373E-21 7.25884E-19
 -1      2933 9.73302E-05-2.77840E-05-2.97632E-05-1.15603E-05 1.07488E-18-2.83191E-18
 -1      2934 9.61650E-05-2.66873E-05-2.97893E-05-1.23496E-05 1.42281E-18-1.63106E-18
 -1      2935 9.62855E-05-2.80691E-05-2.92719E-05-1.38218E-05 1.05097E-19-5.94745E-19
 -1      2936 8.45786E-05-4.57126E-05-1.65622E-05 4.12768E-05-4.04861E-18 3.44329E-18
 -1      2937 6.96018E-05-3.70227E-05-1.34059E-05 3.87078E-05-3.47898E-18 3.88523E-18
 -1      2938 1.17231E-04-5.88505E-05-2.51732E-05 2.92849E-05 9.67523E-19 5.62906E-19
 -1      2939 1.04693E-04-5.44777E-05-2.12875E-05 3.43964E-05 1.34170E-18 7.99837E-19
 -1      2940 5.37728E-05-2.80267E-05-1.07431E-05 3.40487E-05-2.20006E-18 2.03627E-18
 -1      2941 4.12048E-05-1.94501E-05-8.71697E-06 2.15344E-05-8.07117E-19 1.71990E-18
 -1      2942 6.67285E-05-3.61010E-05-1.25168E-05-3.94040E-05-1.69280E-18-4.34623E-18
 -1      2943 8.42127E-05-4.62990E-05-1.63389E-05-4.27749E-05-1.20300E-18-1.58787E-18
 -1      2944 1.37969E-04-6.26676E-05-3.26800E-05 1.26259E-05-2.09286E-18 7.75829E-19
 -1      2945 1.29923E-04-6.21484E-05-2.87006E-05 1.99197E-05-2.55327E-18 1.15546E-18
 -1      2946 1.26273E-04-6.13565E-05-2.74672E-05-1.95100E-05 5.45436E-19 1.41719E-18
 -1      2947 1.35844E-04-6.10518E-05-3.24498E-05-9.62875E-06 1.57040E-18 2.45597E-18
 -1      2948 1.31400E-04-2.15224E-05-4.77485E-05-1.31371E-05-2.24845E-18 1.96152E-18
 -1      2949 1.36332E-04-3.13438E-05-4.52391E-05-1.28334E-05-6.27016E-19 8.91608E-19
 -1      2950 9.28500E-05-1.80078E-05-3.20741E-05-8.81563E-06-2.30123E-18-7.85861E-19
 -1      2951 9.47195E-05-2.74136E-05-2.88481E-05 3.94640E-07 1.08233E-18-7.57457E-19
 -1      2952 9.48999E-05-2.71203E-05-2.90207E-05 9.99692E-07 1.33985E-18-6.70595E-19
 -1      2953 9.51276E-05-2.73821E-05-2.90433E-05 3.82190E-07 1.09719E-18-7.86132E-19
 -1      2954 9.44673E-05-2.83090E-05-2.83528E-05-1.08901E-06 3.83352E-19-4.59597E-19
 -1      2955 9.44372E-05-2.82202E-05-2.83724E-05-1.01928E-06 4.62784E-19-5.17985E-19
 -1      2956 9.49278E-05-2.82394E-05-2.85870E-05-8.96978E-07 4.34999E-19-3.86153E-19
 -1      2957 9.48941E-05-2.84435E-05-2.84833E-05-1.10729E-06 3.04888E-19-1.79588E-19
 -1      2958 9.52069E-05-2.39741E-05-3.05169E-05-5.31266E-06-1.87794E-18-1.69144E-19
 -1      2959 9.51523E-05-2.49986E-05-3.00858E-05-3.79400E-06-1.62698E-18-2.17627E-19
 -1      2960 9.52121E-05-2.47306E-05-3.02165E-05-3.52975E-06-1.55010E-18-5.42457E-19
 -1      2961 1.04159E-04-5.50549E-05-2.05046E-05-3.77315E-05-1.25043E-18 1.34136E-18
 -1      2962 1.20482E-04-6.09707E-05-2.57753E-05-3.06827E-05-2.08232E-18 7.03514E-19
 -1      2963 9.11813E-05-1.60929E-05-3.22086E-05 4.92185E-06 1.24335E-18-2.42792E-18
 -1      2964 9.08393E-05-1.55943E-05-3.22695E-05 3.99897E-06 8.74875E-19-2.43336E-18
 -1      2965 9.18182E-05-1.72061E-05-3.19613E-05 3.20198E-06 7.12845E-19-2.27056E-18
 -1      2966 9.24850E-05-1.82653E-05-3.17886E-05 4.62080E-06 1.15971E-18-2.10038E-18
 -1      2967 1.16676E-04-5.98560E-05-2.45819E-05 3.15417E-05-2.75519E-18 8.76672E-19
 -1      2968 1.00418E-04-5.35007E-05-1.97057E-05 3.78754E-05-3.78581E-18 1.60216E-18
 -1      2969 9.69680E-05-4.85664E-05-2.02830E-05 3.57142E-05-3.48215E-18 2.40213E-18
 -1      2970 1.39869E-04-5.45378E-05-3.65949E-05-3.66789E-06-2.03780E-18-1.89841E-19
 -1      2971 1.39926E-04-4.50115E-05-4.13114E-05 4.91833E-06-2.61140E-18-5.99170E-19
 -1      2972 9.08036E-05-1.55474E-05-3.22744E-05-3.93487E-06-1.15713E-18-2.24097E-18
 -1      2973 9.11381E-05-1.60333E-05-3.22151E-05-4.86078E-06-1.45512E-18-2.10919E-18
 -1      2974 1.27514E-04-1.48018E-05-4.87615E-05 8.52755E-06-9.56300E-19 2.17815E-18
 -1      2975 1.26253E-04-1.03610E-05-5.03753E-05 3.03100E-06-1.35102E-18 2.13720E-18
 -1      2976 3.11149E-05-1.46109E-05-6.59479E-06 1.20818E-05 1.43710E-18-4.89204E-18
 -1      2977 2.85224E-05-1.37543E-05-5.75184E-06-5.10765E-07 1.19784E-18-4.25698E-18
 -1      2978 5.50021E-05-2.98898E-05-1.01851E-05-3.31041E-05-1.95622E-18-6.76610E-18
 -1      2979 7.03580E-05-3.89159E-05-1.32592E-05-3.79291E-05-2.53570E-18-6.74524E-18
 -1      2980 1.38828E-04-4.22595E-05-4.20818E-05-8.12299E-06-2.68139E-19 7.39672E-19
 -1      2981 1.38775E-04-5.06030E-05-3.78023E-05-1.66541E-06 1.19114E-20 9.27925E-19
 -1      2982 3.14503E-05-1.56343E-05-6.21943E-06-1.18414E-05 8.37980E-19-3.22423E-18
 -1      2983 4.05672E-05-2.11552E-05-7.97641E-06-2.48722E-05-6.15581E-19-4.71543E-18
 -1      2984 9.35571E-05-4.97943E-05-1.85415E-05 3.91165E-05 1.40152E-18 1.33503E-18
 -1      2985 7.92248E-05-4.23509E-05-1.54602E-05 3.95022E-05 1.88137E-18 6.27863E-19
 -1      2986 1.03608E-04-5.21154E-05-2.17950E-05 3.25180E-05 2.09434E-18 4.69733E-19
 -1      2987 9.49767E-05-2.66908E-05-2.92709E-05 1.78829E-06 1.58969E-18-8.13439E-19
 -1      2988 9.52441E-05-2.61940E-05-2.95560E-05 2.79509E-06 1.80196E-18-7.65381E-19
 -1      2989 9.52691E-05-2.50231E-05-3.01033E-05 3.82708E-06 1.89429E-18-9.82584E-19
 -1      2990 9.52525E-05-2.65060E-05-2.94704E-05 1.74293E-06 1.44092E-18-8.45652E-19
 -1      2991 9.85200E-05-2.89765E-05-2.98123E-05-8.37030E-06-7.95638E-20-1.87345E-18
 -1      2992 1.35280E-04-5.77412E-05-3.37621E-05 9.21455E-06 6.59521E-19 4.83338E-19
 -1      2993 1.27271E-04-5.95618E-05-2.88900E-05 1.94885E-05 7.79270E-19 4.94667E-19
 -1      2994 1.23360E-04-5.84410E-05-2.76703E-05 1.97690E-05 9.51483E-19 3.52525E-19
 -1      2995 1.35593E-04-3.35142E-05-4.39965E-05 1.10993E-05-1.82017E-18 6.55498E-19
 -1      2996 1.31163E-04-2.42371E-05-4.65760E-05 1.09527E-05-7.13625E-20 1.53631E-18
 -1      2997 1.30833E-04-6.13279E-05-2.95689E-05-2.06056E-05-1.48945E-18 7.33001E-19
 -1      2998 1.36289E-04-6.02615E-05-3.30091E-05-1.41122E-05-1.42212E-18 1.23434E-18
 -1      2999 1.36477E-04-5.65552E-05-3.43285E-05-5.45589E-06-1.46162E-18-1.42619E-18
 -1      3000 1.24200E-04-6.04029E-05-2.73708E-05-2.40400E-05-2.10530E-18 7.60291E-19
 -1      3001 1.41216E-04-5.74679E-05-3.59448E-05 8.69246E-07 2.72712E-18 3.30480E-18
 -1      3002 1.42322E-04-4.98491E-05-4.00911E-05 9.28819E-06 3.20830E-18 3.75892E-18
 -1      3003 1.36006E-04-5.85168E-05-3.31557E-05-1.84872E-06 5.93492E-19 4.13426E-18
 -1      3004 1.34516E-04-3.36269E-05-4.36576E-05 1.81622E-05 3.90747E-18 2.42770E-18
 -1      3005 1.25111E-04-3.55831E-05-3.85203E-05 1.75856E-05 2.21121E-18 4.10665E-18
 -1      3006 1.27676E-04-4.15946E-05-3.71973E-05 1.72196E-05 9.99869E-19 4.68208E-18
 -1      3007 1.39209E-04-4.37679E-05-4.13472E-05 1.56695E-05 2.83968E-18 2.64084E-18
 -1      3008 9.15651E-05-1.66887E-05-3.21139E-05-5.58846E-06-1.62438E-18-1.91010E-18
 -1      3009 9.20408E-05-1.74445E-05-3.20201E-05-6.44369E-06-1.91784E-18-1.67139E-18
 -1      3010 9.24401E-05-1.81987E-05-3.17982E-05-4.57502E-06-1.49072E-18-1.78186E-18
 -1      3011 9.12960E-05-1.63977E-05-3.20871E-05 2.88230E-08-1.96714E-19-2.43036E-18
 -1      3012 9.01726E-05-1.46077E-05-3.24044E-05-3.83441E-07-3.78168E-19-2.67455E-18
 -1      3013 9.02290E-05-1.46879E-05-3.23944E-05-1.34201E-06-6.12715E-19-2.70947E-18
 -1      3014 4.46743E-05-1.72840E-05-1.10153E-05-1.48708E-05 1.23810E-18-4.34316E-19
 -1      3015 4.49536E-05-1.70402E-05-1.12746E-05 1.36023E-05 2.12367E-19 1.27288E-18
 -1      3016 1.44192E-04-4.09472E-05-4.47145E-05-1.00834E-05 9.04208E-20 6.98167E-19
 -1      3017 1.41688E-04-4.69223E-05-4.03799E-05-9.72756E-06-1.99900E-19 1.35525E-18
 -1      3018 1.36541E-04-3.49631E-05-4.40465E-05-1.44868E-05 2.56863E-19 3.00887E-18
 -1      3019 9.43536E-05-2.14240E-05-3.12596E-05 7.22299E-06 2.16213E-18-1.23870E-18
 -1      3020 1.35796E-04-4.82940E-05-3.76555E-05 1.19775E-05 1.28791E-18 4.28556E-18
 -1      3021 3.74861E-05-1.41224E-05-9.32633E-06-6.49996E-06 7.40863E-19-3.64997E-18
 -1      3022 1.33348E-04-3.74624E-05-4.13288E-05-1.24295E-05-8.72126E-19 1.25213E-18
 -1      3023 5.34573E-05-2.46162E-05-1.17285E-05-2.69765E-05-1.27309E-18-5.27733E-18
 -1      3024 3.91431E-05-1.68824E-05-8.83493E-06 1.94951E-05 1.73038E-18-4.71522E-18
 -1      3025 4.12304E-05-1.42895E-05-1.10156E-05 1.28049E-05 1.34699E-18-4.35862E-18
 -1      3026 4.89213E-05-2.04386E-05-1.19348E-05 2.52967E-05 2.19911E-18-3.34070E-18
 -1      3027 8.69237E-05-2.02629E-05-2.85503E-05 1.34959E-05 1.33031E-18 2.17168E-18
 -1      3028 8.86473E-05-2.00003E-05-2.95023E-05 1.31223E-05 1.40567E-18 1.88053E-18
 -1      3029 9.08050E-05-2.16099E-05-2.95815E-05 1.43243E-05-3.92049E-19 6.41493E-19
 -1      3030 1.19540E-04-1.39184E-05-4.56978E-05-9.70100E-06-2.41711E-18 2.40923E-18
 -1      3031 1.26356E-04-1.76473E-05-4.71221E-05-1.22269E-05-2.59076E-18 1.61201E-18
 -1      3032 1.23632E-04-2.24051E-05-4.36158E-05-1.39986E-05-2.46338E-18 2.00321E-18
 -1      3033 1.31642E-04-4.66457E-05-3.65473E-05 1.37757E-05 4.14543E-19 4.83195E-18
 -1      3034 1.33072E-04-4.82147E-05-3.67260E-05-8.74913E-06-1.72816E-18 1.56206E-18
 -1      3035 1.28977E-04-4.22402E-05-3.73312E-05-1.34925E-05-1.47519E-18 5.29581E-19
 -1      3036 1.26415E-04-3.56573E-05-3.90583E-05-1.43683E-05-7.03302E-19 7.78152E-19
 -1      3037 6.52482E-05-3.10614E-05-1.40421E-05-3.43677E-05-4.80691E-20-3.08744E-18
 -1      3038 1.23987E-04-2.06328E-05-4.46017E-05 1.06481E-05-4.53798E-19 1.65717E-18
 -1      3039 1.20719E-04-1.10547E-05-4.74725E-05 1.97184E-07-1.35853E-18 3.29244E-18
 -1      3040 9.42129E-05-2.44899E-05-2.99282E-05 1.46631E-05-2.42083E-18-1.83450E-19
 -1      3041 1.19012E-04-5.87724E-05-2.55791E-05-2.31595E-05-6.43745E-19 6.47742E-19
 -1      3042 6.79347E-05-3.15578E-05-1.50037E-05 3.35545E-05-2.17185E-18 2.20102E-18
 -1      3043 1.33502E-04-4.05759E-05-4.00898E-05 8.64424E-06-1.53207E-18-5.35060E-19
 -1      3044 9.80324E-05-2.83470E-05-2.98694E-05-9.53948E-06 6.12143E-19-2.69582E-18
 -1      3045 1.38757E-04-5.82278E-05-3.50849E-05 4.11847E-06-2.59692E-18 6.86944E-19
 -1      3046 9.46171E-05-2.24689E-05-3.09125E-05 5.70036E-06 2.00048E-18-1.28564E-18
 -1      3047 9.78568E-05-4.98447E-05-2.01606E-05-3.68737E-05-1.71990E-18 6.21749E-19
 -1      3048 1.23005E-04-5.91684E-05-2.69894E-05 2.30799E-05-3.35266E-18 1.47220E-18
 -1      3049 7.16288E-05-3.65460E-05-1.45414E-05 3.79464E-05 2.21721E-18-2.96038E-19
 -1      3050 6.40566E-05-2.96614E-05-1.43222E-05 3.36549E-05 2.10742E-18-1.15027E-18
 -1      3051 8.41435E-05-4.08297E-05-1.83095E-05 3.50283E-05 2.21854E-18 4.85985E-19
 -1      3052 1.24266E-04-1.89640E-05-4.59735E-05-8.43688E-06 1.90688E-18 2.09884E-18
 -1      3053 9.03537E-05-1.48789E-05-3.23666E-05-2.17960E-06-7.33318E-19-2.47504E-18
 -1      3054 9.05377E-05-1.51425E-05-3.23342E-05-3.13145E-06-1.02648E-18-2.34469E-18
 -1      3055 9.17874E-05-1.71639E-05-3.19664E-05-3.14407E-06-1.02358E-18-2.09083E-18
 -1      3056 9.14139E-05-1.65811E-05-3.20584E-05-1.58496E-06-6.47560E-19-2.47703E-18
 -1      3057 9.28650E-05-1.86347E-05-3.18085E-05-7.07244E-06-2.00929E-18-1.26540E-18
 -1      3058 9.42366E-05-2.09650E-05-3.14410E-05-7.73164E-06-2.30885E-18-4.31479E-19
 -1      3059 9.47448E-05-2.27754E-05-3.08486E-05-6.04158E-06-2.07066E-18-3.04670E-19
 -1      3060 9.35412E-05-2.00342E-05-3.14717E-05-5.75765E-06-1.83107E-18-1.22552E-18
 -1      3061 8.36503E-05-4.40187E-05-1.65409E-05-3.64605E-05-2.37201E-18-4.34480E-18
 -1      3062 9.56326E-05-4.88225E-05-2.02997E-05-3.22405E-05-2.16856E-18-2.14781E-18
 -1      3063 7.93536E-05-3.86406E-05-1.70773E-05-3.41535E-05-2.39181E-18-4.88870E-18
 -1      3064 9.45928E-05-2.24587E-05-3.09065E-05-5.45524E-06-1.89501E-18-6.76104E-19
 -1      3065 1.34743E-04-5.37212E-05-3.47516E-05 1.01325E-06 5.60478E-19 6.79744E-19
 -1      3066 9.99324E-05-3.06734E-05-2.96452E-05-9.82888E-06-6.62577E-19-3.46306E-18
 -1      3067 9.82920E-05-2.88699E-05-2.97665E-05-1.07701E-05 5.09442E-19-3.81780E-18
 -1      3068 9.91388E-05-3.04103E-05-2.94820E-05-1.20434E-05-4.76278E-20-3.38291E-18
 -1      3069 1.01045E-04-3.20318E-05-2.95909E-05-9.81030E-06-8.56795E-19-3.88303E-18
 -1      3070 9.42854E-05-2.18796E-05-3.10594E-05 4.96453E-06 1.65410E-18-1.37099E-18
 -1      3071 9.38099E-05-2.09082E-05-3.12452E-05 4.62496E-06 1.40209E-18-1.63896E-18
 -1      3072 1.35089E-04-5.31479E-05-3.53586E-05 7.77516E-06 5.52808E-19 5.08852E-18
 -1      3073 1.08260E-04-5.24598E-05-2.39787E-05 2.74299E-05 1.71008E-18 2.61402E-19
 -1      3074 9.85541E-05-4.75184E-05-2.16617E-05 3.09437E-05 2.25512E-18 5.47924E-20
 -1      3075 1.04300E-04-5.03995E-05-2.32991E-05 3.17710E-05-2.34570E-18 2.06647E-18
 -1      3076 9.15479E-05-4.23134E-05-2.06900E-05 3.35718E-05-2.34758E-18 2.80810E-18
 -1      3077 9.56825E-05-2.68789E-05-2.94720E-05-7.51090E-07-1.07142E-18-7.23687E-19
 -1      3078 9.56570E-05-2.73273E-05-2.92924E-05-2.26459E-07-9.93014E-19-8.04323E-19
 -1      3079 9.57022E-05-2.77132E-05-2.91269E-05 1.54015E-07-8.88344E-19-7.03987E-19
 -1      3080 9.56655E-05-2.79990E-05-2.90045E-05 4.69562E-07-8.66765E-19-7.12395E-19
 -1      3081 9.59007E-05-2.73305E-05-2.93901E-05-1.69863E-07-8.69347E-19-8.47672E-19
 -1      3082 9.56579E-05-2.82362E-05-2.88871E-05 6.91872E-07-8.11289E-19-5.82325E-19
 -1      3083 9.56258E-05-2.84154E-05-2.88066E-05 8.61146E-07-6.73590E-19-7.21803E-19
 -1      3084 9.59427E-05-2.80539E-05-2.90988E-05 4.65939E-07-7.50329E-19-7.79993E-19
 -1      3085 9.55939E-05-2.85548E-05-2.87259E-05 9.72108E-07-3.85108E-19-7.01062E-19
 -1      3086 9.55711E-05-2.86627E-05-2.86756E-05 1.04403E-06-3.15914E-19-5.65317E-19
 -1      3087 9.59088E-05-2.85009E-05-2.88925E-05 8.26442E-07-5.05510E-19-7.82986E-19
 -1      3088 9.55293E-05-2.87368E-05-2.86223E-05 1.08100E-06-2.28333E-19-1.95531E-19
 -1      3089 9.55154E-05-2.87959E-05-2.85936E-05 1.09189E-06-2.60416E-19 1.64358E-20
 -1      3090 9.58405E-05-2.87613E-05-2.87512E-05 9.95527E-07-1.14646E-19-6.15244E-19
 -1      3091 9.54713E-05-2.88261E-05-2.85607E-05 1.08367E-06-3.64423E-19 1.61721E-19
 -1      3092 9.54644E-05-2.88515E-05-2.85474E-05 1.05999E-06-3.71745E-19 5.13269E-19
 -1      3093 9.57591E-05-2.88945E-05-2.86587E-05 1.04030E-06-1.41202E-19-4.34197E-20
 -1      3094 9.54217E-05-2.88518E-05-2.85295E-05 1.02802E-06-6.65736E-19 6.90492E-19
 -1      3095 9.54200E-05-2.88536E-05-2.85270E-05 9.88869E-07-7.00552E-19 5.62075E-19
 -1      3096 9.56756E-05-2.89406E-05-2.86028E-05 1.01212E-06-4.47790E-19 2.96738E-19
 -1      3097 9.53801E-05-2.88334E-05-2.85203E-05 9.48882E-07-6.07783E-19 8.19375E-19
 -1      3098 9.53820E-05-2.88182E-05-2.85256E-05 9.08086E-07-4.25638E-19 7.95445E-19
 -1      3099 9.55955E-05-2.89265E-05-2.85740E-05 9.49104E-07-6.05883E-19 7.26710E-19
 -1      3100 9.53451E-05-2.87834E-05-2.85273E-05 8.71666E-07-4.72263E-19 7.15461E-19
 -1      3101 9.53496E-05-2.87557E-05-2.85384E-05 8.39401E-07-9.99012E-20 5.03250E-19
 -1      3102 9.55205E-05-2.88702E-05-2.85656E-05 8.79398E-07-4.21585E-19 8.38600E-19
 -1      3103 9.53151E-05-2.87097E-05-2.85464E-05 8.15271E-07 1.22494E-19 2.91694E-19
 -1      3104 9.53216E-05-2.86719E-05-2.85621E-05 7.99314E-07 6.99079E-20 2.34883E-19
 -1      3105 9.54502E-05-2.87828E-05-2.85727E-05 8.23968E-07-2.16754E-19 2.59040E-19
 -1      3106 9.52882E-05-2.86164E-05-2.85752E-05 7.94364E-07 4.96755E-20 2.35581E-20
 -1      3107 9.52967E-05-2.85699E-05-2.85949E-05 8.01035E-07-2.20999E-22 3.06313E-21
 -1      3108 9.53830E-05-2.86704E-05-2.85918E-05 7.98927E-07-1.01113E-19-1.86340E-19
 -1      3109 9.52629E-05-2.85053E-05-2.86123E-05 8.21117E-07-2.08476E-19 1.17412E-19
 -1      3110 9.52733E-05-2.84506E-05-2.86357E-05 8.55944E-07-3.53810E-19-1.95360E-19
 -1      3111 9.53162E-05-2.85358E-05-2.86207E-05 8.17388E-07-1.85624E-19-4.04159E-19
 -1      3112 9.52374E-05-2.83765E-05-2.86569E-05 9.06428E-07-5.70167E-19-1.82748E-19
 -1      3113 9.52504E-05-2.83139E-05-2.86841E-05 9.74574E-07-5.91884E-19-5.80289E-19
 -1      3114 9.52467E-05-2.83794E-05-2.86577E-05 8.90828E-07-5.47810E-19-7.78025E-19
 -1      3115 9.52105E-05-2.82297E-05-2.87087E-05 1.06069E-06-3.51402E-19-5.07842E-19
 -1      3116 9.52271E-05-2.81596E-05-2.87399E-05 1.16713E-06-3.66146E-19-3.57977E-19
 -1      3117 9.51708E-05-2.82003E-05-2.87017E-05 1.03001E-06-4.74192E-19-7.24671E-19
 -1      3118 9.51817E-05-2.80651E-05-2.87673E-05 1.29409E-06-2.96072E-19 3.89356E-19
 -1      3119 9.52037E-05-2.79886E-05-2.88026E-05 1.44349E-06-2.93224E-19 3.14565E-19
 -1      3120 9.50854E-05-2.79981E-05-2.87516E-05 1.24548E-06-1.08079E-19-2.75445E-19
 -1      3121 9.51520E-05-2.78849E-05-2.88322E-05 1.61637E-06-6.53207E-19 1.51667E-19
 -1      3122 9.51820E-05-2.78052E-05-2.88713E-05 1.81270E-06-1.76525E-19-5.22870E-20
 -1      3123 9.49882E-05-2.77738E-05-2.88059E-05 1.54755E-06-4.81944E-19-2.57227E-19
 -1      3124 9.51248E-05-2.76957E-05-2.89019E-05 2.03604E-06-1.74297E-19-2.71397E-19
 -1      3125 9.51673E-05-2.76188E-05-2.89443E-05 2.28182E-06-2.76134E-19-3.03139E-19
 -1      3126 9.48790E-05-2.75324E-05-2.88625E-05 1.94589E-06-4.83545E-19-8.63770E-19
 -1      3127 9.51079E-05-2.75109E-05-2.89742E-05 2.55892E-06 1.85758E-19-5.37116E-19
 -1      3128 9.51704E-05-2.74473E-05-2.90185E-05 2.85397E-06 1.96008E-19-7.04681E-19
 -1      3129 9.47618E-05-2.72858E-05-2.89179E-05 2.44856E-06-1.33550E-19-5.65882E-19
 -1      3130 9.51169E-05-2.73546E-05-2.90450E-05 3.18590E-06-4.39259E-19-4.07137E-19
 -1      3131 9.52110E-05-2.73221E-05-2.90890E-05 3.52562E-06-6.65128E-19-2.51594E-19
 -1      3132 9.46478E-05-2.70566E-05-2.89675E-05 3.06044E-06 1.04058E-19-5.28003E-19
 -1      3133 9.51791E-05-2.72669E-05-2.91087E-05 3.90969E-06-7.54157E-19 9.63074E-20
 -1      3134 9.53237E-05-2.72931E-05-2.91492E-05 4.28263E-06-6.87484E-19 2.86939E-19
 -1      3135 9.45597E-05-2.68837E-05-2.90046E-05 3.78107E-06-3.98340E-19-2.22501E-20
 -1      3136 9.53405E-05-2.73104E-05-2.91577E-05 4.71029E-06-1.62335E-19 1.62268E-19
 -1      3137 9.55649E-05-2.74360E-05-2.91909E-05 5.09501E-06 3.10320E-19 3.08562E-19
 -1      3138 9.45391E-05-2.68287E-05-2.90208E-05 4.60158E-06-2.79737E-19 4.89417E-19
 -1      3139 9.56750E-05-2.75770E-05-2.91840E-05 5.54871E-06 2.92807E-19 5.11373E-19
 -1      3140 9.60232E-05-2.78585E-05-2.92061E-05 5.90952E-06 9.45877E-20 8.15520E-19
 -1      3141 9.46558E-05-2.69840E-05-2.90073E-05 5.50037E-06 1.58727E-19 3.43741E-19
 -1      3142 9.62959E-05-2.81934E-05-2.91807E-05 6.35765E-06 7.01354E-20 1.02121E-18
 -1      3143 9.68297E-05-2.87036E-05-2.91898E-05 6.63891E-06 6.17703E-20 1.38927E-18
 -1      3144 9.50206E-05-2.74805E-05-2.89560E-05 6.43614E-06 3.67389E-19 9.82290E-19
 -1      3145 9.73654E-05-2.93206E-05-2.91476E-05 7.02680E-06-2.08951E-19 1.60636E-18
 -1      3146 9.81638E-05-3.01409E-05-2.91472E-05 7.14523E-06 1.36603E-20 1.97279E-18
 -1      3147 9.58000E-05-2.84910E-05-2.88654E-05 7.33547E-06 3.34905E-19 1.23591E-18
 -1      3148 9.90972E-05-3.11347E-05-2.90997E-05 7.37948E-06-2.64539E-19 2.27431E-18
 -1      3149 1.00243E-04-3.23310E-05-2.91043E-05 7.21470E-06 3.17334E-19 1.89933E-18
 -1      3150 9.72265E-05-3.02206E-05-2.87481E-05 8.06941E-06 4.21308E-20 1.83227E-18
 -1      3151 1.01730E-04-3.37686E-05-2.90817E-05 7.13668E-06-2.02376E-19 1.45832E-18
 -1      3152 1.03268E-04-3.53329E-05-2.91252E-05 6.52413E-06-5.26696E-19 1.35909E-18
 -1      3153 9.95936E-05-3.28650E-05-2.86462E-05 8.41087E-06-1.17537E-19 1.14851E-18
 -1      3154 1.05433E-04-3.71736E-05-2.91891E-05 5.87741E-06-5.54492E-20 8.43685E-19
 -1      3155 1.07289E-04-3.89089E-05-2.93337E-05 4.62186E-06 3.12936E-19 4.48733E-19
 -1      3156 1.03198E-04-3.64934E-05-2.86539E-05 7.96627E-06-3.34869E-19 1.31522E-20
 -1      3157 1.10083E-04-4.08538E-05-2.95922E-05 3.06418E-06 1.39186E-19 7.07652E-19
 -1      3158 1.11935E-04-4.22206E-05-2.99314E-05 1.02693E-06-4.23622E-19 8.10930E-19
 -1      3159 1.08155E-04-4.07800E-05-2.89497E-05 6.11871E-06 3.36401E-19-1.09977E-18
 -1      3160 1.14912E-04-4.35016E-05-3.05452E-05-1.74764E-06-2.64607E-19 1.19089E-18
 -1      3161 1.16085E-04-4.34990E-05-3.11849E-05-4.40001E-06-3.08855E-19 1.51540E-18
 -1      3162 1.14054E-04-4.45960E-05-2.98235E-05 2.14154E-06 3.89445E-20-4.75209E-19
 -1      3163 1.18128E-04-4.27892E-05-3.23115E-05-8.13536E-06-5.27374E-19 1.96064E-18
 -1      3164 1.17823E-04-4.02704E-05-3.32913E-05-1.05254E-05-4.63843E-19 1.87995E-18
 -1      3165 1.19343E-04-4.56641E-05-3.16358E-05-4.27453E-06-9.51258E-20 6.01562E-19
 -1      3166 1.17744E-04-3.66961E-05-3.49200E-05-1.35134E-05-6.00963E-19 1.87403E-18
 -1      3167 1.15709E-04-3.15792E-05-3.60309E-05-1.41407E-05-8.06137E-19 1.39545E-18
 -1      3168 1.21379E-04-4.07175E-05-3.46796E-05-1.15726E-05-5.74341E-19 1.31555E-18
 -1      3169 1.14390E-04-2.40631E-05-3.89938E-05-1.33516E-05-1.45269E-18 5.83096E-19
 -1      3170 1.11998E-04-1.90132E-05-4.00187E-05-1.05633E-05-1.77369E-18-4.76456E-21
 -1      3171 1.09547E-04-1.80660E-05-3.93426E-05 4.77654E-06 1.51937E-19 1.14320E-19
 -1      3172 1.10912E-04-2.14674E-05-3.86547E-05 8.42756E-06 3.62715E-19 1.72173E-19
 -1      3173 1.17267E-04-2.63483E-05-3.91418E-05 1.13628E-05-9.76205E-20 5.34200E-19
 -1      3174 1.19911E-04-3.25902E-05-3.76627E-05 1.17930E-05-3.41976E-19-1.26049E-19
 -1      3175 1.17477E-04-4.34746E-05-3.17779E-05 3.33520E-06 1.37316E-18-1.05631E-18
 -1      3176 1.16652E-04-4.41869E-05-3.10179E-05 5.16544E-07 2.04456E-18-1.34489E-18
 -1      3177 1.13866E-04-4.33598E-05-3.02811E-05-2.77599E-06 1.62148E-18-6.16534E-19
 -1      3178 1.12032E-04-4.21592E-05-2.98721E-05-5.12634E-06 9.45082E-19-1.35081E-18
 -1      3179 1.16987E-04-4.60462E-05-3.04741E-05-3.51262E-06 2.05763E-18-7.09390E-19
 -1      3180 1.09038E-04-4.01087E-05-2.95844E-05-7.14432E-06-2.98816E-19-2.10636E-18
 -1      3181 1.06914E-04-3.80748E-05-2.94420E-05-8.60874E-06-6.61495E-19-2.14984E-18
 -1      3182 1.11055E-04-4.25369E-05-2.94420E-05-8.55340E-06-3.18134E-21-5.72272E-19
 -1      3183 1.04705E-04-3.60364E-05-2.94523E-05-9.21709E-06-1.16433E-18-2.69145E-18
 -1      3184 1.02770E-04-3.39122E-05-2.94673E-05-9.85316E-06-1.05210E-18-2.48309E-18
 -1      3185 1.01899E-04-3.33638E-05-2.93858E-05-1.11258E-05-1.73069E-18-3.61098E-18
 -1      3186 1.05802E-04-3.77415E-05-2.92121E-05-1.07536E-05-8.12875E-19-2.05772E-18
 -1      3187 1.31646E-04-4.94653E-05-3.56609E-05-5.42560E-06 1.16679E-19 8.82608E-19
 -1      3188 1.30331E-04-5.46594E-05-3.22311E-05 3.09548E-06 6.10923E-19 7.27442E-19
 -1      3189 5.24065E-05-1.87239E-05-1.43254E-05 1.99924E-05 1.51566E-19 1.86368E-18
 -1      3190 4.61287E-05-1.42283E-05-1.32475E-05 5.44090E-06 1.13377E-18 7.77894E-19
 -1      3191 9.52281E-05-2.87560E-05-2.84870E-05-1.09297E-06 1.03559E-19 2.78732E-20
 -1      3192 9.52143E-05-2.87252E-05-2.84939E-05-1.11956E-06 2.70522E-19-9.62787E-20
 -1      3193 9.52454E-05-2.86937E-05-2.85216E-05-1.12795E-06 4.40738E-19-3.30933E-19
 -1      3194 9.52412E-05-2.86336E-05-2.85429E-05-1.11843E-06 3.59127E-19-3.80214E-19
 -1      3195 9.55288E-05-2.88042E-05-2.85990E-05-1.09563E-06 1.27947E-19-2.61868E-19
 -1      3196 9.52207E-05-2.87545E-05-2.84839E-05-9.25889E-07 2.18713E-19 3.54777E-19
 -1      3197 9.51979E-05-2.87595E-05-2.84740E-05-9.71364E-07 3.21224E-19 1.21791E-19
 -1      3198 9.52262E-05-2.87135E-05-2.85036E-05-8.46894E-07 3.10301E-19 8.19958E-19
 -1      3199 9.52015E-05-2.87297E-05-2.84889E-05-8.84488E-07 4.09285E-19 7.56703E-19
 -1      3200 9.53875E-05-2.88205E-05-2.85299E-05-9.14516E-07 4.43248E-20 1.51356E-19
 -1      3201 9.52359E-05-2.86535E-05-2.85332E-05-7.95375E-07 1.91982E-21 6.36644E-19
 -1      3202 9.52097E-05-2.86789E-05-2.85145E-05-8.17195E-07 2.25711E-19 7.48628E-19
 -1      3203 9.53528E-05-2.87548E-05-2.85429E-05-8.47855E-07 3.13571E-19 2.87393E-19
 -1      3204 9.52492E-05-2.85771E-05-2.85714E-05-7.85074E-07 1.33733E-19 4.73354E-19
 -1      3205 9.52212E-05-2.86105E-05-2.85490E-05-7.84583E-07 9.47266E-20 5.14404E-19
 -1      3206 9.53220E-05-2.86666E-05-2.85673E-05-8.11044E-07 1.44401E-19 2.11743E-19
 -1      3207 9.52655E-05-2.84842E-05-2.86178E-05-8.28179E-07 1.81199E-19 1.27759E-18
 -1      3208 9.52348E-05-2.85255E-05-2.85915E-05-7.99403E-07-1.48538E-19 7.12827E-19
 -1      3209 9.52928E-05-2.85575E-05-2.86014E-05-8.18005E-07-1.95250E-19 3.32943E-19
 -1      3210 9.52844E-05-2.83733E-05-2.86730E-05-9.36591E-07 8.65967E-19 1.10505E-18
 -1      3211 9.52499E-05-2.84231E-05-2.86422E-05-8.73536E-07 9.15834E-19 1.41417E-18
 -1      3212 9.52625E-05-2.84268E-05-2.86443E-05-8.81213E-07 4.26408E-19 9.00500E-19
 -1      3213 9.53055E-05-2.82413E-05-2.87380E-05-1.12281E-06 2.00903E-19 1.08753E-18
 -1      3214 9.52657E-05-2.83007E-05-2.87018E-05-1.01905E-06 6.76138E-19 1.40084E-18
 -1      3215 9.52275E-05-2.82715E-05-2.86958E-05-1.01286E-06 6.60631E-19 8.74801E-19
 -1      3216 9.53278E-05-2.80845E-05-2.88140E-05-1.40051E-06 2.78518E-19 6.96022E-19
 -1      3217 9.52810E-05-2.81547E-05-2.87714E-05-1.24895E-06 3.79005E-19 1.16218E-18
 -1      3218 9.51836E-05-2.80867E-05-2.87559E-05-1.22563E-06 3.21403E-19 1.20922E-18
 -1      3219 9.53493E-05-2.78986E-05-2.89021E-05-1.78467E-06 3.54624E-19 4.72382E-19
 -1      3220 9.52941E-05-2.79810E-05-2.88522E-05-1.57754E-06 1.80100E-19 6.27083E-19
 -1      3221 9.51250E-05-2.78668E-05-2.88248E-05-1.53317E-06 2.04359E-19 8.27114E-19
 -1      3222 9.53675E-05-2.76798E-05-2.90027E-05-2.29130E-06 4.66932E-19 8.80379E-19
 -1      3223 9.53025E-05-2.77751E-05-2.89448E-05-2.02038E-06 7.51360E-19 1.04261E-18
 -1      3224 9.50446E-05-2.76056E-05-2.89018E-05-1.95014E-06 2.69773E-19 1.25151E-18
 -1      3225 9.53787E-05-2.74267E-05-2.91150E-05-2.93658E-06 4.04213E-19 6.14556E-19
 -1      3226 9.53024E-05-2.75343E-05-2.90491E-05-2.59380E-06 4.76215E-19 8.68105E-19
 -1      3227 9.49333E-05-2.72980E-05-2.89853E-05-2.49178E-06 5.49997E-19 1.53794E-18
 -1      3228 9.53795E-05-2.71431E-05-2.92358E-05-3.73527E-06-4.07876E-19 7.24604E-19
 -1      3229 9.52899E-05-2.72589E-05-2.91629E-05-3.31380E-06-1.35492E-19 6.33723E-19
 -1      3230 9.47809E-05-2.69418E-05-2.90718E-05-3.17320E-06 1.33622E-19 1.21354E-18
 -1      3231 9.53689E-05-2.68434E-05-2.93587E-05-4.69821E-06-4.17801E-20 8.39853E-19
 -1      3232 9.52621E-05-2.69573E-05-2.92816E-05-4.19422E-06-5.37121E-20 9.15697E-19
 -1      3233 9.45770E-05-2.65422E-05-2.91546E-05-4.00811E-06-3.14406E-19 5.45204E-19
 -1      3234 9.53552E-05-2.65621E-05-2.94722E-05-5.82871E-06-1.01418E-18 7.58753E-19
 -1      3235 9.52216E-05-2.66522E-05-2.93962E-05-5.24407E-06-9.12311E-20 9.97138E-19
 -1      3236 9.43149E-05-2.61179E-05-2.92230E-05-5.00749E-06-2.05898E-19 1.32258E-18
 -1      3237 9.53678E-05-2.63695E-05-2.95587E-05-7.11767E-06-8.73386E-19 6.36792E-19
 -1      3238 9.51854E-05-2.63939E-05-2.94922E-05-6.46381E-06-1.09145E-18 4.74612E-19
 -1      3239 9.39994E-05-2.57130E-05-2.92604E-05-6.17828E-06-6.26963E-19 9.66152E-19
 -1      3240 9.54808E-05-2.63961E-05-2.95935E-05-8.53687E-06-1.19033E-18 1.06924E-18
 -1      3241 9.52029E-05-2.62795E-05-2.95483E-05-7.84041E-06-7.91325E-19 9.38323E-19
 -1      3242 9.36618E-05-2.54156E-05-2.92434E-05-7.52292E-06-8.27823E-19 1.07071E-18
 -1      3243 9.58515E-05-2.68662E-05-2.95474E-05-1.00289E-05-1.22931E-18 1.51154E-18
 -1      3244 9.53863E-05-2.64825E-05-2.95370E-05-9.33987E-06-1.26085E-18 1.40476E-18
 -1      3245 9.33881E-05-2.53861E-05-2.91417E-05-9.03958E-06-1.52009E-18 9.02580E-19
 -1      3246 9.67774E-05-2.81363E-05-2.93944E-05-1.14891E-05-3.94795E-19 1.78354E-18
 -1      3247 9.59609E-05-2.72903E-05-2.94292E-05-1.08942E-05-5.95141E-19 1.84406E-18
 -1      3248 9.33641E-05-2.58956E-05-2.89215E-05-1.07214E-05-1.05773E-18 1.67892E-18
 -1      3249 9.87662E-05-3.07142E-05-2.91338E-05-1.27201E-05-3.82937E-19 1.50895E-18
 -1      3250 9.73358E-05-2.91406E-05-2.92078E-05-1.23692E-05-4.21627E-19 1.39138E-18
 -1      3251 9.39486E-05-2.73727E-05-2.85573E-05-1.25450E-05-5.28986E-19 1.14123E-18
 -1      3252 1.02601E-04-3.52041E-05-2.88383E-05-1.33276E-05-1.15188E-18 2.66444E-18
 -1      3253 1.00172E-04-3.26092E-05-2.89001E-05-1.34943E-05-2.72276E-19 2.04277E-18
 -1      3254 9.57604E-05-3.04226E-05-2.80582E-05-1.44119E-05-8.50931E-19 1.21555E-18
 -1      3255 1.09197E-04-4.19914E-05-2.87637E-05-1.25362E-05-1.79772E-18 2.36628E-18
 -1      3256 1.05479E-04-3.83513E-05-2.86556E-05-1.37097E-05-1.32960E-18 3.17827E-18
 -1      3257 9.96799E-05-3.57251E-05-2.75242E-05-1.60509E-05-1.39282E-18 1.88028E-18
 -1      3258 1.18645E-04-4.99931E-05-2.94389E-05-8.61398E-06-3.38271E-18 3.72905E-18
 -1      3259 1.14197E-04-4.60844E-05-2.89361E-05-1.13025E-05-2.71365E-18 2.95154E-18
 -1      3260 1.07822E-04-4.44072E-05-2.73968E-05-1.65208E-05-2.49926E-18 3.03600E-18
 -1      3261 1.23637E-04-5.30296E-05-3.00465E-05 1.01312E-05-2.29647E-18 2.04548E-18
 -1      3262 1.28347E-04-5.46216E-05-3.15464E-05 5.12701E-06-2.55967E-18 1.71717E-18
 -1      3263 9.23796E-05-1.83463E-05-3.17438E-05 1.81391E-06 4.11610E-19-2.15728E-18
 -1      3264 9.22606E-05-1.81443E-05-3.17759E-05 1.05943E-06 1.06917E-19-2.14171E-18
 -1      3265 1.24764E-04-5.73886E-05-2.92410E-05 1.36756E-05 8.03040E-19 3.62881E-19
 -1      3266 1.17199E-04-5.56410E-05-2.61427E-05 2.13630E-05 1.02819E-18 3.99594E-19
 -1      3267 1.12489E-04-5.20732E-05-2.57301E-05 2.11384E-05 1.22359E-18-6.82748E-19
 -1      3268 8.16001E-05-1.86821E-05-2.69063E-05-9.84196E-06 1.77568E-18-2.26155E-18
 -1      3269 7.94807E-05-1.72829E-05-2.67326E-05-6.30843E-06 1.49626E-18-1.48175E-18
 -1      3270 9.87466E-05-3.09631E-05-2.89970E-05-1.42272E-05-5.59987E-19-1.92563E-18
 -1      3271 9.67796E-05-2.96968E-05-2.87765E-05-1.51772E-05-6.34665E-19 4.90665E-20
 -1      3272 8.77682E-05-2.32120E-05-2.75706E-05-1.47942E-05 1.13033E-18-6.10755E-19
 -1      3273 8.47272E-05-2.12529E-05-2.72942E-05-1.29097E-05 1.59713E-18-1.55778E-18
 -1      3274 8.17748E-05-2.09602E-05-2.60217E-05-1.30477E-05 1.80938E-18-1.44927E-18
 -1      3275 1.15961E-04-1.22201E-05-4.47860E-05 2.34939E-06-9.03996E-19 2.57816E-18
 -1      3276 1.16962E-04-1.15973E-05-4.56677E-05-4.04285E-06-1.41963E-18 2.30253E-18
 -1      3277 9.41430E-05-2.78223E-05-2.83408E-05-1.60335E-05 1.15007E-20 8.41918E-19
 -1      3278 9.11975E-05-2.59128E-05-2.80515E-05-1.57543E-05 5.61754E-19 5.31140E-19
 -1      3279 8.93039E-05-2.63729E-05-2.70014E-05-1.70523E-05 8.55466E-19-5.56975E-19
 -1      3280 9.63873E-05-3.10548E-05-2.80433E-05-1.68441E-05-4.48173E-19-1.22460E-19
 -1      3281 1.04375E-04-3.71077E-05-2.86992E-05 1.75741E-05 1.33512E-18 2.36181E-18
 -1      3282 1.07819E-04-4.07569E-05-2.87136E-05 1.65861E-05 8.32938E-19 2.36983E-18
 -1      3283 1.12288E-04-4.48242E-05-2.87274E-05 1.58735E-05-7.95516E-20 2.40023E-18
 -1      3284 1.16923E-04-4.88281E-05-2.91785E-05 1.33473E-05-6.99437E-19 2.12033E-18
 -1      3285 1.17679E-04-5.24788E-05-2.81698E-05 1.79369E-05-1.58803E-18 1.48048E-18
 -1      3286 1.06683E-04-4.27018E-05-2.75211E-05 2.03183E-05 3.87200E-19 3.71330E-18
 -1      3287 5.14858E-05-1.93421E-05-1.33234E-05-2.10879E-05 1.12550E-19-3.66246E-18
 -1      3288 6.39994E-05-2.78109E-05-1.52645E-05-2.92505E-05-1.31576E-18-5.95528E-18
 -1      3289 9.52207E-05-2.87716E-05-2.84768E-05-1.01539E-06 3.36046E-19 1.13871E-19
 -1      3290 9.52012E-05-2.87616E-05-2.84738E-05-1.05845E-06 2.51882E-19 2.31553E-19
 -1      3291 9.54748E-05-2.88581E-05-2.85521E-05-1.06440E-06 7.45946E-20 5.17854E-20
 -1      3292 9.54278E-05-2.88582E-05-2.85314E-05-9.94058E-07 2.33519E-19 2.74110E-19
 -1      3293 9.53708E-05-2.79568E-05-2.88957E-05-4.66152E-07 4.53937E-19-6.06553E-19
 -1      3294 9.54255E-05-2.76998E-05-2.90123E-05-1.34927E-07 6.50713E-19-5.96070E-19
 -1      3295 4.65345E-05-1.44878E-05-1.34266E-05-7.78385E-06 1.72586E-18 5.84876E-19
 -1      3296 5.21966E-05-1.86867E-05-1.41360E-05-2.04483E-05 5.95094E-19 4.83656E-19
 -1      3297 9.54134E-05-2.73501E-05-2.91770E-05 2.81533E-07 9.09318E-19-7.37265E-19
 -1      3298 9.54758E-05-2.69433E-05-2.93557E-05 8.40111E-07 1.14185E-18-6.94287E-19
 -1      3299 9.56944E-05-2.73387E-05-2.93008E-05 2.32142E-07 6.63402E-19-5.68103E-19
 -1      3300 1.28679E-04-5.98554E-05-2.99837E-05 1.41669E-05-2.24644E-18 2.72374E-20
 -1      3301 1.18761E-04-5.65608E-05-2.63896E-05 2.33327E-05-2.46386E-18 1.62534E-18
 -1      3302 1.31655E-04-5.59003E-05-3.25418E-05-2.97953E-07-8.21622E-20 4.14936E-18
 -1      3303 9.06505E-05-4.34666E-05-1.96785E-05-3.59978E-05-1.46214E-18-4.87891E-19
 -1      3304 1.05893E-04-5.21642E-05-2.31627E-05-3.25688E-05-1.23974E-18 2.18783E-18
 -1      3305 9.33739E-05-2.51169E-05-2.92701E-05 1.58838E-05-5.45194E-19 1.35602E-18
 -1      3306 9.52038E-05-2.42721E-05-3.04021E-05 4.27750E-06 1.83794E-18-1.06039E-18
 -1      3307 9.46378E-05-2.27187E-05-3.08062E-05 4.79302E-06 1.73511E-18-1.12562E-18
 -1      3308 9.49650E-05-2.36006E-05-3.05658E-05 3.70379E-06 1.49471E-18-1.08958E-18
 -1      3309 9.52392E-05-2.52042E-05-3.00286E-05 2.99550E-06 1.62760E-18-9.12124E-19
 -1      3310 7.74685E-05-3.41922E-05-1.85764E-05 3.34727E-05-1.66357E-18 2.20631E-18
 -1      3311 6.49095E-05-2.53493E-05-1.64190E-05 2.80940E-05-6.56186E-19 2.36793E-18
 -1      3312 1.24636E-04-3.27145E-05-3.99511E-05-1.48266E-05-1.39840E-18 1.78025E-18
 -1      3313 1.28058E-04-4.05785E-05-3.75133E-05-1.25686E-05-5.37231E-19 1.46547E-18
 -1      3314 6.17546E-05-2.57734E-05-1.49587E-05-2.93325E-05 5.86306E-19-2.19096E-18
 -1      3315 7.46235E-05-3.49553E-05-1.70528E-05-3.59511E-05-5.36542E-19-3.10480E-18
 -1      3316 1.10170E-04-5.41712E-05-2.35232E-05-2.64137E-05-2.15697E-18 9.02514E-19
 -1      3317 1.21798E-04-5.75910E-05-2.76538E-05-1.69095E-05-2.11335E-18 3.96226E-18
 -1      3318 9.43844E-05-2.21033E-05-3.10022E-05-5.10019E-06-1.85944E-18-9.15374E-19
 -1      3319 9.48648E-05-2.31901E-05-3.06869E-05-4.44935E-06-1.59873E-18-7.41736E-19
 -1      3320 9.50885E-05-2.43734E-05-3.03253E-05-3.28689E-06-1.44587E-18-7.39615E-19
 -1      3321 9.38142E-05-2.09105E-05-3.12466E-05-4.76367E-06-1.62833E-18-1.22160E-18
 -1      3322 9.55185E-05-2.55738E-05-2.99516E-05-2.13765E-06-1.23075E-18-6.94739E-19
 -1      3323 9.55400E-05-2.62778E-05-2.96989E-05-1.34458E-06-1.12658E-18-7.52341E-19
 -1      3324 9.57062E-05-2.61989E-05-2.97903E-05-1.17871E-06-1.11548E-18-8.15803E-19
 -1      3325 4.13079E-05-1.25129E-05-1.19558E-05-5.26512E-07 5.25025E-19-3.44509E-18
 -1      3326 4.39803E-05-1.43736E-05-1.23483E-05-1.17167E-05 4.92470E-19-2.43723E-18
 -1      3327 1.26026E-04-3.81789E-05-3.78862E-05 1.06543E-05-2.77536E-19 9.16066E-19
 -1      3328 1.18679E-04-3.89905E-05-3.41662E-05 8.87312E-06-3.66011E-20 1.70161E-19
 -1      3329 1.19653E-04-4.24419E-05-3.31687E-05 6.84915E-06 7.20110E-19-8.33699E-19
 -1      3330 1.30891E-04-4.78536E-05-3.56825E-05 5.80991E-06-3.98211E-19-3.88418E-19
 -1      3331 1.27361E-04-5.54630E-05-3.06931E-05-5.32326E-06-1.78627E-18 4.41398E-18
 -1      3332 9.22005E-05-1.80440E-05-3.17944E-05 4.09233E-07 1.79792E-20-2.14056E-18
 -1      3333 9.21977E-05-1.80397E-05-3.17949E-05-3.59631E-07-3.41006E-19-2.31635E-18
 -1      3334 9.31541E-05-1.96279E-05-3.14937E-05 6.29367E-07 8.84570E-20-1.97405E-18
 -1      3335 1.08633E-04-5.09012E-05-2.46499E-05-2.78242E-05 1.81159E-19-1.36149E-18
 -1      3336 1.16061E-04-5.58412E-05-2.53822E-05-2.66431E-05-9.51006E-19-1.13793E-18
 -1      3337 5.44668E-05-1.73672E-05-1.54678E-05-1.52141E-05 2.02375E-19-3.44589E-18
 -1      3338 7.66786E-05-1.70952E-05-2.54649E-05-4.65164E-06 1.07798E-18-1.69962E-18
 -1      3339 7.83659E-05-1.62660E-05-2.66188E-05-1.46322E-06 1.65223E-18 2.06061E-19
 -1      3340 7.82830E-05-1.61712E-05-2.66377E-05 2.49423E-06 2.40121E-18-4.02003E-19
 -1      3341 8.78438E-05-3.66773E-05-2.15885E-05 2.98077E-05-1.12714E-18 2.23596E-18
 -1      3342 1.19909E-04-2.79189E-05-3.96478E-05-1.47969E-05-1.63027E-18 1.18495E-18
 -1      3343 5.96179E-05-2.47610E-05-1.44026E-05 2.92293E-05 2.16099E-18-1.88184E-18
 -1      3344 5.69114E-05-2.06397E-05-1.52297E-05 2.35925E-05 1.81898E-18-2.94206E-18
 -1      3345 7.08436E-05-2.97352E-05-1.74206E-05 2.97984E-05 2.30081E-18 3.80106E-20
 -1      3346 8.43657E-05-2.04902E-05-2.74850E-05 1.40118E-05 1.01293E-18 2.15956E-18
 -1      3347 8.75499E-05-2.22923E-05-2.78255E-05 1.60125E-05 5.30082E-19 3.81814E-18
 -1      3348 1.15474E-04-1.51317E-05-4.33434E-05-7.15184E-06-1.81916E-18 1.73231E-18
 -1      3349 1.09165E-04-1.63607E-05-3.99904E-05-4.91486E-06-1.84611E-18 1.68335E-19
 -1      3350 1.08998E-04-1.60577E-05-4.01059E-05-3.55207E-08-8.93937E-19 3.65151E-19
 -1      3351 1.25293E-04-5.39597E-05-3.05285E-05 6.23183E-06 6.61692E-19-8.99708E-20
 -1      3352 6.40841E-05-2.16668E-05-1.78099E-05 2.13600E-05-6.12511E-20 1.27118E-18
 -1      3353 5.36706E-05-1.51226E-05-1.60129E-05-8.07578E-07 1.66652E-18 1.52889E-19
 -1      3354 1.13246E-04-5.15539E-05-2.62080E-05 2.31252E-05-1.79582E-18 2.09983E-18
 -1      3355 9.53185E-05-2.83350E-05-2.87090E-05-8.84058E-07 2.99196E-19-4.42313E-19
 -1      3356 9.53496E-05-2.81709E-05-2.87820E-05-7.08836E-07 3.85389E-19-5.61555E-19
 -1      3357 9.56932E-05-2.80086E-05-2.90126E-05-4.67677E-07 3.33093E-19-5.88234E-19
 -1      3358 9.55882E-05-2.86723E-05-2.86817E-05-1.04680E-06 2.63578E-19-6.34083E-19
 -1      3359 9.52751E-05-2.85640E-05-2.85908E-05-1.07783E-06 1.39915E-19-4.34399E-19
 -1      3360 9.52857E-05-2.84618E-05-2.86333E-05-1.00472E-06 1.54363E-19-5.31865E-19
 -1      3361 9.30429E-05-1.95026E-05-3.15278E-05-3.61216E-06-1.33624E-18-1.71423E-18
 -1      3362 9.33865E-05-2.01289E-05-3.14196E-05-4.23234E-06-1.50657E-18-1.60750E-18
 -1      3363 1.32148E-04-5.62431E-05-3.23755E-05 3.15104E-06-2.94155E-18 1.95035E-18
 -1      3364 1.37658E-04-5.40544E-05-3.60078E-05-1.60785E-06-2.05660E-18 1.33683E-18
 -1      3365 4.44320E-05-1.28933E-05-1.30029E-05 5.82904E-06 9.15480E-19-4.39208E-18
 -1      3366 5.02581E-05-1.31702E-05-1.56074E-05 1.06148E-06 3.32335E-19-3.55891E-18
 -1      3367 4.96312E-05-1.48356E-05-1.47414E-05 1.27306E-05 1.43437E-18-3.92785E-18
 -1      3368 9.25532E-05-1.86407E-05-3.16876E-05 2.42490E-06 5.38680E-19-2.14539E-18
 -1      3369 9.33663E-05-2.00166E-05-3.14171E-05 1.80454E-06 4.29025E-19-1.93329E-18
 -1      3370 9.27907E-05-1.90553E-05-3.16200E-05 3.12708E-06 7.95048E-19-2.06745E-18
 -1      3371 1.24208E-04-5.81965E-05-2.84913E-05-1.93187E-05-6.10711E-19-2.59784E-18
 -1      3372 9.92118E-05-3.18188E-05-2.87751E-05 1.78401E-05 1.13239E-18 1.73140E-18
 -1      3373 1.01462E-04-3.42760E-05-2.87718E-05 1.75751E-05 1.53036E-18 2.15301E-18
 -1      3374 9.95603E-05-3.49059E-05-2.78008E-05 1.98955E-05 2.37045E-18 4.26330E-18
 -1      3375 7.93536E-05-1.69177E-05-2.68156E-05 7.48356E-06 2.14153E-18 6.37131E-19
 -1      3376 8.14295E-05-1.81926E-05-2.70332E-05 1.09254E-05 1.48144E-18 1.79716E-18
 -1      3377 8.18644E-05-2.03372E-05-2.62718E-05 1.38634E-05 1.10955E-18 2.28872E-18
 -1      3378 7.64329E-05-1.67292E-05-2.55245E-05 5.47960E-06 1.97422E-18 3.08254E-19
 -1      3379 9.43396E-05-2.19794E-05-3.09894E-05 3.63556E-06 1.22968E-18-1.51150E-18
 -1      3380 9.34357E-05-2.02154E-05-3.14048E-05 4.24895E-06 1.17650E-18-1.95542E-18
 -1      3381 9.30778E-05-1.95547E-05-3.15187E-05 3.65667E-06 9.27168E-19-1.97487E-18
 -1      3382 1.03660E-04-4.86859E-05-2.30193E-05-2.63862E-05-2.83587E-18 8.53174E-19
 -1      3383 7.08286E-05-2.71003E-05-1.84507E-05-2.54291E-05-1.26436E-18-4.17487E-18
 -1      3384 7.41711E-05-3.24903E-05-1.73443E-05-3.00017E-05-2.08124E-18-4.91041E-18
 -1      3385 8.42400E-05-3.79019E-05-2.00234E-05-2.97452E-05-2.41571E-18-3.38030E-18
 -1      3386 6.27549E-05-2.23158E-05-1.68793E-05-2.26216E-05 5.91653E-19-1.36584E-18
 -1      3387 1.16949E-04-1.60096E-05-4.38326E-05 6.89168E-06-2.27958E-19 1.88110E-18
 -1      3388 1.13227E-04-1.53100E-05-4.22867E-05 3.58068E-06-6.97108E-19 7.56354E-19
 -1      3389 9.77150E-05-4.38764E-05-2.28984E-05 2.67529E-05 1.55071E-18-6.66575E-19
 -1      3390 9.18210E-05-4.30354E-05-2.07124E-05 3.19957E-05 2.00292E-18-1.36849E-20
 -1      3391 8.38266E-05-3.70111E-05-1.98726E-05 3.07296E-05 1.57935E-18 7.21937E-19
 -1      3392 1.20701E-04-2.29862E-05-4.20973E-05 1.08425E-05 1.07891E-19 3.44769E-20
 -1      3393 1.20621E-04-5.48549E-05-2.82754E-05-1.38960E-05-2.42246E-18 4.32768E-18
 -1      3394 1.22002E-04-4.59702E-05-3.26633E-05 3.28404E-06 1.02877E-18 2.51401E-19
 -1      3395 8.61381E-05-3.83360E-05-2.01610E-05-3.26785E-05-2.11652E-19-1.11263E-18
 -1      3396 9.12538E-05-2.51699E-05-2.84509E-05 1.71560E-05 1.19092E-18 3.03606E-18
 -1      3397 9.59349E-05-2.80053E-05-2.90057E-05 1.71220E-05 2.21871E-19 1.13602E-18
 -1      3398 9.75852E-05-3.01317E-05-2.88793E-05 1.75103E-05 1.08144E-18 9.05754E-19
 -1      3399 8.93302E-05-2.53641E-05-2.74422E-05 1.82140E-05 2.14525E-18 3.58908E-18
 -1      3400 1.25501E-04-4.38435E-05-3.50628E-05-9.42968E-06-3.42916E-20 1.18489E-18
 -1      3401 9.25311E-05-1.86108E-05-3.16922E-05-2.37980E-06-8.74698E-19-2.11247E-18
 -1      3402 9.27589E-05-1.90060E-05-3.16262E-05-3.08740E-06-1.14598E-18-1.85786E-18
 -1      3403 9.37321E-05-2.07507E-05-3.12658E-05-2.81036E-06-1.19295E-18-1.56955E-18
 -1      3404 9.51482E-05-2.42543E-05-3.03899E-05-2.91242E-06-1.39731E-18-7.95009E-19
 -1      3405 1.31679E-04-5.25344E-05-3.42054E-05-7.55529E-07-3.52075E-19-2.29731E-18
 -1      3406 1.26337E-04-4.96271E-05-3.29285E-05 1.10567E-06 3.09167E-19-5.83030E-19
 -1      3407 1.23981E-04-5.02525E-05-3.14552E-05-2.06227E-06 1.86804E-18-1.68904E-19
 -1      3408 1.30908E-04-5.73872E-05-3.13143E-05-9.01503E-06 2.24659E-19-1.71569E-18
 -1      3409 9.53814E-05-2.64942E-05-2.95305E-05 1.37539E-06 1.22667E-18-8.52181E-19
 -1      3410 9.54317E-05-2.58875E-05-2.97900E-05 2.25013E-06 1.33778E-18-9.15245E-19
 -1      3411 9.53557E-05-2.52331E-05-3.00697E-05 2.60448E-06 1.42789E-18-8.29769E-19
 -1      3412 9.55829E-05-2.64038E-05-2.96531E-05 1.24356E-06 1.10931E-18-8.36552E-19
 -1      3413 1.01159E-04-3.28581E-05-2.92305E-05-1.23080E-05-2.65574E-18-4.69013E-18
 -1      3414 9.98543E-05-3.18321E-05-2.91616E-05-1.33235E-05-1.07416E-18-3.96448E-18
 -1      3415 1.00579E-04-3.36934E-05-2.86986E-05-1.47465E-05-2.36411E-18-3.15709E-18
 -1      3416 1.02950E-04-3.51027E-05-2.90840E-05-1.24326E-05-2.68888E-18-3.84616E-18
 -1      3417 1.03276E-04-4.56750E-05-2.43212E-05-2.75661E-05 6.08626E-19-1.27187E-18
 -1      3418 1.10621E-04-4.99510E-05-2.62170E-05-2.34736E-05 3.65528E-19-3.83094E-18
 -1      3419 5.52540E-05-1.49915E-05-1.70324E-05-9.80725E-06 1.92740E-19-2.08037E-18
 -1      3420 6.18409E-05-1.96273E-05-1.79165E-05-1.82785E-05-3.80053E-19-2.31923E-18
 -1      3421 9.61739E-05-2.78286E-05-2.92833E-05 2.39399E-07-6.73864E-19-7.99746E-19
 -1      3422 9.61696E-05-2.81457E-05-2.91576E-05 4.92450E-07-6.67711E-19-8.66709E-19
 -1      3423 9.61786E-05-2.84066E-05-2.90394E-05 6.55007E-07-5.66768E-19-6.56063E-19
 -1      3424 9.61487E-05-2.86018E-05-2.89509E-05 7.91936E-07-2.62917E-19-4.87631E-19
 -1      3425 9.63706E-05-2.82166E-05-2.92104E-05 4.70859E-07-4.66550E-19-5.53426E-19
 -1      3426 9.61151E-05-2.87524E-05-2.88658E-05 8.70431E-07-1.46518E-19-3.39172E-19
 -1      3427 9.60745E-05-2.88629E-05-2.88057E-05 9.28448E-07-1.09322E-19-3.31929E-19
 -1      3428 9.63478E-05-2.86826E-05-2.90015E-05 7.31080E-07-2.23741E-19-3.04415E-19
 -1      3429 9.60180E-05-2.89372E-05-2.87464E-05 9.51158E-07-1.06405E-19-3.96737E-19
 -1      3430 9.59745E-05-2.89888E-05-2.87078E-05 9.59608E-07-2.37658E-19-2.66470E-19
 -1      3431 9.62601E-05-2.89439E-05-2.88520E-05 8.49159E-07-1.50155E-19-6.79548E-19
 -1      3432 9.59072E-05-2.90107E-05-2.86686E-05 9.49018E-07-2.62621E-19-9.23051E-21
 -1      3433 9.58646E-05-2.90214E-05-2.86460E-05 9.30063E-07-2.97107E-19-2.87842E-20
 -1      3434 9.61387E-05-2.90623E-05-2.87491E-05 8.75685E-07-1.66435E-19-5.91036E-19
 -1      3435 9.57937E-05-2.90073E-05-2.86223E-05 9.03198E-07-6.56394E-19 3.43928E-20
 -1      3436 9.57537E-05-2.89894E-05-2.86118E-05 8.73273E-07-7.42195E-19 6.62842E-20
 -1      3437 9.60029E-05-2.90813E-05-2.86825E-05 8.50183E-07-4.52105E-19-4.74158E-19
 -1      3438 9.56827E-05-2.89500E-05-2.85999E-05 8.42941E-07-6.18211E-19-7.34389E-20
 -1      3439 9.56455E-05-2.89114E-05-2.85986E-05 8.14278E-07-4.84352E-19 5.62121E-22
 -1      3440 9.58630E-05-2.90310E-05-2.86438E-05 8.02624E-07-7.40215E-19-6.38967E-19
 -1      3441 9.55753E-05-2.88534E-05-2.85958E-05 7.90134E-07-3.92149E-19-1.51531E-19
 -1      3442 9.55403E-05-2.87990E-05-2.86016E-05 7.71956E-07-2.16313E-19-3.87347E-19
 -1      3443 9.57235E-05-2.89306E-05-2.86268E-05 7.55749E-07-3.98953E-19-4.67132E-19
 -1      3444 9.54702E-05-2.87261E-05-2.86058E-05 7.61460E-07-1.25819E-19-5.76687E-19
 -1      3445 9.54363E-05-2.86583E-05-2.86171E-05 7.61043E-07-1.83527E-19-5.37023E-19
 -1      3446 9.55848E-05-2.87920E-05-2.86263E-05 7.26842E-07-1.76253E-19-6.45370E-19
 -1      3447 9.53641E-05-2.85719E-05-2.86269E-05 7.70332E-07-3.36860E-19-6.89204E-19
 -1      3448 9.53296E-05-2.84917E-05-2.86427E-05 7.93785E-07-2.68684E-19-7.50988E-19
 -1      3449 9.54439E-05-2.86212E-05-2.86388E-05 7.29650E-07-4.19619E-19-8.97962E-19
 -1      3450 9.52522E-05-2.83915E-05-2.86567E-05 8.28289E-07-2.51006E-19-8.28564E-19
 -1      3451 9.52155E-05-2.82988E-05-2.86763E-05 8.81123E-07-6.67437E-19-6.48870E-19
 -1      3452 9.52955E-05-2.84197E-05-2.86611E-05 7.75807E-07-1.55949E-19-1.06752E-18
 -1      3453 9.51291E-05-2.81839E-05-2.86934E-05 9.46059E-07-6.31666E-19-5.69290E-19
 -1      3454 9.50883E-05-2.80780E-05-2.87161E-05 1.03355E-06-1.38765E-19-4.09955E-19
 -1      3455 9.51330E-05-2.81867E-05-2.86909E-05 8.75946E-07-4.53457E-19-6.58931E-19
 -1      3456 9.49888E-05-2.79473E-05-2.87353E-05 1.13421E-06 9.83474E-20-4.41681E-19
 -1      3457 9.49425E-05-2.78282E-05-2.87604E-05 1.26153E-06 8.06614E-21-4.87411E-19
 -1      3458 9.49484E-05-2.79200E-05-2.87256E-05 1.04051E-06-1.26958E-19-1.48419E-19
 -1      3459 9.48260E-05-2.76811E-05-2.87802E-05 1.40343E-06-6.40943E-19-1.39813E-19
 -1      3460 9.47733E-05-2.75502E-05-2.88067E-05 1.57556E-06-6.75346E-19-4.42858E-19
 -1      3461 9.47339E-05-2.76181E-05-2.87626E-05 1.28016E-06-1.75241E-19 2.52102E-20
 -1      3462 9.46367E-05-2.73883E-05-2.88253E-05 1.76440E-06-3.70711E-19-4.52684E-19
 -1      3463 9.45784E-05-2.72494E-05-2.88516E-05 1.98586E-06-1.62626E-19-3.26164E-19
 -1      3464 9.44823E-05-2.72821E-05-2.87982E-05 1.60598E-06-5.23891E-19-1.00107E-19
 -1      3465 9.44207E-05-2.70777E-05-2.88665E-05 2.22742E-06-1.02275E-19-2.27911E-19
 -1      3466 9.43602E-05-2.69391E-05-2.88905E-05 2.50169E-06 6.95017E-20-3.53622E-20
 -1      3467 9.41893E-05-2.69187E-05-2.88280E-05 2.02943E-06-1.57184E-19 1.60479E-19
 -1      3468 9.41839E-05-2.67679E-05-2.88982E-05 2.80158E-06 2.37897E-19-1.09970E-19
 -1      3469 9.41294E-05-2.66449E-05-2.89170E-05 3.13037E-06 2.16434E-19-7.85690E-20
 -1      3470 9.38560E-05-2.65437E-05-2.88456E-05 2.56212E-06 1.57222E-19 1.22478E-19
 -1      3471 9.39430E-05-2.64929E-05-2.89132E-05 3.49369E-06-1.39438E-19-5.04430E-19
 -1      3472 9.39101E-05-2.64101E-05-2.89226E-05 3.87587E-06-3.92150E-19-1.40651E-19
 -1      3473 9.34927E-05-2.61871E-05-2.88428E-05 3.21554E-06-6.65657E-20 2.62430E-19
 -1      3474 9.37320E-05-2.63078E-05-2.89019E-05 4.30682E-06-4.27013E-19-7.90067E-20
 -1      3475 9.37483E-05-2.63040E-05-2.88973E-05 4.73703E-06 4.11932E-20 1.44232E-19
 -1      3476 9.31251E-05-2.58992E-05-2.88094E-05 4.00084E-06-1.69053E-19-2.50961E-21
 -1      3477 9.36121E-05-2.62977E-05-2.88538E-05 5.23828E-06-8.02351E-20 1.00555E-19
 -1      3478 9.37226E-05-2.64295E-05-2.88303E-05 5.70490E-06-1.66636E-19 3.43116E-19
 -1      3479 9.28031E-05-2.57588E-05-2.87333E-05 4.92858E-06-3.71587E-19 4.26737E-19
 -1      3480 9.36845E-05-2.65866E-05-2.87583E-05 6.27603E-06 4.97462E-20 3.09936E-19
 -1      3481 9.39590E-05-2.69332E-05-2.87128E-05 6.75764E-06 2.29530E-19 2.30750E-19
 -1      3482 9.26129E-05-2.58829E-05-2.86024E-05 6.00789E-06 3.97191E-20-1.64482E-19
 -1      3483 9.41088E-05-2.73464E-05-2.86095E-05 7.39097E-06 1.92145E-19 1.85305E-19
 -1      3484 9.46496E-05-2.80112E-05-2.85430E-05 7.84919E-06 5.22142E-19 1.58808E-19
 -1      3485 9.26955E-05-2.64379E-05-2.84067E-05 7.24291E-06 2.15130E-19-4.79456E-19
 -1      3486 9.51241E-05-2.87996E-05-2.84123E-05 8.51835E-06 4.89203E-19 2.57909E-19
 -1      3487 9.60690E-05-2.99042E-05-2.83365E-05 8.88376E-06 1.92481E-19 4.28074E-19
 -1      3488 9.32703E-05-2.76491E-05-2.81456E-05 8.62037E-06 3.73938E-19-7.51678E-19
 -1      3489 9.70657E-05-3.12043E-05-2.81971E-05 9.51838E-06-4.21573E-19-6.39543E-20
 -1      3490 9.85774E-05-3.28630E-05-2.81429E-05 9.66399E-06-3.08788E-19-6.07387E-19
 -1      3491 9.46632E-05-2.97998E-05-2.78393E-05 1.00764E-05-1.50855E-19-1.22502E-18
 -1      3492 1.00362E-04-3.47954E-05-2.80425E-05 1.00919E-05-3.40618E-19-1.33940E-19
 -1      3493 1.02573E-04-3.70370E-05-2.80744E-05 9.79184E-06 1.00122E-20-2.52065E-19
 -1      3494 9.73334E-05-3.32083E-05-2.75503E-05 1.14220E-05 8.69201E-21-6.44781E-19
 -1      3495 1.05437E-04-3.96016E-05-2.81164E-05 9.63325E-06-4.29836E-20-5.53218E-21
 -1      3496 1.08300E-04-4.21665E-05-2.83531E-05 8.53390E-06-7.91579E-20-7.54804E-19
 -1      3497 1.01855E-04-3.80981E-05-2.74255E-05 1.21777E-05-1.78109E-20 2.73023E-19
 -1      3498 1.12353E-04-4.50000E-05-2.87384E-05 7.12815E-06 2.91412E-19-2.26001E-19
 -1      3499 1.15480E-04-4.70465E-05-2.93821E-05 4.77525E-06 6.21654E-19-2.35573E-19
 -1      3500 1.08749E-04-4.41385E-05-2.77823E-05 1.13465E-05 4.53669E-19 9.20229E-19
 -1      3501 1.25243E-04-4.77918E-05-3.31089E-05-5.94252E-06 3.45894E-20 8.20457E-19
 -1      3502 1.12288E-04-4.46714E-05-2.90031E-05-1.10947E-05 2.87115E-19-1.93651E-18
 -1      3503 1.09097E-04-4.18192E-05-2.87532E-05-1.25688E-05-1.09669E-18-2.33489E-18
 -1      3504 9.47132E-05-2.28819E-05-3.07770E-05-3.44238E-06-1.46962E-18-1.08053E-18
 -1      3505 9.51973E-05-2.43434E-05-3.03859E-05-2.26812E-06-1.26483E-18-1.12790E-18
 -1      3506 9.54694E-05-2.87855E-05-2.85769E-05-8.09510E-07 5.26756E-20 8.97747E-20
 -1      3507 9.54864E-05-2.88283E-05-2.85685E-05-8.33516E-07 5.69586E-20-1.97954E-19
 -1      3508 9.55415E-05-2.88760E-05-2.85692E-05-8.62908E-07 6.02421E-20-1.44867E-19
 -1      3509 9.55611E-05-2.89042E-05-2.85675E-05-8.96996E-07-9.23216E-20-9.12163E-20
 -1      3510 9.56461E-05-2.89095E-05-2.86026E-05-8.18163E-07 1.16380E-19-1.85360E-19
 -1      3511 9.53293E-05-2.85268E-05-2.86273E-05-8.09878E-07-2.41150E-19 3.35921E-19
 -1      3512 9.53445E-05-2.85942E-05-2.86089E-05-7.91647E-07-1.63937E-19 4.65302E-19
 -1      3513 9.52532E-05-2.83582E-05-2.86667E-05-8.88807E-07 5.92907E-19 3.42030E-19
 -1      3514 9.52697E-05-2.84387E-05-2.86440E-05-8.40060E-07 1.72762E-19 1.09933E-19
 -1      3515 9.53156E-05-2.84671E-05-2.86495E-05-8.08432E-07 7.33056E-20-9.04492E-20
 -1      3516 9.51651E-05-2.81585E-05-2.87143E-05-1.03590E-06 3.16713E-19 6.71408E-19
 -1      3517 9.51850E-05-2.82541E-05-2.86873E-05-9.50554E-07 5.66534E-19 4.25053E-19
 -1      3518 9.51888E-05-2.82561E-05-2.86852E-05-9.02045E-07 3.25333E-19-6.10576E-20
 -1      3519 9.50573E-05-2.79217E-05-2.87693E-05-1.26321E-06 3.32095E-19 2.80311E-19
 -1      3520 9.50832E-05-2.80351E-05-2.87382E-05-1.13489E-06 3.70930E-19 6.18660E-19
 -1      3521 9.50399E-05-2.80063E-05-2.87279E-05-1.06300E-06 2.92534E-19-4.25596E-20
 -1      3522 9.49198E-05-2.76402E-05-2.88306E-05-1.58349E-06-2.65108E-19 1.42392E-18
 -1      3523 9.49550E-05-2.77746E-05-2.87957E-05-1.40544E-06 1.67356E-19 9.40431E-19
 -1      3524 9.48573E-05-2.77100E-05-2.87760E-05-1.30260E-06 4.44132E-20 5.30389E-19
 -1      3525 9.47405E-05-2.73066E-05-2.88964E-05-2.01004E-06 1.46993E-19 1.41599E-18
 -1      3526 9.47892E-05-2.74651E-05-2.88583E-05-1.77523E-06-6.47110E-20 1.21767E-18
 -1      3527 9.46266E-05-2.73583E-05-2.88271E-05-1.63243E-06 4.82536E-20 1.25544E-18
 -1      3528 9.45047E-05-2.69146E-05-2.89630E-05-2.55628E-06 5.34950E-19 1.11872E-18
 -1      3529 9.45720E-05-2.70992E-05-2.89232E-05-2.25774E-06 5.64524E-19 9.17817E-19
 -1      3530 9.43307E-05-2.69424E-05-2.88774E-05-2.06426E-06 6.05708E-19 3.31572E-19
 -1      3531 9.41961E-05-2.64615E-05-2.90245E-05-3.23507E-06 1.81490E-19 5.04427E-19
 -1      3532 9.42875E-05-2.66720E-05-2.89858E-05-2.86635E-06 5.13474E-19 1.10306E-18
 -1      3533 9.39494E-05-2.64556E-05-2.89213E-05-2.60957E-06 5.40987E-19 2.35520E-19
 -1      3534 9.37980E-05-2.59530E-05-2.90714E-05-4.05793E-06-2.33004E-19 1.65163E-19
 -1      3535 9.39184E-05-2.61842E-05-2.90384E-05-3.61376E-06-2.12699E-19 4.06496E-19
 -1      3536 9.34604E-05-2.58954E-05-2.89500E-05-3.27926E-06 5.82590E-20 3.08938E-19
 -1      3537 9.32972E-05-2.54097E-05-2.90890E-05-5.03475E-06-5.74673E-19 7.67416E-19
 -1      3538 9.34481E-05-2.56474E-05-2.90688E-05-4.51156E-06-3.62843E-19 4.82982E-19
 -1      3539 9.28400E-05-2.52693E-05-2.89504E-05-4.08380E-06-6.62464E-19 3.84674E-19
 -1      3540 9.26930E-05-2.48793E-05-2.90563E-05-6.17501E-06-7.91525E-19 7.18784E-19
 -1      3541 9.28671E-05-2.50936E-05-2.90592E-05-5.57092E-06-3.92588E-19 9.25210E-19
 -1      3542 9.20682E-05-2.46015E-05-2.89035E-05-5.03499E-06-5.29805E-19 3.61308E-20
 -1      3543 9.20131E-05-2.44553E-05-2.89440E-05-7.49169E-06-1.09149E-18 1.13856E-18
 -1      3544 9.21834E-05-2.45897E-05-2.89844E-05-6.80562E-06-9.75325E-19 9.99538E-19
 -1      3545 9.11352E-05-2.39453E-05-2.87827E-05-6.15094E-06-1.08878E-18 4.19561E-19
 -1      3546 9.13427E-05-2.43060E-05-2.87153E-05-9.00908E-06-1.67823E-18 7.57829E-19
 -1      3547 9.14441E-05-2.42608E-05-2.88105E-05-8.23871E-06-1.17523E-18 1.00729E-18
 -1      3548 9.00575E-05-2.34023E-05-2.85522E-05-7.46675E-06-1.17459E-18 1.03500E-18
 -1      3549 9.08729E-05-2.47135E-05-2.83289E-05-1.07735E-05-6.38687E-19 5.76197E-19
 -1      3550 9.07724E-05-2.43239E-05-2.84966E-05-9.91346E-06-1.48843E-18 2.90730E-19
 -1      3551 8.89034E-05-2.31507E-05-2.81666E-05-9.05296E-06-1.19571E-18-5.61771E-19
 -1      3552 9.09788E-05-2.61264E-05-2.77499E-05-1.28605E-05-3.61511E-19 2.07759E-19
 -1      3553 9.04283E-05-2.51326E-05-2.79999E-05-1.19070E-05-2.82865E-19 7.89107E-19
 -1      3554 8.78384E-05-2.34841E-05-2.75735E-05-1.10414E-05-7.73852E-19-4.45240E-19
 -1      3555 9.23028E-05-2.92084E-05-2.69764E-05-1.53322E-05-1.88379E-18 7.19418E-19
 -1      3556 9.09258E-05-2.72491E-05-2.72934E-05-1.43212E-05-1.06856E-18 2.80260E-19
 -1      3557 8.72114E-05-2.48797E-05-2.67223E-05-1.36588E-05-1.01593E-18-2.46364E-19
 -1      3558 9.62508E-05-3.48974E-05-2.61955E-05-1.78886E-05-2.09154E-18 2.46999E-18
 -1      3559 9.31933E-05-3.14765E-05-2.64088E-05-1.70817E-05-2.04880E-18 1.61702E-18
 -1      3560 8.78757E-05-2.81709E-05-2.55960E-05-1.72130E-05-2.45661E-18-1.11100E-19
 -1      3561 9.78681E-05-4.15290E-05-2.39280E-05-2.29500E-05-3.32153E-18 1.65356E-18
 -1      3562 9.29762E-05-3.63445E-05-2.40765E-05-2.21140E-05-2.31079E-18 1.20316E-18
 -1      3563 7.15807E-05-2.38496E-05-2.06591E-05 2.28643E-05 4.19811E-20 1.12489E-18
 -1      3564 6.26567E-05-1.75119E-05-1.90358E-05 1.43128E-05 7.98312E-19 1.70301E-18
 -1      3565 1.14946E-04-5.17621E-05-2.72558E-05 1.59123E-05 5.08074E-19-4.71341E-19
 -1      3566 1.07679E-04-4.81298E-05-2.54268E-05 2.06577E-05 8.62778E-19-9.81394E-19
 -1      3567 1.24254E-04-5.12448E-05-3.15351E-05 6.76495E-07 4.58668E-19-2.25959E-19
 -1      3568 1.20840E-04-5.26511E-05-2.90409E-05 9.10178E-06 5.86104E-19-5.95226E-19
 -1      3569 1.16432E-04-4.97950E-05-2.84844E-05 9.78865E-06 6.35887E-19-1.46001E-19
 -1      3570 1.21535E-04-4.81212E-05-3.15323E-05-2.17091E-06 1.68156E-19 1.44035E-19
 -1      3571 9.42040E-05-3.90447E-05-2.38863E-05 2.83783E-05-1.42323E-18 2.95576E-18
 -1      3572 8.34171E-05-3.08778E-05-2.21375E-05 2.71441E-05-3.95061E-19 1.03239E-18
 -1      3573 8.20334E-05-2.32394E-05-2.50306E-05-1.68396E-05 9.87001E-19-1.59800E-18
 -1      3574 7.74690E-05-2.05224E-05-2.45104E-05-1.40193E-05 2.18564E-18-2.30969E-18
 -1      3575 9.59039E-05-2.73761E-05-2.93761E-05 1.07800E-07 5.56117E-19-6.38859E-19
 -1      3576 9.58900E-05-2.69117E-05-2.95509E-05 5.69909E-07 6.89063E-19-6.93093E-19
 -1      3577 9.53998E-05-2.86686E-05-2.85970E-05-7.87436E-07-5.20846E-20 6.91552E-20
 -1      3578 9.54152E-05-2.87239E-05-2.85832E-05-7.93610E-07 1.46951E-19 2.24642E-19
 -1      3579 9.55381E-05-2.87926E-05-2.86061E-05-7.78532E-07-1.64855E-20 2.52213E-20
 -1      3580 9.54296E-05-2.86449E-05-2.86226E-05-7.71086E-07-2.52098E-19 4.07595E-19
 -1      3581 9.57829E-05-2.89084E-05-2.86601E-05-1.02762E-06 6.23888E-20-3.07814E-19
 -1      3582 9.58134E-05-2.88534E-05-2.86944E-05-1.01879E-06 2.51570E-19-4.36232E-19
 -1      3583 5.82175E-05-1.49348E-05-1.84623E-05 5.87667E-06 1.12496E-18-2.90373E-19
 -1      3584 5.87036E-05-1.50950E-05-1.85141E-05-6.54540E-06 1.03658E-18 6.34745E-19
 -1      3585 6.70609E-05-1.69360E-05-2.12035E-05 8.64316E-06 1.05043E-18 3.91448E-19
 -1      3586 1.19480E-04-4.91562E-05-3.02013E-05-6.18914E-06 2.26886E-18-1.60193E-18
 -1      3587 1.16531E-04-4.75053E-05-2.94361E-05-9.06346E-06 1.56198E-18-1.62558E-18
 -1      3588 1.13678E-04-4.73905E-05-2.85702E-05-1.39245E-05 5.49603E-19-4.08100E-18
 -1      3589 1.22558E-04-5.25635E-05-3.02071E-05-8.69683E-06 1.06419E-18-1.60167E-18
 -1      3590 9.22522E-05-1.81318E-05-3.17778E-05-1.00899E-06-5.80051E-19-2.41563E-18
 -1      3591 9.23638E-05-1.83219E-05-3.17470E-05-1.76247E-06-7.84459E-19-2.29455E-18
 -1      3592 9.33547E-05-1.99981E-05-3.14216E-05-1.76018E-06-8.83201E-19-2.04771E-18
 -1      3593 1.06425E-04-4.61080E-05-2.55701E-05 2.47580E-05-1.06948E-18 2.63110E-18
 -1      3594 1.23233E-04-5.51645E-05-2.91583E-05-1.37700E-05 6.71088E-19-2.91418E-18
 -1      3595 9.57079E-05-2.55234E-05-3.00586E-05-1.51274E-06-1.07255E-18-1.02947E-18
 -1      3596 9.58353E-05-2.62657E-05-2.98272E-05-8.87518E-07-9.42412E-19-1.07538E-18
 -1      3597 9.60442E-05-2.69143E-05-2.96169E-05-4.51255E-07-8.24136E-19-1.05625E-18
 -1      3598 9.60917E-05-2.74090E-05-2.94430E-05-3.90227E-08-7.50747E-19-9.82093E-19
 -1      3599 9.62798E-05-2.74611E-05-2.94940E-05 8.62678E-09-7.07359E-19-9.79085E-19
 -1      3600 8.05294E-05-3.21200E-05-2.04105E-05-2.94280E-05 9.40948E-19-1.03677E-18
 -1      3601 9.28194E-05-4.04409E-05-2.25722E-05-3.03662E-05 2.92623E-19 5.96364E-19
 -1      3602 9.66515E-05-4.01112E-05-2.42495E-05-2.65042E-05 1.20488E-18-1.23872E-18
 -1      3603 6.20827E-05-1.91574E-05-1.82862E-05-1.71861E-05 1.34235E-18-1.40819E-18
 -1      3604 7.04558E-05-2.58563E-05-1.90387E-05-2.62829E-05 1.59253E-18-3.29305E-18
 -1      3605 6.75782E-05-2.00527E-05-2.02914E-05-1.61212E-05-1.01970E-18-2.14710E-18
 -1      3606 6.80398E-05-2.27090E-05-1.91046E-05-2.08065E-05-1.18919E-18-3.65288E-18
 -1      3607 7.52029E-05-2.67493E-05-2.07643E-05-2.22459E-05-1.90075E-18-3.68605E-18
 -1      3608 7.11732E-05-1.66443E-05-2.32643E-05-5.60171E-06 1.51523E-18-1.17683E-18
 -1      3609 6.99565E-05-1.58633E-05-2.31955E-05 1.90961E-07 1.52348E-18-1.33850E-18
 -1      3610 9.37750E-05-2.07971E-05-3.12560E-05 2.84850E-06 8.18123E-19-1.85139E-18
 -1      3611 7.89840E-05-3.28395E-05-1.95555E-05 2.93069E-05 1.38980E-18 4.62427E-19
 -1      3612 7.37575E-05-2.77919E-05-1.94632E-05 2.59336E-05 1.27359E-18-5.80720E-19
 -1      3613 8.60981E-05-3.50670E-05-2.17293E-05 2.59713E-05 4.44825E-19-4.85191E-19
 -1      3614 9.49412E-05-2.35303E-05-3.06228E-05 3.06117E-06 1.31967E-18-1.30395E-18
 -1      3615 9.46749E-05-2.28310E-05-3.07902E-05 2.81549E-06 9.77251E-19-1.44570E-18
 -1      3616 9.59736E-05-2.77825E-05-2.92153E-05-2.19176E-07 4.10791E-19-5.46565E-19
 -1      3617 9.61127E-05-2.74061E-05-2.94474E-05 4.91773E-08 4.83842E-19-6.77355E-19
 -1      3618 9.59558E-05-2.80859E-05-2.90917E-05-4.97947E-07 2.44060E-19-5.32746E-19
 -1      3619 8.00746E-05-2.62065E-05-2.29265E-05 2.21795E-05 5.78550E-19 1.11906E-18
 -1      3620 1.19229E-04-4.81383E-05-3.03203E-05 1.39128E-06 8.23945E-19-5.58691E-19
 -1      3621 9.31485E-05-1.96186E-05-3.14952E-05-5.86846E-07-4.12189E-19-2.17765E-18
 -1      3622 6.37821E-05-2.14957E-05-1.81588E-05 2.13130E-05 1.65717E-18-1.95051E-18
 -1      3623 5.60531E-05-1.74085E-05-1.61509E-05 1.76236E-05 1.45724E-18-3.05218E-18
 -1      3624 5.74606E-05-1.57327E-05-1.77227E-05 1.20558E-05 1.05564E-18-2.80945E-18
 -1      3625 1.12752E-04-4.85254E-05-2.74616E-05-1.82280E-05 4.44745E-19-3.30216E-18
 -1      3626 1.18376E-04-5.23762E-05-2.79782E-05-1.69215E-05 7.02395E-19-3.32740E-18
 -1      3627 9.53234E-05-2.43978E-05-3.04085E-05-1.93647E-06-1.14941E-18-1.22681E-18
 -1      3628 1.06941E-04-3.95968E-05-2.88524E-05-1.24523E-05-1.16371E-18-1.88727E-18
 -1      3629 1.04607E-04-3.71011E-05-2.88893E-05-1.28337E-05-9.22184E-19-3.09715E-18
 -1      3630 1.03549E-04-3.66065E-05-2.86759E-05-1.42007E-05-2.30794E-18-4.16165E-18
 -1      3631 1.07328E-04-4.13288E-05-2.83373E-05-1.49979E-05-9.02018E-19-2.99762E-18
 -1      3632 9.56478E-05-2.84258E-05-2.88137E-05-8.62304E-07 2.36904E-19-5.20420E-19
 -1      3633 9.58630E-05-2.87789E-05-2.87510E-05-9.90595E-07 1.36671E-19-4.24189E-19
 -1      3634 9.58956E-05-2.86696E-05-2.88067E-05-9.27180E-07 1.52615E-19-4.57273E-19
 -1      3635 9.60850E-05-2.88681E-05-2.88098E-05-9.24751E-07 1.58156E-19-5.31892E-19
 -1      3636 9.57565E-05-2.89905E-05-2.86156E-05-8.74937E-07 1.61048E-19-5.42309E-19
 -1      3637 9.56181E-05-2.89350E-05-2.85770E-05-9.31748E-07 1.22817E-19-1.19679E-19
 -1      3638 9.56411E-05-2.89440E-05-2.85840E-05-9.66123E-07 2.83153E-19-2.89121E-20
 -1      3639 1.06325E-04-4.55373E-05-2.61283E-05 1.77678E-05 7.39830E-19-5.01096E-19
 -1      3640 1.03113E-04-4.55745E-05-2.46258E-05 2.28211E-05 8.61393E-19-1.00460E-18
 -1      3641 9.66712E-05-4.09917E-05-2.37978E-05 2.36075E-05 7.73116E-19-1.22949E-18
 -1      3642 9.57263E-05-2.64004E-05-2.97199E-05 9.77940E-07 8.20262E-19-8.06867E-19
 -1      3643 9.56414E-05-2.58639E-05-2.99049E-05 1.57307E-06 1.04226E-18-9.09675E-19
 -1      3644 9.59075E-05-2.64291E-05-2.97842E-05 8.21342E-07 7.27611E-19-6.58891E-19
 -1      3645 7.94051E-05-2.85772E-05-2.15399E-05-2.48988E-05 1.40668E-18-2.06928E-19
 -1      3646 5.61611E-05-1.38865E-05-1.80662E-05 1.12779E-06 8.26142E-19-2.87128E-18
 -1      3647 5.49212E-05-1.37568E-05-1.73280E-05-4.92248E-06 5.34597E-19-2.76114E-18
 -1      3648 6.13684E-05-1.57193E-05-1.94427E-05-8.25544E-06 1.20887E-19-1.93335E-18
 -1      3649 9.54564E-05-3.00853E-05-2.80818E-05 1.89058E-05 2.61570E-18 3.92370E-18
 -1      3650 9.43347E-05-2.19888E-05-3.09907E-05-3.75227E-06-1.49306E-18-1.22804E-18
 -1      3651 6.96771E-05-1.82700E-05-2.19419E-05-1.02147E-05 1.59233E-18-1.17789E-18
 -1      3652 7.42666E-05-1.87813E-05-2.38431E-05 1.35119E-05 1.11191E-18 1.58298E-18
 -1      3653 7.83173E-05-2.10822E-05-2.44070E-05 1.68272E-05 1.42235E-18 2.05096E-18
 -1      3654 6.54666E-05-1.78464E-05-2.03027E-05-1.07301E-05 1.55435E-18-9.84199E-19
 -1      3655 9.72526E-05-3.61631E-05-2.60786E-05 2.31528E-05 6.55997E-19 3.99918E-18
 -1      3656 1.01408E-04-4.08252E-05-2.58141E-05 2.36244E-05-6.34639E-19 3.41829E-18
 -1      3657 9.56994E-05-2.89516E-05-2.86051E-05-9.95715E-07-4.84945E-21-2.45959E-19
 -1      3658 9.57262E-05-2.89342E-05-2.86237E-05-1.01737E-06-1.60175E-19-3.37961E-19
 -1      3659 9.59819E-05-2.89934E-05-2.87116E-05-9.57712E-07 6.97239E-20-6.37173E-19
 -1      3660 9.58696E-05-2.90247E-05-2.86497E-05-9.29816E-07-1.05238E-19-7.28425E-19
 -1      3661 9.59861E-05-2.62823E-05-2.98695E-05-7.17074E-07-8.46888E-19-1.03731E-18
 -1      3662 1.02196E-04-3.57563E-05-2.84661E-05-1.52561E-05-2.31836E-18-1.96183E-18
 -1      3663 9.38769E-05-2.10555E-05-3.12210E-05 8.09071E-07 1.38782E-19-1.82628E-18
 -1      3664 9.38284E-05-2.09554E-05-3.12406E-05 2.47345E-07-4.31602E-20-1.98214E-18
 -1      3665 8.67004E-05-2.74862E-05-2.55050E-05 2.12732E-05 2.17280E-18 3.07297E-18
 -1      3666 9.24642E-05-3.06016E-05-2.64407E-05 2.15931E-05 2.26136E-18 4.04404E-18
 -1      3667 9.39633E-05-2.12267E-05-3.11800E-05 1.24907E-06 2.75042E-19-1.88264E-18
 -1      3668 9.46234E-05-2.23941E-05-3.09379E-05 8.28992E-07 1.49493E-19-1.69757E-18
 -1      3669 9.40985E-05-2.15171E-05-3.11208E-05 1.76751E-06 4.37052E-19-1.89629E-18
 -1      3670 9.43647E-05-2.21040E-05-3.09632E-05-3.08169E-06-1.29480E-18-1.46742E-18
 -1      3671 1.02643E-04-3.78660E-05-2.77668E-05-1.73874E-05-8.56820E-19-1.81889E-18
 -1      3672 9.95859E-05-3.45778E-05-2.78031E-05-1.76904E-05-1.09155E-18-1.31472E-18
 -1      3673 9.60555E-05-3.25615E-05-2.72538E-05-1.87897E-05 4.10710E-19-7.43400E-19
 -1      3674 9.39306E-05-2.12035E-05-3.11834E-05-2.22278E-06-9.72564E-19-1.53952E-18
 -1      3675 9.41517E-05-2.16484E-05-3.10850E-05-2.68551E-06-1.16000E-18-1.48483E-18
 -1      3676 9.45947E-05-2.24820E-05-3.08845E-05-2.47202E-06-1.09686E-18-1.34202E-18
 -1      3677 1.16590E-04-4.90923E-05-2.90912E-05 7.16354E-06 1.21994E-18 2.52611E-19
 -1      3678 9.44719E-05-2.23443E-05-3.09290E-05 2.56428E-06 7.91657E-19-1.62617E-18
 -1      3679 9.42589E-05-2.18538E-05-3.10353E-05 2.13861E-06 5.44178E-19-1.75923E-18
 -1      3680 9.48213E-05-2.28932E-05-3.08102E-05 1.55108E-06 3.71901E-19-1.66982E-18
 -1      3681 9.51012E-05-2.37075E-05-3.05846E-05 2.08111E-06 7.87557E-19-1.25753E-18
 -1      3682 9.51651E-05-2.44099E-05-3.03164E-05 2.87401E-06 1.36441E-18-1.04961E-18
 -1      3683 9.54231E-05-2.50668E-05-3.01451E-05 2.09258E-06 1.17051E-18-9.59804E-19
 -1      3684 9.65469E-05-2.85963E-05-2.91180E-05 5.76228E-07-2.30228E-19-5.68768E-19
 -1      3685 9.65149E-05-2.87884E-05-2.90274E-05 6.74129E-07-2.17160E-19-6.12948E-19
 -1      3686 9.64720E-05-2.89325E-05-2.89428E-05 7.19384E-07-1.90378E-19-6.54960E-19
 -1      3687 9.64163E-05-2.90335E-05-2.88788E-05 7.59557E-07-1.88756E-19-8.02236E-19
 -1      3688 9.66437E-05-2.88639E-05-2.90498E-05 5.87838E-07-1.74346E-19-9.86271E-19
 -1      3689 9.63442E-05-2.90968E-05-2.88185E-05 7.68198E-07-1.30795E-19-7.14446E-19
 -1      3690 9.62773E-05-2.91340E-05-2.87752E-05 7.72772E-07-5.48527E-20-6.82631E-19
 -1      3691 9.65294E-05-2.90964E-05-2.89015E-05 6.55800E-07-8.91963E-20-9.48946E-19
 -1      3692 9.61903E-05-2.91415E-05-2.87342E-05 7.60535E-07-3.09500E-19-5.77253E-19
 -1      3693 9.61196E-05-2.91340E-05-2.87071E-05 7.46271E-07-5.79520E-19-6.04201E-19
 -1      3694 9.63716E-05-2.91820E-05-2.87973E-05 6.65499E-07-1.87911E-19-9.55925E-19
 -1      3695 9.60258E-05-2.91020E-05-2.86813E-05 7.25223E-07-4.94083E-19-6.59517E-19
 -1      3696 9.59547E-05-2.90626E-05-2.86667E-05 7.05112E-07-2.94698E-19-4.32131E-19
 -1      3697 9.61925E-05-2.91644E-05-2.87280E-05 6.43710E-07-4.31375E-19-6.82163E-19
 -1      3698 9.58583E-05-2.90024E-05-2.86527E-05 6.84704E-07-3.26448E-19-3.91275E-19
 -1      3699 9.57879E-05-2.89395E-05-2.86477E-05 6.68491E-07-4.16018E-19-3.29501E-19
 -1      3700 9.60041E-05-2.90728E-05-2.86862E-05 6.11909E-07-3.30866E-19-4.24126E-19
 -1      3701 9.56897E-05-2.88577E-05-2.86430E-05 6.55809E-07-2.13836E-19-2.68828E-20
 -1      3702 9.56192E-05-2.87759E-05-2.86455E-05 6.51055E-07-1.15487E-19-1.89616E-19
 -1      3703 9.58114E-05-2.89268E-05-2.86658E-05 5.86337E-07-2.37654E-19-2.07356E-19
 -1      3704 9.55177E-05-2.86757E-05-2.86477E-05 6.51870E-07-2.61944E-19-1.83271E-19
 -1      3705 9.54450E-05-2.85770E-05-2.86560E-05 6.64793E-07-4.42812E-19-1.91500E-19
 -1      3706 9.56137E-05-2.87369E-05-2.86620E-05 5.79682E-07-2.57180E-19-1.20116E-20
 -1      3707 9.53366E-05-2.84592E-05-2.86635E-05 6.84046E-07-4.81470E-19-1.83707E-19
 -1      3708 9.52586E-05-2.83437E-05-2.86761E-05 7.20029E-07-4.02256E-19-6.51226E-19
 -1      3709 9.54058E-05-2.85078E-05-2.86706E-05 6.02571E-07-4.76543E-19-4.89797E-20
 -1      3710 9.51386E-05-2.82072E-05-2.86872E-05 7.62374E-07-7.71053E-20-7.93286E-19
 -1      3711 9.50515E-05-2.80741E-05-2.87028E-05 8.26540E-07-1.42397E-19-5.88088E-19
 -1      3712 9.51796E-05-2.82394E-05-2.86881E-05 6.64350E-07-3.93290E-19-3.55189E-19
 -1      3713 9.49139E-05-2.79172E-05-2.87159E-05 8.96777E-07-6.33329E-20-4.69201E-19
 -1      3714 9.48137E-05-2.77651E-05-2.87332E-05 9.94227E-07 1.13765E-19-3.74166E-19
 -1      3715 9.49244E-05-2.79290E-05-2.87111E-05 7.74265E-07 1.09376E-19-7.20226E-19
 -1      3716 9.46523E-05-2.75861E-05-2.87464E-05 1.09753E-06 2.11339E-19-5.90975E-20
 -1      3717 9.45349E-05-2.74146E-05-2.87638E-05 1.23352E-06-1.35993E-19 1.66152E-19
 -1      3718 9.46281E-05-2.75732E-05-2.87359E-05 9.41962E-07 2.71074E-19-1.45622E-19
 -1      3719 9.43433E-05-2.72129E-05-2.87748E-05 1.37569E-06-6.29729E-19 3.96496E-19
 -1      3720 9.42058E-05-2.70234E-05-2.87902E-05 1.55571E-06-4.58714E-19 3.64846E-19
 -1      3721 9.42781E-05-2.71693E-05-2.87581E-05 1.17805E-06-1.09155E-19 4.21749E-19
 -1      3722 9.39786E-05-2.68010E-05-2.87959E-05 1.74340E-06-3.70727E-19 2.30739E-19
 -1      3723 9.38197E-05-2.65985E-05-2.88065E-05 1.97313E-06-1.43423E-19 9.36513E-20
 -1      3724 9.38623E-05-2.67184E-05-2.87724E-05 1.49463E-06-5.63448E-19 7.11816E-19
 -1      3725 9.35534E-05-2.63615E-05-2.88031E-05 2.21412E-06-3.88798E-20 3.35386E-20
 -1      3726 9.33757E-05-2.61565E-05-2.88050E-05 2.49942E-06 1.55582E-19 1.23801E-19
 -1      3727 9.33719E-05-2.62284E-05-2.87714E-05 1.90592E-06-1.97092E-19 1.61287E-19
 -1      3728 9.30707E-05-2.59177E-05-2.87874E-05 2.80304E-06 1.12804E-19 1.47411E-19
 -1      3729 9.28827E-05-2.57290E-05-2.87759E-05 3.14996E-06 1.08168E-19 6.73418E-20
 -1      3730 9.28031E-05-2.57176E-05-2.87459E-05 2.42908E-06-1.49020E-19-2.36182E-19
 -1      3731 9.25456E-05-2.55108E-05-2.87377E-05 3.52782E-06 2.60302E-19 9.90709E-21
 -1      3732 9.23655E-05-2.53691E-05-2.87069E-05 3.94279E-06 1.75189E-19 3.45710E-19
 -1      3733 9.21621E-05-2.52203E-05-2.86839E-05 3.08572E-06 2.58811E-19-5.08207E-20
 -1      3734 9.20128E-05-2.52069E-05-2.86404E-05 4.40989E-06 1.49234E-19 3.28575E-19
 -1      3735 9.18740E-05-2.51591E-05-2.85837E-05 4.89996E-06 9.03400E-20 8.56362E-19
 -1      3736 9.14705E-05-2.47931E-05-2.85709E-05 3.90427E-06 1.84381E-19 1.63331E-19
 -1      3737 9.15376E-05-2.51061E-05-2.84803E-05 5.47624E-06-3.76376E-19 9.55541E-19
 -1      3738 9.14963E-05-2.52208E-05-2.83913E-05 6.04901E-06-4.33954E-19 6.20828E-19
 -1      3739 9.07741E-05-2.45227E-05-2.83896E-05 4.92350E-06-9.09369E-20 1.02242E-18
 -1      3740 9.12315E-05-2.53537E-05-2.82424E-05 6.76099E-06-5.91022E-19 3.94708E-19
 -1      3741 9.13775E-05-2.57278E-05-2.81169E-05 7.42284E-06-1.21618E-19 1.76065E-19
 -1      3742 9.01555E-05-2.45367E-05-2.81217E-05 6.19715E-06-7.17042E-19 6.90109E-19
 -1      3743 9.12771E-05-2.61538E-05-2.79163E-05 8.30296E-06 2.97951E-19-4.30059E-19
 -1      3744 9.17490E-05-2.69200E-05-2.77563E-05 9.05139E-06 2.65069E-19-6.04488E-19
 -1      3745 8.97544E-05-2.50182E-05-2.77502E-05 7.79822E-06-3.99244E-19-1.39692E-20
 -1      3746 9.19676E-05-2.77857E-05-2.75047E-05 1.01267E-05 6.38019E-20-8.78059E-19
 -1      3747 9.29662E-05-2.91134E-05-2.73266E-05 1.09291E-05-2.51380E-20-2.26278E-19
 -1      3748 8.98063E-05-2.62307E-05-2.72654E-05 9.81348E-06-1.87061E-20 7.39570E-20
 -1      3749 9.37515E-05-3.06039E-05-2.70418E-05 1.21919E-05 2.74649E-19 9.62313E-20
 -1      3750 9.55446E-05-3.26925E-05-2.68890E-05 1.29400E-05 6.58888E-19 9.42868E-19
 -1      3751 9.06948E-05-2.85341E-05-2.66798E-05 1.23080E-05 5.57066E-19 1.07410E-18
 -1      3752 9.73183E-05-3.50324E-05-2.66255E-05 1.42572E-05 4.15233E-19 4.05863E-19
 -1      3753 1.00210E-04-3.80317E-05-2.65979E-05 1.46543E-05 2.29930E-19 6.77778E-19
 -1      3754 9.30433E-05-3.24165E-05-2.60538E-05 1.52309E-05 3.03341E-19 1.11255E-18
 -1      3755 1.08166E-04-4.45974E-05-2.71357E-05-1.93398E-05 3.94969E-19-3.91995E-18
 -1      3756 9.51595E-05-2.39533E-05-3.05337E-05-1.68075E-06-1.00082E-18-1.20622E-18
 -1      3757 1.04874E-04-4.03190E-05-2.75849E-05-1.77361E-05 4.96093E-19-3.11423E-18
 -1      3758 9.59683E-05-2.57475E-05-3.00786E-05-9.01830E-07-8.58261E-19-1.15671E-18
 -1      3759 9.61447E-05-2.64807E-05-2.98684E-05-4.65089E-07-7.31537E-19-1.08395E-18
 -1      3760 9.51236E-05-2.81520E-05-2.87001E-05-8.68700E-07 3.91398E-19-1.67628E-20
 -1      3761 9.51925E-05-2.82752E-05-2.86812E-05-8.06620E-07 2.49759E-19-2.36676E-19
 -1      3762 9.52975E-05-2.84017E-05-2.86677E-05-7.66937E-07 2.52734E-19-7.41265E-20
 -1      3763 9.53579E-05-2.85058E-05-2.86527E-05-7.34397E-07 2.39418E-19 2.19529E-19
 -1      3764 9.52333E-05-2.83062E-05-2.86826E-05-7.26552E-07 2.83240E-19 2.24287E-20
 -1      3765 9.46656E-05-2.75074E-05-2.87801E-05-1.27213E-06-4.34172E-19 4.38991E-19
 -1      3766 9.47690E-05-2.76799E-05-2.87563E-05-1.13499E-06-2.69781E-19 1.44081E-19
 -1      3767 9.43485E-05-2.70937E-05-2.88216E-05-1.59335E-06 5.08671E-19 1.79637E-19
 -1      3768 9.44805E-05-2.72975E-05-2.87975E-05-1.41072E-06 2.61316E-20 4.06406E-19
 -1      3769 9.44092E-05-2.72563E-05-2.87767E-05-1.22826E-06-1.69799E-19-6.72163E-19
 -1      3770 9.39452E-05-2.66063E-05-2.88577E-05-2.00681E-06 7.43317E-19-1.65539E-19
 -1      3771 9.41153E-05-2.68456E-05-2.88359E-05-1.77364E-06 8.37935E-19 1.37302E-19
 -1      3772 9.39958E-05-2.67727E-05-2.88055E-05-1.53321E-06 5.55703E-19-8.32887E-19
 -1      3773 9.34307E-05-2.60381E-05-2.88810E-05-2.52107E-06 4.23848E-19 2.27464E-19
 -1      3774 9.36499E-05-2.63153E-05-2.88651E-05-2.23275E-06 8.07266E-19 3.90222E-19
 -1      3775 9.34736E-05-2.62055E-05-2.88231E-05-1.91883E-06 4.87537E-19 1.90773E-19
 -1      3776 9.27771E-05-2.53870E-05-2.88803E-05-3.14372E-06-2.90963E-19 2.16941E-19
 -1      3777 9.30573E-05-2.57015E-05-2.88758E-05-2.79627E-06-2.16529E-19-2.99621E-20
 -1      3778 9.28131E-05-2.55478E-05-2.88198E-05-2.39064E-06 1.39853E-19 3.99274E-19
 -1      3779 9.19549E-05-2.46608E-05-2.88394E-05-3.88214E-06-5.01652E-19 1.84670E-19
 -1      3780 9.23078E-05-2.50063E-05-2.88547E-05-3.47179E-06-1.14674E-19 4.34008E-19
 -1      3781 9.19809E-05-2.47983E-05-2.87817E-05-2.95322E-06-3.77283E-19-1.57464E-19
 -1      3782 9.09359E-05-2.38842E-05-2.87356E-05-4.74644E-06-9.30207E-19 1.13872E-20
 -1      3783 9.13704E-05-2.42441E-05-2.87821E-05-4.26812E-06-6.92923E-19 7.14905E-20
 -1      3784 9.09403E-05-2.39661E-05-2.86892E-05-3.61193E-06-4.89127E-19 1.51686E-19
 -1      3785 8.97001E-05-2.31089E-05-2.85374E-05-5.75692E-06-8.79663E-19-2.59340E-19
 -1      3786 9.02166E-05-2.34507E-05-2.86312E-05-5.20035E-06-9.73589E-19-1.60255E-19
 -1      3787 8.96522E-05-2.30755E-05-2.85150E-05-4.37785E-06-9.66206E-19-3.69349E-19
 -1      3788 8.82464E-05-2.24304E-05-2.82026E-05-6.95948E-06-1.12822E-18-6.26951E-19
 -1      3789 8.88272E-05-2.26949E-05-2.83645E-05-6.30132E-06-8.05011E-19-1.37639E-19
 -1      3790 8.80775E-05-2.21748E-05-2.82215E-05-5.27895E-06-8.54997E-19-1.75898E-18
 -1      3791 8.66148E-05-2.20114E-05-2.76764E-05-8.44990E-06-8.08111E-19-1.29189E-18
 -1      3792 8.72063E-05-2.20982E-05-2.79327E-05-7.64152E-06-8.66218E-19-4.88998E-19
 -1      3793 8.61815E-05-2.13495E-05-2.77576E-05-6.38128E-06-4.95433E-19-1.80776E-18
 -1      3794 8.49184E-05-2.21133E-05-2.68913E-05-1.04115E-05-8.91863E-19-6.40380E-19
 -1      3795 8.54038E-05-2.18636E-05-2.72712E-05-9.36368E-06-1.10480E-18-1.02180E-18
 -1      3796 8.39373E-05-2.07404E-05-2.70541E-05-7.81635E-06-9.20482E-19-1.12940E-18
 -1      3797 8.34164E-05-2.31758E-05-2.57701E-05-1.31690E-05-1.90687E-18-2.81159E-19
 -1      3798 8.35646E-05-2.23173E-05-2.63006E-05-1.17357E-05-7.89819E-19-8.57807E-19
 -1      3799 8.13590E-05-2.05639E-05-2.60190E-05-9.82282E-06-8.40590E-19-9.42627E-19
 -1      3800 8.47857E-05-3.13996E-05-2.28283E-05-2.28418E-05-2.21494E-18-1.67087E-19
 -1      3801 1.04054E-04-4.69504E-05-2.40482E-05-2.40242E-05-3.39824E-18 2.14445E-18
 -1      3802 7.09169E-05-1.64421E-05-2.33455E-05 6.09255E-06 1.52065E-18 2.89050E-20
 -1      3803 9.57367E-05-2.89322E-05-2.86289E-05-7.41175E-07-4.95259E-21-1.45780E-19
 -1      3804 9.57922E-05-2.89846E-05-2.86320E-05-7.62559E-07-6.03141E-20-2.60603E-19
 -1      3805 8.74079E-05-2.71735E-05-2.59024E-05-1.88369E-05 1.44743E-18-1.43730E-18
 -1      3806 8.42287E-05-2.70900E-05-2.44849E-05-2.02226E-05 1.23324E-18-1.11962E-18
 -1      3807 1.13308E-04-5.10387E-05-2.66508E-05-1.82252E-05-3.36961E-18 5.15928E-18
 -1      3808 8.10993E-05-2.70679E-05-2.30624E-05-2.24236E-05 1.61065E-18-7.02978E-19
 -1      3809 8.93312E-05-3.26806E-05-2.41214E-05-2.47437E-05 1.73193E-18 4.84265E-20
 -1      3810 9.54924E-05-2.50149E-05-3.01989E-05 1.79115E-06 9.83742E-19-9.02224E-19
 -1      3811 9.21734E-05-2.99595E-05-2.65195E-05-1.95178E-05 7.67902E-19-7.22254E-19
 -1      3812 1.02196E-04-4.05911E-05-2.63787E-05-2.20553E-05 9.10838E-19-2.80291E-18
 -1      3813 8.07834E-05-2.67448E-05-2.31803E-05-1.94185E-05-2.08406E-18-1.58741E-18
 -1      3814 9.46352E-05-3.36981E-05-2.61792E-05-2.10550E-05 8.58147E-19-1.52573E-18
 -1      3815 9.44045E-05-3.28993E-05-2.63368E-05 2.23283E-05 2.08835E-18 4.63695E-18
 -1      3816 9.59279E-05-2.85239E-05-2.88896E-05-8.35336E-07 2.33582E-19-4.88121E-19
 -1      3817 9.59581E-05-2.83360E-05-2.89744E-05-6.85072E-07 1.70717E-19-5.75359E-19
 -1      3818 9.61896E-05-2.81508E-05-2.91622E-05-4.84407E-07 2.75337E-19-7.81930E-19
 -1      3819 9.38253E-05-2.09508E-05-3.12412E-05-2.15664E-07-2.06729E-19-1.92488E-18
 -1      3820 9.38698E-05-2.10413E-05-3.12233E-05-7.75294E-07-5.08901E-19-2.03073E-18
 -1      3821 9.45487E-05-2.22204E-05-3.09800E-05 1.07395E-08-1.55664E-19-1.74899E-18
 -1      3822 9.63518E-05-2.71026E-05-2.96731E-05-1.86166E-07-5.82093E-19-9.74547E-19
 -1      3823 9.64377E-05-2.76004E-05-2.95079E-05 1.10587E-07-4.80058E-19-8.37204E-19
 -1      3824 9.62858E-05-2.65767E-05-2.98729E-05-3.42824E-07-5.84257E-19-1.10407E-18
 -1      3825 9.49179E-05-2.78568E-05-2.87385E-05-1.03382E-06-4.73026E-20 2.58476E-19
 -1      3826 9.50008E-05-2.80026E-05-2.87165E-05-9.36869E-07 2.51126E-19 1.07757E-19
 -1      3827 9.47393E-05-2.76661E-05-2.87436E-05-9.97304E-07-1.10492E-19 4.21876E-19
 -1      3828 9.73640E-05-3.80185E-05-2.54391E-05-2.32794E-05 1.66221E-18-1.94541E-18
 -1      3829 9.65276E-05-2.80180E-05-2.93566E-05 2.91770E-07-4.45239E-19-7.13942E-19
 -1      3830 9.65391E-05-2.83380E-05-2.92327E-05 4.74405E-07-4.37161E-19-6.66395E-19
 -1      3831 9.66791E-05-2.84236E-05-2.92529E-05 4.26456E-07-3.18880E-19-8.89562E-19
 -1      3832 9.65835E-05-2.76950E-05-2.95229E-05 1.30778E-07-4.30817E-19-9.89196E-19
 -1      3833 9.39412E-05-2.11940E-05-3.11838E-05-1.22032E-06-7.73303E-19-2.06356E-18
 -1      3834 9.40708E-05-2.14566E-05-3.11261E-05-1.72134E-06-9.20470E-19-1.85993E-18
 -1      3835 9.46127E-05-2.23699E-05-3.09405E-05-8.18876E-07-6.14303E-19-1.70538E-18
 -1      3836 9.54582E-05-2.46585E-05-3.03505E-05 1.70178E-06 7.87672E-19-1.04631E-18
 -1      3837 9.53307E-05-2.41923E-05-3.04871E-05 1.54194E-06 5.15223E-19-1.26968E-18
 -1      3838 9.57227E-05-2.54270E-05-3.01143E-05 1.24220E-06 7.28111E-19-8.75731E-19
 -1      3839 9.62944E-05-2.75250E-05-2.94788E-05-6.79266E-08 3.32880E-19-8.86108E-19
 -1      3840 9.62410E-05-2.70406E-05-2.96441E-05 2.85592E-07 4.92743E-19-7.82792E-19
 -1      3841 9.79716E-05-3.85783E-05-2.55243E-05 1.83390E-05 2.37824E-19 1.11537E-19
 -1      3842 1.03745E-04-4.16926E-05-2.64788E-05 1.56768E-05 4.11232E-19 3.60399E-19
 -1      3843 1.08013E-04-4.53289E-05-2.67977E-05 1.50904E-05 1.23980E-18 4.10306E-19
 -1      3844 7.16409E-05-2.44397E-05-2.00526E-05 2.13749E-05 7.41352E-19-1.65557E-18
 -1      3845 9.50079E-05-2.80128E-05-2.87111E-05-8.32780E-07 2.58759E-19-7.80960E-20
 -1      3846 9.53133E-05-2.41222E-05-3.05145E-05-1.35237E-06-9.14642E-19-1.32839E-18
 -1      3847 9.62753E-05-2.89634E-05-2.88485E-05-8.45129E-07 1.49788E-19-6.24929E-19
 -1      3848 9.63238E-05-2.88582E-05-2.89107E-05-7.97966E-07 2.33467E-19-5.60772E-19
 -1      3849 9.58773E-05-2.90358E-05-2.86449E-05-7.87253E-07 7.76411E-20-3.16718E-19
 -1      3850 9.59344E-05-2.90657E-05-2.86576E-05-8.11735E-07 7.31874E-22-4.76541E-19
 -1      3851 9.59525E-05-2.90595E-05-2.86698E-05-7.04380E-07 4.18834E-20-4.58069E-19
 -1      3852 9.54304E-05-2.85547E-05-2.86612E-05-6.70134E-07-5.03574E-20 1.90593E-19
 -1      3853 9.54520E-05-2.86130E-05-2.86434E-05-7.18766E-07-3.16427E-19 2.39764E-19
 -1      3854 9.55079E-05-2.87000E-05-2.86332E-05-7.10410E-07-5.64626E-19 8.16347E-20
 -1      3855 8.26184E-05-2.60086E-05-2.42172E-05-1.74017E-05-2.75006E-18-1.32521E-18
 -1      3856 8.19691E-05-2.39638E-05-2.49223E-05-1.51938E-05-2.88707E-18-8.47921E-19
 -1      3857 9.59128E-05-2.60920E-05-2.99333E-05 7.94567E-07 5.69576E-19-8.55314E-19
 -1      3858 6.24982E-05-1.66238E-05-1.97878E-05 1.09421E-05 8.74873E-19-3.12325E-18
 -1      3859 5.87124E-05-1.43938E-05-1.86791E-05 6.10663E-06 1.04410E-18-3.77020E-18
 -1      3860 6.18613E-05-1.46744E-05-2.01527E-05 1.04342E-06 8.45842E-19-2.85470E-18
 -1      3861 9.56508E-05-2.88603E-05-2.86252E-05-7.23808E-07 4.56292E-20 1.36214E-19
 -1      3862 9.57833E-05-2.89326E-05-2.86514E-05-6.69976E-07-1.58373E-19 2.79299E-19
 -1      3863 9.55962E-05-2.87897E-05-2.86296E-05-7.13919E-07-3.63909E-19 2.18009E-19
 -1      3864 1.12518E-04-4.77093E-05-2.75454E-05 1.29293E-05 1.40208E-18 6.13804E-19
 -1      3865 9.60656E-05-2.62029E-05-2.99501E-05 6.30796E-07 5.26024E-19-9.07661E-19
 -1      3866 9.62105E-05-2.90319E-05-2.87887E-05-8.59109E-07 1.49407E-19-6.54706E-19
 -1      3867 9.64204E-05-2.90352E-05-2.88813E-05-7.52120E-07 1.51373E-19-5.55462E-19
 -1      3868 9.61544E-05-2.90756E-05-2.87476E-05-8.64526E-07-3.26595E-20-5.95276E-19
 -1      3869 7.49305E-05-2.21120E-05-2.24784E-05-1.66619E-05-2.30913E-18-2.89249E-18
 -1      3870 7.41677E-05-2.25686E-05-2.19300E-05-1.99006E-05 1.09921E-18-2.75777E-18
 -1      3871 9.61632E-05-2.86072E-05-2.89553E-05-7.86133E-07 2.66092E-19-6.10334E-19
 -1      3872 9.50652E-05-2.33390E-05-3.07491E-05 1.98102E-07-1.45523E-19-1.50834E-18
 -1      3873 9.50630E-05-2.33349E-05-3.07496E-05-1.79946E-07-3.96117E-19-1.59001E-18
 -1      3874 9.57746E-05-3.81113E-05-2.46318E-05 2.04601E-05-2.65975E-19-8.39572E-19
 -1      3875 9.04376E-05-3.65614E-05-2.30491E-05 2.41837E-05-1.34136E-19-1.17567E-18
 -1      3876 8.53995E-05-3.21889E-05-2.27110E-05 2.27722E-05 1.51407E-20-9.60853E-19
 -1      3877 9.23380E-05-3.41817E-05-2.48736E-05 1.86361E-05-5.30187E-19 2.45034E-19
 -1      3878 6.63825E-05-1.74116E-05-2.07351E-05-1.19694E-05-7.36047E-19-8.42639E-19
 -1      3879 7.07955E-05-2.01424E-05-2.16877E-05-1.45118E-05-1.18213E-18-1.89055E-18
 -1      3880 7.29853E-05-1.98209E-05-2.28440E-05-1.30892E-05-1.56298E-18-1.18340E-18
 -1      3881 7.85111E-05-2.11569E-05-2.45203E-05-1.28865E-05-2.10121E-18-1.21423E-18
 -1      3882 9.51478E-05-2.35744E-05-3.06858E-05 8.28841E-07 1.58618E-19-1.60491E-18
 -1      3883 9.50882E-05-2.34034E-05-3.07281E-05 4.81622E-07-2.55103E-20-1.49641E-18
 -1      3884 9.55965E-05-2.43680E-05-3.05094E-05 2.57464E-07-1.16291E-19-1.36353E-18
 -1      3885 9.45699E-05-2.23154E-05-3.09461E-05-1.64824E-06-9.15912E-19-1.71313E-18
 -1      3886 6.48880E-05-1.61888E-05-2.08764E-05-7.65610E-06-2.77410E-19-1.22621E-18
 -1      3887 9.63771E-05-2.79411E-05-2.93244E-05-2.85351E-07 2.32569E-19-7.79152E-19
 -1      3888 9.64544E-05-2.75986E-05-2.95107E-05-9.77369E-08 2.53146E-19-7.56393E-19
 -1      3889 9.63839E-05-2.82578E-05-2.92003E-05-4.99503E-07 2.29815E-19-7.59722E-19
 -1      3890 9.50918E-05-2.34077E-05-3.07291E-05-4.63661E-07-5.11097E-19-1.57326E-18
 -1      3891 9.51650E-05-2.35954E-05-3.06872E-05-8.36471E-07-7.72955E-19-1.72191E-18
 -1      3892 9.56003E-05-2.43769E-05-3.05099E-05-2.33525E-07-5.08190E-19-1.42680E-18
 -1      3893 7.76073E-05-2.67050E-05-2.19074E-05 2.11083E-05 2.31849E-19-1.83921E-18
 -1      3894 6.95835E-05-2.05388E-05-2.07852E-05 1.68204E-05 9.65146E-19-2.42199E-18
 -1      3895 9.66891E-05-2.90886E-05-2.89699E-05 5.22584E-07 7.91661E-20-1.22723E-18
 -1      3896 9.66172E-05-2.91688E-05-2.89064E-05 5.45966E-07 1.24135E-19-9.70351E-19
 -1      3897 9.65292E-05-2.92123E-05-2.88488E-05 5.44975E-07-2.31877E-20-1.02174E-18
 -1      3898 9.64427E-05-2.92292E-05-2.88051E-05 5.46257E-07-1.56411E-19-1.08343E-18
 -1      3899 9.66654E-05-2.92113E-05-2.89105E-05 4.24002E-07 8.89664E-20-9.96711E-19
 -1      3900 9.63388E-05-2.92171E-05-2.87657E-05 5.34272E-07-2.38394E-19-9.50867E-19
 -1      3901 9.62451E-05-2.91881E-05-2.87377E-05 5.25048E-07-4.45872E-19-6.28917E-19
 -1      3902 9.64748E-05-2.92515E-05-2.88118E-05 4.22877E-07-2.01360E-19-1.12298E-18
 -1      3903 9.61334E-05-2.91363E-05-2.87128E-05 5.10647E-07-3.58325E-19-5.13414E-19
 -1      3904 9.60370E-05-2.90745E-05-2.86970E-05 4.99797E-07-1.94534E-19-4.95023E-19
 -1      3905 9.62607E-05-2.91902E-05-2.87461E-05 4.07535E-07-1.50281E-19-7.27168E-19
 -1      3906 9.59210E-05-2.89934E-05-2.86834E-05 4.88358E-07-3.91629E-19-3.54040E-19
 -1      3907 9.58227E-05-2.89064E-05-2.86771E-05 4.82796E-07-4.39608E-19-3.51356E-19
 -1      3908 9.60351E-05-2.90560E-05-2.87065E-05 3.90681E-07-2.00827E-19-2.77070E-19
 -1      3909 9.57021E-05-2.88015E-05-2.86723E-05 4.78687E-07-3.33006E-19-4.40250E-19
 -1      3910 9.56002E-05-2.86929E-05-2.86733E-05 4.84068E-07-3.26070E-19-4.86053E-19
 -1      3911 9.58008E-05-2.88658E-05-2.86872E-05 3.81836E-07-4.93111E-19-8.97067E-19
 -1      3912 9.54724E-05-2.85668E-05-2.86750E-05 4.91420E-07-3.88076E-19-6.88720E-19
 -1      3913 9.53637E-05-2.84379E-05-2.86814E-05 5.12272E-07-5.30842E-19-6.06204E-19
 -1      3914 9.55549E-05-2.86275E-05-2.86833E-05 3.88992E-07-3.56382E-19-8.63948E-19
 -1      3915 9.52234E-05-2.82900E-05-2.86875E-05 5.34372E-07-4.45256E-19-6.28994E-19
 -1      3916 9.51030E-05-2.81399E-05-2.86974E-05 5.75253E-07-2.79200E-19-5.16112E-19
 -1      3917 9.52897E-05-2.83443E-05-2.86904E-05 4.19049E-07-4.90285E-19-6.23087E-19
 -1      3918 9.49436E-05-2.79684E-05-2.87061E-05 6.15922E-07-1.36137E-19-3.87933E-19
 -1      3919 9.48056E-05-2.77951E-05-2.87179E-05 6.81255E-07 2.65542E-19-2.09218E-19
 -1      3920 9.49934E-05-2.80132E-05-2.87045E-05 4.78980E-07-1.01789E-19-1.66455E-19
 -1      3921 9.46194E-05-2.75975E-05-2.87269E-05 7.44606E-07 4.12652E-19-3.38874E-19
 -1      3922 9.44574E-05-2.73991E-05-2.87384E-05 8.39137E-07 2.51996E-19-2.86155E-19
 -1      3923 9.46516E-05-2.76297E-05-2.87215E-05 5.76154E-07 2.54464E-19-3.48112E-19
 -1      3924 9.42357E-05-2.71730E-05-2.87453E-05 9.30073E-07 9.69238E-20-3.92739E-19
 -1      3925 9.40434E-05-2.69486E-05-2.87541E-05 1.05914E-06-1.00599E-19-4.87322E-19
 -1      3926 9.42479E-05-2.71888E-05-2.87365E-05 7.19017E-07 2.54620E-19-5.75845E-19
 -1      3927 9.37773E-05-2.66931E-05-2.87556E-05 1.18373E-06-3.88562E-19 1.39617E-19
 -1      3928 9.35493E-05-2.64440E-05-2.87585E-05 1.35353E-06-4.16963E-19 2.97324E-19
 -1      3929 9.37648E-05-2.66865E-05-2.87435E-05 9.17905E-07 2.49382E-19-7.99684E-19
 -1      3930 9.32303E-05-2.61612E-05-2.87504E-05 1.51951E-06-4.66477E-19 7.39800E-19
 -1      3931 9.29629E-05-2.58928E-05-2.87431E-05 1.73752E-06-3.87705E-19-1.00736E-19
 -1      3932 9.31850E-05-2.61233E-05-2.87352E-05 1.18595E-06-1.79461E-19-1.45143E-19
 -1      3933 9.25842E-05-2.55893E-05-2.87201E-05 1.95502E-06-3.70527E-19 2.60417E-19
 -1      3934 9.22777E-05-2.53133E-05-2.86973E-05 2.23060E-06-3.37518E-19 9.04186E-20
 -1      3935 9.24930E-05-2.55065E-05-2.87017E-05 1.54038E-06-4.21879E-19 6.67237E-19
 -1      3936 9.18350E-05-2.50025E-05-2.86523E-05 2.51326E-06-9.90496E-20-1.18052E-19
 -1      3937 9.14957E-05-2.47393E-05-2.86070E-05 2.85871E-06 1.88125E-19 3.13939E-19
 -1      3938 9.16773E-05-2.48544E-05-2.86303E-05 2.00447E-06-1.06973E-19 4.91529E-19
 -1      3939 9.09892E-05-2.44440E-05-2.85313E-05 3.22549E-06 1.67040E-19 4.02961E-19
 -1      3940 9.06332E-05-2.42263E-05-2.84553E-05 3.65766E-06 3.71376E-19 6.30035E-19
 -1      3941 9.07334E-05-2.42003E-05-2.85048E-05 2.61070E-06 3.29086E-19 1.50576E-19
 -1      3942 9.00697E-05-2.39817E-05-2.83379E-05 4.13559E-06 1.74500E-20 3.74889E-19
 -1      3943 8.97281E-05-2.38586E-05-2.82216E-05 4.67832E-06-4.32771E-19 4.57981E-19
 -1      3944 8.96671E-05-2.35980E-05-2.83048E-05 3.40556E-06 1.15101E-19 3.77489E-19
 -1      3945 8.91243E-05-2.37163E-05-2.80496E-05 5.30650E-06-4.17489E-19 3.56918E-19
 -1      3946 8.88512E-05-2.37590E-05-2.78830E-05 5.99358E-06-2.38075E-19 6.16553E-19
 -1      3947 8.84999E-05-2.31276E-05-2.80056E-05 4.45704E-06-3.57148E-19 7.67624E-21
 -1      3948 8.82383E-05-2.37913E-05-2.76414E-05 6.82950E-06-5.19433E-19 1.11020E-18
 -1      3949 8.81247E-05-2.41020E-05-2.74159E-05 7.70765E-06-5.80028E-19 9.65765E-19
 -1      3950 8.72760E-05-2.29036E-05-2.75773E-05 5.86482E-06-1.81215E-19 1.14774E-18
 -1      3951 8.75622E-05-2.44131E-05-2.70888E-05 8.83856E-06-3.92622E-19 7.16915E-19
 -1      3952 8.77641E-05-2.51451E-05-2.68000E-05 9.96396E-06 4.28064E-19 9.75908E-19
 -1      3953 8.60735E-05-2.30882E-05-2.69860E-05 7.78510E-06-5.35975E-19 1.40259E-18
 -1      3954 8.73769E-05-2.58929E-05-2.63712E-05 1.14948E-05 5.62367E-19 9.63500E-21
 -1      3955 8.81202E-05-2.72543E-05-2.60262E-05 1.29135E-05 3.77524E-19-2.47210E-19
 -1      3956 8.50613E-05-2.39575E-05-2.61921E-05 1.04279E-05 1.93694E-19 1.27583E-19
 -1      3957 8.87118E-05-2.89597E-05-2.56094E-05 1.48818E-05 1.13464E-19 1.68384E-19
 -1      3958 9.04258E-05-3.13346E-05-2.52579E-05 1.65685E-05 1.29785E-19 2.28037E-20
 -1      3959 8.75122E-05-3.07731E-05-2.43715E-05 1.86178E-05-1.84766E-19-8.66965E-19
 -1      3960 8.50768E-05-2.61673E-05-2.52711E-05 1.40511E-05 1.88278E-19-1.05205E-18
 -1      3961 9.30510E-05-2.58690E-05-2.87932E-05-1.72598E-06 9.86806E-21-2.52615E-19
 -1      3962 9.33476E-05-2.61841E-05-2.87906E-05-1.52863E-06 1.71905E-19-6.78336E-19
 -1      3963 9.51698E-05-2.82142E-05-2.86941E-05-6.49788E-07 3.15460E-19 5.40429E-19
 -1      3964 9.52754E-05-2.83548E-05-2.86820E-05-6.10644E-07 1.26821E-19 3.37114E-19
 -1      3965 7.26322E-05-1.78969E-05-2.33179E-05-9.20518E-06-1.48542E-18 2.57515E-19
 -1      3966 7.57512E-05-1.97398E-05-2.39903E-05-1.12223E-05-2.07275E-18-2.25496E-19
 -1      3967 7.72221E-05-1.93530E-05-2.48857E-05-9.53344E-06-1.39764E-18-1.33499E-20
 -1      3968 9.36773E-05-2.64980E-05-2.87913E-05-1.38937E-06 3.97786E-19-2.86396E-19
 -1      3969 9.39116E-05-2.67688E-05-2.87805E-05-1.22910E-06 4.17511E-19-8.97074E-19
 -1      3970 9.33092E-05-2.61723E-05-2.87665E-05-1.20388E-06 2.09765E-19-1.05160E-19
 -1      3971 9.41755E-05-2.70370E-05-2.87733E-05-1.11751E-06 8.32065E-20-6.25234E-19
 -1      3972 9.43615E-05-2.72677E-05-2.87585E-05-9.92266E-07-6.28016E-21-1.85589E-19
 -1      3973 9.38956E-05-2.67725E-05-2.87624E-05-9.76771E-07 2.42240E-19 8.56122E-20
 -1      3974 9.22634E-05-2.51437E-05-2.87675E-05-2.12887E-06 3.94018E-19-5.27612E-19
 -1      3975 9.26384E-05-2.55053E-05-2.87791E-05-1.89332E-06 4.97682E-19-4.62803E-20
 -1      3976 9.25760E-05-2.54762E-05-2.87485E-05-1.47735E-06 1.32950E-19-7.99806E-19
 -1      3977 9.12768E-05-2.43221E-05-2.86980E-05-2.59798E-06-7.26267E-19-4.94542E-19
 -1      3978 9.17482E-05-2.47288E-05-2.87322E-05-2.32372E-06-4.77102E-19-6.70252E-19
 -1      3979 9.16600E-05-2.46792E-05-2.86948E-05-1.79437E-06-7.00902E-20-6.58192E-19
 -1      3980 9.00485E-05-2.34136E-05-2.85623E-05-3.13356E-06-8.88216E-19-8.86640E-20
 -1      3981 9.06360E-05-2.38585E-05-2.86308E-05-2.81943E-06-4.45207E-19-2.45063E-19
 -1      3982 9.05193E-05-2.37826E-05-2.85868E-05-2.14991E-06-6.43581E-19-3.89230E-19
 -1      3983 8.85297E-05-2.24415E-05-2.83296E-05-3.74144E-06-7.36346E-19-8.40598E-19
 -1      3984 8.92543E-05-2.29098E-05-2.84485E-05-3.38221E-06-9.74226E-19-5.77190E-19
 -1      3985 8.91042E-05-2.27960E-05-2.83987E-05-2.53881E-06-4.76448E-19-5.67354E-19
 -1      3986 8.66638E-05-2.14472E-05-2.79571E-05-4.44442E-06-6.15416E-19-1.29578E-18
 -1      3987 8.75463E-05-2.19129E-05-2.81487E-05-4.02370E-06-7.21961E-19-1.10936E-18
 -1      3988 8.73531E-05-2.17391E-05-2.80953E-05-2.96117E-06-5.41940E-19-7.19880E-19
 -1      3989 8.43843E-05-2.04983E-05-2.73863E-05-5.30607E-06-4.73586E-19-9.92976E-19
 -1      3990 8.54397E-05-2.09168E-05-2.76806E-05-4.78324E-06-6.13388E-19-1.09040E-18
 -1      3991 8.51814E-05-2.06397E-05-2.76274E-05-3.43451E-06-7.25698E-19-3.60685E-19
 -1      3992 8.16081E-05-1.97036E-05-2.65294E-05-6.47266E-06-1.15678E-18-5.22629E-19
 -1      3993 8.28470E-05-2.00007E-05-2.69730E-05-5.76311E-06-8.81819E-19-4.29236E-19
 -1      3994 8.24565E-05-1.95348E-05-2.69242E-05-4.02197E-06-1.18875E-18 1.99524E-19
 -1      3995 7.88373E-05-1.94088E-05-2.54668E-05-8.34080E-06-1.20805E-18-3.13962E-19
 -1      3996 8.02349E-05-1.94832E-05-2.60992E-05-7.26560E-06-1.05878E-18-2.19141E-19
 -1      3997 7.95982E-05-1.86803E-05-2.60474E-05-4.99977E-06-1.22975E-18 9.76052E-19
 -1      3998 7.67601E-05-1.81762E-05-2.50154E-05-6.70841E-06-1.66032E-18 8.73986E-19
 -1      3999 9.65222E-05-2.87902E-05-2.90298E-05-6.64423E-07 1.60518E-19-5.15455E-19
 -1      4000 9.63622E-05-2.87108E-05-2.89952E-05-7.39517E-07 1.24471E-19-5.70881E-19
 -1      4001 9.63921E-05-2.85180E-05-2.90846E-05-6.24879E-07 1.15099E-19-6.91520E-19
 -1      4002 9.48989E-05-2.78843E-05-2.87195E-05-7.53069E-07 1.53635E-19 4.56771E-19
 -1      4003 9.50223E-05-2.80503E-05-2.87047E-05-6.88847E-07 3.12916E-19 3.72002E-19
 -1      4004 9.50689E-05-2.80931E-05-2.87028E-05-5.66381E-07 3.11413E-19 6.02210E-19
 -1      4005 9.60179E-05-2.90899E-05-2.86824E-05-8.35538E-07-1.43188E-19-7.11474E-19
 -1      4006 9.60760E-05-2.90894E-05-2.87074E-05-8.52251E-07-2.15532E-19-6.92054E-19
 -1      4007 9.62792E-05-2.91353E-05-2.87779E-05-7.67328E-07-2.95627E-22-4.34270E-19
 -1      4008 9.61192E-05-2.91333E-05-2.87100E-05-7.43132E-07-1.46088E-19-6.79769E-19
 -1      4009 9.52855E-05-2.40066E-05-3.05607E-05 1.33730E-06 3.96560E-19-1.47857E-18
 -1      4010 9.51755E-05-2.36783E-05-3.06464E-05 1.06099E-06 2.08383E-19-1.57563E-18
 -1      4011 9.56473E-05-2.45551E-05-3.04458E-05 6.97367E-07 1.07710E-19-1.41987E-18
 -1      4012 9.57023E-05-2.48842E-05-3.03316E-05 1.03260E-06 5.00133E-19-1.25374E-18
 -1      4013 9.60677E-05-2.60239E-05-3.00259E-05 5.29705E-07 3.44920E-19-1.10860E-18
 -1      4014 9.45744E-05-2.74954E-05-2.87474E-05-9.07035E-07-6.62419E-20 3.16785E-19
 -1      4015 9.47241E-05-2.76912E-05-2.87315E-05-8.13985E-07 1.22824E-19 4.35233E-19
 -1      4016 9.47502E-05-2.77220E-05-2.87243E-05-6.60657E-07 1.29011E-19 5.24288E-19
 -1      4017 9.67890E-05-2.87947E-05-2.91383E-05 4.44226E-07-1.46892E-19-1.24656E-18
 -1      4018 9.67470E-05-2.89659E-05-2.90501E-05 5.04943E-07-1.05201E-19-1.26058E-18
 -1      4019 9.68120E-05-2.90310E-05-2.90503E-05 3.95307E-07 1.32672E-19-9.74198E-19
 -1      4020 9.62151E-05-2.61264E-05-3.00410E-05-4.57675E-07-4.24000E-19-1.62832E-18
 -1      4021 9.64319E-05-2.68148E-05-2.98410E-05-1.56636E-07-2.84641E-19-1.41277E-18
 -1      4022 6.52871E-05-1.51387E-05-2.12964E-05-3.26260E-06-1.92138E-20-1.43030E-18
 -1      4023 6.91711E-05-1.67155E-05-2.24528E-05-6.61682E-06-8.14958E-19-4.56465E-19
 -1      4024 7.19256E-05-1.70271E-05-2.36101E-05-5.47249E-06-1.46157E-18 1.89335E-19
 -1      4025 9.59411E-05-2.51996E-05-3.03226E-05-6.74436E-08-3.62907E-19-1.33332E-18
 -1      4026 9.59454E-05-2.52630E-05-3.03018E-05-2.70359E-07-5.33431E-19-1.42406E-18
 -1      4027 8.25439E-05-2.83150E-05-2.31687E-05 1.93308E-05-1.66363E-20-1.28768E-18
 -1      4028 9.65515E-05-2.83385E-05-2.92353E-05-4.62108E-07 9.47511E-20-7.64781E-19
 -1      4029 9.43669E-05-2.72855E-05-2.87459E-05-7.96320E-07 2.74851E-19 4.98702E-19
 -1      4030 9.53419E-05-2.84078E-05-2.86858E-05-5.09337E-07 1.09062E-19 4.25701E-19
 -1      4031 9.54042E-05-2.84937E-05-2.86746E-05-5.90227E-07 4.33681E-20 4.04484E-20
 -1      4032 9.54988E-05-2.86127E-05-2.86667E-05-5.71837E-07-1.32943E-19 1.02008E-19
 -1      4033 9.60107E-05-2.90740E-05-2.86858E-05-5.98784E-07-1.73962E-19 1.73341E-19
 -1      4034 9.60959E-05-2.91263E-05-2.87009E-05-6.13645E-07-1.71127E-19-3.56075E-20
 -1      4035 9.66552E-05-2.88937E-05-2.90413E-05-5.92515E-07 1.21509E-19-6.15568E-19
 -1      4036 9.66916E-05-2.87154E-05-2.91309E-05-5.16576E-07 9.22750E-20-6.11389E-19
 -1      4037 9.59573E-05-2.52837E-05-3.02998E-05 2.93687E-07-1.05527E-19-1.27689E-18
 -1      4038 9.59409E-05-2.52087E-05-3.03215E-05 8.14350E-08-2.82723E-19-1.33787E-18
 -1      4039 9.62910E-05-2.59737E-05-3.01252E-05-8.08365E-09-3.19690E-19-1.16909E-18
 -1      4040 6.91467E-05-1.88443E-05-2.15094E-05 1.18921E-05 6.47735E-19-2.78813E-18
 -1      4041 9.56109E-05-2.87630E-05-2.86498E-05-6.54618E-07-3.93017E-19 3.48032E-19
 -1      4042 9.54470E-05-2.43679E-05-3.04727E-05-9.53670E-07-8.00694E-19-1.55328E-18
 -1      4043 9.64103E-05-2.68205E-05-2.98133E-05 1.96042E-07 2.61158E-19-1.02146E-18
 -1      4044 9.60465E-05-2.56863E-05-3.01676E-05 5.28723E-07 2.94177E-19-1.32025E-18
 -1      4045 9.66576E-05-2.78683E-05-2.94822E-05-2.09822E-07 3.66808E-20-8.28512E-19
 -1      4046 9.65781E-05-2.74237E-05-2.96397E-05 1.57164E-08 1.43119E-19-8.97227E-19
 -1      4047 9.65748E-05-2.71088E-05-2.97692E-05 6.54168E-08 9.72802E-20-9.36201E-19
 -1      4048 9.58167E-05-2.89242E-05-2.86668E-05-5.73712E-07-3.79740E-19 8.15601E-19
 -1      4049 9.59029E-05-2.90014E-05-2.86722E-05-5.83541E-07-3.00344E-19 4.50593E-19
 -1      4050 9.60302E-05-2.90675E-05-2.86996E-05-4.96697E-07-5.02949E-19 6.81240E-19
 -1      4051 6.59933E-05-1.54530E-05-2.17563E-05 1.12740E-06-1.54891E-19-2.64647E-18
 -1      4052 9.65395E-05-2.91155E-05-2.88957E-05-6.52148E-07 1.29012E-19-5.61020E-19
 -1      4053 9.66014E-05-2.90254E-05-2.89593E-05-6.21235E-07 1.32787E-19-5.81097E-19
 -1      4054 9.67474E-05-2.89645E-05-2.90514E-05-4.91144E-07 7.51087E-20-9.46392E-20
 -1      4055 9.67965E-05-2.85601E-05-2.92463E-05 3.95377E-07-2.24389E-19-1.21367E-18
 -1      4056 9.68793E-05-2.86524E-05-2.92407E-05 3.16617E-07-2.97749E-19-1.30640E-18
 -1      4057 9.67860E-05-2.82633E-05-2.93649E-05 2.78273E-07-3.21931E-19-1.17389E-18
 -1      4058 9.66195E-05-2.74069E-05-2.96612E-05-8.37357E-09-3.58128E-19-1.42925E-18
 -1      4059 9.67153E-05-2.78752E-05-2.95061E-05 1.86165E-07-3.71760E-19-1.35503E-18
 -1      4060 9.65572E-05-2.69843E-05-2.98157E-05-8.81805E-08-2.57084E-19-1.63249E-18
 -1      4061 9.58615E-05-2.51681E-05-3.02863E-05-5.88010E-07-6.64374E-19-1.52199E-18
 -1      4062 8.08064E-05-2.55360E-05-2.36994E-05 1.67120E-05 3.16711E-19-1.62267E-18
 -1      4063 9.46162E-05-2.75850E-05-2.87281E-05-5.31950E-07 1.99951E-19 1.39772E-19
 -1      4064 9.47921E-05-2.77900E-05-2.87174E-05-4.79650E-07 2.21722E-19 2.40444E-20
 -1      4065 9.65883E-05-2.92782E-05-2.88465E-05 2.91155E-07-1.10168E-19-1.23223E-18
 -1      4066 9.64855E-05-2.92695E-05-2.88055E-05 2.94852E-07-1.90578E-19-1.17151E-18
 -1      4067 9.63689E-05-2.92360E-05-2.87705E-05 2.83946E-07-1.13530E-19-1.11138E-18
 -1      4068 9.62581E-05-2.91846E-05-2.87444E-05 2.82669E-07 4.46217E-21-1.01656E-18
 -1      4069 9.64632E-05-2.92677E-05-2.88017E-05 1.59747E-07-4.87466E-20-1.49349E-18
 -1      4070 9.61343E-05-2.91138E-05-2.87227E-05 2.72652E-07-1.62238E-20-9.87240E-19
 -1      4071 9.60188E-05-2.90302E-05-2.87082E-05 2.71339E-07-3.86743E-19-9.71759E-19
 -1      4072 9.62262E-05-2.91628E-05-2.87444E-05 1.54719E-07-9.77032E-20-1.57772E-18
 -1      4073 9.58896E-05-2.89305E-05-2.86969E-05 2.64747E-07-6.61724E-19-9.66702E-19
 -1      4074 9.57685E-05-2.88205E-05-2.86912E-05 2.67049E-07-4.50123E-19-1.03470E-18
 -1      4075 9.59768E-05-2.89884E-05-2.87109E-05 1.51450E-07-3.27092E-19-1.15014E-18
 -1      4076 9.56332E-05-2.86958E-05-2.86879E-05 2.67674E-07-4.29933E-19-1.01730E-18
 -1      4077 9.55059E-05-2.85636E-05-2.86888E-05 2.77790E-07-3.98394E-19-9.22884E-19
 -1      4078 9.57130E-05-2.87582E-05-2.86954E-05 1.52967E-07-4.82305E-19-1.32158E-18
 -1      4079 9.53575E-05-2.84145E-05-2.86910E-05 2.83607E-07-1.10550E-19-6.79694E-19
 -1      4080 9.52178E-05-2.82580E-05-2.86965E-05 3.05364E-07-1.42876E-19-1.50384E-19
 -1      4081 9.54345E-05-2.84799E-05-2.86943E-05 1.61279E-07-2.31828E-19-1.24951E-18
 -1      4082 9.50514E-05-2.80840E-05-2.87022E-05 3.20700E-07 2.13754E-20-1.93767E-19
 -1      4083 9.48929E-05-2.79019E-05-2.87101E-05 3.56719E-07 2.69217E-19 1.27993E-19
 -1      4084 9.51246E-05-2.81489E-05-2.87019E-05 1.83496E-07 2.05259E-19-8.95581E-19
 -1      4085 9.46998E-05-2.76998E-05-2.87170E-05 3.83861E-07 2.32514E-19 6.54458E-19
 -1      4086 9.45147E-05-2.74891E-05-2.87252E-05 4.37644E-07 4.70880E-19 5.96785E-19
 -1      4087 9.47713E-05-2.77628E-05-2.87141E-05 2.21858E-07 5.61451E-19-7.64522E-21
 -1      4088 9.42851E-05-2.72554E-05-2.87308E-05 4.79914E-07 3.40157E-20 5.23214E-19
 -1      4089 9.40648E-05-2.70133E-05-2.87365E-05 5.55627E-07-9.18133E-20 2.38528E-19
 -1      4090 9.43561E-05-2.73145E-05-2.87262E-05 2.81620E-07 5.04167E-22 1.91200E-19
 -1      4091 9.37875E-05-2.67450E-05-2.87375E-05 6.17540E-07 9.36630E-20-3.74834E-19
 -1      4092 9.35232E-05-2.64698E-05-2.87375E-05 7.20386E-07 2.17662E-20-6.48724E-19
 -1      4093 9.38582E-05-2.67970E-05-2.87321E-05 3.69790E-07-5.77375E-19-4.84262E-19
 -1      4094 9.31866E-05-2.61654E-05-2.87299E-05 8.08153E-07-2.76369E-20-1.11708E-18
 -1      4095 9.28698E-05-2.58581E-05-2.87197E-05 9.44903E-07-1.24238E-19-8.55000E-19
 -1      4096 9.32553E-05-2.62047E-05-2.87247E-05 4.96040E-07-3.18170E-19-1.09410E-18
 -1      4097 9.24617E-05-2.55191E-05-2.86981E-05 1.06716E-06-1.17528E-19-1.02069E-19
 -1      4098 9.20857E-05-2.51845E-05-2.86722E-05 1.24693E-06-3.12392E-19-4.36779E-20
 -1      4099 9.25237E-05-2.55363E-05-2.86942E-05 6.73978E-07 1.14223E-19-1.26927E-18
 -1      4100 9.15939E-05-2.48167E-05-2.86296E-05 1.41577E-06-4.73456E-19 4.05730E-19
 -1      4101 9.11544E-05-2.44657E-05-2.85806E-05 1.65125E-06 5.12383E-20 3.71656E-19
 -1      4102 9.16398E-05-2.47969E-05-2.86282E-05 9.22960E-07 1.48690E-19-4.19058E-19
 -1      4103 9.05670E-05-2.40811E-05-2.85078E-05 1.88378E-06 3.99282E-19 5.55068E-20
 -1      4104 9.00643E-05-2.37327E-05-2.84265E-05 2.19311E-06 4.71281E-19 5.01235E-20
 -1      4105 9.05801E-05-2.40012E-05-2.85102E-05 1.27072E-06-1.01515E-19 3.28058E-19
 -1      4106 8.93694E-05-2.33507E-05-2.83117E-05 2.51382E-06 4.42468E-19 4.70959E-19
 -1      4107 8.88103E-05-2.30342E-05-2.81864E-05 2.92352E-06-2.37391E-19 4.58390E-19
 -1      4108 8.93222E-05-2.31756E-05-2.83188E-05 1.75730E-06 3.29114E-19-1.33660E-19
 -1      4109 8.79948E-05-2.26834E-05-2.80143E-05 3.36807E-06-8.77380E-19 6.27171E-19
 -1      4110 8.73963E-05-2.24415E-05-2.78307E-05 3.91739E-06-7.05502E-19 6.40135E-19
 -1      4111 8.78429E-05-2.23607E-05-2.80261E-05 2.44122E-06-2.67936E-19-2.01401E-19
 -1      4112 8.64447E-05-2.21628E-05-2.75814E-05 4.53894E-06-3.57351E-19-3.71601E-20
 -1      4113 8.58354E-05-2.20553E-05-2.73225E-05 5.28651E-06-2.09115E-19 1.62419E-19
 -1      4114 8.61155E-05-2.16126E-05-2.75957E-05 3.40959E-06-8.80841E-19-3.07386E-19
 -1      4115 8.47249E-05-2.18909E-05-2.69711E-05 6.15268E-06-9.41201E-19-2.50163E-19
 -1      4116 8.41599E-05-2.20013E-05-2.66174E-05 7.19375E-06-8.36020E-19-3.27110E-19
 -1      4117 8.41189E-05-2.10201E-05-2.69801E-05 4.78799E-06-6.73388E-19-2.14109E-18
 -1      4118 8.28378E-05-2.20064E-05-2.61278E-05 8.47637E-06-9.14298E-19-6.58667E-19
 -1      4119 8.24692E-05-2.25162E-05-2.56521E-05 9.96377E-06-4.14507E-19-1.44315E-18
 -1      4120 8.17057E-05-2.06312E-05-2.61125E-05 6.70058E-06-1.15958E-18-2.10861E-18
 -1      4121 9.41838E-05-2.71142E-05-2.87453E-05-6.40530E-07 3.24113E-19 5.76934E-20
 -1      4122 9.43981E-05-2.73548E-05-2.87358E-05-5.70000E-07 1.94134E-19 2.21202E-19
 -1      4123 9.44598E-05-2.74153E-05-2.87285E-05-3.78993E-07 1.36202E-19-8.01007E-19
 -1      4124 9.29927E-05-2.59219E-05-2.87479E-05-9.49090E-07 3.88436E-19 3.42803E-19
 -1      4125 9.33245E-05-2.62490E-05-2.87515E-05-8.41479E-07 7.00473E-19 5.43293E-19
 -1      4126 9.60342E-05-2.55611E-05-3.02095E-05 3.71031E-07 7.31879E-21-1.28612E-18
 -1      4127 9.36523E-05-2.65632E-05-2.87546E-05-7.80039E-07 3.00810E-19 2.09757E-19
 -1      4128 9.39179E-05-2.68447E-05-2.87495E-05-6.90679E-07 2.94416E-19 3.13213E-19
 -1      4129 9.33913E-05-2.63103E-05-2.87391E-05-5.34675E-07 4.05768E-19 4.52552E-19
 -1      4130 8.98880E-05-2.34089E-05-2.85007E-05-1.57291E-06-4.67355E-19-4.54720E-19
 -1      4131 9.05336E-05-2.38813E-05-2.85744E-05-1.42972E-06-5.66508E-19-3.76218E-19
 -1      4132 8.83270E-05-2.23896E-05-2.82721E-05-1.78315E-06-2.63334E-19-5.99643E-19
 -1      4133 8.91281E-05-2.29016E-05-2.83941E-05-1.63822E-06-3.32404E-19-3.87365E-19
 -1      4134 8.92890E-05-2.29857E-05-2.83877E-05-8.56488E-07-5.34273E-19-5.59796E-19
 -1      4135 8.63981E-05-2.13061E-05-2.79146E-05-1.97391E-06-5.45883E-19-4.70813E-19
 -1      4136 8.73923E-05-2.18467E-05-2.81056E-05-1.82951E-06-4.53873E-19-4.13803E-19
 -1      4137 8.76117E-05-2.19371E-05-2.81103E-05-8.47356E-07-4.33738E-19-6.76351E-19
 -1      4138 8.39977E-05-2.01814E-05-2.73745E-05-2.14272E-06-1.01805E-18 1.77575E-19
 -1      4139 8.52413E-05-2.07390E-05-2.76636E-05-1.99141E-06-5.18259E-19 3.05364E-19
 -1      4140 8.55455E-05-2.08297E-05-2.76883E-05-7.49200E-07-8.55501E-19-1.03381E-18
 -1      4141 8.09880E-05-1.90343E-05-2.65715E-05-2.30100E-06-1.01971E-18 6.37537E-20
 -1      4142 8.25416E-05-1.95945E-05-2.70037E-05-2.12523E-06-9.71286E-19 2.84560E-19
 -1      4143 8.29767E-05-1.96785E-05-2.70624E-05-5.27116E-07-1.12824E-18-4.87636E-19
 -1      4144 9.69128E-05-2.89786E-05-2.91130E-05 2.56608E-07 7.85862E-20-1.07644E-18
 -1      4145 9.68536E-05-2.91170E-05-2.90306E-05 2.90971E-07 2.96014E-19-9.96956E-19
 -1      4146 9.11517E-05-2.43441E-05-2.86387E-05-1.35513E-06-3.16092E-19 8.99311E-21
 -1      4147 9.16703E-05-2.47697E-05-2.86791E-05-1.21903E-06 5.09218E-20-8.29371E-20
 -1      4148 9.06545E-05-2.39576E-05-2.85624E-05-8.07239E-07-3.84810E-19 1.69715E-19
 -1      4149 9.56173E-05-2.87301E-05-2.86644E-05-5.68027E-07-2.69802E-20 2.89898E-19
 -1      4150 9.57053E-05-2.88283E-05-2.86623E-05-5.66390E-07 2.84935E-20 5.25158E-19
 -1      4151 9.58127E-05-2.88943E-05-2.86802E-05-4.81367E-07 9.25214E-20 4.19916E-19
 -1      4152 9.55870E-05-2.86738E-05-2.86774E-05-4.84040E-07 2.38312E-19 2.87085E-19
 -1      4153 9.21718E-05-2.51830E-05-2.87143E-05-1.14339E-06 2.70595E-19 6.20597E-20
 -1      4154 9.25871E-05-2.55591E-05-2.87323E-05-1.01963E-06 2.60429E-19 2.44005E-19
 -1      4155 9.26639E-05-2.56234E-05-2.87185E-05-6.29551E-07 4.34432E-19 1.18933E-18
 -1      4156 9.67120E-05-2.85049E-05-2.92328E-05-4.47958E-07 1.19126E-19-7.63431E-19
 -1      4157 9.67036E-05-2.82109E-05-2.93535E-05-3.07899E-07 6.00706E-20-7.64068E-19
 -1      4158 9.67950E-05-2.80360E-05-2.94675E-05-1.92529E-07-5.42298E-20-5.98194E-19
 -1      4159 9.68172E-05-2.85981E-05-2.92376E-05-3.75308E-07-7.81375E-20-4.51087E-19
 -1      4160 9.63209E-05-2.61546E-05-3.00642E-05-1.79294E-07-4.25890E-19-1.33430E-18
 -1      4161 9.59914E-05-2.54206E-05-3.02414E-05-3.85248E-07-4.70322E-19-1.61239E-18
 -1      4162 9.49745E-05-2.79861E-05-2.87092E-05-4.53506E-07 1.58407E-19 7.89948E-20
 -1      4163 9.51230E-05-2.81606E-05-2.86996E-05-4.18053E-07 2.60596E-19 8.23584E-20
 -1      4164 9.48566E-05-2.78519E-05-2.87135E-05-3.25566E-07 3.91819E-19-2.63245E-19
 -1      4165 9.62400E-05-2.91841E-05-2.87399E-05-5.20455E-07-3.67847E-19 1.95223E-19
 -1      4166 9.61997E-05-2.91695E-05-2.87261E-05-6.31101E-07-5.77680E-20-3.46394E-19
 -1      4167 9.62829E-05-2.91892E-05-2.87536E-05-6.42558E-07-8.66117E-20-2.86527E-19
 -1      4168 9.67805E-05-2.92066E-05-2.89579E-05 2.84483E-07 7.48424E-20-1.08321E-18
 -1      4169 9.66917E-05-2.92584E-05-2.88985E-05 3.01922E-07-1.34694E-19-1.20226E-18
 -1      4170 9.68598E-05-2.91663E-05-2.90152E-05 1.62527E-07 2.22920E-20-1.37201E-18
 -1      4171 6.78222E-05-1.59359E-05-2.20640E-05 5.74374E-06 2.57544E-19-3.79080E-18
 -1      4172 7.02364E-05-1.64264E-05-2.30587E-05 1.82018E-06-7.80832E-19-2.47529E-18
 -1      4173 7.17890E-05-1.63282E-05-2.36470E-05-2.12461E-06-1.35499E-18-5.97602E-19
 -1      4174 7.44138E-05-1.74209E-05-2.44081E-05-4.61530E-06-1.93662E-18 1.25610E-19
 -1      4175 7.59039E-05-1.76507E-05-2.50199E-05-3.70419E-06-1.42278E-18 4.39171E-19
 -1      4176 7.28818E-05-1.96746E-05-2.28496E-05 1.12481E-05 1.70482E-19-2.34025E-18
 -1      4177 9.63562E-05-2.62400E-05-3.00374E-05 1.66709E-07-5.71866E-20-1.11671E-18
 -1      4178 9.65322E-05-2.67001E-05-2.99303E-05-5.32118E-08-3.82595E-19-1.12633E-18
 -1      4179 9.65786E-05-2.68800E-05-2.98731E-05-1.00829E-07-3.30249E-19-1.44338E-18
 -1      4180 9.67539E-05-2.74595E-05-2.96945E-05 4.32627E-08-3.55774E-19-1.39541E-18
 -1      4181 9.52806E-05-2.83280E-05-2.86934E-05-4.02747E-07 2.14615E-19 6.71629E-20
 -1      4182 9.54111E-05-2.84765E-05-2.86870E-05-3.82316E-07 1.75913E-19 1.49796E-19
 -1      4183 9.51929E-05-2.82243E-05-2.86998E-05-2.89187E-07 1.43203E-19 2.31936E-19
 -1      4184 7.90448E-05-2.09131E-05-2.49318E-05 9.71403E-06-5.34140E-19-2.46384E-18
 -1      4185 8.10301E-05-2.28835E-05-2.49633E-05 1.17399E-05-2.27872E-20-1.61218E-18
 -1      4186 9.39800E-05-2.69048E-05-2.87394E-05-4.49444E-07 2.55170E-19-2.91047E-19
 -1      4187 8.15623E-05-2.42531E-05-2.44652E-05 1.38486E-05 1.09267E-19-1.85753E-18
 -1      4188 9.69474E-05-2.85285E-05-2.93222E-05 1.84673E-07-1.60808E-19-1.42583E-18
 -1      4189 9.69409E-05-2.87836E-05-2.92114E-05 2.47928E-07-1.61779E-19-1.25158E-18
 -1      4190 9.69651E-05-2.88717E-05-2.91851E-05 1.40223E-07 8.50908E-20-1.26343E-18
 -1      4191 9.65466E-05-2.67114E-05-2.99332E-05 2.07363E-08-2.82046E-19-1.24940E-18
 -1      4192 7.94669E-05-1.85774E-05-2.61580E-05-2.61534E-06-1.46246E-18 5.14366E-20
 -1      4193 8.00287E-05-1.85199E-05-2.62636E-05-4.80145E-07-1.16072E-18-5.51638E-19
 -1      4194 7.81962E-05-1.82425E-05-2.57107E-05-3.15044E-06-1.54551E-18 4.59258E-19
 -1      4195 9.17644E-05-2.48391E-05-2.86651E-05-7.25052E-07 2.65503E-19 1.15174E-18
 -1      4196 7.65947E-05-2.19033E-05-2.33655E-05 1.40542E-05 6.62869E-20-2.37891E-18
 -1      4197 9.66804E-05-2.92821E-05-2.88892E-05 1.61578E-07-6.32440E-20-1.93261E-18
 -1      4198 9.63799E-05-2.91930E-05-2.87936E-05-6.55052E-07-2.46103E-20-3.82109E-19
 -1      4199 9.64571E-05-2.91681E-05-2.88369E-05-6.52436E-07-1.03213E-20-3.85532E-19
 -1      4200 9.64389E-05-2.92271E-05-2.88070E-05-5.38300E-07-1.66246E-19 2.03953E-19
 -1      4201 9.60340E-05-2.90528E-05-2.87050E-05-3.80541E-07-1.96665E-20-3.92967E-19
 -1      4202 9.61425E-05-2.91278E-05-2.87200E-05-3.85077E-07-3.43033E-19-1.29805E-19
 -1      4203 9.68895E-05-2.87437E-05-2.92052E-05-3.33047E-07-1.23415E-19-3.93615E-19
 -1      4204 9.69102E-05-2.85290E-05-2.93067E-05-2.47644E-07-1.94134E-19-3.74008E-19
 -1      4205 7.43073E-05-1.89684E-05-2.37434E-05 8.61408E-06-3.51366E-19-2.48933E-18
 -1      4206 9.66161E-05-2.91693E-05-2.89079E-05-5.35626E-07-1.44650E-20-2.58636E-20
 -1      4207 9.62608E-05-2.91909E-05-2.87430E-05-3.97947E-07-4.46457E-19 4.07695E-20
 -1      4208 9.63659E-05-2.92330E-05-2.87701E-05-4.02129E-07-3.14945E-19 3.02859E-20
 -1      4209 9.62486E-05-2.91806E-05-2.87471E-05-2.78485E-07-3.74463E-20-9.08475E-19
 -1      4210 9.68178E-05-2.80011E-05-2.94924E-05 1.63320E-07-2.51836E-19-1.36793E-18
 -1      4211 7.27865E-05-1.70326E-05-2.39054E-05 2.00989E-06-9.31399E-19-1.85551E-18
 -1      4212 9.68121E-05-2.90838E-05-2.90240E-05-3.96830E-07-5.49787E-20-2.02858E-19
 -1      4213 9.68654E-05-2.89454E-05-2.91078E-05-3.51404E-07-3.18981E-20-3.92808E-19
 -1      4214 9.69346E-05-2.88805E-05-2.91689E-05-2.28799E-07-1.31077E-19-7.06918E-19
 -1      4215 7.60813E-05-1.88513E-05-2.45459E-05 6.83384E-06-7.18952E-19-2.58239E-18
 -1      4216 9.38781E-05-2.68464E-05-2.87341E-05-7.29899E-08-1.17048E-19-4.70345E-19
 -1      4217 9.41468E-05-2.71151E-05-2.87313E-05-4.79828E-08-1.64278E-19-7.79541E-19
 -1      4218 9.68514E-05-2.78656E-05-2.95676E-05 7.01469E-08-1.74141E-19-1.35501E-18
 -1      4219 9.69223E-05-2.82626E-05-2.94252E-05 1.67553E-07-1.47748E-19-1.37969E-18
 -1      4220 9.69695E-05-2.83985E-05-2.93885E-05 9.31181E-08-1.16686E-19-1.35991E-18
 -1      4221 9.68544E-05-2.77468E-05-2.96189E-05 3.36564E-08-2.33618E-19-1.22938E-18
 -1      4222 9.43823E-05-2.73637E-05-2.87266E-05-7.31443E-08 7.05077E-20-7.41431E-19
 -1      4223 9.46030E-05-2.75946E-05-2.87202E-05-5.19054E-08 4.58762E-19-7.80462E-19
 -1      4224 9.62642E-05-2.91791E-05-2.87487E-05-5.68557E-08 2.69328E-20-1.28318E-18
 -1      4225 9.61376E-05-2.91038E-05-2.87269E-05-5.56114E-08-7.51712E-20-1.36101E-18
 -1      4226 9.57903E-05-2.88261E-05-2.86989E-05 2.99542E-08-2.25586E-19-1.29119E-18
 -1      4227 9.56549E-05-2.87001E-05-2.86945E-05 3.30198E-08-4.44228E-19-1.07829E-18
 -1      4228 9.54649E-05-2.85137E-05-2.86937E-05-5.93199E-08-3.16354E-19-6.88712E-19
 -1      4229 9.53151E-05-2.83581E-05-2.86962E-05-5.21897E-08-1.94244E-19-6.29690E-19
 -1      4230 9.51559E-05-2.81892E-05-2.87014E-05-6.32472E-08 1.20774E-19-6.90499E-19
 -1      4231 9.49856E-05-2.80061E-05-2.87067E-05-5.24237E-08 5.06957E-19-7.36983E-19
 -1      4232 9.48008E-05-2.78083E-05-2.87138E-05-6.86773E-08 6.54775E-19-9.08001E-19
 -1      4233 9.35936E-05-2.65591E-05-2.87339E-05-3.60665E-08-2.81372E-19-4.92728E-19
 -1      4234 9.32627E-05-2.62482E-05-2.87291E-05-6.22655E-08-4.72242E-19 9.00426E-20
 -1      4235 9.29171E-05-2.59194E-05-2.87197E-05-8.71969E-09 8.24964E-20-2.51503E-19
 -1      4236 9.25081E-05-2.55634E-05-2.87019E-05-3.16528E-08 1.53326E-19 1.77804E-19
 -1      4237 9.20886E-05-2.51929E-05-2.86777E-05 4.55810E-08 3.92653E-19 3.99858E-19
 -1      4238 9.15836E-05-2.47912E-05-2.86401E-05 3.28735E-08 2.74099E-19 1.51634E-19
 -1      4239 9.10770E-05-2.43823E-05-2.85937E-05 1.44070E-07 1.13138E-20 4.18610E-19
 -1      4240 9.04553E-05-2.39378E-05-2.85266E-05 1.51709E-07-3.58597E-19 1.30539E-19
 -1      4241 8.98483E-05-2.34986E-05-2.84483E-05 3.11787E-07-2.55014E-19 1.35927E-19
 -1      4242 8.90846E-05-2.30180E-05-2.83389E-05 3.53660E-07 2.47126E-20-2.74297E-19
 -1      4243 8.83627E-05-2.25622E-05-2.82159E-05 5.84283E-07 2.45826E-19-2.56994E-19
 -1      4244 8.74239E-05-2.20564E-05-2.80470E-05 6.78523E-07-3.31146E-19-5.67943E-19
 -1      4245 8.65696E-05-2.16032E-05-2.78625E-05 1.01126E-06-9.10122E-19-1.03794E-18
 -1      4246 8.54085E-05-2.10857E-05-2.76101E-05 1.18069E-06-1.02466E-18-7.88234E-19
 -1      4247 8.43967E-05-2.06594E-05-2.73418E-05 1.66294E-06-9.92429E-19-1.18153E-18
 -1      4248 8.29341E-05-2.01344E-05-2.69716E-05 1.93989E-06-8.03455E-19-1.53782E-18
 -1      4249 8.17117E-05-1.97840E-05-2.65838E-05 2.65386E-06-9.29174E-19-1.94820E-18
 -1      4250 8.01949E-05-1.92899E-05-2.61664E-05 2.73033E-06-1.02838E-18-1.56746E-18
 -1      4251 7.88703E-05-1.90023E-05-2.56666E-05 3.62277E-06-9.79324E-19-1.74734E-18
 -1      4252 9.68898E-05-2.82450E-05-2.94179E-05-2.03211E-07-2.04778E-19-4.64774E-19
 -1      4253 9.68476E-05-2.79108E-05-2.95443E-05-9.50714E-08-1.68754E-19-6.27798E-19
 -1      4254 9.69484E-05-2.84035E-05-2.93774E-05-1.47796E-07-3.55540E-19-5.04108E-19
 -1      4255 9.65657E-05-2.69462E-05-2.98444E-05 1.01815E-07 1.43211E-20-9.31281E-19
 -1      4256 9.65238E-05-2.66891E-05-2.99297E-05 7.02968E-08-1.96463E-19-1.10146E-18
 -1      4257 9.67583E-05-2.73216E-05-2.97516E-05-5.10015E-10-2.59797E-19-1.12098E-18
 -1      4258 9.66517E-05-2.92359E-05-2.88915E-05-4.12561E-07-1.28442E-19 7.04826E-20
 -1      4259 9.67348E-05-2.91813E-05-2.89518E-05-3.95174E-07-1.50756E-19-6.22582E-20
 -1      4260 9.68249E-05-2.91601E-05-2.90020E-05-2.55897E-07-2.55128E-19-8.37455E-19
 -1      4261 9.64659E-05-2.92558E-05-2.88029E-05-4.10858E-07-2.67496E-19 2.96209E-19
 -1      4262 9.65656E-05-2.92575E-05-2.88448E-05-4.08001E-07-1.19801E-19 1.32815E-19
 -1      4263 9.66565E-05-2.92685E-05-2.88842E-05-2.78553E-07-1.46882E-19-3.23327E-19
 -1      4264 9.64671E-05-2.92679E-05-2.88042E-05-2.84367E-07-1.81972E-19-1.43691E-19
 -1      4265 9.59103E-05-2.89600E-05-2.86928E-05-3.70311E-07 1.35706E-19-2.44763E-19
 -1      4266 9.60093E-05-2.90226E-05-2.87109E-05-2.67937E-07 1.24555E-19-7.88413E-19
 -1      4267 9.57982E-05-2.88591E-05-2.86876E-05-3.70628E-07 2.68889E-19-2.81005E-19
 -1      4268 9.67404E-05-2.75099E-05-2.96691E-05-5.53051E-08-6.90631E-21-7.48584E-19
 -1      4269 9.69409E-05-2.90583E-05-2.90882E-05-5.44893E-08-4.91282E-20-1.21568E-18
 -1      4270 9.68757E-05-2.91780E-05-2.90136E-05-4.82490E-08-2.44405E-19-1.44810E-18
 -1      4271 9.67084E-05-2.92853E-05-2.88943E-05-5.65711E-08-2.07276E-19-1.38714E-18
 -1      4272 9.66014E-05-2.92935E-05-2.88429E-05-5.26264E-08-1.56279E-20-1.31147E-18
 -1      4273 9.65020E-05-2.92759E-05-2.88086E-05-5.87303E-08 1.01461E-19-1.49516E-18
 -1      4274 9.63836E-05-2.92395E-05-2.87735E-05-5.70989E-08 4.04752E-20-1.32009E-18
 -1      4275 7.63678E-05-1.75274E-05-2.51959E-05-1.28945E-06-1.53003E-18-2.77326E-19
 -1      4276 9.68326E-05-2.77306E-05-2.96160E-05-5.92138E-08-1.30186E-19-5.79130E-19
 -1      4277 9.60123E-05-2.90120E-05-2.87133E-05-5.63009E-08-2.03627E-19-1.03080E-18
 -1      4278 9.55335E-05-2.85812E-05-2.86941E-05-1.82667E-07-7.79785E-20-4.96216E-19
 -1      4279 9.58802E-05-2.89065E-05-2.87020E-05-5.46473E-08-1.36037E-19-1.01080E-18
 -1      4280 9.69889E-05-2.88824E-05-2.91898E-05 4.50684E-08 1.21979E-19-1.34580E-18
 -1      4281 9.69739E-05-2.88878E-05-2.91820E-05-1.34670E-07-3.99279E-20-1.11362E-18
 -1      4282 9.69945E-05-2.86601E-05-2.92812E-05-1.18395E-07-7.46860E-20-7.89192E-19
 -1      4283 9.70117E-05-2.86551E-05-2.92906E-05 4.02768E-08 1.99010E-20-1.28781E-18
 -1      4284 9.69793E-05-2.84067E-05-2.93912E-05-8.27437E-08-2.82275E-19-7.93859E-19
 -1      4285 9.68651E-05-2.77486E-05-2.96233E-05-2.53029E-08-3.16032E-19-9.71956E-19
 -1      4286 7.50830E-05-1.74668E-05-2.46807E-05 2.29579E-06-1.00928E-18-1.95246E-18
 -1      4287 9.58084E-05-2.88467E-05-2.86984E-05-1.80897E-07-2.13095E-19-8.30734E-19
 -1      4288 9.55974E-05-2.86571E-05-2.86884E-05-2.95776E-07 9.93391E-20-3.84049E-19
 -1      4289 9.69491E-05-2.81088E-05-2.94987E-05-5.09402E-09-3.46171E-19-9.25586E-19
 -1      4290 9.69901E-05-2.84095E-05-2.93933E-05 2.81339E-08-1.88501E-19-1.18186E-18
 -1      4291 9.57186E-05-2.87801E-05-2.86881E-05-2.88620E-07 9.25485E-20-2.92524E-19
 -1      4292 9.67939E-05-2.92507E-05-2.89429E-05-5.53411E-08-2.24598E-19-1.38439E-18
 -3
    1PSTEP                         4           1           1          
  100CL  101 1.000000000        4292                     0    1           1
 -4  ERROR       1    1
 -5  STR(%)      1    1    0    0
 -1         1 4.57702E+01
 -1         2 2.41957E+01
 -1         3 1.70136E-01
 -1         4 1.05146E-01
 -1         5 1.40401E+01
 -1         6 1.31443E+01
 -1         7 1.31443E+01
 -1         8 3.66365E+00
 -1         9 1.82357E+00
 -1        10 1.29131E+00
 -1        11 1.04580E+00
 -1        12 8.99252E-01
 -1        13 8.08946E-01
 -1        14 7.54152E-01
 -1        15 7.56111E-01
 -1        16 8.13206E-01
 -1        17 9.00775E-01
 -1        18 1.05243E+00
 -1        19 1.30752E+00
 -1        20 1.83544E+00
 -1        21 3.50544E+00
 -1        22 8.64213E+00
 -1        23 1.31443E+01
 -1        24 4.31843E+00
 -1        25 3.34196E+00
 -1        26 2.11263E+00
 -1        27 1.36401E+00
 -1        28 1.01485E+00
 -1        29 7.76301E-01
 -1        30 5.97123E-01
 -1        31 4.57721E-01
 -1        32 3.50918E-01
 -1        33 2.73261E-01
 -1        34 2.11431E-01
 -1        35 1.63416E-01
 -1        36 1.27281E-01
 -1        37 1.01243E-01
 -1        38 8.36989E-02
 -1        39 7.32037E-02
 -1        40 7.84627E-02
 -1        41 8.93779E-02
 -1        42 1.14028E-01
 -1        43 1.47483E-01
 -1        44 1.89922E-01
 -1        45 2.40667E-01
 -1        46 2.97576E-01
 -1        47 3.56245E-01
 -1        48 4.09069E-01
 -1        49 5.23957E-01
 -1        50 6.56876E-01
 -1        51 8.09429E-01
 -1        52 9.27105E-01
 -1        53 9.56220E-01
 -1        54 1.00146E+00
 -1        55 1.02493E+00
 -1        56 1.18860E+00
 -1        57 1.50905E+00
 -1        58 2.44938E+00
 -1        59 3.24617E+00
 -1        60 3.34952E+00
 -1        61 3.34952E+00
 -1        62 3.29551E+00
 -1        63 2.79220E+00
 -1        64 1.79933E+00
 -1        65 1.07772E+00
 -1        66 6.30413E-01
 -1        67 5.26084E-01
 -1        68 5.58480E-01
 -1        69 5.58480E-01
 -1        70 5.20339E-01
 -1        71 4.53549E-01
 -1        72 1.40401E+01
 -1        73 3.39517E+00
 -1        74 2.41378E+00
 -1        75 1.66671E+00
 -1        76 1.14577E+00
 -1        77 9.06240E-01
 -1        78 7.31836E-01
 -1        79 5.88828E-01
 -1        80 4.69960E-01
 -1        81 3.71464E-01
 -1        82 2.98000E-01
 -1        83 2.37814E-01
 -1        84 1.88990E-01
 -1        85 1.50890E-01
 -1        86 1.22700E-01
 -1        87 1.03602E-01
 -1        88 9.43161E-02
 -1        89 1.05048E-01
 -1        90 1.23816E-01
 -1        91 1.50398E-01
 -1        92 1.84416E-01
 -1        93 2.25036E-01
 -1        94 2.78096E-01
 -1        95 3.62046E-01
 -1        96 4.62044E-01
 -1        97 5.74892E-01
 -1        98 6.92245E-01
 -1        99 7.97584E-01
 -1       100 8.62725E-01
 -1       101 9.65856E-01
 -1       102 1.29080E+00
 -1       103 1.56615E+00
 -1       104 1.71003E+00
 -1       105 2.13160E+00
 -1       106 2.13160E+00
 -1       107 2.78109E+00
 -1       108 4.02044E+00
 -1       109 4.88457E+00
 -1       110 5.40303E+00
 -1       111 5.40303E+00
 -1       112 4.31853E+00
 -1       113 2.24501E+00
 -1       114 1.35549E+00
 -1       115 1.80189E+00
 -1       116 1.80189E+00
 -1       117 1.74954E+00
 -1       118 1.33884E+00
 -1       119 1.21166E+00
 -1       120 7.30125E-01
 -1       121 3.66219E-01
 -1       122 3.66219E-01
 -1       123 2.81282E-01
 -1       124 1.51323E-01
 -1       125 1.98458E-01
 -1       126 3.35066E-01
 -1       127 3.84653E-01
 -1       128 3.84653E-01
 -1       129 3.36454E-01
 -1       130 2.05126E-01
 -1       131 9.27989E-02
 -1       132 1.64129E-01
 -1       133 1.91714E-01
 -1       134 1.91714E-01
 -1       135 2.61320E-01
 -1       136 2.64695E-01
 -1       137 2.40731E+01
 -1       138 3.30022E+01
 -1       139 3.30022E+01
 -1       140 2.37222E+01
 -1       141 1.33783E+01
 -1       142 1.33783E+01
 -1       143 1.25097E+01
 -1       144 1.25097E+01
 -1       145 1.22745E+01
 -1       146 1.26701E+01
 -1       147 2.96865E+01
 -1       148 3.12576E+01
 -1       149 2.77220E+01
 -1       150 2.47850E+01
 -1       151 2.43715E+01
 -1       152 2.43715E+01
 -1       153 4.57702E+01
 -1       154 1.82948E+01
 -1       155 1.21403E+01
 -1       156 1.28796E+01
 -1       157 1.28796E+01
 -1       158 1.23486E+01
 -1       159 1.21366E+01
 -1       160 1.20022E+01
 -1       161 2.10464E+01
 -1       162 4.74087E+01
 -1       163 4.74087E+01
 -1       164 2.42174E+01
 -1       165 6.07804E+00
 -1       166 2.29787E+00
 -1       167 1.50802E+00
 -1       168 1.15725E+00
 -1       169 9.73133E-01
 -1       170 8.64188E-01
 -1       171 7.96241E-01
 -1       172 7.56111E-01
 -1       173 7.99625E-01
 -1       174 8.67275E-01
 -1       175 9.80911E-01
 -1       176 1.17228E+00
 -1       177 1.52728E+00
 -1       178 2.26053E+00
 -1       179 3.93119E+00
 -1       180 1.40401E+01
 -1       181 4.31843E+00
 -1       182 3.34196E+00
 -1       183 2.11263E+00
 -1       184 1.44833E+00
 -1       185 1.02724E+00
 -1       186 7.76301E-01
 -1       187 5.97123E-01
 -1       188 4.70311E-01
 -1       189 3.71129E-01
 -1       190 2.93474E-01
 -1       191 2.37722E-01
 -1       192 1.90742E-01
 -1       193 1.52338E-01
 -1       194 1.21823E-01
 -1       195 9.82442E-02
 -1       196 8.05070E-02
 -1       197 7.27024E-02
 -1       198 7.84627E-02
 -1       199 9.52902E-02
 -1       200 1.20147E-01
 -1       201 1.51812E-01
 -1       202 1.89922E-01
 -1       203 2.40667E-01
 -1       204 3.04061E-01
 -1       205 3.90525E-01
 -1       206 4.80376E-01
 -1       207 5.61844E-01
 -1       208 6.65630E-01
 -1       209 8.09429E-01
 -1       210 9.27105E-01
 -1       211 9.56220E-01
 -1       212 1.00146E+00
 -1       213 1.02493E+00
 -1       214 1.18860E+00
 -1       215 1.60289E+00
 -1       216 2.44938E+00
 -1       217 3.24617E+00
 -1       218 3.34952E+00
 -1       219 3.29551E+00
 -1       220 2.79220E+00
 -1       221 1.92285E+00
 -1       222 1.26735E+00
 -1       223 8.12637E-01
 -1       224 4.68697E-01
 -1       225 5.26084E-01
 -1       226 5.58480E-01
 -1       227 5.20339E-01
 -1       228 4.53549E-01
 -1       229 3.39517E+00
 -1       230 2.41378E+00
 -1       231 1.66671E+00
 -1       232 1.14577E+00
 -1       233 9.06240E-01
 -1       234 7.31836E-01
 -1       235 5.88828E-01
 -1       236 4.69960E-01
 -1       237 3.71464E-01
 -1       238 2.98000E-01
 -1       239 2.37814E-01
 -1       240 1.91035E-01
 -1       241 1.54264E-01
 -1       242 1.25877E-01
 -1       243 1.05314E-01
 -1       244 9.28592E-02
 -1       245 9.57290E-02
 -1       246 1.07561E-01
 -1       247 1.25244E-01
 -1       248 1.50398E-01
 -1       249 1.91950E-01
 -1       250 2.49181E-01
 -1       251 3.19003E-01
 -1       252 4.00602E-01
 -1       253 4.92128E-01
 -1       254 5.86169E-01
 -1       255 6.92245E-01
 -1       256 7.97584E-01
 -1       257 8.80449E-01
 -1       258 1.10292E+00
 -1       259 1.29080E+00
 -1       260 1.56615E+00
 -1       261 1.71003E+00
 -1       262 2.13160E+00
 -1       263 2.08367E+00
 -1       264 2.78109E+00
 -1       265 4.02044E+00
 -1       266 4.88457E+00
 -1       267 5.40303E+00
 -1       268 4.31853E+00
 -1       269 2.24501E+00
 -1       270 1.26546E+00
 -1       271 1.38914E+00
 -1       272 1.80189E+00
 -1       273 1.74954E+00
 -1       274 1.33884E+00
 -1       275 1.21166E+00
 -1       276 7.64367E-01
 -1       277 4.46483E-01
 -1       278 4.48232E-01
 -1       279 4.48232E-01
 -1       280 3.02408E-01
 -1       281 5.75578E-01
 -1       282 7.33854E-01
 -1       283 7.35899E-01
 -1       284 7.35899E-01
 -1       285 5.83392E-01
 -1       286 3.26402E-01
 -1       287 2.96347E-01
 -1       288 3.49007E-01
 -1       289 3.49007E-01
 -1       290 3.39214E-01
 -1       291 3.43129E-01
 -1       292 2.96935E+01
 -1       293 3.15575E+01
 -1       294 3.30022E+01
 -1       295 2.57067E+01
 -1       296 1.23422E+01
 -1       297 1.33783E+01
 -1       298 1.23895E+01
 -1       299 1.25097E+01
 -1       300 1.22745E+01
 -1       301 1.14440E+01
 -1       302 1.26701E+01
 -1       303 3.12576E+01
 -1       304 3.12576E+01
 -1       305 2.51360E+01
 -1       306 2.87031E+01
 -1       307 2.87031E+01
 -1       308 2.74038E+01
 -1       309 4.57702E+01
 -1       310 1.97047E+01
 -1       311 1.08117E+01
 -1       312 1.21403E+01
 -1       313 1.28796E+01
 -1       314 1.23486E+01
 -1       315 1.21366E+01
 -1       316 1.20022E+01
 -1       317 1.10996E+01
 -1       318 2.24421E+01
 -1       319 4.74087E+01
 -1       320 2.95970E+01
 -1       321 2.96935E+01
 -1       322 1.04644E+00
 -1       323 2.48001E+00
 -1       324 7.91418E-01
 -1       325 6.93982E-01
 -1       326 6.31753E-01
 -1       327 5.87701E-01
 -1       328 5.90954E-01
 -1       329 6.34533E-01
 -1       330 7.01146E-01
 -1       331 7.96238E-01
 -1       332 9.31601E-01
 -1       333 1.15975E+00
 -1       334 1.32879E+00
 -1       335 2.20121E+00
 -1       336 1.91483E+00
 -1       337 1.73017E+00
 -1       338 1.26867E+00
 -1       339 9.08569E-01
 -1       340 6.57801E-01
 -1       341 5.40041E-01
 -1       342 4.43531E-01
 -1       343 3.58746E-01
 -1       344 2.93672E-01
 -1       345 2.39273E-01
 -1       346 1.92807E-01
 -1       347 1.56349E-01
 -1       348 1.27400E-01
 -1       349 1.02900E-01
 -1       350 8.24049E-02
 -1       351 6.85531E-02
 -1       352 6.50668E-02
 -1       353 7.70868E-02
 -1       354 9.52902E-02
 -1       355 1.20147E-01
 -1       356 1.57970E-01
 -1       357 2.15412E-01
 -1       358 2.82998E-01
 -1       359 3.58599E-01
 -1       360 4.37143E-01
 -1       361 5.09489E-01
 -1       362 5.75691E-01
 -1       363 6.47779E-01
 -1       364 7.07757E-01
 -1       365 6.97497E-01
 -1       366 5.71278E-01
 -1       367 4.88819E-01
 -1       368 6.43974E-01
 -1       369 1.16753E+00
 -1       370 1.57941E+00
 -1       371 2.03838E+00
 -1       372 2.20087E+00
 -1       373 2.06357E+00
 -1       374 2.10007E+00
 -1       375 1.77201E+00
 -1       376 1.45000E+00
 -1       377 1.08420E+00
 -1       378 8.39302E-01
 -1       379 5.98887E-01
 -1       380 5.56377E-01
 -1       381 4.38912E-01
 -1       382 4.74617E-01
 -1       383 1.13109E+00
 -1       384 8.92433E-01
 -1       385 7.05233E-01
 -1       386 5.46776E-01
 -1       387 4.39395E-01
 -1       388 3.73420E-01
 -1       389 3.10351E-01
 -1       390 2.55220E-01
 -1       391 2.10651E-01
 -1       392 1.71792E-01
 -1       393 1.39717E-01
 -1       394 1.15461E-01
 -1       395 9.73384E-02
 -1       396 8.50525E-02
 -1       397 8.12868E-02
 -1       398 8.54045E-02
 -1       399 9.73471E-02
 -1       400 1.24769E-01
 -1       401 1.60510E-01
 -1       402 2.23865E-01
 -1       403 3.15434E-01
 -1       404 4.32017E-01
 -1       405 5.75472E-01
 -1       406 7.43877E-01
 -1       407 9.28261E-01
 -1       408 1.10821E+00
 -1       409 1.25286E+00
 -1       410 1.38130E+00
 -1       411 1.38276E+00
 -1       412 1.36759E+00
 -1       413 1.10922E+00
 -1       414 1.08527E+00
 -1       415 1.68372E+00
 -1       416 2.56278E+00
 -1       417 3.08798E+00
 -1       418 3.23012E+00
 -1       419 2.93808E+00
 -1       420 2.68789E+00
 -1       421 1.72457E+00
 -1       422 1.17345E+00
 -1       423 1.08536E+00
 -1       424 1.10138E+00
 -1       425 1.19744E+00
 -1       426 1.03812E+00
 -1       427 9.76717E-01
 -1       428 7.64367E-01
 -1       429 5.26882E-01
 -1       430 7.75120E-01
 -1       431 7.75120E-01
 -1       432 7.26878E-01
 -1       433 1.05993E+00
 -1       434 1.07195E+00
 -1       435 1.07195E+00
 -1       436 1.05957E+00
 -1       437 7.24109E-01
 -1       438 4.83247E-01
 -1       439 4.75616E-01
 -1       440 4.75616E-01
 -1       441 4.74617E-01
 -1       442 3.15575E+01
 -1       443 3.05092E+01
 -1       444 3.05092E+01
 -1       445 1.81825E+01
 -1       446 1.05966E+01
 -1       447 9.18087E-01
 -1       448 9.60541E+00
 -1       449 1.04669E+01
 -1       450 1.04135E+01
 -1       451 8.94114E+00
 -1       452 7.23878E+00
 -1       453 1.16844E+01
 -1       454 2.04301E+01
 -1       455 2.34505E+01
 -1       456 3.27008E+01
 -1       457 3.27008E+01
 -1       458 2.52139E+01
 -1       459 2.74038E+01
 -1       460 1.58872E+01
 -1       461 9.08317E+00
 -1       462 7.23332E+00
 -1       463 9.62931E+00
 -1       464 1.07309E+01
 -1       465 1.02069E+01
 -1       466 9.36258E+00
 -1       467 6.62550E+00
 -1       468 9.90052E+00
 -1       469 1.67289E+01
 -1       470 2.95970E+01
 -1       471 2.89930E+01
 -1       472 5.89101E+00
 -1       473 6.09249E+00
 -1       474 1.04872E+00
 -1       475 4.86035E-01
 -1       476 5.10754E-01
 -1       477 4.31741E-01
 -1       478 4.57554E-01
 -1       479 4.87026E-01
 -1       480 5.10989E-01
 -1       481 5.10989E-01
 -1       482 6.08301E-01
 -1       483 9.55295E+00
 -1       484 8.92433E-01
 -1       485 8.03515E-01
 -1       486 7.03905E-01
 -1       487 5.90088E-01
 -1       488 4.78154E-01
 -1       489 3.79865E-01
 -1       490 3.25316E-01
 -1       491 2.75918E-01
 -1       492 2.29340E-01
 -1       493 1.90264E-01
 -1       494 1.56928E-01
 -1       495 1.27728E-01
 -1       496 1.02900E-01
 -1       497 8.24049E-02
 -1       498 6.60729E-02
 -1       499 5.41814E-02
 -1       500 5.91621E-02
 -1       501 7.09990E-02
 -1       502 9.65486E-02
 -1       503 1.38785E-01
 -1       504 1.89900E-01
 -1       505 2.50390E-01
 -1       506 3.19538E-01
 -1       507 3.94707E-01
 -1       508 4.70468E-01
 -1       509 5.37699E-01
 -1       510 5.96830E-01
 -1       511 6.59550E-01
 -1       512 7.13237E-01
 -1       513 7.18336E-01
 -1       514 7.83450E-01
 -1       515 9.23738E-01
 -1       516 1.09282E+00
 -1       517 1.34743E+00
 -1       518 1.60225E+00
 -1       519 2.08263E+00
 -1       520 1.92583E+00
 -1       521 2.04955E+00
 -1       522 1.86205E+00
 -1       523 1.52314E+00
 -1       524 1.43986E+00
 -1       525 1.14645E+00
 -1       526 8.93323E-01
 -1       527 7.41930E-01
 -1       528 5.56377E-01
 -1       529 5.46776E-01
 -1       530 4.39395E-01
 -1       531 3.73420E-01
 -1       532 3.10351E-01
 -1       533 2.55220E-01
 -1       534 2.10996E-01
 -1       535 1.72543E-01
 -1       536 1.39798E-01
 -1       537 1.12657E-01
 -1       538 9.08154E-02
 -1       539 7.37517E-02
 -1       540 6.34835E-02
 -1       541 6.35143E-02
 -1       542 7.72610E-02
 -1       543 9.73471E-02
 -1       544 1.43571E-01
 -1       545 2.06048E-01
 -1       546 2.86302E-01
 -1       547 3.87700E-01
 -1       548 5.12828E-01
 -1       549 6.62292E-01
 -1       550 8.32732E-01
 -1       551 1.01393E+00
 -1       552 1.18525E+00
 -1       553 1.31486E+00
 -1       554 1.46833E+00
 -1       555 1.67563E+00
 -1       556 1.78335E+00
 -1       557 1.93113E+00
 -1       558 2.35687E+00
 -1       559 2.20903E+00
 -1       560 4.02483E+00
 -1       561 7.80085E+00
 -1       562 8.55404E+00
 -1       563 4.10843E+00
 -1       564 3.35080E+00
 -1       565 2.20192E+00
 -1       566 1.86536E+00
 -1       567 1.37380E+00
 -1       568 1.28796E+00
 -1       569 1.12392E+00
 -1       570 8.00637E-01
 -1       571 1.33324E+00
 -1       572 1.64608E+00
 -1       573 1.15915E+00
 -1       574 1.27350E+00
 -1       575 1.64608E+00
 -1       576 1.62854E+00
 -1       577 1.31998E+00
 -1       578 9.08482E-01
 -1       579 7.51307E-01
 -1       580 6.96910E-01
 -1       581 4.38427E-01
 -1       582 3.05092E+01
 -1       583 1.42410E+01
 -1       584 7.05233E-01
 -1       585 2.89930E+01
 -1       586 2.23623E+01
 -1       587 9.35585E+00
 -1       588 5.32891E+00
 -1       589 8.01728E+00
 -1       590 4.57369E-01
 -1       591 6.65013E+00
 -1       592 8.55404E+00
 -1       593 8.55404E+00
 -1       594 7.80085E+00
 -1       595 1.37868E+01
 -1       596 5.04570E+00
 -1       597 1.03045E+01
 -1       598 1.49278E+01
 -1       599 2.34505E+01
 -1       600 3.27008E+01
 -1       601 2.52139E+01
 -1       602 1.90633E+01
 -1       603 1.26350E+01
 -1       604 7.47463E+00
 -1       605 6.06565E+00
 -1       606 4.62941E+00
 -1       607 6.94856E+00
 -1       608 7.30740E+00
 -1       609 5.29685E+00
 -1       610 4.30558E+00
 -1       611 1.95896E+01
 -1       612 8.74496E-01
 -1       613 1.32848E+00
 -1       614 7.19057E-01
 -1       615 6.75537E+00
 -1       616 3.77372E+00
 -1       617 1.70712E+01
 -1       618 1.04306E+01
 -1       619 4.74617E-01
 -1       620 3.58573E-01
 -1       621 3.43025E-01
 -1       622 3.61953E-01
 -1       623 3.37841E-01
 -1       624 1.40678E+01
 -1       625 5.44210E-01
 -1       626 3.98820E-01
 -1       627 3.85384E-01
 -1       628 3.44789E-01
 -1       629 2.95418E-01
 -1       630 2.45926E-01
 -1       631 2.14384E-01
 -1       632 1.81787E-01
 -1       633 1.50427E-01
 -1       634 1.23392E-01
 -1       635 1.00369E-01
 -1       636 8.03748E-02
 -1       637 6.28902E-02
 -1       638 4.70956E-02
 -1       639 3.89181E-02
 -1       640 4.58773E-02
 -1       641 7.42515E-02
 -1       642 1.10460E-01
 -1       643 1.54333E-01
 -1       644 2.07134E-01
 -1       645 2.69686E-01
 -1       646 3.41998E-01
 -1       647 4.22745E-01
 -1       648 5.08635E-01
 -1       649 5.92836E-01
 -1       650 6.72717E-01
 -1       651 7.93975E-01
 -1       652 9.24225E-01
 -1       653 1.02455E+00
 -1       654 1.21473E+00
 -1       655 1.53553E+00
 -1       656 1.54852E+00
 -1       657 1.84058E+00
 -1       658 2.42732E+00
 -1       659 3.91042E+00
 -1       660 3.09726E+00
 -1       661 4.64955E+00
 -1       662 3.49195E+00
 -1       663 2.07000E+00
 -1       664 1.53792E+00
 -1       665 1.31080E+00
 -1       666 8.93323E-01
 -1       667 7.41930E-01
 -1       668 3.29763E-01
 -1       669 2.08669E+00
 -1       670 1.46829E+01
 -1       671 3.98158E-01
 -1       672 2.36532E-01
 -1       673 1.99980E-01
 -1       674 1.66215E-01
 -1       675 1.37151E-01
 -1       676 1.12027E-01
 -1       677 9.03916E-02
 -1       678 7.23289E-02
 -1       679 5.74020E-02
 -1       680 4.66467E-02
 -1       681 5.52541E-02
 -1       682 7.64479E-02
 -1       683 1.17328E-01
 -1       684 1.69137E-01
 -1       685 2.34854E-01
 -1       686 3.17720E-01
 -1       687 4.21115E-01
 -1       688 5.48311E-01
 -1       689 7.02034E-01
 -1       690 8.83659E-01
 -1       691 1.09180E+00
 -1       692 1.31968E+00
 -1       693 1.55064E+00
 -1       694 1.80646E+00
 -1       695 2.37058E+00
 -1       696 2.70161E+00
 -1       697 3.74443E+00
 -1       698 2.54432E+00
 -1       699 3.35080E+00
 -1       700 2.84103E+00
 -1       701 2.29569E+00
 -1       702 2.10402E+00
 -1       703 1.78476E+00
 -1       704 2.26808E+00
 -1       705 6.96910E-01
 -1       706 2.22786E+00
 -1       707 2.26808E+00
 -1       708 2.22786E+00
 -1       709 5.03097E+00
 -1       710 1.54877E+00
 -1       711 1.34739E+00
 -1       712 1.02070E+00
 -1       713 1.03409E+01
 -1       714 6.57767E+00
 -1       715 1.58078E+01
 -1       716 1.12351E+01
 -1       717 5.99292E+00
 -1       718 7.67191E+00
 -1       719 3.82656E+00
 -1       720 4.65513E-01
 -1       721 2.74995E-01
 -1       722 4.08395E-01
 -1       723 8.92060E+00
 -1       724 3.61953E-01
 -1       725 7.38371E+00
 -1       726 3.05675E+00
 -1       727 3.62124E-01
 -1       728 5.49270E+00
 -1       729 1.54339E+01
 -1       730 1.26401E+01
 -1       731 3.26205E+00
 -1       732 1.74254E+01
 -1       733 9.36357E+00
 -1       734 5.16483E-01
 -1       735 4.80823E+00
 -1       736 4.64955E+00
 -1       737 5.13488E+00
 -1       738 3.67042E+00
 -1       739 3.83329E+00
 -1       740 4.21251E-01
 -1       741 3.42572E-01
 -1       742 4.10843E+00
 -1       743 1.16027E+01
 -1       744 2.08669E+00
 -1       745 4.51393E+00
 -1       746 1.04401E+01
 -1       747 3.57953E-01
 -1       748 4.46706E-01
 -1       749 8.38644E+00
 -1       750 7.63826E-01
 -1       751 2.40663E-01
 -1       752 4.65660E+00
 -1       753 6.59185E+00
 -1       754 2.55775E-01
 -1       755 2.49813E-01
 -1       756 2.28163E-01
 -1       757 1.99780E-01
 -1       758 1.72919E-01
 -1       759 1.51410E-01
 -1       760 1.28489E-01
 -1       761 1.05909E-01
 -1       762 8.44764E-02
 -1       763 6.43410E-02
 -1       764 4.51746E-02
 -1       765 2.79851E-02
 -1       766 2.95056E-02
 -1       767 5.13943E-02
 -1       768 8.10254E-02
 -1       769 1.19047E-01
 -1       770 1.64699E-01
 -1       771 2.18360E-01
 -1       772 2.79286E-01
 -1       773 3.60607E-01
 -1       774 4.58071E-01
 -1       775 5.69229E-01
 -1       776 6.93110E-01
 -1       777 8.34747E-01
 -1       778 1.00241E+00
 -1       779 1.27363E+00
 -1       780 1.56188E+00
 -1       781 1.77931E+00
 -1       782 2.01535E+00
 -1       783 2.19499E+00
 -1       784 2.94209E+00
 -1       785 4.64955E+00
 -1       786 2.41409E+00
 -1       787 1.82324E+00
 -1       788 1.31080E+00
 -1       789 8.56951E-01
 -1       790 3.41629E+00
 -1       791 9.72035E+00
 -1       792 1.64283E-01
 -1       793 1.90193E-01
 -1       794 1.12885E-01
 -1       795 8.96651E-02
 -1       796 6.84503E-02
 -1       797 5.14807E-02
 -1       798 3.49699E-02
 -1       799 3.14228E-02
 -1       800 5.13756E-02
 -1       801 8.34731E-02
 -1       802 1.23089E-01
 -1       803 1.72511E-01
 -1       804 2.39947E-01
 -1       805 3.30072E-01
 -1       806 4.43512E-01
 -1       807 5.83271E-01
 -1       808 7.50130E-01
 -1       809 9.41152E-01
 -1       810 1.20053E+00
 -1       811 1.55984E+00
 -1       812 2.06303E+00
 -1       813 2.71099E+00
 -1       814 5.57834E+00
 -1       815 8.38644E+00
 -1       816 5.48232E+00
 -1       817 2.88667E-01
 -1       818 3.92713E+00
 -1       819 4.85797E+00
 -1       820 1.56488E+00
 -1       821 2.56216E+00
 -1       822 3.91042E+00
 -1       823 2.30716E+00
 -1       824 3.65504E+00
 -1       825 4.66860E+00
 -1       826 1.06418E+01
 -1       827 1.37980E-01
 -1       828 2.88041E-01
 -1       829 9.72035E+00
 -1       830 3.07082E-01
 -1       831 7.66893E+00
 -1       832 2.82009E-01
 -1       833 8.83432E+00
 -1       834 8.95193E+00
 -1       835 6.87238E+00
 -1       836 2.60018E-01
 -1       837 2.34253E-01
 -1       838 1.01603E+01
 -1       839 3.49195E+00
 -1       840 2.81894E-01
 -1       841 4.68250E+00
 -1       842 4.85797E+00
 -1       843 8.77637E+00
 -1       844 4.83746E+00
 -1       845 2.55622E-01
 -1       846 2.18959E-01
 -1       847 2.80486E-01
 -1       848 1.01603E+01
 -1       849 2.88667E-01
 -1       850 2.10402E+00
 -1       851 4.83746E+00
 -1       852 2.80185E-01
 -1       853 8.38644E+00
 -1       854 5.11942E+00
 -1       855 2.56078E+00
 -1       856 2.88113E-01
 -1       857 3.76289E+00
 -1       858 2.73285E-01
 -1       859 1.23376E+00
 -1       860 4.63160E+00
 -1       861 6.09193E+00
 -1       862 1.83614E-01
 -1       863 1.76245E-01
 -1       864 1.60326E-01
 -1       865 1.40243E-01
 -1       866 1.23634E-01
 -1       867 1.06513E-01
 -1       868 8.87361E-02
 -1       869 7.11753E-02
 -1       870 5.41401E-02
 -1       871 4.15990E-02
 -1       872 4.37266E-02
 -1       873 5.02561E-02
 -1       874 7.91086E-02
 -1       875 1.15402E-01
 -1       876 1.59843E-01
 -1       877 2.13664E-01
 -1       878 2.77671E-01
 -1       879 3.51840E-01
 -1       880 4.34635E-01
 -1       881 5.28574E-01
 -1       882 6.58013E-01
 -1       883 8.42095E-01
 -1       884 1.11123E+00
 -1       885 1.42390E+00
 -1       886 1.76959E+00
 -1       887 2.40580E+00
 -1       888 2.98732E+00
 -1       889 2.13666E+00
 -1       890 1.33302E-01
 -1       891 7.68469E-02
 -1       892 9.61239E-02
 -1       893 4.04528E-02
 -1       894 3.78815E-02
 -1       895 4.42788E-02
 -1       896 7.34871E-02
 -1       897 1.12523E-01
 -1       898 1.63160E-01
 -1       899 2.28098E-01
 -1       900 3.11191E-01
 -1       901 4.17070E-01
 -1       902 5.51339E-01
 -1       903 7.20793E-01
 -1       904 9.33479E-01
 -1       905 1.19713E+00
 -1       906 1.51862E+00
 -1       907 1.99320E+00
 -1       908 2.98302E+00
 -1       909 4.77523E+00
 -1       910 7.35178E+00
 -1       911 3.06746E+00
 -1       912 2.65321E+00
 -1       913 6.16838E+00
 -1       914 6.19688E+00
 -1       915 2.10114E-01
 -1       916 5.83801E-02
 -1       917 1.53010E-01
 -1       918 7.35178E+00
 -1       919 3.36250E+00
 -1       920 2.88113E-01
 -1       921 1.92324E-01
 -1       922 1.75611E-01
 -1       923 5.45289E+00
 -1       924 6.46432E+00
 -1       925 4.76670E+00
 -1       926 6.00645E+00
 -1       927 1.65962E-01
 -1       928 2.10609E-01
 -1       929 6.33332E+00
 -1       930 1.83758E+00
 -1       931 1.76870E-01
 -1       932 1.15976E-01
 -1       933 3.27184E+00
 -1       934 1.67407E-01
 -1       935 6.09193E+00
 -1       936 1.35500E-01
 -1       937 2.17745E-01
 -1       938 2.17745E-01
 -1       939 3.34906E+00
 -1       940 1.92324E-01
 -1       941 2.04567E-01
 -1       942 1.35982E-01
 -1       943 1.26931E-01
 -1       944 1.13181E-01
 -1       945 9.83295E-02
 -1       946 8.54345E-02
 -1       947 7.16807E-02
 -1       948 5.79489E-02
 -1       949 5.07707E-02
 -1       950 5.27531E-02
 -1       951 5.77773E-02
 -1       952 6.97087E-02
 -1       953 1.01305E-01
 -1       954 1.40913E-01
 -1       955 1.90365E-01
 -1       956 2.51671E-01
 -1       957 3.27002E-01
 -1       958 4.18614E-01
 -1       959 5.28574E-01
 -1       960 6.58013E-01
 -1       961 8.12102E-01
 -1       962 1.07185E+00
 -1       963 1.48329E+00
 -1       964 1.87581E+00
 -1       965 2.49546E+00
 -1       966 1.92324E-01
 -1       967 5.31779E-02
 -1       968 4.84205E-02
 -1       969 9.85916E-02
 -1       970 1.41211E-01
 -1       971 1.95623E-01
 -1       972 2.65130E-01
 -1       973 3.54025E-01
 -1       974 4.68239E-01
 -1       975 6.16589E-01
 -1       976 8.13199E-01
 -1       977 1.08120E+00
 -1       978 1.45985E+00
 -1       979 1.99320E+00
 -1       980 2.72685E+00
 -1       981 7.88901E-02
 -1       982 5.11810E+00
 -1       983 1.97730E-01
 -1       984 2.15211E-01
 -1       985 1.23885E-01
 -1       986 6.51155E-02
 -1       987 1.36739E-01
 -1       988 2.15211E-01
 -1       989 1.15888E-01
 -1       990 1.47084E-01
 -1       991 1.41114E-01
 -1       992 9.44524E-02
 -1       993 4.82805E-02
 -1       994 3.85333E+00
 -1       995 5.49164E+00
 -1       996 6.33750E-02
 -1       997 1.24761E-01
 -1       998 1.56443E-01
 -1       999 3.68642E+00
 -1      1000 4.04171E+00
 -1      1001 1.53306E-01
 -1      1002 1.56307E-01
 -1      1003 1.63661E-01
 -1      1004 5.49164E+00
 -1      1005 9.81425E-02
 -1      1006 8.84470E-02
 -1      1007 7.67329E-02
 -1      1008 6.56133E-02
 -1      1009 5.79338E-02
 -1      1010 5.53757E-02
 -1      1011 5.76948E-02
 -1      1012 6.19990E-02
 -1      1013 7.08218E-02
 -1      1014 8.75794E-02
 -1      1015 1.12601E-01
 -1      1016 1.53353E-01
 -1      1017 2.05710E-01
 -1      1018 2.72970E-01
 -1      1019 3.59611E-01
 -1      1020 4.71904E-01
 -1      1021 6.18598E-01
 -1      1022 8.12102E-01
 -1      1023 1.07185E+00
 -1      1024 1.41399E+00
 -1      1025 2.05213E+00
 -1      1026 3.18155E+00
 -1      1027 2.04164E-01
 -1      1028 5.75480E-02
 -1      1029 2.51529E+00
 -1      1030 1.52085E-01
 -1      1031 1.11007E-01
 -1      1032 2.70204E-01
 -1      1033 3.54391E-01
 -1      1034 4.63234E-01
 -1      1035 6.07836E-01
 -1      1036 8.09620E-01
 -1      1037 1.11903E+00
 -1      1038 1.35761E+00
 -1      1039 1.65722E+00
 -1      1040 1.53021E-01
 -1      1041 6.47662E-02
 -1      1042 1.09310E-01
 -1      1043 1.40544E-01
 -1      1044 7.94867E-02
 -1      1045 1.03679E-01
 -1      1046 9.97529E-02
 -1      1047 3.49525E+00
 -1      1048 1.00959E-01
 -1      1049 7.03453E-02
 -1      1050 7.41448E-02
 -1      1051 1.17911E-01
 -1      1052 1.00959E-01
 -1      1053 9.89984E-02
 -1      1054 1.16838E-01
 -1      1055 6.24233E-02
 -1      1056 1.10569E-01
 -1      1057 1.02401E-01
 -1      1058 9.07137E-02
 -1      1059 7.94867E-02
 -1      1060 7.83747E-02
 -1      1061 7.05497E-02
 -1      1062 6.14850E-02
 -1      1063 5.79338E-02
 -1      1064 7.46406E-02
 -1      1065 6.19990E-02
 -1      1066 7.08218E-02
 -1      1067 8.75794E-02
 -1      1068 1.10958E-01
 -1      1069 1.47965E-01
 -1      1070 1.97688E-01
 -1      1071 2.64648E-01
 -1      1072 3.55736E-01
 -1      1073 4.81908E-01
 -1      1074 6.61290E-01
 -1      1075 9.24915E-01
 -1      1076 1.33185E+00
 -1      1077 1.74758E+00
 -1      1078 2.56595E+00
 -1      1079 1.00759E-01
 -1      1080 1.68816E-01
 -1      1081 1.29904E-01
 -1      1082 3.70436E-01
 -1      1083 4.82649E-01
 -1      1084 6.61290E-01
 -1      1085 9.24915E-01
 -1      1086 1.33185E+00
 -1      1087 7.73430E-02
 -1      1088 2.85190E-01
 -1      1089 5.50383E-02
 -1      1090 2.19531E-01
 -1      1091 1.21663E-01
 -1      1092 6.47662E-02
 -1      1093 8.55230E-02
 -1      1094 8.76791E-02
 -1      1095 3.49525E+00
 -1      1096 2.12375E+00
 -1      1097 5.74875E-02
 -1      1098 7.46406E-02
 -1      1099 2.77936E+00
 -1      1100 7.71494E-02
 -1      1101 2.56595E+00
 -1      1102 9.91842E-02
 -1      1103 7.05497E-02
 -1      1104 8.44561E-02
 -1      1105 7.83747E-02
 -1      1106 8.44561E-02
 -1      1107 6.28534E-02
 -1      1108 7.46406E-02
 -1      1109 6.98410E-02
 -1      1110 5.74875E-02
 -1      1111 8.76791E-02
 -1      1112 8.76791E-02
 -1      1113 6.10883E-02
 -1      1114 8.44561E-02
 -1      1115 1.31443E+01
 -1      1116 8.40399E+00
 -1      1117 2.74361E+00
 -1      1118 1.55744E+00
 -1      1119 1.16856E+00
 -1      1120 9.72525E-01
 -1      1121 8.54099E-01
 -1      1122 7.81549E-01
 -1      1123 7.55132E-01
 -1      1124 7.84659E-01
 -1      1125 8.56991E-01
 -1      1126 9.76600E-01
 -1      1127 1.17997E+00
 -1      1128 1.57148E+00
 -1      1129 2.67044E+00
 -1      1130 6.07378E+00
 -1      1131 1.13411E+01
 -1      1132 1.31443E+01
 -1      1133 8.73137E+00
 -1      1134 3.83019E+00
 -1      1135 2.72729E+00
 -1      1136 1.73832E+00
 -1      1137 1.18943E+00
 -1      1138 8.95576E-01
 -1      1139 6.86712E-01
 -1      1140 5.27422E-01
 -1      1141 4.04320E-01
 -1      1142 3.12090E-01
 -1      1143 2.42346E-01
 -1      1144 1.87424E-01
 -1      1145 1.45349E-01
 -1      1146 1.14262E-01
 -1      1147 9.24712E-02
 -1      1148 7.84513E-02
 -1      1149 7.58332E-02
 -1      1150 8.39203E-02
 -1      1151 1.01703E-01
 -1      1152 1.30756E-01
 -1      1153 1.68703E-01
 -1      1154 2.15295E-01
 -1      1155 2.69122E-01
 -1      1156 3.26910E-01
 -1      1157 3.82657E-01
 -1      1158 4.66513E-01
 -1      1159 5.90416E-01
 -1      1160 7.33153E-01
 -1      1161 8.68267E-01
 -1      1162 9.41663E-01
 -1      1163 9.78840E-01
 -1      1164 1.01319E+00
 -1      1165 1.10676E+00
 -1      1166 1.34882E+00
 -1      1167 1.97922E+00
 -1      1168 2.84778E+00
 -1      1169 3.29785E+00
 -1      1170 3.34952E+00
 -1      1171 3.32252E+00
 -1      1172 3.04385E+00
 -1      1173 2.29576E+00
 -1      1174 1.43852E+00
 -1      1175 8.54066E-01
 -1      1176 5.78248E-01
 -1      1177 5.42282E-01
 -1      1178 5.58480E-01
 -1      1179 5.39410E-01
 -1      1180 4.86944E-01
 -1      1181 2.79348E-01
 -1      1182 1.40401E+01
 -1      1183 8.71766E+00
 -1      1184 2.90448E+00
 -1      1185 2.04025E+00
 -1      1186 1.40624E+00
 -1      1187 1.02601E+00
 -1      1188 8.19038E-01
 -1      1189 6.60332E-01
 -1      1190 5.29394E-01
 -1      1191 4.20712E-01
 -1      1192 3.34732E-01
 -1      1193 2.67907E-01
 -1      1194 2.13402E-01
 -1      1195 1.69940E-01
 -1      1196 1.36795E-01
 -1      1197 1.13151E-01
 -1      1198 9.89593E-02
 -1      1199 9.96819E-02
 -1      1200 1.14432E-01
 -1      1201 1.37107E-01
 -1      1202 1.67407E-01
 -1      1203 2.04726E-01
 -1      1204 2.51566E-01
 -1      1205 3.20071E-01
 -1      1206 4.12045E-01
 -1      1207 5.18468E-01
 -1      1208 6.33568E-01
 -1      1209 7.44914E-01
 -1      1210 8.30155E-01
 -1      1211 9.14291E-01
 -1      1212 1.12833E+00
 -1      1213 1.42847E+00
 -1      1214 1.63809E+00
 -1      1215 1.92081E+00
 -1      1216 2.13160E+00
 -1      1217 2.45634E+00
 -1      1218 3.40076E+00
 -1      1219 4.45250E+00
 -1      1220 5.14380E+00
 -1      1221 5.40303E+00
 -1      1222 4.86078E+00
 -1      1223 3.28177E+00
 -1      1224 1.80025E+00
 -1      1225 1.57869E+00
 -1      1226 1.80189E+00
 -1      1227 1.77571E+00
 -1      1228 1.54419E+00
 -1      1229 1.27525E+00
 -1      1230 9.70891E-01
 -1      1231 4.50130E-01
 -1      1232 2.68178E-01
 -1      1233 3.66219E-01
 -1      1234 3.23751E-01
 -1      1235 2.16302E-01
 -1      1236 1.74890E-01
 -1      1237 2.66762E-01
 -1      1238 3.59860E-01
 -1      1239 3.84653E-01
 -1      1240 3.60554E-01
 -1      1241 2.70790E-01
 -1      1242 1.48963E-01
 -1      1243 1.28464E-01
 -1      1244 1.77922E-01
 -1      1245 1.91714E-01
 -1      1246 2.26517E-01
 -1      1247 2.63007E-01
 -1      1248 1.84921E-01
 -1      1249 2.41344E+01
 -1      1250 2.85376E+01
 -1      1251 3.30022E+01
 -1      1252 2.83622E+01
 -1      1253 1.85503E+01
 -1      1254 1.33783E+01
 -1      1255 1.29440E+01
 -1      1256 1.25097E+01
 -1      1257 1.23921E+01
 -1      1258 1.24723E+01
 -1      1259 2.11783E+01
 -1      1260 3.04720E+01
 -1      1261 2.94898E+01
 -1      1262 2.62535E+01
 -1      1263 2.45782E+01
 -1      1264 2.43715E+01
 -1      1265 3.50709E+01
 -1      1266 4.57702E+01
 -1      1267 3.20325E+01
 -1      1268 1.52175E+01
 -1      1269 1.25099E+01
 -1      1270 1.28796E+01
 -1      1271 1.26141E+01
 -1      1272 1.22426E+01
 -1      1273 1.20694E+01
 -1      1274 1.65243E+01
 -1      1275 3.42276E+01
 -1      1276 4.74087E+01
 -1      1277 3.58130E+01
 -1      1278 2.42066E+01
 -1      1279 1.31443E+01
 -1      1280 4.87084E+00
 -1      1281 9.61118E+00
 -1      1282 2.06072E+00
 -1      1283 2.98076E+00
 -1      1284 4.18795E+00
 -1      1285 1.39967E+00
 -1      1286 1.66579E+00
 -1      1287 1.90295E+00
 -1      1288 1.10153E+00
 -1      1289 1.22428E+00
 -1      1290 1.33264E+00
 -1      1291 9.36192E-01
 -1      1292 1.00947E+00
 -1      1293 1.06519E+00
 -1      1294 8.36567E-01
 -1      1295 8.81720E-01
 -1      1296 9.18660E-01
 -1      1297 7.75196E-01
 -1      1298 8.02593E-01
 -1      1299 8.30214E-01
 -1      1300 7.56111E-01
 -1      1301 7.55132E-01
 -1      1302 7.76176E-01
 -1      1303 8.06416E-01
 -1      1304 7.77868E-01
 -1      1305 7.77868E-01
 -1      1306 8.84025E-01
 -1      1307 8.40241E-01
 -1      1308 8.33450E-01
 -1      1309 1.01667E+00
 -1      1310 9.40843E-01
 -1      1311 9.24093E-01
 -1      1312 1.23990E+00
 -1      1313 1.11235E+00
 -1      1314 1.07660E+00
 -1      1315 1.68136E+00
 -1      1316 1.41740E+00
 -1      1317 1.34978E+00
 -1      1318 2.88298E+00
 -1      1319 2.04798E+00
 -1      1320 1.89390E+00
 -1      1321 6.28666E+00
 -1      1322 3.71832E+00
 -1      1323 3.09586E+00
 -1      1324 1.40401E+01
 -1      1325 1.13411E+01
 -1      1326 8.98567E+00
 -1      1327 1.40401E+01
 -1      1328 8.73137E+00
 -1      1329 4.31843E+00
 -1      1330 3.83019E+00
 -1      1331 3.34196E+00
 -1      1332 3.83019E+00
 -1      1333 2.72729E+00
 -1      1334 2.11263E+00
 -1      1335 2.72729E+00
 -1      1336 1.78048E+00
 -1      1337 1.40617E+00
 -1      1338 1.78048E+00
 -1      1339 1.19563E+00
 -1      1340 1.02104E+00
 -1      1341 1.23778E+00
 -1      1342 8.95576E-01
 -1      1343 7.76301E-01
 -1      1344 9.01769E-01
 -1      1345 6.86712E-01
 -1      1346 5.97123E-01
 -1      1347 6.86712E-01
 -1      1348 5.33717E-01
 -1      1349 4.64016E-01
 -1      1350 5.33717E-01
 -1      1351 4.14425E-01
 -1      1352 3.61024E-01
 -1      1353 4.20720E-01
 -1      1354 3.22196E-01
 -1      1355 2.83368E-01
 -1      1356 3.32301E-01
 -1      1357 2.55492E-01
 -1      1358 2.24577E-01
 -1      1359 2.65598E-01
 -1      1360 2.01087E-01
 -1      1361 1.77079E-01
 -1      1362 2.14232E-01
 -1      1363 1.57877E-01
 -1      1364 1.39810E-01
 -1      1365 1.71540E-01
 -1      1366 1.24552E-01
 -1      1367 1.11533E-01
 -1      1368 1.37081E-01
 -1      1369 9.97438E-02
 -1      1370 9.09716E-02
 -1      1371 1.10034E-01
 -1      1372 8.21030E-02
 -1      1373 7.68553E-02
 -1      1374 8.93756E-02
 -1      1375 7.29531E-02
 -1      1376 7.55826E-02
 -1      1377 7.66047E-02
 -1      1378 7.84627E-02
 -1      1379 8.39203E-02
 -1      1380 7.55826E-02
 -1      1381 9.23340E-02
 -1      1382 1.04659E-01
 -1      1383 8.68764E-02
 -1      1384 1.17088E-01
 -1      1385 1.33815E-01
 -1      1386 1.07719E-01
 -1      1387 1.49648E-01
 -1      1388 1.70867E-01
 -1      1389 1.35980E-01
 -1      1390 1.89922E-01
 -1      1391 2.15295E-01
 -1      1392 1.70867E-01
 -1      1393 2.40667E-01
 -1      1394 2.69122E-01
 -1      1395 2.15295E-01
 -1      1396 3.00818E-01
 -1      1397 3.30153E-01
 -1      1398 2.72364E-01
 -1      1399 3.73385E-01
 -1      1400 3.99797E-01
 -1      1401 3.47293E-01
 -1      1402 4.44723E-01
 -1      1403 5.02166E-01
 -1      1404 4.35451E-01
 -1      1405 5.42901E-01
 -1      1406 6.09360E-01
 -1      1407 5.21110E-01
 -1      1408 6.61253E-01
 -1      1409 7.37530E-01
 -1      1410 6.13737E-01
 -1      1411 8.09429E-01
 -1      1412 8.68267E-01
 -1      1413 7.37530E-01
 -1      1414 9.27105E-01
 -1      1415 9.41663E-01
 -1      1416 8.68267E-01
 -1      1417 9.56220E-01
 -1      1418 9.78840E-01
 -1      1419 9.41663E-01
 -1      1420 1.00146E+00
 -1      1421 1.01319E+00
 -1      1422 9.78840E-01
 -1      1423 1.02493E+00
 -1      1424 1.10676E+00
 -1      1425 1.01319E+00
 -1      1426 1.18860E+00
 -1      1427 1.34882E+00
 -1      1428 1.10676E+00
 -1      1429 1.55597E+00
 -1      1430 2.02614E+00
 -1      1431 1.39574E+00
 -1      1432 2.44938E+00
 -1      1433 2.84778E+00
 -1      1434 2.02614E+00
 -1      1435 3.24617E+00
 -1      1436 3.29785E+00
 -1      1437 2.84778E+00
 -1      1438 3.34952E+00
 -1      1439 3.34952E+00
 -1      1440 3.29785E+00
 -1      1441 3.32252E+00
 -1      1442 3.29551E+00
 -1      1443 3.32252E+00
 -1      1444 3.04385E+00
 -1      1445 2.79220E+00
 -1      1446 3.04385E+00
 -1      1447 2.35752E+00
 -1      1448 1.86109E+00
 -1      1449 2.35752E+00
 -1      1450 1.53334E+00
 -1      1451 1.17253E+00
 -1      1452 1.59510E+00
 -1      1453 9.45178E-01
 -1      1454 7.21525E-01
 -1      1455 1.03999E+00
 -1      1456 5.49555E-01
 -1      1457 4.97390E-01
 -1      1458 6.40667E-01
 -1      1459 5.26084E-01
 -1      1460 5.42282E-01
 -1      1461 4.97390E-01
 -1      1462 5.58480E-01
 -1      1463 5.58480E-01
 -1      1464 5.42282E-01
 -1      1465 5.39410E-01
 -1      1466 5.20339E-01
 -1      1467 5.39410E-01
 -1      1468 4.86944E-01
 -1      1469 4.53549E-01
 -1      1470 4.86944E-01
 -1      1471 3.59122E-01
 -1      1472 3.59122E-01
 -1      1473 3.39517E+00
 -1      1474 8.71766E+00
 -1      1475 8.71766E+00
 -1      1476 2.41378E+00
 -1      1477 2.90448E+00
 -1      1478 2.90448E+00
 -1      1479 1.66671E+00
 -1      1480 2.04025E+00
 -1      1481 2.04025E+00
 -1      1482 1.14577E+00
 -1      1483 1.40624E+00
 -1      1484 1.40624E+00
 -1      1485 9.06240E-01
 -1      1486 1.02601E+00
 -1      1487 1.02601E+00
 -1      1488 7.31836E-01
 -1      1489 8.19038E-01
 -1      1490 8.19038E-01
 -1      1491 5.88828E-01
 -1      1492 6.60332E-01
 -1      1493 6.60332E-01
 -1      1494 4.69960E-01
 -1      1495 5.29394E-01
 -1      1496 5.29394E-01
 -1      1497 3.71464E-01
 -1      1498 4.20712E-01
 -1      1499 4.20712E-01
 -1      1500 2.98000E-01
 -1      1501 3.34732E-01
 -1      1502 3.34732E-01
 -1      1503 2.37814E-01
 -1      1504 2.67907E-01
 -1      1505 2.67907E-01
 -1      1506 1.90013E-01
 -1      1507 2.14424E-01
 -1      1508 2.14424E-01
 -1      1509 1.52577E-01
 -1      1510 1.71627E-01
 -1      1511 1.72649E-01
 -1      1512 1.24289E-01
 -1      1513 1.38384E-01
 -1      1514 1.40071E-01
 -1      1515 1.04458E-01
 -1      1516 1.14007E-01
 -1      1517 1.15596E-01
 -1      1518 9.35876E-02
 -1      1519 9.82308E-02
 -1      1520 9.90868E-02
 -1      1521 1.00388E-01
 -1      1522 9.50226E-02
 -1      1523 9.42941E-02
 -1      1524 1.15688E-01
 -1      1525 1.06305E-01
 -1      1526 1.01645E-01
 -1      1527 1.37821E-01
 -1      1528 1.24530E-01
 -1      1529 1.16403E-01
 -1      1530 1.67407E-01
 -1      1531 1.50398E-01
 -1      1532 1.37821E-01
 -1      1533 2.08493E-01
 -1      1534 1.88183E-01
 -1      1535 1.71174E-01
 -1      1536 2.63639E-01
 -1      1537 2.37109E-01
 -1      1538 2.20566E-01
 -1      1539 3.40525E-01
 -1      1540 2.98549E-01
 -1      1541 2.84092E-01
 -1      1542 4.31323E-01
 -1      1543 3.81324E-01
 -1      1544 3.59802E-01
 -1      1545 5.33510E-01
 -1      1546 4.77086E-01
 -1      1547 4.46365E-01
 -1      1548 6.39207E-01
 -1      1549 5.80530E-01
 -1      1550 5.39148E-01
 -1      1551 7.44914E-01
 -1      1552 6.92245E-01
 -1      1553 6.39207E-01
 -1      1554 8.30155E-01
 -1      1555 7.97584E-01
 -1      1556 7.44914E-01
 -1      1557 9.23153E-01
 -1      1558 8.71587E-01
 -1      1559 8.39016E-01
 -1      1560 1.19686E+00
 -1      1561 1.03439E+00
 -1      1562 9.91684E-01
 -1      1563 1.42847E+00
 -1      1564 1.29080E+00
 -1      1565 1.19686E+00
 -1      1566 1.63809E+00
 -1      1567 1.56615E+00
 -1      1568 1.42847E+00
 -1      1569 1.92081E+00
 -1      1570 1.71003E+00
 -1      1571 1.63809E+00
 -1      1572 2.13160E+00
 -1      1573 2.13160E+00
 -1      1574 1.92081E+00
 -1      1575 2.43238E+00
 -1      1576 2.10764E+00
 -1      1577 2.10764E+00
 -1      1578 3.40076E+00
 -1      1579 2.78109E+00
 -1      1580 2.43238E+00
 -1      1581 4.45250E+00
 -1      1582 4.02044E+00
 -1      1583 3.40076E+00
 -1      1584 5.14380E+00
 -1      1585 4.88457E+00
 -1      1586 4.45250E+00
 -1      1587 5.40303E+00
 -1      1588 5.40303E+00
 -1      1589 5.14380E+00
 -1      1590 4.31853E+00
 -1      1591 4.86078E+00
 -1      1592 4.86078E+00
 -1      1593 2.24501E+00
 -1      1594 3.28177E+00
 -1      1595 3.28177E+00
 -1      1596 1.31048E+00
 -1      1597 1.75523E+00
 -1      1598 1.75523E+00
 -1      1599 1.59551E+00
 -1      1600 1.37232E+00
 -1      1601 1.32730E+00
 -1      1602 1.80189E+00
 -1      1603 1.80189E+00
 -1      1604 1.59551E+00
 -1      1605 1.74954E+00
 -1      1606 1.77571E+00
 -1      1607 1.77571E+00
 -1      1608 1.33884E+00
 -1      1609 1.54419E+00
 -1      1610 1.54419E+00
 -1      1611 1.21166E+00
 -1      1612 1.27525E+00
 -1      1613 1.27525E+00
 -1      1614 7.47246E-01
 -1      1615 9.88012E-01
 -1      1616 9.88012E-01
 -1      1617 5.48172E-01
 -1      1618 4.06351E-01
 -1      1619 4.06351E-01
 -1      1620 3.64757E-01
 -1      1621 4.07226E-01
 -1      1622 4.47358E-01
 -1      1623 2.99777E-01
 -1      1624 3.64757E-01
 -1      1625 4.48232E-01
 -1      1626 2.50433E-01
 -1      1627 2.26866E-01
 -1      1628 3.75320E-01
 -1      1629 4.55322E-01
 -1      1630 3.87018E-01
 -1      1631 4.38993E-01
 -1      1632 5.59254E-01
 -1      1633 5.34460E-01
 -1      1634 6.54716E-01
 -1      1635 5.60276E-01
 -1      1636 5.60276E-01
 -1      1637 7.34877E-01
 -1      1638 5.36177E-01
 -1      1639 5.60276E-01
 -1      1640 7.35899E-01
 -1      1641 3.94259E-01
 -1      1642 4.59923E-01
 -1      1643 6.59646E-01
 -1      1644 2.09601E-01
 -1      1645 2.65764E-01
 -1      1646 4.54897E-01
 -1      1647 2.30238E-01
 -1      1648 1.94573E-01
 -1      1649 3.11375E-01
 -1      1650 2.70360E-01
 -1      1651 2.56568E-01
 -1      1652 3.22677E-01
 -1      1653 2.70360E-01
 -1      1654 2.70360E-01
 -1      1655 3.49007E-01
 -1      1656 3.00267E-01
 -1      1657 2.65464E-01
 -1      1658 3.44111E-01
 -1      1659 3.03912E-01
 -1      1660 3.02225E-01
 -1      1661 3.41172E-01
 -1      1662 3.98339E-01
 -1      1663 2.68833E+01
 -1      1664 2.69446E+01
 -1      1665 3.22799E+01
 -1      1666 2.78153E+01
 -1      1667 3.30022E+01
 -1      1668 3.30022E+01
 -1      1669 2.47145E+01
 -1      1670 2.93544E+01
 -1      1671 1.28603E+01
 -1      1672 1.80322E+01
 -1      1673 1.33783E+01
 -1      1674 1.33783E+01
 -1      1675 1.24496E+01
 -1      1676 1.28839E+01
 -1      1677 1.25097E+01
 -1      1678 1.25097E+01
 -1      1679 1.22745E+01
 -1      1680 1.23921E+01
 -1      1681 1.20571E+01
 -1      1682 1.18593E+01
 -1      1683 2.11783E+01
 -1      1684 1.26701E+01
 -1      1685 3.12576E+01
 -1      1686 3.04720E+01
 -1      1687 2.94898E+01
 -1      1688 3.12576E+01
 -1      1689 2.49605E+01
 -1      1690 2.64290E+01
 -1      1691 2.65373E+01
 -1      1692 2.67441E+01
 -1      1693 2.65373E+01
 -1      1694 2.65373E+01
 -1      1695 3.65870E+01
 -1      1696 2.58877E+01
 -1      1697 4.57702E+01
 -1      1698 4.57702E+01
 -1      1699 1.89997E+01
 -1      1700 3.27374E+01
 -1      1701 1.14760E+01
 -1      1702 1.45533E+01
 -1      1703 1.25099E+01
 -1      1704 1.21403E+01
 -1      1705 1.28796E+01
 -1      1706 1.28796E+01
 -1      1707 1.23486E+01
 -1      1708 1.26141E+01
 -1      1709 1.21366E+01
 -1      1710 1.22426E+01
 -1      1711 1.20022E+01
 -1      1712 1.20694E+01
 -1      1713 1.60730E+01
 -1      1714 1.15509E+01
 -1      1715 3.49254E+01
 -1      1716 2.17442E+01
 -1      1717 4.74087E+01
 -1      1718 4.74087E+01
 -1      1719 2.69072E+01
 -1      1720 3.85028E+01
 -1      1721 2.69446E+01
 -1      1722 2.69555E+01
 -1      1723 1.90244E+01
 -1      1724 2.93544E+01
 -1      1725 5.65293E-01
 -1      1726 6.05425E-01
 -1      1727 3.06255E+01
 -1      1728 3.22799E+01
 -1      1729 2.96935E+01
 -1      1730 1.28603E+01
 -1      1731 1.28839E+01
 -1      1732 1.24496E+01
 -1      1733 1.23921E+01
 -1      1734 1.18593E+01
 -1      1735 1.20571E+01
 -1      1736 2.19639E+01
 -1      1737 3.12576E+01
 -1      1738 2.81968E+01
 -1      1739 2.69196E+01
 -1      1740 2.87031E+01
 -1      1741 2.80535E+01
 -1      1742 3.65870E+01
 -1      1743 3.27374E+01
 -1      1744 1.52582E+01
 -1      1745 1.14760E+01
 -1      1746 1.25099E+01
 -1      1747 1.26141E+01
 -1      1748 1.22426E+01
 -1      1749 1.20694E+01
 -1      1750 1.15509E+01
 -1      1751 1.67708E+01
 -1      1752 3.49254E+01
 -1      1753 3.85028E+01
 -1      1754 2.96453E+01
 -1      1755 9.61118E+00
 -1      1756 1.27723E+00
 -1      1757 1.67215E+00
 -1      1758 2.38894E+00
 -1      1759 4.27902E+00
 -1      1760 1.76322E+00
 -1      1761 8.82275E-01
 -1      1762 9.74336E-01
 -1      1763 7.79085E-01
 -1      1764 8.33557E-01
 -1      1765 7.42700E-01
 -1      1766 7.13997E-01
 -1      1767 7.47970E-01
 -1      1768 6.62867E-01
 -1      1769 6.71906E-01
 -1      1770 6.91971E-01
 -1      1771 6.09727E-01
 -1      1772 6.95290E-01
 -1      1773 6.73533E-01
 -1      1774 5.89328E-01
 -1      1775 7.50904E-01
 -1      1776 7.17079E-01
 -1      1777 6.12744E-01
 -1      1778 8.41028E-01
 -1      1779 7.84210E-01
 -1      1780 6.67839E-01
 -1      1781 9.84260E-01
 -1      1782 8.88574E-01
 -1      1783 7.48692E-01
 -1      1784 1.22944E+00
 -1      1785 1.05194E+00
 -1      1786 8.63919E-01
 -1      1787 1.71014E+00
 -1      1788 1.34351E+00
 -1      1789 1.04567E+00
 -1      1790 2.62999E+00
 -1      1791 1.79466E+00
 -1      1792 1.24427E+00
 -1      1793 8.12068E+00
 -1      1794 3.06620E+00
 -1      1795 1.76500E+00
 -1      1796 2.79819E+00
 -1      1797 5.19823E+00
 -1      1798 2.16430E+00
 -1      1799 2.65500E+00
 -1      1800 2.05802E+00
 -1      1801 3.39922E+00
 -1      1802 2.53606E+00
 -1      1803 1.92140E+00
 -1      1804 1.69065E+00
 -1      1805 1.35850E+00
 -1      1806 1.49942E+00
 -1      1807 1.17845E+00
 -1      1808 9.67903E-01
 -1      1809 1.08862E+00
 -1      1810 8.42519E-01
 -1      1811 7.17051E-01
 -1      1812 7.83185E-01
 -1      1813 6.58171E-01
 -1      1814 5.68582E-01
 -1      1815 5.98921E-01
 -1      1816 5.20327E-01
 -1      1817 4.56921E-01
 -1      1818 4.91786E-01
 -1      1819 4.14529E-01
 -1      1820 3.64938E-01
 -1      1821 4.01139E-01
 -1      1822 3.32400E-01
 -1      1823 2.93573E-01
 -1      1824 3.26209E-01
 -1      1825 2.66374E-01
 -1      1826 2.38498E-01
 -1      1827 2.66473E-01
 -1      1828 2.15265E-01
 -1      1829 1.91775E-01
 -1      1830 2.16040E-01
 -1      1831 1.73545E-01
 -1      1832 1.54344E-01
 -1      1833 1.74578E-01
 -1      1834 1.39869E-01
 -1      1835 1.24611E-01
 -1      1836 1.41874E-01
 -1      1837 1.12361E-01
 -1      1838 1.00572E-01
 -1      1839 1.15150E-01
 -1      1840 9.03245E-02
 -1      1841 8.14559E-02
 -1      1842 9.26524E-02
 -1      1843 7.45300E-02
 -1      1844 7.06277E-02
 -1      1845 7.54790E-02
 -1      1846 6.88846E-02
 -1      1847 7.17647E-02
 -1      1848 6.68099E-02
 -1      1849 7.77748E-02
 -1      1850 8.61885E-02
 -1      1851 7.10768E-02
 -1      1852 9.52902E-02
 -1      1853 1.07719E-01
 -1      1854 8.61885E-02
 -1      1855 1.20147E-01
 -1      1856 1.35980E-01
 -1      1857 1.07719E-01
 -1      1858 1.54891E-01
 -1      1859 1.73946E-01
 -1      1860 1.39059E-01
 -1      1861 2.02667E-01
 -1      1862 2.28040E-01
 -1      1863 1.86691E-01
 -1      1864 2.61833E-01
 -1      1865 2.93529E-01
 -1      1866 2.49205E-01
 -1      1867 3.31330E-01
 -1      1868 3.74562E-01
 -1      1869 3.20798E-01
 -1      1870 4.13834E-01
 -1      1871 4.58759E-01
 -1      1872 3.97871E-01
 -1      1873 4.94933E-01
 -1      1874 5.35667E-01
 -1      1875 4.73316E-01
 -1      1876 5.68767E-01
 -1      1877 6.20660E-01
 -1      1878 5.42590E-01
 -1      1879 6.56705E-01
 -1      1880 7.28604E-01
 -1      1881 6.11735E-01
 -1      1882 7.58593E-01
 -1      1883 8.17431E-01
 -1      1884 6.77768E-01
 -1      1885 8.12301E-01
 -1      1886 8.26859E-01
 -1      1887 7.02627E-01
 -1      1888 7.63749E-01
 -1      1889 7.86369E-01
 -1      1890 6.34387E-01
 -1      1891 7.45139E-01
 -1      1892 7.56873E-01
 -1      1893 5.30048E-01
 -1      1894 8.34450E-01
 -1      1895 9.16286E-01
 -1      1896 5.66396E-01
 -1      1897 1.17806E+00
 -1      1898 1.38521E+00
 -1      1899 9.05751E-01
 -1      1900 1.59115E+00
 -1      1901 2.01440E+00
 -1      1902 1.37347E+00
 -1      1903 2.24388E+00
 -1      1904 2.64228E+00
 -1      1905 1.80889E+00
 -1      1906 2.72352E+00
 -1      1907 2.77520E+00
 -1      1908 2.11963E+00
 -1      1909 2.70655E+00
 -1      1910 2.67954E+00
 -1      1911 2.13222E+00
 -1      1912 2.69779E+00
 -1      1913 2.44613E+00
 -1      1914 2.08182E+00
 -1      1915 2.28210E+00
 -1      1916 1.84743E+00
 -1      1917 1.93604E+00
 -1      1918 1.68643E+00
 -1      1919 1.35868E+00
 -1      1920 1.61101E+00
 -1      1921 1.17577E+00
 -1      1922 9.48417E-01
 -1      1923 1.26710E+00
 -1      1924 8.25969E-01
 -1      1925 6.53999E-01
 -1      1926 9.61749E-01
 -1      1927 5.33792E-01
 -1      1928 5.62485E-01
 -1      1929 7.19094E-01
 -1      1930 5.41230E-01
 -1      1931 5.57429E-01
 -1      1932 5.77632E-01
 -1      1933 4.98696E-01
 -1      1934 4.79625E-01
 -1      1935 4.97644E-01
 -1      1936 4.97478E-01
 -1      1937 4.64083E-01
 -1      1938 4.08873E-01
 -1      1939 4.56764E-01
 -1      1940 1.39890E+00
 -1      1941 1.77244E+00
 -1      1942 1.52296E+00
 -1      1943 1.01910E+00
 -1      1944 1.27957E+00
 -1      1945 1.01176E+00
 -1      1946 8.05737E-01
 -1      1947 9.25501E-01
 -1      1948 7.98833E-01
 -1      1949 6.39306E-01
 -1      1950 7.26508E-01
 -1      1951 6.26005E-01
 -1      1952 5.14112E-01
 -1      1953 5.85616E-01
 -1      1954 4.93086E-01
 -1      1955 4.21690E-01
 -1      1956 4.81124E-01
 -1      1957 4.06407E-01
 -1      1958 3.40908E-01
 -1      1959 3.90155E-01
 -1      1960 3.41885E-01
 -1      1961 2.76610E-01
 -1      1962 3.13342E-01
 -1      1963 2.82785E-01
 -1      1964 2.24232E-01
 -1      1965 2.54325E-01
 -1      1966 2.32936E-01
 -1      1967 1.81414E-01
 -1      1968 2.04803E-01
 -1      1969 1.91222E-01
 -1      1970 1.46990E-01
 -1      1971 1.65376E-01
 -1      1972 1.55755E-01
 -1      1973 1.20669E-01
 -1      1974 1.34862E-01
 -1      1975 1.27589E-01
 -1      1976 1.01326E-01
 -1      1977 1.11608E-01
 -1      1978 1.06400E-01
 -1      1979 8.89558E-02
 -1      1980 9.51835E-02
 -1      1981 9.11955E-02
 -1      1982 8.85079E-02
 -1      1983 8.70730E-02
 -1      1984 8.31696E-02
 -1      1985 9.64830E-02
 -1      1986 9.05668E-02
 -1      1987 8.33456E-02
 -1      1988 1.11296E-01
 -1      1989 1.02454E-01
 -1      1990 9.13758E-02
 -1      1991 1.37583E-01
 -1      1992 1.25006E-01
 -1      1993 1.11058E-01
 -1      1994 1.76230E-01
 -1      1995 1.55454E-01
 -1      1996 1.42639E-01
 -1      1997 2.36523E-01
 -1      1998 2.07907E-01
 -1      1999 1.92187E-01
 -1      2000 3.17218E-01
 -1      2001 2.82307E-01
 -1      2002 2.69649E-01
 -1      2003 4.16310E-01
 -1      2004 3.75510E-01
 -1      2005 3.73725E-01
 -1      2006 5.33800E-01
 -1      2007 4.88037E-01
 -1      2008 5.03745E-01
 -1      2009 6.65023E-01
 -1      2010 6.18003E-01
 -1      2011 6.59675E-01
 -1      2012 8.10253E-01
 -1      2013 7.57215E-01
 -1      2014 8.36069E-01
 -1      2015 9.52898E-01
 -1      2016 9.00228E-01
 -1      2017 1.01824E+00
 -1      2018 1.06665E+00
 -1      2019 1.02522E+00
 -1      2020 1.18053E+00
 -1      2021 1.24211E+00
 -1      2022 1.13088E+00
 -1      2023 1.31708E+00
 -1      2024 1.33678E+00
 -1      2025 1.24284E+00
 -1      2026 1.38203E+00
 -1      2027 1.46687E+00
 -1      2028 1.32920E+00
 -1      2029 1.37518E+00
 -1      2030 1.40963E+00
 -1      2031 1.33769E+00
 -1      2032 1.23841E+00
 -1      2033 1.60844E+00
 -1      2034 1.39765E+00
 -1      2035 1.09725E+00
 -1      2036 1.88370E+00
 -1      2037 1.90766E+00
 -1      2038 1.38450E+00
 -1      2039 2.67193E+00
 -1      2040 2.32322E+00
 -1      2041 2.12325E+00
 -1      2042 3.55421E+00
 -1      2043 2.93453E+00
 -1      2044 2.82538E+00
 -1      2045 4.05735E+00
 -1      2046 3.62528E+00
 -1      2047 3.15905E+00
 -1      2048 4.17055E+00
 -1      2049 3.91132E+00
 -1      2050 3.08410E+00
 -1      2051 3.50321E+00
 -1      2052 4.04546E+00
 -1      2053 2.81298E+00
 -1      2054 1.98479E+00
 -1      2055 3.02155E+00
 -1      2056 2.20623E+00
 -1      2057 1.21945E+00
 -1      2058 1.70923E+00
 -1      2059 1.44901E+00
 -1      2060 1.23725E+00
 -1      2061 1.17541E+00
 -1      2062 1.12940E+00
 -1      2063 1.45163E+00
 -1      2064 1.24526E+00
 -1      2065 1.09337E+00
 -1      2066 1.47349E+00
 -1      2067 1.49967E+00
 -1      2068 1.14941E+00
 -1      2069 1.18848E+00
 -1      2070 1.39383E+00
 -1      2071 1.11778E+00
 -1      2072 1.09419E+00
 -1      2073 1.15778E+00
 -1      2074 1.00742E+00
 -1      2075 7.64367E-01
 -1      2076 9.88012E-01
 -1      2077 8.70542E-01
 -1      2078 6.05425E-01
 -1      2079 4.14645E-01
 -1      2080 4.87557E-01
 -1      2081 6.11676E-01
 -1      2082 6.11676E-01
 -1      2083 6.51001E-01
 -1      2084 6.11676E-01
 -1      2085 6.10802E-01
 -1      2086 7.69744E-01
 -1      2087 7.75120E-01
 -1      2088 6.51228E-01
 -1      2089 5.14643E-01
 -1      2090 6.26880E-01
 -1      2091 8.96894E-01
 -1      2092 8.17756E-01
 -1      2093 8.93406E-01
 -1      2094 9.03927E-01
 -1      2095 9.02904E-01
 -1      2096 1.06594E+00
 -1      2097 9.03927E-01
 -1      2098 9.03927E-01
 -1      2099 1.07195E+00
 -1      2100 8.21479E-01
 -1      2101 8.97732E-01
 -1      2102 1.06576E+00
 -1      2103 5.25256E-01
 -1      2104 6.53751E-01
 -1      2105 8.91837E-01
 -1      2106 3.89797E-01
 -1      2107 4.04824E-01
 -1      2108 6.03678E-01
 -1      2109 4.12311E-01
 -1      2110 3.85982E-01
 -1      2111 4.79431E-01
 -1      2112 4.12311E-01
 -1      2113 4.12311E-01
 -1      2114 4.75616E-01
 -1      2115 4.06916E-01
 -1      2116 4.11812E-01
 -1      2117 4.75116E-01
 -1      2118 3.22799E+01
 -1      2119 3.15575E+01
 -1      2120 3.01013E+01
 -1      2121 3.01013E+01
 -1      2122 3.10333E+01
 -1      2123 3.01013E+01
 -1      2124 2.19446E+01
 -1      2125 2.55924E+01
 -1      2126 1.14694E+01
 -1      2127 1.81517E+01
 -1      2128 1.03767E+00
 -1      2129 1.21305E+00
 -1      2130 9.82261E-01
 -1      2131 8.54752E-01
 -1      2132 1.09975E+01
 -1      2133 1.14919E+01
 -1      2134 1.14883E+01
 -1      2135 1.14282E+01
 -1      2136 1.00361E+01
 -1      2137 1.13440E+01
 -1      2138 1.14616E+01
 -1      2139 1.01926E+01
 -1      2140 1.06078E+01
 -1      2141 9.67730E+00
 -1      2142 9.95445E+00
 -1      2143 9.34138E+00
 -1      2144 2.14710E+01
 -1      2145 1.21773E+01
 -1      2146 2.58438E+01
 -1      2147 2.58438E+01
 -1      2148 2.42932E+01
 -1      2149 2.73540E+01
 -1      2150 3.07020E+01
 -1      2151 2.89184E+01
 -1      2152 3.07020E+01
 -1      2153 3.07020E+01
 -1      2154 2.63089E+01
 -1      2155 2.69585E+01
 -1      2156 3.65870E+01
 -1      2157 2.74038E+01
 -1      2158 1.77959E+01
 -1      2159 3.08287E+01
 -1      2160 9.94743E+00
 -1      2161 1.43939E+01
 -1      2162 9.68679E+00
 -1      2163 9.02251E+00
 -1      2164 1.12544E+01
 -1      2165 1.08848E+01
 -1      2166 1.15397E+01
 -1      2167 1.18053E+01
 -1      2168 1.11717E+01
 -1      2169 1.12777E+01
 -1      2170 1.06824E+01
 -1      2171 1.07496E+01
 -1      2172 9.78473E+00
 -1      2173 8.86255E+00
 -1      2174 9.31385E+00
 -1      2175 1.61713E+01
 -1      2176 1.05001E+01
 -1      2177 8.26301E+00
 -1      2178 3.20688E+01
 -1      2179 1.95855E+01
 -1      2180 2.95970E+01
 -1      2181 3.85028E+01
 -1      2182 2.93433E+01
 -1      2183 2.92950E+01
 -1      2184 2.92950E+01
 -1      2185 9.63468E+00
 -1      2186 9.11661E+00
 -1      2187 8.24382E+00
 -1      2188 1.43896E+01
 -1      2189 2.91098E+00
 -1      2190 7.84895E+00
 -1      2191 9.73542E+00
 -1      2192 5.99175E+00
 -1      2193 2.10509E+00
 -1      2194 3.10333E+01
 -1      2195 3.05092E+01
 -1      2196 4.08873E-01
 -1      2197 2.48700E+01
 -1      2198 2.97511E+01
 -1      2199 1.33147E+01
 -1      2200 7.99404E+00
 -1      2201 1.04689E+01
 -1      2202 1.01801E+01
 -1      2203 8.43132E+00
 -1      2204 8.15825E+00
 -1      2205 1.24852E+01
 -1      2206 2.16455E+01
 -1      2207 2.63089E+01
 -1      2208 2.89574E+01
 -1      2209 3.27008E+01
 -1      2210 2.80756E+01
 -1      2211 2.19403E+01
 -1      2212 1.60572E+01
 -1      2213 8.08996E+00
 -1      2214 1.04402E+01
 -1      2215 9.46160E+00
 -1      2216 2.31629E+01
 -1      2217 1.08991E+00
 -1      2218 1.48177E+00
 -1      2219 5.58894E-01
 -1      2220 5.90009E-01
 -1      2221 6.02368E-01
 -1      2222 6.51086E-01
 -1      2223 4.98394E-01
 -1      2224 5.11348E-01
 -1      2225 5.09721E-01
 -1      2226 5.46044E-01
 -1      2227 5.24254E-01
 -1      2228 4.44648E-01
 -1      2229 5.94086E-01
 -1      2230 5.60780E-01
 -1      2231 4.72290E-01
 -1      2232 6.53613E-01
 -1      2233 6.06067E-01
 -1      2234 4.99008E-01
 -1      2235 7.21295E-01
 -1      2236 6.53613E-01
 -1      2237 5.10989E-01
 -1      2238 8.84024E-01
 -1      2239 7.69951E-01
 -1      2240 5.59645E-01
 -1      2241 1.00748E+01
 -1      2242 1.38677E+01
 -1      2243 8.92433E-01
 -1      2244 1.01176E+00
 -1      2245 9.70578E-01
 -1      2246 1.26684E+00
 -1      2247 1.03609E+00
 -1      2248 9.86285E-01
 -1      2249 8.06237E-01
 -1      2250 7.53710E-01
 -1      2251 7.49329E-01
 -1      2252 6.23944E-01
 -1      2253 6.46996E-01
 -1      2254 5.67977E-01
 -1      2255 5.09098E-01
 -1      2256 5.34121E-01
 -1      2257 4.59953E-01
 -1      2258 4.11698E-01
 -1      2259 4.29010E-01
 -1      2260 3.84423E-01
 -1      2261 3.42031E-01
 -1      2262 3.52591E-01
 -1      2263 3.17332E-01
 -1      2264 2.84795E-01
 -1      2265 3.00617E-01
 -1      2266 2.61506E-01
 -1      2267 2.34307E-01
 -1      2268 2.52629E-01
 -1      2269 2.14769E-01
 -1      2270 1.91536E-01
 -1      2271 2.09802E-01
 -1      2272 1.74868E-01
 -1      2273 1.56639E-01
 -1      2274 1.73596E-01
 -1      2275 1.42038E-01
 -1      2276 1.27564E-01
 -1      2277 1.42328E-01
 -1      2278 1.15150E-01
 -1      2279 1.02900E-01
 -1      2280 1.15314E-01
 -1      2281 9.26524E-02
 -1      2282 8.24049E-02
 -1      2283 9.26524E-02
 -1      2284 7.42389E-02
 -1      2285 6.73130E-02
 -1      2286 7.42389E-02
 -1      2287 6.13672E-02
 -1      2288 5.96241E-02
 -1      2289 6.01271E-02
 -1      2290 6.21144E-02
 -1      2291 6.81244E-02
 -1      2292 5.66717E-02
 -1      2293 7.40429E-02
 -1      2294 8.31446E-02
 -1      2295 6.50805E-02
 -1      2296 9.59194E-02
 -1      2297 1.08348E-01
 -1      2298 8.37738E-02
 -1      2299 1.29466E-01
 -1      2300 1.48377E-01
 -1      2301 1.17667E-01
 -1      2302 1.73935E-01
 -1      2303 2.02656E-01
 -1      2304 1.64342E-01
 -1      2305 2.32901E-01
 -1      2306 2.66694E-01
 -1      2307 2.20145E-01
 -1      2308 3.01268E-01
 -1      2309 3.39069E-01
 -1      2310 2.84964E-01
 -1      2311 3.76653E-01
 -1      2312 4.15925E-01
 -1      2313 3.57122E-01
 -1      2314 4.53805E-01
 -1      2315 4.89978E-01
 -1      2316 4.32587E-01
 -1      2317 5.23594E-01
 -1      2318 5.56695E-01
 -1      2319 5.04083E-01
 -1      2320 5.86260E-01
 -1      2321 6.22305E-01
 -1      2322 5.67264E-01
 -1      2323 6.53665E-01
 -1      2324 6.83654E-01
 -1      2325 6.28190E-01
 -1      2326 7.10497E-01
 -1      2327 7.05367E-01
 -1      2328 6.86394E-01
 -1      2329 7.07917E-01
 -1      2330 6.44807E-01
 -1      2331 7.15787E-01
 -1      2332 6.77364E-01
 -1      2333 6.36135E-01
 -1      2334 7.50893E-01
 -1      2335 7.06279E-01
 -1      2336 7.83856E-01
 -1      2337 8.53594E-01
 -1      2338 8.68397E-01
 -1      2339 1.13017E+00
 -1      2340 1.00828E+00
 -1      2341 1.25748E+00
 -1      2342 1.46342E+00
 -1      2343 1.22012E+00
 -1      2344 1.59083E+00
 -1      2345 1.82031E+00
 -1      2346 1.47484E+00
 -1      2347 2.06050E+00
 -1      2348 2.14175E+00
 -1      2349 1.84244E+00
 -1      2350 2.06335E+00
 -1      2351 1.99470E+00
 -1      2352 2.00423E+00
 -1      2353 2.05656E+00
 -1      2354 2.07481E+00
 -1      2355 1.98769E+00
 -1      2356 1.98106E+00
 -1      2357 1.81703E+00
 -1      2358 1.95580E+00
 -1      2359 1.64758E+00
 -1      2360 1.48657E+00
 -1      2361 1.69260E+00
 -1      2362 1.44493E+00
 -1      2363 1.26203E+00
 -1      2364 1.48150E+00
 -1      2365 1.11532E+00
 -1      2366 9.92874E-01
 -1      2367 1.29316E+00
 -1      2368 8.66313E-01
 -1      2369 7.46105E-01
 -1      2370 1.01989E+00
 -1      2371 6.70408E-01
 -1      2372 6.49154E-01
 -1      2373 8.17627E-01
 -1      2374 5.56377E-01
 -1      2375 4.97644E-01
 -1      2376 6.49154E-01
 -1      2377 5.46776E-01
 -1      2378 6.26005E-01
 -1      2379 4.39395E-01
 -1      2380 4.93086E-01
 -1      2381 4.93086E-01
 -1      2382 3.73420E-01
 -1      2383 4.06407E-01
 -1      2384 4.06407E-01
 -1      2385 3.10351E-01
 -1      2386 3.41885E-01
 -1      2387 3.41885E-01
 -1      2388 2.55220E-01
 -1      2389 2.82785E-01
 -1      2390 2.82785E-01
 -1      2391 2.10824E-01
 -1      2392 2.33108E-01
 -1      2393 2.33108E-01
 -1      2394 1.72167E-01
 -1      2395 1.91597E-01
 -1      2396 1.91769E-01
 -1      2397 1.39758E-01
 -1      2398 1.55795E-01
 -1      2399 1.56170E-01
 -1      2400 1.14059E-01
 -1      2401 1.26187E-01
 -1      2402 1.26227E-01
 -1      2403 9.40769E-02
 -1      2404 1.03138E-01
 -1      2405 1.01736E-01
 -1      2406 7.94021E-02
 -1      2407 8.55451E-02
 -1      2408 8.22835E-02
 -1      2409 7.23851E-02
 -1      2410 7.42680E-02
 -1      2411 6.86176E-02
 -1      2412 7.44594E-02
 -1      2413 7.24006E-02
 -1      2414 6.34989E-02
 -1      2415 8.73040E-02
 -1      2416 8.13327E-02
 -1      2417 7.03877E-02
 -1      2418 1.11058E-01
 -1      2419 9.73471E-02
 -1      2420 8.73040E-02
 -1      2421 1.52040E-01
 -1      2422 1.34170E-01
 -1      2423 1.20459E-01
 -1      2424 2.14957E-01
 -1      2425 1.83279E-01
 -1      2426 1.74809E-01
 -1      2427 3.00868E-01
 -1      2428 2.55084E-01
 -1      2429 2.46175E-01
 -1      2430 4.09858E-01
 -1      2431 3.51567E-01
 -1      2432 3.37001E-01
 -1      2433 5.44150E-01
 -1      2434 4.72423E-01
 -1      2435 4.50264E-01
 -1      2436 7.03084E-01
 -1      2437 6.18882E-01
 -1      2438 5.87560E-01
 -1      2439 8.80496E-01
 -1      2440 7.88304E-01
 -1      2441 7.47512E-01
 -1      2442 1.06107E+00
 -1      2443 9.71093E-01
 -1      2444 9.23329E-01
 -1      2445 1.21906E+00
 -1      2446 1.14673E+00
 -1      2447 1.09959E+00
 -1      2448 1.34808E+00
 -1      2449 1.28386E+00
 -1      2450 1.25006E+00
 -1      2451 1.42554E+00
 -1      2452 1.42481E+00
 -1      2453 1.39159E+00
 -1      2454 1.52161E+00
 -1      2455 1.52920E+00
 -1      2456 1.57198E+00
 -1      2457 1.44629E+00
 -1      2458 1.57547E+00
 -1      2459 1.72949E+00
 -1      2460 1.50820E+00
 -1      2461 1.52018E+00
 -1      2462 1.85724E+00
 -1      2463 2.02029E+00
 -1      2464 1.72107E+00
 -1      2465 2.14400E+00
 -1      2466 2.38590E+00
 -1      2467 1.94638E+00
 -1      2468 2.28295E+00
 -1      2469 3.55640E+00
 -1      2470 3.29380E+00
 -1      2471 3.11693E+00
 -1      2472 5.51548E+00
 -1      2473 5.44441E+00
 -1      2474 5.91284E+00
 -1      2475 5.74606E+00
 -1      2476 5.89208E+00
 -1      2477 8.17744E+00
 -1      2478 3.39816E+00
 -1      2479 3.52325E+00
 -1      2480 6.33123E+00
 -1      2481 2.53769E+00
 -1      2482 3.01935E+00
 -1      2483 3.72962E+00
 -1      2484 1.68768E+00
 -1      2485 1.96324E+00
 -1      2486 2.77636E+00
 -1      2487 1.47536E+00
 -1      2488 1.51940E+00
 -1      2489 2.03364E+00
 -1      2490 1.23759E+00
 -1      2491 1.22958E+00
 -1      2492 1.61958E+00
 -1      2493 1.24270E+00
 -1      2494 1.19467E+00
 -1      2495 1.33088E+00
 -1      2496 1.08102E+00
 -1      2497 1.16068E+00
 -1      2498 1.20594E+00
 -1      2499 8.88677E-01
 -1      2500 9.19379E-01
 -1      2501 9.62277E-01
 -1      2502 8.75919E-01
 -1      2503 1.19659E+00
 -1      2504 1.03006E+00
 -1      2505 1.35902E+00
 -1      2506 1.35301E+00
 -1      2507 1.48966E+00
 -1      2508 8.43017E-01
 -1      2509 9.67136E-01
 -1      2510 1.00019E+00
 -1      2511 9.00189E-01
 -1      2512 1.21632E+00
 -1      2513 1.30337E+00
 -1      2514 1.35902E+00
 -1      2515 1.35902E+00
 -1      2516 1.64608E+00
 -1      2517 1.34405E+00
 -1      2518 1.35025E+00
 -1      2519 1.63731E+00
 -1      2520 1.02205E+00
 -1      2521 1.18977E+00
 -1      2522 1.47426E+00
 -1      2523 6.95865E-01
 -1      2524 8.16296E-01
 -1      2525 1.11423E+00
 -1      2526 6.13461E-01
 -1      2527 6.17277E-01
 -1      2528 8.29894E-01
 -1      2529 5.86263E-01
 -1      2530 5.86263E-01
 -1      2531 7.24108E-01
 -1      2532 4.56522E-01
 -1      2533 4.57021E-01
 -1      2534 5.67668E-01
 -1      2535 3.05092E+01
 -1      2536 3.05092E+01
 -1      2537 1.62117E+01
 -1      2538 2.28992E+01
 -1      2539 7.05233E-01
 -1      2540 7.98833E-01
 -1      2541 6.26005E-01
 -1      2542 4.74617E-01
 -1      2543 2.97511E+01
 -1      2544 2.89930E+01
 -1      2545 2.69599E+01
 -1      2546 2.64358E+01
 -1      2547 1.83017E+01
 -1      2548 1.30424E+01
 -1      2549 9.62819E+00
 -1      2550 5.60996E+00
 -1      2551 7.96277E+00
 -1      2552 7.44093E+00
 -1      2553 9.11208E+00
 -1      2554 9.37410E+00
 -1      2555 5.22535E-01
 -1      2556 5.44561E-01
 -1      2557 4.71702E-01
 -1      2558 4.44555E-01
 -1      2559 9.16727E+00
 -1      2560 6.94446E+00
 -1      2561 9.51044E+00
 -1      2562 9.07973E+00
 -1      2563 9.48375E+00
 -1      2564 9.51044E+00
 -1      2565 8.37099E+00
 -1      2566 9.10715E+00
 -1      2567 2.16919E+01
 -1      2568 1.52578E+01
 -1      2569 6.14224E+00
 -1      2570 6.99342E+00
 -1      2571 6.42327E+00
 -1      2572 1.53673E+01
 -1      2573 1.09945E+01
 -1      2574 1.91891E+01
 -1      2575 1.76790E+01
 -1      2576 2.80756E+01
 -1      2577 2.34505E+01
 -1      2578 1.91891E+01
 -1      2579 3.27008E+01
 -1      2580 3.27008E+01
 -1      2581 2.52139E+01
 -1      2582 2.89574E+01
 -1      2583 2.32336E+01
 -1      2584 2.21386E+01
 -1      2585 1.42611E+01
 -1      2586 2.00194E+01
 -1      2587 1.58492E+01
 -1      2588 8.27890E+00
 -1      2589 1.16809E+01
 -1      2590 1.00548E+01
 -1      2591 6.64949E+00
 -1      2592 7.57441E+00
 -1      2593 7.12936E+00
 -1      2594 5.93137E+00
 -1      2595 8.83974E+00
 -1      2596 8.28893E+00
 -1      2597 8.33499E+00
 -1      2598 8.75714E+00
 -1      2599 5.96118E+00
 -1      2600 7.32972E+00
 -1      2601 6.30213E+00
 -1      2602 7.10305E+00
 -1      2603 5.46554E+00
 -1      2604 6.83072E+00
 -1      2605 2.42913E+01
 -1      2606 2.45933E+01
 -1      2607 1.67725E+00
 -1      2608 1.30233E+00
 -1      2609 8.39005E-01
 -1      2610 9.60466E-01
 -1      2611 1.62165E+00
 -1      2612 1.76484E+00
 -1      2613 1.32863E+00
 -1      2614 1.18860E+00
 -1      2615 5.84791E+00
 -1      2616 6.14906E-01
 -1      2617 7.55238E-01
 -1      2618 8.18572E-01
 -1      2619 1.18970E+01
 -1      2620 7.48292E+00
 -1      2621 1.24411E+00
 -1      2622 8.18039E+00
 -1      2623 6.42393E+00
 -1      2624 7.65470E+00
 -1      2625 4.93311E+00
 -1      2626 4.83237E+00
 -1      2627 4.55131E+00
 -1      2628 8.96291E-01
 -1      2629 4.80122E+00
 -1      2630 2.42913E+01
 -1      2631 7.87878E-01
 -1      2632 7.87878E-01
 -1      2633 9.68391E-01
 -1      2634 2.97511E+01
 -1      2635 2.64358E+01
 -1      2636 1.66882E+01
 -1      2637 5.78898E+00
 -1      2638 6.77014E+00
 -1      2639 7.98833E-01
 -1      2640 1.15713E+01
 -1      2641 7.66234E+00
 -1      2642 2.11425E+01
 -1      2643 2.11425E+01
 -1      2644 1.80672E+01
 -1      2645 2.80756E+01
 -1      2646 8.47731E+00
 -1      2647 8.17744E+00
 -1      2648 8.55404E+00
 -1      2649 1.54304E+01
 -1      2650 1.03676E+01
 -1      2651 1.26792E+01
 -1      2652 2.89574E+01
 -1      2653 5.34753E+00
 -1      2654 4.74617E-01
 -1      2655 4.74617E-01
 -1      2656 4.56522E-01
 -1      2657 4.56764E-01
 -1      2658 9.79894E-01
 -1      2659 5.15497E-01
 -1      2660 4.22799E-01
 -1      2661 4.08063E-01
 -1      2662 4.00290E-01
 -1      2663 3.87383E-01
 -1      2664 3.50799E-01
 -1      2665 4.36471E-01
 -1      2666 4.36471E-01
 -1      2667 4.73071E-01
 -1      2668 4.24415E-01
 -1      2669 3.49897E-01
 -1      2670 2.22885E+01
 -1      2671 2.15304E+01
 -1      2672 7.18321E-01
 -1      2673 7.96466E-01
 -1      2674 8.28512E-01
 -1      2675 5.51362E-01
 -1      2676 4.94454E-01
 -1      2677 4.87736E-01
 -1      2678 4.31769E-01
 -1      2679 3.92102E-01
 -1      2680 4.11471E-01
 -1      2681 3.62327E-01
 -1      2682 3.65086E-01
 -1      2683 3.37642E-01
 -1      2684 3.10367E-01
 -1      2685 3.20103E-01
 -1      2686 2.85621E-01
 -1      2687 2.60922E-01
 -1      2688 2.70672E-01
 -1      2689 2.45151E-01
 -1      2690 2.21862E-01
 -1      2691 2.30155E-01
 -1      2692 2.05563E-01
 -1      2693 1.86025E-01
 -1      2694 1.98085E-01
 -1      2695 1.70345E-01
 -1      2696 1.53677E-01
 -1      2697 1.66107E-01
 -1      2698 1.40160E-01
 -1      2699 1.25560E-01
 -1      2700 1.36909E-01
 -1      2701 1.14048E-01
 -1      2702 1.01634E-01
 -1      2703 1.11880E-01
 -1      2704 9.16374E-02
 -1      2705 8.13898E-02
 -1      2706 9.03717E-02
 -1      2707 7.26475E-02
 -1      2708 6.44816E-02
 -1      2709 7.16325E-02
 -1      2710 5.65842E-02
 -1      2711 5.06385E-02
 -1      2712 5.49929E-02
 -1      2713 4.65497E-02
 -1      2714 4.90401E-02
 -1      2715 4.30069E-02
 -1      2716 5.25197E-02
 -1      2717 5.84382E-02
 -1      2718 4.23977E-02
 -1      2719 7.26252E-02
 -1      2720 8.54000E-02
 -1      2721 6.00644E-02
 -1      2722 1.03505E-01
 -1      2723 1.24623E-01
 -1      2724 9.23559E-02
 -1      2725 1.46559E-01
 -1      2726 1.72116E-01
 -1      2727 1.32397E-01
 -1      2728 1.98517E-01
 -1      2729 2.28762E-01
 -1      2730 1.80734E-01
 -1      2731 2.60038E-01
 -1      2732 2.94612E-01
 -1      2733 2.38410E-01
 -1      2734 3.30768E-01
 -1      2735 3.68353E-01
 -1      2736 3.05842E-01
 -1      2737 4.08726E-01
 -1      2738 4.46607E-01
 -1      2739 3.82372E-01
 -1      2740 4.89552E-01
 -1      2741 5.23167E-01
 -1      2742 4.65690E-01
 -1      2743 5.65267E-01
 -1      2744 5.94833E-01
 -1      2745 5.50735E-01
 -1      2746 6.34774E-01
 -1      2747 6.66134E-01
 -1      2748 6.32776E-01
 -1      2749 7.26762E-01
 -1      2750 7.53606E-01
 -1      2751 7.33346E-01
 -1      2752 8.18731E-01
 -1      2753 8.21281E-01
 -1      2754 8.59100E-01
 -1      2755 8.71441E-01
 -1      2756 9.03998E-01
 -1      2757 9.74385E-01
 -1      2758 9.99091E-01
 -1      2759 1.06924E+00
 -1      2760 1.11964E+00
 -1      2761 1.22963E+00
 -1      2762 1.31417E+00
 -1      2763 1.37513E+00
 -1      2764 1.32067E+00
 -1      2765 1.44797E+00
 -1      2766 1.54202E+00
 -1      2767 1.59400E+00
 -1      2768 1.72142E+00
 -1      2769 1.69455E+00
 -1      2770 2.01478E+00
 -1      2771 2.25497E+00
 -1      2772 2.13395E+00
 -1      2773 2.99652E+00
 -1      2774 2.91813E+00
 -1      2775 3.16887E+00
 -1      2776 2.51155E+00
 -1      2777 2.57340E+00
 -1      2778 3.50384E+00
 -1      2779 3.34955E+00
 -1      2780 3.25580E+00
 -1      2781 3.87341E+00
 -1      2782 2.67700E+00
 -1      2783 2.50755E+00
 -1      2784 4.07075E+00
 -1      2785 1.79657E+00
 -1      2786 1.75493E+00
 -1      2787 2.78097E+00
 -1      2788 1.48889E+00
 -1      2789 1.34218E+00
 -1      2790 1.80396E+00
 -1      2791 1.22862E+00
 -1      2792 1.10206E+00
 -1      2793 1.42436E+00
 -1      2794 8.93323E-01
 -1      2795 8.17627E-01
 -1      2796 1.10206E+00
 -1      2797 7.41930E-01
 -1      2798 6.49154E-01
 -1      2799 8.17627E-01
 -1      2800 3.51591E-01
 -1      2801 3.84579E-01
 -1      2802 1.62292E+00
 -1      2803 1.44367E+00
 -1      2804 1.60531E+00
 -1      2805 2.18379E+01
 -1      2806 1.71362E+01
 -1      2807 4.18776E-01
 -1      2808 4.72467E-01
 -1      2809 3.63960E-01
 -1      2810 2.45876E-01
 -1      2811 2.73441E-01
 -1      2812 2.05488E-01
 -1      2813 2.27600E-01
 -1      2814 2.18256E-01
 -1      2815 1.69379E-01
 -1      2816 1.88606E-01
 -1      2817 1.83097E-01
 -1      2818 1.38475E-01
 -1      2819 1.54847E-01
 -1      2820 1.51683E-01
 -1      2821 1.12342E-01
 -1      2822 1.25913E-01
 -1      2823 1.24589E-01
 -1      2824 9.06035E-02
 -1      2825 1.01524E-01
 -1      2826 1.01209E-01
 -1      2827 7.30403E-02
 -1      2828 8.15722E-02
 -1      2829 8.13603E-02
 -1      2830 6.04427E-02
 -1      2831 6.55768E-02
 -1      2832 6.48654E-02
 -1      2833 5.50805E-02
 -1      2834 5.50651E-02
 -1      2835 5.20243E-02
 -1      2836 6.62576E-02
 -1      2837 5.93842E-02
 -1      2838 5.09504E-02
 -1      2839 8.68975E-02
 -1      2840 7.68545E-02
 -1      2841 6.58510E-02
 -1      2842 1.30450E-01
 -1      2843 1.07338E-01
 -1      2844 9.68881E-02
 -1      2845 1.87593E-01
 -1      2846 1.56354E-01
 -1      2847 1.43233E-01
 -1      2848 2.60578E-01
 -1      2849 2.20451E-01
 -1      2850 2.01996E-01
 -1      2851 3.52710E-01
 -1      2852 3.02011E-01
 -1      2853 2.76287E-01
 -1      2854 4.66972E-01
 -1      2855 4.04407E-01
 -1      2856 3.69418E-01
 -1      2857 6.05302E-01
 -1      2858 5.30570E-01
 -1      2859 4.84713E-01
 -1      2860 7.67383E-01
 -1      2861 6.82163E-01
 -1      2862 6.25173E-01
 -1      2863 9.48792E-01
 -1      2864 8.58195E-01
 -1      2865 7.92847E-01
 -1      2866 1.13853E+00
 -1      2867 1.05287E+00
 -1      2868 9.87732E-01
 -1      2869 1.31727E+00
 -1      2870 1.25247E+00
 -1      2871 1.20574E+00
 -1      2872 1.50948E+00
 -1      2873 1.43275E+00
 -1      2874 1.43516E+00
 -1      2875 1.74105E+00
 -1      2876 1.63739E+00
 -1      2877 1.67855E+00
 -1      2878 2.07697E+00
 -1      2879 2.02310E+00
 -1      2880 2.08852E+00
 -1      2881 2.31637E+00
 -1      2882 2.24248E+00
 -1      2883 2.53609E+00
 -1      2884 3.05065E+00
 -1      2885 2.83778E+00
 -1      2886 3.22302E+00
 -1      2887 2.37668E+00
 -1      2888 2.45060E+00
 -1      2889 3.14438E+00
 -1      2890 7.80085E+00
 -1      2891 5.91284E+00
 -1      2892 8.55404E+00
 -1      2893 8.17744E+00
 -1      2894 5.43190E+00
 -1      2895 7.65470E+00
 -1      2896 2.77636E+00
 -1      2897 3.35080E+00
 -1      2898 2.35320E+00
 -1      2899 2.52147E+00
 -1      2900 3.09592E+00
 -1      2901 1.83475E+00
 -1      2902 2.08053E+00
 -1      2903 2.56836E+00
 -1      2904 1.69599E+00
 -1      2905 1.73891E+00
 -1      2906 2.19986E+00
 -1      2907 1.45434E+00
 -1      2908 1.53636E+00
 -1      2909 1.94439E+00
 -1      2910 1.93573E+00
 -1      2911 1.94831E+00
 -1      2912 1.95708E+00
 -1      2913 6.26644E-01
 -1      2914 5.85763E-01
 -1      2915 7.19420E-01
 -1      2916 1.93697E+00
 -1      2917 1.78055E+00
 -1      2918 1.79403E+00
 -1      2919 1.94831E+00
 -1      2920 2.26808E+00
 -1      2921 1.93697E+00
 -1      2922 1.93697E+00
 -1      2923 2.22786E+00
 -1      2924 2.24797E+00
 -1      2925 6.52413E+00
 -1      2926 5.98976E+00
 -1      2927 1.22863E+00
 -1      2928 1.43438E+00
 -1      2929 1.90842E+00
 -1      2930 1.04935E+00
 -1      2931 1.12794E+00
 -1      2932 1.44808E+00
 -1      2933 8.58805E-01
 -1      2934 8.86003E-01
 -1      2935 1.18404E+00
 -1      2936 1.22909E+01
 -1      2937 1.63516E+01
 -1      2938 7.02615E+00
 -1      2939 9.60635E+00
 -1      2940 1.90851E+01
 -1      2941 2.31585E+01
 -1      2942 1.54123E+01
 -1      2943 1.25109E+01
 -1      2944 5.66091E+00
 -1      2945 7.77293E+00
 -1      2946 8.98820E+00
 -1      2947 7.16102E+00
 -1      2948 5.38756E+00
 -1      2949 4.22799E+00
 -1      2950 7.96776E-01
 -1      2951 5.06145E-01
 -1      2952 5.85373E-01
 -1      2953 4.31836E-01
 -1      2954 2.92673E-01
 -1      2955 3.24207E-01
 -1      2956 3.02379E-01
 -1      2957 2.55763E-01
 -1      2958 6.05955E-01
 -1      2959 5.56150E-01
 -1      2960 4.03608E-01
 -1      2961 1.13537E+01
 -1      2962 9.13823E+00
 -1      2963 4.36471E-01
 -1      2964 4.24490E-01
 -1      2965 3.60263E-01
 -1      2966 3.61953E-01
 -1      2967 8.46833E+00
 -1      2968 1.08123E+01
 -1      2969 8.86228E+00
 -1      2970 3.68117E+00
 -1      2971 4.17680E+00
 -1      2972 4.24079E-01
 -1      2973 4.36439E-01
 -1      2974 6.40005E+00
 -1      2975 6.75499E+00
 -1      2976 2.03239E+01
 -1      2977 2.40673E+01
 -1      2978 1.80453E+01
 -1      2979 1.37840E+01
 -1      2980 3.94573E+00
 -1      2981 4.66385E+00
 -1      2982 2.50631E+01
 -1      2983 2.04379E+01
 -1      2984 1.09993E+01
 -1      2985 1.42134E+01
 -1      2986 7.97062E+00
 -1      2987 6.10858E-01
 -1      2988 7.04458E-01
 -1      2989 5.30346E-01
 -1      2990 4.90998E-01
 -1      2991 5.67668E-01
 -1      2992 5.43694E+00
 -1      2993 6.14143E+00
 -1      2994 5.69295E+00
 -1      2995 4.97320E+00
 -1      2996 5.97848E+00
 -1      2997 7.24537E+00
 -1      2998 4.72023E+00
 -1      2999 4.09582E+00
 -1      3000 7.02774E+00
 -1      3001 5.16027E+00
 -1      3002 4.35806E+00
 -1      3003 5.67116E+00
 -1      3004 5.81707E+00
 -1      3005 3.92906E+00
 -1      3006 3.02116E+00
 -1      3007 4.43949E+00
 -1      3008 4.66002E-01
 -1      3009 5.70154E-01
 -1      3010 3.91687E-01
 -1      3011 3.42799E-01
 -1      3012 3.87157E-01
 -1      3013 3.99971E-01
 -1      3014 1.43754E+01
 -1      3015 1.49378E+01
 -1      3016 5.10046E+00
 -1      3017 3.94107E+00
 -1      3018 5.43190E+00
 -1      3019 5.76255E-01
 -1      3020 3.75185E+00
 -1      3021 1.64296E+01
 -1      3022 3.54431E+00
 -1      3023 1.50328E+01
 -1      3024 1.84083E+01
 -1      3025 1.35183E+01
 -1      3026 1.43369E+01
 -1      3027 2.15728E+00
 -1      3028 1.70997E+00
 -1      3029 1.68010E+00
 -1      3030 4.77245E+00
 -1      3031 5.73124E+00
 -1      3032 4.17025E+00
 -1      3033 3.18881E+00
 -1      3034 3.72962E+00
 -1      3035 3.72962E+00
 -1      3036 4.10843E+00
 -1      3037 1.29590E+01
 -1      3038 5.07113E+00
 -1      3039 5.26184E+00
 -1      3040 1.68010E+00
 -1      3041 9.05127E+00
 -1      3042 1.30743E+01
 -1      3043 3.85315E+00
 -1      3044 6.96910E-01
 -1      3045 4.88332E+00
 -1      3046 4.41025E-01
 -1      3047 1.00779E+01
 -1      3048 6.68831E+00
 -1      3049 1.47517E+01
 -1      3050 1.37556E+01
 -1      3051 9.90185E+00
 -1      3052 8.55404E+00
 -1      3053 4.07661E-01
 -1      3054 4.21994E-01
 -1      3055 3.60038E-01
 -1      3056 3.50262E-01
 -1      3057 5.82882E-01
 -1      3058 6.60601E-01
 -1      3059 6.25111E-01
 -1      3060 4.33978E-01
 -1      3061 1.16571E+01
 -1      3062 9.40854E+00
 -1      3063 1.05133E+01
 -1      3064 4.27551E-01
 -1      3065 4.03514E+00
 -1      3066 7.30368E-01
 -1      3067 7.30368E-01
 -1      3068 8.92262E-01
 -1      3069 7.52878E-01
 -1      3070 2.89252E-01
 -1      3071 3.01308E-01
 -1      3072 3.10737E+00
 -1      3073 5.61714E+00
 -1      3074 7.01008E+00
 -1      3075 6.98778E+00
 -1      3076 8.46635E+00
 -1      3077 3.20580E-01
 -1      3078 3.00282E-01
 -1      3079 2.97301E-01
 -1      3080 2.72615E-01
 -1      3081 2.52794E-01
 -1      3082 2.61791E-01
 -1      3083 2.37044E-01
 -1      3084 2.38988E-01
 -1      3085 2.22853E-01
 -1      3086 2.07082E-01
 -1      3087 2.13972E-01
 -1      3088 1.93651E-01
 -1      3089 1.77353E-01
 -1      3090 1.86350E-01
 -1      3091 1.66598E-01
 -1      3092 1.50918E-01
 -1      3093 1.62164E-01
 -1      3094 1.39458E-01
 -1      3095 1.25941E-01
 -1      3096 1.39950E-01
 -1      3097 1.14651E-01
 -1      3098 1.03139E-01
 -1      3099 1.17199E-01
 -1      3100 9.24225E-02
 -1      3101 8.24256E-02
 -1      3102 9.51929E-02
 -1      3103 7.23579E-02
 -1      3104 6.36156E-02
 -1      3105 7.44087E-02
 -1      3106 5.40324E-02
 -1      3107 4.61351E-02
 -1      3108 5.47578E-02
 -1      3109 3.75403E-02
 -1      3110 3.34516E-02
 -1      3111 3.65798E-02
 -1      3112 3.42119E-02
 -1      3113 3.76915E-02
 -1      3114 2.87453E-02
 -1      3115 4.86358E-02
 -1      3116 6.28229E-02
 -1      3117 4.04499E-02
 -1      3118 7.76384E-02
 -1      3119 9.57429E-02
 -1      3120 6.62098E-02
 -1      3121 1.14754E-01
 -1      3122 1.36690E-01
 -1      3123 1.00036E-01
 -1      3124 1.59516E-01
 -1      3125 1.85917E-01
 -1      3126 1.41873E-01
 -1      3127 2.12747E-01
 -1      3128 2.44023E-01
 -1      3129 1.91530E-01
 -1      3130 2.74486E-01
 -1      3131 3.10642E-01
 -1      3132 2.48823E-01
 -1      3133 3.51302E-01
 -1      3134 3.91676E-01
 -1      3135 3.19947E-01
 -1      3136 4.40408E-01
 -1      3137 4.83353E-01
 -1      3138 4.09339E-01
 -1      3139 5.38932E-01
 -1      3140 5.81032E-01
 -1      3141 5.13650E-01
 -1      3142 6.42973E-01
 -1      3143 6.82914E-01
 -1      3144 6.31170E-01
 -1      3145 7.53732E-01
 -1      3146 8.14361E-01
 -1      3147 7.63929E-01
 -1      3148 8.98191E-01
 -1      3149 9.63316E-01
 -1      3150 9.18577E-01
 -1      3151 1.09893E+00
 -1      3152 1.14909E+00
 -1      3153 1.13802E+00
 -1      3154 1.29321E+00
 -1      3155 1.38831E+00
 -1      3156 1.41776E+00
 -1      3157 1.49702E+00
 -1      3158 1.65742E+00
 -1      3159 1.67059E+00
 -1      3160 1.77544E+00
 -1      3161 1.78194E+00
 -1      3162 1.89733E+00
 -1      3163 1.87176E+00
 -1      3164 2.01779E+00
 -1      3165 2.10517E+00
 -1      3166 2.39134E+00
 -1      3167 2.68470E+00
 -1      3168 2.56854E+00
 -1      3169 3.47063E+00
 -1      3170 4.21218E+00
 -1      3171 3.87341E+00
 -1      3172 4.64955E+00
 -1      3173 4.64955E+00
 -1      3174 4.07075E+00
 -1      3175 2.24204E+00
 -1      3176 1.97601E+00
 -1      3177 1.68058E+00
 -1      3178 1.56702E+00
 -1      3179 2.11867E+00
 -1      3180 1.31080E+00
 -1      3181 1.10206E+00
 -1      3182 1.56702E+00
 -1      3183 8.75137E-01
 -1      3184 7.99441E-01
 -1      3185 8.10388E-01
 -1      3186 1.08387E+00
 -1      3187 3.33917E+00
 -1      3188 4.11226E+00
 -1      3189 1.27641E+01
 -1      3190 1.18941E+01
 -1      3191 1.65249E-01
 -1      3192 1.82131E-01
 -1      3193 1.95086E-01
 -1      3194 2.13362E-01
 -1      3195 1.77238E-01
 -1      3196 1.12456E-01
 -1      3197 1.25018E-01
 -1      3198 9.00283E-02
 -1      3199 1.00846E-01
 -1      3200 1.01275E-01
 -1      3201 7.03896E-02
 -1      3202 7.94209E-02
 -1      3203 7.90577E-02
 -1      3204 5.44413E-02
 -1      3205 6.19048E-02
 -1      3206 5.99655E-02
 -1      3207 4.08083E-02
 -1      3208 4.61859E-02
 -1      3209 4.32253E-02
 -1      3210 4.33385E-02
 -1      3211 3.90348E-02
 -1      3212 3.31964E-02
 -1      3213 6.39118E-02
 -1      3214 5.33149E-02
 -1      3215 4.13992E-02
 -1      3216 1.00401E-01
 -1      3217 7.99605E-02
 -1      3218 6.74244E-02
 -1      3219 1.46113E-01
 -1      3220 1.20209E-01
 -1      3221 1.03281E-01
 -1      3222 2.03683E-01
 -1      3223 1.70824E-01
 -1      3224 1.47800E-01
 -1      3225 2.78834E-01
 -1      3226 2.37401E-01
 -1      3227 2.06229E-01
 -1      3228 3.75594E-01
 -1      3229 3.23896E-01
 -1      3230 2.85010E-01
 -1      3231 4.95912E-01
 -1      3232 4.32314E-01
 -1      3233 3.86792E-01
 -1      3234 6.42653E-01
 -1      3235 5.65791E-01
 -1      3236 5.13392E-01
 -1      3237 8.16895E-01
 -1      3238 7.26083E-01
 -1      3239 6.66701E-01
 -1      3240 1.01648E+00
 -1      3241 9.12405E-01
 -1      3242 8.45641E-01
 -1      3243 1.26010E+00
 -1      3244 1.14617E+00
 -1      3245 1.07084E+00
 -1      3246 1.55524E+00
 -1      3247 1.43976E+00
 -1      3248 1.38019E+00
 -1      3249 1.93474E+00
 -1      3250 1.80683E+00
 -1      3251 1.81144E+00
 -1      3252 2.54078E+00
 -1      3253 2.25873E+00
 -1      3254 2.38701E+00
 -1      3255 4.13997E+00
 -1      3256 3.97446E+00
 -1      3257 4.14466E+00
 -1      3258 6.06544E+00
 -1      3259 5.54402E+00
 -1      3260 6.98239E+00
 -1      3261 4.16168E+00
 -1      3262 4.41656E+00
 -1      3263 3.23620E-01
 -1      3264 3.15846E-01
 -1      3265 4.36768E+00
 -1      3266 5.25240E+00
 -1      3267 4.29187E+00
 -1      3268 3.56303E+00
 -1      3269 3.56303E+00
 -1      3270 1.29279E+00
 -1      3271 1.45614E+00
 -1      3272 2.05546E+00
 -1      3273 2.41512E+00
 -1      3274 3.71006E+00
 -1      3275 4.70156E+00
 -1      3276 4.47070E+00
 -1      3277 1.82728E+00
 -1      3278 1.92797E+00
 -1      3279 2.43466E+00
 -1      3280 1.93602E+00
 -1      3281 2.87953E+00
 -1      3282 2.97536E+00
 -1      3283 3.48215E+00
 -1      3284 3.75481E+00
 -1      3285 5.07546E+00
 -1      3286 4.16182E+00
 -1      3287 1.40336E+01
 -1      3288 1.16410E+01
 -1      3289 1.37566E-01
 -1      3290 1.52098E-01
 -1      3291 1.51132E-01
 -1      3292 1.25433E-01
 -1      3293 3.08902E-01
 -1      3294 3.43099E-01
 -1      3295 1.18941E+01
 -1      3296 1.22016E+01
 -1      3297 3.52620E-01
 -1      3298 3.86298E-01
 -1      3299 2.97562E-01
 -1      3300 5.73762E+00
 -1      3301 6.43302E+00
 -1      3302 5.10812E+00
 -1      3303 9.45203E+00
 -1      3304 8.29477E+00
 -1      3305 2.08669E+00
 -1      3306 4.13109E-01
 -1      3307 3.09925E-01
 -1      3308 2.61336E-01
 -1      3309 3.99246E-01
 -1      3310 9.58759E+00
 -1      3311 1.23210E+01
 -1      3312 3.38432E+00
 -1      3313 3.10207E+00
 -1      3314 1.18174E+01
 -1      3315 1.00935E+01
 -1      3316 8.65151E+00
 -1      3317 7.27215E+00
 -1      3318 3.53362E-01
 -1      3319 3.34207E-01
 -1      3320 3.29419E-01
 -1      3321 3.40634E-01
 -1      3322 3.16537E-01
 -1      3323 3.09819E-01
 -1      3324 2.45014E-01
 -1      3325 1.27971E+01
 -1      3326 1.37929E+01
 -1      3327 4.07075E+00
 -1      3328 3.49195E+00
 -1      3329 2.78097E+00
 -1      3330 3.27435E+00
 -1      3331 5.70817E+00
 -1      3332 3.12459E-01
 -1      3333 3.12233E-01
 -1      3334 2.85280E-01
 -1      3335 6.17572E+00
 -1      3336 6.80155E+00
 -1      3337 1.04011E+01
 -1      3338 4.85797E+00
 -1      3339 3.56303E+00
 -1      3340 3.54292E+00
 -1      3341 7.71309E+00
 -1      3342 3.72801E+00
 -1      3343 1.29238E+01
 -1      3344 1.01895E+01
 -1      3345 9.60826E+00
 -1      3346 3.53266E+00
 -1      3347 3.46208E+00
 -1      3348 4.21218E+00
 -1      3349 3.91042E+00
 -1      3350 3.50384E+00
 -1      3351 3.67171E+00
 -1      3352 9.27734E+00
 -1      3353 9.72035E+00
 -1      3354 6.03709E+00
 -1      3355 2.65308E-01
 -1      3356 2.92692E-01
 -1      3357 2.71831E-01
 -1      3358 2.04576E-01
 -1      3359 2.27745E-01
 -1      3360 2.46977E-01
 -1      3361 3.21305E-01
 -1      3362 3.50868E-01
 -1      3363 4.67186E+00
 -1      3364 5.05067E+00
 -1      3365 1.27971E+01
 -1      3366 1.01603E+01
 -1      3367 1.08815E+01
 -1      3368 3.23620E-01
 -1      3369 2.88667E-01
 -1      3370 3.25310E-01
 -1      3371 4.90869E+00
 -1      3372 1.94439E+00
 -1      3373 2.10402E+00
 -1      3374 2.87953E+00
 -1      3375 3.53266E+00
 -1      3376 3.53266E+00
 -1      3377 4.83746E+00
 -1      3378 4.84772E+00
 -1      3379 2.60424E-01
 -1      3380 3.21069E-01
 -1      3381 3.21069E-01
 -1      3382 7.62941E+00
 -1      3383 9.51413E+00
 -1      3384 1.05133E+01
 -1      3385 8.38644E+00
 -1      3386 9.33614E+00
 -1      3387 5.07113E+00
 -1      3388 4.27999E+00
 -1      3389 4.88801E+00
 -1      3390 7.24149E+00
 -1      3391 7.77978E+00
 -1      3392 4.64955E+00
 -1      3393 8.02917E+00
 -1      3394 2.95302E+00
 -1      3395 8.31043E+00
 -1      3396 2.32374E+00
 -1      3397 2.32374E+00
 -1      3398 2.17277E+00
 -1      3399 3.69912E+00
 -1      3400 3.17919E+00
 -1      3401 3.23033E-01
 -1      3402 3.25118E-01
 -1      3403 2.84300E-01
 -1      3404 2.47136E-01
 -1      3405 3.40982E+00
 -1      3406 3.62742E+00
 -1      3407 3.08849E+00
 -1      3408 4.44889E+00
 -1      3409 3.69399E-01
 -1      3410 3.94884E-01
 -1      3411 2.77647E-01
 -1      3412 2.90184E-01
 -1      3413 9.98794E-01
 -1      3414 1.12723E+00
 -1      3415 1.39932E+00
 -1      3416 1.04536E+00
 -1      3417 6.15027E+00
 -1      3418 4.65705E+00
 -1      3419 8.12610E+00
 -1      3420 8.36688E+00
 -1      3421 2.16713E-01
 -1      3422 2.05889E-01
 -1      3423 2.02204E-01
 -1      3424 1.88013E-01
 -1      3425 1.79929E-01
 -1      3426 1.80053E-01
 -1      3427 1.66622E-01
 -1      3428 1.68285E-01
 -1      3429 1.56581E-01
 -1      3430 1.45827E-01
 -1      3431 1.50284E-01
 -1      3432 1.37522E-01
 -1      3433 1.26061E-01
 -1      3434 1.31938E-01
 -1      3435 1.17501E-01
 -1      3436 1.06211E-01
 -1      3437 1.15073E-01
 -1      3438 9.73227E-02
 -1      3439 8.66062E-02
 -1      3440 9.76247E-02
 -1      3441 7.78259E-02
 -1      3442 6.77582E-02
 -1      3443 7.99557E-02
 -1      3444 5.92406E-02
 -1      3445 4.96573E-02
 -1      3446 6.26577E-02
 -1      3447 4.33868E-02
 -1      3448 3.47920E-02
 -1      3449 4.78695E-02
 -1      3450 3.58558E-02
 -1      3451 3.66161E-02
 -1      3452 4.26628E-02
 -1      3453 3.98809E-02
 -1      3454 5.08252E-02
 -1      3455 4.69913E-02
 -1      3456 6.52515E-02
 -1      3457 8.00670E-02
 -1      3458 6.46824E-02
 -1      3459 9.82137E-02
 -1      3460 1.17224E-01
 -1      3461 9.72553E-02
 -1      3462 1.39445E-01
 -1      3463 1.62271E-01
 -1      3464 1.37622E-01
 -1      3465 1.89182E-01
 -1      3466 2.16012E-01
 -1      3467 1.86753E-01
 -1      3468 2.48016E-01
 -1      3469 2.78479E-01
 -1      3470 2.45667E-01
 -1      3471 3.15563E-01
 -1      3472 3.56223E-01
 -1      3473 3.14755E-01
 -1      3474 3.97621E-01
 -1      3475 4.46353E-01
 -1      3476 3.93237E-01
 -1      3477 4.93322E-01
 -1      3478 5.48901E-01
 -1      3479 4.81604E-01
 -1      3480 6.13621E-01
 -1      3481 6.75562E-01
 -1      3482 5.93293E-01
 -1      3483 7.67602E-01
 -1      3484 8.38421E-01
 -1      3485 7.50054E-01
 -1      3486 9.72990E-01
 -1      3487 1.05682E+00
 -1      3488 9.76664E-01
 -1      3489 1.21315E+00
 -1      3490 1.34876E+00
 -1      3491 1.26756E+00
 -1      3492 1.52161E+00
 -1      3493 1.66573E+00
 -1      3494 1.59674E+00
 -1      3495 1.98384E+00
 -1      3496 2.09256E+00
 -1      3497 2.08770E+00
 -1      3498 2.38332E+00
 -1      3499 2.50134E+00
 -1      3500 2.69656E+00
 -1      3501 2.80564E+00
 -1      3502 1.97995E+00
 -1      3503 1.72373E+00
 -1      3504 1.96660E-01
 -1      3505 1.83777E-01
 -1      3506 7.26486E-02
 -1      3507 8.32560E-02
 -1      3508 9.28945E-02
 -1      3509 1.04504E-01
 -1      3510 8.64854E-02
 -1      3511 3.77114E-02
 -1      3512 4.59667E-02
 -1      3513 3.46522E-02
 -1      3514 3.64257E-02
 -1      3515 3.91671E-02
 -1      3516 4.78272E-02
 -1      3517 3.78508E-02
 -1      3518 4.10802E-02
 -1      3519 7.84801E-02
 -1      3520 6.24313E-02
 -1      3521 5.88830E-02
 -1      3522 1.17806E-01
 -1      3523 9.79981E-02
 -1      3524 9.30051E-02
 -1      3525 1.67836E-01
 -1      3526 1.43125E-01
 -1      3527 1.37842E-01
 -1      3528 2.34023E-01
 -1      3529 2.00305E-01
 -1      3530 1.95629E-01
 -1      3531 3.20632E-01
 -1      3532 2.75569E-01
 -1      3533 2.69645E-01
 -1      3534 4.30291E-01
 -1      3535 3.73571E-01
 -1      3536 3.64131E-01
 -1      3537 5.67305E-01
 -1      3538 4.97426E-01
 -1      3539 4.84204E-01
 -1      3540 7.35462E-01
 -1      3541 6.52032E-01
 -1      3542 6.36066E-01
 -1      3543 9.37316E-01
 -1      3544 8.41805E-01
 -1      3545 8.27136E-01
 -1      3546 1.19883E+00
 -1      3547 1.06914E+00
 -1      3548 1.06531E+00
 -1      3549 1.53923E+00
 -1      3550 1.35957E+00
 -1      3551 1.35788E+00
 -1      3552 2.02811E+00
 -1      3553 1.77652E+00
 -1      3554 1.75591E+00
 -1      3555 2.84700E+00
 -1      3556 2.52302E+00
 -1      3557 2.48811E+00
 -1      3558 5.17678E+00
 -1      3559 3.74311E+00
 -1      3560 3.87912E+00
 -1      3561 8.38644E+00
 -1      3562 6.98239E+00
 -1      3563 8.09305E+00
 -1      3564 8.53607E+00
 -1      3565 3.49730E+00
 -1      3566 3.86203E+00
 -1      3567 3.03475E+00
 -1      3568 3.29017E+00
 -1      3569 2.86034E+00
 -1      3570 2.42410E+00
 -1      3571 6.38011E+00
 -1      3572 7.50135E+00
 -1      3573 4.37952E+00
 -1      3574 5.52743E+00
 -1      3575 2.49077E-01
 -1      3576 2.58598E-01
 -1      3577 5.49304E-02
 -1      3578 6.34152E-02
 -1      3579 6.76135E-02
 -1      3580 4.94165E-02
 -1      3581 1.58646E-01
 -1      3582 1.71601E-01
 -1      3583 8.53607E+00
 -1      3584 8.53607E+00
 -1      3585 7.35178E+00
 -1      3586 2.88830E+00
 -1      3587 2.59287E+00
 -1      3588 2.74958E+00
 -1      3589 3.56270E+00
 -1      3590 3.15343E-01
 -1      3591 3.23033E-01
 -1      3592 2.88113E-01
 -1      3593 5.63023E+00
 -1      3594 4.22270E+00
 -1      3595 2.13289E-01
 -1      3596 2.24049E-01
 -1      3597 2.15693E-01
 -1      3598 2.12712E-01
 -1      3599 1.79613E-01
 -1      3600 7.20241E+00
 -1      3601 6.56091E+00
 -1      3602 5.04224E+00
 -1      3603 8.09233E+00
 -1      3604 7.70812E+00
 -1      3605 5.42932E+00
 -1      3606 7.70427E+00
 -1      3607 6.57657E+00
 -1      3608 6.10488E+00
 -1      3609 6.10488E+00
 -1      3610 2.84426E-01
 -1      3611 8.22330E+00
 -1      3612 7.39141E+00
 -1      3613 5.56294E+00
 -1      3614 2.03313E-01
 -1      3615 2.23074E-01
 -1      3616 2.49325E-01
 -1      3617 2.10361E-01
 -1      3618 2.33115E-01
 -1      3619 6.76008E+00
 -1      3620 2.33428E+00
 -1      3621 2.85004E-01
 -1      3622 7.55485E+00
 -1      3623 8.96801E+00
 -1      3624 8.24680E+00
 -1      3625 3.99705E+00
 -1      3626 4.02250E+00
 -1      3627 1.62813E-01
 -1      3628 1.57419E+00
 -1      3629 1.34727E+00
 -1      3630 1.53567E+00
 -1      3631 1.98712E+00
 -1      3632 2.37291E-01
 -1      3633 1.83531E-01
 -1      3634 1.97914E-01
 -1      3635 1.64940E-01
 -1      3636 1.06050E-01
 -1      3637 1.14431E-01
 -1      3638 1.26978E-01
 -1      3639 3.16965E+00
 -1      3640 3.96422E+00
 -1      3641 4.19563E+00
 -1      3642 2.37245E-01
 -1      3643 2.20346E-01
 -1      3644 1.88761E-01
 -1      3645 5.95860E+00
 -1      3646 8.12610E+00
 -1      3647 8.12610E+00
 -1      3648 6.09193E+00
 -1      3649 2.33240E+00
 -1      3650 2.70252E-01
 -1      3651 6.77433E+00
 -1      3652 6.09462E+00
 -1      3653 6.09462E+00
 -1      3654 6.90805E+00
 -1      3655 4.91171E+00
 -1      3656 5.41849E+00
 -1      3657 1.36740E-01
 -1      3658 1.49891E-01
 -1      3659 1.44255E-01
 -1      3660 1.25738E-01
 -1      3661 1.83968E-01
 -1      3662 1.70123E+00
 -1      3663 2.53206E-01
 -1      3664 2.49819E-01
 -1      3665 5.50292E+00
 -1      3666 4.36458E+00
 -1      3667 2.53206E-01
 -1      3668 2.17745E-01
 -1      3669 2.53206E-01
 -1      3670 2.06894E-01
 -1      3671 2.59332E+00
 -1      3672 2.45697E+00
 -1      3673 2.82811E+00
 -1      3674 2.40219E-01
 -1      3675 2.36405E-01
 -1      3676 1.62813E-01
 -1      3677 2.82027E+00
 -1      3678 2.42376E-01
 -1      3679 2.46617E-01
 -1      3680 2.11156E-01
 -1      3681 1.85265E-01
 -1      3682 2.56974E-01
 -1      3683 2.19624E-01
 -1      3684 1.56113E-01
 -1      3685 1.48154E-01
 -1      3686 1.43628E-01
 -1      3687 1.33587E-01
 -1      3688 1.31456E-01
 -1      3689 1.26712E-01
 -1      3690 1.18408E-01
 -1      3691 1.20056E-01
 -1      3692 1.10982E-01
 -1      3693 1.02421E-01
 -1      3694 1.05755E-01
 -1      3695 9.59739E-02
 -1      3696 8.70853E-02
 -1      3697 9.18820E-02
 -1      3698 8.02084E-02
 -1      3699 7.14280E-02
 -1      3700 7.85576E-02
 -1      3701 6.45621E-02
 -1      3702 5.60445E-02
 -1      3703 6.48148E-02
 -1      3704 5.24554E-02
 -1      3705 4.61848E-02
 -1      3706 5.43598E-02
 -1      3707 4.71760E-02
 -1      3708 4.82398E-02
 -1      3709 5.17619E-02
 -1      3710 5.07520E-02
 -1      3711 5.40167E-02
 -1      3712 5.52652E-02
 -1      3713 5.99824E-02
 -1      3714 7.44087E-02
 -1      3715 6.37430E-02
 -1      3716 9.02067E-02
 -1      3717 1.08353E-01
 -1      3718 8.55067E-02
 -1      3719 1.28158E-01
 -1      3720 1.50378E-01
 -1      3721 1.21109E-01
 -1      3722 1.75104E-01
 -1      3723 2.02014E-01
 -1      3724 1.65639E-01
 -1      3725 2.32667E-01
 -1      3726 2.64671E-01
 -1      3727 2.21018E-01
 -1      3728 3.02336E-01
 -1      3729 3.39421E-01
 -1      3730 2.89336E-01
 -1      3731 3.85227E-01
 -1      3732 4.26624E-01
 -1      3733 3.72808E-01
 -1      3734 4.81604E-01
 -1      3735 5.28574E-01
 -1      3736 4.73594E-01
 -1      3737 5.93293E-01
 -1      3738 6.58013E-01
 -1      3739 5.93293E-01
 -1      3740 7.35058E-01
 -1      3741 8.27098E-01
 -1      3742 7.35058E-01
 -1      3743 9.56971E-01
 -1      3744 1.09154E+00
 -1      3745 9.41975E-01
 -1      3746 1.29726E+00
 -1      3747 1.45359E+00
 -1      3748 1.27757E+00
 -1      3749 1.64985E+00
 -1      3750 1.82270E+00
 -1      3751 1.67955E+00
 -1      3752 2.13253E+00
 -1      3753 2.45063E+00
 -1      3754 2.18564E+00
 -1      3755 3.38413E+00
 -1      3756 1.92324E-01
 -1      3757 2.74286E+00
 -1      3758 1.92324E-01
 -1      3759 1.83968E-01
 -1      3760 4.87284E-02
 -1      3761 4.55297E-02
 -1      3762 4.31510E-02
 -1      3763 4.44366E-02
 -1      3764 5.07992E-02
 -1      3765 1.05557E-01
 -1      3766 8.60394E-02
 -1      3767 1.52186E-01
 -1      3768 1.26867E-01
 -1      3769 1.19901E-01
 -1      3770 2.11861E-01
 -1      3771 1.79392E-01
 -1      3772 1.68417E-01
 -1      3773 2.88161E-01
 -1      3774 2.46614E-01
 -1      3775 2.30376E-01
 -1      3776 3.85548E-01
 -1      3777 3.32608E-01
 -1      3778 3.09578E-01
 -1      3779 5.09789E-01
 -1      3780 4.42654E-01
 -1      3781 4.11132E-01
 -1      3782 6.68691E-01
 -1      3783 5.83964E-01
 -1      3784 5.42414E-01
 -1      3785 8.73339E-01
 -1      3786 7.66996E-01
 -1      3787 7.14894E-01
 -1      3788 1.13917E+00
 -1      3789 1.00734E+00
 -1      3790 9.47198E-01
 -1      3791 1.48923E+00
 -1      3792 1.32849E+00
 -1      3793 1.27052E+00
 -1      3794 1.99320E+00
 -1      3795 1.75591E+00
 -1      3796 1.72652E+00
 -1      3797 2.85494E+00
 -1      3798 2.36003E+00
 -1      3799 2.36003E+00
 -1      3800 6.58083E+00
 -1      3801 8.38644E+00
 -1      3802 6.09462E+00
 -1      3803 7.78685E-02
 -1      3804 8.75070E-02
 -1      3805 3.84013E+00
 -1      3806 5.65749E+00
 -1      3807 7.62941E+00
 -1      3808 5.79121E+00
 -1      3809 5.28549E+00
 -1      3810 1.66685E-01
 -1      3811 3.71263E+00
 -1      3812 3.99033E+00
 -1      3813 4.77097E+00
 -1      3814 4.23358E+00
 -1      3815 4.13620E+00
 -1      3816 2.08345E-01
 -1      3817 2.26676E-01
 -1      3818 2.04169E-01
 -1      3819 2.48552E-01
 -1      3820 2.51662E-01
 -1      3821 2.16478E-01
 -1      3822 1.49748E-01
 -1      3823 1.53749E-01
 -1      3824 1.58104E-01
 -1      3825 6.93013E-02
 -1      3826 5.46972E-02
 -1      3827 8.18536E-02
 -1      3828 4.87485E+00
 -1      3829 1.60177E-01
 -1      3830 1.56492E-01
 -1      3831 1.36360E-01
 -1      3832 1.30312E-01
 -1      3833 2.51662E-01
 -1      3834 2.51662E-01
 -1      3835 2.15211E-01
 -1      3836 1.40925E-01
 -1      3837 1.60227E-01
 -1      3838 1.41648E-01
 -1      3839 1.78846E-01
 -1      3840 1.78599E-01
 -1      3841 2.88365E+00
 -1      3842 2.83882E+00
 -1      3843 3.12958E+00
 -1      3844 6.16989E+00
 -1      3845 5.91467E-02
 -1      3846 1.92324E-01
 -1      3847 1.47062E-01
 -1      3848 1.58992E-01
 -1      3849 9.52882E-02
 -1      3850 1.05214E-01
 -1      3851 8.66713E-02
 -1      3852 4.83505E-02
 -1      3853 4.43667E-02
 -1      3854 5.33303E-02
 -1      3855 4.31428E+00
 -1      3856 3.41817E+00
 -1      3857 1.63001E-01
 -1      3858 5.91248E+00
 -1      3859 7.82596E+00
 -1      3860 5.79178E+00
 -1      3861 7.01109E-02
 -1      3862 7.11326E-02
 -1      3863 6.08776E-02
 -1      3864 3.02739E+00
 -1      3865 1.31486E-01
 -1      3866 1.38885E-01
 -1      3867 1.32938E-01
 -1      3868 1.30130E-01
 -1      3869 4.31001E+00
 -1      3870 6.33060E+00
 -1      3871 1.87300E-01
 -1      3872 1.87094E-01
 -1      3873 1.85827E-01
 -1      3874 3.47913E+00
 -1      3875 4.40292E+00
 -1      3876 4.84644E+00
 -1      3877 3.09094E+00
 -1      3878 5.06682E+00
 -1      3879 4.40421E+00
 -1      3880 3.94752E+00
 -1      3881 3.29009E+00
 -1      3882 1.85525E-01
 -1      3883 1.85525E-01
 -1      3884 1.54874E-01
 -1      3885 2.03767E-01
 -1      3886 5.06682E+00
 -1      3887 1.83458E-01
 -1      3888 1.51695E-01
 -1      3889 1.77018E-01
 -1      3890 1.89436E-01
 -1      3891 1.89436E-01
 -1      3892 1.60052E-01
 -1      3893 5.74905E+00
 -1      3894 5.91248E+00
 -1      3895 1.12537E-01
 -1      3896 1.05662E-01
 -1      3897 1.00814E-01
 -1      3898 9.33882E-02
 -1      3899 9.32947E-02
 -1      3900 8.75312E-02
 -1      3901 8.10837E-02
 -1      3902 8.25899E-02
 -1      3903 7.55239E-02
 -1      3904 6.86470E-02
 -1      3905 7.11731E-02
 -1      3906 6.48073E-02
 -1      3907 5.79414E-02
 -1      3908 6.17736E-02
 -1      3909 5.66623E-02
 -1      3910 5.30732E-02
 -1      3911 5.66548E-02
 -1      3912 5.42328E-02
 -1      3913 5.52240E-02
 -1      3914 5.65353E-02
 -1      3915 5.73760E-02
 -1      3916 5.98882E-02
 -1      3917 5.98469E-02
 -1      3918 6.42995E-02
 -1      3919 7.02652E-02
 -1      3920 6.64104E-02
 -1      3921 7.86440E-02
 -1      3922 9.44420E-02
 -1      3923 7.92006E-02
 -1      3924 1.06953E-01
 -1      3925 1.26757E-01
 -1      3926 1.00090E-01
 -1      3927 1.47133E-01
 -1      3928 1.71859E-01
 -1      3929 1.32977E-01
 -1      3930 1.98037E-01
 -1      3931 2.28690E-01
 -1      3932 1.79531E-01
 -1      3933 2.62320E-01
 -1      3934 2.99986E-01
 -1      3935 2.39340E-01
 -1      3936 3.43306E-01
 -1      3937 3.89112E-01
 -1      3938 3.16290E-01
 -1      3939 4.45259E-01
 -1      3940 5.00239E-01
 -1      3941 4.15757E-01
 -1      3942 5.73586E-01
 -1      3943 6.38306E-01
 -1      3944 5.45251E-01
 -1      3945 7.35058E-01
 -1      3946 8.12102E-01
 -1      3947 7.15350E-01
 -1      3948 9.41975E-01
 -1      3949 1.07185E+00
 -1      3950 9.41975E-01
 -1      3951 1.24292E+00
 -1      3952 1.44864E+00
 -1      3953 1.24292E+00
 -1      3954 1.76771E+00
 -1      3955 1.96397E+00
 -1      3956 1.73306E+00
 -1      3957 2.52868E+00
 -1      3958 2.83851E+00
 -1      3959 3.43398E+00
 -1      3960 2.61684E+00
 -1      3961 2.34647E-01
 -1      3962 1.99893E-01
 -1      3963 5.53629E-02
 -1      3964 5.29842E-02
 -1      3965 3.27850E+00
 -1      3966 3.18431E+00
 -1      3967 2.62107E+00
 -1      3968 1.73854E-01
 -1      3969 1.46648E-01
 -1      3970 1.78124E-01
 -1      3971 1.26109E-01
 -1      3972 1.04799E-01
 -1      3973 1.31546E-01
 -1      3974 3.12115E-01
 -1      3975 2.67667E-01
 -1      3976 2.37184E-01
 -1      3977 4.11315E-01
 -1      3978 3.54208E-01
 -1      3979 3.12297E-01
 -1      3980 5.39911E-01
 -1      3981 4.65736E-01
 -1      3982 4.08812E-01
 -1      3983 7.10518E-01
 -1      3984 6.12213E-01
 -1      3985 5.35535E-01
 -1      3986 9.45409E-01
 -1      3987 8.11409E-01
 -1      3988 7.08728E-01
 -1      3989 1.28944E+00
 -1      3990 1.10011E+00
 -1      3991 9.64325E-01
 -1      3992 1.67540E+00
 -1      3993 1.40873E+00
 -1      3994 1.23832E+00
 -1      3995 2.19204E+00
 -1      3996 1.82521E+00
 -1      3997 1.50741E+00
 -1      3998 2.08626E+00
 -1      3999 1.47068E-01
 -1      4000 1.64946E-01
 -1      4001 1.75376E-01
 -1      4002 6.49409E-02
 -1      4003 5.89721E-02
 -1      4004 6.11571E-02
 -1      4005 1.12643E-01
 -1      4006 1.22405E-01
 -1      4007 1.17035E-01
 -1      4008 1.01881E-01
 -1      4009 1.72555E-01
 -1      4010 1.79145E-01
 -1      4011 1.46925E-01
 -1      4012 1.28216E-01
 -1      4013 1.43814E-01
 -1      4014 8.90392E-02
 -1      4015 7.23011E-02
 -1      4016 7.21264E-02
 -1      4017 1.19831E-01
 -1      4018 1.15305E-01
 -1      4019 1.00911E-01
 -1      4020 1.46038E-01
 -1      4021 1.11819E-01
 -1      4022 4.79359E+00
 -1      4023 3.76848E+00
 -1      4024 3.00527E+00
 -1      4025 1.28701E-01
 -1      4026 1.32310E-01
 -1      4027 4.58903E+00
 -1      4028 1.54664E-01
 -1      4029 9.52467E-02
 -1      4030 6.39466E-02
 -1      4031 5.93829E-02
 -1      4032 5.93129E-02
 -1      4033 7.65175E-02
 -1      4034 8.42986E-02
 -1      4035 1.29512E-01
 -1      4036 1.35466E-01
 -1      4037 1.27132E-01
 -1      4038 1.28701E-01
 -1      4039 1.00959E-01
 -1      4040 5.49164E+00
 -1      4041 5.58278E-02
 -1      4042 2.03767E-01
 -1      4043 1.23041E-01
 -1      4044 1.19771E-01
 -1      4045 1.36573E-01
 -1      4046 1.31961E-01
 -1      4047 1.07918E-01
 -1      4048 6.28991E-02
 -1      4049 7.06567E-02
 -1      4050 6.82840E-02
 -1      4051 4.49345E+00
 -1      4052 1.17665E-01
 -1      4053 1.25841E-01
 -1      4054 1.14240E-01
 -1      4055 1.19191E-01
 -1      4056 1.03040E-01
 -1      4057 1.19570E-01
 -1      4058 1.07299E-01
 -1      4059 1.13726E-01
 -1      4060 9.52333E-02
 -1      4061 1.77992E-01
 -1      4062 4.33659E+00
 -1      4063 7.94867E-02
 -1      4064 7.21264E-02
 -1      4065 8.34108E-02
 -1      4066 7.75538E-02
 -1      4067 7.36413E-02
 -1      4068 6.80815E-02
 -1      4069 7.44622E-02
 -1      4070 6.35491E-02
 -1      4071 5.97094E-02
 -1      4072 6.60173E-02
 -1      4073 5.79338E-02
 -1      4074 5.66548E-02
 -1      4075 5.97094E-02
 -1      4076 6.50082E-02
 -1      4077 6.61677E-02
 -1      4078 6.62872E-02
 -1      4079 5.98469E-02
 -1      4080 6.19990E-02
 -1      4081 6.83198E-02
 -1      4082 6.64104E-02
 -1      4083 7.08218E-02
 -1      4084 6.64104E-02
 -1      4085 7.92006E-02
 -1      4086 8.75794E-02
 -1      4087 7.92006E-02
 -1      4088 9.92688E-02
 -1      4089 1.11780E-01
 -1      4090 9.92688E-02
 -1      4091 1.30283E-01
 -1      4092 1.50659E-01
 -1      4093 1.29462E-01
 -1      4094 1.75521E-01
 -1      4095 2.01699E-01
 -1      4096 1.72827E-01
 -1      4097 2.35179E-01
 -1      4098 2.68809E-01
 -1      4099 2.31168E-01
 -1      4100 3.14353E-01
 -1      4101 3.57673E-01
 -1      4102 3.10192E-01
 -1      4103 4.20759E-01
 -1      4104 4.76906E-01
 -1      4105 4.18822E-01
 -1      4106 5.66597E-01
 -1      4107 6.39944E-01
 -1      4108 5.71599E-01
 -1      4109 7.71757E-01
 -1      4110 8.68509E-01
 -1      4111 7.93102E-01
 -1      4112 1.07197E+00
 -1      4113 1.20185E+00
 -1      4114 1.12838E+00
 -1      4115 1.40972E+00
 -1      4116 1.58079E+00
 -1      4117 1.53972E+00
 -1      4118 1.98997E+00
 -1      4119 2.30904E+00
 -1      4120 2.15677E+00
 -1      4121 1.05883E-01
 -1      4122 9.01228E-02
 -1      4123 9.01228E-02
 -1      4124 1.86490E-01
 -1      4125 1.60450E-01
 -1      4126 1.26152E-01
 -1      4127 1.40994E-01
 -1      4128 1.20455E-01
 -1      4129 1.49360E-01
 -1      4130 4.16835E-01
 -1      4131 3.62414E-01
 -1      4132 5.45243E-01
 -1      4133 4.72941E-01
 -1      4134 4.26543E-01
 -1      4135 7.35455E-01
 -1      4136 6.34563E-01
 -1      4137 5.71969E-01
 -1      4138 1.02197E+00
 -1      4139 8.67268E-01
 -1      4140 7.93102E-01
 -1      4141 1.34473E+00
 -1      4142 1.22544E+00
 -1      4143 1.12838E+00
 -1      4144 9.05112E-02
 -1      4145 8.77428E-02
 -1      4146 3.19791E-01
 -1      4147 2.77697E-01
 -1      4148 3.27813E-01
 -1      4149 5.16594E-02
 -1      4150 5.92067E-02
 -1      4151 5.87308E-02
 -1      4152 6.26918E-02
 -1      4153 2.44867E-01
 -1      4154 2.11847E-01
 -1      4155 1.94173E-01
 -1      4156 1.37342E-01
 -1      4157 1.38985E-01
 -1      4158 1.19250E-01
 -1      4159 1.19787E-01
 -1      4160 1.00356E-01
 -1      4161 1.31707E-01
 -1      4162 6.47662E-02
 -1      4163 6.11571E-02
 -1      4164 7.21264E-02
 -1      4165 7.98339E-02
 -1      4166 8.99877E-02
 -1      4167 9.74164E-02
 -1      4168 9.29108E-02
 -1      4169 8.80631E-02
 -1      4170 8.25111E-02
 -1      4171 4.49345E+00
 -1      4172 3.49525E+00
 -1      4173 2.80950E+00
 -1      4174 2.31952E+00
 -1      4175 1.89049E+00
 -1      4176 4.49345E+00
 -1      4177 9.99786E-02
 -1      4178 7.92231E-02
 -1      4179 7.86202E-02
 -1      4180 7.41006E-02
 -1      4181 6.60943E-02
 -1      4182 7.24930E-02
 -1      4183 6.97034E-02
 -1      4184 2.67266E+00
 -1      4185 2.41575E+00
 -1      4186 1.15331E-01
 -1      4187 2.98045E+00
 -1      4188 8.97752E-02
 -1      4189 9.04144E-02
 -1      4190 7.72462E-02
 -1      4191 7.92231E-02
 -1      4192 1.96178E+00
 -1      4193 1.94890E+00
 -1      4194 2.11159E+00
 -1      4195 2.52360E-01
 -1      4196 4.13550E+00
 -1      4197 8.30269E-02
 -1      4198 1.04247E-01
 -1      4199 1.11973E-01
 -1      4200 9.23536E-02
 -1      4201 6.64865E-02
 -1      4202 7.23472E-02
 -1      4203 1.01184E-01
 -1      4204 1.03059E-01
 -1      4205 3.13731E+00
 -1      4206 1.04876E-01
 -1      4207 7.62597E-02
 -1      4208 8.19489E-02
 -1      4209 7.44622E-02
 -1      4210 9.65573E-02
 -1      4211 2.80950E+00
 -1      4212 9.75124E-02
 -1      4213 1.01184E-01
 -1      4214 8.44561E-02
 -1      4215 3.03060E+00
 -1      4216 1.20431E-01
 -1      4217 1.05859E-01
 -1      4218 7.67836E-02
 -1      4219 8.26272E-02
 -1      4220 7.00014E-02
 -1      4221 6.01705E-02
 -1      4222 9.41691E-02
 -1      4223 8.35330E-02
 -1      4224 7.05497E-02
 -1      4225 6.60173E-02
 -1      4226 6.62872E-02
 -1      4227 7.46406E-02
 -1      4228 7.46406E-02
 -1      4229 6.83198E-02
 -1      4230 6.33826E-02
 -1      4231 6.77940E-02
 -1      4232 7.51542E-02
 -1      4233 1.38935E-01
 -1      4234 1.58391E-01
 -1      4235 1.83252E-01
 -1      4236 2.08610E-01
 -1      4237 2.42089E-01
 -1      4238 2.74919E-01
 -1      4239 3.20463E-01
 -1      4240 3.63086E-01
 -1      4241 4.26172E-01
 -1      4242 4.82278E-01
 -1      4243 5.71969E-01
 -1      4244 6.61290E-01
 -1      4245 7.93102E-01
 -1      4246 9.24915E-01
 -1      4247 1.12838E+00
 -1      4248 1.33185E+00
 -1      4249 1.53972E+00
 -1      4250 2.15677E+00
 -1      4251 2.56595E+00
 -1      4252 9.57519E-02
 -1      4253 9.33396E-02
 -1      4254 7.71485E-02
 -1      4255 7.82430E-02
 -1      4256 7.92231E-02
 -1      4257 5.74875E-02
 -1      4258 9.34317E-02
 -1      4259 9.91239E-02
 -1      4260 8.60676E-02
 -1      4261 8.66011E-02
 -1      4262 9.34317E-02
 -1      4263 8.76791E-02
 -1      4264 8.30269E-02
 -1      4265 6.17558E-02
 -1      4266 6.58190E-02
 -1      4267 5.80633E-02
 -1      4268 8.71628E-02
 -1      4269 8.08996E-02
 -1      4270 8.60676E-02
 -1      4271 8.76791E-02
 -1      4272 8.30269E-02
 -1      4273 7.83747E-02
 -1      4274 7.44622E-02
 -1      4275 2.34485E+00
 -1      4276 6.36642E-02
 -1      4277 6.12866E-02
 -1      4278 7.46406E-02
 -1      4279 5.95111E-02
 -1      4280 8.08996E-02
 -1      4281 8.44561E-02
 -1      4282 8.44561E-02
 -1      4283 8.08027E-02
 -1      4284 7.71485E-02
 -1      4285 6.36642E-02
 -1      4286 3.03060E+00
 -1      4287 6.78645E-02
 -1      4288 7.24930E-02
 -1      4289 6.63472E-02
 -1      4290 7.36548E-02
 -1      4291 6.48395E-02
 -1      4292 8.76791E-02
 -3
 9999
