    1C
    1UUSER                                                              
    1UDATE              27.october.2022                                 
    1UTIME              00:19:25                                        
    1UHOST                                                              
    1UPGM               CalculiX                                        
    1UVERSION           Version 2.17                             
    1UCOMPILETIME       Thu Jul 23 21:43:50 CEST 2020                    
    1UDIR                                                               
    1UDBN                                                               
    1UMAT    1SOLIDMATERIAL                                             
    2C                          4376                                     1
 -1         1 5.36868E+01 3.14136E+01 0.00000E+00
 -1         2 6.61163E+01 2.69954E+01 0.00000E+00
 -1         3 1.50000E+02 0.00000E+00 0.00000E+00
 -1         4 1.50000E+02 5.00000E+01 0.00000E+00
 -1         5 0.00000E+00 0.00000E+00 0.00000E+00
 -1         6 0.00000E+00 5.00000E+01 0.00000E+00
 -1         7 0.00000E+00 4.70500E+01 0.00000E+00
 -1         8 0.00000E+00 4.41000E+01 0.00000E+00
 -1         9 0.00000E+00 4.11500E+01 0.00000E+00
 -1        10 0.00000E+00 3.82000E+01 0.00000E+00
 -1        11 0.00000E+00 3.52500E+01 0.00000E+00
 -1        12 0.00000E+00 3.23500E+01 0.00000E+00
 -1        13 0.00000E+00 2.94000E+01 0.00000E+00
 -1        14 0.00000E+00 2.64500E+01 0.00000E+00
 -1        15 0.00000E+00 2.35000E+01 0.00000E+00
 -1        16 0.00000E+00 2.05500E+01 0.00000E+00
 -1        17 0.00000E+00 1.76000E+01 0.00000E+00
 -1        18 0.00000E+00 1.47000E+01 0.00000E+00
 -1        19 0.00000E+00 1.17500E+01 0.00000E+00
 -1        20 0.00000E+00 8.80000E+00 0.00000E+00
 -1        21 0.00000E+00 5.85000E+00 0.00000E+00
 -1        22 0.00000E+00 2.90000E+00 0.00000E+00
 -1        23 3.15000E+00 5.00000E+01 0.00000E+00
 -1        24 6.15000E+00 5.00000E+01 0.00000E+00
 -1        25 9.15000E+00 5.00000E+01 0.00000E+00
 -1        26 1.21500E+01 5.00000E+01 0.00000E+00
 -1        27 1.51500E+01 5.00000E+01 0.00000E+00
 -1        28 1.81500E+01 5.00000E+01 0.00000E+00
 -1        29 2.11500E+01 5.00000E+01 0.00000E+00
 -1        30 2.41500E+01 5.00000E+01 0.00000E+00
 -1        31 2.71500E+01 5.00000E+01 0.00000E+00
 -1        32 3.01500E+01 5.00000E+01 0.00000E+00
 -1        33 3.31500E+01 5.00000E+01 0.00000E+00
 -1        34 3.61500E+01 5.00000E+01 0.00000E+00
 -1        35 3.91500E+01 5.00000E+01 0.00000E+00
 -1        36 4.21500E+01 5.00000E+01 0.00000E+00
 -1        37 4.51500E+01 5.00000E+01 0.00000E+00
 -1        38 4.81500E+01 5.00000E+01 0.00000E+00
 -1        39 5.11500E+01 5.00000E+01 0.00000E+00
 -1        40 5.41500E+01 5.00000E+01 0.00000E+00
 -1        41 5.71500E+01 5.00000E+01 0.00000E+00
 -1        42 6.01500E+01 5.00000E+01 0.00000E+00
 -1        43 6.31500E+01 5.00000E+01 0.00000E+00
 -1        44 6.61500E+01 5.00000E+01 0.00000E+00
 -1        45 6.91500E+01 5.00000E+01 0.00000E+00
 -1        46 7.21500E+01 5.00000E+01 0.00000E+00
 -1        47 7.51500E+01 5.00000E+01 0.00000E+00
 -1        48 7.81500E+01 5.00000E+01 0.00000E+00
 -1        49 8.11500E+01 5.00000E+01 0.00000E+00
 -1        50 8.41500E+01 5.00000E+01 0.00000E+00
 -1        51 8.71500E+01 5.00000E+01 0.00000E+00
 -1        52 9.01500E+01 5.00000E+01 0.00000E+00
 -1        53 9.31500E+01 5.00000E+01 0.00000E+00
 -1        54 9.61500E+01 5.00000E+01 0.00000E+00
 -1        55 9.91500E+01 5.00000E+01 0.00000E+00
 -1        56 1.02150E+02 5.00000E+01 0.00000E+00
 -1        57 1.05150E+02 5.00000E+01 0.00000E+00
 -1        58 1.08150E+02 5.00000E+01 0.00000E+00
 -1        59 1.11150E+02 5.00000E+01 0.00000E+00
 -1        60 1.14150E+02 5.00000E+01 0.00000E+00
 -1        61 1.17150E+02 5.00000E+01 0.00000E+00
 -1        62 1.20150E+02 5.00000E+01 0.00000E+00
 -1        63 1.23150E+02 5.00000E+01 0.00000E+00
 -1        64 1.26150E+02 5.00000E+01 0.00000E+00
 -1        65 1.29150E+02 5.00000E+01 0.00000E+00
 -1        66 1.32150E+02 5.00000E+01 0.00000E+00
 -1        67 1.35150E+02 5.00000E+01 0.00000E+00
 -1        68 1.38150E+02 5.00000E+01 0.00000E+00
 -1        69 1.41150E+02 5.00000E+01 0.00000E+00
 -1        70 1.44150E+02 5.00000E+01 0.00000E+00
 -1        71 1.47150E+02 5.00000E+01 0.00000E+00
 -1        72 3.15000E+00 0.00000E+00 0.00000E+00
 -1        73 6.15000E+00 0.00000E+00 0.00000E+00
 -1        74 9.15000E+00 0.00000E+00 0.00000E+00
 -1        75 1.21500E+01 0.00000E+00 0.00000E+00
 -1        76 1.51500E+01 0.00000E+00 0.00000E+00
 -1        77 1.81500E+01 0.00000E+00 0.00000E+00
 -1        78 2.11500E+01 0.00000E+00 0.00000E+00
 -1        79 2.41500E+01 0.00000E+00 0.00000E+00
 -1        80 2.71500E+01 0.00000E+00 0.00000E+00
 -1        81 3.01500E+01 0.00000E+00 0.00000E+00
 -1        82 3.31500E+01 0.00000E+00 0.00000E+00
 -1        83 3.61500E+01 0.00000E+00 0.00000E+00
 -1        84 3.91500E+01 0.00000E+00 0.00000E+00
 -1        85 4.21500E+01 0.00000E+00 0.00000E+00
 -1        86 4.51500E+01 0.00000E+00 0.00000E+00
 -1        87 4.81500E+01 0.00000E+00 0.00000E+00
 -1        88 5.11500E+01 0.00000E+00 0.00000E+00
 -1        89 5.41500E+01 0.00000E+00 0.00000E+00
 -1        90 5.71500E+01 0.00000E+00 0.00000E+00
 -1        91 6.01500E+01 0.00000E+00 0.00000E+00
 -1        92 6.31500E+01 0.00000E+00 0.00000E+00
 -1        93 6.61500E+01 0.00000E+00 0.00000E+00
 -1        94 6.91500E+01 0.00000E+00 0.00000E+00
 -1        95 7.21500E+01 0.00000E+00 0.00000E+00
 -1        96 7.51500E+01 0.00000E+00 0.00000E+00
 -1        97 7.81500E+01 0.00000E+00 0.00000E+00
 -1        98 8.11500E+01 0.00000E+00 0.00000E+00
 -1        99 8.41500E+01 0.00000E+00 0.00000E+00
 -1       100 8.71500E+01 0.00000E+00 0.00000E+00
 -1       101 9.01500E+01 0.00000E+00 0.00000E+00
 -1       102 9.31500E+01 0.00000E+00 0.00000E+00
 -1       103 9.61500E+01 0.00000E+00 0.00000E+00
 -1       104 9.91500E+01 0.00000E+00 0.00000E+00
 -1       105 1.02150E+02 0.00000E+00 0.00000E+00
 -1       106 1.05150E+02 0.00000E+00 0.00000E+00
 -1       107 1.08150E+02 0.00000E+00 0.00000E+00
 -1       108 1.11150E+02 0.00000E+00 0.00000E+00
 -1       109 1.14150E+02 0.00000E+00 0.00000E+00
 -1       110 1.17150E+02 0.00000E+00 0.00000E+00
 -1       111 1.20150E+02 0.00000E+00 0.00000E+00
 -1       112 1.23150E+02 0.00000E+00 0.00000E+00
 -1       113 1.26150E+02 0.00000E+00 0.00000E+00
 -1       114 1.29150E+02 0.00000E+00 0.00000E+00
 -1       115 1.32150E+02 0.00000E+00 0.00000E+00
 -1       116 1.35150E+02 0.00000E+00 0.00000E+00
 -1       117 1.38150E+02 0.00000E+00 0.00000E+00
 -1       118 1.41150E+02 0.00000E+00 0.00000E+00
 -1       119 1.44150E+02 0.00000E+00 0.00000E+00
 -1       120 1.47150E+02 0.00000E+00 0.00000E+00
 -1       121 1.50000E+02 2.95000E+00 0.00000E+00
 -1       122 1.50000E+02 5.90000E+00 0.00000E+00
 -1       123 1.50000E+02 8.85000E+00 0.00000E+00
 -1       124 1.50000E+02 1.18000E+01 0.00000E+00
 -1       125 1.50000E+02 1.47500E+01 0.00000E+00
 -1       126 1.50000E+02 1.76500E+01 0.00000E+00
 -1       127 1.50000E+02 2.06000E+01 0.00000E+00
 -1       128 1.50000E+02 2.35500E+01 0.00000E+00
 -1       129 1.50000E+02 2.65000E+01 0.00000E+00
 -1       130 1.50000E+02 2.94500E+01 0.00000E+00
 -1       131 1.50000E+02 3.24000E+01 0.00000E+00
 -1       132 1.50000E+02 3.53000E+01 0.00000E+00
 -1       133 1.50000E+02 3.82500E+01 0.00000E+00
 -1       134 1.50000E+02 4.12000E+01 0.00000E+00
 -1       135 1.50000E+02 4.41500E+01 0.00000E+00
 -1       136 1.50000E+02 4.71000E+01 0.00000E+00
 -1       137 6.59483E+01 2.54708E+01 0.00000E+00
 -1       138 6.54781E+01 2.40751E+01 0.00000E+00
 -1       139 6.47485E+01 2.28386E+01 0.00000E+00
 -1       140 6.37357E+01 2.17360E+01 0.00000E+00
 -1       141 6.24884E+01 2.08611E+01 0.00000E+00
 -1       142 6.11216E+01 2.02887E+01 0.00000E+00
 -1       143 5.97166E+01 2.00212E+01 0.00000E+00
 -1       144 5.82629E+01 2.00476E+01 0.00000E+00
 -1       145 5.67294E+01 2.04149E+01 0.00000E+00
 -1       146 5.54191E+01 2.10514E+01 0.00000E+00
 -1       147 5.42794E+01 2.19353E+01 0.00000E+00
 -1       148 5.33247E+01 2.30638E+01 0.00000E+00
 -1       149 5.26037E+01 2.44291E+01 0.00000E+00
 -1       150 5.22168E+01 2.58137E+01 0.00000E+00
 -1       151 5.21237E+01 2.73179E+01 0.00000E+00
 -1       152 5.23506E+01 2.87911E+01 0.00000E+00
 -1       153 5.29147E+01 3.02420E+01 0.00000E+00
 -1       154 5.46750E+01 3.24060E+01 0.00000E+00
 -1       155 5.58668E+01 3.31954E+01 0.00000E+00
 -1       156 5.71440E+01 3.37118E+01 0.00000E+00
 -1       157 5.86252E+01 3.39781E+01 0.00000E+00
 -1       158 5.99922E+01 3.39403E+01 0.00000E+00
 -1       159 6.14245E+01 3.36039E+01 0.00000E+00
 -1       160 6.26563E+01 3.30343E+01 0.00000E+00
 -1       161 6.37811E+01 3.22145E+01 0.00000E+00
 -1       162 6.47913E+01 3.10935E+01 0.00000E+00
 -1       163 6.54965E+01 2.98751E+01 0.00000E+00
 -1       164 6.59690E+01 2.84240E+01 0.00000E+00
 -1       165 2.59800E+00 4.55750E+01 0.00000E+00
 -1       166 2.59800E+00 4.26250E+01 0.00000E+00
 -1       167 2.59800E+00 3.96750E+01 0.00000E+00
 -1       168 2.59800E+00 3.67250E+01 0.00000E+00
 -1       169 2.59800E+00 3.38250E+01 0.00000E+00
 -1       170 2.59800E+00 3.08750E+01 0.00000E+00
 -1       171 2.59800E+00 2.79250E+01 0.00000E+00
 -1       172 2.59800E+00 2.49750E+01 0.00000E+00
 -1       173 2.59800E+00 2.20250E+01 0.00000E+00
 -1       174 2.59800E+00 1.90750E+01 0.00000E+00
 -1       175 2.59800E+00 1.61750E+01 0.00000E+00
 -1       176 2.59800E+00 1.32250E+01 0.00000E+00
 -1       177 2.59800E+00 1.02750E+01 0.00000E+00
 -1       178 2.59800E+00 7.32500E+00 0.00000E+00
 -1       179 2.59800E+00 4.37500E+00 0.00000E+00
 -1       180 2.87400E+00 2.18750E+00 0.00000E+00
 -1       181 4.65000E+00 4.74020E+01 0.00000E+00
 -1       182 7.65000E+00 4.74020E+01 0.00000E+00
 -1       183 1.06500E+01 4.74020E+01 0.00000E+00
 -1       184 1.36500E+01 4.74020E+01 0.00000E+00
 -1       185 1.66500E+01 4.74020E+01 0.00000E+00
 -1       186 1.96500E+01 4.74020E+01 0.00000E+00
 -1       187 2.26500E+01 4.74020E+01 0.00000E+00
 -1       188 2.56500E+01 4.74020E+01 0.00000E+00
 -1       189 2.86500E+01 4.74020E+01 0.00000E+00
 -1       190 3.16500E+01 4.74020E+01 0.00000E+00
 -1       191 3.46500E+01 4.74020E+01 0.00000E+00
 -1       192 3.76500E+01 4.74020E+01 0.00000E+00
 -1       193 4.06500E+01 4.74020E+01 0.00000E+00
 -1       194 4.36500E+01 4.74020E+01 0.00000E+00
 -1       195 4.66500E+01 4.74020E+01 0.00000E+00
 -1       196 4.96500E+01 4.74020E+01 0.00000E+00
 -1       197 5.26500E+01 4.74020E+01 0.00000E+00
 -1       198 5.56500E+01 4.74020E+01 0.00000E+00
 -1       199 5.86500E+01 4.74020E+01 0.00000E+00
 -1       200 6.16500E+01 4.74020E+01 0.00000E+00
 -1       201 6.46500E+01 4.74020E+01 0.00000E+00
 -1       202 6.76500E+01 4.74020E+01 0.00000E+00
 -1       203 7.06500E+01 4.74020E+01 0.00000E+00
 -1       204 7.36500E+01 4.74020E+01 0.00000E+00
 -1       205 7.66500E+01 4.74020E+01 0.00000E+00
 -1       206 7.96500E+01 4.74020E+01 0.00000E+00
 -1       207 8.26500E+01 4.74020E+01 0.00000E+00
 -1       208 8.56500E+01 4.74020E+01 0.00000E+00
 -1       209 8.86500E+01 4.74020E+01 0.00000E+00
 -1       210 9.16500E+01 4.74020E+01 0.00000E+00
 -1       211 9.46500E+01 4.74020E+01 0.00000E+00
 -1       212 9.76500E+01 4.74020E+01 0.00000E+00
 -1       213 1.00650E+02 4.74020E+01 0.00000E+00
 -1       214 1.03650E+02 4.74020E+01 0.00000E+00
 -1       215 1.06650E+02 4.74020E+01 0.00000E+00
 -1       216 1.09650E+02 4.74020E+01 0.00000E+00
 -1       217 1.12650E+02 4.74020E+01 0.00000E+00
 -1       218 1.15650E+02 4.74020E+01 0.00000E+00
 -1       219 1.18650E+02 4.74020E+01 0.00000E+00
 -1       220 1.21650E+02 4.74020E+01 0.00000E+00
 -1       221 1.24650E+02 4.74020E+01 0.00000E+00
 -1       222 1.27650E+02 4.74020E+01 0.00000E+00
 -1       223 1.30650E+02 4.74020E+01 0.00000E+00
 -1       224 1.33650E+02 4.74020E+01 0.00000E+00
 -1       225 1.36650E+02 4.74020E+01 0.00000E+00
 -1       226 1.39650E+02 4.74020E+01 0.00000E+00
 -1       227 1.42650E+02 4.74020E+01 0.00000E+00
 -1       228 1.45650E+02 4.74020E+01 0.00000E+00
 -1       229 5.87400E+00 2.18750E+00 0.00000E+00
 -1       230 8.87400E+00 2.18750E+00 0.00000E+00
 -1       231 1.18740E+01 2.18750E+00 0.00000E+00
 -1       232 1.48740E+01 2.18750E+00 0.00000E+00
 -1       233 1.78740E+01 2.18750E+00 0.00000E+00
 -1       234 2.08740E+01 2.18750E+00 0.00000E+00
 -1       235 2.38740E+01 2.18750E+00 0.00000E+00
 -1       236 2.68740E+01 2.18750E+00 0.00000E+00
 -1       237 2.98740E+01 2.18750E+00 0.00000E+00
 -1       238 3.28740E+01 2.18750E+00 0.00000E+00
 -1       239 3.58740E+01 2.18750E+00 0.00000E+00
 -1       240 3.88740E+01 2.18750E+00 0.00000E+00
 -1       241 4.18740E+01 2.18750E+00 0.00000E+00
 -1       242 4.48740E+01 2.18750E+00 0.00000E+00
 -1       243 4.78740E+01 2.18750E+00 0.00000E+00
 -1       244 5.08740E+01 2.18750E+00 0.00000E+00
 -1       245 5.38740E+01 2.18750E+00 0.00000E+00
 -1       246 5.68740E+01 2.18750E+00 0.00000E+00
 -1       247 5.98740E+01 2.18750E+00 0.00000E+00
 -1       248 6.28740E+01 2.18750E+00 0.00000E+00
 -1       249 6.58740E+01 2.18750E+00 0.00000E+00
 -1       250 6.88740E+01 2.18750E+00 0.00000E+00
 -1       251 7.18740E+01 2.18750E+00 0.00000E+00
 -1       252 7.48740E+01 2.18750E+00 0.00000E+00
 -1       253 7.78740E+01 2.18750E+00 0.00000E+00
 -1       254 8.08740E+01 2.18750E+00 0.00000E+00
 -1       255 8.38740E+01 2.18750E+00 0.00000E+00
 -1       256 8.68740E+01 2.18750E+00 0.00000E+00
 -1       257 8.98740E+01 2.18750E+00 0.00000E+00
 -1       258 9.28740E+01 2.18750E+00 0.00000E+00
 -1       259 9.58740E+01 2.18750E+00 0.00000E+00
 -1       260 9.88740E+01 2.18750E+00 0.00000E+00
 -1       261 1.01874E+02 2.18750E+00 0.00000E+00
 -1       262 1.04874E+02 2.18750E+00 0.00000E+00
 -1       263 1.07874E+02 2.18750E+00 0.00000E+00
 -1       264 1.10874E+02 2.18750E+00 0.00000E+00
 -1       265 1.13874E+02 2.18750E+00 0.00000E+00
 -1       266 1.16874E+02 2.18750E+00 0.00000E+00
 -1       267 1.19874E+02 2.18750E+00 0.00000E+00
 -1       268 1.22874E+02 2.18750E+00 0.00000E+00
 -1       269 1.25874E+02 2.18750E+00 0.00000E+00
 -1       270 1.28874E+02 2.18750E+00 0.00000E+00
 -1       271 1.31874E+02 2.18750E+00 0.00000E+00
 -1       272 1.34874E+02 2.18750E+00 0.00000E+00
 -1       273 1.37874E+02 2.18750E+00 0.00000E+00
 -1       274 1.40874E+02 2.18750E+00 0.00000E+00
 -1       275 1.43874E+02 2.18750E+00 0.00000E+00
 -1       276 1.46874E+02 2.18750E+00 0.00000E+00
 -1       277 1.47402E+02 4.42500E+00 0.00000E+00
 -1       278 1.47402E+02 7.37500E+00 0.00000E+00
 -1       279 1.47402E+02 1.03250E+01 0.00000E+00
 -1       280 1.47402E+02 1.32750E+01 0.00000E+00
 -1       281 1.47402E+02 1.61750E+01 0.00000E+00
 -1       282 1.47402E+02 1.91250E+01 0.00000E+00
 -1       283 1.47402E+02 2.20750E+01 0.00000E+00
 -1       284 1.47402E+02 2.50250E+01 0.00000E+00
 -1       285 1.47402E+02 2.79750E+01 0.00000E+00
 -1       286 1.47402E+02 3.09250E+01 0.00000E+00
 -1       287 1.47402E+02 3.38250E+01 0.00000E+00
 -1       288 1.47402E+02 3.67750E+01 0.00000E+00
 -1       289 1.47402E+02 3.97250E+01 0.00000E+00
 -1       290 1.47402E+02 4.26750E+01 0.00000E+00
 -1       291 1.46526E+02 4.50385E+01 0.00000E+00
 -1       292 6.74039E+01 2.60819E+01 0.00000E+00
 -1       293 6.68621E+01 2.43859E+01 0.00000E+00
 -1       294 6.61575E+01 2.28407E+01 0.00000E+00
 -1       295 6.51350E+01 2.14672E+01 0.00000E+00
 -1       296 6.39045E+01 2.01688E+01 0.00000E+00
 -1       297 6.23057E+01 1.93793E+01 0.00000E+00
 -1       298 6.06459E+01 1.89640E+01 0.00000E+00
 -1       299 5.89662E+01 1.87384E+01 0.00000E+00
 -1       300 5.71747E+01 1.88892E+01 0.00000E+00
 -1       301 5.55445E+01 1.96426E+01 0.00000E+00
 -1       302 5.41063E+01 2.05353E+01 0.00000E+00
 -1       303 5.28765E+01 2.17165E+01 0.00000E+00
 -1       304 5.17439E+01 2.31020E+01 0.00000E+00
 -1       305 5.12426E+01 2.47951E+01 0.00000E+00
 -1       306 5.08765E+01 2.64858E+01 0.00000E+00
 -1       307 5.10389E+01 2.82390E+01 0.00000E+00
 -1       308 5.13465E+01 3.00167E+01 0.00000E+00
 -1       309 5.22884E+01 3.14949E+01 0.00000E+00
 -1       310 5.33218E+01 3.27653E+01 0.00000E+00
 -1       311 5.45551E+01 3.38813E+01 0.00000E+00
 -1       312 5.60510E+01 3.45776E+01 0.00000E+00
 -1       313 5.76107E+01 3.53681E+01 0.00000E+00
 -1       314 5.93422E+01 3.51712E+01 0.00000E+00
 -1       315 6.10240E+01 3.51155E+01 0.00000E+00
 -1       316 6.25493E+01 3.44195E+01 0.00000E+00
 -1       317 6.39328E+01 3.36042E+01 0.00000E+00
 -1       318 6.53113E+01 3.25778E+01 0.00000E+00
 -1       319 6.61932E+01 3.10916E+01 0.00000E+00
 -1       320 6.69653E+01 2.95508E+01 0.00000E+00
 -1       321 6.73320E+01 2.78427E+01 0.00000E+00
 -1       322 5.19600E+00 4.11500E+01 0.00000E+00
 -1       323 5.19600E+00 4.41000E+01 0.00000E+00
 -1       324 5.19600E+00 3.52750E+01 0.00000E+00
 -1       325 5.19600E+00 3.23250E+01 0.00000E+00
 -1       326 5.19600E+00 2.93750E+01 0.00000E+00
 -1       327 5.19600E+00 2.64250E+01 0.00000E+00
 -1       328 5.19600E+00 2.34750E+01 0.00000E+00
 -1       329 5.19600E+00 2.05250E+01 0.00000E+00
 -1       330 5.19600E+00 1.76250E+01 0.00000E+00
 -1       331 5.19600E+00 1.46750E+01 0.00000E+00
 -1       332 5.19600E+00 1.17250E+01 0.00000E+00
 -1       333 5.19600E+00 8.77500E+00 0.00000E+00
 -1       334 5.19600E+00 5.82500E+00 0.00000E+00
 -1       335 5.53500E+00 4.00625E+00 0.00000E+00
 -1       336 8.53500E+00 4.00625E+00 0.00000E+00
 -1       337 9.15000E+00 4.48040E+01 0.00000E+00
 -1       338 1.21500E+01 4.48040E+01 0.00000E+00
 -1       339 1.51500E+01 4.48040E+01 0.00000E+00
 -1       340 1.81500E+01 4.48040E+01 0.00000E+00
 -1       341 2.11500E+01 4.48040E+01 0.00000E+00
 -1       342 2.41500E+01 4.48040E+01 0.00000E+00
 -1       343 2.71500E+01 4.48040E+01 0.00000E+00
 -1       344 3.01500E+01 4.48040E+01 0.00000E+00
 -1       345 3.31500E+01 4.48040E+01 0.00000E+00
 -1       346 3.61500E+01 4.48040E+01 0.00000E+00
 -1       347 3.91500E+01 4.48040E+01 0.00000E+00
 -1       348 4.21500E+01 4.48040E+01 0.00000E+00
 -1       349 4.51500E+01 4.48040E+01 0.00000E+00
 -1       350 4.81500E+01 4.48040E+01 0.00000E+00
 -1       351 5.11500E+01 4.48040E+01 0.00000E+00
 -1       352 5.41500E+01 4.48040E+01 0.00000E+00
 -1       353 5.71500E+01 4.48040E+01 0.00000E+00
 -1       354 6.01500E+01 4.48040E+01 0.00000E+00
 -1       355 6.31500E+01 4.48040E+01 0.00000E+00
 -1       356 6.61500E+01 4.48040E+01 0.00000E+00
 -1       357 6.91500E+01 4.48040E+01 0.00000E+00
 -1       358 7.21500E+01 4.48040E+01 0.00000E+00
 -1       359 7.51500E+01 4.48040E+01 0.00000E+00
 -1       360 7.81500E+01 4.48040E+01 0.00000E+00
 -1       361 8.11500E+01 4.48040E+01 0.00000E+00
 -1       362 8.41500E+01 4.48040E+01 0.00000E+00
 -1       363 8.71500E+01 4.48040E+01 0.00000E+00
 -1       364 9.01500E+01 4.48040E+01 0.00000E+00
 -1       365 9.31500E+01 4.48040E+01 0.00000E+00
 -1       366 9.61500E+01 4.48040E+01 0.00000E+00
 -1       367 9.91500E+01 4.48040E+01 0.00000E+00
 -1       368 1.02150E+02 4.48040E+01 0.00000E+00
 -1       369 1.05150E+02 4.48040E+01 0.00000E+00
 -1       370 1.08150E+02 4.48040E+01 0.00000E+00
 -1       371 1.11150E+02 4.48040E+01 0.00000E+00
 -1       372 1.14150E+02 4.48040E+01 0.00000E+00
 -1       373 1.17150E+02 4.48040E+01 0.00000E+00
 -1       374 1.20150E+02 4.48040E+01 0.00000E+00
 -1       375 1.23150E+02 4.48040E+01 0.00000E+00
 -1       376 1.26150E+02 4.48040E+01 0.00000E+00
 -1       377 1.29150E+02 4.48040E+01 0.00000E+00
 -1       378 1.32150E+02 4.48040E+01 0.00000E+00
 -1       379 1.35150E+02 4.48040E+01 0.00000E+00
 -1       380 1.38150E+02 4.48040E+01 0.00000E+00
 -1       381 1.41150E+02 4.48040E+01 0.00000E+00
 -1       382 1.43838E+02 4.49212E+01 0.00000E+00
 -1       383 1.15350E+01 4.00625E+00 0.00000E+00
 -1       384 1.45350E+01 4.00625E+00 0.00000E+00
 -1       385 1.75350E+01 4.00625E+00 0.00000E+00
 -1       386 2.05350E+01 4.00625E+00 0.00000E+00
 -1       387 2.35350E+01 4.00625E+00 0.00000E+00
 -1       388 2.65350E+01 4.00625E+00 0.00000E+00
 -1       389 2.95350E+01 4.00625E+00 0.00000E+00
 -1       390 3.25350E+01 4.00625E+00 0.00000E+00
 -1       391 3.55350E+01 4.00625E+00 0.00000E+00
 -1       392 3.85350E+01 4.00625E+00 0.00000E+00
 -1       393 4.15350E+01 4.00625E+00 0.00000E+00
 -1       394 4.45350E+01 4.00625E+00 0.00000E+00
 -1       395 4.75350E+01 4.00625E+00 0.00000E+00
 -1       396 5.05350E+01 4.00625E+00 0.00000E+00
 -1       397 5.35350E+01 4.00625E+00 0.00000E+00
 -1       398 5.65350E+01 4.00625E+00 0.00000E+00
 -1       399 5.95350E+01 4.00625E+00 0.00000E+00
 -1       400 6.25350E+01 4.00625E+00 0.00000E+00
 -1       401 6.55350E+01 4.00625E+00 0.00000E+00
 -1       402 6.85350E+01 4.00625E+00 0.00000E+00
 -1       403 7.15350E+01 4.00625E+00 0.00000E+00
 -1       404 7.45350E+01 4.00625E+00 0.00000E+00
 -1       405 7.75350E+01 4.00625E+00 0.00000E+00
 -1       406 8.05350E+01 4.00625E+00 0.00000E+00
 -1       407 8.35350E+01 4.00625E+00 0.00000E+00
 -1       408 8.65350E+01 4.00625E+00 0.00000E+00
 -1       409 8.95350E+01 4.00625E+00 0.00000E+00
 -1       410 9.25350E+01 4.00625E+00 0.00000E+00
 -1       411 9.55350E+01 4.00625E+00 0.00000E+00
 -1       412 9.85350E+01 4.00625E+00 0.00000E+00
 -1       413 1.01535E+02 4.00625E+00 0.00000E+00
 -1       414 1.04535E+02 4.00625E+00 0.00000E+00
 -1       415 1.07535E+02 4.00625E+00 0.00000E+00
 -1       416 1.10535E+02 4.00625E+00 0.00000E+00
 -1       417 1.13535E+02 4.00625E+00 0.00000E+00
 -1       418 1.16535E+02 4.00625E+00 0.00000E+00
 -1       419 1.19535E+02 4.00625E+00 0.00000E+00
 -1       420 1.22535E+02 4.00625E+00 0.00000E+00
 -1       421 1.25535E+02 4.00625E+00 0.00000E+00
 -1       422 1.28535E+02 4.00625E+00 0.00000E+00
 -1       423 1.31535E+02 4.00625E+00 0.00000E+00
 -1       424 1.34535E+02 4.00625E+00 0.00000E+00
 -1       425 1.37535E+02 4.00625E+00 0.00000E+00
 -1       426 1.40535E+02 4.00625E+00 0.00000E+00
 -1       427 1.43535E+02 4.00625E+00 0.00000E+00
 -1       428 1.45469E+02 4.21562E+00 0.00000E+00
 -1       429 1.44804E+02 1.18000E+01 0.00000E+00
 -1       430 1.44804E+02 8.85000E+00 0.00000E+00
 -1       431 1.45136E+02 6.53281E+00 0.00000E+00
 -1       432 1.44804E+02 1.47000E+01 0.00000E+00
 -1       433 1.44804E+02 1.76500E+01 0.00000E+00
 -1       434 1.44804E+02 2.06000E+01 0.00000E+00
 -1       435 1.44804E+02 2.35500E+01 0.00000E+00
 -1       436 1.44804E+02 2.65000E+01 0.00000E+00
 -1       437 1.44804E+02 2.94500E+01 0.00000E+00
 -1       438 1.44804E+02 3.23500E+01 0.00000E+00
 -1       439 1.44804E+02 3.53000E+01 0.00000E+00
 -1       440 1.44804E+02 3.82500E+01 0.00000E+00
 -1       441 1.44804E+02 4.12000E+01 0.00000E+00
 -1       442 6.76891E+01 2.30755E+01 0.00000E+00
 -1       443 6.90816E+01 2.70323E+01 0.00000E+00
 -1       444 6.86072E+01 2.47629E+01 0.00000E+00
 -1       445 6.70220E+01 2.11299E+01 0.00000E+00
 -1       446 6.57915E+01 1.98315E+01 0.00000E+00
 -1       447 5.19600E+00 3.82125E+01 0.00000E+00
 -1       448 6.18108E+01 1.78330E+01 0.00000E+00
 -1       449 5.99786E+01 1.75665E+01 0.00000E+00
 -1       450 5.79265E+01 1.71048E+01 0.00000E+00
 -1       451 5.56401E+01 1.77090E+01 0.00000E+00
 -1       452 5.42019E+01 1.86017E+01 0.00000E+00
 -1       453 5.25354E+01 2.01306E+01 0.00000E+00
 -1       454 5.12417E+01 2.15359E+01 0.00000E+00
 -1       455 4.98487E+01 2.34616E+01 0.00000E+00
 -1       456 4.97927E+01 2.53662E+01 0.00000E+00
 -1       457 4.95002E+01 2.74973E+01 0.00000E+00
 -1       458 4.98329E+01 2.93631E+01 0.00000E+00
 -1       459 5.06537E+01 3.14974E+01 0.00000E+00
 -1       460 5.17996E+01 3.29480E+01 0.00000E+00
 -1       461 5.30687E+01 3.42844E+01 0.00000E+00
 -1       462 5.47560E+01 3.54046E+01 0.00000E+00
 -1       463 5.63158E+01 3.61950E+01 0.00000E+00
 -1       464 5.86513E+01 3.68073E+01 0.00000E+00
 -1       465 6.03331E+01 3.67516E+01 0.00000E+00
 -1       466 6.23595E+01 3.60230E+01 0.00000E+00
 -1       467 6.37430E+01 3.52076E+01 0.00000E+00
 -1       468 6.54462E+01 3.41979E+01 0.00000E+00
 -1       469 6.70111E+01 3.25817E+01 0.00000E+00
 -1       470 6.77831E+01 3.10408E+01 0.00000E+00
 -1       471 6.86617E+01 2.90216E+01 0.00000E+00
 -1       472 6.37902E+01 1.83865E+01 0.00000E+00
 -1       473 5.73564E+01 3.76342E+01 0.00000E+00
 -1       474 1.00350E+01 6.60425E+00 0.00000E+00
 -1       475 7.79400E+00 3.08500E+01 0.00000E+00
 -1       476 7.79400E+00 3.38000E+01 0.00000E+00
 -1       477 7.79400E+00 2.49500E+01 0.00000E+00
 -1       478 7.79400E+00 2.20000E+01 0.00000E+00
 -1       479 7.79400E+00 1.91000E+01 0.00000E+00
 -1       480 7.79400E+00 1.61500E+01 0.00000E+00
 -1       481 7.79400E+00 1.32000E+01 0.00000E+00
 -1       482 7.79400E+00 1.02500E+01 0.00000E+00
 -1       483 1.30350E+01 6.60425E+00 0.00000E+00
 -1       484 1.06500E+01 4.22060E+01 0.00000E+00
 -1       485 6.59911E+01 1.74467E+01 0.00000E+00
 -1       486 1.36500E+01 4.22060E+01 0.00000E+00
 -1       487 1.66500E+01 4.22060E+01 0.00000E+00
 -1       488 1.96500E+01 4.22060E+01 0.00000E+00
 -1       489 2.26500E+01 4.22060E+01 0.00000E+00
 -1       490 2.56500E+01 4.22060E+01 0.00000E+00
 -1       491 2.86500E+01 4.22060E+01 0.00000E+00
 -1       492 3.16500E+01 4.22060E+01 0.00000E+00
 -1       493 3.46500E+01 4.22060E+01 0.00000E+00
 -1       494 3.76500E+01 4.22060E+01 0.00000E+00
 -1       495 4.06500E+01 4.22060E+01 0.00000E+00
 -1       496 4.36500E+01 4.22060E+01 0.00000E+00
 -1       497 4.66500E+01 4.22060E+01 0.00000E+00
 -1       498 4.96500E+01 4.22060E+01 0.00000E+00
 -1       499 5.26500E+01 4.22060E+01 0.00000E+00
 -1       500 5.56500E+01 4.22060E+01 0.00000E+00
 -1       501 5.86500E+01 4.22060E+01 0.00000E+00
 -1       502 6.16500E+01 4.22060E+01 0.00000E+00
 -1       503 6.46500E+01 4.22060E+01 0.00000E+00
 -1       504 6.76500E+01 4.22060E+01 0.00000E+00
 -1       505 7.06500E+01 4.22060E+01 0.00000E+00
 -1       506 7.36500E+01 4.22060E+01 0.00000E+00
 -1       507 7.66500E+01 4.22060E+01 0.00000E+00
 -1       508 7.96500E+01 4.22060E+01 0.00000E+00
 -1       509 8.26500E+01 4.22060E+01 0.00000E+00
 -1       510 8.56500E+01 4.22060E+01 0.00000E+00
 -1       511 8.86500E+01 4.22060E+01 0.00000E+00
 -1       512 9.16500E+01 4.22060E+01 0.00000E+00
 -1       513 9.46500E+01 4.22060E+01 0.00000E+00
 -1       514 9.76500E+01 4.22060E+01 0.00000E+00
 -1       515 1.00650E+02 4.22060E+01 0.00000E+00
 -1       516 1.03650E+02 4.22060E+01 0.00000E+00
 -1       517 1.06650E+02 4.22060E+01 0.00000E+00
 -1       518 1.09650E+02 4.22060E+01 0.00000E+00
 -1       519 1.12650E+02 4.22060E+01 0.00000E+00
 -1       520 1.15650E+02 4.22060E+01 0.00000E+00
 -1       521 1.18650E+02 4.22060E+01 0.00000E+00
 -1       522 1.21650E+02 4.22060E+01 0.00000E+00
 -1       523 1.24650E+02 4.22060E+01 0.00000E+00
 -1       524 1.27650E+02 4.22060E+01 0.00000E+00
 -1       525 1.30650E+02 4.22060E+01 0.00000E+00
 -1       526 1.33650E+02 4.22060E+01 0.00000E+00
 -1       527 1.36650E+02 4.22060E+01 0.00000E+00
 -1       528 1.39650E+02 4.22060E+01 0.00000E+00
 -1       529 1.90350E+01 6.60425E+00 0.00000E+00
 -1       530 2.20350E+01 6.60425E+00 0.00000E+00
 -1       531 2.50350E+01 6.60425E+00 0.00000E+00
 -1       532 2.80350E+01 6.60425E+00 0.00000E+00
 -1       533 3.10350E+01 6.60425E+00 0.00000E+00
 -1       534 3.40350E+01 6.60425E+00 0.00000E+00
 -1       535 3.70350E+01 6.60425E+00 0.00000E+00
 -1       536 4.00350E+01 6.60425E+00 0.00000E+00
 -1       537 4.30350E+01 6.60425E+00 0.00000E+00
 -1       538 4.60350E+01 6.60425E+00 0.00000E+00
 -1       539 4.90350E+01 6.60425E+00 0.00000E+00
 -1       540 5.20350E+01 6.60425E+00 0.00000E+00
 -1       541 5.50350E+01 6.60425E+00 0.00000E+00
 -1       542 5.80350E+01 6.60425E+00 0.00000E+00
 -1       543 6.10350E+01 6.60425E+00 0.00000E+00
 -1       544 6.40350E+01 6.60425E+00 0.00000E+00
 -1       545 6.70350E+01 6.60425E+00 0.00000E+00
 -1       546 7.00350E+01 6.60425E+00 0.00000E+00
 -1       547 7.30350E+01 6.60425E+00 0.00000E+00
 -1       548 7.60350E+01 6.60425E+00 0.00000E+00
 -1       549 7.90350E+01 6.60425E+00 0.00000E+00
 -1       550 8.20350E+01 6.60425E+00 0.00000E+00
 -1       551 8.50350E+01 6.60425E+00 0.00000E+00
 -1       552 8.80350E+01 6.60425E+00 0.00000E+00
 -1       553 9.10350E+01 6.60425E+00 0.00000E+00
 -1       554 9.40350E+01 6.60425E+00 0.00000E+00
 -1       555 9.70350E+01 6.60425E+00 0.00000E+00
 -1       556 1.00035E+02 6.60425E+00 0.00000E+00
 -1       557 1.03035E+02 6.60425E+00 0.00000E+00
 -1       558 1.06035E+02 6.60425E+00 0.00000E+00
 -1       559 1.09035E+02 6.60425E+00 0.00000E+00
 -1       560 1.12035E+02 6.60425E+00 0.00000E+00
 -1       561 1.15035E+02 6.60425E+00 0.00000E+00
 -1       562 1.18035E+02 6.60425E+00 0.00000E+00
 -1       563 1.21035E+02 6.60425E+00 0.00000E+00
 -1       564 1.24035E+02 6.60425E+00 0.00000E+00
 -1       565 1.27035E+02 6.60425E+00 0.00000E+00
 -1       566 1.30035E+02 6.60425E+00 0.00000E+00
 -1       567 1.33035E+02 6.60425E+00 0.00000E+00
 -1       568 1.36035E+02 6.60425E+00 0.00000E+00
 -1       569 1.39035E+02 6.60425E+00 0.00000E+00
 -1       570 1.42035E+02 6.60425E+00 0.00000E+00
 -1       571 1.42206E+02 1.61750E+01 0.00000E+00
 -1       572 1.42206E+02 1.91250E+01 0.00000E+00
 -1       573 1.42206E+02 1.03250E+01 0.00000E+00
 -1       574 1.42206E+02 1.32500E+01 0.00000E+00
 -1       575 1.42206E+02 2.20750E+01 0.00000E+00
 -1       576 1.42206E+02 2.50250E+01 0.00000E+00
 -1       577 1.42206E+02 2.79750E+01 0.00000E+00
 -1       578 1.42206E+02 3.08750E+01 0.00000E+00
 -1       579 1.42206E+02 3.38250E+01 0.00000E+00
 -1       580 1.42206E+02 3.67750E+01 0.00000E+00
 -1       581 1.42206E+02 3.97250E+01 0.00000E+00
 -1       582 7.08513E+01 2.54780E+01 0.00000E+00
 -1       583 6.89780E+01 2.15464E+01 0.00000E+00
 -1       584 1.60350E+01 6.60425E+00 0.00000E+00
 -1       585 7.07137E+01 2.84158E+01 0.00000E+00
 -1       586 6.76516E+01 1.93009E+01 0.00000E+00
 -1       587 7.92300E+00 4.16780E+01 0.00000E+00
 -1       588 6.54266E+01 3.61060E+01 0.00000E+00
 -1       589 5.30564E+01 3.61338E+01 0.00000E+00
 -1       590 5.63879E+01 1.59107E+01 0.00000E+00
 -1       591 7.79400E+00 2.79000E+01 0.00000E+00
 -1       592 5.92923E+01 1.58259E+01 0.00000E+00
 -1       593 5.07500E+01 1.97851E+01 0.00000E+00
 -1       594 6.11246E+01 1.60923E+01 0.00000E+00
 -1       595 5.41049E+01 1.68405E+01 0.00000E+00
 -1       596 6.73404E+01 3.44663E+01 0.00000E+00
 -1       597 5.23791E+01 1.82876E+01 0.00000E+00
 -1       598 4.93593E+01 2.16408E+01 0.00000E+00
 -1       599 4.81063E+01 2.43635E+01 0.00000E+00
 -1       600 4.78138E+01 2.64946E+01 0.00000E+00
 -1       601 4.81430E+01 2.87019E+01 0.00000E+00
 -1       602 4.87989E+01 3.09857E+01 0.00000E+00
 -1       603 5.00780E+01 3.31300E+01 0.00000E+00
 -1       604 5.14335E+01 3.45665E+01 0.00000E+00
 -1       605 5.47985E+01 3.72550E+01 0.00000E+00
 -1       606 5.95406E+01 3.82424E+01 0.00000E+00
 -1       607 6.18699E+01 3.78435E+01 0.00000E+00
 -1       608 6.40430E+01 3.69213E+01 0.00000E+00
 -1       609 6.87058E+01 3.24670E+01 0.00000E+00
 -1       610 6.98352E+01 3.04351E+01 0.00000E+00
 -1       611 6.31040E+01 1.66458E+01 0.00000E+00
 -1       612 7.61550E+00 6.21462E+00 0.00000E+00
 -1       613 6.98960E+01 2.32339E+01 0.00000E+00
 -1       614 7.79400E+00 3.67375E+01 0.00000E+00
 -1       615 7.85850E+00 3.92077E+01 0.00000E+00
 -1       616 5.58391E+01 3.86942E+01 0.00000E+00
 -1       617 4.76169E+01 2.25427E+01 0.00000E+00
 -1       618 5.77536E+01 1.46318E+01 0.00000E+00
 -1       619 1.41678E+02 4.22645E+01 0.00000E+00
 -1       620 1.03920E+01 2.05500E+01 0.00000E+00
 -1       621 1.03920E+01 2.35000E+01 0.00000E+00
 -1       622 1.03920E+01 1.46750E+01 0.00000E+00
 -1       623 1.03920E+01 1.17250E+01 0.00000E+00
 -1       624 1.15350E+01 9.20225E+00 0.00000E+00
 -1       625 4.62821E+01 2.78513E+01 0.00000E+00
 -1       626 7.09436E+01 2.15705E+01 0.00000E+00
 -1       627 7.18472E+01 3.01097E+01 0.00000E+00
 -1       628 6.56056E+01 3.79913E+01 0.00000E+00
 -1       629 1.51500E+01 3.96080E+01 0.00000E+00
 -1       630 1.81500E+01 3.96080E+01 0.00000E+00
 -1       631 2.11500E+01 3.96080E+01 0.00000E+00
 -1       632 2.41500E+01 3.96080E+01 0.00000E+00
 -1       633 2.71500E+01 3.96080E+01 0.00000E+00
 -1       634 3.01500E+01 3.96080E+01 0.00000E+00
 -1       635 3.31500E+01 3.96080E+01 0.00000E+00
 -1       636 3.61500E+01 3.96080E+01 0.00000E+00
 -1       637 3.91500E+01 3.96080E+01 0.00000E+00
 -1       638 4.21500E+01 3.96080E+01 0.00000E+00
 -1       639 4.51500E+01 3.96080E+01 0.00000E+00
 -1       640 4.81500E+01 3.96080E+01 0.00000E+00
 -1       641 5.11500E+01 3.96080E+01 0.00000E+00
 -1       642 6.01500E+01 4.01557E+01 0.00000E+00
 -1       643 6.31500E+01 3.96530E+01 0.00000E+00
 -1       644 7.21500E+01 3.96080E+01 0.00000E+00
 -1       645 7.51500E+01 3.96080E+01 0.00000E+00
 -1       646 7.81500E+01 3.96080E+01 0.00000E+00
 -1       647 8.11500E+01 3.96080E+01 0.00000E+00
 -1       648 8.41500E+01 3.96080E+01 0.00000E+00
 -1       649 8.71500E+01 3.96080E+01 0.00000E+00
 -1       650 9.01500E+01 3.96080E+01 0.00000E+00
 -1       651 9.31500E+01 3.96080E+01 0.00000E+00
 -1       652 9.61500E+01 3.96080E+01 0.00000E+00
 -1       653 9.91500E+01 3.96080E+01 0.00000E+00
 -1       654 1.02150E+02 3.96080E+01 0.00000E+00
 -1       655 1.05150E+02 3.96080E+01 0.00000E+00
 -1       656 1.08150E+02 3.96080E+01 0.00000E+00
 -1       657 1.11150E+02 3.96080E+01 0.00000E+00
 -1       658 1.14150E+02 3.96080E+01 0.00000E+00
 -1       659 1.17150E+02 3.96080E+01 0.00000E+00
 -1       660 1.20150E+02 3.96080E+01 0.00000E+00
 -1       661 1.23150E+02 3.96080E+01 0.00000E+00
 -1       662 1.26150E+02 3.96080E+01 0.00000E+00
 -1       663 1.29150E+02 3.96080E+01 0.00000E+00
 -1       664 1.32150E+02 3.96080E+01 0.00000E+00
 -1       665 1.35150E+02 3.96080E+01 0.00000E+00
 -1       666 1.38150E+02 3.96080E+01 0.00000E+00
 -1       667 2.35350E+01 9.20225E+00 0.00000E+00
 -1       668 1.40178E+02 3.96665E+01 0.00000E+00
 -1       669 2.05350E+01 9.20225E+00 0.00000E+00
 -1       670 2.95350E+01 9.20225E+00 0.00000E+00
 -1       671 3.25350E+01 9.20225E+00 0.00000E+00
 -1       672 3.55350E+01 9.20225E+00 0.00000E+00
 -1       673 3.85350E+01 9.20225E+00 0.00000E+00
 -1       674 4.15350E+01 9.20225E+00 0.00000E+00
 -1       675 4.45350E+01 9.20225E+00 0.00000E+00
 -1       676 4.75350E+01 9.20225E+00 0.00000E+00
 -1       677 5.05350E+01 9.20225E+00 0.00000E+00
 -1       678 5.35350E+01 9.20225E+00 0.00000E+00
 -1       679 5.65350E+01 9.20225E+00 0.00000E+00
 -1       680 5.95350E+01 9.20225E+00 0.00000E+00
 -1       681 6.25350E+01 9.20225E+00 0.00000E+00
 -1       682 6.55350E+01 9.20225E+00 0.00000E+00
 -1       683 6.85350E+01 9.20225E+00 0.00000E+00
 -1       684 7.15350E+01 9.20225E+00 0.00000E+00
 -1       685 7.45350E+01 9.20225E+00 0.00000E+00
 -1       686 7.75350E+01 9.20225E+00 0.00000E+00
 -1       687 8.05350E+01 9.20225E+00 0.00000E+00
 -1       688 8.35350E+01 9.20225E+00 0.00000E+00
 -1       689 8.65350E+01 9.20225E+00 0.00000E+00
 -1       690 8.95350E+01 9.20225E+00 0.00000E+00
 -1       691 9.25350E+01 9.20225E+00 0.00000E+00
 -1       692 9.55350E+01 9.20225E+00 0.00000E+00
 -1       693 9.85350E+01 9.20225E+00 0.00000E+00
 -1       694 1.01535E+02 9.20225E+00 0.00000E+00
 -1       695 1.04535E+02 9.20225E+00 0.00000E+00
 -1       696 1.07535E+02 9.20225E+00 0.00000E+00
 -1       697 1.10535E+02 9.20225E+00 0.00000E+00
 -1       698 1.13535E+02 9.20225E+00 0.00000E+00
 -1       699 1.16535E+02 9.20225E+00 0.00000E+00
 -1       700 1.19535E+02 9.20225E+00 0.00000E+00
 -1       701 1.22535E+02 9.20225E+00 0.00000E+00
 -1       702 1.25535E+02 9.20225E+00 0.00000E+00
 -1       703 1.28535E+02 9.20225E+00 0.00000E+00
 -1       704 1.31535E+02 9.20225E+00 0.00000E+00
 -1       705 1.34535E+02 9.20225E+00 0.00000E+00
 -1       706 1.37535E+02 9.20225E+00 0.00000E+00
 -1       707 1.39870E+02 9.76363E+00 0.00000E+00
 -1       708 6.97915E+01 1.95514E+01 0.00000E+00
 -1       709 1.39608E+02 2.35500E+01 0.00000E+00
 -1       710 5.30446E+01 3.80662E+01 0.00000E+00
 -1       711 1.39608E+02 1.76500E+01 0.00000E+00
 -1       712 1.39608E+02 2.65000E+01 0.00000E+00
 -1       713 1.39608E+02 2.06000E+01 0.00000E+00
 -1       714 1.39608E+02 2.94000E+01 0.00000E+00
 -1       715 1.39608E+02 3.23500E+01 0.00000E+00
 -1       716 1.39608E+02 3.53000E+01 0.00000E+00
 -1       717 5.45995E+01 1.47872E+01 0.00000E+00
 -1       718 7.22601E+01 2.35530E+01 0.00000E+00
 -1       719 1.05855E+01 3.97357E+01 0.00000E+00
 -1       720 7.31653E+01 2.70585E+01 0.00000E+00
 -1       721 6.04552E+01 1.42618E+01 0.00000E+00
 -1       722 6.74994E+01 3.65886E+01 0.00000E+00
 -1       723 1.75350E+01 9.20225E+00 0.00000E+00
 -1       724 2.65350E+01 9.20225E+00 0.00000E+00
 -1       725 1.28678E+01 3.96719E+01 0.00000E+00
 -1       726 4.86822E+01 1.96844E+01 0.00000E+00
 -1       727 1.45350E+01 9.20225E+00 0.00000E+00
 -1       728 1.03920E+01 1.76125E+01 0.00000E+00
 -1       729 1.03920E+01 3.23250E+01 0.00000E+00
 -1       730 6.82238E+01 1.71178E+01 0.00000E+00
 -1       731 6.94394E+01 3.44339E+01 0.00000E+00
 -1       732 4.69030E+01 3.02941E+01 0.00000E+00
 -1       733 5.20323E+01 1.61214E+01 0.00000E+00
 -1       734 4.64269E+01 2.52186E+01 0.00000E+00
 -1       735 7.06964E+01 3.22436E+01 0.00000E+00
 -1       736 4.80374E+01 3.28936E+01 0.00000E+00
 -1       737 5.04033E+01 1.76190E+01 0.00000E+00
 -1       738 5.11117E+01 3.65236E+01 0.00000E+00
 -1       739 6.50060E+01 1.53936E+01 0.00000E+00
 -1       740 4.95693E+01 3.49679E+01 0.00000E+00
 -1       741 6.25536E+01 1.47980E+01 0.00000E+00
 -1       742 1.03920E+01 3.52625E+01 0.00000E+00
 -1       743 1.03920E+01 2.64500E+01 0.00000E+00
 -1       744 6.86232E+01 3.91307E+01 0.00000E+00
 -1       745 1.39870E+02 1.26886E+01 0.00000E+00
 -1       746 5.59652E+01 1.35083E+01 0.00000E+00
 -1       747 4.59375E+01 2.33978E+01 0.00000E+00
 -1       748 4.69398E+01 2.05862E+01 0.00000E+00
 -1       749 1.39739E+02 1.51693E+01 0.00000E+00
 -1       750 1.03920E+01 2.93875E+01 0.00000E+00
 -1       751 6.72387E+01 1.50646E+01 0.00000E+00
 -1       752 1.38879E+02 3.74540E+01 0.00000E+00
 -1       753 5.79435E+01 3.97520E+01 0.00000E+00
 -1       754 4.72889E+01 3.50492E+01 0.00000E+00
 -1       755 1.29900E+01 1.32000E+01 0.00000E+00
 -1       756 7.48601E+01 2.47512E+01 0.00000E+00
 -1       757 1.04888E+01 3.74991E+01 0.00000E+00
 -1       758 6.42241E+01 1.32663E+01 0.00000E+00
 -1       759 7.31702E+01 2.15202E+01 0.00000E+00
 -1       760 4.91226E+01 3.69533E+01 0.00000E+00
 -1       761 1.90350E+01 1.18003E+01 0.00000E+00
 -1       762 1.96500E+01 3.70100E+01 0.00000E+00
 -1       763 2.26500E+01 3.70100E+01 0.00000E+00
 -1       764 2.56500E+01 3.70100E+01 0.00000E+00
 -1       765 2.86500E+01 3.70100E+01 0.00000E+00
 -1       766 3.16500E+01 3.70100E+01 0.00000E+00
 -1       767 3.46500E+01 3.70100E+01 0.00000E+00
 -1       768 3.76500E+01 3.70100E+01 0.00000E+00
 -1       769 4.06500E+01 3.70100E+01 0.00000E+00
 -1       770 4.36500E+01 3.70100E+01 0.00000E+00
 -1       771 4.80964E+01 1.74464E+01 0.00000E+00
 -1       772 7.66500E+01 3.70100E+01 0.00000E+00
 -1       773 7.96500E+01 3.70100E+01 0.00000E+00
 -1       774 8.26500E+01 3.70100E+01 0.00000E+00
 -1       775 8.56500E+01 3.70100E+01 0.00000E+00
 -1       776 8.86500E+01 3.70100E+01 0.00000E+00
 -1       777 9.16500E+01 3.70100E+01 0.00000E+00
 -1       778 9.46500E+01 3.70100E+01 0.00000E+00
 -1       779 9.76500E+01 3.70100E+01 0.00000E+00
 -1       780 1.00650E+02 3.70100E+01 0.00000E+00
 -1       781 1.03650E+02 3.70100E+01 0.00000E+00
 -1       782 1.06650E+02 3.70100E+01 0.00000E+00
 -1       783 1.09650E+02 3.70100E+01 0.00000E+00
 -1       784 1.12650E+02 3.70100E+01 0.00000E+00
 -1       785 1.15650E+02 3.70100E+01 0.00000E+00
 -1       786 1.18650E+02 3.70100E+01 0.00000E+00
 -1       787 1.21650E+02 3.70100E+01 0.00000E+00
 -1       788 1.24650E+02 3.70100E+01 0.00000E+00
 -1       789 1.27650E+02 3.70100E+01 0.00000E+00
 -1       790 1.30650E+02 3.70100E+01 0.00000E+00
 -1       791 1.33650E+02 3.70100E+01 0.00000E+00
 -1       792 1.36264E+02 3.72320E+01 0.00000E+00
 -1       793 2.20350E+01 1.18003E+01 0.00000E+00
 -1       794 3.40350E+01 1.18003E+01 0.00000E+00
 -1       795 3.10350E+01 1.18003E+01 0.00000E+00
 -1       796 4.00350E+01 1.18003E+01 0.00000E+00
 -1       797 4.30350E+01 1.18003E+01 0.00000E+00
 -1       798 4.60350E+01 1.18003E+01 0.00000E+00
 -1       799 4.90350E+01 1.18003E+01 0.00000E+00
 -1       800 5.20350E+01 1.18003E+01 0.00000E+00
 -1       801 5.80350E+01 1.17552E+01 0.00000E+00
 -1       802 7.00350E+01 1.18003E+01 0.00000E+00
 -1       803 7.30350E+01 1.18003E+01 0.00000E+00
 -1       804 7.60350E+01 1.18003E+01 0.00000E+00
 -1       805 7.90350E+01 1.18003E+01 0.00000E+00
 -1       806 8.20350E+01 1.18003E+01 0.00000E+00
 -1       807 8.50350E+01 1.18003E+01 0.00000E+00
 -1       808 8.80350E+01 1.18003E+01 0.00000E+00
 -1       809 9.10350E+01 1.18003E+01 0.00000E+00
 -1       810 9.40350E+01 1.18003E+01 0.00000E+00
 -1       811 9.70350E+01 1.18003E+01 0.00000E+00
 -1       812 1.00035E+02 1.18003E+01 0.00000E+00
 -1       813 1.03035E+02 1.18003E+01 0.00000E+00
 -1       814 1.06035E+02 1.18003E+01 0.00000E+00
 -1       815 1.09035E+02 1.18003E+01 0.00000E+00
 -1       816 1.12035E+02 1.18003E+01 0.00000E+00
 -1       817 1.15035E+02 1.18003E+01 0.00000E+00
 -1       818 1.18035E+02 1.18003E+01 0.00000E+00
 -1       819 1.21035E+02 1.18003E+01 0.00000E+00
 -1       820 1.24035E+02 1.18003E+01 0.00000E+00
 -1       821 1.27035E+02 1.18003E+01 0.00000E+00
 -1       822 1.30035E+02 1.18003E+01 0.00000E+00
 -1       823 1.33035E+02 1.18003E+01 0.00000E+00
 -1       824 1.36035E+02 1.18003E+01 0.00000E+00
 -1       825 1.37953E+02 1.22444E+01 0.00000E+00
 -1       826 1.37010E+02 2.79500E+01 0.00000E+00
 -1       827 4.57447E+01 3.23469E+01 0.00000E+00
 -1       828 1.37010E+02 2.50000E+01 0.00000E+00
 -1       829 7.27813E+01 3.19908E+01 0.00000E+00
 -1       830 1.37010E+02 3.09000E+01 0.00000E+00
 -1       831 1.37625E+01 1.12011E+01 0.00000E+00
 -1       832 1.37010E+02 3.38500E+01 0.00000E+00
 -1       833 1.29900E+01 2.20250E+01 0.00000E+00
 -1       834 7.17008E+01 3.42758E+01 0.00000E+00
 -1       835 3.70350E+01 1.18003E+01 0.00000E+00
 -1       836 7.05633E+01 3.69760E+01 0.00000E+00
 -1       837 7.36500E+01 3.70100E+01 0.00000E+00
 -1       838 1.66500E+01 3.70100E+01 0.00000E+00
 -1       839 5.23704E+01 1.36351E+01 0.00000E+00
 -1       840 4.46420E+01 2.64407E+01 0.00000E+00
 -1       841 7.11917E+01 1.69276E+01 0.00000E+00
 -1       842 7.21810E+01 1.92239E+01 0.00000E+00
 -1       843 4.98302E+01 1.53608E+01 0.00000E+00
 -1       844 4.49303E+01 2.94952E+01 0.00000E+00
 -1       845 1.29900E+01 2.49750E+01 0.00000E+00
 -1       846 1.29900E+01 1.61375E+01 0.00000E+00
 -1       847 7.59352E+01 2.73170E+01 0.00000E+00
 -1       848 7.43441E+01 2.93960E+01 0.00000E+00
 -1       849 1.27710E+01 3.74352E+01 0.00000E+00
 -1       850 7.57702E+01 2.27185E+01 0.00000E+00
 -1       851 6.64568E+01 1.29373E+01 0.00000E+00
 -1       852 4.63540E+01 1.83483E+01 0.00000E+00
 -1       853 4.41525E+01 2.46200E+01 0.00000E+00
 -1       854 2.50350E+01 1.18003E+01 0.00000E+00
 -1       855 4.52604E+01 2.14414E+01 0.00000E+00
 -1       856 2.80350E+01 1.18003E+01 0.00000E+00
 -1       857 5.50350E+01 1.17777E+01 0.00000E+00
 -1       858 1.37010E+02 1.91250E+01 0.00000E+00
 -1       859 7.38504E+01 3.02874E+01 0.00000E+00
 -1       860 1.37010E+02 2.20625E+01 0.00000E+00
 -1       861 1.29900E+01 1.90875E+01 0.00000E+00
 -1       862 7.02066E+01 1.48744E+01 0.00000E+00
 -1       863 4.32902E+01 2.80846E+01 0.00000E+00
 -1       864 1.37141E+02 1.66443E+01 0.00000E+00
 -1       865 1.63988E+01 1.15007E+01 0.00000E+00
 -1       866 7.28452E+01 2.82158E+01 0.00000E+00
 -1       867 1.36637E+02 3.55410E+01 0.00000E+00
 -1       868 1.29900E+01 3.08563E+01 0.00000E+00
 -1       869 1.29900E+01 3.37938E+01 0.00000E+00
 -1       870 7.75977E+01 2.51123E+01 0.00000E+00
 -1       871 6.20032E+01 1.25210E+01 0.00000E+00
 -1       872 2.11500E+01 3.44120E+01 0.00000E+00
 -1       873 5.43493E+01 1.25387E+01 0.00000E+00
 -1       874 2.41500E+01 3.44120E+01 0.00000E+00
 -1       875 2.71500E+01 3.44120E+01 0.00000E+00
 -1       876 3.01500E+01 3.44120E+01 0.00000E+00
 -1       877 3.31500E+01 3.44120E+01 0.00000E+00
 -1       878 3.61500E+01 3.44120E+01 0.00000E+00
 -1       879 3.91500E+01 3.44120E+01 0.00000E+00
 -1       880 4.21500E+01 3.44120E+01 0.00000E+00
 -1       881 2.05350E+01 1.43982E+01 0.00000E+00
 -1       882 8.11500E+01 3.44120E+01 0.00000E+00
 -1       883 8.41500E+01 3.44120E+01 0.00000E+00
 -1       884 8.71500E+01 3.44120E+01 0.00000E+00
 -1       885 9.01500E+01 3.44120E+01 0.00000E+00
 -1       886 9.31500E+01 3.44120E+01 0.00000E+00
 -1       887 9.61500E+01 3.44120E+01 0.00000E+00
 -1       888 9.91500E+01 3.44120E+01 0.00000E+00
 -1       889 1.02150E+02 3.44120E+01 0.00000E+00
 -1       890 1.05150E+02 3.44120E+01 0.00000E+00
 -1       891 1.08150E+02 3.44120E+01 0.00000E+00
 -1       892 1.11150E+02 3.44120E+01 0.00000E+00
 -1       893 1.14150E+02 3.44120E+01 0.00000E+00
 -1       894 1.17150E+02 3.44120E+01 0.00000E+00
 -1       895 1.20150E+02 3.44120E+01 0.00000E+00
 -1       896 1.23150E+02 3.44120E+01 0.00000E+00
 -1       897 1.26150E+02 3.44120E+01 0.00000E+00
 -1       898 1.29150E+02 3.44120E+01 0.00000E+00
 -1       899 1.32150E+02 3.44120E+01 0.00000E+00
 -1       900 3.25350E+01 1.43982E+01 0.00000E+00
 -1       901 4.45350E+01 1.43982E+01 0.00000E+00
 -1       902 4.15350E+01 1.43982E+01 0.00000E+00
 -1       903 4.69655E+01 1.47428E+01 0.00000E+00
 -1       904 8.05350E+01 1.43982E+01 0.00000E+00
 -1       905 8.35350E+01 1.43982E+01 0.00000E+00
 -1       906 8.65350E+01 1.43982E+01 0.00000E+00
 -1       907 8.95350E+01 1.43982E+01 0.00000E+00
 -1       908 9.25350E+01 1.43982E+01 0.00000E+00
 -1       909 9.55350E+01 1.43982E+01 0.00000E+00
 -1       910 9.85350E+01 1.43982E+01 0.00000E+00
 -1       911 1.01535E+02 1.43982E+01 0.00000E+00
 -1       912 1.04535E+02 1.43982E+01 0.00000E+00
 -1       913 1.07535E+02 1.43982E+01 0.00000E+00
 -1       914 1.10535E+02 1.43982E+01 0.00000E+00
 -1       915 1.13535E+02 1.43982E+01 0.00000E+00
 -1       916 1.16535E+02 1.43982E+01 0.00000E+00
 -1       917 1.19535E+02 1.43982E+01 0.00000E+00
 -1       918 1.22535E+02 1.43982E+01 0.00000E+00
 -1       919 1.25535E+02 1.43982E+01 0.00000E+00
 -1       920 1.28535E+02 1.43982E+01 0.00000E+00
 -1       921 1.31535E+02 1.43982E+01 0.00000E+00
 -1       922 1.34535E+02 1.43982E+01 0.00000E+00
 -1       923 4.33660E+01 3.14841E+01 0.00000E+00
 -1       924 1.34412E+02 2.94250E+01 0.00000E+00
 -1       925 7.69008E+01 2.97044E+01 0.00000E+00
 -1       926 1.34412E+02 2.64750E+01 0.00000E+00
 -1       927 7.75350E+01 1.43982E+01 0.00000E+00
 -1       928 1.37547E+02 1.44444E+01 0.00000E+00
 -1       929 7.45350E+01 1.43982E+01 0.00000E+00
 -1       930 1.29900E+01 2.79188E+01 0.00000E+00
 -1       931 7.81500E+01 3.44120E+01 0.00000E+00
 -1       932 1.34412E+02 3.23750E+01 0.00000E+00
 -1       933 1.81500E+01 3.44120E+01 0.00000E+00
 -1       934 7.49105E+01 3.21399E+01 0.00000E+00
 -1       935 1.44274E+01 3.46401E+01 0.00000E+00
 -1       936 7.47157E+01 3.45004E+01 0.00000E+00
 -1       937 1.55880E+01 1.46687E+01 0.00000E+00
 -1       938 4.46746E+01 1.92035E+01 0.00000E+00
 -1       939 1.75351E+01 1.43983E+01 0.00000E+00
 -1       940 2.35350E+01 1.43982E+01 0.00000E+00
 -1       941 4.28007E+01 2.62639E+01 0.00000E+00
 -1       942 4.34755E+01 2.26635E+01 0.00000E+00
 -1       943 2.95350E+01 1.43982E+01 0.00000E+00
 -1       944 3.55350E+01 1.43982E+01 0.00000E+00
 -1       945 1.34394E+02 3.49765E+01 0.00000E+00
 -1       946 3.85350E+01 1.43982E+01 0.00000E+00
 -1       947 4.54445E+01 1.63733E+01 0.00000E+00
 -1       948 4.17259E+01 3.00735E+01 0.00000E+00
 -1       949 1.59934E+01 1.30847E+01 0.00000E+00
 -1       950 1.34412E+02 2.35375E+01 0.00000E+00
 -1       951 7.85634E+01 2.74997E+01 0.00000E+00
 -1       952 1.34412E+02 2.06000E+01 0.00000E+00
 -1       953 7.53985E+01 2.01051E+01 0.00000E+00
 -1       954 1.34543E+02 1.81193E+01 0.00000E+00
 -1       955 1.55880E+01 2.35000E+01 0.00000E+00
 -1       956 7.48580E+01 1.68111E+01 0.00000E+00
 -1       957 1.55880E+01 2.05625E+01 0.00000E+00
 -1       958 1.55880E+01 2.93875E+01 0.00000E+00
 -1       959 7.58908E+01 3.08350E+01 0.00000E+00
 -1       960 1.31814E+02 3.09000E+01 0.00000E+00
 -1       961 1.96500E+01 3.18140E+01 0.00000E+00
 -1       962 7.70204E+01 3.26235E+01 0.00000E+00
 -1       963 1.55880E+01 2.64438E+01 0.00000E+00
 -1       964 2.56500E+01 3.18140E+01 0.00000E+00
 -1       965 2.86500E+01 3.18140E+01 0.00000E+00
 -1       966 3.16500E+01 3.18140E+01 0.00000E+00
 -1       967 3.46500E+01 3.18140E+01 0.00000E+00
 -1       968 3.76500E+01 3.18140E+01 0.00000E+00
 -1       969 7.81564E+01 2.10460E+01 0.00000E+00
 -1       970 1.61298E+01 3.19329E+01 0.00000E+00
 -1       971 8.56500E+01 3.18140E+01 0.00000E+00
 -1       972 8.86500E+01 3.18140E+01 0.00000E+00
 -1       973 9.16500E+01 3.18140E+01 0.00000E+00
 -1       974 9.46500E+01 3.18140E+01 0.00000E+00
 -1       975 9.76500E+01 3.18140E+01 0.00000E+00
 -1       976 1.00650E+02 3.18140E+01 0.00000E+00
 -1       977 1.03650E+02 3.18140E+01 0.00000E+00
 -1       978 1.06650E+02 3.18140E+01 0.00000E+00
 -1       979 1.09650E+02 3.18140E+01 0.00000E+00
 -1       980 1.12650E+02 3.18140E+01 0.00000E+00
 -1       981 1.15650E+02 3.18140E+01 0.00000E+00
 -1       982 1.18650E+02 3.18140E+01 0.00000E+00
 -1       983 1.21650E+02 3.18140E+01 0.00000E+00
 -1       984 1.24650E+02 3.18140E+01 0.00000E+00
 -1       985 1.27650E+02 3.18140E+01 0.00000E+00
 -1       986 8.20350E+01 1.69963E+01 0.00000E+00
 -1       987 9.10350E+01 1.69963E+01 0.00000E+00
 -1       988 9.40350E+01 1.69963E+01 0.00000E+00
 -1       989 9.70350E+01 1.69963E+01 0.00000E+00
 -1       990 1.00035E+02 1.69963E+01 0.00000E+00
 -1       991 1.03035E+02 1.69963E+01 0.00000E+00
 -1       992 1.06035E+02 1.69963E+01 0.00000E+00
 -1       993 1.09035E+02 1.69963E+01 0.00000E+00
 -1       994 1.12035E+02 1.69963E+01 0.00000E+00
 -1       995 1.15035E+02 1.69963E+01 0.00000E+00
 -1       996 1.18035E+02 1.69963E+01 0.00000E+00
 -1       997 1.21035E+02 1.69963E+01 0.00000E+00
 -1       998 1.24035E+02 1.69963E+01 0.00000E+00
 -1       999 1.27035E+02 1.69963E+01 0.00000E+00
 -1      1000 1.30035E+02 1.69963E+01 0.00000E+00
 -1      1001 1.31814E+02 2.79500E+01 0.00000E+00
 -1      1002 1.55880E+01 1.76156E+01 0.00000E+00
 -1      1003 8.80350E+01 1.69963E+01 0.00000E+00
 -1      1004 4.04380E+01 3.22427E+01 0.00000E+00
 -1      1005 8.50350E+01 1.69963E+01 0.00000E+00
 -1      1006 4.24445E+01 1.63733E+01 0.00000E+00
 -1      1007 7.90350E+01 1.69963E+01 0.00000E+00
 -1      1008 1.91082E+01 2.92686E+01 0.00000E+00
 -1      1009 2.26500E+01 3.18140E+01 0.00000E+00
 -1      1010 2.65350E+01 1.43982E+01 0.00000E+00
 -1      1011 8.00204E+01 3.26235E+01 0.00000E+00
 -1      1012 8.26500E+01 3.18140E+01 0.00000E+00
 -1      1013 1.90351E+01 1.69963E+01 0.00000E+00
 -1      1014 8.02402E+01 2.34039E+01 0.00000E+00
 -1      1015 4.12365E+01 2.82527E+01 0.00000E+00
 -1      1016 4.21237E+01 2.43074E+01 0.00000E+00
 -1      1017 2.20351E+01 1.69963E+01 0.00000E+00
 -1      1018 3.10350E+01 1.69963E+01 0.00000E+00
 -1      1019 3.94445E+01 1.63733E+01 0.00000E+00
 -1      1020 1.31814E+02 2.50125E+01 0.00000E+00
 -1      1021 3.40350E+01 1.69963E+01 0.00000E+00
 -1      1022 4.28897E+01 2.04256E+01 0.00000E+00
 -1      1023 1.33035E+02 1.69963E+01 0.00000E+00
 -1      1024 8.12059E+01 2.57912E+01 0.00000E+00
 -1      1025 1.31814E+02 2.20750E+01 0.00000E+00
 -1      1026 1.31945E+02 1.95943E+01 0.00000E+00
 -1      1027 7.98064E+01 3.01662E+01 0.00000E+00
 -1      1028 7.84606E+01 3.11639E+01 0.00000E+00
 -1      1029 1.81860E+01 2.49719E+01 0.00000E+00
 -1      1030 1.81860E+01 2.20344E+01 0.00000E+00
 -1      1031 8.41500E+01 2.92160E+01 0.00000E+00
 -1      1032 8.11376E+01 2.02001E+01 0.00000E+00
 -1      1033 3.01500E+01 2.92160E+01 0.00000E+00
 -1      1034 3.31500E+01 2.92160E+01 0.00000E+00
 -1      1035 3.61500E+01 2.92160E+01 0.00000E+00
 -1      1036 2.50351E+01 1.69963E+01 0.00000E+00
 -1      1037 8.41376E+01 2.02001E+01 0.00000E+00
 -1      1038 3.67398E+01 1.66848E+01 0.00000E+00
 -1      1039 9.01500E+01 2.92160E+01 0.00000E+00
 -1      1040 9.31500E+01 2.92160E+01 0.00000E+00
 -1      1041 9.61500E+01 2.92160E+01 0.00000E+00
 -1      1042 9.91500E+01 2.92160E+01 0.00000E+00
 -1      1043 1.02150E+02 2.92160E+01 0.00000E+00
 -1      1044 1.05150E+02 2.92160E+01 0.00000E+00
 -1      1045 1.08150E+02 2.92160E+01 0.00000E+00
 -1      1046 1.11150E+02 2.92160E+01 0.00000E+00
 -1      1047 1.14150E+02 2.92160E+01 0.00000E+00
 -1      1048 1.17150E+02 2.92160E+01 0.00000E+00
 -1      1049 1.20150E+02 2.92160E+01 0.00000E+00
 -1      1050 1.23150E+02 2.92160E+01 0.00000E+00
 -1      1051 1.26150E+02 2.92160E+01 0.00000E+00
 -1      1052 9.85350E+01 1.95942E+01 0.00000E+00
 -1      1053 9.55350E+01 1.95942E+01 0.00000E+00
 -1      1054 2.41500E+01 2.92160E+01 0.00000E+00
 -1      1055 3.89380E+01 2.96447E+01 0.00000E+00
 -1      1056 9.25350E+01 1.95942E+01 0.00000E+00
 -1      1057 1.01535E+02 1.95942E+01 0.00000E+00
 -1      1058 1.04535E+02 1.95942E+01 0.00000E+00
 -1      1059 1.07535E+02 1.95942E+01 0.00000E+00
 -1      1060 1.10535E+02 1.95942E+01 0.00000E+00
 -1      1061 1.13535E+02 1.95942E+01 0.00000E+00
 -1      1062 1.16535E+02 1.95942E+01 0.00000E+00
 -1      1063 1.19535E+02 1.95942E+01 0.00000E+00
 -1      1064 1.22535E+02 1.95942E+01 0.00000E+00
 -1      1065 1.25535E+02 1.95942E+01 0.00000E+00
 -1      1066 1.28535E+02 1.95942E+01 0.00000E+00
 -1      1067 2.16291E+01 2.92423E+01 0.00000E+00
 -1      1068 8.95350E+01 1.95942E+01 0.00000E+00
 -1      1069 8.68363E+01 1.98972E+01 0.00000E+00
 -1      1070 8.71500E+01 2.92160E+01 0.00000E+00
 -1      1071 1.28982E+02 2.85830E+01 0.00000E+00
 -1      1072 2.80350E+01 1.69963E+01 0.00000E+00
 -1      1073 2.07069E+01 2.49456E+01 0.00000E+00
 -1      1074 1.86105E+01 1.95153E+01 0.00000E+00
 -1      1075 2.71500E+01 2.92160E+01 0.00000E+00
 -1      1076 4.11671E+01 1.83994E+01 0.00000E+00
 -1      1077 8.32402E+01 2.34039E+01 0.00000E+00
 -1      1078 4.05594E+01 2.62963E+01 0.00000E+00
 -1      1079 1.28982E+02 2.56455E+01 0.00000E+00
 -1      1080 4.15379E+01 2.20695E+01 0.00000E+00
 -1      1081 1.28982E+02 2.27080E+01 0.00000E+00
 -1      1082 2.95350E+01 1.95943E+01 0.00000E+00
 -1      1083 2.16105E+01 1.95153E+01 0.00000E+00
 -1      1084 3.25350E+01 1.95943E+01 0.00000E+00
 -1      1085 3.16500E+01 2.66180E+01 0.00000E+00
 -1      1086 2.46105E+01 1.95153E+01 0.00000E+00
 -1      1087 3.46500E+01 2.66180E+01 0.00000E+00
 -1      1088 9.70350E+01 2.21922E+01 0.00000E+00
 -1      1089 2.86500E+01 2.66180E+01 0.00000E+00
 -1      1090 9.16500E+01 2.66180E+01 0.00000E+00
 -1      1091 9.46500E+01 2.66180E+01 0.00000E+00
 -1      1092 9.76500E+01 2.66180E+01 0.00000E+00
 -1      1093 1.00650E+02 2.66180E+01 0.00000E+00
 -1      1094 1.03650E+02 2.66180E+01 0.00000E+00
 -1      1095 1.06650E+02 2.66180E+01 0.00000E+00
 -1      1096 1.09650E+02 2.66180E+01 0.00000E+00
 -1      1097 1.12650E+02 2.66180E+01 0.00000E+00
 -1      1098 1.15650E+02 2.66180E+01 0.00000E+00
 -1      1099 1.18650E+02 2.66180E+01 0.00000E+00
 -1      1100 1.21650E+02 2.66180E+01 0.00000E+00
 -1      1101 1.24650E+02 2.66180E+01 0.00000E+00
 -1      1102 1.03035E+02 2.21922E+01 0.00000E+00
 -1      1103 1.00035E+02 2.21922E+01 0.00000E+00
 -1      1104 9.10350E+01 2.21922E+01 0.00000E+00
 -1      1105 1.26816E+02 2.61318E+01 0.00000E+00
 -1      1106 9.40350E+01 2.21922E+01 0.00000E+00
 -1      1107 1.06035E+02 2.21922E+01 0.00000E+00
 -1      1108 1.09035E+02 2.21922E+01 0.00000E+00
 -1      1109 1.12035E+02 2.21922E+01 0.00000E+00
 -1      1110 1.15035E+02 2.21922E+01 0.00000E+00
 -1      1111 1.18035E+02 2.21922E+01 0.00000E+00
 -1      1112 1.21035E+02 2.21922E+01 0.00000E+00
 -1      1113 1.24035E+02 2.21922E+01 0.00000E+00
 -1      1114 1.26508E+02 2.24501E+01 0.00000E+00
 -1      1115 2.32278E+01 2.49193E+01 0.00000E+00
 -1      1116 2.11860E+01 2.20344E+01 0.00000E+00
 -1      1117 8.59389E+01 2.31010E+01 0.00000E+00
 -1      1118 8.51951E+01 2.63099E+01 0.00000E+00
 -1      1119 2.59389E+01 2.57686E+01 0.00000E+00
 -1      1120 3.79389E+01 2.68626E+01 0.00000E+00
 -1      1121 2.70728E+01 1.95548E+01 0.00000E+00
 -1      1122 8.86500E+01 2.66180E+01 0.00000E+00
 -1      1123 3.84623E+01 1.87109E+01 0.00000E+00
 -1      1124 3.99736E+01 2.40584E+01 0.00000E+00
 -1      1125 2.82623E+01 2.21722E+01 0.00000E+00
 -1      1126 3.55349E+01 1.95943E+01 0.00000E+00
 -1      1127 3.12623E+01 2.21722E+01 0.00000E+00
 -1      1128 4.00001E+01 2.03902E+01 0.00000E+00
 -1      1129 8.84870E+01 2.26466E+01 0.00000E+00
 -1      1130 2.41860E+01 2.20344E+01 0.00000E+00
 -1      1131 3.31500E+01 2.40200E+01 0.00000E+00
 -1      1132 3.66847E+01 2.38138E+01 0.00000E+00
 -1      1133 2.62241E+01 2.21033E+01 0.00000E+00
 -1      1134 3.70727E+01 2.12736E+01 0.00000E+00
 -1      1135 3.40350E+01 2.21923E+01 0.00000E+00
 -1      1136 0.00000E+00 4.85250E+01 0.00000E+00
 -1      1137 0.00000E+00 4.55750E+01 0.00000E+00
 -1      1138 0.00000E+00 4.26250E+01 0.00000E+00
 -1      1139 0.00000E+00 3.96750E+01 0.00000E+00
 -1      1140 0.00000E+00 3.67250E+01 0.00000E+00
 -1      1141 0.00000E+00 3.38000E+01 0.00000E+00
 -1      1142 0.00000E+00 3.08750E+01 0.00000E+00
 -1      1143 0.00000E+00 2.79250E+01 0.00000E+00
 -1      1144 0.00000E+00 2.49750E+01 0.00000E+00
 -1      1145 0.00000E+00 2.20250E+01 0.00000E+00
 -1      1146 0.00000E+00 1.90750E+01 0.00000E+00
 -1      1147 0.00000E+00 1.61500E+01 0.00000E+00
 -1      1148 0.00000E+00 1.32250E+01 0.00000E+00
 -1      1149 0.00000E+00 1.02750E+01 0.00000E+00
 -1      1150 0.00000E+00 7.32500E+00 0.00000E+00
 -1      1151 0.00000E+00 4.37500E+00 0.00000E+00
 -1      1152 0.00000E+00 1.45000E+00 0.00000E+00
 -1      1153 1.57500E+00 5.00000E+01 0.00000E+00
 -1      1154 4.65000E+00 5.00000E+01 0.00000E+00
 -1      1155 7.65000E+00 5.00000E+01 0.00000E+00
 -1      1156 1.06500E+01 5.00000E+01 0.00000E+00
 -1      1157 1.36500E+01 5.00000E+01 0.00000E+00
 -1      1158 1.66500E+01 5.00000E+01 0.00000E+00
 -1      1159 1.96500E+01 5.00000E+01 0.00000E+00
 -1      1160 2.26500E+01 5.00000E+01 0.00000E+00
 -1      1161 2.56500E+01 5.00000E+01 0.00000E+00
 -1      1162 2.86500E+01 5.00000E+01 0.00000E+00
 -1      1163 3.16500E+01 5.00000E+01 0.00000E+00
 -1      1164 3.46500E+01 5.00000E+01 0.00000E+00
 -1      1165 3.76500E+01 5.00000E+01 0.00000E+00
 -1      1166 4.06500E+01 5.00000E+01 0.00000E+00
 -1      1167 4.36500E+01 5.00000E+01 0.00000E+00
 -1      1168 4.66500E+01 5.00000E+01 0.00000E+00
 -1      1169 4.96500E+01 5.00000E+01 0.00000E+00
 -1      1170 5.26500E+01 5.00000E+01 0.00000E+00
 -1      1171 5.56500E+01 5.00000E+01 0.00000E+00
 -1      1172 5.86500E+01 5.00000E+01 0.00000E+00
 -1      1173 6.16500E+01 5.00000E+01 0.00000E+00
 -1      1174 6.46500E+01 5.00000E+01 0.00000E+00
 -1      1175 6.76500E+01 5.00000E+01 0.00000E+00
 -1      1176 7.06500E+01 5.00000E+01 0.00000E+00
 -1      1177 7.36500E+01 5.00000E+01 0.00000E+00
 -1      1178 7.66500E+01 5.00000E+01 0.00000E+00
 -1      1179 7.96500E+01 5.00000E+01 0.00000E+00
 -1      1180 8.26500E+01 5.00000E+01 0.00000E+00
 -1      1181 8.56500E+01 5.00000E+01 0.00000E+00
 -1      1182 8.86500E+01 5.00000E+01 0.00000E+00
 -1      1183 9.16500E+01 5.00000E+01 0.00000E+00
 -1      1184 9.46500E+01 5.00000E+01 0.00000E+00
 -1      1185 9.76500E+01 5.00000E+01 0.00000E+00
 -1      1186 1.00650E+02 5.00000E+01 0.00000E+00
 -1      1187 1.03650E+02 5.00000E+01 0.00000E+00
 -1      1188 1.06650E+02 5.00000E+01 0.00000E+00
 -1      1189 1.09650E+02 5.00000E+01 0.00000E+00
 -1      1190 1.12650E+02 5.00000E+01 0.00000E+00
 -1      1191 1.15650E+02 5.00000E+01 0.00000E+00
 -1      1192 1.18650E+02 5.00000E+01 0.00000E+00
 -1      1193 1.21650E+02 5.00000E+01 0.00000E+00
 -1      1194 1.24650E+02 5.00000E+01 0.00000E+00
 -1      1195 1.27650E+02 5.00000E+01 0.00000E+00
 -1      1196 1.30650E+02 5.00000E+01 0.00000E+00
 -1      1197 1.33650E+02 5.00000E+01 0.00000E+00
 -1      1198 1.36650E+02 5.00000E+01 0.00000E+00
 -1      1199 1.39650E+02 5.00000E+01 0.00000E+00
 -1      1200 1.42650E+02 5.00000E+01 0.00000E+00
 -1      1201 1.45650E+02 5.00000E+01 0.00000E+00
 -1      1202 1.48575E+02 5.00000E+01 0.00000E+00
 -1      1203 1.57500E+00 0.00000E+00 0.00000E+00
 -1      1204 4.65000E+00 0.00000E+00 0.00000E+00
 -1      1205 7.65000E+00 0.00000E+00 0.00000E+00
 -1      1206 1.06500E+01 0.00000E+00 0.00000E+00
 -1      1207 1.36500E+01 0.00000E+00 0.00000E+00
 -1      1208 1.66500E+01 0.00000E+00 0.00000E+00
 -1      1209 1.96500E+01 0.00000E+00 0.00000E+00
 -1      1210 2.26500E+01 0.00000E+00 0.00000E+00
 -1      1211 2.56500E+01 0.00000E+00 0.00000E+00
 -1      1212 2.86500E+01 0.00000E+00 0.00000E+00
 -1      1213 3.16500E+01 0.00000E+00 0.00000E+00
 -1      1214 3.46500E+01 0.00000E+00 0.00000E+00
 -1      1215 3.76500E+01 0.00000E+00 0.00000E+00
 -1      1216 4.06500E+01 0.00000E+00 0.00000E+00
 -1      1217 4.36500E+01 0.00000E+00 0.00000E+00
 -1      1218 4.66500E+01 0.00000E+00 0.00000E+00
 -1      1219 4.96500E+01 0.00000E+00 0.00000E+00
 -1      1220 5.26500E+01 0.00000E+00 0.00000E+00
 -1      1221 5.56500E+01 0.00000E+00 0.00000E+00
 -1      1222 5.86500E+01 0.00000E+00 0.00000E+00
 -1      1223 6.16500E+01 0.00000E+00 0.00000E+00
 -1      1224 6.46500E+01 0.00000E+00 0.00000E+00
 -1      1225 6.76500E+01 0.00000E+00 0.00000E+00
 -1      1226 7.06500E+01 0.00000E+00 0.00000E+00
 -1      1227 7.36500E+01 0.00000E+00 0.00000E+00
 -1      1228 7.66500E+01 0.00000E+00 0.00000E+00
 -1      1229 7.96500E+01 0.00000E+00 0.00000E+00
 -1      1230 8.26500E+01 0.00000E+00 0.00000E+00
 -1      1231 8.56500E+01 0.00000E+00 0.00000E+00
 -1      1232 8.86500E+01 0.00000E+00 0.00000E+00
 -1      1233 9.16500E+01 0.00000E+00 0.00000E+00
 -1      1234 9.46500E+01 0.00000E+00 0.00000E+00
 -1      1235 9.76500E+01 0.00000E+00 0.00000E+00
 -1      1236 1.00650E+02 0.00000E+00 0.00000E+00
 -1      1237 1.03650E+02 0.00000E+00 0.00000E+00
 -1      1238 1.06650E+02 0.00000E+00 0.00000E+00
 -1      1239 1.09650E+02 0.00000E+00 0.00000E+00
 -1      1240 1.12650E+02 0.00000E+00 0.00000E+00
 -1      1241 1.15650E+02 0.00000E+00 0.00000E+00
 -1      1242 1.18650E+02 0.00000E+00 0.00000E+00
 -1      1243 1.21650E+02 0.00000E+00 0.00000E+00
 -1      1244 1.24650E+02 0.00000E+00 0.00000E+00
 -1      1245 1.27650E+02 0.00000E+00 0.00000E+00
 -1      1246 1.30650E+02 0.00000E+00 0.00000E+00
 -1      1247 1.33650E+02 0.00000E+00 0.00000E+00
 -1      1248 1.36650E+02 0.00000E+00 0.00000E+00
 -1      1249 1.39650E+02 0.00000E+00 0.00000E+00
 -1      1250 1.42650E+02 0.00000E+00 0.00000E+00
 -1      1251 1.45650E+02 0.00000E+00 0.00000E+00
 -1      1252 1.48575E+02 0.00000E+00 0.00000E+00
 -1      1253 1.50000E+02 1.47500E+00 0.00000E+00
 -1      1254 1.50000E+02 4.42500E+00 0.00000E+00
 -1      1255 1.50000E+02 7.37500E+00 0.00000E+00
 -1      1256 1.50000E+02 1.03250E+01 0.00000E+00
 -1      1257 1.50000E+02 1.32750E+01 0.00000E+00
 -1      1258 1.50000E+02 1.62000E+01 0.00000E+00
 -1      1259 1.50000E+02 1.91250E+01 0.00000E+00
 -1      1260 1.50000E+02 2.20750E+01 0.00000E+00
 -1      1261 1.50000E+02 2.50250E+01 0.00000E+00
 -1      1262 1.50000E+02 2.79750E+01 0.00000E+00
 -1      1263 1.50000E+02 3.09250E+01 0.00000E+00
 -1      1264 1.50000E+02 3.38500E+01 0.00000E+00
 -1      1265 1.50000E+02 3.67750E+01 0.00000E+00
 -1      1266 1.50000E+02 3.97250E+01 0.00000E+00
 -1      1267 1.50000E+02 4.26750E+01 0.00000E+00
 -1      1268 1.50000E+02 4.56250E+01 0.00000E+00
 -1      1269 1.50000E+02 4.85500E+01 0.00000E+00
 -1      1270 6.60742E+01 2.62284E+01 0.00000E+00
 -1      1271 6.57500E+01 2.47605E+01 0.00000E+00
 -1      1272 6.51451E+01 2.34381E+01 0.00000E+00
 -1      1273 6.42717E+01 2.22602E+01 0.00000E+00
 -1      1274 6.31359E+01 2.12645E+01 0.00000E+00
 -1      1275 6.18202E+01 2.05387E+01 0.00000E+00
 -1      1276 6.04260E+01 2.01190E+01 0.00000E+00
 -1      1277 5.89890E+01 1.99965E+01 0.00000E+00
 -1      1278 5.74857E+01 2.01879E+01 0.00000E+00
 -1      1279 5.60576E+01 2.06990E+01 0.00000E+00
 -1      1280 5.48264E+01 2.14639E+01 0.00000E+00
 -1      1281 5.37722E+01 2.24743E+01 0.00000E+00
 -1      1282 5.29264E+01 2.37265E+01 0.00000E+00
 -1      1283 5.23746E+01 2.51114E+01 0.00000E+00
 -1      1284 5.21297E+01 2.65633E+01 0.00000E+00
 -1      1285 5.21978E+01 2.80606E+01 0.00000E+00
 -1      1286 5.25922E+01 2.95323E+01 0.00000E+00
 -1      1287 5.32714E+01 3.08472E+01 0.00000E+00
 -1      1288 5.41560E+01 3.19346E+01 0.00000E+00
 -1      1289 5.52507E+01 3.28312E+01 0.00000E+00
 -1      1290 5.64927E+01 3.34851E+01 0.00000E+00
 -1      1291 5.78775E+01 3.38849E+01 0.00000E+00
 -1      1292 5.93097E+01 3.39927E+01 0.00000E+00
 -1      1293 6.07172E+01 3.38098E+01 0.00000E+00
 -1      1294 6.20543E+01 3.33490E+01 0.00000E+00
 -1      1295 6.32391E+01 3.26524E+01 0.00000E+00
 -1      1296 6.43165E+01 3.16813E+01 0.00000E+00
 -1      1297 6.51746E+01 3.05021E+01 0.00000E+00
 -1      1298 6.57724E+01 2.91624E+01 0.00000E+00
 -1      1299 6.60794E+01 2.77135E+01 0.00000E+00
 -1      1300 1.57500E+00 4.85250E+01 0.00000E+00
 -1      1301 1.29900E+00 4.48375E+01 0.00000E+00
 -1      1302 1.29900E+00 4.63125E+01 0.00000E+00
 -1      1303 1.29900E+00 4.18875E+01 0.00000E+00
 -1      1304 1.29900E+00 4.33625E+01 0.00000E+00
 -1      1305 2.59800E+00 4.41000E+01 0.00000E+00
 -1      1306 1.29900E+00 3.89375E+01 0.00000E+00
 -1      1307 1.29900E+00 4.04125E+01 0.00000E+00
 -1      1308 2.59800E+00 4.11500E+01 0.00000E+00
 -1      1309 1.29900E+00 3.59875E+01 0.00000E+00
 -1      1310 1.29900E+00 3.74625E+01 0.00000E+00
 -1      1311 2.59800E+00 3.82000E+01 0.00000E+00
 -1      1312 1.29900E+00 3.30875E+01 0.00000E+00
 -1      1313 1.29900E+00 3.45375E+01 0.00000E+00
 -1      1314 2.59800E+00 3.52750E+01 0.00000E+00
 -1      1315 1.29900E+00 3.01375E+01 0.00000E+00
 -1      1316 1.29900E+00 3.16125E+01 0.00000E+00
 -1      1317 2.59800E+00 3.23500E+01 0.00000E+00
 -1      1318 1.29900E+00 2.71875E+01 0.00000E+00
 -1      1319 1.29900E+00 2.86625E+01 0.00000E+00
 -1      1320 2.59800E+00 2.94000E+01 0.00000E+00
 -1      1321 1.29900E+00 2.42375E+01 0.00000E+00
 -1      1322 1.29900E+00 2.57125E+01 0.00000E+00
 -1      1323 2.59800E+00 2.64500E+01 0.00000E+00
 -1      1324 1.29900E+00 2.12875E+01 0.00000E+00
 -1      1325 1.29900E+00 2.27625E+01 0.00000E+00
 -1      1326 2.59800E+00 2.35000E+01 0.00000E+00
 -1      1327 1.29900E+00 1.83375E+01 0.00000E+00
 -1      1328 1.29900E+00 1.98125E+01 0.00000E+00
 -1      1329 2.59800E+00 2.05500E+01 0.00000E+00
 -1      1330 1.29900E+00 1.54375E+01 0.00000E+00
 -1      1331 1.29900E+00 1.68875E+01 0.00000E+00
 -1      1332 2.59800E+00 1.76250E+01 0.00000E+00
 -1      1333 1.29900E+00 1.24875E+01 0.00000E+00
 -1      1334 1.29900E+00 1.39625E+01 0.00000E+00
 -1      1335 2.59800E+00 1.47000E+01 0.00000E+00
 -1      1336 1.29900E+00 9.53750E+00 0.00000E+00
 -1      1337 1.29900E+00 1.10125E+01 0.00000E+00
 -1      1338 2.59800E+00 1.17500E+01 0.00000E+00
 -1      1339 1.29900E+00 6.58750E+00 0.00000E+00
 -1      1340 1.29900E+00 8.06250E+00 0.00000E+00
 -1      1341 2.59800E+00 8.80000E+00 0.00000E+00
 -1      1342 1.29900E+00 3.63750E+00 0.00000E+00
 -1      1343 1.29900E+00 5.11250E+00 0.00000E+00
 -1      1344 2.59800E+00 5.85000E+00 0.00000E+00
 -1      1345 1.43700E+00 1.09375E+00 0.00000E+00
 -1      1346 1.43700E+00 2.54375E+00 0.00000E+00
 -1      1347 2.73600E+00 3.28125E+00 0.00000E+00
 -1      1348 3.01200E+00 1.09375E+00 0.00000E+00
 -1      1349 3.90000E+00 4.87010E+01 0.00000E+00
 -1      1350 5.40000E+00 4.87010E+01 0.00000E+00
 -1      1351 6.90000E+00 4.87010E+01 0.00000E+00
 -1      1352 8.40000E+00 4.87010E+01 0.00000E+00
 -1      1353 6.15000E+00 4.74020E+01 0.00000E+00
 -1      1354 9.90000E+00 4.87010E+01 0.00000E+00
 -1      1355 1.14000E+01 4.87010E+01 0.00000E+00
 -1      1356 9.15000E+00 4.74020E+01 0.00000E+00
 -1      1357 1.29000E+01 4.87010E+01 0.00000E+00
 -1      1358 1.44000E+01 4.87010E+01 0.00000E+00
 -1      1359 1.21500E+01 4.74020E+01 0.00000E+00
 -1      1360 1.59000E+01 4.87010E+01 0.00000E+00
 -1      1361 1.74000E+01 4.87010E+01 0.00000E+00
 -1      1362 1.51500E+01 4.74020E+01 0.00000E+00
 -1      1363 1.89000E+01 4.87010E+01 0.00000E+00
 -1      1364 2.04000E+01 4.87010E+01 0.00000E+00
 -1      1365 1.81500E+01 4.74020E+01 0.00000E+00
 -1      1366 2.19000E+01 4.87010E+01 0.00000E+00
 -1      1367 2.34000E+01 4.87010E+01 0.00000E+00
 -1      1368 2.11500E+01 4.74020E+01 0.00000E+00
 -1      1369 2.49000E+01 4.87010E+01 0.00000E+00
 -1      1370 2.64000E+01 4.87010E+01 0.00000E+00
 -1      1371 2.41500E+01 4.74020E+01 0.00000E+00
 -1      1372 2.79000E+01 4.87010E+01 0.00000E+00
 -1      1373 2.94000E+01 4.87010E+01 0.00000E+00
 -1      1374 2.71500E+01 4.74020E+01 0.00000E+00
 -1      1375 3.09000E+01 4.87010E+01 0.00000E+00
 -1      1376 3.24000E+01 4.87010E+01 0.00000E+00
 -1      1377 3.01500E+01 4.74020E+01 0.00000E+00
 -1      1378 3.39000E+01 4.87010E+01 0.00000E+00
 -1      1379 3.54000E+01 4.87010E+01 0.00000E+00
 -1      1380 3.31500E+01 4.74020E+01 0.00000E+00
 -1      1381 3.69000E+01 4.87010E+01 0.00000E+00
 -1      1382 3.84000E+01 4.87010E+01 0.00000E+00
 -1      1383 3.61500E+01 4.74020E+01 0.00000E+00
 -1      1384 3.99000E+01 4.87010E+01 0.00000E+00
 -1      1385 4.14000E+01 4.87010E+01 0.00000E+00
 -1      1386 3.91500E+01 4.74020E+01 0.00000E+00
 -1      1387 4.29000E+01 4.87010E+01 0.00000E+00
 -1      1388 4.44000E+01 4.87010E+01 0.00000E+00
 -1      1389 4.21500E+01 4.74020E+01 0.00000E+00
 -1      1390 4.59000E+01 4.87010E+01 0.00000E+00
 -1      1391 4.74000E+01 4.87010E+01 0.00000E+00
 -1      1392 4.51500E+01 4.74020E+01 0.00000E+00
 -1      1393 4.89000E+01 4.87010E+01 0.00000E+00
 -1      1394 5.04000E+01 4.87010E+01 0.00000E+00
 -1      1395 4.81500E+01 4.74020E+01 0.00000E+00
 -1      1396 5.19000E+01 4.87010E+01 0.00000E+00
 -1      1397 5.34000E+01 4.87010E+01 0.00000E+00
 -1      1398 5.11500E+01 4.74020E+01 0.00000E+00
 -1      1399 5.49000E+01 4.87010E+01 0.00000E+00
 -1      1400 5.64000E+01 4.87010E+01 0.00000E+00
 -1      1401 5.41500E+01 4.74020E+01 0.00000E+00
 -1      1402 5.79000E+01 4.87010E+01 0.00000E+00
 -1      1403 5.94000E+01 4.87010E+01 0.00000E+00
 -1      1404 5.71500E+01 4.74020E+01 0.00000E+00
 -1      1405 6.09000E+01 4.87010E+01 0.00000E+00
 -1      1406 6.24000E+01 4.87010E+01 0.00000E+00
 -1      1407 6.01500E+01 4.74020E+01 0.00000E+00
 -1      1408 6.39000E+01 4.87010E+01 0.00000E+00
 -1      1409 6.54000E+01 4.87010E+01 0.00000E+00
 -1      1410 6.31500E+01 4.74020E+01 0.00000E+00
 -1      1411 6.69000E+01 4.87010E+01 0.00000E+00
 -1      1412 6.84000E+01 4.87010E+01 0.00000E+00
 -1      1413 6.61500E+01 4.74020E+01 0.00000E+00
 -1      1414 6.99000E+01 4.87010E+01 0.00000E+00
 -1      1415 7.14000E+01 4.87010E+01 0.00000E+00
 -1      1416 6.91500E+01 4.74020E+01 0.00000E+00
 -1      1417 7.29000E+01 4.87010E+01 0.00000E+00
 -1      1418 7.44000E+01 4.87010E+01 0.00000E+00
 -1      1419 7.21500E+01 4.74020E+01 0.00000E+00
 -1      1420 7.59000E+01 4.87010E+01 0.00000E+00
 -1      1421 7.74000E+01 4.87010E+01 0.00000E+00
 -1      1422 7.51500E+01 4.74020E+01 0.00000E+00
 -1      1423 7.89000E+01 4.87010E+01 0.00000E+00
 -1      1424 8.04000E+01 4.87010E+01 0.00000E+00
 -1      1425 7.81500E+01 4.74020E+01 0.00000E+00
 -1      1426 8.19000E+01 4.87010E+01 0.00000E+00
 -1      1427 8.34000E+01 4.87010E+01 0.00000E+00
 -1      1428 8.11500E+01 4.74020E+01 0.00000E+00
 -1      1429 8.49000E+01 4.87010E+01 0.00000E+00
 -1      1430 8.64000E+01 4.87010E+01 0.00000E+00
 -1      1431 8.41500E+01 4.74020E+01 0.00000E+00
 -1      1432 8.79000E+01 4.87010E+01 0.00000E+00
 -1      1433 8.94000E+01 4.87010E+01 0.00000E+00
 -1      1434 8.71500E+01 4.74020E+01 0.00000E+00
 -1      1435 9.09000E+01 4.87010E+01 0.00000E+00
 -1      1436 9.24000E+01 4.87010E+01 0.00000E+00
 -1      1437 9.01500E+01 4.74020E+01 0.00000E+00
 -1      1438 9.39000E+01 4.87010E+01 0.00000E+00
 -1      1439 9.54000E+01 4.87010E+01 0.00000E+00
 -1      1440 9.31500E+01 4.74020E+01 0.00000E+00
 -1      1441 9.69000E+01 4.87010E+01 0.00000E+00
 -1      1442 9.84000E+01 4.87010E+01 0.00000E+00
 -1      1443 9.61500E+01 4.74020E+01 0.00000E+00
 -1      1444 9.99000E+01 4.87010E+01 0.00000E+00
 -1      1445 1.01400E+02 4.87010E+01 0.00000E+00
 -1      1446 9.91500E+01 4.74020E+01 0.00000E+00
 -1      1447 1.02900E+02 4.87010E+01 0.00000E+00
 -1      1448 1.04400E+02 4.87010E+01 0.00000E+00
 -1      1449 1.02150E+02 4.74020E+01 0.00000E+00
 -1      1450 1.05900E+02 4.87010E+01 0.00000E+00
 -1      1451 1.07400E+02 4.87010E+01 0.00000E+00
 -1      1452 1.05150E+02 4.74020E+01 0.00000E+00
 -1      1453 1.08900E+02 4.87010E+01 0.00000E+00
 -1      1454 1.10400E+02 4.87010E+01 0.00000E+00
 -1      1455 1.08150E+02 4.74020E+01 0.00000E+00
 -1      1456 1.11900E+02 4.87010E+01 0.00000E+00
 -1      1457 1.13400E+02 4.87010E+01 0.00000E+00
 -1      1458 1.11150E+02 4.74020E+01 0.00000E+00
 -1      1459 1.14900E+02 4.87010E+01 0.00000E+00
 -1      1460 1.16400E+02 4.87010E+01 0.00000E+00
 -1      1461 1.14150E+02 4.74020E+01 0.00000E+00
 -1      1462 1.17900E+02 4.87010E+01 0.00000E+00
 -1      1463 1.19400E+02 4.87010E+01 0.00000E+00
 -1      1464 1.17150E+02 4.74020E+01 0.00000E+00
 -1      1465 1.20900E+02 4.87010E+01 0.00000E+00
 -1      1466 1.22400E+02 4.87010E+01 0.00000E+00
 -1      1467 1.20150E+02 4.74020E+01 0.00000E+00
 -1      1468 1.23900E+02 4.87010E+01 0.00000E+00
 -1      1469 1.25400E+02 4.87010E+01 0.00000E+00
 -1      1470 1.23150E+02 4.74020E+01 0.00000E+00
 -1      1471 1.26900E+02 4.87010E+01 0.00000E+00
 -1      1472 1.28400E+02 4.87010E+01 0.00000E+00
 -1      1473 1.26150E+02 4.74020E+01 0.00000E+00
 -1      1474 1.29900E+02 4.87010E+01 0.00000E+00
 -1      1475 1.31400E+02 4.87010E+01 0.00000E+00
 -1      1476 1.29150E+02 4.74020E+01 0.00000E+00
 -1      1477 1.32900E+02 4.87010E+01 0.00000E+00
 -1      1478 1.34400E+02 4.87010E+01 0.00000E+00
 -1      1479 1.32150E+02 4.74020E+01 0.00000E+00
 -1      1480 1.35900E+02 4.87010E+01 0.00000E+00
 -1      1481 1.37400E+02 4.87010E+01 0.00000E+00
 -1      1482 1.35150E+02 4.74020E+01 0.00000E+00
 -1      1483 1.38900E+02 4.87010E+01 0.00000E+00
 -1      1484 1.40400E+02 4.87010E+01 0.00000E+00
 -1      1485 1.38150E+02 4.74020E+01 0.00000E+00
 -1      1486 1.41900E+02 4.87010E+01 0.00000E+00
 -1      1487 1.43400E+02 4.87010E+01 0.00000E+00
 -1      1488 1.41150E+02 4.74020E+01 0.00000E+00
 -1      1489 1.44900E+02 4.87010E+01 0.00000E+00
 -1      1490 1.46400E+02 4.87010E+01 0.00000E+00
 -1      1491 1.44150E+02 4.74020E+01 0.00000E+00
 -1      1492 1.48575E+02 4.85500E+01 0.00000E+00
 -1      1493 1.47825E+02 4.72510E+01 0.00000E+00
 -1      1494 6.01200E+00 1.09375E+00 0.00000E+00
 -1      1495 4.51200E+00 1.09375E+00 0.00000E+00
 -1      1496 4.37400E+00 2.18750E+00 0.00000E+00
 -1      1497 9.01200E+00 1.09375E+00 0.00000E+00
 -1      1498 7.51200E+00 1.09375E+00 0.00000E+00
 -1      1499 7.37400E+00 2.18750E+00 0.00000E+00
 -1      1500 1.20120E+01 1.09375E+00 0.00000E+00
 -1      1501 1.05120E+01 1.09375E+00 0.00000E+00
 -1      1502 1.03740E+01 2.18750E+00 0.00000E+00
 -1      1503 1.50120E+01 1.09375E+00 0.00000E+00
 -1      1504 1.35120E+01 1.09375E+00 0.00000E+00
 -1      1505 1.33740E+01 2.18750E+00 0.00000E+00
 -1      1506 1.80120E+01 1.09375E+00 0.00000E+00
 -1      1507 1.65120E+01 1.09375E+00 0.00000E+00
 -1      1508 1.63740E+01 2.18750E+00 0.00000E+00
 -1      1509 2.10120E+01 1.09375E+00 0.00000E+00
 -1      1510 1.95120E+01 1.09375E+00 0.00000E+00
 -1      1511 1.93740E+01 2.18750E+00 0.00000E+00
 -1      1512 2.40120E+01 1.09375E+00 0.00000E+00
 -1      1513 2.25120E+01 1.09375E+00 0.00000E+00
 -1      1514 2.23740E+01 2.18750E+00 0.00000E+00
 -1      1515 2.70120E+01 1.09375E+00 0.00000E+00
 -1      1516 2.55120E+01 1.09375E+00 0.00000E+00
 -1      1517 2.53740E+01 2.18750E+00 0.00000E+00
 -1      1518 3.00120E+01 1.09375E+00 0.00000E+00
 -1      1519 2.85120E+01 1.09375E+00 0.00000E+00
 -1      1520 2.83740E+01 2.18750E+00 0.00000E+00
 -1      1521 3.30120E+01 1.09375E+00 0.00000E+00
 -1      1522 3.15120E+01 1.09375E+00 0.00000E+00
 -1      1523 3.13740E+01 2.18750E+00 0.00000E+00
 -1      1524 3.60120E+01 1.09375E+00 0.00000E+00
 -1      1525 3.45120E+01 1.09375E+00 0.00000E+00
 -1      1526 3.43740E+01 2.18750E+00 0.00000E+00
 -1      1527 3.90120E+01 1.09375E+00 0.00000E+00
 -1      1528 3.75120E+01 1.09375E+00 0.00000E+00
 -1      1529 3.73740E+01 2.18750E+00 0.00000E+00
 -1      1530 4.20120E+01 1.09375E+00 0.00000E+00
 -1      1531 4.05120E+01 1.09375E+00 0.00000E+00
 -1      1532 4.03740E+01 2.18750E+00 0.00000E+00
 -1      1533 4.50120E+01 1.09375E+00 0.00000E+00
 -1      1534 4.35120E+01 1.09375E+00 0.00000E+00
 -1      1535 4.33740E+01 2.18750E+00 0.00000E+00
 -1      1536 4.80120E+01 1.09375E+00 0.00000E+00
 -1      1537 4.65120E+01 1.09375E+00 0.00000E+00
 -1      1538 4.63740E+01 2.18750E+00 0.00000E+00
 -1      1539 5.10120E+01 1.09375E+00 0.00000E+00
 -1      1540 4.95120E+01 1.09375E+00 0.00000E+00
 -1      1541 4.93740E+01 2.18750E+00 0.00000E+00
 -1      1542 5.40120E+01 1.09375E+00 0.00000E+00
 -1      1543 5.25120E+01 1.09375E+00 0.00000E+00
 -1      1544 5.23740E+01 2.18750E+00 0.00000E+00
 -1      1545 5.70120E+01 1.09375E+00 0.00000E+00
 -1      1546 5.55120E+01 1.09375E+00 0.00000E+00
 -1      1547 5.53740E+01 2.18750E+00 0.00000E+00
 -1      1548 6.00120E+01 1.09375E+00 0.00000E+00
 -1      1549 5.85120E+01 1.09375E+00 0.00000E+00
 -1      1550 5.83740E+01 2.18750E+00 0.00000E+00
 -1      1551 6.30120E+01 1.09375E+00 0.00000E+00
 -1      1552 6.15120E+01 1.09375E+00 0.00000E+00
 -1      1553 6.13740E+01 2.18750E+00 0.00000E+00
 -1      1554 6.60120E+01 1.09375E+00 0.00000E+00
 -1      1555 6.45120E+01 1.09375E+00 0.00000E+00
 -1      1556 6.43740E+01 2.18750E+00 0.00000E+00
 -1      1557 6.90120E+01 1.09375E+00 0.00000E+00
 -1      1558 6.75120E+01 1.09375E+00 0.00000E+00
 -1      1559 6.73740E+01 2.18750E+00 0.00000E+00
 -1      1560 7.20120E+01 1.09375E+00 0.00000E+00
 -1      1561 7.05120E+01 1.09375E+00 0.00000E+00
 -1      1562 7.03740E+01 2.18750E+00 0.00000E+00
 -1      1563 7.50120E+01 1.09375E+00 0.00000E+00
 -1      1564 7.35120E+01 1.09375E+00 0.00000E+00
 -1      1565 7.33740E+01 2.18750E+00 0.00000E+00
 -1      1566 7.80120E+01 1.09375E+00 0.00000E+00
 -1      1567 7.65120E+01 1.09375E+00 0.00000E+00
 -1      1568 7.63740E+01 2.18750E+00 0.00000E+00
 -1      1569 8.10120E+01 1.09375E+00 0.00000E+00
 -1      1570 7.95120E+01 1.09375E+00 0.00000E+00
 -1      1571 7.93740E+01 2.18750E+00 0.00000E+00
 -1      1572 8.40120E+01 1.09375E+00 0.00000E+00
 -1      1573 8.25120E+01 1.09375E+00 0.00000E+00
 -1      1574 8.23740E+01 2.18750E+00 0.00000E+00
 -1      1575 8.70120E+01 1.09375E+00 0.00000E+00
 -1      1576 8.55120E+01 1.09375E+00 0.00000E+00
 -1      1577 8.53740E+01 2.18750E+00 0.00000E+00
 -1      1578 9.00120E+01 1.09375E+00 0.00000E+00
 -1      1579 8.85120E+01 1.09375E+00 0.00000E+00
 -1      1580 8.83740E+01 2.18750E+00 0.00000E+00
 -1      1581 9.30120E+01 1.09375E+00 0.00000E+00
 -1      1582 9.15120E+01 1.09375E+00 0.00000E+00
 -1      1583 9.13740E+01 2.18750E+00 0.00000E+00
 -1      1584 9.60120E+01 1.09375E+00 0.00000E+00
 -1      1585 9.45120E+01 1.09375E+00 0.00000E+00
 -1      1586 9.43740E+01 2.18750E+00 0.00000E+00
 -1      1587 9.90120E+01 1.09375E+00 0.00000E+00
 -1      1588 9.75120E+01 1.09375E+00 0.00000E+00
 -1      1589 9.73740E+01 2.18750E+00 0.00000E+00
 -1      1590 1.02012E+02 1.09375E+00 0.00000E+00
 -1      1591 1.00512E+02 1.09375E+00 0.00000E+00
 -1      1592 1.00374E+02 2.18750E+00 0.00000E+00
 -1      1593 1.05012E+02 1.09375E+00 0.00000E+00
 -1      1594 1.03512E+02 1.09375E+00 0.00000E+00
 -1      1595 1.03374E+02 2.18750E+00 0.00000E+00
 -1      1596 1.08012E+02 1.09375E+00 0.00000E+00
 -1      1597 1.06512E+02 1.09375E+00 0.00000E+00
 -1      1598 1.06374E+02 2.18750E+00 0.00000E+00
 -1      1599 1.11012E+02 1.09375E+00 0.00000E+00
 -1      1600 1.09512E+02 1.09375E+00 0.00000E+00
 -1      1601 1.09374E+02 2.18750E+00 0.00000E+00
 -1      1602 1.14012E+02 1.09375E+00 0.00000E+00
 -1      1603 1.12512E+02 1.09375E+00 0.00000E+00
 -1      1604 1.12374E+02 2.18750E+00 0.00000E+00
 -1      1605 1.17012E+02 1.09375E+00 0.00000E+00
 -1      1606 1.15512E+02 1.09375E+00 0.00000E+00
 -1      1607 1.15374E+02 2.18750E+00 0.00000E+00
 -1      1608 1.20012E+02 1.09375E+00 0.00000E+00
 -1      1609 1.18512E+02 1.09375E+00 0.00000E+00
 -1      1610 1.18374E+02 2.18750E+00 0.00000E+00
 -1      1611 1.23012E+02 1.09375E+00 0.00000E+00
 -1      1612 1.21512E+02 1.09375E+00 0.00000E+00
 -1      1613 1.21374E+02 2.18750E+00 0.00000E+00
 -1      1614 1.26012E+02 1.09375E+00 0.00000E+00
 -1      1615 1.24512E+02 1.09375E+00 0.00000E+00
 -1      1616 1.24374E+02 2.18750E+00 0.00000E+00
 -1      1617 1.29012E+02 1.09375E+00 0.00000E+00
 -1      1618 1.27512E+02 1.09375E+00 0.00000E+00
 -1      1619 1.27374E+02 2.18750E+00 0.00000E+00
 -1      1620 1.32012E+02 1.09375E+00 0.00000E+00
 -1      1621 1.30512E+02 1.09375E+00 0.00000E+00
 -1      1622 1.30374E+02 2.18750E+00 0.00000E+00
 -1      1623 1.35012E+02 1.09375E+00 0.00000E+00
 -1      1624 1.33512E+02 1.09375E+00 0.00000E+00
 -1      1625 1.33374E+02 2.18750E+00 0.00000E+00
 -1      1626 1.38012E+02 1.09375E+00 0.00000E+00
 -1      1627 1.36512E+02 1.09375E+00 0.00000E+00
 -1      1628 1.36374E+02 2.18750E+00 0.00000E+00
 -1      1629 1.41012E+02 1.09375E+00 0.00000E+00
 -1      1630 1.39512E+02 1.09375E+00 0.00000E+00
 -1      1631 1.39374E+02 2.18750E+00 0.00000E+00
 -1      1632 1.44012E+02 1.09375E+00 0.00000E+00
 -1      1633 1.42512E+02 1.09375E+00 0.00000E+00
 -1      1634 1.42374E+02 2.18750E+00 0.00000E+00
 -1      1635 1.47012E+02 1.09375E+00 0.00000E+00
 -1      1636 1.45512E+02 1.09375E+00 0.00000E+00
 -1      1637 1.45374E+02 2.18750E+00 0.00000E+00
 -1      1638 1.48575E+02 1.47500E+00 0.00000E+00
 -1      1639 1.48701E+02 5.16250E+00 0.00000E+00
 -1      1640 1.48701E+02 3.68750E+00 0.00000E+00
 -1      1641 1.48701E+02 8.11250E+00 0.00000E+00
 -1      1642 1.48701E+02 6.63750E+00 0.00000E+00
 -1      1643 1.47402E+02 5.90000E+00 0.00000E+00
 -1      1644 1.48701E+02 1.10625E+01 0.00000E+00
 -1      1645 1.48701E+02 9.58750E+00 0.00000E+00
 -1      1646 1.47402E+02 8.85000E+00 0.00000E+00
 -1      1647 1.48701E+02 1.40125E+01 0.00000E+00
 -1      1648 1.48701E+02 1.25375E+01 0.00000E+00
 -1      1649 1.47402E+02 1.18000E+01 0.00000E+00
 -1      1650 1.48701E+02 1.69125E+01 0.00000E+00
 -1      1651 1.48701E+02 1.54625E+01 0.00000E+00
 -1      1652 1.47402E+02 1.47250E+01 0.00000E+00
 -1      1653 1.48701E+02 1.98625E+01 0.00000E+00
 -1      1654 1.48701E+02 1.83875E+01 0.00000E+00
 -1      1655 1.47402E+02 1.76500E+01 0.00000E+00
 -1      1656 1.48701E+02 2.28125E+01 0.00000E+00
 -1      1657 1.48701E+02 2.13375E+01 0.00000E+00
 -1      1658 1.47402E+02 2.06000E+01 0.00000E+00
 -1      1659 1.48701E+02 2.57625E+01 0.00000E+00
 -1      1660 1.48701E+02 2.42875E+01 0.00000E+00
 -1      1661 1.47402E+02 2.35500E+01 0.00000E+00
 -1      1662 1.48701E+02 2.87125E+01 0.00000E+00
 -1      1663 1.48701E+02 2.72375E+01 0.00000E+00
 -1      1664 1.47402E+02 2.65000E+01 0.00000E+00
 -1      1665 1.48701E+02 3.16625E+01 0.00000E+00
 -1      1666 1.48701E+02 3.01875E+01 0.00000E+00
 -1      1667 1.47402E+02 2.94500E+01 0.00000E+00
 -1      1668 1.48701E+02 3.45625E+01 0.00000E+00
 -1      1669 1.48701E+02 3.31125E+01 0.00000E+00
 -1      1670 1.47402E+02 3.23750E+01 0.00000E+00
 -1      1671 1.48701E+02 3.75125E+01 0.00000E+00
 -1      1672 1.48701E+02 3.60375E+01 0.00000E+00
 -1      1673 1.47402E+02 3.53000E+01 0.00000E+00
 -1      1674 1.48701E+02 4.04625E+01 0.00000E+00
 -1      1675 1.48701E+02 3.89875E+01 0.00000E+00
 -1      1676 1.47402E+02 3.82500E+01 0.00000E+00
 -1      1677 1.48701E+02 4.34125E+01 0.00000E+00
 -1      1678 1.48701E+02 4.19375E+01 0.00000E+00
 -1      1679 1.47402E+02 4.12000E+01 0.00000E+00
 -1      1680 1.48263E+02 4.60692E+01 0.00000E+00
 -1      1681 1.48263E+02 4.45942E+01 0.00000E+00
 -1      1682 1.46964E+02 4.38568E+01 0.00000E+00
 -1      1683 1.46088E+02 4.62202E+01 0.00000E+00
 -1      1684 6.66761E+01 2.57763E+01 0.00000E+00
 -1      1685 6.67601E+01 2.65386E+01 0.00000E+00
 -1      1686 6.61701E+01 2.42305E+01 0.00000E+00
 -1      1687 6.64052E+01 2.49283E+01 0.00000E+00
 -1      1688 6.54530E+01 2.28397E+01 0.00000E+00
 -1      1689 6.58178E+01 2.34579E+01 0.00000E+00
 -1      1690 6.44354E+01 2.16016E+01 0.00000E+00
 -1      1691 6.49417E+01 2.21529E+01 0.00000E+00
 -1      1692 6.31964E+01 2.05150E+01 0.00000E+00
 -1      1693 6.38201E+01 2.09524E+01 0.00000E+00
 -1      1694 6.17136E+01 1.98340E+01 0.00000E+00
 -1      1695 6.23970E+01 2.01202E+01 0.00000E+00
 -1      1696 6.01813E+01 1.94926E+01 0.00000E+00
 -1      1697 6.08838E+01 1.96264E+01 0.00000E+00
 -1      1698 5.86145E+01 1.93930E+01 0.00000E+00
 -1      1699 5.93414E+01 1.93798E+01 0.00000E+00
 -1      1700 5.69520E+01 1.96521E+01 0.00000E+00
 -1      1701 5.77188E+01 1.94684E+01 0.00000E+00
 -1      1702 5.54818E+01 2.03470E+01 0.00000E+00
 -1      1703 5.61369E+01 2.00288E+01 0.00000E+00
 -1      1704 5.41929E+01 2.12353E+01 0.00000E+00
 -1      1705 5.47627E+01 2.07933E+01 0.00000E+00
 -1      1706 5.31006E+01 2.23902E+01 0.00000E+00
 -1      1707 5.35779E+01 2.18259E+01 0.00000E+00
 -1      1708 5.21738E+01 2.37656E+01 0.00000E+00
 -1      1709 5.25343E+01 2.30829E+01 0.00000E+00
 -1      1710 5.17297E+01 2.53044E+01 0.00000E+00
 -1      1711 5.19231E+01 2.46121E+01 0.00000E+00
 -1      1712 5.15001E+01 2.69018E+01 0.00000E+00
 -1      1713 5.15467E+01 2.61497E+01 0.00000E+00
 -1      1714 5.16947E+01 2.85151E+01 0.00000E+00
 -1      1715 5.15813E+01 2.77784E+01 0.00000E+00
 -1      1716 5.21306E+01 3.01293E+01 0.00000E+00
 -1      1717 5.18485E+01 2.94039E+01 0.00000E+00
 -1      1718 5.29876E+01 3.14543E+01 0.00000E+00
 -1      1719 5.26016E+01 3.08685E+01 0.00000E+00
 -1      1720 5.39984E+01 3.25856E+01 0.00000E+00
 -1      1721 5.35043E+01 3.20894E+01 0.00000E+00
 -1      1722 5.52109E+01 3.35384E+01 0.00000E+00
 -1      1723 5.46150E+01 3.31437E+01 0.00000E+00
 -1      1724 5.65975E+01 3.41447E+01 0.00000E+00
 -1      1725 5.59589E+01 3.38865E+01 0.00000E+00
 -1      1726 5.81180E+01 3.46731E+01 0.00000E+00
 -1      1727 5.73774E+01 3.45399E+01 0.00000E+00
 -1      1728 5.96672E+01 3.45558E+01 0.00000E+00
 -1      1729 5.89837E+01 3.45746E+01 0.00000E+00
 -1      1730 6.12242E+01 3.43597E+01 0.00000E+00
 -1      1731 6.05081E+01 3.45279E+01 0.00000E+00
 -1      1732 6.26028E+01 3.37269E+01 0.00000E+00
 -1      1733 6.19869E+01 3.40117E+01 0.00000E+00
 -1      1734 6.38569E+01 3.29094E+01 0.00000E+00
 -1      1735 6.32946E+01 3.33192E+01 0.00000E+00
 -1      1736 6.50513E+01 3.18357E+01 0.00000E+00
 -1      1737 6.45462E+01 3.23962E+01 0.00000E+00
 -1      1738 6.58449E+01 3.04834E+01 0.00000E+00
 -1      1739 6.54922E+01 3.10926E+01 0.00000E+00
 -1      1740 6.64671E+01 2.89874E+01 0.00000E+00
 -1      1741 6.62309E+01 2.97129E+01 0.00000E+00
 -1      1742 6.67241E+01 2.74190E+01 0.00000E+00
 -1      1743 6.66505E+01 2.81333E+01 0.00000E+00
 -1      1744 6.45198E+01 2.08180E+01 0.00000E+00
 -1      1745 6.56462E+01 2.21540E+01 0.00000E+00
 -1      1746 1.48437E+02 2.56875E+00 0.00000E+00
 -1      1747 1.47138E+02 3.30625E+00 0.00000E+00
 -1      1748 6.71330E+01 2.52339E+01 0.00000E+00
 -1      1749 6.65098E+01 2.36133E+01 0.00000E+00
 -1      1750 6.73680E+01 2.69623E+01 0.00000E+00
 -1      1751 6.31051E+01 1.97741E+01 0.00000E+00
 -1      1752 6.14758E+01 1.91717E+01 0.00000E+00
 -1      1753 5.98060E+01 1.88512E+01 0.00000E+00
 -1      1754 5.80704E+01 1.88138E+01 0.00000E+00
 -1      1755 5.63596E+01 1.92659E+01 0.00000E+00
 -1      1756 5.48254E+01 2.00890E+01 0.00000E+00
 -1      1757 5.34914E+01 2.11259E+01 0.00000E+00
 -1      1758 5.23102E+01 2.24093E+01 0.00000E+00
 -1      1759 5.14932E+01 2.39486E+01 0.00000E+00
 -1      1760 5.10596E+01 2.56404E+01 0.00000E+00
 -1      1761 5.09577E+01 2.73624E+01 0.00000E+00
 -1      1762 5.11927E+01 2.91278E+01 0.00000E+00
 -1      1763 5.18175E+01 3.07558E+01 0.00000E+00
 -1      1764 5.28051E+01 3.21301E+01 0.00000E+00
 -1      1765 5.39384E+01 3.33233E+01 0.00000E+00
 -1      1766 5.53030E+01 3.42295E+01 0.00000E+00
 -1      1767 5.68309E+01 3.49728E+01 0.00000E+00
 -1      1768 5.84765E+01 3.52696E+01 0.00000E+00
 -1      1769 6.01831E+01 3.51433E+01 0.00000E+00
 -1      1770 6.17866E+01 3.47675E+01 0.00000E+00
 -1      1771 6.32410E+01 3.40119E+01 0.00000E+00
 -1      1772 6.46221E+01 3.30910E+01 0.00000E+00
 -1      1773 6.57523E+01 3.18347E+01 0.00000E+00
 -1      1774 6.65792E+01 3.03212E+01 0.00000E+00
 -1      1775 6.71486E+01 2.86967E+01 0.00000E+00
 -1      1776 2.87400E+00 4.77875E+01 0.00000E+00
 -1      1777 3.89700E+00 4.04125E+01 0.00000E+00
 -1      1778 3.89700E+00 4.18875E+01 0.00000E+00
 -1      1779 3.89700E+00 4.33625E+01 0.00000E+00
 -1      1780 3.89700E+00 4.48375E+01 0.00000E+00
 -1      1781 5.19600E+00 4.26250E+01 0.00000E+00
 -1      1782 3.89700E+00 3.45500E+01 0.00000E+00
 -1      1783 3.89700E+00 3.60000E+01 0.00000E+00
 -1      1784 3.89700E+00 3.16000E+01 0.00000E+00
 -1      1785 3.89700E+00 3.30750E+01 0.00000E+00
 -1      1786 5.19600E+00 3.38000E+01 0.00000E+00
 -1      1787 3.89700E+00 2.86500E+01 0.00000E+00
 -1      1788 3.89700E+00 3.01250E+01 0.00000E+00
 -1      1789 5.19600E+00 3.08500E+01 0.00000E+00
 -1      1790 3.89700E+00 2.57000E+01 0.00000E+00
 -1      1791 3.89700E+00 2.71750E+01 0.00000E+00
 -1      1792 5.19600E+00 2.79000E+01 0.00000E+00
 -1      1793 3.89700E+00 2.27500E+01 0.00000E+00
 -1      1794 3.89700E+00 2.42250E+01 0.00000E+00
 -1      1795 5.19600E+00 2.49500E+01 0.00000E+00
 -1      1796 3.89700E+00 1.98000E+01 0.00000E+00
 -1      1797 3.89700E+00 2.12750E+01 0.00000E+00
 -1      1798 5.19600E+00 2.20000E+01 0.00000E+00
 -1      1799 3.89700E+00 1.69000E+01 0.00000E+00
 -1      1800 3.89700E+00 1.83500E+01 0.00000E+00
 -1      1801 5.19600E+00 1.90750E+01 0.00000E+00
 -1      1802 3.89700E+00 1.39500E+01 0.00000E+00
 -1      1803 3.89700E+00 1.54250E+01 0.00000E+00
 -1      1804 5.19600E+00 1.61500E+01 0.00000E+00
 -1      1805 3.89700E+00 1.10000E+01 0.00000E+00
 -1      1806 3.89700E+00 1.24750E+01 0.00000E+00
 -1      1807 5.19600E+00 1.32000E+01 0.00000E+00
 -1      1808 3.89700E+00 8.05000E+00 0.00000E+00
 -1      1809 3.89700E+00 9.52500E+00 0.00000E+00
 -1      1810 5.19600E+00 1.02500E+01 0.00000E+00
 -1      1811 3.89700E+00 5.10000E+00 0.00000E+00
 -1      1812 3.89700E+00 6.57500E+00 0.00000E+00
 -1      1813 5.19600E+00 7.30000E+00 0.00000E+00
 -1      1814 4.20450E+00 3.09687E+00 0.00000E+00
 -1      1815 4.06650E+00 4.19063E+00 0.00000E+00
 -1      1816 5.36550E+00 4.91563E+00 0.00000E+00
 -1      1817 5.70450E+00 3.09687E+00 0.00000E+00
 -1      1818 3.62400E+00 4.64885E+01 0.00000E+00
 -1      1819 8.70450E+00 3.09687E+00 0.00000E+00
 -1      1820 7.20450E+00 3.09687E+00 0.00000E+00
 -1      1821 7.03500E+00 4.00625E+00 0.00000E+00
 -1      1822 4.92300E+00 4.57510E+01 0.00000E+00
 -1      1823 8.40000E+00 4.61030E+01 0.00000E+00
 -1      1824 9.90000E+00 4.61030E+01 0.00000E+00
 -1      1825 1.14000E+01 4.61030E+01 0.00000E+00
 -1      1826 1.29000E+01 4.61030E+01 0.00000E+00
 -1      1827 1.06500E+01 4.48040E+01 0.00000E+00
 -1      1828 1.44000E+01 4.61030E+01 0.00000E+00
 -1      1829 1.59000E+01 4.61030E+01 0.00000E+00
 -1      1830 1.36500E+01 4.48040E+01 0.00000E+00
 -1      1831 1.74000E+01 4.61030E+01 0.00000E+00
 -1      1832 1.89000E+01 4.61030E+01 0.00000E+00
 -1      1833 1.66500E+01 4.48040E+01 0.00000E+00
 -1      1834 2.04000E+01 4.61030E+01 0.00000E+00
 -1      1835 2.19000E+01 4.61030E+01 0.00000E+00
 -1      1836 1.96500E+01 4.48040E+01 0.00000E+00
 -1      1837 2.34000E+01 4.61030E+01 0.00000E+00
 -1      1838 2.49000E+01 4.61030E+01 0.00000E+00
 -1      1839 2.26500E+01 4.48040E+01 0.00000E+00
 -1      1840 2.64000E+01 4.61030E+01 0.00000E+00
 -1      1841 2.79000E+01 4.61030E+01 0.00000E+00
 -1      1842 2.56500E+01 4.48040E+01 0.00000E+00
 -1      1843 2.94000E+01 4.61030E+01 0.00000E+00
 -1      1844 3.09000E+01 4.61030E+01 0.00000E+00
 -1      1845 2.86500E+01 4.48040E+01 0.00000E+00
 -1      1846 3.24000E+01 4.61030E+01 0.00000E+00
 -1      1847 3.39000E+01 4.61030E+01 0.00000E+00
 -1      1848 3.16500E+01 4.48040E+01 0.00000E+00
 -1      1849 3.54000E+01 4.61030E+01 0.00000E+00
 -1      1850 3.69000E+01 4.61030E+01 0.00000E+00
 -1      1851 3.46500E+01 4.48040E+01 0.00000E+00
 -1      1852 3.84000E+01 4.61030E+01 0.00000E+00
 -1      1853 3.99000E+01 4.61030E+01 0.00000E+00
 -1      1854 3.76500E+01 4.48040E+01 0.00000E+00
 -1      1855 4.14000E+01 4.61030E+01 0.00000E+00
 -1      1856 4.29000E+01 4.61030E+01 0.00000E+00
 -1      1857 4.06500E+01 4.48040E+01 0.00000E+00
 -1      1858 4.44000E+01 4.61030E+01 0.00000E+00
 -1      1859 4.59000E+01 4.61030E+01 0.00000E+00
 -1      1860 4.36500E+01 4.48040E+01 0.00000E+00
 -1      1861 4.74000E+01 4.61030E+01 0.00000E+00
 -1      1862 4.89000E+01 4.61030E+01 0.00000E+00
 -1      1863 4.66500E+01 4.48040E+01 0.00000E+00
 -1      1864 5.04000E+01 4.61030E+01 0.00000E+00
 -1      1865 5.19000E+01 4.61030E+01 0.00000E+00
 -1      1866 4.96500E+01 4.48040E+01 0.00000E+00
 -1      1867 5.34000E+01 4.61030E+01 0.00000E+00
 -1      1868 5.49000E+01 4.61030E+01 0.00000E+00
 -1      1869 5.26500E+01 4.48040E+01 0.00000E+00
 -1      1870 5.64000E+01 4.61030E+01 0.00000E+00
 -1      1871 5.79000E+01 4.61030E+01 0.00000E+00
 -1      1872 5.56500E+01 4.48040E+01 0.00000E+00
 -1      1873 5.94000E+01 4.61030E+01 0.00000E+00
 -1      1874 6.09000E+01 4.61030E+01 0.00000E+00
 -1      1875 5.86500E+01 4.48040E+01 0.00000E+00
 -1      1876 6.24000E+01 4.61030E+01 0.00000E+00
 -1      1877 6.39000E+01 4.61030E+01 0.00000E+00
 -1      1878 6.16500E+01 4.48040E+01 0.00000E+00
 -1      1879 6.54000E+01 4.61030E+01 0.00000E+00
 -1      1880 6.69000E+01 4.61030E+01 0.00000E+00
 -1      1881 6.46500E+01 4.48040E+01 0.00000E+00
 -1      1882 6.84000E+01 4.61030E+01 0.00000E+00
 -1      1883 6.99000E+01 4.61030E+01 0.00000E+00
 -1      1884 6.76500E+01 4.48040E+01 0.00000E+00
 -1      1885 7.14000E+01 4.61030E+01 0.00000E+00
 -1      1886 7.29000E+01 4.61030E+01 0.00000E+00
 -1      1887 7.06500E+01 4.48040E+01 0.00000E+00
 -1      1888 7.44000E+01 4.61030E+01 0.00000E+00
 -1      1889 7.59000E+01 4.61030E+01 0.00000E+00
 -1      1890 7.36500E+01 4.48040E+01 0.00000E+00
 -1      1891 7.74000E+01 4.61030E+01 0.00000E+00
 -1      1892 7.89000E+01 4.61030E+01 0.00000E+00
 -1      1893 7.66500E+01 4.48040E+01 0.00000E+00
 -1      1894 8.04000E+01 4.61030E+01 0.00000E+00
 -1      1895 8.19000E+01 4.61030E+01 0.00000E+00
 -1      1896 7.96500E+01 4.48040E+01 0.00000E+00
 -1      1897 8.34000E+01 4.61030E+01 0.00000E+00
 -1      1898 8.49000E+01 4.61030E+01 0.00000E+00
 -1      1899 8.26500E+01 4.48040E+01 0.00000E+00
 -1      1900 8.64000E+01 4.61030E+01 0.00000E+00
 -1      1901 8.79000E+01 4.61030E+01 0.00000E+00
 -1      1902 8.56500E+01 4.48040E+01 0.00000E+00
 -1      1903 8.94000E+01 4.61030E+01 0.00000E+00
 -1      1904 9.09000E+01 4.61030E+01 0.00000E+00
 -1      1905 8.86500E+01 4.48040E+01 0.00000E+00
 -1      1906 9.24000E+01 4.61030E+01 0.00000E+00
 -1      1907 9.39000E+01 4.61030E+01 0.00000E+00
 -1      1908 9.16500E+01 4.48040E+01 0.00000E+00
 -1      1909 9.54000E+01 4.61030E+01 0.00000E+00
 -1      1910 9.69000E+01 4.61030E+01 0.00000E+00
 -1      1911 9.46500E+01 4.48040E+01 0.00000E+00
 -1      1912 9.84000E+01 4.61030E+01 0.00000E+00
 -1      1913 9.99000E+01 4.61030E+01 0.00000E+00
 -1      1914 9.76500E+01 4.48040E+01 0.00000E+00
 -1      1915 1.01400E+02 4.61030E+01 0.00000E+00
 -1      1916 1.02900E+02 4.61030E+01 0.00000E+00
 -1      1917 1.00650E+02 4.48040E+01 0.00000E+00
 -1      1918 1.04400E+02 4.61030E+01 0.00000E+00
 -1      1919 1.05900E+02 4.61030E+01 0.00000E+00
 -1      1920 1.03650E+02 4.48040E+01 0.00000E+00
 -1      1921 1.07400E+02 4.61030E+01 0.00000E+00
 -1      1922 1.08900E+02 4.61030E+01 0.00000E+00
 -1      1923 1.06650E+02 4.48040E+01 0.00000E+00
 -1      1924 1.10400E+02 4.61030E+01 0.00000E+00
 -1      1925 1.11900E+02 4.61030E+01 0.00000E+00
 -1      1926 1.09650E+02 4.48040E+01 0.00000E+00
 -1      1927 1.13400E+02 4.61030E+01 0.00000E+00
 -1      1928 1.14900E+02 4.61030E+01 0.00000E+00
 -1      1929 1.12650E+02 4.48040E+01 0.00000E+00
 -1      1930 1.16400E+02 4.61030E+01 0.00000E+00
 -1      1931 1.17900E+02 4.61030E+01 0.00000E+00
 -1      1932 1.15650E+02 4.48040E+01 0.00000E+00
 -1      1933 1.19400E+02 4.61030E+01 0.00000E+00
 -1      1934 1.20900E+02 4.61030E+01 0.00000E+00
 -1      1935 1.18650E+02 4.48040E+01 0.00000E+00
 -1      1936 1.22400E+02 4.61030E+01 0.00000E+00
 -1      1937 1.23900E+02 4.61030E+01 0.00000E+00
 -1      1938 1.21650E+02 4.48040E+01 0.00000E+00
 -1      1939 1.25400E+02 4.61030E+01 0.00000E+00
 -1      1940 1.26900E+02 4.61030E+01 0.00000E+00
 -1      1941 1.24650E+02 4.48040E+01 0.00000E+00
 -1      1942 1.28400E+02 4.61030E+01 0.00000E+00
 -1      1943 1.29900E+02 4.61030E+01 0.00000E+00
 -1      1944 1.27650E+02 4.48040E+01 0.00000E+00
 -1      1945 1.31400E+02 4.61030E+01 0.00000E+00
 -1      1946 1.32900E+02 4.61030E+01 0.00000E+00
 -1      1947 1.30650E+02 4.48040E+01 0.00000E+00
 -1      1948 1.34400E+02 4.61030E+01 0.00000E+00
 -1      1949 1.35900E+02 4.61030E+01 0.00000E+00
 -1      1950 1.33650E+02 4.48040E+01 0.00000E+00
 -1      1951 1.37400E+02 4.61030E+01 0.00000E+00
 -1      1952 1.38900E+02 4.61030E+01 0.00000E+00
 -1      1953 1.36650E+02 4.48040E+01 0.00000E+00
 -1      1954 1.40400E+02 4.61030E+01 0.00000E+00
 -1      1955 1.41900E+02 4.61030E+01 0.00000E+00
 -1      1956 1.39650E+02 4.48040E+01 0.00000E+00
 -1      1957 1.43244E+02 4.61616E+01 0.00000E+00
 -1      1958 1.44744E+02 4.61616E+01 0.00000E+00
 -1      1959 1.45182E+02 4.49799E+01 0.00000E+00
 -1      1960 1.42494E+02 4.48626E+01 0.00000E+00
 -1      1961 1.17045E+01 3.09687E+00 0.00000E+00
 -1      1962 1.02045E+01 3.09687E+00 0.00000E+00
 -1      1963 1.00350E+01 4.00625E+00 0.00000E+00
 -1      1964 1.47045E+01 3.09687E+00 0.00000E+00
 -1      1965 1.32045E+01 3.09687E+00 0.00000E+00
 -1      1966 1.30350E+01 4.00625E+00 0.00000E+00
 -1      1967 1.77045E+01 3.09687E+00 0.00000E+00
 -1      1968 1.62045E+01 3.09687E+00 0.00000E+00
 -1      1969 1.60350E+01 4.00625E+00 0.00000E+00
 -1      1970 2.07045E+01 3.09687E+00 0.00000E+00
 -1      1971 1.92045E+01 3.09687E+00 0.00000E+00
 -1      1972 1.90350E+01 4.00625E+00 0.00000E+00
 -1      1973 2.37045E+01 3.09687E+00 0.00000E+00
 -1      1974 2.22045E+01 3.09687E+00 0.00000E+00
 -1      1975 2.20350E+01 4.00625E+00 0.00000E+00
 -1      1976 2.67045E+01 3.09687E+00 0.00000E+00
 -1      1977 2.52045E+01 3.09687E+00 0.00000E+00
 -1      1978 2.50350E+01 4.00625E+00 0.00000E+00
 -1      1979 2.97045E+01 3.09687E+00 0.00000E+00
 -1      1980 2.82045E+01 3.09687E+00 0.00000E+00
 -1      1981 2.80350E+01 4.00625E+00 0.00000E+00
 -1      1982 3.27045E+01 3.09687E+00 0.00000E+00
 -1      1983 3.12045E+01 3.09687E+00 0.00000E+00
 -1      1984 3.10350E+01 4.00625E+00 0.00000E+00
 -1      1985 3.57045E+01 3.09687E+00 0.00000E+00
 -1      1986 3.42045E+01 3.09687E+00 0.00000E+00
 -1      1987 3.40350E+01 4.00625E+00 0.00000E+00
 -1      1988 3.87045E+01 3.09687E+00 0.00000E+00
 -1      1989 3.72045E+01 3.09687E+00 0.00000E+00
 -1      1990 3.70350E+01 4.00625E+00 0.00000E+00
 -1      1991 4.17045E+01 3.09687E+00 0.00000E+00
 -1      1992 4.02045E+01 3.09687E+00 0.00000E+00
 -1      1993 4.00350E+01 4.00625E+00 0.00000E+00
 -1      1994 4.47045E+01 3.09687E+00 0.00000E+00
 -1      1995 4.32045E+01 3.09687E+00 0.00000E+00
 -1      1996 4.30350E+01 4.00625E+00 0.00000E+00
 -1      1997 4.77045E+01 3.09687E+00 0.00000E+00
 -1      1998 4.62045E+01 3.09687E+00 0.00000E+00
 -1      1999 4.60350E+01 4.00625E+00 0.00000E+00
 -1      2000 5.07045E+01 3.09687E+00 0.00000E+00
 -1      2001 4.92045E+01 3.09687E+00 0.00000E+00
 -1      2002 4.90350E+01 4.00625E+00 0.00000E+00
 -1      2003 5.37045E+01 3.09687E+00 0.00000E+00
 -1      2004 5.22045E+01 3.09687E+00 0.00000E+00
 -1      2005 5.20350E+01 4.00625E+00 0.00000E+00
 -1      2006 5.67045E+01 3.09687E+00 0.00000E+00
 -1      2007 5.52045E+01 3.09687E+00 0.00000E+00
 -1      2008 5.50350E+01 4.00625E+00 0.00000E+00
 -1      2009 5.97045E+01 3.09687E+00 0.00000E+00
 -1      2010 5.82045E+01 3.09687E+00 0.00000E+00
 -1      2011 5.80350E+01 4.00625E+00 0.00000E+00
 -1      2012 6.27045E+01 3.09687E+00 0.00000E+00
 -1      2013 6.12045E+01 3.09687E+00 0.00000E+00
 -1      2014 6.10350E+01 4.00625E+00 0.00000E+00
 -1      2015 6.57045E+01 3.09687E+00 0.00000E+00
 -1      2016 6.42045E+01 3.09687E+00 0.00000E+00
 -1      2017 6.40350E+01 4.00625E+00 0.00000E+00
 -1      2018 6.87045E+01 3.09687E+00 0.00000E+00
 -1      2019 6.72045E+01 3.09687E+00 0.00000E+00
 -1      2020 6.70350E+01 4.00625E+00 0.00000E+00
 -1      2021 7.17045E+01 3.09687E+00 0.00000E+00
 -1      2022 7.02045E+01 3.09687E+00 0.00000E+00
 -1      2023 7.00350E+01 4.00625E+00 0.00000E+00
 -1      2024 7.47045E+01 3.09687E+00 0.00000E+00
 -1      2025 7.32045E+01 3.09687E+00 0.00000E+00
 -1      2026 7.30350E+01 4.00625E+00 0.00000E+00
 -1      2027 7.77045E+01 3.09687E+00 0.00000E+00
 -1      2028 7.62045E+01 3.09687E+00 0.00000E+00
 -1      2029 7.60350E+01 4.00625E+00 0.00000E+00
 -1      2030 8.07045E+01 3.09687E+00 0.00000E+00
 -1      2031 7.92045E+01 3.09687E+00 0.00000E+00
 -1      2032 7.90350E+01 4.00625E+00 0.00000E+00
 -1      2033 8.37045E+01 3.09687E+00 0.00000E+00
 -1      2034 8.22045E+01 3.09687E+00 0.00000E+00
 -1      2035 8.20350E+01 4.00625E+00 0.00000E+00
 -1      2036 8.67045E+01 3.09687E+00 0.00000E+00
 -1      2037 8.52045E+01 3.09687E+00 0.00000E+00
 -1      2038 8.50350E+01 4.00625E+00 0.00000E+00
 -1      2039 8.97045E+01 3.09687E+00 0.00000E+00
 -1      2040 8.82045E+01 3.09687E+00 0.00000E+00
 -1      2041 8.80350E+01 4.00625E+00 0.00000E+00
 -1      2042 9.27045E+01 3.09687E+00 0.00000E+00
 -1      2043 9.12045E+01 3.09687E+00 0.00000E+00
 -1      2044 9.10350E+01 4.00625E+00 0.00000E+00
 -1      2045 9.57045E+01 3.09687E+00 0.00000E+00
 -1      2046 9.42045E+01 3.09687E+00 0.00000E+00
 -1      2047 9.40350E+01 4.00625E+00 0.00000E+00
 -1      2048 9.87045E+01 3.09687E+00 0.00000E+00
 -1      2049 9.72045E+01 3.09687E+00 0.00000E+00
 -1      2050 9.70350E+01 4.00625E+00 0.00000E+00
 -1      2051 1.01704E+02 3.09687E+00 0.00000E+00
 -1      2052 1.00204E+02 3.09687E+00 0.00000E+00
 -1      2053 1.00035E+02 4.00625E+00 0.00000E+00
 -1      2054 1.04704E+02 3.09687E+00 0.00000E+00
 -1      2055 1.03204E+02 3.09687E+00 0.00000E+00
 -1      2056 1.03035E+02 4.00625E+00 0.00000E+00
 -1      2057 1.07704E+02 3.09687E+00 0.00000E+00
 -1      2058 1.06204E+02 3.09687E+00 0.00000E+00
 -1      2059 1.06035E+02 4.00625E+00 0.00000E+00
 -1      2060 1.10704E+02 3.09687E+00 0.00000E+00
 -1      2061 1.09204E+02 3.09687E+00 0.00000E+00
 -1      2062 1.09035E+02 4.00625E+00 0.00000E+00
 -1      2063 1.13704E+02 3.09687E+00 0.00000E+00
 -1      2064 1.12204E+02 3.09687E+00 0.00000E+00
 -1      2065 1.12035E+02 4.00625E+00 0.00000E+00
 -1      2066 1.16704E+02 3.09687E+00 0.00000E+00
 -1      2067 1.15204E+02 3.09687E+00 0.00000E+00
 -1      2068 1.15035E+02 4.00625E+00 0.00000E+00
 -1      2069 1.19704E+02 3.09687E+00 0.00000E+00
 -1      2070 1.18204E+02 3.09687E+00 0.00000E+00
 -1      2071 1.18035E+02 4.00625E+00 0.00000E+00
 -1      2072 1.22704E+02 3.09687E+00 0.00000E+00
 -1      2073 1.21204E+02 3.09687E+00 0.00000E+00
 -1      2074 1.21035E+02 4.00625E+00 0.00000E+00
 -1      2075 1.25704E+02 3.09687E+00 0.00000E+00
 -1      2076 1.24204E+02 3.09687E+00 0.00000E+00
 -1      2077 1.24035E+02 4.00625E+00 0.00000E+00
 -1      2078 1.28704E+02 3.09687E+00 0.00000E+00
 -1      2079 1.27204E+02 3.09687E+00 0.00000E+00
 -1      2080 1.27035E+02 4.00625E+00 0.00000E+00
 -1      2081 1.31704E+02 3.09687E+00 0.00000E+00
 -1      2082 1.30204E+02 3.09687E+00 0.00000E+00
 -1      2083 1.30035E+02 4.00625E+00 0.00000E+00
 -1      2084 1.34704E+02 3.09687E+00 0.00000E+00
 -1      2085 1.33204E+02 3.09687E+00 0.00000E+00
 -1      2086 1.33035E+02 4.00625E+00 0.00000E+00
 -1      2087 1.37704E+02 3.09687E+00 0.00000E+00
 -1      2088 1.36204E+02 3.09687E+00 0.00000E+00
 -1      2089 1.36035E+02 4.00625E+00 0.00000E+00
 -1      2090 1.40704E+02 3.09687E+00 0.00000E+00
 -1      2091 1.39204E+02 3.09687E+00 0.00000E+00
 -1      2092 1.39035E+02 4.00625E+00 0.00000E+00
 -1      2093 1.43704E+02 3.09687E+00 0.00000E+00
 -1      2094 1.42204E+02 3.09687E+00 0.00000E+00
 -1      2095 1.42035E+02 4.00625E+00 0.00000E+00
 -1      2096 1.46171E+02 3.20156E+00 0.00000E+00
 -1      2097 1.44671E+02 3.20156E+00 0.00000E+00
 -1      2098 1.44502E+02 4.11094E+00 0.00000E+00
 -1      2099 1.46435E+02 4.32031E+00 0.00000E+00
 -1      2100 1.46103E+02 1.25375E+01 0.00000E+00
 -1      2101 1.46103E+02 1.10625E+01 0.00000E+00
 -1      2102 1.46103E+02 9.58750E+00 0.00000E+00
 -1      2103 1.46103E+02 8.11250E+00 0.00000E+00
 -1      2104 1.44804E+02 1.03250E+01 0.00000E+00
 -1      2105 1.46269E+02 6.95391E+00 0.00000E+00
 -1      2106 1.46269E+02 5.47891E+00 0.00000E+00
 -1      2107 1.45302E+02 5.37422E+00 0.00000E+00
 -1      2108 1.44970E+02 7.69141E+00 0.00000E+00
 -1      2109 1.46103E+02 1.54375E+01 0.00000E+00
 -1      2110 1.46103E+02 1.39875E+01 0.00000E+00
 -1      2111 1.44804E+02 1.32500E+01 0.00000E+00
 -1      2112 1.46103E+02 1.83875E+01 0.00000E+00
 -1      2113 1.46103E+02 1.69125E+01 0.00000E+00
 -1      2114 1.44804E+02 1.61750E+01 0.00000E+00
 -1      2115 1.46103E+02 2.13375E+01 0.00000E+00
 -1      2116 1.46103E+02 1.98625E+01 0.00000E+00
 -1      2117 1.44804E+02 1.91250E+01 0.00000E+00
 -1      2118 1.46103E+02 2.42875E+01 0.00000E+00
 -1      2119 1.46103E+02 2.28125E+01 0.00000E+00
 -1      2120 1.44804E+02 2.20750E+01 0.00000E+00
 -1      2121 1.46103E+02 2.72375E+01 0.00000E+00
 -1      2122 1.46103E+02 2.57625E+01 0.00000E+00
 -1      2123 1.44804E+02 2.50250E+01 0.00000E+00
 -1      2124 1.46103E+02 3.01875E+01 0.00000E+00
 -1      2125 1.46103E+02 2.87125E+01 0.00000E+00
 -1      2126 1.44804E+02 2.79750E+01 0.00000E+00
 -1      2127 1.46103E+02 3.30875E+01 0.00000E+00
 -1      2128 1.46103E+02 3.16375E+01 0.00000E+00
 -1      2129 1.44804E+02 3.09000E+01 0.00000E+00
 -1      2130 1.46103E+02 3.60375E+01 0.00000E+00
 -1      2131 1.46103E+02 3.45625E+01 0.00000E+00
 -1      2132 1.44804E+02 3.38250E+01 0.00000E+00
 -1      2133 1.46103E+02 3.89875E+01 0.00000E+00
 -1      2134 1.46103E+02 3.75125E+01 0.00000E+00
 -1      2135 1.44804E+02 3.67750E+01 0.00000E+00
 -1      2136 1.46103E+02 4.19375E+01 0.00000E+00
 -1      2137 1.46103E+02 4.04625E+01 0.00000E+00
 -1      2138 1.44804E+02 3.97250E+01 0.00000E+00
 -1      2139 6.69233E+01 2.29581E+01 0.00000E+00
 -1      2140 6.72756E+01 2.37307E+01 0.00000E+00
 -1      2141 6.82428E+01 2.65571E+01 0.00000E+00
 -1      2142 6.82068E+01 2.74375E+01 0.00000E+00
 -1      2143 6.77346E+01 2.45744E+01 0.00000E+00
 -1      2144 6.80056E+01 2.54224E+01 0.00000E+00
 -1      2145 6.60785E+01 2.12985E+01 0.00000E+00
 -1      2146 6.65897E+01 2.19853E+01 0.00000E+00
 -1      2147 6.48480E+01 2.00001E+01 0.00000E+00
 -1      2148 6.54633E+01 2.06493E+01 0.00000E+00
 -1      2149 6.64068E+01 2.04807E+01 0.00000E+00
 -1      2150 3.89700E+00 3.74688E+01 0.00000E+00
 -1      2151 3.89700E+00 3.89437E+01 0.00000E+00
 -1      2152 5.19600E+00 3.96813E+01 0.00000E+00
 -1      2153 5.19600E+00 3.67438E+01 0.00000E+00
 -1      2154 6.12284E+01 1.83985E+01 0.00000E+00
 -1      2155 6.20583E+01 1.86062E+01 0.00000E+00
 -1      2156 5.94724E+01 1.81525E+01 0.00000E+00
 -1      2157 6.03122E+01 1.82652E+01 0.00000E+00
 -1      2158 5.75506E+01 1.79970E+01 0.00000E+00
 -1      2159 5.84463E+01 1.79216E+01 0.00000E+00
 -1      2160 5.55923E+01 1.86758E+01 0.00000E+00
 -1      2161 5.64074E+01 1.82991E+01 0.00000E+00
 -1      2162 5.41541E+01 1.95685E+01 0.00000E+00
 -1      2163 5.48732E+01 1.91222E+01 0.00000E+00
 -1      2164 5.49210E+01 1.81554E+01 0.00000E+00
 -1      2165 5.27059E+01 2.09236E+01 0.00000E+00
 -1      2166 5.33209E+01 2.03330E+01 0.00000E+00
 -1      2167 5.14928E+01 2.23190E+01 0.00000E+00
 -1      2168 5.20591E+01 2.16262E+01 0.00000E+00
 -1      2169 5.05456E+01 2.41283E+01 0.00000E+00
 -1      2170 5.07963E+01 2.32818E+01 0.00000E+00
 -1      2171 5.03346E+01 2.59260E+01 0.00000E+00
 -1      2172 5.05176E+01 2.50806E+01 0.00000E+00
 -1      2173 5.02695E+01 2.78682E+01 0.00000E+00
 -1      2174 5.01884E+01 2.69915E+01 0.00000E+00
 -1      2175 5.05897E+01 2.96899E+01 0.00000E+00
 -1      2176 5.04359E+01 2.88011E+01 0.00000E+00
 -1      2177 5.14711E+01 3.14962E+01 0.00000E+00
 -1      2178 5.10001E+01 3.07570E+01 0.00000E+00
 -1      2179 5.25607E+01 3.28567E+01 0.00000E+00
 -1      2180 5.20440E+01 3.22215E+01 0.00000E+00
 -1      2181 5.38119E+01 3.40829E+01 0.00000E+00
 -1      2182 5.31952E+01 3.35248E+01 0.00000E+00
 -1      2183 5.54035E+01 3.49911E+01 0.00000E+00
 -1      2184 5.46556E+01 3.46430E+01 0.00000E+00
 -1      2185 5.69633E+01 3.57816E+01 0.00000E+00
 -1      2186 5.61834E+01 3.53863E+01 0.00000E+00
 -1      2187 5.55359E+01 3.57998E+01 0.00000E+00
 -1      2188 5.89968E+01 3.59892E+01 0.00000E+00
 -1      2189 5.81310E+01 3.60877E+01 0.00000E+00
 -1      2190 6.06785E+01 3.59335E+01 0.00000E+00
 -1      2191 5.98377E+01 3.59614E+01 0.00000E+00
 -1      2192 5.94922E+01 3.67794E+01 0.00000E+00
 -1      2193 6.24544E+01 3.52212E+01 0.00000E+00
 -1      2194 6.16917E+01 3.55692E+01 0.00000E+00
 -1      2195 6.38379E+01 3.44059E+01 0.00000E+00
 -1      2196 6.31461E+01 3.48136E+01 0.00000E+00
 -1      2197 6.30513E+01 3.56153E+01 0.00000E+00
 -1      2198 6.53788E+01 3.33878E+01 0.00000E+00
 -1      2199 6.46895E+01 3.39010E+01 0.00000E+00
 -1      2200 6.66021E+01 3.18367E+01 0.00000E+00
 -1      2201 6.61612E+01 3.25797E+01 0.00000E+00
 -1      2202 6.73742E+01 3.02958E+01 0.00000E+00
 -1      2203 6.69882E+01 3.10662E+01 0.00000E+00
 -1      2204 6.73971E+01 3.18113E+01 0.00000E+00
 -1      2205 6.79968E+01 2.84321E+01 0.00000E+00
 -1      2206 6.78135E+01 2.92862E+01 0.00000E+00
 -1      2207 6.30479E+01 1.88829E+01 0.00000E+00
 -1      2208 6.38474E+01 1.92776E+01 0.00000E+00
 -1      2209 6.42300E+00 4.57510E+01 0.00000E+00
 -1      2210 6.47909E+01 1.91090E+01 0.00000E+00
 -1      2211 6.28005E+01 1.81097E+01 0.00000E+00
 -1      2212 7.17300E+00 4.44520E+01 0.00000E+00
 -1      2213 6.81481E+01 2.39192E+01 0.00000E+00
 -1      2214 6.88444E+01 2.58976E+01 0.00000E+00
 -1      2215 1.45665E+02 4.31193E+01 0.00000E+00
 -1      2216 6.73556E+01 2.21027E+01 0.00000E+00
 -1      2217 6.88717E+01 2.80269E+01 0.00000E+00
 -1      2218 6.82224E+01 3.00312E+01 0.00000E+00
 -1      2219 6.45946E+01 3.47028E+01 0.00000E+00
 -1      2220 6.13463E+01 3.63873E+01 0.00000E+00
 -1      2221 5.74836E+01 3.65011E+01 0.00000E+00
 -1      2222 5.68361E+01 3.69146E+01 0.00000E+00
 -1      2223 5.80039E+01 3.72207E+01 0.00000E+00
 -1      2224 5.39124E+01 3.48445E+01 0.00000E+00
 -1      2225 5.24341E+01 3.36162E+01 0.00000E+00
 -1      2226 5.12266E+01 3.22227E+01 0.00000E+00
 -1      2227 5.02433E+01 3.04303E+01 0.00000E+00
 -1      2228 4.96665E+01 2.84302E+01 0.00000E+00
 -1      2229 4.96465E+01 2.64317E+01 0.00000E+00
 -1      2230 4.98207E+01 2.44139E+01 0.00000E+00
 -1      2231 5.05452E+01 2.24987E+01 0.00000E+00
 -1      2232 5.33686E+01 1.93662E+01 0.00000E+00
 -1      2233 5.67833E+01 1.74069E+01 0.00000E+00
 -1      2234 6.08947E+01 1.76998E+01 0.00000E+00
 -1      2235 5.89525E+01 1.73356E+01 0.00000E+00
 -1      2236 5.18886E+01 2.08333E+01 0.00000E+00
 -1      2237 6.62286E+01 3.33898E+01 0.00000E+00
 -1      2238 1.07850E+01 5.30525E+00 0.00000E+00
 -1      2239 9.28500E+00 5.30525E+00 0.00000E+00
 -1      2240 6.49500E+00 3.01125E+01 0.00000E+00
 -1      2241 6.49500E+00 3.15875E+01 0.00000E+00
 -1      2242 6.49500E+00 3.30625E+01 0.00000E+00
 -1      2243 6.49500E+00 3.45375E+01 0.00000E+00
 -1      2244 7.79400E+00 3.23250E+01 0.00000E+00
 -1      2245 6.49500E+00 2.42125E+01 0.00000E+00
 -1      2246 6.49500E+00 2.56875E+01 0.00000E+00
 -1      2247 6.49500E+00 2.12625E+01 0.00000E+00
 -1      2248 6.49500E+00 2.27375E+01 0.00000E+00
 -1      2249 7.79400E+00 2.34750E+01 0.00000E+00
 -1      2250 6.49500E+00 1.83625E+01 0.00000E+00
 -1      2251 6.49500E+00 1.98125E+01 0.00000E+00
 -1      2252 7.79400E+00 2.05500E+01 0.00000E+00
 -1      2253 6.49500E+00 1.54125E+01 0.00000E+00
 -1      2254 6.49500E+00 1.68875E+01 0.00000E+00
 -1      2255 7.79400E+00 1.76250E+01 0.00000E+00
 -1      2256 6.49500E+00 1.24625E+01 0.00000E+00
 -1      2257 6.49500E+00 1.39375E+01 0.00000E+00
 -1      2258 7.79400E+00 1.46750E+01 0.00000E+00
 -1      2259 6.49500E+00 9.51250E+00 0.00000E+00
 -1      2260 6.49500E+00 1.09875E+01 0.00000E+00
 -1      2261 7.79400E+00 1.17250E+01 0.00000E+00
 -1      2262 1.37850E+01 5.30525E+00 0.00000E+00
 -1      2263 1.22850E+01 5.30525E+00 0.00000E+00
 -1      2264 1.15350E+01 6.60425E+00 0.00000E+00
 -1      2265 9.90000E+00 4.35050E+01 0.00000E+00
 -1      2266 1.14000E+01 4.35050E+01 0.00000E+00
 -1      2267 6.48907E+01 1.79166E+01 0.00000E+00
 -1      2268 6.58913E+01 1.86391E+01 0.00000E+00
 -1      2269 1.29000E+01 4.35050E+01 0.00000E+00
 -1      2270 1.44000E+01 4.35050E+01 0.00000E+00
 -1      2271 1.21500E+01 4.22060E+01 0.00000E+00
 -1      2272 1.59000E+01 4.35050E+01 0.00000E+00
 -1      2273 1.74000E+01 4.35050E+01 0.00000E+00
 -1      2274 1.51500E+01 4.22060E+01 0.00000E+00
 -1      2275 1.89000E+01 4.35050E+01 0.00000E+00
 -1      2276 2.04000E+01 4.35050E+01 0.00000E+00
 -1      2277 1.81500E+01 4.22060E+01 0.00000E+00
 -1      2278 2.19000E+01 4.35050E+01 0.00000E+00
 -1      2279 2.34000E+01 4.35050E+01 0.00000E+00
 -1      2280 2.11500E+01 4.22060E+01 0.00000E+00
 -1      2281 2.49000E+01 4.35050E+01 0.00000E+00
 -1      2282 2.64000E+01 4.35050E+01 0.00000E+00
 -1      2283 2.41500E+01 4.22060E+01 0.00000E+00
 -1      2284 2.79000E+01 4.35050E+01 0.00000E+00
 -1      2285 2.94000E+01 4.35050E+01 0.00000E+00
 -1      2286 2.71500E+01 4.22060E+01 0.00000E+00
 -1      2287 3.09000E+01 4.35050E+01 0.00000E+00
 -1      2288 3.24000E+01 4.35050E+01 0.00000E+00
 -1      2289 3.01500E+01 4.22060E+01 0.00000E+00
 -1      2290 3.39000E+01 4.35050E+01 0.00000E+00
 -1      2291 3.54000E+01 4.35050E+01 0.00000E+00
 -1      2292 3.31500E+01 4.22060E+01 0.00000E+00
 -1      2293 3.69000E+01 4.35050E+01 0.00000E+00
 -1      2294 3.84000E+01 4.35050E+01 0.00000E+00
 -1      2295 3.61500E+01 4.22060E+01 0.00000E+00
 -1      2296 3.99000E+01 4.35050E+01 0.00000E+00
 -1      2297 4.14000E+01 4.35050E+01 0.00000E+00
 -1      2298 3.91500E+01 4.22060E+01 0.00000E+00
 -1      2299 4.29000E+01 4.35050E+01 0.00000E+00
 -1      2300 4.44000E+01 4.35050E+01 0.00000E+00
 -1      2301 4.21500E+01 4.22060E+01 0.00000E+00
 -1      2302 4.59000E+01 4.35050E+01 0.00000E+00
 -1      2303 4.74000E+01 4.35050E+01 0.00000E+00
 -1      2304 4.51500E+01 4.22060E+01 0.00000E+00
 -1      2305 4.89000E+01 4.35050E+01 0.00000E+00
 -1      2306 5.04000E+01 4.35050E+01 0.00000E+00
 -1      2307 4.81500E+01 4.22060E+01 0.00000E+00
 -1      2308 5.19000E+01 4.35050E+01 0.00000E+00
 -1      2309 5.34000E+01 4.35050E+01 0.00000E+00
 -1      2310 5.11500E+01 4.22060E+01 0.00000E+00
 -1      2311 5.49000E+01 4.35050E+01 0.00000E+00
 -1      2312 5.64000E+01 4.35050E+01 0.00000E+00
 -1      2313 5.41500E+01 4.22060E+01 0.00000E+00
 -1      2314 5.79000E+01 4.35050E+01 0.00000E+00
 -1      2315 5.94000E+01 4.35050E+01 0.00000E+00
 -1      2316 5.71500E+01 4.22060E+01 0.00000E+00
 -1      2317 6.09000E+01 4.35050E+01 0.00000E+00
 -1      2318 6.24000E+01 4.35050E+01 0.00000E+00
 -1      2319 6.01500E+01 4.22060E+01 0.00000E+00
 -1      2320 6.39000E+01 4.35050E+01 0.00000E+00
 -1      2321 6.54000E+01 4.35050E+01 0.00000E+00
 -1      2322 6.31500E+01 4.22060E+01 0.00000E+00
 -1      2323 6.69000E+01 4.35050E+01 0.00000E+00
 -1      2324 6.84000E+01 4.35050E+01 0.00000E+00
 -1      2325 6.61500E+01 4.22060E+01 0.00000E+00
 -1      2326 6.99000E+01 4.35050E+01 0.00000E+00
 -1      2327 7.14000E+01 4.35050E+01 0.00000E+00
 -1      2328 6.91500E+01 4.22060E+01 0.00000E+00
 -1      2329 7.29000E+01 4.35050E+01 0.00000E+00
 -1      2330 7.44000E+01 4.35050E+01 0.00000E+00
 -1      2331 7.21500E+01 4.22060E+01 0.00000E+00
 -1      2332 7.59000E+01 4.35050E+01 0.00000E+00
 -1      2333 7.74000E+01 4.35050E+01 0.00000E+00
 -1      2334 7.51500E+01 4.22060E+01 0.00000E+00
 -1      2335 7.89000E+01 4.35050E+01 0.00000E+00
 -1      2336 8.04000E+01 4.35050E+01 0.00000E+00
 -1      2337 7.81500E+01 4.22060E+01 0.00000E+00
 -1      2338 8.19000E+01 4.35050E+01 0.00000E+00
 -1      2339 8.34000E+01 4.35050E+01 0.00000E+00
 -1      2340 8.11500E+01 4.22060E+01 0.00000E+00
 -1      2341 8.49000E+01 4.35050E+01 0.00000E+00
 -1      2342 8.64000E+01 4.35050E+01 0.00000E+00
 -1      2343 8.41500E+01 4.22060E+01 0.00000E+00
 -1      2344 8.79000E+01 4.35050E+01 0.00000E+00
 -1      2345 8.94000E+01 4.35050E+01 0.00000E+00
 -1      2346 8.71500E+01 4.22060E+01 0.00000E+00
 -1      2347 9.09000E+01 4.35050E+01 0.00000E+00
 -1      2348 9.24000E+01 4.35050E+01 0.00000E+00
 -1      2349 9.01500E+01 4.22060E+01 0.00000E+00
 -1      2350 9.39000E+01 4.35050E+01 0.00000E+00
 -1      2351 9.54000E+01 4.35050E+01 0.00000E+00
 -1      2352 9.31500E+01 4.22060E+01 0.00000E+00
 -1      2353 9.69000E+01 4.35050E+01 0.00000E+00
 -1      2354 9.84000E+01 4.35050E+01 0.00000E+00
 -1      2355 9.61500E+01 4.22060E+01 0.00000E+00
 -1      2356 9.99000E+01 4.35050E+01 0.00000E+00
 -1      2357 1.01400E+02 4.35050E+01 0.00000E+00
 -1      2358 9.91500E+01 4.22060E+01 0.00000E+00
 -1      2359 1.02900E+02 4.35050E+01 0.00000E+00
 -1      2360 1.04400E+02 4.35050E+01 0.00000E+00
 -1      2361 1.02150E+02 4.22060E+01 0.00000E+00
 -1      2362 1.05900E+02 4.35050E+01 0.00000E+00
 -1      2363 1.07400E+02 4.35050E+01 0.00000E+00
 -1      2364 1.05150E+02 4.22060E+01 0.00000E+00
 -1      2365 1.08900E+02 4.35050E+01 0.00000E+00
 -1      2366 1.10400E+02 4.35050E+01 0.00000E+00
 -1      2367 1.08150E+02 4.22060E+01 0.00000E+00
 -1      2368 1.11900E+02 4.35050E+01 0.00000E+00
 -1      2369 1.13400E+02 4.35050E+01 0.00000E+00
 -1      2370 1.11150E+02 4.22060E+01 0.00000E+00
 -1      2371 1.14900E+02 4.35050E+01 0.00000E+00
 -1      2372 1.16400E+02 4.35050E+01 0.00000E+00
 -1      2373 1.14150E+02 4.22060E+01 0.00000E+00
 -1      2374 1.17900E+02 4.35050E+01 0.00000E+00
 -1      2375 1.19400E+02 4.35050E+01 0.00000E+00
 -1      2376 1.17150E+02 4.22060E+01 0.00000E+00
 -1      2377 1.20900E+02 4.35050E+01 0.00000E+00
 -1      2378 1.22400E+02 4.35050E+01 0.00000E+00
 -1      2379 1.20150E+02 4.22060E+01 0.00000E+00
 -1      2380 1.23900E+02 4.35050E+01 0.00000E+00
 -1      2381 1.25400E+02 4.35050E+01 0.00000E+00
 -1      2382 1.23150E+02 4.22060E+01 0.00000E+00
 -1      2383 1.26900E+02 4.35050E+01 0.00000E+00
 -1      2384 1.28400E+02 4.35050E+01 0.00000E+00
 -1      2385 1.26150E+02 4.22060E+01 0.00000E+00
 -1      2386 1.29900E+02 4.35050E+01 0.00000E+00
 -1      2387 1.31400E+02 4.35050E+01 0.00000E+00
 -1      2388 1.29150E+02 4.22060E+01 0.00000E+00
 -1      2389 1.32900E+02 4.35050E+01 0.00000E+00
 -1      2390 1.34400E+02 4.35050E+01 0.00000E+00
 -1      2391 1.32150E+02 4.22060E+01 0.00000E+00
 -1      2392 1.35900E+02 4.35050E+01 0.00000E+00
 -1      2393 1.37400E+02 4.35050E+01 0.00000E+00
 -1      2394 1.35150E+02 4.22060E+01 0.00000E+00
 -1      2395 1.38900E+02 4.35050E+01 0.00000E+00
 -1      2396 1.40400E+02 4.35050E+01 0.00000E+00
 -1      2397 1.38150E+02 4.22060E+01 0.00000E+00
 -1      2398 1.97850E+01 5.30525E+00 0.00000E+00
 -1      2399 1.82850E+01 5.30525E+00 0.00000E+00
 -1      2400 2.27850E+01 5.30525E+00 0.00000E+00
 -1      2401 2.12850E+01 5.30525E+00 0.00000E+00
 -1      2402 2.05350E+01 6.60425E+00 0.00000E+00
 -1      2403 2.57850E+01 5.30525E+00 0.00000E+00
 -1      2404 2.42850E+01 5.30525E+00 0.00000E+00
 -1      2405 2.35350E+01 6.60425E+00 0.00000E+00
 -1      2406 2.87850E+01 5.30525E+00 0.00000E+00
 -1      2407 2.72850E+01 5.30525E+00 0.00000E+00
 -1      2408 2.65350E+01 6.60425E+00 0.00000E+00
 -1      2409 3.17850E+01 5.30525E+00 0.00000E+00
 -1      2410 3.02850E+01 5.30525E+00 0.00000E+00
 -1      2411 2.95350E+01 6.60425E+00 0.00000E+00
 -1      2412 3.47850E+01 5.30525E+00 0.00000E+00
 -1      2413 3.32850E+01 5.30525E+00 0.00000E+00
 -1      2414 3.25350E+01 6.60425E+00 0.00000E+00
 -1      2415 3.77850E+01 5.30525E+00 0.00000E+00
 -1      2416 3.62850E+01 5.30525E+00 0.00000E+00
 -1      2417 3.55350E+01 6.60425E+00 0.00000E+00
 -1      2418 4.07850E+01 5.30525E+00 0.00000E+00
 -1      2419 3.92850E+01 5.30525E+00 0.00000E+00
 -1      2420 3.85350E+01 6.60425E+00 0.00000E+00
 -1      2421 4.37850E+01 5.30525E+00 0.00000E+00
 -1      2422 4.22850E+01 5.30525E+00 0.00000E+00
 -1      2423 4.15350E+01 6.60425E+00 0.00000E+00
 -1      2424 4.67850E+01 5.30525E+00 0.00000E+00
 -1      2425 4.52850E+01 5.30525E+00 0.00000E+00
 -1      2426 4.45350E+01 6.60425E+00 0.00000E+00
 -1      2427 4.97850E+01 5.30525E+00 0.00000E+00
 -1      2428 4.82850E+01 5.30525E+00 0.00000E+00
 -1      2429 4.75350E+01 6.60425E+00 0.00000E+00
 -1      2430 5.27850E+01 5.30525E+00 0.00000E+00
 -1      2431 5.12850E+01 5.30525E+00 0.00000E+00
 -1      2432 5.05350E+01 6.60425E+00 0.00000E+00
 -1      2433 5.57850E+01 5.30525E+00 0.00000E+00
 -1      2434 5.42850E+01 5.30525E+00 0.00000E+00
 -1      2435 5.35350E+01 6.60425E+00 0.00000E+00
 -1      2436 5.87850E+01 5.30525E+00 0.00000E+00
 -1      2437 5.72850E+01 5.30525E+00 0.00000E+00
 -1      2438 5.65350E+01 6.60425E+00 0.00000E+00
 -1      2439 6.17850E+01 5.30525E+00 0.00000E+00
 -1      2440 6.02850E+01 5.30525E+00 0.00000E+00
 -1      2441 5.95350E+01 6.60425E+00 0.00000E+00
 -1      2442 6.47850E+01 5.30525E+00 0.00000E+00
 -1      2443 6.32850E+01 5.30525E+00 0.00000E+00
 -1      2444 6.25350E+01 6.60425E+00 0.00000E+00
 -1      2445 6.77850E+01 5.30525E+00 0.00000E+00
 -1      2446 6.62850E+01 5.30525E+00 0.00000E+00
 -1      2447 6.55350E+01 6.60425E+00 0.00000E+00
 -1      2448 7.07850E+01 5.30525E+00 0.00000E+00
 -1      2449 6.92850E+01 5.30525E+00 0.00000E+00
 -1      2450 6.85350E+01 6.60425E+00 0.00000E+00
 -1      2451 7.37850E+01 5.30525E+00 0.00000E+00
 -1      2452 7.22850E+01 5.30525E+00 0.00000E+00
 -1      2453 7.15350E+01 6.60425E+00 0.00000E+00
 -1      2454 7.67850E+01 5.30525E+00 0.00000E+00
 -1      2455 7.52850E+01 5.30525E+00 0.00000E+00
 -1      2456 7.45350E+01 6.60425E+00 0.00000E+00
 -1      2457 7.97850E+01 5.30525E+00 0.00000E+00
 -1      2458 7.82850E+01 5.30525E+00 0.00000E+00
 -1      2459 7.75350E+01 6.60425E+00 0.00000E+00
 -1      2460 8.27850E+01 5.30525E+00 0.00000E+00
 -1      2461 8.12850E+01 5.30525E+00 0.00000E+00
 -1      2462 8.05350E+01 6.60425E+00 0.00000E+00
 -1      2463 8.57850E+01 5.30525E+00 0.00000E+00
 -1      2464 8.42850E+01 5.30525E+00 0.00000E+00
 -1      2465 8.35350E+01 6.60425E+00 0.00000E+00
 -1      2466 8.87850E+01 5.30525E+00 0.00000E+00
 -1      2467 8.72850E+01 5.30525E+00 0.00000E+00
 -1      2468 8.65350E+01 6.60425E+00 0.00000E+00
 -1      2469 9.17850E+01 5.30525E+00 0.00000E+00
 -1      2470 9.02850E+01 5.30525E+00 0.00000E+00
 -1      2471 8.95350E+01 6.60425E+00 0.00000E+00
 -1      2472 9.47850E+01 5.30525E+00 0.00000E+00
 -1      2473 9.32850E+01 5.30525E+00 0.00000E+00
 -1      2474 9.25350E+01 6.60425E+00 0.00000E+00
 -1      2475 9.77850E+01 5.30525E+00 0.00000E+00
 -1      2476 9.62850E+01 5.30525E+00 0.00000E+00
 -1      2477 9.55350E+01 6.60425E+00 0.00000E+00
 -1      2478 1.00785E+02 5.30525E+00 0.00000E+00
 -1      2479 9.92850E+01 5.30525E+00 0.00000E+00
 -1      2480 9.85350E+01 6.60425E+00 0.00000E+00
 -1      2481 1.03785E+02 5.30525E+00 0.00000E+00
 -1      2482 1.02285E+02 5.30525E+00 0.00000E+00
 -1      2483 1.01535E+02 6.60425E+00 0.00000E+00
 -1      2484 1.06785E+02 5.30525E+00 0.00000E+00
 -1      2485 1.05285E+02 5.30525E+00 0.00000E+00
 -1      2486 1.04535E+02 6.60425E+00 0.00000E+00
 -1      2487 1.09785E+02 5.30525E+00 0.00000E+00
 -1      2488 1.08285E+02 5.30525E+00 0.00000E+00
 -1      2489 1.07535E+02 6.60425E+00 0.00000E+00
 -1      2490 1.12785E+02 5.30525E+00 0.00000E+00
 -1      2491 1.11285E+02 5.30525E+00 0.00000E+00
 -1      2492 1.10535E+02 6.60425E+00 0.00000E+00
 -1      2493 1.15785E+02 5.30525E+00 0.00000E+00
 -1      2494 1.14285E+02 5.30525E+00 0.00000E+00
 -1      2495 1.13535E+02 6.60425E+00 0.00000E+00
 -1      2496 1.18785E+02 5.30525E+00 0.00000E+00
 -1      2497 1.17285E+02 5.30525E+00 0.00000E+00
 -1      2498 1.16535E+02 6.60425E+00 0.00000E+00
 -1      2499 1.21785E+02 5.30525E+00 0.00000E+00
 -1      2500 1.20285E+02 5.30525E+00 0.00000E+00
 -1      2501 1.19535E+02 6.60425E+00 0.00000E+00
 -1      2502 1.24785E+02 5.30525E+00 0.00000E+00
 -1      2503 1.23285E+02 5.30525E+00 0.00000E+00
 -1      2504 1.22535E+02 6.60425E+00 0.00000E+00
 -1      2505 1.27785E+02 5.30525E+00 0.00000E+00
 -1      2506 1.26285E+02 5.30525E+00 0.00000E+00
 -1      2507 1.25535E+02 6.60425E+00 0.00000E+00
 -1      2508 1.30785E+02 5.30525E+00 0.00000E+00
 -1      2509 1.29285E+02 5.30525E+00 0.00000E+00
 -1      2510 1.28535E+02 6.60425E+00 0.00000E+00
 -1      2511 1.33785E+02 5.30525E+00 0.00000E+00
 -1      2512 1.32285E+02 5.30525E+00 0.00000E+00
 -1      2513 1.31535E+02 6.60425E+00 0.00000E+00
 -1      2514 1.36785E+02 5.30525E+00 0.00000E+00
 -1      2515 1.35285E+02 5.30525E+00 0.00000E+00
 -1      2516 1.34535E+02 6.60425E+00 0.00000E+00
 -1      2517 1.39785E+02 5.30525E+00 0.00000E+00
 -1      2518 1.38285E+02 5.30525E+00 0.00000E+00
 -1      2519 1.37535E+02 6.60425E+00 0.00000E+00
 -1      2520 1.42785E+02 5.30525E+00 0.00000E+00
 -1      2521 1.41285E+02 5.30525E+00 0.00000E+00
 -1      2522 1.40535E+02 6.60425E+00 0.00000E+00
 -1      2523 1.44336E+02 5.26953E+00 0.00000E+00
 -1      2524 1.43505E+02 1.69125E+01 0.00000E+00
 -1      2525 1.43505E+02 1.54375E+01 0.00000E+00
 -1      2526 1.43505E+02 1.98625E+01 0.00000E+00
 -1      2527 1.43505E+02 1.83875E+01 0.00000E+00
 -1      2528 1.42206E+02 1.76500E+01 0.00000E+00
 -1      2529 1.43505E+02 1.10625E+01 0.00000E+00
 -1      2530 1.43505E+02 9.58750E+00 0.00000E+00
 -1      2531 1.43505E+02 1.39750E+01 0.00000E+00
 -1      2532 1.43505E+02 1.25250E+01 0.00000E+00
 -1      2533 1.42206E+02 1.17875E+01 0.00000E+00
 -1      2534 1.42206E+02 1.47125E+01 0.00000E+00
 -1      2535 1.43505E+02 2.28125E+01 0.00000E+00
 -1      2536 1.43505E+02 2.13375E+01 0.00000E+00
 -1      2537 1.42206E+02 2.06000E+01 0.00000E+00
 -1      2538 1.43505E+02 2.57625E+01 0.00000E+00
 -1      2539 1.43505E+02 2.42875E+01 0.00000E+00
 -1      2540 1.42206E+02 2.35500E+01 0.00000E+00
 -1      2541 1.43505E+02 2.87125E+01 0.00000E+00
 -1      2542 1.43505E+02 2.72375E+01 0.00000E+00
 -1      2543 1.42206E+02 2.65000E+01 0.00000E+00
 -1      2544 1.43505E+02 3.16125E+01 0.00000E+00
 -1      2545 1.43505E+02 3.01625E+01 0.00000E+00
 -1      2546 1.42206E+02 2.94250E+01 0.00000E+00
 -1      2547 1.43505E+02 3.45625E+01 0.00000E+00
 -1      2548 1.43505E+02 3.30875E+01 0.00000E+00
 -1      2549 1.42206E+02 3.23500E+01 0.00000E+00
 -1      2550 1.43505E+02 3.75125E+01 0.00000E+00
 -1      2551 1.43505E+02 3.60375E+01 0.00000E+00
 -1      2552 1.42206E+02 3.53000E+01 0.00000E+00
 -1      2553 1.43505E+02 4.04625E+01 0.00000E+00
 -1      2554 1.43505E+02 3.89875E+01 0.00000E+00
 -1      2555 1.42206E+02 3.82500E+01 0.00000E+00
 -1      2556 6.97292E+01 2.51205E+01 0.00000E+00
 -1      2557 6.99665E+01 2.62552E+01 0.00000E+00
 -1      2558 6.80000E+01 2.13381E+01 0.00000E+00
 -1      2559 6.83335E+01 2.23109E+01 0.00000E+00
 -1      2560 1.67850E+01 5.30525E+00 0.00000E+00
 -1      2561 1.52850E+01 5.30525E+00 0.00000E+00
 -1      2562 1.75350E+01 6.60425E+00 0.00000E+00
 -1      2563 1.44321E+02 4.30606E+01 0.00000E+00
 -1      2564 6.98977E+01 2.77241E+01 0.00000E+00
 -1      2565 6.96877E+01 2.87187E+01 0.00000E+00
 -1      2566 6.67216E+01 1.95662E+01 0.00000E+00
 -1      2567 6.73368E+01 2.02154E+01 0.00000E+00
 -1      2568 6.55950E+00 4.28890E+01 0.00000E+00
 -1      2569 8.53650E+00 4.32410E+01 0.00000E+00
 -1      2570 9.28650E+00 4.19420E+01 0.00000E+00
 -1      2571 6.55950E+00 4.14140E+01 0.00000E+00
 -1      2572 6.54364E+01 3.51519E+01 0.00000E+00
 -1      2573 6.45848E+01 3.56568E+01 0.00000E+00
 -1      2574 5.39062E+01 3.57692E+01 0.00000E+00
 -1      2575 5.30626E+01 3.52091E+01 0.00000E+00
 -1      2576 5.60140E+01 1.68099E+01 0.00000E+00
 -1      2577 5.71572E+01 1.65077E+01 0.00000E+00
 -1      2578 6.49500E+00 2.71625E+01 0.00000E+00
 -1      2579 6.49500E+00 2.86375E+01 0.00000E+00
 -1      2580 7.79400E+00 2.93750E+01 0.00000E+00
 -1      2581 7.79400E+00 2.64250E+01 0.00000E+00
 -1      2582 5.86094E+01 1.64653E+01 0.00000E+00
 -1      2583 5.96354E+01 1.66962E+01 0.00000E+00
 -1      2584 5.09959E+01 2.06605E+01 0.00000E+00
 -1      2585 5.16427E+01 1.99579E+01 0.00000E+00
 -1      2586 6.05516E+01 1.68294E+01 0.00000E+00
 -1      2587 6.14677E+01 1.69626E+01 0.00000E+00
 -1      2588 6.02084E+01 1.59591E+01 0.00000E+00
 -1      2589 5.41534E+01 1.77211E+01 0.00000E+00
 -1      2590 5.48725E+01 1.72748E+01 0.00000E+00
 -1      2591 6.71758E+01 3.35240E+01 0.00000E+00
 -1      2592 6.63933E+01 3.43321E+01 0.00000E+00
 -1      2593 5.24573E+01 1.92091E+01 0.00000E+00
 -1      2594 5.32905E+01 1.84447E+01 0.00000E+00
 -1      2595 4.96040E+01 2.25512E+01 0.00000E+00
 -1      2596 5.03005E+01 2.15884E+01 0.00000E+00
 -1      2597 4.89495E+01 2.48648E+01 0.00000E+00
 -1      2598 4.89775E+01 2.39125E+01 0.00000E+00
 -1      2599 4.86570E+01 2.69960E+01 0.00000E+00
 -1      2600 4.88033E+01 2.59304E+01 0.00000E+00
 -1      2601 4.79601E+01 2.54290E+01 0.00000E+00
 -1      2602 4.89880E+01 2.90325E+01 0.00000E+00
 -1      2603 4.88216E+01 2.80996E+01 0.00000E+00
 -1      2604 4.97263E+01 3.12416E+01 0.00000E+00
 -1      2605 4.93159E+01 3.01744E+01 0.00000E+00
 -1      2606 5.09388E+01 3.30390E+01 0.00000E+00
 -1      2607 5.03658E+01 3.23137E+01 0.00000E+00
 -1      2608 5.22511E+01 3.44254E+01 0.00000E+00
 -1      2609 5.16166E+01 3.37573E+01 0.00000E+00
 -1      2610 5.55572E+01 3.67250E+01 0.00000E+00
 -1      2611 5.47773E+01 3.63298E+01 0.00000E+00
 -1      2612 5.99369E+01 3.74970E+01 0.00000E+00
 -1      2613 5.90960E+01 3.75248E+01 0.00000E+00
 -1      2614 6.21147E+01 3.69332E+01 0.00000E+00
 -1      2615 6.11015E+01 3.72976E+01 0.00000E+00
 -1      2616 6.38930E+01 3.60645E+01 0.00000E+00
 -1      2617 6.32013E+01 3.64721E+01 0.00000E+00
 -1      2618 6.47348E+01 3.65136E+01 0.00000E+00
 -1      2619 6.82445E+01 3.17539E+01 0.00000E+00
 -1      2620 6.78584E+01 3.25243E+01 0.00000E+00
 -1      2621 6.92484E+01 2.97283E+01 0.00000E+00
 -1      2622 6.88092E+01 3.07380E+01 0.00000E+00
 -1      2623 7.02745E+01 2.94255E+01 0.00000E+00
 -1      2624 6.24574E+01 1.72394E+01 0.00000E+00
 -1      2625 6.34471E+01 1.75161E+01 0.00000E+00
 -1      2626 6.21143E+01 1.63691E+01 0.00000E+00
 -1      2627 8.07525E+00 5.11044E+00 0.00000E+00
 -1      2628 6.57525E+00 5.11044E+00 0.00000E+00
 -1      2629 6.40575E+00 6.01981E+00 0.00000E+00
 -1      2630 8.82525E+00 6.40944E+00 0.00000E+00
 -1      2631 6.87926E+01 2.31547E+01 0.00000E+00
 -1      2632 6.92516E+01 2.39984E+01 0.00000E+00
 -1      2633 6.94370E+01 2.23901E+01 0.00000E+00
 -1      2634 5.52464E+01 1.63756E+01 0.00000E+00
 -1      2635 7.79400E+00 3.52687E+01 0.00000E+00
 -1      2636 6.49500E+00 3.60062E+01 0.00000E+00
 -1      2637 6.49500E+00 3.74750E+01 0.00000E+00
 -1      2638 1.45350E+01 6.60425E+00 0.00000E+00
 -1      2639 6.40575E+00 7.49481E+00 0.00000E+00
 -1      2640 6.52725E+00 3.87101E+01 0.00000E+00
 -1      2641 6.52725E+00 4.01789E+01 0.00000E+00
 -1      2642 7.89075E+00 4.04429E+01 0.00000E+00
 -1      2643 7.82625E+00 3.79726E+01 0.00000E+00
 -1      2644 6.63835E+01 3.52861E+01 0.00000E+00
 -1      2645 6.68214E+01 1.83738E+01 0.00000E+00
 -1      2646 6.29565E+01 3.73824E+01 0.00000E+00
 -1      2647 6.07053E+01 3.80429E+01 0.00000E+00
 -1      2648 6.45475E+01 1.70463E+01 0.00000E+00
 -1      2649 5.60774E+01 3.74446E+01 0.00000E+00
 -1      2650 5.53188E+01 3.79746E+01 0.00000E+00
 -1      2651 5.65977E+01 3.81642E+01 0.00000E+00
 -1      2652 1.43586E+02 6.56853E+00 0.00000E+00
 -1      2653 6.83148E+01 2.04236E+01 0.00000E+00
 -1      2654 1.43419E+02 7.72713E+00 0.00000E+00
 -1      2655 5.22450E+01 3.53501E+01 0.00000E+00
 -1      2656 7.07825E+01 2.69469E+01 0.00000E+00
 -1      2657 7.03736E+01 2.43559E+01 0.00000E+00
 -1      2658 5.07558E+01 3.38483E+01 0.00000E+00
 -1      2659 4.94384E+01 3.20579E+01 0.00000E+00
 -1      2660 7.70475E+00 8.23231E+00 0.00000E+00
 -1      2661 4.79784E+01 2.75983E+01 0.00000E+00
 -1      2662 1.42120E+02 8.46463E+00 0.00000E+00
 -1      2663 5.39275E+01 3.66944E+01 0.00000E+00
 -1      2664 4.87328E+01 2.30021E+01 0.00000E+00
 -1      2665 4.84881E+01 2.20918E+01 0.00000E+00
 -1      2666 4.78616E+01 2.34531E+01 0.00000E+00
 -1      2667 5.84485E+01 3.79383E+01 0.00000E+00
 -1      2668 5.15646E+01 1.90364E+01 0.00000E+00
 -1      2669 5.70708E+01 1.52713E+01 0.00000E+00
 -1      2670 5.78401E+01 1.58683E+01 0.00000E+00
 -1      2671 5.85230E+01 1.52289E+01 0.00000E+00
 -1      2672 6.80231E+01 3.34666E+01 0.00000E+00
 -1      2673 5.00546E+01 2.07130E+01 0.00000E+00
 -1      2674 5.32420E+01 1.75641E+01 0.00000E+00
 -1      2675 4.84710E+01 2.98438E+01 0.00000E+00
 -1      2676 6.92705E+01 3.14510E+01 0.00000E+00
 -1      2677 1.42758E+02 4.35929E+01 0.00000E+00
 -1      2678 1.43241E+02 4.17323E+01 0.00000E+00
 -1      2679 1.41942E+02 4.09948E+01 0.00000E+00
 -1      2680 1.41414E+02 4.35342E+01 0.00000E+00
 -1      2681 1.40664E+02 4.22352E+01 0.00000E+00
 -1      2682 9.09300E+00 1.98250E+01 0.00000E+00
 -1      2683 9.09300E+00 2.12750E+01 0.00000E+00
 -1      2684 9.09300E+00 2.27500E+01 0.00000E+00
 -1      2685 9.09300E+00 2.42250E+01 0.00000E+00
 -1      2686 1.03920E+01 2.20250E+01 0.00000E+00
 -1      2687 9.09300E+00 1.39375E+01 0.00000E+00
 -1      2688 9.09300E+00 1.54125E+01 0.00000E+00
 -1      2689 9.09300E+00 1.09875E+01 0.00000E+00
 -1      2690 9.09300E+00 1.24625E+01 0.00000E+00
 -1      2691 1.03920E+01 1.32000E+01 0.00000E+00
 -1      2692 1.22850E+01 7.90325E+00 0.00000E+00
 -1      2693 1.07850E+01 7.90325E+00 0.00000E+00
 -1      2694 4.72126E+01 2.82766E+01 0.00000E+00
 -1      2695 4.70479E+01 2.71730E+01 0.00000E+00
 -1      2696 6.99608E+01 2.15584E+01 0.00000E+00
 -1      2697 7.04198E+01 2.24022E+01 0.00000E+00
 -1      2698 7.12805E+01 2.92628E+01 0.00000E+00
 -1      2699 7.08412E+01 3.02724E+01 0.00000E+00
 -1      2700 6.55161E+01 3.70486E+01 0.00000E+00
 -1      2701 6.48243E+01 3.74563E+01 0.00000E+00
 -1      2702 1.44000E+01 4.09070E+01 0.00000E+00
 -1      2703 1.59000E+01 4.09070E+01 0.00000E+00
 -1      2704 1.74000E+01 4.09070E+01 0.00000E+00
 -1      2705 1.89000E+01 4.09070E+01 0.00000E+00
 -1      2706 1.66500E+01 3.96080E+01 0.00000E+00
 -1      2707 2.04000E+01 4.09070E+01 0.00000E+00
 -1      2708 2.19000E+01 4.09070E+01 0.00000E+00
 -1      2709 1.96500E+01 3.96080E+01 0.00000E+00
 -1      2710 2.34000E+01 4.09070E+01 0.00000E+00
 -1      2711 2.49000E+01 4.09070E+01 0.00000E+00
 -1      2712 2.26500E+01 3.96080E+01 0.00000E+00
 -1      2713 2.64000E+01 4.09070E+01 0.00000E+00
 -1      2714 2.79000E+01 4.09070E+01 0.00000E+00
 -1      2715 2.56500E+01 3.96080E+01 0.00000E+00
 -1      2716 2.94000E+01 4.09070E+01 0.00000E+00
 -1      2717 3.09000E+01 4.09070E+01 0.00000E+00
 -1      2718 2.86500E+01 3.96080E+01 0.00000E+00
 -1      2719 3.24000E+01 4.09070E+01 0.00000E+00
 -1      2720 3.39000E+01 4.09070E+01 0.00000E+00
 -1      2721 3.16500E+01 3.96080E+01 0.00000E+00
 -1      2722 3.54000E+01 4.09070E+01 0.00000E+00
 -1      2723 3.69000E+01 4.09070E+01 0.00000E+00
 -1      2724 3.46500E+01 3.96080E+01 0.00000E+00
 -1      2725 3.84000E+01 4.09070E+01 0.00000E+00
 -1      2726 3.99000E+01 4.09070E+01 0.00000E+00
 -1      2727 3.76500E+01 3.96080E+01 0.00000E+00
 -1      2728 4.14000E+01 4.09070E+01 0.00000E+00
 -1      2729 4.29000E+01 4.09070E+01 0.00000E+00
 -1      2730 4.06500E+01 3.96080E+01 0.00000E+00
 -1      2731 4.44000E+01 4.09070E+01 0.00000E+00
 -1      2732 4.59000E+01 4.09070E+01 0.00000E+00
 -1      2733 4.36500E+01 3.96080E+01 0.00000E+00
 -1      2734 4.74000E+01 4.09070E+01 0.00000E+00
 -1      2735 4.89000E+01 4.09070E+01 0.00000E+00
 -1      2736 4.66500E+01 3.96080E+01 0.00000E+00
 -1      2737 5.04000E+01 4.09070E+01 0.00000E+00
 -1      2738 5.19000E+01 4.09070E+01 0.00000E+00
 -1      2739 4.96500E+01 3.96080E+01 0.00000E+00
 -1      2740 5.42445E+01 4.04501E+01 0.00000E+00
 -1      2741 5.57445E+01 4.04501E+01 0.00000E+00
 -1      2742 5.72445E+01 4.04501E+01 0.00000E+00
 -1      2743 5.94000E+01 4.11809E+01 0.00000E+00
 -1      2744 6.09000E+01 4.11809E+01 0.00000E+00
 -1      2745 6.24000E+01 4.09295E+01 0.00000E+00
 -1      2746 6.39000E+01 4.09295E+01 0.00000E+00
 -1      2747 6.51278E+01 4.00986E+01 0.00000E+00
 -1      2748 6.66278E+01 4.00986E+01 0.00000E+00
 -1      2749 7.14000E+01 4.09070E+01 0.00000E+00
 -1      2750 7.29000E+01 4.09070E+01 0.00000E+00
 -1      2751 7.44000E+01 4.09070E+01 0.00000E+00
 -1      2752 7.59000E+01 4.09070E+01 0.00000E+00
 -1      2753 7.36500E+01 3.96080E+01 0.00000E+00
 -1      2754 7.74000E+01 4.09070E+01 0.00000E+00
 -1      2755 7.89000E+01 4.09070E+01 0.00000E+00
 -1      2756 7.66500E+01 3.96080E+01 0.00000E+00
 -1      2757 8.04000E+01 4.09070E+01 0.00000E+00
 -1      2758 8.19000E+01 4.09070E+01 0.00000E+00
 -1      2759 7.96500E+01 3.96080E+01 0.00000E+00
 -1      2760 8.34000E+01 4.09070E+01 0.00000E+00
 -1      2761 8.49000E+01 4.09070E+01 0.00000E+00
 -1      2762 8.26500E+01 3.96080E+01 0.00000E+00
 -1      2763 8.64000E+01 4.09070E+01 0.00000E+00
 -1      2764 8.79000E+01 4.09070E+01 0.00000E+00
 -1      2765 8.56500E+01 3.96080E+01 0.00000E+00
 -1      2766 8.94000E+01 4.09070E+01 0.00000E+00
 -1      2767 9.09000E+01 4.09070E+01 0.00000E+00
 -1      2768 8.86500E+01 3.96080E+01 0.00000E+00
 -1      2769 9.24000E+01 4.09070E+01 0.00000E+00
 -1      2770 9.39000E+01 4.09070E+01 0.00000E+00
 -1      2771 9.16500E+01 3.96080E+01 0.00000E+00
 -1      2772 9.54000E+01 4.09070E+01 0.00000E+00
 -1      2773 9.69000E+01 4.09070E+01 0.00000E+00
 -1      2774 9.46500E+01 3.96080E+01 0.00000E+00
 -1      2775 9.84000E+01 4.09070E+01 0.00000E+00
 -1      2776 9.99000E+01 4.09070E+01 0.00000E+00
 -1      2777 9.76500E+01 3.96080E+01 0.00000E+00
 -1      2778 1.01400E+02 4.09070E+01 0.00000E+00
 -1      2779 1.02900E+02 4.09070E+01 0.00000E+00
 -1      2780 1.00650E+02 3.96080E+01 0.00000E+00
 -1      2781 1.04400E+02 4.09070E+01 0.00000E+00
 -1      2782 1.05900E+02 4.09070E+01 0.00000E+00
 -1      2783 1.03650E+02 3.96080E+01 0.00000E+00
 -1      2784 1.07400E+02 4.09070E+01 0.00000E+00
 -1      2785 1.08900E+02 4.09070E+01 0.00000E+00
 -1      2786 1.06650E+02 3.96080E+01 0.00000E+00
 -1      2787 1.10400E+02 4.09070E+01 0.00000E+00
 -1      2788 1.11900E+02 4.09070E+01 0.00000E+00
 -1      2789 1.09650E+02 3.96080E+01 0.00000E+00
 -1      2790 1.13400E+02 4.09070E+01 0.00000E+00
 -1      2791 1.14900E+02 4.09070E+01 0.00000E+00
 -1      2792 1.12650E+02 3.96080E+01 0.00000E+00
 -1      2793 1.16400E+02 4.09070E+01 0.00000E+00
 -1      2794 1.17900E+02 4.09070E+01 0.00000E+00
 -1      2795 1.15650E+02 3.96080E+01 0.00000E+00
 -1      2796 1.19400E+02 4.09070E+01 0.00000E+00
 -1      2797 1.20900E+02 4.09070E+01 0.00000E+00
 -1      2798 1.18650E+02 3.96080E+01 0.00000E+00
 -1      2799 1.22400E+02 4.09070E+01 0.00000E+00
 -1      2800 1.23900E+02 4.09070E+01 0.00000E+00
 -1      2801 1.21650E+02 3.96080E+01 0.00000E+00
 -1      2802 1.25400E+02 4.09070E+01 0.00000E+00
 -1      2803 1.26900E+02 4.09070E+01 0.00000E+00
 -1      2804 1.24650E+02 3.96080E+01 0.00000E+00
 -1      2805 1.28400E+02 4.09070E+01 0.00000E+00
 -1      2806 1.29900E+02 4.09070E+01 0.00000E+00
 -1      2807 1.27650E+02 3.96080E+01 0.00000E+00
 -1      2808 1.31400E+02 4.09070E+01 0.00000E+00
 -1      2809 1.32900E+02 4.09070E+01 0.00000E+00
 -1      2810 1.30650E+02 3.96080E+01 0.00000E+00
 -1      2811 1.34400E+02 4.09070E+01 0.00000E+00
 -1      2812 1.35900E+02 4.09070E+01 0.00000E+00
 -1      2813 1.33650E+02 3.96080E+01 0.00000E+00
 -1      2814 1.37400E+02 4.09070E+01 0.00000E+00
 -1      2815 1.38900E+02 4.09070E+01 0.00000E+00
 -1      2816 1.36650E+02 3.96080E+01 0.00000E+00
 -1      2817 2.42850E+01 7.90325E+00 0.00000E+00
 -1      2818 2.27850E+01 7.90325E+00 0.00000E+00
 -1      2819 1.39914E+02 4.09362E+01 0.00000E+00
 -1      2820 1.40928E+02 4.09655E+01 0.00000E+00
 -1      2821 1.39164E+02 3.96372E+01 0.00000E+00
 -1      2822 2.12850E+01 7.90325E+00 0.00000E+00
 -1      2823 1.97850E+01 7.90325E+00 0.00000E+00
 -1      2824 2.20350E+01 9.20225E+00 0.00000E+00
 -1      2825 3.02850E+01 7.90325E+00 0.00000E+00
 -1      2826 2.87850E+01 7.90325E+00 0.00000E+00
 -1      2827 3.32850E+01 7.90325E+00 0.00000E+00
 -1      2828 3.17850E+01 7.90325E+00 0.00000E+00
 -1      2829 3.10350E+01 9.20225E+00 0.00000E+00
 -1      2830 3.62850E+01 7.90325E+00 0.00000E+00
 -1      2831 3.47850E+01 7.90325E+00 0.00000E+00
 -1      2832 3.40350E+01 9.20225E+00 0.00000E+00
 -1      2833 3.92850E+01 7.90325E+00 0.00000E+00
 -1      2834 3.77850E+01 7.90325E+00 0.00000E+00
 -1      2835 3.70350E+01 9.20225E+00 0.00000E+00
 -1      2836 4.22850E+01 7.90325E+00 0.00000E+00
 -1      2837 4.07850E+01 7.90325E+00 0.00000E+00
 -1      2838 4.00350E+01 9.20225E+00 0.00000E+00
 -1      2839 4.52850E+01 7.90325E+00 0.00000E+00
 -1      2840 4.37850E+01 7.90325E+00 0.00000E+00
 -1      2841 4.30350E+01 9.20225E+00 0.00000E+00
 -1      2842 4.82850E+01 7.90325E+00 0.00000E+00
 -1      2843 4.67850E+01 7.90325E+00 0.00000E+00
 -1      2844 4.60350E+01 9.20225E+00 0.00000E+00
 -1      2845 5.12850E+01 7.90325E+00 0.00000E+00
 -1      2846 4.97850E+01 7.90325E+00 0.00000E+00
 -1      2847 4.90350E+01 9.20225E+00 0.00000E+00
 -1      2848 5.42850E+01 7.90325E+00 0.00000E+00
 -1      2849 5.27850E+01 7.90325E+00 0.00000E+00
 -1      2850 5.20350E+01 9.20225E+00 0.00000E+00
 -1      2851 5.72850E+01 7.90325E+00 0.00000E+00
 -1      2852 5.57850E+01 7.90325E+00 0.00000E+00
 -1      2853 5.50350E+01 9.20225E+00 0.00000E+00
 -1      2854 6.02850E+01 7.90325E+00 0.00000E+00
 -1      2855 5.87850E+01 7.90325E+00 0.00000E+00
 -1      2856 5.80350E+01 9.20225E+00 0.00000E+00
 -1      2857 6.32850E+01 7.90325E+00 0.00000E+00
 -1      2858 6.17850E+01 7.90325E+00 0.00000E+00
 -1      2859 6.10350E+01 9.20225E+00 0.00000E+00
 -1      2860 6.62850E+01 7.90325E+00 0.00000E+00
 -1      2861 6.47850E+01 7.90325E+00 0.00000E+00
 -1      2862 6.40350E+01 9.20225E+00 0.00000E+00
 -1      2863 6.92850E+01 7.90325E+00 0.00000E+00
 -1      2864 6.77850E+01 7.90325E+00 0.00000E+00
 -1      2865 6.70350E+01 9.20225E+00 0.00000E+00
 -1      2866 7.22850E+01 7.90325E+00 0.00000E+00
 -1      2867 7.07850E+01 7.90325E+00 0.00000E+00
 -1      2868 7.00350E+01 9.20225E+00 0.00000E+00
 -1      2869 7.52850E+01 7.90325E+00 0.00000E+00
 -1      2870 7.37850E+01 7.90325E+00 0.00000E+00
 -1      2871 7.30350E+01 9.20225E+00 0.00000E+00
 -1      2872 7.82850E+01 7.90325E+00 0.00000E+00
 -1      2873 7.67850E+01 7.90325E+00 0.00000E+00
 -1      2874 7.60350E+01 9.20225E+00 0.00000E+00
 -1      2875 8.12850E+01 7.90325E+00 0.00000E+00
 -1      2876 7.97850E+01 7.90325E+00 0.00000E+00
 -1      2877 7.90350E+01 9.20225E+00 0.00000E+00
 -1      2878 8.42850E+01 7.90325E+00 0.00000E+00
 -1      2879 8.27850E+01 7.90325E+00 0.00000E+00
 -1      2880 8.20350E+01 9.20225E+00 0.00000E+00
 -1      2881 8.72850E+01 7.90325E+00 0.00000E+00
 -1      2882 8.57850E+01 7.90325E+00 0.00000E+00
 -1      2883 8.50350E+01 9.20225E+00 0.00000E+00
 -1      2884 9.02850E+01 7.90325E+00 0.00000E+00
 -1      2885 8.87850E+01 7.90325E+00 0.00000E+00
 -1      2886 8.80350E+01 9.20225E+00 0.00000E+00
 -1      2887 9.32850E+01 7.90325E+00 0.00000E+00
 -1      2888 9.17850E+01 7.90325E+00 0.00000E+00
 -1      2889 9.10350E+01 9.20225E+00 0.00000E+00
 -1      2890 9.62850E+01 7.90325E+00 0.00000E+00
 -1      2891 9.47850E+01 7.90325E+00 0.00000E+00
 -1      2892 9.40350E+01 9.20225E+00 0.00000E+00
 -1      2893 9.92850E+01 7.90325E+00 0.00000E+00
 -1      2894 9.77850E+01 7.90325E+00 0.00000E+00
 -1      2895 9.70350E+01 9.20225E+00 0.00000E+00
 -1      2896 1.02285E+02 7.90325E+00 0.00000E+00
 -1      2897 1.00785E+02 7.90325E+00 0.00000E+00
 -1      2898 1.00035E+02 9.20225E+00 0.00000E+00
 -1      2899 1.05285E+02 7.90325E+00 0.00000E+00
 -1      2900 1.03785E+02 7.90325E+00 0.00000E+00
 -1      2901 1.03035E+02 9.20225E+00 0.00000E+00
 -1      2902 1.08285E+02 7.90325E+00 0.00000E+00
 -1      2903 1.06785E+02 7.90325E+00 0.00000E+00
 -1      2904 1.06035E+02 9.20225E+00 0.00000E+00
 -1      2905 1.11285E+02 7.90325E+00 0.00000E+00
 -1      2906 1.09785E+02 7.90325E+00 0.00000E+00
 -1      2907 1.09035E+02 9.20225E+00 0.00000E+00
 -1      2908 1.14285E+02 7.90325E+00 0.00000E+00
 -1      2909 1.12785E+02 7.90325E+00 0.00000E+00
 -1      2910 1.12035E+02 9.20225E+00 0.00000E+00
 -1      2911 1.17285E+02 7.90325E+00 0.00000E+00
 -1      2912 1.15785E+02 7.90325E+00 0.00000E+00
 -1      2913 1.15035E+02 9.20225E+00 0.00000E+00
 -1      2914 1.20285E+02 7.90325E+00 0.00000E+00
 -1      2915 1.18785E+02 7.90325E+00 0.00000E+00
 -1      2916 1.18035E+02 9.20225E+00 0.00000E+00
 -1      2917 1.23285E+02 7.90325E+00 0.00000E+00
 -1      2918 1.21785E+02 7.90325E+00 0.00000E+00
 -1      2919 1.21035E+02 9.20225E+00 0.00000E+00
 -1      2920 1.26285E+02 7.90325E+00 0.00000E+00
 -1      2921 1.24785E+02 7.90325E+00 0.00000E+00
 -1      2922 1.24035E+02 9.20225E+00 0.00000E+00
 -1      2923 1.29285E+02 7.90325E+00 0.00000E+00
 -1      2924 1.27785E+02 7.90325E+00 0.00000E+00
 -1      2925 1.27035E+02 9.20225E+00 0.00000E+00
 -1      2926 1.32285E+02 7.90325E+00 0.00000E+00
 -1      2927 1.30785E+02 7.90325E+00 0.00000E+00
 -1      2928 1.30035E+02 9.20225E+00 0.00000E+00
 -1      2929 1.35285E+02 7.90325E+00 0.00000E+00
 -1      2930 1.33785E+02 7.90325E+00 0.00000E+00
 -1      2931 1.33035E+02 9.20225E+00 0.00000E+00
 -1      2932 1.38285E+02 7.90325E+00 0.00000E+00
 -1      2933 1.36785E+02 7.90325E+00 0.00000E+00
 -1      2934 1.36035E+02 9.20225E+00 0.00000E+00
 -1      2935 1.40953E+02 8.18394E+00 0.00000E+00
 -1      2936 1.39453E+02 8.18394E+00 0.00000E+00
 -1      2937 1.38703E+02 9.48294E+00 0.00000E+00
 -1      2938 1.41038E+02 1.00443E+01 0.00000E+00
 -1      2939 6.87216E+01 1.94261E+01 0.00000E+00
 -1      2940 6.93848E+01 2.05489E+01 0.00000E+00
 -1      2941 1.40907E+02 2.42875E+01 0.00000E+00
 -1      2942 1.40907E+02 2.28125E+01 0.00000E+00
 -1      2943 5.39215E+01 3.76606E+01 0.00000E+00
 -1      2944 5.30505E+01 3.71000E+01 0.00000E+00
 -1      2945 1.40907E+02 1.83875E+01 0.00000E+00
 -1      2946 1.40907E+02 1.69125E+01 0.00000E+00
 -1      2947 1.40907E+02 2.72375E+01 0.00000E+00
 -1      2948 1.40907E+02 2.57625E+01 0.00000E+00
 -1      2949 1.39608E+02 2.50250E+01 0.00000E+00
 -1      2950 1.40907E+02 2.13375E+01 0.00000E+00
 -1      2951 1.40907E+02 1.98625E+01 0.00000E+00
 -1      2952 1.39608E+02 1.91250E+01 0.00000E+00
 -1      2953 1.39608E+02 2.20750E+01 0.00000E+00
 -1      2954 1.40907E+02 3.01375E+01 0.00000E+00
 -1      2955 1.40907E+02 2.86875E+01 0.00000E+00
 -1      2956 1.39608E+02 2.79500E+01 0.00000E+00
 -1      2957 1.40907E+02 3.30875E+01 0.00000E+00
 -1      2958 1.40907E+02 3.16125E+01 0.00000E+00
 -1      2959 1.39608E+02 3.08750E+01 0.00000E+00
 -1      2960 1.40907E+02 3.60375E+01 0.00000E+00
 -1      2961 1.40907E+02 3.45625E+01 0.00000E+00
 -1      2962 1.39608E+02 3.38250E+01 0.00000E+00
 -1      2963 5.43522E+01 1.58139E+01 0.00000E+00
 -1      2964 5.54937E+01 1.53490E+01 0.00000E+00
 -1      2965 6.35965E+01 3.82872E+01 0.00000E+00
 -1      2966 6.25100E+01 3.87483E+01 0.00000E+00
 -1      2967 7.10781E+01 2.33934E+01 0.00000E+00
 -1      2968 7.15557E+01 2.45155E+01 0.00000E+00
 -1      2969 9.25425E+00 4.07069E+01 0.00000E+00
 -1      2970 1.06178E+01 4.09709E+01 0.00000E+00
 -1      2971 9.22200E+00 3.94717E+01 0.00000E+00
 -1      2972 7.20083E+01 2.62682E+01 0.00000E+00
 -1      2973 7.19395E+01 2.77371E+01 0.00000E+00
 -1      2974 5.98738E+01 1.50438E+01 0.00000E+00
 -1      2975 6.07899E+01 1.51771E+01 0.00000E+00
 -1      2976 6.74199E+01 3.55274E+01 0.00000E+00
 -1      2977 6.64630E+01 3.63473E+01 0.00000E+00
 -1      2978 1.82850E+01 7.90325E+00 0.00000E+00
 -1      2979 1.67850E+01 7.90325E+00 0.00000E+00
 -1      2980 1.90350E+01 9.20225E+00 0.00000E+00
 -1      2981 2.72850E+01 7.90325E+00 0.00000E+00
 -1      2982 2.57850E+01 7.90325E+00 0.00000E+00
 -1      2983 2.50350E+01 9.20225E+00 0.00000E+00
 -1      2984 2.80350E+01 9.20225E+00 0.00000E+00
 -1      2985 1.17589E+01 4.09389E+01 0.00000E+00
 -1      2986 1.32589E+01 4.09389E+01 0.00000E+00
 -1      2987 1.40089E+01 3.96399E+01 0.00000E+00
 -1      2988 1.17266E+01 3.97038E+01 0.00000E+00
 -1      2989 4.90207E+01 2.06626E+01 0.00000E+00
 -1      2990 4.97161E+01 1.97348E+01 0.00000E+00
 -1      2991 1.52850E+01 7.90325E+00 0.00000E+00
 -1      2992 1.37850E+01 7.90325E+00 0.00000E+00
 -1      2993 1.30350E+01 9.20225E+00 0.00000E+00
 -1      2994 1.60350E+01 9.20225E+00 0.00000E+00
 -1      2995 9.09300E+00 1.68813E+01 0.00000E+00
 -1      2996 9.09300E+00 1.83563E+01 0.00000E+00
 -1      2997 1.03920E+01 1.90812E+01 0.00000E+00
 -1      2998 1.03920E+01 1.61437E+01 0.00000E+00
 -1      2999 9.09300E+00 3.15875E+01 0.00000E+00
 -1      3000 9.09300E+00 3.30625E+01 0.00000E+00
 -1      3001 6.71074E+01 1.72822E+01 0.00000E+00
 -1      3002 6.79377E+01 1.82093E+01 0.00000E+00
 -1      3003 6.90726E+01 3.34504E+01 0.00000E+00
 -1      3004 6.83899E+01 3.44501E+01 0.00000E+00
 -1      3005 4.78509E+01 3.06399E+01 0.00000E+00
 -1      3006 4.75230E+01 2.94980E+01 0.00000E+00
 -1      3007 5.22057E+01 1.72045E+01 0.00000E+00
 -1      3008 5.30686E+01 1.64810E+01 0.00000E+00
 -1      3009 4.71204E+01 2.58566E+01 0.00000E+00
 -1      3010 4.72666E+01 2.47910E+01 0.00000E+00
 -1      3011 7.02658E+01 3.13393E+01 0.00000E+00
 -1      3012 6.97011E+01 3.23553E+01 0.00000E+00
 -1      3013 8.91450E+00 8.42712E+00 0.00000E+00
 -1      3014 4.90577E+01 3.30118E+01 0.00000E+00
 -1      3015 4.84182E+01 3.19397E+01 0.00000E+00
 -1      3016 5.05767E+01 1.87020E+01 0.00000E+00
 -1      3017 5.13912E+01 1.79533E+01 0.00000E+00
 -1      3018 5.12178E+01 1.68702E+01 0.00000E+00
 -1      3019 5.20841E+01 3.63287E+01 0.00000E+00
 -1      3020 5.12726E+01 3.55451E+01 0.00000E+00
 -1      3021 6.40550E+01 1.60197E+01 0.00000E+00
 -1      3022 6.54985E+01 1.64201E+01 0.00000E+00
 -1      3023 6.10100E+01 3.89996E+01 0.00000E+00
 -1      3024 5.98453E+01 3.91991E+01 0.00000E+00
 -1      3025 5.05014E+01 3.47672E+01 0.00000E+00
 -1      3026 4.98236E+01 3.40490E+01 0.00000E+00
 -1      3027 1.41192E+02 3.96958E+01 0.00000E+00
 -1      3028 6.18391E+01 1.54452E+01 0.00000E+00
 -1      3029 6.28288E+01 1.57219E+01 0.00000E+00
 -1      3030 9.09300E+00 3.45313E+01 0.00000E+00
 -1      3031 9.09300E+00 3.60000E+01 0.00000E+00
 -1      3032 1.03920E+01 3.37938E+01 0.00000E+00
 -1      3033 5.03405E+01 3.57458E+01 0.00000E+00
 -1      3034 1.03920E+01 2.49750E+01 0.00000E+00
 -1      3035 9.09300E+00 2.57000E+01 0.00000E+00
 -1      3036 9.09300E+00 2.71750E+01 0.00000E+00
 -1      3037 4.63545E+01 2.65349E+01 0.00000E+00
 -1      3038 7.16018E+01 2.25617E+01 0.00000E+00
 -1      3039 7.12718E+01 3.11766E+01 0.00000E+00
 -1      3040 6.37798E+01 1.50958E+01 0.00000E+00
 -1      3041 6.43778E+01 3.88222E+01 0.00000E+00
 -1      3042 6.16500E+01 3.99044E+01 0.00000E+00
 -1      3043 6.71144E+01 3.85610E+01 0.00000E+00
 -1      3044 6.81366E+01 4.06684E+01 0.00000E+00
 -1      3045 6.96366E+01 4.06684E+01 0.00000E+00
 -1      3046 6.84694E+01 3.55112E+01 0.00000E+00
 -1      3047 6.90077E+01 1.83346E+01 0.00000E+00
 -1      3048 1.41038E+02 1.15068E+01 0.00000E+00
 -1      3049 1.39870E+02 1.12261E+01 0.00000E+00
 -1      3050 1.41038E+02 1.29693E+01 0.00000E+00
 -1      3051 5.91044E+01 1.44468E+01 0.00000E+00
 -1      3052 5.20782E+01 3.72949E+01 0.00000E+00
 -1      3053 5.52823E+01 1.41477E+01 0.00000E+00
 -1      3054 5.61765E+01 1.47095E+01 0.00000E+00
 -1      3055 5.68594E+01 1.40701E+01 0.00000E+00
 -1      3056 5.33159E+01 1.54543E+01 0.00000E+00
 -1      3057 1.41192E+02 3.82207E+01 0.00000E+00
 -1      3058 7.27127E+01 2.53057E+01 0.00000E+00
 -1      3059 7.03866E+01 3.93694E+01 0.00000E+00
 -1      3060 4.95428E+01 1.86517E+01 0.00000E+00
 -1      3061 4.70219E+01 2.38806E+01 0.00000E+00
 -1      3062 4.67772E+01 2.29703E+01 0.00000E+00
 -1      3063 4.61822E+01 2.43082E+01 0.00000E+00
 -1      3064 7.03676E+01 2.05609E+01 0.00000E+00
 -1      3065 6.15044E+01 1.45299E+01 0.00000E+00
 -1      3066 4.81496E+01 2.11135E+01 0.00000E+00
 -1      3067 4.78110E+01 2.01353E+01 0.00000E+00
 -1      3068 4.72784E+01 2.15645E+01 0.00000E+00
 -1      3069 6.65525E+01 3.72899E+01 0.00000E+00
 -1      3070 1.40973E+02 1.56722E+01 0.00000E+00
 -1      3071 1.40973E+02 1.42097E+01 0.00000E+00
 -1      3072 1.39805E+02 1.39290E+01 0.00000E+00
 -1      3073 1.39674E+02 1.64097E+01 0.00000E+00
 -1      3074 4.74702E+01 3.15939E+01 0.00000E+00
 -1      3075 9.09300E+00 2.86437E+01 0.00000E+00
 -1      3076 9.09300E+00 3.01187E+01 0.00000E+00
 -1      3077 1.03920E+01 3.08563E+01 0.00000E+00
 -1      3078 1.03920E+01 2.79188E+01 0.00000E+00
 -1      3079 5.44418E+01 3.83802E+01 0.00000E+00
 -1      3080 7.00679E+01 3.33387E+01 0.00000E+00
 -1      3081 6.66149E+01 1.62557E+01 0.00000E+00
 -1      3082 6.77313E+01 1.60912E+01 0.00000E+00
 -1      3083 6.61224E+01 1.52291E+01 0.00000E+00
 -1      3084 4.65925E+01 2.90727E+01 0.00000E+00
 -1      3085 1.39529E+02 3.85602E+01 0.00000E+00
 -1      3086 1.40542E+02 3.71145E+01 0.00000E+00
 -1      3087 1.39243E+02 3.63770E+01 0.00000E+00
 -1      3088 1.38514E+02 3.85310E+01 0.00000E+00
 -1      3089 5.87421E+01 3.89972E+01 0.00000E+00
 -1      3090 5.76500E+01 3.86931E+01 0.00000E+00
 -1      3091 9.66450E+00 9.72612E+00 0.00000E+00
 -1      3092 4.88034E+01 3.39307E+01 0.00000E+00
 -1      3093 5.90468E+01 3.99539E+01 0.00000E+00
 -1      3094 1.09635E+01 1.04636E+01 0.00000E+00
 -1      3095 4.84291E+01 3.50085E+01 0.00000E+00
 -1      3096 4.76632E+01 3.39714E+01 0.00000E+00
 -1      3097 1.16910E+01 1.24625E+01 0.00000E+00
 -1      3098 1.16910E+01 1.39375E+01 0.00000E+00
 -1      3099 7.35601E+01 2.41521E+01 0.00000E+00
 -1      3100 7.40127E+01 2.59049E+01 0.00000E+00
 -1      3101 9.14137E+00 3.71183E+01 0.00000E+00
 -1      3102 9.17362E+00 3.83534E+01 0.00000E+00
 -1      3103 1.05371E+01 3.86174E+01 0.00000E+00
 -1      3104 1.04404E+01 3.63808E+01 0.00000E+00
 -1      3105 5.34945E+01 3.91511E+01 0.00000E+00
 -1      3106 6.33888E+01 1.40321E+01 0.00000E+00
 -1      3107 6.46150E+01 1.43299E+01 0.00000E+00
 -1      3108 7.20569E+01 2.15453E+01 0.00000E+00
 -1      3109 7.27152E+01 2.25366E+01 0.00000E+00
 -1      3110 5.01171E+01 3.67385E+01 0.00000E+00
 -1      3111 4.93459E+01 3.59606E+01 0.00000E+00
 -1      3112 1.97850E+01 1.05013E+01 0.00000E+00
 -1      3113 1.82850E+01 1.05013E+01 0.00000E+00
 -1      3114 5.68913E+01 3.92231E+01 0.00000E+00
 -1      3115 6.80613E+01 3.78596E+01 0.00000E+00
 -1      3116 1.89000E+01 3.83090E+01 0.00000E+00
 -1      3117 2.04000E+01 3.83090E+01 0.00000E+00
 -1      3118 2.19000E+01 3.83090E+01 0.00000E+00
 -1      3119 2.34000E+01 3.83090E+01 0.00000E+00
 -1      3120 2.11500E+01 3.70100E+01 0.00000E+00
 -1      3121 2.49000E+01 3.83090E+01 0.00000E+00
 -1      3122 2.64000E+01 3.83090E+01 0.00000E+00
 -1      3123 2.41500E+01 3.70100E+01 0.00000E+00
 -1      3124 2.79000E+01 3.83090E+01 0.00000E+00
 -1      3125 2.94000E+01 3.83090E+01 0.00000E+00
 -1      3126 2.71500E+01 3.70100E+01 0.00000E+00
 -1      3127 3.09000E+01 3.83090E+01 0.00000E+00
 -1      3128 3.24000E+01 3.83090E+01 0.00000E+00
 -1      3129 3.01500E+01 3.70100E+01 0.00000E+00
 -1      3130 3.39000E+01 3.83090E+01 0.00000E+00
 -1      3131 3.54000E+01 3.83090E+01 0.00000E+00
 -1      3132 3.31500E+01 3.70100E+01 0.00000E+00
 -1      3133 3.69000E+01 3.83090E+01 0.00000E+00
 -1      3134 3.84000E+01 3.83090E+01 0.00000E+00
 -1      3135 3.61500E+01 3.70100E+01 0.00000E+00
 -1      3136 3.99000E+01 3.83090E+01 0.00000E+00
 -1      3137 4.14000E+01 3.83090E+01 0.00000E+00
 -1      3138 3.91500E+01 3.70100E+01 0.00000E+00
 -1      3139 4.29000E+01 3.83090E+01 0.00000E+00
 -1      3140 4.44000E+01 3.83090E+01 0.00000E+00
 -1      3141 4.21500E+01 3.70100E+01 0.00000E+00
 -1      3142 4.62194E+01 3.73286E+01 0.00000E+00
 -1      3143 4.77194E+01 3.73286E+01 0.00000E+00
 -1      3144 5.82968E+01 4.09790E+01 0.00000E+00
 -1      3145 4.83893E+01 1.85654E+01 0.00000E+00
 -1      3146 4.92498E+01 1.75327E+01 0.00000E+00
 -1      3147 7.59000E+01 3.83090E+01 0.00000E+00
 -1      3148 7.74000E+01 3.83090E+01 0.00000E+00
 -1      3149 7.89000E+01 3.83090E+01 0.00000E+00
 -1      3150 8.04000E+01 3.83090E+01 0.00000E+00
 -1      3151 7.81500E+01 3.70100E+01 0.00000E+00
 -1      3152 8.19000E+01 3.83090E+01 0.00000E+00
 -1      3153 8.34000E+01 3.83090E+01 0.00000E+00
 -1      3154 8.11500E+01 3.70100E+01 0.00000E+00
 -1      3155 8.49000E+01 3.83090E+01 0.00000E+00
 -1      3156 8.64000E+01 3.83090E+01 0.00000E+00
 -1      3157 8.41500E+01 3.70100E+01 0.00000E+00
 -1      3158 8.79000E+01 3.83090E+01 0.00000E+00
 -1      3159 8.94000E+01 3.83090E+01 0.00000E+00
 -1      3160 8.71500E+01 3.70100E+01 0.00000E+00
 -1      3161 9.09000E+01 3.83090E+01 0.00000E+00
 -1      3162 9.24000E+01 3.83090E+01 0.00000E+00
 -1      3163 9.01500E+01 3.70100E+01 0.00000E+00
 -1      3164 9.39000E+01 3.83090E+01 0.00000E+00
 -1      3165 9.54000E+01 3.83090E+01 0.00000E+00
 -1      3166 9.31500E+01 3.70100E+01 0.00000E+00
 -1      3167 9.69000E+01 3.83090E+01 0.00000E+00
 -1      3168 9.84000E+01 3.83090E+01 0.00000E+00
 -1      3169 9.61500E+01 3.70100E+01 0.00000E+00
 -1      3170 9.99000E+01 3.83090E+01 0.00000E+00
 -1      3171 1.01400E+02 3.83090E+01 0.00000E+00
 -1      3172 9.91500E+01 3.70100E+01 0.00000E+00
 -1      3173 1.02900E+02 3.83090E+01 0.00000E+00
 -1      3174 1.04400E+02 3.83090E+01 0.00000E+00
 -1      3175 1.02150E+02 3.70100E+01 0.00000E+00
 -1      3176 1.05900E+02 3.83090E+01 0.00000E+00
 -1      3177 1.07400E+02 3.83090E+01 0.00000E+00
 -1      3178 1.05150E+02 3.70100E+01 0.00000E+00
 -1      3179 1.08900E+02 3.83090E+01 0.00000E+00
 -1      3180 1.10400E+02 3.83090E+01 0.00000E+00
 -1      3181 1.08150E+02 3.70100E+01 0.00000E+00
 -1      3182 1.11900E+02 3.83090E+01 0.00000E+00
 -1      3183 1.13400E+02 3.83090E+01 0.00000E+00
 -1      3184 1.11150E+02 3.70100E+01 0.00000E+00
 -1      3185 1.14900E+02 3.83090E+01 0.00000E+00
 -1      3186 1.16400E+02 3.83090E+01 0.00000E+00
 -1      3187 1.14150E+02 3.70100E+01 0.00000E+00
 -1      3188 1.17900E+02 3.83090E+01 0.00000E+00
 -1      3189 1.19400E+02 3.83090E+01 0.00000E+00
 -1      3190 1.17150E+02 3.70100E+01 0.00000E+00
 -1      3191 1.20900E+02 3.83090E+01 0.00000E+00
 -1      3192 1.22400E+02 3.83090E+01 0.00000E+00
 -1      3193 1.20150E+02 3.70100E+01 0.00000E+00
 -1      3194 1.23900E+02 3.83090E+01 0.00000E+00
 -1      3195 1.25400E+02 3.83090E+01 0.00000E+00
 -1      3196 1.23150E+02 3.70100E+01 0.00000E+00
 -1      3197 1.26900E+02 3.83090E+01 0.00000E+00
 -1      3198 1.28400E+02 3.83090E+01 0.00000E+00
 -1      3199 1.26150E+02 3.70100E+01 0.00000E+00
 -1      3200 1.29900E+02 3.83090E+01 0.00000E+00
 -1      3201 1.31400E+02 3.83090E+01 0.00000E+00
 -1      3202 1.29150E+02 3.70100E+01 0.00000E+00
 -1      3203 1.32900E+02 3.83090E+01 0.00000E+00
 -1      3204 1.34400E+02 3.83090E+01 0.00000E+00
 -1      3205 1.32150E+02 3.70100E+01 0.00000E+00
 -1      3206 1.35707E+02 3.84200E+01 0.00000E+00
 -1      3207 1.37207E+02 3.84200E+01 0.00000E+00
 -1      3208 1.37572E+02 3.73430E+01 0.00000E+00
 -1      3209 1.34957E+02 3.71210E+01 0.00000E+00
 -1      3210 2.27850E+01 1.05013E+01 0.00000E+00
 -1      3211 2.12850E+01 1.05013E+01 0.00000E+00
 -1      3212 2.05350E+01 1.18003E+01 0.00000E+00
 -1      3213 3.47850E+01 1.05013E+01 0.00000E+00
 -1      3214 3.32850E+01 1.05013E+01 0.00000E+00
 -1      3215 3.17850E+01 1.05013E+01 0.00000E+00
 -1      3216 3.02850E+01 1.05013E+01 0.00000E+00
 -1      3217 3.25350E+01 1.18003E+01 0.00000E+00
 -1      3218 4.07850E+01 1.05013E+01 0.00000E+00
 -1      3219 3.92850E+01 1.05013E+01 0.00000E+00
 -1      3220 4.37850E+01 1.05013E+01 0.00000E+00
 -1      3221 4.22850E+01 1.05013E+01 0.00000E+00
 -1      3222 4.15350E+01 1.18003E+01 0.00000E+00
 -1      3223 4.67850E+01 1.05013E+01 0.00000E+00
 -1      3224 4.52850E+01 1.05013E+01 0.00000E+00
 -1      3225 4.45350E+01 1.18003E+01 0.00000E+00
 -1      3226 4.97850E+01 1.05013E+01 0.00000E+00
 -1      3227 4.82850E+01 1.05013E+01 0.00000E+00
 -1      3228 4.75350E+01 1.18003E+01 0.00000E+00
 -1      3229 5.27850E+01 1.05013E+01 0.00000E+00
 -1      3230 5.12850E+01 1.05013E+01 0.00000E+00
 -1      3231 5.05350E+01 1.18003E+01 0.00000E+00
 -1      3232 5.87850E+01 1.04787E+01 0.00000E+00
 -1      3233 5.72850E+01 1.04787E+01 0.00000E+00
 -1      3234 6.14951E+01 1.17320E+01 0.00000E+00
 -1      3235 5.99951E+01 1.17320E+01 0.00000E+00
 -1      3236 6.48795E+01 1.12343E+01 0.00000E+00
 -1      3237 6.33795E+01 1.12343E+01 0.00000E+00
 -1      3238 7.07850E+01 1.05013E+01 0.00000E+00
 -1      3239 6.92850E+01 1.05013E+01 0.00000E+00
 -1      3240 7.37850E+01 1.05013E+01 0.00000E+00
 -1      3241 7.22850E+01 1.05013E+01 0.00000E+00
 -1      3242 7.15350E+01 1.18003E+01 0.00000E+00
 -1      3243 7.67850E+01 1.05013E+01 0.00000E+00
 -1      3244 7.52850E+01 1.05013E+01 0.00000E+00
 -1      3245 7.45350E+01 1.18003E+01 0.00000E+00
 -1      3246 7.97850E+01 1.05013E+01 0.00000E+00
 -1      3247 7.82850E+01 1.05013E+01 0.00000E+00
 -1      3248 7.75350E+01 1.18003E+01 0.00000E+00
 -1      3249 8.27850E+01 1.05013E+01 0.00000E+00
 -1      3250 8.12850E+01 1.05013E+01 0.00000E+00
 -1      3251 8.05350E+01 1.18003E+01 0.00000E+00
 -1      3252 8.57850E+01 1.05013E+01 0.00000E+00
 -1      3253 8.42850E+01 1.05013E+01 0.00000E+00
 -1      3254 8.35350E+01 1.18003E+01 0.00000E+00
 -1      3255 8.87850E+01 1.05013E+01 0.00000E+00
 -1      3256 8.72850E+01 1.05013E+01 0.00000E+00
 -1      3257 8.65350E+01 1.18003E+01 0.00000E+00
 -1      3258 9.17850E+01 1.05013E+01 0.00000E+00
 -1      3259 9.02850E+01 1.05013E+01 0.00000E+00
 -1      3260 8.95350E+01 1.18003E+01 0.00000E+00
 -1      3261 9.47850E+01 1.05013E+01 0.00000E+00
 -1      3262 9.32850E+01 1.05013E+01 0.00000E+00
 -1      3263 9.25350E+01 1.18003E+01 0.00000E+00
 -1      3264 9.77850E+01 1.05013E+01 0.00000E+00
 -1      3265 9.62850E+01 1.05013E+01 0.00000E+00
 -1      3266 9.55350E+01 1.18003E+01 0.00000E+00
 -1      3267 1.00785E+02 1.05013E+01 0.00000E+00
 -1      3268 9.92850E+01 1.05013E+01 0.00000E+00
 -1      3269 9.85350E+01 1.18003E+01 0.00000E+00
 -1      3270 1.03785E+02 1.05013E+01 0.00000E+00
 -1      3271 1.02285E+02 1.05013E+01 0.00000E+00
 -1      3272 1.01535E+02 1.18003E+01 0.00000E+00
 -1      3273 1.06785E+02 1.05013E+01 0.00000E+00
 -1      3274 1.05285E+02 1.05013E+01 0.00000E+00
 -1      3275 1.04535E+02 1.18003E+01 0.00000E+00
 -1      3276 1.09785E+02 1.05013E+01 0.00000E+00
 -1      3277 1.08285E+02 1.05013E+01 0.00000E+00
 -1      3278 1.07535E+02 1.18003E+01 0.00000E+00
 -1      3279 1.12785E+02 1.05013E+01 0.00000E+00
 -1      3280 1.11285E+02 1.05013E+01 0.00000E+00
 -1      3281 1.10535E+02 1.18003E+01 0.00000E+00
 -1      3282 1.15785E+02 1.05013E+01 0.00000E+00
 -1      3283 1.14285E+02 1.05013E+01 0.00000E+00
 -1      3284 1.13535E+02 1.18003E+01 0.00000E+00
 -1      3285 1.18785E+02 1.05013E+01 0.00000E+00
 -1      3286 1.17285E+02 1.05013E+01 0.00000E+00
 -1      3287 1.16535E+02 1.18003E+01 0.00000E+00
 -1      3288 1.21785E+02 1.05013E+01 0.00000E+00
 -1      3289 1.20285E+02 1.05013E+01 0.00000E+00
 -1      3290 1.19535E+02 1.18003E+01 0.00000E+00
 -1      3291 1.24785E+02 1.05013E+01 0.00000E+00
 -1      3292 1.23285E+02 1.05013E+01 0.00000E+00
 -1      3293 1.22535E+02 1.18003E+01 0.00000E+00
 -1      3294 1.27785E+02 1.05013E+01 0.00000E+00
 -1      3295 1.26285E+02 1.05013E+01 0.00000E+00
 -1      3296 1.25535E+02 1.18003E+01 0.00000E+00
 -1      3297 1.30785E+02 1.05013E+01 0.00000E+00
 -1      3298 1.29285E+02 1.05013E+01 0.00000E+00
 -1      3299 1.28535E+02 1.18003E+01 0.00000E+00
 -1      3300 1.33785E+02 1.05013E+01 0.00000E+00
 -1      3301 1.32285E+02 1.05013E+01 0.00000E+00
 -1      3302 1.31535E+02 1.18003E+01 0.00000E+00
 -1      3303 1.36785E+02 1.05013E+01 0.00000E+00
 -1      3304 1.35285E+02 1.05013E+01 0.00000E+00
 -1      3305 1.34535E+02 1.18003E+01 0.00000E+00
 -1      3306 1.38912E+02 1.10040E+01 0.00000E+00
 -1      3307 1.37744E+02 1.07233E+01 0.00000E+00
 -1      3308 1.36994E+02 1.20223E+01 0.00000E+00
 -1      3309 1.38912E+02 1.24665E+01 0.00000E+00
 -1      3310 1.38309E+02 2.86750E+01 0.00000E+00
 -1      3311 1.38309E+02 2.72250E+01 0.00000E+00
 -1      3312 4.68911E+01 3.26202E+01 0.00000E+00
 -1      3313 4.63238E+01 3.13205E+01 0.00000E+00
 -1      3314 1.38309E+02 2.57500E+01 0.00000E+00
 -1      3315 1.38309E+02 2.42750E+01 0.00000E+00
 -1      3316 1.37010E+02 2.64750E+01 0.00000E+00
 -1      3317 7.23143E+01 3.10502E+01 0.00000E+00
 -1      3318 7.17388E+01 3.21172E+01 0.00000E+00
 -1      3319 1.38309E+02 3.16250E+01 0.00000E+00
 -1      3320 1.38309E+02 3.01500E+01 0.00000E+00
 -1      3321 1.37010E+02 2.94250E+01 0.00000E+00
 -1      3322 1.26488E+01 1.02017E+01 0.00000E+00
 -1      3323 1.20772E+01 1.14631E+01 0.00000E+00
 -1      3324 1.33763E+01 1.22006E+01 0.00000E+00
 -1      3325 1.41488E+01 1.02017E+01 0.00000E+00
 -1      3326 1.38309E+02 3.45750E+01 0.00000E+00
 -1      3327 1.38309E+02 3.31000E+01 0.00000E+00
 -1      3328 1.37010E+02 3.23750E+01 0.00000E+00
 -1      3329 1.16910E+01 2.12875E+01 0.00000E+00
 -1      3330 1.16910E+01 2.27625E+01 0.00000E+00
 -1      3331 7.11986E+01 3.32597E+01 0.00000E+00
 -1      3332 7.05701E+01 3.43549E+01 0.00000E+00
 -1      3333 3.77850E+01 1.05013E+01 0.00000E+00
 -1      3334 3.62850E+01 1.05013E+01 0.00000E+00
 -1      3335 3.55350E+01 1.18003E+01 0.00000E+00
 -1      3336 3.85350E+01 1.18003E+01 0.00000E+00
 -1      3337 6.90313E+01 3.67823E+01 0.00000E+00
 -1      3338 6.95933E+01 3.80534E+01 0.00000E+00
 -1      3339 7.00014E+01 3.57049E+01 0.00000E+00
 -1      3340 7.29000E+01 3.83090E+01 0.00000E+00
 -1      3341 7.44000E+01 3.83090E+01 0.00000E+00
 -1      3342 7.51500E+01 3.70100E+01 0.00000E+00
 -1      3343 7.13566E+01 3.82920E+01 0.00000E+00
 -1      3344 1.59000E+01 3.83090E+01 0.00000E+00
 -1      3345 1.74000E+01 3.83090E+01 0.00000E+00
 -1      3346 1.81500E+01 3.70100E+01 0.00000E+00
 -1      3347 5.22013E+01 1.48783E+01 0.00000E+00
 -1      3348 5.34849E+01 1.42111E+01 0.00000E+00
 -1      3349 4.54620E+01 2.71460E+01 0.00000E+00
 -1      3350 4.55345E+01 2.58297E+01 0.00000E+00
 -1      3351 6.97078E+01 1.70227E+01 0.00000E+00
 -1      3352 7.04916E+01 1.82395E+01 0.00000E+00
 -1      3353 7.09863E+01 1.93876E+01 0.00000E+00
 -1      3354 7.15623E+01 2.03972E+01 0.00000E+00
 -1      3355 7.26756E+01 2.03721E+01 0.00000E+00
 -1      3356 7.16863E+01 1.80758E+01 0.00000E+00
 -1      3357 5.01168E+01 1.64899E+01 0.00000E+00
 -1      3358 5.09313E+01 1.57411E+01 0.00000E+00
 -1      3359 4.59166E+01 2.98946E+01 0.00000E+00
 -1      3360 4.56062E+01 2.86732E+01 0.00000E+00
 -1      3361 1.16910E+01 2.42375E+01 0.00000E+00
 -1      3362 1.16910E+01 2.57125E+01 0.00000E+00
 -1      3363 1.29900E+01 2.35000E+01 0.00000E+00
 -1      3364 1.29900E+01 1.46687E+01 0.00000E+00
 -1      3365 1.16910E+01 1.54063E+01 0.00000E+00
 -1      3366 1.16910E+01 1.68750E+01 0.00000E+00
 -1      3367 7.53976E+01 2.60341E+01 0.00000E+00
 -1      3368 7.45502E+01 2.71877E+01 0.00000E+00
 -1      3369 7.51396E+01 2.83565E+01 0.00000E+00
 -1      3370 7.37547E+01 2.82272E+01 0.00000E+00
 -1      3371 1.16299E+01 3.74672E+01 0.00000E+00
 -1      3372 1.16783E+01 3.85855E+01 0.00000E+00
 -1      3373 1.28194E+01 3.85536E+01 0.00000E+00
 -1      3374 5.11309E+01 3.80658E+01 0.00000E+00
 -1      3375 5.01363E+01 3.82807E+01 0.00000E+00
 -1      3376 7.44702E+01 2.21193E+01 0.00000E+00
 -1      3377 7.40151E+01 2.31357E+01 0.00000E+00
 -1      3378 7.53151E+01 2.37349E+01 0.00000E+00
 -1      3379 4.54694E+01 3.60296E+01 0.00000E+00
 -1      3380 4.86363E+01 3.82807E+01 0.00000E+00
 -1      3381 6.53405E+01 1.31018E+01 0.00000E+00
 -1      3382 6.57314E+01 1.41654E+01 0.00000E+00
 -1      3383 6.68478E+01 1.40010E+01 0.00000E+00
 -1      3384 4.75181E+01 1.90163E+01 0.00000E+00
 -1      3385 4.72252E+01 1.78974E+01 0.00000E+00
 -1      3386 4.66469E+01 1.94673E+01 0.00000E+00
 -1      3387 4.52897E+01 2.49193E+01 0.00000E+00
 -1      3388 4.50450E+01 2.40089E+01 0.00000E+00
 -1      3389 4.43972E+01 2.55303E+01 0.00000E+00
 -1      3390 2.57850E+01 1.05013E+01 0.00000E+00
 -1      3391 2.42850E+01 1.05013E+01 0.00000E+00
 -1      3392 2.35350E+01 1.18003E+01 0.00000E+00
 -1      3393 1.39605E+01 3.85216E+01 0.00000E+00
 -1      3394 4.55989E+01 2.24196E+01 0.00000E+00
 -1      3395 4.64387E+01 2.19920E+01 0.00000E+00
 -1      3396 4.61001E+01 2.10138E+01 0.00000E+00
 -1      3397 7.11320E+01 3.56259E+01 0.00000E+00
 -1      3398 2.95350E+01 1.18003E+01 0.00000E+00
 -1      3399 2.87850E+01 1.05013E+01 0.00000E+00
 -1      3400 2.72850E+01 1.05013E+01 0.00000E+00
 -1      3401 5.57850E+01 1.04900E+01 0.00000E+00
 -1      3402 5.42850E+01 1.04900E+01 0.00000E+00
 -1      3403 5.35350E+01 1.17890E+01 0.00000E+00
 -1      3404 5.65350E+01 1.17665E+01 0.00000E+00
 -1      3405 5.92451E+01 1.30085E+01 0.00000E+00
 -1      3406 6.82459E+01 1.23688E+01 0.00000E+00
 -1      3407 6.74959E+01 1.10698E+01 0.00000E+00
 -1      3408 6.59959E+01 1.10698E+01 0.00000E+00
 -1      3409 4.65168E+01 3.36980E+01 0.00000E+00
 -1      3410 1.38309E+02 1.98625E+01 0.00000E+00
 -1      3411 1.38309E+02 1.83875E+01 0.00000E+00
 -1      3412 4.53375E+01 3.09210E+01 0.00000E+00
 -1      3413 7.28488E+01 3.01985E+01 0.00000E+00
 -1      3414 7.33159E+01 3.11391E+01 0.00000E+00
 -1      3415 1.38309E+02 2.28062E+01 0.00000E+00
 -1      3416 1.38309E+02 2.13312E+01 0.00000E+00
 -1      3417 1.37010E+02 2.05938E+01 0.00000E+00
 -1      3418 1.37010E+02 2.35313E+01 0.00000E+00
 -1      3419 5.78943E+01 1.31935E+01 0.00000E+00
 -1      3420 4.89633E+01 1.64036E+01 0.00000E+00
 -1      3421 7.22411E+01 3.31333E+01 0.00000E+00
 -1      3422 1.16910E+01 1.98188E+01 0.00000E+00
 -1      3423 1.29900E+01 2.05562E+01 0.00000E+00
 -1      3424 1.16910E+01 1.83500E+01 0.00000E+00
 -1      3425 6.92152E+01 1.59961E+01 0.00000E+00
 -1      3426 7.06992E+01 1.59010E+01 0.00000E+00
 -1      3427 6.87227E+01 1.49695E+01 0.00000E+00
 -1      3428 7.21066E+01 3.69930E+01 0.00000E+00
 -1      3429 4.47861E+01 2.79680E+01 0.00000E+00
 -1      3430 4.39661E+01 2.72627E+01 0.00000E+00
 -1      3431 4.41102E+01 2.87899E+01 0.00000E+00
 -1      3432 1.47105E+01 3.72226E+01 0.00000E+00
 -1      3433 5.11003E+01 1.44980E+01 0.00000E+00
 -1      3434 1.38375E+02 1.71472E+01 0.00000E+00
 -1      3435 1.38440E+02 1.59068E+01 0.00000E+00
 -1      3436 1.37076E+02 1.78847E+01 0.00000E+00
 -1      3437 1.69669E+01 1.03515E+01 0.00000E+00
 -1      3438 1.54669E+01 1.03515E+01 0.00000E+00
 -1      3439 1.50806E+01 1.13509E+01 0.00000E+00
 -1      3440 1.77169E+01 1.16505E+01 0.00000E+00
 -1      3441 7.17794E+01 2.83158E+01 0.00000E+00
 -1      3442 7.23462E+01 2.91627E+01 0.00000E+00
 -1      3443 7.30052E+01 2.76371E+01 0.00000E+00
 -1      3444 1.37758E+02 3.64975E+01 0.00000E+00
 -1      3445 1.38123E+02 3.54205E+01 0.00000E+00
 -1      3446 1.36824E+02 3.46955E+01 0.00000E+00
 -1      3447 1.36451E+02 3.63865E+01 0.00000E+00
 -1      3448 1.16910E+01 3.01219E+01 0.00000E+00
 -1      3449 1.16910E+01 3.15906E+01 0.00000E+00
 -1      3450 1.16910E+01 3.30594E+01 0.00000E+00
 -1      3451 1.16910E+01 3.45281E+01 0.00000E+00
 -1      3452 1.29900E+01 3.23250E+01 0.00000E+00
 -1      3453 7.33478E+01 2.92516E+01 0.00000E+00
 -1      3454 7.62289E+01 2.49318E+01 0.00000E+00
 -1      3455 7.67664E+01 2.62147E+01 0.00000E+00
 -1      3456 5.20973E+01 3.88371E+01 0.00000E+00
 -1      3457 6.22784E+01 1.36595E+01 0.00000E+00
 -1      3458 6.31137E+01 1.28936E+01 0.00000E+00
 -1      3459 4.82057E+01 3.60012E+01 0.00000E+00
 -1      3460 2.04000E+01 3.57110E+01 0.00000E+00
 -1      3461 2.19000E+01 3.57110E+01 0.00000E+00
 -1      3462 5.33599E+01 1.30869E+01 0.00000E+00
 -1      3463 5.44744E+01 1.36629E+01 0.00000E+00
 -1      3464 2.34000E+01 3.57110E+01 0.00000E+00
 -1      3465 2.49000E+01 3.57110E+01 0.00000E+00
 -1      3466 2.26500E+01 3.44120E+01 0.00000E+00
 -1      3467 2.64000E+01 3.57110E+01 0.00000E+00
 -1      3468 2.79000E+01 3.57110E+01 0.00000E+00
 -1      3469 2.56500E+01 3.44120E+01 0.00000E+00
 -1      3470 2.94000E+01 3.57110E+01 0.00000E+00
 -1      3471 3.09000E+01 3.57110E+01 0.00000E+00
 -1      3472 2.86500E+01 3.44120E+01 0.00000E+00
 -1      3473 3.24000E+01 3.57110E+01 0.00000E+00
 -1      3474 3.39000E+01 3.57110E+01 0.00000E+00
 -1      3475 3.16500E+01 3.44120E+01 0.00000E+00
 -1      3476 3.54000E+01 3.57110E+01 0.00000E+00
 -1      3477 3.69000E+01 3.57110E+01 0.00000E+00
 -1      3478 3.46500E+01 3.44120E+01 0.00000E+00
 -1      3479 3.84000E+01 3.57110E+01 0.00000E+00
 -1      3480 3.99000E+01 3.57110E+01 0.00000E+00
 -1      3481 3.76500E+01 3.44120E+01 0.00000E+00
 -1      3482 4.14000E+01 3.57110E+01 0.00000E+00
 -1      3483 4.29000E+01 3.57110E+01 0.00000E+00
 -1      3484 4.06500E+01 3.44120E+01 0.00000E+00
 -1      3485 2.12850E+01 1.30992E+01 0.00000E+00
 -1      3486 1.97850E+01 1.30992E+01 0.00000E+00
 -1      3487 8.04000E+01 3.57110E+01 0.00000E+00
 -1      3488 8.19000E+01 3.57110E+01 0.00000E+00
 -1      3489 8.34000E+01 3.57110E+01 0.00000E+00
 -1      3490 8.49000E+01 3.57110E+01 0.00000E+00
 -1      3491 8.26500E+01 3.44120E+01 0.00000E+00
 -1      3492 8.64000E+01 3.57110E+01 0.00000E+00
 -1      3493 8.79000E+01 3.57110E+01 0.00000E+00
 -1      3494 8.56500E+01 3.44120E+01 0.00000E+00
 -1      3495 8.94000E+01 3.57110E+01 0.00000E+00
 -1      3496 9.09000E+01 3.57110E+01 0.00000E+00
 -1      3497 8.86500E+01 3.44120E+01 0.00000E+00
 -1      3498 9.24000E+01 3.57110E+01 0.00000E+00
 -1      3499 9.39000E+01 3.57110E+01 0.00000E+00
 -1      3500 9.16500E+01 3.44120E+01 0.00000E+00
 -1      3501 9.54000E+01 3.57110E+01 0.00000E+00
 -1      3502 9.69000E+01 3.57110E+01 0.00000E+00
 -1      3503 9.46500E+01 3.44120E+01 0.00000E+00
 -1      3504 9.84000E+01 3.57110E+01 0.00000E+00
 -1      3505 9.99000E+01 3.57110E+01 0.00000E+00
 -1      3506 9.76500E+01 3.44120E+01 0.00000E+00
 -1      3507 1.01400E+02 3.57110E+01 0.00000E+00
 -1      3508 1.02900E+02 3.57110E+01 0.00000E+00
 -1      3509 1.00650E+02 3.44120E+01 0.00000E+00
 -1      3510 1.04400E+02 3.57110E+01 0.00000E+00
 -1      3511 1.05900E+02 3.57110E+01 0.00000E+00
 -1      3512 1.03650E+02 3.44120E+01 0.00000E+00
 -1      3513 1.07400E+02 3.57110E+01 0.00000E+00
 -1      3514 1.08900E+02 3.57110E+01 0.00000E+00
 -1      3515 1.06650E+02 3.44120E+01 0.00000E+00
 -1      3516 1.10400E+02 3.57110E+01 0.00000E+00
 -1      3517 1.11900E+02 3.57110E+01 0.00000E+00
 -1      3518 1.09650E+02 3.44120E+01 0.00000E+00
 -1      3519 1.13400E+02 3.57110E+01 0.00000E+00
 -1      3520 1.14900E+02 3.57110E+01 0.00000E+00
 -1      3521 1.12650E+02 3.44120E+01 0.00000E+00
 -1      3522 1.16400E+02 3.57110E+01 0.00000E+00
 -1      3523 1.17900E+02 3.57110E+01 0.00000E+00
 -1      3524 1.15650E+02 3.44120E+01 0.00000E+00
 -1      3525 1.19400E+02 3.57110E+01 0.00000E+00
 -1      3526 1.20900E+02 3.57110E+01 0.00000E+00
 -1      3527 1.18650E+02 3.44120E+01 0.00000E+00
 -1      3528 1.22400E+02 3.57110E+01 0.00000E+00
 -1      3529 1.23900E+02 3.57110E+01 0.00000E+00
 -1      3530 1.21650E+02 3.44120E+01 0.00000E+00
 -1      3531 1.25400E+02 3.57110E+01 0.00000E+00
 -1      3532 1.26900E+02 3.57110E+01 0.00000E+00
 -1      3533 1.24650E+02 3.44120E+01 0.00000E+00
 -1      3534 1.28400E+02 3.57110E+01 0.00000E+00
 -1      3535 1.29900E+02 3.57110E+01 0.00000E+00
 -1      3536 1.27650E+02 3.44120E+01 0.00000E+00
 -1      3537 1.31400E+02 3.57110E+01 0.00000E+00
 -1      3538 1.32900E+02 3.57110E+01 0.00000E+00
 -1      3539 1.30650E+02 3.44120E+01 0.00000E+00
 -1      3540 3.32850E+01 1.30992E+01 0.00000E+00
 -1      3541 3.17850E+01 1.30992E+01 0.00000E+00
 -1      3542 4.52850E+01 1.30992E+01 0.00000E+00
 -1      3543 4.37850E+01 1.30992E+01 0.00000E+00
 -1      3544 4.22850E+01 1.30992E+01 0.00000E+00
 -1      3545 4.07850E+01 1.30992E+01 0.00000E+00
 -1      3546 4.30350E+01 1.43982E+01 0.00000E+00
 -1      3547 4.75310E+01 1.60946E+01 0.00000E+00
 -1      3548 4.83979E+01 1.50518E+01 0.00000E+00
 -1      3549 6.86369E+01 1.34324E+01 0.00000E+00
 -1      3550 7.16208E+01 1.33373E+01 0.00000E+00
 -1      3551 7.01208E+01 1.33373E+01 0.00000E+00
 -1      3552 8.12850E+01 1.30992E+01 0.00000E+00
 -1      3553 7.97850E+01 1.30992E+01 0.00000E+00
 -1      3554 8.42850E+01 1.30992E+01 0.00000E+00
 -1      3555 8.27850E+01 1.30992E+01 0.00000E+00
 -1      3556 8.20350E+01 1.43982E+01 0.00000E+00
 -1      3557 8.72850E+01 1.30992E+01 0.00000E+00
 -1      3558 8.57850E+01 1.30992E+01 0.00000E+00
 -1      3559 8.50350E+01 1.43982E+01 0.00000E+00
 -1      3560 9.02850E+01 1.30992E+01 0.00000E+00
 -1      3561 8.87850E+01 1.30992E+01 0.00000E+00
 -1      3562 8.80350E+01 1.43982E+01 0.00000E+00
 -1      3563 9.32850E+01 1.30992E+01 0.00000E+00
 -1      3564 9.17850E+01 1.30992E+01 0.00000E+00
 -1      3565 9.10350E+01 1.43982E+01 0.00000E+00
 -1      3566 9.62850E+01 1.30992E+01 0.00000E+00
 -1      3567 9.47850E+01 1.30992E+01 0.00000E+00
 -1      3568 9.40350E+01 1.43982E+01 0.00000E+00
 -1      3569 9.92850E+01 1.30992E+01 0.00000E+00
 -1      3570 9.77850E+01 1.30992E+01 0.00000E+00
 -1      3571 9.70350E+01 1.43982E+01 0.00000E+00
 -1      3572 1.02285E+02 1.30992E+01 0.00000E+00
 -1      3573 1.00785E+02 1.30992E+01 0.00000E+00
 -1      3574 1.00035E+02 1.43982E+01 0.00000E+00
 -1      3575 1.05285E+02 1.30992E+01 0.00000E+00
 -1      3576 1.03785E+02 1.30992E+01 0.00000E+00
 -1      3577 1.03035E+02 1.43982E+01 0.00000E+00
 -1      3578 1.08285E+02 1.30992E+01 0.00000E+00
 -1      3579 1.06785E+02 1.30992E+01 0.00000E+00
 -1      3580 1.06035E+02 1.43982E+01 0.00000E+00
 -1      3581 1.11285E+02 1.30992E+01 0.00000E+00
 -1      3582 1.09785E+02 1.30992E+01 0.00000E+00
 -1      3583 1.09035E+02 1.43982E+01 0.00000E+00
 -1      3584 1.14285E+02 1.30992E+01 0.00000E+00
 -1      3585 1.12785E+02 1.30992E+01 0.00000E+00
 -1      3586 1.12035E+02 1.43982E+01 0.00000E+00
 -1      3587 1.17285E+02 1.30992E+01 0.00000E+00
 -1      3588 1.15785E+02 1.30992E+01 0.00000E+00
 -1      3589 1.15035E+02 1.43982E+01 0.00000E+00
 -1      3590 1.20285E+02 1.30992E+01 0.00000E+00
 -1      3591 1.18785E+02 1.30992E+01 0.00000E+00
 -1      3592 1.18035E+02 1.43982E+01 0.00000E+00
 -1      3593 1.23285E+02 1.30992E+01 0.00000E+00
 -1      3594 1.21785E+02 1.30992E+01 0.00000E+00
 -1      3595 1.21035E+02 1.43982E+01 0.00000E+00
 -1      3596 1.26285E+02 1.30992E+01 0.00000E+00
 -1      3597 1.24785E+02 1.30992E+01 0.00000E+00
 -1      3598 1.24035E+02 1.43982E+01 0.00000E+00
 -1      3599 1.29285E+02 1.30992E+01 0.00000E+00
 -1      3600 1.27785E+02 1.30992E+01 0.00000E+00
 -1      3601 1.27035E+02 1.43982E+01 0.00000E+00
 -1      3602 1.32285E+02 1.30992E+01 0.00000E+00
 -1      3603 1.30785E+02 1.30992E+01 0.00000E+00
 -1      3604 1.30035E+02 1.43982E+01 0.00000E+00
 -1      3605 1.35285E+02 1.30992E+01 0.00000E+00
 -1      3606 1.33785E+02 1.30992E+01 0.00000E+00
 -1      3607 1.33035E+02 1.43982E+01 0.00000E+00
 -1      3608 4.45554E+01 3.19155E+01 0.00000E+00
 -1      3609 4.41482E+01 3.04896E+01 0.00000E+00
 -1      3610 5.51573E+01 1.30235E+01 0.00000E+00
 -1      3611 5.70001E+01 1.26318E+01 0.00000E+00
 -1      3612 1.35711E+02 3.01625E+01 0.00000E+00
 -1      3613 1.35711E+02 2.86875E+01 0.00000E+00
 -1      3614 1.15815E+01 3.63489E+01 0.00000E+00
 -1      3615 7.64180E+01 2.85107E+01 0.00000E+00
 -1      3616 7.56225E+01 2.95502E+01 0.00000E+00
 -1      3617 1.35711E+02 2.72125E+01 0.00000E+00
 -1      3618 1.35711E+02 2.57375E+01 0.00000E+00
 -1      3619 1.34412E+02 2.79500E+01 0.00000E+00
 -1      3620 7.26754E+01 3.56429E+01 0.00000E+00
 -1      3621 7.82850E+01 1.30992E+01 0.00000E+00
 -1      3622 7.67850E+01 1.30992E+01 0.00000E+00
 -1      3623 7.90350E+01 1.43982E+01 0.00000E+00
 -1      3624 1.38643E+02 1.48068E+01 0.00000E+00
 -1      3625 1.38709E+02 1.35665E+01 0.00000E+00
 -1      3626 1.37750E+02 1.33444E+01 0.00000E+00
 -1      3627 1.37344E+02 1.55443E+01 0.00000E+00
 -1      3628 7.52850E+01 1.30992E+01 0.00000E+00
 -1      3629 7.37850E+01 1.30992E+01 0.00000E+00
 -1      3630 7.60350E+01 1.43982E+01 0.00000E+00
 -1      3631 1.16910E+01 2.71844E+01 0.00000E+00
 -1      3632 1.16910E+01 2.86531E+01 0.00000E+00
 -1      3633 1.29900E+01 2.93875E+01 0.00000E+00
 -1      3634 7.74000E+01 3.57110E+01 0.00000E+00
 -1      3635 7.89000E+01 3.57110E+01 0.00000E+00
 -1      3636 7.96500E+01 3.44120E+01 0.00000E+00
 -1      3637 7.35946E+01 2.88059E+01 0.00000E+00
 -1      3638 1.35711E+02 3.31125E+01 0.00000E+00
 -1      3639 1.35711E+02 3.16375E+01 0.00000E+00
 -1      3640 1.34412E+02 3.09000E+01 0.00000E+00
 -1      3641 6.12292E+01 1.33914E+01 0.00000E+00
 -1      3642 1.74000E+01 3.57110E+01 0.00000E+00
 -1      3643 1.89000E+01 3.57110E+01 0.00000E+00
 -1      3644 1.96500E+01 3.44120E+01 0.00000E+00
 -1      3645 7.43804E+01 3.12136E+01 0.00000E+00
 -1      3646 7.38459E+01 3.20653E+01 0.00000E+00
 -1      3647 4.46973E+01 3.46784E+01 0.00000E+00
 -1      3648 1.35992E+01 3.60377E+01 0.00000E+00
 -1      3649 1.55387E+01 3.58251E+01 0.00000E+00
 -1      3650 7.32082E+01 3.43881E+01 0.00000E+00
 -1      3651 7.41828E+01 3.57552E+01 0.00000E+00
 -1      3652 7.56828E+01 3.57552E+01 0.00000E+00
 -1      3653 7.37485E+01 3.32456E+01 0.00000E+00
 -1      3654 4.80003E+01 1.32715E+01 0.00000E+00
 -1      3655 4.65003E+01 1.32715E+01 0.00000E+00
 -1      3656 1.42890E+01 1.39344E+01 0.00000E+00
 -1      3657 1.42890E+01 1.54031E+01 0.00000E+00
 -1      3658 4.49675E+01 2.03224E+01 0.00000E+00
 -1      3659 4.58072E+01 1.98949E+01 0.00000E+00
 -1      3660 4.55143E+01 1.87759E+01 0.00000E+00
 -1      3661 7.66839E+01 2.39154E+01 0.00000E+00
 -1      3662 7.48131E+01 3.33201E+01 0.00000E+00
 -1      3663 1.90350E+01 1.43983E+01 0.00000E+00
 -1      3664 1.82850E+01 1.30993E+01 0.00000E+00
 -1      3665 4.57503E+01 1.45705E+01 0.00000E+00
 -1      3666 7.40972E+01 2.98417E+01 0.00000E+00
 -1      3667 2.27850E+01 1.30992E+01 0.00000E+00
 -1      3668 2.20350E+01 1.43982E+01 0.00000E+00
 -1      3669 2.42850E+01 1.30992E+01 0.00000E+00
 -1      3670 4.37213E+01 2.63523E+01 0.00000E+00
 -1      3671 4.34766E+01 2.54419E+01 0.00000E+00
 -1      3672 4.30454E+01 2.71743E+01 0.00000E+00
 -1      3673 2.65350E+01 1.18003E+01 0.00000E+00
 -1      3674 4.47065E+01 2.30307E+01 0.00000E+00
 -1      3675 4.43680E+01 2.20525E+01 0.00000E+00
 -1      3676 4.38140E+01 2.36417E+01 0.00000E+00
 -1      3677 3.10350E+01 1.43982E+01 0.00000E+00
 -1      3678 3.02850E+01 1.30992E+01 0.00000E+00
 -1      3679 2.87850E+01 1.30992E+01 0.00000E+00
 -1      3680 3.47850E+01 1.30992E+01 0.00000E+00
 -1      3681 3.40350E+01 1.43982E+01 0.00000E+00
 -1      3682 3.62850E+01 1.30992E+01 0.00000E+00
 -1      3683 1.34022E+02 3.59933E+01 0.00000E+00
 -1      3684 1.35329E+02 3.61043E+01 0.00000E+00
 -1      3685 1.35515E+02 3.52588E+01 0.00000E+00
 -1      3686 1.33272E+02 3.46942E+01 0.00000E+00
 -1      3687 4.94326E+01 1.35805E+01 0.00000E+00
 -1      3688 4.00350E+01 1.43982E+01 0.00000E+00
 -1      3689 3.92850E+01 1.30992E+01 0.00000E+00
 -1      3690 3.77850E+01 1.30992E+01 0.00000E+00
 -1      3691 4.67705E+01 1.69099E+01 0.00000E+00
 -1      3692 4.62050E+01 1.55580E+01 0.00000E+00
 -1      3693 4.49898E+01 1.53858E+01 0.00000E+00
 -1      3694 4.58993E+01 1.73608E+01 0.00000E+00
 -1      3695 5.09326E+01 1.35805E+01 0.00000E+00
 -1      3696 1.62887E+01 3.45261E+01 0.00000E+00
 -1      3697 7.23708E+01 1.46363E+01 0.00000E+00
 -1      3698 4.25460E+01 3.07788E+01 0.00000E+00
 -1      3699 4.33281E+01 2.97843E+01 0.00000E+00
 -1      3700 4.25081E+01 2.90791E+01 0.00000E+00
 -1      3701 4.39473E+01 3.33794E+01 0.00000E+00
 -1      3702 4.27580E+01 3.29480E+01 0.00000E+00
 -1      3703 1.36791E+02 1.31223E+01 0.00000E+00
 -1      3704 1.48779E+01 1.21429E+01 0.00000E+00
 -1      3705 1.44917E+01 1.31424E+01 0.00000E+00
 -1      3706 1.57907E+01 1.38767E+01 0.00000E+00
 -1      3707 1.61961E+01 1.22927E+01 0.00000E+00
 -1      3708 1.35711E+02 2.42687E+01 0.00000E+00
 -1      3709 1.35711E+02 2.28000E+01 0.00000E+00
 -1      3710 1.34412E+02 2.50063E+01 0.00000E+00
 -1      3711 7.80805E+01 2.63060E+01 0.00000E+00
 -1      3712 7.72493E+01 2.74083E+01 0.00000E+00
 -1      3713 7.77321E+01 2.86020E+01 0.00000E+00
 -1      3714 1.35711E+02 2.13312E+01 0.00000E+00
 -1      3715 1.35711E+02 1.98625E+01 0.00000E+00
 -1      3716 1.34412E+02 2.20688E+01 0.00000E+00
 -1      3717 7.42843E+01 2.08127E+01 0.00000E+00
 -1      3718 7.55843E+01 2.14118E+01 0.00000E+00
 -1      3719 1.28805E+01 3.56145E+01 0.00000E+00
 -1      3720 1.35702E+02 3.44132E+01 0.00000E+00
 -1      3721 1.29900E+01 1.76125E+01 0.00000E+00
 -1      3722 1.34478E+02 1.93597E+01 0.00000E+00
 -1      3723 1.35777E+02 1.86222E+01 0.00000E+00
 -1      3724 1.35842E+02 1.73818E+01 0.00000E+00
 -1      3725 1.42890E+01 2.27625E+01 0.00000E+00
 -1      3726 1.42890E+01 2.42375E+01 0.00000E+00
 -1      3727 1.69669E+01 1.29495E+01 0.00000E+00
 -1      3728 7.28634E+01 1.56629E+01 0.00000E+00
 -1      3729 1.29900E+01 2.64469E+01 0.00000E+00
 -1      3730 7.64328E+01 3.44562E+01 0.00000E+00
 -1      3731 1.34403E+02 3.36758E+01 0.00000E+00
 -1      3732 7.46965E+01 1.56047E+01 0.00000E+00
 -1      3733 7.30248E+01 1.68693E+01 0.00000E+00
 -1      3734 7.35195E+01 1.80175E+01 0.00000E+00
 -1      3735 7.61965E+01 1.56047E+01 0.00000E+00
 -1      3736 1.36041E+02 1.44213E+01 0.00000E+00
 -1      3737 7.37897E+01 1.96645E+01 0.00000E+00
 -1      3738 1.42890E+01 2.12938E+01 0.00000E+00
 -1      3739 1.55880E+01 2.20313E+01 0.00000E+00
 -1      3740 1.42890E+01 1.98250E+01 0.00000E+00
 -1      3741 1.42890E+01 2.86531E+01 0.00000E+00
 -1      3742 1.42890E+01 3.01219E+01 0.00000E+00
 -1      3743 7.51174E+01 3.01155E+01 0.00000E+00
 -1      3744 7.48706E+01 3.05612E+01 0.00000E+00
 -1      3745 7.63958E+01 3.02697E+01 0.00000E+00
 -1      3746 7.54006E+01 3.14874E+01 0.00000E+00
 -1      3747 1.33113E+02 3.16375E+01 0.00000E+00
 -1      3748 1.33113E+02 3.01625E+01 0.00000E+00
 -1      3749 1.89000E+01 3.31130E+01 0.00000E+00
 -1      3750 2.04000E+01 3.31130E+01 0.00000E+00
 -1      3751 7.59654E+01 3.23817E+01 0.00000E+00
 -1      3752 7.58680E+01 3.35620E+01 0.00000E+00
 -1      3753 7.75852E+01 3.35178E+01 0.00000E+00
 -1      3754 7.64556E+01 3.17293E+01 0.00000E+00
 -1      3755 5.55001E+01 1.26430E+01 0.00000E+00
 -1      3756 1.42890E+01 2.71812E+01 0.00000E+00
 -1      3757 1.55880E+01 2.79156E+01 0.00000E+00
 -1      3758 1.42890E+01 2.57094E+01 0.00000E+00
 -1      3759 2.49000E+01 3.31130E+01 0.00000E+00
 -1      3760 2.64000E+01 3.31130E+01 0.00000E+00
 -1      3761 2.79000E+01 3.31130E+01 0.00000E+00
 -1      3762 2.94000E+01 3.31130E+01 0.00000E+00
 -1      3763 2.71500E+01 3.18140E+01 0.00000E+00
 -1      3764 3.09000E+01 3.31130E+01 0.00000E+00
 -1      3765 3.24000E+01 3.31130E+01 0.00000E+00
 -1      3766 3.01500E+01 3.18140E+01 0.00000E+00
 -1      3767 3.39000E+01 3.31130E+01 0.00000E+00
 -1      3768 3.54000E+01 3.31130E+01 0.00000E+00
 -1      3769 3.31500E+01 3.18140E+01 0.00000E+00
 -1      3770 3.69000E+01 3.31130E+01 0.00000E+00
 -1      3771 3.84000E+01 3.31130E+01 0.00000E+00
 -1      3772 3.61500E+01 3.18140E+01 0.00000E+00
 -1      3773 7.67775E+01 2.05756E+01 0.00000E+00
 -1      3774 7.69633E+01 2.18822E+01 0.00000E+00
 -1      3775 7.78771E+01 2.30791E+01 0.00000E+00
 -1      3776 1.52786E+01 3.32865E+01 0.00000E+00
 -1      3777 1.71399E+01 3.31725E+01 0.00000E+00
 -1      3778 8.49000E+01 3.31130E+01 0.00000E+00
 -1      3779 8.64000E+01 3.31130E+01 0.00000E+00
 -1      3780 8.79000E+01 3.31130E+01 0.00000E+00
 -1      3781 8.94000E+01 3.31130E+01 0.00000E+00
 -1      3782 8.71500E+01 3.18140E+01 0.00000E+00
 -1      3783 9.09000E+01 3.31130E+01 0.00000E+00
 -1      3784 9.24000E+01 3.31130E+01 0.00000E+00
 -1      3785 9.01500E+01 3.18140E+01 0.00000E+00
 -1      3786 9.39000E+01 3.31130E+01 0.00000E+00
 -1      3787 9.54000E+01 3.31130E+01 0.00000E+00
 -1      3788 9.31500E+01 3.18140E+01 0.00000E+00
 -1      3789 9.69000E+01 3.31130E+01 0.00000E+00
 -1      3790 9.84000E+01 3.31130E+01 0.00000E+00
 -1      3791 9.61500E+01 3.18140E+01 0.00000E+00
 -1      3792 9.99000E+01 3.31130E+01 0.00000E+00
 -1      3793 1.01400E+02 3.31130E+01 0.00000E+00
 -1      3794 9.91500E+01 3.18140E+01 0.00000E+00
 -1      3795 1.02900E+02 3.31130E+01 0.00000E+00
 -1      3796 1.04400E+02 3.31130E+01 0.00000E+00
 -1      3797 1.02150E+02 3.18140E+01 0.00000E+00
 -1      3798 1.05900E+02 3.31130E+01 0.00000E+00
 -1      3799 1.07400E+02 3.31130E+01 0.00000E+00
 -1      3800 1.05150E+02 3.18140E+01 0.00000E+00
 -1      3801 1.08900E+02 3.31130E+01 0.00000E+00
 -1      3802 1.10400E+02 3.31130E+01 0.00000E+00
 -1      3803 1.08150E+02 3.18140E+01 0.00000E+00
 -1      3804 1.11900E+02 3.31130E+01 0.00000E+00
 -1      3805 1.13400E+02 3.31130E+01 0.00000E+00
 -1      3806 1.11150E+02 3.18140E+01 0.00000E+00
 -1      3807 1.14900E+02 3.31130E+01 0.00000E+00
 -1      3808 1.16400E+02 3.31130E+01 0.00000E+00
 -1      3809 1.14150E+02 3.18140E+01 0.00000E+00
 -1      3810 1.17900E+02 3.31130E+01 0.00000E+00
 -1      3811 1.19400E+02 3.31130E+01 0.00000E+00
 -1      3812 1.17150E+02 3.18140E+01 0.00000E+00
 -1      3813 1.20900E+02 3.31130E+01 0.00000E+00
 -1      3814 1.22400E+02 3.31130E+01 0.00000E+00
 -1      3815 1.20150E+02 3.18140E+01 0.00000E+00
 -1      3816 1.23900E+02 3.31130E+01 0.00000E+00
 -1      3817 1.25400E+02 3.31130E+01 0.00000E+00
 -1      3818 1.23150E+02 3.18140E+01 0.00000E+00
 -1      3819 1.26900E+02 3.31130E+01 0.00000E+00
 -1      3820 1.28400E+02 3.31130E+01 0.00000E+00
 -1      3821 1.26150E+02 3.18140E+01 0.00000E+00
 -1      3822 1.33281E+02 3.33935E+01 0.00000E+00
 -1      3823 6.22691E+01 1.08616E+01 0.00000E+00
 -1      3824 8.27850E+01 1.56973E+01 0.00000E+00
 -1      3825 8.12850E+01 1.56973E+01 0.00000E+00
 -1      3826 9.17850E+01 1.56973E+01 0.00000E+00
 -1      3827 9.02850E+01 1.56973E+01 0.00000E+00
 -1      3828 9.47850E+01 1.56973E+01 0.00000E+00
 -1      3829 9.32850E+01 1.56973E+01 0.00000E+00
 -1      3830 9.25350E+01 1.69963E+01 0.00000E+00
 -1      3831 9.77850E+01 1.56973E+01 0.00000E+00
 -1      3832 9.62850E+01 1.56973E+01 0.00000E+00
 -1      3833 9.55350E+01 1.69963E+01 0.00000E+00
 -1      3834 1.00785E+02 1.56973E+01 0.00000E+00
 -1      3835 9.92850E+01 1.56973E+01 0.00000E+00
 -1      3836 9.85350E+01 1.69963E+01 0.00000E+00
 -1      3837 1.03785E+02 1.56973E+01 0.00000E+00
 -1      3838 1.02285E+02 1.56973E+01 0.00000E+00
 -1      3839 1.01535E+02 1.69963E+01 0.00000E+00
 -1      3840 1.06785E+02 1.56973E+01 0.00000E+00
 -1      3841 1.05285E+02 1.56973E+01 0.00000E+00
 -1      3842 1.04535E+02 1.69963E+01 0.00000E+00
 -1      3843 1.09785E+02 1.56973E+01 0.00000E+00
 -1      3844 1.08285E+02 1.56973E+01 0.00000E+00
 -1      3845 1.07535E+02 1.69963E+01 0.00000E+00
 -1      3846 1.12785E+02 1.56973E+01 0.00000E+00
 -1      3847 1.11285E+02 1.56973E+01 0.00000E+00
 -1      3848 1.10535E+02 1.69963E+01 0.00000E+00
 -1      3849 1.15785E+02 1.56973E+01 0.00000E+00
 -1      3850 1.14285E+02 1.56973E+01 0.00000E+00
 -1      3851 1.13535E+02 1.69963E+01 0.00000E+00
 -1      3852 1.18785E+02 1.56973E+01 0.00000E+00
 -1      3853 1.17285E+02 1.56973E+01 0.00000E+00
 -1      3854 1.16535E+02 1.69963E+01 0.00000E+00
 -1      3855 1.21785E+02 1.56973E+01 0.00000E+00
 -1      3856 1.20285E+02 1.56973E+01 0.00000E+00
 -1      3857 1.19535E+02 1.69963E+01 0.00000E+00
 -1      3858 1.24785E+02 1.56973E+01 0.00000E+00
 -1      3859 1.23285E+02 1.56973E+01 0.00000E+00
 -1      3860 1.22535E+02 1.69963E+01 0.00000E+00
 -1      3861 1.27785E+02 1.56973E+01 0.00000E+00
 -1      3862 1.26285E+02 1.56973E+01 0.00000E+00
 -1      3863 1.25535E+02 1.69963E+01 0.00000E+00
 -1      3864 1.30785E+02 1.56973E+01 0.00000E+00
 -1      3865 1.29285E+02 1.56973E+01 0.00000E+00
 -1      3866 1.28535E+02 1.69963E+01 0.00000E+00
 -1      3867 1.58589E+01 3.06602E+01 0.00000E+00
 -1      3868 1.45599E+01 3.13946E+01 0.00000E+00
 -1      3869 7.51282E+01 1.84581E+01 0.00000E+00
 -1      3870 1.35838E+02 1.55213E+01 0.00000E+00
 -1      3871 5.46922E+01 1.21582E+01 0.00000E+00
 -1      3872 1.33113E+02 2.86875E+01 0.00000E+00
 -1      3873 1.33113E+02 2.72125E+01 0.00000E+00
 -1      3874 1.31814E+02 2.94250E+01 0.00000E+00
 -1      3875 1.37087E+01 3.42169E+01 0.00000E+00
 -1      3876 1.42890E+01 1.68766E+01 0.00000E+00
 -1      3877 1.42890E+01 1.83516E+01 0.00000E+00
 -1      3878 1.55880E+01 1.90891E+01 0.00000E+00
 -1      3879 1.55880E+01 1.61422E+01 0.00000E+00
 -1      3880 8.87850E+01 1.56973E+01 0.00000E+00
 -1      3881 8.72850E+01 1.56973E+01 0.00000E+00
 -1      3882 8.95350E+01 1.69963E+01 0.00000E+00
 -1      3883 4.12940E+01 3.33274E+01 0.00000E+00
 -1      3884 4.19020E+01 3.18634E+01 0.00000E+00
 -1      3885 4.10820E+01 3.11581E+01 0.00000E+00
 -1      3886 3.97940E+01 3.33274E+01 0.00000E+00
 -1      3887 8.57850E+01 1.56973E+01 0.00000E+00
 -1      3888 8.42850E+01 1.56973E+01 0.00000E+00
 -1      3889 8.35350E+01 1.69963E+01 0.00000E+00
 -1      3890 4.34898E+01 1.53858E+01 0.00000E+00
 -1      3891 4.19898E+01 1.53858E+01 0.00000E+00
 -1      3892 4.39445E+01 1.63733E+01 0.00000E+00
 -1      3893 7.97850E+01 1.56973E+01 0.00000E+00
 -1      3894 7.82850E+01 1.56973E+01 0.00000E+00
 -1      3895 8.05350E+01 1.69963E+01 0.00000E+00
 -1      3896 1.55880E+01 2.49719E+01 0.00000E+00
 -1      3897 1.78899E+01 3.18735E+01 0.00000E+00
 -1      3898 1.31982E+02 3.26560E+01 0.00000E+00
 -1      3899 1.45599E+01 3.28633E+01 0.00000E+00
 -1      3900 1.73481E+01 2.93280E+01 0.00000E+00
 -1      3901 1.76190E+01 3.06007E+01 0.00000E+00
 -1      3902 1.93791E+01 3.05413E+01 0.00000E+00
 -1      3903 2.19000E+01 3.31130E+01 0.00000E+00
 -1      3904 2.34000E+01 3.31130E+01 0.00000E+00
 -1      3905 2.11500E+01 3.18140E+01 0.00000E+00
 -1      3906 5.22027E+01 1.27177E+01 0.00000E+00
 -1      3907 2.72850E+01 1.30992E+01 0.00000E+00
 -1      3908 2.57850E+01 1.30992E+01 0.00000E+00
 -1      3909 2.80350E+01 1.43982E+01 0.00000E+00
 -1      3910 7.90852E+01 3.35178E+01 0.00000E+00
 -1      3911 8.05852E+01 3.35178E+01 0.00000E+00
 -1      3912 7.85204E+01 3.26235E+01 0.00000E+00
 -1      3913 8.19000E+01 3.31130E+01 0.00000E+00
 -1      3914 8.34000E+01 3.31130E+01 0.00000E+00
 -1      3915 8.41500E+01 3.18140E+01 0.00000E+00
 -1      3916 1.97850E+01 1.56973E+01 0.00000E+00
 -1      3917 1.82851E+01 1.56973E+01 0.00000E+00
 -1      3918 1.34539E+02 1.62588E+01 0.00000E+00
 -1      3919 5.31922E+01 1.21695E+01 0.00000E+00
 -1      3920 4.50596E+01 1.77884E+01 0.00000E+00
 -1      3921 2.41500E+01 3.18140E+01 0.00000E+00
 -1      3922 7.72167E+01 1.85507E+01 0.00000E+00
 -1      3923 7.85957E+01 1.90211E+01 0.00000E+00
 -1      3924 2.50350E+01 1.43982E+01 0.00000E+00
 -1      3925 7.91983E+01 2.22249E+01 0.00000E+00
 -1      3926 7.89190E+01 2.42581E+01 0.00000E+00
 -1      3927 4.22633E+01 2.81687E+01 0.00000E+00
 -1      3928 4.20186E+01 2.72583E+01 0.00000E+00
 -1      3929 4.14812E+01 2.91631E+01 0.00000E+00
 -1      3930 4.31381E+01 2.44637E+01 0.00000E+00
 -1      3931 4.27996E+01 2.34855E+01 0.00000E+00
 -1      3932 4.24622E+01 2.52857E+01 0.00000E+00
 -1      3933 2.27850E+01 1.56973E+01 0.00000E+00
 -1      3934 2.12850E+01 1.56973E+01 0.00000E+00
 -1      3935 2.05351E+01 1.69963E+01 0.00000E+00
 -1      3936 3.17850E+01 1.56973E+01 0.00000E+00
 -1      3937 3.02850E+01 1.56973E+01 0.00000E+00
 -1      3938 3.70350E+01 1.43982E+01 0.00000E+00
 -1      3939 1.30482E+02 3.26560E+01 0.00000E+00
 -1      3940 4.04898E+01 1.53858E+01 0.00000E+00
 -1      3941 3.89898E+01 1.53858E+01 0.00000E+00
 -1      3942 4.09445E+01 1.63733E+01 0.00000E+00
 -1      3943 1.33113E+02 2.57437E+01 0.00000E+00
 -1      3944 1.33113E+02 2.42750E+01 0.00000E+00
 -1      3945 1.31814E+02 2.64813E+01 0.00000E+00
 -1      3946 3.47850E+01 1.56973E+01 0.00000E+00
 -1      3947 3.32850E+01 1.56973E+01 0.00000E+00
 -1      3948 3.25350E+01 1.69963E+01 0.00000E+00
 -1      3949 1.73481E+01 2.78562E+01 0.00000E+00
 -1      3950 4.40750E+01 2.09335E+01 0.00000E+00
 -1      3951 4.37821E+01 1.98145E+01 0.00000E+00
 -1      3952 4.31826E+01 2.15446E+01 0.00000E+00
 -1      3953 8.65350E+01 1.69963E+01 0.00000E+00
 -1      3954 1.33785E+02 1.56973E+01 0.00000E+00
 -1      3955 1.32285E+02 1.56973E+01 0.00000E+00
 -1      3956 7.69465E+01 1.69037E+01 0.00000E+00
 -1      3957 7.94018E+01 2.54518E+01 0.00000E+00
 -1      3958 7.98847E+01 2.66454E+01 0.00000E+00
 -1      3959 8.07231E+01 2.45975E+01 0.00000E+00
 -1      3960 1.33113E+02 2.28062E+01 0.00000E+00
 -1      3961 1.33113E+02 2.13375E+01 0.00000E+00
 -1      3962 1.31814E+02 2.35438E+01 0.00000E+00
 -1      3963 1.33179E+02 2.00972E+01 0.00000E+00
 -1      3964 1.33244E+02 1.88568E+01 0.00000E+00
 -1      3965 1.31880E+02 2.08347E+01 0.00000E+00
 -1      3966 1.31535E+02 1.69963E+01 0.00000E+00
 -1      3967 3.90440E+01 3.20284E+01 0.00000E+00
 -1      3968 7.91849E+01 2.88330E+01 0.00000E+00
 -1      3969 7.83536E+01 2.99353E+01 0.00000E+00
 -1      3970 1.29732E+02 3.13570E+01 0.00000E+00
 -1      3971 7.71757E+01 3.09995E+01 0.00000E+00
 -1      3972 7.77405E+01 3.18937E+01 0.00000E+00
 -1      3973 7.92405E+01 3.18937E+01 0.00000E+00
 -1      3974 7.76807E+01 3.04342E+01 0.00000E+00
 -1      3975 1.68870E+01 2.42359E+01 0.00000E+00
 -1      3976 1.68870E+01 2.57078E+01 0.00000E+00
 -1      3977 1.68870E+01 2.12984E+01 0.00000E+00
 -1      3978 1.68870E+01 2.27672E+01 0.00000E+00
 -1      3979 1.81860E+01 2.35031E+01 0.00000E+00
 -1      3980 8.13352E+01 3.22188E+01 0.00000E+00
 -1      3981 4.35596E+01 1.77884E+01 0.00000E+00
 -1      3982 8.34000E+01 3.05150E+01 0.00000E+00
 -1      3983 8.49000E+01 3.05150E+01 0.00000E+00
 -1      3984 1.73115E+01 1.73059E+01 0.00000E+00
 -1      3985 1.65615E+01 1.60070E+01 0.00000E+00
 -1      3986 8.00863E+01 1.85982E+01 0.00000E+00
 -1      3987 7.96470E+01 2.06230E+01 0.00000E+00
 -1      3988 8.06889E+01 2.18020E+01 0.00000E+00
 -1      3989 8.15863E+01 1.85982E+01 0.00000E+00
 -1      3990 2.94000E+01 3.05150E+01 0.00000E+00
 -1      3991 3.09000E+01 3.05150E+01 0.00000E+00
 -1      3992 3.24000E+01 3.05150E+01 0.00000E+00
 -1      3993 3.39000E+01 3.05150E+01 0.00000E+00
 -1      3994 3.16500E+01 2.92160E+01 0.00000E+00
 -1      3995 3.54000E+01 3.05150E+01 0.00000E+00
 -1      3996 3.69000E+01 3.05150E+01 0.00000E+00
 -1      3997 3.46500E+01 2.92160E+01 0.00000E+00
 -1      3998 2.57850E+01 1.56973E+01 0.00000E+00
 -1      3999 2.42850E+01 1.56973E+01 0.00000E+00
 -1      4000 2.35351E+01 1.69963E+01 0.00000E+00
 -1      4001 8.45863E+01 1.85982E+01 0.00000E+00
 -1      4002 8.30863E+01 1.85982E+01 0.00000E+00
 -1      4003 8.26376E+01 2.02001E+01 0.00000E+00
 -1      4004 1.86471E+01 2.71202E+01 0.00000E+00
 -1      4005 3.76374E+01 1.55415E+01 0.00000E+00
 -1      4006 3.61374E+01 1.55415E+01 0.00000E+00
 -1      4007 3.53874E+01 1.68405E+01 0.00000E+00
 -1      4008 3.80921E+01 1.65290E+01 0.00000E+00
 -1      4009 8.94000E+01 3.05150E+01 0.00000E+00
 -1      4010 9.09000E+01 3.05150E+01 0.00000E+00
 -1      4011 9.24000E+01 3.05150E+01 0.00000E+00
 -1      4012 9.39000E+01 3.05150E+01 0.00000E+00
 -1      4013 9.16500E+01 2.92160E+01 0.00000E+00
 -1      4014 9.54000E+01 3.05150E+01 0.00000E+00
 -1      4015 9.69000E+01 3.05150E+01 0.00000E+00
 -1      4016 9.46500E+01 2.92160E+01 0.00000E+00
 -1      4017 9.84000E+01 3.05150E+01 0.00000E+00
 -1      4018 9.99000E+01 3.05150E+01 0.00000E+00
 -1      4019 9.76500E+01 2.92160E+01 0.00000E+00
 -1      4020 1.01400E+02 3.05150E+01 0.00000E+00
 -1      4021 1.02900E+02 3.05150E+01 0.00000E+00
 -1      4022 1.00650E+02 2.92160E+01 0.00000E+00
 -1      4023 1.04400E+02 3.05150E+01 0.00000E+00
 -1      4024 1.05900E+02 3.05150E+01 0.00000E+00
 -1      4025 1.03650E+02 2.92160E+01 0.00000E+00
 -1      4026 1.07400E+02 3.05150E+01 0.00000E+00
 -1      4027 1.08900E+02 3.05150E+01 0.00000E+00
 -1      4028 1.06650E+02 2.92160E+01 0.00000E+00
 -1      4029 1.10400E+02 3.05150E+01 0.00000E+00
 -1      4030 1.11900E+02 3.05150E+01 0.00000E+00
 -1      4031 1.09650E+02 2.92160E+01 0.00000E+00
 -1      4032 1.13400E+02 3.05150E+01 0.00000E+00
 -1      4033 1.14900E+02 3.05150E+01 0.00000E+00
 -1      4034 1.12650E+02 2.92160E+01 0.00000E+00
 -1      4035 1.16400E+02 3.05150E+01 0.00000E+00
 -1      4036 1.17900E+02 3.05150E+01 0.00000E+00
 -1      4037 1.15650E+02 2.92160E+01 0.00000E+00
 -1      4038 1.19400E+02 3.05150E+01 0.00000E+00
 -1      4039 1.20900E+02 3.05150E+01 0.00000E+00
 -1      4040 1.18650E+02 2.92160E+01 0.00000E+00
 -1      4041 1.22400E+02 3.05150E+01 0.00000E+00
 -1      4042 1.23900E+02 3.05150E+01 0.00000E+00
 -1      4043 1.21650E+02 2.92160E+01 0.00000E+00
 -1      4044 1.25400E+02 3.05150E+01 0.00000E+00
 -1      4045 1.26900E+02 3.05150E+01 0.00000E+00
 -1      4046 1.24650E+02 2.92160E+01 0.00000E+00
 -1      4047 9.92850E+01 1.82952E+01 0.00000E+00
 -1      4048 9.77850E+01 1.82952E+01 0.00000E+00
 -1      4049 9.62850E+01 1.82952E+01 0.00000E+00
 -1      4050 9.47850E+01 1.82952E+01 0.00000E+00
 -1      4051 9.70350E+01 1.95942E+01 0.00000E+00
 -1      4052 2.34000E+01 3.05150E+01 0.00000E+00
 -1      4053 2.49000E+01 3.05150E+01 0.00000E+00
 -1      4054 1.33789E+02 1.75578E+01 0.00000E+00
 -1      4055 1.67642E+01 1.37415E+01 0.00000E+00
 -1      4056 1.65615E+01 1.45335E+01 0.00000E+00
 -1      4057 3.96880E+01 3.09437E+01 0.00000E+00
 -1      4058 4.03320E+01 2.98591E+01 0.00000E+00
 -1      4059 3.82940E+01 3.07294E+01 0.00000E+00
 -1      4060 9.32850E+01 1.82952E+01 0.00000E+00
 -1      4061 9.17850E+01 1.82952E+01 0.00000E+00
 -1      4062 9.40350E+01 1.95942E+01 0.00000E+00
 -1      4063 1.02285E+02 1.82952E+01 0.00000E+00
 -1      4064 1.00785E+02 1.82952E+01 0.00000E+00
 -1      4065 1.00035E+02 1.95942E+01 0.00000E+00
 -1      4066 1.05285E+02 1.82952E+01 0.00000E+00
 -1      4067 1.03785E+02 1.82952E+01 0.00000E+00
 -1      4068 1.03035E+02 1.95942E+01 0.00000E+00
 -1      4069 1.08285E+02 1.82952E+01 0.00000E+00
 -1      4070 1.06785E+02 1.82952E+01 0.00000E+00
 -1      4071 1.06035E+02 1.95942E+01 0.00000E+00
 -1      4072 1.11285E+02 1.82952E+01 0.00000E+00
 -1      4073 1.09785E+02 1.82952E+01 0.00000E+00
 -1      4074 1.09035E+02 1.95942E+01 0.00000E+00
 -1      4075 1.14285E+02 1.82952E+01 0.00000E+00
 -1      4076 1.12785E+02 1.82952E+01 0.00000E+00
 -1      4077 1.12035E+02 1.95942E+01 0.00000E+00
 -1      4078 1.17285E+02 1.82952E+01 0.00000E+00
 -1      4079 1.15785E+02 1.82952E+01 0.00000E+00
 -1      4080 1.15035E+02 1.95942E+01 0.00000E+00
 -1      4081 1.20285E+02 1.82952E+01 0.00000E+00
 -1      4082 1.18785E+02 1.82952E+01 0.00000E+00
 -1      4083 1.18035E+02 1.95942E+01 0.00000E+00
 -1      4084 1.23285E+02 1.82952E+01 0.00000E+00
 -1      4085 1.21785E+02 1.82952E+01 0.00000E+00
 -1      4086 1.21035E+02 1.95942E+01 0.00000E+00
 -1      4087 1.26285E+02 1.82952E+01 0.00000E+00
 -1      4088 1.24785E+02 1.82952E+01 0.00000E+00
 -1      4089 1.24035E+02 1.95942E+01 0.00000E+00
 -1      4090 1.29285E+02 1.82952E+01 0.00000E+00
 -1      4091 1.27785E+02 1.82952E+01 0.00000E+00
 -1      4092 1.27035E+02 1.95942E+01 0.00000E+00
 -1      4093 2.06395E+01 3.05281E+01 0.00000E+00
 -1      4094 2.21395E+01 3.05281E+01 0.00000E+00
 -1      4095 2.28895E+01 2.92291E+01 0.00000E+00
 -1      4096 2.03687E+01 2.92554E+01 0.00000E+00
 -1      4097 9.02850E+01 1.82952E+01 0.00000E+00
 -1      4098 8.87850E+01 1.82952E+01 0.00000E+00
 -1      4099 9.10350E+01 1.95942E+01 0.00000E+00
 -1      4100 8.74357E+01 1.84467E+01 0.00000E+00
 -1      4101 8.59357E+01 1.84467E+01 0.00000E+00
 -1      4102 8.54870E+01 2.00486E+01 0.00000E+00
 -1      4103 8.81857E+01 1.97457E+01 0.00000E+00
 -1      4104 8.05062E+01 2.79787E+01 0.00000E+00
 -1      4105 8.64000E+01 3.05150E+01 0.00000E+00
 -1      4106 8.79000E+01 3.05150E+01 0.00000E+00
 -1      4107 8.86500E+01 2.92160E+01 0.00000E+00
 -1      4108 8.56500E+01 2.92160E+01 0.00000E+00
 -1      4109 1.28316E+02 3.01985E+01 0.00000E+00
 -1      4110 1.30398E+02 2.97415E+01 0.00000E+00
 -1      4111 1.30398E+02 2.82665E+01 0.00000E+00
 -1      4112 1.27566E+02 2.88995E+01 0.00000E+00
 -1      4113 2.87850E+01 1.56973E+01 0.00000E+00
 -1      4114 2.72850E+01 1.56973E+01 0.00000E+00
 -1      4115 2.65350E+01 1.69963E+01 0.00000E+00
 -1      4116 2.95350E+01 1.69963E+01 0.00000E+00
 -1      4117 7.91335E+01 3.06651E+01 0.00000E+00
 -1      4118 1.94464E+01 2.49587E+01 0.00000E+00
 -1      4119 1.99076E+01 2.71071E+01 0.00000E+00
 -1      4120 2.11680E+01 2.70939E+01 0.00000E+00
 -1      4121 1.70993E+01 1.85655E+01 0.00000E+00
 -1      4122 1.70993E+01 2.00389E+01 0.00000E+00
 -1      4123 1.83983E+01 2.07748E+01 0.00000E+00
 -1      4124 1.88228E+01 1.82558E+01 0.00000E+00
 -1      4125 2.64000E+01 3.05150E+01 0.00000E+00
 -1      4126 2.79000E+01 3.05150E+01 0.00000E+00
 -1      4127 2.56500E+01 2.92160E+01 0.00000E+00
 -1      4128 7.99134E+01 3.13949E+01 0.00000E+00
 -1      4129 4.29208E+01 1.88015E+01 0.00000E+00
 -1      4130 4.18058E+01 1.73864E+01 0.00000E+00
 -1      4131 4.03058E+01 1.73864E+01 0.00000E+00
 -1      4132 4.20284E+01 1.94125E+01 0.00000E+00
 -1      4133 8.12282E+01 3.09901E+01 0.00000E+00
 -1      4134 1.32490E+02 1.82953E+01 0.00000E+00
 -1      4135 8.19782E+01 2.96911E+01 0.00000E+00
 -1      4136 8.21889E+01 2.18020E+01 0.00000E+00
 -1      4137 8.17402E+01 2.34039E+01 0.00000E+00
 -1      4138 8.36889E+01 2.18020E+01 0.00000E+00
 -1      4139 2.86500E+01 2.92160E+01 0.00000E+00
 -1      4140 4.16801E+01 2.62801E+01 0.00000E+00
 -1      4141 4.13416E+01 2.53019E+01 0.00000E+00
 -1      4142 4.08980E+01 2.72745E+01 0.00000E+00
 -1      4143 1.30398E+02 2.67978E+01 0.00000E+00
 -1      4144 1.30398E+02 2.53290E+01 0.00000E+00
 -1      4145 1.28982E+02 2.71143E+01 0.00000E+00
 -1      4146 4.25067E+01 2.23665E+01 0.00000E+00
 -1      4147 4.22138E+01 2.12476E+01 0.00000E+00
 -1      4148 4.18308E+01 2.31885E+01 0.00000E+00
 -1      4149 8.26780E+01 2.75036E+01 0.00000E+00
 -1      4150 4.00872E+01 2.89487E+01 0.00000E+00
 -1      4151 1.30990E+02 1.82953E+01 0.00000E+00
 -1      4152 1.30240E+02 1.95943E+01 0.00000E+00
 -1      4153 8.22231E+01 2.45975E+01 0.00000E+00
 -1      4154 1.30398E+02 2.38603E+01 0.00000E+00
 -1      4155 1.30398E+02 2.23915E+01 0.00000E+00
 -1      4156 1.28982E+02 2.41768E+01 0.00000E+00
 -1      4157 3.02850E+01 1.82953E+01 0.00000E+00
 -1      4158 2.87850E+01 1.82953E+01 0.00000E+00
 -1      4159 1.30174E+02 2.08346E+01 0.00000E+00
 -1      4160 3.75440E+01 2.94304E+01 0.00000E+00
 -1      4161 2.18228E+01 1.82558E+01 0.00000E+00
 -1      4162 2.03228E+01 1.82558E+01 0.00000E+00
 -1      4163 2.01105E+01 1.95153E+01 0.00000E+00
 -1      4164 1.94464E+01 2.34900E+01 0.00000E+00
 -1      4165 3.32850E+01 1.82953E+01 0.00000E+00
 -1      4166 3.17850E+01 1.82953E+01 0.00000E+00
 -1      4167 3.10350E+01 1.95943E+01 0.00000E+00
 -1      4168 1.28758E+02 2.11511E+01 0.00000E+00
 -1      4169 3.09000E+01 2.79170E+01 0.00000E+00
 -1      4170 3.24000E+01 2.79170E+01 0.00000E+00
 -1      4171 2.48228E+01 1.82558E+01 0.00000E+00
 -1      4172 2.33228E+01 1.82558E+01 0.00000E+00
 -1      4173 2.31105E+01 1.95153E+01 0.00000E+00
 -1      4174 3.39000E+01 2.79170E+01 0.00000E+00
 -1      4175 3.54000E+01 2.79170E+01 0.00000E+00
 -1      4176 3.31500E+01 2.66180E+01 0.00000E+00
 -1      4177 9.77850E+01 2.08932E+01 0.00000E+00
 -1      4178 9.62850E+01 2.08932E+01 0.00000E+00
 -1      4179 2.79000E+01 2.79170E+01 0.00000E+00
 -1      4180 2.94000E+01 2.79170E+01 0.00000E+00
 -1      4181 3.01500E+01 2.66180E+01 0.00000E+00
 -1      4182 9.09000E+01 2.79170E+01 0.00000E+00
 -1      4183 9.24000E+01 2.79170E+01 0.00000E+00
 -1      4184 9.39000E+01 2.79170E+01 0.00000E+00
 -1      4185 9.54000E+01 2.79170E+01 0.00000E+00
 -1      4186 9.31500E+01 2.66180E+01 0.00000E+00
 -1      4187 9.69000E+01 2.79170E+01 0.00000E+00
 -1      4188 9.84000E+01 2.79170E+01 0.00000E+00
 -1      4189 9.61500E+01 2.66180E+01 0.00000E+00
 -1      4190 9.99000E+01 2.79170E+01 0.00000E+00
 -1      4191 1.01400E+02 2.79170E+01 0.00000E+00
 -1      4192 9.91500E+01 2.66180E+01 0.00000E+00
 -1      4193 1.02900E+02 2.79170E+01 0.00000E+00
 -1      4194 1.04400E+02 2.79170E+01 0.00000E+00
 -1      4195 1.02150E+02 2.66180E+01 0.00000E+00
 -1      4196 1.05900E+02 2.79170E+01 0.00000E+00
 -1      4197 1.07400E+02 2.79170E+01 0.00000E+00
 -1      4198 1.05150E+02 2.66180E+01 0.00000E+00
 -1      4199 1.08900E+02 2.79170E+01 0.00000E+00
 -1      4200 1.10400E+02 2.79170E+01 0.00000E+00
 -1      4201 1.08150E+02 2.66180E+01 0.00000E+00
 -1      4202 1.11900E+02 2.79170E+01 0.00000E+00
 -1      4203 1.13400E+02 2.79170E+01 0.00000E+00
 -1      4204 1.11150E+02 2.66180E+01 0.00000E+00
 -1      4205 1.14900E+02 2.79170E+01 0.00000E+00
 -1      4206 1.16400E+02 2.79170E+01 0.00000E+00
 -1      4207 1.14150E+02 2.66180E+01 0.00000E+00
 -1      4208 1.17900E+02 2.79170E+01 0.00000E+00
 -1      4209 1.19400E+02 2.79170E+01 0.00000E+00
 -1      4210 1.17150E+02 2.66180E+01 0.00000E+00
 -1      4211 1.20900E+02 2.79170E+01 0.00000E+00
 -1      4212 1.22400E+02 2.79170E+01 0.00000E+00
 -1      4213 1.20150E+02 2.66180E+01 0.00000E+00
 -1      4214 1.23900E+02 2.79170E+01 0.00000E+00
 -1      4215 1.25400E+02 2.79170E+01 0.00000E+00
 -1      4216 1.23150E+02 2.66180E+01 0.00000E+00
 -1      4217 1.03785E+02 2.08932E+01 0.00000E+00
 -1      4218 1.02285E+02 2.08932E+01 0.00000E+00
 -1      4219 1.00785E+02 2.08932E+01 0.00000E+00
 -1      4220 9.92850E+01 2.08932E+01 0.00000E+00
 -1      4221 9.85350E+01 2.21922E+01 0.00000E+00
 -1      4222 1.01535E+02 2.21922E+01 0.00000E+00
 -1      4223 9.17850E+01 2.08932E+01 0.00000E+00
 -1      4224 9.02850E+01 2.08932E+01 0.00000E+00
 -1      4225 1.26483E+02 2.76739E+01 0.00000E+00
 -1      4226 1.27899E+02 2.73574E+01 0.00000E+00
 -1      4227 1.27899E+02 2.58886E+01 0.00000E+00
 -1      4228 1.25733E+02 2.63749E+01 0.00000E+00
 -1      4229 9.47850E+01 2.08932E+01 0.00000E+00
 -1      4230 9.32850E+01 2.08932E+01 0.00000E+00
 -1      4231 9.25350E+01 2.21922E+01 0.00000E+00
 -1      4232 9.55350E+01 2.21922E+01 0.00000E+00
 -1      4233 1.06785E+02 2.08932E+01 0.00000E+00
 -1      4234 1.05285E+02 2.08932E+01 0.00000E+00
 -1      4235 1.04535E+02 2.21922E+01 0.00000E+00
 -1      4236 1.09785E+02 2.08932E+01 0.00000E+00
 -1      4237 1.08285E+02 2.08932E+01 0.00000E+00
 -1      4238 1.07535E+02 2.21922E+01 0.00000E+00
 -1      4239 1.12785E+02 2.08932E+01 0.00000E+00
 -1      4240 1.11285E+02 2.08932E+01 0.00000E+00
 -1      4241 1.10535E+02 2.21922E+01 0.00000E+00
 -1      4242 1.15785E+02 2.08932E+01 0.00000E+00
 -1      4243 1.14285E+02 2.08932E+01 0.00000E+00
 -1      4244 1.13535E+02 2.21922E+01 0.00000E+00
 -1      4245 1.18785E+02 2.08932E+01 0.00000E+00
 -1      4246 1.17285E+02 2.08932E+01 0.00000E+00
 -1      4247 1.16535E+02 2.21922E+01 0.00000E+00
 -1      4248 1.21785E+02 2.08932E+01 0.00000E+00
 -1      4249 1.20285E+02 2.08932E+01 0.00000E+00
 -1      4250 1.19535E+02 2.21922E+01 0.00000E+00
 -1      4251 1.24785E+02 2.08932E+01 0.00000E+00
 -1      4252 1.23285E+02 2.08932E+01 0.00000E+00
 -1      4253 1.22535E+02 2.21922E+01 0.00000E+00
 -1      4254 1.27522E+02 2.10222E+01 0.00000E+00
 -1      4255 1.26022E+02 2.10222E+01 0.00000E+00
 -1      4256 1.25272E+02 2.23212E+01 0.00000E+00
 -1      4257 1.27745E+02 2.25791E+01 0.00000E+00
 -1      4258 2.24284E+01 2.70808E+01 0.00000E+00
 -1      4259 2.36889E+01 2.70676E+01 0.00000E+00
 -1      4260 2.19674E+01 2.49324E+01 0.00000E+00
 -1      4261 1.98983E+01 2.07748E+01 0.00000E+00
 -1      4262 1.96860E+01 2.20344E+01 0.00000E+00
 -1      4263 2.13983E+01 2.07748E+01 0.00000E+00
 -1      4264 8.50383E+01 2.16505E+01 0.00000E+00
 -1      4265 8.45896E+01 2.32524E+01 0.00000E+00
 -1      4266 8.63876E+01 2.14991E+01 0.00000E+00
 -1      4267 8.32005E+01 2.60506E+01 0.00000E+00
 -1      4268 8.46726E+01 2.77630E+01 0.00000E+00
 -1      4269 8.61726E+01 2.77630E+01 0.00000E+00
 -1      4270 8.42177E+01 2.48569E+01 0.00000E+00
 -1      4271 2.50445E+01 2.74923E+01 0.00000E+00
 -1      4272 2.65445E+01 2.74923E+01 0.00000E+00
 -1      4273 2.72945E+01 2.61933E+01 0.00000E+00
 -1      4274 2.45833E+01 2.53440E+01 0.00000E+00
 -1      4275 2.09464E+01 2.34900E+01 0.00000E+00
 -1      4276 3.70444E+01 2.80393E+01 0.00000E+00
 -1      4277 3.84384E+01 2.82537E+01 0.00000E+00
 -1      4278 2.75539E+01 1.82755E+01 0.00000E+00
 -1      4279 2.60539E+01 1.82755E+01 0.00000E+00
 -1      4280 2.58417E+01 1.95351E+01 0.00000E+00
 -1      4281 2.83039E+01 1.95745E+01 0.00000E+00
 -1      4282 3.95877E+01 2.75576E+01 0.00000E+00
 -1      4283 8.79000E+01 2.79170E+01 0.00000E+00
 -1      4284 8.94000E+01 2.79170E+01 0.00000E+00
 -1      4285 9.01500E+01 2.66180E+01 0.00000E+00
 -1      4286 3.92492E+01 2.65794E+01 0.00000E+00
 -1      4287 3.89534E+01 1.75421E+01 0.00000E+00
 -1      4288 3.76010E+01 1.76978E+01 0.00000E+00
 -1      4289 3.98147E+01 1.85552E+01 0.00000E+00
 -1      4290 4.10487E+01 2.41829E+01 0.00000E+00
 -1      4291 4.07557E+01 2.30639E+01 0.00000E+00
 -1      4292 4.02665E+01 2.51773E+01 0.00000E+00
 -1      4293 2.88986E+01 2.08832E+01 0.00000E+00
 -1      4294 2.76675E+01 2.08635E+01 0.00000E+00
 -1      4295 2.22069E+01 2.34768E+01 0.00000E+00
 -1      4296 1.27899E+02 2.44199E+01 0.00000E+00
 -1      4297 1.26662E+02 2.42909E+01 0.00000E+00
 -1      4298 8.55670E+01 2.47054E+01 0.00000E+00
 -1      4299 3.62944E+01 2.67403E+01 0.00000E+00
 -1      4300 3.47850E+01 1.82953E+01 0.00000E+00
 -1      4301 3.40350E+01 1.95943E+01 0.00000E+00
 -1      4302 3.18986E+01 2.08832E+01 0.00000E+00
 -1      4303 3.03986E+01 2.08832E+01 0.00000E+00
 -1      4304 2.97623E+01 2.21722E+01 0.00000E+00
 -1      4305 3.61373E+01 1.81395E+01 0.00000E+00
 -1      4306 4.14449E+01 2.04079E+01 0.00000E+00
 -1      4307 4.05836E+01 1.93948E+01 0.00000E+00
 -1      4308 3.92312E+01 1.95506E+01 0.00000E+00
 -1      4309 4.07690E+01 2.12299E+01 0.00000E+00
 -1      4310 8.90110E+01 2.11204E+01 0.00000E+00
 -1      4311 8.76616E+01 2.12719E+01 0.00000E+00
 -1      4312 8.72130E+01 2.28738E+01 0.00000E+00
 -1      4313 8.97610E+01 2.24194E+01 0.00000E+00
 -1      4314 8.69226E+01 2.64640E+01 0.00000E+00
 -1      4315 2.43983E+01 2.07748E+01 0.00000E+00
 -1      4316 2.28983E+01 2.07748E+01 0.00000E+00
 -1      4317 2.26860E+01 2.20344E+01 0.00000E+00
 -1      4318 3.24000E+01 2.53190E+01 0.00000E+00
 -1      4319 3.39000E+01 2.53190E+01 0.00000E+00
 -1      4320 1.10842E+02 2.44051E+01 0.00000E+00
 -1      4321 1.09342E+02 2.44051E+01 0.00000E+00
 -1      4322 2.99561E+01 2.43951E+01 0.00000E+00
 -1      4323 3.14561E+01 2.43951E+01 0.00000E+00
 -1      4324 3.89562E+01 2.54605E+01 0.00000E+00
 -1      4325 9.58425E+01 2.44051E+01 0.00000E+00
 -1      4326 9.73425E+01 2.44051E+01 0.00000E+00
 -1      4327 9.88425E+01 2.44051E+01 0.00000E+00
 -1      4328 1.00342E+02 2.44051E+01 0.00000E+00
 -1      4329 1.01842E+02 2.44051E+01 0.00000E+00
 -1      4330 1.03342E+02 2.44051E+01 0.00000E+00
 -1      4331 1.04842E+02 2.44051E+01 0.00000E+00
 -1      4332 1.06342E+02 2.44051E+01 0.00000E+00
 -1      4333 1.07842E+02 2.44051E+01 0.00000E+00
 -1      4334 1.12342E+02 2.44051E+01 0.00000E+00
 -1      4335 1.13842E+02 2.44051E+01 0.00000E+00
 -1      4336 1.15342E+02 2.44051E+01 0.00000E+00
 -1      4337 1.16842E+02 2.44051E+01 0.00000E+00
 -1      4338 1.18342E+02 2.44051E+01 0.00000E+00
 -1      4339 1.19842E+02 2.44051E+01 0.00000E+00
 -1      4340 1.21342E+02 2.44051E+01 0.00000E+00
 -1      4341 1.22842E+02 2.44051E+01 0.00000E+00
 -1      4342 1.24342E+02 2.44051E+01 0.00000E+00
 -1      4343 3.69986E+01 1.91526E+01 0.00000E+00
 -1      4344 2.37069E+01 2.34768E+01 0.00000E+00
 -1      4345 1.25579E+02 2.45341E+01 0.00000E+00
 -1      4346 8.72945E+01 2.48595E+01 0.00000E+00
 -1      4347 3.56674E+01 2.52159E+01 0.00000E+00
 -1      4348 3.73118E+01 2.53382E+01 0.00000E+00
 -1      4349 3.83292E+01 2.39361E+01 0.00000E+00
 -1      4350 9.28425E+01 2.44051E+01 0.00000E+00
 -1      4351 9.43425E+01 2.44051E+01 0.00000E+00
 -1      4352 2.66485E+01 2.08290E+01 0.00000E+00
 -1      4353 2.54173E+01 2.08093E+01 0.00000E+00
 -1      4354 2.52051E+01 2.20688E+01 0.00000E+00
 -1      4355 2.72432E+01 2.21377E+01 0.00000E+00
 -1      4356 3.49174E+01 2.39169E+01 0.00000E+00
 -1      4357 9.13425E+01 2.44051E+01 0.00000E+00
 -1      4358 3.77675E+01 1.99922E+01 0.00000E+00
 -1      4359 3.63038E+01 2.04339E+01 0.00000E+00
 -1      4360 3.85364E+01 2.08319E+01 0.00000E+00
 -1      4361 8.85685E+01 2.46323E+01 0.00000E+00
 -1      4362 8.98425E+01 2.44051E+01 0.00000E+00
 -1      4363 2.71006E+01 2.39704E+01 0.00000E+00
 -1      4364 2.84561E+01 2.43951E+01 0.00000E+00
 -1      4365 3.99869E+01 2.22243E+01 0.00000E+00
 -1      4366 2.50625E+01 2.39015E+01 0.00000E+00
 -1      4367 3.47850E+01 2.08933E+01 0.00000E+00
 -1      4368 3.32850E+01 2.08933E+01 0.00000E+00
 -1      4369 3.26486E+01 2.21822E+01 0.00000E+00
 -1      4370 3.55538E+01 2.17329E+01 0.00000E+00
 -1      4371 3.22061E+01 2.30961E+01 0.00000E+00
 -1      4372 3.85232E+01 2.26660E+01 0.00000E+00
 -1      4373 2.60815E+01 2.39360E+01 0.00000E+00
 -1      4374 3.35925E+01 2.31061E+01 0.00000E+00
 -1      4375 3.53599E+01 2.30030E+01 0.00000E+00
 -1      4376 3.68787E+01 2.25437E+01 0.00000E+00
 -3
    3C                          2106                                     1
 -1       165    8    0    1
 -2         6         7        23      1136      1300      1153
 -1       166    8    0    1
 -2         7         8       165      1137      1301      1302
 -1       167    8    0    1
 -2         8         9       166      1138      1303      1304
 -1       168    8    0    1
 -2         8       166       165      1304      1305      1301
 -1       169    8    0    1
 -2         9        10       167      1139      1306      1307
 -1       170    8    0    1
 -2         9       167       166      1307      1308      1303
 -1       171    8    0    1
 -2        10        11       168      1140      1309      1310
 -1       172    8    0    1
 -2        10       168       167      1310      1311      1306
 -1       173    8    0    1
 -2        11        12       169      1141      1312      1313
 -1       174    8    0    1
 -2        11       169       168      1313      1314      1309
 -1       175    8    0    1
 -2        12        13       170      1142      1315      1316
 -1       176    8    0    1
 -2        12       170       169      1316      1317      1312
 -1       177    8    0    1
 -2        13        14       171      1143      1318      1319
 -1       178    8    0    1
 -2        13       171       170      1319      1320      1315
 -1       179    8    0    1
 -2        14        15       172      1144      1321      1322
 -1       180    8    0    1
 -2        14       172       171      1322      1323      1318
 -1       181    8    0    1
 -2        15        16       173      1145      1324      1325
 -1       182    8    0    1
 -2        15       173       172      1325      1326      1321
 -1       183    8    0    1
 -2        16        17       174      1146      1327      1328
 -1       184    8    0    1
 -2        16       174       173      1328      1329      1324
 -1       185    8    0    1
 -2        17        18       175      1147      1330      1331
 -1       186    8    0    1
 -2        17       175       174      1331      1332      1327
 -1       187    8    0    1
 -2        18        19       176      1148      1333      1334
 -1       188    8    0    1
 -2        18       176       175      1334      1335      1330
 -1       189    8    0    1
 -2        19        20       177      1149      1336      1337
 -1       190    8    0    1
 -2        19       177       176      1337      1338      1333
 -1       191    8    0    1
 -2        20        21       178      1150      1339      1340
 -1       192    8    0    1
 -2        20       178       177      1340      1341      1336
 -1       193    8    0    1
 -2        21        22       179      1151      1342      1343
 -1       194    8    0    1
 -2        21       179       178      1343      1344      1339
 -1       195    8    0    1
 -2        22         5       180      1152      1345      1346
 -1       196    8    0    1
 -2       179        22       180      1342      1346      1347
 -1       197    8    0    1
 -2         5        72       180      1203      1348      1345
 -1       198    8    0    1
 -2        24        23       181      1154      1349      1350
 -1       199    8    0    1
 -2        25        24       182      1155      1351      1352
 -1       200    8    0    1
 -2        24       181       182      1350      1353      1351
 -1       201    8    0    1
 -2        26        25       183      1156      1354      1355
 -1       202    8    0    1
 -2        25       182       183      1352      1356      1354
 -1       203    8    0    1
 -2        27        26       184      1157      1357      1358
 -1       204    8    0    1
 -2        26       183       184      1355      1359      1357
 -1       205    8    0    1
 -2        28        27       185      1158      1360      1361
 -1       206    8    0    1
 -2        27       184       185      1358      1362      1360
 -1       207    8    0    1
 -2        29        28       186      1159      1363      1364
 -1       208    8    0    1
 -2        28       185       186      1361      1365      1363
 -1       209    8    0    1
 -2        30        29       187      1160      1366      1367
 -1       210    8    0    1
 -2        29       186       187      1364      1368      1366
 -1       211    8    0    1
 -2        31        30       188      1161      1369      1370
 -1       212    8    0    1
 -2        30       187       188      1367      1371      1369
 -1       213    8    0    1
 -2        32        31       189      1162      1372      1373
 -1       214    8    0    1
 -2        31       188       189      1370      1374      1372
 -1       215    8    0    1
 -2        33        32       190      1163      1375      1376
 -1       216    8    0    1
 -2        32       189       190      1373      1377      1375
 -1       217    8    0    1
 -2        34        33       191      1164      1378      1379
 -1       218    8    0    1
 -2        33       190       191      1376      1380      1378
 -1       219    8    0    1
 -2        35        34       192      1165      1381      1382
 -1       220    8    0    1
 -2        34       191       192      1379      1383      1381
 -1       221    8    0    1
 -2        36        35       193      1166      1384      1385
 -1       222    8    0    1
 -2        35       192       193      1382      1386      1384
 -1       223    8    0    1
 -2        37        36       194      1167      1387      1388
 -1       224    8    0    1
 -2        36       193       194      1385      1389      1387
 -1       225    8    0    1
 -2        38        37       195      1168      1390      1391
 -1       226    8    0    1
 -2        37       194       195      1388      1392      1390
 -1       227    8    0    1
 -2        39        38       196      1169      1393      1394
 -1       228    8    0    1
 -2        38       195       196      1391      1395      1393
 -1       229    8    0    1
 -2        40        39       197      1170      1396      1397
 -1       230    8    0    1
 -2        39       196       197      1394      1398      1396
 -1       231    8    0    1
 -2        41        40       198      1171      1399      1400
 -1       232    8    0    1
 -2        40       197       198      1397      1401      1399
 -1       233    8    0    1
 -2        42        41       199      1172      1402      1403
 -1       234    8    0    1
 -2        41       198       199      1400      1404      1402
 -1       235    8    0    1
 -2        43        42       200      1173      1405      1406
 -1       236    8    0    1
 -2        42       199       200      1403      1407      1405
 -1       237    8    0    1
 -2        44        43       201      1174      1408      1409
 -1       238    8    0    1
 -2        43       200       201      1406      1410      1408
 -1       239    8    0    1
 -2        45        44       202      1175      1411      1412
 -1       240    8    0    1
 -2        44       201       202      1409      1413      1411
 -1       241    8    0    1
 -2        46        45       203      1176      1414      1415
 -1       242    8    0    1
 -2        45       202       203      1412      1416      1414
 -1       243    8    0    1
 -2        47        46       204      1177      1417      1418
 -1       244    8    0    1
 -2        46       203       204      1415      1419      1417
 -1       245    8    0    1
 -2        48        47       205      1178      1420      1421
 -1       246    8    0    1
 -2        47       204       205      1418      1422      1420
 -1       247    8    0    1
 -2        49        48       206      1179      1423      1424
 -1       248    8    0    1
 -2        48       205       206      1421      1425      1423
 -1       249    8    0    1
 -2        50        49       207      1180      1426      1427
 -1       250    8    0    1
 -2        49       206       207      1424      1428      1426
 -1       251    8    0    1
 -2        51        50       208      1181      1429      1430
 -1       252    8    0    1
 -2        50       207       208      1427      1431      1429
 -1       253    8    0    1
 -2        52        51       209      1182      1432      1433
 -1       254    8    0    1
 -2        51       208       209      1430      1434      1432
 -1       255    8    0    1
 -2        53        52       210      1183      1435      1436
 -1       256    8    0    1
 -2        52       209       210      1433      1437      1435
 -1       257    8    0    1
 -2        54        53       211      1184      1438      1439
 -1       258    8    0    1
 -2        53       210       211      1436      1440      1438
 -1       259    8    0    1
 -2        55        54       212      1185      1441      1442
 -1       260    8    0    1
 -2        54       211       212      1439      1443      1441
 -1       261    8    0    1
 -2        56        55       213      1186      1444      1445
 -1       262    8    0    1
 -2        55       212       213      1442      1446      1444
 -1       263    8    0    1
 -2        57        56       214      1187      1447      1448
 -1       264    8    0    1
 -2        56       213       214      1445      1449      1447
 -1       265    8    0    1
 -2        58        57       215      1188      1450      1451
 -1       266    8    0    1
 -2        57       214       215      1448      1452      1450
 -1       267    8    0    1
 -2        59        58       216      1189      1453      1454
 -1       268    8    0    1
 -2        58       215       216      1451      1455      1453
 -1       269    8    0    1
 -2        60        59       217      1190      1456      1457
 -1       270    8    0    1
 -2        59       216       217      1454      1458      1456
 -1       271    8    0    1
 -2        61        60       218      1191      1459      1460
 -1       272    8    0    1
 -2        60       217       218      1457      1461      1459
 -1       273    8    0    1
 -2        62        61       219      1192      1462      1463
 -1       274    8    0    1
 -2        61       218       219      1460      1464      1462
 -1       275    8    0    1
 -2        63        62       220      1193      1465      1466
 -1       276    8    0    1
 -2        62       219       220      1463      1467      1465
 -1       277    8    0    1
 -2        64        63       221      1194      1468      1469
 -1       278    8    0    1
 -2        63       220       221      1466      1470      1468
 -1       279    8    0    1
 -2        65        64       222      1195      1471      1472
 -1       280    8    0    1
 -2        64       221       222      1469      1473      1471
 -1       281    8    0    1
 -2        66        65       223      1196      1474      1475
 -1       282    8    0    1
 -2        65       222       223      1472      1476      1474
 -1       283    8    0    1
 -2        67        66       224      1197      1477      1478
 -1       284    8    0    1
 -2        66       223       224      1475      1479      1477
 -1       285    8    0    1
 -2        68        67       225      1198      1480      1481
 -1       286    8    0    1
 -2        67       224       225      1478      1482      1480
 -1       287    8    0    1
 -2        69        68       226      1199      1483      1484
 -1       288    8    0    1
 -2        68       225       226      1481      1485      1483
 -1       289    8    0    1
 -2        70        69       227      1200      1486      1487
 -1       290    8    0    1
 -2        69       226       227      1484      1488      1486
 -1       291    8    0    1
 -2        71        70       228      1201      1489      1490
 -1       292    8    0    1
 -2        70       227       228      1487      1491      1489
 -1       293    8    0    1
 -2         4        71       136      1202      1492      1269
 -1       294    8    0    1
 -2       136        71       228      1492      1490      1493
 -1       295    8    0    1
 -2        72        73       229      1204      1494      1495
 -1       296    8    0    1
 -2        72       229       180      1495      1496      1348
 -1       297    8    0    1
 -2        73        74       230      1205      1497      1498
 -1       298    8    0    1
 -2        73       230       229      1498      1499      1494
 -1       299    8    0    1
 -2        74        75       231      1206      1500      1501
 -1       300    8    0    1
 -2        74       231       230      1501      1502      1497
 -1       301    8    0    1
 -2        75        76       232      1207      1503      1504
 -1       302    8    0    1
 -2        75       232       231      1504      1505      1500
 -1       303    8    0    1
 -2        76        77       233      1208      1506      1507
 -1       304    8    0    1
 -2        76       233       232      1507      1508      1503
 -1       305    8    0    1
 -2        77        78       234      1209      1509      1510
 -1       306    8    0    1
 -2        77       234       233      1510      1511      1506
 -1       307    8    0    1
 -2        78        79       235      1210      1512      1513
 -1       308    8    0    1
 -2        78       235       234      1513      1514      1509
 -1       309    8    0    1
 -2        79        80       236      1211      1515      1516
 -1       310    8    0    1
 -2        79       236       235      1516      1517      1512
 -1       311    8    0    1
 -2        80        81       237      1212      1518      1519
 -1       312    8    0    1
 -2        80       237       236      1519      1520      1515
 -1       313    8    0    1
 -2        81        82       238      1213      1521      1522
 -1       314    8    0    1
 -2        81       238       237      1522      1523      1518
 -1       315    8    0    1
 -2        82        83       239      1214      1524      1525
 -1       316    8    0    1
 -2        82       239       238      1525      1526      1521
 -1       317    8    0    1
 -2        83        84       240      1215      1527      1528
 -1       318    8    0    1
 -2        83       240       239      1528      1529      1524
 -1       319    8    0    1
 -2        84        85       241      1216      1530      1531
 -1       320    8    0    1
 -2        84       241       240      1531      1532      1527
 -1       321    8    0    1
 -2        85        86       242      1217      1533      1534
 -1       322    8    0    1
 -2        85       242       241      1534      1535      1530
 -1       323    8    0    1
 -2        86        87       243      1218      1536      1537
 -1       324    8    0    1
 -2        86       243       242      1537      1538      1533
 -1       325    8    0    1
 -2        87        88       244      1219      1539      1540
 -1       326    8    0    1
 -2        87       244       243      1540      1541      1536
 -1       327    8    0    1
 -2        88        89       245      1220      1542      1543
 -1       328    8    0    1
 -2        88       245       244      1543      1544      1539
 -1       329    8    0    1
 -2        89        90       246      1221      1545      1546
 -1       330    8    0    1
 -2        89       246       245      1546      1547      1542
 -1       331    8    0    1
 -2        90        91       247      1222      1548      1549
 -1       332    8    0    1
 -2        90       247       246      1549      1550      1545
 -1       333    8    0    1
 -2        91        92       248      1223      1551      1552
 -1       334    8    0    1
 -2        91       248       247      1552      1553      1548
 -1       335    8    0    1
 -2        92        93       249      1224      1554      1555
 -1       336    8    0    1
 -2        92       249       248      1555      1556      1551
 -1       337    8    0    1
 -2        93        94       250      1225      1557      1558
 -1       338    8    0    1
 -2        93       250       249      1558      1559      1554
 -1       339    8    0    1
 -2        94        95       251      1226      1560      1561
 -1       340    8    0    1
 -2        94       251       250      1561      1562      1557
 -1       341    8    0    1
 -2        95        96       252      1227      1563      1564
 -1       342    8    0    1
 -2        95       252       251      1564      1565      1560
 -1       343    8    0    1
 -2        96        97       253      1228      1566      1567
 -1       344    8    0    1
 -2        96       253       252      1567      1568      1563
 -1       345    8    0    1
 -2        97        98       254      1229      1569      1570
 -1       346    8    0    1
 -2        97       254       253      1570      1571      1566
 -1       347    8    0    1
 -2        98        99       255      1230      1572      1573
 -1       348    8    0    1
 -2        98       255       254      1573      1574      1569
 -1       349    8    0    1
 -2        99       100       256      1231      1575      1576
 -1       350    8    0    1
 -2        99       256       255      1576      1577      1572
 -1       351    8    0    1
 -2       100       101       257      1232      1578      1579
 -1       352    8    0    1
 -2       100       257       256      1579      1580      1575
 -1       353    8    0    1
 -2       101       102       258      1233      1581      1582
 -1       354    8    0    1
 -2       101       258       257      1582      1583      1578
 -1       355    8    0    1
 -2       102       103       259      1234      1584      1585
 -1       356    8    0    1
 -2       102       259       258      1585      1586      1581
 -1       357    8    0    1
 -2       103       104       260      1235      1587      1588
 -1       358    8    0    1
 -2       103       260       259      1588      1589      1584
 -1       359    8    0    1
 -2       104       105       261      1236      1590      1591
 -1       360    8    0    1
 -2       104       261       260      1591      1592      1587
 -1       361    8    0    1
 -2       105       106       262      1237      1593      1594
 -1       362    8    0    1
 -2       105       262       261      1594      1595      1590
 -1       363    8    0    1
 -2       106       107       263      1238      1596      1597
 -1       364    8    0    1
 -2       106       263       262      1597      1598      1593
 -1       365    8    0    1
 -2       107       108       264      1239      1599      1600
 -1       366    8    0    1
 -2       107       264       263      1600      1601      1596
 -1       367    8    0    1
 -2       108       109       265      1240      1602      1603
 -1       368    8    0    1
 -2       108       265       264      1603      1604      1599
 -1       369    8    0    1
 -2       109       110       266      1241      1605      1606
 -1       370    8    0    1
 -2       109       266       265      1606      1607      1602
 -1       371    8    0    1
 -2       110       111       267      1242      1608      1609
 -1       372    8    0    1
 -2       110       267       266      1609      1610      1605
 -1       373    8    0    1
 -2       111       112       268      1243      1611      1612
 -1       374    8    0    1
 -2       111       268       267      1612      1613      1608
 -1       375    8    0    1
 -2       112       113       269      1244      1614      1615
 -1       376    8    0    1
 -2       112       269       268      1615      1616      1611
 -1       377    8    0    1
 -2       113       114       270      1245      1617      1618
 -1       378    8    0    1
 -2       113       270       269      1618      1619      1614
 -1       379    8    0    1
 -2       114       115       271      1246      1620      1621
 -1       380    8    0    1
 -2       114       271       270      1621      1622      1617
 -1       381    8    0    1
 -2       115       116       272      1247      1623      1624
 -1       382    8    0    1
 -2       115       272       271      1624      1625      1620
 -1       383    8    0    1
 -2       116       117       273      1248      1626      1627
 -1       384    8    0    1
 -2       116       273       272      1627      1628      1623
 -1       385    8    0    1
 -2       117       118       274      1249      1629      1630
 -1       386    8    0    1
 -2       117       274       273      1630      1631      1626
 -1       387    8    0    1
 -2       118       119       275      1250      1632      1633
 -1       388    8    0    1
 -2       118       275       274      1633      1634      1629
 -1       389    8    0    1
 -2       119       120       276      1251      1635      1636
 -1       390    8    0    1
 -2       119       276       275      1636      1637      1632
 -1       391    8    0    1
 -2       120         3       121      1252      1253      1638
 -1       392    8    0    1
 -2       121       122       277      1254      1639      1640
 -1       393    8    0    1
 -2       122       123       278      1255      1641      1642
 -1       394    8    0    1
 -2       122       278       277      1642      1643      1639
 -1       395    8    0    1
 -2       123       124       279      1256      1644      1645
 -1       396    8    0    1
 -2       123       279       278      1645      1646      1641
 -1       397    8    0    1
 -2       124       125       280      1257      1647      1648
 -1       398    8    0    1
 -2       124       280       279      1648      1649      1644
 -1       399    8    0    1
 -2       125       126       281      1258      1650      1651
 -1       400    8    0    1
 -2       125       281       280      1651      1652      1647
 -1       401    8    0    1
 -2       126       127       282      1259      1653      1654
 -1       402    8    0    1
 -2       126       282       281      1654      1655      1650
 -1       403    8    0    1
 -2       127       128       283      1260      1656      1657
 -1       404    8    0    1
 -2       127       283       282      1657      1658      1653
 -1       405    8    0    1
 -2       128       129       284      1261      1659      1660
 -1       406    8    0    1
 -2       128       284       283      1660      1661      1656
 -1       407    8    0    1
 -2       129       130       285      1262      1662      1663
 -1       408    8    0    1
 -2       129       285       284      1663      1664      1659
 -1       409    8    0    1
 -2       130       131       286      1263      1665      1666
 -1       410    8    0    1
 -2       130       286       285      1666      1667      1662
 -1       411    8    0    1
 -2       131       132       287      1264      1668      1669
 -1       412    8    0    1
 -2       131       287       286      1669      1670      1665
 -1       413    8    0    1
 -2       132       133       288      1265      1671      1672
 -1       414    8    0    1
 -2       132       288       287      1672      1673      1668
 -1       415    8    0    1
 -2       133       134       289      1266      1674      1675
 -1       416    8    0    1
 -2       133       289       288      1675      1676      1671
 -1       417    8    0    1
 -2       134       135       290      1267      1677      1678
 -1       418    8    0    1
 -2       134       290       289      1678      1679      1674
 -1       419    8    0    1
 -2       135       136       291      1268      1680      1681
 -1       420    8    0    1
 -2       290       135       291      1677      1681      1682
 -1       421    8    0    1
 -2       136       228       291      1493      1683      1680
 -1       422    8    0    1
 -2         2       137       292      1270      1684      1685
 -1       423    8    0    1
 -2       137       138       293      1271      1686      1687
 -1       424    8    0    1
 -2       138       139       294      1272      1688      1689
 -1       425    8    0    1
 -2       139       140       295      1273      1690      1691
 -1       426    8    0    1
 -2       140       141       296      1274      1692      1693
 -1       427    8    0    1
 -2       141       142       297      1275      1694      1695
 -1       428    8    0    1
 -2       142       143       298      1276      1696      1697
 -1       429    8    0    1
 -2       143       144       299      1277      1698      1699
 -1       430    8    0    1
 -2       144       145       300      1278      1700      1701
 -1       431    8    0    1
 -2       145       146       301      1279      1702      1703
 -1       432    8    0    1
 -2       146       147       302      1280      1704      1705
 -1       433    8    0    1
 -2       147       148       303      1281      1706      1707
 -1       434    8    0    1
 -2       148       149       304      1282      1708      1709
 -1       435    8    0    1
 -2       149       150       305      1283      1710      1711
 -1       436    8    0    1
 -2       150       151       306      1284      1712      1713
 -1       437    8    0    1
 -2       151       152       307      1285      1714      1715
 -1       438    8    0    1
 -2       152       153       308      1286      1716      1717
 -1       439    8    0    1
 -2       153         1       309      1287      1718      1719
 -1       440    8    0    1
 -2         1       154       310      1288      1720      1721
 -1       441    8    0    1
 -2       154       155       311      1289      1722      1723
 -1       442    8    0    1
 -2       155       156       312      1290      1724      1725
 -1       443    8    0    1
 -2       156       157       313      1291      1726      1727
 -1       444    8    0    1
 -2       157       158       314      1292      1728      1729
 -1       445    8    0    1
 -2       158       159       315      1293      1730      1731
 -1       446    8    0    1
 -2       159       160       316      1294      1732      1733
 -1       447    8    0    1
 -2       160       161       317      1295      1734      1735
 -1       448    8    0    1
 -2       161       162       318      1296      1736      1737
 -1       449    8    0    1
 -2       162       163       319      1297      1738      1739
 -1       450    8    0    1
 -2       163       164       320      1298      1740      1741
 -1       451    8    0    1
 -2       164         2       321      1299      1742      1743
 -1       452    8    0    1
 -2       295       140       296      1690      1693      1744
 -1       453    8    0    1
 -2       294       139       295      1688      1691      1745
 -1       454    8    0    1
 -2       120       121       276      1638      1746      1635
 -1       455    8    0    1
 -2       121       277       276      1640      1747      1746
 -1       456    8    0    1
 -2       292       137       293      1684      1687      1748
 -1       457    8    0    1
 -2       293       138       294      1686      1689      1749
 -1       458    8    0    1
 -2         2       292       321      1685      1750      1742
 -1       459    8    0    1
 -2       141       297       296      1695      1751      1692
 -1       460    8    0    1
 -2       142       298       297      1697      1752      1694
 -1       461    8    0    1
 -2       143       299       298      1699      1753      1696
 -1       462    8    0    1
 -2       144       300       299      1701      1754      1698
 -1       463    8    0    1
 -2       145       301       300      1703      1755      1700
 -1       464    8    0    1
 -2       146       302       301      1705      1756      1702
 -1       465    8    0    1
 -2       147       303       302      1707      1757      1704
 -1       466    8    0    1
 -2       148       304       303      1709      1758      1706
 -1       467    8    0    1
 -2       149       305       304      1711      1759      1708
 -1       468    8    0    1
 -2       150       306       305      1713      1760      1710
 -1       469    8    0    1
 -2       151       307       306      1715      1761      1712
 -1       470    8    0    1
 -2       152       308       307      1717      1762      1714
 -1       471    8    0    1
 -2       153       309       308      1719      1763      1716
 -1       472    8    0    1
 -2         1       310       309      1721      1764      1718
 -1       473    8    0    1
 -2       154       311       310      1723      1765      1720
 -1       474    8    0    1
 -2       155       312       311      1725      1766      1722
 -1       475    8    0    1
 -2       156       313       312      1727      1767      1724
 -1       476    8    0    1
 -2       157       314       313      1729      1768      1726
 -1       477    8    0    1
 -2       158       315       314      1731      1769      1728
 -1       478    8    0    1
 -2       159       316       315      1733      1770      1730
 -1       479    8    0    1
 -2       160       317       316      1735      1771      1732
 -1       480    8    0    1
 -2       161       318       317      1737      1772      1734
 -1       481    8    0    1
 -2       162       319       318      1739      1773      1736
 -1       482    8    0    1
 -2       163       320       319      1741      1774      1738
 -1       483    8    0    1
 -2       164       321       320      1743      1775      1740
 -1       484    8    0    1
 -2        23         7       165      1300      1302      1776
 -1       485    8    0    1
 -2       166       167       322      1308      1777      1778
 -1       486    8    0    1
 -2       165       166       323      1305      1779      1780
 -1       487    8    0    1
 -2       166       322       323      1778      1781      1779
 -1       488    8    0    1
 -2       168       169       324      1314      1782      1783
 -1       489    8    0    1
 -2       169       170       325      1317      1784      1785
 -1       490    8    0    1
 -2       169       325       324      1785      1786      1782
 -1       491    8    0    1
 -2       170       171       326      1320      1787      1788
 -1       492    8    0    1
 -2       170       326       325      1788      1789      1784
 -1       493    8    0    1
 -2       171       172       327      1323      1790      1791
 -1       494    8    0    1
 -2       171       327       326      1791      1792      1787
 -1       495    8    0    1
 -2       172       173       328      1326      1793      1794
 -1       496    8    0    1
 -2       172       328       327      1794      1795      1790
 -1       497    8    0    1
 -2       173       174       329      1329      1796      1797
 -1       498    8    0    1
 -2       173       329       328      1797      1798      1793
 -1       499    8    0    1
 -2       174       175       330      1332      1799      1800
 -1       500    8    0    1
 -2       174       330       329      1800      1801      1796
 -1       501    8    0    1
 -2       175       176       331      1335      1802      1803
 -1       502    8    0    1
 -2       175       331       330      1803      1804      1799
 -1       503    8    0    1
 -2       176       177       332      1338      1805      1806
 -1       504    8    0    1
 -2       176       332       331      1806      1807      1802
 -1       505    8    0    1
 -2       177       178       333      1341      1808      1809
 -1       506    8    0    1
 -2       177       333       332      1809      1810      1805
 -1       507    8    0    1
 -2       178       179       334      1344      1811      1812
 -1       508    8    0    1
 -2       178       334       333      1812      1813      1808
 -1       509    8    0    1
 -2       179       180       335      1347      1814      1815
 -1       510    8    0    1
 -2       334       179       335      1811      1815      1816
 -1       511    8    0    1
 -2       180       229       335      1496      1817      1814
 -1       512    8    0    1
 -2       181        23       165      1349      1776      1818
 -1       513    8    0    1
 -2       229       230       336      1499      1819      1820
 -1       514    8    0    1
 -2       229       336       335      1820      1821      1817
 -1       515    8    0    1
 -2       181       165       323      1818      1780      1822
 -1       516    8    0    1
 -2       183       182       337      1356      1823      1824
 -1       517    8    0    1
 -2       184       183       338      1359      1825      1826
 -1       518    8    0    1
 -2       183       337       338      1824      1827      1825
 -1       519    8    0    1
 -2       185       184       339      1362      1828      1829
 -1       520    8    0    1
 -2       184       338       339      1826      1830      1828
 -1       521    8    0    1
 -2       186       185       340      1365      1831      1832
 -1       522    8    0    1
 -2       185       339       340      1829      1833      1831
 -1       523    8    0    1
 -2       187       186       341      1368      1834      1835
 -1       524    8    0    1
 -2       186       340       341      1832      1836      1834
 -1       525    8    0    1
 -2       188       187       342      1371      1837      1838
 -1       526    8    0    1
 -2       187       341       342      1835      1839      1837
 -1       527    8    0    1
 -2       189       188       343      1374      1840      1841
 -1       528    8    0    1
 -2       188       342       343      1838      1842      1840
 -1       529    8    0    1
 -2       190       189       344      1377      1843      1844
 -1       530    8    0    1
 -2       189       343       344      1841      1845      1843
 -1       531    8    0    1
 -2       191       190       345      1380      1846      1847
 -1       532    8    0    1
 -2       190       344       345      1844      1848      1846
 -1       533    8    0    1
 -2       192       191       346      1383      1849      1850
 -1       534    8    0    1
 -2       191       345       346      1847      1851      1849
 -1       535    8    0    1
 -2       193       192       347      1386      1852      1853
 -1       536    8    0    1
 -2       192       346       347      1850      1854      1852
 -1       537    8    0    1
 -2       194       193       348      1389      1855      1856
 -1       538    8    0    1
 -2       193       347       348      1853      1857      1855
 -1       539    8    0    1
 -2       195       194       349      1392      1858      1859
 -1       540    8    0    1
 -2       194       348       349      1856      1860      1858
 -1       541    8    0    1
 -2       196       195       350      1395      1861      1862
 -1       542    8    0    1
 -2       195       349       350      1859      1863      1861
 -1       543    8    0    1
 -2       197       196       351      1398      1864      1865
 -1       544    8    0    1
 -2       196       350       351      1862      1866      1864
 -1       545    8    0    1
 -2       198       197       352      1401      1867      1868
 -1       546    8    0    1
 -2       197       351       352      1865      1869      1867
 -1       547    8    0    1
 -2       199       198       353      1404      1870      1871
 -1       548    8    0    1
 -2       198       352       353      1868      1872      1870
 -1       549    8    0    1
 -2       200       199       354      1407      1873      1874
 -1       550    8    0    1
 -2       199       353       354      1871      1875      1873
 -1       551    8    0    1
 -2       201       200       355      1410      1876      1877
 -1       552    8    0    1
 -2       200       354       355      1874      1878      1876
 -1       553    8    0    1
 -2       202       201       356      1413      1879      1880
 -1       554    8    0    1
 -2       201       355       356      1877      1881      1879
 -1       555    8    0    1
 -2       203       202       357      1416      1882      1883
 -1       556    8    0    1
 -2       202       356       357      1880      1884      1882
 -1       557    8    0    1
 -2       204       203       358      1419      1885      1886
 -1       558    8    0    1
 -2       203       357       358      1883      1887      1885
 -1       559    8    0    1
 -2       205       204       359      1422      1888      1889
 -1       560    8    0    1
 -2       204       358       359      1886      1890      1888
 -1       561    8    0    1
 -2       206       205       360      1425      1891      1892
 -1       562    8    0    1
 -2       205       359       360      1889      1893      1891
 -1       563    8    0    1
 -2       207       206       361      1428      1894      1895
 -1       564    8    0    1
 -2       206       360       361      1892      1896      1894
 -1       565    8    0    1
 -2       208       207       362      1431      1897      1898
 -1       566    8    0    1
 -2       207       361       362      1895      1899      1897
 -1       567    8    0    1
 -2       209       208       363      1434      1900      1901
 -1       568    8    0    1
 -2       208       362       363      1898      1902      1900
 -1       569    8    0    1
 -2       210       209       364      1437      1903      1904
 -1       570    8    0    1
 -2       209       363       364      1901      1905      1903
 -1       571    8    0    1
 -2       211       210       365      1440      1906      1907
 -1       572    8    0    1
 -2       210       364       365      1904      1908      1906
 -1       573    8    0    1
 -2       212       211       366      1443      1909      1910
 -1       574    8    0    1
 -2       211       365       366      1907      1911      1909
 -1       575    8    0    1
 -2       213       212       367      1446      1912      1913
 -1       576    8    0    1
 -2       212       366       367      1910      1914      1912
 -1       577    8    0    1
 -2       214       213       368      1449      1915      1916
 -1       578    8    0    1
 -2       213       367       368      1913      1917      1915
 -1       579    8    0    1
 -2       215       214       369      1452      1918      1919
 -1       580    8    0    1
 -2       214       368       369      1916      1920      1918
 -1       581    8    0    1
 -2       216       215       370      1455      1921      1922
 -1       582    8    0    1
 -2       215       369       370      1919      1923      1921
 -1       583    8    0    1
 -2       217       216       371      1458      1924      1925
 -1       584    8    0    1
 -2       216       370       371      1922      1926      1924
 -1       585    8    0    1
 -2       218       217       372      1461      1927      1928
 -1       586    8    0    1
 -2       217       371       372      1925      1929      1927
 -1       587    8    0    1
 -2       219       218       373      1464      1930      1931
 -1       588    8    0    1
 -2       218       372       373      1928      1932      1930
 -1       589    8    0    1
 -2       220       219       374      1467      1933      1934
 -1       590    8    0    1
 -2       219       373       374      1931      1935      1933
 -1       591    8    0    1
 -2       221       220       375      1470      1936      1937
 -1       592    8    0    1
 -2       220       374       375      1934      1938      1936
 -1       593    8    0    1
 -2       222       221       376      1473      1939      1940
 -1       594    8    0    1
 -2       221       375       376      1937      1941      1939
 -1       595    8    0    1
 -2       223       222       377      1476      1942      1943
 -1       596    8    0    1
 -2       222       376       377      1940      1944      1942
 -1       597    8    0    1
 -2       224       223       378      1479      1945      1946
 -1       598    8    0    1
 -2       223       377       378      1943      1947      1945
 -1       599    8    0    1
 -2       225       224       379      1482      1948      1949
 -1       600    8    0    1
 -2       224       378       379      1946      1950      1948
 -1       601    8    0    1
 -2       226       225       380      1485      1951      1952
 -1       602    8    0    1
 -2       225       379       380      1949      1953      1951
 -1       603    8    0    1
 -2       227       226       381      1488      1954      1955
 -1       604    8    0    1
 -2       226       380       381      1952      1956      1954
 -1       605    8    0    1
 -2       228       227       382      1491      1957      1958
 -1       606    8    0    1
 -2       291       228       382      1683      1958      1959
 -1       607    8    0    1
 -2       227       381       382      1955      1960      1957
 -1       608    8    0    1
 -2       230       231       383      1502      1961      1962
 -1       609    8    0    1
 -2       230       383       336      1962      1963      1819
 -1       610    8    0    1
 -2       231       232       384      1505      1964      1965
 -1       611    8    0    1
 -2       231       384       383      1965      1966      1961
 -1       612    8    0    1
 -2       232       233       385      1508      1967      1968
 -1       613    8    0    1
 -2       232       385       384      1968      1969      1964
 -1       614    8    0    1
 -2       233       234       386      1511      1970      1971
 -1       615    8    0    1
 -2       233       386       385      1971      1972      1967
 -1       616    8    0    1
 -2       234       235       387      1514      1973      1974
 -1       617    8    0    1
 -2       234       387       386      1974      1975      1970
 -1       618    8    0    1
 -2       235       236       388      1517      1976      1977
 -1       619    8    0    1
 -2       235       388       387      1977      1978      1973
 -1       620    8    0    1
 -2       236       237       389      1520      1979      1980
 -1       621    8    0    1
 -2       236       389       388      1980      1981      1976
 -1       622    8    0    1
 -2       237       238       390      1523      1982      1983
 -1       623    8    0    1
 -2       237       390       389      1983      1984      1979
 -1       624    8    0    1
 -2       238       239       391      1526      1985      1986
 -1       625    8    0    1
 -2       238       391       390      1986      1987      1982
 -1       626    8    0    1
 -2       239       240       392      1529      1988      1989
 -1       627    8    0    1
 -2       239       392       391      1989      1990      1985
 -1       628    8    0    1
 -2       240       241       393      1532      1991      1992
 -1       629    8    0    1
 -2       240       393       392      1992      1993      1988
 -1       630    8    0    1
 -2       241       242       394      1535      1994      1995
 -1       631    8    0    1
 -2       241       394       393      1995      1996      1991
 -1       632    8    0    1
 -2       242       243       395      1538      1997      1998
 -1       633    8    0    1
 -2       242       395       394      1998      1999      1994
 -1       634    8    0    1
 -2       243       244       396      1541      2000      2001
 -1       635    8    0    1
 -2       243       396       395      2001      2002      1997
 -1       636    8    0    1
 -2       244       245       397      1544      2003      2004
 -1       637    8    0    1
 -2       244       397       396      2004      2005      2000
 -1       638    8    0    1
 -2       245       246       398      1547      2006      2007
 -1       639    8    0    1
 -2       245       398       397      2007      2008      2003
 -1       640    8    0    1
 -2       246       247       399      1550      2009      2010
 -1       641    8    0    1
 -2       246       399       398      2010      2011      2006
 -1       642    8    0    1
 -2       247       248       400      1553      2012      2013
 -1       643    8    0    1
 -2       247       400       399      2013      2014      2009
 -1       644    8    0    1
 -2       248       249       401      1556      2015      2016
 -1       645    8    0    1
 -2       248       401       400      2016      2017      2012
 -1       646    8    0    1
 -2       249       250       402      1559      2018      2019
 -1       647    8    0    1
 -2       249       402       401      2019      2020      2015
 -1       648    8    0    1
 -2       250       251       403      1562      2021      2022
 -1       649    8    0    1
 -2       250       403       402      2022      2023      2018
 -1       650    8    0    1
 -2       251       252       404      1565      2024      2025
 -1       651    8    0    1
 -2       251       404       403      2025      2026      2021
 -1       652    8    0    1
 -2       252       253       405      1568      2027      2028
 -1       653    8    0    1
 -2       252       405       404      2028      2029      2024
 -1       654    8    0    1
 -2       253       254       406      1571      2030      2031
 -1       655    8    0    1
 -2       253       406       405      2031      2032      2027
 -1       656    8    0    1
 -2       254       255       407      1574      2033      2034
 -1       657    8    0    1
 -2       254       407       406      2034      2035      2030
 -1       658    8    0    1
 -2       255       256       408      1577      2036      2037
 -1       659    8    0    1
 -2       255       408       407      2037      2038      2033
 -1       660    8    0    1
 -2       256       257       409      1580      2039      2040
 -1       661    8    0    1
 -2       256       409       408      2040      2041      2036
 -1       662    8    0    1
 -2       257       258       410      1583      2042      2043
 -1       663    8    0    1
 -2       257       410       409      2043      2044      2039
 -1       664    8    0    1
 -2       258       259       411      1586      2045      2046
 -1       665    8    0    1
 -2       258       411       410      2046      2047      2042
 -1       666    8    0    1
 -2       259       260       412      1589      2048      2049
 -1       667    8    0    1
 -2       259       412       411      2049      2050      2045
 -1       668    8    0    1
 -2       260       261       413      1592      2051      2052
 -1       669    8    0    1
 -2       260       413       412      2052      2053      2048
 -1       670    8    0    1
 -2       261       262       414      1595      2054      2055
 -1       671    8    0    1
 -2       261       414       413      2055      2056      2051
 -1       672    8    0    1
 -2       262       263       415      1598      2057      2058
 -1       673    8    0    1
 -2       262       415       414      2058      2059      2054
 -1       674    8    0    1
 -2       263       264       416      1601      2060      2061
 -1       675    8    0    1
 -2       263       416       415      2061      2062      2057
 -1       676    8    0    1
 -2       264       265       417      1604      2063      2064
 -1       677    8    0    1
 -2       264       417       416      2064      2065      2060
 -1       678    8    0    1
 -2       265       266       418      1607      2066      2067
 -1       679    8    0    1
 -2       265       418       417      2067      2068      2063
 -1       680    8    0    1
 -2       266       267       419      1610      2069      2070
 -1       681    8    0    1
 -2       266       419       418      2070      2071      2066
 -1       682    8    0    1
 -2       267       268       420      1613      2072      2073
 -1       683    8    0    1
 -2       267       420       419      2073      2074      2069
 -1       684    8    0    1
 -2       268       269       421      1616      2075      2076
 -1       685    8    0    1
 -2       268       421       420      2076      2077      2072
 -1       686    8    0    1
 -2       269       270       422      1619      2078      2079
 -1       687    8    0    1
 -2       269       422       421      2079      2080      2075
 -1       688    8    0    1
 -2       270       271       423      1622      2081      2082
 -1       689    8    0    1
 -2       270       423       422      2082      2083      2078
 -1       690    8    0    1
 -2       271       272       424      1625      2084      2085
 -1       691    8    0    1
 -2       271       424       423      2085      2086      2081
 -1       692    8    0    1
 -2       272       273       425      1628      2087      2088
 -1       693    8    0    1
 -2       272       425       424      2088      2089      2084
 -1       694    8    0    1
 -2       273       274       426      1631      2090      2091
 -1       695    8    0    1
 -2       273       426       425      2091      2092      2087
 -1       696    8    0    1
 -2       274       275       427      1634      2093      2094
 -1       697    8    0    1
 -2       274       427       426      2094      2095      2090
 -1       698    8    0    1
 -2       275       276       428      1637      2096      2097
 -1       699    8    0    1
 -2       427       275       428      2093      2097      2098
 -1       700    8    0    1
 -2       276       277       428      1747      2099      2096
 -1       701    8    0    1
 -2       279       280       429      1649      2100      2101
 -1       702    8    0    1
 -2       278       279       430      1646      2102      2103
 -1       703    8    0    1
 -2       279       429       430      2101      2104      2102
 -1       704    8    0    1
 -2       277       278       431      1643      2105      2106
 -1       705    8    0    1
 -2       428       277       431      2099      2106      2107
 -1       706    8    0    1
 -2       278       430       431      2103      2108      2105
 -1       707    8    0    1
 -2       280       281       432      1652      2109      2110
 -1       708    8    0    1
 -2       280       432       429      2110      2111      2100
 -1       709    8    0    1
 -2       281       282       433      1655      2112      2113
 -1       710    8    0    1
 -2       281       433       432      2113      2114      2109
 -1       711    8    0    1
 -2       282       283       434      1658      2115      2116
 -1       712    8    0    1
 -2       282       434       433      2116      2117      2112
 -1       713    8    0    1
 -2       283       284       435      1661      2118      2119
 -1       714    8    0    1
 -2       283       435       434      2119      2120      2115
 -1       715    8    0    1
 -2       284       285       436      1664      2121      2122
 -1       716    8    0    1
 -2       284       436       435      2122      2123      2118
 -1       717    8    0    1
 -2       285       286       437      1667      2124      2125
 -1       718    8    0    1
 -2       285       437       436      2125      2126      2121
 -1       719    8    0    1
 -2       286       287       438      1670      2127      2128
 -1       720    8    0    1
 -2       286       438       437      2128      2129      2124
 -1       721    8    0    1
 -2       287       288       439      1673      2130      2131
 -1       722    8    0    1
 -2       287       439       438      2131      2132      2127
 -1       723    8    0    1
 -2       288       289       440      1676      2133      2134
 -1       724    8    0    1
 -2       288       440       439      2134      2135      2130
 -1       725    8    0    1
 -2       289       290       441      1679      2136      2137
 -1       726    8    0    1
 -2       289       441       440      2137      2138      2133
 -1       727    8    0    1
 -2       293       294       442      1749      2139      2140
 -1       728    8    0    1
 -2       321       292       443      1750      2141      2142
 -1       729    8    0    1
 -2       292       293       444      1748      2143      2144
 -1       730    8    0    1
 -2       294       295       445      1745      2145      2146
 -1       731    8    0    1
 -2       295       296       446      1744      2147      2148
 -1       732    8    0    1
 -2       295       446       445      2148      2149      2145
 -1       733    8    0    1
 -2       167       168       447      1311      2150      2151
 -1       734    8    0    1
 -2       322       167       447      1777      2151      2152
 -1       735    8    0    1
 -2       168       324       447      1783      2153      2150
 -1       736    8    0    1
 -2       297       298       448      1752      2154      2155
 -1       737    8    0    1
 -2       298       299       449      1753      2156      2157
 -1       738    8    0    1
 -2       299       300       450      1754      2158      2159
 -1       739    8    0    1
 -2       300       301       451      1755      2160      2161
 -1       740    8    0    1
 -2       301       302       452      1756      2162      2163
 -1       741    8    0    1
 -2       301       452       451      2163      2164      2160
 -1       742    8    0    1
 -2       302       303       453      1757      2165      2166
 -1       743    8    0    1
 -2       303       304       454      1758      2167      2168
 -1       744    8    0    1
 -2       304       305       455      1759      2169      2170
 -1       745    8    0    1
 -2       305       306       456      1760      2171      2172
 -1       746    8    0    1
 -2       306       307       457      1761      2173      2174
 -1       747    8    0    1
 -2       307       308       458      1762      2175      2176
 -1       748    8    0    1
 -2       308       309       459      1763      2177      2178
 -1       749    8    0    1
 -2       309       310       460      1764      2179      2180
 -1       750    8    0    1
 -2       310       311       461      1765      2181      2182
 -1       751    8    0    1
 -2       311       312       462      1766      2183      2184
 -1       752    8    0    1
 -2       312       313       463      1767      2185      2186
 -1       753    8    0    1
 -2       312       463       462      2186      2187      2183
 -1       754    8    0    1
 -2       313       314       464      1768      2188      2189
 -1       755    8    0    1
 -2       314       315       465      1769      2190      2191
 -1       756    8    0    1
 -2       314       465       464      2191      2192      2188
 -1       757    8    0    1
 -2       315       316       466      1770      2193      2194
 -1       758    8    0    1
 -2       316       317       467      1771      2195      2196
 -1       759    8    0    1
 -2       316       467       466      2196      2197      2193
 -1       760    8    0    1
 -2       317       318       468      1772      2198      2199
 -1       761    8    0    1
 -2       318       319       469      1773      2200      2201
 -1       762    8    0    1
 -2       319       320       470      1774      2202      2203
 -1       763    8    0    1
 -2       319       470       469      2203      2204      2200
 -1       764    8    0    1
 -2       320       321       471      1775      2205      2206
 -1       765    8    0    1
 -2       296       297       472      1751      2207      2208
 -1       766    8    0    1
 -2       181       323       182      1822      2209      1353
 -1       767    8    0    1
 -2       446       296       472      2147      2208      2210
 -1       768    8    0    1
 -2       297       448       472      2155      2211      2207
 -1       769    8    0    1
 -2       337       182       323      1823      2209      2212
 -1       770    8    0    1
 -2       444       293       442      2143      2140      2213
 -1       771    8    0    1
 -2       443       292       444      2141      2144      2214
 -1       772    8    0    1
 -2       441       290       291      2136      1682      2215
 -1       773    8    0    1
 -2       442       294       445      2139      2146      2216
 -1       774    8    0    1
 -2       321       443       471      2142      2217      2205
 -1       775    8    0    1
 -2       470       320       471      2202      2206      2218
 -1       776    8    0    1
 -2       467       317       468      2195      2199      2219
 -1       777    8    0    1
 -2       465       315       466      2190      2194      2220
 -1       778    8    0    1
 -2       463       313       473      2185      2221      2222
 -1       779    8    0    1
 -2       313       464       473      2189      2223      2221
 -1       780    8    0    1
 -2       461       311       462      2181      2184      2224
 -1       781    8    0    1
 -2       460       310       461      2179      2182      2225
 -1       782    8    0    1
 -2       459       309       460      2177      2180      2226
 -1       783    8    0    1
 -2       458       308       459      2175      2178      2227
 -1       784    8    0    1
 -2       457       307       458      2173      2176      2228
 -1       785    8    0    1
 -2       456       306       457      2171      2174      2229
 -1       786    8    0    1
 -2       455       305       456      2169      2172      2230
 -1       787    8    0    1
 -2       454       304       455      2167      2170      2231
 -1       788    8    0    1
 -2       452       302       453      2162      2166      2232
 -1       789    8    0    1
 -2       450       300       451      2158      2161      2233
 -1       790    8    0    1
 -2       448       298       449      2154      2157      2234
 -1       791    8    0    1
 -2       449       299       450      2156      2159      2235
 -1       792    8    0    1
 -2       453       303       454      2165      2168      2236
 -1       793    8    0    1
 -2       468       318       469      2198      2201      2237
 -1       794    8    0    1
 -2       336       383       474      1963      2238      2239
 -1       795    8    0    1
 -2       325       326       475      1789      2240      2241
 -1       796    8    0    1
 -2       324       325       476      1786      2242      2243
 -1       797    8    0    1
 -2       325       475       476      2241      2244      2242
 -1       798    8    0    1
 -2       327       328       477      1795      2245      2246
 -1       799    8    0    1
 -2       328       329       478      1798      2247      2248
 -1       800    8    0    1
 -2       328       478       477      2248      2249      2245
 -1       801    8    0    1
 -2       329       330       479      1801      2250      2251
 -1       802    8    0    1
 -2       329       479       478      2251      2252      2247
 -1       803    8    0    1
 -2       330       331       480      1804      2253      2254
 -1       804    8    0    1
 -2       330       480       479      2254      2255      2250
 -1       805    8    0    1
 -2       331       332       481      1807      2256      2257
 -1       806    8    0    1
 -2       331       481       480      2257      2258      2253
 -1       807    8    0    1
 -2       332       333       482      1810      2259      2260
 -1       808    8    0    1
 -2       332       482       481      2260      2261      2256
 -1       809    8    0    1
 -2       383       384       483      1966      2262      2263
 -1       810    8    0    1
 -2       383       483       474      2263      2264      2238
 -1       811    8    0    1
 -2       338       337       484      1827      2265      2266
 -1       812    8    0    1
 -2       446       472       485      2210      2267      2268
 -1       813    8    0    1
 -2       339       338       486      1830      2269      2270
 -1       814    8    0    1
 -2       338       484       486      2266      2271      2269
 -1       815    8    0    1
 -2       340       339       487      1833      2272      2273
 -1       816    8    0    1
 -2       339       486       487      2270      2274      2272
 -1       817    8    0    1
 -2       341       340       488      1836      2275      2276
 -1       818    8    0    1
 -2       340       487       488      2273      2277      2275
 -1       819    8    0    1
 -2       342       341       489      1839      2278      2279
 -1       820    8    0    1
 -2       341       488       489      2276      2280      2278
 -1       821    8    0    1
 -2       343       342       490      1842      2281      2282
 -1       822    8    0    1
 -2       342       489       490      2279      2283      2281
 -1       823    8    0    1
 -2       344       343       491      1845      2284      2285
 -1       824    8    0    1
 -2       343       490       491      2282      2286      2284
 -1       825    8    0    1
 -2       345       344       492      1848      2287      2288
 -1       826    8    0    1
 -2       344       491       492      2285      2289      2287
 -1       827    8    0    1
 -2       346       345       493      1851      2290      2291
 -1       828    8    0    1
 -2       345       492       493      2288      2292      2290
 -1       829    8    0    1
 -2       347       346       494      1854      2293      2294
 -1       830    8    0    1
 -2       346       493       494      2291      2295      2293
 -1       831    8    0    1
 -2       348       347       495      1857      2296      2297
 -1       832    8    0    1
 -2       347       494       495      2294      2298      2296
 -1       833    8    0    1
 -2       349       348       496      1860      2299      2300
 -1       834    8    0    1
 -2       348       495       496      2297      2301      2299
 -1       835    8    0    1
 -2       350       349       497      1863      2302      2303
 -1       836    8    0    1
 -2       349       496       497      2300      2304      2302
 -1       837    8    0    1
 -2       351       350       498      1866      2305      2306
 -1       838    8    0    1
 -2       350       497       498      2303      2307      2305
 -1       839    8    0    1
 -2       352       351       499      1869      2308      2309
 -1       840    8    0    1
 -2       351       498       499      2306      2310      2308
 -1       841    8    0    1
 -2       353       352       500      1872      2311      2312
 -1       842    8    0    1
 -2       352       499       500      2309      2313      2311
 -1       843    8    0    1
 -2       354       353       501      1875      2314      2315
 -1       844    8    0    1
 -2       353       500       501      2312      2316      2314
 -1       845    8    0    1
 -2       355       354       502      1878      2317      2318
 -1       846    8    0    1
 -2       354       501       502      2315      2319      2317
 -1       847    8    0    1
 -2       356       355       503      1881      2320      2321
 -1       848    8    0    1
 -2       355       502       503      2318      2322      2320
 -1       849    8    0    1
 -2       357       356       504      1884      2323      2324
 -1       850    8    0    1
 -2       356       503       504      2321      2325      2323
 -1       851    8    0    1
 -2       358       357       505      1887      2326      2327
 -1       852    8    0    1
 -2       357       504       505      2324      2328      2326
 -1       853    8    0    1
 -2       359       358       506      1890      2329      2330
 -1       854    8    0    1
 -2       358       505       506      2327      2331      2329
 -1       855    8    0    1
 -2       360       359       507      1893      2332      2333
 -1       856    8    0    1
 -2       359       506       507      2330      2334      2332
 -1       857    8    0    1
 -2       361       360       508      1896      2335      2336
 -1       858    8    0    1
 -2       360       507       508      2333      2337      2335
 -1       859    8    0    1
 -2       362       361       509      1899      2338      2339
 -1       860    8    0    1
 -2       361       508       509      2336      2340      2338
 -1       861    8    0    1
 -2       363       362       510      1902      2341      2342
 -1       862    8    0    1
 -2       362       509       510      2339      2343      2341
 -1       863    8    0    1
 -2       364       363       511      1905      2344      2345
 -1       864    8    0    1
 -2       363       510       511      2342      2346      2344
 -1       865    8    0    1
 -2       365       364       512      1908      2347      2348
 -1       866    8    0    1
 -2       364       511       512      2345      2349      2347
 -1       867    8    0    1
 -2       366       365       513      1911      2350      2351
 -1       868    8    0    1
 -2       365       512       513      2348      2352      2350
 -1       869    8    0    1
 -2       367       366       514      1914      2353      2354
 -1       870    8    0    1
 -2       366       513       514      2351      2355      2353
 -1       871    8    0    1
 -2       368       367       515      1917      2356      2357
 -1       872    8    0    1
 -2       367       514       515      2354      2358      2356
 -1       873    8    0    1
 -2       369       368       516      1920      2359      2360
 -1       874    8    0    1
 -2       368       515       516      2357      2361      2359
 -1       875    8    0    1
 -2       370       369       517      1923      2362      2363
 -1       876    8    0    1
 -2       369       516       517      2360      2364      2362
 -1       877    8    0    1
 -2       371       370       518      1926      2365      2366
 -1       878    8    0    1
 -2       370       517       518      2363      2367      2365
 -1       879    8    0    1
 -2       372       371       519      1929      2368      2369
 -1       880    8    0    1
 -2       371       518       519      2366      2370      2368
 -1       881    8    0    1
 -2       373       372       520      1932      2371      2372
 -1       882    8    0    1
 -2       372       519       520      2369      2373      2371
 -1       883    8    0    1
 -2       374       373       521      1935      2374      2375
 -1       884    8    0    1
 -2       373       520       521      2372      2376      2374
 -1       885    8    0    1
 -2       375       374       522      1938      2377      2378
 -1       886    8    0    1
 -2       374       521       522      2375      2379      2377
 -1       887    8    0    1
 -2       376       375       523      1941      2380      2381
 -1       888    8    0    1
 -2       375       522       523      2378      2382      2380
 -1       889    8    0    1
 -2       377       376       524      1944      2383      2384
 -1       890    8    0    1
 -2       376       523       524      2381      2385      2383
 -1       891    8    0    1
 -2       378       377       525      1947      2386      2387
 -1       892    8    0    1
 -2       377       524       525      2384      2388      2386
 -1       893    8    0    1
 -2       379       378       526      1950      2389      2390
 -1       894    8    0    1
 -2       378       525       526      2387      2391      2389
 -1       895    8    0    1
 -2       380       379       527      1953      2392      2393
 -1       896    8    0    1
 -2       379       526       527      2390      2394      2392
 -1       897    8    0    1
 -2       381       380       528      1956      2395      2396
 -1       898    8    0    1
 -2       380       527       528      2393      2397      2395
 -1       899    8    0    1
 -2       385       386       529      1972      2398      2399
 -1       900    8    0    1
 -2       386       387       530      1975      2400      2401
 -1       901    8    0    1
 -2       386       530       529      2401      2402      2398
 -1       902    8    0    1
 -2       387       388       531      1978      2403      2404
 -1       903    8    0    1
 -2       387       531       530      2404      2405      2400
 -1       904    8    0    1
 -2       388       389       532      1981      2406      2407
 -1       905    8    0    1
 -2       388       532       531      2407      2408      2403
 -1       906    8    0    1
 -2       389       390       533      1984      2409      2410
 -1       907    8    0    1
 -2       389       533       532      2410      2411      2406
 -1       908    8    0    1
 -2       390       391       534      1987      2412      2413
 -1       909    8    0    1
 -2       390       534       533      2413      2414      2409
 -1       910    8    0    1
 -2       391       392       535      1990      2415      2416
 -1       911    8    0    1
 -2       391       535       534      2416      2417      2412
 -1       912    8    0    1
 -2       392       393       536      1993      2418      2419
 -1       913    8    0    1
 -2       392       536       535      2419      2420      2415
 -1       914    8    0    1
 -2       393       394       537      1996      2421      2422
 -1       915    8    0    1
 -2       393       537       536      2422      2423      2418
 -1       916    8    0    1
 -2       394       395       538      1999      2424      2425
 -1       917    8    0    1
 -2       394       538       537      2425      2426      2421
 -1       918    8    0    1
 -2       395       396       539      2002      2427      2428
 -1       919    8    0    1
 -2       395       539       538      2428      2429      2424
 -1       920    8    0    1
 -2       396       397       540      2005      2430      2431
 -1       921    8    0    1
 -2       396       540       539      2431      2432      2427
 -1       922    8    0    1
 -2       397       398       541      2008      2433      2434
 -1       923    8    0    1
 -2       397       541       540      2434      2435      2430
 -1       924    8    0    1
 -2       398       399       542      2011      2436      2437
 -1       925    8    0    1
 -2       398       542       541      2437      2438      2433
 -1       926    8    0    1
 -2       399       400       543      2014      2439      2440
 -1       927    8    0    1
 -2       399       543       542      2440      2441      2436
 -1       928    8    0    1
 -2       400       401       544      2017      2442      2443
 -1       929    8    0    1
 -2       400       544       543      2443      2444      2439
 -1       930    8    0    1
 -2       401       402       545      2020      2445      2446
 -1       931    8    0    1
 -2       401       545       544      2446      2447      2442
 -1       932    8    0    1
 -2       402       403       546      2023      2448      2449
 -1       933    8    0    1
 -2       402       546       545      2449      2450      2445
 -1       934    8    0    1
 -2       403       404       547      2026      2451      2452
 -1       935    8    0    1
 -2       403       547       546      2452      2453      2448
 -1       936    8    0    1
 -2       404       405       548      2029      2454      2455
 -1       937    8    0    1
 -2       404       548       547      2455      2456      2451
 -1       938    8    0    1
 -2       405       406       549      2032      2457      2458
 -1       939    8    0    1
 -2       405       549       548      2458      2459      2454
 -1       940    8    0    1
 -2       406       407       550      2035      2460      2461
 -1       941    8    0    1
 -2       406       550       549      2461      2462      2457
 -1       942    8    0    1
 -2       407       408       551      2038      2463      2464
 -1       943    8    0    1
 -2       407       551       550      2464      2465      2460
 -1       944    8    0    1
 -2       408       409       552      2041      2466      2467
 -1       945    8    0    1
 -2       408       552       551      2467      2468      2463
 -1       946    8    0    1
 -2       409       410       553      2044      2469      2470
 -1       947    8    0    1
 -2       409       553       552      2470      2471      2466
 -1       948    8    0    1
 -2       410       411       554      2047      2472      2473
 -1       949    8    0    1
 -2       410       554       553      2473      2474      2469
 -1       950    8    0    1
 -2       411       412       555      2050      2475      2476
 -1       951    8    0    1
 -2       411       555       554      2476      2477      2472
 -1       952    8    0    1
 -2       412       413       556      2053      2478      2479
 -1       953    8    0    1
 -2       412       556       555      2479      2480      2475
 -1       954    8    0    1
 -2       413       414       557      2056      2481      2482
 -1       955    8    0    1
 -2       413       557       556      2482      2483      2478
 -1       956    8    0    1
 -2       414       415       558      2059      2484      2485
 -1       957    8    0    1
 -2       414       558       557      2485      2486      2481
 -1       958    8    0    1
 -2       415       416       559      2062      2487      2488
 -1       959    8    0    1
 -2       415       559       558      2488      2489      2484
 -1       960    8    0    1
 -2       416       417       560      2065      2490      2491
 -1       961    8    0    1
 -2       416       560       559      2491      2492      2487
 -1       962    8    0    1
 -2       417       418       561      2068      2493      2494
 -1       963    8    0    1
 -2       417       561       560      2494      2495      2490
 -1       964    8    0    1
 -2       418       419       562      2071      2496      2497
 -1       965    8    0    1
 -2       418       562       561      2497      2498      2493
 -1       966    8    0    1
 -2       419       420       563      2074      2499      2500
 -1       967    8    0    1
 -2       419       563       562      2500      2501      2496
 -1       968    8    0    1
 -2       420       421       564      2077      2502      2503
 -1       969    8    0    1
 -2       420       564       563      2503      2504      2499
 -1       970    8    0    1
 -2       421       422       565      2080      2505      2506
 -1       971    8    0    1
 -2       421       565       564      2506      2507      2502
 -1       972    8    0    1
 -2       422       423       566      2083      2508      2509
 -1       973    8    0    1
 -2       422       566       565      2509      2510      2505
 -1       974    8    0    1
 -2       423       424       567      2086      2511      2512
 -1       975    8    0    1
 -2       423       567       566      2512      2513      2508
 -1       976    8    0    1
 -2       424       425       568      2089      2514      2515
 -1       977    8    0    1
 -2       424       568       567      2515      2516      2511
 -1       978    8    0    1
 -2       425       426       569      2092      2517      2518
 -1       979    8    0    1
 -2       425       569       568      2518      2519      2514
 -1       980    8    0    1
 -2       426       427       570      2095      2520      2521
 -1       981    8    0    1
 -2       426       570       569      2521      2522      2517
 -1       982    8    0    1
 -2       427       428       431      2098      2107      2523
 -1       983    8    0    1
 -2       432       433       571      2114      2524      2525
 -1       984    8    0    1
 -2       433       434       572      2117      2526      2527
 -1       985    8    0    1
 -2       433       572       571      2527      2528      2524
 -1       986    8    0    1
 -2       430       429       573      2104      2529      2530
 -1       987    8    0    1
 -2       429       432       574      2111      2531      2532
 -1       988    8    0    1
 -2       573       429       574      2529      2532      2533
 -1       989    8    0    1
 -2       432       571       574      2525      2534      2531
 -1       990    8    0    1
 -2       434       435       575      2120      2535      2536
 -1       991    8    0    1
 -2       434       575       572      2536      2537      2526
 -1       992    8    0    1
 -2       435       436       576      2123      2538      2539
 -1       993    8    0    1
 -2       435       576       575      2539      2540      2535
 -1       994    8    0    1
 -2       436       437       577      2126      2541      2542
 -1       995    8    0    1
 -2       436       577       576      2542      2543      2538
 -1       996    8    0    1
 -2       437       438       578      2129      2544      2545
 -1       997    8    0    1
 -2       437       578       577      2545      2546      2541
 -1       998    8    0    1
 -2       438       439       579      2132      2547      2548
 -1       999    8    0    1
 -2       438       579       578      2548      2549      2544
 -1      1000    8    0    1
 -2       439       440       580      2135      2550      2551
 -1      1001    8    0    1
 -2       439       580       579      2551      2552      2547
 -1      1002    8    0    1
 -2       440       441       581      2138      2553      2554
 -1      1003    8    0    1
 -2       440       581       580      2554      2555      2550
 -1      1004    8    0    1
 -2       443       444       582      2214      2556      2557
 -1      1005    8    0    1
 -2       442       445       583      2216      2558      2559
 -1      1006    8    0    1
 -2       384       385       584      1969      2560      2561
 -1      1007    8    0    1
 -2       385       529       584      2399      2562      2560
 -1      1008    8    0    1
 -2       441       291       382      2215      1959      2563
 -1      1009    8    0    1
 -2       471       443       585      2217      2564      2565
 -1      1010    8    0    1
 -2       445       446       586      2149      2566      2567
 -1      1011    8    0    1
 -2       337       323       587      2212      2568      2569
 -1      1012    8    0    1
 -2       484       337       587      2265      2569      2570
 -1      1013    8    0    1
 -2       323       322       587      1781      2571      2568
 -1      1014    8    0    1
 -2       467       468       588      2219      2572      2573
 -1      1015    8    0    1
 -2       461       462       589      2224      2574      2575
 -1      1016    8    0    1
 -2       450       451       590      2233      2576      2577
 -1      1017    8    0    1
 -2       326       327       591      1792      2578      2579
 -1      1018    8    0    1
 -2       475       326       591      2240      2579      2580
 -1      1019    8    0    1
 -2       327       477       591      2246      2581      2578
 -1      1020    8    0    1
 -2       449       450       592      2235      2582      2583
 -1      1021    8    0    1
 -2       453       454       593      2236      2584      2585
 -1      1022    8    0    1
 -2       448       449       594      2234      2586      2587
 -1      1023    8    0    1
 -2       449       592       594      2583      2588      2586
 -1      1024    8    0    1
 -2       451       452       595      2164      2589      2590
 -1      1025    8    0    1
 -2       468       469       596      2237      2591      2592
 -1      1026    8    0    1
 -2       452       453       597      2232      2593      2594
 -1      1027    8    0    1
 -2       454       455       598      2231      2595      2596
 -1      1028    8    0    1
 -2       455       456       599      2230      2597      2598
 -1      1029    8    0    1
 -2       456       457       600      2229      2599      2600
 -1      1030    8    0    1
 -2       456       600       599      2600      2601      2597
 -1      1031    8    0    1
 -2       457       458       601      2228      2602      2603
 -1      1032    8    0    1
 -2       458       459       602      2227      2604      2605
 -1      1033    8    0    1
 -2       459       460       603      2226      2606      2607
 -1      1034    8    0    1
 -2       460       461       604      2225      2608      2609
 -1      1035    8    0    1
 -2       462       463       605      2187      2610      2611
 -1      1036    8    0    1
 -2       464       465       606      2192      2612      2613
 -1      1037    8    0    1
 -2       465       466       607      2220      2614      2615
 -1      1038    8    0    1
 -2       466       467       608      2197      2616      2617
 -1      1039    8    0    1
 -2       467       588       608      2573      2618      2616
 -1      1040    8    0    1
 -2       469       470       609      2204      2619      2620
 -1      1041    8    0    1
 -2       470       471       610      2218      2621      2622
 -1      1042    8    0    1
 -2       471       585       610      2565      2623      2621
 -1      1043    8    0    1
 -2       472       448       611      2211      2624      2625
 -1      1044    8    0    1
 -2       448       594       611      2587      2626      2624
 -1      1045    8    0    1
 -2       335       336       612      1821      2627      2628
 -1      1046    8    0    1
 -2       334       335       612      1816      2628      2629
 -1      1047    8    0    1
 -2       336       474       612      2239      2630      2627
 -1      1048    8    0    1
 -2       444       442       613      2213      2631      2632
 -1      1049    8    0    1
 -2       442       583       613      2559      2633      2631
 -1      1050    8    0    1
 -2       451       595       590      2590      2634      2576
 -1      1051    8    0    1
 -2       324       476       614      2243      2635      2636
 -1      1052    8    0    1
 -2       324       614       447      2636      2637      2153
 -1      1053    8    0    1
 -2       483       384       584      2262      2561      2638
 -1      1054    8    0    1
 -2       333       334       612      1813      2629      2639
 -1      1055    8    0    1
 -2       322       447       615      2152      2640      2641
 -1      1056    8    0    1
 -2       587       322       615      2571      2641      2642
 -1      1057    8    0    1
 -2       447       614       615      2637      2643      2640
 -1      1058    8    0    1
 -2       588       468       596      2572      2592      2644
 -1      1059    8    0    1
 -2       446       485       586      2268      2645      2566
 -1      1060    8    0    1
 -2       607       466       608      2614      2617      2646
 -1      1061    8    0    1
 -2       606       465       607      2612      2615      2647
 -1      1062    8    0    1
 -2       472       611       485      2625      2648      2267
 -1      1063    8    0    1
 -2       605       463       616      2610      2649      2650
 -1      1064    8    0    1
 -2       463       473       616      2222      2651      2649
 -1      1065    8    0    1
 -2       427       431       570      2523      2652      2520
 -1      1066    8    0    1
 -2       583       445       586      2558      2567      2653
 -1      1067    8    0    1
 -2       431       430       570      2108      2654      2652
 -1      1068    8    0    1
 -2       604       461       589      2608      2575      2655
 -1      1069    8    0    1
 -2       443       582       585      2557      2656      2564
 -1      1070    8    0    1
 -2       582       444       613      2556      2632      2657
 -1      1071    8    0    1
 -2       603       460       604      2606      2609      2658
 -1      1072    8    0    1
 -2       602       459       603      2604      2607      2659
 -1      1073    8    0    1
 -2       333       612       482      2639      2660      2259
 -1      1074    8    0    1
 -2       600       457       601      2599      2603      2661
 -1      1075    8    0    1
 -2       570       430       573      2654      2530      2662
 -1      1076    8    0    1
 -2       589       462       605      2574      2611      2663
 -1      1077    8    0    1
 -2       598       455       617      2595      2664      2665
 -1      1078    8    0    1
 -2       455       599       617      2598      2666      2664
 -1      1079    8    0    1
 -2       473       464       606      2223      2613      2667
 -1      1080    8    0    1
 -2       597       453       593      2593      2585      2668
 -1      1081    8    0    1
 -2       450       590       618      2577      2669      2670
 -1      1082    8    0    1
 -2       450       618       592      2670      2671      2582
 -1      1083    8    0    1
 -2       596       469       609      2591      2620      2672
 -1      1084    8    0    1
 -2       593       454       598      2584      2596      2673
 -1      1085    8    0    1
 -2       595       452       597      2589      2594      2674
 -1      1086    8    0    1
 -2       601       458       602      2602      2605      2675
 -1      1087    8    0    1
 -2       609       470       610      2619      2622      2676
 -1      1088    8    0    1
 -2       441       382       619      2563      2677      2678
 -1      1089    8    0    1
 -2       581       441       619      2553      2678      2679
 -1      1090    8    0    1
 -2       382       381       619      1960      2680      2677
 -1      1091    8    0    1
 -2       619       381       528      2680      2396      2681
 -1      1092    8    0    1
 -2       478       479       620      2252      2682      2683
 -1      1093    8    0    1
 -2       477       478       621      2249      2684      2685
 -1      1094    8    0    1
 -2       478       620       621      2683      2686      2684
 -1      1095    8    0    1
 -2       480       481       622      2258      2687      2688
 -1      1096    8    0    1
 -2       481       482       623      2261      2689      2690
 -1      1097    8    0    1
 -2       481       623       622      2690      2691      2687
 -1      1098    8    0    1
 -2       474       483       624      2264      2692      2693
 -1      1099    8    0    1
 -2       600       601       625      2661      2694      2695
 -1      1100    8    0    1
 -2       613       583       626      2633      2696      2697
 -1      1101    8    0    1
 -2       610       585       627      2623      2698      2699
 -1      1102    8    0    1
 -2       608       588       628      2618      2700      2701
 -1      1103    8    0    1
 -2       487       486       629      2274      2702      2703
 -1      1104    8    0    1
 -2       488       487       630      2277      2704      2705
 -1      1105    8    0    1
 -2       487       629       630      2703      2706      2704
 -1      1106    8    0    1
 -2       489       488       631      2280      2707      2708
 -1      1107    8    0    1
 -2       488       630       631      2705      2709      2707
 -1      1108    8    0    1
 -2       490       489       632      2283      2710      2711
 -1      1109    8    0    1
 -2       489       631       632      2708      2712      2710
 -1      1110    8    0    1
 -2       491       490       633      2286      2713      2714
 -1      1111    8    0    1
 -2       490       632       633      2711      2715      2713
 -1      1112    8    0    1
 -2       492       491       634      2289      2716      2717
 -1      1113    8    0    1
 -2       491       633       634      2714      2718      2716
 -1      1114    8    0    1
 -2       493       492       635      2292      2719      2720
 -1      1115    8    0    1
 -2       492       634       635      2717      2721      2719
 -1      1116    8    0    1
 -2       494       493       636      2295      2722      2723
 -1      1117    8    0    1
 -2       493       635       636      2720      2724      2722
 -1      1118    8    0    1
 -2       495       494       637      2298      2725      2726
 -1      1119    8    0    1
 -2       494       636       637      2723      2727      2725
 -1      1120    8    0    1
 -2       496       495       638      2301      2728      2729
 -1      1121    8    0    1
 -2       495       637       638      2726      2730      2728
 -1      1122    8    0    1
 -2       497       496       639      2304      2731      2732
 -1      1123    8    0    1
 -2       496       638       639      2729      2733      2731
 -1      1124    8    0    1
 -2       498       497       640      2307      2734      2735
 -1      1125    8    0    1
 -2       497       639       640      2732      2736      2734
 -1      1126    8    0    1
 -2       499       498       641      2310      2737      2738
 -1      1127    8    0    1
 -2       498       640       641      2735      2739      2737
 -1      1128    8    0    1
 -2       500       499       616      2313      2740      2741
 -1      1129    8    0    1
 -2       501       500       616      2316      2741      2742
 -1      1130    8    0    1
 -2       502       501       642      2319      2743      2744
 -1      1131    8    0    1
 -2       503       502       643      2322      2745      2746
 -1      1132    8    0    1
 -2       504       503       628      2325      2747      2748
 -1      1133    8    0    1
 -2       506       505       644      2331      2749      2750
 -1      1134    8    0    1
 -2       507       506       645      2334      2751      2752
 -1      1135    8    0    1
 -2       506       644       645      2750      2753      2751
 -1      1136    8    0    1
 -2       508       507       646      2337      2754      2755
 -1      1137    8    0    1
 -2       507       645       646      2752      2756      2754
 -1      1138    8    0    1
 -2       509       508       647      2340      2757      2758
 -1      1139    8    0    1
 -2       508       646       647      2755      2759      2757
 -1      1140    8    0    1
 -2       510       509       648      2343      2760      2761
 -1      1141    8    0    1
 -2       509       647       648      2758      2762      2760
 -1      1142    8    0    1
 -2       511       510       649      2346      2763      2764
 -1      1143    8    0    1
 -2       510       648       649      2761      2765      2763
 -1      1144    8    0    1
 -2       512       511       650      2349      2766      2767
 -1      1145    8    0    1
 -2       511       649       650      2764      2768      2766
 -1      1146    8    0    1
 -2       513       512       651      2352      2769      2770
 -1      1147    8    0    1
 -2       512       650       651      2767      2771      2769
 -1      1148    8    0    1
 -2       514       513       652      2355      2772      2773
 -1      1149    8    0    1
 -2       513       651       652      2770      2774      2772
 -1      1150    8    0    1
 -2       515       514       653      2358      2775      2776
 -1      1151    8    0    1
 -2       514       652       653      2773      2777      2775
 -1      1152    8    0    1
 -2       516       515       654      2361      2778      2779
 -1      1153    8    0    1
 -2       515       653       654      2776      2780      2778
 -1      1154    8    0    1
 -2       517       516       655      2364      2781      2782
 -1      1155    8    0    1
 -2       516       654       655      2779      2783      2781
 -1      1156    8    0    1
 -2       518       517       656      2367      2784      2785
 -1      1157    8    0    1
 -2       517       655       656      2782      2786      2784
 -1      1158    8    0    1
 -2       519       518       657      2370      2787      2788
 -1      1159    8    0    1
 -2       518       656       657      2785      2789      2787
 -1      1160    8    0    1
 -2       520       519       658      2373      2790      2791
 -1      1161    8    0    1
 -2       519       657       658      2788      2792      2790
 -1      1162    8    0    1
 -2       521       520       659      2376      2793      2794
 -1      1163    8    0    1
 -2       520       658       659      2791      2795      2793
 -1      1164    8    0    1
 -2       522       521       660      2379      2796      2797
 -1      1165    8    0    1
 -2       521       659       660      2794      2798      2796
 -1      1166    8    0    1
 -2       523       522       661      2382      2799      2800
 -1      1167    8    0    1
 -2       522       660       661      2797      2801      2799
 -1      1168    8    0    1
 -2       524       523       662      2385      2802      2803
 -1      1169    8    0    1
 -2       523       661       662      2800      2804      2802
 -1      1170    8    0    1
 -2       525       524       663      2388      2805      2806
 -1      1171    8    0    1
 -2       524       662       663      2803      2807      2805
 -1      1172    8    0    1
 -2       526       525       664      2391      2808      2809
 -1      1173    8    0    1
 -2       525       663       664      2806      2810      2808
 -1      1174    8    0    1
 -2       527       526       665      2394      2811      2812
 -1      1175    8    0    1
 -2       526       664       665      2809      2813      2811
 -1      1176    8    0    1
 -2       528       527       666      2397      2814      2815
 -1      1177    8    0    1
 -2       527       665       666      2812      2816      2814
 -1      1178    8    0    1
 -2       530       531       667      2405      2817      2818
 -1      1179    8    0    1
 -2       619       528       668      2681      2819      2820
 -1      1180    8    0    1
 -2       528       666       668      2815      2821      2819
 -1      1181    8    0    1
 -2       529       530       669      2402      2822      2823
 -1      1182    8    0    1
 -2       530       667       669      2818      2824      2822
 -1      1183    8    0    1
 -2       532       533       670      2411      2825      2826
 -1      1184    8    0    1
 -2       533       534       671      2414      2827      2828
 -1      1185    8    0    1
 -2       533       671       670      2828      2829      2825
 -1      1186    8    0    1
 -2       534       535       672      2417      2830      2831
 -1      1187    8    0    1
 -2       534       672       671      2831      2832      2827
 -1      1188    8    0    1
 -2       535       536       673      2420      2833      2834
 -1      1189    8    0    1
 -2       535       673       672      2834      2835      2830
 -1      1190    8    0    1
 -2       536       537       674      2423      2836      2837
 -1      1191    8    0    1
 -2       536       674       673      2837      2838      2833
 -1      1192    8    0    1
 -2       537       538       675      2426      2839      2840
 -1      1193    8    0    1
 -2       537       675       674      2840      2841      2836
 -1      1194    8    0    1
 -2       538       539       676      2429      2842      2843
 -1      1195    8    0    1
 -2       538       676       675      2843      2844      2839
 -1      1196    8    0    1
 -2       539       540       677      2432      2845      2846
 -1      1197    8    0    1
 -2       539       677       676      2846      2847      2842
 -1      1198    8    0    1
 -2       540       541       678      2435      2848      2849
 -1      1199    8    0    1
 -2       540       678       677      2849      2850      2845
 -1      1200    8    0    1
 -2       541       542       679      2438      2851      2852
 -1      1201    8    0    1
 -2       541       679       678      2852      2853      2848
 -1      1202    8    0    1
 -2       542       543       680      2441      2854      2855
 -1      1203    8    0    1
 -2       542       680       679      2855      2856      2851
 -1      1204    8    0    1
 -2       543       544       681      2444      2857      2858
 -1      1205    8    0    1
 -2       543       681       680      2858      2859      2854
 -1      1206    8    0    1
 -2       544       545       682      2447      2860      2861
 -1      1207    8    0    1
 -2       544       682       681      2861      2862      2857
 -1      1208    8    0    1
 -2       545       546       683      2450      2863      2864
 -1      1209    8    0    1
 -2       545       683       682      2864      2865      2860
 -1      1210    8    0    1
 -2       546       547       684      2453      2866      2867
 -1      1211    8    0    1
 -2       546       684       683      2867      2868      2863
 -1      1212    8    0    1
 -2       547       548       685      2456      2869      2870
 -1      1213    8    0    1
 -2       547       685       684      2870      2871      2866
 -1      1214    8    0    1
 -2       548       549       686      2459      2872      2873
 -1      1215    8    0    1
 -2       548       686       685      2873      2874      2869
 -1      1216    8    0    1
 -2       549       550       687      2462      2875      2876
 -1      1217    8    0    1
 -2       549       687       686      2876      2877      2872
 -1      1218    8    0    1
 -2       550       551       688      2465      2878      2879
 -1      1219    8    0    1
 -2       550       688       687      2879      2880      2875
 -1      1220    8    0    1
 -2       551       552       689      2468      2881      2882
 -1      1221    8    0    1
 -2       551       689       688      2882      2883      2878
 -1      1222    8    0    1
 -2       552       553       690      2471      2884      2885
 -1      1223    8    0    1
 -2       552       690       689      2885      2886      2881
 -1      1224    8    0    1
 -2       553       554       691      2474      2887      2888
 -1      1225    8    0    1
 -2       553       691       690      2888      2889      2884
 -1      1226    8    0    1
 -2       554       555       692      2477      2890      2891
 -1      1227    8    0    1
 -2       554       692       691      2891      2892      2887
 -1      1228    8    0    1
 -2       555       556       693      2480      2893      2894
 -1      1229    8    0    1
 -2       555       693       692      2894      2895      2890
 -1      1230    8    0    1
 -2       556       557       694      2483      2896      2897
 -1      1231    8    0    1
 -2       556       694       693      2897      2898      2893
 -1      1232    8    0    1
 -2       557       558       695      2486      2899      2900
 -1      1233    8    0    1
 -2       557       695       694      2900      2901      2896
 -1      1234    8    0    1
 -2       558       559       696      2489      2902      2903
 -1      1235    8    0    1
 -2       558       696       695      2903      2904      2899
 -1      1236    8    0    1
 -2       559       560       697      2492      2905      2906
 -1      1237    8    0    1
 -2       559       697       696      2906      2907      2902
 -1      1238    8    0    1
 -2       560       561       698      2495      2908      2909
 -1      1239    8    0    1
 -2       560       698       697      2909      2910      2905
 -1      1240    8    0    1
 -2       561       562       699      2498      2911      2912
 -1      1241    8    0    1
 -2       561       699       698      2912      2913      2908
 -1      1242    8    0    1
 -2       562       563       700      2501      2914      2915
 -1      1243    8    0    1
 -2       562       700       699      2915      2916      2911
 -1      1244    8    0    1
 -2       563       564       701      2504      2917      2918
 -1      1245    8    0    1
 -2       563       701       700      2918      2919      2914
 -1      1246    8    0    1
 -2       564       565       702      2507      2920      2921
 -1      1247    8    0    1
 -2       564       702       701      2921      2922      2917
 -1      1248    8    0    1
 -2       565       566       703      2510      2923      2924
 -1      1249    8    0    1
 -2       565       703       702      2924      2925      2920
 -1      1250    8    0    1
 -2       566       567       704      2513      2926      2927
 -1      1251    8    0    1
 -2       566       704       703      2927      2928      2923
 -1      1252    8    0    1
 -2       567       568       705      2516      2929      2930
 -1      1253    8    0    1
 -2       567       705       704      2930      2931      2926
 -1      1254    8    0    1
 -2       568       569       706      2519      2932      2933
 -1      1255    8    0    1
 -2       568       706       705      2933      2934      2929
 -1      1256    8    0    1
 -2       569       570       707      2522      2935      2936
 -1      1257    8    0    1
 -2       706       569       707      2932      2936      2937
 -1      1258    8    0    1
 -2       570       573       707      2662      2938      2935
 -1      1259    8    0    1
 -2       583       586       708      2653      2939      2940
 -1      1260    8    0    1
 -2       575       576       709      2540      2941      2942
 -1      1261    8    0    1
 -2       589       605       710      2663      2943      2944
 -1      1262    8    0    1
 -2       571       572       711      2528      2945      2946
 -1      1263    8    0    1
 -2       576       577       712      2543      2947      2948
 -1      1264    8    0    1
 -2       576       712       709      2948      2949      2941
 -1      1265    8    0    1
 -2       572       575       713      2537      2950      2951
 -1      1266    8    0    1
 -2       711       572       713      2945      2951      2952
 -1      1267    8    0    1
 -2       575       709       713      2942      2953      2950
 -1      1268    8    0    1
 -2       577       578       714      2546      2954      2955
 -1      1269    8    0    1
 -2       577       714       712      2955      2956      2947
 -1      1270    8    0    1
 -2       578       579       715      2549      2957      2958
 -1      1271    8    0    1
 -2       578       715       714      2958      2959      2954
 -1      1272    8    0    1
 -2       579       580       716      2552      2960      2961
 -1      1273    8    0    1
 -2       579       716       715      2961      2962      2957
 -1      1274    8    0    1
 -2       590       595       717      2634      2963      2964
 -1      1275    8    0    1
 -2       607       608       643      2646      2965      2966
 -1      1276    8    0    1
 -2       582       613       718      2657      2967      2968
 -1      1277    8    0    1
 -2       484       587       719      2570      2969      2970
 -1      1278    8    0    1
 -2       587       615       719      2642      2971      2969
 -1      1279    8    0    1
 -2       585       582       720      2656      2972      2973
 -1      1280    8    0    1
 -2       594       592       721      2588      2974      2975
 -1      1281    8    0    1
 -2       588       596       722      2644      2976      2977
 -1      1282    8    0    1
 -2       584       529       723      2562      2978      2979
 -1      1283    8    0    1
 -2       529       669       723      2823      2980      2978
 -1      1284    8    0    1
 -2       531       532       724      2408      2981      2982
 -1      1285    8    0    1
 -2       667       531       724      2817      2982      2983
 -1      1286    8    0    1
 -2       532       670       724      2826      2984      2981
 -1      1287    8    0    1
 -2       486       484       725      2271      2985      2986
 -1      1288    8    0    1
 -2       629       486       725      2702      2986      2987
 -1      1289    8    0    1
 -2       484       719       725      2970      2988      2985
 -1      1290    8    0    1
 -2       593       598       726      2673      2989      2990
 -1      1291    8    0    1
 -2       483       584       727      2638      2991      2992
 -1      1292    8    0    1
 -2       624       483       727      2692      2992      2993
 -1      1293    8    0    1
 -2       584       723       727      2979      2994      2991
 -1      1294    8    0    1
 -2       479       480       728      2255      2995      2996
 -1      1295    8    0    1
 -2       620       479       728      2682      2996      2997
 -1      1296    8    0    1
 -2       480       622       728      2688      2998      2995
 -1      1297    8    0    1
 -2       476       475       729      2244      2999      3000
 -1      1298    8    0    1
 -2       586       485       730      2645      3001      3002
 -1      1299    8    0    1
 -2       596       609       731      2672      3003      3004
 -1      1300    8    0    1
 -2       601       602       732      2675      3005      3006
 -1      1301    8    0    1
 -2       595       597       733      2674      3007      3008
 -1      1302    8    0    1
 -2       599       600       734      2601      3009      3010
 -1      1303    8    0    1
 -2       609       610       735      2676      3011      3012
 -1      1304    8    0    1
 -2       482       612       474      2660      2630      3013
 -1      1305    8    0    1
 -2       602       603       736      2659      3014      3015
 -1      1306    8    0    1
 -2       597       593       737      2668      3016      3017
 -1      1307    8    0    1
 -2       597       737       733      3017      3018      3007
 -1      1308    8    0    1
 -2       604       589       738      2655      3019      3020
 -1      1309    8    0    1
 -2       485       611       739      2648      3021      3022
 -1      1310    8    0    1
 -2       606       607       642      2647      3023      3024
 -1      1311    8    0    1
 -2       603       604       740      2658      3025      3026
 -1      1312    8    0    1
 -2       581       619       668      2679      2820      3027
 -1      1313    8    0    1
 -2       611       594       741      2626      3028      3029
 -1      1314    8    0    1
 -2       614       476       742      2635      3030      3031
 -1      1315    8    0    1
 -2       476       729       742      3000      3032      3030
 -1      1316    8    0    1
 -2       740       604       738      3025      3020      3033
 -1      1317    8    0    1
 -2       477       621       743      2685      3034      3035
 -1      1318    8    0    1
 -2       477       743       591      3035      3036      2581
 -1      1319    8    0    1
 -2       600       625       734      2695      3037      3009
 -1      1320    8    0    1
 -2       613       626       718      2697      3038      2967
 -1      1321    8    0    1
 -2       610       627       735      2699      3039      3011
 -1      1322    8    0    1
 -2       739       611       741      3021      3029      3040
 -1      1323    8    0    1
 -2       608       628       643      2701      3041      2965
 -1      1324    8    0    1
 -2       502       642       643      2744      3042      2745
 -1      1325    8    0    1
 -2       504       628       744      2748      3043      3044
 -1      1326    8    0    1
 -2       505       504       744      2328      3044      3045
 -1      1327    8    0    1
 -2       722       596       731      2976      3004      3046
 -1      1328    8    0    1
 -2       708       586       730      2939      3002      3047
 -1      1329    8    0    1
 -2       707       573       745      2938      3048      3049
 -1      1330    8    0    1
 -2       573       574       745      2533      3050      3048
 -1      1331    8    0    1
 -2       721       592       618      2974      2671      3051
 -1      1332    8    0    1
 -2       589       710       738      2944      3052      3019
 -1      1333    8    0    1
 -2       590       717       746      2964      3053      3054
 -1      1334    8    0    1
 -2       590       746       618      3054      3055      2669
 -1      1335    8    0    1
 -2       717       595       733      2963      3008      3056
 -1      1336    8    0    1
 -2       580       581       668      2555      3027      3057
 -1      1337    8    0    1
 -2       607       643       642      2966      3042      3023
 -1      1338    8    0    1
 -2       582       718       720      2968      3058      2972
 -1      1339    8    0    1
 -2       644       505       744      2749      3045      3059
 -1      1340    8    0    1
 -2       593       726       737      2990      3060      3016
 -1      1341    8    0    1
 -2       628       503       643      2747      2746      3041
 -1      1342    8    0    1
 -2       617       599       747      2666      3061      3062
 -1      1343    8    0    1
 -2       599       734       747      3010      3063      3061
 -1      1344    8    0    1
 -2       583       708       626      2940      3064      2696
 -1      1345    8    0    1
 -2       594       721       741      2975      3065      3028
 -1      1346    8    0    1
 -2       726       598       748      2989      3066      3067
 -1      1347    8    0    1
 -2       598       617       748      2665      3068      3066
 -1      1348    8    0    1
 -2       628       588       722      2700      2977      3069
 -1      1349    8    0    1
 -2       574       571       749      2534      3070      3071
 -1      1350    8    0    1
 -2       745       574       749      3050      3071      3072
 -1      1351    8    0    1
 -2       571       711       749      2946      3073      3070
 -1      1352    8    0    1
 -2       732       602       736      3005      3015      3074
 -1      1353    8    0    1
 -2       475       591       750      2580      3075      3076
 -1      1354    8    0    1
 -2       729       475       750      2999      3076      3077
 -1      1355    8    0    1
 -2       591       743       750      3036      3078      3075
 -1      1356    8    0    1
 -2       605       616       710      2650      3079      2943
 -1      1357    8    0    1
 -2       731       609       735      3003      3012      3080
 -1      1358    8    0    1
 -2       730       485       751      3001      3081      3082
 -1      1359    8    0    1
 -2       485       739       751      3022      3083      3081
 -1      1360    8    0    1
 -2       601       732       625      3006      3084      2694
 -1      1361    8    0    1
 -2       580       668       752      3057      3085      3086
 -1      1362    8    0    1
 -2       716       580       752      2960      3086      3087
 -1      1363    8    0    1
 -2       668       666       752      2821      3088      3085
 -1      1364    8    0    1
 -2       473       606       753      2667      3089      3090
 -1      1365    8    0    1
 -2       482       474       624      3013      2693      3091
 -1      1366    8    0    1
 -2       736       603       740      3014      3026      3092
 -1      1367    8    0    1
 -2       606       642       753      3024      3093      3089
 -1      1368    8    0    1
 -2       623       482       624      2689      3091      3094
 -1      1369    8    0    1
 -2       736       740       754      3092      3095      3096
 -1      1370    8    0    1
 -2       622       623       755      2691      3097      3098
 -1      1371    8    0    1
 -2       720       718       756      3058      3099      3100
 -1      1372    8    0    1
 -2       615       614       757      2643      3101      3102
 -1      1373    8    0    1
 -2       719       615       757      2971      3102      3103
 -1      1374    8    0    1
 -2       614       742       757      3031      3104      3101
 -1      1375    8    0    1
 -2       499       641       616      2738      3105      2740
 -1      1376    8    0    1
 -2       739       741       758      3040      3106      3107
 -1      1377    8    0    1
 -2       718       626       759      3038      3108      3109
 -1      1378    8    0    1
 -2       740       738       760      3033      3110      3111
 -1      1379    8    0    1
 -2       723       669       761      2980      3112      3113
 -1      1380    8    0    1
 -2       616       473       753      2651      3090      3114
 -1      1381    8    0    1
 -2       744       628       722      3043      3069      3115
 -1      1382    8    0    1
 -2       631       630       762      2709      3116      3117
 -1      1383    8    0    1
 -2       632       631       763      2712      3118      3119
 -1      1384    8    0    1
 -2       631       762       763      3117      3120      3118
 -1      1385    8    0    1
 -2       633       632       764      2715      3121      3122
 -1      1386    8    0    1
 -2       632       763       764      3119      3123      3121
 -1      1387    8    0    1
 -2       634       633       765      2718      3124      3125
 -1      1388    8    0    1
 -2       633       764       765      3122      3126      3124
 -1      1389    8    0    1
 -2       635       634       766      2721      3127      3128
 -1      1390    8    0    1
 -2       634       765       766      3125      3129      3127
 -1      1391    8    0    1
 -2       636       635       767      2724      3130      3131
 -1      1392    8    0    1
 -2       635       766       767      3128      3132      3130
 -1      1393    8    0    1
 -2       637       636       768      2727      3133      3134
 -1      1394    8    0    1
 -2       636       767       768      3131      3135      3133
 -1      1395    8    0    1
 -2       638       637       769      2730      3136      3137
 -1      1396    8    0    1
 -2       637       768       769      3134      3138      3136
 -1      1397    8    0    1
 -2       639       638       770      2733      3139      3140
 -1      1398    8    0    1
 -2       638       769       770      3137      3141      3139
 -1      1399    8    0    1
 -2       640       639       754      2736      3142      3143
 -1      1400    8    0    1
 -2       642       501       753      2743      3144      3093
 -1      1401    8    0    1
 -2       737       726       771      3060      3145      3146
 -1      1402    8    0    1
 -2       646       645       772      2756      3147      3148
 -1      1403    8    0    1
 -2       647       646       773      2759      3149      3150
 -1      1404    8    0    1
 -2       646       772       773      3148      3151      3149
 -1      1405    8    0    1
 -2       648       647       774      2762      3152      3153
 -1      1406    8    0    1
 -2       647       773       774      3150      3154      3152
 -1      1407    8    0    1
 -2       649       648       775      2765      3155      3156
 -1      1408    8    0    1
 -2       648       774       775      3153      3157      3155
 -1      1409    8    0    1
 -2       650       649       776      2768      3158      3159
 -1      1410    8    0    1
 -2       649       775       776      3156      3160      3158
 -1      1411    8    0    1
 -2       651       650       777      2771      3161      3162
 -1      1412    8    0    1
 -2       650       776       777      3159      3163      3161
 -1      1413    8    0    1
 -2       652       651       778      2774      3164      3165
 -1      1414    8    0    1
 -2       651       777       778      3162      3166      3164
 -1      1415    8    0    1
 -2       653       652       779      2777      3167      3168
 -1      1416    8    0    1
 -2       652       778       779      3165      3169      3167
 -1      1417    8    0    1
 -2       654       653       780      2780      3170      3171
 -1      1418    8    0    1
 -2       653       779       780      3168      3172      3170
 -1      1419    8    0    1
 -2       655       654       781      2783      3173      3174
 -1      1420    8    0    1
 -2       654       780       781      3171      3175      3173
 -1      1421    8    0    1
 -2       656       655       782      2786      3176      3177
 -1      1422    8    0    1
 -2       655       781       782      3174      3178      3176
 -1      1423    8    0    1
 -2       657       656       783      2789      3179      3180
 -1      1424    8    0    1
 -2       656       782       783      3177      3181      3179
 -1      1425    8    0    1
 -2       658       657       784      2792      3182      3183
 -1      1426    8    0    1
 -2       657       783       784      3180      3184      3182
 -1      1427    8    0    1
 -2       659       658       785      2795      3185      3186
 -1      1428    8    0    1
 -2       658       784       785      3183      3187      3185
 -1      1429    8    0    1
 -2       660       659       786      2798      3188      3189
 -1      1430    8    0    1
 -2       659       785       786      3186      3190      3188
 -1      1431    8    0    1
 -2       661       660       787      2801      3191      3192
 -1      1432    8    0    1
 -2       660       786       787      3189      3193      3191
 -1      1433    8    0    1
 -2       662       661       788      2804      3194      3195
 -1      1434    8    0    1
 -2       661       787       788      3192      3196      3194
 -1      1435    8    0    1
 -2       663       662       789      2807      3197      3198
 -1      1436    8    0    1
 -2       662       788       789      3195      3199      3197
 -1      1437    8    0    1
 -2       664       663       790      2810      3200      3201
 -1      1438    8    0    1
 -2       663       789       790      3198      3202      3200
 -1      1439    8    0    1
 -2       665       664       791      2813      3203      3204
 -1      1440    8    0    1
 -2       664       790       791      3201      3205      3203
 -1      1441    8    0    1
 -2       666       665       792      2816      3206      3207
 -1      1442    8    0    1
 -2       752       666       792      3088      3207      3208
 -1      1443    8    0    1
 -2       665       791       792      3204      3209      3206
 -1      1444    8    0    1
 -2       669       667       793      2824      3210      3211
 -1      1445    8    0    1
 -2       669       793       761      3211      3212      3112
 -1      1446    8    0    1
 -2       671       672       794      2832      3213      3214
 -1      1447    8    0    1
 -2       670       671       795      2829      3215      3216
 -1      1448    8    0    1
 -2       671       794       795      3214      3217      3215
 -1      1449    8    0    1
 -2       673       674       796      2838      3218      3219
 -1      1450    8    0    1
 -2       674       675       797      2841      3220      3221
 -1      1451    8    0    1
 -2       674       797       796      3221      3222      3218
 -1      1452    8    0    1
 -2       675       676       798      2844      3223      3224
 -1      1453    8    0    1
 -2       675       798       797      3224      3225      3220
 -1      1454    8    0    1
 -2       676       677       799      2847      3226      3227
 -1      1455    8    0    1
 -2       676       799       798      3227      3228      3223
 -1      1456    8    0    1
 -2       677       678       800      2850      3229      3230
 -1      1457    8    0    1
 -2       677       800       799      3230      3231      3226
 -1      1458    8    0    1
 -2       679       680       801      2856      3232      3233
 -1      1459    8    0    1
 -2       680       681       721      2859      3234      3235
 -1      1460    8    0    1
 -2       681       682       758      2862      3236      3237
 -1      1461    8    0    1
 -2       683       684       802      2868      3238      3239
 -1      1462    8    0    1
 -2       684       685       803      2871      3240      3241
 -1      1463    8    0    1
 -2       684       803       802      3241      3242      3238
 -1      1464    8    0    1
 -2       685       686       804      2874      3243      3244
 -1      1465    8    0    1
 -2       685       804       803      3244      3245      3240
 -1      1466    8    0    1
 -2       686       687       805      2877      3246      3247
 -1      1467    8    0    1
 -2       686       805       804      3247      3248      3243
 -1      1468    8    0    1
 -2       687       688       806      2880      3249      3250
 -1      1469    8    0    1
 -2       687       806       805      3250      3251      3246
 -1      1470    8    0    1
 -2       688       689       807      2883      3252      3253
 -1      1471    8    0    1
 -2       688       807       806      3253      3254      3249
 -1      1472    8    0    1
 -2       689       690       808      2886      3255      3256
 -1      1473    8    0    1
 -2       689       808       807      3256      3257      3252
 -1      1474    8    0    1
 -2       690       691       809      2889      3258      3259
 -1      1475    8    0    1
 -2       690       809       808      3259      3260      3255
 -1      1476    8    0    1
 -2       691       692       810      2892      3261      3262
 -1      1477    8    0    1
 -2       691       810       809      3262      3263      3258
 -1      1478    8    0    1
 -2       692       693       811      2895      3264      3265
 -1      1479    8    0    1
 -2       692       811       810      3265      3266      3261
 -1      1480    8    0    1
 -2       693       694       812      2898      3267      3268
 -1      1481    8    0    1
 -2       693       812       811      3268      3269      3264
 -1      1482    8    0    1
 -2       694       695       813      2901      3270      3271
 -1      1483    8    0    1
 -2       694       813       812      3271      3272      3267
 -1      1484    8    0    1
 -2       695       696       814      2904      3273      3274
 -1      1485    8    0    1
 -2       695       814       813      3274      3275      3270
 -1      1486    8    0    1
 -2       696       697       815      2907      3276      3277
 -1      1487    8    0    1
 -2       696       815       814      3277      3278      3273
 -1      1488    8    0    1
 -2       697       698       816      2910      3279      3280
 -1      1489    8    0    1
 -2       697       816       815      3280      3281      3276
 -1      1490    8    0    1
 -2       698       699       817      2913      3282      3283
 -1      1491    8    0    1
 -2       698       817       816      3283      3284      3279
 -1      1492    8    0    1
 -2       699       700       818      2916      3285      3286
 -1      1493    8    0    1
 -2       699       818       817      3286      3287      3282
 -1      1494    8    0    1
 -2       700       701       819      2919      3288      3289
 -1      1495    8    0    1
 -2       700       819       818      3289      3290      3285
 -1      1496    8    0    1
 -2       701       702       820      2922      3291      3292
 -1      1497    8    0    1
 -2       701       820       819      3292      3293      3288
 -1      1498    8    0    1
 -2       702       703       821      2925      3294      3295
 -1      1499    8    0    1
 -2       702       821       820      3295      3296      3291
 -1      1500    8    0    1
 -2       703       704       822      2928      3297      3298
 -1      1501    8    0    1
 -2       703       822       821      3298      3299      3294
 -1      1502    8    0    1
 -2       704       705       823      2931      3300      3301
 -1      1503    8    0    1
 -2       704       823       822      3301      3302      3297
 -1      1504    8    0    1
 -2       705       706       824      2934      3303      3304
 -1      1505    8    0    1
 -2       705       824       823      3304      3305      3300
 -1      1506    8    0    1
 -2       706       707       825      2937      3306      3307
 -1      1507    8    0    1
 -2       824       706       825      3303      3307      3308
 -1      1508    8    0    1
 -2       707       745       825      3049      3309      3306
 -1      1509    8    0    1
 -2       712       714       826      2956      3310      3311
 -1      1510    8    0    1
 -2       732       736       827      3074      3312      3313
 -1      1511    8    0    1
 -2       709       712       828      2949      3314      3315
 -1      1512    8    0    1
 -2       712       826       828      3311      3316      3314
 -1      1513    8    0    1
 -2       735       627       829      3039      3317      3318
 -1      1514    8    0    1
 -2       714       715       830      2959      3319      3320
 -1      1515    8    0    1
 -2       714       830       826      3320      3321      3310
 -1      1516    8    0    1
 -2       623       624       831      3094      3322      3323
 -1      1517    8    0    1
 -2       755       623       831      3097      3323      3324
 -1      1518    8    0    1
 -2       624       727       831      2993      3325      3322
 -1      1519    8    0    1
 -2       715       716       832      2962      3326      3327
 -1      1520    8    0    1
 -2       715       832       830      3327      3328      3319
 -1      1521    8    0    1
 -2       621       620       833      2686      3329      3330
 -1      1522    8    0    1
 -2       731       735       834      3080      3331      3332
 -1      1523    8    0    1
 -2       672       673       835      2835      3333      3334
 -1      1524    8    0    1
 -2       794       672       835      3213      3334      3335
 -1      1525    8    0    1
 -2       673       796       835      3219      3336      3333
 -1      1526    8    0    1
 -2       744       722       836      3115      3337      3338
 -1      1527    8    0    1
 -2       722       731       836      3046      3339      3337
 -1      1528    8    0    1
 -2       645       644       837      2753      3340      3341
 -1      1529    8    0    1
 -2       645       837       772      3341      3342      3147
 -1      1530    8    0    1
 -2       644       744       836      3059      3338      3343
 -1      1531    8    0    1
 -2       630       629       838      2706      3344      3345
 -1      1532    8    0    1
 -2       630       838       762      3345      3346      3116
 -1      1533    8    0    1
 -2       717       733       839      3056      3347      3348
 -1      1534    8    0    1
 -2       734       625       840      3037      3349      3350
 -1      1535    8    0    1
 -2       708       730       841      3047      3351      3352
 -1      1536    8    0    1
 -2       626       708       842      3064      3353      3354
 -1      1537    8    0    1
 -2       759       626       842      3108      3354      3355
 -1      1538    8    0    1
 -2       708       841       842      3352      3356      3353
 -1      1539    8    0    1
 -2       733       737       843      3018      3357      3358
 -1      1540    8    0    1
 -2       625       732       844      3084      3359      3360
 -1      1541    8    0    1
 -2       743       621       845      3034      3361      3362
 -1      1542    8    0    1
 -2       621       833       845      3330      3363      3361
 -1      1543    8    0    1
 -2       622       755       846      3098      3364      3365
 -1      1544    8    0    1
 -2       622       846       728      3365      3366      2998
 -1      1545    8    0    1
 -2       720       756       847      3100      3367      3368
 -1      1546    8    0    1
 -2       720       847       848      3368      3369      3370
 -1      1547    8    0    1
 -2       719       757       849      3103      3371      3372
 -1      1548    8    0    1
 -2       719       849       725      3372      3373      2988
 -1      1549    8    0    1
 -2       760       738       641      3110      3374      3375
 -1      1550    8    0    1
 -2       718       759       850      3109      3376      3377
 -1      1551    8    0    1
 -2       718       850       756      3377      3378      3099
 -1      1552    8    0    1
 -2       754       639       770      3142      3140      3379
 -1      1553    8    0    1
 -2       641       640       760      2739      3380      3375
 -1      1554    8    0    1
 -2       739       758       851      3107      3381      3382
 -1      1555    8    0    1
 -2       739       851       751      3382      3383      3083
 -1      1556    8    0    1
 -2       771       726       852      3145      3384      3385
 -1      1557    8    0    1
 -2       726       748       852      3067      3386      3384
 -1      1558    8    0    1
 -2       747       734       853      3063      3387      3388
 -1      1559    8    0    1
 -2       734       840       853      3350      3389      3387
 -1      1560    8    0    1
 -2       667       724       854      2983      3390      3391
 -1      1561    8    0    1
 -2       667       854       793      3391      3392      3210
 -1      1562    8    0    1
 -2       629       725       849      2987      3373      3393
 -1      1563    8    0    1
 -2       617       747       855      3062      3394      3395
 -1      1564    8    0    1
 -2       617       855       748      3395      3396      3068
 -1      1565    8    0    1
 -2       836       731       834      3339      3332      3397
 -1      1566    8    0    1
 -2       670       795       856      3216      3398      3399
 -1      1567    8    0    1
 -2       670       856       724      3399      3400      2984
 -1      1568    8    0    1
 -2       678       679       857      2853      3401      3402
 -1      1569    8    0    1
 -2       800       678       857      3229      3402      3403
 -1      1570    8    0    1
 -2       679       801       857      3233      3404      3401
 -1      1571    8    0    1
 -2       680       721       801      3235      3405      3232
 -1      1572    8    0    1
 -2       683       802       851      3239      3406      3407
 -1      1573    8    0    1
 -2       682       683       851      2865      3407      3408
 -1      1574    8    0    1
 -2       827       736       754      3312      3096      3409
 -1      1575    8    0    1
 -2       758       682       851      3236      3408      3381
 -1      1576    8    0    1
 -2       711       713       858      2952      3410      3411
 -1      1577    8    0    1
 -2       732       827       844      3313      3412      3359
 -1      1578    8    0    1
 -2       829       627       859      3317      3413      3414
 -1      1579    8    0    1
 -2       713       709       860      2953      3415      3416
 -1      1580    8    0    1
 -2       858       713       860      3410      3416      3417
 -1      1581    8    0    1
 -2       709       828       860      3315      3418      3415
 -1      1582    8    0    1
 -2       721       618       801      3051      3419      3405
 -1      1583    8    0    1
 -2       843       737       771      3357      3146      3420
 -1      1584    8    0    1
 -2       834       735       829      3331      3318      3421
 -1      1585    8    0    1
 -2       833       620       861      3329      3422      3423
 -1      1586    8    0    1
 -2       620       728       861      2997      3424      3422
 -1      1587    8    0    1
 -2       841       730       862      3351      3425      3426
 -1      1588    8    0    1
 -2       730       751       862      3082      3427      3425
 -1      1589    8    0    1
 -2       837       644       836      3340      3343      3428
 -1      1590    8    0    1
 -2       840       625       863      3349      3429      3430
 -1      1591    8    0    1
 -2       625       844       863      3360      3431      3429
 -1      1592    8    0    1
 -2       838       629       849      3344      3393      3432
 -1      1593    8    0    1
 -2       839       733       843      3347      3358      3433
 -1      1594    8    0    1
 -2       749       711       864      3073      3434      3435
 -1      1595    8    0    1
 -2       711       858       864      3411      3436      3434
 -1      1596    8    0    1
 -2       727       723       865      2994      3437      3438
 -1      1597    8    0    1
 -2       831       727       865      3325      3438      3439
 -1      1598    8    0    1
 -2       723       761       865      3113      3440      3437
 -1      1599    8    0    1
 -2       627       585       866      2698      3441      3442
 -1      1600    8    0    1
 -2       585       720       866      2973      3443      3441
 -1      1601    8    0    1
 -2       716       752       867      3087      3444      3445
 -1      1602    8    0    1
 -2       832       716       867      3326      3445      3446
 -1      1603    8    0    1
 -2       752       792       867      3208      3447      3444
 -1      1604    8    0    1
 -2       729       750       868      3077      3448      3449
 -1      1605    8    0    1
 -2       742       729       869      3032      3450      3451
 -1      1606    8    0    1
 -2       729       868       869      3449      3452      3450
 -1      1607    8    0    1
 -2       627       866       859      3442      3453      3413
 -1      1608    8    0    1
 -2       847       756       870      3367      3454      3455
 -1      1609    8    0    1
 -2       641       738       710      3374      3052      3456
 -1      1610    8    0    1
 -2       758       741       871      3106      3457      3458
 -1      1611    8    0    1
 -2       740       760       754      3111      3459      3095
 -1      1612    8    0    1
 -2       763       762       872      3120      3460      3461
 -1      1613    8    0    1
 -2       717       839       873      3348      3462      3463
 -1      1614    8    0    1
 -2       764       763       874      3123      3464      3465
 -1      1615    8    0    1
 -2       763       872       874      3461      3466      3464
 -1      1616    8    0    1
 -2       765       764       875      3126      3467      3468
 -1      1617    8    0    1
 -2       764       874       875      3465      3469      3467
 -1      1618    8    0    1
 -2       766       765       876      3129      3470      3471
 -1      1619    8    0    1
 -2       765       875       876      3468      3472      3470
 -1      1620    8    0    1
 -2       767       766       877      3132      3473      3474
 -1      1621    8    0    1
 -2       766       876       877      3471      3475      3473
 -1      1622    8    0    1
 -2       768       767       878      3135      3476      3477
 -1      1623    8    0    1
 -2       767       877       878      3474      3478      3476
 -1      1624    8    0    1
 -2       769       768       879      3138      3479      3480
 -1      1625    8    0    1
 -2       768       878       879      3477      3481      3479
 -1      1626    8    0    1
 -2       770       769       880      3141      3482      3483
 -1      1627    8    0    1
 -2       769       879       880      3480      3484      3482
 -1      1628    8    0    1
 -2       753       501       616      3144      2742      3114
 -1      1629    8    0    1
 -2       761       793       881      3212      3485      3486
 -1      1630    8    0    1
 -2       774       773       882      3154      3487      3488
 -1      1631    8    0    1
 -2       775       774       883      3157      3489      3490
 -1      1632    8    0    1
 -2       774       882       883      3488      3491      3489
 -1      1633    8    0    1
 -2       776       775       884      3160      3492      3493
 -1      1634    8    0    1
 -2       775       883       884      3490      3494      3492
 -1      1635    8    0    1
 -2       777       776       885      3163      3495      3496
 -1      1636    8    0    1
 -2       776       884       885      3493      3497      3495
 -1      1637    8    0    1
 -2       778       777       886      3166      3498      3499
 -1      1638    8    0    1
 -2       777       885       886      3496      3500      3498
 -1      1639    8    0    1
 -2       779       778       887      3169      3501      3502
 -1      1640    8    0    1
 -2       778       886       887      3499      3503      3501
 -1      1641    8    0    1
 -2       780       779       888      3172      3504      3505
 -1      1642    8    0    1
 -2       779       887       888      3502      3506      3504
 -1      1643    8    0    1
 -2       781       780       889      3175      3507      3508
 -1      1644    8    0    1
 -2       780       888       889      3505      3509      3507
 -1      1645    8    0    1
 -2       782       781       890      3178      3510      3511
 -1      1646    8    0    1
 -2       781       889       890      3508      3512      3510
 -1      1647    8    0    1
 -2       783       782       891      3181      3513      3514
 -1      1648    8    0    1
 -2       782       890       891      3511      3515      3513
 -1      1649    8    0    1
 -2       784       783       892      3184      3516      3517
 -1      1650    8    0    1
 -2       783       891       892      3514      3518      3516
 -1      1651    8    0    1
 -2       785       784       893      3187      3519      3520
 -1      1652    8    0    1
 -2       784       892       893      3517      3521      3519
 -1      1653    8    0    1
 -2       786       785       894      3190      3522      3523
 -1      1654    8    0    1
 -2       785       893       894      3520      3524      3522
 -1      1655    8    0    1
 -2       787       786       895      3193      3525      3526
 -1      1656    8    0    1
 -2       786       894       895      3523      3527      3525
 -1      1657    8    0    1
 -2       788       787       896      3196      3528      3529
 -1      1658    8    0    1
 -2       787       895       896      3526      3530      3528
 -1      1659    8    0    1
 -2       789       788       897      3199      3531      3532
 -1      1660    8    0    1
 -2       788       896       897      3529      3533      3531
 -1      1661    8    0    1
 -2       790       789       898      3202      3534      3535
 -1      1662    8    0    1
 -2       789       897       898      3532      3536      3534
 -1      1663    8    0    1
 -2       791       790       899      3205      3537      3538
 -1      1664    8    0    1
 -2       790       898       899      3535      3539      3537
 -1      1665    8    0    1
 -2       795       794       900      3217      3540      3541
 -1      1666    8    0    1
 -2       797       798       901      3225      3542      3543
 -1      1667    8    0    1
 -2       796       797       902      3222      3544      3545
 -1      1668    8    0    1
 -2       797       901       902      3543      3546      3544
 -1      1669    8    0    1
 -2       843       771       903      3420      3547      3548
 -1      1670    8    0    1
 -2       851       802       751      3406      3549      3383
 -1      1671    8    0    1
 -2       802       803       862      3242      3550      3551
 -1      1672    8    0    1
 -2       805       806       904      3251      3552      3553
 -1      1673    8    0    1
 -2       806       807       905      3254      3554      3555
 -1      1674    8    0    1
 -2       806       905       904      3555      3556      3552
 -1      1675    8    0    1
 -2       807       808       906      3257      3557      3558
 -1      1676    8    0    1
 -2       807       906       905      3558      3559      3554
 -1      1677    8    0    1
 -2       808       809       907      3260      3560      3561
 -1      1678    8    0    1
 -2       808       907       906      3561      3562      3557
 -1      1679    8    0    1
 -2       809       810       908      3263      3563      3564
 -1      1680    8    0    1
 -2       809       908       907      3564      3565      3560
 -1      1681    8    0    1
 -2       810       811       909      3266      3566      3567
 -1      1682    8    0    1
 -2       810       909       908      3567      3568      3563
 -1      1683    8    0    1
 -2       811       812       910      3269      3569      3570
 -1      1684    8    0    1
 -2       811       910       909      3570      3571      3566
 -1      1685    8    0    1
 -2       812       813       911      3272      3572      3573
 -1      1686    8    0    1
 -2       812       911       910      3573      3574      3569
 -1      1687    8    0    1
 -2       813       814       912      3275      3575      3576
 -1      1688    8    0    1
 -2       813       912       911      3576      3577      3572
 -1      1689    8    0    1
 -2       814       815       913      3278      3578      3579
 -1      1690    8    0    1
 -2       814       913       912      3579      3580      3575
 -1      1691    8    0    1
 -2       815       816       914      3281      3581      3582
 -1      1692    8    0    1
 -2       815       914       913      3582      3583      3578
 -1      1693    8    0    1
 -2       816       817       915      3284      3584      3585
 -1      1694    8    0    1
 -2       816       915       914      3585      3586      3581
 -1      1695    8    0    1
 -2       817       818       916      3287      3587      3588
 -1      1696    8    0    1
 -2       817       916       915      3588      3589      3584
 -1      1697    8    0    1
 -2       818       819       917      3290      3590      3591
 -1      1698    8    0    1
 -2       818       917       916      3591      3592      3587
 -1      1699    8    0    1
 -2       819       820       918      3293      3593      3594
 -1      1700    8    0    1
 -2       819       918       917      3594      3595      3590
 -1      1701    8    0    1
 -2       820       821       919      3296      3596      3597
 -1      1702    8    0    1
 -2       820       919       918      3597      3598      3593
 -1      1703    8    0    1
 -2       821       822       920      3299      3599      3600
 -1      1704    8    0    1
 -2       821       920       919      3600      3601      3596
 -1      1705    8    0    1
 -2       822       823       921      3302      3602      3603
 -1      1706    8    0    1
 -2       822       921       920      3603      3604      3599
 -1      1707    8    0    1
 -2       823       824       922      3305      3605      3606
 -1      1708    8    0    1
 -2       823       922       921      3606      3607      3602
 -1      1709    8    0    1
 -2       844       827       923      3412      3608      3609
 -1      1710    8    0    1
 -2       746       717       873      3053      3463      3610
 -1      1711    8    0    1
 -2       801       618       746      3419      3055      3611
 -1      1712    8    0    1
 -2       826       830       924      3321      3612      3613
 -1      1713    8    0    1
 -2       849       757       742      3371      3104      3614
 -1      1714    8    0    1
 -2       848       847       925      3369      3615      3616
 -1      1715    8    0    1
 -2       828       826       926      3316      3617      3618
 -1      1716    8    0    1
 -2       826       924       926      3613      3619      3617
 -1      1717    8    0    1
 -2       836       834       837      3397      3620      3428
 -1      1718    8    0    1
 -2       804       805       927      3248      3621      3622
 -1      1719    8    0    1
 -2       805       904       927      3553      3623      3621
 -1      1720    8    0    1
 -2       745       749       928      3072      3624      3625
 -1      1721    8    0    1
 -2       825       745       928      3309      3625      3626
 -1      1722    8    0    1
 -2       749       864       928      3435      3627      3624
 -1      1723    8    0    1
 -2       803       804       929      3245      3628      3629
 -1      1724    8    0    1
 -2       804       927       929      3622      3630      3628
 -1      1725    8    0    1
 -2       750       743       930      3078      3631      3632
 -1      1726    8    0    1
 -2       750       930       868      3632      3633      3448
 -1      1727    8    0    1
 -2       773       772       931      3151      3634      3635
 -1      1728    8    0    1
 -2       773       931       882      3635      3636      3487
 -1      1729    8    0    1
 -2       866       720       848      3443      3370      3637
 -1      1730    8    0    1
 -2       830       832       932      3328      3638      3639
 -1      1731    8    0    1
 -2       830       932       924      3639      3640      3612
 -1      1732    8    0    1
 -2       741       721       871      3065      3641      3457
 -1      1733    8    0    1
 -2       762       838       933      3346      3642      3643
 -1      1734    8    0    1
 -2       762       933       872      3643      3644      3460
 -1      1735    8    0    1
 -2       829       859       934      3414      3645      3646
 -1      1736    8    0    1
 -2       754       770       827      3379      3647      3409
 -1      1737    8    0    1
 -2       838       849       935      3432      3648      3649
 -1      1738    8    0    1
 -2       837       834       936      3620      3650      3651
 -1      1739    8    0    1
 -2       772       837       936      3342      3651      3652
 -1      1740    8    0    1
 -2       834       829       936      3421      3653      3650
 -1      1741    8    0    1
 -2       798       799       903      3228      3654      3655
 -1      1742    8    0    1
 -2       751       802       862      3549      3551      3427
 -1      1743    8    0    1
 -2       846       755       937      3364      3656      3657
 -1      1744    8    0    1
 -2       748       855       938      3396      3658      3659
 -1      1745    8    0    1
 -2       748       938       852      3659      3660      3386
 -1      1746    8    0    1
 -2       756       850       870      3378      3661      3454
 -1      1747    8    0    1
 -2       829       934       936      3646      3662      3653
 -1      1748    8    0    1
 -2       710       616       641      3079      3105      3456
 -1      1749    8    0    1
 -2       761       881       939      3486      3663      3664
 -1      1750    8    0    1
 -2       640       754       760      3143      3459      3380
 -1      1751    8    0    1
 -2       901       798       903      3542      3655      3665
 -1      1752    8    0    1
 -2       866       848       859      3637      3666      3453
 -1      1753    8    0    1
 -2       881       793       940      3485      3667      3668
 -1      1754    8    0    1
 -2       793       854       940      3392      3669      3667
 -1      1755    8    0    1
 -2       853       840       941      3389      3670      3671
 -1      1756    8    0    1
 -2       840       863       941      3430      3672      3670
 -1      1757    8    0    1
 -2       854       724       856      3390      3400      3673
 -1      1758    8    0    1
 -2       855       747       942      3394      3674      3675
 -1      1759    8    0    1
 -2       747       853       942      3388      3676      3674
 -1      1760    8    0    1
 -2       795       900       943      3541      3677      3678
 -1      1761    8    0    1
 -2       795       943       856      3678      3679      3398
 -1      1762    8    0    1
 -2       900       794       944      3540      3680      3681
 -1      1763    8    0    1
 -2       794       835       944      3335      3682      3680
 -1      1764    8    0    1
 -2       792       791       945      3209      3683      3684
 -1      1765    8    0    1
 -2       867       792       945      3447      3684      3685
 -1      1766    8    0    1
 -2       791       899       945      3538      3686      3683
 -1      1767    8    0    1
 -2       843       903       799      3548      3654      3687
 -1      1768    8    0    1
 -2       796       902       946      3545      3688      3689
 -1      1769    8    0    1
 -2       796       946       835      3689      3690      3336
 -1      1770    8    0    1
 -2       903       771       947      3547      3691      3692
 -1      1771    8    0    1
 -2       901       903       947      3665      3692      3693
 -1      1772    8    0    1
 -2       771       852       947      3385      3694      3691
 -1      1773    8    0    1
 -2       799       800       843      3231      3695      3687
 -1      1774    8    0    1
 -2       838       935       933      3649      3696      3642
 -1      1775    8    0    1
 -2       862       803       929      3550      3629      3697
 -1      1776    8    0    1
 -2       844       923       948      3609      3698      3699
 -1      1777    8    0    1
 -2       844       948       863      3699      3700      3431
 -1      1778    8    0    1
 -2       923       827       880      3608      3701      3702
 -1      1779    8    0    1
 -2       824       825       928      3308      3626      3703
 -1      1780    8    0    1
 -2       755       831       949      3324      3704      3705
 -1      1781    8    0    1
 -2       937       755       949      3656      3705      3706
 -1      1782    8    0    1
 -2       831       865       949      3439      3707      3704
 -1      1783    8    0    1
 -2       860       828       950      3418      3708      3709
 -1      1784    8    0    1
 -2       828       926       950      3618      3710      3708
 -1      1785    8    0    1
 -2       847       870       951      3455      3711      3712
 -1      1786    8    0    1
 -2       847       951       925      3712      3713      3615
 -1      1787    8    0    1
 -2       858       860       952      3417      3714      3715
 -1      1788    8    0    1
 -2       860       950       952      3709      3716      3714
 -1      1789    8    0    1
 -2       850       759       953      3376      3717      3718
 -1      1790    8    0    1
 -2       849       742       869      3614      3451      3719
 -1      1791    8    0    1
 -2       832       867       945      3446      3685      3720
 -1      1792    8    0    1
 -2       861       728       846      3424      3366      3721
 -1      1793    8    0    1
 -2       858       952       954      3715      3722      3723
 -1      1794    8    0    1
 -2       858       954       864      3723      3724      3436
 -1      1795    8    0    1
 -2       845       833       955      3363      3725      3726
 -1      1796    8    0    1
 -2       865       761       939      3440      3664      3727
 -1      1797    8    0    1
 -2       841       862       929      3426      3697      3728
 -1      1798    8    0    1
 -2       930       743       845      3631      3362      3729
 -1      1799    8    0    1
 -2       931       772       936      3634      3652      3730
 -1      1800    8    0    1
 -2       932       832       945      3638      3720      3731
 -1      1801    8    0    1
 -2       841       929       956      3728      3732      3733
 -1      1802    8    0    1
 -2       842       841       956      3356      3733      3734
 -1      1803    8    0    1
 -2       929       927       956      3630      3735      3732
 -1      1804    8    0    1
 -2       824       928       922      3703      3736      3605
 -1      1805    8    0    1
 -2       953       759       842      3717      3355      3737
 -1      1806    8    0    1
 -2       955       833       957      3725      3738      3739
 -1      1807    8    0    1
 -2       833       861       957      3423      3740      3738
 -1      1808    8    0    1
 -2       827       770       880      3647      3483      3701
 -1      1809    8    0    1
 -2       868       930       958      3633      3741      3742
 -1      1810    8    0    1
 -2       859       848       959      3666      3743      3744
 -1      1811    8    0    1
 -2       959       848       925      3743      3616      3745
 -1      1812    8    0    1
 -2       859       959       934      3744      3746      3645
 -1      1813    8    0    1
 -2       924       932       960      3640      3747      3748
 -1      1814    8    0    1
 -2       872       933       961      3644      3749      3750
 -1      1815    8    0    1
 -2       936       934       962      3662      3751      3752
 -1      1816    8    0    1
 -2       931       936       962      3730      3752      3753
 -1      1817    8    0    1
 -2       934       959       962      3746      3754      3751
 -1      1818    8    0    1
 -2       801       746       857      3611      3755      3404
 -1      1819    8    0    1
 -2       958       930       963      3741      3756      3757
 -1      1820    8    0    1
 -2       930       845       963      3729      3758      3756
 -1      1821    8    0    1
 -2       875       874       964      3469      3759      3760
 -1      1822    8    0    1
 -2       876       875       965      3472      3761      3762
 -1      1823    8    0    1
 -2       875       964       965      3760      3763      3761
 -1      1824    8    0    1
 -2       877       876       966      3475      3764      3765
 -1      1825    8    0    1
 -2       876       965       966      3762      3766      3764
 -1      1826    8    0    1
 -2       878       877       967      3478      3767      3768
 -1      1827    8    0    1
 -2       877       966       967      3765      3769      3767
 -1      1828    8    0    1
 -2       879       878       968      3481      3770      3771
 -1      1829    8    0    1
 -2       878       967       968      3768      3772      3770
 -1      1830    8    0    1
 -2       850       953       969      3718      3773      3774
 -1      1831    8    0    1
 -2       870       850       969      3661      3774      3775
 -1      1832    8    0    1
 -2       933       935       970      3696      3776      3777
 -1      1833    8    0    1
 -2       884       883       971      3494      3778      3779
 -1      1834    8    0    1
 -2       885       884       972      3497      3780      3781
 -1      1835    8    0    1
 -2       884       971       972      3779      3782      3780
 -1      1836    8    0    1
 -2       886       885       973      3500      3783      3784
 -1      1837    8    0    1
 -2       885       972       973      3781      3785      3783
 -1      1838    8    0    1
 -2       887       886       974      3503      3786      3787
 -1      1839    8    0    1
 -2       886       973       974      3784      3788      3786
 -1      1840    8    0    1
 -2       888       887       975      3506      3789      3790
 -1      1841    8    0    1
 -2       887       974       975      3787      3791      3789
 -1      1842    8    0    1
 -2       889       888       976      3509      3792      3793
 -1      1843    8    0    1
 -2       888       975       976      3790      3794      3792
 -1      1844    8    0    1
 -2       890       889       977      3512      3795      3796
 -1      1845    8    0    1
 -2       889       976       977      3793      3797      3795
 -1      1846    8    0    1
 -2       891       890       978      3515      3798      3799
 -1      1847    8    0    1
 -2       890       977       978      3796      3800      3798
 -1      1848    8    0    1
 -2       892       891       979      3518      3801      3802
 -1      1849    8    0    1
 -2       891       978       979      3799      3803      3801
 -1      1850    8    0    1
 -2       893       892       980      3521      3804      3805
 -1      1851    8    0    1
 -2       892       979       980      3802      3806      3804
 -1      1852    8    0    1
 -2       894       893       981      3524      3807      3808
 -1      1853    8    0    1
 -2       893       980       981      3805      3809      3807
 -1      1854    8    0    1
 -2       895       894       982      3527      3810      3811
 -1      1855    8    0    1
 -2       894       981       982      3808      3812      3810
 -1      1856    8    0    1
 -2       896       895       983      3530      3813      3814
 -1      1857    8    0    1
 -2       895       982       983      3811      3815      3813
 -1      1858    8    0    1
 -2       897       896       984      3533      3816      3817
 -1      1859    8    0    1
 -2       896       983       984      3814      3818      3816
 -1      1860    8    0    1
 -2       898       897       985      3536      3819      3820
 -1      1861    8    0    1
 -2       897       984       985      3817      3821      3819
 -1      1862    8    0    1
 -2       945       899       932      3686      3822      3731
 -1      1863    8    0    1
 -2       681       758       871      3237      3458      3823
 -1      1864    8    0    1
 -2       904       905       986      3556      3824      3825
 -1      1865    8    0    1
 -2       907       908       987      3565      3826      3827
 -1      1866    8    0    1
 -2       908       909       988      3568      3828      3829
 -1      1867    8    0    1
 -2       908       988       987      3829      3830      3826
 -1      1868    8    0    1
 -2       909       910       989      3571      3831      3832
 -1      1869    8    0    1
 -2       909       989       988      3832      3833      3828
 -1      1870    8    0    1
 -2       910       911       990      3574      3834      3835
 -1      1871    8    0    1
 -2       910       990       989      3835      3836      3831
 -1      1872    8    0    1
 -2       911       912       991      3577      3837      3838
 -1      1873    8    0    1
 -2       911       991       990      3838      3839      3834
 -1      1874    8    0    1
 -2       912       913       992      3580      3840      3841
 -1      1875    8    0    1
 -2       912       992       991      3841      3842      3837
 -1      1876    8    0    1
 -2       913       914       993      3583      3843      3844
 -1      1877    8    0    1
 -2       913       993       992      3844      3845      3840
 -1      1878    8    0    1
 -2       914       915       994      3586      3846      3847
 -1      1879    8    0    1
 -2       914       994       993      3847      3848      3843
 -1      1880    8    0    1
 -2       915       916       995      3589      3849      3850
 -1      1881    8    0    1
 -2       915       995       994      3850      3851      3846
 -1      1882    8    0    1
 -2       916       917       996      3592      3852      3853
 -1      1883    8    0    1
 -2       916       996       995      3853      3854      3849
 -1      1884    8    0    1
 -2       917       918       997      3595      3855      3856
 -1      1885    8    0    1
 -2       917       997       996      3856      3857      3852
 -1      1886    8    0    1
 -2       918       919       998      3598      3858      3859
 -1      1887    8    0    1
 -2       918       998       997      3859      3860      3855
 -1      1888    8    0    1
 -2       919       920       999      3601      3861      3862
 -1      1889    8    0    1
 -2       919       999       998      3862      3863      3858
 -1      1890    8    0    1
 -2       920       921      1000      3604      3864      3865
 -1      1891    8    0    1
 -2       920      1000       999      3865      3866      3861
 -1      1892    8    0    1
 -2       868       958       970      3742      3867      3868
 -1      1893    8    0    1
 -2       953       842       956      3737      3734      3869
 -1      1894    8    0    1
 -2       922       928       864      3736      3627      3870
 -1      1895    8    0    1
 -2       746       873       857      3610      3871      3755
 -1      1896    8    0    1
 -2       926       924      1001      3619      3872      3873
 -1      1897    8    0    1
 -2       924       960      1001      3748      3874      3872
 -1      1898    8    0    1
 -2       849       869       935      3719      3875      3648
 -1      1899    8    0    1
 -2       861       846      1002      3721      3876      3877
 -1      1900    8    0    1
 -2       957       861      1002      3740      3877      3878
 -1      1901    8    0    1
 -2       846       937      1002      3657      3879      3876
 -1      1902    8    0    1
 -2       906       907      1003      3562      3880      3881
 -1      1903    8    0    1
 -2       907       987      1003      3827      3882      3880
 -1      1904    8    0    1
 -2       923       880      1004      3702      3883      3884
 -1      1905    8    0    1
 -2       948       923      1004      3698      3884      3885
 -1      1906    8    0    1
 -2       880       879      1004      3484      3886      3883
 -1      1907    8    0    1
 -2       905       906      1005      3559      3887      3888
 -1      1908    8    0    1
 -2       905      1005       986      3888      3889      3824
 -1      1909    8    0    1
 -2       902       901      1006      3546      3890      3891
 -1      1910    8    0    1
 -2       901       947      1006      3693      3892      3890
 -1      1911    8    0    1
 -2       927       904      1007      3623      3893      3894
 -1      1912    8    0    1
 -2       904       986      1007      3825      3895      3893
 -1      1913    8    0    1
 -2       845       955       963      3726      3896      3758
 -1      1914    8    0    1
 -2       933       970       961      3777      3897      3749
 -1      1915    8    0    1
 -2       932       899       960      3822      3898      3747
 -1      1916    8    0    1
 -2       868       970       869      3868      3899      3452
 -1      1917    8    0    1
 -2       970       958      1008      3867      3900      3901
 -1      1918    8    0    1
 -2       970      1008       961      3901      3902      3897
 -1      1919    8    0    1
 -2       874       872      1009      3466      3903      3904
 -1      1920    8    0    1
 -2       872       961      1009      3750      3905      3903
 -1      1921    8    0    1
 -2       843       800       839      3695      3906      3433
 -1      1922    8    0    1
 -2       854       856      1010      3673      3907      3908
 -1      1923    8    0    1
 -2       856       943      1010      3679      3909      3907
 -1      1924    8    0    1
 -2       882       931      1011      3636      3910      3911
 -1      1925    8    0    1
 -2       931       962      1011      3753      3912      3910
 -1      1926    8    0    1
 -2       883       882      1012      3491      3913      3914
 -1      1927    8    0    1
 -2       883      1012       971      3914      3915      3778
 -1      1928    8    0    1
 -2       939       881      1013      3663      3916      3917
 -1      1929    8    0    1
 -2       922       864       954      3870      3724      3918
 -1      1930    8    0    1
 -2       873       839       800      3462      3906      3919
 -1      1931    8    0    1
 -2       852       938       947      3660      3920      3694
 -1      1932    8    0    1
 -2       874      1009       964      3904      3921      3759
 -1      1933    8    0    1
 -2       969       953      1007      3773      3922      3923
 -1      1934    8    0    1
 -2       940       854      1010      3669      3908      3924
 -1      1935    8    0    1
 -2       870       969      1014      3775      3925      3926
 -1      1936    8    0    1
 -2       970       935       869      3776      3875      3899
 -1      1937    8    0    1
 -2       941       863      1015      3672      3927      3928
 -1      1938    8    0    1
 -2       863       948      1015      3700      3929      3927
 -1      1939    8    0    1
 -2       942       853      1016      3676      3930      3931
 -1      1940    8    0    1
 -2       853       941      1016      3671      3932      3930
 -1      1941    8    0    1
 -2       881       940      1017      3668      3933      3934
 -1      1942    8    0    1
 -2       881      1017      1013      3934      3935      3916
 -1      1943    8    0    1
 -2       943       900      1018      3677      3936      3937
 -1      1944    8    0    1
 -2       944       835       946      3682      3690      3938
 -1      1945    8    0    1
 -2       899       898       960      3539      3939      3898
 -1      1946    8    0    1
 -2       946       902      1019      3688      3940      3941
 -1      1947    8    0    1
 -2       902      1006      1019      3891      3942      3940
 -1      1948    8    0    1
 -2       950       926      1020      3710      3943      3944
 -1      1949    8    0    1
 -2       926      1001      1020      3873      3945      3943
 -1      1950    8    0    1
 -2       900       944      1021      3681      3946      3947
 -1      1951    8    0    1
 -2       900      1021      1018      3947      3948      3936
 -1      1952    8    0    1
 -2       958       963      1008      3757      3949      3900
 -1      1953    8    0    1
 -2       938       855      1022      3658      3950      3951
 -1      1954    8    0    1
 -2       855       942      1022      3675      3952      3950
 -1      1955    8    0    1
 -2      1005       906      1003      3887      3881      3953
 -1      1956    8    0    1
 -2       921       922      1023      3607      3954      3955
 -1      1957    8    0    1
 -2       953       956      1007      3869      3956      3922
 -1      1958    8    0    1
 -2       951       870      1024      3711      3957      3958
 -1      1959    8    0    1
 -2       870      1014      1024      3926      3959      3957
 -1      1960    8    0    1
 -2       952       950      1025      3716      3960      3961
 -1      1961    8    0    1
 -2       950      1020      1025      3944      3962      3960
 -1      1962    8    0    1
 -2       954       952      1026      3722      3963      3964
 -1      1963    8    0    1
 -2       952      1025      1026      3961      3965      3963
 -1      1964    8    0    1
 -2       921      1023      1000      3955      3966      3864
 -1      1965    8    0    1
 -2      1004       879       968      3886      3771      3967
 -1      1966    8    0    1
 -2       925       951      1027      3713      3968      3969
 -1      1967    8    0    1
 -2       927      1007       956      3894      3956      3735
 -1      1968    8    0    1
 -2       873       800       857      3919      3403      3871
 -1      1969    8    0    1
 -2       960       898       985      3939      3820      3970
 -1      1970    8    0    1
 -2       721       681       871      3234      3823      3641
 -1      1971    8    0    1
 -2       962       959      1028      3754      3971      3972
 -1      1972    8    0    1
 -2      1011       962      1028      3912      3972      3973
 -1      1973    8    0    1
 -2       959       925      1028      3745      3974      3971
 -1      1974    8    0    1
 -2       963       955      1029      3896      3975      3976
 -1      1975    8    0    1
 -2       955       957      1030      3739      3977      3978
 -1      1976    8    0    1
 -2       955      1030      1029      3978      3979      3975
 -1      1977    8    0    1
 -2      1012       882      1011      3913      3911      3980
 -1      1978    8    0    1
 -2       947       938      1006      3920      3981      3892
 -1      1979    8    0    1
 -2       971      1012      1031      3915      3982      3983
 -1      1980    8    0    1
 -2       939      1013      1002      3917      3984      3985
 -1      1981    8    0    1
 -2       969      1007      1032      3923      3986      3987
 -1      1982    8    0    1
 -2      1014       969      1032      3925      3987      3988
 -1      1983    8    0    1
 -2      1007       986      1032      3895      3989      3986
 -1      1984    8    0    1
 -2       966       965      1033      3766      3990      3991
 -1      1985    8    0    1
 -2       967       966      1034      3769      3992      3993
 -1      1986    8    0    1
 -2       966      1033      1034      3991      3994      3992
 -1      1987    8    0    1
 -2       968       967      1035      3772      3995      3996
 -1      1988    8    0    1
 -2       967      1034      1035      3993      3997      3995
 -1      1989    8    0    1
 -2       940      1010      1036      3924      3998      3999
 -1      1990    8    0    1
 -2       940      1036      1017      3999      4000      3933
 -1      1991    8    0    1
 -2       986      1005      1037      3889      4001      4002
 -1      1992    8    0    1
 -2       986      1037      1032      4002      4003      3989
 -1      1993    8    0    1
 -2      1008       963      1029      3949      3976      4004
 -1      1994    8    0    1
 -2       944       946      1038      3938      4005      4006
 -1      1995    8    0    1
 -2      1021       944      1038      3946      4006      4007
 -1      1996    8    0    1
 -2       946      1019      1038      3941      4008      4005
 -1      1997    8    0    1
 -2       973       972      1039      3785      4009      4010
 -1      1998    8    0    1
 -2       974       973      1040      3788      4011      4012
 -1      1999    8    0    1
 -2       973      1039      1040      4010      4013      4011
 -1      2000    8    0    1
 -2       975       974      1041      3791      4014      4015
 -1      2001    8    0    1
 -2       974      1040      1041      4012      4016      4014
 -1      2002    8    0    1
 -2       976       975      1042      3794      4017      4018
 -1      2003    8    0    1
 -2       975      1041      1042      4015      4019      4017
 -1      2004    8    0    1
 -2       977       976      1043      3797      4020      4021
 -1      2005    8    0    1
 -2       976      1042      1043      4018      4022      4020
 -1      2006    8    0    1
 -2       978       977      1044      3800      4023      4024
 -1      2007    8    0    1
 -2       977      1043      1044      4021      4025      4023
 -1      2008    8    0    1
 -2       979       978      1045      3803      4026      4027
 -1      2009    8    0    1
 -2       978      1044      1045      4024      4028      4026
 -1      2010    8    0    1
 -2       980       979      1046      3806      4029      4030
 -1      2011    8    0    1
 -2       979      1045      1046      4027      4031      4029
 -1      2012    8    0    1
 -2       981       980      1047      3809      4032      4033
 -1      2013    8    0    1
 -2       980      1046      1047      4030      4034      4032
 -1      2014    8    0    1
 -2       982       981      1048      3812      4035      4036
 -1      2015    8    0    1
 -2       981      1047      1048      4033      4037      4035
 -1      2016    8    0    1
 -2       983       982      1049      3815      4038      4039
 -1      2017    8    0    1
 -2       982      1048      1049      4036      4040      4038
 -1      2018    8    0    1
 -2       984       983      1050      3818      4041      4042
 -1      2019    8    0    1
 -2       983      1049      1050      4039      4043      4041
 -1      2020    8    0    1
 -2       985       984      1051      3821      4044      4045
 -1      2021    8    0    1
 -2       984      1050      1051      4042      4046      4044
 -1      2022    8    0    1
 -2       989       990      1052      3836      4047      4048
 -1      2023    8    0    1
 -2       988       989      1053      3833      4049      4050
 -1      2024    8    0    1
 -2       989      1052      1053      4048      4051      4049
 -1      2025    8    0    1
 -2       964      1009      1054      3921      4052      4053
 -1      2026    8    0    1
 -2      1023       922       954      3954      3918      4054
 -1      2027    8    0    1
 -2       937       949       939      3706      4055      4056
 -1      2028    8    0    1
 -2       948      1004      1055      3885      4057      4058
 -1      2029    8    0    1
 -2      1004       968      1055      3967      4059      4057
 -1      2030    8    0    1
 -2       987       988      1056      3830      4060      4061
 -1      2031    8    0    1
 -2       988      1053      1056      4050      4062      4060
 -1      2032    8    0    1
 -2       990       991      1057      3839      4063      4064
 -1      2033    8    0    1
 -2       990      1057      1052      4064      4065      4047
 -1      2034    8    0    1
 -2       991       992      1058      3842      4066      4067
 -1      2035    8    0    1
 -2       991      1058      1057      4067      4068      4063
 -1      2036    8    0    1
 -2       992       993      1059      3845      4069      4070
 -1      2037    8    0    1
 -2       992      1059      1058      4070      4071      4066
 -1      2038    8    0    1
 -2       993       994      1060      3848      4072      4073
 -1      2039    8    0    1
 -2       993      1060      1059      4073      4074      4069
 -1      2040    8    0    1
 -2       994       995      1061      3851      4075      4076
 -1      2041    8    0    1
 -2       994      1061      1060      4076      4077      4072
 -1      2042    8    0    1
 -2       995       996      1062      3854      4078      4079
 -1      2043    8    0    1
 -2       995      1062      1061      4079      4080      4075
 -1      2044    8    0    1
 -2       996       997      1063      3857      4081      4082
 -1      2045    8    0    1
 -2       996      1063      1062      4082      4083      4078
 -1      2046    8    0    1
 -2       997       998      1064      3860      4084      4085
 -1      2047    8    0    1
 -2       997      1064      1063      4085      4086      4081
 -1      2048    8    0    1
 -2       998       999      1065      3863      4087      4088
 -1      2049    8    0    1
 -2       998      1065      1064      4088      4089      4084
 -1      2050    8    0    1
 -2       999      1000      1066      3866      4090      4091
 -1      2051    8    0    1
 -2       999      1066      1065      4091      4092      4087
 -1      2052    8    0    1
 -2      1009       961      1067      3905      4093      4094
 -1      2053    8    0    1
 -2      1054      1009      1067      4052      4094      4095
 -1      2054    8    0    1
 -2       961      1008      1067      3902      4096      4093
 -1      2055    8    0    1
 -2      1003       987      1068      3882      4097      4098
 -1      2056    8    0    1
 -2       987      1056      1068      4061      4099      4097
 -1      2057    8    0    1
 -2      1002       937       939      3879      4056      3985
 -1      2058    8    0    1
 -2      1005      1003      1069      3953      4100      4101
 -1      2059    8    0    1
 -2      1037      1005      1069      4001      4101      4102
 -1      2060    8    0    1
 -2      1003      1068      1069      4098      4103      4100
 -1      2061    8    0    1
 -2      1027       951      1024      3968      3958      4104
 -1      2062    8    0    1
 -2       972       971      1070      3782      4105      4106
 -1      2063    8    0    1
 -2      1039       972      1070      4009      4106      4107
 -1      2064    8    0    1
 -2       971      1031      1070      3983      4108      4105
 -1      2065    8    0    1
 -2       865       939       949      3727      4055      3707
 -1      2066    8    0    1
 -2       960       985      1071      3970      4109      4110
 -1      2067    8    0    1
 -2      1001       960      1071      3874      4110      4111
 -1      2068    8    0    1
 -2       985      1051      1071      4045      4112      4109
 -1      2069    8    0    1
 -2      1010       943      1072      3909      4113      4114
 -1      2070    8    0    1
 -2      1036      1010      1072      3998      4114      4115
 -1      2071    8    0    1
 -2       943      1018      1072      3937      4116      4113
 -1      2072    8    0    1
 -2       925      1027      1028      3969      4117      3974
 -1      2073    8    0    1
 -2      1008      1029      1073      4004      4118      4119
 -1      2074    8    0    1
 -2      1008      1073      1067      4119      4120      4096
 -1      2075    8    0    1
 -2       957      1002      1074      3878      4121      4122
 -1      2076    8    0    1
 -2      1030       957      1074      3977      4122      4123
 -1      2077    8    0    1
 -2      1002      1013      1074      3984      4124      4121
 -1      2078    8    0    1
 -2       965       964      1075      3763      4125      4126
 -1      2079    8    0    1
 -2       964      1054      1075      4053      4127      4125
 -1      2080    8    0    1
 -2      1028      1027      1011      4117      4128      3973
 -1      2081    8    0    1
 -2      1006       938      1076      3981      4129      4130
 -1      2082    8    0    1
 -2      1019      1006      1076      3942      4130      4131
 -1      2083    8    0    1
 -2       938      1022      1076      3951      4132      4129
 -1      2084    8    0    1
 -2      1011      1027      1012      4128      4133      3980
 -1      2085    8    0    1
 -2      1023       954      1026      4054      3964      4134
 -1      2086    8    0    1
 -2      1012      1027      1031      4133      4135      3982
 -1      2087    8    0    1
 -2      1014      1032      1077      3988      4136      4137
 -1      2088    8    0    1
 -2      1032      1037      1077      4003      4138      4136
 -1      2089    8    0    1
 -2      1033       965      1075      3990      4126      4139
 -1      2090    8    0    1
 -2      1016       941      1078      3932      4140      4141
 -1      2091    8    0    1
 -2       941      1015      1078      3928      4142      4140
 -1      2092    8    0    1
 -2      1020      1001      1079      3945      4143      4144
 -1      2093    8    0    1
 -2      1001      1071      1079      4111      4145      4143
 -1      2094    8    0    1
 -2      1022       942      1080      3952      4146      4147
 -1      2095    8    0    1
 -2       942      1016      1080      3931      4148      4146
 -1      2096    8    0    1
 -2      1031      1027      1024      4135      4104      4149
 -1      2097    8    0    1
 -2       948      1055      1015      4058      4150      3929
 -1      2098    8    0    1
 -2      1066      1000      1026      4090      4151      4152
 -1      2099    8    0    1
 -2      1024      1014      1077      3959      4137      4153
 -1      2100    8    0    1
 -2      1025      1020      1081      3962      4154      4155
 -1      2101    8    0    1
 -2      1020      1079      1081      4144      4156      4154
 -1      2102    8    0    1
 -2      1072      1018      1082      4116      4157      4158
 -1      2103    8    0    1
 -2      1026      1025      1066      3965      4159      4152
 -1      2104    8    0    1
 -2       968      1035      1055      3996      4160      4059
 -1      2105    8    0    1
 -2      1013      1017      1083      3935      4161      4162
 -1      2106    8    0    1
 -2      1013      1083      1074      4162      4163      4124
 -1      2107    8    0    1
 -2      1023      1026      1000      4134      4151      3966
 -1      2108    8    0    1
 -2      1029      1030      1073      3979      4164      4118
 -1      2109    8    0    1
 -2      1018      1021      1084      3948      4165      4166
 -1      2110    8    0    1
 -2      1018      1084      1082      4166      4167      4157
 -1      2111    8    0    1
 -2      1025      1081      1066      4155      4168      4159
 -1      2112    8    0    1
 -2      1034      1033      1085      3994      4169      4170
 -1      2113    8    0    1
 -2      1017      1036      1086      4000      4171      4172
 -1      2114    8    0    1
 -2      1017      1086      1083      4172      4173      4161
 -1      2115    8    0    1
 -2      1035      1034      1087      3997      4174      4175
 -1      2116    8    0    1
 -2      1034      1085      1087      4170      4176      4174
 -1      2117    8    0    1
 -2      1053      1052      1088      4051      4177      4178
 -1      2118    8    0    1
 -2      1033      1075      1089      4139      4179      4180
 -1      2119    8    0    1
 -2      1033      1089      1085      4180      4181      4169
 -1      2120    8    0    1
 -2      1040      1039      1090      4013      4182      4183
 -1      2121    8    0    1
 -2      1041      1040      1091      4016      4184      4185
 -1      2122    8    0    1
 -2      1040      1090      1091      4183      4186      4184
 -1      2123    8    0    1
 -2      1042      1041      1092      4019      4187      4188
 -1      2124    8    0    1
 -2      1041      1091      1092      4185      4189      4187
 -1      2125    8    0    1
 -2      1043      1042      1093      4022      4190      4191
 -1      2126    8    0    1
 -2      1042      1092      1093      4188      4192      4190
 -1      2127    8    0    1
 -2      1044      1043      1094      4025      4193      4194
 -1      2128    8    0    1
 -2      1043      1093      1094      4191      4195      4193
 -1      2129    8    0    1
 -2      1045      1044      1095      4028      4196      4197
 -1      2130    8    0    1
 -2      1044      1094      1095      4194      4198      4196
 -1      2131    8    0    1
 -2      1046      1045      1096      4031      4199      4200
 -1      2132    8    0    1
 -2      1045      1095      1096      4197      4201      4199
 -1      2133    8    0    1
 -2      1047      1046      1097      4034      4202      4203
 -1      2134    8    0    1
 -2      1046      1096      1097      4200      4204      4202
 -1      2135    8    0    1
 -2      1048      1047      1098      4037      4205      4206
 -1      2136    8    0    1
 -2      1047      1097      1098      4203      4207      4205
 -1      2137    8    0    1
 -2      1049      1048      1099      4040      4208      4209
 -1      2138    8    0    1
 -2      1048      1098      1099      4206      4210      4208
 -1      2139    8    0    1
 -2      1050      1049      1100      4043      4211      4212
 -1      2140    8    0    1
 -2      1049      1099      1100      4209      4213      4211
 -1      2141    8    0    1
 -2      1051      1050      1101      4046      4214      4215
 -1      2142    8    0    1
 -2      1050      1100      1101      4212      4216      4214
 -1      2143    8    0    1
 -2      1057      1058      1102      4068      4217      4218
 -1      2144    8    0    1
 -2      1052      1057      1103      4065      4219      4220
 -1      2145    8    0    1
 -2      1088      1052      1103      4177      4220      4221
 -1      2146    8    0    1
 -2      1057      1102      1103      4218      4222      4219
 -1      2147    8    0    1
 -2      1068      1056      1104      4099      4223      4224
 -1      2148    8    0    1
 -2      1071      1051      1105      4112      4225      4226
 -1      2149    8    0    1
 -2      1079      1071      1105      4145      4226      4227
 -1      2150    8    0    1
 -2      1051      1101      1105      4215      4228      4225
 -1      2151    8    0    1
 -2      1056      1053      1106      4062      4229      4230
 -1      2152    8    0    1
 -2      1104      1056      1106      4223      4230      4231
 -1      2153    8    0    1
 -2      1053      1088      1106      4178      4232      4229
 -1      2154    8    0    1
 -2      1058      1059      1107      4071      4233      4234
 -1      2155    8    0    1
 -2      1058      1107      1102      4234      4235      4217
 -1      2156    8    0    1
 -2      1059      1060      1108      4074      4236      4237
 -1      2157    8    0    1
 -2      1059      1108      1107      4237      4238      4233
 -1      2158    8    0    1
 -2      1060      1061      1109      4077      4239      4240
 -1      2159    8    0    1
 -2      1060      1109      1108      4240      4241      4236
 -1      2160    8    0    1
 -2      1061      1062      1110      4080      4242      4243
 -1      2161    8    0    1
 -2      1061      1110      1109      4243      4244      4239
 -1      2162    8    0    1
 -2      1062      1063      1111      4083      4245      4246
 -1      2163    8    0    1
 -2      1062      1111      1110      4246      4247      4242
 -1      2164    8    0    1
 -2      1063      1064      1112      4086      4248      4249
 -1      2165    8    0    1
 -2      1063      1112      1111      4249      4250      4245
 -1      2166    8    0    1
 -2      1064      1065      1113      4089      4251      4252
 -1      2167    8    0    1
 -2      1064      1113      1112      4252      4253      4248
 -1      2168    8    0    1
 -2      1065      1066      1114      4092      4254      4255
 -1      2169    8    0    1
 -2      1113      1065      1114      4251      4255      4256
 -1      2170    8    0    1
 -2      1066      1081      1114      4168      4257      4254
 -1      2171    8    0    1
 -2      1054      1067      1115      4095      4258      4259
 -1      2172    8    0    1
 -2      1067      1073      1115      4120      4260      4258
 -1      2173    8    0    1
 -2      1030      1074      1116      4123      4261      4262
 -1      2174    8    0    1
 -2      1074      1083      1116      4163      4263      4261
 -1      2175    8    0    1
 -2      1077      1037      1117      4138      4264      4265
 -1      2176    8    0    1
 -2      1037      1069      1117      4102      4266      4264
 -1      2177    8    0    1
 -2      1031      1024      1118      4149      4267      4268
 -1      2178    8    0    1
 -2      1070      1031      1118      4108      4268      4269
 -1      2179    8    0    1
 -2      1024      1077      1118      4153      4270      4267
 -1      2180    8    0    1
 -2      1075      1054      1119      4127      4271      4272
 -1      2181    8    0    1
 -2      1089      1075      1119      4179      4272      4273
 -1      2182    8    0    1
 -2      1054      1115      1119      4259      4274      4271
 -1      2183    8    0    1
 -2      1073      1030      1116      4164      4262      4275
 -1      2184    8    0    1
 -2      1055      1035      1120      4160      4276      4277
 -1      2185    8    0    1
 -2      1036      1072      1121      4115      4278      4279
 -1      2186    8    0    1
 -2      1086      1036      1121      4171      4279      4280
 -1      2187    8    0    1
 -2      1072      1082      1121      4158      4281      4278
 -1      2188    8    0    1
 -2      1015      1055      1120      4150      4277      4282
 -1      2189    8    0    1
 -2      1039      1070      1122      4107      4283      4284
 -1      2190    8    0    1
 -2      1039      1122      1090      4284      4285      4182
 -1      2191    8    0    1
 -2      1078      1015      1120      4142      4282      4286
 -1      2192    8    0    1
 -2      1038      1019      1123      4008      4287      4288
 -1      2193    8    0    1
 -2      1019      1076      1123      4131      4289      4287
 -1      2194    8    0    1
 -2      1080      1016      1124      4148      4290      4291
 -1      2195    8    0    1
 -2      1016      1078      1124      4141      4292      4290
 -1      2196    8    0    1
 -2      1121      1082      1125      4281      4293      4294
 -1      2197    8    0    1
 -2      1115      1073      1116      4260      4275      4295
 -1      2198    8    0    1
 -2      1114      1081      1105      4257      4296      4297
 -1      2199    8    0    1
 -2      1118      1077      1117      4270      4265      4298
 -1      2200    8    0    1
 -2      1035      1087      1120      4175      4299      4276
 -1      2201    8    0    1
 -2      1084      1021      1126      4165      4300      4301
 -1      2202    8    0    1
 -2      1082      1084      1127      4167      4302      4303
 -1      2203    8    0    1
 -2      1082      1127      1125      4303      4304      4293
 -1      2204    8    0    1
 -2      1021      1038      1126      4007      4305      4300
 -1      2205    8    0    1
 -2      1076      1022      1128      4132      4306      4307
 -1      2206    8    0    1
 -2      1123      1076      1128      4289      4307      4308
 -1      2207    8    0    1
 -2      1022      1080      1128      4147      4309      4306
 -1      2208    8    0    1
 -2      1069      1068      1129      4103      4310      4311
 -1      2209    8    0    1
 -2      1117      1069      1129      4266      4311      4312
 -1      2210    8    0    1
 -2      1068      1104      1129      4224      4313      4310
 -1      2211    8    0    1
 -2      1070      1118      1122      4269      4314      4283
 -1      2212    8    0    1
 -2      1083      1086      1130      4173      4315      4316
 -1      2213    8    0    1
 -2      1083      1130      1116      4316      4317      4263
 -1      2214    8    0    1
 -2      1087      1085      1131      4176      4318      4319
 -1      2215    8    0    1
 -2      1108      1109      1096      4241      4320      4321
 -1      2216    8    0    1
 -2      1085      1089      1127      4181      4322      4323
 -1      2217    8    0    1
 -2      1078      1120      1124      4286      4324      4292
 -1      2218    8    0    1
 -2      1092      1091      1088      4189      4325      4326
 -1      2219    8    0    1
 -2      1093      1092      1103      4192      4327      4328
 -1      2220    8    0    1
 -2      1094      1093      1102      4195      4329      4330
 -1      2221    8    0    1
 -2      1095      1094      1107      4198      4331      4332
 -1      2222    8    0    1
 -2      1096      1095      1108      4201      4333      4321
 -1      2223    8    0    1
 -2      1097      1096      1109      4204      4320      4334
 -1      2224    8    0    1
 -2      1098      1097      1110      4207      4335      4336
 -1      2225    8    0    1
 -2      1099      1098      1111      4210      4337      4338
 -1      2226    8    0    1
 -2      1100      1099      1112      4213      4339      4340
 -1      2227    8    0    1
 -2      1101      1100      1113      4216      4341      4342
 -1      2228    8    0    1
 -2      1107      1108      1095      4238      4333      4332
 -1      2229    8    0    1
 -2      1126      1038      1123      4305      4288      4343
 -1      2230    8    0    1
 -2      1115      1116      1130      4295      4317      4344
 -1      2231    8    0    1
 -2      1109      1110      1097      4244      4335      4334
 -1      2232    8    0    1
 -2      1110      1111      1098      4247      4337      4336
 -1      2233    8    0    1
 -2      1111      1112      1099      4250      4339      4338
 -1      2234    8    0    1
 -2      1112      1113      1100      4253      4341      4340
 -1      2235    8    0    1
 -2      1113      1114      1101      4256      4345      4342
 -1      2236    8    0    1
 -2      1105      1081      1079      4296      4156      4227
 -1      2237    8    0    1
 -2      1118      1117      1122      4298      4346      4314
 -1      2238    8    0    1
 -2      1102      1107      1094      4235      4331      4330
 -1      2239    8    0    1
 -2      1120      1087      1132      4299      4347      4348
 -1      2240    8    0    1
 -2      1120      1132      1124      4348      4349      4324
 -1      2241    8    0    1
 -2      1091      1090      1106      4186      4350      4351
 -1      2242    8    0    1
 -2      1102      1093      1103      4329      4328      4222
 -1      2243    8    0    1
 -2      1086      1121      1133      4280      4352      4353
 -1      2244    8    0    1
 -2      1130      1086      1133      4315      4353      4354
 -1      2245    8    0    1
 -2      1121      1125      1133      4294      4355      4352
 -1      2246    8    0    1
 -2      1088      1091      1106      4325      4351      4232
 -1      2247    8    0    1
 -2      1092      1088      1103      4326      4221      4327
 -1      2248    8    0    1
 -2      1132      1087      1131      4347      4319      4356
 -1      2249    8    0    1
 -2      1104      1106      1090      4231      4350      4357
 -1      2250    8    0    1
 -2      1126      1123      1134      4343      4358      4359
 -1      2251    8    0    1
 -2      1123      1128      1134      4308      4360      4358
 -1      2252    8    0    1
 -2      1101      1114      1105      4345      4297      4228
 -1      2253    8    0    1
 -2      1122      1117      1129      4346      4312      4361
 -1      2254    8    0    1
 -2      1104      1090      1122      4357      4285      4362
 -1      2255    8    0    1
 -2      1089      1119      1125      4273      4363      4364
 -1      2256    8    0    1
 -2      1080      1124      1128      4291      4365      4309
 -1      2257    8    0    1
 -2      1119      1115      1130      4274      4344      4366
 -1      2258    8    0    1
 -2      1125      1127      1089      4304      4322      4364
 -1      2259    8    0    1
 -2      1084      1126      1135      4301      4367      4368
 -1      2260    8    0    1
 -2      1084      1135      1127      4368      4369      4302
 -1      2261    8    0    1
 -2      1135      1126      1134      4367      4359      4370
 -1      2262    8    0    1
 -2      1131      1085      1127      4318      4323      4371
 -1      2263    8    0    1
 -2      1129      1104      1122      4313      4362      4361
 -1      2264    8    0    1
 -2      1134      1128      1124      4360      4365      4372
 -1      2265    8    0    1
 -2      1133      1125      1119      4355      4363      4373
 -1      2266    8    0    1
 -2      1131      1127      1135      4371      4369      4374
 -1      2267    8    0    1
 -2      1132      1131      1135      4356      4374      4375
 -1      2268    8    0    1
 -2      1132      1135      1134      4375      4370      4376
 -1      2269    8    0    1
 -2      1132      1134      1124      4376      4372      4349
 -1      2270    8    0    1
 -2      1133      1119      1130      4373      4366      4354
 -3
    1PSTEP                         1           1           1          
  100CL  101 1.000000000        4376                     0    1           1
 -4  DISP        4    1
 -5  D1          1    2    1    0
 -5  D2          1    2    2    0
 -5  D3          1    2    3    0
 -5  ALL         1    2    0    0    1ALL
 -1         1 4.36770E-03-6.60998E-04-1.54248E-14
 -1         2 8.25944E-03-1.83696E-04-2.31766E-14
 -1         3 1.49665E-02-1.27508E-04-1.02814E-13
 -1         4 1.54323E-02-1.55907E-03-1.07135E-13
 -1         5 0.00000E+00 0.00000E+00 0.00000E+00
 -1         6 0.00000E+00 0.00000E+00 0.00000E+00
 -1         7 0.00000E+00 0.00000E+00 0.00000E+00
 -1         8 0.00000E+00 0.00000E+00 0.00000E+00
 -1         9 0.00000E+00 0.00000E+00 0.00000E+00
 -1        10 0.00000E+00 0.00000E+00 0.00000E+00
 -1        11 0.00000E+00 0.00000E+00 0.00000E+00
 -1        12 0.00000E+00 0.00000E+00 0.00000E+00
 -1        13 0.00000E+00 0.00000E+00 0.00000E+00
 -1        14 0.00000E+00 0.00000E+00 0.00000E+00
 -1        15 0.00000E+00 0.00000E+00 0.00000E+00
 -1        16 0.00000E+00 0.00000E+00 0.00000E+00
 -1        17 0.00000E+00 0.00000E+00 0.00000E+00
 -1        18 0.00000E+00 0.00000E+00 0.00000E+00
 -1        19 0.00000E+00 0.00000E+00 0.00000E+00
 -1        20 0.00000E+00 0.00000E+00 0.00000E+00
 -1        21 0.00000E+00 0.00000E+00 0.00000E+00
 -1        22 0.00000E+00 0.00000E+00 0.00000E+00
 -1        23 4.08227E-04-2.54383E-04 2.96495E-17
 -1        24 7.00739E-04-3.87044E-04-5.84487E-17
 -1        25 9.73968E-04-4.76230E-04-2.60879E-16
 -1        26 1.24408E-03-5.36493E-04-5.74326E-16
 -1        27 1.51614E-03-5.77135E-04-9.96151E-16
 -1        28 1.79303E-03-6.03852E-04-1.52425E-15
 -1        29 2.07681E-03-6.20951E-04-2.15633E-15
 -1        30 2.36923E-03-6.32167E-04-2.89112E-15
 -1        31 2.67198E-03-6.41176E-04-3.72879E-15
 -1        32 2.98664E-03-6.51987E-04-4.66748E-15
 -1        33 3.31458E-03-6.69257E-04-5.70532E-15
 -1        34 3.65642E-03-6.98474E-04-6.83466E-15
 -1        35 4.01127E-03-7.45788E-04-8.05706E-15
 -1        36 4.37555E-03-8.17112E-04-9.37626E-15
 -1        37 4.74182E-03-9.16006E-04-1.07891E-14
 -1        38 5.09858E-03-1.04013E-03-1.22940E-14
 -1        39 5.43251E-03-1.17725E-03-1.38972E-14
 -1        40 5.73419E-03-1.30378E-03-1.55985E-14
 -1        41 6.00531E-03-1.39017E-03-1.74070E-14
 -1        42 6.26153E-03-1.41363E-03-1.93208E-14
 -1        43 6.52635E-03-1.37069E-03-2.13443E-14
 -1        44 6.81891E-03-1.27940E-03-2.34755E-14
 -1        45 7.14525E-03-1.16888E-03-2.57127E-14
 -1        46 7.49872E-03-1.06556E-03-2.80473E-14
 -1        47 7.86656E-03-9.85365E-04-3.04636E-14
 -1        48 8.23650E-03-9.33425E-04-3.29559E-14
 -1        49 8.60003E-03-9.07818E-04-3.55193E-14
 -1        50 8.95275E-03-9.03454E-04-3.81532E-14
 -1        51 9.29336E-03-9.14678E-04-4.08482E-14
 -1        52 9.62240E-03-9.36528E-04-4.36126E-14
 -1        53 9.94131E-03-9.65131E-04-4.64348E-14
 -1        54 1.02518E-02-9.97674E-04-4.93172E-14
 -1        55 1.05556E-02-1.03222E-03-5.22525E-14
 -1        56 1.08542E-02-1.06750E-03-5.52353E-14
 -1        57 1.11488E-02-1.10272E-03-5.82668E-14
 -1        58 1.14405E-02-1.13742E-03-6.13325E-14
 -1        59 1.17300E-02-1.17137E-03-6.44224E-14
 -1        60 1.20180E-02-1.20447E-03-6.75447E-14
 -1        61 1.23049E-02-1.23674E-03-7.06941E-14
 -1        62 1.25912E-02-1.26822E-03-7.38787E-14
 -1        63 1.28769E-02-1.29901E-03-7.71142E-14
 -1        64 1.31625E-02-1.32921E-03-8.03787E-14
 -1        65 1.34479E-02-1.35892E-03-8.36794E-14
 -1        66 1.37332E-02-1.38823E-03-8.70104E-14
 -1        67 1.40186E-02-1.41724E-03-9.03519E-14
 -1        68 1.43041E-02-1.44603E-03-9.36980E-14
 -1        69 1.45896E-02-1.47469E-03-9.70669E-14
 -1        70 1.48752E-02-1.50329E-03-1.00448E-13
 -1        71 1.51609E-02-1.53188E-03-1.03863E-13
 -1        72 4.10670E-04 2.55230E-04 5.01884E-17
 -1        73 7.00766E-04 3.90107E-04-2.35814E-18
 -1        74 9.74703E-04 4.78743E-04-1.55732E-16
 -1        75 1.24501E-03 5.39472E-04-4.11089E-16
 -1        76 1.51692E-03 5.80916E-04-7.69004E-16
 -1        77 1.79325E-03 6.08774E-04-1.22935E-15
 -1        78 2.07583E-03 6.27390E-04-1.79341E-15
 -1        79 2.36599E-03 6.40489E-04-2.45845E-15
 -1        80 2.66475E-03 6.51610E-04-3.21974E-15
 -1        81 2.97278E-03 6.64355E-04-4.07776E-15
 -1        82 3.29017E-03 6.82504E-04-5.03389E-15
 -1        83 3.61608E-03 7.09911E-04-6.07915E-15
 -1        84 3.94826E-03 7.50084E-04-7.21366E-15
 -1        85 4.28262E-03 8.05290E-04-8.43672E-15
 -1        86 4.61305E-03 8.75142E-04-9.75452E-15
 -1        87 4.93222E-03 9.54937E-04-1.11683E-14
 -1        88 5.23341E-03 1.03457E-03-1.26782E-14
 -1        89 5.51351E-03 1.09931E-03-1.42897E-14
 -1        90 5.77567E-03 1.13341E-03-1.60092E-14
 -1        91 6.02954E-03 1.12579E-03-1.78279E-14
 -1        92 6.28818E-03 1.07481E-03-1.97502E-14
 -1        93 6.56285E-03 9.89031E-04-2.17723E-14
 -1        94 6.85893E-03 8.83412E-04-2.39013E-14
 -1        95 7.17517E-03 7.73576E-04-2.61262E-14
 -1        96 7.50579E-03 6.71408E-04-2.84347E-14
 -1        97 7.84355E-03 5.83447E-04-3.08208E-14
 -1        98 8.18206E-03 5.11550E-04-3.32911E-14
 -1        99 8.51682E-03 4.54522E-04-3.58350E-14
 -1       100 8.84533E-03 4.09694E-04-3.84501E-14
 -1       101 9.16664E-03 3.74029E-04-4.11441E-14
 -1       102 9.48084E-03 3.44733E-04-4.38943E-14
 -1       103 9.78861E-03 3.19518E-04-4.67007E-14
 -1       104 1.00909E-02 2.96646E-04-4.95671E-14
 -1       105 1.03887E-02 2.74874E-04-5.24852E-14
 -1       106 1.06829E-02 2.53366E-04-5.54611E-14
 -1       107 1.09745E-02 2.31596E-04-5.84909E-14
 -1       108 1.12640E-02 2.09262E-04-6.15647E-14
 -1       109 1.15520E-02 1.86221E-04-6.46723E-14
 -1       110 1.18390E-02 1.62433E-04-6.78009E-14
 -1       111 1.21252E-02 1.37926E-04-7.09594E-14
 -1       112 1.24111E-02 1.12765E-04-7.41428E-14
 -1       113 1.26966E-02 8.70344E-05-7.73565E-14
 -1       114 1.29820E-02 6.08272E-05-8.05902E-14
 -1       115 1.32674E-02 3.42355E-05-8.38142E-14
 -1       116 1.35528E-02 7.34769E-06-8.70264E-14
 -1       117 1.38383E-02-1.97535E-05-9.02297E-14
 -1       118 1.41238E-02-4.69909E-05-9.34290E-14
 -1       119 1.44094E-02-7.42932E-05-9.66191E-14
 -1       120 1.46951E-02-1.01598E-04-9.98034E-14
 -1       121 1.49933E-02-2.11794E-04-1.03099E-13
 -1       122 1.50201E-02-2.96111E-04-1.03405E-13
 -1       123 1.50469E-02-3.80488E-04-1.03711E-13
 -1       124 1.50737E-02-4.64931E-04-1.04011E-13
 -1       125 1.51006E-02-5.49432E-04-1.04324E-13
 -1       126 1.51272E-02-6.32542E-04-1.04632E-13
 -1       127 1.51544E-02-7.17115E-04-1.04921E-13
 -1       128 1.51817E-02-8.01703E-04-1.05191E-13
 -1       129 1.52092E-02-8.86297E-04-1.05444E-13
 -1       130 1.52368E-02-9.70886E-04-1.05663E-13
 -1       131 1.52646E-02-1.05546E-03-1.05905E-13
 -1       132 1.52921E-02-1.13857E-03-1.06149E-13
 -1       133 1.53201E-02-1.22308E-03-1.06381E-13
 -1       134 1.53483E-02-1.30752E-03-1.06608E-13
 -1       135 1.53765E-02-1.39190E-03-1.06819E-13
 -1       136 1.54047E-02-1.47621E-03-1.06985E-13
 -1       137 8.19631E-03-6.91516E-06-2.30120E-14
 -1       138 8.04126E-03 1.58411E-04-2.26390E-14
 -1       139 7.80708E-03 3.07639E-04-2.20998E-14
 -1       140 7.48552E-03 4.44604E-04-2.13849E-14
 -1       141 7.09260E-03 5.57803E-04-2.05368E-14
 -1       142 6.66283E-03 6.36008E-04-1.96353E-14
 -1       143 6.22085E-03 6.76716E-04-1.87351E-14
 -1       144 5.76545E-03 6.80617E-04-1.78344E-14
 -1       145 5.28771E-03 6.41602E-04-1.69199E-14
 -1       146 4.87959E-03 5.68819E-04-1.61688E-14
 -1       147 4.52656E-03 4.66081E-04-1.55385E-14
 -1       148 4.23244E-03 3.34604E-04-1.50279E-14
 -1       149 4.01173E-03 1.76977E-04-1.46558E-14
 -1       150 3.89490E-03 1.56599E-05-1.44695E-14
 -1       151 3.86945E-03-1.59749E-04-1.44497E-14
 -1       152 3.94332E-03-3.35681E-04-1.46084E-14
 -1       153 4.12289E-03-5.12092E-04-1.49585E-14
 -1       154 4.68192E-03-7.92125E-04-1.60171E-14
 -1       155 5.06147E-03-9.01784E-04-1.67338E-14
 -1       156 5.47161E-03-9.77017E-04-1.75121E-14
 -1       157 5.94178E-03-1.02048E-03-1.84315E-14
 -1       158 6.38046E-03-1.02059E-03-1.92912E-14
 -1       159 6.83325E-03-9.79318E-04-2.02012E-14
 -1       160 7.22112E-03-9.07296E-04-2.09920E-14
 -1       161 7.57040E-03-8.04199E-04-2.17195E-14
 -1       162 7.87859E-03-6.66880E-04-2.23735E-14
 -1       163 8.08923E-03-5.20683E-04-2.28220E-14
 -1       164 8.22477E-03-3.50199E-04-2.31091E-14
 -1       165 2.41617E-04-1.19924E-04-2.17721E-17
 -1       166 2.26792E-04-8.83333E-05-3.76388E-17
 -1       167 2.20647E-04-6.62475E-05-4.63259E-17
 -1       168 2.17103E-04-4.89179E-05-5.10015E-17
 -1       169 2.14811E-04-3.47166E-05-5.33495E-17
 -1       170 2.13267E-04-2.21433E-05-5.42914E-17
 -1       171 2.12378E-04-1.07298E-05-5.43456E-17
 -1       172 2.12101E-04 1.43952E-07-5.40610E-17
 -1       173 2.12426E-04 1.10559E-05-5.31869E-17
 -1       174 2.13353E-04 2.25789E-05-5.15911E-17
 -1       175 2.14888E-04 3.50942E-05-4.90330E-17
 -1       176 2.17224E-04 4.97488E-05-4.47301E-17
 -1       177 2.20779E-04 6.73721E-05-3.80047E-17
 -1       178 2.26930E-04 8.98557E-05-2.69323E-17
 -1       179 2.40541E-04 1.22112E-04-8.31448E-18
 -1       180 2.97870E-04 1.79811E-04 1.15908E-17
 -1       181 4.69915E-04-2.53108E-04-5.97700E-17
 -1       182 7.70589E-04-3.63295E-04-2.26781E-16
 -1       183 1.05881E-03-4.37269E-04-5.00353E-16
 -1       184 1.34280E-03-4.86788E-04-8.79884E-16
 -1       185 1.62676E-03-5.19030E-04-1.36367E-15
 -1       186 1.91348E-03-5.39056E-04-1.95029E-15
 -1       187 2.20500E-03-5.50907E-04-2.63915E-15
 -1       188 2.50296E-03-5.58281E-04-3.42816E-15
 -1       189 2.80875E-03-5.65002E-04-4.31683E-15
 -1       190 3.12355E-03-5.75429E-04-5.30404E-15
 -1       191 3.44813E-03-5.94763E-04-6.38507E-15
 -1       192 3.78259E-03-6.29170E-04-7.55833E-15
 -1       193 4.12585E-03-6.85381E-04-8.82589E-15
 -1       194 4.47507E-03-7.69296E-04-1.01860E-14
 -1       195 4.82518E-03-8.82997E-04-1.16402E-14
 -1       196 5.16918E-03-1.02029E-03-1.31880E-14
 -1       197 5.50001E-03-1.16259E-03-1.48320E-14
 -1       198 5.81423E-03-1.27969E-03-1.65787E-14
 -1       199 6.11578E-03-1.34001E-03-1.84326E-14
 -1       200 6.41561E-03-1.32719E-03-2.03927E-14
 -1       201 6.72579E-03-1.25031E-03-2.24638E-14
 -1       202 7.05273E-03-1.13822E-03-2.46402E-14
 -1       203 7.39500E-03-1.02311E-03-2.69192E-14
 -1       204 7.74625E-03-9.27659E-04-2.92888E-14
 -1       205 8.09929E-03-8.61663E-04-3.17334E-14
 -1       206 8.44849E-03-8.25247E-04-3.42510E-14
 -1       207 8.79052E-03-8.13604E-04-3.68393E-14
 -1       208 9.12394E-03-8.20520E-04-3.94951E-14
 -1       209 9.44868E-03-8.40245E-04-4.22188E-14
 -1       210 9.76544E-03-8.68183E-04-4.50077E-14
 -1       211 1.00752E-02-9.00959E-04-4.78562E-14
 -1       212 1.03793E-02-9.36239E-04-5.07597E-14
 -1       213 1.06786E-02-9.72485E-04-5.37090E-14
 -1       214 1.09742E-02-1.00874E-03-5.67065E-14
 -1       215 1.12670E-02-1.04443E-03-5.97484E-14
 -1       216 1.15576E-02-1.07929E-03-6.28222E-14
 -1       217 1.18466E-02-1.11319E-03-6.59249E-14
 -1       218 1.21344E-02-1.14613E-03-6.90569E-14
 -1       219 1.24213E-02-1.17817E-03-7.22207E-14
 -1       220 1.27077E-02-1.20941E-03-7.54247E-14
 -1       221 1.29938E-02-1.23996E-03-7.86675E-14
 -1       222 1.32796E-02-1.26993E-03-8.19405E-14
 -1       223 1.35652E-02-1.29945E-03-8.52390E-14
 -1       224 1.38508E-02-1.32860E-03-8.85653E-14
 -1       225 1.41364E-02-1.35748E-03-9.19002E-14
 -1       226 1.44220E-02-1.38619E-03-9.52509E-14
 -1       227 1.47076E-02-1.41479E-03-9.86228E-14
 -1       228 1.49933E-02-1.44336E-03-1.02019E-13
 -1       229 6.06153E-04 3.17688E-04-5.79608E-17
 -1       230 8.98397E-04 4.11092E-04-2.22228E-16
 -1       231 1.18242E-03 4.74397E-04-4.85258E-16
 -1       232 1.46423E-03 5.17005E-04-8.48117E-16
 -1       233 1.74733E-03 5.45058E-04-1.31225E-15
 -1       234 2.03398E-03 5.63131E-04-1.87826E-15
 -1       235 2.32571E-03 5.75081E-04-2.54347E-15
 -1       236 2.62361E-03 5.84524E-04-3.30487E-15
 -1       237 2.92839E-03 5.95138E-04-4.16061E-15
 -1       238 3.24024E-03 6.10819E-04-5.11177E-15
 -1       239 3.55870E-03 6.35634E-04-6.15414E-15
 -1       240 3.88237E-03 6.73454E-04-7.28553E-15
 -1       241 4.20865E-03 7.27090E-04-8.50679E-15
 -1       242 4.53374E-03 7.96839E-04-9.81921E-15
 -1       243 4.85297E-03 8.78631E-04-1.12261E-14
 -1       244 5.16196E-03 9.62573E-04-1.27296E-14
 -1       245 5.45835E-03 1.03333E-03-1.43353E-14
 -1       246 5.74355E-03 1.07366E-03-1.60451E-14
 -1       247 6.02309E-03 1.07062E-03-1.78552E-14
 -1       248 6.30489E-03 1.02137E-03-1.97711E-14
 -1       249 6.59606E-03 9.34462E-04-2.17874E-14
 -1       250 6.90014E-03 8.25881E-04-2.39078E-14
 -1       251 7.21655E-03 7.12573E-04-2.61230E-14
 -1       252 7.54177E-03 6.07424E-04-2.84241E-14
 -1       253 7.87122E-03 5.17444E-04-3.08082E-14
 -1       254 8.20074E-03 4.44541E-04-3.32730E-14
 -1       255 8.52727E-03 3.87334E-04-3.58131E-14
 -1       256 8.84901E-03 3.42899E-04-3.84221E-14
 -1       257 9.16520E-03 3.07961E-04-4.11036E-14
 -1       258 9.47579E-03 2.79542E-04-4.38488E-14
 -1       259 9.78122E-03 2.55228E-04-4.66534E-14
 -1       260 1.00821E-02 2.33202E-04-4.95142E-14
 -1       261 1.03793E-02 2.12182E-04-5.24298E-14
 -1       262 1.06733E-02 1.91315E-04-5.54002E-14
 -1       263 1.09650E-02 1.70073E-04-5.84213E-14
 -1       264 1.12548E-02 1.48163E-04-6.14840E-14
 -1       265 1.15432E-02 1.25454E-04-6.45798E-14
 -1       266 1.18306E-02 1.01921E-04-6.77063E-14
 -1       267 1.21173E-02 7.76031E-05-7.08608E-14
 -1       268 1.24035E-02 5.25792E-05-7.40455E-14
 -1       269 1.26894E-02 2.69450E-05-7.72548E-14
 -1       270 1.29751E-02 8.01659E-07-8.04841E-14
 -1       271 1.32607E-02-2.57510E-05-8.37101E-14
 -1       272 1.35462E-02-5.26187E-05-8.69223E-14
 -1       273 1.38318E-02-7.97139E-05-9.01287E-14
 -1       274 1.41174E-02-1.06956E-04-9.33340E-14
 -1       275 1.44030E-02-1.34269E-04-9.65307E-14
 -1       276 1.46887E-02-1.61587E-04-9.97152E-14
 -1       277 1.47593E-02-2.30332E-04-1.00492E-13
 -1       278 1.47860E-02-3.14664E-04-1.00786E-13
 -1       279 1.48128E-02-3.99032E-04-1.01078E-13
 -1       280 1.48397E-02-4.83433E-04-1.01368E-13
 -1       281 1.48662E-02-5.66430E-04-1.01649E-13
 -1       282 1.48933E-02-6.50876E-04-1.01928E-13
 -1       283 1.49205E-02-7.35334E-04-1.02198E-13
 -1       284 1.49479E-02-8.19797E-04-1.02453E-13
 -1       285 1.49755E-02-9.04260E-04-1.02694E-13
 -1       286 1.50032E-02-9.88719E-04-1.02917E-13
 -1       287 1.50306E-02-1.07174E-03-1.03134E-13
 -1       288 1.50586E-02-1.15617E-03-1.03347E-13
 -1       289 1.50867E-02-1.24057E-03-1.03553E-13
 -1       290 1.51149E-02-1.32494E-03-1.03747E-13
 -1       291 1.50541E-02-1.38416E-03-1.02888E-13
 -1       292 8.26268E-03-1.47643E-04-2.41413E-14
 -1       293 8.10949E-03-3.58152E-05-2.36876E-14
 -1       294 7.85297E-03 9.56913E-05-2.31326E-14
 -1       295 7.51845E-03 2.57218E-04-2.23673E-14
 -1       296 7.11731E-03 4.32561E-04-2.14808E-14
 -1       297 6.73040E-03 6.03796E-04-2.03830E-14
 -1       298 6.36043E-03 7.16821E-04-1.92931E-14
 -1       299 5.99494E-03 7.60988E-04-1.82306E-14
 -1       300 5.61992E-03 7.19963E-04-1.71501E-14
 -1       301 5.22337E-03 5.99255E-04-1.62184E-14
 -1       302 4.85031E-03 4.46512E-04-1.54311E-14
 -1       303 4.49137E-03 2.82762E-04-1.47875E-14
 -1       304 4.17715E-03 1.19359E-04-1.42196E-14
 -1       305 3.94703E-03 7.74895E-06-1.39889E-14
 -1       306 3.84305E-03-9.20215E-05-1.38357E-14
 -1       307 3.87823E-03-1.87608E-04-1.39520E-14
 -1       308 4.05475E-03-2.93121E-04-1.41546E-14
 -1       309 4.33119E-03-4.47762E-04-1.46840E-14
 -1       310 4.66394E-03-6.12533E-04-1.52766E-14
 -1       311 5.04105E-03-7.87289E-04-1.59933E-14
 -1       312 5.40812E-03-9.49196E-04-1.68736E-14
 -1       313 5.79956E-03-1.07225E-03-1.78236E-14
 -1       314 6.15493E-03-1.10046E-03-1.88974E-14
 -1       315 6.51108E-03-1.05997E-03-1.99741E-14
 -1       316 6.88596E-03-9.41478E-04-2.09671E-14
 -1       317 7.24439E-03-7.90442E-04-2.18884E-14
 -1       318 7.59544E-03-6.10955E-04-2.28278E-14
 -1       319 7.92218E-03-4.65639E-04-2.34102E-14
 -1       320 8.15614E-03-3.34814E-04-2.39247E-14
 -1       321 8.27742E-03-2.35239E-04-2.41394E-14
 -1       322 4.58178E-04-1.51573E-04-1.57480E-16
 -1       323 4.77683E-04-2.00209E-04-1.31785E-16
 -1       324 4.39834E-04-8.27993E-05-1.81939E-16
 -1       325 4.35001E-04-5.61877E-05-1.86401E-16
 -1       326 4.31957E-04-3.24712E-05-1.88068E-16
 -1       327 4.30508E-04-1.03646E-05-1.87896E-16
 -1       328 4.30594E-04 1.12761E-05-1.86117E-16
 -1       329 4.32199E-04 3.35486E-05-1.82448E-16
 -1       330 4.35296E-04 5.71517E-05-1.76234E-16
 -1       331 4.40191E-04 8.41415E-05-1.66554E-16
 -1       332 4.47456E-04 1.15742E-04-1.52273E-16
 -1       333 4.58768E-04 1.54384E-04-1.30884E-16
 -1       334 4.79221E-04 2.04559E-04-9.84015E-17
 -1       335 5.35039E-04 2.57054E-04-8.39647E-17
 -1       336 8.30553E-04 3.52237E-04-2.54167E-16
 -1       337 8.70663E-04-3.33274E-04-4.14897E-16
 -1       338 1.16151E-03-3.92643E-04-7.55130E-16
 -1       339 1.45050E-03-4.31991E-04-1.19750E-15
 -1       340 1.73959E-03-4.56691E-04-1.74081E-15
 -1       341 2.03046E-03-4.71032E-04-2.38482E-15
 -1       342 2.32453E-03-4.78757E-04-3.12809E-15
 -1       343 2.62302E-03-4.83519E-04-3.96882E-15
 -1       344 2.92705E-03-4.89276E-04-4.90671E-15
 -1       345 3.23770E-03-5.00671E-04-5.94028E-15
 -1       346 3.55601E-03-5.23309E-04-7.06558E-15
 -1       347 3.88292E-03-5.63792E-04-8.28278E-15
 -1       348 4.21901E-03-6.29169E-04-9.59211E-15
 -1       349 4.56380E-03-7.25184E-04-1.09936E-14
 -1       350 4.91454E-03-8.52564E-04-1.24887E-14
 -1       351 5.26519E-03-1.00146E-03-1.40753E-14
 -1       352 5.60791E-03-1.14607E-03-1.57592E-14
 -1       353 5.93837E-03-1.24808E-03-1.75494E-14
 -1       354 6.26162E-03-1.27386E-03-1.94471E-14
 -1       355 6.58923E-03-1.21827E-03-2.14575E-14
 -1       356 6.92896E-03-1.10816E-03-2.35769E-14
 -1       357 7.27895E-03-9.83223E-04-2.58013E-14
 -1       358 7.63179E-03-8.73899E-04-2.81204E-14
 -1       359 7.98062E-03-7.94728E-04-3.05200E-14
 -1       360 8.32180E-03-7.47682E-04-3.29938E-14
 -1       361 8.65435E-03-7.28306E-04-3.55391E-14
 -1       362 8.97869E-03-7.30090E-04-3.81524E-14
 -1       363 9.29573E-03-7.46758E-04-4.08364E-14
 -1       364 9.60651E-03-7.73168E-04-4.35857E-14
 -1       365 9.91198E-03-8.05467E-04-4.63970E-14
 -1       366 1.02131E-02-8.40941E-04-4.92673E-14
 -1       367 1.05105E-02-8.77770E-04-5.21915E-14
 -1       368 1.08051E-02-9.14798E-04-5.51572E-14
 -1       369 1.10974E-02-9.51335E-04-5.81708E-14
 -1       370 1.13878E-02-9.87011E-04-6.12228E-14
 -1       371 1.16769E-02-1.02167E-03-6.43070E-14
 -1       372 1.19649E-02-1.05527E-03-6.74260E-14
 -1       373 1.22522E-02-1.08788E-03-7.05693E-14
 -1       374 1.25389E-02-1.11960E-03-7.37476E-14
 -1       375 1.28252E-02-1.15053E-03-7.69638E-14
 -1       376 1.31112E-02-1.18081E-03-8.02137E-14
 -1       377 1.33971E-02-1.21056E-03-8.34920E-14
 -1       378 1.36828E-02-1.23988E-03-8.67898E-14
 -1       379 1.39685E-02-1.26888E-03-9.01094E-14
 -1       380 1.42542E-02-1.29765E-03-9.34456E-14
 -1       381 1.45399E-02-1.32628E-03-9.67995E-14
 -1       382 1.47970E-02-1.35522E-03-9.98318E-14
 -1       383 1.12053E-03 4.17870E-04-5.20373E-16
 -1       384 1.40763E-03 4.62090E-04-8.84499E-16
 -1       385 1.69456E-03 4.90985E-04-1.34851E-15
 -1       386 1.98336E-03 5.09215E-04-1.91242E-15
 -1       387 2.27554E-03 5.20701E-04-2.57497E-15
 -1       388 2.57222E-03 5.29089E-04-3.33294E-15
 -1       389 2.87420E-03 5.38062E-04-4.18440E-15
 -1       390 3.18197E-03 5.51534E-04-5.12949E-15
 -1       391 3.49559E-03 5.73654E-04-6.16594E-15
 -1       392 3.81451E-03 6.08523E-04-7.29143E-15
 -1       393 4.13740E-03 6.59434E-04-8.50625E-15
 -1       394 4.46188E-03 7.27485E-04-9.81140E-15
 -1       395 4.78450E-03 8.09635E-04-1.12101E-14
 -1       396 5.10135E-03 8.96824E-04-1.27047E-14
 -1       397 5.40938E-03 9.73640E-04-1.43000E-14
 -1       398 5.70835E-03 1.02135E-03-1.59990E-14
 -1       399 6.00200E-03 1.02461E-03-1.77985E-14
 -1       400 6.29680E-03 9.78630E-04-1.97042E-14
 -1       401 6.59870E-03 8.91728E-04-2.17140E-14
 -1       402 6.91035E-03 7.81014E-04-2.38241E-14
 -1       403 7.23061E-03 6.64909E-04-2.60294E-14
 -1       404 7.55607E-03 5.57284E-04-2.83225E-14
 -1       405 7.88293E-03 4.65551E-04-3.06995E-14
 -1       406 8.20814E-03 3.91630E-04-3.31575E-14
 -1       407 8.52972E-03 3.34000E-04-3.56910E-14
 -1       408 8.84665E-03 2.89569E-04-3.82908E-14
 -1       409 9.15864E-03 2.54910E-04-4.09639E-14
 -1       410 9.46585E-03 2.26930E-04-4.37020E-14
 -1       411 9.76872E-03 2.03126E-04-4.65020E-14
 -1       412 1.00678E-02 1.81622E-04-4.93587E-14
 -1       413 1.03637E-02 1.61099E-04-5.22687E-14
 -1       414 1.06570E-02 1.40680E-04-5.52331E-14
 -1       415 1.09483E-02 1.19828E-04-5.82456E-14
 -1       416 1.12379E-02 9.82472E-05-6.13004E-14
 -1       417 1.15263E-02 7.58083E-05-6.43882E-14
 -1       418 1.18138E-02 5.24914E-05-6.75083E-14
 -1       419 1.21006E-02 2.83438E-05-7.06616E-14
 -1       420 1.23870E-02 3.45013E-06-7.38450E-14
 -1       421 1.26731E-02-2.20872E-05-7.70509E-14
 -1       422 1.29589E-02-4.81607E-05-8.02766E-14
 -1       423 1.32446E-02-7.46657E-05-8.35025E-14
 -1       424 1.35303E-02-1.01503E-04-8.67159E-14
 -1       425 1.38159E-02-1.28583E-04-8.99266E-14
 -1       426 1.41016E-02-1.55821E-04-9.31356E-14
 -1       427 1.43872E-02-1.83141E-04-9.63382E-14
 -1       428 1.45733E-02-2.06741E-04-9.84172E-14
 -1       429 1.45788E-02-4.17474E-04-9.84289E-14
 -1       430 1.45520E-02-3.33140E-04-9.81485E-14
 -1       431 1.45626E-02-2.69937E-04-9.82846E-14
 -1       432 1.46052E-02-5.00387E-04-9.86952E-14
 -1       433 1.46323E-02-5.84733E-04-9.89568E-14
 -1       434 1.46594E-02-6.69078E-04-9.92114E-14
 -1       435 1.46868E-02-7.53422E-04-9.94610E-14
 -1       436 1.47142E-02-8.37765E-04-9.97055E-14
 -1       437 1.47419E-02-9.22110E-04-9.99336E-14
 -1       438 1.47692E-02-1.00503E-03-1.00142E-13
 -1       439 1.47971E-02-1.08937E-03-1.00339E-13
 -1       440 1.48252E-02-1.17372E-03-1.00528E-13
 -1       441 1.48534E-02-1.25805E-03-1.00707E-13
 -1       442 7.97220E-03-3.93954E-05-2.42797E-14
 -1       443 8.31020E-03-2.01727E-04-2.54563E-14
 -1       444 8.19740E-03-1.37393E-04-2.50225E-14
 -1       445 7.63543E-03 9.34958E-05-2.37289E-14
 -1       446 7.30369E-03 2.60187E-04-2.27979E-14
 -1       447 4.47013E-04-1.13780E-04-1.72879E-16
 -1       448 6.47769E-03 6.85645E-04-2.00134E-14
 -1       449 6.16500E-03 7.76448E-04-1.88282E-14
 -1       450 5.83564E-03 7.86018E-04-1.75492E-14
 -1       451 5.45352E-03 6.67504E-04-1.62274E-14
 -1       452 5.15591E-03 5.27670E-04-1.54444E-14
 -1       453 4.72837E-03 3.15748E-04-1.45816E-14
 -1       454 4.38227E-03 1.49139E-04-1.39415E-14
 -1       455 4.03566E-03-1.93745E-06-1.32834E-14
 -1       456 3.87108E-03-6.62181E-05-1.32916E-14
 -1       457 3.82633E-03-1.25328E-04-1.31892E-14
 -1       458 3.93576E-03-1.85536E-04-1.33883E-14
 -1       459 4.22624E-03-3.06597E-04-1.38429E-14
 -1       460 4.54655E-03-4.61803E-04-1.44662E-14
 -1       461 4.90905E-03-6.48596E-04-1.51741E-14
 -1       462 5.30776E-03-8.64495E-04-1.61367E-14
 -1       463 5.63228E-03-1.02044E-03-1.70562E-14
 -1       464 6.03926E-03-1.13626E-03-1.84858E-14
 -1       465 6.30734E-03-1.12634E-03-1.95540E-14
 -1       466 6.67071E-03-1.00908E-03-2.08791E-14
 -1       467 6.96761E-03-8.69380E-04-2.18066E-14
 -1       468 7.34092E-03-6.70211E-04-2.29848E-14
 -1       469 7.75025E-03-4.65016E-04-2.40792E-14
 -1       470 8.01635E-03-3.50716E-04-2.46059E-14
 -1       471 8.24469E-03-2.52790E-04-2.52025E-14
 -1       472 6.83663E-03 5.10698E-04-2.13549E-14
 -1       473 5.86239E-03-1.11037E-03-1.76983E-14
 -1       474 9.39131E-04 3.19814E-04-4.47396E-16
 -1       475 6.59348E-04-6.46347E-05-3.98051E-16
 -1       476 6.66220E-04-1.00969E-04-3.92481E-16
 -1       477 6.54210E-04 5.79662E-07-3.97635E-16
 -1       478 6.55729E-04 3.26148E-05-3.92291E-16
 -1       479 6.59860E-04 6.56989E-05-3.82737E-16
 -1       480 6.66880E-04 1.02522E-04-3.68114E-16
 -1       481 6.77230E-04 1.44296E-04-3.46836E-16
 -1       482 6.92253E-04 1.93150E-04-3.16058E-16
 -1       483 1.22898E-03 3.71354E-04-7.81232E-16
 -1       484 9.83992E-04-2.99717E-04-6.24395E-16
 -1       485 7.06057E-03 3.72690E-04-2.28557E-14
 -1       486 1.27317E-03-3.45039E-04-1.02669E-15
 -1       487 1.56243E-03-3.74783E-04-1.52846E-15
 -1       488 1.85204E-03-3.92678E-04-2.12931E-15
 -1       489 2.14266E-03-4.02247E-04-2.82820E-15
 -1       490 2.43502E-03-4.06861E-04-3.62358E-15
 -1       491 2.72998E-03-4.10002E-04-4.51414E-15
 -1       492 3.02856E-03-4.15578E-04-5.49950E-15
 -1       493 3.33216E-03-4.28234E-04-6.57782E-15
 -1       494 3.64281E-03-4.53636E-04-7.74743E-15
 -1       495 3.96331E-03-4.98596E-04-9.00684E-15
 -1       496 4.29696E-03-5.70783E-04-1.03568E-14
 -1       497 4.64614E-03-6.77060E-04-1.17968E-14
 -1       498 5.00927E-03-8.19101E-04-1.33286E-14
 -1       499 5.37700E-03-9.84298E-04-1.49519E-14
 -1       500 5.73820E-03-1.13398E-03-1.66760E-14
 -1       501 6.08439E-03-1.21392E-03-1.85111E-14
 -1       502 6.42985E-03-1.19017E-03-2.04578E-14
 -1       503 6.78663E-03-1.08124E-03-2.25203E-14
 -1       504 7.15384E-03-9.41987E-04-2.46923E-14
 -1       505 7.52034E-03-8.16513E-04-2.69621E-14
 -1       506 7.87501E-03-7.25524E-04-2.93172E-14
 -1       507 8.21434E-03-6.70426E-04-3.17478E-14
 -1       508 8.53984E-03-6.45444E-04-3.42506E-14
 -1       509 8.85477E-03-6.43214E-04-3.68221E-14
 -1       510 9.16215E-03-6.57061E-04-3.94625E-14
 -1       511 9.46420E-03-6.81627E-04-4.21705E-14
 -1       512 9.76244E-03-7.12879E-04-4.49434E-14
 -1       513 1.00578E-02-7.47919E-04-4.77799E-14
 -1       514 1.03510E-02-7.84753E-04-5.06731E-14
 -1       515 1.06425E-02-8.22074E-04-5.36118E-14
 -1       516 1.09326E-02-8.59069E-04-5.65960E-14
 -1       517 1.12216E-02-8.95279E-04-5.96247E-14
 -1       518 1.15097E-02-9.30481E-04-6.26891E-14
 -1       519 1.17972E-02-9.64609E-04-6.57874E-14
 -1       520 1.20842E-02-9.97692E-04-6.89211E-14
 -1       521 1.23708E-02-1.02982E-03-7.20788E-14
 -1       522 1.26570E-02-1.06110E-03-7.52694E-14
 -1       523 1.29431E-02-1.09166E-03-7.84967E-14
 -1       524 1.32290E-02-1.12163E-03-8.17509E-14
 -1       525 1.35149E-02-1.15113E-03-8.50267E-14
 -1       526 1.38007E-02-1.18025E-03-8.83263E-14
 -1       527 1.40864E-02-1.20910E-03-9.16457E-14
 -1       528 1.43721E-02-1.23777E-03-9.49794E-14
 -1       529 1.80803E-03 4.27822E-04-1.74068E-15
 -1       530 2.09906E-03 4.41046E-04-2.36654E-15
 -1       531 2.39244E-03 4.49141E-04-3.08746E-15
 -1       532 2.68909E-03 4.55620E-04-3.90148E-15
 -1       533 2.98990E-03 4.64168E-04-4.80879E-15
 -1       534 3.29571E-03 4.78768E-04-5.80715E-15
 -1       535 3.60732E-03 5.03685E-04-6.89460E-15
 -1       536 3.92523E-03 5.43115E-04-8.07093E-15
 -1       537 4.24929E-03 6.00312E-04-9.33525E-15
 -1       538 4.57800E-03 6.75924E-04-1.06901E-14
 -1       539 4.90793E-03 7.65498E-04-1.21388E-14
 -1       540 5.23411E-03 8.56892E-04-1.36843E-14
 -1       541 5.55227E-03 9.30086E-04-1.53328E-14
 -1       542 5.86235E-03 9.62528E-04-1.70837E-14
 -1       543 6.16974E-03 9.39939E-04-1.89390E-14
 -1       544 6.48199E-03 8.64767E-04-2.09012E-14
 -1       545 6.80313E-03 7.54942E-04-2.29663E-14
 -1       546 7.13165E-03 6.33234E-04-2.51286E-14
 -1       547 7.46275E-03 5.17731E-04-2.73804E-14
 -1       548 7.79180E-03 4.18379E-04-2.97198E-14
 -1       549 8.11599E-03 3.38127E-04-3.21432E-14
 -1       550 8.43430E-03 2.75685E-04-3.46416E-14
 -1       551 8.74685E-03 2.27860E-04-3.72076E-14
 -1       552 9.05425E-03 1.91013E-04-3.98445E-14
 -1       553 9.35726E-03 1.61801E-04-4.25520E-14
 -1       554 9.65661E-03 1.37482E-04-4.53214E-14
 -1       555 9.95294E-03 1.15969E-04-4.81533E-14
 -1       556 1.02468E-02 9.57638E-05-5.10415E-14
 -1       557 1.05387E-02 7.58533E-05-5.39796E-14
 -1       558 1.08291E-02 5.55978E-05-5.69680E-14
 -1       559 1.11182E-02 3.46314E-05-5.99984E-14
 -1       560 1.14063E-02 1.27794E-05-6.30643E-14
 -1       561 1.16937E-02-1.00049E-05-6.61664E-14
 -1       562 1.19805E-02-3.36877E-05-6.93060E-14
 -1       563 1.22670E-02-5.81885E-05-7.24762E-14
 -1       564 1.25532E-02-8.34034E-05-7.56710E-14
 -1       565 1.28392E-02-1.09220E-04-7.88834E-14
 -1       566 1.31250E-02-1.35528E-04-8.21114E-14
 -1       567 1.34108E-02-1.62222E-04-8.53302E-14
 -1       568 1.36965E-02-1.89206E-04-8.85459E-14
 -1       569 1.39822E-02-2.16392E-04-9.17580E-14
 -1       570 1.42679E-02-2.43700E-04-9.49757E-14
 -1       571 1.43713E-02-5.18686E-04-9.60033E-14
 -1       572 1.43984E-02-6.02934E-04-9.62466E-14
 -1       573 1.43179E-02-3.51568E-04-9.54948E-14
 -1       574 1.43445E-02-4.35135E-04-9.57550E-14
 -1       575 1.44256E-02-6.87166E-04-9.64846E-14
 -1       576 1.44530E-02-7.71389E-04-9.67201E-14
 -1       577 1.44806E-02-8.55613E-04-9.69453E-14
 -1       578 1.45078E-02-9.38419E-04-9.71551E-14
 -1       579 1.45357E-02-1.02267E-03-9.73475E-14
 -1       580 1.45637E-02-1.10694E-03-9.75279E-14
 -1       581 1.45918E-02-1.19122E-03-9.76989E-14
 -1       582 8.31129E-03-1.86851E-04-2.67681E-14
 -1       583 7.86847E-03-3.03238E-05-2.51977E-14
 -1       584 1.51836E-03 4.05892E-04-1.21201E-15
 -1       585 8.33128E-03-2.29763E-04-2.67636E-14
 -1       586 7.46399E-03 1.53784E-04-2.41276E-14
 -1       587 7.17616E-04-2.31146E-04-3.52061E-16
 -1       588 7.12529E-03-7.74979E-04-2.30180E-14
 -1       589 5.13153E-03-7.44487E-04-1.51917E-14
 -1       590 5.64247E-03 7.52770E-04-1.66011E-14
 -1       591 6.55397E-04-3.13263E-05-3.99654E-16
 -1       592 6.03802E-03 8.09279E-04-1.83413E-14
 -1       593 4.56011E-03 2.15397E-04-1.36498E-14
 -1       594 6.29296E-03 7.57830E-04-1.95093E-14
 -1       595 5.28391E-03 5.93421E-04-1.53405E-14
 -1       596 7.54516E-03-5.50105E-04-2.43792E-14
 -1       597 4.92834E-03 4.02864E-04-1.44522E-14
 -1       598 4.20590E-03 5.99561E-05-1.30018E-14
 -1       599 3.88039E-03-5.60576E-05-1.24556E-14
 -1       600 3.78866E-03-9.70589E-05-1.23583E-14
 -1       601 3.84018E-03-1.36212E-04-1.25547E-14
 -1       602 4.04660E-03-2.09682E-04-1.29082E-14
 -1       603 4.39961E-03-3.55497E-04-1.35777E-14
 -1       604 4.73567E-03-5.23504E-04-1.42993E-14
 -1       605 5.47311E-03-9.39132E-04-1.61822E-14
 -1       606 6.17758E-03-1.15948E-03-1.90641E-14
 -1       607 6.50793E-03-1.08736E-03-2.05820E-14
 -1       608 6.86408E-03-9.18675E-04-2.20528E-14
 -1       609 7.91481E-03-3.79904E-04-2.53502E-14
 -1       610 8.18753E-03-2.78055E-04-2.61506E-14
 -1       611 6.59511E-03 6.28662E-04-2.08319E-14
 -1       612 7.09276E-04 2.71674E-04-2.40446E-16
 -1       613 8.11354E-03-1.21813E-04-2.59542E-14
 -1       614 6.76447E-04-1.41955E-04-3.80785E-16
 -1       615 6.94487E-04-1.83008E-04-3.70424E-16
 -1       616 5.68517E-03-1.05567E-03-1.67973E-14
 -1       617 3.98951E-03-5.84748E-06-1.21781E-14
 -1       618 5.83906E-03 8.13513E-04-1.73590E-14
 -1       619 1.45658E-02-1.25876E-03-9.72505E-14
 -1       620 8.87712E-04 6.23738E-05-6.67025E-16
 -1       621 8.83410E-04 2.06197E-05-6.78971E-16
 -1       622 9.08534E-04 1.55621E-04-6.21221E-16
 -1       623 9.26055E-04 2.11083E-04-5.83240E-16
 -1       624 1.05534E-03 2.83592E-04-6.66750E-16
 -1       625 3.74695E-03-1.09254E-04-1.16548E-14
 -1       626 8.03014E-03-8.32531E-05-2.66892E-14
 -1       627 8.31179E-03-2.63245E-04-2.77025E-14
 -1       628 7.02557E-03-8.59013E-04-2.31780E-14
 -1       629 1.38841E-03-2.95478E-04-1.31598E-15
 -1       630 1.67537E-03-3.16705E-04-1.87428E-15
 -1       631 1.96245E-03-3.28781E-04-2.52941E-15
 -1       632 2.24956E-03-3.34558E-04-3.28071E-15
 -1       633 2.53693E-03-3.36960E-04-4.12580E-15
 -1       634 2.82510E-03-3.39114E-04-5.06464E-15
 -1       635 3.11514E-03-3.44568E-04-6.09620E-15
 -1       636 3.40900E-03-3.57572E-04-7.21806E-15
 -1       637 3.71002E-03-3.83481E-04-8.42967E-15
 -1       638 4.02338E-03-4.29372E-04-9.72987E-15
 -1       639 4.35529E-03-5.04869E-04-1.11172E-14
 -1       640 4.71452E-03-6.20553E-04-1.25922E-14
 -1       641 5.09645E-03-7.83579E-04-1.41575E-14
 -1       642 6.25544E-03-1.17936E-03-1.94699E-14
 -1       643 6.63858E-03-1.07023E-03-2.14695E-14
 -1       644 7.78805E-03-6.48298E-04-2.81216E-14
 -1       645 8.12778E-03-5.88529E-04-3.05101E-14
 -1       646 8.44628E-03-5.61969E-04-3.29717E-14
 -1       647 8.75052E-03-5.58644E-04-3.55017E-14
 -1       648 9.04623E-03-5.71220E-04-3.80976E-14
 -1       649 9.33724E-03-5.94422E-04-4.07639E-14
 -1       650 9.62583E-03-6.24443E-04-4.34961E-14
 -1       651 9.91324E-03-6.58535E-04-4.62963E-14
 -1       652 1.02001E-02-6.94746E-04-4.91554E-14
 -1       653 1.04866E-02-7.31739E-04-5.20659E-14
 -1       654 1.07731E-02-7.68641E-04-5.50230E-14
 -1       655 1.10594E-02-8.04924E-04-5.80280E-14
 -1       656 1.13456E-02-8.40303E-04-6.10726E-14
 -1       657 1.16317E-02-8.74664E-04-6.41532E-14
 -1       658 1.19177E-02-9.08001E-04-6.72700E-14
 -1       659 1.22037E-02-9.40375E-04-7.04132E-14
 -1       660 1.24896E-02-9.71888E-04-7.35859E-14
 -1       661 1.27755E-02-1.00265E-03-7.67871E-14
 -1       662 1.30613E-02-1.03280E-03-8.00197E-14
 -1       663 1.33471E-02-1.06243E-03-8.32743E-14
 -1       664 1.36329E-02-1.09165E-03-8.65529E-14
 -1       665 1.39186E-02-1.12058E-03-8.98498E-14
 -1       666 1.42044E-02-1.14928E-03-9.31693E-14
 -1       667 2.21140E-03 3.72175E-04-2.83572E-15
 -1       668 1.43981E-02-1.17027E-03-9.54270E-14
 -1       669 1.92121E-03 3.63383E-04-2.15066E-15
 -1       670 2.79760E-03 3.82134E-04-4.48320E-15
 -1       671 3.09568E-03 3.90066E-04-5.44392E-15
 -1       672 3.39904E-03 4.05066E-04-6.49388E-15
 -1       673 3.70959E-03 4.31516E-04-7.63203E-15
 -1       674 4.02925E-03 4.74026E-04-8.85697E-15
 -1       675 4.35914E-03 5.36613E-04-1.01706E-14
 -1       676 4.69809E-03 6.20601E-04-1.15750E-14
 -1       677 5.04113E-03 7.20695E-04-1.30710E-14
 -1       678 5.38016E-03 8.20066E-04-1.46670E-14
 -1       679 5.70886E-03 8.89782E-04-1.63661E-14
 -1       680 6.02949E-03 9.00251E-04-1.81716E-14
 -1       681 6.35115E-03 8.41562E-04-2.00849E-14
 -1       682 6.68313E-03 7.31346E-04-2.21043E-14
 -1       683 7.02448E-03 6.00091E-04-2.42254E-14
 -1       684 7.36742E-03 4.74354E-04-2.64382E-14
 -1       685 7.70458E-03 3.67307E-04-2.87411E-14
 -1       686 8.03215E-03 2.82125E-04-3.11282E-14
 -1       687 8.34976E-03 2.16598E-04-3.35915E-14
 -1       688 8.65890E-03 1.66791E-04-3.61246E-14
 -1       689 8.96152E-03 1.28632E-04-3.87264E-14
 -1       690 9.25939E-03 9.85773E-05-4.14004E-14
 -1       691 9.55387E-03 7.37841E-05-4.41433E-14
 -1       692 9.84597E-03 5.20925E-05-4.69451E-14
 -1       693 1.01364E-02 3.19375E-05-4.98097E-14
 -1       694 1.04255E-02 1.22409E-05-5.27239E-14
 -1       695 1.07138E-02-7.69649E-06-5.56884E-14
 -1       696 1.10014E-02-2.82905E-05-5.86999E-14
 -1       697 1.12884E-02-4.97543E-05-6.17433E-14
 -1       698 1.15751E-02-7.21620E-05-6.48257E-14
 -1       699 1.18615E-02-9.54976E-05-6.79497E-14
 -1       700 1.21477E-02-1.19691E-04-7.11070E-14
 -1       701 1.24338E-02-1.44642E-04-7.42885E-14
 -1       702 1.27197E-02-1.70241E-04-7.74909E-14
 -1       703 1.30056E-02-1.96375E-04-8.07118E-14
 -1       704 1.32914E-02-2.22937E-04-8.39341E-14
 -1       705 1.35771E-02-2.49828E-04-8.71563E-14
 -1       706 1.38629E-02-2.76959E-04-9.03754E-14
 -1       707 1.40904E-02-3.14226E-04-9.29329E-14
 -1       708 7.73157E-03 3.97216E-05-2.57283E-14
 -1       709 1.41919E-02-7.05139E-04-9.37533E-14
 -1       710 5.27279E-03-8.39886E-04-1.51958E-14
 -1       711 1.41374E-02-5.36916E-04-9.32996E-14
 -1       712 1.42194E-02-7.89230E-04-9.39730E-14
 -1       713 1.41646E-02-6.21040E-04-9.35304E-14
 -1       714 1.42465E-02-8.71904E-04-9.41763E-14
 -1       715 1.42743E-02-9.56031E-04-9.43693E-14
 -1       716 1.43022E-02-1.04019E-03-9.45490E-14
 -1       717 5.43437E-03 6.94596E-04-1.55407E-14
 -1       718 8.27172E-03-1.59922E-04-2.77862E-14
 -1       719 9.54518E-04-2.42257E-04-6.52317E-16
 -1       720 8.43712E-03-2.21138E-04-2.86332E-14
 -1       721 6.17047E-03 8.05459E-04-1.90103E-14
 -1       722 7.37183E-03-6.67085E-04-2.45406E-14
 -1       723 1.63199E-03 3.47818E-04-1.56003E-15
 -1       724 2.50323E-03 3.77343E-04-3.61307E-15
 -1       725 1.17106E-03-2.72980E-04-9.55545E-16
 -1       726 4.34022E-03 1.39604E-04-1.26138E-14
 -1       727 1.34335E-03 3.22298E-04-1.06507E-15
 -1       728 8.96015E-04 1.06735E-04-6.48261E-16
 -1       729 8.94953E-04-1.05090E-04-6.80140E-16
 -1       730 7.32901E-03 2.47088E-04-2.44533E-14
 -1       731 7.78865E-03-4.57981E-04-2.59576E-14
 -1       732 3.88275E-03-1.58054E-04-1.19809E-14
 -1       733 5.03814E-03 4.94149E-04-1.41967E-14
 -1       734 3.76977E-03-7.29681E-05-1.16759E-14
 -1       735 8.09684E-03-3.30657E-04-2.68683E-14
 -1       736 4.18393E-03-2.66941E-04-1.25528E-14
 -1       737 4.72298E-03 3.23895E-04-1.34058E-14
 -1       738 4.89609E-03-6.16908E-04-1.41438E-14
 -1       739 6.79086E-03 5.40095E-04-2.20784E-14
 -1       740 4.55349E-03-4.33233E-04-1.33332E-14
 -1       741 6.44486E-03 7.11988E-04-2.03922E-14
 -1       742 9.07298E-04-1.53218E-04-6.67618E-16
 -1       743 8.83151E-04-2.00824E-05-6.84857E-16
 -1       744 7.37515E-03-7.51004E-04-2.54080E-14
 -1       745 1.41170E-02-3.97745E-04-9.31844E-14
 -1       746 5.62839E-03 7.84880E-04-1.62614E-14
 -1       747 3.82637E-03-3.46079E-05-1.14060E-14
 -1       748 4.09386E-03 6.39239E-05-1.18005E-14
 -1       749 1.41271E-02-4.67348E-04-9.32461E-14
 -1       750 8.86975E-04-6.13290E-05-6.85348E-16
 -1       751 7.06819E-03 4.13059E-04-2.36379E-14
 -1       752 1.42533E-02-1.09474E-03-9.38612E-14
 -1       753 5.97983E-03-1.16168E-03-1.80722E-14
 -1       754 4.30549E-03-3.48993E-04-1.21917E-14
 -1       755 1.15958E-03 2.12558E-04-9.31045E-16
 -1       756 8.47548E-03-1.96775E-04-2.98868E-14
 -1       757 9.29050E-04-1.95297E-04-6.63461E-16
 -1       758 6.61276E-03 6.63894E-04-2.14410E-14
 -1       759 8.19932E-03-1.12051E-04-2.84076E-14
 -1       760 4.67083E-03-5.24858E-04-1.31065E-14
 -1       761 1.74633E-03 2.88739E-04-1.92797E-15
 -1       762 1.78790E-03-2.58780E-04-2.23436E-15
 -1       763 2.07043E-03-2.66258E-04-2.94149E-15
 -1       764 2.35171E-03-2.69295E-04-3.74206E-15
 -1       765 2.63152E-03-2.70288E-04-4.63520E-15
 -1       766 2.91010E-03-2.71795E-04-5.62132E-15
 -1       767 3.18843E-03-2.76669E-04-6.69757E-15
 -1       768 3.46872E-03-2.88341E-04-7.86095E-15
 -1       769 3.75523E-03-3.11464E-04-9.11288E-15
 -1       770 4.05571E-03-3.53365E-04-1.04506E-14
 -1       771 4.45131E-03 2.44053E-04-1.22514E-14
 -1       772 8.37754E-03-4.76070E-04-3.17023E-14
 -1       773 8.66626E-03-4.75534E-04-3.41931E-14
 -1       774 8.94663E-03-4.89196E-04-3.67474E-14
 -1       775 9.22380E-03-5.12082E-04-3.93673E-14
 -1       776 9.50048E-03-5.41037E-04-4.20575E-14
 -1       777 9.77800E-03-5.73834E-04-4.48179E-14
 -1       778 1.00568E-02-6.08830E-04-4.76437E-14
 -1       779 1.03370E-02-6.44826E-04-5.05250E-14
 -1       780 1.06185E-02-6.80985E-04-5.34549E-14
 -1       781 1.09010E-02-7.16757E-04-5.64302E-14
 -1       782 1.11844E-02-7.51817E-04-5.94519E-14
 -1       783 1.14685E-02-7.86001E-04-6.25162E-14
 -1       784 1.17530E-02-8.19263E-04-6.56150E-14
 -1       785 1.20380E-02-8.51630E-04-6.87461E-14
 -1       786 1.23231E-02-8.83176E-04-7.19066E-14
 -1       787 1.26085E-02-9.13996E-04-7.50860E-14
 -1       788 1.28941E-02-9.44198E-04-7.82951E-14
 -1       789 1.31797E-02-9.73888E-04-8.15316E-14
 -1       790 1.34653E-02-1.00317E-03-8.47915E-14
 -1       791 1.37510E-02-1.03212E-03-8.80671E-14
 -1       792 1.40021E-02-1.06349E-03-9.09555E-14
 -1       793 2.03299E-03 2.98653E-04-2.57805E-15
 -1       794 3.19217E-03 3.15068E-04-6.09010E-15
 -1       795 2.89841E-03 3.08699E-04-5.07800E-15
 -1       796 3.80132E-03 3.54540E-04-8.37711E-15
 -1       797 4.12385E-03 3.98103E-04-9.64998E-15
 -1       798 4.46242E-03 4.65889E-04-1.10119E-14
 -1       799 4.81632E-03 5.62042E-04-1.24615E-14
 -1       800 5.17760E-03 6.80203E-04-1.40047E-14
 -1       801 5.87488E-03 8.56690E-04-1.73983E-14
 -1       802 7.27608E-03 4.26279E-04-2.54926E-14
 -1       803 7.62555E-03 3.09327E-04-2.77594E-14
 -1       804 7.95908E-03 2.20416E-04-3.01121E-14
 -1       805 8.27705E-03 1.54192E-04-3.25439E-14
 -1       806 8.58276E-03 1.04744E-04-3.50451E-14
 -1       807 8.87990E-03 6.70078E-05-3.76126E-14
 -1       808 9.17157E-03 3.71540E-05-4.02529E-14
 -1       809 9.45996E-03 1.23627E-05-4.29623E-14
 -1       810 9.74653E-03-9.42402E-06-4.57373E-14
 -1       811 1.00322E-02-2.96829E-05-4.85750E-14
 -1       812 1.03174E-02-4.94412E-05-5.14676E-14
 -1       813 1.06026E-02-6.93796E-05-5.44074E-14
 -1       814 1.08878E-02-8.99163E-05-5.73954E-14
 -1       815 1.11730E-02-1.11277E-04-6.04251E-14
 -1       816 1.14584E-02-1.33552E-04-6.34903E-14
 -1       817 1.17439E-02-1.56741E-04-6.65956E-14
 -1       818 1.20294E-02-1.80785E-04-6.97366E-14
 -1       819 1.23151E-02-2.05596E-04-7.29071E-14
 -1       820 1.26007E-02-2.31067E-04-7.60986E-14
 -1       821 1.28864E-02-2.57092E-04-7.93085E-14
 -1       822 1.31721E-02-2.83566E-04-8.25300E-14
 -1       823 1.34579E-02-3.10393E-04-8.57559E-14
 -1       824 1.37436E-02-3.37485E-04-8.89756E-14
 -1       825 1.39303E-02-3.67580E-04-9.10774E-14
 -1       826 1.39856E-02-8.06207E-04-9.12274E-14
 -1       827 3.95086E-03-2.05196E-04-1.14441E-14
 -1       828 1.39580E-02-7.22268E-04-9.10215E-14
 -1       829 8.26943E-03-3.12522E-04-2.84905E-14
 -1       830 1.40133E-02-8.90176E-04-9.14176E-14
 -1       831 1.24932E-03 2.65301E-04-1.00182E-15
 -1       832 1.40411E-02-9.74198E-04-9.15917E-14
 -1       833 1.11806E-03 4.84297E-05-1.02696E-15
 -1       834 8.03137E-03-4.03511E-04-2.76981E-14
 -1       835 3.49203E-03 3.28790E-04-7.19076E-15
 -1       836 7.72928E-03-5.61155E-04-2.68634E-14
 -1       837 8.07208E-03-4.99186E-04-2.92795E-14
 -1       838 1.50471E-03-2.44558E-04-1.62249E-15
 -1       839 5.17884E-03 6.24062E-04-1.42736E-14
 -1       840 3.66772E-03-8.33859E-05-1.08719E-14
 -1       841 7.67335E-03 1.28446E-04-2.66568E-14
 -1       842 7.94562E-03-9.62981E-06-2.75315E-14
 -1       843 4.78877E-03 4.21931E-04-1.30300E-14
 -1       844 3.73519E-03-1.28681E-04-1.10447E-14
 -1       845 1.11488E-03 2.15798E-08-1.03976E-15
 -1       846 1.14045E-03 1.53056E-04-9.74420E-16
 -1       847 8.58123E-03-2.39306E-04-3.08568E-14
 -1       848 8.47281E-03-2.60219E-04-2.96546E-14
 -1       849 1.14252E-03-2.21899E-04-9.69239E-16
 -1       850 8.45501E-03-1.61820E-04-3.05261E-14
 -1       851 6.87961E-03 5.53478E-04-2.29711E-14
 -1       852 4.19723E-03 1.58505E-04-1.14506E-14
 -1       853 3.67418E-03-5.32310E-05-1.06152E-14
 -1       854 2.32015E-03 3.03496E-04-3.32035E-15
 -1       855 3.89407E-03 2.22154E-05-1.10406E-14
 -1       856 2.60829E-03 3.05903E-04-4.15421E-15
 -1       857 5.53338E-03 7.94588E-04-1.56477E-14
 -1       858 1.39036E-02-5.55074E-04-9.05968E-14
 -1       859 8.41800E-03-2.73821E-04-2.92903E-14
 -1       860 1.39307E-02-6.38685E-04-9.08132E-14
 -1       861 1.12660E-03 9.87164E-05-1.00549E-15
 -1       862 7.43127E-03 2.71602E-04-2.58029E-14
 -1       863 3.60798E-03-1.00694E-04-1.02840E-14
 -1       864 1.38932E-02-4.85626E-04-9.05510E-14
 -1       865 1.49781E-03 2.81180E-04-1.42679E-15
 -1       866 8.41799E-03-2.34352E-04-2.84235E-14
 -1       867 1.40216E-02-1.01884E-03-9.12740E-14
 -1       868 1.12516E-03-9.76478E-05-1.04185E-15
 -1       869 1.13861E-03-1.50840E-04-1.03046E-15
 -1       870 8.65503E-03-2.15195E-04-3.21199E-14
 -1       871 6.33158E-03 7.84901E-04-1.99260E-14
 -1       872 1.90009E-03-2.01761E-04-2.60852E-15
 -1       873 5.44471E-03 7.49297E-04-1.53012E-14
 -1       874 2.17682E-03-2.06006E-04-3.36489E-15
 -1       875 2.45069E-03-2.07427E-04-4.21318E-15
 -1       876 2.72099E-03-2.07829E-04-5.15323E-15
 -1       877 2.98742E-03-2.09035E-04-6.18421E-15
 -1       878 3.25029E-03-2.12953E-04-7.30189E-15
 -1       879 3.51108E-03-2.21839E-04-8.50539E-15
 -1       880 3.77387E-03-2.39298E-04-9.79463E-15
 -1       881 1.86046E-03 2.29220E-04-2.31590E-15
 -1       882 8.86184E-03-4.11873E-04-3.54061E-14
 -1       883 9.12136E-03-4.35371E-04-3.79847E-14
 -1       884 9.38379E-03-4.63408E-04-4.06338E-14
 -1       885 9.64983E-03-4.94597E-04-4.33522E-14
 -1       886 9.91944E-03-5.27812E-04-4.61381E-14
 -1       887 1.01923E-02-5.62137E-04-4.89890E-14
 -1       888 1.04680E-02-5.96863E-04-5.18933E-14
 -1       889 1.07460E-02-6.31476E-04-5.48414E-14
 -1       890 1.10259E-02-6.65638E-04-5.78373E-14
 -1       891 1.13074E-02-6.99151E-04-6.08759E-14
 -1       892 1.15900E-02-7.31925E-04-6.39575E-14
 -1       893 1.18734E-02-7.63947E-04-6.70732E-14
 -1       894 1.21576E-02-7.95256E-04-7.02204E-14
 -1       895 1.24423E-02-8.25920E-04-7.33907E-14
 -1       896 1.27273E-02-8.56022E-04-7.65826E-14
 -1       897 1.30126E-02-8.85649E-04-7.98006E-14
 -1       898 1.32980E-02-9.14886E-04-8.30385E-14
 -1       899 1.35836E-02-9.43817E-04-8.62971E-14
 -1       900 2.99162E-03 2.35346E-04-5.68543E-15
 -1       901 4.20071E-03 3.13077E-04-1.04481E-14
 -1       902 3.87743E-03 2.70915E-04-9.13021E-15
 -1       903 4.46516E-03 3.52623E-04-1.15960E-14
 -1       904 8.52038E-03 4.05492E-05-3.39661E-14
 -1       905 8.80983E-03 5.56629E-06-3.65025E-14
 -1       906 9.09343E-03-2.25774E-05-3.91075E-14
 -1       907 9.37416E-03-4.65529E-05-4.17836E-14
 -1       908 9.65388E-03-6.81307E-05-4.45292E-14
 -1       909 9.93364E-03-8.85248E-05-4.73375E-14
 -1       910 1.02140E-02-1.08573E-04-5.02062E-14
 -1       911 1.04952E-02-1.28838E-04-5.31261E-14
 -1       912 1.07772E-02-1.49675E-04-5.60950E-14
 -1       913 1.10600E-02-1.71280E-04-5.91052E-14
 -1       914 1.13435E-02-1.93738E-04-6.21515E-14
 -1       915 1.16276E-02-2.17052E-04-6.52404E-14
 -1       916 1.19122E-02-2.41174E-04-6.83656E-14
 -1       917 1.21971E-02-2.66026E-04-7.15223E-14
 -1       918 1.24823E-02-2.91513E-04-7.47042E-14
 -1       919 1.27677E-02-3.17539E-04-7.79033E-14
 -1       920 1.30532E-02-3.44006E-04-8.11209E-14
 -1       921 1.33388E-02-3.70826E-04-8.43486E-14
 -1       922 1.36244E-02-3.97917E-04-8.75700E-14
 -1       923 3.72517E-03-1.64326E-04-1.03429E-14
 -1       924 1.37521E-02-8.23704E-04-8.84838E-14
 -1       925 8.62502E-03-2.81611E-04-3.17319E-14
 -1       926 1.37245E-02-7.39937E-04-8.83013E-14
 -1       927 8.22046E-03 8.66235E-05-3.14941E-14
 -1       928 1.39117E-02-4.26631E-04-9.08163E-14
 -1       929 7.90428E-03 1.50532E-04-2.90941E-14
 -1       930 1.11723E-03-4.80428E-05-1.04482E-15
 -1       931 8.60325E-03-3.95060E-04-3.28924E-14
 -1       932 1.37798E-02-9.07534E-04-8.86558E-14
 -1       933 1.62152E-03-1.92931E-04-1.94540E-15
 -1       934 8.41929E-03-3.21104E-04-3.01923E-14
 -1       935 1.27687E-03-1.77941E-04-1.25257E-15
 -1       936 8.29802E-03-3.92585E-04-3.00891E-14
 -1       937 1.39240E-03 2.01622E-04-1.35843E-15
 -1       938 3.97706E-03 1.02718E-04-1.07032E-14
 -1       939 1.57775E-03 2.18470E-04-1.70161E-15
 -1       940 2.14311E-03 2.34292E-04-3.02294E-15
 -1       941 3.57150E-03-7.27154E-05-1.00412E-14
 -1       942 3.70044E-03-9.53736E-06-1.02657E-14
 -1       943 2.70794E-03 2.35213E-04-4.70941E-15
 -1       944 3.27858E-03 2.38681E-04-6.74783E-15
 -1       945 1.38026E-02-9.81360E-04-8.87777E-14
 -1       946 3.57219E-03 2.48779E-04-7.89648E-15
 -1       947 4.21296E-03 2.37770E-04-1.09510E-14
 -1       948 3.55874E-03-1.29155E-04-9.60902E-15
 -1       949 1.44401E-03 2.40310E-04-1.39515E-15
 -1       950 1.36971E-02-6.56548E-04-8.81063E-14
 -1       951 8.74643E-03-2.57866E-04-3.30157E-14
 -1       952 1.36699E-02-5.73137E-04-8.79027E-14
 -1       953 8.29449E-03-8.81455E-05-3.01006E-14
 -1       954 1.36594E-02-5.03851E-04-8.78611E-14
 -1       955 1.35042E-03 2.64615E-05-1.46078E-15
 -1       956 8.06032E-03 4.11399E-05-2.94934E-14
 -1       957 1.35799E-03 8.11774E-05-1.43885E-15
 -1       958 1.35623E-03-8.13026E-05-1.47495E-15
 -1       959 8.53335E-03-2.96192E-04-3.09471E-14
 -1       960 1.35186E-02-8.40947E-04-8.57452E-14
 -1       961 1.73957E-03-1.41058E-04-2.28388E-15
 -1       962 8.56406E-03-3.42992E-04-3.19178E-14
 -1       963 1.34971E-03-2.70944E-05-1.47274E-15
 -1       964 2.28363E-03-1.48620E-04-3.79895E-15
 -1       965 2.54930E-03-1.49649E-04-4.69323E-15
 -1       966 2.80890E-03-1.50479E-04-5.67743E-15
 -1       967 3.06112E-03-1.52183E-04-6.75060E-15
 -1       968 3.30463E-03-1.55721E-04-7.90785E-15
 -1       969 8.56539E-03-1.35152E-04-3.23853E-14
 -1       970 1.41716E-03-1.32441E-04-1.56683E-15
 -1       971 9.27172E-03-3.92320E-04-3.92206E-14
 -1       972 9.52530E-03-4.21365E-04-4.18985E-14
 -1       973 9.78518E-03-4.52177E-04-4.46436E-14
 -1       974 1.00503E-02-4.84158E-04-4.74576E-14
 -1       975 1.03199E-02-5.16769E-04-5.03323E-14
 -1       976 1.05931E-02-5.49570E-04-5.32598E-14
 -1       977 1.08693E-02-5.82233E-04-5.62308E-14
 -1       978 1.11478E-02-6.14539E-04-5.92436E-14
 -1       979 1.14282E-02-6.46363E-04-6.23002E-14
 -1       980 1.17100E-02-6.77651E-04-6.53986E-14
 -1       981 1.19929E-02-7.08403E-04-6.85274E-14
 -1       982 1.22767E-02-7.38651E-04-7.16875E-14
 -1       983 1.25610E-02-7.68446E-04-7.48686E-14
 -1       984 1.28459E-02-7.97851E-04-7.80723E-14
 -1       985 1.31310E-02-8.26930E-04-8.12948E-14
 -1       986 8.75250E-03-5.55079E-05-3.53923E-14
 -1       987 9.56693E-03-1.23579E-04-4.33198E-14
 -1       988 9.83970E-03-1.44096E-04-4.60995E-14
 -1       989 1.01143E-02-1.64639E-04-4.89415E-14
 -1       990 1.03908E-02-1.85557E-04-5.18413E-14
 -1       991 1.06691E-02-2.07073E-04-5.47917E-14
 -1       992 1.09490E-02-2.29310E-04-5.77831E-14
 -1       993 1.12303E-02-2.52315E-04-6.08113E-14
 -1       994 1.15126E-02-2.76081E-04-6.38797E-14
 -1       995 1.17959E-02-3.00563E-04-6.69926E-14
 -1       996 1.20799E-02-3.25691E-04-7.01368E-14
 -1       997 1.23644E-02-3.51386E-04-7.33075E-14
 -1       998 1.26493E-02-3.77563E-04-7.64963E-14
 -1       999 1.29345E-02-4.04139E-04-7.97081E-14
 -1      1000 1.32200E-02-4.31039E-04-8.29344E-14
 -1      1001 1.34910E-02-7.57374E-04-8.55784E-14
 -1      1002 1.37214E-03 1.39136E-04-1.40542E-15
 -1      1003 9.29559E-03-1.02578E-04-4.06080E-14
 -1      1004 3.53756E-03-1.71410E-04-9.05851E-15
 -1      1005 9.02472E-03-8.03187E-05-3.79669E-14
 -1      1006 3.89569E-03 2.00833E-04-9.60541E-15
 -1      1007 8.47543E-03-2.55805E-05-3.28829E-14
 -1      1008 1.67596E-03-8.70983E-05-2.17220E-15
 -1      1009 2.01324E-03-1.46174E-04-2.99514E-15
 -1      1010 2.42547E-03 2.35611E-04-3.82143E-15
 -1      1011 8.80241E-03-3.61971E-04-3.44068E-14
 -1      1012 9.02558E-03-3.65724E-04-3.66127E-14
 -1      1013 1.69599E-03 1.64551E-04-2.05198E-15
 -1      1014 8.80144E-03-1.97985E-04-3.42315E-14
 -1      1015 3.48751E-03-9.67453E-05-9.38435E-15
 -1      1016 3.55826E-03-3.78699E-05-9.70824E-15
 -1      1017 1.97452E-03 1.69791E-04-2.72232E-15
 -1      1018 2.80264E-03 1.65868E-04-5.27792E-15
 -1      1019 3.59942E-03 1.84851E-04-8.34494E-15
 -1      1020 1.34636E-02-6.74216E-04-8.54015E-14
 -1      1021 3.07694E-03 1.62648E-04-6.30381E-15
 -1      1022 3.75456E-03 5.45910E-05-9.94458E-15
 -1      1023 1.35055E-02-4.58192E-04-8.61570E-14
 -1      1024 8.91676E-03-2.46810E-04-3.51540E-14
 -1      1025 1.34363E-02-5.91058E-04-8.52095E-14
 -1      1026 1.34258E-02-5.21986E-04-8.51760E-14
 -1      1027 8.82307E-03-3.10799E-04-3.41494E-14
 -1      1028 8.70944E-03-3.19864E-04-3.30630E-14
 -1      1029 1.58439E-03-1.10179E-06-1.96754E-15
 -1      1030 1.58963E-03 5.67310E-05-1.94630E-15
 -1      1031 9.15797E-03-3.28145E-04-3.78199E-14
 -1      1032 8.77939E-03-1.33530E-04-3.48203E-14
 -1      1033 2.65180E-03-9.62785E-05-5.17922E-15
 -1      1034 2.90083E-03-9.88324E-05-6.20653E-15
 -1      1035 3.13851E-03-1.02545E-04-7.31872E-15
 -1      1036 2.25199E-03 1.70894E-04-3.48482E-15
 -1      1037 9.03194E-03-1.53021E-04-3.73805E-14
 -1      1038 3.33411E-03 1.70653E-04-7.29040E-15
 -1      1039 9.65019E-03-3.81958E-04-4.31615E-14
 -1      1040 9.90819E-03-4.10957E-04-4.59362E-14
 -1      1041 1.01721E-02-4.40838E-04-4.87755E-14
 -1      1042 1.04407E-02-4.71234E-04-5.16754E-14
 -1      1043 1.07132E-02-5.01837E-04-5.46236E-14
 -1      1044 1.09889E-02-5.32420E-04-5.76164E-14
 -1      1045 1.12670E-02-5.62831E-04-6.06470E-14
 -1      1046 1.15471E-02-5.92982E-04-6.37206E-14
 -1      1047 1.18287E-02-6.22832E-04-6.68322E-14
 -1      1048 1.21115E-02-6.52375E-04-6.99758E-14
 -1      1049 1.23952E-02-6.81629E-04-7.31481E-14
 -1      1050 1.26795E-02-7.10622E-04-7.63385E-14
 -1      1051 1.29643E-02-7.39393E-04-7.95489E-14
 -1      1052 1.02884E-02-2.39137E-04-5.05516E-14
 -1      1053 1.00170E-02-2.17216E-04-4.76764E-14
 -1      1054 2.12964E-03-9.22285E-05-3.39351E-15
 -1      1055 3.35365E-03-1.15190E-04-8.42821E-15
 -1      1056 9.74876E-03-1.95928E-04-4.48642E-14
 -1      1057 1.05626E-02-2.61730E-04-5.34836E-14
 -1      1058 1.08393E-02-2.85008E-04-5.64576E-14
 -1      1059 1.11181E-02-3.08955E-04-5.94709E-14
 -1      1060 1.13986E-02-3.33535E-04-6.25211E-14
 -1      1061 1.16804E-02-3.58695E-04-6.56131E-14
 -1      1062 1.19633E-02-3.84374E-04-6.87460E-14
 -1      1063 1.22471E-02-4.10503E-04-7.19042E-14
 -1      1064 1.25314E-02-4.37016E-04-7.50866E-14
 -1      1065 1.28162E-02-4.63848E-04-7.82898E-14
 -1      1066 1.31014E-02-4.90940E-04-8.15104E-14
 -1      1067 1.90393E-03-9.02808E-05-2.75007E-15
 -1      1068 9.48396E-03-1.75186E-04-4.21160E-14
 -1      1069 9.25545E-03-1.63877E-04-3.97208E-14
 -1      1070 9.39945E-03-3.54256E-04-4.04573E-14
 -1      1071 1.32276E-02-7.48517E-04-8.25593E-14
 -1      1072 2.52798E-03 1.69133E-04-4.33736E-15
 -1      1073 1.81195E-03-1.63702E-06-2.51986E-15
 -1      1074 1.63961E-03 1.08900E-04-2.00485E-15
 -1      1075 2.39401E-03-9.43199E-05-4.24178E-15
 -1      1076 3.68890E-03 1.20149E-04-9.13501E-15
 -1      1077 9.03204E-03-2.15532E-04-3.67770E-14
 -1      1078 3.43362E-03-6.40057E-05-9.07255E-15
 -1      1079 1.32002E-02-6.65679E-04-8.23887E-14
 -1      1080 3.58110E-03 1.21286E-05-9.40414E-15
 -1      1081 1.31729E-02-5.82862E-04-8.22060E-14
 -1      1082 2.62897E-03 1.04875E-04-4.86695E-15
 -1      1083 1.91453E-03 1.12335E-04-2.67041E-15
 -1      1084 2.89353E-03 9.89982E-05-5.85762E-15
 -1      1085 2.76383E-03-4.68124E-05-5.67096E-15
 -1      1086 2.18775E-03 1.12341E-04-3.42798E-15
 -1      1087 3.00517E-03-5.22498E-05-6.73679E-15
 -1      1088 1.01862E-02-2.89338E-04-4.92609E-14
 -1      1089 2.51229E-03-4.27438E-05-4.69109E-15
 -1      1090 9.76208E-03-3.41987E-04-4.44239E-14
 -1      1091 1.00216E-02-3.68703E-04-4.72271E-14
 -1      1092 1.02867E-02-3.96265E-04-5.00927E-14
 -1      1093 1.05562E-02-4.24377E-04-5.30145E-14
 -1      1094 1.08295E-02-4.52812E-04-5.59858E-14
 -1      1095 1.11057E-02-4.81406E-04-5.89974E-14
 -1      1096 1.13842E-02-5.10045E-04-6.20422E-14
 -1      1097 1.16646E-02-5.38661E-04-6.51325E-14
 -1      1098 1.19465E-02-5.67212E-04-6.82608E-14
 -1      1099 1.22295E-02-5.95681E-04-7.14188E-14
 -1      1100 1.25133E-02-6.24063E-04-7.45981E-14
 -1      1101 1.27978E-02-6.52362E-04-7.77952E-14
 -1      1102 1.07300E-02-3.38153E-04-5.51270E-14
 -1      1103 1.04565E-02-3.13421E-04-5.21686E-14
 -1      1104 9.65843E-03-2.43603E-04-4.36313E-14
 -1      1105 1.29989E-02-6.59089E-04-8.00886E-14
 -1      1106 9.92001E-03-2.66019E-04-4.64149E-14
 -1      1107 1.10063E-02-3.63442E-04-5.81250E-14
 -1      1108 1.12849E-02-3.89208E-04-6.11586E-14
 -1      1109 1.15653E-02-4.15382E-04-6.42332E-14
 -1      1110 1.18471E-02-4.41904E-04-6.73489E-14
 -1      1111 1.21300E-02-4.68718E-04-7.04972E-14
 -1      1112 1.24138E-02-4.95775E-04-7.36687E-14
 -1      1113 1.26982E-02-5.23032E-04-7.68619E-14
 -1      1114 1.29354E-02-5.52869E-04-7.95300E-14
 -1      1115 2.03780E-03-2.62826E-06-3.13660E-15
 -1      1116 1.86192E-03 5.81408E-05-2.60587E-15
 -1      1117 9.24343E-03-2.26886E-04-3.91058E-14
 -1      1118 9.22666E-03-2.83326E-04-3.86102E-14
 -1      1119 2.27704E-03-2.25233E-05-3.87758E-15
 -1      1120 3.25329E-03-6.47313E-05-8.00278E-15
 -1      1121 2.40957E-03 1.09368E-04-4.11735E-15
 -1      1122 9.50950E-03-3.16399E-04-4.16880E-14
 -1      1123 3.43370E-03 1.10424E-04-8.03382E-15
 -1      1124 3.41675E-03-2.33654E-05-8.78976E-15
 -1      1125 2.49186E-03 4.95962E-05-4.52273E-15
 -1      1126 3.15473E-03 9.22041E-05-6.93288E-15
 -1      1127 2.75050E-03 4.37774E-05-5.48300E-15
 -1      1128 3.51423E-03 6.04602E-05-8.71103E-15
 -1      1129 9.44784E-03-2.34919E-04-4.13442E-14
 -1      1130 2.13204E-03 5.71950E-05-3.35665E-15
 -1      1131 2.89297E-03 8.83696E-07-6.16317E-15
 -1      1132 3.17612E-03-5.71234E-06-7.46765E-15
 -1      1133 2.31308E-03 5.39252E-05-3.91921E-15
 -1      1134 3.24881E-03 4.72564E-05-7.56258E-15
 -1      1135 2.98337E-03 3.63631E-05-6.44754E-15
 -1      1136 0.00000E+00 0.00000E+00 0.00000E+00
 -1      1137 0.00000E+00 0.00000E+00 0.00000E+00
 -1      1138 0.00000E+00 0.00000E+00 0.00000E+00
 -1      1139 0.00000E+00 0.00000E+00 0.00000E+00
 -1      1140 0.00000E+00 0.00000E+00 0.00000E+00
 -1      1141 0.00000E+00 0.00000E+00 0.00000E+00
 -1      1142 0.00000E+00 0.00000E+00 0.00000E+00
 -1      1143 0.00000E+00 0.00000E+00 0.00000E+00
 -1      1144 0.00000E+00 0.00000E+00 0.00000E+00
 -1      1145 0.00000E+00 0.00000E+00 0.00000E+00
 -1      1146 0.00000E+00 0.00000E+00 0.00000E+00
 -1      1147 0.00000E+00 0.00000E+00 0.00000E+00
 -1      1148 0.00000E+00 0.00000E+00 0.00000E+00
 -1      1149 0.00000E+00 0.00000E+00 0.00000E+00
 -1      1150 0.00000E+00 0.00000E+00 0.00000E+00
 -1      1151 0.00000E+00 0.00000E+00 0.00000E+00
 -1      1152 0.00000E+00 0.00000E+00 0.00000E+00
 -1      1153 2.09842E-04-1.45726E-04 1.27665E-17
 -1      1154 5.48878E-04-3.27815E-04-3.00595E-17
 -1      1155 8.32703E-04-4.41125E-04-1.73093E-16
 -1      1156 1.10674E-03-5.14289E-04-4.31634E-16
 -1      1157 1.37930E-03-5.62808E-04-7.99829E-16
 -1      1158 1.65458E-03-5.94735E-04-1.27546E-15
 -1      1159 1.93537E-03-6.15110E-04-1.85557E-15
 -1      1160 2.22375E-03-6.27811E-04-2.53840E-15
 -1      1161 2.52152E-03-6.36410E-04-3.32419E-15
 -1      1162 2.83032E-03-6.44648E-04-4.21259E-15
 -1      1163 3.15160E-03-6.56817E-04-5.20043E-15
 -1      1164 3.48633E-03-6.78054E-04-6.28394E-15
 -1      1165 3.83438E-03-7.14444E-04-7.45951E-15
 -1      1166 4.19358E-03-7.72598E-04-8.72990E-15
 -1      1167 4.55860E-03-8.58179E-04-1.00969E-14
 -1      1168 4.92017E-03-9.72853E-04-1.15558E-14
 -1      1169 5.26594E-03-1.10985E-03-1.31103E-14
 -1      1170 5.58422E-03-1.25033E-03-1.47619E-14
 -1      1171 5.87059E-03-1.36488E-03-1.65163E-14
 -1      1172 6.13359E-03-1.42376E-03-1.83796E-14
 -1      1173 6.39332E-03-1.41184E-03-2.03500E-14
 -1      1174 6.67177E-03-1.33749E-03-2.24265E-14
 -1      1175 6.98160E-03-1.22769E-03-2.46090E-14
 -1      1176 7.32200E-03-1.11346E-03-2.68941E-14
 -1      1177 7.68285E-03-1.01749E-03-2.92685E-14
 -1      1178 8.05157E-03-9.50129E-04-3.17202E-14
 -1      1179 8.41796E-03-9.11992E-04-3.42464E-14
 -1      1180 8.77577E-03-8.98547E-04-3.68458E-14
 -1      1181 9.12223E-03-9.03719E-04-3.95124E-14
 -1      1182 9.45699E-03-9.21831E-04-4.22427E-14
 -1      1183 9.78099E-03-9.48327E-04-4.50324E-14
 -1      1184 1.00958E-02-9.79854E-04-4.78813E-14
 -1      1185 1.04031E-02-1.01408E-03-5.07878E-14
 -1      1186 1.07044E-02-1.04946E-03-5.37485E-14
 -1      1187 1.10011E-02-1.08501E-03-5.67558E-14
 -1      1188 1.12943E-02-1.12015E-03-5.98044E-14
 -1      1189 1.15850E-02-1.15458E-03-6.28800E-14
 -1      1190 1.18738E-02-1.18816E-03-6.59887E-14
 -1      1191 1.21613E-02-1.22085E-03-6.91265E-14
 -1      1192 1.24479E-02-1.25272E-03-7.22921E-14
 -1      1193 1.27340E-02-1.28383E-03-7.55015E-14
 -1      1194 1.30197E-02-1.31430E-03-7.87501E-14
 -1      1195 1.33051E-02-1.34422E-03-8.20340E-14
 -1      1196 1.35905E-02-1.37370E-03-8.53495E-14
 -1      1197 1.38759E-02-1.40283E-03-8.86875E-14
 -1      1198 1.41614E-02-1.43170E-03-9.20299E-14
 -1      1199 1.44468E-02-1.46040E-03-9.53866E-14
 -1      1200 1.47324E-02-1.48901E-03-9.87607E-14
 -1      1201 1.50181E-02-1.51758E-03-1.02156E-13
 -1      1202 1.52966E-02-1.54547E-03-1.05504E-13
 -1      1203 2.26446E-04 1.57993E-04 2.56820E-17
 -1      1204 5.51151E-04 3.32587E-04 1.25767E-17
 -1      1205 8.33793E-04 4.43788E-04-9.08290E-17
 -1      1206 1.10774E-03 5.16923E-04-2.96746E-16
 -1      1207 1.38009E-03 5.66068E-04-6.04538E-16
 -1      1208 1.65494E-03 5.98985E-04-1.01376E-15
 -1      1209 1.93480E-03 6.20715E-04-1.52550E-15
 -1      1210 2.22141E-03 6.35187E-04-2.13942E-15
 -1      1211 2.51600E-03 6.45943E-04-2.85221E-15
 -1      1212 2.81942E-03 6.56514E-04-3.66193E-15
 -1      1213 3.13207E-03 6.70617E-04-4.57039E-15
 -1      1214 3.45355E-03 6.92195E-04-5.57097E-15
 -1      1215 3.78237E-03 7.25184E-04-6.66009E-15
 -1      1216 4.11541E-03 7.72861E-04-7.83926E-15
 -1      1217 4.44764E-03 8.36631E-04-9.10906E-15
 -1      1218 4.77243E-03 9.14294E-04-1.04763E-14
 -1      1219 5.08274E-03 9.98362E-04-1.19379E-14
 -1      1220 5.37355E-03 1.07563E-03-1.34981E-14
 -1      1221 5.64474E-03 1.12938E-03-1.51642E-14
 -1      1222 5.90267E-03 1.14462E-03-1.69347E-14
 -1      1223 6.15881E-03 1.11415E-03-1.88056E-14
 -1      1224 6.42548E-03 1.04190E-03-2.07776E-14
 -1      1225 6.71099E-03 9.41077E-04-2.28502E-14
 -1      1226 7.01731E-03 8.28584E-04-2.50260E-14
 -1      1227 7.34078E-03 7.19208E-04-2.72943E-14
 -1      1228 7.67487E-03 6.22407E-04-2.96409E-14
 -1      1229 8.01279E-03 5.42086E-04-3.20673E-14
 -1      1230 8.34921E-03 4.78088E-04-3.45729E-14
 -1      1231 8.68066E-03 4.28038E-04-3.71509E-14
 -1      1232 9.00546E-03 3.88771E-04-3.98065E-14
 -1      1233 9.32317E-03 3.57193E-04-4.25269E-14
 -1      1234 9.63417E-03 3.30688E-04-4.53075E-14
 -1      1235 9.93924E-03 3.07222E-04-4.81444E-14
 -1      1236 1.02394E-02 2.85321E-04-5.10346E-14
 -1      1237 1.05354E-02 2.63971E-04-5.39792E-14
 -1      1238 1.08284E-02 2.42519E-04-5.69799E-14
 -1      1239 1.11190E-02 2.20579E-04-6.00307E-14
 -1      1240 1.14078E-02 1.97949E-04-6.31233E-14
 -1      1241 1.16953E-02 1.74556E-04-6.62403E-14
 -1      1242 1.19820E-02 1.50405E-04-6.93839E-14
 -1      1243 1.22681E-02 1.25554E-04-7.25563E-14
 -1      1244 1.25538E-02 1.00082E-04-7.57522E-14
 -1      1245 1.28393E-02 7.40841E-05-7.89726E-14
 -1      1246 1.31247E-02 4.76544E-05-8.22015E-14
 -1      1247 1.34101E-02 2.08849E-05-8.54145E-14
 -1      1248 1.36955E-02-6.13798E-06-8.86249E-14
 -1      1249 1.39810E-02-3.33336E-05-9.18262E-14
 -1      1250 1.42666E-02-6.06267E-05-9.50216E-14
 -1      1251 1.45523E-02-8.79481E-05-9.82077E-14
 -1      1252 1.48308E-02-1.14561E-04-1.01312E-13
 -1      1253 1.49800E-02-1.69657E-04-1.02955E-13
 -1      1254 1.50067E-02-2.53954E-04-1.03251E-13
 -1      1255 1.50335E-02-3.38300E-04-1.03560E-13
 -1      1256 1.50603E-02-4.22711E-04-1.03859E-13
 -1      1257 1.50871E-02-5.07183E-04-1.04165E-13
 -1      1258 1.51139E-02-5.90989E-04-1.04476E-13
 -1      1259 1.51407E-02-6.74830E-04-1.04776E-13
 -1      1260 1.51680E-02-7.59410E-04-1.05056E-13
 -1      1261 1.51954E-02-8.44000E-04-1.05321E-13
 -1      1262 1.52230E-02-9.28591E-04-1.05551E-13
 -1      1263 1.52507E-02-1.01317E-03-1.05775E-13
 -1      1264 1.52783E-02-1.09701E-03-1.06025E-13
 -1      1265 1.53061E-02-1.18082E-03-1.06264E-13
 -1      1266 1.53342E-02-1.26530E-03-1.06491E-13
 -1      1267 1.53624E-02-1.34971E-03-1.06713E-13
 -1      1268 1.53906E-02-1.43405E-03-1.06904E-13
 -1      1269 1.54185E-02-1.51764E-03-1.07069E-13
 -1      1270 8.27857E-03-1.08531E-04-2.31309E-14
 -1      1271 8.15283E-03 4.22423E-05-2.28547E-14
 -1      1272 7.93251E-03 1.92665E-04-2.24005E-14
 -1      1273 7.62968E-03 3.45166E-04-2.17835E-14
 -1      1274 7.25586E-03 4.92554E-04-2.10096E-14
 -1      1275 6.84317E-03 6.15496E-04-2.01378E-14
 -1      1276 6.42133E-03 6.95803E-04-1.92318E-14
 -1      1277 5.99530E-03 7.24405E-04-1.83233E-14
 -1      1278 5.55022E-03 6.96754E-04-1.74090E-14
 -1      1279 5.11915E-03 6.17604E-04-1.65697E-14
 -1      1280 4.73436E-03 5.03682E-04-1.58690E-14
 -1      1281 4.39165E-03 3.66692E-04-1.52858E-14
 -1      1282 4.10650E-03 2.16059E-04-1.48316E-14
 -1      1283 3.91400E-03 6.65638E-05-1.45469E-14
 -1      1284 3.82914E-03-7.95378E-05-1.44387E-14
 -1      1285 3.85691E-03-2.29460E-04-1.45101E-14
 -1      1286 4.00227E-03-3.87088E-04-1.47691E-14
 -1      1287 4.24289E-03-5.45879E-04-1.51919E-14
 -1      1288 4.54614E-03-6.97727E-04-1.57322E-14
 -1      1289 4.90685E-03-8.41397E-04-1.63962E-14
 -1      1290 5.30115E-03-9.60629E-04-1.71546E-14
 -1      1291 5.72644E-03-1.03997E-03-1.80123E-14
 -1      1292 6.15846E-03-1.06773E-03-1.89096E-14
 -1      1293 6.58259E-03-1.03647E-03-1.97972E-14
 -1      1294 6.99087E-03-9.57639E-04-2.06476E-14
 -1      1295 7.36252E-03-8.44414E-04-2.14019E-14
 -1      1296 7.70997E-03-7.02785E-04-2.20895E-14
 -1      1297 7.99441E-03-5.52618E-04-2.26345E-14
 -1      1298 8.19395E-03-4.02669E-04-2.30016E-14
 -1      1299 8.29256E-03-2.54894E-04-2.31764E-14
 -1      1300 1.66369E-04-1.07878E-04-3.56431E-18
 -1      1301 1.13243E-04-5.43352E-05-2.26869E-17
 -1      1302 1.18108E-04-6.52105E-05-1.74014E-17
 -1      1303 1.09163E-04-4.03418E-05-3.14961E-17
 -1      1304 1.11034E-04-4.66359E-05-2.88262E-17
 -1      1305 2.27953E-04-1.01786E-04-6.77220E-17
 -1      1306 1.07379E-04-3.02769E-05-3.61988E-17
 -1      1307 1.08348E-04-3.50226E-05-3.48435E-17
 -1      1308 2.20573E-04-7.59750E-05-8.33751E-17
 -1      1309 1.06268E-04-2.21883E-05-3.88686E-17
 -1      1310 1.06875E-04-2.60672E-05-3.81639E-17
 -1      1311 2.16751E-04-5.67196E-05-9.22927E-17
 -1      1312 1.05518E-04-1.54592E-05-4.02646E-17
 -1      1313 1.05918E-04-1.87214E-05-3.99935E-17
 -1      1314 2.14303E-04-4.12273E-05-9.74020E-17
 -1      1315 1.05009E-04-9.43654E-06-4.11590E-17
 -1      1316 1.05268E-04-1.23856E-05-4.10642E-17
 -1      1317 2.12625E-04-2.80222E-05-1.00194E-16
 -1      1318 1.04734E-04-3.91302E-06-4.11861E-17
 -1      1319 1.04860E-04-6.65242E-06-4.12674E-17
 -1      1320 2.11539E-04-1.61972E-05-1.01359E-16
 -1      1321 1.04691E-04 1.41190E-06-4.09964E-17
 -1      1322 1.04687E-04-1.26558E-06-4.11455E-17
 -1      1323 2.11011E-04-5.21638E-06-1.01414E-16
 -1      1324 1.04879E-04 6.82843E-06-4.02375E-17
 -1      1325 1.04745E-04 4.06961E-06-4.03865E-17
 -1      1326 2.11033E-04 5.51530E-06-1.00343E-16
 -1      1327 1.05296E-04 1.26279E-05-3.90042E-17
 -1      1328 1.05032E-04 9.64192E-06-3.93972E-17
 -1      1329 2.11598E-04 1.65731E-05-9.81745E-17
 -1      1330 1.05945E-04 1.90015E-05-3.69577E-17
 -1      1331 1.05542E-04 1.56928E-05-3.76354E-17
 -1      1332 2.12698E-04 2.84365E-05-9.46644E-17
 -1      1333 1.06906E-04 2.65311E-05-3.38407E-17
 -1      1334 1.06298E-04 2.25869E-05-3.49655E-17
 -1      1335 2.14381E-04 4.18290E-05-8.91621E-17
 -1      1336 1.08366E-04 3.56480E-05-2.91515E-17
 -1      1337 1.07395E-04 3.08223E-05-3.09946E-17
 -1      1338 2.16841E-04 5.77118E-05-8.11932E-17
 -1      1339 1.11000E-04 4.74355E-05-2.15214E-17
 -1      1340 1.09153E-04 4.10680E-05-2.47063E-17
 -1      1341 2.20645E-04 7.73245E-05-6.90095E-17
 -1      1342 1.17415E-04 6.53160E-05-9.48677E-18
 -1      1343 1.12875E-04 5.51889E-05-1.53008E-17
 -1      1344 2.27902E-04 1.03722E-04-5.07949E-17
 -1      1345 1.57062E-04 1.07677E-04 9.29703E-18
 -1      1346 1.35937E-04 8.37680E-05-2.39880E-18
 -1      1347 2.57129E-04 1.46807E-04-2.90702E-17
 -1      1348 3.34352E-04 2.15218E-04 2.18196E-18
 -1      1349 4.21176E-04-2.53871E-04-4.24465E-17
 -1      1350 5.74957E-04-3.24840E-04-9.02869E-17
 -1      1351 7.23332E-04-3.81217E-04-1.68539E-16
 -1      1352 8.68197E-04-4.26190E-04-2.74737E-16
 -1      1353 6.14917E-04-3.16484E-04-1.59418E-16
 -1      1354 1.01048E-03-4.62851E-04-4.07389E-16
 -1      1355 1.15119E-03-4.92371E-04-5.67200E-16
 -1      1356 9.11673E-04-4.08318E-04-3.79376E-16
 -1      1357 1.29120E-03-5.16587E-04-7.53764E-16
 -1      1358 1.43111E-03-5.36035E-04-9.67542E-16
 -1      1359 1.19965E-03-4.68495E-04-7.05707E-16
 -1      1360 1.57143E-03-5.51762E-04-1.20716E-15
 -1      1361 1.71253E-03-5.64191E-04-1.47305E-15
 -1      1362 1.48465E-03-5.07707E-04-1.13729E-15
 -1      1363 1.85476E-03-5.73966E-04-1.76485E-15
 -1      1364 1.99837E-03-5.81517E-04-2.08205E-15
 -1      1365 1.77055E-03-5.32339E-04-1.67259E-15
 -1      1366 2.14363E-03-5.87318E-04-2.42485E-15
 -1      1367 2.29073E-03-5.91820E-04-2.79314E-15
 -1      1368 2.06001E-03-5.46867E-04-2.31034E-15
 -1      1369 2.43990E-03-5.95450E-04-3.18652E-15
 -1      1370 2.59130E-03-5.98703E-04-3.60526E-15
 -1      1371 2.35499E-03-5.55053E-04-3.04879E-15
 -1      1372 2.74514E-03-6.02045E-04-4.04981E-15
 -1      1373 2.90155E-03-6.06035E-04-4.51927E-15
 -1      1374 2.65702E-03-5.60556E-04-3.88731E-15
 -1      1375 3.06067E-03-6.11251E-04-5.01229E-15
 -1      1376 3.22260E-03-6.18334E-04-5.52936E-15
 -1      1377 2.96738E-03-5.67396E-04-4.82494E-15
 -1      1378 3.38739E-03-6.28034E-04-6.07020E-15
 -1      1379 3.55501E-03-6.41071E-04-6.63496E-15
 -1      1380 3.28699E-03-5.80349E-04-5.85861E-15
 -1      1381 3.72536E-03-6.58387E-04-7.22274E-15
 -1      1382 3.89821E-03-6.80720E-04-7.83346E-15
 -1      1383 3.61626E-03-6.05230E-04-6.98598E-15
 -1      1384 4.07323E-03-7.09118E-04-8.46824E-15
 -1      1385 4.24987E-03-7.44176E-04-9.12637E-15
 -1      1386 3.95467E-03-6.48863E-04-8.20732E-15
 -1      1387 4.42749E-03-7.86748E-04-9.80764E-15
 -1      1388 4.60517E-03-8.36941E-04-1.05132E-14
 -1      1389 4.30037E-03-7.18292E-04-9.52111E-15
 -1      1390 4.78196E-03-8.94841E-04-1.12410E-14
 -1      1391 4.95665E-03-9.59556E-04-1.19928E-14
 -1      1392 4.64960E-03-8.18577E-04-1.09278E-14
 -1      1393 5.12813E-03-1.02965E-03-1.27678E-14
 -1      1394 5.29528E-03-1.10272E-03-1.35674E-14
 -1      1395 4.99661E-03-9.48718E-04-1.24277E-14
 -1      1396 5.45728E-03-1.17540E-03-1.43926E-14
 -1      1397 5.61369E-03-1.24390E-03-1.52416E-14
 -1      1398 5.33441E-03-1.09646E-03-1.40243E-14
 -1      1399 5.76459E-03-1.30365E-03-1.61174E-14
 -1      1400 5.91078E-03-1.35070E-03-1.70205E-14
 -1      1401 5.65739E-03-1.23557E-03-1.57202E-14
 -1      1402 6.05345E-03-1.38140E-03-1.79485E-14
 -1      1403 6.19467E-03-1.39369E-03-1.89038E-14
 -1      1404 5.96528E-03-1.33136E-03-1.75198E-14
 -1      1405 6.33623E-03-1.38700E-03-1.98874E-14
 -1      1406 6.48037E-03-1.36249E-03-2.08986E-14
 -1      1407 6.26558E-03-1.35616E-03-1.94272E-14
 -1      1408 6.62858E-03-1.32305E-03-2.19350E-14
 -1      1409 6.78208E-03-1.27229E-03-2.29970E-14
 -1      1410 6.57045E-03-1.30575E-03-2.14436E-14
 -1      1411 6.94130E-03-1.21478E-03-2.40877E-14
 -1      1412 7.10613E-03-1.15455E-03-2.52036E-14
 -1      1413 6.88938E-03-1.20207E-03-2.35680E-14
 -1      1414 7.27602E-03-1.09548E-03-2.63436E-14
 -1      1415 7.44994E-03-1.04049E-03-2.75064E-14
 -1      1416 7.22444E-03-1.07972E-03-2.57951E-14
 -1      1417 7.62685E-03-9.91594E-04-2.86912E-14
 -1      1418 7.80554E-03-9.50125E-04-2.98963E-14
 -1      1419 7.57131E-03-9.68662E-04-2.81172E-14
 -1      1420 7.98498E-03-9.16397E-04-3.11212E-14
 -1      1421 8.16417E-03-8.90581E-04-3.23621E-14
 -1      1422 7.92314E-03-8.85506E-04-3.05220E-14
 -1      1423 8.34239E-03-8.72004E-04-3.36234E-14
 -1      1424 8.51901E-03-8.60223E-04-3.49036E-14
 -1      1425 8.27374E-03-8.34298E-04-3.30035E-14
 -1      1426 8.69362E-03-8.54244E-04-3.61984E-14
 -1      1427 8.86595E-03-8.53415E-04-3.75124E-14
 -1      1428 8.61888E-03-8.11557E-04-3.55555E-14
 -1      1429 9.03584E-03-8.56807E-04-3.88436E-14
 -1      1430 9.20325E-03-8.63771E-04-4.01914E-14
 -1      1431 8.95630E-03-8.10916E-04-3.81780E-14
 -1      1432 9.36821E-03-8.73587E-04-4.15552E-14
 -1      1433 9.53080E-03-8.85701E-04-4.29333E-14
 -1      1434 9.28526E-03-8.25907E-04-4.08679E-14
 -1      1435 9.69116E-03-8.99613E-04-4.43278E-14
 -1      1436 9.84943E-03-9.14887E-04-4.57372E-14
 -1      1437 9.60603E-03-8.51142E-04-4.36241E-14
 -1      1438 1.00058E-02-9.31202E-04-4.71613E-14
 -1      1439 1.01604E-02-9.48233E-04-4.85978E-14
 -1      1440 9.91940E-03-8.82586E-04-4.64395E-14
 -1      1441 1.03134E-02-9.65788E-04-5.00493E-14
 -1      1442 1.04650E-02-9.83634E-04-5.15158E-14
 -1      1443 1.02264E-02-9.17410E-04-4.93140E-14
 -1      1444 1.06153E-02-1.00167E-03-5.29931E-14
 -1      1445 1.07645E-02-1.01973E-03-5.44835E-14
 -1      1446 1.05283E-02-9.53729E-04-5.22405E-14
 -1      1447 1.09128E-02-1.03777E-03-5.59850E-14
 -1      1448 1.10601E-02-1.05568E-03-5.74960E-14
 -1      1449 1.08259E-02-9.90351E-04-5.52146E-14
 -1      1450 1.12067E-02-1.07345E-03-5.90172E-14
 -1      1451 1.13527E-02-1.09101E-03-6.05468E-14
 -1      1452 1.11202E-02-1.02656E-03-5.82336E-14
 -1      1453 1.14981E-02-1.10837E-03-6.20843E-14
 -1      1454 1.16431E-02-1.12548E-03-6.36279E-14
 -1      1455 1.14120E-02-1.06198E-03-6.12883E-14
 -1      1456 1.17876E-02-1.14237E-03-6.51804E-14
 -1      1457 1.19318E-02-1.15901E-03-6.67444E-14
 -1      1458 1.17018E-02-1.09643E-03-6.43764E-14
 -1      1459 1.20757E-02-1.17544E-03-6.83123E-14
 -1      1460 1.22193E-02-1.19162E-03-6.98836E-14
 -1      1461 1.19903E-02-1.12988E-03-6.74959E-14
 -1      1462 1.23628E-02-1.20760E-03-7.14676E-14
 -1      1463 1.25060E-02-1.22338E-03-7.30628E-14
 -1      1464 1.22777E-02-1.16238E-03-7.06451E-14
 -1      1465 1.26492E-02-1.23896E-03-7.46647E-14
 -1      1466 1.27922E-02-1.25437E-03-7.62764E-14
 -1      1467 1.25645E-02-1.19401E-03-7.38295E-14
 -1      1468 1.29352E-02-1.26962E-03-7.78994E-14
 -1      1469 1.30781E-02-1.28472E-03-7.95292E-14
 -1      1470 1.28507E-02-1.22488E-03-7.70497E-14
 -1      1471 1.32209E-02-1.29969E-03-8.11693E-14
 -1      1472 1.33637E-02-1.31454E-03-8.28166E-14
 -1      1473 1.31366E-02-1.25511E-03-8.03072E-14
 -1      1474 1.35065E-02-1.32928E-03-8.44722E-14
 -1      1475 1.36492E-02-1.34393E-03-8.61311E-14
 -1      1476 1.34224E-02-1.28483E-03-8.35964E-14
 -1      1477 1.37920E-02-1.35849E-03-8.77932E-14
 -1      1478 1.39347E-02-1.37299E-03-8.94617E-14
 -1      1479 1.37080E-02-1.31413E-03-8.69078E-14
 -1      1480 1.40775E-02-1.38742E-03-9.11328E-14
 -1      1481 1.42203E-02-1.40180E-03-9.28034E-14
 -1      1482 1.39936E-02-1.34312E-03-9.02359E-14
 -1      1483 1.43630E-02-1.41615E-03-9.44813E-14
 -1      1484 1.45058E-02-1.43046E-03-9.61649E-14
 -1      1485 1.42792E-02-1.37189E-03-9.35797E-14
 -1      1486 1.46486E-02-1.44476E-03-9.78517E-14
 -1      1487 1.47914E-02-1.45904E-03-9.95409E-14
 -1      1488 1.45648E-02-1.40051E-03-9.69412E-14
 -1      1489 1.49343E-02-1.47333E-03-1.01240E-13
 -1      1490 1.50771E-02-1.48761E-03-1.02948E-13
 -1      1491 1.48504E-02-1.42908E-03-1.00324E-13
 -1      1492 1.52828E-02-1.50404E-03-1.05428E-13
 -1      1493 1.51990E-02-1.45977E-03-1.04501E-13
 -1      1494 6.43491E-04 3.58709E-04-5.71917E-17
 -1      1495 4.92543E-04 2.94365E-04-1.48400E-17
 -1      1496 4.45952E-04 2.56728E-04-3.80962E-17
 -1      1497 9.32305E-04 4.50467E-04-2.17369E-16
 -1      1498 7.89565E-04 4.09106E-04-1.24751E-16
 -1      1499 7.48199E-04 3.73358E-04-1.53388E-16
 -1      1500 1.21266E-03 5.11530E-04-4.77740E-16
 -1      1501 1.07297E-03 4.84032E-04-3.34910E-16
 -1      1502 1.03844E-03 4.50290E-04-3.68005E-16
 -1      1503 1.49126E-03 5.52376E-04-8.38685E-16
 -1      1504 1.35183E-03 5.34064E-04-6.45439E-16
 -1      1505 1.32271E-03 5.01472E-04-6.81624E-16
 -1      1506 1.77199E-03 5.79238E-04-1.30084E-15
 -1      1507 1.63115E-03 5.67266E-04-1.05693E-15
 -1      1508 1.60588E-03 5.35178E-04-1.09534E-15
 -1      1509 2.05724E-03 5.96579E-04-1.86475E-15
 -1      1510 1.91392E-03 5.88854E-04-1.57021E-15
 -1      1511 1.89114E-03 5.56796E-04-1.60997E-15
 -1      1512 2.34859E-03 6.08143E-04-2.52856E-15
 -1      1513 2.20206E-03 6.02851E-04-2.18442E-15
 -1      1514 2.18055E-03 5.70465E-04-2.22486E-15
 -1      1515 2.64714E-03 6.17474E-04-3.28966E-15
 -1      1516 2.49690E-03 6.12853E-04-2.89703E-15
 -1      1517 2.47549E-03 5.79846E-04-2.93769E-15
 -1      1518 2.95350E-03 6.28219E-04-4.14734E-15
 -1      1519 2.79931E-03 6.22430E-04-3.70647E-15
 -1      1520 2.77685E-03 5.88549E-04-3.74646E-15
 -1      1521 3.26777E-03 6.44276E-04-5.10074E-15
 -1      1522 3.10966E-03 6.35346E-04-4.61243E-15
 -1      1523 3.08509E-03 6.00380E-04-4.65058E-15
 -1      1524 3.58919E-03 6.69742E-04-6.14332E-15
 -1      1525 3.42765E-03 6.55624E-04-5.61103E-15
 -1      1526 3.40006E-03 6.19426E-04-5.64739E-15
 -1      1527 3.91588E-03 7.08525E-04-7.27692E-15
 -1      1528 3.75203E-03 6.87339E-04-6.69859E-15
 -1      1529 3.72082E-03 6.49883E-04-6.73360E-15
 -1      1530 4.24456E-03 7.63442E-04-8.49846E-15
 -1      1531 4.08022E-03 7.33997E-04-7.87635E-15
 -1      1532 4.04542E-03 6.95451E-04-7.90980E-15
 -1      1533 4.57054E-03 8.34700E-04-9.81470E-15
 -1      1534 4.40823E-03 7.97318E-04-9.14450E-15
 -1      1535 4.37074E-03 7.58145E-04-9.17610E-15
 -1      1536 4.88833E-03 9.17972E-04-1.12255E-14
 -1      1537 4.73084E-03 8.75459E-04-1.05086E-14
 -1      1538 4.69266E-03 8.36473E-04-1.05369E-14
 -1      1539 5.19299E-03 1.00294E-03-1.27339E-14
 -1      1540 5.04257E-03 9.61184E-04-1.19674E-14
 -1      1541 5.00674E-03 9.23490E-04-1.19927E-14
 -1      1542 5.48223E-03 1.07385E-03-1.43424E-14
 -1      1543 5.33956E-03 1.04121E-03-1.35249E-14
 -1      1544 5.30960E-03 1.00593E-03-1.35473E-14
 -1      1545 5.75825E-03 1.11321E-03-1.60569E-14
 -1      1546 5.62157E-03 1.09829E-03-1.51869E-14
 -1      1547 5.60066E-03 1.06609E-03-1.52055E-14
 -1      1548 6.02791E-03 1.10825E-03-1.78739E-14
 -1      1549 5.89328E-03 1.11650E-03-1.69531E-14
 -1      1550 5.88329E-03 1.08717E-03-1.69674E-14
 -1      1551 6.30066E-03 1.05658E-03-1.97907E-14
 -1      1552 6.16326E-03 1.08776E-03-1.88183E-14
 -1      1553 6.16422E-03 1.06026E-03-1.88294E-14
 -1      1554 6.58481E-03 9.67317E-04-2.18116E-14
 -1      1555 6.44088E-03 1.01563E-03-2.07889E-14
 -1      1556 6.45099E-03 9.88518E-04-2.07954E-14
 -1      1557 6.88462E-03 8.56876E-04-2.39314E-14
 -1      1558 6.73265E-03 9.13616E-04-2.28590E-14
 -1      1559 6.74885E-03 8.85655E-04-2.28629E-14
 -1      1560 7.19955E-03 7.42437E-04-2.61496E-14
 -1      1561 7.04038E-03 7.99270E-04-2.50292E-14
 -1      1562 7.05918E-03 7.69821E-04-2.50293E-14
 -1      1563 7.52561E-03 6.36868E-04-2.84557E-14
 -1      1564 7.36152E-03 6.88046E-04-2.72922E-14
 -1      1565 7.37986E-03 6.57052E-04-2.72875E-14
 -1      1566 7.85745E-03 5.46993E-04-3.08390E-14
 -1      1567 7.69116E-03 5.89821E-04-2.96374E-14
 -1      1568 7.70689E-03 5.57596E-04-2.96303E-14
 -1      1569 8.19012E-03 4.74470E-04-3.33048E-14
 -1      1570 8.02397E-03 5.08642E-04-3.20616E-14
 -1      1571 8.03601E-03 4.75640E-04-3.20533E-14
 -1      1572 8.51995E-03 4.17715E-04-3.58416E-14
 -1      1573 8.35559E-03 4.44310E-04-3.45642E-14
 -1      1574 8.36370E-03 4.10965E-04-3.45530E-14
 -1      1575 8.84471E-03 3.73670E-04-3.84577E-14
 -1      1576 8.68307E-03 3.94318E-04-3.71408E-14
 -1      1577 8.68761E-03 3.60971E-04-3.71267E-14
 -1      1578 9.16343E-03 3.39000E-04-4.11402E-14
 -1      1579 9.00486E-03 3.55359E-04-3.97900E-14
 -1      1580 9.00645E-03 3.22239E-04-3.97720E-14
 -1      1581 9.47601E-03 3.10719E-04-4.38884E-14
 -1      1582 9.32048E-03 3.24221E-04-4.25069E-14
 -1      1583 9.31981E-03 2.91459E-04-4.24839E-14
 -1      1584 9.78290E-03 2.86432E-04-4.66947E-14
 -1      1585 9.63013E-03 2.98198E-04-4.52838E-14
 -1      1586 9.62785E-03 2.65848E-04-4.52590E-14
 -1      1587 1.00848E-02 2.64353E-04-4.95581E-14
 -1      1588 9.93444E-03 2.75203E-04-4.81194E-14
 -1      1589 9.93109E-03 2.43269E-04-4.80921E-14
 -1      1590 1.03826E-02 2.43227E-04-5.24736E-14
 -1      1591 1.02342E-02 2.53729E-04-5.10087E-14
 -1      1592 1.02302E-02 2.22182E-04-5.09801E-14
 -1      1593 1.06771E-02 2.22228E-04-5.54453E-14
 -1      1594 1.05302E-02 2.32749E-04-5.39521E-14
 -1      1595 1.05259E-02 2.01542E-04-5.39221E-14
 -1      1596 1.09689E-02 2.00844E-04-5.84654E-14
 -1      1597 1.08233E-02 2.11606E-04-5.69494E-14
 -1      1598 1.08188E-02 1.80688E-04-5.69161E-14
 -1      1599 1.12588E-02 1.78797E-04-6.15341E-14
 -1      1600 1.11141E-02 1.89914E-04-5.99941E-14
 -1      1601 1.11096E-02 1.59235E-04-5.99565E-14
 -1      1602 1.15472E-02 1.55961E-04-6.46342E-14
 -1      1603 1.14031E-02 1.67481E-04-6.30805E-14
 -1      1604 1.13988E-02 1.36993E-04-6.30372E-14
 -1      1605 1.18345E-02 1.32316E-04-6.77603E-14
 -1      1606 1.16909E-02 1.44239E-04-6.61941E-14
 -1      1607 1.16868E-02 1.13899E-04-6.61465E-14
 -1      1608 1.21211E-02 1.07903E-04-7.09196E-14
 -1      1609 1.19778E-02 1.20202E-04-6.93359E-14
 -1      1610 1.19738E-02 8.99764E-05-6.92868E-14
 -1      1611 1.24071E-02 8.28009E-05-7.41022E-14
 -1      1612 1.22642E-02 9.54330E-05-7.25073E-14
 -1      1613 1.22603E-02 6.52923E-05-7.24579E-14
 -1      1614 1.26929E-02 5.71029E-05-7.73103E-14
 -1      1615 1.25501E-02 7.00203E-05-7.57042E-14
 -1      1616 1.25464E-02 3.99408E-05-7.56533E-14
 -1      1617 1.29785E-02 3.09091E-05-8.05339E-14
 -1      1618 1.28357E-02 4.40619E-05-7.89198E-14
 -1      1619 1.28322E-02 1.40249E-05-7.88686E-14
 -1      1620 1.32640E-02 4.31749E-06-8.37565E-14
 -1      1621 1.31213E-02 1.76572E-05-8.21472E-14
 -1      1622 1.31178E-02-1.23517E-05-8.20936E-14
 -1      1623 1.35495E-02-2.25797E-05-8.69691E-14
 -1      1624 1.34068E-02-9.09836E-06-8.53646E-14
 -1      1625 1.34034E-02-3.90905E-05-8.53109E-14
 -1      1626 1.38351E-02-4.96964E-05-9.01787E-14
 -1      1627 1.36923E-02-3.61156E-05-8.85735E-14
 -1      1628 1.36890E-02-6.60994E-05-8.85231E-14
 -1      1629 1.41206E-02-7.69528E-05-9.33773E-14
 -1      1630 1.39778E-02-6.33117E-05-9.17789E-14
 -1      1631 1.39746E-02-9.32937E-05-9.17290E-14
 -1      1632 1.44062E-02-1.04275E-04-9.65705E-14
 -1      1633 1.42634E-02-9.06098E-05-9.49751E-14
 -1      1634 1.42602E-02-1.20594E-04-9.49291E-14
 -1      1635 1.46919E-02-1.31596E-04-9.97566E-14
 -1      1636 1.45491E-02-1.17939E-04-9.81644E-14
 -1      1637 1.45459E-02-1.47929E-04-9.81213E-14
 -1      1638 1.48442E-02-1.56706E-04-1.01451E-13
 -1      1639 1.48897E-02-2.63235E-04-1.01945E-13
 -1      1640 1.48763E-02-2.21075E-04-1.01800E-13
 -1      1641 1.49165E-02-3.47589E-04-1.02246E-13
 -1      1642 1.49031E-02-3.05406E-04-1.02095E-13
 -1      1643 1.47727E-02-2.72500E-04-1.00637E-13
 -1      1644 1.49432E-02-4.31990E-04-1.02538E-13
 -1      1645 1.49298E-02-3.89784E-04-1.02392E-13
 -1      1646 1.47994E-02-3.56851E-04-1.00927E-13
 -1      1647 1.49701E-02-5.16435E-04-1.02839E-13
 -1      1648 1.49567E-02-4.74208E-04-1.02690E-13
 -1      1649 1.48262E-02-4.41236E-04-1.01217E-13
 -1      1650 1.49967E-02-5.99483E-04-1.03135E-13
 -1      1651 1.49834E-02-5.57955E-04-1.02988E-13
 -1      1652 1.48529E-02-5.24935E-04-1.01507E-13
 -1      1653 1.50238E-02-6.83986E-04-1.03421E-13
 -1      1654 1.50102E-02-6.41732E-04-1.03280E-13
 -1      1655 1.48797E-02-6.08656E-04-1.01790E-13
 -1      1656 1.50511E-02-7.68505E-04-1.03689E-13
 -1      1657 1.50374E-02-7.26244E-04-1.03554E-13
 -1      1658 1.49069E-02-6.93106E-04-1.02060E-13
 -1      1659 1.50785E-02-8.53030E-04-1.03944E-13
 -1      1660 1.50648E-02-8.10767E-04-1.03819E-13
 -1      1661 1.49342E-02-7.77566E-04-1.02320E-13
 -1      1662 1.51061E-02-9.37553E-04-1.04170E-13
 -1      1663 1.50923E-02-8.95292E-04-1.04059E-13
 -1      1664 1.49617E-02-8.62028E-04-1.02565E-13
 -1      1665 1.51339E-02-1.02207E-03-1.04402E-13
 -1      1666 1.51200E-02-9.79812E-04-1.04285E-13
 -1      1667 1.49893E-02-9.46488E-04-1.02794E-13
 -1      1668 1.51613E-02-1.10513E-03-1.04634E-13
 -1      1669 1.51476E-02-1.06360E-03-1.04520E-13
 -1      1670 1.50169E-02-1.03023E-03-1.03019E-13
 -1      1671 1.51893E-02-1.18960E-03-1.04860E-13
 -1      1672 1.51753E-02-1.14737E-03-1.04748E-13
 -1      1673 1.50446E-02-1.11395E-03-1.03239E-13
 -1      1674 1.52175E-02-1.27402E-03-1.05073E-13
 -1      1675 1.52034E-02-1.23181E-03-1.04969E-13
 -1      1676 1.50726E-02-1.19836E-03-1.03450E-13
 -1      1677 1.52457E-02-1.35840E-03-1.05278E-13
 -1      1678 1.52316E-02-1.31622E-03-1.05178E-13
 -1      1679 1.51008E-02-1.28275E-03-1.03652E-13
 -1      1680 1.52294E-02-1.43017E-03-1.04938E-13
 -1      1681 1.52153E-02-1.38801E-03-1.04852E-13
 -1      1682 1.50845E-02-1.35455E-03-1.03323E-13
 -1      1683 1.50237E-02-1.41376E-03-1.02462E-13
 -1      1684 8.26831E-03-1.17007E-04-2.35820E-14
 -1      1685 8.30862E-03-1.62367E-04-2.36686E-14
 -1      1686 8.08959E-03 3.76548E-06-2.31687E-14
 -1      1687 8.18654E-03-5.21642E-05-2.33572E-14
 -1      1688 7.81313E-03 1.43752E-04-2.26285E-14
 -1      1689 7.95098E-03 7.57338E-05-2.28982E-14
 -1      1690 7.46062E-03 3.13720E-04-2.18987E-14
 -1      1691 7.63218E-03 2.31878E-04-2.22567E-14
 -1      1692 7.05319E-03 4.90553E-04-2.10423E-14
 -1      1693 7.23854E-03 4.05568E-04-2.14688E-14
 -1      1694 6.66048E-03 6.49901E-04-2.00517E-14
 -1      1695 6.84120E-03 5.82696E-04-2.05042E-14
 -1      1696 6.28543E-03 7.46202E-04-1.90554E-14
 -1      1697 6.45743E-03 7.09972E-04-1.95096E-14
 -1      1698 5.91245E-03 7.69968E-04-1.80750E-14
 -1      1699 6.08319E-03 7.70036E-04-1.85239E-14
 -1      1700 5.51772E-03 7.07190E-04-1.70771E-14
 -1      1701 5.70308E-03 7.48155E-04-1.75322E-14
 -1      1702 5.11904E-03 5.78374E-04-1.62320E-14
 -1      1703 5.29596E-03 6.42633E-04-1.66056E-14
 -1      1704 4.74269E-03 4.20041E-04-1.55149E-14
 -1      1705 4.91492E-03 4.95646E-04-1.58297E-14
 -1      1706 4.38604E-03 2.56344E-04-1.49284E-14
 -1      1707 4.54693E-03 3.31655E-04-1.51826E-14
 -1      1708 4.08352E-03 9.80510E-05-1.44507E-14
 -1      1709 4.21742E-03 1.64097E-04-1.46348E-14
 -1      1710 3.88166E-03-1.30603E-05-1.42350E-14
 -1      1711 3.95760E-03 3.73770E-05-1.43268E-14
 -1      1712 3.80793E-03-1.14850E-04-1.41458E-14
 -1      1713 3.82546E-03-7.00661E-05-1.41555E-14
 -1      1714 3.87411E-03-2.18739E-04-1.42841E-14
 -1      1715 3.82622E-03-1.69833E-04-1.42060E-14
 -1      1716 4.08259E-03-3.38684E-04-1.45655E-14
 -1      1717 3.96972E-03-2.76789E-04-1.43930E-14
 -1      1718 4.37272E-03-4.98016E-04-1.50708E-14
 -1      1719 4.23070E-03-4.26427E-04-1.48392E-14
 -1      1720 4.71826E-03-6.68364E-04-1.56704E-14
 -1      1721 4.55303E-03-5.87319E-04-1.53773E-14
 -1      1722 5.10315E-03-8.43637E-04-1.63935E-14
 -1      1723 4.92557E-03-7.61266E-04-1.60372E-14
 -1      1724 5.47482E-03-9.95398E-04-1.72321E-14
 -1      1725 5.30320E-03-9.31098E-04-1.68431E-14
 -1      1726 5.87332E-03-1.10084E-03-1.81716E-14
 -1      1727 5.69727E-03-1.06175E-03-1.77132E-14
 -1      1728 6.23553E-03-1.11024E-03-1.91409E-14
 -1      1729 6.07099E-03-1.11321E-03-1.87106E-14
 -1      1730 6.60827E-03-1.04754E-03-2.01341E-14
 -1      1731 6.43304E-03-1.08863E-03-1.96762E-14
 -1      1732 6.98499E-03-9.21709E-04-2.10226E-14
 -1      1733 6.81823E-03-9.84240E-04-2.06240E-14
 -1      1734 7.34979E-03-7.64091E-04-2.18370E-14
 -1      1735 7.18143E-03-8.40247E-04-2.14720E-14
 -1      1736 7.70583E-03-5.83675E-04-2.26260E-14
 -1      1737 7.53880E-03-6.64655E-04-2.22949E-14
 -1      1738 8.01227E-03-4.42203E-04-2.31331E-14
 -1      1739 7.88598E-03-5.06758E-04-2.29055E-14
 -1      1740 8.22651E-03-3.13645E-04-2.35253E-14
 -1      1741 8.13861E-03-3.68512E-04-2.33818E-14
 -1      1742 8.31624E-03-2.13673E-04-2.36666E-14
 -1      1743 8.29184E-03-2.56579E-04-2.36324E-14
 -1      1744 7.28494E-03 3.18848E-04-2.19492E-14
 -1      1745 7.67720E-03 1.33786E-04-2.27646E-14
 -1      1746 1.48410E-02-1.86704E-04-1.01411E-13
 -1      1747 1.47240E-02-1.95962E-04-1.00102E-13
 -1      1748 8.22912E-03-1.20868E-04-2.39205E-14
 -1      1749 8.00102E-03-1.30201E-05-2.34183E-14
 -1      1750 8.32225E-03-1.91065E-04-2.41472E-14
 -1      1751 6.88399E-03 5.20349E-04-2.09656E-14
 -1      1752 6.51435E-03 6.89478E-04-1.98764E-14
 -1      1753 6.16536E-03 7.82854E-04-1.87998E-14
 -1      1754 5.82176E-03 7.82797E-04-1.77263E-14
 -1      1755 5.46053E-03 6.82330E-04-1.67193E-14
 -1      1756 5.07739E-03 5.18347E-04-1.58549E-14
 -1      1757 4.69874E-03 3.34566E-04-1.51317E-14
 -1      1758 4.33636E-03 1.56284E-04-1.45172E-14
 -1      1759 4.03552E-03 2.36081E-05-1.41125E-14
 -1      1760 3.84772E-03-6.50826E-05-1.39153E-14
 -1      1761 3.80741E-03-1.32636E-04-1.38967E-14
 -1      1762 3.92513E-03-2.10394E-04-1.40603E-14
 -1      1763 4.17860E-03-3.23807E-04-1.44306E-14
 -1      1764 4.51168E-03-4.88685E-04-1.49988E-14
 -1      1765 4.88800E-03-6.76846E-04-1.56597E-14
 -1      1766 5.26534E-03-8.73256E-04-1.64640E-14
 -1      1767 5.64299E-03-1.04119E-03-1.73863E-14
 -1      1768 5.97962E-03-1.13329E-03-1.84010E-14
 -1      1769 6.31969E-03-1.12336E-03-1.94769E-14
 -1      1770 6.65944E-03-1.02435E-03-2.05109E-14
 -1      1771 7.02341E-03-8.63817E-04-2.14616E-14
 -1      1772 7.39026E-03-6.72431E-04-2.23828E-14
 -1      1773 7.75204E-03-4.94338E-04-2.31373E-14
 -1      1774 8.06141E-03-3.56397E-04-2.36767E-14
 -1      1775 8.26142E-03-2.58938E-04-2.40383E-14
 -1      1776 2.85720E-04-1.70834E-04-3.90990E-17
 -1      1777 3.34212E-04-1.06911E-04-1.32530E-16
 -1      1778 3.38699E-04-1.23270E-04-1.23979E-16
 -1      1779 3.44847E-04-1.42595E-04-1.13611E-16
 -1      1780 3.54290E-04-1.65063E-04-9.90283E-17
 -1      1781 4.61893E-04-1.74998E-04-1.79842E-16
 -1      1782 3.24124E-04-5.70605E-05-1.50230E-16
 -1      1783 3.25931E-04-6.76390E-05-1.47506E-16
 -1      1784 3.21409E-04-3.76213E-05-1.53699E-16
 -1      1785 3.22638E-04-4.69909E-05-1.52276E-16
 -1      1786 4.35073E-04-6.90108E-05-2.23346E-16
 -1      1787 3.19749E-04-2.01811E-05-1.54675E-16
 -1      1788 3.20461E-04-2.86932E-05-1.54404E-16
 -1      1789 4.31397E-04-4.39979E-05-2.26951E-16
 -1      1790 3.19074E-04-3.77295E-06-1.54417E-16
 -1      1791 3.19293E-04-1.18871E-05-1.54729E-16
 -1      1792 4.29277E-04-2.12523E-05-2.27899E-16
 -1      1793 3.19362E-04 1.24809E-05-1.52371E-16
 -1      1794 3.19097E-04 4.33595E-06-1.53659E-16
 -1      1795 4.28632E-04 4.48364E-07-2.26910E-16
 -1      1796 3.20608E-04 2.94362E-05-1.48861E-16
 -1      1797 3.19860E-04 2.08353E-05-1.50962E-16
 -1      1798 4.29436E-04 2.22348E-05-2.23671E-16
 -1      1799 3.22795E-04 4.76535E-05-1.42952E-16
 -1      1800 3.21568E-04 3.83213E-05-1.46272E-16
 -1      1801 4.31663E-04 4.50241E-05-2.17776E-16
 -1      1802 3.26136E-04 6.87828E-05-1.33940E-16
 -1      1803 3.24289E-04 5.78595E-05-1.38995E-16
 -1      1804 4.35383E-04 7.01684E-05-2.08533E-16
 -1      1805 3.31066E-04 9.39496E-05-1.21065E-16
 -1      1806 3.28328E-04 8.08233E-05-1.28356E-16
 -1      1807 4.40942E-04 9.93353E-05-1.95034E-16
 -1      1808 3.38974E-04 1.25570E-04-1.01319E-16
 -1      1809 3.34437E-04 1.08886E-04-1.12513E-16
 -1      1810 4.49171E-04 1.34347E-04-1.75234E-16
 -1      1811 3.54746E-04 1.68839E-04-7.19233E-17
 -1      1812 3.45379E-04 1.45541E-04-8.82812E-17
 -1      1813 4.62816E-04 1.78663E-04-1.46015E-16
 -1      1814 4.09496E-04 2.24738E-04-5.11472E-17
 -1      1815 3.80399E-04 1.93739E-04-6.47404E-17
 -1      1816 4.99475E-04 2.31362E-04-1.19506E-16
 -1      1817 5.61453E-04 2.89501E-04-9.80119E-17
 -1      1818 3.41824E-04-1.83238E-04-7.07984E-17
 -1      1819 8.59680E-04 3.85636E-04-2.66470E-16
 -1      1820 7.11482E-04 3.42185E-04-1.70274E-16
 -1      1821 6.78215E-04 3.11800E-04-1.83948E-16
 -1      1822 4.62087E-04-2.25294E-04-1.28370E-16
 -1      1823 8.13727E-04-3.52597E-04-3.48463E-16
 -1      1824 9.61132E-04-3.89169E-04-4.88989E-16
 -1      1825 1.10655E-03-4.19127E-04-6.55251E-16
 -1      1826 1.25131E-03-4.43197E-04-8.47697E-16
 -1      1827 1.01393E-03-3.68979E-04-6.02789E-16
 -1      1828 1.39535E-03-4.62751E-04-1.06588E-15
 -1      1829 1.53934E-03-4.78132E-04-1.31003E-15
 -1      1830 1.30502E-03-4.17139E-04-9.93183E-16
 -1      1831 1.68347E-03-4.90272E-04-1.57972E-15
 -1      1832 1.82813E-03-4.99491E-04-1.87468E-15
 -1      1833 1.59479E-03-4.47883E-04-1.48579E-15
 -1      1834 1.97349E-03-5.06464E-04-2.19483E-15
 -1      1835 2.11984E-03-5.11516E-04-2.54023E-15
 -1      1836 1.88521E-03-4.66126E-04-2.07886E-15
 -1      1837 2.26731E-03-5.15210E-04-2.91066E-15
 -1      1838 2.41614E-03-5.17905E-04-3.30545E-15
 -1      1839 2.17796E-03-4.75861E-04-2.77209E-15
 -1      1840 2.56641E-03-5.20155E-04-3.72545E-15
 -1      1841 2.71836E-03-5.22372E-04-4.17010E-15
 -1      1842 2.47441E-03-4.80717E-04-3.56408E-15
 -1      1843 2.87205E-03-5.25181E-04-4.63873E-15
 -1      1844 3.02766E-03-5.29077E-04-5.13145E-15
 -1      1845 2.77572E-03-4.84434E-04-4.45316E-15
 -1      1846 3.18525E-03-5.34819E-04-5.64808E-15
 -1      1847 3.34491E-03-5.43019E-04-6.18756E-15
 -1      1848 3.08299E-03-4.91280E-04-5.43841E-15
 -1      1849 3.50677E-03-5.54595E-04-6.75084E-15
 -1      1850 3.67069E-03-5.70291E-04-7.33780E-15
 -1      1851 3.39726E-03-5.06418E-04-6.51734E-15
 -1      1852 3.83695E-03-5.91139E-04-7.94732E-15
 -1      1853 4.00501E-03-6.17974E-04-8.58016E-15
 -1      1854 3.71955E-03-5.36144E-04-7.68916E-15
 -1      1855 4.17540E-03-6.51737E-04-9.23593E-15
 -1      1856 4.34697E-03-6.93181E-04-9.91473E-15
 -1      1857 4.05075E-03-5.87725E-04-8.95242E-15
 -1      1858 4.52051E-03-7.42725E-04-1.06168E-14
 -1      1859 4.69415E-03-8.00554E-04-1.13422E-14
 -1      1860 4.39123E-03-6.68387E-04-1.03080E-14
 -1      1861 4.86876E-03-8.65935E-04-1.20901E-14
 -1      1862 5.04199E-03-9.37726E-04-1.28620E-14
 -1      1863 4.73974E-03-7.82537E-04-1.17549E-14
 -1      1864 5.21437E-03-1.01342E-03-1.36587E-14
 -1      1865 5.38388E-03-1.08970E-03-1.44792E-14
 -1      1866 5.09201E-03-9.26760E-04-1.32954E-14
 -1      1867 5.55033E-03-1.16230E-03-1.53248E-14
 -1      1868 5.71363E-03-1.22626E-03-1.61960E-14
 -1      1869 5.44021E-03-1.08304E-03-1.49313E-14
 -1      1870 5.87265E-03-1.27706E-03-1.70942E-14
 -1      1871 6.03041E-03-1.31003E-03-1.80178E-14
 -1      1872 5.77652E-03-1.21648E-03-1.66693E-14
 -1      1873 6.18536E-03-1.32284E-03-1.89693E-14
 -1      1874 6.34235E-03-1.31485E-03-1.99492E-14
 -1      1875 6.10053E-03-1.28568E-03-1.85147E-14
 -1      1876 6.49979E-03-1.28731E-03-2.09562E-14
 -1      1877 6.66139E-03-1.24391E-03-2.19899E-14
 -1      1878 6.42274E-03-1.26781E-03-2.04687E-14
 -1      1879 6.82594E-03-1.18886E-03-2.30499E-14
 -1      1880 6.99421E-03-1.12730E-03-2.41373E-14
 -1      1881 6.75534E-03-1.17571E-03-2.25340E-14
 -1      1882 7.16570E-03-1.06379E-03-2.52491E-14
 -1      1883 7.33886E-03-1.00234E-03-2.63856E-14
 -1      1884 7.10138E-03-1.04803E-03-2.47048E-14
 -1      1885 7.51400E-03-9.46029E-04-2.75449E-14
 -1      1886 7.68880E-03-8.96653E-04-2.87251E-14
 -1      1887 7.45448E-03-9.23503E-04-2.69751E-14
 -1      1888 7.86405E-03-8.55426E-04-2.99260E-14
 -1      1889 8.03772E-03-8.22492E-04-3.11453E-14
 -1      1890 7.80634E-03-8.25693E-04-2.93323E-14
 -1      1891 8.21062E-03-7.97734E-04-3.23850E-14
 -1      1892 8.38145E-03-7.80529E-04-3.36416E-14
 -1      1893 8.15156E-03-7.61906E-04-3.17683E-14
 -1      1894 8.55080E-03-7.70084E-04-3.49164E-14
 -1      1895 8.71801E-03-7.65603E-04-3.62066E-14
 -1      1896 8.48819E-03-7.29617E-04-3.42784E-14
 -1      1897 8.88340E-03-7.66117E-04-3.75149E-14
 -1      1898 9.04677E-03-7.70904E-04-3.88426E-14
 -1      1899 8.81630E-03-7.22384E-04-3.68568E-14
 -1      1900 9.20827E-03-7.79096E-04-4.01857E-14
 -1      1901 9.36796E-03-7.90120E-04-4.15452E-14
 -1      1902 9.13672E-03-7.33256E-04-3.95051E-14
 -1      1903 9.52588E-03-8.03302E-04-4.29211E-14
 -1      1904 9.68224E-03-8.18216E-04-4.43117E-14
 -1      1905 9.45048E-03-7.56255E-04-4.22200E-14
 -1      1906 9.83702E-03-8.34389E-04-4.57192E-14
 -1      1907 9.99048E-03-8.51513E-04-4.71409E-14
 -1      1908 9.75857E-03-7.86791E-04-4.49983E-14
 -1      1909 1.01426E-02-8.69281E-04-4.85770E-14
 -1      1910 1.02936E-02-8.87477E-04-5.00255E-14
 -1      1911 1.00619E-02-8.21575E-04-4.78399E-14
 -1      1912 1.04435E-02-9.05915E-04-5.14863E-14
 -1      1913 1.05926E-02-9.24447E-04-5.29601E-14
 -1      1914 1.03612E-02-8.58379E-04-5.07348E-14
 -1      1915 1.07407E-02-9.42972E-04-5.44463E-14
 -1      1916 1.08881E-02-9.61393E-04-5.59433E-14
 -1      1917 1.06573E-02-8.95765E-04-5.36783E-14
 -1      1918 1.10348E-02-9.79663E-04-5.74511E-14
 -1      1919 1.11810E-02-9.97719E-04-5.89681E-14
 -1      1920 1.09508E-02-9.32854E-04-5.66684E-14
 -1      1921 1.13266E-02-1.01555E-03-6.04946E-14
 -1      1922 1.14718E-02-1.03312E-03-6.20295E-14
 -1      1923 1.12423E-02-9.69157E-04-5.97020E-14
 -1      1924 1.16166E-02-1.05044E-03-6.35715E-14
 -1      1925 1.17611E-02-1.06748E-03-6.51236E-14
 -1      1926 1.15321E-02-1.00444E-03-6.27688E-14
 -1      1927 1.19053E-02-1.08427E-03-6.66815E-14
 -1      1928 1.20492E-02-1.10080E-03-6.82478E-14
 -1      1929 1.18207E-02-1.03863E-03-6.58680E-14
 -1      1930 1.21929E-02-1.11709E-03-6.98239E-14
 -1      1931 1.23365E-02-1.13314E-03-7.14059E-14
 -1      1932 1.21084E-02-1.07177E-03-6.90013E-14
 -1      1933 1.24798E-02-1.14899E-03-7.29983E-14
 -1      1934 1.26231E-02-1.16462E-03-7.45967E-14
 -1      1935 1.23954E-02-1.10394E-03-7.21657E-14
 -1      1936 1.27663E-02-1.18008E-03-7.62058E-14
 -1      1937 1.29093E-02-1.19536E-03-7.78224E-14
 -1      1938 1.26819E-02-1.13525E-03-7.53633E-14
 -1      1939 1.30524E-02-1.21049E-03-7.94478E-14
 -1      1940 1.31953E-02-1.22547E-03-8.10835E-14
 -1      1941 1.29681E-02-1.16584E-03-7.85928E-14
 -1      1942 1.33382E-02-1.24034E-03-8.27240E-14
 -1      1943 1.34811E-02-1.25509E-03-8.43719E-14
 -1      1944 1.32541E-02-1.19582E-03-8.18558E-14
 -1      1945 1.36240E-02-1.26974E-03-8.60271E-14
 -1      1946 1.37668E-02-1.28431E-03-8.76824E-14
 -1      1947 1.35399E-02-1.22533E-03-8.51446E-14
 -1      1948 1.39096E-02-1.29880E-03-8.93414E-14
 -1      1949 1.40525E-02-1.31323E-03-9.10084E-14
 -1      1950 1.38257E-02-1.25447E-03-8.84540E-14
 -1      1951 1.41953E-02-1.32761E-03-9.26792E-14
 -1      1952 1.43381E-02-1.34195E-03-9.43530E-14
 -1      1953 1.41114E-02-1.28333E-03-9.17785E-14
 -1      1954 1.44809E-02-1.35626E-03-9.60353E-14
 -1      1955 1.46237E-02-1.37055E-03-9.77191E-14
 -1      1956 1.43970E-02-1.31200E-03-9.51270E-14
 -1      1957 1.47523E-02-1.38502E-03-9.92350E-14
 -1      1958 1.48951E-02-1.39929E-03-1.00932E-13
 -1      1959 1.49255E-02-1.36969E-03-1.01363E-13
 -1      1960 1.46684E-02-1.34077E-03-9.83215E-14
 -1      1961 1.14966E-03 4.49862E-04-5.31842E-16
 -1      1962 1.00519E-03 4.21003E-04-3.86626E-16
 -1      1963 9.73107E-04 3.91666E-04-4.02483E-16
 -1      1964 1.43583E-03 4.92490E-04-8.95781E-16
 -1      1965 1.29285E-03 4.73465E-04-7.01276E-16
 -1      1966 1.26305E-03 4.45316E-04-7.17742E-16
 -1      1967 1.72184E-03 5.20081E-04-1.36001E-15
 -1      1968 1.57863E-03 5.07886E-04-1.11544E-15
 -1      1969 1.55085E-03 4.80505E-04-1.13218E-15
 -1      1970 2.01017E-03 5.37356E-04-1.92403E-15
 -1      1971 1.86557E-03 5.29783E-04-1.62938E-15
 -1      1972 1.83916E-03 5.02754E-04-1.64585E-15
 -1      1973 2.30251E-03 5.48207E-04-2.58642E-15
 -1      1974 2.15574E-03 5.43378E-04-2.24305E-15
 -1      1975 2.12990E-03 5.16349E-04-2.25834E-15
 -1      1976 2.60000E-03 5.56258E-04-3.34583E-15
 -1      1977 2.45054E-03 5.52377E-04-2.95449E-15
 -1      1978 2.42446E-03 5.25030E-04-2.96800E-15
 -1      1979 2.90339E-03 5.65209E-04-4.19966E-15
 -1      1980 2.75092E-03 5.60407E-04-3.76060E-15
 -1      1981 2.72382E-03 5.32434E-04-3.77250E-15
 -1      1982 3.21299E-03 5.79026E-04-5.14768E-15
 -1      1983 3.05741E-03 5.71286E-04-4.66181E-15
 -1      1984 3.02863E-03 5.42378E-04-4.67063E-15
 -1      1985 3.52856E-03 6.01939E-04-6.18589E-15
 -1      1986 3.37008E-03 5.89128E-04-5.65585E-15
 -1      1987 3.33915E-03 5.58984E-04-5.66147E-15
 -1      1988 3.84911E-03 6.38125E-04-7.31480E-15
 -1      1989 3.68834E-03 6.18200E-04-6.73893E-15
 -1      1990 3.65518E-03 5.86579E-04-6.74203E-15
 -1      1991 4.17275E-03 6.90876E-04-8.53232E-15
 -1      1992 4.01078E-03 6.62375E-04-7.91270E-15
 -1      1993 3.97585E-03 6.29196E-04-7.91258E-15
 -1      1994 4.49655E-03 7.61104E-04-9.84208E-15
 -1      1995 4.33497E-03 7.23975E-04-9.17568E-15
 -1      1996 4.29941E-03 6.89485E-04-9.17253E-15
 -1      1997 4.81674E-03 8.45306E-04-1.12455E-14
 -1      1998 4.65749E-03 8.01963E-04-1.05320E-14
 -1      1999 4.62306E-03 7.66917E-04-1.05248E-14
 -1      2000 5.12944E-03 9.33729E-04-1.27465E-14
 -1      2001 4.97434E-03 8.89859E-04-1.19837E-14
 -1      2002 4.94314E-03 8.55577E-04-1.19721E-14
 -1      2003 5.43212E-03 1.01035E-03-1.43469E-14
 -1      2004 5.28211E-03 9.74599E-04-1.35340E-14
 -1      2005 5.25594E-03 9.42681E-04-1.35176E-14
 -1      2006 5.72530E-03 1.05635E-03-1.60505E-14
 -1      2007 5.57961E-03 1.03812E-03-1.51853E-14
 -1      2008 5.55952E-03 1.00978E-03-1.51637E-14
 -1      2009 6.01330E-03 1.05688E-03-1.78596E-14
 -1      2010 5.86933E-03 1.06263E-03-1.69428E-14
 -1      2011 5.85543E-03 1.03799E-03-1.69147E-14
 -1      2012 6.30291E-03 1.00803E-03-1.97674E-14
 -1      2013 6.15724E-03 1.03820E-03-1.88004E-14
 -1      2014 6.14909E-03 1.01610E-03-1.87684E-14
 -1      2015 6.60019E-03 9.18657E-04-2.17812E-14
 -1      2016 6.45014E-03 9.67409E-04-2.07609E-14
 -1      2017 6.44716E-03 9.46143E-04-2.07254E-14
 -1      2018 6.90807E-03 8.06062E-04-2.38929E-14
 -1      2019 6.75271E-03 8.64132E-04-2.28246E-14
 -1      2020 6.75410E-03 8.42274E-04-2.27834E-14
 -1      2021 7.22573E-03 6.88713E-04-2.61020E-14
 -1      2022 7.06587E-03 7.47113E-04-2.49865E-14
 -1      2023 7.07045E-03 7.23979E-04-2.49410E-14
 -1      2024 7.55002E-03 5.80451E-04-2.83994E-14
 -1      2025 7.38738E-03 6.32981E-04-2.72394E-14
 -1      2026 7.39361E-03 6.08541E-04-2.71904E-14
 -1      2027 7.87707E-03 4.88586E-04-3.07791E-14
 -1      2028 7.71353E-03 5.32353E-04-2.95792E-14
 -1      2029 7.71982E-03 5.06899E-04-2.95257E-14
 -1      2030 8.20352E-03 4.14884E-04-3.32381E-14
 -1      2031 8.04063E-03 4.49566E-04-3.19986E-14
 -1      2032 8.04569E-03 4.23455E-04-3.19424E-14
 -1      2033 8.52696E-03 3.57660E-04-3.57690E-14
 -1      2034 8.36579E-03 3.84409E-04-3.44952E-14
 -1      2035 8.36884E-03 3.57951E-04-3.44356E-14
 -1      2036 8.84599E-03 3.13677E-04-3.83780E-14
 -1      2037 8.68712E-03 3.34226E-04-3.70646E-14
 -1      2038 8.68788E-03 3.07654E-04-3.70007E-14
 -1      2039 9.16001E-03 2.79415E-04-4.10519E-14
 -1      2040 9.00366E-03 2.95518E-04-3.97073E-14
 -1      2041 9.00219E-03 2.68996E-04-3.96383E-14
 -1      2042 9.46902E-03 2.51736E-04-4.37926E-14
 -1      2043 9.31513E-03 2.64901E-04-4.24137E-14
 -1      2044 9.31171E-03 2.38535E-04-4.23434E-14
 -1      2045 9.77336E-03 2.28127E-04-4.65936E-14
 -1      2046 9.62174E-03 2.39532E-04-4.51850E-14
 -1      2047 9.61674E-03 2.13382E-04-4.51106E-14
 -1      2048 1.00736E-02 2.06726E-04-4.94517E-14
 -1      2049 9.92395E-03 2.17226E-04-4.80149E-14
 -1      2050 9.91775E-03 1.91318E-04-4.79369E-14
 -1      2051 1.03704E-02 1.86230E-04-5.23638E-14
 -1      2052 1.02224E-02 1.96413E-04-5.09018E-14
 -1      2053 1.02153E-02 1.70748E-04-5.08205E-14
 -1      2054 1.06643E-02 1.65786E-04-5.53319E-14
 -1      2055 1.05176E-02 1.76031E-04-5.38423E-14
 -1      2056 1.05100E-02 1.50595E-04-5.37596E-14
 -1      2057 1.09559E-02 1.44877E-04-5.83438E-14
 -1      2058 1.08104E-02 1.55405E-04-5.68321E-14
 -1      2059 1.08023E-02 1.30175E-04-5.67468E-14
 -1      2060 1.12458E-02 1.23221E-04-6.14014E-14
 -1      2061 1.11011E-02 1.34148E-04-5.98670E-14
 -1      2062 1.10928E-02 1.09096E-04-5.97780E-14
 -1      2063 1.15344E-02 1.00700E-04-6.44925E-14
 -1      2064 1.13902E-02 1.12069E-04-6.29437E-14
 -1      2065 1.13819E-02 8.71658E-05-6.28490E-14
 -1      2066 1.18219E-02 7.73024E-05-6.76151E-14
 -1      2067 1.16782E-02 8.91073E-05-6.60502E-14
 -1      2068 1.16699E-02 6.43271E-05-6.59527E-14
 -1      2069 1.21088E-02 5.30797E-05-7.07701E-14
 -1      2070 1.19654E-02 6.52888E-05-6.91881E-14
 -1      2071 1.19571E-02 4.06065E-05-6.90910E-14
 -1      2072 1.23951E-02 2.81193E-05-7.39520E-14
 -1      2073 1.22520E-02 4.06855E-05-7.23583E-14
 -1      2074 1.22437E-02 1.60798E-05-7.22581E-14
 -1      2075 1.26811E-02 2.52458E-06-7.71585E-14
 -1      2076 1.25382E-02 1.53948E-05-7.55524E-14
 -1      2077 1.25300E-02-9.15247E-06-7.54506E-14
 -1      2078 1.29669E-02-2.35970E-05-8.03771E-14
 -1      2079 1.28240E-02-1.04765E-05-7.87665E-14
 -1      2080 1.28159E-02-3.49806E-05-7.86633E-14
 -1      2081 1.32526E-02-5.01411E-05-8.35999E-14
 -1      2082 1.31098E-02-3.68220E-05-8.19900E-14
 -1      2083 1.31017E-02-6.12952E-05-8.18861E-14
 -1      2084 1.35382E-02-7.70099E-05-8.68153E-14
 -1      2085 1.33954E-02-6.35401E-05-8.52085E-14
 -1      2086 1.33874E-02-8.79926E-05-8.51049E-14
 -1      2087 1.38239E-02-1.04113E-04-9.00258E-14
 -1      2088 1.36811E-02-9.05370E-05-8.84207E-14
 -1      2089 1.36731E-02-1.14977E-04-8.83191E-14
 -1      2090 1.41095E-02-1.31368E-04-9.32309E-14
 -1      2091 1.39667E-02-1.17726E-04-9.16291E-14
 -1      2092 1.39587E-02-1.42160E-04-9.15281E-14
 -1      2093 1.43951E-02-1.58697E-04-9.64310E-14
 -1      2094 1.42523E-02-1.45027E-04-9.48334E-14
 -1      2095 1.42444E-02-1.69462E-04-9.47349E-14
 -1      2096 1.46310E-02-1.84166E-04-9.90654E-14
 -1      2097 1.44881E-02-1.70499E-04-9.74692E-14
 -1      2098 1.44802E-02-1.94937E-04-9.73761E-14
 -1      2099 1.46663E-02-2.18542E-04-9.94536E-14
 -1      2100 1.47092E-02-4.50452E-04-9.98930E-14
 -1      2101 1.46958E-02-4.08267E-04-9.97505E-14
 -1      2102 1.46824E-02-3.66087E-04-9.96085E-14
 -1      2103 1.46690E-02-3.23913E-04-9.94671E-14
 -1      2104 1.45654E-02-3.75305E-04-9.82856E-14
 -1      2105 1.46743E-02-2.92305E-04-9.95310E-14
 -1      2106 1.46610E-02-2.50142E-04-9.93882E-14
 -1      2107 1.45679E-02-2.38337E-04-9.83469E-14
 -1      2108 1.45573E-02-3.01537E-04-9.82130E-14
 -1      2109 1.47357E-02-5.33403E-04-1.00168E-13
 -1      2110 1.47224E-02-4.91926E-04-1.00030E-13
 -1      2111 1.45920E-02-4.58930E-04-9.85583E-14
 -1      2112 1.47627E-02-6.17795E-04-1.00440E-13
 -1      2113 1.47492E-02-5.75598E-04-1.00305E-13
 -1      2114 1.46187E-02-5.42560E-04-9.88240E-14
 -1      2115 1.47899E-02-7.02193E-04-1.00700E-13
 -1      2116 1.47763E-02-6.59994E-04-1.00573E-13
 -1      2117 1.46458E-02-6.26906E-04-9.90854E-14
 -1      2118 1.48173E-02-7.86594E-04-1.00955E-13
 -1      2119 1.48036E-02-7.44394E-04-1.00829E-13
 -1      2120 1.46730E-02-7.11250E-04-9.93383E-14
 -1      2121 1.48448E-02-8.70997E-04-1.01190E-13
 -1      2122 1.48310E-02-8.28796E-04-1.01073E-13
 -1      2123 1.47004E-02-7.95593E-04-9.95813E-14
 -1      2124 1.48725E-02-9.55398E-04-1.01419E-13
 -1      2125 1.48586E-02-9.13198E-04-1.01306E-13
 -1      2126 1.47280E-02-8.79937E-04-9.98133E-14
 -1      2127 1.48999E-02-1.03836E-03-1.01632E-13
 -1      2128 1.48862E-02-9.96882E-04-1.01525E-13
 -1      2129 1.47555E-02-9.63567E-04-1.00034E-13
 -1      2130 1.49278E-02-1.12275E-03-1.01841E-13
 -1      2131 1.49138E-02-1.08056E-03-1.01737E-13
 -1      2132 1.47831E-02-1.04720E-03-1.00238E-13
 -1      2133 1.49559E-02-1.20713E-03-1.02036E-13
 -1      2134 1.49419E-02-1.16494E-03-1.01939E-13
 -1      2135 1.48111E-02-1.13155E-03-1.00434E-13
 -1      2136 1.49841E-02-1.29148E-03-1.02227E-13
 -1      2137 1.49700E-02-1.24931E-03-1.02134E-13
 -1      2138 1.48392E-02-1.21589E-03-1.00621E-13
 -1      2139 7.91270E-03-2.47330E-05-2.37164E-14
 -1      2140 8.05314E-03-7.77809E-05-2.39953E-14
 -1      2141 8.32306E-03-1.90284E-04-2.48086E-14
 -1      2142 8.33009E-03-2.04017E-04-2.48091E-14
 -1      2143 8.17580E-03-1.30130E-04-2.43626E-14
 -1      2144 8.26229E-03-1.59917E-04-2.45924E-14
 -1      2145 7.54829E-03 1.25314E-04-2.30649E-14
 -1      2146 7.72263E-03 4.43922E-05-2.34503E-14
 -1      2147 7.17131E-03 3.19732E-04-2.21641E-14
 -1      2148 7.36381E-03 2.18941E-04-2.26104E-14
 -1      2149 7.44922E-03 1.42665E-04-2.32839E-14
 -1      2150 3.28107E-04-7.94338E-05-1.43765E-16
 -1      2151 3.30834E-04-9.23330E-05-1.38737E-16
 -1      2152 4.48724E-04-1.31947E-04-2.01797E-16
 -1      2153 4.40577E-04-9.76802E-05-2.15390E-16
 -1      2154 6.39590E-03 7.32306E-04-1.96920E-14
 -1      2155 6.55053E-03 6.61864E-04-2.02397E-14
 -1      2156 6.08631E-03 8.09869E-04-1.85688E-14
 -1      2157 6.23083E-03 7.83290E-04-1.91017E-14
 -1      2158 5.76788E-03 7.87023E-04-1.73898E-14
 -1      2159 5.91353E-03 8.15040E-04-1.79283E-14
 -1      2160 5.40129E-03 6.42724E-04-1.62612E-14
 -1      2161 5.56389E-03 7.18603E-04-1.67227E-14
 -1      2162 5.06595E-03 4.69683E-04-1.54707E-14
 -1      2163 5.23660E-03 5.62735E-04-1.58634E-14
 -1      2164 5.34433E-03 6.05607E-04-1.58658E-14
 -1      2165 4.65068E-03 2.58568E-04-1.47093E-14
 -1      2166 4.83014E-03 3.50822E-04-1.50301E-14
 -1      2167 4.29074E-03 8.75829E-05-1.40980E-14
 -1      2168 4.46014E-03 1.65477E-04-1.43804E-14
 -1      2169 3.97530E-03-3.53474E-05-1.36466E-14
 -1      2170 4.09935E-03 4.82050E-06-1.37605E-14
 -1      2171 3.82051E-03-8.96418E-05-1.35696E-14
 -1      2172 3.87975E-03-6.57912E-05-1.36458E-14
 -1      2173 3.81544E-03-1.34852E-04-1.35764E-14
 -1      2174 3.79550E-03-1.16621E-04-1.35183E-14
 -1      2175 3.97314E-03-1.94650E-04-1.37799E-14
 -1      2176 3.87633E-03-1.64136E-04-1.36798E-14
 -1      2177 4.28666E-03-3.21928E-04-1.42776E-14
 -1      2178 4.13436E-03-2.56455E-04-1.40154E-14
 -1      2179 4.63574E-03-4.92521E-04-1.48912E-14
 -1      2180 4.46222E-03-4.06976E-04-1.45966E-14
 -1      2181 5.01816E-03-6.96582E-04-1.56084E-14
 -1      2182 4.83466E-03-5.95737E-04-1.52533E-14
 -1      2183 5.40022E-03-9.15253E-04-1.65380E-14
 -1      2184 5.23282E-03-8.17356E-04-1.60974E-14
 -1      2185 5.73781E-03-1.07707E-03-1.74775E-14
 -1      2186 5.57549E-03-1.00272E-03-1.70032E-14
 -1      2187 5.50879E-03-9.57842E-04-1.66263E-14
 -1      2188 6.08698E-03-1.16084E-03-1.87351E-14
 -1      2189 5.94749E-03-1.14299E-03-1.81964E-14
 -1      2190 6.37085E-03-1.12678E-03-1.98080E-14
 -1      2191 6.23132E-03-1.15596E-03-1.92672E-14
 -1      2192 6.16829E-03-1.17097E-03-1.90568E-14
 -1      2193 6.72033E-03-9.86390E-04-2.09656E-14
 -1      2194 6.56315E-03-1.05993E-03-2.04655E-14
 -1      2195 7.04690E-03-8.15923E-04-2.18836E-14
 -1      2196 6.88137E-03-9.07265E-04-2.14227E-14
 -1      2197 6.77844E-03-9.48547E-04-2.13776E-14
 -1      2198 7.42562E-03-6.02938E-04-2.29342E-14
 -1      2199 7.24837E-03-7.02684E-04-2.24619E-14
 -1      2200 7.81947E-03-4.15420E-04-2.37632E-14
 -1      2201 7.65013E-03-4.88826E-04-2.34699E-14
 -1      2202 8.10006E-03-3.03316E-04-2.42755E-14
 -1      2203 7.96887E-03-3.54022E-04-2.40182E-14
 -1      2204 7.88651E-03-3.65531E-04-2.43542E-14
 -1      2205 8.29468E-03-2.28640E-04-2.46806E-14
 -1      2206 8.22599E-03-2.52670E-04-2.45715E-14
 -1      2207 6.74088E-03 5.62667E-04-2.09050E-14
 -1      2208 6.91669E-03 4.59992E-04-2.14548E-14
 -1      2209 6.12350E-04-2.82379E-04-2.10118E-16
 -1      2210 7.03448E-03 3.73321E-04-2.21001E-14
 -1      2211 6.62324E-03 6.13829E-04-2.07142E-14
 -1      2212 6.69183E-04-2.74095E-04-2.84630E-16
 -1      2213 8.11301E-03-1.25428E-04-2.46605E-14
 -1      2214 8.30310E-03-1.85456E-04-2.52504E-14
 -1      2215 1.49537E-02-1.32110E-03-1.01803E-13
 -1      2216 7.80567E-03-1.41430E-05-2.40195E-14
 -1      2217 8.32305E-03-2.13336E-04-2.53404E-14
 -1      2218 8.16470E-03-2.64930E-04-2.49121E-14
 -1      2219 7.11874E-03-7.55693E-04-2.24211E-14
 -1      2220 6.45927E-03-1.10173E-03-2.02507E-14
 -1      2221 5.85995E-03-1.12388E-03-1.78021E-14
 -1      2222 5.78037E-03-1.09303E-03-1.74117E-14
 -1      2223 5.95671E-03-1.15555E-03-1.81280E-14
 -1      2224 5.14691E-03-7.47203E-04-1.56800E-14
 -1      2225 4.75346E-03-5.22706E-04-1.48414E-14
 -1      2226 4.38848E-03-3.40327E-04-1.41713E-14
 -1      2227 4.05121E-03-2.06277E-04-1.36279E-14
 -1      2228 3.83793E-03-1.36640E-04-1.32977E-14
 -1      2229 3.79787E-03-1.04590E-04-1.32478E-14
 -1      2230 3.92156E-03-6.19886E-05-1.32975E-14
 -1      2231 4.19334E-03 2.83469E-05-1.36243E-14
 -1      2232 4.97956E-03 4.06504E-04-1.50367E-14
 -1      2233 5.67128E-03 7.61382E-04-1.69162E-14
 -1      2234 6.30036E-03 7.65888E-04-1.94543E-14
 -1      2235 5.99539E-03 8.24450E-04-1.82203E-14
 -1      2236 4.57272E-03 1.95262E-04-1.42803E-14
 -1      2237 7.52866E-03-5.30430E-04-2.35490E-14
 -1      2238 1.02645E-03 3.71427E-04-5.13776E-16
 -1      2239 8.79930E-04 3.39510E-04-3.75513E-16
 -1      2240 5.42730E-04-4.73764E-05-3.22469E-16
 -1      2241 5.44726E-04-6.20118E-05-3.21195E-16
 -1      2242 5.47296E-04-7.74765E-05-3.18810E-16
 -1      2243 5.50433E-04-9.38645E-05-3.15083E-16
 -1      2244 6.60285E-04-8.24512E-05-4.33437E-16
 -1      2245 5.39910E-04 7.22020E-06-3.20897E-16
 -1      2246 5.39850E-04-6.15478E-06-3.22469E-16
 -1      2247 5.41537E-04 3.45045E-05-3.15665E-16
 -1      2248 5.40475E-04 2.07415E-05-3.18728E-16
 -1      2249 6.52712E-04 1.65063E-05-4.33112E-16
 -1      2250 5.45116E-04 6.30753E-05-3.06599E-16
 -1      2251 5.43084E-04 4.85107E-05-3.11640E-16
 -1      2252 6.55477E-04 4.89284E-05-4.25007E-16
 -1      2253 5.50912E-04 9.53703E-05-2.92857E-16
 -1      2254 5.47737E-04 7.87468E-05-3.00405E-16
 -1      2255 6.60866E-04 8.37621E-05-4.11834E-16
 -1      2256 5.59406E-04 1.32691E-04-2.73151E-16
 -1      2257 5.54793E-04 1.13317E-04-2.84007E-16
 -1      2258 6.69199E-04 1.23016E-04-3.92712E-16
 -1      2259 5.72018E-04 1.77483E-04-2.44677E-16
 -1      2260 5.65124E-04 1.54017E-04-2.60181E-16
 -1      2261 6.81218E-04 1.68399E-04-3.65227E-16
 -1      2262 1.31712E-03 4.19240E-04-8.62781E-16
 -1      2263 1.17199E-03 3.97889E-04-6.75946E-16
 -1      2264 1.08194E-03 3.50412E-04-6.30992E-16
 -1      2265 9.23614E-04-3.19565E-04-5.48417E-16
 -1      2266 1.06965E-03-3.48117E-04-7.21144E-16
 -1      2267 6.91639E-03 4.30765E-04-2.21330E-14
 -1      2268 7.13506E-03 2.98176E-04-2.28599E-14
 -1      2269 1.21511E-03-3.71590E-04-9.19159E-16
 -1      2270 1.36050E-03-3.90428E-04-1.14249E-15
 -1      2271 1.12667E-03-3.26569E-04-8.44295E-16
 -1      2272 1.50560E-03-4.05487E-04-1.39080E-15
 -1      2273 1.65079E-03-4.17102E-04-1.66456E-15
 -1      2274 1.41677E-03-3.63317E-04-1.29566E-15
 -1      2275 1.79606E-03-4.25993E-04-1.96288E-15
 -1      2276 1.94169E-03-4.32445E-04-2.28597E-15
 -1      2277 1.70679E-03-3.86133E-04-1.84623E-15
 -1      2278 2.08772E-03-4.37064E-04-2.63349E-15
 -1      2279 2.23438E-03-4.40152E-04-3.00607E-15
 -1      2280 1.99726E-03-3.98771E-04-2.49541E-15
 -1      2281 2.38171E-03-4.42267E-04-3.40262E-15
 -1      2282 2.52992E-03-4.43749E-04-3.82379E-15
 -1      2283 2.28895E-03-4.04673E-04-3.24191E-15
 -1      2284 2.67907E-03-4.45175E-04-4.26891E-15
 -1      2285 2.82935E-03-4.46959E-04-4.73749E-15
 -1      2286 2.58267E-03-4.07229E-04-4.08489E-15
 -1      2287 2.98085E-03-4.49750E-04-5.22991E-15
 -1      2288 3.13376E-03-4.54086E-04-5.74584E-15
 -1      2289 2.87935E-03-4.10091E-04-5.02259E-15
 -1      2290 3.28825E-03-4.60716E-04-6.28485E-15
 -1      2291 3.44448E-03-4.70362E-04-6.84737E-15
 -1      2292 3.18020E-03-4.17518E-04-6.05412E-15
 -1      2293 3.60279E-03-4.83859E-04-7.43211E-15
 -1      2294 3.76320E-03-5.02174E-04-8.04024E-15
 -1      2295 3.48697E-03-4.34704E-04-7.17709E-15
 -1      2296 3.92636E-03-5.26131E-04-8.67083E-15
 -1      2297 4.09196E-03-5.56941E-04-9.32463E-15
 -1      2298 3.80222E-03-4.68050E-04-8.39129E-15
 -1      2299 4.26102E-03-5.95197E-04-1.00006E-14
 -1      2300 4.43260E-03-6.42165E-04-1.06996E-14
 -1      2301 4.12935E-03-5.25187E-04-9.69602E-15
 -1      2302 4.60796E-03-6.97795E-04-1.14220E-14
 -1      2303 4.78513E-03-7.62580E-04-1.21667E-14
 -1      2304 4.47186E-03-6.14375E-04-1.10903E-14
 -1      2305 4.96523E-03-8.35320E-04-1.29342E-14
 -1      2306 5.14515E-03-9.14428E-04-1.37261E-14
 -1      2307 4.83076E-03-7.41384E-04-1.25763E-14
 -1      2308 5.32512E-03-9.96829E-04-1.45417E-14
 -1      2309 5.50226E-03-1.07686E-03-1.53818E-14
 -1      2310 5.20043E-03-9.03096E-04-1.41542E-14
 -1      2311 5.67537E-03-1.15028E-03-1.62488E-14
 -1      2312 5.84554E-03-1.20846E-03-1.71417E-14
 -1      2313 5.56631E-03-1.07370E-03-1.58304E-14
 -1      2314 6.01037E-03-1.24704E-03-1.80621E-14
 -1      2315 6.17570E-03-1.26110E-03-1.90092E-14
 -1      2316 5.91626E-03-1.20226E-03-1.76116E-14
 -1      2317 6.33953E-03-1.24971E-03-1.99842E-14
 -1      2318 6.50777E-03-1.21613E-03-2.09886E-14
 -1      2319 6.25417E-03-1.23163E-03-1.95023E-14
 -1      2320 6.67851E-03-1.16370E-03-2.20201E-14
 -1      2321 6.85410E-03-1.10048E-03-2.30784E-14
 -1      2322 6.59963E-03-1.15488E-03-2.15069E-14
 -1      2323 7.03318E-03-1.03150E-03-2.41636E-14
 -1      2324 7.21319E-03-9.63227E-04-2.52740E-14
 -1      2325 6.96233E-03-1.01658E-03-2.36235E-14
 -1      2326 7.39428E-03-8.99229E-04-2.64072E-14
 -1      2327 7.57325E-03-8.42421E-04-2.75635E-14
 -1      2328 7.33324E-03-8.74330E-04-2.58416E-14
 -1      2329 7.75084E-03-7.94432E-04-2.87406E-14
 -1      2330 7.92496E-03-7.55352E-04-2.99378E-14
 -1      2331 7.69695E-03-7.61748E-04-2.81519E-14
 -1      2332 8.09671E-03-7.25454E-04-3.11543E-14
 -1      2333 8.26496E-03-7.03600E-04-3.23902E-14
 -1      2334 8.04537E-03-6.87939E-04-3.05434E-14
 -1      2335 8.43079E-03-6.89382E-04-3.36431E-14
 -1      2336 8.59376E-03-6.81563E-04-3.49133E-14
 -1      2337 8.37804E-03-6.48954E-04-3.30105E-14
 -1      2338 8.75462E-03-6.79424E-04-3.62011E-14
 -1      2339 8.91332E-03-6.81958E-04-3.75055E-14
 -1      2340 8.69797E-03-6.36976E-04-3.55477E-14
 -1      2341 9.07028E-03-6.88406E-04-3.88263E-14
 -1      2342 9.22565E-03-6.98039E-04-4.01657E-14
 -1      2343 9.00872E-03-6.44453E-04-3.81516E-14
 -1      2344 9.37960E-03-7.10195E-04-4.15231E-14
 -1      2345 9.53234E-03-7.24371E-04-4.28941E-14
 -1      2346 9.31311E-03-6.65144E-04-4.08260E-14
 -1      2347 9.68391E-03-7.40057E-04-4.42829E-14
 -1      2348 9.83455E-03-7.56909E-04-4.56867E-14
 -1      2349 9.61304E-03-6.94275E-04-4.35681E-14
 -1      2350 9.98424E-03-7.74568E-04-4.71031E-14
 -1      2351 1.01332E-02-7.92803E-04-4.85372E-14
 -1      2352 9.90974E-03-7.28376E-04-4.63702E-14
 -1      2353 1.02813E-02-8.11377E-04-4.99835E-14
 -1      2354 1.04289E-02-8.30140E-04-5.14411E-14
 -1      2355 1.02040E-02-7.65031E-04-4.92313E-14
 -1      2356 1.05758E-02-8.48945E-04-5.29124E-14
 -1      2357 1.07223E-02-8.67697E-04-5.43950E-14
 -1      2358 1.04963E-02-8.02629E-04-5.21465E-14
 -1      2359 1.08682E-02-8.86316E-04-5.58888E-14
 -1      2360 1.10138E-02-9.04744E-04-5.73931E-14
 -1      2361 1.07872E-02-8.40152E-04-5.51077E-14
 -1      2362 1.11589E-02-9.22945E-04-5.89077E-14
 -1      2363 1.13038E-02-9.40885E-04-6.04311E-14
 -1      2364 1.10768E-02-8.77000E-04-5.81147E-14
 -1      2365 1.14483E-02-9.58560E-04-6.19671E-14
 -1      2366 1.15926E-02-9.75950E-04-6.35075E-14
 -1      2367 1.13654E-02-9.12865E-04-6.11618E-14
 -1      2368 1.17367E-02-9.93067E-04-6.50540E-14
 -1      2369 1.18806E-02-1.00991E-03-6.66127E-14
 -1      2370 1.16533E-02-9.47625E-04-6.42431E-14
 -1      2371 1.20242E-02-1.02649E-03-6.81782E-14
 -1      2372 1.21678E-02-1.04281E-03-6.97525E-14
 -1      2373 1.19405E-02-9.81282E-04-6.73566E-14
 -1      2374 1.23112E-02-1.05890E-03-7.13353E-14
 -1      2375 1.24545E-02-1.07476E-03-7.29249E-14
 -1      2376 1.22273E-02-1.01391E-03-7.05041E-14
 -1      2377 1.25978E-02-1.09042E-03-7.45221E-14
 -1      2378 1.27409E-02-1.10588E-03-7.61272E-14
 -1      2379 1.25138E-02-1.04561E-03-7.36820E-14
 -1      2380 1.28840E-02-1.12118E-03-7.77393E-14
 -1      2381 1.30270E-02-1.13631E-03-7.93609E-14
 -1      2382 1.28000E-02-1.07653E-03-7.68878E-14
 -1      2383 1.31700E-02-1.15130E-03-8.09910E-14
 -1      2384 1.33130E-02-1.16616E-03-8.26261E-14
 -1      2385 1.30860E-02-1.10678E-03-8.01272E-14
 -1      2386 1.34559E-02-1.18091E-03-8.42649E-14
 -1      2387 1.35988E-02-1.19556E-03-8.59134E-14
 -1      2388 1.33719E-02-1.13649E-03-8.33909E-14
 -1      2389 1.37417E-02-1.21012E-03-8.75691E-14
 -1      2390 1.38846E-02-1.22461E-03-8.92228E-14
 -1      2391 1.36577E-02-1.16578E-03-8.66794E-14
 -1      2392 1.40274E-02-1.23904E-03-9.08803E-14
 -1      2393 1.41703E-02-1.25341E-03-9.25473E-14
 -1      2394 1.39435E-02-1.19474E-03-8.99881E-14
 -1      2395 1.43131E-02-1.26774E-03-9.42199E-14
 -1      2396 1.44560E-02-1.28204E-03-9.58971E-14
 -1      2397 1.42292E-02-1.22348E-03-9.33136E-14
 -1      2398 1.89650E-03 4.69634E-04-1.85549E-15
 -1      2399 1.75134E-03 4.61250E-04-1.57052E-15
 -1      2400 2.18848E-03 4.81120E-04-2.49839E-15
 -1      2401 2.04215E-03 4.76154E-04-2.16499E-15
 -1      2402 1.95345E-03 4.36175E-04-2.06927E-15
 -1      2403 2.48366E-03 4.88451E-04-3.23703E-15
 -1      2404 2.33561E-03 4.85107E-04-2.85567E-15
 -1      2405 2.24585E-03 4.45700E-04-2.74211E-15
 -1      2406 2.78296E-03 4.95263E-04-4.06972E-15
 -1      2407 2.63275E-03 4.91711E-04-3.64188E-15
 -1      2408 2.54093E-03 4.51823E-04-3.50924E-15
 -1      2409 3.08710E-03 5.05419E-04-4.99533E-15
 -1      2410 2.93440E-03 4.99691E-04-4.52051E-15
 -1      2411 2.83963E-03 4.58142E-04-4.36936E-15
 -1      2412 3.39658E-03 5.23116E-04-6.01182E-15
 -1      2413 3.24119E-03 5.13071E-04-5.49242E-15
 -1      2414 3.14282E-03 4.68532E-04-5.32193E-15
 -1      2415 3.71161E-03 5.52742E-04-7.11811E-15
 -1      2416 3.55349E-03 5.36180E-04-6.55366E-15
 -1      2417 3.45138E-03 4.87229E-04-6.36474E-15
 -1      2418 4.03191E-03 5.98329E-04-8.31358E-15
 -1      2419 3.87128E-03 5.73331E-04-7.70477E-15
 -1      2420 3.76605E-03 5.18687E-04-7.49597E-15
 -1      2421 4.35630E-03 6.62351E-04-9.59836E-15
 -1      2422 4.19388E-03 6.27975E-04-8.94419E-15
 -1      2423 4.08716E-03 5.66997E-04-8.71617E-15
 -1      2424 4.68239E-03 7.43767E-04-1.09761E-14
 -1      2425 4.51953E-03 7.01135E-04-1.02759E-14
 -1      2426 4.41407E-03 6.34622E-04-1.00263E-14
 -1      2427 5.00636E-03 8.35566E-04-1.24493E-14
 -1      2428 4.84506E-03 7.89102E-04-1.17005E-14
 -1      2429 4.74437E-03 7.20194E-04-1.14296E-14
 -1      2430 5.32391E-03 9.23116E-04-1.40204E-14
 -1      2431 5.16617E-03 8.81096E-04-1.32224E-14
 -1      2432 5.07351E-03 8.15552E-04-1.29269E-14
 -1      2433 5.63258E-03 9.85854E-04-1.56923E-14
 -1      2434 5.47916E-03 9.58980E-04-1.48437E-14
 -1      2435 5.39608E-03 9.03745E-04-1.45234E-14
 -1      2436 5.93425E-03 1.00406E-03-1.74712E-14
 -1      2437 5.78363E-03 1.00152E-03-1.65678E-14
 -1      2438 5.70921E-03 9.61498E-04-1.62233E-14
 -1      2439 6.23512E-03 9.68093E-04-1.93510E-14
 -1      2440 6.08390E-03 9.92737E-04-1.83984E-14
 -1      2441 6.01578E-03 9.67876E-04-1.80269E-14
 -1      2442 6.54214E-03 8.84498E-04-2.13362E-14
 -1      2443 6.38732E-03 9.31298E-04-2.03302E-14
 -1      2444 6.32360E-03 9.16247E-04-1.99354E-14
 -1      2445 6.85839E-03 7.71314E-04-2.34212E-14
 -1      2446 6.69907E-03 8.30212E-04-2.23663E-14
 -1      2447 6.63973E-03 8.18413E-04-2.19483E-14
 -1      2448 7.18226E-03 6.49794E-04-2.56045E-14
 -1      2449 7.01970E-03 7.10408E-04-2.45011E-14
 -1      2450 6.96527E-03 6.96814E-04-2.40614E-14
 -1      2451 7.50971E-03 5.36276E-04-2.78764E-14
 -1      2452 7.34598E-03 5.91334E-04-2.67292E-14
 -1      2453 7.29618E-03 5.73776E-04-2.62688E-14
 -1      2454 7.83671E-03 4.39531E-04-3.02335E-14
 -1      2455 7.67363E-03 4.85558E-04-2.90440E-14
 -1      2456 7.62712E-03 4.63824E-04-2.85634E-14
 -1      2457 8.16057E-03 3.61899E-04-3.26728E-14
 -1      2458 7.99927E-03 3.98360E-04-3.14440E-14
 -1      2459 7.95414E-03 3.73093E-04-3.09444E-14
 -1      2460 8.47993E-03 3.01825E-04-3.51836E-14
 -1      2461 8.32093E-03 3.29843E-04-3.39194E-14
 -1      2462 8.27542E-03 3.01844E-04-3.34033E-14
 -1      2463 8.79437E-03 2.55978E-04-3.77693E-14
 -1      2464 8.63780E-03 2.77338E-04-3.64674E-14
 -1      2465 8.59071E-03 2.47353E-04-3.59355E-14
 -1      2466 9.10401E-03 2.20666E-04-4.04241E-14
 -1      2467 8.94979E-03 2.37209E-04-3.90879E-14
 -1      2468 8.90050E-03 2.05868E-04-3.85370E-14
 -1      2469 9.40926E-03 1.92555E-04-4.31442E-14
 -1      2470 9.25715E-03 2.05881E-04-4.17757E-14
 -1      2471 9.20555E-03 1.73697E-04-4.12089E-14
 -1      2472 9.71060E-03 1.68952E-04-4.59273E-14
 -1      2473 9.56037E-03 1.80322E-04-4.45281E-14
 -1      2474 9.50663E-03 1.47695E-04-4.39464E-14
 -1      2475 1.00086E-02 1.47838E-04-4.87705E-14
 -1      2476 9.85998E-03 1.58181E-04-4.73416E-14
 -1      2477 9.80443E-03 1.25408E-04-4.67456E-14
 -1      2478 1.03038E-02 1.27793E-04-5.16687E-14
 -1      2479 1.01565E-02 1.37750E-04-5.02125E-14
 -1      2480 1.00995E-02 1.05037E-04-4.96040E-14
 -1      2481 1.05967E-02 1.07872E-04-5.46207E-14
 -1      2482 1.04505E-02 1.17862E-04-5.31384E-14
 -1      2483 1.03924E-02 8.53400E-05-5.25175E-14
 -1      2484 1.08877E-02 8.74974E-05-5.76183E-14
 -1      2485 1.07424E-02 9.77694E-05-5.61141E-14
 -1      2486 1.06836E-02 6.55120E-05-5.54806E-14
 -1      2487 1.11773E-02 6.63487E-05-6.06564E-14
 -1      2488 1.10327E-02 7.70353E-05-5.91317E-14
 -1      2489 1.09734E-02 4.50721E-05-5.84882E-14
 -1      2490 1.14658E-02 4.42860E-05-6.37345E-14
 -1      2491 1.13217E-02 5.54387E-05-6.21919E-14
 -1      2492 1.12620E-02 2.37704E-05-6.15350E-14
 -1      2493 1.17534E-02 2.12863E-05-6.68470E-14
 -1      2494 1.16097E-02 3.29048E-05-6.52869E-14
 -1      2495 1.15498E-02 1.51340E-06-6.46212E-14
 -1      2496 1.20403E-02-2.60126E-06-6.99936E-14
 -1      2497 1.18969E-02 9.45153E-06-6.84161E-14
 -1      2498 1.18370E-02-2.16916E-05-6.77424E-14
 -1      2499 1.23268E-02-2.72871E-05-7.31671E-14
 -1      2500 1.21836E-02-1.48483E-05-7.15759E-14
 -1      2501 1.21237E-02-4.57767E-05-7.08956E-14
 -1      2502 1.26130E-02-5.26627E-05-7.63661E-14
 -1      2503 1.24699E-02-3.98936E-05-7.47640E-14
 -1      2504 1.24100E-02-7.06420E-05-7.40775E-14
 -1      2505 1.28990E-02-7.86146E-05-7.95803E-14
 -1      2506 1.27560E-02-6.55719E-05-7.79716E-14
 -1      2507 1.26961E-02-9.61738E-05-7.72793E-14
 -1      2508 1.31848E-02-1.05032E-04-8.28012E-14
 -1      2509 1.30419E-02-9.17703E-05-8.11911E-14
 -1      2510 1.29820E-02-1.22257E-04-8.04961E-14
 -1      2511 1.34705E-02-1.31811E-04-8.60213E-14
 -1      2512 1.33276E-02-1.18381E-04-8.44128E-14
 -1      2513 1.32679E-02-1.48780E-04-8.37182E-14
 -1      2514 1.37562E-02-1.58858E-04-8.92334E-14
 -1      2515 1.36134E-02-1.45306E-04-8.76264E-14
 -1      2516 1.35536E-02-1.75642E-04-8.69348E-14
 -1      2517 1.40419E-02-1.86084E-04-9.24460E-14
 -1      2518 1.38990E-02-1.72453E-04-9.08404E-14
 -1      2519 1.38393E-02-2.02750E-04-9.01483E-14
 -1      2520 1.43276E-02-2.13411E-04-9.56549E-14
 -1      2521 1.41847E-02-1.99739E-04-9.40504E-14
 -1      2522 1.41251E-02-2.30018E-04-9.33651E-14
 -1      2523 1.44749E-02-2.26530E-04-9.73061E-14
 -1      2524 1.45017E-02-5.51695E-04-9.74774E-14
 -1      2525 1.44882E-02-5.09544E-04-9.73496E-14
 -1      2526 1.45289E-02-6.35990E-04-9.77269E-14
 -1      2527 1.45153E-02-5.93844E-04-9.76027E-14
 -1      2528 1.43848E-02-5.60809E-04-9.61253E-14
 -1      2529 1.44483E-02-3.84509E-04-9.69552E-14
 -1      2530 1.44349E-02-3.42353E-04-9.68199E-14
 -1      2531 1.44749E-02-4.67748E-04-9.72195E-14
 -1      2532 1.44616E-02-4.26308E-04-9.70882E-14
 -1      2533 1.43312E-02-3.93346E-04-9.56205E-14
 -1      2534 1.43579E-02-4.76908E-04-9.58767E-14
 -1      2535 1.45561E-02-7.20278E-04-9.79730E-14
 -1      2536 1.45425E-02-6.78135E-04-9.78517E-14
 -1      2537 1.44119E-02-6.45049E-04-9.63673E-14
 -1      2538 1.45836E-02-8.04562E-04-9.82068E-14
 -1      2539 1.45698E-02-7.62420E-04-9.80924E-14
 -1      2540 1.44393E-02-7.29277E-04-9.66052E-14
 -1      2541 1.46112E-02-8.88848E-04-9.84353E-14
 -1      2542 1.45974E-02-8.46705E-04-9.83213E-14
 -1      2543 1.44668E-02-8.13501E-04-9.68341E-14
 -1      2544 1.46385E-02-9.71712E-04-9.86427E-14
 -1      2545 1.46248E-02-9.30279E-04-9.85401E-14
 -1      2546 1.44942E-02-8.97016E-04-9.70490E-14
 -1      2547 1.46664E-02-1.05601E-03-9.88422E-14
 -1      2548 1.46524E-02-1.01386E-03-9.87441E-14
 -1      2549 1.45217E-02-9.80544E-04-9.72510E-14
 -1      2550 1.46944E-02-1.14032E-03-9.90258E-14
 -1      2551 1.46804E-02-1.09817E-03-9.89358E-14
 -1      2552 1.45496E-02-1.06480E-03-9.74416E-14
 -1      2553 1.47226E-02-1.22464E-03-9.92049E-14
 -1      2554 1.47085E-02-1.18248E-03-9.91147E-14
 -1      2555 1.45777E-02-1.14908E-03-9.76186E-14
 -1      2556 8.27861E-03-1.85697E-04-2.59057E-14
 -1      2557 8.33972E-03-1.97732E-04-2.61272E-14
 -1      2558 7.74806E-03-1.02481E-05-2.44758E-14
 -1      2559 7.91446E-03-7.29094E-05-2.47534E-14
 -1      2560 1.60654E-03 4.50345E-04-1.31022E-15
 -1      2561 1.46184E-03 4.36620E-04-1.07413E-15
 -1      2562 1.66274E-03 4.19715E-04-1.49259E-15
 -1      2563 1.48252E-02-1.30665E-03-1.00278E-13
 -1      2564 8.34996E-03-2.12340E-04-2.61223E-14
 -1      2565 8.31323E-03-2.20338E-04-2.59922E-14
 -1      2566 7.35841E-03 1.75503E-04-2.34841E-14
 -1      2567 7.52307E-03 9.09919E-05-2.39514E-14
 -1      2568 5.93297E-04-2.21152E-04-2.62784E-16
 -1      2569 7.88085E-04-2.82210E-04-4.18082E-16
 -1      2570 8.47354E-04-2.68667E-04-5.11134E-16
 -1      2571 5.83077E-04-1.93202E-04-2.79196E-16
 -1      2572 7.18863E-03-7.03870E-04-2.30321E-14
 -1      2573 7.00971E-03-8.11128E-04-2.24408E-14
 -1      2574 5.25514E-03-7.97490E-04-1.56908E-14
 -1      2575 5.06709E-03-6.80217E-04-1.52127E-14
 -1      2576 5.58547E-03 7.29881E-04-1.64488E-14
 -1      2577 5.75097E-03 7.96438E-04-1.71075E-14
 -1      2578 5.40297E-04-1.96219E-05-3.23350E-16
 -1      2579 5.41250E-04-3.32787E-05-3.23323E-16
 -1      2580 6.55043E-04-4.77520E-05-4.37259E-16
 -1      2581 6.52546E-04-1.53008E-05-4.37150E-16
 -1      2582 5.94970E-03 8.31102E-04-1.79803E-14
 -1      2583 6.08800E-03 8.24463E-04-1.86227E-14
 -1      2584 4.49540E-03 1.46467E-04-1.38180E-14
 -1      2585 4.66963E-03 2.30960E-04-1.41363E-14
 -1      2586 6.21947E-03 7.96724E-04-1.92047E-14
 -1      2587 6.35138E-03 7.46489E-04-1.97982E-14
 -1      2588 6.15539E-03 8.15783E-04-1.89550E-14
 -1      2589 5.26451E-03 5.60010E-04-1.54247E-14
 -1      2590 5.39876E-03 6.37767E-04-1.58131E-14
 -1      2591 7.62240E-03-4.72477E-04-2.42505E-14
 -1      2592 7.41741E-03-5.77013E-04-2.37011E-14
 -1      2593 4.87128E-03 3.36732E-04-1.45451E-14
 -1      2594 5.07453E-03 4.52332E-04-1.49730E-14
 -1      2595 4.11687E-03-4.73943E-06-1.31584E-14
 -1      2596 4.29950E-03 6.15399E-05-1.34857E-14
 -1      2597 3.85605E-03-8.18511E-05-1.28837E-14
 -1      2598 3.93600E-03-6.19854E-05-1.28800E-14
 -1      2599 3.77774E-03-1.07672E-04-1.27833E-14
 -1      2600 3.79829E-03-9.94880E-05-1.28337E-14
 -1      2601 3.79753E-03-9.06872E-05-1.24212E-14
 -1      2602 3.86216E-03-1.35189E-04-1.29806E-14
 -1      2603 3.80415E-03-1.21994E-04-1.28817E-14
 -1      2604 4.12683E-03-2.15561E-04-1.33882E-14
 -1      2605 3.97571E-03-1.68638E-04-1.31629E-14
 -1      2606 4.48811E-03-3.66211E-04-1.40392E-14
 -1      2607 4.32222E-03-2.92481E-04-1.37309E-14
 -1      2608 4.85192E-03-5.56579E-04-1.47583E-14
 -1      2609 4.67217E-03-4.58665E-04-1.44073E-14
 -1      2610 5.58073E-03-9.93708E-04-1.66506E-14
 -1      2611 5.43765E-03-9.06853E-04-1.61929E-14
 -1      2612 6.22758E-03-1.17425E-03-1.93490E-14
 -1      2613 6.11411E-03-1.17996E-03-1.88137E-14
 -1      2614 6.55033E-03-1.06784E-03-2.07697E-14
 -1      2615 6.39444E-03-1.13475E-03-2.01025E-14
 -1      2616 6.86941E-03-8.93132E-04-2.19658E-14
 -1      2617 6.73685E-03-9.72029E-04-2.14980E-14
 -1      2618 6.96339E-03-8.44491E-04-2.25642E-14
 -1      2619 7.96258E-03-3.27635E-04-2.49908E-14
 -1      2620 7.82670E-03-3.80216E-04-2.47272E-14
 -1      2621 8.23481E-03-2.41274E-04-2.56898E-14
 -1      2622 8.11730E-03-2.73315E-04-2.53876E-14
 -1      2623 8.29292E-03-2.32425E-04-2.64723E-14
 -1      2624 6.50845E-03 6.72163E-04-2.04567E-14
 -1      2625 6.67125E-03 5.77149E-04-2.11280E-14
 -1      2626 6.41957E-03 7.17399E-04-2.01977E-14
 -1      2627 7.64232E-04 3.13888E-04-2.77190E-16
 -1      2628 6.16240E-04 2.68824E-04-1.82295E-16
 -1      2629 5.89424E-04 2.42281E-04-1.89830E-16
 -1      2630 8.20736E-04 3.00085E-04-3.64441E-16
 -1      2631 8.05272E-03-1.21847E-04-2.51273E-14
 -1      2632 8.17070E-03-1.55672E-04-2.55022E-14
 -1      2633 8.00497E-03-1.08093E-04-2.55897E-14
 -1      2634 5.49249E-03 6.93198E-04-1.59943E-14
 -1      2635 6.68490E-04-1.21063E-04-4.23909E-16
 -1      2636 5.54265E-04-1.11473E-04-3.09811E-16
 -1      2637 5.58816E-04-1.30476E-04-3.02940E-16
 -1      2638 1.37260E-03 3.92568E-04-1.01323E-15
 -1      2639 5.76646E-04 2.11782E-04-2.13520E-16
 -1      2640 5.66416E-04-1.48583E-04-2.98332E-16
 -1      2641 5.73005E-04-1.71264E-04-2.87707E-16
 -1      2642 7.02032E-04-2.07186E-04-3.96479E-16
 -1      2643 6.82223E-04-1.62345E-04-4.11563E-16
 -1      2644 7.31108E-03-6.40890E-04-2.37199E-14
 -1      2645 7.23734E-03 2.44996E-04-2.35146E-14
 -1      2646 6.65643E-03-1.02262E-03-2.13448E-14
 -1      2647 6.32869E-03-1.15975E-03-1.98514E-14
 -1      2648 6.80020E-03 5.04240E-04-2.18618E-14
 -1      2649 5.69398E-03-1.05490E-03-1.69634E-14
 -1      2650 5.60909E-03-1.01293E-03-1.65204E-14
 -1      2651 5.78822E-03-1.10467E-03-1.72787E-14
 -1      2652 1.44153E-02-2.56810E-04-9.66254E-14
 -1      2653 7.66159E-03 2.80225E-05-2.46785E-14
 -1      2654 1.44099E-02-2.88404E-04-9.65569E-14
 -1      2655 4.96308E-03-6.16235E-04-1.47680E-14
 -1      2656 8.37015E-03-2.08451E-04-2.67824E-14
 -1      2657 8.24666E-03-1.77160E-04-2.63760E-14
 -1      2658 4.57935E-03-4.05862E-04-1.39572E-14
 -1      2659 4.20869E-03-2.43547E-04-1.32579E-14
 -1      2660 6.94592E-04 2.31495E-04-3.11600E-16
 -1      2661 3.77297E-03-1.10000E-04-1.24695E-14
 -1      2662 1.42929E-02-2.97624E-04-9.52310E-14
 -1      2663 5.33651E-03-8.45684E-04-1.57123E-14
 -1      2664 4.00989E-03-3.70610E-05-1.27434E-14
 -1      2665 4.08699E-03-4.78915E-06-1.26049E-14
 -1      2666 3.91873E-03-5.36101E-05-1.23341E-14
 -1      2667 6.02993E-03-1.17405E-03-1.84096E-14
 -1      2668 4.76717E-03 2.85554E-04-1.40728E-14
 -1      2669 5.75920E-03 8.08760E-04-1.70114E-14
 -1      2670 5.85126E-03 8.25542E-04-1.74929E-14
 -1      2671 5.93793E-03 8.39154E-04-1.78818E-14
 -1      2672 7.72583E-03-4.28970E-04-2.48814E-14
 -1      2673 4.38596E-03 1.02361E-04-1.33437E-14
 -1      2674 5.14077E-03 4.95942E-04-1.49207E-14
 -1      2675 3.90909E-03-1.46402E-04-1.27448E-14
 -1      2676 8.07113E-03-2.93220E-04-2.57654E-14
 -1      2677 1.46814E-02-1.30700E-03-9.85477E-14
 -1      2678 1.47096E-02-1.25842E-03-9.89841E-14
 -1      2679 1.45788E-02-1.22500E-03-9.74815E-14
 -1      2680 1.45528E-02-1.29253E-03-9.70354E-14
 -1      2681 1.44690E-02-1.24828E-03-9.61216E-14
 -1      2682 7.71431E-04 6.55492E-05-5.51154E-16
 -1      2683 7.68911E-04 4.66254E-05-5.57781E-16
 -1      2684 7.67145E-04 2.79082E-05-5.62904E-16
 -1      2685 7.66216E-04 9.57066E-06-5.66591E-16
 -1      2686 8.83123E-04 4.13366E-05-7.09366E-16
 -1      2687 7.90402E-04 1.52428E-04-5.07244E-16
 -1      2688 7.84266E-04 1.28713E-04-5.21284E-16
 -1      2689 8.06427E-04 2.05391E-04-4.70923E-16
 -1      2690 7.97788E-04 1.77916E-04-4.90751E-16
 -1      2691 9.14322E-04 1.83180E-04-6.35939E-16
 -1      2692 1.13932E-03 3.28767E-04-7.54415E-16
 -1      2693 9.94154E-04 3.04222E-04-5.83165E-16
 -1      2694 3.77000E-03-1.11656E-04-1.21160E-14
 -1      2695 3.74198E-03-1.03263E-04-1.20207E-14
 -1      2696 7.95257E-03-8.63777E-05-2.59562E-14
 -1      2697 8.07684E-03-1.26518E-04-2.63386E-14
 -1      2698 8.34195E-03-2.33494E-04-2.72489E-14
 -1      2699 8.26509E-03-2.48390E-04-2.69412E-14
 -1      2700 7.04216E-03-8.12228E-04-2.31295E-14
 -1      2701 6.91954E-03-8.87408E-04-2.26434E-14
 -1      2702 1.32921E-03-3.21968E-04-1.20024E-15
 -1      2703 1.47374E-03-3.35916E-04-1.45279E-15
 -1      2704 1.61818E-03-3.46881E-04-1.72978E-15
 -1      2705 1.76273E-03-3.55107E-04-2.03143E-15
 -1      2706 1.53080E-03-3.08352E-04-1.61386E-15
 -1      2707 1.90727E-03-3.61154E-04-2.35741E-15
 -1      2708 2.05197E-03-3.65283E-04-2.70725E-15
 -1      2709 1.81828E-03-3.24199E-04-2.21961E-15
 -1      2710 2.19676E-03-3.68017E-04-3.08152E-15
 -1      2711 2.34183E-03-3.69627E-04-3.47957E-15
 -1      2712 2.10564E-03-3.32176E-04-2.92206E-15
 -1      2713 2.48715E-03-3.70632E-04-3.90161E-15
 -1      2714 2.63290E-03-3.71350E-04-4.34746E-15
 -1      2715 2.39297E-03-3.35189E-04-3.71936E-15
 -1      2716 2.77912E-03-3.72324E-04-4.81683E-15
 -1      2717 2.92604E-03-3.73964E-04-5.30900E-15
 -1      2718 2.68066E-03-3.36236E-04-4.61168E-15
 -1      2719 3.07375E-03-3.76859E-04-5.82435E-15
 -1      2720 3.22258E-03-3.81581E-04-6.36290E-15
 -1      2721 2.96951E-03-3.38616E-04-5.59660E-15
 -1      2722 3.37279E-03-3.88755E-04-6.92431E-15
 -1      2723 3.52476E-03-3.99234E-04-7.50787E-15
 -1      2724 3.26105E-03-3.46178E-04-6.67295E-15
 -1      2725 3.67906E-03-4.13631E-04-8.11430E-15
 -1      2726 3.83609E-03-4.33247E-04-8.74305E-15
 -1      2727 3.55800E-03-3.63672E-04-7.83931E-15
 -1      2728 3.99685E-03-4.58603E-04-9.39389E-15
 -1      2729 4.16147E-03-4.91546E-04-1.00673E-14
 -1      2730 3.86493E-03-3.97302E-04-9.09427E-15
 -1      2731 4.33155E-03-5.32356E-04-1.07628E-14
 -1      2732 4.50636E-03-5.83536E-04-1.14808E-14
 -1      2733 4.18836E-03-4.55521E-04-1.04381E-14
 -1      2734 4.68843E-03-6.44503E-04-1.22213E-14
 -1      2735 4.87391E-03-7.16994E-04-1.29837E-14
 -1      2736 4.53680E-03-5.49275E-04-1.18692E-14
 -1      2737 5.06488E-03-7.99771E-04-1.37697E-14
 -1      2738 5.25651E-03-8.91160E-04-1.45798E-14
 -1      2739 4.91360E-03-6.91894E-04-1.33896E-14
 -1      2740 5.54200E-03-1.02275E-03-1.58988E-14
 -1      2741 5.72929E-03-1.10776E-03-1.67741E-14
 -1      2742 5.91215E-03-1.17061E-03-1.76755E-14
 -1      2743 6.16533E-03-1.21925E-03-1.90222E-14
 -1      2744 6.33946E-03-1.20300E-03-1.99946E-14
 -1      2745 6.51607E-03-1.15087E-03-2.09963E-14
 -1      2746 6.69995E-03-1.08380E-03-2.20259E-14
 -1      2747 6.87086E-03-9.84097E-04-2.28858E-14
 -1      2748 7.06681E-03-8.98862E-04-2.39660E-14
 -1      2749 7.64721E-03-7.25821E-04-2.75645E-14
 -1      2750 7.82560E-03-6.81478E-04-2.87393E-14
 -1      2751 7.99935E-03-6.48268E-04-2.99346E-14
 -1      2752 8.16715E-03-6.23699E-04-3.11482E-14
 -1      2753 7.95856E-03-6.05988E-04-2.93271E-14
 -1      2754 8.33074E-03-6.07697E-04-3.23800E-14
 -1      2755 8.49014E-03-5.98175E-04-3.36293E-14
 -1      2756 8.28882E-03-5.65047E-04-3.17522E-14
 -1      2757 8.64648E-03-5.94751E-04-3.48956E-14
 -1      2758 8.80016E-03-5.95981E-04-3.61803E-14
 -1      2759 8.60005E-03-5.52347E-04-3.42479E-14
 -1      2760 8.95183E-03-6.01349E-04-3.74810E-14
 -1      2761 9.10192E-03-6.09934E-04-3.87963E-14
 -1      2762 8.89950E-03-5.58883E-04-3.68105E-14
 -1      2763 9.25073E-03-6.21209E-04-4.01322E-14
 -1      2764 9.39861E-03-6.34598E-04-4.14849E-14
 -1      2765 9.19234E-03-5.78321E-04-3.94415E-14
 -1      2766 9.54568E-03-6.49640E-04-4.28546E-14
 -1      2767 9.69220E-03-6.65972E-04-4.42395E-14
 -1      2768 9.48174E-03-6.06167E-04-4.21428E-14
 -1      2769 9.83817E-03-6.83230E-04-4.56386E-14
 -1      2770 9.98380E-03-7.01184E-04-4.70524E-14
 -1      2771 9.76947E-03-6.39191E-04-4.49076E-14
 -1      2772 1.01290E-02-7.19571E-04-4.84819E-14
 -1      2773 1.02740E-02-7.38245E-04-4.99242E-14
 -1      2774 1.00564E-02-6.75082E-04-4.77337E-14
 -1      2775 1.04188E-02-7.57029E-04-5.13805E-14
 -1      2776 1.05633E-02-7.75832E-04-5.28495E-14
 -1      2777 1.03431E-02-7.12236E-04-5.06167E-14
 -1      2778 1.07076E-02-7.94545E-04-5.43300E-14
 -1      2779 1.08518E-02-8.13114E-04-5.58219E-14
 -1      2780 1.06295E-02-7.49584E-04-5.35520E-14
 -1      2781 1.09957E-02-8.31478E-04-5.73221E-14
 -1      2782 1.11396E-02-8.49609E-04-5.88339E-14
 -1      2783 1.09159E-02-7.86458E-04-5.65309E-14
 -1      2784 1.12833E-02-8.67481E-04-6.03566E-14
 -1      2785 1.14270E-02-8.85082E-04-6.18907E-14
 -1      2786 1.12022E-02-8.22479E-04-5.95543E-14
 -1      2787 1.15705E-02-9.02407E-04-6.34318E-14
 -1      2788 1.17139E-02-9.19455E-04-6.49786E-14
 -1      2789 1.14884E-02-8.57472E-04-6.26163E-14
 -1      2790 1.18573E-02-9.36236E-04-6.65351E-14
 -1      2791 1.20006E-02-9.52754E-04-6.81003E-14
 -1      2792 1.17745E-02-8.91395E-04-6.57146E-14
 -1      2793 1.21438E-02-9.69027E-04-6.96728E-14
 -1      2794 1.22869E-02-9.85062E-04-7.12546E-14
 -1      2795 1.20606E-02-9.24292E-04-6.88435E-14
 -1      2796 1.24300E-02-1.00088E-03-7.28427E-14
 -1      2797 1.25731E-02-1.01650E-03-7.44365E-14
 -1      2798 1.23465E-02-9.56252E-04-7.20037E-14
 -1      2799 1.27161E-02-1.03193E-03-7.60388E-14
 -1      2800 1.28591E-02-1.04718E-03-7.76470E-14
 -1      2801 1.26325E-02-9.87394E-04-7.51890E-14
 -1      2802 1.30021E-02-1.06229E-03-7.92655E-14
 -1      2803 1.31451E-02-1.07725E-03-8.08892E-14
 -1      2804 1.29183E-02-1.01784E-03-7.84059E-14
 -1      2805 1.32880E-02-1.09209E-03-8.25190E-14
 -1      2806 1.34309E-02-1.10681E-03-8.41540E-14
 -1      2807 1.32042E-02-1.04771E-03-8.16493E-14
 -1      2808 1.35738E-02-1.12144E-03-8.57961E-14
 -1      2809 1.37167E-02-1.13598E-03-8.74453E-14
 -1      2810 1.34900E-02-1.07712E-03-8.49187E-14
 -1      2811 1.38596E-02-1.15046E-03-8.90973E-14
 -1      2812 1.40025E-02-1.16486E-03-9.07505E-14
 -1      2813 1.37757E-02-1.10618E-03-8.82060E-14
 -1      2814 1.41454E-02-1.17922E-03-9.24111E-14
 -1      2815 1.42882E-02-1.19354E-03-9.40799E-14
 -1      2816 1.40615E-02-1.13497E-03-9.15146E-14
 -1      2817 2.30207E-03 4.10177E-04-2.98904E-15
 -1      2818 2.15580E-03 4.06902E-04-2.62641E-15
 -1      2819 1.43851E-02-1.20404E-03-9.52113E-14
 -1      2820 1.44819E-02-1.21452E-03-9.63458E-14
 -1      2821 1.43012E-02-1.15980E-03-9.43048E-14
 -1      2822 2.01000E-03 4.02473E-04-2.28718E-15
 -1      2823 1.86454E-03 3.96591E-04-1.97164E-15
 -1      2824 2.06592E-03 3.68723E-04-2.50910E-15
 -1      2825 2.89402E-03 4.21006E-04-4.67259E-15
 -1      2826 2.74475E-03 4.17775E-04-4.21714E-15
 -1      2827 3.19600E-03 4.31487E-04-5.65127E-15
 -1      2828 3.04441E-03 4.25412E-04-5.15031E-15
 -1      2829 2.94625E-03 3.83856E-04-4.97832E-15
 -1      2830 3.50366E-03 4.50873E-04-6.71953E-15
 -1      2831 3.34909E-03 4.39772E-04-6.17422E-15
 -1      2832 3.24681E-03 3.94187E-04-5.98303E-15
 -1      2833 3.81838E-03 4.83702E-04-7.87639E-15
 -1      2834 3.66015E-03 4.65283E-04-7.28710E-15
 -1      2835 3.55366E-03 4.13856E-04-7.07706E-15
 -1      2836 4.14122E-03 5.34273E-04-9.12070E-15
 -1      2837 3.97890E-03 5.06482E-04-8.48747E-15
 -1      2838 3.86890E-03 4.47576E-04-8.25797E-15
 -1      2839 4.47201E-03 6.05306E-04-1.04559E-14
 -1      2840 4.30591E-03 5.67117E-04-9.77633E-15
 -1      2841 4.19437E-03 5.00080E-04-9.52714E-15
 -1      2842 4.80818E-03 6.95466E-04-1.18831E-14
 -1      2843 4.63995E-03 6.48333E-04-1.11580E-14
 -1      2844 4.53030E-03 5.74776E-04-1.08866E-14
 -1      2845 5.14396E-03 7.95566E-04-1.34058E-14
 -1      2846 4.97676E-03 7.45415E-04-1.26324E-14
 -1      2847 4.87354E-03 6.70722E-04-1.23379E-14
 -1      2848 5.47221E-03 8.85554E-04-1.50272E-14
 -1      2849 5.30936E-03 8.43691E-04-1.42040E-14
 -1      2850 5.21652E-03 7.77108E-04-1.38846E-14
 -1      2851 5.78942E-03 9.38189E-04-1.67535E-14
 -1      2852 5.63172E-03 9.18493E-04-1.58772E-14
 -1      2853 5.55006E-03 8.69525E-04-1.55318E-14
 -1      2854 6.10065E-03 9.30879E-04-1.85851E-14
 -1      2855 5.94478E-03 9.42876E-04-1.76560E-14
 -1      2856 5.87136E-03 9.14974E-04-1.72844E-14
 -1      2857 6.41500E-03 8.60686E-04-2.05218E-14
 -1      2858 6.25590E-03 9.02496E-04-1.95406E-14
 -1      2859 6.18744E-03 8.90281E-04-1.91439E-14
 -1      2860 6.74095E-03 7.47338E-04-2.25627E-14
 -1      2861 6.57647E-03 8.07564E-04-2.15289E-14
 -1      2862 6.51108E-03 7.98838E-04-2.11095E-14
 -1      2863 7.07608E-03 6.18155E-04-2.47022E-14
 -1      2864 6.90795E-03 6.82944E-04-2.36205E-14
 -1      2865 6.84849E-03 6.70121E-04-2.31788E-14
 -1      2866 7.41334E-03 4.95480E-04-2.69357E-14
 -1      2867 7.24509E-03 5.55003E-04-2.58088E-14
 -1      2868 7.19285E-03 5.35848E-04-2.53466E-14
 -1      2869 7.74654E-03 3.90978E-04-2.92543E-14
 -1      2870 7.58092E-03 4.40663E-04-2.80833E-14
 -1      2871 7.53491E-03 4.16262E-04-2.76043E-14
 -1      2872 8.07238E-03 3.07543E-04-3.16572E-14
 -1      2873 7.91063E-03 3.46732E-04-3.04448E-14
 -1      2874 7.86849E-03 3.19121E-04-2.99471E-14
 -1      2875 8.39025E-03 2.43329E-04-3.41358E-14
 -1      2876 8.23238E-03 2.73296E-04-3.28886E-14
 -1      2877 8.19157E-03 2.43932E-04-3.23709E-14
 -1      2878 8.70101E-03 1.94607E-04-3.66854E-14
 -1      2879 8.54649E-03 2.17309E-04-3.54011E-14
 -1      2880 8.50497E-03 1.86979E-04-3.48694E-14
 -1      2881 9.00601E-03 1.57397E-04-3.93069E-14
 -1      2882 8.85417E-03 1.74807E-04-3.79880E-14
 -1      2883 8.81066E-03 1.43880E-04-3.74376E-14
 -1      2884 9.30651E-03 1.28152E-04-4.19945E-14
 -1      2885 9.15675E-03 1.41973E-04-4.06419E-14
 -1      2886 9.11067E-03 1.10645E-04-4.00754E-14
 -1      2887 9.60357E-03 1.04006E-04-4.47492E-14
 -1      2888 9.45541E-03 1.15588E-04-4.33651E-14
 -1      2889 9.40665E-03 8.39950E-05-4.27820E-14
 -1      2890 9.89796E-03 8.27874E-05-4.75662E-14
 -1      2891 9.75104E-03 9.31362E-05-4.61503E-14
 -1      2892 9.69981E-03 6.13975E-05-4.55543E-14
 -1      2893 1.01903E-02 6.29397E-05-5.04385E-14
 -1      2894 1.00443E-02 7.27645E-05-4.89951E-14
 -1      2895 9.99097E-03 4.09857E-05-4.83868E-14
 -1      2896 1.04810E-02 4.34087E-05-5.33646E-14
 -1      2897 1.03358E-02 5.31818E-05-5.18950E-14
 -1      2898 1.02807E-02 2.14491E-05-5.12739E-14
 -1      2899 1.07705E-02 2.35260E-05-5.63409E-14
 -1      2900 1.06259E-02 3.35401E-05-5.48475E-14
 -1      2901 1.05694E-02 1.91646E-06-5.42119E-14
 -1      2902 1.10590E-02 2.90678E-06-5.93553E-14
 -1      2903 1.09149E-02 1.33241E-05-5.78425E-14
 -1      2904 1.08573E-02-1.81501E-05-5.71976E-14
 -1      2905 1.13468E-02-1.86344E-05-6.24118E-14
 -1      2906 1.12030E-02-7.74184E-06-6.08802E-14
 -1      2907 1.11447E-02-3.90462E-05-6.02248E-14
 -1      2908 1.16340E-02-4.11493E-05-6.55072E-14
 -1      2909 1.14905E-02-2.97693E-05-6.39545E-14
 -1      2910 1.14316E-02-6.08992E-05-6.32890E-14
 -1      2911 1.19207E-02-6.46050E-05-6.86371E-14
 -1      2912 1.17774E-02-5.27623E-05-6.70684E-14
 -1      2913 1.17182E-02-8.37243E-05-6.63943E-14
 -1      2914 1.22071E-02-8.89192E-05-7.17964E-14
 -1      2915 1.20640E-02-7.66595E-05-7.02128E-14
 -1      2916 1.20045E-02-1.07468E-04-6.95313E-14
 -1      2917 1.24933E-02-1.13985E-04-7.49841E-14
 -1      2918 1.23502E-02-1.01364E-04-7.33870E-14
 -1      2919 1.22907E-02-1.32036E-04-7.26980E-14
 -1      2920 1.27793E-02-1.39686E-04-7.81900E-14
 -1      2921 1.26363E-02-1.26762E-04-7.65856E-14
 -1      2922 1.25767E-02-1.57318E-04-7.58895E-14
 -1      2923 1.30652E-02-1.65907E-04-8.14080E-14
 -1      2924 1.29223E-02-1.52737E-04-7.97987E-14
 -1      2925 1.28626E-02-1.83199E-04-7.90994E-14
 -1      2926 1.33510E-02-1.92540E-04-8.46298E-14
 -1      2927 1.32081E-02-1.79177E-04-8.30181E-14
 -1      2928 1.31484E-02-2.09564E-04-8.23190E-14
 -1      2929 1.36368E-02-2.19486E-04-8.78486E-14
 -1      2930 1.34939E-02-2.05979E-04-8.62418E-14
 -1      2931 1.34342E-02-2.36310E-04-8.55416E-14
 -1      2932 1.39225E-02-2.46654E-04-9.10662E-14
 -1      2933 1.37796E-02-2.33047E-04-8.94566E-14
 -1      2934 1.37200E-02-2.63340E-04-8.87645E-14
 -1      2935 1.41791E-02-2.78953E-04-9.39522E-14
 -1      2936 1.40363E-02-2.65288E-04-9.23425E-14
 -1      2937 1.39766E-02-2.95561E-04-9.16492E-14
 -1      2938 1.42041E-02-3.32878E-04-9.42095E-14
 -1      2939 7.59024E-03 6.79546E-05-2.49425E-14
 -1      2940 7.78868E-03-2.20863E-05-2.54806E-14
 -1      2941 1.43224E-02-7.38247E-04-9.52368E-14
 -1      2942 1.43087E-02-6.96166E-04-9.51246E-14
 -1      2943 5.39731E-03-8.92242E-04-1.57159E-14
 -1      2944 5.23732E-03-7.90205E-04-1.52243E-14
 -1      2945 1.42678E-02-5.69903E-04-9.47722E-14
 -1      2946 1.42543E-02-5.27804E-04-9.46540E-14
 -1      2947 1.43499E-02-8.22407E-04-9.54581E-14
 -1      2948 1.43362E-02-7.80327E-04-9.53492E-14
 -1      2949 1.42056E-02-7.47184E-04-9.38694E-14
 -1      2950 1.42951E-02-6.54083E-04-9.50075E-14
 -1      2951 1.42814E-02-6.11996E-04-9.48894E-14
 -1      2952 1.41509E-02-5.78977E-04-9.34179E-14
 -1      2953 1.41782E-02-6.63090E-04-9.36466E-14
 -1      2954 1.43771E-02-9.05152E-04-9.56606E-14
 -1      2955 1.43635E-02-8.63778E-04-9.55615E-14
 -1      2956 1.42329E-02-8.30567E-04-9.40790E-14
 -1      2957 1.44050E-02-9.89346E-04-9.58571E-14
 -1      2958 1.43910E-02-9.47246E-04-9.57591E-14
 -1      2959 1.42604E-02-9.13968E-04-9.42760E-14
 -1      2960 1.44329E-02-1.07357E-03-9.60386E-14
 -1      2961 1.44189E-02-1.03145E-03-9.59490E-14
 -1      2962 1.42882E-02-9.98115E-04-9.44629E-14
 -1      2963 5.39163E-03 6.53669E-04-1.54721E-14
 -1      2964 5.55559E-03 7.37431E-04-1.60985E-14
 -1      2965 6.71294E-03-1.00910E-03-2.17967E-14
 -1      2966 6.55531E-03-1.09343E-03-2.10592E-14
 -1      2967 8.20650E-03-1.63406E-04-2.68840E-14
 -1      2968 8.30978E-03-1.86540E-04-2.72970E-14
 -1      2969 8.33236E-04-2.40708E-04-5.24686E-16
 -1      2970 9.66074E-04-2.71791E-04-6.72354E-16
 -1      2971 8.21039E-04-2.14675E-04-5.35406E-16
 -1      2972 8.39813E-03-2.10230E-04-2.77139E-14
 -1      2973 8.40592E-03-2.19052E-04-2.77114E-14
 -1      2974 6.10334E-03 8.31824E-04-1.87087E-14
 -1      2975 6.21571E-03 8.04725E-04-1.92930E-14
 -1      2976 7.43020E-03-5.88835E-04-2.44858E-14
 -1      2977 7.22662E-03-7.03494E-04-2.38015E-14
 -1      2978 1.71935E-03 3.88697E-04-1.68000E-15
 -1      2979 1.57427E-03 3.78499E-04-1.41253E-15
 -1      2980 1.77594E-03 3.57488E-04-1.87213E-15
 -1      2981 2.59642E-03 4.15182E-04-3.78473E-15
 -1      2982 2.44890E-03 4.12824E-04-3.37532E-15
 -1      2983 2.35705E-03 3.74699E-04-3.24003E-15
 -1      2984 2.65014E-03 3.78614E-04-4.06340E-15
 -1      2985 1.07530E-03-2.89358E-04-8.15171E-16
 -1      2986 1.21971E-03-3.09797E-04-1.02415E-15
 -1      2987 1.27812E-03-2.86349E-04-1.16039E-15
 -1      2988 1.06055E-03-2.59967E-04-8.29469E-16
 -1      2989 4.28400E-03 7.25279E-05-1.28287E-14
 -1      2990 4.46014E-03 1.46881E-04-1.31496E-14
 -1      2991 1.42933E-03 3.65378E-04-1.16910E-15
 -1      2992 1.28427E-03 3.49027E-04-9.49531E-16
 -1      2993 1.19752E-03 3.06368E-04-8.83964E-16
 -1      2994 1.48656E-03 3.37811E-04-1.32991E-15
 -1      2995 7.79078E-04 1.06529E-04-5.33007E-16
 -1      2996 7.74837E-04 8.55142E-05-5.42928E-16
 -1      2997 8.89364E-04 8.42940E-05-6.93212E-16
 -1      2998 8.99619E-04 1.30897E-04-6.69359E-16
 -1      2999 7.74093E-04-8.41523E-05-5.67160E-16
 -1      3000 7.78242E-04-1.04870E-04-5.63311E-16
 -1      3001 7.17668E-03 2.93332E-04-2.36769E-14
 -1      3002 7.36994E-03 1.82516E-04-2.43167E-14
 -1      3003 7.84025E-03-3.90153E-04-2.56721E-14
 -1      3004 7.65750E-03-4.72992E-04-2.51835E-14
 -1      3005 3.94775E-03-1.56971E-04-1.24567E-14
 -1      3006 3.84245E-03-1.30683E-04-1.22817E-14
 -1      3007 5.01928E-03 4.40227E-04-1.43543E-14
 -1      3008 5.18476E-03 5.40223E-04-1.47920E-14
 -1      3009 3.75663E-03-9.14337E-05-1.20314E-14
 -1      3010 3.80323E-03-8.10120E-05-1.20792E-14
 -1      3011 8.15007E-03-2.79387E-04-2.65269E-14
 -1      3012 8.01082E-03-3.22777E-04-2.61208E-14
 -1      3013 8.08913E-04 2.55064E-04-4.13067E-16
 -1      3014 4.29147E-03-2.76645E-04-1.30804E-14
 -1      3015 4.11254E-03-2.10433E-04-1.27502E-14
 -1      3016 4.66980E-03 2.48710E-04-1.35548E-14
 -1      3017 4.84834E-03 3.43683E-04-1.39518E-14
 -1      3018 4.90304E-03 3.99563E-04-1.38254E-14
 -1      3019 5.03732E-03-6.65275E-04-1.46895E-14
 -1      3020 4.84727E-03-5.50782E-04-1.42477E-14
 -1      3021 6.66971E-03 5.88102E-04-2.14839E-14
 -1      3022 6.89241E-03 4.57693E-04-2.24980E-14
 -1      3023 6.35763E-03-1.16332E-03-2.00592E-14
 -1      3024 6.21370E-03-1.19336E-03-1.93038E-14
 -1      3025 4.66131E-03-4.49186E-04-1.38362E-14
 -1      3026 4.49357E-03-3.66236E-04-1.34787E-14
 -1      3027 1.44949E-02-1.18076E-03-9.65677E-14
 -1      3028 6.35455E-03 7.53602E-04-1.99826E-14
 -1      3029 6.49102E-03 6.85655E-04-2.06458E-14
 -1      3030 7.83355E-04-1.26724E-04-5.57646E-16
 -1      3031 7.89414E-04-1.49982E-04-5.49704E-16
 -1      3032 8.98469E-04-1.28850E-04-7.10180E-16
 -1      3033 4.74013E-03-5.03814E-04-1.37589E-14
 -1      3034 8.80856E-04 2.54399E-07-7.18650E-16
 -1      3035 7.66110E-04-8.64789E-06-5.69098E-16
 -1      3036 7.66835E-04-2.69099E-05-5.70534E-16
 -1      3037 3.72142E-03-9.42953E-05-1.16841E-14
 -1      3038 8.17069E-03-1.44144E-04-2.72554E-14
 -1      3039 8.22659E-03-2.72687E-04-2.73028E-14
 -1      3040 6.59642E-03 6.40309E-04-2.12577E-14
 -1      3041 6.80551E-03-9.78917E-04-2.23460E-14
 -1      3042 6.43319E-03-1.15699E-03-2.04887E-14
 -1      3043 7.18734E-03-7.94038E-04-2.43098E-14
 -1      3044 7.24688E-03-8.47384E-04-2.50806E-14
 -1      3045 7.43648E-03-7.79390E-04-2.62089E-14
 -1      3046 7.56970E-03-5.37444E-04-2.52677E-14
 -1      3047 7.51810E-03 1.21702E-04-2.51089E-14
 -1      3048 1.42174E-02-3.74654E-04-9.43370E-14
 -1      3049 1.41036E-02-3.55976E-04-9.30536E-14
 -1      3050 1.42307E-02-4.16423E-04-9.44624E-14
 -1      3051 6.00710E-03 8.44181E-04-1.82053E-14
 -1      3052 5.10894E-03-7.23137E-04-1.46906E-14
 -1      3053 5.55034E-03 7.56090E-04-1.59295E-14
 -1      3054 5.65438E-03 7.84146E-04-1.64664E-14
 -1      3055 5.74158E-03 8.19503E-04-1.68384E-14
 -1      3056 5.26220E-03 6.02539E-04-1.48885E-14
 -1      3057 1.44809E-02-1.13862E-03-9.64847E-14
 -1      3058 8.39601E-03-2.02044E-04-2.82304E-14
 -1      3059 7.57861E-03-6.84350E-04-2.67752E-14
 -1      3060 4.54274E-03 2.08004E-04-1.30315E-14
 -1      3061 3.84379E-03-6.34487E-05-1.19441E-14
 -1      3062 3.89263E-03-4.08963E-05-1.18088E-14
 -1      3063 3.77874E-03-6.67224E-05-1.15605E-14
 -1      3064 7.88569E-03-4.83160E-05-2.62252E-14
 -1      3065 6.29384E-03 7.83771E-04-1.97260E-14
 -1      3066 4.15582E-03 3.31240E-05-1.24160E-14
 -1      3067 4.21453E-03 7.68962E-05-1.22263E-14
 -1      3068 4.03905E-03 7.09788E-06-1.20106E-14
 -1      3069 7.17659E-03-7.55138E-04-2.38820E-14
 -1      3070 1.42492E-02-4.92999E-04-9.46217E-14
 -1      3071 1.42358E-02-4.51243E-04-9.44976E-14
 -1      3072 1.41220E-02-4.32541E-04-9.32113E-14
 -1      3073 1.41322E-02-5.02129E-04-9.32733E-14
 -1      3074 4.00997E-03-1.83381E-04-1.22842E-14
 -1      3075 7.68404E-04-4.54001E-05-5.70697E-16
 -1      3076 7.70809E-04-6.44424E-05-5.69559E-16
 -1      3077 8.88452E-04-8.29531E-05-7.19626E-16
 -1      3078 8.82618E-04-4.05680E-05-7.22092E-16
 -1      3079 5.50210E-03-9.61735E-04-1.60146E-14
 -1      3080 7.94949E-03-3.64541E-04-2.64303E-14
 -1      3081 7.03562E-03 3.85231E-04-2.32794E-14
 -1      3082 7.17725E-03 3.23378E-04-2.40720E-14
 -1      3083 6.91294E-03 4.73717E-04-2.28823E-14
 -1      3084 3.78161E-03-1.19329E-04-1.18346E-14
 -1      3085 1.43257E-02-1.13251E-03-9.46511E-14
 -1      3086 1.44085E-02-1.10087E-03-9.56976E-14
 -1      3087 1.42777E-02-1.06748E-03-9.42104E-14
 -1      3088 1.42288E-02-1.12203E-03-9.35224E-14
 -1      3089 6.07577E-03-1.18992E-03-1.86018E-14
 -1      3090 5.93719E-03-1.16078E-03-1.79210E-14
 -1      3091 8.69737E-04 2.41512E-04-5.06146E-16
 -1      3092 4.36699E-03-3.19226E-04-1.29613E-14
 -1      3093 6.12015E-03-1.20196E-03-1.87967E-14
 -1      3094 9.87293E-04 2.47394E-04-6.56959E-16
 -1      3095 4.43387E-03-3.66304E-04-1.27793E-14
 -1      3096 4.25170E-03-2.86588E-04-1.23956E-14
 -1      3097 1.04075E-03 2.14445E-04-7.78335E-16
 -1      3098 1.03095E-03 1.84496E-04-8.00954E-16
 -1      3099 8.38976E-03-1.89231E-04-2.88510E-14
 -1      3100 8.47480E-03-2.12574E-04-2.92797E-14
 -1      3101 7.99359E-04-1.69586E-04-5.47631E-16
 -1      3102 8.09203E-04-1.92329E-04-5.41193E-16
 -1      3103 9.38919E-04-2.19147E-04-6.92548E-16
 -1      3104 9.15537E-04-1.74339E-04-7.00842E-16
 -1      3105 5.40287E-03-9.24668E-04-1.54766E-14
 -1      3106 6.51510E-03 6.97510E-04-2.09465E-14
 -1      3107 6.67823E-03 6.11522E-04-2.17921E-14
 -1      3108 8.12081E-03-1.16459E-04-2.75638E-14
 -1      3109 8.24467E-03-1.50712E-04-2.81202E-14
 -1      3110 4.79680E-03-5.53497E-04-1.36455E-14
 -1      3111 4.63043E-03-4.61902E-04-1.32460E-14
 -1      3112 1.83252E-03 3.26157E-04-2.06871E-15
 -1      3113 1.68831E-03 3.19174E-04-1.77072E-15
 -1      3114 5.84876E-03-1.13650E-03-1.74604E-14
 -1      3115 7.35031E-03-6.99893E-04-2.50021E-14
 -1      3116 1.73080E-03-2.88169E-04-2.08313E-15
 -1      3117 1.87354E-03-2.93541E-04-2.41143E-15
 -1      3118 2.01606E-03-2.97283E-04-2.76337E-15
 -1      3119 2.15847E-03-2.99600E-04-3.13921E-15
 -1      3120 1.92836E-03-2.63236E-04-2.60616E-15
 -1      3121 2.30062E-03-3.00939E-04-3.53859E-15
 -1      3122 2.44266E-03-3.01522E-04-3.96158E-15
 -1      3123 2.21042E-03-2.67675E-04-3.35925E-15
 -1      3124 2.58448E-03-3.01805E-04-4.40809E-15
 -1      3125 2.72630E-03-3.02053E-04-4.87791E-15
 -1      3126 2.49094E-03-2.68737E-04-4.20600E-15
 -1      3127 2.86807E-03-3.02733E-04-5.36994E-15
 -1      3128 3.01011E-03-3.04201E-04-5.88527E-15
 -1      3129 2.76991E-03-2.68871E-04-5.14504E-15
 -1      3130 3.15249E-03-3.06923E-04-6.42284E-15
 -1      3131 3.29571E-03-3.11453E-04-6.98333E-15
 -1      3132 3.04794E-03-2.70715E-04-6.17524E-15
 -1      3133 3.44004E-03-3.18213E-04-7.56593E-15
 -1      3134 3.58624E-03-3.28153E-04-8.17026E-15
 -1      3135 3.32663E-03-2.77273E-04-7.29436E-15
 -1      3136 3.73491E-03-3.41587E-04-8.79689E-15
 -1      3137 3.88719E-03-3.60282E-04-9.44519E-15
 -1      3138 3.60937E-03-2.92338E-04-8.50166E-15
 -1      3139 4.04424E-03-3.84395E-04-1.01150E-14
 -1      3140 4.20729E-03-4.16998E-04-1.08071E-14
 -1      3141 3.90258E-03-3.21556E-04-9.79535E-15
 -1      3142 4.35548E-03-4.17757E-04-1.16840E-14
 -1      3143 4.53171E-03-4.71513E-04-1.24211E-14
 -1      3144 6.03960E-03-1.20840E-03-1.83261E-14
 -1      3145 4.41143E-03 1.74337E-04-1.24572E-14
 -1      3146 4.59721E-03 2.64606E-04-1.28479E-14
 -1      3147 8.25437E-03-5.21078E-04-3.11262E-14
 -1      3148 8.40902E-03-5.12407E-04-3.23556E-14
 -1      3149 8.55940E-03-5.09915E-04-3.36017E-14
 -1      3150 8.70675E-03-5.11594E-04-3.48645E-14
 -1      3151 8.52475E-03-4.66953E-04-3.29583E-14
 -1      3152 8.85174E-03-5.17200E-04-3.61438E-14
 -1      3153 8.99527E-03-5.25656E-04-3.74396E-14
 -1      3154 8.80855E-03-4.76063E-04-3.54795E-14
 -1      3155 9.13766E-03-5.36631E-04-3.87543E-14
 -1      3156 9.27949E-03-5.49537E-04-4.00845E-14
 -1      3157 9.08657E-03-4.96047E-04-3.80677E-14
 -1      3158 9.42086E-03-5.64030E-04-4.14325E-14
 -1      3159 9.56215E-03-5.79772E-04-4.27985E-14
 -1      3160 9.36290E-03-5.23212E-04-4.07254E-14
 -1      3161 9.70332E-03-5.96447E-04-4.41783E-14
 -1      3162 9.84462E-03-6.13861E-04-4.55744E-14
 -1      3163 9.63957E-03-5.55029E-04-4.34505E-14
 -1      3164 9.98596E-03-6.31754E-04-4.69870E-14
 -1      3165 1.01275E-02-6.50010E-04-4.84133E-14
 -1      3166 9.91746E-03-5.89643E-04-4.62410E-14
 -1      3167 1.02691E-02-6.68432E-04-4.98547E-14
 -1      3168 1.04110E-02-6.86952E-04-5.13084E-14
 -1      3169 1.01968E-02-6.25684E-04-4.90937E-14
 -1      3170 1.05529E-02-7.05434E-04-5.27729E-14
 -1      3171 1.06950E-02-7.23841E-04-5.42517E-14
 -1      3172 1.04776E-02-6.62167E-04-5.19990E-14
 -1      3173 1.08372E-02-7.42085E-04-5.57412E-14
 -1      3174 1.09795E-02-7.60148E-04-5.72395E-14
 -1      3175 1.07595E-02-6.98427E-04-5.49498E-14
 -1      3176 1.11219E-02-7.77981E-04-5.87503E-14
 -1      3177 1.12644E-02-7.95581E-04-6.02721E-14
 -1      3178 1.10425E-02-7.34051E-04-5.79492E-14
 -1      3179 1.14070E-02-8.12923E-04-6.18033E-14
 -1      3180 1.15496E-02-8.30012E-04-6.33439E-14
 -1      3181 1.13262E-02-7.68814E-04-6.09898E-14
 -1      3182 1.16923E-02-8.46844E-04-6.48935E-14
 -1      3183 1.18350E-02-8.63427E-04-6.64501E-14
 -1      3184 1.16105E-02-8.02629E-04-6.40699E-14
 -1      3185 1.19777E-02-8.79769E-04-6.80133E-14
 -1      3186 1.21205E-02-8.95880E-04-6.95861E-14
 -1      3187 1.18953E-02-8.35498E-04-6.71834E-14
 -1      3188 1.22633E-02-9.11775E-04-7.11648E-14
 -1      3189 1.24062E-02-9.27466E-04-7.27515E-14
 -1      3190 1.21804E-02-8.67484E-04-7.03264E-14
 -1      3191 1.25490E-02-9.42969E-04-7.43453E-14
 -1      3192 1.26918E-02-9.58297E-04-7.59428E-14
 -1      3193 1.24657E-02-8.98679E-04-7.34985E-14
 -1      3194 1.28347E-02-9.73467E-04-7.75484E-14
 -1      3195 1.29775E-02-9.88492E-04-7.91625E-14
 -1      3196 1.27512E-02-9.29191E-04-7.66942E-14
 -1      3197 1.31204E-02-1.00339E-03-8.07818E-14
 -1      3198 1.32633E-02-1.01816E-03-8.24074E-14
 -1      3199 1.30368E-02-9.59130E-04-7.99164E-14
 -1      3200 1.34062E-02-1.03284E-03-8.40387E-14
 -1      3201 1.35490E-02-1.04742E-03-8.56759E-14
 -1      3202 1.33224E-02-9.88601E-04-8.31631E-14
 -1      3203 1.36919E-02-1.06193E-03-8.73196E-14
 -1      3204 1.38348E-02-1.07636E-03-8.89655E-14
 -1      3205 1.36081E-02-1.01771E-03-8.64332E-14
 -1      3206 1.39603E-02-1.09206E-03-9.04125E-14
 -1      3207 1.41032E-02-1.10640E-03-9.20690E-14
 -1      3208 1.41277E-02-1.07915E-03-9.24146E-14
 -1      3209 1.38765E-02-1.04785E-03-8.95185E-14
 -1      3210 2.12127E-03 3.34994E-04-2.73501E-15
 -1      3211 1.97680E-03 3.31347E-04-2.39034E-15
 -1      3212 1.88881E-03 2.94804E-04-2.26991E-15
 -1      3213 3.29513E-03 3.56435E-04-6.31784E-15
 -1      3214 3.14504E-03 3.50586E-04-5.79132E-15
 -1      3215 2.99635E-03 3.46619E-04-5.28695E-15
 -1      3216 2.84883E-03 3.43944E-04-4.80532E-15
 -1      3217 3.04435E-03 3.09227E-04-5.59905E-15
 -1      3218 3.91674E-03 4.09737E-04-8.64152E-15
 -1      3219 3.75749E-03 3.90518E-04-8.02806E-15
 -1      3220 4.24528E-03 4.63643E-04-9.93509E-15
 -1      3221 4.07947E-03 4.33725E-04-9.27731E-15
 -1      3222 3.96185E-03 3.69946E-04-9.02754E-15
 -1      3223 4.58734E-03 5.42053E-04-1.13182E-14
 -1      3224 4.41499E-03 4.99488E-04-1.06150E-14
 -1      3225 4.29388E-03 4.24976E-04-1.03440E-14
 -1      3226 4.93925E-03 6.45056E-04-1.27924E-14
 -1      3227 4.76299E-03 5.90987E-04-1.20429E-14
 -1      3228 4.64299E-03 5.08063E-04-1.17495E-14
 -1      3229 5.29139E-03 7.60109E-04-1.43630E-14
 -1      3230 5.11660E-03 7.02977E-04-1.35658E-14
 -1      3231 5.00480E-03 6.20678E-04-1.32465E-14
 -1      3232 5.95550E-03 8.93400E-04-1.78151E-14
 -1      3233 5.79353E-03 8.85373E-04-1.69109E-14
 -1      3234 6.25775E-03 8.31583E-04-1.95863E-14
 -1      3235 6.09076E-03 8.65490E-04-1.86325E-14
 -1      3236 6.63676E-03 7.02058E-04-2.18087E-14
 -1      3237 6.46299E-03 7.69974E-04-2.07961E-14
 -1      3238 7.31628E-03 4.49386E-04-2.59926E-14
 -1      3239 7.14059E-03 5.15284E-04-2.48822E-14
 -1      3240 7.66128E-03 3.36324E-04-2.82758E-14
 -1      3241 7.49064E-03 3.89783E-04-2.71241E-14
 -1      3242 7.44806E-03 3.61588E-04-2.66407E-14
 -1      3243 7.99291E-03 2.48535E-04-3.06413E-14
 -1      3244 7.82901E-03 2.89506E-04-2.94479E-14
 -1      3245 7.79224E-03 2.57896E-04-2.89491E-14
 -1      3246 8.31139E-03 1.82498E-04-3.30874E-14
 -1      3247 8.15376E-03 2.13248E-04-3.18547E-14
 -1      3248 8.11903E-03 1.80941E-04-3.13390E-14
 -1      3249 8.61920E-03 1.32966E-04-3.56027E-14
 -1      3250 8.46648E-03 1.56053E-04-3.43373E-14
 -1      3251 8.43108E-03 1.24241E-04-3.38049E-14
 -1      3252 8.91928E-03 9.52750E-05-3.81922E-14
 -1      3253 8.77004E-03 1.12936E-04-3.68881E-14
 -1      3254 8.73232E-03 8.17711E-05-3.63407E-14
 -1      3255 9.21416E-03 6.56639E-05-4.08466E-14
 -1      3256 9.06724E-03 7.96742E-05-3.95110E-14
 -1      3257 9.02642E-03 4.89474E-05-3.89456E-14
 -1      3258 9.50570E-03 4.12454E-05-4.35696E-14
 -1      3259 9.36025E-03 5.29582E-05-4.21991E-14
 -1      3260 9.31615E-03 2.24320E-05-4.16186E-14
 -1      3261 9.79513E-03 1.98710E-05-4.63593E-14
 -1      3262 9.65060E-03 3.02840E-05-4.49571E-14
 -1      3263 9.60340E-03-2.03426E-07-4.43593E-14
 -1      3264 1.00833E-02-4.99539E-09-4.92069E-14
 -1      3265 9.93931E-03 9.81768E-06-4.77757E-14
 -1      3266 9.88934E-03-2.07099E-05-4.71645E-14
 -1      3267 1.03706E-02-1.94480E-05-5.21083E-14
 -1      3268 1.02270E-02-9.73400E-06-5.06517E-14
 -1      3269 1.01747E-02-4.03215E-05-5.00284E-14
 -1      3270 1.06574E-02-3.91518E-05-5.50602E-14
 -1      3271 1.05141E-02-2.92391E-05-5.35778E-14
 -1      3272 1.04598E-02-5.98739E-05-5.29432E-14
 -1      3273 1.09439E-02-5.95313E-05-5.80541E-14
 -1      3274 1.08007E-02-4.92418E-05-5.65533E-14
 -1      3275 1.07450E-02-7.98979E-05-5.59071E-14
 -1      3276 1.12302E-02-8.08009E-05-6.10933E-14
 -1      3277 1.10871E-02-7.00485E-05-5.95681E-14
 -1      3278 1.10302E-02-1.00699E-04-5.89144E-14
 -1      3279 1.15164E-02-1.03036E-04-6.41680E-14
 -1      3280 1.13733E-02-9.17974E-05-6.26249E-14
 -1      3281 1.13155E-02-1.22419E-04-6.19611E-14
 -1      3282 1.18024E-02-1.26222E-04-6.72817E-14
 -1      3283 1.16594E-02-1.14513E-04-6.57200E-14
 -1      3284 1.16010E-02-1.45091E-04-6.50465E-14
 -1      3285 1.20883E-02-1.50288E-04-7.04263E-14
 -1      3286 1.19454E-02-1.38150E-04-6.88507E-14
 -1      3287 1.18865E-02-1.68675E-04-6.81684E-14
 -1      3288 1.23742E-02-1.75134E-04-7.36009E-14
 -1      3289 1.22313E-02-1.62620E-04-7.20107E-14
 -1      3290 1.21721E-02-1.93088E-04-7.13227E-14
 -1      3291 1.26601E-02-2.00648E-04-7.67976E-14
 -1      3292 1.25171E-02-1.87814E-04-7.51967E-14
 -1      3293 1.24578E-02-2.18228E-04-7.45037E-14
 -1      3294 1.29459E-02-2.26717E-04-8.00098E-14
 -1      3295 1.28030E-02-2.13619E-04-7.84028E-14
 -1      3296 1.27435E-02-2.43983E-04-7.77041E-14
 -1      3297 1.32317E-02-2.53231E-04-8.32293E-14
 -1      3298 1.30888E-02-2.39924E-04-8.16187E-14
 -1      3299 1.30292E-02-2.70245E-04-8.09180E-14
 -1      3300 1.35174E-02-2.80091E-04-8.64535E-14
 -1      3301 1.33745E-02-2.66623E-04-8.48396E-14
 -1      3302 1.33149E-02-2.96910E-04-8.41395E-14
 -1      3303 1.38032E-02-3.07207E-04-8.96760E-14
 -1      3304 1.36603E-02-2.93622E-04-8.80665E-14
 -1      3305 1.36007E-02-3.23885E-04-8.73622E-14
 -1      3306 1.40103E-02-3.40893E-04-9.20047E-14
 -1      3307 1.38965E-02-3.22253E-04-9.07256E-14
 -1      3308 1.38369E-02-3.52502E-04-9.00251E-14
 -1      3309 1.40236E-02-3.82640E-04-9.21265E-14
 -1      3310 1.41160E-02-8.39045E-04-9.27017E-14
 -1      3311 1.41024E-02-7.97742E-04-9.26026E-14
 -1      3312 4.05855E-03-2.11434E-04-1.20130E-14
 -1      3313 3.90841E-03-1.63380E-04-1.17316E-14
 -1      3314 1.40887E-02-7.55730E-04-9.25006E-14
 -1      3315 1.40749E-02-7.13721E-04-9.23953E-14
 -1      3316 1.39717E-02-7.64237E-04-9.11328E-14
 -1      3317 8.30138E-03-2.71932E-04-2.81147E-14
 -1      3318 8.19188E-03-3.00497E-04-2.76925E-14
 -1      3319 1.41437E-02-9.23101E-04-9.28932E-14
 -1      3320 1.41298E-02-8.81068E-04-9.28004E-14
 -1      3321 1.39994E-02-8.48192E-04-9.13282E-14
 -1      3322 1.15049E-03 2.77129E-04-8.56709E-16
 -1      3323 1.08496E-03 2.40780E-04-8.09357E-16
 -1      3324 1.20211E-03 2.39265E-04-9.97683E-16
 -1      3325 1.29434E-03 2.94608E-04-1.06439E-15
 -1      3326 1.41716E-02-1.00720E-03-9.30726E-14
 -1      3327 1.41576E-02-9.65146E-04-9.29847E-14
 -1      3328 1.40271E-02-9.32189E-04-9.15110E-14
 -1      3329 1.00070E-03 5.66606E-05-8.72295E-16
 -1      3330 9.98173E-04 3.37931E-05-8.79884E-16
 -1      3331 8.06173E-03-3.46411E-04-2.73008E-14
 -1      3332 7.91068E-03-4.05990E-04-2.68405E-14
 -1      3333 3.60094E-03 3.75820E-04-7.43649E-15
 -1      3334 3.44702E-03 3.64580E-04-6.86610E-15
 -1      3335 3.34095E-03 3.18066E-04-6.65497E-15
 -1      3336 3.64548E-03 3.36506E-04-7.79788E-15
 -1      3337 7.54327E-03-5.91434E-04-2.57131E-14
 -1      3338 7.54126E-03-6.42733E-04-2.61564E-14
 -1      3339 7.74179E-03-4.92079E-04-2.64312E-14
 -1      3340 7.92721E-03-5.60834E-04-2.87215E-14
 -1      3341 8.09414E-03-5.35997E-04-2.99145E-14
 -1      3342 8.22775E-03-4.74994E-04-3.05013E-14
 -1      3343 7.74696E-03-5.95617E-04-2.75127E-14
 -1      3344 1.44517E-03-2.71015E-04-1.49839E-15
 -1      3345 1.58804E-03-2.80720E-04-1.77865E-15
 -1      3346 1.64516E-03-2.53080E-04-1.94757E-15
 -1      3347 5.13475E-03 5.61809E-04-1.42655E-14
 -1      3348 5.32160E-03 6.62791E-04-1.49300E-14
 -1      3349 3.68691E-03-9.47811E-05-1.12783E-14
 -1      3350 3.69906E-03-8.41468E-05-1.12894E-14
 -1      3351 7.49544E-03 1.67800E-04-2.55702E-14
 -1      3352 7.68541E-03 6.81007E-05-2.62147E-14
 -1      3353 7.83682E-03-6.14653E-06-2.66443E-14
 -1      3354 7.98284E-03-6.50444E-05-2.71317E-14
 -1      3355 8.08014E-03-7.89919E-05-2.79918E-14
 -1      3356 7.80617E-03 4.32450E-05-2.71169E-14
 -1      3357 4.77888E-03 3.63763E-04-1.32462E-14
 -1      3358 4.92915E-03 4.48998E-04-1.36342E-14
 -1      3359 3.79186E-03-1.28822E-04-1.15264E-14
 -1      3360 3.72238E-03-1.11551E-04-1.13679E-14
 -1      3361 9.96811E-04 1.13189E-05-8.85265E-16
 -1      3362 9.96643E-04-1.09765E-05-8.89127E-16
 -1      3363 1.11393E-03 2.41267E-05-1.06856E-15
 -1      3364 1.14746E-03 1.82643E-04-9.85987E-16
 -1      3365 1.02245E-03 1.56378E-04-8.20551E-16
 -1      3366 1.01528E-03 1.29759E-04-8.37112E-16
 -1      3367 8.54903E-03-2.20625E-04-3.03915E-14
 -1      3368 8.51899E-03-2.29311E-04-2.97568E-14
 -1      3369 8.54577E-03-2.45382E-04-3.02722E-14
 -1      3370 8.47616E-03-2.36014E-04-2.91606E-14
 -1      3371 1.03348E-03-2.10275E-04-8.43035E-16
 -1      3372 1.04647E-03-2.34513E-04-8.37302E-16
 -1      3373 1.15449E-03-2.47927E-04-9.96300E-16
 -1      3374 5.02739E-03-6.96405E-04-1.41799E-14
 -1      3375 4.90482E-03-6.46692E-04-1.36529E-14
 -1      3376 8.33994E-03-1.49494E-04-2.94826E-14
 -1      3377 8.36652E-03-1.71595E-04-2.91675E-14
 -1      3378 8.47615E-03-1.86655E-04-3.02292E-14
 -1      3379 4.18774E-03-3.35856E-04-1.13334E-14
 -1      3380 4.70959E-03-5.64554E-04-1.28776E-14
 -1      3381 6.73415E-03 6.13596E-04-2.22297E-14
 -1      3382 6.81609E-03 5.47179E-04-2.25556E-14
 -1      3383 6.95507E-03 4.85404E-04-2.33333E-14
 -1      3384 4.27752E-03 1.29130E-04-1.20504E-14
 -1      3385 4.32683E-03 1.84340E-04-1.18716E-14
 -1      3386 4.15065E-03 9.43738E-05-1.16499E-14
 -1      3387 3.71060E-03-7.13688E-05-1.11594E-14
 -1      3388 3.73280E-03-5.57359E-05-1.10280E-14
 -1      3389 3.65220E-03-7.34070E-05-1.07631E-14
 -1      3390 2.41091E-03 3.39323E-04-3.49486E-15
 -1      3391 2.26593E-03 3.37559E-04-3.10320E-15
 -1      3392 2.17590E-03 3.01384E-04-2.96539E-15
 -1      3393 1.26269E-03-2.59318E-04-1.16942E-15
 -1      3394 3.85086E-03-2.16319E-05-1.12450E-14
 -1      3395 3.94017E-03-1.11863E-05-1.16246E-14
 -1      3396 3.98570E-03 2.40929E-05-1.14401E-14
 -1      3397 7.87719E-03-4.62122E-04-2.73004E-14
 -1      3398 2.75260E-03 3.05736E-04-4.63132E-15
 -1      3399 2.70220E-03 3.42127E-04-4.34593E-15
 -1      3400 2.55628E-03 3.40734E-04-3.90883E-15
 -1      3401 5.63079E-03 8.56980E-04-1.60354E-14
 -1      3402 5.46288E-03 8.14401E-04-1.51861E-14
 -1      3403 5.36584E-03 7.48031E-04-1.48414E-14
 -1      3404 5.71109E-03 8.48229E-04-1.65383E-14
 -1      3405 6.01479E-03 8.56876E-04-1.82278E-14
 -1      3406 7.07164E-03 4.84632E-04-2.42440E-14
 -1      3407 6.94291E-03 5.77348E-04-2.36270E-14
 -1      3408 6.76496E-03 6.51688E-04-2.25691E-14
 -1      3409 4.11755E-03-2.51528E-04-1.18378E-14
 -1      3410 1.40340E-02-5.88029E-04-9.20654E-14
 -1      3411 1.40204E-02-5.45998E-04-9.19524E-14
 -1      3412 3.81908E-03-1.48743E-04-1.12658E-14
 -1      3413 8.37615E-03-2.56164E-04-2.85093E-14
 -1      3414 8.36003E-03-2.78602E-04-2.89065E-14
 -1      3415 1.40613E-02-6.71888E-04-9.22869E-14
 -1      3416 1.40476E-02-6.29874E-04-9.21758E-14
 -1      3417 1.39171E-02-5.96879E-04-9.07130E-14
 -1      3418 1.39443E-02-6.80477E-04-9.09270E-14
 -1      3419 5.86449E-03 8.52473E-04-1.74140E-14
 -1      3420 4.63365E-03 3.20767E-04-1.26628E-14
 -1      3421 8.16138E-03-3.36713E-04-2.81121E-14
 -1      3422 1.00440E-03 8.00689E-05-8.62713E-16
 -1      3423 1.11981E-03 7.33554E-05-1.05105E-15
 -1      3424 1.00922E-03 1.04319E-04-8.51099E-16
 -1      3425 7.36334E-03 2.48244E-04-2.51527E-14
 -1      3426 7.54273E-03 1.89774E-04-2.62542E-14
 -1      3427 7.24137E-03 3.31269E-04-2.47376E-14
 -1      3428 7.90156E-03-5.12032E-04-2.80820E-14
 -1      3429 3.66712E-03-1.00629E-04-1.09796E-14
 -1      3430 3.62064E-03-9.08832E-05-1.05966E-14
 -1      3431 3.65413E-03-1.08191E-04-1.06818E-14
 -1      3432 1.32197E-03-2.36292E-04-1.30764E-15
 -1      3433 5.00246E-03 5.22441E-04-1.36702E-14
 -1      3434 1.40153E-02-5.11246E-04-9.19268E-14
 -1      3435 1.40101E-02-4.76483E-04-9.18983E-14
 -1      3436 1.38983E-02-5.20348E-04-9.05805E-14
 -1      3437 1.56337E-03 3.15031E-04-1.52414E-15
 -1      3438 1.41926E-03 3.03488E-04-1.27096E-15
 -1      3439 1.37210E-03 2.75381E-04-1.23492E-15
 -1      3440 1.62101E-03 2.86564E-04-1.69778E-15
 -1      3441 8.39211E-03-2.23931E-04-2.76059E-14
 -1      3442 8.39061E-03-2.36754E-04-2.80812E-14
 -1      3443 8.44775E-03-2.24570E-04-2.85468E-14
 -1      3444 1.41374E-02-1.05680E-03-9.25737E-14
 -1      3445 1.41619E-02-1.02955E-03-9.29151E-14
 -1      3446 1.40313E-02-9.96534E-04-9.14410E-14
 -1      3447 1.40118E-02-1.04118E-03-9.11244E-14
 -1      3448 1.00335E-03-7.89870E-05-8.90225E-16
 -1      3449 1.00797E-03-1.02882E-04-8.86904E-16
 -1      3450 1.01386E-03-1.27802E-04-8.81782E-16
 -1      3451 1.02096E-03-1.53965E-04-8.74138E-16
 -1      3452 1.12933E-03-1.23978E-04-1.07148E-15
 -1      3453 8.43674E-03-2.45302E-04-2.88730E-14
 -1      3454 8.57285E-03-2.09329E-04-3.10167E-14
 -1      3455 8.63119E-03-2.28683E-04-3.15065E-14
 -1      3456 5.20244E-03-8.08916E-04-1.47016E-14
 -1      3457 6.37164E-03 7.64554E-04-2.01920E-14
 -1      3458 6.45943E-03 7.40975E-04-2.07071E-14
 -1      3459 4.49332E-03-4.16120E-04-1.26688E-14
 -1      3460 1.84283E-03-2.30202E-04-2.45017E-15
 -1      3461 1.98300E-03-2.33389E-04-2.80375E-15
 -1      3462 5.32766E-03 6.96683E-04-1.48103E-14
 -1      3463 5.45754E-03 7.31485E-04-1.54530E-14
 -1      3464 2.12266E-03-2.35448E-04-3.18108E-15
 -1      3465 2.26184E-03-2.36519E-04-3.58157E-15
 -1      3466 2.03748E-03-2.04067E-04-3.00464E-15
 -1      3467 2.40034E-03-2.36982E-04-4.00512E-15
 -1      3468 2.53825E-03-2.36977E-04-4.45241E-15
 -1      3469 2.31283E-03-2.06216E-04-3.80659E-15
 -1      3470 2.67541E-03-2.36892E-04-4.92145E-15
 -1      3471 2.81199E-03-2.36883E-04-5.41377E-15
 -1      3472 2.58476E-03-2.06322E-04-4.69991E-15
 -1      3473 2.94788E-03-2.37336E-04-5.92915E-15
 -1      3474 3.08342E-03-2.38461E-04-6.46614E-15
 -1      3475 2.85275E-03-2.06154E-04-5.68440E-15
 -1      3476 3.21852E-03-2.40609E-04-7.02529E-15
 -1      3477 3.35391E-03-2.44167E-04-7.60633E-15
 -1      3478 3.11674E-03-2.07458E-04-6.75854E-15
 -1      3479 3.48948E-03-2.49410E-04-8.20856E-15
 -1      3480 3.62668E-03-2.57176E-04-8.83298E-15
 -1      3481 3.37759E-03-2.12061E-04-7.91794E-15
 -1      3482 3.76531E-03-2.67686E-04-9.47826E-15
 -1      3483 3.90801E-03-2.82698E-04-1.01446E-14
 -1      3484 3.63792E-03-2.22385E-04-9.16362E-15
 -1      3485 1.94494E-03 2.63496E-04-2.47611E-15
 -1      3486 1.80241E-03 2.59328E-04-2.14883E-15
 -1      3487 8.76993E-03-4.36095E-04-3.48189E-14
 -1      3488 8.90463E-03-4.45548E-04-3.60930E-14
 -1      3489 9.03868E-03-4.56909E-04-3.73847E-14
 -1      3490 9.17296E-03-4.69792E-04-3.86950E-14
 -1      3491 8.99382E-03-4.19192E-04-3.67050E-14
 -1      3492 9.30734E-03-4.83937E-04-4.00219E-14
 -1      3493 9.44231E-03-4.99125E-04-4.13665E-14
 -1      3494 9.25393E-03-4.46193E-04-3.93204E-14
 -1      3495 9.57773E-03-5.15101E-04-4.27263E-14
 -1      3496 9.71386E-03-5.31770E-04-4.41030E-14
 -1      3497 9.51757E-03-4.76686E-04-4.20056E-14
 -1      3498 9.85054E-03-5.48892E-04-4.54986E-14
 -1      3499 9.98790E-03-5.66411E-04-4.69088E-14
 -1      3500 9.78498E-03-5.09537E-04-4.47569E-14
 -1      3501 1.01258E-02-5.84126E-04-4.83322E-14
 -1      3502 1.02643E-02-6.02010E-04-4.97721E-14
 -1      3503 1.00560E-02-5.43804E-04-4.75744E-14
 -1      3504 1.04033E-02-6.19908E-04-5.12238E-14
 -1      3505 1.05429E-02-6.37808E-04-5.26863E-14
 -1      3506 1.03301E-02-5.78707E-04-5.04488E-14
 -1      3507 1.06828E-02-6.55602E-04-5.41617E-14
 -1      3508 1.08231E-02-6.73287E-04-5.56492E-14
 -1      3509 1.06068E-02-6.13659E-04-5.33755E-14
 -1      3510 1.09638E-02-6.90791E-04-5.71473E-14
 -1      3511 1.11048E-02-7.08122E-04-5.86553E-14
 -1      3512 1.08858E-02-6.48253E-04-5.63478E-14
 -1      3513 1.12460E-02-7.25236E-04-6.01758E-14
 -1      3514 1.13876E-02-7.42144E-04-6.17073E-14
 -1      3515 1.11664E-02-6.82235E-04-5.93632E-14
 -1      3516 1.15293E-02-7.58826E-04-6.32459E-14
 -1      3517 1.16712E-02-7.75294E-04-6.47951E-14
 -1      3518 1.14484E-02-7.15478E-04-6.24230E-14
 -1      3519 1.18132E-02-7.91543E-04-6.63522E-14
 -1      3520 1.19554E-02-8.07587E-04-6.79156E-14
 -1      3521 1.17315E-02-7.47939E-04-6.55188E-14
 -1      3522 1.20977E-02-8.23429E-04-6.94875E-14
 -1      3523 1.22402E-02-8.39086E-04-7.10673E-14
 -1      3524 1.20154E-02-7.79643E-04-6.86483E-14
 -1      3525 1.23826E-02-8.54564E-04-7.26517E-14
 -1      3526 1.25252E-02-8.69878E-04-7.42448E-14
 -1      3527 1.22998E-02-8.10650E-04-7.18057E-14
 -1      3528 1.26678E-02-8.85041E-04-7.58421E-14
 -1      3529 1.28105E-02-9.00065E-04-7.74444E-14
 -1      3530 1.25847E-02-8.41040E-04-7.49885E-14
 -1      3531 1.29532E-02-9.14963E-04-7.90534E-14
 -1      3532 1.30960E-02-9.29746E-04-8.06688E-14
 -1      3533 1.28698E-02-8.70904E-04-7.81933E-14
 -1      3534 1.32388E-02-9.44427E-04-8.22920E-14
 -1      3535 1.33816E-02-9.59017E-04-8.39183E-14
 -1      3536 1.31552E-02-9.00330E-04-8.14214E-14
 -1      3537 1.35244E-02-9.73528E-04-8.55480E-14
 -1      3538 1.36672E-02-9.87969E-04-8.71869E-14
 -1      3539 1.34408E-02-9.29406E-04-8.46687E-14
 -1      3540 3.09012E-03 2.71715E-04-5.91359E-15
 -1      3541 2.94530E-03 2.70163E-04-5.40563E-15
 -1      3542 4.33773E-03 3.83488E-04-1.07545E-14
 -1      3543 4.16764E-03 3.51884E-04-1.00737E-14
 -1      3544 4.00243E-03 3.27909E-04-9.41468E-15
 -1      3545 3.84235E-03 3.09278E-04-8.77736E-15
 -1      3546 4.03815E-03 2.83316E-04-9.80310E-15
 -1      3547 4.47385E-03 2.89618E-04-1.19483E-14
 -1      3548 4.63395E-03 3.75665E-04-1.23276E-14
 -1      3549 7.15850E-03 4.13875E-04-2.45898E-14
 -1      3550 7.51946E-03 2.85294E-04-2.68029E-14
 -1      3551 7.33928E-03 3.46955E-04-2.56758E-14
 -1      3552 8.54996E-03 6.94222E-05-3.45229E-14
 -1      3553 8.39960E-03 9.14858E-05-3.32718E-14
 -1      3554 8.84381E-03 3.34904E-05-3.70790E-14
 -1      3555 8.69784E-03 5.03990E-05-3.57926E-14
 -1      3556 8.66673E-03 1.85897E-05-3.52447E-14
 -1      3557 9.13169E-03 4.90845E-06-3.97002E-14
 -1      3558 8.98828E-03 1.85111E-05-3.83807E-14
 -1      3559 8.95284E-03-1.17608E-05-3.78158E-14
 -1      3560 9.41636E-03-1.90794E-05-4.23919E-14
 -1      3561 9.27428E-03-7.51298E-06-4.10397E-14
 -1      3562 9.23459E-03-3.69306E-05-4.04571E-14
 -1      3563 9.69955E-03-4.03946E-05-4.51513E-14
 -1      3564 9.55804E-03-2.99754E-05-4.37621E-14
 -1      3565 9.51448E-03-5.90413E-05-4.31668E-14
 -1      3566 9.98229E-03-6.03908E-05-4.79714E-14
 -1      3567 9.84091E-03-5.04951E-05-4.65534E-14
 -1      3568 9.79397E-03-7.95203E-05-4.59421E-14
 -1      3569 1.02651E-02-8.00071E-05-5.08510E-14
 -1      3570 1.01237E-02-7.02070E-05-4.94057E-14
 -1      3571 1.00738E-02-9.93561E-05-4.87809E-14
 -1      3572 1.05483E-02-9.98670E-05-5.37792E-14
 -1      3573 1.04067E-02-8.98833E-05-5.23076E-14
 -1      3574 1.03545E-02-1.19224E-04-5.16728E-14
 -1      3575 1.08320E-02-1.20355E-04-5.67538E-14
 -1      3576 1.06901E-02-1.10021E-04-5.52615E-14
 -1      3577 1.06360E-02-1.39564E-04-5.46155E-14
 -1      3578 1.11161E-02-1.41681E-04-5.97726E-14
 -1      3579 1.09740E-02-1.30909E-04-5.82585E-14
 -1      3580 1.09184E-02-1.60634E-04-5.76022E-14
 -1      3581 1.14006E-02-1.63924E-04-6.28323E-14
 -1      3582 1.12583E-02-1.52689E-04-6.12985E-14
 -1      3583 1.12016E-02-1.82563E-04-6.06333E-14
 -1      3584 1.16855E-02-1.87083E-04-6.59265E-14
 -1      3585 1.15430E-02-1.75393E-04-6.43741E-14
 -1      3586 1.14854E-02-2.05382E-04-6.37010E-14
 -1      3587 1.19706E-02-2.11098E-04-6.90564E-14
 -1      3588 1.18280E-02-1.98989E-04-6.74868E-14
 -1      3589 1.17697E-02-2.29060E-04-6.68052E-14
 -1      3590 1.22559E-02-2.35880E-04-7.22190E-14
 -1      3591 1.21132E-02-2.23400E-04-7.06346E-14
 -1      3592 1.20545E-02-2.53526E-04-6.99456E-14
 -1      3593 1.25413E-02-2.61326E-04-7.54038E-14
 -1      3594 1.23986E-02-2.48527E-04-7.38079E-14
 -1      3595 1.23396E-02-2.78689E-04-7.31138E-14
 -1      3596 1.28269E-02-2.87330E-04-7.86087E-14
 -1      3597 1.26841E-02-2.74265E-04-7.70049E-14
 -1      3598 1.26249E-02-3.04446E-04-7.63037E-14
 -1      3599 1.31126E-02-3.13788E-04-8.18255E-14
 -1      3600 1.29697E-02-3.00508E-04-8.02165E-14
 -1      3601 1.29103E-02-3.30700E-04-7.95120E-14
 -1      3602 1.33982E-02-3.40606E-04-8.50471E-14
 -1      3603 1.32554E-02-3.27157E-04-8.34360E-14
 -1      3604 1.31959E-02-3.57354E-04-8.27330E-14
 -1      3605 1.36840E-02-3.67696E-04-8.82738E-14
 -1      3606 1.35411E-02-3.54121E-04-8.66609E-14
 -1      3607 1.34816E-02-3.84322E-04-8.59573E-14
 -1      3608 3.82656E-03-1.69393E-04-1.09083E-14
 -1      3609 3.72089E-03-1.36073E-04-1.07140E-14
 -1      3610 5.54696E-03 7.79216E-04-1.58082E-14
 -1      3611 5.76348E-03 8.43357E-04-1.68547E-14
 -1      3612 1.38826E-02-8.56933E-04-8.99525E-14
 -1      3613 1.38688E-02-8.14988E-04-8.98616E-14
 -1      3614 1.02146E-03-1.87282E-04-8.46518E-16
 -1      3615 8.61798E-03-2.56683E-04-3.13120E-14
 -1      3616 8.55657E-03-2.65269E-04-3.07033E-14
 -1      3617 1.38550E-02-7.73054E-04-8.97646E-14
 -1      3618 1.38412E-02-7.31128E-04-8.96679E-14
 -1      3619 1.37382E-02-7.81819E-04-8.83990E-14
 -1      3620 8.04174E-03-4.38130E-04-2.85064E-14
 -1      3621 8.24611E-03 1.16812E-04-3.20391E-14
 -1      3622 8.08893E-03 1.46812E-04-3.08227E-14
 -1      3623 8.37233E-03 5.74444E-05-3.27403E-14
 -1      3624 1.40194E-02-4.46967E-04-9.20299E-14
 -1      3625 1.40143E-02-4.12180E-04-9.19989E-14
 -1      3626 1.39210E-02-3.97096E-04-9.09492E-14
 -1      3627 1.39024E-02-4.56123E-04-9.06885E-14
 -1      3628 7.92710E-03 1.81612E-04-2.96269E-14
 -1      3629 7.76045E-03 2.23496E-04-2.84508E-14
 -1      3630 8.06385E-03 1.10473E-04-3.03082E-14
 -1      3631 9.97677E-04-3.32991E-05-8.91228E-16
 -1      3632 9.99899E-04-5.58680E-05-8.91621E-16
 -1      3633 1.11864E-03-7.26564E-05-1.07866E-15
 -1      3634 8.49704E-03-4.24546E-04-3.23146E-14
 -1      3635 8.63458E-03-4.28773E-04-3.35580E-14
 -1      3636 8.73589E-03-3.97112E-04-3.41575E-14
 -1      3637 8.45995E-03-2.40882E-04-2.90539E-14
 -1      3638 1.39104E-02-9.40871E-04-9.01271E-14
 -1      3639 1.38965E-02-8.98893E-04-9.00409E-14
 -1      3640 1.37659E-02-8.65618E-04-8.85777E-14
 -1      3641 6.24541E-03 8.12385E-04-1.94975E-14
 -1      3642 1.56165E-03-2.19234E-04-1.81326E-15
 -1      3643 1.70238E-03-2.25525E-04-2.12025E-15
 -1      3644 1.75962E-03-1.98106E-04-2.29599E-15
 -1      3645 8.42776E-03-2.87029E-04-2.97569E-14
 -1      3646 8.35132E-03-3.04137E-04-2.93544E-14
 -1      3647 4.01695E-03-2.64752E-04-1.09748E-14
 -1      3648 1.20781E-03-2.01005E-04-1.14114E-15
 -1      3649 1.38803E-03-2.11184E-04-1.46512E-15
 -1      3650 8.16816E-03-3.80865E-04-2.89038E-14
 -1      3651 8.18840E-03-4.31334E-04-2.97052E-14
 -1      3652 8.33449E-03-4.25372E-04-3.09129E-14
 -1      3653 8.28206E-03-3.39168E-04-2.93080E-14
 -1      3654 4.65410E-03 4.53352E-04-1.20504E-14
 -1      3655 4.47415E-03 4.06067E-04-1.13293E-14
 -1      3656 1.27440E-03 2.09072E-04-1.16573E-15
 -1      3657 1.26384E-03 1.77680E-04-1.19086E-15
 -1      3658 3.93366E-03 4.85303E-05-1.08966E-14
 -1      3659 4.03860E-03 6.78290E-05-1.12706E-14
 -1      3660 4.08461E-03 1.15723E-04-1.10982E-14
 -1      3661 8.57053E-03-1.94643E-04-3.13419E-14
 -1      3662 8.36600E-03-3.44232E-04-3.01609E-14
 -1      3663 1.71784E-03 2.24946E-04-2.02669E-15
 -1      3664 1.65996E-03 2.53436E-04-1.84435E-15
 -1      3665 4.33578E-03 3.23876E-04-1.10392E-14
 -1      3666 8.45947E-03-2.58641E-04-2.94879E-14
 -1      3667 2.08742E-03 2.66306E-04-2.82649E-15
 -1      3668 2.00077E-03 2.32286E-04-2.68676E-15
 -1      3669 2.22995E-03 2.67966E-04-3.20006E-15
 -1      3670 3.60789E-03-7.95833E-05-1.04727E-14
 -1      3671 3.60571E-03-6.74773E-05-1.03481E-14
 -1      3672 3.57256E-03-8.59462E-05-1.01841E-14
 -1      3673 2.46358E-03 3.04119E-04-3.75321E-15
 -1      3674 3.75712E-03-3.37693E-05-1.08506E-14
 -1      3675 3.78474E-03-7.13818E-06-1.06725E-14
 -1      3676 3.67438E-03-4.05517E-05-1.04619E-14
 -1      3677 2.84856E-03 2.33400E-04-5.21196E-15
 -1      3678 2.80140E-03 2.69497E-04-4.91978E-15
 -1      3679 2.65808E-03 2.69272E-04-4.45636E-15
 -1      3680 3.23613E-03 2.74457E-04-6.44325E-15
 -1      3681 3.13357E-03 2.33995E-04-6.23099E-15
 -1      3682 3.38382E-03 2.79077E-04-6.99454E-15
 -1      3683 1.37767E-02-1.00676E-03-8.84319E-14
 -1      3684 1.39023E-02-1.02243E-03-8.98727E-14
 -1      3685 1.39120E-02-1.00012E-03-9.00315E-14
 -1      3686 1.36930E-02-9.62615E-04-8.75401E-14
 -1      3687 4.82180E-03 4.91384E-04-1.27754E-14
 -1      3688 3.72299E-03 2.53476E-04-8.52720E-15
 -1      3689 3.68626E-03 2.95841E-04-8.16149E-15
 -1      3690 3.53367E-03 2.85847E-04-7.56688E-15
 -1      3691 4.33760E-03 2.26973E-04-1.16180E-14
 -1      3692 4.34378E-03 2.85033E-04-1.12949E-14
 -1      3693 4.21266E-03 2.68734E-04-1.07249E-14
 -1      3694 4.21161E-03 1.87515E-04-1.12252E-14
 -1      3695 5.01058E-03 5.57810E-04-1.35416E-14
 -1      3696 1.44765E-03-1.87258E-04-1.61282E-15
 -1      3697 7.66905E-03 1.95838E-04-2.74532E-14
 -1      3698 3.62962E-03-1.38133E-04-9.99493E-15
 -1      3699 3.64140E-03-1.21357E-04-1.03374E-14
 -1      3700 3.57137E-03-1.09563E-04-9.96687E-15
 -1      3701 3.86676E-03-2.09539E-04-1.06306E-14
 -1      3702 3.74511E-03-1.90693E-04-1.00934E-14
 -1      3703 1.38276E-02-3.82030E-04-8.98967E-14
 -1      3704 1.34526E-03 2.54710E-04-1.22131E-15
 -1      3705 1.29988E-03 2.28328E-04-1.18204E-15
 -1      3706 1.41642E-03 2.21273E-04-1.40794E-15
 -1      3707 1.46932E-03 2.61249E-04-1.44193E-15
 -1      3708 1.38275E-02-6.89382E-04-8.95670E-14
 -1      3709 1.38139E-02-6.47634E-04-8.94642E-14
 -1      3710 1.37107E-02-6.98242E-04-8.82084E-14
 -1      3711 8.71395E-03-2.37190E-04-3.25864E-14
 -1      3712 8.67064E-03-2.47330E-04-3.19481E-14
 -1      3713 8.69906E-03-2.66724E-04-3.23892E-14
 -1      3714 1.38002E-02-6.05878E-04-8.93594E-14
 -1      3715 1.37867E-02-5.64113E-04-8.92527E-14
 -1      3716 1.36834E-02-6.14843E-04-8.80075E-14
 -1      3717 8.24772E-03-1.11076E-04-2.92736E-14
 -1      3718 8.38518E-03-1.35968E-04-3.03379E-14
 -1      3719 1.13771E-03-1.85924E-04-1.03562E-15
 -1      3720 1.39218E-02-9.77819E-04-9.01892E-14
 -1      3721 1.13100E-03 1.25623E-04-1.02411E-15
 -1      3722 1.36646E-02-5.38493E-04-8.78842E-14
 -1      3723 1.37815E-02-5.29432E-04-8.92320E-14
 -1      3724 1.37763E-02-4.94736E-04-8.92093E-14
 -1      3725 1.23219E-03 3.83598E-05-1.26860E-15
 -1      3726 1.23036E-03 1.26164E-05-1.27604E-15
 -1      3727 1.53625E-03 2.50309E-04-1.59325E-15
 -1      3728 7.78065E-03 1.29866E-04-2.78913E-14
 -1      3729 1.11350E-03-2.39552E-05-1.07753E-15
 -1      3730 8.45574E-03-3.82903E-04-3.14970E-14
 -1      3731 1.37911E-02-9.44452E-04-8.87254E-14
 -1      3732 7.97924E-03 8.80128E-05-2.93193E-14
 -1      3733 7.86930E-03 6.84753E-05-2.80831E-14
 -1      3734 7.99507E-03 5.07638E-06-2.85296E-14
 -1      3735 8.13627E-03 5.83143E-05-3.05102E-14
 -1      3736 1.37680E-02-4.12236E-04-8.91937E-14
 -1      3737 8.12908E-03-6.60453E-05-2.88272E-14
 -1      3738 1.23557E-03 6.44193E-05-1.25847E-15
 -1      3739 1.35158E-03 5.36271E-05-1.48427E-15
 -1      3740 1.24042E-03 9.11475E-05-1.24582E-15
 -1      3741 1.23432E-03-6.42386E-05-1.28513E-15
 -1      3742 1.23878E-03-9.05844E-05-1.28349E-15
 -1      3743 8.51251E-03-2.70794E-04-3.03138E-14
 -1      3744 8.48363E-03-2.76633E-04-3.01289E-14
 -1      3745 8.59001E-03-2.82775E-04-3.13536E-14
 -1      3746 8.48731E-03-2.99297E-04-3.05841E-14
 -1      3747 1.36491E-02-8.74238E-04-8.72029E-14
 -1      3748 1.36353E-02-8.32370E-04-8.71182E-14
 -1      3749 1.67882E-03-1.67125E-04-2.14423E-15
 -1      3750 1.81718E-03-1.70893E-04-2.47567E-15
 -1      3751 8.49662E-03-3.23361E-04-3.10662E-14
 -1      3752 8.44275E-03-3.54636E-04-3.10179E-14
 -1      3753 8.58702E-03-3.61794E-04-3.24194E-14
 -1      3754 8.55527E-03-3.11741E-04-3.14458E-14
 -1      3755 5.59054E-03 8.01279E-04-1.59850E-14
 -1      3756 1.23139E-03-3.84063E-05-1.28444E-15
 -1      3757 1.35029E-03-5.40482E-05-1.50868E-15
 -1      3758 1.23008E-03-1.28717E-05-1.28135E-15
 -1      3759 2.22851E-03-1.76399E-04-3.60965E-15
 -1      3760 2.36389E-03-1.76842E-04-4.03390E-15
 -1      3761 2.49809E-03-1.77001E-04-4.48095E-15
 -1      3762 2.63112E-03-1.76894E-04-4.95007E-15
 -1      3763 2.41528E-03-1.48456E-04-4.26348E-15
 -1      3764 2.76270E-03-1.76874E-04-5.44187E-15
 -1      3765 2.89295E-03-1.76917E-04-5.95650E-15
 -1      3766 2.67763E-03-1.48764E-04-5.20168E-15
 -1      3767 3.02155E-03-1.77384E-04-6.49246E-15
 -1      3768 3.14879E-03-1.78201E-04-7.05065E-15
 -1      3769 2.93299E-03-1.49256E-04-6.22905E-15
 -1      3770 3.27424E-03-1.79728E-04-7.62998E-15
 -1      3771 3.39862E-03-1.81951E-04-8.22996E-15
 -1      3772 3.17996E-03-1.50768E-04-7.34334E-15
 -1      3773 8.43779E-03-1.20552E-04-3.12572E-14
 -1      3774 8.51301E-03-1.54600E-04-3.14737E-14
 -1      3775 8.62493E-03-1.83345E-04-3.22764E-14
 -1      3776 1.34514E-03-1.55924E-04-1.43989E-15
 -1      3777 1.51659E-03-1.62268E-04-1.78473E-15
 -1      3778 9.20184E-03-4.10285E-04-3.86222E-14
 -1      3779 9.32946E-03-4.24849E-04-3.99468E-14
 -1      3780 9.45836E-03-4.39926E-04-4.12871E-14
 -1      3781 9.58870E-03-4.55616E-04-4.26434E-14
 -1      3782 9.39971E-03-4.04846E-04-4.05709E-14
 -1      3783 9.72022E-03-4.71669E-04-4.40190E-14
 -1      3784 9.85299E-03-4.88131E-04-4.54104E-14
 -1      3785 9.65591E-03-4.35302E-04-4.32829E-14
 -1      3786 9.98680E-03-5.04791E-04-4.68181E-14
 -1      3787 1.01217E-02-5.21682E-04-4.82393E-14
 -1      3788 9.91807E-03-4.67104E-04-4.60627E-14
 -1      3789 1.02574E-02-5.38635E-04-4.96758E-14
 -1      3790 1.03941E-02-5.55674E-04-5.11265E-14
 -1      3791 1.01852E-02-4.99715E-04-4.89051E-14
 -1      3792 1.05315E-02-5.72670E-04-5.25884E-14
 -1      3793 1.06695E-02-5.89644E-04-5.40640E-14
 -1      3794 1.04565E-02-5.32662E-04-5.18030E-14
 -1      3795 1.08082E-02-6.06504E-04-5.55489E-14
 -1      3796 1.09475E-02-6.23269E-04-5.70443E-14
 -1      3797 1.07311E-02-5.65576E-04-5.47506E-14
 -1      3798 1.10872E-02-6.39877E-04-5.85529E-14
 -1      3799 1.12274E-02-6.56348E-04-6.00718E-14
 -1      3800 1.10083E-02-5.98194E-04-5.77439E-14
 -1      3801 1.13680E-02-6.72643E-04-6.16001E-14
 -1      3802 1.15089E-02-6.88781E-04-6.31385E-14
 -1      3803 1.12878E-02-6.30353E-04-6.07778E-14
 -1      3804 1.16501E-02-7.04740E-04-6.46862E-14
 -1      3805 1.17915E-02-7.20539E-04-6.62431E-14
 -1      3806 1.15689E-02-6.61974E-04-6.38541E-14
 -1      3807 1.19332E-02-7.36169E-04-6.78066E-14
 -1      3808 1.20751E-02-7.51648E-04-6.93774E-14
 -1      3809 1.18512E-02-6.93035E-04-6.69648E-14
 -1      3810 1.22171E-02-7.66974E-04-7.09569E-14
 -1      3811 1.23593E-02-7.82162E-04-7.25431E-14
 -1      3812 1.21346E-02-7.23559E-04-7.01072E-14
 -1      3813 1.25016E-02-7.97217E-04-7.41325E-14
 -1      3814 1.26440E-02-8.12153E-04-7.57289E-14
 -1      3815 1.24187E-02-7.53592E-04-7.32766E-14
 -1      3816 1.27865E-02-8.26976E-04-7.73322E-14
 -1      3817 1.29291E-02-8.41699E-04-7.89381E-14
 -1      3818 1.27033E-02-7.83196E-04-7.64675E-14
 -1      3819 1.30718E-02-8.56329E-04-8.05515E-14
 -1      3820 1.32144E-02-8.70876E-04-8.21693E-14
 -1      3821 1.29884E-02-8.12436E-04-7.96818E-14
 -1      3822 1.36816E-02-9.25723E-04-8.74815E-14
 -1      3823 6.33431E-03 8.23044E-04-2.00408E-14
 -1      3824 8.78062E-03-2.82504E-05-3.59667E-14
 -1      3825 8.63946E-03-1.32847E-05-3.46959E-14
 -1      3826 9.61033E-03-9.75708E-05-4.39434E-14
 -1      3827 9.47251E-03-8.72777E-05-4.25718E-14
 -1      3828 9.88653E-03-1.17683E-04-4.67345E-14
 -1      3829 9.74828E-03-1.07682E-04-4.53305E-14
 -1      3830 9.70375E-03-1.34961E-04-4.47206E-14
 -1      3831 1.01639E-02-1.37690E-04-4.95907E-14
 -1      3832 1.00251E-02-1.27676E-04-4.81562E-14
 -1      3833 9.97719E-03-1.55136E-04-4.75298E-14
 -1      3834 1.04427E-02-1.58041E-04-5.24977E-14
 -1      3835 1.03032E-02-1.47810E-04-5.10378E-14
 -1      3836 1.02526E-02-1.75605E-04-5.04005E-14
 -1      3837 1.07229E-02-1.79019E-04-5.54527E-14
 -1      3838 1.05826E-02-1.68447E-04-5.39692E-14
 -1      3839 1.05299E-02-1.96631E-04-5.33229E-14
 -1      3840 1.10042E-02-2.00779E-04-5.84522E-14
 -1      3841 1.08634E-02-1.89801E-04-5.69473E-14
 -1      3842 1.08089E-02-2.18370E-04-5.62916E-14
 -1      3843 1.12866E-02-2.23381E-04-6.14935E-14
 -1      3844 1.11453E-02-2.11978E-04-5.99676E-14
 -1      3845 1.10894E-02-2.40895E-04-5.93035E-14
 -1      3846 1.15699E-02-2.46820E-04-6.45707E-14
 -1      3847 1.14282E-02-2.35001E-04-6.30278E-14
 -1      3848 1.13713E-02-2.64216E-04-6.23521E-14
 -1      3849 1.18538E-02-2.71044E-04-6.76867E-14
 -1      3850 1.17118E-02-2.58841E-04-6.61250E-14
 -1      3851 1.16541E-02-2.88299E-04-6.54423E-14
 -1      3852 1.21383E-02-2.95977E-04-7.08343E-14
 -1      3853 1.19960E-02-2.83429E-04-6.92553E-14
 -1      3854 1.19378E-02-3.13080E-04-6.85668E-14
 -1      3855 1.24232E-02-3.21526E-04-7.40077E-14
 -1      3856 1.22807E-02-3.08681E-04-7.24193E-14
 -1      3857 1.22220E-02-3.38481E-04-7.17215E-14
 -1      3858 1.27084E-02-3.47597E-04-7.72042E-14
 -1      3859 1.25658E-02-3.34502E-04-7.56044E-14
 -1      3860 1.25068E-02-3.64414E-04-7.49036E-14
 -1      3861 1.29938E-02-3.74099E-04-8.04168E-14
 -1      3862 1.28510E-02-3.60800E-04-7.88073E-14
 -1      3863 1.27918E-02-3.90793E-04-7.81025E-14
 -1      3864 1.32793E-02-4.00947E-04-8.36364E-14
 -1      3865 1.31365E-02-3.87485E-04-8.20254E-14
 -1      3866 1.30772E-02-4.17538E-04-8.13179E-14
 -1      3867 1.38416E-03-1.06519E-04-1.55489E-15
 -1      3868 1.26872E-03-1.15268E-04-1.32536E-15
 -1      3869 8.18009E-03-3.61231E-05-2.98219E-14
 -1      3870 1.37588E-02-4.41725E-04-8.90622E-14
 -1      3871 5.49926E-03 7.82823E-04-1.55031E-14
 -1      3872 1.36215E-02-7.90523E-04-8.70313E-14
 -1      3873 1.36077E-02-7.48692E-04-8.69415E-14
 -1      3874 1.35048E-02-7.99157E-04-8.56651E-14
 -1      3875 1.20567E-03-1.64713E-04-1.17265E-15
 -1      3876 1.25458E-03 1.47642E-04-1.21240E-15
 -1      3877 1.24679E-03 1.18829E-04-1.23043E-15
 -1      3878 1.36255E-03 1.09872E-04-1.45600E-15
 -1      3879 1.37990E-03 1.70122E-04-1.41499E-15
 -1      3880 9.33482E-03-7.66888E-05-4.12162E-14
 -1      3881 9.19698E-03-6.56526E-05-3.98774E-14
 -1      3882 9.43204E-03-1.14680E-04-4.19767E-14
 -1      3883 3.64440E-03-1.95121E-04-9.44665E-15
 -1      3884 3.62799E-03-1.59788E-04-9.71381E-15
 -1      3885 3.54063E-03-1.43596E-04-9.35593E-15
 -1      3886 3.52067E-03-1.90275E-04-8.80540E-15
 -1      3887 9.05892E-03-5.40706E-05-3.85571E-14
 -1      3888 8.92018E-03-4.16148E-05-3.72541E-14
 -1      3889 8.89036E-03-7.11368E-05-3.66903E-14
 -1      3890 4.04753E-03 2.46493E-04-1.00480E-14
 -1      3891 3.88879E-03 2.30342E-04-9.39248E-15
 -1      3892 4.05263E-03 2.08042E-04-1.02919E-14
 -1      3893 8.49645E-03 3.29095E-06-3.34432E-14
 -1      3894 8.35053E-03 2.25145E-05-3.22076E-14
 -1      3895 8.61632E-03-4.54191E-05-3.41490E-14
 -1      3896 1.34741E-03-3.55973E-07-1.50163E-15
 -1      3897 1.57692E-03-1.37636E-04-1.94137E-15
 -1      3898 1.35510E-02-8.92365E-04-8.60247E-14
 -1      3899 1.27625E-03-1.43486E-04-1.31928E-15
 -1      3900 1.51439E-03-8.47434E-05-1.83996E-15
 -1      3901 1.54479E-03-1.10794E-04-1.89155E-15
 -1      3902 1.70519E-03-1.13700E-04-2.26049E-15
 -1      3903 1.95501E-03-1.73601E-04-2.83035E-15
 -1      3904 2.09220E-03-1.75338E-04-3.20856E-15
 -1      3905 1.87517E-03-1.43894E-04-2.65849E-15
 -1      3906 5.19201E-03 6.55988E-04-1.41680E-14
 -1      3907 2.51518E-03 2.69155E-04-4.01510E-15
 -1      3908 2.37249E-03 2.68836E-04-3.59595E-15
 -1      3909 2.56569E-03 2.34468E-04-4.28067E-15
 -1      3910 8.71061E-03-3.71227E-04-3.36623E-14
 -1      3911 8.83509E-03-3.82081E-04-3.49210E-14
 -1      3912 8.68762E-03-3.46026E-04-3.31692E-14
 -1      3913 8.95105E-03-3.83387E-04-3.60293E-14
 -1      3914 9.07584E-03-3.96491E-04-3.73172E-14
 -1      3915 9.15063E-03-3.76185E-04-3.79286E-14
 -1      3916 1.77586E-03 1.96381E-04-2.21382E-15
 -1      3917 1.63537E-03 1.91897E-04-1.90431E-15
 -1      3918 1.36419E-02-4.50888E-04-8.77188E-14
 -1      3919 5.32093E-03 7.21414E-04-1.46738E-14
 -1      3920 4.09644E-03 1.56856E-04-1.08534E-14
 -1      3921 2.14731E-03-1.47242E-04-3.41521E-15
 -1      3922 8.37838E-03-6.29361E-05-3.15048E-14
 -1      3923 8.52220E-03-8.87487E-05-3.26582E-14
 -1      3924 2.28335E-03 2.34799E-04-3.43822E-15
 -1      3925 8.69430E-03-1.72476E-04-3.33246E-14
 -1      3926 8.73229E-03-2.09624E-04-3.31893E-14
 -1      3927 3.53852E-03-9.59860E-05-9.85094E-15
 -1      3928 3.51519E-03-8.37674E-05-9.73371E-15
 -1      3929 3.50996E-03-1.08645E-04-9.51931E-15
 -1      3930 3.60708E-03-5.10814E-05-1.01780E-14
 -1      3931 3.61530E-03-3.15681E-05-1.00080E-14
 -1      3932 3.55048E-03-5.91023E-05-9.89656E-15
 -1      3933 2.05649E-03 2.01257E-04-2.90160E-15
 -1      3934 1.91623E-03 1.99452E-04-2.54603E-15
 -1      3935 1.83396E-03 1.67737E-04-2.40540E-15
 -1      3936 2.89413E-03 1.97629E-04-5.50702E-15
 -1      3937 2.75461E-03 1.98883E-04-5.01724E-15
 -1      3938 3.42356E-03 2.39282E-04-7.33606E-15
 -1      3939 1.34083E-02-8.77999E-04-8.43985E-14
 -1      3940 3.73549E-03 2.19794E-04-8.75751E-15
 -1      3941 3.58612E-03 2.12666E-04-8.14413E-15
 -1      3942 3.74492E-03 1.85282E-04-8.98865E-15
 -1      3943 1.35940E-02-7.07049E-04-8.68489E-14
 -1      3944 1.35803E-02-6.65409E-04-8.67536E-14
 -1      3945 1.34773E-02-7.15793E-04-8.54893E-14
 -1      3946 3.17451E-03 1.96344E-04-6.55084E-15
 -1      3947 3.03393E-03 1.96649E-04-6.01824E-15
 -1      3948 2.93809E-03 1.62195E-04-5.80471E-15
 -1      3949 1.50980E-03-5.60856E-05-1.84001E-15
 -1      3950 3.82227E-03 2.69586E-05-1.05094E-14
 -1      3951 3.85852E-03 6.60027E-05-1.03447E-14
 -1      3952 3.72033E-03 1.20027E-05-1.01285E-14
 -1      3953 9.16138E-03-9.37040E-05-3.93003E-14
 -1      3954 1.35649E-02-4.28061E-04-8.68650E-14
 -1      3955 1.34221E-02-4.14475E-04-8.52516E-14
 -1      3956 8.27306E-03-2.82307E-06-3.11908E-14
 -1      3957 8.79003E-03-2.31498E-04-3.36449E-14
 -1      3958 8.83837E-03-2.52243E-04-3.40979E-14
 -1      3959 8.86812E-03-2.24472E-04-3.47112E-14
 -1      3960 1.35667E-02-6.23766E-04-8.66558E-14
 -1      3961 1.35530E-02-5.82113E-04-8.65543E-14
 -1      3962 1.34499E-02-6.32638E-04-8.53037E-14
 -1      3963 1.35478E-02-5.47528E-04-8.65378E-14
 -1      3964 1.35425E-02-5.12923E-04-8.65194E-14
 -1      3965 1.34310E-02-5.56525E-04-8.51914E-14
 -1      3966 1.33627E-02-4.44572E-04-8.45423E-14
 -1      3967 3.41571E-03-1.58393E-04-8.49725E-15
 -1      3968 8.79483E-03-2.81170E-04-3.36002E-14
 -1      3969 8.72837E-03-2.92277E-04-3.29501E-14
 -1      3970 1.33247E-02-8.34031E-04-8.35196E-14
 -1      3971 8.62676E-03-3.01889E-04-3.20130E-14
 -1      3972 8.64574E-03-3.24338E-04-3.25048E-14
 -1      3973 8.76009E-03-3.36006E-04-3.37476E-14
 -1      3974 8.67388E-03-2.95650E-04-3.24109E-14
 -1      3975 1.46543E-03 1.32632E-05-1.73814E-15
 -1      3976 1.46501E-03-1.46239E-05-1.74493E-15
 -1      3977 1.47206E-03 6.97621E-05-1.71589E-15
 -1      3978 1.46781E-03 4.12624E-05-1.72852E-15
 -1      3979 1.58415E-03 2.76629E-05-1.99087E-15
 -1      3980 8.91879E-03-3.59494E-04-3.55213E-14
 -1      3981 3.94316E-03 1.43539E-04-1.01755E-14
 -1      3982 9.09877E-03-3.44216E-04-3.72362E-14
 -1      3983 9.21851E-03-3.57721E-04-3.85385E-14
 -1      3984 1.53213E-03 1.52669E-04-1.74516E-15
 -1      3985 1.47171E-03 1.77902E-04-1.58364E-15
 -1      3986 8.63611E-03-8.79439E-05-3.38684E-14
 -1      3987 8.67424E-03-1.38537E-04-3.36149E-14
 -1      3988 8.79669E-03-1.70687E-04-3.45456E-14
 -1      3989 8.76802E-03-9.91790E-05-3.51269E-14
 -1      3990 2.59738E-03-1.21564E-04-4.96372E-15
 -1      3991 2.72524E-03-1.21971E-04-5.45468E-15
 -1      3992 2.85085E-03-1.22645E-04-5.96771E-15
 -1      3993 2.97414E-03-1.23331E-04-6.50261E-15
 -1      3994 2.77446E-03-9.65602E-05-5.70864E-15
 -1      3995 3.09457E-03-1.24493E-04-7.05840E-15
 -1      3996 3.21215E-03-1.25652E-04-7.63617E-15
 -1      3997 3.01712E-03-9.92112E-05-6.77651E-15
 -1      3998 2.33630E-03 2.01984E-04-3.68073E-15
 -1      3999 2.19649E-03 2.02055E-04-3.27977E-15
 -1      4000 2.11210E-03 1.70446E-04-3.12067E-15
 -1      4001 9.03036E-03-1.20043E-04-3.76950E-14
 -1      4002 8.89905E-03-1.09725E-04-3.64017E-14
 -1      4003 8.90819E-03-1.45985E-04-3.61103E-14
 -1      4004 1.62581E-03-4.35232E-05-2.10400E-15
 -1      4005 3.44979E-03 2.03757E-04-7.61629E-15
 -1      4006 3.30615E-03 2.01531E-04-7.04379E-15
 -1      4007 3.20304E-03 1.63217E-04-6.81329E-15
 -1      4008 3.46390E-03 1.72646E-04-7.83291E-15
 -1      4009 9.59127E-03-4.00436E-04-4.25499E-14
 -1      4010 9.71944E-03-4.15487E-04-4.39221E-14
 -1      4011 9.84918E-03-4.30733E-04-4.53107E-14
 -1      4012 9.98042E-03-4.46284E-04-4.67147E-14
 -1      4013 9.77974E-03-3.95654E-04-4.45604E-14
 -1      4014 1.01130E-02-4.61943E-04-4.81341E-14
 -1      4015 1.02467E-02-4.77780E-04-4.95687E-14
 -1      4016 1.00404E-02-4.25305E-04-4.73659E-14
 -1      4017 1.03815E-02-4.93646E-04-5.10193E-14
 -1      4018 1.05173E-02-5.09586E-04-5.24802E-14
 -1      4019 1.03064E-02-4.55615E-04-5.02344E-14
 -1      4020 1.06540E-02-5.25490E-04-5.39518E-14
 -1      4021 1.07915E-02-5.41393E-04-5.54369E-14
 -1      4022 1.05769E-02-4.86249E-04-5.31558E-14
 -1      4023 1.09296E-02-5.57213E-04-5.69331E-14
 -1      4024 1.10684E-02-5.72981E-04-5.84410E-14
 -1      4025 1.08509E-02-5.16946E-04-5.61235E-14
 -1      4026 1.12077E-02-5.88640E-04-5.99584E-14
 -1      4027 1.13476E-02-6.04216E-04-6.14840E-14
 -1      4028 1.11278E-02-5.47519E-04-5.91369E-14
 -1      4029 1.14878E-02-6.19672E-04-6.30205E-14
 -1      4030 1.16285E-02-6.35030E-04-6.45667E-14
 -1      4031 1.14069E-02-5.77854E-04-6.21883E-14
 -1      4032 1.17694E-02-6.50269E-04-6.61236E-14
 -1      4033 1.19107E-02-6.65406E-04-6.76856E-14
 -1      4034 1.16877E-02-6.07890E-04-6.52785E-14
 -1      4035 1.20522E-02-6.80431E-04-6.92557E-14
 -1      4036 1.21940E-02-6.95360E-04-7.08351E-14
 -1      4037 1.19699E-02-6.37610E-04-6.84043E-14
 -1      4038 1.23359E-02-7.10188E-04-7.24201E-14
 -1      4039 1.24780E-02-7.24929E-04-7.40100E-14
 -1      4040 1.22532E-02-6.67021E-04-7.15606E-14
 -1      4041 1.26202E-02-7.39583E-04-7.56053E-14
 -1      4042 1.27626E-02-7.54161E-04-7.72065E-14
 -1      4043 1.25372E-02-6.96151E-04-7.47414E-14
 -1      4044 1.29051E-02-7.68667E-04-7.88117E-14
 -1      4045 1.30476E-02-7.83109E-04-8.04218E-14
 -1      4046 1.28218E-02-7.25034E-04-7.79408E-14
 -1      4047 1.03397E-02-2.13205E-04-5.12130E-14
 -1      4048 1.02025E-02-2.02543E-04-4.97629E-14
 -1      4049 1.00659E-02-1.92016E-04-4.83271E-14
 -1      4050 9.92996E-03-1.81655E-04-4.69053E-14
 -1      4051 1.01528E-02-2.28596E-04-4.91246E-14
 -1      4052 2.06916E-03-1.18734E-04-3.22244E-15
 -1      4053 2.20333E-03-1.19793E-04-3.62380E-15
 -1      4054 1.35824E-02-4.80995E-04-8.70094E-14
 -1      4055 1.50958E-03 2.30310E-04-1.57488E-15
 -1      4056 1.48348E-03 2.10839E-04-1.55541E-15
 -1      4057 3.43246E-03-1.37090E-04-8.76466E-15
 -1      4058 3.44956E-03-1.17778E-04-9.03210E-15
 -1      4059 3.32283E-03-1.31339E-04-8.19206E-15
 -1      4060 9.79471E-03-1.71390E-04-4.55001E-14
 -1      4061 9.66007E-03-1.61243E-04-4.41118E-14
 -1      4062 9.88322E-03-2.07206E-04-4.62829E-14
 -1      4063 1.06159E-02-2.35072E-04-5.41469E-14
 -1      4064 1.04775E-02-2.24059E-04-5.26735E-14
 -1      4065 1.04255E-02-2.50701E-04-5.20236E-14
 -1      4066 1.08941E-02-2.57676E-04-5.71299E-14
 -1      4067 1.07547E-02-2.46289E-04-5.56345E-14
 -1      4068 1.07008E-02-2.73527E-04-5.49754E-14
 -1      4069 1.11741E-02-2.81029E-04-6.01512E-14
 -1      4070 1.10339E-02-2.69266E-04-5.86353E-14
 -1      4071 1.09785E-02-2.97063E-04-5.79679E-14
 -1      4072 1.14555E-02-3.05102E-04-6.32127E-14
 -1      4073 1.13146E-02-2.92983E-04-6.16769E-14
 -1      4074 1.12581E-02-3.21274E-04-6.10009E-14
 -1      4075 1.17380E-02-3.29845E-04-6.63141E-14
 -1      4076 1.15966E-02-3.17397E-04-6.47591E-14
 -1      4077 1.15393E-02-3.46110E-04-6.40739E-14
 -1      4078 1.20215E-02-3.55187E-04-6.94459E-14
 -1      4079 1.18797E-02-3.42448E-04-6.78754E-14
 -1      4080 1.18217E-02-3.71509E-04-6.71838E-14
 -1      4081 1.23056E-02-3.81053E-04-7.26093E-14
 -1      4082 1.21635E-02-3.68061E-04-7.10251E-14
 -1      4083 1.21050E-02-3.97401E-04-7.03267E-14
 -1      4084 1.25903E-02-4.07363E-04-7.57970E-14
 -1      4085 1.24479E-02-3.94158E-04-7.41995E-14
 -1      4086 1.23891E-02-4.23719E-04-7.34964E-14
 -1      4087 1.28753E-02-4.34043E-04-7.90005E-14
 -1      4088 1.27327E-02-4.20662E-04-7.73962E-14
 -1      4089 1.26737E-02-4.50392E-04-7.66866E-14
 -1      4090 1.31606E-02-4.61022E-04-8.22161E-14
 -1      4091 1.30179E-02-4.47499E-04-8.06067E-14
 -1      4092 1.29587E-02-4.77358E-04-7.98947E-14
 -1      4093 1.81980E-03-1.15700E-04-2.54446E-15
 -1      4094 1.95573E-03-1.17722E-04-2.90347E-15
 -1      4095 2.01537E-03-9.11918E-05-3.09362E-15
 -1      4096 1.78845E-03-8.88160E-05-2.48457E-15
 -1      4097 9.52615E-03-1.51129E-04-4.27379E-14
 -1      4098 9.39276E-03-1.41064E-04-4.13822E-14
 -1      4099 9.61705E-03-1.86499E-04-4.35023E-14
 -1      4100 9.27682E-03-1.35594E-04-4.01863E-14
 -1      4101 9.14467E-03-1.25507E-04-3.88634E-14
 -1      4102 9.14520E-03-1.60232E-04-3.85636E-14
 -1      4103 9.37071E-03-1.70839E-04-4.09329E-14
 -1      4104 8.88794E-03-2.76975E-04-3.46740E-14
 -1      4105 9.34058E-03-3.71487E-04-3.98591E-14
 -1      4106 9.46496E-03-3.85825E-04-4.11950E-14
 -1      4107 9.52581E-03-3.67038E-04-4.18202E-14
 -1      4108 9.28031E-03-3.39878E-04-3.91488E-14
 -1      4109 1.31793E-02-7.87758E-04-8.19301E-14
 -1      4110 1.33730E-02-7.94688E-04-8.41521E-14
 -1      4111 1.33592E-02-7.52979E-04-8.40678E-14
 -1      4112 1.30959E-02-7.43997E-04-8.10516E-14
 -1      4113 2.61528E-03 2.00189E-04-4.54999E-15
 -1      4114 2.47584E-03 2.01305E-04-4.10417E-15
 -1      4115 2.38880E-03 1.69563E-04-3.92705E-15
 -1      4116 2.66394E-03 1.66357E-04-4.82214E-15
 -1      4117 8.77337E-03-3.11236E-04-3.36214E-14
 -1      4118 1.69651E-03-1.30464E-06-2.26684E-15
 -1      4119 1.73972E-03-4.46394E-05-2.37761E-15
 -1      4120 1.85323E-03-4.55492E-05-2.66807E-15
 -1      4121 1.50440E-03 1.25344E-04-1.72380E-15
 -1      4122 1.49665E-03 9.51734E-05-1.74284E-15
 -1      4123 1.61211E-03 8.24753E-05-2.00855E-15
 -1      4124 1.66548E-03 1.36333E-04-2.06065E-15
 -1      4125 2.33621E-03-1.20570E-04-4.04791E-15
 -1      4126 2.46766E-03-1.21059E-04-4.49451E-15
 -1      4127 2.26056E-03-9.29893E-05-3.83493E-15
 -1      4128 8.82030E-03-3.31514E-04-3.42952E-14
 -1      4129 3.83156E-03 1.01482E-04-9.92887E-15
 -1      4130 3.78896E-03 1.51393E-04-9.39376E-15
 -1      4131 3.64472E-03 1.47339E-04-8.76014E-15
 -1      4132 3.72145E-03 7.98588E-05-9.56016E-15
 -1      4133 8.92638E-03-3.34410E-04-3.53938E-14
 -1      4134 1.34656E-02-4.90104E-04-8.56666E-14
 -1      4135 8.99315E-03-3.17101E-04-3.59860E-14
 -1      4136 8.91568E-03-1.78963E-04-3.58136E-14
 -1      4137 8.91973E-03-2.08613E-04-3.55135E-14
 -1      4138 9.03687E-03-1.87434E-04-3.70989E-14
 -1      4139 2.52146E-03-9.46652E-05-4.72741E-15
 -1      4140 3.49426E-03-6.92023E-05-9.57309E-15
 -1      4141 3.48183E-03-5.37817E-05-9.41159E-15
 -1      4142 3.44729E-03-7.97302E-05-9.25142E-15
 -1      4143 1.33455E-02-7.11467E-04-8.39821E-14
 -1      4144 1.33319E-02-6.69966E-04-8.38930E-14
 -1      4145 1.32138E-02-7.07093E-04-8.24748E-14
 -1      4146 3.63491E-03-6.07173E-06-9.85296E-15
 -1      4147 3.65798E-03 2.39170E-05-9.69598E-15
 -1      4148 3.55910E-03-1.97282E-05-9.57910E-15
 -1      4149 9.04508E-03-2.85638E-04-3.65000E-14
 -1      4150 3.41392E-03-1.02753E-04-8.92426E-15
 -1      4151 1.33228E-02-4.76465E-04-8.40515E-14
 -1      4152 1.32635E-02-5.06426E-04-8.33391E-14
 -1      4153 8.97951E-03-2.32794E-04-3.59812E-14
 -1      4154 1.33182E-02-6.28469E-04-8.37978E-14
 -1      4155 1.33045E-02-5.86963E-04-8.37025E-14
 -1      4156 1.31865E-02-6.24270E-04-8.22951E-14
 -1      4157 2.71199E-03 1.33188E-04-5.09782E-15
 -1      4158 2.57684E-03 1.35677E-04-4.62637E-15
 -1      4159 1.32688E-02-5.40904E-04-8.33557E-14
 -1      4160 3.24156E-03-1.06510E-04-7.88737E-15
 -1      4161 1.94220E-03 1.40474E-04-2.72726E-15
 -1      4162 1.80395E-03 1.38954E-04-2.38225E-15
 -1      4163 1.77562E-03 1.11047E-04-2.35620E-15
 -1      4164 1.69833E-03 2.81072E-05-2.25689E-15
 -1      4165 2.98067E-03 1.27483E-04-6.10555E-15
 -1      4166 2.84649E-03 1.30434E-04-5.59093E-15
 -1      4167 2.75952E-03 1.00765E-04-5.37655E-15
 -1      4168 1.31371E-02-5.36893E-04-8.18520E-14
 -1      4169 2.70327E-03-7.07102E-05-5.45187E-15
 -1      4170 2.82652E-03-7.23384E-05-5.96346E-15
 -1      4171 2.21741E-03 1.40703E-04-3.48585E-15
 -1      4172 2.08002E-03 1.41022E-04-3.09513E-15
 -1      4173 2.04983E-03 1.12465E-04-3.06633E-15
 -1      4174 2.94686E-03-7.44461E-05-6.49630E-15
 -1      4175 3.06387E-03-7.66903E-05-7.05016E-15
 -1      4176 2.88227E-03-4.91595E-05-6.21799E-15
 -1      4177 1.02379E-02-2.65020E-04-4.99246E-14
 -1      4178 1.01032E-02-2.53725E-04-4.84873E-14
 -1      4179 2.44958E-03-6.79348E-05-4.49345E-15
 -1      4180 2.57754E-03-6.91570E-05-4.96191E-15
 -1      4181 2.63633E-03-4.45152E-05-5.19697E-15
 -1      4182 9.70904E-03-3.61715E-04-4.38129E-14
 -1      4183 9.83717E-03-3.75626E-04-4.51981E-14
 -1      4184 9.96693E-03-3.89691E-04-4.66012E-14
 -1      4185 1.00982E-02-4.04044E-04-4.80177E-14
 -1      4186 9.89229E-03-3.55049E-04-4.58371E-14
 -1      4187 1.02308E-02-4.18497E-04-4.94519E-14
 -1      4188 1.03646E-02-4.33132E-04-5.09002E-14
 -1      4189 1.01543E-02-3.82256E-04-4.86705E-14
 -1      4190 1.04995E-02-4.47811E-04-5.23596E-14
 -1      4191 1.06353E-02-4.62591E-04-5.38306E-14
 -1      4192 1.04215E-02-4.10154E-04-5.15636E-14
 -1      4193 1.07720E-02-4.77371E-04-5.53139E-14
 -1      4194 1.09095E-02-4.92193E-04-5.68106E-14
 -1      4195 1.06927E-02-4.38478E-04-5.45072E-14
 -1      4196 1.10477E-02-5.06983E-04-5.83160E-14
 -1      4197 1.11865E-02-5.21777E-04-5.98318E-14
 -1      4198 1.09674E-02-4.67032E-04-5.74962E-14
 -1      4199 1.13259E-02-5.36521E-04-6.13574E-14
 -1      4200 1.14657E-02-5.51243E-04-6.28904E-14
 -1      4201 1.12447E-02-4.95679E-04-6.05243E-14
 -1      4202 1.16060E-02-5.65907E-04-6.44342E-14
 -1      4203 1.17467E-02-5.80536E-04-6.59888E-14
 -1      4204 1.15242E-02-5.24328E-04-6.35912E-14
 -1      4205 1.18877E-02-5.95104E-04-6.75526E-14
 -1      4206 1.20290E-02-6.09632E-04-6.91226E-14
 -1      4207 1.18054E-02-5.52926E-04-6.66979E-14
 -1      4208 1.21705E-02-6.24104E-04-7.06993E-14
 -1      4209 1.23123E-02-6.38533E-04-7.22837E-14
 -1      4210 1.20879E-02-5.81445E-04-6.98383E-14
 -1      4211 1.24542E-02-6.52912E-04-7.38749E-14
 -1      4212 1.25964E-02-6.67253E-04-7.54690E-14
 -1      4213 1.23713E-02-6.09876E-04-7.30050E-14
 -1      4214 1.27386E-02-6.81549E-04-7.70712E-14
 -1      4215 1.28810E-02-6.95810E-04-7.86752E-14
 -1      4216 1.26554E-02-6.38219E-04-7.61964E-14
 -1      4217 1.07849E-02-3.12073E-04-5.58019E-14
 -1      4218 1.06470E-02-3.00059E-04-5.43126E-14
 -1      4219 1.05099E-02-2.88197E-04-5.28378E-14
 -1      4220 1.03735E-02-2.76527E-04-5.13753E-14
 -1      4221 1.03214E-02-3.01521E-04-5.07249E-14
 -1      4222 1.05932E-02-3.25868E-04-5.36534E-14
 -1      4223 9.70487E-03-2.21034E-04-4.42663E-14
 -1      4224 9.57425E-03-2.10614E-04-4.28924E-14
 -1      4225 1.29816E-02-6.99258E-04-7.98193E-14
 -1      4226 1.31132E-02-7.03739E-04-8.13236E-14
 -1      4227 1.30995E-02-6.62399E-04-8.12380E-14
 -1      4228 1.28983E-02-6.55744E-04-7.89438E-14
 -1      4229 9.96938E-03-2.42604E-04-4.70650E-14
 -1      4230 9.83656E-03-2.31722E-04-4.56588E-14
 -1      4231 9.78974E-03-2.55185E-04-4.50330E-14
 -1      4232 1.00534E-02-2.77910E-04-4.78499E-14
 -1      4233 1.10623E-02-3.36585E-04-5.88063E-14
 -1      4234 1.09233E-02-3.24259E-04-5.72994E-14
 -1      4235 1.08680E-02-3.50838E-04-5.66295E-14
 -1      4236 1.13417E-02-3.61672E-04-6.18512E-14
 -1      4237 1.12018E-02-3.49065E-04-6.03237E-14
 -1      4238 1.11454E-02-3.76339E-04-5.96454E-14
 -1      4239 1.16228E-02-3.87269E-04-6.49350E-14
 -1      4240 1.14821E-02-3.74413E-04-6.33881E-14
 -1      4241 1.14249E-02-4.02292E-04-6.27019E-14
 -1      4242 1.19051E-02-4.13312E-04-6.80532E-14
 -1      4243 1.17638E-02-4.00241E-04-6.64910E-14
 -1      4244 1.17060E-02-4.28629E-04-6.57957E-14
 -1      4245 1.21884E-02-4.39739E-04-7.12054E-14
 -1      4246 1.20467E-02-4.26483E-04-6.96255E-14
 -1      4247 1.19884E-02-4.55292E-04-6.89259E-14
 -1      4248 1.24725E-02-4.66489E-04-7.43802E-14
 -1      4249 1.23304E-02-4.53078E-04-7.27893E-14
 -1      4250 1.22717E-02-4.82225E-04-7.20824E-14
 -1      4251 1.27571E-02-4.93508E-04-7.75786E-14
 -1      4252 1.26148E-02-4.79969E-04-7.59777E-14
 -1      4253 1.25558E-02-5.09382E-04-7.52652E-14
 -1      4254 1.30183E-02-5.21975E-04-8.05154E-14
 -1      4255 1.28758E-02-5.08332E-04-7.89094E-14
 -1      4256 1.28167E-02-5.37927E-04-7.81931E-14
 -1      4257 1.30540E-02-5.67844E-04-8.08617E-14
 -1      4258 1.96619E-03-4.64318E-05-2.97463E-15
 -1      4259 2.07848E-03-4.71693E-05-3.29668E-15
 -1      4260 1.92332E-03-2.08330E-06-2.84983E-15
 -1      4261 1.74901E-03 8.40361E-05-2.32690E-15
 -1      4262 1.72422E-03 5.77193E-05-2.29539E-15
 -1      4263 1.88562E-03 8.47793E-05-2.66893E-15
 -1      4264 9.14398E-03-1.92480E-04-3.82616E-14
 -1      4265 9.13976E-03-2.22192E-04-3.79536E-14
 -1      4266 9.25313E-03-1.97700E-04-3.94364E-14
 -1      4267 9.07321E-03-2.64377E-04-3.68857E-14
 -1      4268 9.19906E-03-3.05194E-04-3.82347E-14
 -1      4269 9.31776E-03-3.17525E-04-3.95503E-14
 -1      4270 9.13636E-03-2.50050E-04-3.77090E-14
 -1      4271 2.19944E-03-5.70303E-05-3.66303E-15
 -1      4272 2.33076E-03-5.81887E-05-4.08850E-15
 -1      4273 2.39294E-03-3.25603E-05-4.30295E-15
 -1      4274 2.15585E-03-1.25326E-05-3.52634E-15
 -1      4275 1.83384E-03 2.79222E-05-2.59447E-15
 -1      4276 3.18837E-03-8.21142E-05-7.68257E-15
 -1      4277 3.29106E-03-8.81639E-05-8.23937E-15
 -1      4278 2.46578E-03 1.37835E-04-4.25547E-15
 -1      4279 2.32948E-03 1.39435E-04-3.82391E-15
 -1      4280 2.29725E-03 1.10553E-04-3.79250E-15
 -1      4281 2.51772E-03 1.06456E-04-4.51099E-15
 -1      4282 3.36370E-03-7.99428E-05-8.70357E-15
 -1      4283 9.45857E-03-3.34935E-04-4.10934E-14
 -1      4284 9.58278E-03-3.48204E-04-4.24453E-14
 -1      4285 9.63660E-03-3.28850E-04-4.30682E-14
 -1      4286 3.33756E-03-6.43884E-05-8.55303E-15
 -1      4287 3.51263E-03 1.41172E-04-8.21340E-15
 -1      4288 3.38329E-03 1.36765E-04-7.68365E-15
 -1      4289 3.55718E-03 1.09013E-04-8.59947E-15
 -1      4290 3.48076E-03-3.41461E-05-9.26533E-15
 -1      4291 3.48713E-03-1.15211E-05-9.11802E-15
 -1      4292 3.41356E-03-4.63360E-05-8.95416E-15
 -1      4293 2.55636E-03 7.59401E-05-4.72159E-15
 -1      4294 2.44805E-03 7.85012E-05-4.34676E-15
 -1      4295 1.94724E-03 2.77828E-05-2.89613E-15
 -1      4296 1.30858E-02-6.21067E-04-8.11452E-14
 -1      4297 1.29671E-02-6.05967E-04-7.98095E-14
 -1      4298 9.24087E-03-2.56266E-04-3.88797E-14
 -1      4299 3.12639E-03-5.82452E-05-7.38080E-15
 -1      4300 3.11445E-03 1.24483E-04-6.64102E-15
 -1      4301 3.02189E-03 9.35321E-05-6.40835E-15
 -1      4302 2.81702E-03 6.93335E-05-5.69579E-15
 -1      4303 2.68728E-03 7.29169E-05-5.19771E-15
 -1      4304 2.61954E-03 4.62968E-05-5.01765E-15
 -1      4305 3.23911E-03 1.26170E-04-7.13719E-15
 -1      4306 3.62957E-03 5.00914E-05-9.34099E-15
 -1      4307 3.59504E-03 8.24919E-05-8.94554E-15
 -1      4308 3.47185E-03 8.07209E-05-8.39327E-15
 -1      4309 3.54355E-03 3.04826E-05-9.07796E-15
 -1      4310 9.46840E-03-2.06830E-04-4.17525E-14
 -1      4311 9.35606E-03-2.01152E-04-4.05520E-14
 -1      4312 9.34706E-03-2.31692E-04-4.02393E-14
 -1      4313 9.55412E-03-2.39930E-04-4.25006E-14
 -1      4314 9.36917E-03-2.99353E-04-4.01576E-14
 -1      4315 2.15703E-03 8.40829E-05-3.42189E-15
 -1      4316 2.02165E-03 8.47986E-05-3.03406E-15
 -1      4317 1.99558E-03 5.78070E-05-2.99850E-15
 -1      4318 2.82268E-03-2.31548E-05-5.94236E-15
 -1      4319 2.94322E-03-2.65430E-05-6.47282E-15
 -1      4320 1.14750E-02-4.63226E-04-6.31532E-14
 -1      4321 1.13352E-02-4.49560E-04-6.16155E-14
 -1      4322 2.62259E-03-1.74638E-07-5.11253E-15
 -1      4323 2.74833E-03-2.94686E-06-5.60812E-15
 -1      4324 3.32188E-03-4.57369E-05-8.41740E-15
 -1      4325 1.01063E-02-3.30156E-04-4.82639E-14
 -1      4326 1.02392E-02-3.42936E-04-4.96989E-14
 -1      4327 1.03732E-02-3.55827E-04-5.11476E-14
 -1      4328 1.05083E-02-3.68932E-04-5.26093E-14
 -1      4329 1.06443E-02-3.82116E-04-5.40826E-14
 -1      4330 1.07811E-02-3.95458E-04-5.55681E-14
 -1      4331 1.09187E-02-4.08855E-04-5.70667E-14
 -1      4332 1.10569E-02-4.22369E-04-5.85735E-14
 -1      4333 1.11958E-02-4.35922E-04-6.00896E-14
 -1      4334 1.16153E-02-4.76953E-04-6.46968E-14
 -1      4335 1.17560E-02-4.90702E-04-6.62505E-14
 -1      4336 1.18970E-02-5.04494E-04-6.78160E-14
 -1      4337 1.20383E-02-5.18303E-04-6.93871E-14
 -1      4338 1.21799E-02-5.32143E-04-7.09641E-14
 -1      4339 1.23216E-02-5.45996E-04-7.25476E-14
 -1      4340 1.24636E-02-5.59871E-04-7.41386E-14
 -1      4341 1.26057E-02-5.73756E-04-7.57340E-14
 -1      4342 1.27480E-02-5.87656E-04-7.73370E-14
 -1      4343 3.28958E-03 9.69662E-05-7.49720E-15
 -1      4344 2.08140E-03 2.68519E-05-3.27650E-15
 -1      4345 1.28665E-02-6.02736E-04-7.86654E-14
 -1      4346 9.38238E-03-2.71644E-04-4.04130E-14
 -1      4347 3.08164E-03-2.97244E-05-7.12408E-15
 -1      4348 3.20459E-03-3.70191E-05-7.75835E-15
 -1      4349 3.29309E-03-1.62384E-05-8.13850E-15
 -1      4350 9.84428E-03-3.05326E-04-4.54396E-14
 -1      4351 9.97458E-03-3.17665E-04-4.68437E-14
 -1      4352 2.35797E-03 8.06913E-05-4.04684E-15
 -1      4353 2.24822E-03 8.25257E-05-3.69867E-15
 -1      4354 2.22091E-03 5.53660E-05-3.66028E-15
 -1      4355 2.40069E-03 5.14188E-05-4.24284E-15
 -1      4356 3.03217E-03-2.95970E-06-6.82469E-15
 -1      4357 9.71542E-03-2.93384E-04-4.40504E-14
 -1      4358 3.33385E-03 7.30465E-05-7.82169E-15
 -1      4359 3.19926E-03 6.67166E-05-7.26856E-15
 -1      4360 3.37558E-03 4.91261E-05-8.15030E-15
 -1      4361 9.48449E-03-2.76710E-04-4.15407E-14
 -1      4362 9.58828E-03-2.81645E-04-4.26796E-14
 -1      4363 2.37892E-03 1.30125E-05-4.22550E-15
 -1      4364 2.49472E-03 2.40405E-06-4.63936E-15
 -1      4365 3.45247E-03 1.07658E-05-8.77707E-15
 -1      4366 2.20043E-03 1.68855E-05-3.64407E-15
 -1      4367 3.06250E-03 6.08746E-05-6.71411E-15
 -1      4368 2.93545E-03 6.54586E-05-6.17513E-15
 -1      4369 2.86470E-03 3.90572E-05-5.98009E-15
 -1      4370 3.11181E-03 3.94691E-05-7.01845E-15
 -1      4371 2.81871E-03 2.12916E-05-5.84375E-15
 -1      4372 3.33014E-03 7.94476E-06-8.19059E-15
 -1      4373 2.29002E-03 1.49740E-05-3.92956E-15
 -1      4374 2.93323E-03 1.71947E-05-6.32972E-15
 -1      4375 3.07719E-03 1.36591E-05-6.97246E-15
 -1      4376 3.20475E-03 1.73951E-05-7.53999E-15
 -3
    1PSTEP                         2           1           1          
  100CL  101 1.000000000        4376                     0    1           1
 -4  STRESS      6    1
 -5  SXX         1    4    1    1
 -5  SYY         1    4    2    2
 -5  SZZ         1    4    3    3
 -5  SXY         1    4    1    2
 -5  SYZ         1    4    2    3
 -5  SZX         1    4    3    1
 -1         1 4.74809E+00 5.28678E+00-8.52489E-01 5.20641E+00-2.76384E-12-2.22394E-12
 -1         2-7.69686E-01-2.43613E+01-3.35881E+00-6.10882E-02 4.60607E-13-1.36009E-13
 -1         3 2.00001E+01 2.95890E-04 1.61327E-05 2.84809E-04-4.64856E-13-5.10486E-13
 -1         4 2.00000E+01 2.51882E-04-2.27407E-05-2.46934E-04 2.95123E-13-1.02003E-13
 -1         5 3.24432E+01 6.08593E+00 2.67248E+00 6.14468E+00-2.83315E-14 2.36113E-12
 -1         6 3.53389E+01 1.21034E+01 5.00572E+00-8.51917E+00-1.39944E-13 2.16983E-12
 -1         7 2.08774E+01 6.11132E+00-1.06639E-01-4.59751E+00-2.26624E-14 3.91596E-13
 -1         8 1.97871E+01 5.96599E+00 6.19110E-02-3.10268E+00-2.29955E-14-1.52138E-13
 -1         9 1.92535E+01 5.80445E+00 5.48035E-02-2.32535E+00-2.46296E-14-4.54071E-13
 -1        10 1.89744E+01 5.71399E+00 5.20823E-02-1.74330E+00-1.57027E-14-5.90301E-13
 -1        11 1.87971E+01 5.65696E+00 4.70158E-02-1.26551E+00-1.10658E-14-6.61568E-13
 -1        12 1.86789E+01 5.61901E+00 4.20304E-02-8.62766E-01-3.04270E-15-6.89223E-13
 -1        13 1.86016E+01 5.59458E+00 3.82996E-02-4.98589E-01-3.94953E-15-6.98945E-13
 -1        14 1.85639E+01 5.58275E+00 3.64271E-02-1.60518E-01 1.33400E-15-6.88060E-13
 -1        15 1.85651E+01 5.58314E+00 3.66051E-02 1.69816E-01 5.32159E-15-6.72371E-13
 -1        16 1.86048E+01 5.59562E+00 3.88026E-02 5.10342E-01 9.24824E-15-6.63298E-13
 -1        17 1.86833E+01 5.62030E+00 4.27823E-02 8.79285E-01 1.28131E-14-6.28523E-13
 -1        18 1.88015E+01 5.65819E+00 4.78281E-02 1.28815E+00 1.91852E-14-5.65236E-13
 -1        19 1.89778E+01 5.71515E+00 5.25928E-02 1.77434E+00 2.54328E-14-4.58777E-13
 -1        20 1.92557E+01 5.80615E+00 5.45581E-02 2.36574E+00 2.80678E-14-2.63314E-13
 -1        21 1.97798E+01 5.97937E+00 5.68627E-02 3.14056E+00 3.24081E-14 9.44592E-14
 -1        22 2.12337E+01 6.38351E+00 1.50098E-01 4.40061E+00 5.20417E-15 8.03574E-13
 -1        23 2.29602E+01-1.38036E+00-9.41309E-01-6.77260E-01-9.07191E-14 1.68382E-12
 -1        24 1.95045E+01-9.98012E-02-3.06111E-01 6.65302E-02-2.25540E-14 1.26491E-12
 -1        25 1.89841E+01-5.78983E-02-6.87106E-02 6.15951E-02-1.03745E-14 8.83004E-13
 -1        26 1.89657E+01-2.51362E-02-9.50375E-03 3.42104E-02 1.09155E-14 6.08754E-13
 -1        27 1.92054E+01-1.61194E-02-3.65102E-03 2.49674E-02-1.73661E-14 3.96799E-13
 -1        28 1.96144E+01-1.17023E-02-5.36399E-03 2.05654E-02 8.40007E-15 2.68144E-13
 -1        29 2.01564E+01-9.48390E-03-7.23662E-03 1.91661E-02 4.57230E-15 2.33391E-13
 -1        30 2.08187E+01-8.10506E-03-8.55675E-03 1.99606E-02-8.60423E-15 1.20752E-13
 -1        31 2.15966E+01-6.58466E-03-8.98499E-03 2.25741E-02-1.89961E-14 9.06133E-15
 -1        32 2.24803E+01-3.92810E-03-7.37357E-03 2.65423E-02-1.10159E-14-7.55195E-14
 -1        33 2.34387E+01 9.69447E-04-1.60121E-03 3.07249E-02 2.17657E-14-1.08328E-13
 -1        34 2.43975E+01 9.11853E-03 1.12173E-02 3.24952E-02-6.20554E-15-1.26016E-13
 -1        35 2.52127E+01 2.06818E-02 3.33780E-02 2.68434E-02 1.35357E-14-2.05987E-13
 -1        36 2.56543E+01 3.35959E-02 6.30948E-02 6.40935E-03-1.29430E-14-2.73110E-13
 -1        37 2.54306E+01 4.20562E-02 8.90013E-02-3.51458E-02-3.77879E-14-3.11879E-13
 -1        38 2.43026E+01 3.70730E-02 8.78875E-02-9.46192E-02 2.70617E-16-3.68854E-13
 -1        39 2.23043E+01 1.21231E-02 3.56179E-02-1.47356E-01-2.47893E-14-3.28633E-13
 -1        40 1.99637E+01-2.73508E-02-6.17206E-02-1.50457E-01 4.92011E-16-5.30291E-13
 -1        41 1.82381E+01-6.06308E-02-1.50799E-01-7.69396E-02 4.08753E-14-6.45831E-13
 -1        42 1.79957E+01-6.58974E-02-1.64651E-01 4.27240E-02-6.24110E-14-7.62158E-13
 -1        43 1.93769E+01-3.93149E-02-9.22419E-02 1.36673E-01 1.11655E-14-7.14880E-13
 -1        44 2.16817E+01 7.45266E-04 1.00710E-02 1.55890E-01 2.74381E-14-5.80605E-13
 -1        45 2.39086E+01 3.12420E-02 7.81250E-02 1.13749E-01-5.44406E-14-7.27966E-13
 -1        46 2.53762E+01 4.17288E-02 9.21659E-02 5.28222E-02-3.26284E-14-7.26391E-13
 -1        47 2.59193E+01 3.62214E-02 7.10420E-02 5.01391E-03 6.93087E-15-3.65852E-13
 -1        48 2.57244E+01 2.37512E-02 4.03479E-02-2.08043E-02-1.82064E-14-4.41303E-13
 -1        49 2.50873E+01 1.13779E-02 1.51721E-02-2.93372E-02-2.20239E-14-7.03753E-13
 -1        50 2.42644E+01 2.21867E-03-4.98554E-04-2.82153E-02 5.39070E-14-6.46915E-13
 -1        51 2.34257E+01-3.33231E-03-8.20529E-03-2.31836E-02-4.11492E-14-4.12361E-13
 -1        52 2.26632E+01-6.05159E-03-1.08301E-02-1.74343E-02 5.64707E-14-1.21170E-13
 -1        53 2.20149E+01-6.91838E-03-1.07557E-02-1.23527E-02-6.46572E-14-1.64588E-13
 -1        54 2.14876E+01-6.72868E-03-9.49611E-03-8.34317E-03 1.81962E-15-4.58877E-13
 -1        55 2.10721E+01-6.02111E-03-7.87490E-03-5.37412E-03-3.00283E-14-7.89962E-13
 -1        56 2.07528E+01-5.12110E-03-6.28498E-03-3.26501E-03 3.48018E-14-7.58190E-13
 -1        57 2.05128E+01-4.20785E-03-4.88585E-03-1.81440E-03 6.92450E-14-7.17329E-13
 -1        58 2.03361E+01-3.36993E-03-3.72184E-03-8.46857E-04 4.79499E-15-8.81080E-13
 -1        59 2.02088E+01-2.64363E-03-2.78565E-03-2.23928E-04-4.01664E-14-1.04135E-12
 -1        60 2.01195E+01-2.03686E-03-2.05004E-03 1.58499E-04-7.58330E-14-6.87181E-13
 -1        61 2.00588E+01-1.54318E-03-1.48254E-03 3.76720E-04 3.82064E-14-6.27369E-13
 -1        62 2.00192E+01-1.14977E-03-1.05187E-03 4.85816E-04 3.73697E-14-4.96883E-13
 -1        63 1.99950E+01-8.41587E-04-7.30232E-04 5.25128E-04-9.92715E-14-4.53507E-13
 -1        64 1.99818E+01-6.03567E-04-4.93891E-04 5.22464E-04-8.01941E-14-6.33577E-13
 -1        65 1.99763E+01-4.21566E-04-3.22854E-04 4.97254E-04 4.10991E-14-6.88191E-13
 -1        66 1.99759E+01-2.82593E-04-1.99858E-04 4.62799E-04 5.19008E-14-4.63102E-13
 -1        67 1.99790E+01-1.74647E-04-1.08588E-04 4.27440E-04 7.91021E-14 2.12490E-14
 -1        68 1.99840E+01-8.62112E-05-3.03649E-05 3.94716E-04 3.77760E-14 2.12926E-13
 -1        69 1.99899E+01-7.16620E-06 5.97252E-05 3.59071E-04 5.11322E-14 3.78142E-13
 -1        70 1.99954E+01 5.38778E-05 1.70988E-04 2.79284E-04-4.59788E-14 5.63772E-13
 -1        71 1.99993E+01-1.26343E-05 2.16208E-04 1.18862E-04-1.27621E-13 1.99221E-13
 -1        72 2.10026E+01-4.02629E-01-9.80094E-01-3.17555E-01 2.57745E-14 2.16860E-12
 -1        73 1.94742E+01-6.61435E-02-2.87712E-01-5.52547E-02 2.05513E-14 1.64820E-12
 -1        74 1.89909E+01-2.18116E-02-6.42400E-02-2.02082E-02 1.65179E-14 1.25196E-12
 -1        75 1.89624E+01-1.18606E-02-1.19150E-02-1.48538E-02-4.20779E-16 1.03567E-12
 -1        76 1.91842E+01-7.62060E-03-3.65431E-03-1.20986E-02-5.33173E-15 9.30324E-13
 -1        77 1.95604E+01-5.30136E-03-3.75690E-03-1.08233E-02 2.04844E-14 7.90258E-13
 -1        78 2.00460E+01-3.68705E-03-4.25166E-03-1.08212E-02-5.01151E-15 6.44939E-13
 -1        79 2.06149E+01-2.09717E-03-3.85936E-03-1.19949E-02 7.22241E-16 5.51672E-13
 -1        80 2.12445E+01-2.40521E-05-2.08841E-03-1.43094E-02-1.53633E-14 3.90441E-13
 -1        81 2.19034E+01 2.92991E-03 1.85736E-03-1.75558E-02 4.14600E-14 2.66643E-13
 -1        82 2.25405E+01 6.94904E-03 8.97331E-03-2.10078E-02-1.65865E-14 2.25419E-13
 -1        83 2.30736E+01 1.17364E-02 1.98663E-02-2.29952E-02 1.80261E-14 2.70982E-13
 -1        84 2.33859E+01 1.61458E-02 3.36407E-02-2.05873E-02-8.63166E-15 2.62596E-13
 -1        85 2.33360E+01 1.79780E-02 4.63952E-02-9.94475E-03 3.13666E-14 3.36404E-13
 -1        86 2.27986E+01 1.45091E-02 5.04262E-02 1.17529E-02-3.64249E-15 2.04481E-13
 -1        87 2.17398E+01 4.26888E-03 3.64517E-02 4.24358E-02-5.89164E-14 1.81809E-13
 -1        88 2.03066E+01-1.05982E-02 6.05049E-04 7.15511E-02 6.07950E-15 2.60809E-13
 -1        89 1.88639E+01-2.38800E-02-4.73606E-02 8.20505E-02 4.10876E-14-9.90319E-14
 -1        90 1.78994E+01-2.87300E-02-8.43794E-02 6.13931E-02-5.69475E-14-1.90676E-13
 -1        91 1.77938E+01-2.27749E-02-8.85342E-02 1.46203E-02-2.70508E-15-2.65092E-14
 -1        92 1.85976E+01-9.74508E-03-5.71325E-02-3.60263E-02-4.17160E-14 1.43004E-13
 -1        93 2.00009E+01 3.89945E-03-9.26540E-03-6.76610E-02 4.95437E-14 2.13319E-13
 -1        94 2.15223E+01 1.30560E-02 3.02825E-02-7.19888E-02 6.55324E-15-2.02185E-13
 -1        95 2.27525E+01 1.62705E-02 4.86847E-02-5.62401E-02-3.96201E-14-2.24459E-13
 -1        96 2.34908E+01 1.47596E-02 4.75108E-02-3.33251E-02-1.61476E-14 6.11013E-14
 -1        97 2.37353E+01 1.08169E-02 3.55225E-02-1.28730E-02 3.05250E-14 1.68806E-13
 -1        98 2.35985E+01 6.40620E-03 2.10894E-02 1.15990E-03-4.75602E-15 9.26429E-14
 -1        99 2.32242E+01 2.67493E-03 9.04923E-03 8.82747E-03-5.05678E-14-7.14628E-14
 -1       100 2.27378E+01 2.13109E-05 8.86444E-04 1.18143E-02 3.06344E-14-1.33904E-13
 -1       101 2.22290E+01-1.59887E-03-3.75258E-03 1.19530E-02-5.83330E-14-4.71103E-13
 -1       102 2.17524E+01-2.41315E-03-5.84491E-03 1.06458E-02 3.38109E-14-3.72139E-13
 -1       103 2.13355E+01-2.67606E-03-6.34839E-03 8.78836E-03 3.95442E-14-4.35783E-13
 -1       104 2.09881E+01-2.60133E-03-5.98148E-03 6.88144E-03-3.66940E-14-2.67446E-13
 -1       105 2.07092E+01-2.34482E-03-5.21252E-03 5.16718E-03 3.48945E-14-7.13674E-14
 -1       106 2.04921E+01-2.01008E-03-4.31834E-03 3.73668E-03-7.21895E-14-1.88810E-13
 -1       107 2.03278E+01-1.66069E-03-3.44825E-03 2.60065E-03 1.87749E-14-5.04614E-13
 -1       108 2.02068E+01-1.33238E-03-2.67343E-03 1.73171E-03-5.64904E-14-6.29025E-13
 -1       109 2.01203E+01-1.04266E-03-2.02006E-03 1.08790E-03 9.68193E-15-1.76925E-13
 -1       110 2.00606E+01-7.97772E-04-1.48992E-03 6.24947E-04 6.71103E-14-4.85405E-13
 -1       111 2.00212E+01-5.97324E-04-1.07260E-03 3.02010E-04-3.63584E-15-5.00155E-13
 -1       112 1.99968E+01-4.37320E-04-7.52538E-04 8.39262E-05-9.64846E-14-2.31933E-13
 -1       113 1.99832E+01-3.11999E-04-5.12750E-04-5.83554E-05 1.45791E-13-5.25486E-13
 -1       114 1.99774E+01-2.14891E-04-3.36704E-04-1.48220E-04-1.76232E-13-7.53291E-13
 -1       115 1.99768E+01-1.39310E-04-2.08762E-04-2.04229E-04 1.84002E-13-7.67670E-13
 -1       116 1.99796E+01-7.84224E-05-1.13020E-04-2.41008E-04-6.14157E-14-9.74897E-13
 -1       117 1.99845E+01-2.53149E-05-3.01957E-05-2.69495E-04-1.96682E-14-1.16541E-12
 -1       118 1.99902E+01 2.52813E-05 6.45374E-05-2.94899E-04 4.05692E-14-1.16242E-12
 -1       119 1.99957E+01 7.80594E-05 1.89343E-04-3.02936E-04-5.82515E-14-1.41392E-12
 -1       120 1.99993E+01-4.06127E-05 1.75942E-04-1.78343E-04 2.23250E-13-1.19470E-12
 -1       121 1.99998E+01-7.19913E-04 1.44843E-04-1.57702E-04-1.14851E-12-3.31549E-14
 -1       122 1.99999E+01-4.18570E-03 1.13267E-04-2.61999E-04-1.30798E-12 9.50757E-14
 -1       123 1.99998E+01-8.91596E-03-2.42353E-05-2.54058E-04-3.38566E-13 4.29695E-13
 -1       124 1.99998E+01-1.33981E-02-9.26272E-05-1.94798E-04-1.04954E-12-8.42799E-14
 -1       125 1.99998E+01-1.69801E-02-1.05463E-04-1.29956E-04-1.23652E-12 1.84426E-14
 -1       126 1.99997E+01-1.94804E-02-9.46950E-05-7.92829E-05-1.26529E-12 1.47523E-13
 -1       127 1.99998E+01-2.10578E-02-7.65203E-05-4.10091E-05-4.02344E-13 2.92152E-14
 -1       128 1.99998E+01-2.18187E-02-6.53038E-05-1.37400E-05-4.27176E-13-2.16906E-14
 -1       129 1.99998E+01-2.18648E-02-6.64603E-05 9.84772E-06 5.48575E-13 2.54756E-13
 -1       130 1.99998E+01-2.11842E-02-7.98122E-05 3.81012E-05 9.45082E-14-3.02590E-13
 -1       131 1.99997E+01-1.96549E-02-9.85744E-05 7.98553E-05-1.14115E-12 1.37720E-14
 -1       132 1.99997E+01-1.71581E-02-1.11034E-04 1.32037E-04-1.37077E-12 1.21844E-13
 -1       133 1.99998E+01-1.35276E-02-9.57338E-05 1.99088E-04-1.53816E-12-1.38107E-13
 -1       134 1.99998E+01-8.96395E-03-1.95033E-05 2.70601E-04-1.58314E-12-9.83352E-14
 -1       135 1.99999E+01-4.26187E-03 9.43700E-05 3.69552E-04-8.62952E-13-1.38074E-14
 -1       136 1.99999E+01-8.25264E-04 1.34972E-04 1.50740E-04-4.03542E-13 1.64477E-13
 -1       137-1.38513E+00-1.93604E+01-3.04023E+00-3.68863E+00 1.05166E-12 3.25892E-13
 -1       138-1.44872E+00-7.86433E+00-2.20015E+00-2.84055E+00 2.10515E-12 9.32671E-13
 -1       139 3.01144E+00 3.75934E+00-1.03460E+00 3.63394E+00 2.79443E-12 1.96765E-12
 -1       140 1.56275E+01 1.04725E+01 4.08642E-01 1.26462E+01 2.38670E-12 2.81775E-12
 -1       141 3.47421E+01 1.00051E+01 1.81098E+00 1.80748E+01 1.52539E-12 2.59276E-12
 -1       142 5.36643E+01 5.16033E+00 2.89474E+00 1.54483E+01 5.53682E-13 1.39244E-12
 -1       143 6.47369E+01 1.23136E+00 3.45736E+00 5.25218E+00 1.64035E-14 7.07767E-14
 -1       144 6.34787E+01 1.81545E+00 3.41600E+00-7.59221E+00 1.07475E-13-6.70797E-13
 -1       145 4.93377E+01 6.51795E+00 2.68401E+00-1.68792E+01 5.51559E-13-1.41248E-12
 -1       146 2.97590E+01 1.08336E+01 1.49910E+00-1.76020E+01 1.22313E-12-1.85679E-12
 -1       147 1.24214E+01 9.87650E+00 1.27812E-01-1.10365E+01 1.89121E-12-1.95005E-12
 -1       148 1.72123E+00 1.58809E+00-1.29033E+00-2.10824E+00 2.25037E-12-1.46000E-12
 -1       149-1.77096E+00-1.11699E+01-2.46432E+00 3.69524E+00 2.00856E-12-8.71414E-13
 -1       150-1.14305E+00-2.15451E+01-3.17940E+00 3.23248E+00 8.85847E-13-2.30645E-13
 -1       151-7.30790E-01-2.45594E+01-3.38424E+00-9.85947E-01-6.26055E-13-4.27748E-14
 -1       152-1.70972E+00-1.81131E+01-3.00477E+00-4.33968E+00-2.03920E-12-6.01658E-13
 -1       153-1.04200E+00-5.67414E+00-2.08093E+00-1.95910E+00-2.86249E-12-1.50110E-12
 -1       154 1.79770E+01 1.06955E+01 5.52696E-01 1.37168E+01-2.06574E-12-2.55024E-12
 -1       155 3.68672E+01 9.70307E+00 1.93746E+00 1.83547E+01-1.20387E-12-2.37377E-12
 -1       156 5.51452E+01 4.96803E+00 3.02825E+00 1.49881E+01-5.68448E-13-1.81077E-12
 -1       157 6.61124E+01 1.31453E+00 3.63334E+00 4.77434E+00-1.53148E-13-5.04402E-13
 -1       158 6.44286E+01 1.86112E+00 3.55802E+00-7.94263E+00-2.05808E-13 1.14450E-12
 -1       159 5.07444E+01 6.22890E+00 2.78954E+00-1.66572E+01-8.50459E-13 2.45154E-12
 -1       160 3.20603E+01 1.03512E+01 1.60816E+00-1.78100E+01-1.84641E-12 3.14321E-12
 -1       161 1.43989E+01 9.93716E+00 2.03494E-01-1.19062E+01-2.57561E-12 2.78894E-12
 -1       162 2.37442E+00 2.49041E+00-1.22605E+00-2.78179E+00-2.68868E-12 1.94378E-12
 -1       163-1.64810E+00-9.16713E+00-2.36698E+00 3.27277E+00-2.32403E-12 1.06282E-12
 -1       164-1.42631E+00-2.03735E+01-3.13776E+00 3.80244E+00-5.78065E-13 2.86594E-13
 -1       165 2.11413E+01 3.66400E+00-5.48247E-02-3.42819E+00-3.16875E-13 1.15880E-13
 -1       166 2.01338E+01 4.20981E+00-4.41281E-02-2.60215E+00-2.81545E-13-2.27089E-13
 -1       167 1.96135E+01 4.50725E+00-3.02245E-02-1.97918E+00-2.28447E-13-4.20690E-13
 -1       168 1.93023E+01 4.67172E+00-2.24380E-02-1.46854E+00-1.68914E-13-5.28800E-13
 -1       169 1.90979E+01 4.77377E+00-1.82824E-02-1.04384E+00-1.13809E-13-5.65591E-13
 -1       170 1.89589E+01 4.83946E+00-1.59768E-02-6.66117E-01-6.44758E-14-5.80491E-13
 -1       171 1.88785E+01 4.87561E+00-1.48106E-02-3.23060E-01-1.05990E-14-5.72091E-13
 -1       172 1.88535E+01 4.88590E+00-1.44744E-02 3.75886E-03 3.96677E-14-5.59438E-13
 -1       173 1.88830E+01 4.87153E+00-1.48815E-02 3.31873E-01 1.00338E-13-5.57015E-13
 -1       174 1.89669E+01 4.83157E+00-1.61113E-02 6.78591E-01 1.40283E-13-5.43802E-13
 -1       175 1.91051E+01 4.76377E+00-1.85175E-02 1.05488E+00 1.85569E-13-4.91875E-13
 -1       176 1.93134E+01 4.65643E+00-2.30248E-02 1.49331E+00 2.55858E-13-4.07853E-13
 -1       177 1.96258E+01 4.48639E+00-3.18001E-02 2.01337E+00 3.06597E-13-2.82642E-13
 -1       178 2.01532E+01 4.18359E+00-4.54991E-02 2.64512E+00 3.51867E-13-4.31842E-14
 -1       179 2.12544E+01 3.43853E+00-5.75014E-02 3.36386E+00 3.32390E-13 3.83409E-13
 -1       180 2.24741E+01 1.12314E+00-3.32141E-01 2.88745E+00 2.38767E-13 9.47950E-13
 -1       181 2.20888E+01 8.44965E-01 1.17564E-03-1.82455E+00-2.64191E-13 5.22023E-13
 -1       182 2.06864E+01 1.91524E-01-8.93348E-03-6.29549E-01-2.25922E-13 3.82974E-13
 -1       183 2.00562E+01 1.11582E-01 1.44403E-02-1.34502E-01-1.65961E-13 2.70199E-13
 -1       184 1.98921E+01 6.39827E-02 1.09240E-02 1.18807E-01-1.38705E-13 1.45347E-13
 -1       185 1.99817E+01 4.57131E-02 6.29325E-03 2.78090E-01-8.54826E-14 9.29922E-14
 -1       186 2.02441E+01 3.85465E-02 3.71484E-03 3.97897E-01-6.52269E-14 2.46754E-14
 -1       187 2.06365E+01 3.60386E-02 2.43207E-03 5.00651E-01-6.00655E-14-1.88760E-15
 -1       188 2.11353E+01 3.42113E-02 1.55739E-03 5.94497E-01-4.88674E-14 9.18970E-15
 -1       189 2.17231E+01 2.89346E-02 5.95825E-04 6.76763E-01-5.33677E-14 2.59823E-14
 -1       190 2.23770E+01 1.46869E-02-7.02085E-04 7.32623E-01-2.35576E-14 4.32501E-14
 -1       191 2.30587E+01-1.57699E-02-2.35830E-03 7.31858E-01-5.52501E-14-1.00404E-13
 -1       192 2.37025E+01-6.97845E-02-4.05498E-03 6.27181E-01-3.42632E-14-1.37780E-13
 -1       193 2.42077E+01-1.48894E-01-5.09689E-03 3.61285E-01-3.55957E-14-6.86252E-14
 -1       194 2.44405E+01-2.36062E-01-4.54641E-03-1.04764E-01-6.38014E-14-1.42424E-14
 -1       195 2.42646E+01-2.82946E-01-2.33585E-03-7.33026E-01-5.70759E-14 1.19791E-14
 -1       196 2.36123E+01-2.12907E-01 1.17803E-04-1.33855E+00 3.12311E-14-3.72246E-14
 -1       197 2.25971E+01 1.90863E-02-1.14296E-04-1.58534E+00-7.16942E-14 7.20344E-15
 -1       198 2.15876E+01 3.30311E-01-2.53902E-03-1.17595E+00-1.21563E-13-1.82146E-15
 -1       199 2.10873E+01 5.08599E-01-4.17009E-03-1.63145E-01-1.86897E-13-2.53972E-13
 -1       200 2.13875E+01 4.10136E-01-2.87152E-03 9.46404E-01-7.51586E-14-4.01582E-13
 -1       201 2.23272E+01 1.13764E-01 4.44867E-04 1.57007E+00-2.16533E-14-5.24135E-13
 -1       202 2.34245E+01-1.56306E-01 1.67370E-03 1.50386E+00-7.42006E-14-6.44837E-13
 -1       203 2.42497E+01-2.74699E-01-1.09478E-03 9.74568E-01 7.89481E-14-3.70226E-13
 -1       204 2.46152E+01-2.54355E-01-3.98757E-03 3.33385E-01 1.38774E-13-2.80097E-13
 -1       205 2.45471E+01-1.71541E-01-5.11915E-03-1.81447E-01-1.05050E-13-2.01799E-13
 -1       206 2.41724E+01-8.62701E-02-4.39488E-03-4.94125E-01-1.18174E-13-2.01636E-13
 -1       207 2.36310E+01-2.39318E-02-2.77941E-03-6.28821E-01 4.14834E-14-2.24342E-13
 -1       208 2.30340E+01 1.29333E-02-1.11299E-03-6.42606E-01 1.77950E-13-4.20175E-13
 -1       209 2.24548E+01 3.05394E-02 1.59129E-04-5.88830E-01 4.87952E-14-2.14741E-13
 -1       210 2.19340E+01 3.61109E-02 9.38250E-04-5.05419E-01-1.04620E-13-2.82515E-13
 -1       211 2.14887E+01 3.51618E-02 1.30504E-03-4.15325E-01-1.09158E-13-3.36411E-13
 -1       212 2.11216E+01 3.12068E-02 1.39058E-03-3.30654E-01-1.65003E-13-4.34105E-13
 -1       213 2.08273E+01 2.62449E-02 1.31307E-03-2.56734E-01-9.84987E-15-5.58657E-13
 -1       214 2.05969E+01 2.13061E-02 1.15678E-03-1.95071E-01 8.65188E-14-5.43318E-13
 -1       215 2.04201E+01 1.68594E-02 9.74272E-04-1.45217E-01-2.97387E-14-5.50209E-13
 -1       216 2.02871E+01 1.30713E-02 7.94839E-04-1.05851E-01-1.19483E-13-6.29695E-13
 -1       217 2.01891E+01 9.95558E-03 6.32825E-04-7.53644E-02 6.19237E-14-9.04631E-13
 -1       218 2.01185E+01 7.45648E-03 4.93766E-04-5.21606E-02 1.77711E-13-5.79012E-13
 -1       219 2.00689E+01 5.49136E-03 3.78368E-04-3.47915E-02 1.04931E-13-3.79699E-13
 -1       220 2.00353E+01 3.97236E-03 2.84893E-04-2.20084E-02 5.25432E-14-1.77255E-13
 -1       221 2.00135E+01 2.81613E-03 2.10517E-04-1.27712E-02-1.29494E-13-1.92025E-13
 -1       222 2.00004E+01 1.94775E-03 1.52021E-04-6.23660E-03 5.04894E-14-8.62479E-14
 -1       223 1.99934E+01 1.30116E-03 1.06164E-04-1.73976E-03 1.80123E-13 1.53943E-13
 -1       224 1.99907E+01 8.16925E-04 6.99424E-05 1.22433E-03 1.61948E-13 5.01792E-14
 -1       225 1.99909E+01 4.39264E-04 4.09638E-05 3.01358E-03 2.72378E-13 1.12137E-13
 -1       226 1.99927E+01 1.07960E-04 1.90601E-05 3.84445E-03 1.64735E-13 2.18750E-13
 -1       227 1.99952E+01-2.57394E-04 6.51637E-06 3.78011E-03 1.24826E-13 7.89538E-14
 -1       228 1.99976E+01-7.35688E-04 8.95379E-06 2.77325E-03-1.12757E-13 2.00946E-13
 -1       229 2.11214E+01 2.73319E-01-4.95966E-02 1.05391E+00 2.55403E-13 8.05489E-13
 -1       230 2.01578E+01 1.29384E-01 8.98929E-03 3.31649E-01 1.83292E-13 6.31961E-13
 -1       231 1.98022E+01 6.52679E-02 1.30341E-02 2.20959E-02 1.11626E-13 4.98319E-13
 -1       232 1.97733E+01 3.85349E-02 7.85866E-03-1.45562E-01 7.72206E-14 3.87958E-13
 -1       233 1.99440E+01 2.65595E-02 4.02231E-03-2.52108E-01 8.23586E-14 3.23489E-13
 -1       234 2.02470E+01 2.01069E-02 2.00550E-03-3.27746E-01 4.99926E-14 3.15020E-13
 -1       235 2.06422E+01 1.51412E-02 8.99499E-04-3.83671E-01 7.05610E-14 2.24965E-13
 -1       236 2.10999E+01 8.96385E-03 1.40484E-04-4.20750E-01 9.41699E-14 1.43583E-13
 -1       237 2.15891E+01-9.17199E-04-4.55901E-04-4.31961E-01 6.10673E-14 2.10767E-14
 -1       238 2.20688E+01-1.68979E-02-8.38459E-04-4.03102E-01 3.27375E-15 7.54141E-14
 -1       239 2.24822E+01-4.05213E-02-8.13737E-04-3.14480E-01 2.88890E-14 1.02625E-13
 -1       240 2.27546E+01-7.06067E-02-1.69822E-04-1.46369E-01 1.43548E-15 1.43704E-13
 -1       241 2.28009E+01-1.00342E-01 1.09540E-03 1.08796E-01 2.89838E-14 6.44633E-14
 -1       242 2.25479E+01-1.14912E-01 2.48203E-03 4.26932E-01 1.42854E-15 6.80458E-14
 -1       243 2.19755E+01-9.40067E-02 2.83325E-03 7.32982E-01-1.58489E-15 1.14087E-13
 -1       244 2.11644E+01-2.43676E-02 9.78658E-04 9.02985E-01 3.04417E-14 2.70825E-14
 -1       245 2.03206E+01 8.09510E-02-2.67381E-03 8.12962E-01 1.74931E-13-6.16790E-14
 -1       246 1.97281E+01 1.74855E-01-5.96168E-03 4.28312E-01-2.48690E-14-1.25323E-13
 -1       247 1.96234E+01 2.02463E-01-6.12012E-03-1.32489E-01-5.62016E-14-1.46128E-13
 -1       248 2.00574E+01 1.46658E-01-2.44871E-03-6.43590E-01-9.12087E-14-2.19909E-13
 -1       249 2.08631E+01 4.38326E-02 2.27359E-03-9.12472E-01 3.02762E-14-2.00008E-13
 -1       250 2.17596E+01-5.06854E-02 4.49049E-03-8.87530E-01 1.50475E-13-9.40775E-14
 -1       251 2.24969E+01-1.01630E-01 3.74655E-03-6.51521E-01-3.68429E-14-2.68067E-13
 -1       252 2.29419E+01-1.07676E-01 1.57706E-03-3.37032E-01-8.48284E-14-3.20955E-13
 -1       253 2.30792E+01-8.61259E-02-4.24954E-04-4.96790E-02-9.61761E-14-1.19614E-13
 -1       254 2.29664E+01-5.56683E-02-1.52292E-03 1.58807E-01-3.79037E-14 1.18485E-13
 -1       255 2.26873E+01-2.79715E-02-1.71437E-03 2.80746E-01 9.03878E-14 3.46218E-14
 -1       256 2.23214E+01-7.60666E-03-1.36497E-03 3.31560E-01 1.00748E-14-8.07191E-14
 -1       257 2.19298E+01 5.18653E-03-8.29633E-04 3.33340E-01 1.67986E-13-3.67927E-14
 -1       258 2.15534E+01 1.19722E-02-3.28391E-04 3.06126E-01 4.36332E-15-4.12913E-13
 -1       259 2.12152E+01 1.46420E-02 4.65904E-05 2.64885E-01-5.23683E-14-3.15437E-13
 -1       260 2.09259E+01 1.47915E-02 2.83007E-04 2.19479E-01-8.88401E-14-2.27797E-13
 -1       261 2.06873E+01 1.35703E-02 4.04674E-04 1.75731E-01 2.27511E-14-1.98444E-13
 -1       262 2.04964E+01 1.17298E-02 4.44737E-04 1.36648E-01-4.28824E-15-4.70976E-14
 -1       263 2.03479E+01 9.72481E-03 4.33197E-04 1.03431E-01 2.08542E-13-7.72200E-14
 -1       264 2.02352E+01 7.80844E-03 3.92904E-04 7.62155E-02-4.69512E-14-1.03433E-13
 -1       265 2.01518E+01 6.10536E-03 3.39542E-04 5.45576E-02-9.87348E-15-1.58311E-13
 -1       266 2.00918E+01 4.66252E-03 2.83031E-04 3.77469E-02 6.45989E-14-3.32398E-13
 -1       267 2.00501E+01 3.48240E-03 2.29117E-04 2.49913E-02-1.37002E-13 7.38661E-14
 -1       268 2.00222E+01 2.54383E-03 1.80711E-04 1.55229E-02-3.76577E-14-2.59980E-14
 -1       269 2.00048E+01 1.81450E-03 1.38889E-04 8.65210E-03 7.93977E-14-1.55687E-13
 -1       270 1.99948E+01 1.25811E-03 1.03573E-04 3.79232E-03 6.18316E-14-4.73189E-15
 -1       271 1.99902E+01 8.37952E-04 7.40518E-05 4.67802E-04 1.90834E-13-2.44258E-13
 -1       272 1.99893E+01 5.17688E-04 4.96473E-05-1.68601E-03 1.18601E-13-3.93527E-13
 -1       273 1.99907E+01 2.58874E-04 3.10704E-05-2.92141E-03 1.56150E-13-4.47701E-13
 -1       274 1.99933E+01 2.03085E-05 2.26595E-05-3.36984E-03 1.64278E-13-6.32783E-13
 -1       275 1.99961E+01-2.69279E-04 2.58148E-05-3.02911E-03 7.05186E-14-7.09004E-13
 -1       276 1.99985E+01-6.59990E-04 3.44311E-05-1.80581E-03-2.67394E-13-6.43878E-13
 -1       277 1.99992E+01-2.27618E-03 2.85295E-06-2.65314E-03-3.26104E-13-1.23275E-14
 -1       278 1.99997E+01-4.62341E-03-2.61547E-06-3.34919E-03-2.21079E-13 6.40210E-13
 -1       279 2.00000E+01-7.02713E-03-2.20123E-06-3.17579E-03-3.40798E-13-4.96939E-13
 -1       280 2.00001E+01-9.12423E-03 2.99854E-06-2.55678E-03-3.95332E-13 4.23114E-14
 -1       281 2.00001E+01-1.06962E-02 6.89814E-06-1.82346E-03-5.14113E-13 6.83548E-15
 -1       282 2.00001E+01-1.17727E-02 8.98290E-06-1.13184E-03-3.99850E-13 3.80354E-13
 -1       283 2.00000E+01-1.23816E-02 9.73871E-06-5.47305E-04-2.53099E-13 1.38466E-13
 -1       284 2.00000E+01-1.25958E-02 9.96247E-06-3.51349E-05 1.17819E-13 5.33927E-13
 -1       285 2.00000E+01-1.24409E-02 9.90772E-06 4.85844E-04-1.22943E-13-2.52579E-13
 -1       286 2.00001E+01-1.18776E-02 9.14555E-06 1.09519E-03 1.44000E-13-4.81759E-13
 -1       287 2.00001E+01-1.08459E-02 6.95429E-06 1.80910E-03-1.18297E-13-2.53956E-13
 -1       288 2.00001E+01-9.24327E-03 2.95585E-06 2.58725E-03-2.63400E-13-1.36051E-13
 -1       289 2.00000E+01-7.12255E-03-3.87378E-06 3.23603E-03-3.33210E-13 1.76295E-13
 -1       290 1.99997E+01-4.62469E-03-2.70067E-06 3.32690E-03-1.52657E-13 2.68557E-13
 -1       291 1.99990E+01-2.46590E-03-1.06366E-05 3.61024E-03-2.46226E-14 1.16517E-13
 -1       292-6.54806E-01-9.69423E+00-8.13729E-01 1.52092E+00 3.55257E-13 3.79086E-13
 -1       293 2.72691E+00-8.45063E+00-8.09809E-01 3.39389E+00 5.65742E-13 6.74377E-13
 -1       294 9.25608E+00-4.75788E+00-4.97815E-01 5.55997E+00 6.74211E-13 1.04759E-12
 -1       295 1.83126E+01-8.40914E-01-1.03311E-01 7.21956E+00 1.01338E-12 1.05729E-12
 -1       296 2.90539E+01 1.95028E+00 2.74976E-01 6.92267E+00 9.89764E-13 7.47596E-13
 -1       297 3.80521E+01 4.86355E+00 6.46920E-01 5.82730E+00 9.18696E-13 5.77843E-13
 -1       298 4.48066E+01 6.25590E+00 9.67584E-01 3.44860E+00 7.49623E-13 4.44700E-13
 -1       299 4.58781E+01 6.83652E+00 9.41593E-01-3.57700E-01 4.40370E-13 2.04285E-13
 -1       300 4.24558E+01 6.26284E+00 7.73005E-01-3.48880E+00 4.32973E-13-1.00975E-13
 -1       301 3.62677E+01 4.46617E+00 6.24572E-01-6.86307E+00 6.21087E-13-4.32543E-13
 -1       302 2.65818E+01 1.97803E+00 2.52269E-01-7.76225E+00 7.35134E-13-6.19838E-13
 -1       303 1.63867E+01-1.58606E+00-1.88196E-01-6.94840E+00 8.42632E-13-6.62276E-13
 -1       304 8.33069E+00-5.84272E+00-4.85115E-01-5.57890E+00 5.53113E-13-5.83977E-13
 -1       305 1.58115E+00-9.22352E+00-8.51746E-01-2.91313E+00 4.00679E-13-7.00037E-13
 -1       306-1.09419E+00-1.06281E+01-9.33016E-01-8.23261E-01-3.03715E-14-7.30693E-13
 -1       307-4.86839E-01-1.07222E+01-9.82498E-01 1.40110E+00-4.95576E-13-8.12406E-13
 -1       308 4.29895E+00-7.70162E+00-6.59510E-01 4.21325E+00-8.27921E-13-8.66515E-13
 -1       309 1.10624E+01-4.26857E+00-4.59261E-01 5.78606E+00-1.13942E-12-9.43440E-13
 -1       310 2.02602E+01-4.82095E-01-5.36604E-02 7.26805E+00-1.15813E-12-1.05421E-12
 -1       311 3.04977E+01 2.34540E+00 3.42463E-01 7.05362E+00-9.82964E-13-9.41025E-13
 -1       312 3.94069E+01 4.95288E+00 7.42167E-01 6.04127E+00-8.12982E-13-7.86010E-13
 -1       313 4.25754E+01 6.74227E+00 6.51022E-01 1.84470E+00-7.59934E-13-1.38375E-13
 -1       314 4.71274E+01 6.73732E+00 1.04674E+00-4.87568E-01-7.44238E-13 2.75405E-14
 -1       315 4.30791E+01 6.14712E+00 8.03705E-01-3.15121E+00-9.59302E-13 3.74117E-13
 -1       316 3.73708E+01 4.38095E+00 6.59526E-01-6.47913E+00-1.14614E-12 1.04200E-12
 -1       317 2.80465E+01 1.97226E+00 2.68146E-01-7.45206E+00-1.10600E-12 1.40299E-12
 -1       318 1.85691E+01-2.10578E+00-1.41493E-01-6.81111E+00-1.05274E-12 1.18602E-12
 -1       319 8.75753E+00-5.31249E+00-5.43740E-01-5.23412E+00-9.62452E-13 1.16754E-12
 -1       320 2.49148E+00-8.57618E+00-7.81253E-01-3.30981E+00-5.51864E-13 1.12479E-12
 -1       321-8.54854E-01-1.02540E+01-8.83455E-01-9.97416E-01-1.10779E-13 7.12430E-13
 -1       322 2.02756E+01 3.03789E+00-2.17226E-02-1.85001E+00-2.96695E-13-2.21779E-13
 -1       323 2.09336E+01 2.20646E+00-1.68170E-02-2.14440E+00-3.17914E-13-1.68060E-14
 -1       324 1.95502E+01 3.82506E+00-1.47728E-02-1.09492E+00-1.72745E-13-4.20841E-13
 -1       325 1.93381E+01 4.02225E+00-1.25260E-02-7.49706E-01-1.23088E-13-4.46004E-13
 -1       326 1.92021E+01 4.14084E+00-1.12606E-02-4.35597E-01-4.31750E-14-4.41274E-13
 -1       327 1.91370E+01 4.19489E+00-1.07027E-02-1.40978E-01 2.95465E-14-4.32601E-13
 -1       328 1.91412E+01 4.19006E+00-1.07378E-02 1.48180E-01 9.63414E-14-4.15131E-13
 -1       329 1.92139E+01 4.12677E+00-1.13500E-02 4.46074E-01 1.53632E-13-4.30669E-13
 -1       330 1.93524E+01 4.00277E+00-1.26484E-02 7.60287E-01 1.99999E-13-4.03664E-13
 -1       331 1.95666E+01 3.79979E+00-1.48919E-02 1.11139E+00 2.69469E-13-3.22196E-13
 -1       332 1.98724E+01 3.48527E+00-1.84018E-02 1.49563E+00 3.34446E-13-2.36733E-13
 -1       333 2.03175E+01 2.98569E+00-2.23746E-02 1.88676E+00 3.76900E-13-9.22734E-14
 -1       334 2.09199E+01 2.12718E+00-2.96255E-02 2.11206E+00 3.77486E-13 1.73715E-13
 -1       335 2.12669E+01 1.17937E+00-2.36488E-02 1.75013E+00 3.29325E-13 4.26399E-13
 -1       336 2.06566E+01 4.99773E-01 8.93478E-03 7.41909E-01 2.57177E-13 3.25954E-13
 -1       337 2.07354E+01 7.06703E-01 1.31906E-02-7.79228E-01-2.60861E-13 2.27715E-14
 -1       338 2.04262E+01 3.94129E-01 7.85477E-03-1.59310E-01-2.05097E-13 8.54752E-15
 -1       339 2.03143E+01 2.57726E-01 5.03161E-03 2.26601E-01-1.53849E-13 9.72085E-15
 -1       340 2.03564E+01 1.94472E-01 2.98597E-03 4.98545E-01-1.09572E-13-4.28521E-14
 -1       341 2.05196E+01 1.65362E-01 2.07374E-03 7.12263E-01-8.64460E-14-6.57886E-14
 -1       342 2.07797E+01 1.49630E-01 1.59465E-03 8.94943E-01-5.91875E-14-8.35361E-14
 -1       343 2.11206E+01 1.31181E-01 1.11731E-03 1.05481E+00-5.26039E-15-9.80610E-14
 -1       344 2.15310E+01 9.20688E-02 3.51279E-04 1.18289E+00-3.51543E-14-9.69179E-14
 -1       345 2.20016E+01 9.64139E-03-9.23909E-04 1.25061E+00-9.20342E-14-1.22910E-13
 -1       346 2.25227E+01-1.41865E-01-2.79687E-03 1.20634E+00-5.58419E-14-4.77295E-14
 -1       347 2.30779E+01-3.80129E-01-5.04299E-03 9.76224E-01 2.18707E-14-6.83237E-14
 -1       348 2.36327E+01-6.85713E-01-7.09161E-03 4.79945E-01 3.52383E-14 3.07849E-14
 -1       349 2.41083E+01-9.51749E-01-7.62997E-03-3.16234E-01-3.13443E-14 1.57948E-13
 -1       350 2.43668E+01-9.61376E-01-7.55807E-03-1.30367E+00-5.97222E-14 1.03405E-13
 -1       351 2.42434E+01-4.49642E-01-7.86119E-03-2.11344E+00-1.45020E-14 5.13964E-14
 -1       352 2.37301E+01 5.78568E-01-1.15052E-02-2.15866E+00-5.59735E-14 7.90340E-14
 -1       353 2.31809E+01 1.57814E+00-1.09787E-02-1.09009E+00-2.70266E-13 7.29351E-14
 -1       354 2.30965E+01 1.73952E+00-1.21673E-02 6.44085E-01-3.04895E-13-8.45077E-14
 -1       355 2.35753E+01 9.31039E-01-1.07093E-02 2.01024E+00-1.87617E-13-2.79071E-13
 -1       356 2.41823E+01-1.77483E-01-5.54109E-03 2.28933E+00-8.29678E-14-3.19487E-13
 -1       357 2.44569E+01-8.57882E-01-6.39113E-03 1.66221E+00 1.21742E-13-1.90804E-13
 -1       358 2.43320E+01-9.83735E-01-8.13951E-03 6.86850E-01 9.71042E-14-1.39718E-13
 -1       359 2.39384E+01-7.63334E-01-8.01848E-03-1.75220E-01 6.17661E-14-1.37514E-13
 -1       360 2.34355E+01-4.50584E-01-5.90233E-03-7.46165E-01 3.70736E-14-5.42589E-15
 -1       361 2.29178E+01-1.85831E-01-3.38416E-03-1.03109E+00-5.30674E-14 5.72291E-14
 -1       362 2.24294E+01-9.43522E-03-1.26595E-03-1.10559E+00 4.06310E-15 7.75813E-14
 -1       363 2.19878E+01 8.80279E-02 1.64285E-04-1.05107E+00 1.19212E-13 3.73564E-14
 -1       364 2.15993E+01 1.30284E-01 9.63249E-04-9.30751E-01-7.47011E-14-1.16199E-13
 -1       365 2.12655E+01 1.39265E-01 1.30369E-03-7.86314E-01-1.81904E-13-1.11206E-13
 -1       366 2.09846E+01 1.30645E-01 1.35621E-03-6.42125E-01-1.92165E-13-1.73926E-13
 -1       367 2.07530E+01 1.14218E-01 1.25487E-03-5.10715E-01-1.80437E-13 2.65027E-14
 -1       368 2.05656E+01 9.55465E-02 1.08627E-03-3.97303E-01-2.43967E-15-1.32178E-13
 -1       369 2.04169E+01 7.75140E-02 9.00762E-04-3.02944E-01 5.36004E-14-2.12650E-13
 -1       370 2.03008E+01 6.14350E-02 7.24554E-04-2.26521E-01-6.88085E-14-2.06223E-13
 -1       371 2.02120E+01 4.77600E-02 5.69328E-04-1.65941E-01-1.00350E-13-7.65097E-14
 -1       372 2.01452E+01 3.64929E-02 4.38691E-04-1.18793E-01 1.40225E-13-2.22084E-13
 -1       373 2.00960E+01 2.74264E-02 3.32106E-04-8.27157E-02 3.17260E-13-3.36945E-13
 -1       374 2.00606E+01 2.02694E-02 2.47126E-04-5.55588E-02 2.31760E-13-6.17590E-14
 -1       375 2.00358E+01 1.47120E-02 1.80585E-04-3.54604E-02 1.04803E-13 8.32754E-14
 -1       376 2.00191E+01 1.04576E-02 1.29222E-04-2.08609E-02-3.28729E-14 3.96369E-13
 -1       377 2.00084E+01 7.23592E-03 8.98963E-05-1.04916E-02 1.77689E-13 3.42534E-13
 -1       378 2.00021E+01 4.80368E-03 5.97364E-05-3.35119E-03 1.71114E-13 4.38288E-13
 -1       379 1.99988E+01 2.93670E-03 3.61283E-05 1.31634E-03 1.60801E-13 5.07981E-13
 -1       380 1.99975E+01 1.42557E-03 1.80495E-05 4.03916E-03 4.55997E-14 3.20801E-13
 -1       381 1.99975E+01 4.99691E-05 2.86292E-06 5.16631E-03-1.35929E-13 3.01408E-14
 -1       382 1.99980E+01-1.19293E-03-1.70634E-05 4.92768E-03 1.75550E-14 1.08864E-13
 -1       383 2.02741E+01 2.53448E-01 1.12441E-02 1.82583E-01 1.84804E-13 2.55809E-13
 -1       384 2.01326E+01 1.51946E-01 6.78627E-03-1.42908E-01 1.26754E-13 1.69822E-13
 -1       385 2.01772E+01 1.02807E-01 3.53622E-03-3.51986E-01 9.53109E-14 1.25503E-13
 -1       386 2.03532E+01 7.54379E-02 1.91723E-03-4.97931E-01 6.49497E-14 1.31712E-13
 -1       387 2.06234E+01 5.50139E-02 1.03192E-03-6.03637E-01 9.59982E-14 8.69409E-14
 -1       388 2.09603E+01 3.19079E-02 3.01163E-04-6.74142E-01 1.61327E-13 7.81664E-14
 -1       389 2.13394E+01-2.19109E-03-5.45685E-04-7.01460E-01 1.13557E-13 7.01548E-14
 -1       390 2.17329E+01-5.48064E-02-1.59163E-03-6.66413E-01 4.70755E-15 6.34981E-14
 -1       391 2.21051E+01-1.30501E-01-2.77118E-03-5.41369E-01 1.44175E-14 6.39016E-14
 -1       392 2.24093E+01-2.25405E-01-3.83319E-03-2.97776E-01 2.79676E-14 3.93930E-14
 -1       393 2.25872E+01-3.18818E-01-4.37783E-03 7.72810E-02 9.27346E-14 9.77614E-15
 -1       394 2.25764E+01-3.66228E-01-3.89576E-03 5.53890E-01 7.43763E-16 3.29554E-14
 -1       395 2.23315E+01-3.05580E-01-2.13456E-03 1.02950E+00-4.16399E-14 1.79266E-14
 -1       396 2.18645E+01-9.31847E-02 2.48267E-04 1.32394E+00 5.70933E-14 1.87181E-14
 -1       397 2.12906E+01 2.36697E-01 2.39658E-03 1.24143E+00 1.29865E-13-6.51224E-14
 -1       398 2.08268E+01 5.43081E-01 4.21757E-03 7.04405E-01 9.00569E-14-6.44428E-15
 -1       399 2.06947E+01 6.47362E-01 4.10666E-03-1.30889E-01 1.39598E-14-1.74238E-13
 -1       400 2.09718E+01 4.82676E-01 4.04307E-03-9.20771E-01-5.56803E-15-1.08338E-13
 -1       401 2.15257E+01 1.57636E-01 3.94153E-03-1.35201E+00 4.77832E-14-2.75749E-13
 -1       402 2.21208E+01-1.51775E-01 1.22136E-03-1.33121E+00 6.81678E-14-3.88215E-13
 -1       403 2.25633E+01-3.25052E-01-2.14272E-03-9.79950E-01 5.07355E-14-3.08521E-13
 -1       404 2.27742E+01-3.52473E-01-4.27397E-03-5.01356E-01-6.38721E-14-4.00331E-13
 -1       405 2.27656E+01-2.86956E-01-4.71084E-03-5.85390E-02-1.98958E-13-3.17988E-13
 -1       406 2.25932E+01-1.88942E-01-3.96333E-03 2.67204E-01-1.21229E-13-2.05609E-13
 -1       407 2.23199E+01-9.74583E-02-2.65805E-03 4.61556E-01 1.03386E-13-8.01031E-14
 -1       408 2.19988E+01-2.87481E-02-1.36178E-03 5.45804E-01 4.58193E-14 2.58129E-14
 -1       409 2.16692E+01 1.53790E-02-3.43834E-04 5.52395E-01 1.73812E-13 1.05987E-13
 -1       410 2.13565E+01 3.94721E-02 3.31492E-04 5.11674E-01 1.72676E-13 1.21139E-13
 -1       411 2.10756E+01 4.95224E-02 7.07772E-04 4.46943E-01 5.33099E-14-2.62055E-13
 -1       412 2.08334E+01 5.07695E-02 8.64614E-04 3.74015E-01-4.67770E-14-4.67931E-13
 -1       413 2.06313E+01 4.70884E-02 8.79447E-04 3.02560E-01-2.15178E-13-4.40524E-13
 -1       414 2.04672E+01 4.10719E-02 8.13112E-04 2.37819E-01-3.43534E-14-1.29877E-13
 -1       415 2.03372E+01 3.43250E-02 7.07945E-04 1.82100E-01 1.22312E-13 2.08742E-13
 -1       416 2.02366E+01 2.77658E-02 5.90801E-04 1.35910E-01 9.42806E-14 1.93233E-13
 -1       417 2.01606E+01 2.18648E-02 4.77231E-04 9.87374E-02 5.60855E-14-1.09348E-15
 -1       418 2.01045E+01 1.68158E-02 3.75232E-04 6.95629E-02 1.08818E-13-4.96060E-14
 -1       419 2.00641E+01 1.26500E-02 2.88054E-04 4.71761E-02-3.25568E-13-5.12578E-13
 -1       420 2.00361E+01 9.30953E-03 2.16126E-04 3.03638E-02-3.74230E-14-3.49170E-13
 -1       421 2.00174E+01 6.69233E-03 1.58305E-04 1.80118E-02 8.44351E-14-1.46296E-13
 -1       422 2.00057E+01 4.67851E-03 1.12618E-04 9.15608E-03 2.98917E-14-1.44486E-13
 -1       423 1.99990E+01 3.14428E-03 7.67121E-05 3.00223E-03 3.07876E-13 8.51988E-14
 -1       424 1.99959E+01 1.96707E-03 4.81438E-05-1.07025E-03 2.02660E-13-1.84419E-14
 -1       425 1.99952E+01 1.02039E-03 2.57486E-05-3.51034E-03 1.58184E-13 2.85703E-14
 -1       426 1.99959E+01 1.76455E-04 8.55505E-06-4.58804E-03 1.56217E-13-1.22670E-13
 -1       427 1.99972E+01-7.19639E-04-7.91773E-07-4.41493E-03 1.91757E-13 1.37924E-13
 -1       428 1.99983E+01-1.46430E-03-9.74371E-06-3.75653E-03-4.12618E-14 7.01107E-14
 -1       429 2.00008E+01-3.55609E-03 6.07852E-06-4.03499E-03-2.55932E-13-2.73989E-13
 -1       430 2.00002E+01-2.90886E-03-5.42313E-06-4.74701E-03-3.22872E-13 4.20035E-14
 -1       431 1.99993E+01-2.39301E-03-1.31375E-05-4.65722E-03 3.79368E-14 3.87202E-13
 -1       432 2.00009E+01-3.86715E-03 1.01237E-05-2.99121E-03-2.88139E-13-1.71900E-13
 -1       433 2.00008E+01-3.94865E-03 1.07020E-05-1.94756E-03-2.40637E-13 2.97103E-13
 -1       434 2.00007E+01-3.91226E-03 1.04872E-05-1.07779E-03-1.87723E-14 3.13773E-13
 -1       435 2.00005E+01-3.87347E-03 1.02574E-05-3.78370E-04-2.00752E-13 3.64184E-13
 -1       436 2.00006E+01-3.90023E-03 1.03712E-05 2.61764E-04-3.72549E-13 1.81489E-13
 -1       437 2.00007E+01-3.98740E-03 1.08461E-05 9.89132E-04-1.82771E-13-1.26825E-13
 -1       438 2.00009E+01-4.05668E-03 1.09164E-05 1.89060E-03 9.28606E-14-5.20581E-13
 -1       439 2.00010E+01-3.99374E-03 9.26447E-06 2.98938E-03 1.03299E-13 6.20245E-14
 -1       440 2.00008E+01-3.66169E-03 4.92330E-06 4.10363E-03 3.42795E-13 4.74942E-14
 -1       441 2.00002E+01-3.04527E-03-7.68928E-06 4.92262E-03 6.60992E-14 2.51817E-13
 -1       442 1.00555E+01-5.57548E+00-7.18754E-02 6.83678E+00 1.42136E-13 6.53519E-13
 -1       443 1.84683E+00-3.27853E+00 5.41147E-02 1.38995E-01 3.91408E-14 6.14425E-13
 -1       444 4.47485E+00-4.45751E+00 2.90535E-03 4.87579E+00 1.50782E-13 6.84980E-13
 -1       445 1.93048E+01-5.36750E+00 2.04992E-02 6.66832E+00-1.59164E-13 3.19338E-13
 -1       446 2.57194E+01-3.87848E+00-3.40008E-02 4.53734E+00 1.02959E-13 1.08469E-13
 -1       447 1.98512E+01 3.51881E+00-1.82445E-02-1.47222E+00-2.38612E-13-3.47043E-13
 -1       448 3.50301E+01 5.33370E+00 7.32240E-02 1.85658E-01 7.09460E-13 1.11702E-13
 -1       449 3.64134E+01 7.76271E+00 1.06526E-01-3.79792E-02 6.22030E-13 1.63002E-13
 -1       450 3.39943E+01 7.51336E+00-5.58068E-02 4.53276E-01 5.97467E-13-1.33366E-14
 -1       451 3.32127E+01 3.75835E+00-4.31652E-02 1.53575E-01 4.22426E-13 1.82354E-14
 -1       452 3.15011E+01 1.79780E-01 3.03205E-02-1.84817E+00 4.64537E-13 3.27793E-14
 -1       453 2.49900E+01-3.62388E+00-7.69965E-03-5.21380E+00 3.02286E-13-9.84490E-14
 -1       454 1.74548E+01-5.46137E+00-2.24186E-02-6.93905E+00 7.81042E-14-2.14460E-13
 -1       455 9.00347E+00-5.03440E+00 2.94712E-02-6.73281E+00-1.97245E-13-4.61547E-13
 -1       456 2.60092E+00-5.00644E+00-8.96176E-02-3.70868E+00-1.17517E-13-8.67209E-13
 -1       457 1.36932E+00-4.38156E+00-4.83729E-02 9.88299E-01-1.19266E-13-8.60284E-13
 -1       458 4.45477E+00-5.10853E+00-7.74801E-02 4.79899E+00-1.29716E-13-8.85722E-13
 -1       459 1.26207E+01-5.78421E+00-4.56560E-02 6.97026E+00-2.92544E-13-5.30295E-13
 -1       460 2.02444E+01-5.12770E+00-4.21699E-02 6.32347E+00-4.07008E-13-4.20108E-13
 -1       461 2.75505E+01-2.83760E+00 1.05962E-03 4.21282E+00-4.57426E-13-1.64743E-13
 -1       462 3.31915E+01 1.29013E+00 7.78078E-02 1.59796E+00-5.71220E-13-1.58928E-13
 -1       463 3.51310E+01 4.87306E+00 4.49070E-02-2.22833E-01-7.74325E-13 5.66630E-14
 -1       464 3.51079E+01 7.84016E+00-2.18049E-02-1.23169E-01-7.70939E-13 1.91128E-13
 -1       465 3.51340E+01 7.34312E+00 1.01696E-02 5.74982E-01-8.54539E-13 1.90466E-13
 -1       466 3.48015E+01 3.98487E+00 6.31622E-02-9.45337E-02-9.60843E-13 8.10463E-14
 -1       467 3.24650E+01 5.16980E-01 6.91749E-02-2.02676E+00-7.65085E-13 2.50328E-13
 -1       468 2.66542E+01-3.49537E+00 4.32414E-03-4.33328E+00-4.15890E-13 5.45466E-13
 -1       469 1.79617E+01-5.67014E+00-4.35618E-02-6.64062E+00-1.36668E-13 7.79758E-13
 -1       470 1.04661E+01-5.61780E+00-4.26187E-02-6.70471E+00-5.49144E-14 7.81895E-13
 -1       471 3.87993E+00-4.39741E+00 8.42258E-03-4.16728E+00-7.93809E-14 1.20823E-12
 -1       472 3.18226E+01 8.10183E-01 8.63433E-03 1.29017E+00 6.09568E-13-3.73729E-14
 -1       473 3.16568E+01 6.36789E+00-1.29946E-01-1.30092E+00-8.54580E-13 1.40825E-13
 -1       474 2.06318E+01 8.85048E-01 4.17052E-03 6.86277E-01 2.52446E-13 2.51215E-14
 -1       475 1.95091E+01 3.39010E+00-4.84569E-03-4.61189E-01-8.83340E-14-3.97097E-13
 -1       476 1.97017E+01 3.16805E+00-5.58207E-03-7.07180E-01-1.38982E-13-3.89013E-13
 -1       477 1.93612E+01 3.54833E+00-4.34598E-03-2.15618E-03 6.46280E-14-3.68777E-13
 -1       478 1.94068E+01 3.49858E+00-4.46538E-03 2.26252E-01 1.25469E-13-3.75858E-13
 -1       479 1.95269E+01 3.36541E+00-4.87696E-03 4.61419E-01 1.79526E-13-3.94982E-13
 -1       480 1.97230E+01 3.13507E+00-5.56497E-03 7.14623E-01 2.46223E-13-3.23167E-13
 -1       481 1.99913E+01 2.78829E+00-6.31827E-03 9.73003E-01 2.83679E-13-2.40350E-13
 -1       482 2.03421E+01 2.27999E+00-5.62852E-03 1.20920E+00 3.19196E-13-1.49102E-13
 -1       483 2.04568E+01 5.35154E-01 5.41457E-03 1.18477E-01 1.97982E-13-1.40260E-14
 -1       484 2.05770E+01 1.07382E+00 3.16867E-03-5.95997E-01-2.25469E-13-1.32767E-13
 -1       485 2.82874E+01-3.05557E+00-6.70810E-02 6.31711E-01-1.67288E-14-2.66939E-13
 -1       486 2.04766E+01 6.93493E-01 2.76680E-03-3.73370E-02-1.65892E-13-1.20249E-13
 -1       487 2.04200E+01 4.95594E-01 1.35828E-03 3.76770E-01-1.54536E-13-1.10628E-13
 -1       488 2.04304E+01 3.96108E-01 9.58963E-04 6.97652E-01-1.27410E-13-1.04324E-13
 -1       489 2.05065E+01 3.43929E-01 7.59575E-04 9.63426E-01-8.00408E-14-9.91905E-14
 -1       490 2.06425E+01 3.06297E-01 6.16848E-04 1.19534E+00-6.97022E-14-1.03040E-13
 -1       491 2.08371E+01 2.51991E-01 3.99130E-04 1.39849E+00-7.91876E-15-1.01686E-13
 -1       492 2.10985E+01 1.43986E-01-7.44727E-06 1.56087E+00-6.73063E-14-8.52393E-14
 -1       493 2.14490E+01-6.31067E-02-6.77558E-04 1.64970E+00 2.18993E-15 1.90731E-15
 -1       494 2.19281E+01-4.15872E-01-1.54892E-03 1.60588E+00 1.56753E-14 7.92399E-14
 -1       495 2.25851E+01-9.33768E-01-2.47611E-03 1.34046E+00 4.91583E-14 6.33286E-14
 -1       496 2.34558E+01-1.54750E+00-3.31171E-03 7.38800E-01 8.76982E-14 3.52007E-14
 -1       497 2.44477E+01-1.96841E+00-4.93393E-03-2.64639E-01-5.56287E-14 1.81935E-13
 -1       498 2.53219E+01-1.70981E+00-1.50882E-02-1.56254E+00-8.26427E-14 2.34071E-13
 -1       499 2.55531E+01-2.36468E-01-2.54632E-02-2.50679E+00-9.34218E-14 1.57584E-13
 -1       500 2.53150E+01 2.04801E+00-4.64894E-02-2.28073E+00-2.14283E-13 4.42354E-16
 -1       501 2.47734E+01 3.64535E+00-1.08490E-01-3.51401E-01-4.75286E-13-5.08192E-14
 -1       502 2.51141E+01 2.75199E+00-7.27339E-02 1.86600E+00-3.63383E-13-2.39922E-13
 -1       503 2.55185E+01 5.06615E-01-6.19889E-02 2.74456E+00-1.82219E-13-3.30438E-13
 -1       504 2.55395E+01-1.36890E+00-1.00491E-02 2.04901E+00 1.29475E-14-2.81784E-13
 -1       505 2.48065E+01-1.98508E+00-9.93763E-03 7.48771E-01 1.90923E-13-1.63287E-13
 -1       506 2.38257E+01-1.68605E+00-5.71205E-03-3.67763E-01 1.32274E-13-8.96308E-14
 -1       507 2.29220E+01-1.08489E+00-3.80035E-03-1.07199E+00 3.58226E-14-1.33325E-13
 -1       508 2.22205E+01-5.21480E-01-2.21523E-03-1.40762E+00 6.46610E-15-9.52970E-14
 -1       509 2.17109E+01-1.18575E-01-9.43509E-04-1.48923E+00 1.56942E-13 1.30403E-13
 -1       510 2.13423E+01 1.22315E-01-1.17561E-04-1.41848E+00 2.47557E-14 1.38486E-13
 -1       511 2.10668E+01 2.41427E-01 3.49371E-04-1.26860E+00 6.07019E-14 1.81481E-13
 -1       512 2.08520E+01 2.82143E-01 5.69028E-04-1.08709E+00-1.31090E-13 3.31398E-13
 -1       513 2.06785E+01 2.78016E-01 6.22449E-04-9.02527E-01-2.19105E-13 4.49050E-13
 -1       514 2.05359E+01 2.51403E-01 5.88997E-04-7.30657E-01-2.44803E-13 2.38876E-13
 -1       515 2.04183E+01 2.15844E-01 5.16179E-04-5.78998E-01-2.17287E-13 3.67262E-14
 -1       516 2.03217E+01 1.78922E-01 4.31346E-04-4.50046E-01-4.52835E-14 4.73164E-14
 -1       517 2.02434E+01 1.44509E-01 3.48826E-04-3.43402E-01-4.21944E-14-1.45961E-13
 -1       518 2.01809E+01 1.14302E-01 2.75213E-04-2.57151E-01 3.77539E-15 7.93319E-16
 -1       519 2.01318E+01 8.87894E-02 2.12790E-04-1.88712E-01 4.36237E-14 9.22194E-14
 -1       520 2.00939E+01 6.78283E-02 1.61599E-04-1.35334E-01 1.13395E-13 3.84834E-14
 -1       521 2.00652E+01 5.09741E-02 1.20636E-04-9.43798E-02 3.52032E-13 1.13967E-14
 -1       522 2.00439E+01 3.76641E-02 8.84930E-05-6.34680E-02 3.11328E-13 1.48656E-13
 -1       523 2.00285E+01 2.73142E-02 6.36340E-05-4.05351E-02 1.44833E-13 8.48299E-14
 -1       524 2.00177E+01 1.93664E-02 4.46202E-05-2.38519E-02-8.31691E-14 1.59933E-17
 -1       525 2.00103E+01 1.33133E-02 3.01230E-05-1.20113E-02 2.34812E-13 1.00127E-13
 -1       526 2.00054E+01 8.68968E-03 1.91497E-05-3.89897E-03 9.29763E-14 3.21820E-13
 -1       527 2.00025E+01 5.06086E-03 1.12546E-05 1.31460E-03-2.13657E-14 1.35124E-13
 -1       528 2.00008E+01 2.03317E-03 5.62327E-06 4.22131E-03-1.91036E-13 9.80388E-14
 -1       529 2.04003E+01 2.49228E-01 1.48843E-03-5.36724E-01 7.69104E-14-5.15699E-14
 -1       530 2.05063E+01 1.83068E-01 8.15757E-04-7.35798E-01 1.14231E-13-6.18530E-14
 -1       531 2.06828E+01 1.24768E-01 3.87309E-04-8.80824E-01 1.22505E-13-8.49780E-14
 -1       532 2.09186E+01 5.28773E-02-7.02440E-05-9.72818E-01 1.21433E-13-1.89461E-14
 -1       533 2.12057E+01-5.17504E-02-6.72430E-04-9.97719E-01 4.19589E-14 4.97115E-14
 -1       534 2.15373E+01-2.04501E-01-1.44752E-03-9.27926E-01 4.62898E-14 3.75969E-15
 -1       535 2.19039E+01-4.09125E-01-2.33576E-03-7.26140E-01 6.87304E-14-2.84038E-14
 -1       536 2.22836E+01-6.42038E-01-3.10382E-03-3.56339E-01 5.56518E-14-9.91338E-15
 -1       537 2.26297E+01-8.32013E-01-3.47013E-03 1.91543E-01 2.53225E-14-6.64480E-14
 -1       538 2.28609E+01-8.50737E-01-2.81396E-03 8.59676E-01-6.36741E-14-4.62996E-14
 -1       539 2.28758E+01-5.48799E-01-8.61940E-04 1.47376E+00-3.38634E-14 2.33212E-14
 -1       540 2.26262E+01 1.19967E-01 2.10699E-04 1.74149E+00 1.01259E-13 5.04073E-14
 -1       541 2.22209E+01 9.51957E-01-1.07661E-04 1.38670E+00 1.51682E-13 9.47048E-14
 -1       542 2.19328E+01 1.50416E+00 7.07081E-04 4.07416E-01 1.27510E-13 2.98008E-14
 -1       543 2.19874E+01 1.41346E+00-4.75260E-03-7.85949E-01 4.36292E-14 3.71393E-15
 -1       544 2.23626E+01 7.33850E-01-1.56501E-03-1.61543E+00 1.40789E-13-8.98821E-14
 -1       545 2.27694E+01-8.79203E-02 2.62375E-04-1.79033E+00 1.00885E-13-2.42527E-13
 -1       546 2.29672E+01-6.54702E-01-1.08850E-03-1.40319E+00 8.06684E-14-1.83410E-13
 -1       547 2.29061E+01-8.50978E-01-2.79270E-03-7.64531E-01 6.47018E-14-1.10965E-13
 -1       548 2.26585E+01-7.65119E-01-3.31553E-03-1.35926E-01-1.29558E-13-3.16556E-13
 -1       549 2.23245E+01-5.49819E-01-3.04295E-03 3.44157E-01-2.16531E-13-3.65942E-13
 -1       550 2.19753E+01-3.19635E-01-2.12224E-03 6.44376E-01-7.00428E-14-3.28262E-13
 -1       551 2.16468E+01-1.31622E-01-1.15635E-03 7.88319E-01 3.30208E-14-3.17906E-13
 -1       552 2.13530E+01-1.43794E-03-3.85431E-04 8.17956E-01 4.87606E-14-2.51709E-13
 -1       553 2.10968E+01 7.65420E-02 1.32472E-04 7.74415E-01 9.66308E-14-1.20605E-13
 -1       554 2.08771E+01 1.15198E-01 4.28760E-04 6.90497E-01 2.20543E-13 1.00240E-13
 -1       555 2.06913E+01 1.27504E-01 5.62199E-04 5.89466E-01 9.67785E-14 8.03395E-14
 -1       556 2.05365E+01 1.23863E-01 5.89010E-04 4.86372E-01-9.56446E-14-1.40144E-14
 -1       557 2.04095E+01 1.11687E-01 5.53350E-04 3.90042E-01-2.14781E-13 1.12193E-14
 -1       558 2.03070E+01 9.58420E-02 4.86466E-04 3.04963E-01-6.62505E-14 5.21495E-15
 -1       559 2.02256E+01 7.93037E-02 4.08527E-04 2.32789E-01 6.04787E-14-5.49616E-14
 -1       560 2.01622E+01 6.37445E-02 3.31401E-04 1.73449E-01 2.14078E-13 1.67212E-15
 -1       561 2.01136E+01 4.99892E-02 2.61344E-04 1.25908E-01 9.50750E-14-4.74878E-14
 -1       562 2.00772E+01 3.83376E-02 2.01059E-04 8.86799E-02 1.89020E-13 3.13785E-14
 -1       563 2.00506E+01 2.87804E-02 1.51126E-04 6.01363E-02-2.42474E-13-1.73453E-13
 -1       564 2.00315E+01 2.11391E-02 1.10936E-04 3.87015E-02-8.42220E-14-2.71658E-13
 -1       565 2.00184E+01 1.51528E-02 7.92672E-05 2.29547E-02 2.90349E-14-2.04695E-13
 -1       566 2.00097E+01 1.05290E-02 5.45845E-05 1.16814E-02 6.74408E-14-1.64526E-13
 -1       567 2.00042E+01 6.97005E-03 3.51343E-05 3.89144E-03 2.60607E-13 6.41265E-14
 -1       568 2.00011E+01 4.18346E-03 2.08197E-05-1.17900E-03 2.06075E-13 5.53306E-14
 -1       569 1.99996E+01 1.87518E-03 8.32200E-06-4.10236E-03 2.49558E-13 5.36060E-14
 -1       570 1.99992E+01-2.50995E-04-1.12950E-06-5.23847E-03-2.13043E-14 2.22471E-13
 -1       571 2.00019E+01 2.65525E-03 3.08230E-06-1.94488E-03 9.04205E-14 2.51481E-13
 -1       572 2.00015E+01 3.80420E-03 4.26906E-06-1.03545E-03 2.38876E-13 5.44453E-13
 -1       573 2.00014E+01 3.25525E-04-4.71689E-06-4.38209E-03-4.81826E-14-3.89083E-13
 -1       574 2.00019E+01 1.40586E-03 1.16008E-06-3.13078E-03-1.50222E-13-1.20323E-13
 -1       575 2.00011E+01 4.58936E-03 4.43637E-06-4.58630E-04-6.78681E-14 5.25910E-14
 -1       576 2.00010E+01 4.85081E-03 4.46833E-06-8.44892E-05-1.51341E-13 2.53489E-13
 -1       577 2.00012E+01 4.53170E-03 4.64617E-06 3.08211E-04-1.68820E-13 1.32669E-13
 -1       578 2.00016E+01 3.71727E-03 4.65445E-06 9.25542E-04 4.25907E-14-1.57513E-13
 -1       579 2.00020E+01 2.54702E-03 3.30792E-06 1.90742E-03 3.12910E-13-3.15894E-13
 -1       580 2.00021E+01 1.31639E-03 6.11012E-07 3.19728E-03 3.54399E-13 2.82159E-13
 -1       581 2.00014E+01 2.95395E-04-1.05037E-07 4.44860E-03 2.02762E-13-1.09534E-13
 -1       582 6.53588E+00-1.01079E+00 1.80806E-01 3.04317E+00 4.96062E-14 6.16798E-13
 -1       583 1.63600E+01-5.01132E+00 7.79689E-02 6.81651E+00-3.14325E-13 2.25910E-13
 -1       584 2.03796E+01 3.51056E-01 2.88305E-03-2.65480E-01 1.40279E-13-4.89551E-14
 -1       585 6.24360E+00-1.07295E+00 1.93860E-01-2.49000E+00 1.84432E-13 9.90014E-13
 -1       586 2.40464E+01-5.32825E+00 2.31592E-02 4.43879E+00-2.76792E-13 8.39259E-14
 -1       587 2.05648E+01 1.82242E+00-5.14294E-03-1.23146E+00-2.94197E-13-1.73681E-13
 -1       588 2.93746E+01-2.84364E+00-4.33009E-02-6.77557E-01-9.14668E-14-3.46126E-13
 -1       589 2.98021E+01-2.36096E+00-5.59285E-02 5.36688E-01-2.18014E-13 1.67491E-13
 -1       590 2.98985E+01 4.94235E+00-1.64050E-01 1.70778E+00 4.33986E-13 1.18933E-13
 -1       591 1.93952E+01 3.51342E+00-4.46102E-03-2.28164E-01 1.66534E-15-3.86607E-13
 -1       592 3.00852E+01 7.38303E+00-1.65513E-01-2.10919E-01 7.20285E-13 8.30473E-14
 -1       593 2.32420E+01-5.49317E+00 2.15572E-02-5.09941E+00-1.51830E-13 6.05835E-14
 -1       594 3.05131E+01 6.09880E+00-1.53888E-01-1.38732E+00 6.47857E-13 2.79221E-14
 -1       595 3.00235E+01 5.28963E-01-1.04885E-01 1.01386E+00 3.11497E-13 2.01297E-13
 -1       596 2.41868E+01-5.55409E+00 1.51686E-02-4.43267E+00 1.22520E-13 6.17700E-14
 -1       597 2.81859E+01-3.36840E+00-4.64722E-02-1.87941E+00 7.92214E-14 2.08299E-13
 -1       598 1.61447E+01-5.09025E+00 8.31148E-02-6.93034E+00-3.14762E-13-1.13250E-13
 -1       599 7.93857E+00-2.41881E+00 1.69031E-01-5.01119E+00-3.08829E-13-6.03198E-13
 -1       600 4.90591E+00-1.27866E+00 1.88967E-01-1.21343E+00-1.97937E-13-7.63917E-13
 -1       601 5.70356E+00-2.02217E+00 1.63244E-01 3.32959E+00-4.20497E-14-8.06438E-13
 -1       602 1.11913E+01-4.01284E+00 1.12475E-01 6.48802E+00 1.41512E-13-6.17312E-13
 -1       603 1.93057E+01-5.71001E+00 6.11323E-02 6.35068E+00 3.02536E-15-1.64778E-13
 -1       604 2.53220E+01-5.25817E+00-3.22923E-03 4.06113E+00-1.72133E-13 6.70297E-14
 -1       605 3.08751E+01 1.70239E+00-1.11602E-01-1.55937E+00-4.96575E-13 3.81521E-13
 -1       606 3.04815E+01 6.86283E+00-1.87660E-01 4.27397E-01-8.24008E-13-3.14592E-14
 -1       607 3.09332E+01 4.69352E+00-1.41568E-01 1.98809E+00-8.01803E-13-1.28689E-13
 -1       608 3.07151E+01 2.55408E-01-1.11164E-01 1.24870E+00-4.21080E-13-2.51230E-13
 -1       609 1.65095E+01-5.25878E+00 7.54986E-02-6.66499E+00 2.62804E-13 6.46420E-13
 -1       610 9.62428E+00-3.15483E+00 1.45353E-01-5.77250E+00 1.71273E-13 6.73406E-13
 -1       611 3.06368E+01 2.62431E+00-1.12829E-01-1.49365E+00 5.01384E-13-1.27696E-13
 -1       612 2.07975E+01 1.32797E+00-8.35199E-04 1.30626E+00 3.13738E-13 8.59037E-14
 -1       613 1.08069E+01-3.24373E+00 1.61602E-01 6.29523E+00-1.80259E-13 2.50557E-13
 -1       614 1.99694E+01 2.82691E+00-6.31880E-03-9.56497E-01-1.86471E-13-3.48742E-13
 -1       615 2.02541E+01 2.39891E+00-5.58128E-03-1.13399E+00-2.40780E-13-2.80687E-13
 -1       616 2.90854E+01 3.50311E+00-1.11849E-01-2.48943E+00-4.35645E-13 3.10887E-13
 -1       617 1.32734E+01-3.14426E+00 1.29734E-01-6.14875E+00-3.94334E-13-2.30566E-13
 -1       618 2.76757E+01 5.91826E+00-1.62434E-01 1.05562E+00 4.70637E-13-7.66054E-15
 -1       619 2.00001E+01 1.19677E-04-2.80094E-07 5.13087E-03-1.34056E-13 3.48790E-13
 -1       620 1.96322E+01 2.83463E+00-1.41045E-03 2.10322E-01 1.39460E-13-3.24740E-13
 -1       621 1.95403E+01 2.94554E+00-1.31799E-03 6.07762E-02 8.76908E-14-3.10217E-13
 -1       622 2.00281E+01 2.29984E+00-1.53701E-03 5.20082E-01 2.50551E-13-2.50764E-13
 -1       623 2.02904E+01 1.85108E+00-2.11912E-03 6.39803E-01 2.71675E-13-1.95802E-13
 -1       624 2.05006E+01 1.16560E+00 2.82379E-03 4.64143E-01 2.30053E-13-1.38739E-13
 -1       625 7.88008E+00-1.93965E-01 1.62123E-01 1.26713E+00-1.30668E-14-6.44512E-13
 -1       626 1.56195E+01-3.39938E+00 9.25070E-02 5.99039E+00-3.30954E-13 1.40249E-13
 -1       627 1.06656E+01-1.18821E+00 1.34722E-01-4.24535E+00 2.25242E-13 8.24590E-13
 -1       628 2.85615E+01-1.81498E+00-7.51461E-02 1.47490E+00-4.27106E-14-4.34146E-13
 -1       629 2.03752E+01 9.43357E-01-4.59844E-04 1.35560E-01-1.43096E-13-1.99739E-13
 -1       630 2.03261E+01 7.32049E-01 3.52899E-04 5.28444E-01-1.31359E-13-1.67908E-13
 -1       631 2.02871E+01 6.13859E-01 2.37370E-04 8.54034E-01-8.04823E-14-1.57899E-13
 -1       632 2.02693E+01 5.43816E-01 2.31653E-04 1.13800E+00-8.19328E-14-1.47216E-13
 -1       633 2.02794E+01 4.80243E-01 2.15107E-04 1.39630E+00-1.33107E-14-1.47130E-13
 -1       634 2.03317E+01 3.77537E-01 1.64885E-04 1.63533E+00 1.33573E-15-3.53919E-14
 -1       635 2.04572E+01 1.79132E-01 6.01217E-05 1.84970E+00 4.19172E-14 7.71823E-14
 -1       636 2.07156E+01-1.84141E-01 2.55685E-05 2.01702E+00 3.83212E-14 8.91798E-14
 -1       637 2.12064E+01-7.82337E-01 6.48968E-04 2.08526E+00 2.81837E-14 5.85905E-14
 -1       638 2.20603E+01-1.63415E+00 2.24313E-03 1.94541E+00 6.61809E-14 1.11521E-13
 -1       639 2.34508E+01-2.62599E+00-9.52389E-03 1.38763E+00 1.50981E-13 1.84283E-13
 -1       640 2.52425E+01-3.19599E+00-1.21282E-02 2.31754E-01 9.81550E-15 3.17637E-13
 -1       641 2.69022E+01-2.35613E+00-5.09299E-02-1.50320E+00-6.70609E-14 4.70703E-13
 -1       642 2.69394E+01 5.08791E+00-1.68488E-01 1.07758E+00-6.18908E-13-1.55679E-13
 -1       643 2.78903E+01 2.23158E+00-1.20159E-01 2.73156E+00-3.94171E-13-4.52166E-13
 -1       644 2.39222E+01-2.83299E+00 5.60996E-03-1.04741E+00 2.29725E-13-8.35202E-14
 -1       645 2.24372E+01-1.89172E+00 7.27829E-04-1.71848E+00 1.22441E-13 5.59337E-14
 -1       646 2.14423E+01-9.65323E-01-2.39454E-04-1.92852E+00 1.72974E-13 1.30881E-13
 -1       647 2.08561E+01-2.87273E-01-1.20622E-04-1.88951E+00 2.16045E-13 3.25532E-13
 -1       648 2.05355E+01 1.32958E-01-2.79500E-06-1.73082E+00 1.19277E-13 3.08848E-13
 -1       649 2.03675E+01 3.54686E-01 1.14726E-04-1.52251E+00-2.85282E-14 1.51759E-13
 -1       650 2.02789E+01 4.44447E-01 2.15413E-04-1.30119E+00-7.60204E-14 1.31378E-14
 -1       651 2.02277E+01 4.55095E-01 2.30094E-04-1.08651E+00-1.14920E-14 2.00571E-13
 -1       652 2.01927E+01 4.23075E-01 2.12599E-04-8.89084E-01-2.69457E-13 1.73301E-13
 -1       653 2.01645E+01 3.71451E-01 1.83291E-04-7.14222E-01-2.14898E-13 3.88330E-13
 -1       654 2.01392E+01 3.13887E-01 1.51746E-04-5.63811E-01-2.74636E-13 3.60115E-13
 -1       655 2.01159E+01 2.57910E-01 1.22148E-04-4.37518E-01-1.43429E-13 2.29302E-13
 -1       656 2.00947E+01 2.07259E-01 9.62000E-05-3.33659E-01-1.80044E-14 1.01790E-13
 -1       657 2.00758E+01 1.63442E-01 7.43795E-05-2.49821E-01-6.64915E-14-2.31011E-14
 -1       658 2.00595E+01 1.26708E-01 5.65483E-05-1.83297E-01 6.62210E-14-1.13019E-13
 -1       659 2.00459E+01 9.66420E-02 4.22893E-05-1.31368E-01 2.18586E-13-2.02727E-13
 -1       660 2.00346E+01 7.25126E-02 3.10968E-05-9.14825E-02 3.52933E-13-2.36441E-13
 -1       661 2.00256E+01 5.34713E-02 2.24781E-05-6.13492E-02 1.13625E-13-6.67109E-14
 -1       662 2.00186E+01 3.86567E-02 1.57599E-05-3.89867E-02-5.00879E-14-3.01356E-13
 -1       663 2.00131E+01 2.72470E-02 9.85264E-06-2.27426E-02 2.89408E-13 6.50480E-15
 -1       664 2.00089E+01 1.85208E-02 6.23301E-06-1.12581E-02 1.74252E-13-2.43406E-13
 -1       665 2.00058E+01 1.17564E-02 8.39515E-06-3.46150E-03-1.87336E-13-3.17375E-13
 -1       666 2.00036E+01 6.33272E-03 3.59501E-07 1.40088E-03-1.02323E-13-5.13483E-13
 -1       667 2.04584E+01 3.02950E-01 2.18043E-04-9.23811E-01 1.52187E-13-1.66465E-13
 -1       668 2.00023E+01 3.17090E-03-7.20206E-06 3.36512E-03 2.01188E-13-4.01520E-13
 -1       669 2.04053E+01 4.10904E-01 3.24194E-04-6.99319E-01 8.93801E-14-1.70578E-13
 -1       670 2.07359E+01 5.06441E-02-8.55377E-05-1.20833E+00 8.26119E-15-1.89166E-14
 -1       671 2.09838E+01-1.57015E-01-3.54115E-04-1.24822E+00 4.95992E-14 9.07425E-15
 -1       672 2.13305E+01-4.51380E-01-6.97953E-04-1.18103E+00 3.91946E-14 3.94939E-14
 -1       673 2.17958E+01-8.29921E-01-1.12601E-03-9.58555E-01 7.05308E-14 1.16299E-14
 -1       674 2.23784E+01-1.23409E+00-1.52585E-03-5.25691E-01 5.64691E-14 1.10443E-13
 -1       675 2.30203E+01-1.51062E+00-2.48256E-03 1.48881E-01-5.58847E-14 1.35034E-13
 -1       676 2.35739E+01-1.39947E+00-3.68730E-03 1.00457E+00-8.98331E-14 8.88620E-14
 -1       677 2.38216E+01-6.24817E-01-4.78432E-03 1.77505E+00 2.23398E-14 1.25722E-13
 -1       678 2.36306E+01 8.02231E-01-1.25920E-02 1.98718E+00 1.00681E-13 1.80493E-13
 -1       679 2.32236E+01 2.25215E+00-1.67068E-02 1.23221E+00 2.54894E-13 1.70732E-13
 -1       680 2.30142E+01 2.72595E+00-1.52521E-02-2.72781E-01 1.36917E-13 3.29164E-14
 -1       681 2.31914E+01 1.88357E+00-3.75609E-02-1.62066E+00 2.23386E-13-1.03329E-13
 -1       682 2.37297E+01 3.80354E-01-8.26679E-03-2.09872E+00 1.96777E-13-2.27889E-13
 -1       683 2.38253E+01-8.99633E-01 6.74204E-04-1.67858E+00 6.11900E-14-2.59943E-13
 -1       684 2.34794E+01-1.45034E+00-8.01954E-04-8.59343E-01 6.77614E-14-1.80485E-13
 -1       685 2.28884E+01-1.41914E+00-9.99447E-04-5.54721E-02-5.19209E-14-7.85246E-14
 -1       686 2.22608E+01-1.07957E+00-1.57484E-03 5.30436E-01-1.09714E-13-2.34801E-13
 -1       687 2.17179E+01-6.72002E-01-1.14250E-03 8.78998E-01-1.02970E-13-3.20246E-13
 -1       688 2.12934E+01-3.19197E-01-6.44735E-04 1.03582E+00 2.91315E-14-3.29123E-13
 -1       689 2.09779E+01-6.30863E-02-2.60355E-04 1.05927E+00-5.58758E-14-1.79277E-13
 -1       690 2.07468E+01 9.91543E-02-1.87411E-05 9.99779E-01 3.99602E-15-1.96571E-13
 -1       691 2.05761E+01 1.87231E-01 1.13357E-04 8.94769E-01 5.46694E-14-7.53759E-14
 -1       692 2.04474E+01 2.23329E-01 1.76816E-04 7.70049E-01 1.79582E-13 1.36364E-13
 -1       693 2.03481E+01 2.26294E-01 1.98068E-04 6.42404E-01 3.43212E-14 1.99101E-13
 -1       694 2.02702E+01 2.10183E-01 1.93273E-04 5.21984E-01-1.54219E-13-2.58717E-14
 -1       695 2.02083E+01 1.84646E-01 1.74208E-04 4.14266E-01-1.05778E-13 1.61926E-13
 -1       696 2.01590E+01 1.55877E-01 1.49055E-04 3.21573E-01 2.06945E-13-8.61271E-14
 -1       697 2.01199E+01 1.27580E-01 1.22789E-04 2.44200E-01 1.78031E-13-2.08612E-13
 -1       698 2.00891E+01 1.01769E-01 9.81623E-05 1.81236E-01-1.60121E-14-1.09965E-13
 -1       699 2.00651E+01 7.93590E-02 7.64998E-05 1.31129E-01 7.68063E-14-1.38087E-13
 -1       700 2.00466E+01 6.05905E-02 5.82578E-05 9.20635E-02-1.03669E-13 1.08402E-13
 -1       701 2.00326E+01 4.53067E-02 4.33658E-05 6.22028E-02-4.84267E-14 4.42314E-14
 -1       702 2.00223E+01 3.31379E-02 3.14920E-05 3.98348E-02 6.30811E-14-5.30500E-14
 -1       703 2.00147E+01 2.36145E-02 2.21713E-05 2.34502E-02 8.12685E-14-1.81293E-13
 -1       704 2.00093E+01 1.62347E-02 1.47648E-05 1.17775E-02 2.77122E-14-1.92025E-13
 -1       705 2.00056E+01 1.04990E-02 1.00831E-05 3.79775E-03 1.87728E-13 6.83940E-14
 -1       706 2.00031E+01 5.92987E-03 1.27042E-05-1.27182E-03 2.07821E-13-6.24287E-14
 -1       707 2.00022E+01 3.23109E-03 4.94235E-06-3.35432E-03-1.42943E-13-1.14191E-13
 -1       708 2.09564E+01-4.88027E+00 4.35530E-02 5.08877E+00-4.07691E-13 6.06720E-16
 -1       709 2.00010E+01 1.41205E-02 1.03700E-06 9.63937E-05 7.45983E-14 1.94351E-13
 -1       710 2.89620E+01-1.46196E+00-1.36810E-01-1.50687E+00-2.35856E-13 4.70901E-13
 -1       711 2.00023E+01 1.09354E-02 3.92240E-07 1.24285E-04 2.54334E-13 5.22328E-13
 -1       712 2.00011E+01 1.40860E-02 1.41150E-06-3.16591E-04-7.55246E-14 1.93086E-13
 -1       713 2.00015E+01 1.30136E-02 8.29112E-07 3.47546E-04 1.72312E-13 1.44377E-13
 -1       714 2.00017E+01 1.29454E-02 1.04896E-06-5.19743E-04-5.56666E-14 1.44213E-13
 -1       715 2.00025E+01 1.08443E-02-9.14312E-07-2.17646E-04 7.18309E-14-1.42104E-13
 -1       716 2.00032E+01 8.13080E-03-2.76261E-06 7.30330E-04 2.74416E-13 2.19166E-13
 -1       717 2.78526E+01 1.90688E+00-1.05878E-01 2.20869E+00 2.47136E-13 5.81167E-14
 -1       718 1.15846E+01-1.16151E+00 1.21646E-01 4.55806E+00-2.84106E-13 1.42237E-13
 -1       719 2.04072E+01 1.59104E+00 1.70313E-04-6.22885E-01-2.27189E-13-2.14254E-13
 -1       720 9.19191E+00 4.81855E-01 1.00474E-01 5.27931E-02-8.00393E-14 6.70110E-13
 -1       721 2.70024E+01 5.63244E+00-1.53459E-01-1.11477E+00 6.13135E-13-3.51571E-13
 -1       722 2.67837E+01-4.55467E+00-1.73773E-02-1.44925E+00 2.44407E-13-3.18367E-13
 -1       723 2.04011E+01 5.56153E-01 7.44464E-04-4.09910E-01 1.20531E-13-1.41286E-13
 -1       724 2.05658E+01 1.93828E-01 9.48712E-05-1.09439E+00 5.42298E-14-1.19707E-13
 -1       725 2.04036E+01 1.20843E+00 6.33984E-04-2.15496E-01-1.79880E-13-2.06448E-13
 -1       726 2.09812E+01-5.06413E+00 4.27680E-02-5.25767E+00-2.65392E-13-2.51639E-14
 -1       727 2.04373E+01 7.85073E-01 1.33917E-03-3.34838E-02 1.91689E-13-1.51353E-13
 -1       728 1.97994E+01 2.62175E+00-1.50865E-03 3.66211E-01 2.07761E-13-3.00156E-13
 -1       729 1.97699E+01 2.66378E+00-1.47159E-03-3.69635E-01-9.88025E-14-3.35268E-13
 -1       730 2.57076E+01-4.37397E+00-3.34729E-03 1.84577E+00-3.91096E-13-1.94799E-13
 -1       731 2.14338E+01-5.14284E+00 3.90403E-02-4.88896E+00 4.25288E-13 2.27882E-14
 -1       732 1.05997E+01-1.76257E+00 1.32611E-01 4.84295E+00 1.48923E-13-5.20479E-13
 -1       733 2.77772E+01-2.34405E+00-6.78617E-02 5.09335E-01 8.64465E-14 1.46543E-13
 -1       734 8.56286E+00-6.15621E-01 1.55367E-01-2.97581E+00-2.68592E-13-6.16798E-13
 -1       735 1.51776E+01-3.45816E+00 9.95598E-02-5.91961E+00 2.70506E-13 5.50004E-13
 -1       736 1.71050E+01-4.29654E+00 8.00859E-02 6.11005E+00 2.75308E-13-9.82270E-14
 -1       737 2.59576E+01-4.62218E+00-1.07774E-02-2.24659E+00-7.00690E-14 8.37004E-14
 -1       738 2.72656E+01-4.35997E+00-3.39524E-02 1.23718E+00-2.19443E-15 2.66294E-13
 -1       739 2.79498E+01-3.34147E-01-9.98102E-02-1.67333E+00 1.84595E-13-4.53804E-13
 -1       740 2.34079E+01-5.40344E+00 2.89347E-02 4.24539E+00 1.36967E-13 1.24038E-13
 -1       741 2.79281E+01 3.57950E+00-1.37355E-01-2.19029E+00 3.28043E-13-2.97432E-13
 -1       742 2.00009E+01 2.34837E+00-9.86036E-04-5.12922E-01-1.45277E-13-3.30118E-13
 -1       743 1.95323E+01 2.95547E+00-1.31574E-03-8.26294E-02 1.91070E-14-3.07781E-13
 -1       744 2.60508E+01-3.25920E+00-1.07883E-02 2.77460E-01 2.34082E-13-3.43708E-13
 -1       745 2.00030E+01 5.72825E-03-1.72761E-06-1.85288E-03 1.43081E-14 8.69565E-14
 -1       746 2.63453E+01 3.53603E+00-1.18608E-01 1.99749E+00 2.85071E-13-7.54032E-14
 -1       747 1.21088E+01-1.37965E+00 1.05499E-01-4.62961E+00-3.62720E-13-2.93404E-13
 -1       748 1.78716E+01-3.68958E+00 7.40821E-02-5.53462E+00-2.38172E-13-1.68027E-13
 -1       749 2.00029E+01 8.33301E-03-5.63265E-07-6.62549E-04 3.38705E-13 2.36418E-13
 -1       750 1.96107E+01 2.86264E+00-1.40138E-03-2.24607E-01-4.67009E-14-3.07350E-13
 -1       751 2.65748E+01-2.60461E+00-3.56909E-02-6.31131E-01-1.46605E-13-3.46067E-13
 -1       752 2.00036E+01 7.53580E-03-2.52971E-06 9.92837E-04 9.54908E-14 9.06868E-14
 -1       753 2.76981E+01 5.20577E+00-1.57420E-01-1.03472E+00-6.78790E-13 4.17322E-14
 -1       754 2.14160E+01-4.35703E+00 4.00970E-02 4.33937E+00 2.02624E-13 4.01320E-14
 -1       755 2.02259E+01 1.57787E+00-2.37834E-04 2.06728E-01 2.11197E-13-2.06282E-13
 -1       756 1.21593E+01 3.74046E-01 4.43333E-02 2.31661E+00-2.00110E-13 2.67737E-13
 -1       757 2.02047E+01 2.00835E+00 1.50954E-04-5.88922E-01-1.93129E-13-3.01567E-13
 -1       758 2.61683E+01 1.34384E+00-6.94713E-02-2.36255E+00 2.02987E-13-3.07723E-13
 -1       759 1.55858E+01-1.91932E+00 4.67329E-02 4.75167E+00-3.26374E-13 1.65007E-13
 -1       760 2.53482E+01-4.52358E+00 3.92235E-02 1.92749E+00 1.17279E-13 2.93007E-13
 -1       761 2.02831E+01 7.38029E-01-6.25019E-05-5.49145E-01 1.32242E-13-2.17905E-13
 -1       762 2.00997E+01 9.46042E-01 1.12134E-04 6.36698E-01-8.78323E-14-1.84746E-13
 -1       763 1.99881E+01 8.24766E-01 5.93688E-05 9.38438E-01-7.81210E-14-1.69777E-13
 -1       764 1.98611E+01 7.45304E-01 8.04890E-05 1.21625E+00-3.62082E-14-1.57243E-13
 -1       765 1.97314E+01 6.60445E-01 1.05468E-04 1.48660E+00 6.94705E-14-9.40231E-14
 -1       766 1.96218E+01 5.14072E-01 1.31416E-04 1.76513E+00 1.08492E-13-1.13330E-15
 -1       767 1.95784E+01 2.34062E-01 1.87190E-04 2.06576E+00 6.05697E-14 5.34813E-14
 -1       768 1.96893E+01-2.71137E-01 9.33040E-04 2.39549E+00 2.05282E-14 8.25367E-14
 -1       769 2.01057E+01-1.10351E+00 3.03511E-03 2.73795E+00 7.74980E-14 1.58874E-13
 -1       770 2.12048E+01-2.35620E+00 4.13660E-03 2.98897E+00 1.54900E-13 1.52791E-13
 -1       771 2.35070E+01-4.50395E+00 1.57833E-03-3.05628E+00-1.70970E-13-8.86862E-14
 -1       772 2.02901E+01-1.36878E+00 4.18852E-03-2.68885E+00 2.57877E-13 7.01206E-14
 -1       773 1.97131E+01-4.18106E-01 1.38717E-03-2.35418E+00 2.52307E-13 2.59098E-13
 -1       774 1.95118E+01 1.68061E-01 2.18157E-04-2.00368E+00 2.68554E-14 2.84330E-14
 -1       775 1.94978E+01 4.84331E-01-6.71054E-05-1.68909E+00-1.29629E-14-1.44499E-13
 -1       776 1.95650E+01 6.21580E-01 8.62477E-05-1.41401E+00-2.53515E-14 1.84136E-13
 -1       777 1.96570E+01 6.49116E-01 9.61181E-05-1.17364E+00-1.28897E-13 2.92552E-13
 -1       778 1.97465E+01 6.14630E-01 7.87779E-05-9.63476E-01-2.45934E-13 9.87974E-14
 -1       779 1.98226E+01 5.49061E-01 5.96842E-05-7.80855E-01-1.11517E-13 1.26900E-13
 -1       780 1.98823E+01 4.71599E-01 4.48421E-05-6.23987E-01-1.95023E-13 1.94903E-13
 -1       781 1.99267E+01 3.93500E-01 3.38314E-05-4.91193E-01-1.33945E-13 4.24016E-13
 -1       782 1.99583E+01 3.20867E-01 2.55296E-05-3.80562E-01-2.86261E-13 2.90721E-13
 -1       783 1.99798E+01 2.56595E-01 1.91764E-05-2.89892E-01-1.61123E-13 3.54300E-13
 -1       784 1.99937E+01 2.01652E-01 1.42861E-05-2.16786E-01-2.09492E-13 1.72457E-13
 -1       785 2.00023E+01 1.55897E-01 1.05226E-05-1.58785E-01 5.22376E-14 3.33333E-14
 -1       786 2.00070E+01 1.18595E-01 7.63621E-06-1.13501E-01 3.30398E-13-1.28333E-15
 -1       787 2.00092E+01 8.87317E-02 5.50153E-06-7.87180E-02 3.01224E-13-1.57738E-13
 -1       788 2.00097E+01 6.51979E-02 4.17208E-06-5.24546E-02 1.09049E-13-9.92309E-14
 -1       789 2.00092E+01 4.68874E-02 2.70161E-06-3.29804E-02 2.91233E-13 6.93142E-15
 -1       790 2.00080E+01 3.27553E-02-4.72866E-07-1.89291E-02 6.45861E-14-1.81234E-13
 -1       791 2.00065E+01 2.18445E-02 2.93860E-06-9.03863E-03-1.90321E-15-2.77436E-13
 -1       792 2.00051E+01 1.38520E-02-1.23522E-06-3.00758E-03-2.95877E-13-6.94478E-14
 -1       793 2.02558E+01 5.65248E-01 6.46006E-05-8.33374E-01 1.13769E-13-2.17223E-13
 -1       794 2.06558E+01-2.99434E-01-1.40982E-04-1.51815E+00 2.19213E-14-3.41722E-14
 -1       795 2.04217E+01 2.90947E-02-3.24268E-05-1.42173E+00-1.63582E-14-1.25411E-13
 -1       796 2.16874E+01-1.34974E+00-1.27472E-04-1.35861E+00-8.36182E-14 1.40687E-13
 -1       797 2.25762E+01-1.96398E+00 7.13368E-05-9.34298E-01-4.53427E-14 1.71283E-13
 -1       798 2.36613E+01-2.32308E+00-7.60899E-04-1.38989E-01-9.97770E-15 1.90375E-13
 -1       799 2.46977E+01-1.95220E+00-7.20914E-03 1.01047E+00-5.39972E-14 1.61476E-13
 -1       800 2.51654E+01-3.75888E-01-5.01529E-02 2.05594E+00 9.19117E-14 8.80164E-14
 -1       801 2.44999E+01 4.14394E+00-8.61533E-02 7.61367E-01 3.62564E-13 3.90079E-14
 -1       802 2.43523E+01-2.14678E+00-6.79049E-03-7.41890E-01-5.30726E-14 2.04719E-14
 -1       803 2.33261E+01-2.23611E+00-2.61855E-03 2.85693E-01-2.49579E-14 1.27619E-13
 -1       804 2.22876E+01-1.73728E+00-8.18342E-04 9.53696E-01 3.95753E-14 5.48548E-14
 -1       805 2.14667E+01-1.11418E+00-9.53388E-04 1.27351E+00-8.71243E-14-2.92819E-14
 -1       806 2.08957E+01-5.61614E-01-4.72600E-04 1.36545E+00-1.62245E-13-3.58099E-15
 -1       807 2.05311E+01-1.53661E-01-1.23004E-04 1.32323E+00-7.00495E-14 1.94711E-13
 -1       808 2.03119E+01 1.11667E-01 3.03874E-05 1.21083E+00-4.82358E-14 1.67518E-13
 -1       809 2.01863E+01 2.62715E-01 6.40835E-05 1.06604E+00-2.37761E-14 1.81544E-13
 -1       810 2.01170E+01 3.31893E-01 6.54873E-05 9.11435E-01-7.48426E-14 4.16139E-14
 -1       811 2.00798E+01 3.47204E-01 6.44913E-05 7.60447E-01 3.46021E-14 1.06984E-13
 -1       812 2.00598E+01 3.30025E-01 6.03676E-05 6.20867E-01 1.34645E-13 2.23345E-13
 -1       813 2.00486E+01 2.95483E-01 5.31341E-05 4.96795E-01-2.24214E-13 6.19155E-14
 -1       814 2.00414E+01 2.53645E-01 4.48216E-05 3.89858E-01 1.03997E-13-5.64088E-14
 -1       815 2.00360E+01 2.10813E-01 3.66303E-05 3.00036E-01 7.69834E-14-1.72544E-14
 -1       816 2.00314E+01 1.70635E-01 2.91717E-05 2.26274E-01-1.07846E-13 9.94072E-14
 -1       817 2.00271E+01 1.34976E-01 2.27113E-05 1.66926E-01 1.86015E-14 6.03537E-14
 -1       818 2.00230E+01 1.04549E-01 1.73123E-05 1.20081E-01-6.37028E-14 5.84057E-14
 -1       819 2.00192E+01 7.93592E-02 1.29363E-05 8.37838E-02-4.31623E-14-2.32278E-13
 -1       820 2.00157E+01 5.90070E-02 9.39031E-06 5.61798E-02-1.96506E-13-9.13900E-14
 -1       821 2.00125E+01 4.28797E-02 6.55865E-06 3.56016E-02-4.25866E-14 1.25866E-13
 -1       822 2.00097E+01 3.02743E-02 4.12977E-06 2.06148E-02-5.67152E-14 3.72205E-13
 -1       823 2.00072E+01 2.04759E-02 3.18287E-06 1.00296E-02 1.34515E-13 3.66018E-13
 -1       824 2.00051E+01 1.28092E-02 4.55226E-06 2.95303E-03 5.46973E-13 5.04060E-14
 -1       825 2.00039E+01 9.25985E-03-1.28292E-05 7.83212E-05 1.39879E-13 4.32511E-14
 -1       826 2.00006E+01 2.40756E-02-7.07509E-07-1.78252E-03-8.43578E-14 3.15398E-13
 -1       827 1.56006E+01-2.27014E+00 7.35860E-02 5.04470E+00 2.53296E-13-2.00607E-13
 -1       828 2.00001E+01 2.50209E-02-1.49927E-07-1.29288E-04-7.46159E-14-9.03863E-14
 -1       829 1.47857E+01-1.77095E+00 7.15197E-02-4.68449E+00 2.20459E-13 5.03340E-13
 -1       830 2.00020E+01 2.14250E-02-1.35200E-06-2.85503E-03 1.22106E-13 2.71215E-13
 -1       831 2.03659E+01 1.16688E+00 2.31504E-04 1.01981E-01 1.94122E-13-2.00897E-13
 -1       832 2.00036E+01 1.74497E-02 2.49700E-06-2.94098E-03 9.41824E-14-1.63898E-14
 -1       833 1.96678E+01 2.39807E+00-3.13605E-04 3.17178E-02 9.56942E-14-2.58053E-13
 -1       834 1.92965E+01-3.54635E+00 4.70866E-02-4.69517E+00 3.23344E-13-9.92088E-14
 -1       835 2.10580E+01-7.61341E-01-8.37257E-05-1.51940E+00 5.57521E-14 1.31855E-14
 -1       836 2.37654E+01-4.16482E+00 2.04190E-02-2.48680E+00 3.90753E-13-2.53557E-13
 -1       837 2.15317E+01-2.71339E+00 1.04671E-02-2.85120E+00 2.91670E-13-1.42343E-13
 -1       838 2.01844E+01 1.15177E+00 2.91551E-04 2.94091E-01-1.21958E-13-2.15625E-13
 -1       839 2.64796E+01-6.33193E-01-3.74170E-02 1.88868E+00 8.55236E-14 9.97327E-14
 -1       840 1.00819E+01 3.97091E-01 9.47642E-02-8.19727E-01-9.43930E-14-4.99902E-13
 -1       841 2.29179E+01-3.96528E+00 1.27192E-02 2.80102E+00-2.13070E-13-1.04259E-13
 -1       842 1.95983E+01-3.44713E+00 2.89280E-02 4.50789E+00-3.10885E-13-8.93383E-14
 -1       843 2.59839E+01-3.43710E+00-1.97631E-02-2.90900E-01 1.73959E-14 1.17195E-13
 -1       844 1.12342E+01-2.19985E-01 9.16123E-02 2.97677E+00 1.25336E-13-4.77968E-13
 -1       845 1.96116E+01 2.46601E+00-2.34298E-04-2.20082E-02 4.41657E-14-2.59587E-13
 -1       846 2.00025E+01 1.94932E+00-1.98098E-04 1.57084E-01 1.91869E-13-2.66919E-13
 -1       847 1.23604E+01 9.38384E-01 3.89129E-02-1.69914E-01-1.84097E-13 6.43770E-13
 -1       848 1.19658E+01 2.59842E-01 6.74285E-02-2.34580E+00 8.99411E-15 7.70143E-13
 -1       849 2.02490E+01 1.57386E+00-4.89792E-05-2.31463E-01-1.65407E-13-2.50622E-13
 -1       850 1.46940E+01-2.23575E-01 2.70116E-02 3.16299E+00-1.19172E-13 1.31827E-13
 -1       851 2.57472E+01-8.83638E-01-2.87110E-02-1.86446E+00 1.17296E-13-1.66706E-13
 -1       852 2.10940E+01-3.81937E+00 3.48157E-02-4.00700E+00-1.52593E-13-4.96569E-14
 -1       853 1.18430E+01 6.21323E-03 7.41000E-02-2.68810E+00-1.93283E-13-4.10120E-13
 -1       854 2.02554E+01 4.18871E-01 6.69090E-05-1.06998E+00 7.88709E-14-1.54547E-13
 -1       855 1.58902E+01-2.16749E+00 5.61313E-02-4.89962E+00-2.33667E-13-2.86167E-13
 -1       856 2.03015E+01 2.54658E-01 4.63294E-05-1.26693E+00-2.55480E-14-1.45278E-13
 -1       857 2.50139E+01 2.17367E+00-4.81752E-02 2.09251E+00 1.64670E-13 7.80305E-14
 -1       858 2.00017E+01 2.15064E-02-1.11065E-06 2.68268E-03 3.02688E-13 3.20002E-13
 -1       859 1.26029E+01-3.24378E-01 6.99676E-02-3.29932E+00 2.49984E-13 8.07762E-13
 -1       860 2.00005E+01 2.41213E-02-6.36778E-07 1.54138E-03 9.97864E-14-9.95160E-14
 -1       861 1.98040E+01 2.22520E+00-3.02598E-04 9.27562E-02 1.70920E-13-2.57663E-13
 -1       862 2.45282E+01-3.45018E+00-1.95994E-03 8.70665E-01-2.46709E-13-2.35508E-14
 -1       863 1.18368E+01 6.16605E-01 5.72880E-02 1.02712E+00 3.50245E-14-3.77139E-13
 -1       864 2.00031E+01 1.78256E-02 3.00173E-06 2.71453E-03 3.21556E-13 2.17896E-13
 -1       865 2.03276E+01 9.15891E-01 2.16978E-04-2.52964E-01 1.46002E-13-2.09972E-13
 -1       866 9.46569E+00 9.32302E-02 1.32178E-01-1.53701E+00 5.77528E-14 8.83512E-13
 -1       867 2.00044E+01 1.59664E-02 3.48744E-05-3.14477E-03-8.14788E-14-6.59822E-14
 -1       868 1.97661E+01 2.27306E+00-3.13249E-04-1.15448E-01-5.76644E-14-2.80122E-13
 -1       869 1.99565E+01 2.01476E+00-6.46815E-04-1.58055E-01-1.00709E-13-3.06070E-13
 -1       870 1.39796E+01 8.79525E-01 1.93450E-02 1.36955E+00-2.39644E-13 3.40008E-13
 -1       871 2.54787E+01 3.39304E+00-7.61088E-02-1.94142E+00 4.74853E-13-4.24619E-13
 -1       872 1.97889E+01 1.12535E+00-1.96820E-05 6.65247E-01-5.71973E-14-1.88003E-13
 -1       873 2.56316E+01 1.66336E+00-5.32769E-02 2.25243E+00 1.10694E-13 7.36425E-14
 -1       874 1.95833E+01 1.01372E+00-1.79847E-05 9.22343E-01-3.19110E-14-1.72992E-13
 -1       875 1.93273E+01 9.36615E-01 5.66281E-06 1.17314E+00 5.68966E-14-1.19718E-13
 -1       876 1.90296E+01 8.46161E-01 2.37025E-07 1.43974E+00 1.01425E-13-1.53385E-13
 -1       877 1.87063E+01 6.83317E-01-1.00336E-04 1.75344E+00 9.08933E-14-2.09484E-13
 -1       878 1.83946E+01 3.69110E-01-2.88889E-04 2.15776E+00 9.41338E-14-1.31832E-13
 -1       879 1.81686E+01-2.04569E-01-2.45390E-04 2.71048E+00 9.87047E-14-4.84439E-14
 -1       880 1.82999E+01-1.17432E+00 1.67481E-02 3.46607E+00 1.24061E-13-6.36969E-14
 -1       881 2.00662E+01 8.92849E-01-1.54619E-05-6.53787E-01 1.29543E-13-2.60048E-13
 -1       882 1.81679E+01 3.00424E-01 3.25853E-04-2.16938E+00-1.03503E-14-1.50856E-13
 -1       883 1.84330E+01 6.60854E-01-9.47448E-04-1.72478E+00-3.65691E-14-9.21859E-14
 -1       884 1.87238E+01 8.17681E-01-8.68842E-05-1.39473E+00 7.61088E-14-1.11119E-13
 -1       885 1.89936E+01 8.50919E-01 3.22204E-05-1.13973E+00 4.14019E-14-2.39560E-13
 -1       886 1.92266E+01 8.11660E-01 3.95766E-05-9.33008E-01-1.96695E-13-9.83868E-14
 -1       887 1.94189E+01 7.33498E-01 2.46393E-05-7.60208E-01-2.44716E-13-3.98783E-14
 -1       888 1.95725E+01 6.38343E-01 1.38988E-05-6.13738E-01-2.49229E-13-2.20625E-13
 -1       889 1.96921E+01 5.39886E-01 8.19383E-06-4.89486E-01 1.37336E-13-4.60779E-14
 -1       890 1.97834E+01 4.46179E-01 5.01571E-06-3.84879E-01-1.71888E-13 1.10970E-13
 -1       891 1.98516E+01 3.61515E-01 3.09032E-06-2.97892E-01-1.48578E-13 2.85013E-13
 -1       892 1.99016E+01 2.87769E-01 1.87256E-06-2.26616E-01-2.11659E-13 3.38677E-13
 -1       893 1.99376E+01 2.25302E-01 1.10029E-06-1.69125E-01-1.48446E-13 5.27856E-13
 -1       894 1.99629E+01 1.73579E-01 6.22796E-07-1.23498E-01 3.76832E-14 4.29535E-13
 -1       895 1.99801E+01 1.31576E-01 3.49292E-07-8.78776E-02 1.50672E-13 1.87397E-13
 -1       896 1.99913E+01 9.80407E-02 6.29854E-07-6.05406E-02 1.20447E-13-7.30024E-14
 -1       897 1.99983E+01 7.16615E-02 4.57481E-06-3.99519E-02 2.51693E-13-2.06613E-13
 -1       898 2.00021E+01 5.11160E-02-2.16886E-05-2.46822E-02 1.50110E-13-3.12450E-13
 -1       899 2.00039E+01 3.53142E-02 1.88210E-05-1.37550E-02 4.72213E-14-1.76580E-13
 -1       900 1.99470E+01 1.85550E-02-4.70950E-05-1.63412E+00-9.19446E-14-2.04211E-13
 -1       901 2.26449E+01-2.79316E+00 4.10868E-03-1.73705E+00-5.27139E-14 7.70748E-14
 -1       902 2.13774E+01-1.89722E+00 3.17007E-03-2.03444E+00-8.19545E-14 4.06034E-16
 -1       903 2.39603E+01-3.40435E+00-2.24023E-03-1.26173E+00-5.67176E-14 1.02423E-13
 -1       904 2.03310E+01-7.93264E-01-6.00734E-04 1.82955E+00-1.21659E-13 2.07111E-13
 -1       905 1.99455E+01-2.28231E-01 1.49993E-04 1.63800E+00-1.68273E-13 1.84332E-13
 -1       906 1.97622E+01 1.39477E-01 1.98462E-04 1.42014E+00-9.89736E-14 2.62167E-13
 -1       907 1.97005E+01 3.52401E-01 1.10769E-04 1.20645E+00 7.98427E-14 1.81692E-13
 -1       908 1.97048E+01 4.54711E-01 3.29048E-05 1.00907E+00 6.36442E-14 1.43923E-13
 -1       909 1.97410E+01 4.83141E-01 1.40620E-05 8.31989E-01 6.26576E-15 3.74737E-14
 -1       910 1.97886E+01 4.65699E-01 1.01636E-05 6.76182E-01 9.23743E-14-4.86135E-14
 -1       911 1.98366E+01 4.22509E-01 7.37672E-06 5.41450E-01-1.23898E-13 7.43471E-14
 -1       912 1.98797E+01 3.67338E-01 5.26871E-06 4.26901E-01-5.61374E-14-7.37870E-14
 -1       913 1.99155E+01 3.09118E-01 3.75993E-06 3.31142E-01 1.96672E-14 8.04144E-14
 -1       914 1.99437E+01 2.53276E-01 2.69935E-06 2.52425E-01-6.54965E-14 1.41895E-13
 -1       915 1.99651E+01 2.02799E-01 1.95316E-06 1.88789E-01-2.17553E-14 1.98048E-13
 -1       916 1.99806E+01 1.59033E-01 1.43464E-06 1.38186E-01-1.08987E-13 9.28331E-14
 -1       917 1.99912E+01 1.22273E-01 1.07270E-06 9.86087E-02-1.08488E-13 1.43878E-13
 -1       918 1.99982E+01 9.21783E-02 8.31763E-07 6.81740E-02-1.26222E-13 2.23015E-13
 -1       919 2.00023E+01 6.80535E-02 6.10044E-07 4.51851E-02-1.62232E-13 3.36819E-15
 -1       920 2.00044E+01 4.90254E-02 5.91688E-07 2.81620E-02-2.85952E-13 9.70838E-14
 -1       921 2.00051E+01 3.41689E-02 2.63060E-06 1.58884E-02-1.38203E-13 2.59826E-13
 -1       922 2.00048E+01 2.26378E-02 1.16731E-05 7.33520E-03 3.29408E-13 3.12068E-13
 -1       923 1.47448E+01-5.80799E-01 3.33009E-02 3.52087E+00 1.39686E-13-1.99805E-13
 -1       924 1.99996E+01 3.49219E-02 2.25039E-07-5.28008E-03 1.18305E-13 1.09626E-13
 -1       925 1.40434E+01 6.71222E-01 1.94392E-02-1.79955E+00-7.36763E-14 4.24261E-13
 -1       926 1.99979E+01 3.75670E-02-8.67701E-07-2.00536E-03 1.13600E-13 2.03686E-13
 -1       927 2.10449E+01-1.57896E+00-1.70553E-03 1.90685E+00-6.15564E-14 2.67620E-13
 -1       928 2.00038E+01 1.34201E-02 3.93726E-06 1.66440E-03 3.18569E-13 5.73234E-13
 -1       929 2.21669E+01-2.48917E+00 2.21189E-03 1.74708E+00-5.00657E-14 1.00938E-13
 -1       930 1.96444E+01 2.42514E+00-3.89269E-04-6.90357E-02-1.53545E-14-2.67734E-13
 -1       931 1.80218E+01-3.61736E-01 5.39334E-03-2.78570E+00 2.89498E-13-4.51937E-14
 -1       932 2.00022E+01 3.00557E-02-3.06873E-06-7.33675E-03-7.95818E-14-1.52264E-13
 -1       933 1.99372E+01 1.31193E+00-3.66062E-06 3.85531E-01-8.68047E-14-2.00441E-13
 -1       934 1.54688E+01-7.62132E-01 3.13224E-02-3.63536E+00 3.58043E-13 3.59303E-13
 -1       935 2.00320E+01 1.68869E+00-1.26383E-03-6.00442E-03-1.05759E-13-2.45237E-13
 -1       936 1.84382E+01-1.73884E+00 2.22931E-02-3.72096E+00 4.48468E-13-8.89072E-14
 -1       937 2.01284E+01 1.39068E+00 6.73931E-04-1.27414E-01 1.55183E-13-2.40480E-13
 -1       938 1.91256E+01-2.78293E+00 1.78856E-02-4.20313E+00-2.14954E-13-1.53339E-13
 -1       939 2.01289E+01 1.14079E+00-3.71369E-04-3.49313E-01 1.34504E-13-2.47561E-13
 -1       940 1.99885E+01 7.06119E-01-3.07633E-05-9.23100E-01 5.73794E-14-2.33159E-13
 -1       941 1.21415E+01 7.01486E-01 5.07539E-02-7.69184E-01-6.36963E-14-3.73023E-13
 -1       942 1.44824E+01-6.84358E-01 4.01330E-02-3.68440E+00-1.88698E-13-3.72691E-13
 -1       943 1.98925E+01 3.20617E-01 5.29928E-05-1.40616E+00-1.80527E-14-2.26998E-13
 -1       944 2.01459E+01-4.27403E-01 3.13726E-04-1.84779E+00-5.13965E-14-1.34167E-13
 -1       945 2.00047E+01 2.44121E-02 2.42776E-07-7.79790E-03-4.86119E-14-3.04023E-13
 -1       946 2.05825E+01-1.06504E+00 1.59020E-03-2.01288E+00-7.34280E-14-1.51013E-15
 -1       947 2.22590E+01-3.35690E+00 2.36048E-02-2.75000E+00-1.44528E-13-1.12787E-13
 -1       948 1.42444E+01 4.08689E-01 2.77952E-02 2.21953E+00 4.79146E-14-2.87254E-13
 -1       949 2.02376E+01 1.15110E+00 2.72673E-04-1.88253E-01 1.42496E-13-2.43204E-13
 -1       950 1.99978E+01 3.75811E-02-2.28308E-06 1.71511E-03-6.11695E-14-6.59352E-14
 -1       951 1.42552E+01 1.11517E+00 2.13472E-03-2.62152E-01-1.10384E-13 5.06296E-13
 -1       952 1.99993E+01 3.49664E-02-2.08342E-06 5.04662E-03 6.73533E-14-1.23250E-13
 -1       953 1.74836E+01-1.44977E+00 2.39789E-02 3.75438E+00-1.94034E-13 3.59712E-14
 -1       954 2.00015E+01 3.04374E-02-6.13185E-06 6.75453E-03 1.53951E-13 1.94753E-13
 -1       955 1.96334E+01 2.04342E+00-1.60900E-04-5.78037E-02 7.73906E-14-1.98012E-13
 -1       956 2.07182E+01-2.41183E+00 1.55149E-02 2.89635E+00-1.23953E-13 7.76623E-14
 -1       957 1.97407E+01 1.91745E+00-1.43558E-04-9.35657E-02 1.37718E-13-2.40739E-13
 -1       958 1.96974E+01 1.97169E+00 1.26225E-03 3.89347E-02-1.68238E-14-2.48705E-13
 -1       959 1.44023E+01 1.11433E-01 2.81590E-02-2.72947E+00 1.18248E-13 3.56638E-13
 -1       960 1.99981E+01 4.65904E-02 3.34811E-06-1.15407E-02 1.99012E-13-5.01316E-14
 -1       961 1.96637E+01 1.42169E+00 5.00810E-05 3.87418E-01-4.93225E-14-1.81235E-13
 -1       962 1.64173E+01-1.89537E-01 1.61350E-02-2.93098E+00 2.56948E-13 1.02958E-13
 -1       963 1.96131E+01 2.06254E+00-4.33435E-04-1.56683E-02 9.24457E-15-2.11165E-13
 -1       964 1.91216E+01 1.16731E+00-1.63763E-04 7.79346E-01 3.61881E-14-1.10265E-13
 -1       965 1.87190E+01 1.10471E+00-1.05455E-04 9.76284E-01 5.88148E-14-1.13397E-13
 -1       966 1.82186E+01 1.03108E+00-1.16699E-04 1.20568E+00 7.54756E-14-1.03745E-13
 -1       967 1.76079E+01 8.93766E-01 8.14858E-05 1.51129E+00 1.14842E-13-1.11065E-13
 -1       968 1.68619E+01 6.22992E-01-4.12901E-05 1.96250E+00 1.26464E-13-9.84121E-14
 -1       969 1.67082E+01-1.91473E-01 8.15155E-03 2.79245E+00-2.19739E-13 7.64898E-14
 -1       970 1.98228E+01 1.73495E+00 7.70287E-04 1.30973E-01-4.74237E-14-2.38700E-13
 -1       971 1.77895E+01 1.02687E+00 7.57786E-05-1.18475E+00 1.10156E-13 7.37813E-14
 -1       972 1.82787E+01 1.04607E+00 1.25846E-05-9.50393E-01-1.07706E-13 1.14298E-13
 -1       973 1.86735E+01 9.96315E-01 3.60403E-05-7.75679E-01-1.68202E-14-6.79224E-14
 -1       974 1.89889E+01 9.06794E-01-1.64991E-06-6.36333E-01-1.54326E-13 3.02955E-14
 -1       975 1.92390E+01 7.97709E-01-1.24714E-05-5.20152E-01-2.83055E-13 2.68824E-13
 -1       976 1.94353E+01 6.83007E-01-1.26505E-05-4.21267E-01-7.30226E-14 2.03241E-13
 -1       977 1.95876E+01 5.71669E-01-1.06087E-05-3.36799E-01 1.13505E-13 1.82164E-14
 -1       978 1.97044E+01 4.69067E-01-8.63512E-06-2.65195E-01 6.61315E-14 2.74692E-13
 -1       979 1.97927E+01 3.78011E-01-7.00872E-06-2.05310E-01-6.93640E-14 5.13741E-13
 -1       980 1.98584E+01 2.99544E-01-5.63907E-06-1.56027E-01-1.61764E-13 3.77405E-13
 -1       981 1.99065E+01 2.33546E-01-4.44237E-06-1.16162E-01-8.17545E-14 2.29598E-13
 -1       982 1.99410E+01 1.79176E-01-3.39649E-06-8.44730E-02 5.10713E-15 2.29652E-13
 -1       983 1.99650E+01 1.35195E-01-2.50381E-06-5.97276E-02 2.61055E-14 3.05175E-13
 -1       984 1.99813E+01 1.00192E-01-2.70430E-06-4.07544E-02-4.26898E-14 1.65076E-13
 -1       985 1.99917E+01 7.26978E-02-1.43344E-05-2.64132E-02 9.42993E-14-1.31725E-13
 -1       986 1.90934E+01-2.22597E-01-1.07539E-03 2.00018E+00-1.47841E-13 1.48545E-14
 -1       987 1.92088E+01 6.00006E-01-4.85543E-05 1.04973E+00-1.66583E-14 2.64061E-13
 -1       988 1.93393E+01 6.34312E-01-6.07103E-05 8.45269E-01 2.32696E-14 2.50427E-13
 -1       989 1.94678E+01 6.13328E-01-4.93336E-05 6.77007E-01 1.40185E-13 2.11117E-13
 -1       990 1.95843E+01 5.60121E-01-3.73882E-05 5.37988E-01-1.99023E-14 4.35293E-13
 -1       991 1.96843E+01 4.91047E-01-2.92975E-05 4.23199E-01-1.45053E-13 3.95444E-13
 -1       992 1.97668E+01 4.17047E-01-2.30313E-05 3.28880E-01-6.35412E-15 3.17264E-13
 -1       993 1.98327E+01 3.45047E-01-1.79214E-05 2.52029E-01-8.27565E-14 2.01300E-13
 -1       994 1.98839E+01 2.79077E-01-1.37239E-05 1.90082E-01-1.46112E-13 2.48954E-13
 -1       995 1.99226E+01 2.21142E-01-1.02958E-05 1.40765E-01 2.53125E-14 3.07245E-13
 -1       996 1.99509E+01 1.71890E-01-7.50866E-06 1.02027E-01-1.52225E-13 4.10428E-13
 -1       997 1.99711E+01 1.31102E-01-5.09461E-06 7.20387E-02-3.04655E-14 4.56359E-14
 -1       998 1.99849E+01 9.80590E-02-4.31504E-06 4.91925E-02 7.46508E-15-1.07697E-14
 -1       999 1.99938E+01 7.17467E-02-3.52287E-06 3.20776E-02-2.96532E-13 1.60729E-13
 -1      1000 1.99991E+01 5.10844E-02-2.81776E-06 1.95022E-02-2.56451E-13-1.18858E-13
 -1      1001 1.99946E+01 5.18106E-02-2.79107E-06-6.58111E-03 1.26219E-13 2.27528E-13
 -1      1002 1.99191E+01 1.69254E+00-3.16063E-05-1.15188E-01 1.47531E-13-2.60460E-13
 -1      1003 1.90956E+01 4.77478E-01-5.60248E-06 1.30219E+00-8.40910E-14 9.42088E-14
 -1      1004 1.63975E+01 4.50483E-02 9.62491E-03 2.73018E+00 1.00228E-13-1.77683E-13
 -1      1005 1.90363E+01 2.22039E-01-2.33614E-05 1.61434E+00-1.37319E-13 3.71672E-14
 -1      1006 2.07301E+01-2.18873E+00 1.75879E-03-2.74937E+00-9.70215E-14-2.47389E-13
 -1      1007 1.94267E+01-9.24578E-01 2.27209E-03 2.44207E+00-5.20761E-14 1.01374E-13
 -1      1008 1.95465E+01 1.60913E+00-3.65918E-04 1.99023E-01 1.49513E-15-2.14807E-13
 -1      1009 1.94355E+01 1.25976E+00-3.43209E-04 5.88004E-01-9.40596E-15-1.03224E-13
 -1      1010 1.99206E+01 5.32072E-01 4.22081E-05-1.17052E+00 1.82002E-14-1.83861E-13
 -1      1011 1.69984E+01 4.70074E-01 2.40182E-03-2.14287E+00 1.16065E-13-1.33043E-13
 -1      1012 1.71810E+01 9.05222E-01-3.52241E-04-1.51440E+00 9.39492E-14 5.00950E-14
 -1      1013 1.98971E+01 1.25436E+00 3.01082E-04-4.39683E-01 1.19058E-13-2.39793E-13
 -1      1014 1.59039E+01 7.58304E-01 3.90298E-03 1.57021E+00-2.25095E-13 2.47601E-13
 -1      1015 1.36002E+01 8.62706E-01 2.66915E-02 8.93571E-01-8.94044E-15-3.68944E-13
 -1      1016 1.36399E+01 3.44155E-01 3.04208E-02-2.22041E+00-1.06325E-13-3.25880E-13
 -1      1017 1.97784E+01 1.02315E+00 9.77732E-05-6.98389E-01 5.97118E-14-1.95884E-13
 -1      1018 1.93188E+01 4.18643E-01-5.22379E-05-1.49663E+00-4.93250E-14-1.73942E-13
 -1      1019 1.99027E+01-1.15992E+00 2.01323E-03-2.46601E+00-1.03979E-13-2.50380E-13
 -1      1020 1.99931E+01 5.36970E-02-7.68678E-06-2.83829E-04 7.91294E-14 3.71341E-13
 -1      1021 1.92449E+01 6.78886E-02-7.39546E-04-1.83129E+00-7.67399E-14-2.41425E-13
 -1      1022 1.72624E+01-1.44785E+00 2.13039E-02-3.82783E+00-1.70611E-13-2.30309E-13
 -1      1023 2.00018E+01 3.49695E-02-2.41094E-05 1.05961E-02 2.60943E-13 2.75816E-14
 -1      1024 1.56323E+01 1.19978E+00 7.58406E-03 5.20713E-01-1.71155E-13 2.41013E-13
 -1      1025 1.99944E+01 5.18278E-02-3.74931E-06 6.06106E-03-1.57730E-13-1.25675E-13
 -1      1026 1.99974E+01 4.68661E-02 2.42923E-05 1.03330E-02-5.76615E-14-2.75064E-13
 -1      1027 1.56602E+01 9.27096E-01 3.23740E-03-1.44538E+00 1.20782E-13 2.77273E-13
 -1      1028 1.57026E+01 5.55307E-01 9.43610E-03-2.09777E+00 5.97021E-14 1.22614E-14
 -1      1029 1.95302E+01 1.76679E+00 1.25108E-03-5.77814E-02 4.31393E-14-1.32795E-13
 -1      1030 1.96068E+01 1.68408E+00 8.16779E-05-1.94067E-01 8.99567E-14-1.54769E-13
 -1      1031 1.68513E+01 1.21123E+00-9.96693E-04-7.09917E-01-2.70641E-14 1.14234E-13
 -1      1032 1.75973E+01 1.84770E-01 1.92416E-03 2.11636E+00-7.66002E-14 2.38932E-13
 -1      1033 1.81123E+01 1.22202E+00-3.35340E-04 5.89650E-01 9.39049E-14-1.25230E-13
 -1      1034 1.73955E+01 1.17720E+00 1.01640E-04 7.18770E-01 6.93940E-14-8.59080E-14
 -1      1035 1.64469E+01 1.09348E+00 1.84078E-03 9.05458E-01 1.09002E-13-1.45155E-13
 -1      1036 1.96252E+01 8.39728E-01 1.86637E-04-9.49174E-01 2.38195E-14-1.89242E-13
 -1      1037 1.79205E+01 5.58840E-01-6.68738E-04 1.56935E+00-2.52859E-13 2.08672E-13
 -1      1038 1.94324E+01-4.45634E-01-4.38096E-04-2.16407E+00-8.97658E-14-2.38167E-13
 -1      1039 1.81485E+01 1.14010E+00 4.84662E-05-4.71218E-01-3.97258E-14-1.31230E-13
 -1      1040 1.85810E+01 1.04572E+00-1.09607E-04-3.97701E-01-8.50981E-16 3.58277E-14
 -1      1041 1.89203E+01 9.30090E-01-1.10487E-04-3.35685E-01-8.10723E-14 8.79559E-14
 -1      1042 1.91863E+01 8.06509E-01-9.56789E-05-2.80587E-01-2.07671E-13 1.66590E-13
 -1      1043 1.93943E+01 6.83896E-01-7.73909E-05-2.30970E-01-6.12313E-14 1.59085E-13
 -1      1044 1.95559E+01 5.68370E-01-6.26022E-05-1.86763E-01 1.69330E-13 5.25783E-14
 -1      1045 1.96802E+01 4.63713E-01-5.09618E-05-1.48147E-01 6.99616E-14 2.18928E-14
 -1      1046 1.97745E+01 3.71833E-01-4.14414E-05-1.15167E-01-2.16576E-13 3.23710E-15
 -1      1047 1.98451E+01 2.93254E-01-3.34170E-05-8.76380E-02-2.50720E-13 1.90139E-13
 -1      1048 1.98970E+01 2.27547E-01-2.65710E-05-6.51594E-02 6.84824E-14 1.89122E-13
 -1      1049 1.99343E+01 1.73680E-01-2.09849E-05-4.71882E-02 1.27759E-13 1.25517E-13
 -1      1050 1.99605E+01 1.30278E-01-1.86779E-05-3.31075E-02-1.69601E-13 1.17138E-13
 -1      1051 1.99781E+01 9.59451E-02-1.75488E-05-2.23744E-02-2.80934E-14 1.75896E-13
 -1      1052 1.93071E+01 7.02098E-01-1.36343E-04 4.75946E-01-1.33241E-14 4.03999E-13
 -1      1053 1.91127E+01 7.68672E-01-1.94129E-04 6.09599E-01 2.62710E-14 3.51421E-13
 -1      1054 1.90821E+01 1.34183E+00 3.29934E-04 3.87216E-01-1.06077E-14-1.40502E-13
 -1      1055 1.54188E+01 8.81673E-01 6.53184E-03 1.38541E+00 5.89159E-14-1.74199E-13
 -1      1056 1.88859E+01 8.00543E-01-4.01985E-04 7.81272E-01-4.39838E-14 1.56409E-13
 -1      1057 1.94695E+01 6.17990E-01-1.05849E-04 3.70219E-01-4.43048E-14 4.85448E-13
 -1      1058 1.96021E+01 5.28071E-01-8.55155E-05 2.85979E-01-4.87980E-14 2.05911E-13
 -1      1059 1.97081E+01 4.40102E-01-6.96542E-05 2.18773E-01-3.97086E-14 4.30351E-13
 -1      1060 1.97912E+01 3.58830E-01-5.63968E-05 1.65329E-01-1.63726E-13 3.57521E-13
 -1      1061 1.98548E+01 2.86792E-01-4.51184E-05 1.23107E-01-1.79293E-14 4.97224E-13
 -1      1062 1.99024E+01 2.24962E-01-3.55546E-05 9.00513E-02-7.41098E-14 4.12707E-13
 -1      1063 1.99373E+01 1.73278E-01-2.78709E-05 6.44491E-02 1.97950E-13 3.19506E-13
 -1      1064 1.99620E+01 1.31003E-01-2.22839E-05 4.48525E-02 3.14727E-14 4.67049E-13
 -1      1065 1.99789E+01 9.71348E-02-1.57431E-05 3.01742E-02-1.24825E-13 3.54197E-13
 -1      1066 1.99900E+01 7.02870E-02-1.44042E-05 1.91271E-02-1.62010E-13-2.83672E-14
 -1      1067 1.93488E+01 1.44957E+00 2.07936E-04 3.00980E-01 9.62254E-15-1.79279E-13
 -1      1068 1.86298E+01 7.74297E-01-3.57326E-04 1.00583E+00-1.23234E-13 1.37977E-13
 -1      1069 1.83058E+01 7.08311E-01 6.81254E-05 1.24669E+00-1.42553E-13 2.06690E-13
 -1      1070 1.75882E+01 1.20410E+00 9.80095E-04-5.65548E-01 3.33082E-14-2.18053E-14
 -1      1071 1.99880E+01 7.16694E-02 2.30044E-06-1.27802E-02 5.30074E-14 2.79151E-13
 -1      1072 1.94610E+01 6.55480E-01 6.74023E-05-1.20948E+00 3.38081E-14-1.85999E-13
 -1      1073 1.93601E+01 1.55823E+00-1.33343E-04-8.89222E-02 6.66446E-14-1.01062E-13
 -1      1074 1.97298E+01 1.49419E+00 1.91343E-04-3.19238E-01 1.04462E-13-2.07582E-13
 -1      1075 1.86616E+01 1.26522E+00-6.47210E-04 4.85975E-01 3.48556E-14-1.65266E-13
 -1      1076 1.89556E+01-1.37462E+00 6.50330E-03-3.10582E+00-9.13607E-14-2.15763E-13
 -1      1077 1.67801E+01 9.85523E-01 1.96556E-03 1.09512E+00-1.68408E-13 1.64048E-13
 -1      1078 1.39365E+01 9.27483E-01 2.21033E-02-5.42063E-01-7.66344E-14-3.05522E-13
 -1      1079 1.99852E+01 7.52354E-02 6.37578E-05-2.66471E-03 1.84559E-13 2.45356E-13
 -1      1080 1.57516E+01-3.27005E-01 1.79545E-02-3.05610E+00-1.32168E-13-3.04718E-13
 -1      1081 1.99859E+01 7.38230E-02-1.93943E-06 8.36471E-03 9.18884E-14 1.79673E-13
 -1      1082 1.88779E+01 8.03961E-01 1.74926E-05-1.15244E+00 3.43845E-14-1.96405E-13
 -1      1083 1.95774E+01 1.24810E+00-3.98094E-05-5.28851E-01 4.89706E-14-1.72478E-13
 -1      1084 1.85572E+01 5.78471E-01-1.13414E-04-1.48790E+00 3.10217E-16-2.39881E-13
 -1      1085 1.76276E+01 1.23358E+00 1.46304E-04-2.29703E-03 8.35621E-14-1.19050E-13
 -1      1086 1.93592E+01 1.06427E+00-2.62228E-04-7.43186E-01 1.39502E-14-2.02136E-13
 -1      1087 1.67505E+01 1.18705E+00-4.93841E-04-6.72018E-02 1.66516E-14-1.35674E-13
 -1      1088 1.90206E+01 8.42358E-01 2.09217E-04 3.49239E-01-5.16749E-14 1.82248E-13
 -1      1089 1.82703E+01 1.28701E+00-8.67132E-04 4.37022E-02 5.86072E-14-9.07432E-14
 -1      1090 1.82526E+01 1.12169E+00-1.61524E-05-3.61552E-02 8.29493E-14 1.10367E-13
 -1      1091 1.86578E+01 1.01381E+00-2.36831E-04-5.78145E-02-3.17901E-14 8.87804E-15
 -1      1092 1.89760E+01 8.93842E-01-1.85084E-04-6.60349E-02-1.83199E-13 9.70880E-15
 -1      1093 1.92269E+01 7.69852E-01-1.28975E-04-6.58688E-02-1.01787E-13 2.17566E-13
 -1      1094 1.94241E+01 6.49089E-01-8.72783E-05-6.06808E-02 4.88477E-14 3.06730E-13
 -1      1095 1.95777E+01 5.36664E-01-5.74425E-05-5.28786E-02 1.24414E-13 3.88203E-13
 -1      1096 1.96962E+01 4.35687E-01-3.61490E-05-4.41277E-02-1.33892E-13 3.51154E-13
 -1      1097 1.97864E+01 3.47639E-01-2.11040E-05-3.55044E-02-1.13868E-13 2.70254E-13
 -1      1098 1.98538E+01 2.72774E-01-1.07604E-05-2.76382E-02-4.17975E-14 2.35624E-13
 -1      1099 1.99033E+01 2.10501E-01-4.16766E-06-2.08403E-02-8.64826E-14 1.50300E-13
 -1      1100 1.99388E+01 1.59687E-01-2.61645E-06-1.52094E-02 1.91397E-14-1.65108E-13
 -1      1101 1.99634E+01 1.19049E-01-1.99472E-07-1.07674E-02-5.48334E-14 4.29024E-14
 -1      1102 1.94333E+01 6.36461E-01 1.29572E-04 1.99602E-01 1.66893E-13 2.56389E-13
 -1      1103 1.92491E+01 7.42085E-01 1.71262E-04 2.64115E-01-1.27160E-14 2.79071E-13
 -1      1104 1.83959E+01 9.76487E-01-5.87222E-04 6.18545E-01-5.55474E-14-2.79361E-14
 -1      1105 1.99758E+01 9.53474E-02 2.99777E-05-5.77970E-03 1.25175E-13 2.29575E-13
 -1      1106 1.87398E+01 9.26038E-01 1.78654E-04 4.62994E-01-9.82100E-14 2.41466E-14
 -1      1107 1.95799E+01 5.33292E-01 9.61656E-05 1.50275E-01-6.68573E-15 3.52329E-14
 -1      1108 1.96948E+01 4.37608E-01 7.11808E-05 1.12374E-01-1.55375E-13-1.34613E-14
 -1      1109 1.97834E+01 3.52255E-01 5.26105E-05 8.32190E-02-1.53956E-13-2.68040E-14
 -1      1110 1.98504E+01 2.78452E-01 3.86335E-05 6.08389E-02-7.24119E-14 1.63522E-13
 -1      1111 1.99002E+01 2.16271E-01 2.80418E-05 4.37467E-02-9.04596E-14 2.60442E-13
 -1      1112 1.99362E+01 1.65051E-01 2.24889E-05 3.08034E-02 1.23532E-14 4.70223E-13
 -1      1113 1.99614E+01 1.23727E-01 1.72356E-05 2.10808E-02 1.33029E-13 3.94823E-13
 -1      1114 1.99757E+01 9.64582E-02 1.39140E-05 1.37550E-02 2.35517E-13 3.00512E-13
 -1      1115 1.91182E+01 1.41285E+00-1.69575E-04-1.28757E-01 6.30203E-14-1.12177E-13
 -1      1116 1.94321E+01 1.42767E+00-2.25589E-04-3.32442E-01 3.76832E-14-1.61247E-13
 -1      1117 1.74570E+01 1.03105E+00-2.09412E-04 8.50612E-01-6.11558E-14 9.49436E-16
 -1      1118 1.69469E+01 1.23317E+00-2.61621E-03 1.34724E-01-3.19106E-14 9.76638E-14
 -1      1119 1.87406E+01 1.33000E+00-1.54382E-03-6.48768E-02 4.60340E-14-1.03932E-13
 -1      1120 1.53898E+01 1.12148E+00 4.66841E-03-6.26503E-02 1.01919E-14-2.44373E-13
 -1      1121 1.91315E+01 9.39341E-01-2.66542E-04-9.33333E-01 2.21972E-14-1.83878E-13
 -1      1122 1.77146E+01 1.20822E+00-3.25205E-03-3.11799E-03-2.24172E-13 2.14549E-13
 -1      1123 1.85189E+01-4.94600E-01 8.15019E-04-2.53714E+00-1.08847E-13-2.18587E-13
 -1      1124 1.50070E+01 5.95573E-01 7.35729E-03-1.78326E+00-7.22465E-14-2.75819E-13
 -1      1125 1.86351E+01 1.09414E+00 2.07203E-04-7.14544E-01 5.89607E-14-1.63066E-13
 -1      1126 1.82438E+01 2.32693E-01 4.44046E-07-1.93602E+00-1.26146E-13-2.66907E-13
 -1      1127 1.81403E+01 9.79458E-01 8.33606E-04-9.69371E-01 7.00270E-14-1.72305E-13
 -1      1128 1.73842E+01-4.56408E-01 9.33088E-03-2.88430E+00-1.26352E-13-2.80571E-13
 -1      1129 1.80102E+01 1.01417E+00 5.68034E-03 7.16727E-01-2.33154E-14 1.12945E-13
 -1      1130 1.91613E+01 1.25189E+00-7.13276E-04-4.85957E-01 2.64108E-14-1.86756E-13
 -1      1131 1.74382E+01 1.05666E+00-4.21841E-03-7.42616E-01 4.26376E-14-1.28881E-13
 -1      1132 1.64653E+01 8.61900E-01 2.34009E-03-1.23281E+00-6.52870E-14-1.86956E-13
 -1      1133 1.89377E+01 1.16733E+00 4.09341E-03-5.90785E-01 3.28974E-14-1.60662E-13
 -1      1134 1.73092E+01 3.39150E-01-1.97891E-03-1.99637E+00-1.27167E-13-2.84999E-13
 -1      1135 1.76274E+01 8.09729E-01 1.71212E-03-1.27743E+00-6.83373E-16-1.98088E-13
 -1      1136 2.78047E+01 9.02803E+00 2.28852E+00-6.57819E+00-3.94684E-14 1.25641E-12
 -1      1137 2.06253E+01 6.25423E+00 2.22126E-01-3.75281E+00-2.20102E-14 1.78725E-13
 -1      1138 1.95519E+01 5.89116E+00 8.52073E-02-2.70001E+00-1.47035E-14-2.92990E-13
 -1      1139 1.91248E+01 5.75686E+00 6.47117E-02-2.02922E+00-9.95037E-15-5.09000E-13
 -1      1140 1.88918E+01 5.68460E+00 5.68839E-02-1.50090E+00-6.91114E-15-6.12438E-13
 -1      1141 1.87422E+01 5.63773E+00 5.02018E-02-1.06166E+00-3.95864E-15-6.60883E-13
 -1      1142 1.86438E+01 5.60667E+00 4.51314E-02-6.79039E-01-2.15626E-15-6.86747E-13
 -1      1143 1.85859E+01 5.58832E+00 4.18402E-02-3.28765E-01-9.00321E-16-6.78035E-13
 -1      1144 1.85675E+01 5.58251E+00 4.08384E-02 4.58492E-03 1.11629E-15-6.70296E-13
 -1      1145 1.85880E+01 5.58908E+00 4.22021E-02 3.39170E-01 3.26475E-15-6.55071E-13
 -1      1146 1.86475E+01 5.60798E+00 4.57907E-02 6.93025E-01 5.05672E-15-6.35391E-13
 -1      1147 1.87471E+01 5.63954E+00 5.13589E-02 1.08121E+00 7.09675E-15-5.82065E-13
 -1      1148 1.88959E+01 5.68611E+00 5.77939E-02 1.52773E+00 9.46118E-15-5.02397E-13
 -1      1149 1.91277E+01 5.75775E+00 6.48169E-02 2.06511E+00 1.32602E-14-3.48606E-13
 -1      1150 1.95457E+01 5.88749E+00 7.92775E-02 2.74398E+00 1.69309E-14-7.11219E-14
 -1      1151 2.05304E+01 6.20912E+00 1.66630E-01 3.73244E+00 1.75970E-14 4.52458E-13
 -1      1152 2.51107E+01 7.95622E+00 1.40987E+00 5.73579E+00 3.76921E-14 1.52506E-12
 -1      1153 2.85655E+01 3.54514E+00 1.21368E+00-4.13707E+00-1.58207E-13 1.94145E-12
 -1      1154 2.02636E+01-1.80012E-01-6.17154E-01-9.66195E-02-5.18058E-14 1.56497E-12
 -1      1155 1.90541E+01-9.83901E-02-2.35301E-01 6.46973E-02-1.93803E-14 1.06711E-12
 -1      1156 1.88906E+01-5.22385E-02-6.33574E-02 4.18335E-02-8.14279E-15 7.45591E-13
 -1      1157 1.90373E+01-3.10344E-02-2.28600E-02 2.88588E-02-6.67825E-15 5.04631E-13
 -1      1158 1.93767E+01-2.16015E-02-1.59045E-02 2.26739E-02-1.19939E-14 3.30500E-13
 -1      1159 1.98584E+01-1.70977E-02-1.53767E-02 2.00956E-02 9.60972E-15 2.53460E-13
 -1      1160 2.04633E+01-1.48072E-02-1.58642E-02 1.99462E-02-4.59355E-15 1.89810E-13
 -1      1161 2.11855E+01-1.30597E-02-1.59154E-02 2.16978E-02-1.96173E-14 6.28664E-14
 -1      1162 2.20207E+01-1.02871E-02-1.39014E-02 2.49302E-02-5.14530E-15-3.89827E-14
 -1      1163 2.29519E+01-4.65588E-03-7.13029E-03 2.88175E-02-3.86507E-15-1.15810E-13
 -1      1164 2.39307E+01 5.98166E-03 8.17476E-03 3.14600E-02 1.01861E-14-1.13506E-13
 -1      1165 2.48519E+01 2.35150E-02 3.57813E-02 2.90839E-02-9.73223E-15-1.51643E-13
 -1      1166 2.55278E+01 4.77840E-02 7.59651E-02 1.56356E-02 1.01069E-14-2.59156E-13
 -1      1167 2.56856E+01 7.31919E-02 1.18945E-01-1.55265E-02-1.59430E-14-3.33657E-13
 -1      1168 2.50303E+01 8.54281E-02 1.38880E-01-6.59143E-02-1.63237E-14-2.99732E-13
 -1      1169 2.34186E+01 6.32161E-02 9.91187E-02-1.21941E-01-1.02609E-14-3.32304E-13
 -1      1170 2.11140E+01-5.45841E-03-1.66624E-02-1.50020E-01-4.68755E-15-3.85303E-13
 -1      1171 1.89109E+01-9.59486E-02-1.63907E-01-1.14764E-01 2.45012E-14-6.40904E-13
 -1      1172 1.78321E+01-1.47331E-01-2.46091E-01-1.72730E-02-1.82614E-14-6.40982E-13
 -1      1173 1.84540E+01-1.18920E-01-1.99755E-01 9.05882E-02 4.01762E-15-7.78391E-13
 -1      1174 2.04564E+01-3.29926E-02-6.11659E-02 1.47530E-01 1.22524E-14-6.38059E-13
 -1      1175 2.28764E+01 4.64095E-02 7.14967E-02 1.35818E-01-1.68953E-14-6.51229E-13
 -1      1176 2.47985E+01 8.22666E-02 1.33814E-01 8.43295E-02-4.21347E-14-7.74478E-13
 -1      1177 2.57997E+01 7.79762E-02 1.27453E-01 3.01083E-02-5.21284E-15-5.27807E-13
 -1      1178 2.59290E+01 5.43158E-02 8.73327E-02-6.75757E-03-9.38659E-15-3.67643E-13
 -1      1179 2.54627E+01 2.86156E-02 4.42240E-02-2.42713E-02 1.69214E-14-6.25902E-13
 -1      1180 2.46939E+01 8.85032E-03 1.23173E-02-2.84149E-02 1.90474E-14-7.59712E-13
 -1      1181 2.38391E+01-3.51906E-03-6.44173E-03-2.57059E-02 3.59348E-15-4.64993E-13
 -1      1182 2.30264E+01-9.89986E-03-1.51818E-02-2.05469E-02 1.60878E-14-3.12611E-13
 -1      1183 2.23167E+01-1.22907E-02-1.77453E-02-1.52379E-02 3.85456E-15-9.86052E-14
 -1      1184 2.17290E+01-1.23620E-02-1.70622E-02-1.07128E-02-2.39826E-15-2.85732E-13
 -1      1185 2.12598E+01-1.12584E-02-1.49603E-02-7.19557E-03-1.49626E-14-7.07594E-13
 -1      1186 2.08954E+01-9.67788E-03-1.24424E-02-4.60718E-03 2.00147E-14-8.27958E-13
 -1      1187 2.06188E+01-8.00925E-03-9.99997E-03-2.77294E-03 5.31434E-14-7.50408E-13
 -1      1188 2.04133E+01-6.44882E-03-7.84117E-03-1.51290E-03 3.87042E-14-7.55761E-13
 -1      1189 2.02638E+01-5.08132E-03-6.02831E-03-6.73715E-04-2.11127E-14-9.52310E-13
 -1      1190 2.01575E+01-3.93058E-03-4.55468E-03-1.34998E-04-1.11794E-14-9.78746E-13
 -1      1191 2.00841E+01-2.98939E-03-3.38442E-03 1.93878E-04-2.38142E-14-5.99371E-13
 -1      1192 2.00353E+01-2.23624E-03-2.47234E-03 3.79583E-04-6.46315E-15-5.29836E-13
 -1      1193 2.00044E+01-1.64438E-03-1.77318E-03 4.70449E-04-2.45925E-14-5.31610E-13
 -1      1194 1.99865E+01-1.18641E-03-1.24541E-03 5.01111E-04-5.15216E-14-3.78836E-13
 -1      1195 1.99777E+01-8.36488E-04-8.52565E-04 4.96095E-04-2.11048E-15-7.47730E-13
 -1      1196 1.99752E+01-5.71096E-04-5.62812E-04 4.72494E-04 1.34311E-14-5.31714E-13
 -1      1197 1.99769E+01-3.68771E-04-3.47405E-04 4.41666E-04 7.57692E-14-2.22733E-13
 -1      1198 1.99812E+01-2.09601E-04-1.77830E-04 4.09838E-04 1.15904E-14 2.49303E-13
 -1      1199 1.99869E+01-7.47030E-05-2.12183E-05 3.76601E-04 2.78407E-14 1.88762E-13
 -1      1200 1.99928E+01 5.40199E-05 1.53652E-04 3.23062E-04 1.69028E-14 6.02363E-13
 -1      1201 1.99978E+01 1.82579E-04 3.35689E-04 2.06846E-04-5.22513E-14 2.87245E-13
 -1      1202 1.99998E+01 1.10256E-05 9.52392E-05-1.91004E-05 4.80997E-14 6.13460E-14
 -1      1203 2.75694E+01 5.18280E-01 3.37237E-01 1.94050E+00-2.65274E-14 2.39553E-12
 -1      1204 2.01360E+01-6.81919E-02-5.72942E-01 1.24618E-01 1.27225E-14 1.93773E-12
 -1      1205 1.91278E+01-4.33267E-02-1.93019E-01 1.87607E-02 1.62335E-14 1.45845E-12
 -1      1206 1.89125E+01-2.53896E-02-5.40709E-02 2.44517E-03 9.04355E-15 1.14961E-12
 -1      1207 1.90308E+01-1.75737E-02-1.98904E-02-2.46663E-03-4.96890E-15 9.86863E-13
 -1      1208 1.93403E+01-1.35439E-02-1.33516E-02-4.02422E-03 9.10556E-15 8.81600E-13
 -1      1209 1.97765E+01-1.09947E-02-1.21271E-02-5.03669E-03 5.41960E-15 7.30409E-13
 -1      1210 2.03072E+01-8.71664E-03-1.10085E-02-6.45304E-03-7.80723E-15 6.10140E-13
 -1      1211 2.09102E+01-5.73323E-03-8.54885E-03-8.74452E-03-3.33338E-15 4.71876E-13
 -1      1212 2.15604E+01-1.08429E-03-3.49437E-03-1.21910E-02 1.02669E-14 3.59202E-13
 -1      1213 2.22189E+01 6.09283E-03 5.69082E-03-1.67475E-02 1.42342E-14 2.19734E-13
 -1      1214 2.28211E+01 1.61564E-02 2.03143E-02-2.16879E-02-5.96333E-15 2.74478E-13
 -1      1215 2.32681E+01 2.81678E-02 4.02040E-02-2.51246E-02 2.37796E-14 2.26532E-13
 -1      1216 2.34280E+01 3.89108E-02 6.17662E-02-2.37228E-02-3.33856E-14 3.55434E-13
 -1      1217 2.31590E+01 4.25575E-02 7.62784E-02-1.33369E-02 1.73368E-14 2.52250E-13
 -1      1218 2.23670E+01 3.25330E-02 7.09200E-02 8.51256E-03-6.63835E-15 1.92298E-13
 -1      1219 2.10943E+01 6.56902E-03 3.55697E-02 3.85852E-02-4.88869E-14 2.53228E-13
 -1      1220 1.95951E+01-2.77996E-02-2.58581E-02 6.54546E-02 3.49679E-14 1.24609E-13
 -1      1221 1.83159E+01-5.43610E-02-8.95183E-02 7.34270E-02-8.40257E-15-2.03122E-13
 -1      1222 1.77268E+01-5.88164E-02-1.22488E-01 5.36246E-02-1.85321E-14-9.15188E-14
 -1      1223 1.80694E+01-4.06430E-02-1.06766E-01 1.30419E-02 8.25902E-15 1.76595E-14
 -1      1224 1.92113E+01-1.26153E-02-5.38864E-02-2.91762E-02-2.14720E-14 2.21573E-13
 -1      1225 2.07301E+01 1.09873E-02 5.71464E-03-5.54809E-02 2.15826E-14-1.96232E-14
 -1      1226 2.21531E+01 2.32188E-02 4.63135E-02-6.00847E-02 5.59513E-15-2.13753E-13
 -1      1227 2.31625E+01 2.49938E-02 6.01573E-02-4.86562E-02-1.81708E-14-1.11605E-13
 -1      1228 2.36588E+01 2.05782E-02 5.37897E-02-3.08295E-02-1.95547E-15 1.88304E-13
 -1      1229 2.37056E+01 1.40334E-02 3.81612E-02-1.40611E-02 1.00224E-14 5.29952E-14
 -1      1230 2.34386E+01 7.84073E-03 2.17666E-02-1.77963E-03-1.80953E-14 7.17395E-14
 -1      1231 2.29973E+01 3.03766E-03 8.79958E-03 5.59885E-03-1.02029E-14-8.47100E-14
 -1      1232 2.24911E+01-2.11201E-04 2.08522E-04 9.08405E-03 1.74817E-14-3.62623E-13
 -1      1233 2.19924E+01-2.14195E-03-4.64351E-03 9.99075E-03-2.77964E-14-4.63903E-13
 -1      1234 2.15419E+01-3.10101E-03-6.84411E-03 9.42881E-03 3.98494E-14-3.67640E-13
 -1      1235 2.11579E+01-3.41037E-03-7.38569E-03 8.17180E-03 2.67517E-14-4.50807E-13
 -1      1236 2.08439E+01-3.32247E-03-7.00064E-03 6.69543E-03-5.68291E-14-1.46497E-13
 -1      1237 2.05958E+01-3.01711E-03-6.17001E-03 5.26130E-03 2.62144E-15-1.45043E-13
 -1      1238 2.04054E+01-2.61387E-03-5.18483E-03 3.99407E-03-1.41290E-14-2.56442E-13
 -1      1239 2.02633E+01-2.18748E-03-4.20815E-03 2.93783E-03 3.29736E-14-6.60839E-13
 -1      1240 2.01602E+01-1.78136E-03-3.32254E-03 2.09301E-03-3.43212E-14-4.06720E-13
 -1      1241 2.00877E+01-1.41809E-03-2.56248E-03 1.43880E-03 2.33354E-14-2.32283E-13
 -1      1242 2.00386E+01-1.10685E-03-1.93499E-03 9.45989E-04 3.17902E-14-6.08542E-13
 -1      1243 2.00072E+01-8.48647E-04-1.43238E-03 5.83959E-04-4.99682E-14-3.22646E-13
 -1      1244 1.99886E+01-6.39619E-04-1.03978E-03 3.24087E-04 6.36110E-15-3.34757E-13
 -1      1245 1.99792E+01-4.73158E-04-7.39356E-04 1.41177E-04-5.52333E-17-6.88715E-13
 -1      1246 1.99763E+01-3.41024E-04-5.12332E-04 1.37266E-05 2.71813E-14-7.71847E-13
 -1      1247 1.99776E+01-2.33574E-04-3.38935E-04-7.64368E-05-1.83973E-14-8.07010E-13
 -1      1248 1.99816E+01-1.39100E-04-1.96021E-04-1.44596E-04 3.61087E-14-1.08742E-12
 -1      1249 1.99871E+01-4.31551E-05-5.34907E-05-2.02912E-04-4.93439E-14-1.12909E-12
 -1      1250 1.99929E+01 7.03658E-05 1.22335E-04-2.55269E-04 7.34946E-15-1.30261E-12
 -1      1251 1.99978E+01 1.92934E-04 3.09971E-04-2.62041E-04 9.35477E-14-1.34340E-12
 -1      1252 1.99998E+01-1.82946E-06 9.01478E-05 7.27106E-06-3.19793E-14-8.77516E-13
 -1      1253 1.99998E+01-4.62946E-06 7.25790E-05-1.56130E-05-9.42534E-13-1.00774E-13
 -1      1254 1.99999E+01-2.07534E-03 2.51952E-04-1.72497E-04-1.27947E-12-1.21818E-13
 -1      1255 1.99998E+01-6.48528E-03 5.84986E-05-2.58491E-04-8.91161E-13 2.74378E-13
 -1      1256 1.99997E+01-1.12676E-02-9.46076E-05-2.26146E-04-5.18528E-13-4.20400E-14
 -1      1257 1.99997E+01-1.53734E-02-1.55376E-04-1.65356E-04-1.27834E-12 1.11105E-13
 -1      1258 1.99997E+01-1.84195E-02-1.58356E-04-1.06062E-04-1.43813E-12 3.37584E-14
 -1      1259 1.99997E+01-2.04355E-02-1.35047E-04-6.25134E-05-7.79929E-13 1.25326E-13
 -1      1260 1.99997E+01-2.15804E-02-1.12776E-04-2.86619E-05-3.18401E-13-1.85113E-13
 -1      1261 1.99997E+01-2.19754E-02-1.04998E-04-1.92367E-06-6.54586E-14 1.86103E-13
 -1      1262 1.99997E+01-2.16711E-02-1.16320E-04 2.53838E-05 6.33145E-13-1.06814E-13
 -1      1263 1.99997E+01-2.05934E-02-1.41087E-04 6.08901E-05-6.69034E-13-1.58980E-13
 -1      1264 1.99997E+01-1.86015E-02-1.64653E-04 1.09064E-04-1.37714E-12 1.29397E-14
 -1      1265 1.99997E+01-1.55344E-02-1.62184E-04 1.68473E-04-1.37224E-12-7.20663E-14
 -1      1266 1.99997E+01-1.13548E-02-9.45235E-05 2.34036E-04-1.52273E-12-1.25649E-14
 -1      1267 1.99999E+01-6.42456E-03 9.45447E-05 3.10629E-04-1.43883E-12-4.19168E-14
 -1      1268 2.00000E+01-2.07772E-03 2.82466E-04 2.14566E-04-4.24768E-13 4.78909E-14
 -1      1269 1.99998E+01-2.80857E-05 4.83804E-05 3.70761E-05-8.83183E-14 4.79570E-14
 -1      1270-1.18747E+00-2.35867E+01-3.69013E+00-2.15812E+00 6.04294E-13 1.05797E-13
 -1      1271-1.71182E+00-1.47427E+01-3.00775E+00-3.95301E+00 1.61360E-12 5.75540E-13
 -1      1272 2.77555E-01-2.22220E+00-1.79423E+00-1.36060E-01 2.51910E-12 1.57840E-12
 -1      1273 8.88365E+00 7.70533E+00-2.55034E-01 8.13059E+00 2.66809E-12 2.45404E-12
 -1      1274 2.54441E+01 1.10999E+01 1.42731E+00 1.59292E+01 2.06246E-12 2.89391E-12
 -1      1275 4.54486E+01 8.17282E+00 2.85832E+00 1.76197E+01 1.00275E-12 2.12075E-12
 -1      1276 6.13669E+01 3.39749E+00 3.83620E+00 1.09340E+01 2.29650E-13 6.41154E-13
 -1      1277 6.65959E+01 1.67983E+00 4.17438E+00-1.22438E+00 3.17524E-14-3.19078E-13
 -1      1278 5.84532E+01 4.54213E+00 3.71265E+00-1.29241E+01 3.58685E-13-1.12321E-12
 -1      1279 4.05462E+01 9.34994E+00 2.56596E+00-1.81138E+01 8.86624E-13-1.68932E-12
 -1      1280 2.11365E+01 1.11137E+01 1.04179E+00-1.47490E+01 1.59472E-12-2.00684E-12
 -1      1281 6.52661E+00 6.12512E+00-6.23258E-01-6.40412E+00 2.09965E-12-1.77258E-12
 -1      1282-5.80326E-01-5.16902E+00-2.11994E+00 1.39363E+00 2.23332E-12-1.20903E-12
 -1      1283-1.64902E+00-1.76927E+01-3.23587E+00 4.11721E+00 1.56219E-12-5.68323E-13
 -1      1284-9.79104E-01-2.47580E+01-3.74768E+00 1.29954E+00 1.18905E-13-1.48923E-13
 -1      1285-1.21675E+00-2.31065E+01-3.66996E+00-3.09155E+00-1.37079E-12-2.97776E-13
 -1      1286-1.80379E+00-1.27719E+01-2.88575E+00-3.81974E+00-2.55618E-12-1.08885E-12
 -1      1287 1.24498E+00-2.79285E-01-1.66171E+00 1.13924E+00-2.93010E-12-1.96176E-12
 -1      1288 1.10141E+01 8.57814E+00-7.28454E-02 9.52520E+00-2.42717E-12-2.46536E-12
 -1      1289 2.77217E+01 1.09808E+01 1.54950E+00 1.66039E+01-1.66056E-12-2.50555E-12
 -1      1290 4.76255E+01 7.94770E+00 3.12256E+00 1.76424E+01-9.11049E-13-2.14517E-12
 -1      1291 6.26577E+01 3.64942E+00 4.02455E+00 1.03570E+01-3.48194E-13-1.24190E-12
 -1      1292 6.82165E+01 1.64960E+00 4.44955E+00-1.67589E+00-1.38917E-13 3.84304E-13
 -1      1293 5.94991E+01 4.50615E+00 3.82962E+00-1.29281E+01-5.14061E-13 1.89071E-12
 -1      1294 4.25167E+01 8.97133E+00 2.71306E+00-1.80648E+01-1.36657E-12 2.91833E-12
 -1      1295 2.33247E+01 1.08673E+01 1.13019E+00-1.53648E+01-2.29594E-12 3.12150E-12
 -1      1296 7.88567E+00 6.68257E+00-5.11322E-01-7.24434E+00-2.70983E-12 2.39808E-12
 -1      1297-1.89478E-01-3.61824E+00-2.01937E+00 8.51118E-01-2.64011E-12 1.54698E-12
 -1      1298-1.84957E+00-1.59600E+01-3.15079E+00 4.20788E+00-1.53233E-12 7.67608E-13
 -1      1299-1.16849E+00-2.42289E+01-3.78083E+00 2.13949E+00 1.71307E-13 7.27127E-14
 -1      1300 2.22520E+01 1.84018E+00-7.16680E-01-2.70831E+00-5.92304E-14 1.02007E-12
 -1      1301 2.04756E+01 4.68689E+00-4.42940E-02-3.13675E+00-1.58526E-13-3.53190E-14
 -1      1302 2.09567E+01 4.79346E+00-1.05325E-01-4.00234E+00-2.10942E-13 2.06377E-13
 -1      1303 1.96578E+01 5.00666E+00-1.79836E-02-2.45292E+00-1.56250E-13-3.86271E-13
 -1      1304 1.99603E+01 5.10326E+00 6.05186E-03-2.85530E+00-1.75943E-13-2.34611E-13
 -1      1305 2.06621E+01 3.94410E+00-2.30868E-02-2.88352E+00-2.78035E-13-2.62707E-14
 -1      1306 1.92726E+01 5.10773E+00-4.01705E-03-1.85983E+00-1.25584E-13-5.54921E-13
 -1      1307 1.94452E+01 5.16969E+00 1.44560E-02-2.15465E+00-1.45280E-13-4.81344E-13
 -1      1308 1.98796E+01 4.38632E+00-2.16901E-02-2.27827E+00-2.42261E-13-3.17454E-13
 -1      1309 1.90355E+01 5.16073E+00 1.31375E-03-1.36702E+00-9.07070E-14-6.42958E-13
 -1      1310 1.91464E+01 5.20000E+00 1.48921E-02-1.60749E+00-1.05835E-13-6.02431E-13
 -1      1311 1.94626E+01 4.60064E+00-1.79572E-02-1.71907E+00-1.90523E-13-4.68944E-13
 -1      1312 1.88784E+01 5.19358E+00 3.47032E-03-9.53581E-01-5.74558E-14-6.76603E-13
 -1      1313 1.89526E+01 5.21945E+00 1.32190E-02-1.15593E+00-7.39703E-14-6.59896E-13
 -1      1314 1.92036E+01 4.72898E+00-1.47350E-02-1.25324E+00-1.36059E-13-5.38750E-13
 -1      1315 1.87735E+01 5.21511E+00 4.65220E-03-5.82415E-01-3.33535E-14-6.88172E-13
 -1      1316 1.88216E+01 5.23148E+00 1.09904E-02-7.65303E-01-3.94112E-14-6.83641E-13
 -1      1317 1.90310E+01 4.81105E+00-1.27112E-02-8.53017E-01-8.38097E-14-5.71636E-13
 -1      1318 1.87173E+01 5.22838E+00 5.83688E-03-2.41580E-01-6.27103E-16-6.79824E-13
 -1      1319 1.87405E+01 5.23618E+00 8.83978E-03-4.11472E-01-1.37303E-14-6.82048E-13
 -1      1320 1.89208E+01 4.86089E+00-1.16463E-02-4.93500E-01-4.00869E-14-5.70193E-13
 -1      1321 1.87078E+01 5.23474E+00 7.31022E-03 8.72551E-02 2.75888E-14-6.66040E-13
 -1      1322 1.87069E+01 5.23438E+00 7.06102E-03-7.88069E-02 1.83868E-14-6.73194E-13
 -1      1323 1.88679E+01 4.88358E+00-1.12090E-02-1.59343E-01 1.68094E-14-5.62599E-13
 -1      1324 1.87446E+01 5.23475E+00 9.16465E-03 4.21798E-01 6.29895E-14-6.57797E-13
 -1      1325 1.87198E+01 5.22631E+00 5.70279E-03 2.50662E-01 5.22145E-14-6.63329E-13
 -1      1326 1.88701E+01 4.88151E+00-1.12612E-02 1.67368E-01 6.43594E-14-5.55568E-13
 -1      1327 1.88279E+01 5.22808E+00 1.12732E-02 7.79789E-01 8.65315E-14-6.30712E-13
 -1      1328 1.87788E+01 5.21147E+00 4.64953E-03 5.94520E-01 7.63122E-14-6.49536E-13
 -1      1329 1.89269E+01 4.85486E+00-1.17994E-02 5.04016E-01 1.14793E-13-5.47114E-13
 -1      1330 1.89585E+01 5.21475E+00 1.34395E-02 1.17262E+00 1.16254E-13-5.72851E-13
 -1      1331 1.88840E+01 5.18865E+00 3.47294E-03 9.67367E-01 1.03530E-13-6.07488E-13
 -1      1332 1.90388E+01 4.80210E+00-1.28383E-02 8.64781E-01 1.57652E-13-5.12840E-13
 -1      1333 1.91540E+01 5.19307E+00 1.49135E-02 1.63540E+00 1.57874E-13-4.74225E-13
 -1      1334 1.90428E+01 5.15344E+00 1.14014E-03 1.39078E+00 1.39985E-13-5.30260E-13
 -1      1335 1.92127E+01 4.71675E+00-1.49821E-02 1.27100E+00 2.06615E-13-4.43218E-13
 -1      1336 1.94531E+01 5.16139E+00 1.39837E-02 2.19185E+00 1.90722E-13-3.10942E-13
 -1      1337 1.92797E+01 5.09792E+00-4.83711E-03 1.89236E+00 1.72341E-13-4.13117E-13
 -1      1338 1.94749E+01 4.58311E+00-1.86107E-02 1.74841E+00 2.68919E-13-3.42705E-13
 -1      1339 1.99821E+01 5.11056E+00 1.17016E-02 2.89789E+00 2.19588E-13-1.22263E-14
 -1      1340 1.96665E+01 4.99606E+00-1.87474E-02 2.49876E+00 1.96093E-13-1.92218E-13
 -1      1341 1.98963E+01 4.36254E+00-2.26231E-02 2.32006E+00 3.13969E-13-1.53988E-13
 -1      1342 2.11809E+01 4.88899E+00 1.31755E-02 3.90454E+00 1.88044E-13 5.48533E-13
 -1      1343 2.04480E+01 4.72925E+00-4.35679E-02 3.24860E+00 1.82188E-13 2.07015E-13
 -1      1344 2.06966E+01 3.90713E+00-1.94251E-02 2.99086E+00 3.26256E-13 1.77594E-13
 -1      1345 2.70801E+01 3.16993E+00 9.02079E-01 4.47948E+00 8.68750E-14 1.59028E-12
 -1      1346 2.20550E+01 3.50728E+00-1.76918E-01 3.76244E+00 9.16212E-14 8.66640E-13
 -1      1347 2.21968E+01 2.54230E+00-2.95088E-02 3.30184E+00 3.05389E-13 6.83620E-13
 -1      1348 2.14419E+01 3.52470E-01-7.57794E-01 1.11470E+00 1.51608E-13 1.53533E-12
 -1      1349 2.20440E+01 1.26699E-01-3.97840E-01-1.20514E+00-1.63022E-13 1.07958E-12
 -1      1350 2.08091E+01 3.01444E-01-1.60701E-01-7.37554E-01-1.49075E-13 8.84862E-13
 -1      1351 2.02695E+01 1.53875E-01-7.16591E-02-3.33727E-01-1.17940E-13 7.98135E-13
 -1      1352 1.98845E+01 9.31559E-02-1.30983E-02-2.62021E-01-1.13527E-13 6.29725E-13
 -1      1353 2.11480E+01 3.64148E-01-1.03556E-01-1.13989E+00-2.65579E-13 4.61794E-13
 -1      1354 1.96003E+01 6.86935E-02 3.82866E-03-6.02979E-02-8.97980E-14 5.63764E-13
 -1      1355 1.95396E+01 4.69008E-02 1.41893E-02-3.99282E-02-7.56981E-14 4.38250E-13
 -1      1356 2.02278E+01 1.37243E-01-3.62831E-02-3.62172E-01-1.95725E-13 3.37001E-13
 -1      1357 1.94679E+01 3.90502E-02 1.34199E-02 6.43246E-02-6.35299E-14 3.69579E-13
 -1      1358 1.95636E+01 2.80541E-02 1.17300E-02 7.79498E-02-7.77659E-14 2.67394E-13
 -1      1359 1.99085E+01 6.56797E-02-1.04747E-02-1.81932E-03-1.54404E-13 2.20223E-13
 -1      1360 1.96184E+01 2.66641E-02 8.65303E-03 1.43211E-01-5.28848E-14 2.42476E-13
 -1      1361 1.98084E+01 2.05681E-02 7.01050E-03 1.53687E-01-4.44675E-14 1.79343E-13
 -1      1362 1.98943E+01 4.01441E-02-6.32789E-03 2.00909E-01-1.15258E-13 1.23302E-13
 -1      1363 1.99483E+01 2.14745E-02 4.25586E-03 2.02843E-01-2.34387E-14 1.50151E-13
 -1      1364 2.02087E+01 1.74807E-02 4.06284E-03 2.12099E-01-2.92041E-14 1.20915E-13
 -1      1365 2.00824E+01 3.09529E-02-5.83598E-03 3.39269E-01-7.85864E-14 7.06635E-14
 -1      1366 2.04132E+01 1.94228E-02 1.59580E-03 2.54419E-01-2.50687E-14 1.11033E-13
 -1      1367 2.07348E+01 1.61009E-02 2.32261E-03 2.63382E-01-3.21704E-14 6.01030E-14
 -1      1368 2.04161E+01 2.79710E-02-5.66399E-03 4.50034E-01-6.15402E-14 5.16124E-15
 -1      1369 2.09928E+01 1.83540E-02-1.29198E-04 3.02173E-01-2.76049E-14 6.39003E-14
 -1      1370 2.13712E+01 1.45521E-02 1.01764E-03 3.10977E-01-3.96864E-14 1.45942E-14
 -1      1371 2.08657E+01 2.69066E-02-5.46860E-03 5.48282E-01-5.46720E-14 7.12126E-15
 -1      1372 2.16745E+01 1.63066E-02-1.45938E-03 3.45030E-01-3.50241E-14 2.05461E-14
 -1      1373 2.21028E+01 1.07784E-02-1.55438E-04 3.52861E-01-3.06953E-14-1.94081E-14
 -1      1374 2.14130E+01 2.44698E-02-5.10237E-03 6.36762E-01-5.54227E-14 1.16192E-14
 -1      1375 2.24403E+01 1.07971E-02-2.40386E-03 3.75850E-01-2.21535E-14-1.04465E-14
 -1      1376 2.29010E+01 2.09706E-03-1.06421E-03 3.80520E-01 4.84476E-15-2.63834E-14
 -1      1377 2.20400E+01 1.66435E-02-4.13953E-03 7.06868E-01-4.30522E-14 2.09026E-14
 -1      1378 2.32532E+01-1.47317E-03-2.44578E-03 3.79605E-01-1.10339E-14-9.66796E-14
 -1      1379 2.37079E+01-1.47214E-02-1.11536E-03 3.76992E-01-3.55606E-14-1.28401E-13
 -1      1380 2.27185E+01-1.96618E-03-1.83288E-03 7.36253E-01-2.58242E-14-1.57409E-14
 -1      1381 2.40406E+01-2.41716E-02-5.47997E-04 3.32126E-01-3.53112E-14-1.28113E-13
 -1      1382 2.44186E+01-4.22620E-02 6.76137E-04 3.15910E-01-4.06025E-14-1.59005E-13
 -1      1383 2.33985E+01-3.75509E-02 2.83504E-03 6.86158E-01-4.75531E-14-1.37095E-13
 -1      1384 2.46784E+01-5.91849E-02 4.45480E-03 2.02915E-01 7.95718E-15-1.36861E-13
 -1      1385 2.48718E+01-7.90801E-02 5.15814E-03 1.65752E-01-2.30701E-14-1.78228E-13
 -1      1386 2.39973E+01-9.37342E-02 1.07924E-02 5.03630E-01-3.00419E-14-9.07018E-14
 -1      1387 2.49869E+01-1.01330E-01 1.26358E-02-3.13956E-02-5.26471E-14-1.50170E-13
 -1      1388 2.48658E+01-1.13855E-01 1.15457E-02-9.31040E-02-7.00672E-14-2.01429E-13
 -1      1389 2.43941E+01-1.63274E-01 2.18400E-02 1.38377E-01-6.49307E-14-4.48734E-14
 -1      1390 2.47619E+01-1.31945E-01 2.07096E-02-3.57493E-01-3.99195E-14-1.48902E-13
 -1      1391 2.42297E+01-1.21246E-01 1.56938E-02-4.34711E-01-3.80685E-14-2.00999E-13
 -1      1392 2.44432E+01-2.17452E-01 3.25358E-02-4.13799E-01-5.12472E-14-2.97991E-14
 -1      1393 2.38689E+01-1.17022E-01 2.11093E-02-6.87053E-01 1.45457E-14-2.12858E-13
 -1      1394 2.29581E+01-6.88224E-02 1.02442E-02-7.48291E-01-2.15297E-14-1.94372E-13
 -1      1395 2.40239E+01-2.02628E-01 3.46116E-02-1.04523E+00-1.47174E-14-1.53350E-15
 -1      1396 2.24010E+01-2.85569E-02 6.22436E-03-8.47966E-01-3.56373E-14-1.97925E-13
 -1      1397 2.13581E+01 4.99804E-02-8.52098E-03-8.46486E-01-6.10193E-14-2.49425E-13
 -1      1398 2.31407E+01-7.18108E-02 1.68744E-02-1.49220E+00-2.70747E-15-4.80692E-14
 -1      1399 2.08046E+01 1.12196E-01-1.99119E-02-6.71454E-01-4.88706E-14-3.16427E-13
 -1      1400 2.00467E+01 1.80977E-01-3.20357E-02-5.81819E-01-3.93314E-14-3.38299E-13
 -1      1401 2.20408E+01 1.53439E-01-2.14764E-02-1.42144E+00-1.19002E-13 8.46545E-16
 -1      1402 1.97720E+01 2.18296E-01-3.96712E-02-1.57891E-01-5.12680E-14-4.70120E-13
 -1      1403 1.96673E+01 2.29279E-01-4.12341E-02-1.68115E-02-1.30691E-13-5.24083E-13
 -1      1404 2.12044E+01 3.49224E-01-5.93924E-02-6.93025E-01-1.33001E-13-1.16122E-13
 -1      1405 1.98310E+01 2.08592E-01-3.68355E-02 4.47233E-01-4.97345E-14-6.18335E-13
 -1      1406 2.04380E+01 1.53419E-01-2.69045E-02 5.59779E-01-1.42178E-14-6.09159E-13
 -1      1407 2.10917E+01 3.81148E-01-6.53667E-02 4.04488E-01-1.59688E-13-3.05710E-13
 -1      1408 2.09518E+01 9.30106E-02-1.50276E-02 8.23382E-01 4.88498E-15-6.15175E-13
 -1      1409 2.19756E+01 1.19025E-02-2.64028E-05 8.51275E-01 1.08507E-14-5.44176E-13
 -1      1410 2.17768E+01 2.23325E-01-3.41449E-02 1.29742E+00-1.69222E-14-5.00468E-13
 -1      1411 2.25760E+01-3.76751E-02 6.79520E-03 8.27707E-01-1.73498E-14-6.09665E-13
 -1      1412 2.35854E+01-9.71159E-02 1.92312E-02 7.81233E-01-6.42186E-14-6.78034E-13
 -1      1413 2.28875E+01-7.53638E-03 8.16961E-03 1.57215E+00-6.75308E-14-6.00554E-13
 -1      1414 2.40384E+01-1.11511E-01 1.58024E-02 5.61563E-01-3.08781E-15-5.57741E-13
 -1      1415 2.47238E+01-1.32626E-01 2.23605E-02 4.85471E-01 1.70332E-14-5.56395E-13
 -1      1416 2.39115E+01-1.74050E-01 3.20354E-02 1.25481E+00-5.17641E-15-5.28046E-13
 -1      1417 2.49283E+01-1.18897E-01 1.33131E-02 2.16295E-01 8.79002E-14-4.92030E-13
 -1      1418 2.51990E+01-1.11509E-01 1.53652E-02 1.48877E-01 1.00739E-13-3.08037E-13
 -1      1419 2.45238E+01-2.20459E-01 3.42630E-02 6.52179E-01 1.11423E-13-3.50277E-13
 -1      1420 2.51706E+01-8.86293E-02 6.75883E-03-6.86449E-02-3.71283E-14-2.64230E-13
 -1      1421 2.50968E+01-6.96834E-02 6.56852E-03-1.12104E-01-6.35126E-14-2.93874E-13
 -1      1422 2.46572E+01-1.80223E-01 2.47423E-02 6.64647E-02 1.28161E-14-1.92187E-13
 -1      1423 2.49050E+01-5.02353E-02 1.40896E-03-2.44831E-01-7.35969E-14-3.53630E-13
 -1      1424 2.46156E+01-3.12567E-02 4.91483E-04-2.65346E-01-8.40127E-14-4.57648E-13
 -1      1425 2.44084E+01-1.10237E-01 1.31966E-02-3.47774E-01-1.15294E-13-2.19401E-13
 -1      1426 2.43359E+01-1.91900E-02-1.22981E-03-3.22915E-01-1.02351E-14-4.52607E-13
 -1      1427 2.39496E+01-4.81488E-03-2.30314E-03-3.27491E-01 4.46347E-14-4.57400E-13
 -1      1428 2.39243E+01-4.79722E-02 4.22699E-03-5.68958E-01-4.15288E-14-2.14030E-13
 -1      1429 2.36413E+01 7.42720E-04-1.78384E-03-3.33885E-01 1.18704E-13-4.92944E-13
 -1      1430 2.32403E+01 1.00163E-02-2.87603E-03-3.29478E-01 4.75813E-14-4.24183E-13
 -1      1431 2.33360E+01-6.00851E-03-1.28153E-03-6.40349E-01 1.21837E-13-3.12233E-13
 -1      1432 2.29420E+01 1.12928E-02-1.31290E-03-3.07264E-01-2.69533E-14-3.00513E-13
 -1      1433 2.25727E+01 1.65520E-02-2.40264E-03-2.98830E-01 4.90335E-14-1.72950E-13
 -1      1434 2.27362E+01 1.69799E-02-4.03253E-03-6.18155E-01 6.18034E-14-3.35712E-13
 -1      1435 2.23052E+01 1.55320E-02-5.84397E-04-2.64068E-01 1.11040E-14-2.12360E-13
 -1      1436 2.19883E+01 1.80946E-02-1.64146E-03-2.54563E-01-1.00900E-13-2.39323E-13
 -1      1437 2.21803E+01 2.67076E-02-5.02034E-03-5.48144E-01 1.62997E-14-2.52955E-13
 -1      1438 2.17604E+01 1.61071E-02 3.14458E-05-2.16964E-01-7.93317E-14-2.34277E-13
 -1      1439 2.15006E+01 1.70313E-02-9.48125E-04-2.07920E-01-4.60487E-14-3.37147E-13
 -1      1440 2.16953E+01 2.86252E-02-5.03297E-03-4.60581E-01-1.14476E-13-2.89366E-13
 -1      1441 2.13133E+01 1.48292E-02 4.30125E-04-1.72593E-01-7.70065E-14-4.47030E-13
 -1      1442 2.11074E+01 1.48377E-02-4.33540E-04-1.64675E-01-7.09771E-14-6.01707E-13
 -1      1443 2.12895E+01 2.65801E-02-4.57680E-03-3.72785E-01-1.66226E-13-3.87565E-13
 -1      1444 2.09577E+01 1.27893E-02 6.31674E-04-1.33859E-01-3.39238E-14-5.88333E-13
 -1      1445 2.07986E+01 1.23336E-02-9.54769E-05-1.27260E-01 2.04567E-15-6.34810E-13
 -1      1446 2.09603E+01 2.29019E-02-3.94022E-03-2.93310E-01-8.06074E-14-4.70307E-13
 -1      1447 2.06818E+01 1.05844E-02 6.93345E-04-1.01581E-01 3.53910E-14-5.83943E-13
 -1      1448 2.05615E+01 9.93063E-03 1.04931E-04-9.62566E-02 8.88998E-14-5.98585E-13
 -1      1449 2.07000E+01 1.88526E-02-3.27461E-03-2.25468E-01 3.07046E-14-6.25123E-13
 -1      1450 2.04722E+01 8.51033E-03 6.69982E-04-7.55189E-02-4.52513E-15-6.47071E-13
 -1      1451 2.03833E+01 7.80747E-03 2.09684E-04-7.13253E-02-4.19348E-14-7.07667E-13
 -1      1452 2.04984E+01 1.50448E-02-2.65320E-03-1.69725E-01 5.08987E-14-5.33032E-13
 -1      1453 2.03163E+01 6.69256E-03 6.02246E-04-5.49693E-02-6.54290E-14-7.83728E-13
 -1      1454 2.02519E+01 6.01928E-03 2.52732E-04-5.17297E-02-1.02305E-13-7.85114E-13
 -1      1455 2.03455E+01 1.17293E-02-2.10680E-03-1.25159E-01-8.26795E-14-5.77863E-13
 -1      1456 2.02027E+01 5.16609E-03 5.16508E-04-3.90780E-02 6.80136E-14-9.44570E-13
 -1      1457 2.01572E+01 4.56006E-03 2.58391E-04-3.66182E-02 3.86119E-14-8.04517E-13
 -1      1458 2.02317E+01 8.96968E-03-1.64405E-03-9.02862E-02-2.18461E-14-7.81792E-13
 -1      1459 2.01219E+01 3.92114E-03 4.28274E-04-2.70004E-02 2.08621E-14-5.82631E-13
 -1      1460 2.00907E+01 3.39663E-03 2.42948E-04-2.51632E-02 1.19257E-13-5.75132E-13
 -1      1461 2.01488E+01 6.74075E-03-1.26241E-03-6.34955E-02 1.00782E-13-7.83629E-13
 -1      1462 2.00661E+01 2.92803E-03 3.45768E-04-1.79728E-02 4.06489E-14-5.25120E-13
 -1      1463 2.00456E+01 2.48639E-03 2.16814E-04-1.66235E-02 1.87561E-14-4.63432E-13
 -1      1464 2.00899E+01 4.98027E-03-9.54172E-04-4.32592E-02 1.69304E-13-4.67241E-13
 -1      1465 2.00289E+01 2.15024E-03 2.72698E-04-1.13384E-02 7.28715E-14-3.74881E-13
 -1      1466 2.00162E+01 1.78586E-03 1.86364E-04-1.03652E-02-4.76676E-14-4.35919E-13
 -1      1467 2.00492E+01 3.61520E-03-7.09596E-04-2.82270E-02 7.94929E-14-2.23333E-13
 -1      1468 2.00055E+01 1.55081E-03 2.10129E-04-6.55134E-03-1.12165E-13-3.35519E-13
 -1      1469 1.99984E+01 1.25461E-03 1.55279E-04-5.86350E-03-1.05732E-13-4.40249E-13
 -1      1470 2.00223E+01 2.57390E-03-5.18577E-04-1.72538E-02-2.70012E-14-1.61787E-13
 -1      1471 1.99920E+01 1.09527E-03 1.57636E-04-3.16960E-03-7.63966E-14-3.96162E-13
 -1      1472 1.99888E+01 8.56606E-04 1.25467E-04-2.69542E-03 3.95031E-14-4.26439E-13
 -1      1473 2.00054E+01 1.79125E-03-3.71465E-04-9.39824E-03-7.78337E-14-1.56556E-13
 -1      1474 1.99855E+01 7.52548E-04 1.14067E-04-8.44735E-04 8.68128E-14-2.23135E-13
 -1      1475 1.99850E+01 5.60140E-04 9.77798E-05-5.28960E-04 7.17703E-14-1.30581E-13
 -1      1476 1.99958E+01 1.20988E-03-2.59468E-04-3.90656E-03 1.77965E-13 5.18856E-14
 -1      1477 1.99838E+01 4.94489E-04 7.82083E-05 6.88273E-04 1.28318E-13-2.16933E-13
 -1      1478 1.99850E+01 3.36676E-04 7.28616E-05 8.86112E-04 1.51696E-13-3.32051E-14
 -1      1479 1.99914E+01 7.79012E-04-1.74630E-04-1.94138E-04 1.28269E-13 1.09643E-13
 -1      1480 1.99852E+01 2.94678E-04 4.96645E-05 1.61817E-03 1.75723E-13 3.04131E-14
 -1      1481 1.99875E+01 1.59352E-04 5.24919E-05 1.72469E-03 1.32071E-13 1.92175E-13
 -1      1482 1.99904E+01 4.52251E-04-1.09361E-04 2.17026E-03 2.24639E-13 1.92158E-14
 -1      1483 1.99885E+01 1.26160E-04 3.08424E-05 2.06026E-03 9.27401E-14 1.80309E-13
 -1      1484 1.99912E+01-2.51831E-07 4.21105E-05 2.08681E-03 8.60697E-14 2.62591E-13
 -1      1485 1.99915E+01 1.83035E-04-5.57724E-05 3.47439E-03 1.90573E-13 1.81356E-13
 -1      1486 1.99926E+01-4.53149E-05 2.91694E-05 2.04972E-03 7.99053E-14 2.54953E-13
 -1      1487 1.99951E+01-1.77254E-04 4.49417E-05 1.98590E-03 2.54534E-14 3.40787E-13
 -1      1488 1.99939E+01-8.63367E-05-5.88696E-06 3.85563E-03 1.46826E-13 1.82118E-13
 -1      1489 1.99964E+01-2.52719E-04 5.09673E-05 1.52814E-03-1.09278E-13 3.68103E-13
 -1      1490 1.99983E+01-3.65488E-04 6.62099E-05 1.37819E-03-1.52129E-13 2.72856E-13
 -1      1491 1.99965E+01-4.46143E-04 4.29259E-05 3.30963E-03 4.17358E-14 6.44257E-14
 -1      1492 1.99995E+01-3.52306E-04 1.35395E-04 2.37990E-04-2.67574E-13 2.09430E-13
 -1      1493 1.99990E+01-9.80283E-04 7.32924E-05 1.48328E-03-2.43457E-13 1.81163E-13
 -1      1494 2.04105E+01 7.46298E-02-1.48775E-01 4.26849E-01 1.49221E-13 1.21404E-12
 -1      1495 2.15917E+01 2.16006E-01-2.28013E-01 6.59951E-01 1.26274E-13 1.43897E-12
 -1      1496 2.18230E+01 8.65620E-01-8.74055E-02 1.94701E+00 2.49169E-13 9.37250E-13
 -1      1497 1.96283E+01 3.37786E-02-2.02194E-02 1.28795E-01 1.06169E-13 9.29600E-13
 -1      1498 1.99691E+01 1.15193E-01-6.06171E-02 1.81536E-01 1.02116E-13 1.10170E-12
 -1      1499 2.05220E+01 1.84992E-01-5.57300E-02 6.76498E-01 2.15911E-13 7.33875E-13
 -1      1500 1.94101E+01 1.80513E-02 5.45585E-03-1.24136E-02 4.83216E-14 7.59594E-13
 -1      1501 1.94616E+01 5.58351E-02 2.04038E-03 1.67515E-02 6.18125E-14 8.51888E-13
 -1      1502 1.99171E+01 7.47868E-02-1.34028E-02 1.80474E-01 1.57093E-13 5.78110E-13
 -1      1503 1.94962E+01 1.12482E-02 6.09288E-03-8.99357E-02 3.87086E-14 6.50709E-13
 -1      1504 1.94061E+01 3.23553E-02 1.15699E-02-7.10105E-02 3.52609E-14 7.06275E-13
 -1      1505 1.97459E+01 3.76367E-02-4.42527E-03-5.73633E-02 8.19770E-14 4.58735E-13
 -1      1506 1.97646E+01 8.15934E-03 3.52809E-03-1.39978E-01 5.95856E-14 5.48511E-13
 -1      1507 1.95909E+01 2.21974E-02 8.78343E-03-1.25904E-01 3.93765E-14 6.16143E-13
 -1      1508 1.98281E+01 2.24716E-02-4.18139E-03-1.95079E-01 7.69411E-14 3.61452E-13
 -1      1509 2.01560E+01 6.34736E-03 1.83865E-03-1.76230E-01 2.29825E-14 4.72893E-13
 -1      1510 1.99250E+01 1.70043E-02 5.53280E-03-1.64684E-01 3.26794E-14 5.29963E-13
 -1      1511 2.00715E+01 1.53950E-02-4.71875E-03-2.86738E-01 6.99367E-14 3.20284E-13
 -1      1512 2.06359E+01 4.66298E-03 1.06129E-03-2.03454E-01 3.65864E-14 3.80924E-13
 -1      1513 2.03625E+01 1.35422E-02 3.50543E-03-1.93628E-01 3.10500E-14 4.23120E-13
 -1      1514 2.04248E+01 1.11147E-02-4.82324E-03-3.53054E-01 5.32109E-14 2.86822E-13
 -1      1515 2.11770E+01 2.25677E-03 9.76889E-04-2.21472E-01 4.55151E-14 2.57436E-13
 -1      1516 2.08737E+01 9.90752E-03 2.30189E-03-2.13606E-01 5.11390E-14 3.35627E-13
 -1      1517 2.08551E+01 6.94109E-03-4.44337E-03-4.00221E-01 8.46408E-14 1.87077E-13
 -1      1518 2.17473E+01-1.70260E-03 1.68242E-03-2.26105E-01 5.02370E-14 1.51337E-13
 -1      1519 2.14306E+01 4.49080E-03 1.57587E-03-2.21509E-01 1.98248E-14 1.99235E-13
 -1      1520 2.13333E+01 8.15210E-04-3.40269E-03-4.25375E-01 7.50448E-14 7.48086E-14
 -1      1521 2.22999E+01-7.97665E-03 3.50430E-03-2.09387E-01-1.28687E-14 1.41080E-13
 -1      1522 2.19956E+01-4.27316E-03 1.27426E-03-2.10544E-01 2.26247E-14 1.49238E-13
 -1      1523 2.18249E+01-9.22461E-03-1.29781E-03-4.18113E-01 4.39685E-14 5.20166E-14
 -1      1524 2.27652E+01-1.68963E-02 6.75911E-03-1.60421E-01 3.26423E-14 1.85425E-13
 -1      1525 2.25131E+01-1.76027E-02 1.54618E-03-1.70883E-01 6.35906E-15 1.61296E-13
 -1      1526 2.22824E+01-2.48110E-02 2.34569E-03-3.61599E-01 2.92301E-15 8.72262E-14
 -1      1527 2.30479E+01-2.76115E-02 1.13178E-02-6.83806E-02 4.69373E-15 1.83246E-13
 -1      1528 2.29036E+01-3.54338E-02 2.57331E-03-9.20010E-02 1.62596E-14 1.79920E-13
 -1      1529 2.26402E+01-4.62151E-02 7.74972E-03-2.35948E-01 3.62843E-14 1.31283E-13
 -1      1530 2.30374E+01-3.70770E-02 1.59365E-02 7.06796E-02 3.04904E-14 2.00756E-13
 -1      1531 2.30658E+01-5.48441E-02 4.27054E-03 3.17555E-02-2.00595E-14 1.80323E-13
 -1      1532 2.28169E+01-7.04176E-02 1.43291E-02-2.68100E-02-1.83846E-14 1.23895E-13
 -1      1533 2.26389E+01-3.95095E-02 1.77050E-02 2.42986E-01-1.61078E-14 1.37130E-13
 -1      1534 2.28955E+01-6.85196E-02 5.86244E-03 1.91744E-01 2.49210E-14 1.87067E-13
 -1      1535 2.27286E+01-8.87810E-02 2.01034E-02 2.58920E-01 3.19519E-14 7.33437E-14
 -1      1536 2.18303E+01-2.80156E-02 1.25598E-02 4.06567E-01-1.01173E-14 1.43885E-13
 -1      1537 2.23263E+01-6.53249E-02 5.61353E-03 3.54631E-01 2.31056E-14 1.55646E-13
 -1      1538 2.23210E+01-8.66494E-02 2.16389E-02 5.73272E-01 6.39159E-15 9.02230E-14
 -1      1539 2.07278E+01 1.97661E-04-1.92167E-03 4.93160E-01 3.52199E-14 1.27461E-13
 -1      1540 2.13912E+01-3.57858E-02 1.47583E-03 4.60533E-01-3.31582E-14 1.00496E-13
 -1      1541 2.16171E+01-4.89769E-02 1.55227E-02 8.17185E-01-2.25445E-14 7.04541E-14
 -1      1542 1.96117E+01 3.75057E-02-2.23021E-02 4.36132E-01 1.14413E-13-8.04634E-14
 -1      1543 2.02735E+01 1.79724E-02-6.82046E-03 4.42996E-01 9.92574E-14 7.98875E-14
 -1      1544 2.07587E+01 2.63317E-02 1.66905E-03 8.64497E-01 1.07197E-13-1.06477E-14
 -1      1545 1.88562E+01 6.57165E-02-3.84327E-02 2.19720E-01-7.39998E-14-1.87610E-13
 -1      1546 1.92953E+01 7.57427E-02-1.59412E-02 2.71925E-01-2.81199E-15-1.43913E-13
 -1      1547 2.00008E+01 1.15295E-01-1.44440E-02 6.31548E-01 9.92297E-14-9.39318E-14
 -1      1548 1.87581E+01 6.77618E-02-3.94539E-02-8.78736E-02-4.64143E-14-6.93733E-14
 -1      1549 1.88036E+01 1.07719E-01-2.00295E-02-8.07938E-03-6.45647E-14-1.40367E-13
 -1      1550 1.96208E+01 1.71663E-01-2.48674E-02 1.57083E-01-6.00093E-14-1.52107E-13
 -1      1551 1.93655E+01 4.25703E-02-2.32008E-02-3.62270E-01-7.87721E-14-4.02178E-14
 -1      1552 1.89952E+01 9.65193E-02-1.51048E-02-2.87780E-01-5.31380E-14-8.92758E-14
 -1      1553 1.97759E+01 1.59965E-01-2.43579E-02-3.84646E-01-5.19723E-14-1.66651E-13
 -1      1554 2.04478E+01 5.93169E-03 7.49374E-04-5.00635E-01 5.92098E-14 2.62568E-14
 -1      1555 1.98010E+01 5.14435E-02-3.45517E-03-4.58337E-01-4.82210E-15 1.66395E-14
 -1      1556 2.04077E+01 8.54469E-02-1.53668E-02-7.79709E-01-5.49292E-14-2.21915E-13
 -1      1557 2.16351E+01-2.37239E-02 1.93905E-02-4.79022E-01 6.37168E-14-1.45634E-13
 -1      1558 2.09302E+01-1.09923E-03 8.11533E-03-4.75813E-01 9.55737E-14 6.78901E-14
 -1      1559 2.12823E+01-8.63013E-03-4.47858E-03-9.03488E-01 9.67559E-14-1.29237E-13
 -1      1560 2.26055E+01-3.70591E-02 2.64869E-02-3.45898E-01-5.14293E-14-2.34923E-13
 -1      1561 2.20306E+01-3.81451E-02 1.41000E-02-3.70632E-01-1.02002E-15-2.08042E-13
 -1      1562 2.21225E+01-7.75891E-02 3.17901E-03-7.72066E-01 9.02759E-14-1.87621E-13
 -1      1563 2.31932E+01-3.59271E-02 2.36748E-02-1.74544E-01-5.59284E-14-1.43227E-13
 -1      1564 2.28438E+01-5.21689E-02 1.38245E-02-2.10175E-01-5.80985E-14-2.40273E-13
 -1      1565 2.27301E+01-1.02986E-01 6.56601E-03-4.95333E-01-4.79963E-14-2.86792E-13
 -1      1566 2.33868E+01-2.70037E-02 1.60985E-02-2.13139E-02-1.97013E-14 3.83654E-14
 -1      1567 2.32675E+01-4.82848E-02 9.76069E-03-5.46536E-02-5.30279E-14-4.98265E-14
 -1      1568 2.30291E+01-9.32275E-02 6.78449E-03-1.93499E-01-1.16878E-13-2.40850E-13
 -1      1569 2.32677E+01-1.63615E-02 8.20539E-03 8.76117E-02-2.15648E-14 9.93563E-14
 -1      1570 2.33291E+01-3.56466E-02 4.88512E-03 6.28859E-02-1.07336E-14 1.27294E-13
 -1      1571 2.30423E+01-6.64948E-02 5.43578E-03 5.46624E-02-6.70080E-14 4.78983E-14
 -1      1572 2.29470E+01-7.35645E-03 2.25898E-03 1.49704E-01 1.87565E-14 8.50015E-16
 -1      1573 2.31232E+01-2.15439E-02 1.04300E-03 1.34609E-01 5.49118E-14 1.22579E-13
 -1      1574 2.28433E+01-3.77656E-02 3.70263E-03 2.19807E-01 4.46973E-14 1.28393E-13
 -1      1575 2.25258E+01-1.06457E-03-1.33383E-03 1.74231E-01-1.84987E-14-6.59750E-14
 -1      1576 2.27577E+01-9.79306E-03-1.21406E-03 1.67099E-01-5.64755E-14-1.07456E-13
 -1      1577 2.25161E+01-1.46922E-02 2.18687E-03 3.06079E-01 1.46046E-14-8.86092E-14
 -1      1578 2.20791E+01 2.69517E-03-3.04180E-03 1.73419E-01 5.89163E-14-2.12872E-13
 -1      1579 2.23239E+01-1.54159E-03-2.13909E-03 1.71839E-01 1.07413E-13-5.87880E-14
 -1      1580 2.21327E+01 7.66370E-04 1.06590E-03 3.32343E-01 9.03854E-14-1.42707E-14
 -1      1581 2.16547E+01 4.55128E-03-3.53043E-03 1.57989E-01 1.37206E-14-4.16656E-13
 -1      1582 2.18856E+01 3.48262E-03-2.22035E-03 1.59782E-01-7.19032E-15-4.78837E-13
 -1      1583 2.17449E+01 9.55018E-03 3.17986E-04 3.19663E-01 1.16453E-13-2.78304E-13
 -1      1584 2.12783E+01 5.15465E-03-3.35300E-03 1.35765E-01-3.14953E-14-3.70137E-13
 -1      1585 2.14814E+01 6.05681E-03-1.88733E-03 1.39300E-01-1.39984E-14-3.81229E-13
 -1      1586 2.13848E+01 1.35070E-02-1.42082E-04 2.85508E-01-1.50138E-14-3.98938E-13
 -1      1587 2.09603E+01 5.02035E-03-2.87866E-03 1.11790E-01-5.11604E-14-2.31864E-13
 -1      1588 2.11304E+01 6.98375E-03-1.42169E-03 1.15985E-01-9.82840E-15-3.04457E-13
 -1      1589 2.10693E+01 1.43953E-02-4.00263E-04 2.42261E-01-6.71965E-14-2.18302E-13
 -1      1590 2.07015E+01 4.50512E-03-2.32110E-03 8.89786E-02 2.90324E-14-1.59887E-13
 -1      1591 2.08387E+01 6.90961E-03-9.72787E-04 9.31778E-02-2.43556E-14-1.94835E-13
 -1      1592 2.08043E+01 1.35515E-02-5.24163E-04 1.97745E-01-4.55196E-14-2.47749E-13
 -1      1593 2.04972E+01 3.83510E-03-1.78916E-03 6.87846E-02-4.06102E-14-1.19306E-13
 -1      1594 2.06046E+01 6.29354E-03-6.02339E-04 7.26343E-02 1.61264E-14-8.59705E-14
 -1      1595 2.05891E+01 1.18737E-02-5.62198E-04 1.56368E-01-2.69522E-14-1.56589E-13
 -1      1596 2.03404E+01 3.14302E-03-1.32949E-03 5.17486E-02 9.24229E-14-2.80458E-13
 -1      1597 2.04220E+01 5.43589E-03-3.23918E-04 5.50884E-02 7.08426E-14-1.57516E-13
 -1      1598 2.04194E+01 9.91479E-03-5.47785E-04 1.20236E-01 1.35408E-13-4.29793E-14
 -1      1599 2.02232E+01 2.50000E-03-9.55091E-04 3.78800E-02-6.31472E-14-3.52253E-13
 -1      1600 2.02835E+01 4.51979E-03-1.28984E-04 4.06669E-02-5.62560E-15-3.73337E-13
 -1      1601 2.02889E+01 7.98763E-03-5.03637E-04 9.00211E-02 8.65575E-14-8.17594E-14
 -1      1602 2.01378E+01 1.93881E-03-6.62512E-04 2.69084E-02-6.02307E-15-2.03350E-13
 -1      1603 2.01812E+01 3.64847E-03-1.37540E-06 2.91656E-02-8.34722E-14-3.30492E-13
 -1      1604 2.01911E+01 6.25051E-03-4.44982E-04 6.55741E-02-7.10285E-14-4.68214E-14
 -1      1605 2.00776E+01 1.46955E-03-4.41288E-04 1.84403E-02 6.76711E-14-3.83981E-13
 -1      1606 2.01078E+01 2.87356E-03 7.56868E-05 2.02244E-02 5.00632E-14-2.46369E-13
 -1      1607 2.01198E+01 4.76800E-03-3.81785E-04 4.63225E-02 8.41724E-14-3.28299E-13
 -1      1608 2.00367E+01 1.08962E-03-2.78917E-04 1.20511E-02-2.98528E-14-2.51602E-13
 -1      1609 2.00568E+01 2.21487E-03 1.16754E-04 1.34319E-02 1.04320E-14-2.86475E-13
 -1      1610 2.00692E+01 3.55095E-03-3.20288E-04 3.15187E-02-6.07211E-14-1.33523E-13
 -1      1611 2.00103E+01 7.89964E-04-1.63266E-04 7.33607E-03-6.30356E-14-1.48456E-13
 -1      1612 2.00229E+01 1.67350E-03 1.33354E-04 8.38471E-03-4.52483E-14-2.33518E-13
 -1      1613 2.00348E+01 2.58163E-03-2.64100E-04 2.03854E-02-1.07821E-13 7.83854E-14
 -1      1614 1.99946E+01 5.58685E-04-8.35925E-05 3.93595E-03 1.22286E-13-3.22896E-13
 -1      1615 2.00018E+01 1.24023E-03 1.34107E-04 4.71852E-03 2.00329E-14-2.34140E-13
 -1      1616 2.00124E+01 1.82883E-03-2.14992E-04 1.21953E-02 5.36645E-14-1.80118E-13
 -1      1617 1.99866E+01 3.83048E-04-3.08438E-05 1.54778E-03-1.04894E-13-4.26065E-13
 -1      1618 1.99898E+01 9.00631E-04 1.25155E-04 2.12185E-03 7.89773E-14-3.14992E-13
 -1      1619 1.99989E+01 1.25654E-03-1.73441E-04 6.31118E-03 7.62000E-14-2.59093E-14
 -1      1620 1.99838E+01 2.50413E-04 2.53992E-06-7.22683E-05 1.79041E-13-5.78897E-13
 -1      1621 1.99845E+01 6.37850E-04 1.10700E-04 3.40738E-04 1.49337E-14-5.70200E-13
 -1      1622 1.99918E+01 8.28446E-04-1.38967E-04 2.20201E-03 1.21431E-13-1.53957E-13
 -1      1623 1.99847E+01 1.48229E-04 2.35061E-05-1.10927E-03-1.18684E-14-7.12037E-13
 -1      1624 1.99836E+01 4.33721E-04 9.37088E-05-8.21043E-04 1.22543E-13-5.90748E-13
 -1      1625 1.99892E+01 5.09674E-04-1.10091E-04-5.52916E-04 1.13820E-13-2.56104E-13
 -1      1626 1.99877E+01 6.31415E-05 4.04029E-05-1.68890E-03 8.99131E-14-8.13422E-13
 -1      1627 1.99855E+01 2.68038E-04 7.71985E-05-1.50192E-03 1.01019E-13-7.82999E-13
 -1      1628 1.99896E+01 2.66178E-04-8.34595E-05-2.26336E-03 1.81810E-13-4.54314E-13
 -1      1629 1.99918E+01-2.01601E-05 6.39718E-05-1.87196E-03 1.00033E-13-8.71145E-13
 -1      1630 1.99892E+01 1.16785E-04 6.60799E-05-1.77872E-03 3.84708E-14-8.78818E-13
 -1      1631 1.99917E+01 6.07834E-05-5.27585E-05-3.12373E-03 1.16382E-13-4.96329E-13
 -1      1632 1.99959E+01-1.21732E-04 9.89298E-05-1.64262E-03-7.17654E-15-1.10051E-12
 -1      1633 1.99934E+01-5.21161E-05 6.64214E-05-1.66072E-03 9.59940E-14-9.41656E-13
 -1      1634 1.99946E+01-1.50165E-04-9.34482E-06-3.20067E-03 1.62103E-13-6.03716E-13
 -1      1635 1.99988E+01-2.82469E-04 8.77188E-05-9.41043E-04-5.63938E-14-9.39833E-13
 -1      1636 1.99971E+01-2.69593E-04 7.66259E-05-1.08970E-03-1.21068E-13-1.03978E-12
 -1      1637 1.99974E+01-4.61603E-04 4.33201E-05-2.44680E-03-7.75802E-14-7.28095E-13
 -1      1638 1.99995E+01-3.92677E-04 1.12707E-04-2.67149E-04-4.77576E-13-5.05277E-13
 -1      1639 1.99996E+01-3.28022E-03 3.42890E-05-1.47666E-03-7.83279E-13-1.70882E-14
 -1      1640 1.99995E+01-1.65841E-03 3.57512E-05-1.28438E-03-6.89583E-13-1.37425E-13
 -1      1641 1.99998E+01-6.71475E-03-1.17247E-05-1.78492E-03-3.10277E-13 6.02004E-13
 -1      1642 1.99997E+01-4.53759E-03 1.82368E-05-1.77214E-03-7.33332E-13 3.75905E-13
 -1      1643 1.99995E+01-3.37179E-03 2.76805E-05-3.05142E-03-3.07717E-13 2.54820E-13
 -1      1644 1.99999E+01-1.01019E-02-2.80175E-05-1.65207E-03-6.31915E-13-4.01053E-13
 -1      1645 1.99999E+01-8.00298E-03-5.72797E-06-1.71243E-03-3.18277E-13 3.63364E-14
 -1      1646 1.99999E+01-5.84856E-03-1.56351E-05-3.29714E-03-2.53525E-13 2.35758E-13
 -1      1647 2.00000E+01-1.29321E-02-2.66502E-05-1.30882E-03-7.94323E-13 5.77354E-14
 -1      1648 1.99999E+01-1.12238E-02-1.24520E-05-1.39246E-03-7.46288E-13 3.05671E-14
 -1      1649 2.00000E+01-8.16239E-03-3.59552E-05-2.88210E-03-3.60818E-13-3.72214E-13
 -1      1650 1.99999E+01-1.49801E-02-1.98680E-05-9.21499E-04-9.01361E-13 1.22562E-13
 -1      1651 1.99999E+01-1.37673E-02-8.87556E-06-9.99534E-04-8.24795E-13-3.08176E-14
 -1      1652 2.00001E+01-1.00208E-02-3.96032E-05-2.19167E-03-5.31639E-13-7.92751E-14
 -1      1653 1.99999E+01-1.63280E-02-1.22548E-05-5.62727E-04-4.40507E-13 2.72857E-13
 -1      1654 1.99999E+01-1.55531E-02-5.31937E-06-6.28459E-04-7.44755E-13 3.38063E-13
 -1      1655 2.00000E+01-1.13401E-02-3.21624E-05-1.47439E-03-4.69530E-13 2.26999E-13
 -1      1656 1.99999E+01-1.70273E-02-6.28990E-06-2.61177E-04-2.65489E-13-3.31587E-15
 -1      1657 1.99999E+01-1.66506E-02-2.69874E-06-3.14048E-04-3.47885E-13 8.38718E-14
 -1      1658 2.00000E+01-1.21669E-02-2.38147E-05-8.35483E-04-3.98148E-13 2.94262E-13
 -1      1659 1.99999E+01-1.71618E-02-3.11847E-06 5.96357E-06 2.86011E-13 4.42853E-13
 -1      1660 1.99999E+01-1.71405E-02-3.04870E-06-4.25081E-05-1.66221E-13 3.38384E-13
 -1      1661 2.00000E+01-1.25675E-02-1.85135E-05-2.89794E-04-1.00557E-14 2.92509E-13
 -1      1662 1.99999E+01-1.67399E-02-2.99059E-06 2.83044E-04-6.18157E-15-2.45788E-13
 -1      1663 1.99999E+01-1.70796E-02-6.51310E-06 2.28330E-04 1.70961E-13 5.77495E-14
 -1      1664 2.00000E+01-1.25987E-02-1.90282E-05 2.23063E-04-3.38793E-14 1.59512E-13
 -1      1665 1.99999E+01-1.56885E-02-5.75375E-06 6.10952E-04-4.29750E-13-2.95538E-13
 -1      1666 1.99999E+01-1.64410E-02-1.29794E-05 5.41946E-04 5.20381E-14-3.73779E-13
 -1      1667 2.00000E+01-1.22531E-02-2.52056E-05 7.85750E-04 3.98972E-14-3.44894E-13
 -1      1668 1.99999E+01-1.39302E-02-1.02395E-05 9.95114E-04-7.33626E-13-7.86005E-14
 -1      1669 2.00000E+01-1.51400E-02-2.09814E-05 9.14126E-04-5.34602E-13-2.06799E-13
 -1      1670 2.00001E+01-1.14703E-02-3.40203E-05 1.44847E-03-2.77187E-14-4.76293E-13
 -1      1671 1.99999E+01-1.13449E-02-1.27735E-05 1.41052E-03-9.24478E-13-2.31335E-13
 -1      1672 2.00000E+01-1.30760E-02-2.81235E-05 1.32331E-03-7.59811E-13 8.23851E-14
 -1      1673 2.00001E+01-1.01602E-02-4.09372E-05 2.20069E-03-2.36668E-13 6.53200E-14
 -1      1674 1.99999E+01-8.08632E-03-1.06035E-05 1.75150E-03-9.32747E-13 4.42296E-16
 -1      1675 1.99999E+01-1.02093E-02-2.86815E-05 1.68236E-03-9.59363E-13 5.70464E-14
 -1      1676 2.00000E+01-8.27144E-03-3.73785E-05 2.92548E-03-3.48944E-13-9.39388E-14
 -1      1677 1.99997E+01-4.62946E-03-1.32756E-06 1.78218E-03-5.98806E-13 2.09755E-13
 -1      1678 1.99998E+01-6.77506E-03-1.70243E-05 1.79046E-03-8.88144E-13 5.09663E-14
 -1      1679 1.99998E+01-5.89285E-03-1.86393E-05 3.35462E-03-2.85407E-13 1.30194E-13
 -1      1680 1.99994E+01-1.89433E-03-4.68985E-06 1.72899E-03-2.30468E-13 8.89777E-14
 -1      1681 1.99995E+01-3.48596E-03-1.65310E-05 2.02596E-03-3.35054E-13 3.41500E-14
 -1      1682 1.99995E+01-3.35878E-03 8.81415E-05 3.46463E-03-3.99764E-14 3.20579E-13
 -1      1683 1.99984E+01-1.43807E-03 5.21477E-05 3.18417E-03-8.51348E-14 2.55854E-14
 -1      1684-4.79026E-01-1.40013E+01-1.58268E+00-7.27273E-01 6.87339E-13 3.96461E-13
 -1      1685-5.19399E-01-1.61290E+01-1.76196E+00 4.41849E-01 3.71647E-13 1.01197E-13
 -1      1686 1.24395E+00-7.94456E+00-1.22628E+00 3.53698E-01 1.31384E-12 7.41573E-13
 -1      1687 5.55348E-01-1.30244E+01-1.71971E+00-1.98990E-01 8.28559E-13 5.09457E-13
 -1      1688 6.58793E+00-4.25835E-01-5.59259E-01 4.40177E+00 1.69731E-12 1.43063E-12
 -1      1689 3.68121E+00-5.81379E+00-1.30303E+00 1.63398E+00 1.38889E-12 1.00386E-12
 -1      1690 1.68055E+01 4.95378E+00 1.92101E-01 9.53199E+00 1.72640E-12 1.87628E-12
 -1      1691 1.03754E+01 1.47596E+00-6.97676E-01 5.77667E+00 1.90026E-12 1.49802E-12
 -1      1692 3.12285E+01 6.02966E+00 9.10336E-01 1.20679E+01 1.32283E-12 1.55920E-12
 -1      1693 2.23780E+01 5.52607E+00 8.58410E-02 1.00295E+01 1.62392E-12 1.77924E-12
 -1      1694 4.48204E+01 5.15350E+00 1.53233E+00 1.05409E+01 7.67206E-13 1.00653E-12
 -1      1695 3.61735E+01 6.57337E+00 8.56795E-01 1.18124E+01 1.11761E-12 1.54254E-12
 -1      1696 5.36314E+01 3.61277E+00 1.84227E+00 4.61813E+00 3.71619E-13 2.62068E-13
 -1      1697 4.86501E+01 4.98408E+00 1.51362E+00 9.05818E+00 6.30412E-13 8.16458E-13
 -1      1698 5.36642E+01 3.77644E+00 1.70028E+00-3.41957E+00 2.49967E-13-2.06168E-13
 -1      1699 5.43510E+01 3.63211E+00 1.78588E+00 2.03738E+00 2.36977E-13 1.12216E-13
 -1      1700 4.54703E+01 5.48871E+00 1.29014E+00-9.76839E+00 4.77188E-13-7.32636E-13
 -1      1701 5.17089E+01 3.94386E+00 1.70445E+00-5.79685E+00 2.97151E-13-3.94018E-13
 -1      1702 3.27452E+01 6.93223E+00 7.26279E-01-1.22548E+01 8.75300E-13-1.11267E-12
 -1      1703 4.17082E+01 5.67778E+00 1.41875E+00-1.18005E+01 5.93026E-13-8.73634E-13
 -1      1704 1.93815E+01 5.49209E+00-2.09045E-02-9.70253E+00 1.26199E-12-1.29052E-12
 -1      1705 2.76579E+01 6.56368E+00 8.21499E-01-1.23121E+01 9.91984E-13-1.21037E-12
 -1      1706 8.86798E+00 2.03899E-01-7.82161E-01-4.91191E+00 1.49747E-12-1.05582E-12
 -1      1707 1.44888E+01 4.26651E+00 7.83373E-02-8.62429E+00 1.36890E-12-1.24500E-12
 -1      1708 3.14487E+00-7.85928E+00-1.36831E+00-1.24788E+00 1.20537E-12-7.23310E-13
 -1      1709 5.66998E+00-2.17404E+00-6.54946E-01-3.71283E+00 1.38844E-12-9.47076E-13
 -1      1710 1.25238E-01-1.45658E+01-1.81430E+00 2.61194E-01 6.48037E-13-4.89914E-13
 -1      1711 5.04325E-01-9.89402E+00-1.35505E+00 2.31767E-01 1.18783E-12-7.33288E-13
 -1      1712-6.86527E-01-1.68076E+01-1.85540E+00-5.76872E-01-2.97668E-13-3.78919E-13
 -1      1713-6.79495E-01-1.54951E+01-1.73272E+00 8.65774E-01 3.83138E-13-4.85667E-13
 -1      1714-5.64361E-01-1.39718E+01-1.67832E+00-1.19181E+00-1.24301E-12-6.68160E-13
 -1      1715-5.27397E-01-1.68348E+01-1.92273E+00-6.30684E-02-5.61107E-13-4.32376E-13
 -1      1716 2.35119E+00-6.60310E+00-1.08179E+00 1.23864E+00-1.80256E-12-1.10073E-12
 -1      1717 1.18263E+00-1.20284E+01-1.63621E+00 8.76955E-02-1.41309E-12-7.64812E-13
 -1      1718 8.29700E+00 5.96060E-01-4.69676E-01 5.26167E+00-1.96620E-12-1.51057E-12
 -1      1719 4.82878E+00-4.45231E+00-1.21266E+00 2.23313E+00-1.95133E-12-1.25389E-12
 -1      1720 1.89737E+01 5.15607E+00 2.70360E-01 1.00788E+01-1.62914E-12-1.72784E-12
 -1      1721 1.23795E+01 2.30525E+00-5.66031E-01 6.61254E+00-1.90625E-12-1.64002E-12
 -1      1722 3.30116E+01 6.07877E+00 1.00401E+00 1.22859E+01-1.13076E-12-1.64690E-12
 -1      1723 2.42576E+01 5.87642E+00 2.07005E-01 1.05680E+01-1.48170E-12-1.74549E-12
 -1      1724 4.59790E+01 4.96146E+00 1.52825E+00 1.04577E+01-7.10806E-13-1.29496E-12
 -1      1725 3.77661E+01 6.58152E+00 9.69109E-01 1.20686E+01-9.73055E-13-1.58806E-12
 -1      1726 5.29520E+01 3.92751E+00 1.69671E+00 3.57899E+00-4.94715E-13-3.58935E-13
 -1      1727 4.82678E+01 5.10100E+00 1.38669E+00 7.90408E+00-6.19449E-13-9.31366E-13
 -1      1728 5.48202E+01 3.79240E+00 1.84890E+00-3.75080E+00-4.78007E-13 5.34850E-13
 -1      1729 5.55148E+01 3.54396E+00 1.85773E+00 1.76800E+00-4.72150E-13-2.33827E-13
 -1      1730 4.64386E+01 5.35210E+00 1.36604E+00-9.48842E+00-8.62768E-13 1.33238E-12
 -1      1731 5.24553E+01 3.94478E+00 1.79188E+00-5.73466E+00-5.90916E-13 7.12208E-13
 -1      1732 3.44563E+01 6.64584E+00 8.02249E-01-1.20929E+01-1.39483E-12 2.05702E-12
 -1      1733 4.29389E+01 5.40423E+00 1.45529E+00-1.14243E+01-1.00020E-12 1.70031E-12
 -1      1734 2.11217E+01 5.54343E+00 3.41744E-02-9.94355E+00-1.76059E-12 2.13318E-12
 -1      1735 2.95393E+01 6.31290E+00 8.72974E-01-1.22559E+01-1.50957E-12 2.23155E-12
 -1      1736 1.05048E+01 1.74155E-01-7.38342E-01-5.28094E+00-1.76037E-12 1.62237E-12
 -1      1737 1.66251E+01 3.82106E+00 1.05820E-01-8.91092E+00-1.79590E-12 1.87117E-12
 -1      1738 3.29083E+00-6.66136E+00-1.39511E+00-1.20672E+00-1.61049E-12 1.07209E-12
 -1      1739 5.98411E+00-1.31250E+00-6.84607E-01-3.82103E+00-1.83276E-12 1.44862E-12
 -1      1740 4.59619E-01-1.35808E+01-1.73516E+00 2.78151E-01-6.09957E-13 7.66519E-13
 -1      1741 1.10153E+00-8.66401E+00-1.26935E+00-1.60665E-01-1.36169E-12 1.07035E-12
 -1      1742-5.96953E-01-1.64392E+01-1.79784E+00-2.25859E-01 2.06390E-13 2.28428E-13
 -1      1743-6.31265E-01-1.47384E+01-1.66777E+00 1.06696E+00-3.15525E-13 4.82947E-13
 -1      1744 2.41430E+01 8.89432E-01 2.97990E-01 7.33720E+00 1.02207E-12 1.04106E-12
 -1      1745 1.36814E+01-2.89633E+00-3.44320E-01 6.36006E+00 8.78297E-13 1.07581E-12
 -1      1746 1.99993E+01-8.17549E-04 1.06500E-04-9.82580E-04-6.45436E-13-3.88426E-13
 -1      1747 1.99989E+01-1.37858E-03 5.60122E-05-2.22364E-03-3.34361E-13-2.61728E-13
 -1      1748 5.58829E-01-9.99963E+00-1.18194E+00 2.37502E+00 4.38594E-13 5.98965E-13
 -1      1749 5.64169E+00-7.11241E+00-8.79886E-01 4.36436E+00 6.90004E-13 8.83758E-13
 -1      1750-1.29887E+00-1.09273E+01-1.25533E+00 2.59381E-01 1.70725E-13 4.49807E-13
 -1      1751 3.42132E+01 3.88903E+00 7.84741E-01 6.46981E+00 9.70418E-13 7.13873E-13
 -1      1752 4.24718E+01 6.18641E+00 1.27170E+00 4.81023E+00 8.77964E-13 4.66072E-13
 -1      1753 4.67778E+01 7.16851E+00 1.52338E+00 1.58110E+00 5.46452E-13 3.28015E-13
 -1      1754 4.54640E+01 7.32780E+00 1.43381E+00-2.02365E+00 4.48086E-13 5.51781E-14
 -1      1755 4.06630E+01 5.98638E+00 1.22474E+00-5.37882E+00 5.41345E-13-2.98428E-13
 -1      1756 3.20733E+01 3.67886E+00 7.52168E-01-7.46093E+00 6.87672E-13-5.78537E-13
 -1      1757 2.16513E+01 3.61892E-01 1.31422E-01-7.44956E+00 7.96696E-13-6.94111E-13
 -1      1758 1.21346E+01-4.07889E+00-4.76841E-01-6.10480E+00 7.60059E-13-6.57363E-13
 -1      1759 4.58343E+00-7.94964E+00-8.88580E-01-4.25070E+00 5.19584E-13-6.53491E-13
 -1      1760-2.02569E-01-1.08411E+01-1.25029E+00-1.77543E+00 1.89071E-13-7.76157E-13
 -1      1761-1.30269E+00-1.15909E+01-1.33726E+00 2.61248E-01-2.52381E-13-7.65388E-13
 -1      1762 1.43682E+00-9.85364E+00-1.12211E+00 2.76642E+00-7.19091E-13-8.83071E-13
 -1      1763 7.36795E+00-6.56679E+00-7.86203E-01 4.84429E+00-1.00886E-12-9.54042E-13
 -1      1764 1.55730E+01-2.43294E+00-2.92864E-01 6.52919E+00-1.19615E-12-1.06248E-12
 -1      1765 2.57689E+01 1.20668E+00 3.26206E-01 7.33428E+00-1.09707E-12-1.01186E-12
 -1      1766 3.56116E+01 4.15669E+00 8.81759E-01 6.68928E+00-9.24649E-13-9.14047E-13
 -1      1767 4.24718E+01 6.38122E+00 1.22705E+00 4.13021E+00-7.61863E-13-4.80727E-13
 -1      1768 4.61320E+01 7.42691E+00 1.38789E+00 8.11235E-01-7.68052E-13-1.04500E-13
 -1      1769 4.64385E+01 7.20203E+00 1.51435E+00-1.93907E+00-8.45157E-13 2.04170E-13
 -1      1770 4.14518E+01 5.82456E+00 1.22236E+00-5.00072E+00-1.07528E-12 7.56728E-13
 -1      1771 3.33308E+01 3.61259E+00 7.59953E-01-7.14052E+00-1.17767E-12 1.26499E-12
 -1      1772 2.33811E+01 1.71780E-02 1.28584E-01-7.06852E+00-1.11322E-12 1.30151E-12
 -1      1773 1.35955E+01-3.75434E+00-3.81773E-01-6.14306E+00-1.07825E-12 1.26493E-12
 -1      1774 5.23053E+00-7.56056E+00-9.23681E-01-4.11349E+00-7.67719E-13 1.11616E-12
 -1      1775 3.15297E-01-1.03127E+01-1.20952E+00-2.07581E+00-3.47333E-13 1.02734E-12
 -1      1776 2.28897E+01 1.96396E+00-2.55891E-02-2.60486E+00-2.07917E-13 8.34000E-13
 -1      1777 1.99394E+01 3.75003E+00-3.58228E-02-1.92441E+00-2.55071E-13-2.78295E-13
 -1      1778 2.01953E+01 3.58099E+00-4.05684E-02-2.21426E+00-2.93090E-13-1.86268E-13
 -1      1779 2.05216E+01 3.17998E+00-4.52205E-02-2.37453E+00-2.92488E-13-7.21784E-14
 -1      1780 2.07438E+01 2.79610E+00-1.38331E-01-2.65466E+00-3.15753E-13 8.55011E-14
 -1      1781 2.05914E+01 2.71078E+00-1.54018E-03-1.98755E+00-3.07840E-13-1.09870E-13
 -1      1782 1.93157E+01 4.29232E+00-2.07142E-02-1.07258E+00-1.44955E-13-4.45213E-13
 -1      1783 1.94312E+01 4.24483E+00-1.52612E-02-1.28098E+00-1.74371E-13-4.28487E-13
 -1      1784 1.91428E+01 4.42600E+00-1.67896E-02-7.10227E-01-9.06042E-14-4.65355E-13
 -1      1785 1.92222E+01 4.39652E+00-1.24561E-02-8.96112E-01-1.17617E-13-4.58420E-13
 -1      1786 1.94493E+01 3.93775E+00-7.75812E-03-9.20549E-01-1.47264E-13-4.33452E-13
 -1      1787 1.90371E+01 4.50503E+00-1.41740E-02-3.80952E-01-2.85349E-14-4.57533E-13
 -1      1788 1.90831E+01 4.48913E+00-1.15706E-02-5.50230E-01-5.55016E-14-4.64651E-13
 -1      1789 1.92742E+01 4.09182E+00-7.34613E-03-5.91469E-01-8.18259E-14-4.43857E-13
 -1      1790 1.89943E+01 4.53845E+00-1.24743E-02-6.96953E-02 3.62219E-14-4.45560E-13
 -1      1791 1.90084E+01 4.53390E+00-1.17632E-02-2.31171E-01 9.49338E-15-4.55356E-13
 -1      1792 1.91731E+01 4.17635E+00-7.09032E-03-2.87727E-01-7.54968E-15-4.42086E-13
 -1      1793 1.90132E+01 4.52973E+00-1.15432E-02 2.39334E-01 1.01794E-13-4.38668E-13
 -1      1794 1.89958E+01 4.53588E+00-1.27310E-02 7.71854E-02 6.48300E-14-4.41544E-13
 -1      1795 1.91424E+01 4.20037E+00-7.05276E-03 3.51084E-03 5.83829E-14-4.25358E-13
 -1      1796 1.90933E+01 4.47843E+00-1.14621E-02 5.61876E-01 1.47859E-13-4.44044E-13
 -1      1797 1.90447E+01 4.49602E+00-1.44050E-02 3.90709E-01 1.27661E-13-4.47579E-13
 -1      1798 1.91808E+01 4.16679E+00-7.24896E-03 2.96428E-01 1.26471E-13-4.23698E-13
 -1      1799 1.92332E+01 4.38213E+00-1.24737E-02 9.07054E-01 1.94863E-13-3.99604E-13
 -1      1800 1.91537E+01 4.41235E+00-1.69934E-02 7.21828E-01 1.71502E-13-4.30647E-13
 -1      1801 1.92873E+01 4.07477E+00-7.52183E-03 6.01936E-01 1.74942E-13-4.21305E-13
 -1      1802 1.94453E+01 4.22445E+00-1.55131E-02 1.30135E+00 2.68453E-13-3.27361E-13
 -1      1803 1.93271E+01 4.27481E+00-2.10037E-02 1.08641E+00 2.23183E-13-3.63648E-13
 -1      1804 1.94644E+01 3.91528E+00-7.97709E-03 9.34110E-01 2.24184E-13-3.59952E-13
 -1      1805 1.97524E+01 3.97276E+00-2.33797E-02 1.75151E+00 3.23168E-13-2.22704E-13
 -1      1806 1.95813E+01 4.05908E+00-2.76866E-02 1.49919E+00 2.94009E-13-2.83752E-13
 -1      1807 1.97268E+01 3.66506E+00-7.86643E-03 1.30169E+00 2.99273E-13-2.82548E-13
 -1      1808 2.02172E+01 3.53817E+00-4.31193E-02 2.25113E+00 3.67584E-13-3.65125E-14
 -1      1809 1.99530E+01 3.70991E+00-4.01529E-02 1.95713E+00 3.37144E-13-1.45616E-13
 -1      1810 2.01052E+01 3.27669E+00-4.86842E-03 1.69165E+00 3.53767E-13-1.59912E-13
 -1      1811 2.10682E+01 2.66955E+00-5.54045E-02 2.66712E+00 3.56842E-13 3.03604E-13
 -1      1812 2.05664E+01 3.09419E+00-4.99290E-02 2.41047E+00 3.57207E-13 9.96495E-14
 -1      1813 2.06710E+01 2.62430E+00 3.26885E-03 2.01861E+00 3.67692E-13 3.67206E-14
 -1      1814 2.18454E+01 1.20067E+00-1.19977E-01 2.18351E+00 2.92433E-13 7.16524E-13
 -1      1815 2.14125E+01 2.24509E+00-1.38078E-04 2.56915E+00 3.27025E-13 4.44353E-13
 -1      1816 2.11117E+01 1.68131E+00-2.07307E-02 1.94774E+00 3.60927E-13 3.02005E-13
 -1      1817 2.11215E+01 7.73331E-01-5.95651E-02 1.38016E+00 2.95292E-13 6.19421E-13
 -1      1818 2.19107E+01 2.43209E+00 8.89696E-02-2.88508E+00-2.77681E-13 3.65694E-13
 -1      1819 2.03828E+01 3.05842E-01-6.77410E-03 5.06786E-01 2.19373E-13 4.85261E-13
 -1      1820 2.08680E+01 4.43540E-01-1.11464E-02 8.87921E-01 2.48586E-13 5.63970E-13
 -1      1821 2.09576E+01 8.44490E-01 1.11553E-03 1.23765E+00 2.89890E-13 3.80619E-13
 -1      1822 2.16539E+01 1.73307E+00 7.85510E-02-2.15628E+00-2.86146E-13 2.46650E-13
 -1      1823 2.07822E+01 5.15369E-01 3.31272E-02-7.33005E-01-2.33209E-13 2.00744E-13
 -1      1824 2.04258E+01 3.76630E-01 1.09901E-02-4.30085E-01-2.06637E-13 1.39800E-13
 -1      1825 2.02852E+01 2.89353E-01 2.79411E-02-1.67745E-01-1.86203E-13 1.33366E-13
 -1      1826 2.01843E+01 2.19089E-01 1.39367E-02-8.40790E-03-1.63531E-13 8.09578E-14
 -1      1827 2.05267E+01 5.25168E-01-7.64644E-03-4.51902E-01-2.37543E-13 1.64938E-14
 -1      1828 2.01318E+01 1.80497E-01 1.74030E-02 1.59395E-01-1.49273E-13 7.21818E-14
 -1      1829 2.01659E+01 1.49535E-01 1.11477E-02 2.60911E-01-1.12169E-13 4.66298E-14
 -1      1830 2.03276E+01 3.10191E-01-7.47271E-03 4.01859E-02-1.82381E-13 8.15277E-15
 -1      1831 2.01881E+01 1.31215E-01 9.74812E-03 3.79482E-01-9.16923E-14 2.24308E-14
 -1      1832 2.03139E+01 1.17627E-01 8.95706E-03 4.54961E-01-8.28929E-14-1.09771E-14
 -1      1833 2.03036E+01 2.14329E-01-6.62343E-03 3.65904E-01-1.37007E-13-7.24724E-15
 -1      1834 2.03954E+01 1.08711E-01 5.50129E-03 5.48616E-01-7.65163E-14-2.90599E-14
 -1      1835 2.05891E+01 1.03011E-01 7.77783E-03 6.12083E-01-6.81924E-14-3.40062E-14
 -1      1836 2.04138E+01 1.70862E-01-5.71579E-03 6.07091E-01-9.69637E-14-6.25381E-14
 -1      1837 2.07184E+01 9.76738E-02 3.17916E-03 6.92684E-01-6.53167E-14-4.27776E-14
 -1      1838 2.09665E+01 9.38705E-02 6.76929E-03 7.49434E-01-4.37710E-14-4.29732E-14
 -1      1839 2.06307E+01 1.50113E-01-4.85411E-03 8.04605E-01-8.20190E-14-6.14228E-14
 -1      1840 2.11360E+01 8.74978E-02 1.76305E-03 8.20429E-01-2.66475E-14-4.85699E-14
 -1      1841 2.14282E+01 7.98252E-02 5.16210E-03 8.69343E-01-1.76157E-14-3.23992E-14
 -1      1842 2.09350E+01 1.34244E-01-4.22039E-03 9.75926E-01-3.76487E-14-1.07148E-13
 -1      1843 2.16331E+01 6.71508E-02 7.76421E-04 9.26395E-01-4.43347E-14-2.03826E-14
 -1      1844 2.19562E+01 4.84707E-02 2.20919E-03 9.59447E-01-3.05525E-14-2.99316E-14
 -1      1845 2.13139E+01 1.06601E-01-3.86169E-03 1.12073E+00-1.21092E-14-7.95921E-14
 -1      1846 2.21932E+01 2.27535E-02 7.40024E-05 9.89188E-01-6.43110E-14-3.84848E-14
 -1      1847 2.25261E+01-1.58215E-02-2.78290E-03 9.89905E-01-6.78643E-14-8.86765E-14
 -1      1848 2.17581E+01 4.71912E-02-3.76529E-03 1.22045E+00-7.25486E-14-1.37073E-13
 -1      1849 2.27915E+01-6.23256E-02-2.76318E-04 9.68168E-01-6.32504E-14-7.93233E-14
 -1      1850 2.30996E+01-1.29472E-01-1.01227E-02 9.10962E-01-2.33108E-14-1.01659E-13
 -1      1851 2.22585E+01-6.79548E-02-3.82852E-03 1.23517E+00-6.96785E-14-7.84585E-14
 -1      1852 2.33867E+01-2.02114E-01-1.81265E-04 8.03106E-01 9.37531E-15-1.01447E-13
 -1      1853 2.36188E+01-2.99474E-01-1.90557E-02 6.57240E-01-1.18456E-14-6.76069E-14
 -1      1854 2.28024E+01-2.60387E-01-3.65727E-03 1.10196E+00-1.92476E-14-5.48415E-14
 -1      1855 2.39104E+01-3.92310E-01-1.14985E-04 4.25853E-01-1.27103E-14-4.32501E-14
 -1      1856 2.40029E+01-4.99654E-01-2.64796E-02 1.70029E-01-1.05974E-14 4.83778E-14
 -1      1857 2.33654E+01-5.29069E-01-2.29076E-03 7.42710E-01 2.88138E-14-5.65270E-14
 -1      1858 2.42559E+01-5.79976E-01-1.51168E-03-1.99314E-01-2.68917E-14 9.79989E-14
 -1      1859 2.41507E+01-6.40406E-01-2.69527E-02-5.45536E-01-4.21538E-14 1.43855E-13
 -1      1860 2.38926E+01-8.09798E-01 2.14918E-03 9.62194E-02-1.08169E-14 1.01003E-13
 -1      1861 2.42868E+01-6.40936E-01-7.48349E-03-9.98782E-01-4.80293E-14 1.09663E-13
 -1      1862 2.39688E+01-5.62543E-01-1.46187E-02-1.33858E+00-5.98653E-15 9.51999E-14
 -1      1863 2.42755E+01-9.39950E-01 9.81313E-03-8.04901E-01-3.37456E-14 1.28076E-13
 -1      1864 2.38921E+01-3.99865E-01-1.82013E-02-1.70021E+00 1.40985E-14 2.30684E-14
 -1      1865 2.34316E+01-1.26232E-01 7.38777E-03-1.84856E+00-3.63357E-14 5.57158E-14
 -1      1866 2.43515E+01-6.78536E-01 1.51417E-02-1.73004E+00-4.83296E-14 7.64488E-14
 -1      1867 2.31430E+01 1.94137E-01-2.55544E-02-1.85639E+00-6.96153E-14 6.22297E-14
 -1      1868 2.27081E+01 5.67213E-01 2.34079E-02-1.64324E+00-1.04274E-13 6.69794E-14
 -1      1869 2.40170E+01 7.82922E-02 2.82023E-03-2.19204E+00-4.69572E-14 5.79398E-14
 -1      1870 2.23932E+01 8.82056E-01-1.50671E-02-1.14755E+00-1.90903E-13 4.97588E-14
 -1      1871 2.21867E+01 1.09735E+00 1.66655E-02-5.86078E-01-2.15442E-13-7.97309E-14
 -1      1872 2.34409E+01 1.07538E+00-2.00602E-02-1.68463E+00-1.65441E-13 7.63430E-14
 -1      1873 2.21401E+01 1.14570E+00 9.30776E-03 2.03168E-01-2.65978E-13-1.15823E-13
 -1      1874 2.22673E+01 1.02734E+00-7.56702E-03 8.18564E-01-2.17510E-13-1.84124E-13
 -1      1875 2.30887E+01 1.62433E+00-4.10535E-02-2.34789E-01-2.84460E-13-9.54813E-15
 -1      1876 2.25356E+01 7.74414E-01 2.45257E-02 1.44503E+00-1.41231E-13-3.06182E-13
 -1      1877 2.29374E+01 4.18008E-01-2.36138E-02 1.78143E+00-8.66581E-14-3.95795E-13
 -1      1878 2.33072E+01 1.31310E+00-3.09642E-02 1.37710E+00-2.62883E-13-2.13047E-13
 -1      1879 2.32784E+01 7.25051E-02 1.58574E-02 1.92336E+00-9.12881E-14-3.93229E-13
 -1      1880 2.37688E+01-2.47697E-01-1.90044E-02 1.87276E+00-9.40992E-14-4.53330E-13
 -1      1881 2.38972E+01 3.88878E-01-5.85679E-04 2.21471E+00-1.14197E-13-3.12453E-13
 -1      1882 2.39284E+01-4.62998E-01-7.43059E-03 1.59610E+00 3.59435E-15-4.02777E-13
 -1      1883 2.43224E+01-5.99112E-01-9.32862E-03 1.29633E+00 1.46124E-13-3.08267E-13
 -1      1884 2.43607E+01-4.92825E-01 1.43633E-02 2.00646E+00-1.33175E-14-2.54220E-13
 -1      1885 2.42579E+01-6.41049E-01-2.47005E-02 8.51565E-01 7.47406E-14-2.12969E-13
 -1      1886 2.44527E+01-6.11732E-01-2.42979E-03 4.96962E-01 8.43648E-14-2.45696E-13
 -1      1887 2.44359E+01-9.01385E-01 1.21195E-02 1.17586E+00 1.28755E-13-1.63596E-13
 -1      1888 2.42418E+01-5.45834E-01-2.80467E-02 9.78377E-02 6.51475E-14-2.04944E-13
 -1      1889 2.42315E+01-4.43331E-01 6.75183E-05-1.84650E-01-2.43139E-14-1.80733E-13
 -1      1890 2.41610E+01-8.63060E-01 3.24415E-03 2.42507E-01 7.40874E-14-2.01822E-13
 -1      1891 2.39646E+01-3.48506E-01-2.18976E-02-4.50709E-01-7.37448E-14-1.67702E-13
 -1      1892 2.37996E+01-2.43704E-01 4.46191E-04-6.22079E-01-4.07313E-14-7.95735E-14
 -1      1893 2.36995E+01-6.02148E-01-2.01356E-03-4.75960E-01 3.69479E-14-1.09065E-13
 -1      1894 2.35294E+01-1.63230E-01-1.28724E-02-7.55492E-01-3.13603E-14-5.67732E-14
 -1      1895 2.32747E+01-8.61060E-02 3.82730E-04-8.29249E-01 1.85485E-14-5.14007E-14
 -1      1896 2.31802E+01-3.17079E-01-3.77399E-03-9.00613E-01 1.60965E-14 5.36589E-14
 -1      1897 2.30240E+01-3.22716E-02-4.92767E-03-8.64933E-01 3.78994E-15-1.06228E-13
 -1      1898 2.27349E+01 1.38592E-02 5.27066E-04-8.71845E-01 7.47642E-14-1.97319E-13
 -1      1899 2.26712E+01-9.90442E-02-3.88582E-03-1.07608E+00-3.51615E-14 6.76655E-14
 -1      1900 2.25115E+01 4.39269E-02 5.95292E-04-8.47853E-01 1.58445E-13-2.40496E-13
 -1      1901 2.22262E+01 6.62134E-02 8.46548E-04-8.16897E-01 1.14505E-13-1.02216E-13
 -1      1902 2.22022E+01 3.61692E-02-3.54051E-03-1.08258E+00 4.72988E-14 1.69905E-14
 -1      1903 2.20318E+01 7.96762E-02 3.76944E-03-7.62687E-01 2.59983E-14-1.71158E-13
 -1      1904 2.17724E+01 8.67238E-02 1.16874E-03-7.14748E-01-1.16246E-13-1.63218E-13
 -1      1905 2.17846E+01 1.05034E-01-3.18466E-03-9.92782E-01 4.57226E-14-3.81480E-14
 -1      1906 2.16065E+01 9.01605E-02 5.18419E-03-6.49601E-01-1.51584E-13-1.98830E-13
 -1      1907 2.13829E+01 8.87312E-02 1.38319E-03-5.97540E-01-1.22398E-13-2.36025E-13
 -1      1908 2.14222E+01 1.30250E-01-2.89204E-03-8.58967E-01-1.29732E-13-9.62716E-14
 -1      1909 2.12440E+01 8.68202E-02 5.47094E-03-5.32618E-01-2.07257E-13-2.61026E-13
 -1      1910 2.10585E+01 8.13556E-02 1.46158E-03-4.83372E-01-2.28260E-13-2.86893E-13
 -1      1911 2.11146E+01 1.30462E-01-2.63338E-03-7.13879E-01-2.10385E-13-1.28785E-13
 -1      1912 2.09443E+01 7.70137E-02 5.12785E-03-4.24346E-01-1.98978E-13-2.69639E-13
 -1      1913 2.07950E+01 7.01228E-02 1.42659E-03-3.81073E-01-8.48210E-14-2.87972E-13
 -1      1914 2.08589E+01 1.18251E-01-2.37444E-03-5.75721E-01-1.77422E-13-1.31498E-13
 -1      1915 2.07028E+01 6.50091E-02 4.49103E-03-3.30258E-01-3.76283E-15-3.86712E-13
 -1      1916 2.05854E+01 5.80854E-02 1.31553E-03-2.93935E-01 6.71789E-14-3.79420E-13
 -1      1917 2.06504E+01 1.01167E-01-2.10269E-03-4.53193E-01-1.02908E-13-1.93969E-15
 -1      1918 2.05123E+01 5.30665E-02 3.76343E-03-2.51759E-01 4.19666E-14-3.87533E-13
 -1      1919 2.04219E+01 4.67740E-02 1.16325E-03-2.22218E-01 5.01179E-14-3.68786E-13
 -1      1920 2.04835E+01 8.33397E-02-1.82291E-03-3.49320E-01 3.73041E-14-2.24636E-13
 -1      1921 2.03650E+01 4.22533E-02 3.05589E-03-1.88137E-01-5.06245E-14-4.27713E-13
 -1      1922 2.02968E+01 3.68470E-02 9.96070E-04-1.64679E-01-9.87441E-14-3.95048E-13
 -1      1923 2.03523E+01 6.68083E-02-1.54670E-03-2.64005E-01 1.54490E-14-1.99863E-13
 -1      1924 2.02532E+01 3.29726E-02 2.42154E-03-1.37722E-01-9.81597E-14-3.97363E-13
 -1      1925 2.02028E+01 2.84927E-02 8.31425E-04-1.19456E-01-6.92029E-14-5.54297E-13
 -1      1926 2.02510E+01 5.24190E-02-1.28564E-03-1.95603E-01-8.05777E-14-1.10382E-13
 -1      1927 2.01701E+01 2.52794E-02 1.87995E-03-9.85207E-02 1.12755E-13-5.91542E-13
 -1      1928 2.01336E+01 2.16625E-02 6.79554E-04-8.45436E-02 2.18822E-13-4.48476E-13
 -1      1929 2.01742E+01 4.03809E-02-1.04824E-03-1.41843E-01 6.36931E-15-2.19827E-13
 -1      1930 2.01095E+01 1.90611E-02 1.43256E-03-6.85564E-02 2.36241E-13-4.89039E-13
 -1      1931 2.00838E+01 1.62003E-02 5.45524E-04-5.80373E-02 2.59504E-13-3.85419E-13
 -1      1932 2.01171E+01 3.05856E-02-8.39308E-04-1.00328E-01 1.84172E-13-2.89194E-13
 -1      1933 2.00665E+01 1.41345E-02 1.07190E-03-4.60280E-02 1.87684E-13-1.19534E-13
 -1      1934 2.00490E+01 1.19114E-02 4.30916E-04-3.82430E-02 1.19108E-13-5.09452E-14
 -1      1935 2.00756E+01 2.27843E-02-6.60397E-04-6.87966E-02 3.23374E-13-1.61988E-13
 -1      1936 2.00369E+01 1.02975E-02 7.86732E-04-2.93738E-02 6.26030E-14 1.43144E-14
 -1      1937 2.00254E+01 8.59656E-03 3.35072E-04-2.37150E-02 4.85755E-15 5.47919E-14
 -1      1938 2.00461E+01 1.66813E-02-5.10679E-04-4.52420E-02 1.48159E-13-6.05726E-14
 -1      1939 2.00173E+01 7.35318E-03 5.64909E-04-1.72866E-02-1.33961E-13 1.59734E-13
 -1      1940 2.00103E+01 6.06904E-03 2.55976E-04-1.32580E-02-2.19619E-14 1.89336E-13
 -1      1941 2.00259E+01 1.19798E-02-3.87760E-04-2.79534E-02 7.94636E-14 2.25976E-13
 -1      1942 2.00051E+01 5.12085E-03 3.94704E-04-8.70292E-03 1.92859E-13 1.34214E-13
 -1      1943 2.00013E+01 4.15984E-03 1.90730E-04-5.91097E-03 2.99351E-13 2.30510E-13
 -1      1944 2.00126E+01 8.40423E-03-2.88313E-04-1.55174E-02 2.37962E-14 3.24005E-13
 -1      1945 1.99983E+01 3.43834E-03 2.65635E-04-2.78253E-03 1.81388E-13 2.76716E-13
 -1      1946 1.99967E+01 2.71622E-03 1.35774E-04-9.26428E-04 1.32140E-13 4.23057E-13
 -1      1947 2.00044E+01 5.70505E-03-2.08926E-04-6.80008E-03 2.37398E-13 3.47077E-13
 -1      1948 1.99951E+01 2.15738E-03 1.68802E-04 1.11157E-03 1.24083E-13 3.22649E-13
 -1      1949 1.99950E+01 1.59654E-03 8.73825E-05 2.24700E-03 2.17818E-13 3.25985E-13
 -1      1950 1.99999E+01 3.65578E-03-1.46101E-04-9.23454E-04 1.28856E-13 5.04390E-13
 -1      1951 1.99944E+01 1.13976E-03 9.71304E-05 3.42918E-03 1.87798E-13 2.75353E-13
 -1      1952 1.99952E+01 6.69939E-04 4.60780E-05 3.97685E-03 1.47353E-13 2.31162E-13
 -1      1953 1.99978E+01 2.04750E-03-9.58989E-05 2.75529E-03 1.20959E-13 3.92431E-13
 -1      1954 1.99952E+01 2.34155E-04 4.23936E-05 4.46189E-03 6.65661E-14 9.61963E-14
 -1      1955 1.99964E+01-2.16641E-04 1.02868E-05 4.46520E-03 3.78729E-14 1.12466E-13
 -1      1956 1.99973E+01 6.93400E-04-5.49188E-05 4.66706E-03-4.48559E-14 7.79367E-14
 -1      1957 1.99967E+01-6.06726E-04 1.90342E-05 4.32688E-03 9.34972E-14 4.88360E-14
 -1      1958 1.99978E+01-1.10889E-03-2.04207E-05 3.79590E-03 4.45051E-15 8.47799E-14
 -1      1959 1.99985E+01-1.82105E-03-2.38430E-05 4.32247E-03-4.16502E-14 1.02024E-13
 -1      1960 1.99977E+01-6.37340E-04-3.95654E-05 5.09212E-03-3.20338E-14 9.01280E-14
 -1      1961 2.00350E+01 1.59586E-01 9.62878E-03 8.54588E-02 1.61220E-13 3.77134E-13
 -1      1962 2.02303E+01 2.18214E-01 1.74550E-02 2.70519E-01 1.77502E-13 4.43029E-13
 -1      1963 2.04227E+01 3.66430E-01-2.69880E-03 4.55106E-01 2.22565E-13 2.93284E-13
 -1      1964 1.99569E+01 9.70456E-02 8.73324E-03-1.55593E-01 1.08053E-13 2.67746E-13
 -1      1965 1.99803E+01 1.24537E-01 1.53084E-02-4.83233E-02 1.15547E-13 3.39209E-13
 -1      1966 2.01627E+01 1.93782E-01-3.30722E-03 1.76231E-02 1.51709E-13 2.30056E-13
 -1      1967 2.00667E+01 6.67817E-02 6.32141E-03-3.10374E-01 8.44038E-14 2.24084E-13
 -1      1968 1.99857E+01 8.13468E-02 9.64824E-03-2.39000E-01 8.56962E-14 2.44584E-13
 -1      1969 2.01249E+01 1.19020E-01-4.32853E-03-2.47959E-01 1.19532E-13 1.40433E-13
 -1      1970 2.03067E+01 4.95499E-02 4.72568E-03-4.19382E-01 6.64083E-14 2.28820E-13
 -1      1971 2.01575E+01 5.86713E-02 5.77429E-03-3.66899E-01 6.74614E-14 2.31455E-13
 -1      1972 2.02427E+01 8.20294E-02-4.54642E-03-4.24667E-01 7.02867E-14 1.31014E-13
 -1      1973 2.06389E+01 3.60974E-02 3.51829E-03-4.98912E-01 7.38678E-14 1.61110E-13
 -1      1974 2.04430E+01 4.36566E-02 3.47769E-03-4.58770E-01 6.36010E-14 2.23529E-13
 -1      1975 2.04711E+01 5.92821E-02-4.21882E-03-5.50341E-01 8.69190E-14 1.34521E-13
 -1      1976 2.10348E+01 2.02224E-02 2.16690E-03-5.51401E-01 1.14718E-13 1.28055E-13
 -1      1977 2.08081E+01 2.89000E-02 1.88911E-03-5.23080E-01 1.06240E-13 1.62682E-13
 -1      1978 2.07791E+01 3.86116E-02-3.73222E-03-6.38795E-01 1.31740E-13 6.15725E-14
 -1      1979 2.14662E+01-3.54602E-03 3.50226E-04-5.68898E-01 7.01250E-14 3.69184E-14
 -1      1980 2.12251E+01 8.52090E-03 4.40237E-04-5.56673E-01 9.75569E-14 9.79299E-14
 -1      1981 2.11415E+01 1.13009E-02-3.17520E-03-6.88598E-01 1.42368E-13 8.05870E-14
 -1      1982 2.18984E+01-4.00909E-02-2.02311E-03-5.34298E-01 5.93275E-16 7.76393E-14
 -1      1983 2.16641E+01-2.28863E-02-1.15633E-03-5.46885E-01 2.87617E-14 4.11247E-14
 -1      1984 2.15332E+01-3.02515E-02-2.42309E-03-6.86238E-01 5.44317E-14 7.16462E-14
 -1      1985 2.22853E+01-9.20230E-02-4.72213E-03-4.23643E-01 9.10686E-15 9.18124E-14
 -1      1986 2.20862E+01-6.93897E-02-2.97693E-03-4.73241E-01 1.79717E-14 7.64480E-14
 -1      1987 2.19230E+01-9.17604E-02-1.22353E-03-6.08265E-01 2.51769E-14 5.18162E-14
 -1      1988 2.25673E+01-1.55777E-01-7.04157E-03-2.12866E-01 2.15032E-14 1.28202E-13
 -1      1989 2.24394E+01-1.30753E-01-4.88819E-03-3.11893E-01 1.87073E-14 9.34695E-14
 -1      1990 2.22699E+01-1.73335E-01 7.35299E-04-4.26203E-01 6.16044E-15 4.87533E-14
 -1      1991 2.26749E+01-2.15973E-01-7.81280E-03 1.07442E-01 7.93159E-14 3.37590E-14
 -1      1992 2.26574E+01-1.97244E-01-6.54918E-03-4.62782E-02 4.37931E-14 8.95699E-14
 -1      1993 2.25208E+01-2.62736E-01 3.66959E-03-1.18299E-01 6.43097E-14 2.68405E-14
 -1      1994 2.25439E+01-2.41464E-01-5.84393E-03 5.08321E-01 1.59733E-14 6.46939E-14
 -1      1995 2.26681E+01-2.44062E-01-7.39982E-03 3.13728E-01 2.56262E-14 4.87865E-14
 -1      1996 2.26132E+01-3.28167E-01 7.33387E-03 3.08697E-01 4.04754E-14 2.45605E-14
 -1      1997 2.21434E+01-1.91557E-01-1.19565E-03 8.98055E-01-3.06959E-14 6.83655E-14
 -1      1998 2.24150E+01-2.31735E-01-6.76412E-03 7.07591E-01-1.10615E-14 2.59055E-14
 -1      1999 2.24892E+01-3.18311E-01 1.05527E-02 7.90442E-01-8.17749E-15 1.05432E-14
 -1      2000 2.15174E+01-4.20929E-02 3.53870E-03 1.12248E+00 3.96308E-14 3.75498E-14
 -1      2001 2.18977E+01-1.23417E-01-4.18228E-03 1.01128E+00-2.41890E-14 5.32682E-14
 -1      2002 2.21269E+01-1.83764E-01 1.07306E-02 1.18545E+00-1.57331E-14 9.22352E-15
 -1      2003 2.08184E+01 1.76445E-01 4.57391E-03 1.02324E+00 1.29690E-13-3.89567E-14
 -1      2004 2.12158E+01 7.83375E-02 4.68021E-04 1.06638E+00 8.13819E-14-1.49394E-14
 -1      2005 2.15876E+01 7.69891E-02 5.36213E-03 1.30101E+00 1.22772E-13-2.53964E-14
 -1      2006 2.02896E+01 3.66529E-01 5.25288E-04 5.50403E-01 3.95716E-14-2.13657E-14
 -1      2007 2.05786E+01 3.01386E-01 6.68554E-03 7.67977E-01 1.18789E-13-2.54024E-14
 -1      2008 2.10429E+01 3.78291E-01-4.08690E-03 9.92258E-01 9.85288E-14-3.88960E-14
 -1      2009 2.01621E+01 4.17041E-01-5.43714E-03-1.52286E-01-3.34264E-14-1.86167E-13
 -1      2010 2.02316E+01 4.26956E-01 1.13839E-02 1.67963E-01-2.01401E-15-1.47056E-13
 -1      2011 2.07261E+01 5.72492E-01-1.10856E-02 2.94563E-01 6.50747E-14-8.63652E-14
 -1      2012 2.05095E+01 2.96950E-01-6.52524E-03-7.98713E-01-2.41101E-14-1.93939E-13
 -1      2013 2.03253E+01 3.78340E-01 1.23531E-02-5.07772E-01-6.97185E-15-1.51769E-13
 -1      2014 2.07976E+01 5.43061E-01-1.11461E-02-5.34707E-01-4.45130E-15-1.55703E-13
 -1      2015 2.11900E+01 8.34578E-02-1.48918E-03-1.14104E+00 1.65694E-14-3.10325E-13
 -1      2016 2.08159E+01 1.88513E-01 8.73585E-03-9.86360E-01-2.70738E-14-3.00643E-13
 -1      2017 2.12280E+01 3.13033E-01-2.69556E-03-1.15390E+00 1.71634E-14-1.95303E-13
 -1      2018 2.19432E+01-1.10404E-01 4.41295E-03-1.11073E+00 8.89891E-14-2.59615E-13
 -1      2019 2.15068E+01-3.19150E-02 1.82306E-03-1.11818E+00 2.91621E-14-3.18632E-13
 -1      2020 2.18204E+01 8.75828E-03 4.23122E-03-1.35675E+00 4.15406E-14-3.23373E-13
 -1      2021 2.25403E+01-2.13825E-01 7.46677E-03-8.11980E-01-9.19924E-15-3.02281E-13
 -1      2022 2.21662E+01-1.84127E-01-5.10085E-03-9.34097E-01 1.23263E-13-2.32883E-13
 -1      2023 2.23503E+01-2.28122E-01 5.06058E-03-1.16187E+00 8.07835E-14-3.50310E-13
 -1      2024 2.28709E+01-2.25389E-01 7.06852E-03-4.12988E-01-9.09533E-14-3.78094E-13
 -1      2025 2.26331E+01-2.36075E-01-9.08673E-03-5.78371E-01-7.73461E-14-3.64418E-13
 -1      2026 2.26815E+01-3.29651E-01 2.69388E-03-7.39389E-01-3.63078E-15-3.55826E-13
 -1      2027 2.29335E+01-1.80484E-01 4.68969E-03-4.75595E-02-1.44491E-13-2.62674E-13
 -1      2028 2.28478E+01-2.11388E-01-9.74861E-03-2.00183E-01-1.42397E-13-3.38571E-13
 -1      2029 2.27827E+01-3.13835E-01 2.16261E-04-2.74929E-01-1.35292E-13-2.73092E-13
 -1      2030 2.27869E+01-1.17119E-01 2.02228E-03 2.18566E-01-7.46655E-14-7.96377E-14
 -1      2031 2.28295E+01-1.50989E-01-8.14046E-03 1.06216E-01-1.20313E-13-1.30165E-13
 -1      2032 2.26903E+01-2.34911E-01-1.06173E-03 1.09814E-01-1.60347E-13-2.58764E-13
 -1      2033 2.25068E+01-5.91130E-02 7.72619E-05 3.75125E-01 1.15916E-13-6.66090E-14
 -1      2034 2.26372E+01-8.67839E-02-5.56794E-03 3.07761E-01 2.10517E-14-7.72212E-15
 -1      2035 2.24646E+01-1.42033E-01-1.27190E-03 3.68734E-01-1.88868E-15-1.53142E-13
 -1      2036 2.21603E+01-1.60349E-02-9.73647E-04 4.41027E-01 5.20506E-14-6.58015E-14
 -1      2037 2.23385E+01-3.48375E-02-2.97291E-03 4.11243E-01 5.09436E-14-3.95409E-14
 -1      2038 2.21644E+01-6.30924E-02-1.00559E-03 5.06528E-01 8.78850E-14-4.32842E-14
 -1      2039 2.17978E+01 1.13762E-02-1.33184E-03 4.43844E-01 1.33277E-13 1.37915E-14
 -1      2040 2.19922E+01 6.07582E-04-8.63327E-04 4.40503E-01 1.03478E-13 1.53406E-14
 -1      2041 2.18361E+01-7.36975E-03-6.85556E-04 5.50649E-01 9.16998E-14 1.89534E-14
 -1      2042 2.14524E+01 2.61706E-02-1.27922E-03 4.08878E-01 5.37970E-14-1.26673E-13
 -1      2043 2.16413E+01 2.13780E-02 6.07161E-04 4.21629E-01 1.73441E-13 9.27253E-15
 -1      2044 2.15126E+01 2.63216E-02-4.77119E-04 5.32666E-01 2.07259E-13 1.48007E-13
 -1      2045 2.11428E+01 3.21843E-02-1.04064E-03 3.55250E-01-7.87478E-15-2.79981E-13
 -1      2046 2.13136E+01 3.12921E-02 1.48538E-03 3.76190E-01-6.56007E-15-2.71607E-13
 -1      2047 2.12141E+01 4.31599E-02-3.90857E-04 4.79373E-01 9.70126E-14-9.84701E-14
 -1      2048 2.08772E+01 3.27250E-02-7.55238E-04 2.95732E-01-5.00802E-14-3.94343E-13
 -1      2049 2.10241E+01 3.40916E-02 1.90157E-03 3.19521E-01-3.53177E-14-3.32368E-13
 -1      2050 2.09515E+01 4.87118E-02-3.81475E-04 4.10238E-01-1.47213E-15-3.77875E-13
 -1      2051 2.06572E+01 3.02222E-02-4.93404E-04 2.37989E-01-4.92996E-14-2.77230E-13
 -1      2052 2.07788E+01 3.27047E-02 1.99852E-03 2.61377E-01-1.17870E-13-3.22121E-13
 -1      2053 2.07288E+01 4.75005E-02-4.02042E-04 3.37913E-01-1.14316E-13-4.62968E-13
 -1      2054 2.04802E+01 2.62948E-02-2.82321E-04 1.86074E-01-2.82444E-14-8.02426E-14
 -1      2055 2.05777E+01 2.91658E-02 1.89836E-03 2.07302E-01-4.98699E-14-1.14315E-13
 -1      2056 2.05455E+01 4.27302E-02-4.21907E-04 2.69783E-01-1.47913E-13-3.05282E-13
 -1      2057 2.03413E+01 2.19414E-02-1.26066E-04 1.41687E-01 1.85961E-13 5.79607E-14
 -1      2058 2.04175E+01 2.47753E-02 1.69251E-03 1.59978E-01 8.10637E-14 5.46283E-14
 -1      2059 2.03987E+01 3.64737E-02-4.26835E-04 2.09577E-01 5.69603E-14 4.34431E-14
 -1      2060 2.02350E+01 1.77314E-02-1.83254E-05 1.05108E-01 5.44475E-15 5.89218E-14
 -1      2061 2.02929E+01 2.03043E-02 1.44321E-03 1.20287E-01 9.01836E-14 1.17827E-13
 -1      2062 2.02837E+01 2.99703E-02-4.13743E-04 1.58672E-01 9.18983E-14 2.11935E-13
 -1      2063 2.01556E+01 1.39548E-02 5.06423E-05 7.58322E-02 2.33868E-15-1.19275E-13
 -1      2064 2.01985E+01 1.61698E-02 1.18943E-03 8.80630E-02 1.16851E-14-8.63363E-14
 -1      2065 2.01958E+01 2.38974E-02-3.85436E-04 1.17048E-01 1.07457E-13 1.40381E-13
 -1      2066 2.00978E+01 1.07291E-02 9.06269E-05 5.29781E-02 8.88751E-14-1.62754E-13
 -1      2067 2.01287E+01 1.25647E-02 9.53302E-04 6.25918E-02 1.01970E-13-9.93003E-14
 -1      2068 2.01302E+01 1.85749E-02-3.46892E-04 8.39316E-02 9.09872E-14-5.12477E-14
 -1      2069 2.00569E+01 8.07057E-03 1.10053E-04 3.55347E-02-2.48923E-13-1.77362E-13
 -1      2070 2.00785E+01 9.54714E-03 7.45676E-04 4.29265E-02-1.47642E-13-3.19199E-13
 -1      2071 2.00823E+01 1.41079E-02-3.03141E-04 5.82016E-02-1.18847E-13-2.30410E-13
 -1      2072 2.00291E+01 5.94022E-03 1.15552E-04 2.25066E-02-1.25309E-14-1.00311E-13
 -1      2073 2.00435E+01 7.09895E-03 5.70192E-04 2.80736E-02-1.31356E-13-7.67342E-14
 -1      2074 2.00485E+01 1.04790E-02-2.58299E-04 3.86450E-02-2.10951E-13-4.74324E-13
 -1      2075 2.00111E+01 4.27158E-03 1.11972E-04 1.29907E-02 4.66967E-14-1.26333E-13
 -1      2076 2.00202E+01 5.16188E-03 4.26186E-04 1.70975E-02 6.68988E-14-1.48196E-13
 -1      2077 2.00255E+01 7.60667E-03-2.15288E-04 2.40977E-02 8.55338E-14-2.82206E-13
 -1      2078 2.00003E+01 2.98715E-03 1.02544E-04 6.21202E-03 6.88001E-14-1.14582E-14
 -1      2079 2.00055E+01 3.65958E-03 3.10581E-04 9.17437E-03-1.47075E-14-1.05683E-13
 -1      2080 2.00106E+01 5.38049E-03-1.75901E-04 1.35209E-02-3.53889E-15-1.39421E-13
 -1      2081 1.99947E+01 2.00687E-03 8.90941E-05 1.53771E-03 2.53831E-13-2.55119E-14
 -1      2082 1.99972E+01 2.50980E-03 2.19092E-04 3.61490E-03 2.14487E-13 3.01264E-14
 -1      2083 2.00016E+01 3.68027E-03-1.41029E-04 6.03601E-03 2.02748E-13-1.16019E-14
 -1      2084 1.99927E+01 1.25071E-03 7.23204E-05-1.52191E-03 1.80418E-13-1.67821E-13
 -1      2085 1.99933E+01 1.62979E-03 1.47040E-04-1.29406E-04 2.31053E-13-6.14869E-14
 -1      2086 1.99970E+01 2.38544E-03-1.10835E-04 9.36254E-04 2.58693E-13 3.52531E-14
 -1      2087 1.99930E+01 6.35816E-04 5.31232E-05-3.31378E-03 1.20787E-13-2.08280E-13
 -1      2088 1.99924E+01 9.35860E-04 9.03127E-05-2.46649E-03 1.46389E-13-2.01845E-13
 -1      2089 1.99952E+01 1.37579E-03-8.45674E-05-2.31341E-03 1.76442E-13 3.44885E-14
 -1      2090 1.99946E+01 7.29157E-05 3.28818E-05-4.03448E-03 1.19572E-13-4.33570E-13
 -1      2091 1.99934E+01 3.39118E-04 4.67890E-05-3.66115E-03 1.71698E-13-2.73319E-13
 -1      2092 1.99953E+01 5.24949E-04-6.00454E-05-4.07098E-03 2.16000E-13-9.26508E-14
 -1      2093 1.99967E+01-5.38877E-04 1.66023E-05-3.71385E-03 8.10207E-14-2.59946E-13
 -1      2094 1.99953E+01-2.55003E-04 1.87545E-05-3.84532E-03 1.74540E-13-3.19652E-13
 -1      2095 1.99964E+01-2.99789E-04-3.53295E-05-4.54569E-03 1.23669E-13 1.99125E-14
 -1      2096 1.99983E+01-1.16175E-03-2.96360E-06-2.73523E-03-1.94731E-13-2.27733E-13
 -1      2097 1.99972E+01-8.02498E-04 3.96382E-06-3.37291E-03-6.96130E-15-3.00923E-13
 -1      2098 1.99977E+01-1.03005E-03-3.44192E-06-4.09186E-03 1.18043E-13 1.29698E-13
 -1      2099 1.99988E+01-1.86202E-03 1.71172E-05-3.21184E-03-2.19592E-13 5.59655E-14
 -1      2100 2.00005E+01-6.30958E-03-1.86661E-06-3.27547E-03-2.50151E-13-1.08809E-13
 -1      2101 2.00004E+01-5.27235E-03 2.18792E-05-3.61991E-03-2.87296E-13-4.33462E-13
 -1      2102 2.00002E+01-4.93054E-03 2.17032E-06-3.95368E-03-3.99226E-13-2.87167E-13
 -1      2103 1.99999E+01-3.78744E-03 1.63663E-06-4.04811E-03-2.44355E-13 3.84425E-13
 -1      2104 2.00005E+01-3.26472E-03-1.73318E-05-4.43007E-03-3.57634E-13-2.01960E-13
 -1      2105 1.99995E+01-3.51594E-03 5.13498E-06-3.98629E-03-1.32804E-13 4.44699E-13
 -1      2106 1.99991E+01-2.40224E-03-1.31493E-05-3.62227E-03-1.22435E-13 2.74684E-13
 -1      2107 1.99988E+01-1.97020E-03-1.67828E-05-4.19505E-03 3.10537E-14 2.55476E-13
 -1      2108 1.99997E+01-2.71408E-03-2.65296E-05-4.74398E-03-1.22616E-13 3.49356E-13
 -1      2109 2.00005E+01-7.25598E-03-2.76907E-06-2.39089E-03-3.98179E-13-1.52083E-13
 -1      2110 2.00005E+01-6.45282E-03 3.88202E-05-2.79604E-03-3.54713E-13-4.24428E-14
 -1      2111 2.00008E+01-3.74889E-03-9.91143E-06-3.51567E-03-2.85035E-13-1.71840E-13
 -1      2112 2.00004E+01-7.84092E-03-1.08908E-06-1.52821E-03-2.94409E-13 2.26138E-13
 -1      2113 2.00005E+01-7.27959E-03 4.06388E-05-1.90869E-03-3.61825E-13 2.54130E-13
 -1      2114 2.00009E+01-3.93756E-03-2.73101E-06-2.46262E-03-2.49049E-13 1.23495E-13
 -1      2115 2.00003E+01-8.12932E-03 4.10479E-06-8.04252E-04-2.14744E-13 2.33562E-13
 -1      2116 2.00004E+01-7.80485E-03 3.41643E-05-1.12302E-03-2.14310E-13 3.07725E-13
 -1      2117 2.00007E+01-3.94381E-03 5.30438E-06-1.50321E-03-1.03288E-13 2.12847E-13
 -1      2118 2.00003E+01-8.21376E-03 1.30502E-05-1.97923E-04-4.93449E-14 3.68656E-13
 -1      2119 2.00003E+01-8.09965E-03 2.34049E-05-4.75089E-04-1.89121E-13 1.89512E-13
 -1      2120 2.00006E+01-3.89171E-03 1.19642E-05-7.21939E-04-8.70934E-14 3.56828E-13
 -1      2121 2.00003E+01-8.14102E-03 2.44925E-05 3.87001E-04-2.24425E-13-1.00091E-13
 -1      2122 2.00003E+01-8.22770E-03 1.25120E-05 1.04742E-04-1.24118E-13 3.34712E-13
 -1      2123 2.00005E+01-3.88069E-03 1.42372E-05-5.90019E-05-3.19572E-13 3.01085E-13
 -1      2124 2.00004E+01-7.89329E-03 3.53518E-05 1.06161E-03-2.39138E-14-2.68656E-13
 -1      2125 2.00004E+01-8.19569E-03 4.18164E-06 7.28629E-04-9.57278E-14-2.25028E-13
 -1      2126 2.00006E+01-3.94436E-03 1.13693E-05 6.18105E-04-2.74294E-13 2.35733E-14
 -1      2127 2.00005E+01-7.40553E-03 4.14897E-05 1.87354E-03-4.33069E-15-3.94911E-13
 -1      2128 2.00005E+01-7.94723E-03-6.78047E-07 1.48159E-03 8.04070E-14-4.24333E-13
 -1      2129 2.00008E+01-4.03722E-03 4.99266E-06 1.42975E-03-3.89267E-14-3.73465E-13
 -1      2130 2.00006E+01-6.57754E-03 3.82359E-05 2.81253E-03-6.61661E-14 3.39250E-14
 -1      2131 2.00006E+01-7.39175E-03-2.25926E-06 2.38147E-03-4.17460E-14-8.27116E-14
 -1      2132 2.00009E+01-4.05757E-03-4.71893E-06 2.43251E-03 7.44332E-14-2.95026E-13
 -1      2133 2.00004E+01-5.37141E-03 2.08602E-05 3.67849E-03 6.73446E-14 1.35937E-13
 -1      2134 2.00005E+01-6.41972E-03-9.97271E-07 3.32227E-03 7.21168E-14-1.17429E-13
 -1      2135 2.00009E+01-3.87115E-03-1.40624E-05 3.55341E-03 1.89033E-13 1.14581E-13
 -1      2136 1.99998E+01-3.89329E-03-2.64023E-05 4.18741E-03-5.48026E-14 2.05081E-13
 -1      2137 2.00002E+01-5.02463E-03 1.32936E-05 4.03135E-03-8.72044E-14 2.11389E-13
 -1      2138 2.00005E+01-3.35204E-03-8.42422E-06 4.50970E-03 2.00135E-13 1.22571E-13
 -1      2139 9.79446E+00-5.08736E+00-1.92841E-01 6.26579E+00 4.11116E-13 8.36269E-13
 -1      2140 6.30831E+00-6.75285E+00-4.31334E-01 5.05571E+00 3.71980E-13 6.53838E-13
 -1      2141 7.20105E-01-6.09773E+00-2.46666E-01 1.04760E+00 1.76442E-13 4.66405E-13
 -1      2142 6.56892E-01-6.40218E+00-2.89682E-01-6.69240E-01-4.87527E-14 6.81677E-13
 -1      2143 3.89945E+00-6.32928E+00-2.73885E-01 4.41730E+00 3.27294E-13 6.51368E-13
 -1      2144 1.92778E+00-6.66721E+00-3.15418E-01 3.08733E+00 2.14773E-13 5.08427E-13
 -1      2145 1.89430E+01-3.30339E+00 5.00449E-03 6.90389E+00 3.86635E-13 6.22613E-13
 -1      2146 1.44002E+01-5.09871E+00-2.89299E-01 6.21746E+00 2.02616E-13 6.83009E-13
 -1      2147 2.70075E+01-1.00457E+00 7.44024E-02 5.70250E+00 5.47007E-13 3.96738E-13
 -1      2148 2.20733E+01-2.67976E+00-1.84486E-01 5.80133E+00 4.72844E-13 5.63438E-13
 -1      2149 2.27285E+01-4.59947E+00 8.30481E-02 5.58685E+00-1.26565E-14 2.44305E-13
 -1      2150 1.95671E+01 4.08489E+00-2.65483E-02-1.47491E+00-2.02477E-13-3.95663E-13
 -1      2151 1.97358E+01 4.00122E+00-2.23957E-02-1.72361E+00-2.38002E-13-3.35641E-13
 -1      2152 2.00746E+01 3.31628E+00-6.89375E-03-1.66063E+00-2.66899E-13-2.84644E-13
 -1      2153 1.97076E+01 3.69405E+00-8.16966E-03-1.28160E+00-1.99266E-13-3.86812E-13
 -1      2154 3.94510E+01 5.81112E+00 4.31333E-01 2.00125E+00 7.46958E-13 2.97207E-13
 -1      2155 3.62723E+01 4.76251E+00 1.58686E-01 2.75934E+00 7.97140E-13 2.58737E-13
 -1      2156 4.05846E+01 7.12195E+00 3.22482E-01 1.40870E-03 5.37070E-13 2.00402E-13
 -1      2157 4.02753E+01 6.79248E+00 3.77354E-01 1.35775E+00 6.80733E-13 3.71703E-13
 -1      2158 3.77441E+01 6.64032E+00 1.34761E-01-1.09526E+00 4.99489E-13-2.24265E-14
 -1      2159 3.93742E+01 7.14586E+00 3.00704E-01-2.61640E-01 5.56333E-13 9.17877E-14
 -1      2160 3.45491E+01 3.66504E+00 8.61137E-02-2.93962E+00 5.25469E-13-1.81632E-13
 -1      2161 3.70732E+01 4.93305E+00 1.75381E-01-1.72485E+00 4.34319E-13-5.11258E-14
 -1      2162 2.91217E+01 7.05155E-01-1.98783E-02-4.62773E+00 5.77538E-13-2.55018E-13
 -1      2163 3.34557E+01 2.21019E+00 2.28542E-01-4.23001E+00 5.59948E-13-1.89515E-13
 -1      2164 3.28518E+01 2.25934E+00 2.23915E-01-8.53057E-01 4.71331E-13 2.03171E-14
 -1      2165 2.06604E+01-2.77080E+00-2.07984E-01-6.06716E+00 5.10425E-13-3.83804E-13
 -1      2166 2.56462E+01-8.41343E-01 1.27319E-01-6.42871E+00 5.17364E-13-3.56437E-13
 -1      2167 1.28081E+01-5.48512E+00-2.81358E-01-6.24481E+00 3.18578E-13-3.99430E-13
 -1      2168 1.71245E+01-3.54316E+00-1.51521E-02-6.99185E+00 4.90163E-13-3.94573E-13
 -1      2169 5.35355E+00-6.83330E+00-3.71330E-01-4.84694E+00 7.61613E-14-5.63133E-13
 -1      2170 8.81296E+00-5.37426E+00-1.16195E-01-6.33097E+00 1.74194E-13-5.26384E-13
 -1      2171 7.63165E-01-7.51968E+00-4.43351E-01-2.07935E+00-6.23668E-14-7.83540E-13
 -1      2172 2.28865E+00-6.97377E+00-3.70930E-01-3.49801E+00 1.33005E-13-7.69718E-13
 -1      2173 6.20544E-01-7.27611E+00-3.96881E-01 1.45381E+00-3.01287E-13-8.07798E-13
 -1      2174 2.05581E-01-7.20054E+00-3.96314E-01-1.39720E-01-6.47468E-14-7.70606E-13
 -1      2175 4.49457E+00-6.22895E+00-2.63299E-01 4.65456E+00-4.87610E-13-8.59535E-13
 -1      2176 2.00798E+00-7.61219E+00-4.81345E-01 2.97330E+00-2.87992E-13-8.58147E-13
 -1      2177 1.21228E+01-5.04764E+00-1.50442E-01 6.49299E+00-7.05991E-13-6.78180E-13
 -1      2178 8.44215E+00-6.52401E+00-3.48301E-01 5.54822E+00-5.43010E-13-6.83439E-13
 -1      2179 2.02961E+01-2.78673E+00 1.70459E-02 6.78595E+00-7.76268E-13-7.02327E-13
 -1      2180 1.56208E+01-4.70589E+00-3.18772E-01 6.08141E+00-7.59615E-13-6.60527E-13
 -1      2181 2.87772E+01-1.97285E-01 1.67617E-01 5.65538E+00-7.33746E-13-5.16032E-13
 -1      2182 2.39089E+01-1.90544E+00-1.42948E-01 5.68036E+00-7.67497E-13-6.12288E-13
 -1      2183 3.59023E+01 3.09161E+00 3.39203E-01 3.89619E+00-7.04034E-13-4.82059E-13
 -1      2184 3.17017E+01 1.55721E+00 5.15649E-02 4.17130E+00-7.23852E-13-5.53113E-13
 -1      2185 3.82792E+01 5.65727E+00 1.64277E-01 9.72932E-01-7.41296E-13-1.18960E-13
 -1      2186 3.74312E+01 4.67428E+00 3.36736E-01 2.59830E+00-7.58782E-13-3.51164E-13
 -1      2187 3.47662E+01 3.43153E+00 3.01391E-01 7.29051E-01-6.77042E-13-4.85167E-14
 -1      2188 4.08472E+01 7.26858E+00 4.55957E-01 1.33883E-02-7.32747E-13 1.87609E-13
 -1      2189 3.85328E+01 7.15572E+00 1.83497E-01 6.61848E-01-7.65388E-13 8.82072E-14
 -1      2190 3.86516E+01 6.51172E+00 2.02008E-01-9.39530E-01-8.99947E-13 2.92322E-13
 -1      2191 4.05535E+01 6.90684E+00 3.64055E-01-2.46691E-01-7.81430E-13 1.27898E-13
 -1      2192 3.56831E+01 7.99687E+00 2.65726E-01 1.90841E-01-7.99694E-13 1.90667E-13
 -1      2193 3.59699E+01 3.81385E+00 2.02573E-01-2.99108E+00-1.06029E-12 5.37015E-13
 -1      2194 3.83539E+01 4.97235E+00 2.73623E-01-1.76195E+00-9.87876E-13 2.60181E-13
 -1      2195 3.02349E+01 9.69964E-01 1.98910E-02-4.64565E+00-9.14019E-13 8.13349E-13
 -1      2196 3.46278E+01 2.47550E+00 3.27889E-01-4.28444E+00-9.80563E-13 6.64024E-13
 -1      2197 3.41326E+01 2.53608E+00 2.84684E-01-1.12555E+00-8.69055E-13 1.76414E-13
 -1      2198 2.25416E+01-2.87113E+00-1.63359E-01-5.52707E+00-7.37910E-13 8.27838E-13
 -1      2199 2.73430E+01-7.69138E-01 1.83785E-01-5.87796E+00-7.64055E-13 9.22817E-13
 -1      2200 1.34315E+01-5.50542E+00-3.39482E-01-5.98955E+00-4.99600E-13 1.04933E-12
 -1      2201 1.82363E+01-3.85657E+00-3.78506E-02-6.75946E+00-6.43374E-13 9.29284E-13
 -1      2202 6.42239E+00-6.78861E+00-3.89171E-01-4.99754E+00-3.23686E-13 8.68972E-13
 -1      2203 9.90530E+00-5.41515E+00-1.77673E-01-6.09495E+00-4.84612E-13 9.80320E-13
 -1      2204 1.42539E+01-5.75889E+00-7.08138E-02-6.70470E+00-4.42424E-14 8.60109E-13
 -1      2205 1.53949E+00-6.91851E+00-3.51077E-01-2.46176E+00-1.33837E-13 9.70557E-13
 -1      2206 3.41514E+00-6.27921E+00-2.48724E-01-3.99151E+00-3.53717E-13 1.10623E-12
 -1      2207 3.45749E+01 2.83460E+00 2.81503E-01 3.57203E+00 7.97213E-13 2.88880E-13
 -1      2208 3.03864E+01 1.07595E+00-9.83525E-03 3.86570E+00 7.44238E-13 4.00457E-13
 -1      2209 2.09432E+01 1.11026E+00-1.85244E-02-1.43282E+00-2.71783E-13 1.75143E-13
 -1      2210 2.92672E+01-1.48829E+00 1.23149E-01 2.99120E+00 3.75672E-13 6.36713E-14
 -1      2211 3.38300E+01 3.33594E+00 2.16916E-01 6.99122E-01 6.98941E-13-3.70814E-14
 -1      2212 2.08426E+01 1.34340E+00-2.03011E-02-1.44506E+00-2.93725E-13 1.90750E-14
 -1      2213 7.04286E+00-5.41747E+00-1.74242E-01 5.82578E+00 1.63980E-13 7.01689E-13
 -1      2214 2.86960E+00-4.24501E+00-1.05122E-01 2.49901E+00 1.18530E-13 6.28719E-13
 -1      2215 1.99995E+01-2.90502E-03-1.62790E-05 4.29832E-03 1.93898E-15 3.23986E-13
 -1      2216 1.47119E+01-5.53543E+00-4.74936E-02 6.94614E+00 4.82947E-15 4.97203E-13
 -1      2217 2.64178E+00-4.19383E+00-1.10220E-01-1.98926E+00-2.36616E-14 9.98701E-13
 -1      2218 6.88961E+00-5.39071E+00-1.49730E-01-5.48122E+00-8.62643E-14 9.57456E-13
 -1      2219 2.98229E+01-1.40124E+00 1.28649E-01-3.14089E+00-5.92110E-13 4.25104E-13
 -1      2220 3.57164E+01 5.95429E+00 2.75892E-01 2.10640E-01-9.20042E-13 1.42192E-13
 -1      2221 3.66621E+01 6.54250E+00 2.08216E-01 8.62172E-02-8.40494E-13 7.78266E-14
 -1      2222 3.36281E+01 5.75750E+00 5.90104E-02-7.54782E-01-8.36331E-13 1.29785E-13
 -1      2223 3.33333E+01 7.02494E+00-1.08923E-01-7.27446E-01-8.14626E-13 1.11577E-13
 -1      2224 3.07798E+01-6.49381E-01 1.76479E-01 2.95344E+00-5.37723E-13-1.76859E-13
 -1      2225 2.40939E+01-3.96604E+00 4.34357E-02 5.32811E+00-4.35318E-13-3.28515E-13
 -1      2226 1.64310E+01-5.64158E+00-8.23880E-02 6.62019E+00-3.66540E-13-4.97671E-13
 -1      2227 8.36724E+00-5.71257E+00-1.36701E-01 5.97946E+00-2.42917E-13-7.21700E-13
 -1      2228 2.70991E+00-5.04316E+00-1.85058E-01 2.89491E+00-1.42469E-13-8.94618E-13
 -1      2229 1.65491E+00-5.08750E+00-2.15376E-01-1.37579E+00-1.02057E-13-8.76521E-13
 -1      2230 5.65467E+00-5.14420E+00-1.10173E-01-5.31962E+00-1.34337E-13-6.46483E-13
 -1      2231 1.30334E+01-5.63459E+00-8.73051E-02-6.87726E+00-5.16254E-14-3.83082E-13
 -1      2232 2.86965E+01-1.62564E+00 1.29718E-01-3.64564E+00 4.11254E-13-7.18314E-14
 -1      2233 3.43587E+01 5.97786E+00 2.02859E-01 2.98146E-01 4.86278E-13 1.24900E-15
 -1      2234 3.63310E+01 6.94768E+00 3.56971E-01 8.70325E-02 6.64080E-13 2.10387E-13
 -1      2235 3.57750E+01 8.05022E+00 2.63380E-01 1.75334E-01 6.11955E-13-1.82840E-15
 -1      2236 2.13144E+01-4.60435E+00 2.12682E-03-6.09095E+00 2.04170E-13-1.53655E-13
 -1      2237 2.24660E+01-4.70533E+00 1.25450E-02-5.55490E+00-3.37230E-13 6.82510E-13
 -1      2238 2.04721E+01 5.48515E-01 5.98946E-03 4.24861E-01 2.21777E-13 1.44398E-13
 -1      2239 2.06791E+01 7.30888E-01 2.08477E-02 7.34533E-01 2.53773E-13 1.84179E-13
 -1      2240 1.93513E+01 3.75834E+00-1.13442E-02-4.51712E-01-6.31270E-14-4.20069E-13
 -1      2241 1.94243E+01 3.70036E+00-9.17659E-03-6.02611E-01-1.09811E-13-4.28253E-13
 -1      2242 1.95144E+01 3.58577E+00-1.35353E-02-7.32609E-01-1.31820E-13-4.19369E-13
 -1      2243 1.96254E+01 3.48765E+00-1.13429E-02-8.96985E-01-1.58469E-13-4.06706E-13
 -1      2244 1.96121E+01 3.29671E+00 1.53920E-03-5.83348E-01-1.14949E-13-3.92642E-13
 -1      2245 1.92503E+01 3.86442E+00-8.77866E-03 7.06592E-02 8.17591E-14-3.88718E-13
 -1      2246 1.92477E+01 3.86660E+00-9.01578E-03-6.90872E-02 4.29670E-14-3.99775E-13
 -1      2247 1.93107E+01 3.80796E+00-8.50263E-03 3.33869E-01 1.43292E-13-4.05394E-13
 -1      2248 1.92710E+01 3.83855E+00-9.97581E-03 1.89993E-01 1.11660E-13-3.96736E-13
 -1      2249 1.93890E+01 3.53631E+00 7.46684E-04 1.11716E-01 9.81142E-14-3.70133E-13
 -1      2250 1.94405E+01 3.67836E+00-9.13831E-03 6.08098E-01 1.95461E-13-3.99041E-13
 -1      2251 1.93660E+01 3.73872E+00-1.14900E-02 4.56902E-01 1.65142E-13-4.12486E-13
 -1      2252 1.94726E+01 3.44593E+00 9.14295E-04 3.43169E-01 1.48487E-13-3.89450E-13
 -1      2253 1.96443E+01 3.45841E+00-1.13422E-02 9.08987E-01 2.57245E-13-3.19574E-13
 -1      2254 1.95322E+01 3.55950E+00-1.35724E-02 7.41537E-01 2.17761E-13-3.69172E-13
 -1      2255 1.96312E+01 3.26756E+00 1.30657E-03 5.87270E-01 2.10441E-13-3.65162E-13
 -1      2256 1.99256E+01 3.11947E+00-1.65243E-02 1.22718E+00 3.13018E-13-2.44770E-13
 -1      2257 1.97742E+01 3.28061E+00-1.61846E-02 1.04769E+00 2.76923E-13-2.83721E-13
 -1      2258 1.98656E+01 2.98496E+00 2.55699E-03 8.43719E-01 2.64993E-13-2.78046E-13
 -1      2259 2.02964E+01 2.60614E+00-2.68437E-02 1.52882E+00 3.60176E-13-1.21210E-13
 -1      2260 2.01005E+01 2.86540E+00-1.81781E-02 1.35411E+00 3.27642E-13-1.88296E-13
 -1      2261 2.01712E+01 2.57206E+00 6.00178E-03 1.08774E+00 2.93271E-13-1.91975E-13
 -1      2262 2.03125E+01 3.30255E-01 7.38025E-03-2.14397E-02 1.60132E-13 7.93989E-14
 -1      2263 2.03983E+01 4.20153E-01 2.03605E-02 1.62059E-01 1.85464E-13 1.29343E-13
 -1      2264 2.05077E+01 6.99966E-01-3.76799E-03 3.89989E-01 2.25569E-13 1.00336E-14
 -1      2265 2.06601E+01 9.18287E-01 1.30333E-02-7.07294E-01-2.41303E-13-5.41748E-14
 -1      2266 2.05075E+01 7.11054E-01-7.16015E-04-3.69334E-01-2.16902E-13-6.35547E-14
 -1      2267 2.97343E+01-1.40081E+00-1.33524E-01 1.05983E+00 2.95482E-13-1.73916E-13
 -1      2268 2.72409E+01-3.33715E+00-1.26654E-02 2.46423E+00 3.91492E-14-6.30607E-14
 -1      2269 2.04720E+01 5.68701E-01 1.52954E-02-1.11359E-01-1.88214E-13-4.51571E-14
 -1      2270 2.04066E+01 4.62941E-01 3.68773E-03 1.01434E-01-1.55722E-13-5.23313E-14
 -1      2271 2.05091E+01 8.68877E-01-2.99811E-03-3.07641E-01-1.97211E-13-1.23018E-13
 -1      2272 2.03851E+01 3.93777E-01 1.04013E-02 2.92093E-01-1.57851E-13-4.17999E-14
 -1      2273 2.03982E+01 3.40569E-01 4.62155E-03 4.42778E-01-1.41499E-13-7.02362E-14
 -1      2274 2.04270E+01 5.82749E-01-5.09781E-03 1.75225E-01-1.62265E-13-1.20689E-13
 -1      2275 2.04066E+01 3.05865E-01 6.10803E-03 5.91193E-01-1.16380E-13-6.90711E-14
 -1      2276 2.04839E+01 2.79717E-01 5.10946E-03 7.09118E-01-1.00006E-13-8.09148E-14
 -1      2277 2.04063E+01 4.38593E-01-4.86266E-03 5.40280E-01-1.45598E-13-1.04194E-13
 -1      2278 2.05227E+01 2.61392E-01 3.45147E-03 8.32700E-01-8.57291E-14-8.35873E-14
 -1      2279 2.06507E+01 2.47076E-01 5.21183E-03 9.32517E-01-6.37512E-14-8.96870E-14
 -1      2280 2.04532E+01 3.64173E-01-4.19860E-03 8.32292E-01-1.11648E-13-9.58118E-14
 -1      2281 2.07185E+01 2.33259E-01 2.01270E-03 1.04107E+00-6.18820E-14-8.91415E-14
 -1      2282 2.08877E+01 2.18412E-01 4.78094E-03 1.12760E+00-3.70826E-14-1.02985E-13
 -1      2283 2.05622E+01 3.20423E-01-3.60921E-03 1.08059E+00-7.55910E-14-9.61352E-14
 -1      2284 2.09853E+01 1.97769E-01 1.55621E-03 1.22305E+00 1.68924E-15-1.08293E-13
 -1      2285 2.11887E+01 1.68891E-01 3.49547E-03 1.29235E+00-1.10663E-14-1.07226E-13
 -1      2286 2.07292E+01 2.75163E-01-3.46397E-03 1.29827E+00-2.73224E-14-1.15948E-13
 -1      2287 2.13218E+01 1.27823E-01 2.13193E-03 1.36811E+00-5.92128E-14-1.07596E-13
 -1      2288 2.15529E+01 6.81318E-02 9.07442E-04 1.40650E+00-7.41924E-14-1.06772E-13
 -1      2289 2.09571E+01 1.94111E-01-4.11178E-03 1.48198E+00-5.60583E-14-9.29389E-14
 -1      2290 2.17349E+01-1.00534E-02 3.98261E-03 1.44533E+00-4.38084E-14-4.79395E-14
 -1      2291 2.19864E+01-1.19924E-01-3.47388E-03 1.42797E+00-2.06601E-14-2.05358E-14
 -1      2292 2.12601E+01 3.56844E-02-5.95781E-03 1.60957E+00-2.61142E-14-3.67188E-14
 -1      2293 2.22395E+01-2.51971E-01 7.32115E-03 1.39915E+00-2.84234E-14 1.40021E-14
 -1      2294 2.25005E+01-4.26997E-01-9.89404E-03 1.29047E+00 2.21160E-14 1.79472E-14
 -1      2295 2.16682E+01-2.46708E-01-9.27463E-03 1.63541E+00 1.06738E-14 2.66919E-14
 -1      2296 2.28510E+01-6.18395E-01 1.16919E-02 1.14842E+00 4.43096E-14 1.20819E-14
 -1      2297 2.31019E+01-8.50419E-01-1.81541E-02 9.09560E-01 5.65711E-14 3.91065E-14
 -1      2298 2.22261E+01-6.86497E-01-1.36256E-02 1.48553E+00 3.51093E-14 9.65587E-14
 -1      2299 2.35626E+01-1.06992E+00 1.43097E-02 5.98998E-01 6.42659E-14 5.21046E-14
 -1      2300 2.37670E+01-1.28770E+00-2.46715E-02 2.09669E-01 8.07774E-15 9.76664E-14
 -1      2301 2.29781E+01-1.25718E+00-1.73470E-02 1.05990E+00 6.85276E-14 1.11341E-14
 -1      2302 2.42888E+01-1.43112E+00 9.54820E-03-2.96012E-01-4.70765E-14 1.32833E-13
 -1      2303 2.43903E+01-1.47908E+00-2.54309E-02-7.89930E-01-7.30180E-14 1.32224E-13
 -1      2304 2.39153E+01-1.78158E+00-1.62571E-02 2.55167E-01 2.67642E-14 1.15799E-13
 -1      2305 2.48185E+01-1.35798E+00-1.49346E-02-1.41855E+00-6.82473E-14 1.34059E-13
 -1      2306 2.47774E+01-1.00338E+00-8.37200E-03-1.84943E+00-2.46764E-14 1.24384E-13
 -1      2307 2.48808E+01-1.84923E+00-6.27634E-03-8.97785E-01-9.59992E-14 2.35793E-13
 -1      2308 2.48510E+01-4.35534E-01-5.61193E-02-2.27575E+00-4.02820E-14 8.86890E-14
 -1      2309 2.46829E+01 3.41925E-01 6.55838E-03-2.32131E+00-6.08229E-14 9.94621E-14
 -1      2310 2.54883E+01-8.98255E-01 2.38826E-03-2.10400E+00-8.76001E-14 1.81397E-13
 -1      2311 2.44538E+01 1.16564E+00-7.29734E-02-2.17283E+00-1.32946E-13 1.10311E-14
 -1      2312 2.42517E+01 1.99099E+00 6.22870E-03-1.66810E+00-2.70582E-13 2.21143E-14
 -1      2313 2.54941E+01 7.81352E-01-3.41354E-02-2.43023E+00-1.40648E-13 7.00967E-14
 -1      2314 2.39785E+01 2.48959E+00-6.88656E-02-6.76705E-01-3.54161E-13 1.50093E-14
 -1      2315 2.39985E+01 2.62120E+00-3.92504E-02 1.81524E-01-3.63994E-13-7.20275E-14
 -1      2316 2.50832E+01 3.01311E+00-5.25242E-02-1.40897E+00-3.43343E-13-3.47361E-14
 -1      2317 2.41306E+01 2.33982E+00-9.08888E-03 1.22808E+00-3.44585E-13-1.64409E-13
 -1      2318 2.42934E+01 1.68413E+00-7.70030E-02 1.90430E+00-2.89629E-13-2.54874E-13
 -1      2319 2.50868E+01 3.20779E+00-5.40987E-02 7.82393E-01-4.37386E-13-1.19820E-13
 -1      2320 2.46166E+01 8.67215E-01 1.47193E-02 2.33804E+00-1.84314E-13-2.58925E-13
 -1      2321 2.48099E+01-5.79843E-03-6.67220E-02 2.44288E+00-7.67884E-14-3.00099E-13
 -1      2322 2.54487E+01 1.66502E+00-1.79796E-02 2.39813E+00-2.91898E-13-2.66103E-13
 -1      2323 2.48535E+01-6.59046E-01 1.80769E-03 2.14903E+00-1.94992E-14-2.91600E-13
 -1      2324 2.49515E+01-1.14868E+00-2.21554E-02 1.81806E+00 8.80320E-14-2.04595E-13
 -1      2325 2.55923E+01-4.09967E-01-6.84497E-03 2.47492E+00-5.20452E-14-3.57395E-13
 -1      2326 2.46146E+01-1.40828E+00-2.26106E-02 1.20620E+00 1.35321E-13-1.75763E-13
 -1      2327 2.45680E+01-1.45867E+00 3.27937E-03 7.13904E-01 1.56114E-13-1.30699E-13
 -1      2328 2.51651E+01-1.68074E+00-1.13221E-02 1.41475E+00 1.16776E-13-2.10892E-13
 -1      2329 2.40623E+01-1.37094E+00-2.77780E-02 1.61580E-01 1.15708E-13-9.75129E-14
 -1      2330 2.39005E+01-1.18004E+00 1.33112E-02-2.61276E-01 1.07721E-13-3.64674E-14
 -1      2331 2.42791E+01-1.85094E+00-1.77356E-02 1.69223E-01 1.45422E-13-1.24948E-13
 -1      2332 2.34210E+01-9.66872E-01-2.17501E-02-6.22730E-01 4.21876E-14-6.80114E-14
 -1      2333 2.31994E+01-7.25686E-01 1.27427E-02-8.98256E-01 6.00095E-14-2.44631E-14
 -1      2334 2.33325E+01-1.40462E+00-1.87793E-02-7.40641E-01 8.91982E-14-1.12864E-13
 -1      2335 2.28242E+01-5.18915E-01-1.28883E-02-1.07634E+00 7.89425E-14-1.88376E-14
 -1      2336 2.25850E+01-3.23078E-01 8.81387E-03-1.21152E+00-2.26613E-14 2.33581E-14
 -1      2337 2.25373E+01-8.16630E-01-1.56308E-02-1.25411E+00 3.66257E-14-1.34661E-13
 -1      2338 2.23139E+01-1.72800E-01-5.53369E-03-1.25995E+00 3.65131E-14 6.81157E-14
 -1      2339 2.20805E+01-4.49704E-02 5.09010E-03-1.29226E+00 9.83469E-14 1.92972E-13
 -1      2340 2.19430E+01-3.28225E-01-1.05967E-02-1.45726E+00 8.50867E-14-5.11218E-15
 -1      2341 2.18875E+01 4.59093E-02-4.87062E-04-1.26244E+00 3.68664E-14 1.09987E-13
 -1      2342 2.16715E+01 1.15511E-01 2.52873E-03-1.23135E+00 7.59188E-14 1.13480E-13
 -1      2343 2.15126E+01-3.04435E-03-6.42795E-03-1.45872E+00 6.62864E-14 1.63700E-13
 -1      2344 2.15305E+01 1.61145E-01 2.52465E-03-1.16094E+00 8.04012E-14 1.05909E-13
 -1      2345 2.13373E+01 1.90521E-01 1.06262E-03-1.09720E+00-1.71262E-14 4.75938E-14
 -1      2346 2.11956E+01 1.78637E-01-3.77139E-03-1.34579E+00 6.38073E-14 1.50959E-13
 -1      2347 2.12299E+01 2.06894E-01 4.04275E-03-1.01059E+00-7.39142E-14 5.61694E-14
 -1      2348 2.10617E+01 2.12025E-01 3.42778E-04-9.34732E-01-1.24056E-13 1.14229E-13
 -1      2349 2.09529E+01 2.59283E-01-2.32282E-03-1.17849E+00-4.69525E-14 2.70800E-13
 -1      2350 2.09768E+01 2.11634E-01 4.56742E-03-8.46441E-01-1.99087E-13 1.27721E-13
 -1      2351 2.08340E+01 2.03865E-01 4.32628E-05-7.70655E-01-1.59108E-13 1.20973E-13
 -1      2352 2.07598E+01 2.77859E-01-1.62972E-03-9.94542E-01-1.73551E-13 4.02373E-13
 -1      2353 2.07651E+01 1.95042E-01 4.49145E-03-6.88537E-01-1.58106E-13 2.31822E-14
 -1      2354 2.06465E+01 1.81512E-01-4.41584E-05-6.19231E-01-1.67513E-13 2.05983E-13
 -1      2355 2.06023E+01 2.62627E-01-1.32364E-03-8.15852E-01-2.51068E-13 3.51830E-13
 -1      2356 2.05903E+01 1.69286E-01 4.09261E-03-5.46955E-01-1.86141E-13 7.56706E-14
 -1      2357 2.04938E+01 1.54110E-01-4.05051E-05-4.86886E-01-1.11480E-13 1.13752E-15
 -1      2358 2.04725E+01 2.31667E-01-1.17864E-03-6.53892E-01-2.29339E-13 5.87707E-14
 -1      2359 2.04479E+01 1.41284E-01 3.55106E-03-4.25612E-01-4.75219E-14-9.60411E-14
 -1      2360 2.03709E+01 1.26636E-01-7.65820E-06-3.75410E-01 4.39204E-14-1.39271E-13
 -1      2361 2.03657E+01 1.95584E-01-1.08199E-03-5.13554E-01-1.45025E-13 3.24310E-14
 -1      2362 2.03339E+01 1.14635E-01 2.97621E-03-3.24887E-01-2.32437E-14-1.66805E-13
 -1      2363 2.02735E+01 1.01532E-01 2.65411E-05-2.84048E-01-4.86448E-14-1.87202E-13
 -1      2364 2.02787E+01 1.60106E-01-9.87507E-04-3.95812E-01-3.46056E-14-2.40645E-14
 -1      2365 2.02440E+01 9.09806E-02 2.42912E-03-2.43304E-01-6.63427E-14-1.01237E-13
 -1      2366 2.01976E+01 7.97879E-02 5.20397E-05-2.10791E-01-5.27079E-14 3.89388E-14
 -1      2367 2.02087E+01 1.28004E-01-8.82784E-04-2.99465E-01-1.11387E-14-1.31458E-13
 -1      2368 2.01745E+01 7.08698E-02 1.93988E-03-1.78551E-01-7.10927E-14 1.23743E-13
 -1      2369 2.01395E+01 6.16047E-02 6.71111E-05-1.53141E-01-2.78529E-14-1.76752E-14
 -1      2370 2.01534E+01 1.00356E-01-7.69823E-04-2.22236E-01 3.91943E-14 8.29729E-14
 -1      2371 2.01217E+01 5.42745E-02 1.51986E-03-1.28063E-01 8.52824E-14-5.41679E-14
 -1      2372 2.00957E+01 4.67846E-02 7.33169E-05-1.08538E-01 2.32499E-13-1.28397E-13
 -1      2373 2.01104E+01 7.73218E-02-6.55009E-04-1.61443E-01 5.15793E-14-3.47851E-14
 -1      2374 2.00823E+01 4.08886E-02 1.16968E-03-8.93474E-02 3.47966E-13-1.44449E-13
 -1      2375 2.00635E+01 3.49497E-02 7.30450E-05-7.45889E-02 2.99174E-13-7.05178E-14
 -1      2376 2.00775E+01 5.85990E-02-5.44584E-04-1.14384E-01 2.34778E-13 3.68246E-14
 -1      2377 2.00536E+01 3.02919E-02 8.84379E-04-6.01417E-02 2.59708E-13-4.98981E-14
 -1      2378 2.00404E+01 2.56604E-02 6.84046E-05-4.91726E-02 1.98175E-13 7.26300E-14
 -1      2379 2.00529E+01 4.36797E-02-4.43045E-04-7.85450E-02 2.87967E-13 8.88652E-14
 -1      2380 2.00332E+01 2.20368E-02 6.56398E-04-3.84829E-02 1.66163E-13 6.99025E-14
 -1      2381 2.00242E+01 1.84760E-02 6.07912E-05-3.04793E-02 1.55313E-13 2.34843E-13
 -1      2382 2.00349E+01 3.19892E-02-3.52967E-04-5.17028E-02 2.72497E-13 1.25869E-13
 -1      2383 2.00192E+01 1.56916E-02 4.77353E-04-2.27242E-02 3.04978E-14 2.32303E-13
 -1      2384 2.00133E+01 1.29840E-02 5.11006E-05-1.70129E-02 2.34616E-14 2.63535E-13
 -1      2385 2.00221E+01 2.29571E-02-2.75305E-04-3.19608E-02 2.46667E-14 6.92859E-16
 -1      2386 2.00099E+01 1.08611E-02 3.38992E-04-1.15244E-02 1.37690E-13 2.47727E-13
 -1      2387 2.00064E+01 8.81060E-03 3.94691E-05-7.57072E-03 2.08021E-13 1.95889E-13
 -1      2388 2.00132E+01 1.60537E-02-2.09419E-04-1.77521E-02 2.66221E-14 1.00116E-13
 -1      2389 2.00042E+01 7.18573E-03 2.34360E-04-3.82316E-03 1.32403E-13 2.46624E-13
 -1      2390 2.00022E+01 5.61151E-03 2.51004E-05-1.22052E-03 1.50410E-13 4.22871E-13
 -1      2391 2.00073E+01 1.07937E-02-1.55362E-04-7.81683E-03 1.70090E-13 1.49900E-13
 -1      2392 2.00009E+01 4.33072E-03 1.56871E-04 1.17765E-03 1.15620E-13 2.89165E-13
 -1      2393 2.00001E+01 3.07481E-03 1.17356E-05 2.71450E-03 3.49787E-14 2.71434E-13
 -1      2394 2.00036E+01 6.73140E-03-1.11179E-04-1.18051E-03 9.37009E-15 2.41212E-13
 -1      2395 1.99994E+01 1.96617E-03 9.21764E-05 4.04978E-03-1.16039E-13 2.66615E-13
 -1      2396 1.99992E+01 9.30839E-04 1.01233E-05 4.68948E-03-2.04170E-13 1.85712E-13
 -1      2397 2.00014E+01 3.48230E-03-7.35284E-05 2.86770E-03-9.48993E-14 7.61730E-14
 -1      2398 2.03854E+01 1.59185E-01 4.91190E-03-5.23686E-01 6.21534E-14 2.95081E-14
 -1      2399 2.03045E+01 1.86879E-01 7.56456E-03-4.39527E-01 8.46103E-14 4.56963E-14
 -1      2400 2.05703E+01 1.16538E-01 3.79058E-03-6.74790E-01 1.08081E-13-8.44973E-16
 -1      2401 2.04405E+01 1.37168E-01 4.53858E-03-6.13594E-01 9.12165E-14 2.56350E-14
 -1      2402 2.04357E+01 2.09436E-01-4.82635E-03-6.38778E-01 9.65930E-14-5.08112E-14
 -1      2403 2.08240E+01 7.46719E-02 2.33501E-03-7.81148E-01 1.48423E-13-2.60713E-14
 -1      2404 2.06604E+01 9.68416E-02 2.86549E-03-7.39914E-01 1.21713E-13-2.61447E-14
 -1      2405 2.05812E+01 1.48724E-01-4.14112E-03-8.10473E-01 1.26140E-13-7.69320E-14
 -1      2406 2.11281E+01 1.88876E-02 1.75109E-04-8.38996E-01 1.31568E-13 2.26516E-14
 -1      2407 2.09441E+01 5.00471E-02 1.96955E-03-8.21689E-01 1.53474E-13 3.22668E-14
 -1      2408 2.07906E+01 8.47886E-02-3.62891E-03-9.29320E-01 1.16551E-13-4.91824E-14
 -1      2409 2.14644E+01-6.39718E-02-2.92576E-03-8.31467E-01 2.36240E-14 5.38175E-14
 -1      2410 2.12749E+01-1.71835E-02 1.54873E-03-8.47971E-01 9.01561E-14 6.15294E-14
 -1      2411 2.10547E+01-2.50372E-03-3.37038E-03-9.88729E-01 8.60085E-14 1.63678E-14
 -1      2412 2.18118E+01-1.83216E-01-6.97052E-03-7.30804E-01 2.25354E-14 3.39838E-14
 -1      2413 2.16351E+01-1.16739E-01 1.41409E-03-7.95420E-01 3.65465E-14 3.69167E-14
 -1      2414 2.13665E+01-1.30303E-01-3.28177E-03-9.67806E-01 4.07246E-14 2.82161E-14
 -1      2415 2.21425E+01-3.37007E-01-1.14563E-02-5.04185E-01 5.63221E-14-3.03893E-14
 -1      2416 2.20018E+01-2.53877E-01 1.29970E-03-6.31720E-01 3.88994E-14 2.99765E-14
 -1      2417 2.17183E+01-3.07997E-01-3.07459E-03-8.33863E-01 5.94781E-14-1.32655E-14
 -1      2418 2.24177E+01-4.99715E-01-1.50187E-02-1.27741E-01 6.73966E-14-2.88105E-14
 -1      2419 2.23401E+01-4.17189E-01 7.11313E-04-3.25032E-01 6.30008E-14-4.32952E-14
 -1      2420 2.20954E+01-5.25300E-01-2.12701E-03-5.49554E-01 6.46508E-14-4.30378E-14
 -1      2421 2.25852E+01-6.08547E-01-1.52289E-02 3.87221E-01 4.85029E-15-1.61031E-14
 -1      2422 2.25974E+01-5.64436E-01-1.20632E-03 1.35246E-01 4.86429E-14-1.00111E-14
 -1      2423 2.24648E+01-7.34001E-01 4.83133E-04-9.03433E-02 3.78790E-14-1.14777E-14
 -1      2424 2.25852E+01-5.64615E-01-9.15814E-03 9.58204E-01-3.18877E-14-1.13477E-14
 -1      2425 2.27020E+01-6.13100E-01-5.07413E-03 7.04203E-01-1.53011E-14-7.72733E-15
 -1      2426 2.27631E+01-8.33847E-01 5.31901E-03 5.22269E-01-1.68463E-14-5.47735E-14
 -1      2427 2.23747E+01-2.76147E-01 3.39745E-03 1.40493E+00 2.07993E-14 1.94129E-14
 -1      2428 2.25834E+01-4.57526E-01-1.02747E-02 1.24366E+00-4.51713E-14 2.98815E-14
 -1      2429 2.28960E+01-6.86332E-01 1.13656E-02 1.17486E+00-4.33239E-14-3.43393E-14
 -1      2430 2.19833E+01 2.44503E-01 1.64482E-02 1.48355E+00 1.32753E-13 2.25709E-14
 -1      2431 2.22287E+01-4.20905E-02-1.41632E-02 1.52087E+00 1.09309E-13 6.29540E-14
 -1      2432 2.27788E+01-1.98279E-01 1.30296E-02 1.63210E+00 3.87954E-14 3.14437E-14
 -1      2433 2.15610E+01 8.00631E-01 2.05187E-02 1.02484E+00 9.75765E-14 1.73984E-14
 -1      2434 2.17545E+01 5.34338E-01-1.12196E-02 1.30557E+00 1.23639E-13 6.23520E-14
 -1      2435 2.24330E+01 5.42229E-01 3.36664E-03 1.59925E+00 1.26495E-13 8.49579E-14
 -1      2436 2.13438E+01 1.07876E+00 1.05981E-02 1.17802E-01 8.60796E-14-5.64815E-14
 -1      2437 2.14016E+01 9.93097E-01 1.64355E-03 5.58503E-01 1.12430E-13-1.95234E-14
 -1      2438 2.20595E+01 1.21554E+00-1.15131E-02 9.22664E-01 1.17615E-13 2.25846E-14
 -1      2439 2.14873E+01 8.96083E-01-7.06621E-03-8.60409E-01-1.02245E-14-2.40745E-14
 -1      2440 2.13783E+01 1.04807E+00 1.31631E-02-4.46898E-01 3.12476E-14-4.86677E-14
 -1      2441 2.19351E+01 1.44232E+00-1.75185E-02-1.92436E-01 9.46474E-14 3.59220E-14
 -1      2442 2.19267E+01 3.77264E-01-1.38594E-02-1.47559E+00 1.19021E-13-1.42227E-13
 -1      2443 2.16990E+01 6.62372E-01 1.94289E-02-1.25909E+00 6.69100E-14-6.80918E-14
 -1      2444 2.21682E+01 1.06655E+00-9.76193E-03-1.23317E+00 6.26079E-14-5.74171E-14
 -1      2445 2.24164E+01-1.70903E-01-1.19241E-02-1.54640E+00 7.85012E-14-3.40599E-13
 -1      2446 2.21567E+01 9.04142E-02 1.31170E-02-1.56874E+00 9.40745E-14-2.27660E-13
 -1      2447 2.25815E+01 3.33660E-01 6.19378E-03-1.73765E+00 1.56627E-13-1.72504E-13
 -1      2448 2.27382E+01-5.09906E-01-6.46231E-03-1.18176E+00 3.84679E-14-2.66934E-13
 -1      2449 2.25309E+01-3.72593E-01-8.59797E-04-1.37012E+00 8.58597E-14-3.07740E-13
 -1      2450 2.28963E+01-3.55897E-01 1.31382E-02-1.61552E+00 8.17261E-14-2.55968E-13
 -1      2451 2.28209E+01-5.96398E-01-1.52282E-03-6.29030E-01 1.98392E-14-3.13906E-13
 -1      2452 2.27101E+01-5.82650E-01-1.14274E-02-8.77549E-01 5.96086E-14-2.39307E-13
 -1      2453 2.29603E+01-7.41426E-01 9.53752E-03-1.08779E+00 5.40267E-14-1.07915E-13
 -1      2454 2.27010E+01-5.08312E-01 1.22310E-03-9.73298E-02-1.49925E-13-2.98832E-13
 -1      2455 2.26908E+01-5.69397E-01-1.52146E-02-3.23934E-01-6.31196E-14-3.11416E-13
 -1      2456 2.27956E+01-8.02528E-01 3.33595E-03-4.44800E-01-3.91057E-14-1.95999E-13
 -1      2457 2.24543E+01-3.49677E-01 1.97224E-03 3.04098E-01-1.71228E-13-2.68823E-13
 -1      2458 2.25249E+01-4.34549E-01-1.37479E-02 1.38498E-01-2.17989E-13-3.60236E-13
 -1      2459 2.24961E+01-6.56062E-01-1.11536E-03 1.12436E-01-1.59557E-13-3.64671E-13
 -1      2460 2.21474E+01-1.92127E-01 1.87855E-03 5.51196E-01 1.84317E-14-1.95912E-13
 -1      2461 2.22712E+01-2.69632E-01-9.87281E-03 4.52797E-01-9.54627E-14-2.89182E-13
 -1      2462 2.21496E+01-4.35181E-01-2.89004E-03 5.02047E-01-1.56330E-13-3.44172E-13
 -1      2463 2.18254E+01-6.85775E-02 1.52379E-03 6.65527E-01 2.24180E-14-8.47775E-14
 -1      2464 2.19769E+01-1.26335E-01-5.67380E-03 6.23287E-01 5.60719E-14-1.66307E-13
 -1      2465 2.18084E+01-2.27045E-01-3.09742E-03 7.22320E-01 1.64756E-14-3.43470E-13
 -1      2466 2.15151E+01 1.41673E-02 1.20006E-03 6.83877E-01 9.34021E-14-5.96540E-14
 -1      2467 2.16745E+01-2.28434E-02-2.19931E-03 6.81382E-01 4.12120E-14-7.68229E-14
 -1      2468 2.14960E+01-6.84215E-02-2.71184E-03 8.07149E-01 4.55844E-14-3.05976E-13
 -1      2469 2.12314E+01 6.18618E-02 9.78430E-04 6.41883E-01 1.42795E-13 6.15994E-14
 -1      2470 2.13850E+01 4.16835E-02 2.50928E-04 6.63775E-01 1.51793E-13 1.59866E-14
 -1      2471 2.12202E+01 3.53792E-02-2.25624E-03 7.98564E-01 5.19979E-14-2.00427E-13
 -1      2472 2.09812E+01 8.39619E-02 8.39968E-04 5.67622E-01 1.75774E-13-5.10252E-14
 -1      2473 2.11208E+01 7.56368E-02 1.75269E-03 6.02027E-01 2.19283E-13 1.45125E-13
 -1      2474 2.09818E+01 9.35461E-02-1.89878E-03 7.33638E-01 1.58732E-13 3.60123E-14
 -1      2475 2.07670E+01 8.93580E-02 7.48083E-04 4.80682E-01 1.98791E-14-1.81532E-13
 -1      2476 2.08884E+01 8.85332E-02 2.51719E-03 5.19460E-01 9.96230E-14-1.16821E-13
 -1      2477 2.07789E+01 1.18994E-01-1.64523E-03 6.40363E-01 1.43546E-13 4.35322E-14
 -1      2478 2.05881E+01 8.49360E-02 6.75035E-04 3.93455E-01-1.89164E-13-3.04775E-13
 -1      2479 2.06902E+01 8.83620E-02 2.76958E-03 4.31563E-01-5.78062E-14-2.55105E-13
 -1      2480 2.06086E+01 1.23401E-01-1.45683E-03 5.37809E-01 2.46234E-14 4.27039E-14
 -1      2481 2.04420E+01 7.54836E-02 6.06200E-04 3.12987E-01-1.58392E-13-1.46574E-13
 -1      2482 2.05254E+01 8.09560E-02 2.69966E-03 3.47649E-01-2.60342E-13-2.81775E-13
 -1      2483 2.04680E+01 1.15651E-01-1.29867E-03 4.37826E-01-1.51060E-13 7.56359E-15
 -1      2484 2.03252E+01 6.40791E-02 5.36647E-04 2.42675E-01-2.35416E-14 1.15671E-13
 -1      2485 2.03916E+01 7.02103E-02 2.44942E-03 2.72633E-01-6.34963E-14-9.29405E-14
 -1      2486 2.03536E+01 1.01856E-01-1.15073E-03 3.46999E-01-1.66416E-13-4.14650E-14
 -1      2487 2.02337E+01 5.25613E-02 4.66589E-04 1.83593E-01 1.26556E-13 5.52344E-14
 -1      2488 2.02853E+01 5.85427E-02 2.11651E-03 2.08536E-01 8.18228E-14 1.46250E-13
 -1      2489 2.02622E+01 8.59086E-02-1.00558E-03 2.68343E-01 1.73429E-15-1.93266E-14
 -1      2490 2.01634E+01 4.19327E-02 3.98180E-04 1.35442E-01 1.27812E-13 6.65594E-14
 -1      2491 2.02026E+01 4.73398E-02 1.76325E-03 1.55606E-01 1.82341E-13 1.26601E-13
 -1      2492 2.01904E+01 7.01107E-02-8.63319E-04 2.02610E-01 1.37533E-13-1.88825E-14
 -1      2493 2.01106E+01 3.26604E-02 3.33770E-04 9.71874E-02 6.20832E-14-9.17390E-14
 -1      2494 2.01397E+01 3.73114E-02 1.42627E-03 1.13087E-01 8.31070E-14-5.39536E-15
 -1      2495 2.01350E+01 5.56945E-02-7.27190E-04 1.49222E-01 1.97268E-13-3.45113E-14
 -1      2496 2.00719E+01 2.48851E-02 2.75114E-04 6.74758E-02-5.38541E-14-3.07122E-13
 -1      2497 2.00929E+01 2.87436E-02 1.12470E-03 7.97361E-02 1.36895E-13-8.71270E-14
 -1      2498 2.00930E+01 4.32115E-02-6.00862E-04 1.06903E-01 9.33966E-14 3.15797E-14
 -1      2499 2.00443E+01 1.85596E-02 2.23117E-04 4.48841E-02-1.85193E-13-3.32322E-13
 -1      2500 2.00590E+01 2.16713E-02 8.66380E-04 5.41396E-02-3.44096E-13-4.22854E-13
 -1      2501 2.00620E+01 3.28015E-02-4.87104E-04 7.40828E-02-3.99817E-14 3.63605E-15
 -1      2502 2.00252E+01 1.35370E-02 1.77828E-04 2.80660E-02-3.14116E-14-1.88702E-13
 -1      2503 2.00351E+01 1.59895E-02 6.52257E-04 3.49044E-02-9.81767E-14-3.32552E-13
 -1      2504 2.00395E+01 2.43686E-02-3.87394E-04 4.91554E-02-1.55501E-13-3.09731E-13
 -1      2505 2.00125E+01 9.62408E-03 1.38541E-04 1.58293E-02 4.13206E-14-1.97727E-13
 -1      2506 2.00188E+01 1.15232E-02 4.79373E-04 2.07628E-02 5.13082E-14-6.91710E-14
 -1      2507 2.00238E+01 1.76941E-02-3.01994E-04 3.06188E-02-4.33418E-14-1.60552E-13
 -1      2508 2.00047E+01 6.61186E-03 1.03907E-04 7.17072E-03 1.67858E-13-3.42601E-14
 -1      2509 2.00084E+01 8.06819E-03 3.42795E-04 1.06237E-02 9.33801E-14-1.51981E-13
 -1      2510 2.00132E+01 1.25037E-02-2.30246E-04 1.71541E-02 6.42561E-14-2.56816E-13
 -1      2511 2.00003E+01 4.29021E-03 7.19955E-05 1.28705E-03 2.14784E-13 3.55250E-14
 -1      2512 2.00021E+01 5.41340E-03 2.36847E-04 3.59251E-03 2.91452E-13 8.09933E-14
 -1      2513 2.00063E+01 8.50538E-03-1.71017E-04 7.65852E-03 1.53106E-13-2.75449E-15
 -1      2514 1.99983E+01 2.45573E-03 4.46332E-05-2.42527E-03 2.12010E-13 7.54357E-14
 -1      2515 1.99988E+01 3.34999E-03 1.55997E-04-1.02592E-03 1.63624E-13 9.02934E-14
 -1      2516 2.00022E+01 5.40871E-03-1.22419E-04 1.25369E-03 2.16756E-13 9.84299E-14
 -1      2517 1.99978E+01 8.78994E-04 1.58255E-05-4.39000E-03 2.80345E-13-8.91847E-14
 -1      2518 1.99976E+01 1.65757E-03 9.17762E-05-3.74703E-03 3.05764E-13 1.26032E-14
 -1      2519 2.00001E+01 2.94347E-03-8.18628E-05-2.71645E-03 2.20376E-13 3.55441E-14
 -1      2520 1.99981E+01-6.13375E-04-1.34212E-05-4.83025E-03 5.77001E-14 1.27908E-13
 -1      2521 1.99976E+01 1.54628E-04 5.62006E-05-4.84937E-03 8.86402E-15 7.95967E-14
 -1      2522 1.99992E+01 7.08374E-04-5.94331E-05-4.75299E-03 1.10008E-13 1.75022E-13
 -1      2523 1.99983E+01-1.41478E-03 2.24922E-05-4.52171E-03 1.46807E-13 2.19838E-13
 -1      2524 2.00013E+01-6.70245E-04-2.41828E-05-1.95744E-03-6.38757E-14 2.53233E-13
 -1      2525 2.00014E+01-5.88339E-04 3.55975E-05-2.46906E-03-8.02394E-14-9.58976E-15
 -1      2526 2.00010E+01-8.94233E-05-2.25294E-05-1.07276E-03 1.39630E-13 4.20594E-13
 -1      2527 2.00012E+01-6.71570E-05 2.89644E-05-1.49027E-03-3.48454E-14 4.05183E-13
 -1      2528 2.00017E+01 3.29302E-03 2.38100E-05-1.47510E-03 1.67418E-13 4.30796E-13
 -1      2529 2.00011E+01-1.59267E-03-5.36759E-06-4.19876E-03-2.06684E-13-3.13362E-13
 -1      2530 2.00007E+01-1.25076E-03 2.48678E-06-4.56194E-03-1.72476E-13-1.89218E-13
 -1      2531 2.00014E+01-1.23239E-03-1.90246E-05-3.06913E-03-2.67974E-13-1.27063E-13
 -1      2532 2.00014E+01-1.04379E-03 3.07084E-05-3.57798E-03-3.03113E-13-1.81183E-13
 -1      2533 2.00017E+01 9.03942E-04 1.56276E-05-3.73432E-03-1.32936E-13-2.93013E-13
 -1      2534 2.00019E+01 2.08108E-03 1.83559E-05-2.52404E-03-2.65857E-14 6.69889E-14
 -1      2535 2.00008E+01 3.24910E-04-1.35700E-05-4.35682E-04-8.90267E-14 2.93398E-13
 -1      2536 2.00009E+01 3.29388E-04 1.55294E-05-7.59677E-04-4.90131E-14 2.10474E-13
 -1      2537 2.00013E+01 4.28519E-03 3.80744E-05-7.33588E-04 5.51209E-14 1.77901E-13
 -1      2538 2.00008E+01 4.52873E-04 8.88709E-07 7.47704E-05-2.51556E-13 2.54277E-13
 -1      2539 2.00008E+01 4.64705E-04-4.74781E-07-2.16785E-04-2.48869E-13 3.48737E-13
 -1      2540 2.00011E+01 4.82398E-03 4.53713E-05-2.66956E-04-1.27176E-13 2.01604E-13
 -1      2541 2.00010E+01 2.64256E-04 1.69374E-05 6.41487E-04-2.18451E-13 2.95761E-15
 -1      2542 2.00008E+01 2.82544E-04-1.42798E-05 3.02497E-04-3.04303E-13 1.49626E-13
 -1      2543 2.00011E+01 4.79510E-03 4.50775E-05 1.05521E-04-8.05657E-14 2.25620E-13
 -1      2544 2.00013E+01-1.62162E-04 3.00725E-05 1.40696E-03 1.08528E-13-3.39145E-13
 -1      2545 2.00011E+01-1.71591E-04-2.27143E-05 9.73460E-04-6.32927E-14-9.82668E-14
 -1      2546 2.00014E+01 4.21186E-03 3.85749E-05 6.02020E-04-1.13034E-13-1.01321E-14
 -1      2547 2.00015E+01-7.06303E-04 3.41339E-05 2.45033E-03 1.99384E-13-8.68394E-14
 -1      2548 2.00014E+01-7.77842E-04-2.31386E-05 1.90665E-03 2.01148E-13-4.57687E-13
 -1      2549 2.00018E+01 3.19400E-03 2.46332E-05 1.39774E-03 2.32240E-13-3.82244E-13
 -1      2550 2.00014E+01-1.19231E-03 2.02082E-05 3.64290E-03 3.32009E-13 2.32437E-13
 -1      2551 2.00015E+01-1.35089E-03-1.17720E-05 3.07832E-03 2.46676E-13 3.14938E-13
 -1      2552 2.00020E+01 1.96713E-03 1.49213E-05 2.54433E-03 2.90713E-13 3.02222E-14
 -1      2553 2.00007E+01-1.38393E-03 4.87919E-06 4.64596E-03 1.42104E-13 5.80101E-14
 -1      2554 2.00012E+01-1.68928E-03-2.16469E-06 4.26829E-03 2.37933E-13 1.19558E-14
 -1      2555 2.00018E+01 7.60875E-04-1.69653E-05 3.81699E-03 2.80719E-13 7.32840E-14
 -1      2556 5.55097E+00-2.64515E+00 1.10501E-01 4.03640E+00 1.37584E-13 6.54587E-13
 -1      2557 4.19620E+00-2.04058E+00 1.21272E-01 1.58447E+00 7.84234E-14 5.35350E-13
 -1      2558 1.74924E+01-5.27192E+00-3.07687E-02 6.79524E+00-2.08389E-13 2.83457E-13
 -1      2559 1.34316E+01-5.18476E+00 4.67478E-02 6.78092E+00-1.46438E-13 4.02595E-13
 -1      2560 2.02909E+01 2.20743E-01 6.11010E-03-3.16457E-01 1.18024E-13 4.27317E-14
 -1      2561 2.02789E+01 2.68057E-01 1.28133E-02-1.96888E-01 1.33611E-13 5.92120E-14
 -1      2562 2.03671E+01 2.91360E-01-5.33802E-03-4.04765E-01 1.07507E-13-5.49465E-14
 -1      2563 1.99992E+01-1.96444E-03 2.87242E-05 4.94179E-03 3.14602E-14 2.93875E-13
 -1      2564 4.03863E+00-2.08375E+00 1.26508E-01-1.15943E+00 9.63327E-14 7.78544E-13
 -1      2565 5.15976E+00-2.65899E+00 1.28250E-01-3.43530E+00 5.38181E-14 1.08880E-12
 -1      2566 2.46097E+01-4.71450E+00-8.47939E-02 4.57964E+00-9.61731E-14 1.15907E-13
 -1      2567 2.18050E+01-5.23231E+00 5.74915E-02 5.39855E+00-2.50744E-13 1.88308E-13
 -1      2568 2.07266E+01 1.98894E+00-1.24329E-02-1.64933E+00-3.00813E-13-9.74932E-14
 -1      2569 2.06411E+01 1.26885E+00-3.68503E-03-1.01500E+00-2.85579E-13-8.33874E-14
 -1      2570 2.05705E+01 1.45264E+00 4.85951E-04-9.13999E-01-2.60999E-13-1.46784E-13
 -1      2571 2.04377E+01 2.41528E+00-9.74107E-03-1.55953E+00-2.87800E-13-1.89480E-13
 -1      2572 2.81234E+01-3.09389E+00-1.85277E-02-2.35223E+00-2.05350E-13 6.49480E-14
 -1      2573 3.06280E+01-1.30827E+00-6.00556E-02-1.38228E+00-4.52659E-13-6.54476E-14
 -1      2574 3.11530E+01-7.08341E-01-8.79540E-02 1.11851E+00-4.01373E-13 2.71450E-14
 -1      2575 2.87957E+01-2.55704E+00-2.26758E-02 2.23565E+00-3.05242E-13 9.21485E-15
 -1      2576 3.16511E+01 4.42975E+00-8.60224E-02 1.04458E+00 3.93158E-13 5.23193E-14
 -1      2577 3.17450E+01 6.13167E+00-1.69302E-01 9.78968E-01 5.04097E-13 6.34631E-14
 -1      2578 1.92635E+01 3.84851E+00-9.76305E-03-1.87276E-01 1.60972E-14-4.14882E-13
 -1      2579 1.92986E+01 3.82224E+00-8.65077E-03-3.29432E-01-2.04572E-14-4.20104E-13
 -1      2580 1.94577E+01 3.46616E+00 1.02978E-03-3.44129E-01-4.20232E-14-3.90181E-13
 -1      2581 1.93833E+01 3.54382E+00 8.11008E-04-1.15038E-01 2.74728E-14-3.81856E-13
 -1      2582 3.19123E+01 7.44746E+00-1.47275E-01 1.20319E-01 6.55365E-13 7.05686E-15
 -1      2583 3.32054E+01 7.51555E+00-3.64097E-02-2.68159E-01 6.60416E-13 8.82766E-14
 -1      2584 2.04723E+01-5.36470E+00 1.39649E-02-5.93231E+00-5.01821E-14-8.68194E-14
 -1      2585 2.38916E+01-4.69141E+00-5.21882E-02-5.23527E+00 1.05776E-13 2.83940E-14
 -1      2586 3.31769E+01 6.81460E+00-1.02008E-01-5.80657E-01 6.16729E-13 1.03223E-13
 -1      2587 3.26239E+01 5.69146E+00-9.83023E-02-7.48564E-01 6.53477E-13 8.85125E-14
 -1      2588 3.05771E+01 6.87279E+00-5.78598E-02-7.81958E-01 6.89671E-13 9.87960E-14
 -1      2589 3.07762E+01 3.94563E-01-1.67535E-02-2.54644E-01 3.71841E-13 1.13243E-13
 -1      2590 3.13091E+01 1.95849E+00-1.72229E-01 4.41554E-01 3.75755E-13 9.73388E-14
 -1      2591 2.12475E+01-5.46515E+00 3.16998E-02-5.45796E+00-3.26961E-14 3.90285E-13
 -1      2592 2.51512E+01-4.70648E+00-7.48834E-02-4.46293E+00-1.76609E-13 3.05894E-13
 -1      2593 2.67638E+01-3.44017E+00-4.31008E-03-3.42255E+00 1.94927E-13 5.06817E-14
 -1      2594 2.94754E+01-1.71914E+00-1.05750E-01-1.96083E+00 2.84092E-13 8.22120E-14
 -1      2595 1.26191E+01-4.92791E+00 7.72995E-02-6.83236E+00-2.42084E-13-2.92238E-13
 -1      2596 1.66719E+01-5.36347E+00 1.20099E-02-7.03342E+00-1.30229E-13-1.71241E-13
 -1      2597 5.44719E+00-3.61181E+00 7.81418E-02-4.31111E+00-2.52576E-13-7.42184E-13
 -1      2598 8.24655E+00-3.68901E+00 6.24366E-02-5.81847E+00-2.52548E-13-4.93577E-13
 -1      2599 3.21080E+00-2.68271E+00 1.06873E-01-6.28623E-02-1.53584E-13-8.01637E-13
 -1      2600 3.67418E+00-3.05794E+00 4.91814E-02-2.51610E+00-1.71640E-13-8.07132E-13
 -1      2601 6.34146E+00-1.94777E+00 1.66139E-01-3.17863E+00-2.62831E-13-7.21367E-13
 -1      2602 5.06835E+00-3.50938E+00 4.39081E-02 4.15257E+00-9.77551E-14-8.48599E-13
 -1      2603 3.56639E+00-3.08767E+00 6.40665E-02 2.09276E+00-7.99777E-14-8.32445E-13
 -1      2604 1.17386E+01-4.96634E+00-9.84235E-03 6.81150E+00-1.02307E-13-5.90417E-13
 -1      2605 7.93787E+00-4.41491E+00 4.95669E-02 5.61141E+00 2.40363E-14-7.14373E-13
 -1      2606 1.96694E+01-5.51182E+00-2.45050E-02 6.40315E+00-2.28262E-13-2.85660E-13
 -1      2607 1.60988E+01-5.62424E+00 3.43496E-02 6.58587E+00-1.46438E-13-3.59168E-13
 -1      2608 2.61869E+01-4.16942E+00-7.00726E-02 4.20956E+00-3.08364E-13-3.44169E-14
 -1      2609 2.28710E+01-5.11325E+00-1.34106E-02 5.10877E+00-2.60292E-13-1.85962E-13
 -1      2610 3.26094E+01 3.19920E+00-1.29970E-01-8.42749E-01-6.51368E-13 2.43749E-13
 -1      2611 3.20369E+01 1.46129E+00-4.13245E-02-2.17430E-01-5.28771E-13 1.54488E-13
 -1      2612 3.27225E+01 7.04152E+00-1.09092E-01 6.70332E-01-8.15847E-13 9.42163E-14
 -1      2613 3.28007E+01 7.24027E+00-1.23794E-01-5.54642E-02-8.01192E-13 6.86950E-15
 -1      2614 3.29184E+01 4.27566E+00-4.73339E-02 1.12843E+00-8.70831E-13-1.18516E-14
 -1      2615 3.27800E+01 5.83229E+00-1.69260E-01 1.15368E+00-8.50486E-13 3.76088E-14
 -1      2616 3.14973E+01 2.64746E-01-7.17489E-02-2.69559E-01-5.55077E-13-2.87548E-14
 -1      2617 3.23360E+01 1.92811E+00-1.45628E-01 4.83104E-01-6.78457E-13-6.60583E-14
 -1      2618 3.02702E+01-1.23387E+00 1.56742E-02 2.46316E-01-2.63456E-13-2.89629E-13
 -1      2619 1.36295E+01-5.33282E+00 4.44385E-02-6.58023E+00 1.49436E-13 7.61322E-13
 -1      2620 1.70349E+01-5.51754E+00-4.10578E-02-6.73539E+00 7.46070E-14 7.22512E-13
 -1      2621 6.79938E+00-3.66427E+00 8.45269E-02-4.91209E+00 7.06379E-14 9.19126E-13
 -1      2622 9.92611E+00-4.44104E+00 3.66793E-02-6.33166E+00 2.26485E-14 6.71296E-13
 -1      2623 7.87405E+00-2.21100E+00 1.51346E-01-4.14001E+00 2.00173E-13 8.62088E-13
 -1      2624 3.26098E+01 3.83084E+00-9.26323E-02-5.21966E-01 6.22474E-13 2.69507E-14
 -1      2625 3.11756E+01 1.85878E+00-5.58031E-02-2.25008E-01 5.64326E-13-1.02862E-13
 -1      2626 3.08265E+01 4.51276E+00-4.95041E-02-1.44646E+00 5.71543E-13-5.44009E-14
 -1      2627 2.07329E+01 8.93930E-01-4.99084E-03 1.01244E+00 2.81577E-13 2.03156E-13
 -1      2628 2.10349E+01 1.26432E+00-5.24965E-03 1.52268E+00 3.16896E-13 2.48995E-13
 -1      2629 2.08364E+01 1.72597E+00-1.57632E-02 1.69659E+00 3.45909E-13 1.27624E-13
 -1      2630 2.06826E+01 1.09548E+00-9.89431E-03 9.78723E-01 2.89137E-13 6.56072E-14
 -1      2631 1.04390E+01-4.44111E+00 5.22272E-02 6.67126E+00 5.21805E-15 4.23495E-13
 -1      2632 7.70239E+00-3.69021E+00 9.90428E-02 5.55536E+00 1.32117E-14 4.61658E-13
 -1      2633 1.36045E+01-4.18525E+00 1.26966E-01 6.56540E+00-2.83940E-13 2.29136E-13
 -1      2634 3.02622E+01 2.88588E+00-5.48557E-02 1.44102E+00 3.61683E-13 1.24761E-13
 -1      2635 1.98433E+01 3.02197E+00 2.40830E-03-8.31973E-01-1.60119E-13-3.70562E-13
 -1      2636 1.97560E+01 3.31404E+00-1.57203E-02-1.03194E+00-1.76655E-13-3.88071E-13
 -1      2637 1.99059E+01 3.15588E+00-1.59716E-02-1.20830E+00-2.12607E-13-3.52256E-13
 -1      2638 2.03901E+01 4.31411E-01-4.97810E-03-7.96425E-02 1.77529E-13-3.60571E-14
 -1      2639 2.05954E+01 2.14244E+00-1.26347E-02 1.63178E+00 3.41873E-13-6.43582E-15
 -1      2640 2.00562E+01 2.93998E+00-1.63785E-02-1.31233E+00-2.35315E-13-3.18003E-13
 -1      2641 2.02487E+01 2.69078E+00-2.12353E-02-1.47840E+00-2.71885E-13-2.61843E-13
 -1      2642 2.04190E+01 2.14861E+00 5.70782E-03-1.18841E+00-2.71839E-13-2.25256E-13
 -1      2643 2.01251E+01 2.64372E+00 5.16378E-03-1.04667E+00-2.10392E-13-3.13417E-13
 -1      2644 2.70512E+01-4.27931E+00 3.00926E-02-2.54829E+00 2.17326E-14-1.07303E-13
 -1      2645 2.64716E+01-4.16996E+00 4.55824E-02 2.55414E+00-1.58193E-13-7.39270E-14
 -1      2646 3.12556E+01 2.61664E+00 8.10870E-03 1.73199E+00-6.32938E-13-1.78663E-13
 -1      2647 3.09520E+01 6.01823E+00-6.06627E-02 1.26993E+00-8.03746E-13-5.01266E-14
 -1      2648 2.96324E+01-3.09259E-01-6.19238E-02-5.20959E-01 2.78833E-13-2.29039E-13
 -1      2649 3.19876E+01 4.00130E+00-9.01565E-02-1.38059E+00-6.42264E-13 2.28068E-13
 -1      2650 3.02701E+01 2.77122E+00-9.79257E-03-2.09846E+00-4.70068E-13 3.61600E-13
 -1      2651 2.99600E+01 4.76156E+00-2.89070E-01-1.80005E+00-6.38573E-13 1.92235E-13
 -1      2652 1.99991E+01-1.25922E-03-2.14011E-05-4.98845E-03 4.04834E-15 2.14771E-13
 -1      2653 2.03007E+01-5.24954E+00 7.23387E-02 5.79416E+00-2.81636E-13 2.04607E-13
 -1      2654 1.99998E+01-1.44843E-03 1.67993E-05-4.95474E-03-8.78364E-14 1.83258E-13
 -1      2655 2.78421E+01-3.82466E+00 2.79523E-02 2.34082E+00-2.02074E-13 8.52651E-14
 -1      2656 6.15924E+00-1.07657E+00 1.76929E-01 2.89134E-01 1.06909E-13 8.00193E-13
 -1      2657 8.64056E+00-2.23956E+00 1.64000E-01 4.66591E+00-7.80626E-14 4.56274E-13
 -1      2658 2.24257E+01-5.52051E+00 6.18623E-02 5.19555E+00-8.09353E-14-7.58699E-14
 -1      2659 1.52912E+01-4.97653E+00 1.03327E-01 6.53032E+00 4.91274E-14-4.20275E-13
 -1      2660 2.05989E+01 1.86382E+00 1.21274E-02 1.29214E+00 3.18273E-13-3.49928E-14
 -1      2661 5.24273E+00-1.73138E+00 1.64810E-01 1.02807E+00-1.11286E-13-7.96696E-13
 -1      2662 2.00004E+01 7.36453E-05 1.21673E-05-4.84189E-03-1.01798E-14 2.83749E-14
 -1      2663 3.06445E+01-2.58787E-01 3.18125E-04-5.31137E-01-3.65916E-13 2.79360E-13
 -1      2664 1.14001E+01-4.01197E+00 1.24005E-01-6.42448E+00-3.04645E-13-3.37327E-13
 -1      2665 1.45023E+01-4.16760E+00 5.64533E-02-6.46627E+00-3.78850E-13-1.59817E-13
 -1      2666 1.06563E+01-2.76869E+00 1.59507E-01-5.70536E+00-3.20036E-13-3.96932E-13
 -1      2667 3.13271E+01 6.79299E+00-8.63558E-02-4.25065E-01-8.33333E-13 1.79717E-15
 -1      2668 2.59518E+01-4.45129E+00 5.16106E-02-3.48252E+00-5.72736E-14 1.42580E-13
 -1      2669 2.88216E+01 5.51222E+00-1.28057E-01 1.32919E+00 4.48586E-13 7.35384E-14
 -1      2670 3.06203E+01 6.57652E+00-1.28365E-01 7.83304E-01 5.40151E-13 4.65045E-14
 -1      2671 2.88412E+01 6.71004E+00-1.58865E-01 4.42249E-01 6.11927E-13 4.10193E-14
 -1      2672 2.04981E+01-5.47540E+00 7.78653E-02-5.65391E+00 2.08084E-13 3.83173E-13
 -1      2673 1.97505E+01-5.43792E+00 5.52238E-02-6.12729E+00-2.32092E-13-6.17961E-14
 -1      2674 2.93583E+01-1.39240E+00-1.65321E-02-4.73232E-01 2.39340E-13 1.91736E-13
 -1      2675 8.39508E+00-3.05423E+00 1.47729E-01 4.97187E+00 7.27196E-14-6.99218E-13
 -1      2676 1.30183E+01-4.27792E+00 1.20325E-01-6.31572E+00 2.04531E-13 6.64399E-13
 -1      2677 1.99991E+01-6.19313E-04-1.63950E-06 5.02331E-03-2.35542E-14 2.77902E-13
 -1      2678 2.00002E+01-1.43022E-03-2.43111E-05 5.09310E-03-2.06315E-14 3.20844E-13
 -1      2679 2.00008E+01 2.98201E-04 3.08931E-05 4.77920E-03 3.42824E-14 8.46174E-14
 -1      2680 1.99989E+01 2.19944E-04 4.90905E-05 5.08608E-03-1.56943E-13 1.93063E-13
 -1      2681 2.00003E+01 9.66710E-04-6.86308E-05 4.70050E-03-1.72213E-13 2.56062E-13
 -1      2682 1.95780E+01 3.09221E+00-5.39763E-03 3.32252E-01 1.60953E-13-3.62956E-13
 -1      2683 1.95155E+01 3.15811E+00-6.59616E-03 2.22177E-01 1.29515E-13-3.51827E-13
 -1      2684 1.94718E+01 3.21497E+00-5.23646E-03 1.40029E-01 1.10481E-13-3.40255E-13
 -1      2685 1.94476E+01 3.23924E+00-5.90923E-03 3.28899E-02 7.93077E-14-3.41822E-13
 -1      2686 1.95927E+01 2.90642E+00 5.02975E-03 1.35160E-01 1.13048E-13-3.14478E-13
 -1      2687 2.00016E+01 2.52954E+00-9.12338E-03 7.39695E-01 2.71784E-13-2.44391E-13
 -1      2688 1.98729E+01 2.70590E+00-7.74887E-03 6.22778E-01 2.49633E-13-2.86027E-13
 -1      2689 2.03005E+01 2.04358E+00-1.04876E-02 9.07500E-01 2.91677E-13-1.78948E-13
 -1      2690 2.01459E+01 2.30919E+00-6.28085E-03 8.16264E-01 2.72503E-13-2.10488E-13
 -1      2691 2.01689E+01 2.10143E+00 6.54318E-03 5.83464E-01 2.61339E-13-2.18980E-13
 -1      2692 2.04796E+01 8.35181E-01-1.14694E-03 2.85165E-01 2.16399E-13-7.83461E-14
 -1      2693 2.05767E+01 1.04178E+00 9.22284E-03 5.81033E-01 2.35713E-13-6.69090E-14
 -1      2694 6.77885E+00-1.09869E+00 1.50021E-01 2.30974E+00-3.20299E-14-7.33830E-13
 -1      2695 6.31262E+00-7.66242E-01 1.37644E-01 4.57595E-02-1.18128E-13-7.10570E-13
 -1      2696 1.57991E+01-4.24489E+00 2.49357E-02 6.44431E+00-2.82191E-13 1.70003E-13
 -1      2697 1.32330E+01-3.26936E+00 1.19492E-01 6.07658E+00-2.56850E-13 2.37199E-13
 -1      2698 8.38489E+00-1.18213E+00 1.10900E-01-3.41687E+00 1.74749E-13 9.27619E-13
 -1      2699 1.01684E+01-2.15551E+00 1.38836E-01-5.00286E+00 1.96870E-13 7.82457E-13
 -1      2700 2.89857E+01-2.19931E+00-2.62843E-02 4.47112E-01-7.50060E-14-3.60129E-13
 -1      2701 2.93443E+01-9.73876E-01-2.13083E-01 1.23520E+00-2.54421E-13-3.25615E-13
 -1      2702 2.04365E+01 8.33362E-01 6.26084E-03 4.19535E-02-1.53646E-13-1.69919E-13
 -1      2703 2.04002E+01 7.13020E-01-5.13074E-04 2.59374E-01-1.40596E-13-1.70657E-13
 -1      2704 2.03832E+01 6.25824E-01 5.14426E-03 4.47093E-01-1.33034E-13-1.42750E-13
 -1      2705 2.03825E+01 5.59269E-01 1.33527E-03 6.15542E-01-1.28003E-13-1.50460E-13
 -1      2706 2.03412E+01 8.36606E-01-1.61105E-03 3.37112E-01-1.41023E-13-1.82238E-13
 -1      2707 2.03665E+01 5.12701E-01 2.88690E-03 7.71595E-01-1.09100E-13-1.35247E-13
 -1      2708 2.04013E+01 4.76813E-01 2.58962E-03 9.10776E-01-8.19451E-14-1.23880E-13
 -1      2709 2.02981E+01 6.69603E-01-2.09515E-03 6.93518E-01-1.10974E-13-1.55675E-13
 -1      2710 2.03936E+01 4.48940E-01 1.36610E-03 1.04756E+00-7.08035E-14-1.15440E-13
 -1      2711 2.04603E+01 4.24233E-01 3.32875E-03 1.16828E+00-7.48604E-14-1.17333E-13
 -1      2712 2.02712E+01 5.76244E-01-1.93470E-03 9.97424E-01-7.87683E-14-1.53579E-13
 -1      2713 2.04658E+01 3.97438E-01 6.59183E-04 1.29324E+00-4.70279E-14-1.22233E-13
 -1      2714 2.05628E+01 3.65105E-01 3.67034E-03 1.39872E+00-1.15883E-14-1.00715E-13
 -1      2715 2.02684E+01 5.09998E-01-1.90927E-03 1.26806E+00-5.75875E-14-1.46433E-13
 -1      2716 2.05902E+01 3.20236E-01 1.03292E-03 1.51410E+00-1.61043E-15-4.54622E-14
 -1      2717 2.07206E+01 2.57948E-01 3.62603E-03 1.59957E+00-2.43293E-14-3.82728E-14
 -1      2718 2.02987E+01 4.26796E-01-2.59066E-03 1.51668E+00 3.72460E-15-1.14765E-13
 -1      2719 2.07874E+01 1.71330E-01 2.94790E-03 1.70094E+00-8.40837E-15-7.90515E-15
 -1      2720 2.09609E+01 5.12760E-02 3.05998E-03 1.75215E+00 2.43054E-14 1.76670E-14
 -1      2721 2.03829E+01 2.74925E-01-4.65083E-03 1.74388E+00 1.96179E-14 3.81936E-14
 -1      2722 2.10998E+01-1.05242E-01 7.16772E-03 1.82535E+00 1.79005E-14 5.70194E-14
 -1      2723 2.13337E+01-3.13913E-01 1.55638E-03 1.81634E+00 3.04836E-14 6.05330E-14
 -1      2724 2.05639E+01-9.48390E-03-8.90836E-03 1.93607E+00 3.92652E-14 1.00935E-13
 -1      2725 2.15971E+01-5.66050E-01 1.46270E-02 1.83079E+00 2.12257E-14 7.72458E-14
 -1      2726 2.19118E+01-8.84060E-01-1.87991E-03 1.72175E+00 4.13176E-14 6.84598E-14
 -1      2727 2.09181E+01-4.97491E-01-1.59656E-02 2.05689E+00 1.67717E-14 5.75195E-14
 -1      2728 2.23682E+01-1.23069E+00 2.52534E-02 1.61885E+00 4.22017E-14 8.33524E-14
 -1      2729 2.27795E+01-1.63258E+00-7.02083E-03 1.35880E+00 8.11686E-14 6.52097E-14
 -1      2730 2.15615E+01-1.23816E+00-2.56472E-02 2.02724E+00 5.58080E-14 5.85404E-14
 -1      2731 2.34735E+01-1.99761E+00 3.30272E-02 1.05622E+00 1.37399E-13 9.40772E-14
 -1      2732 2.39499E+01-2.33796E+00-1.40087E-02 6.19695E-01 6.61788E-14 1.48651E-13
 -1      2733 2.25837E+01-2.17182E+00-4.97262E-02 1.69190E+00 1.11804E-13 1.75681E-13
 -1      2734 2.48861E+01-2.51614E+00 3.57566E-02-5.02931E-02-2.30124E-14 2.27593E-13
 -1      2735 2.52226E+01-2.46639E+00-3.90916E-02-6.58606E-01-5.23077E-14 2.81035E-13
 -1      2736 2.42604E+01-3.01557E+00-5.60465E-02 8.49812E-01 7.23102E-14 2.46383E-13
 -1      2737 2.61014E+01-2.09905E+00-4.57488E-02-1.48098E+00-7.78752E-14 3.26933E-13
 -1      2738 2.62201E+01-1.15460E+00-1.16737E-02-2.04065E+00-9.05664E-14 3.16461E-13
 -1      2739 2.59096E+01-2.82452E+00-6.59615E-02-5.29223E-01-3.02050E-14 3.78197E-13
 -1      2740 2.70790E+01 1.20984E+00-1.09077E-01-2.51524E+00-2.42140E-13 2.63158E-13
 -1      2741 2.69613E+01 2.82448E+00-9.79206E-02-2.30193E+00-3.02647E-13 1.89279E-13
 -1      2742 2.68959E+01 3.98147E+00-9.62625E-02-1.38194E+00-4.76730E-13 9.25917E-14
 -1      2743 2.58687E+01 4.46330E+00-7.85832E-02 3.12820E-01-5.60607E-13-1.01178E-13
 -1      2744 2.59082E+01 3.77336E+00-1.76519E-01 1.40551E+00-4.52000E-13-2.32868E-13
 -1      2745 2.64378E+01 2.70928E+00-6.12322E-02 2.28669E+00-3.24921E-13-4.00395E-13
 -1      2746 2.64569E+01 1.13840E+00-1.93973E-01 2.63839E+00-2.99843E-13-3.79039E-13
 -1      2747 2.71162E+01-3.76870E-01-3.89131E-02 2.26330E+00-1.35218E-13-4.50140E-13
 -1      2748 2.69188E+01-1.68266E+00-5.95529E-02 1.80413E+00 4.73580E-15-4.15671E-13
 -1      2749 2.43864E+01-2.45679E+00-1.74285E-02-1.68209E-01 2.10726E-13-1.13819E-13
 -1      2750 2.39366E+01-2.18207E+00 3.52048E-02-6.73254E-01 1.57212E-13-8.56372E-14
 -1      2751 2.31503E+01-1.83596E+00-1.28767E-02-1.05826E+00 1.03820E-13-9.09602E-14
 -1      2752 2.27298E+01-1.42690E+00 2.76507E-02-1.36744E+00 7.97471E-14-1.09740E-13
 -1      2753 2.30656E+01-2.41413E+00-3.89546E-02-1.40903E+00 1.46440E-13 1.40513E-14
 -1      2754 2.21997E+01-1.05579E+00-4.72613E-03-1.51089E+00 1.00738E-13-4.93069E-14
 -1      2755 2.18662E+01-7.04839E-01 1.71395E-02-1.65093E+00 7.25068E-14-2.01401E-15
 -1      2756 2.18555E+01-1.46070E+00-3.00941E-02-1.83910E+00 1.41180E-13 7.13605E-14
 -1      2757 2.15512E+01-4.21250E-01 1.84984E-04-1.65444E+00 8.70350E-14 9.23009E-14
 -1      2758 2.13036E+01-1.81444E-01 8.92567E-03-1.68007E+00 1.78741E-13 1.45232E-13
 -1      2759 2.10993E+01-6.43647E-01-1.89881E-02-1.91620E+00 1.89558E-13 2.34065E-13
 -1      2760 2.11315E+01-8.56062E-04 2.40865E-03-1.61282E+00 1.06983E-13 1.84496E-13
 -1      2761 2.09490E+01 1.38105E-01 3.63464E-03-1.57015E+00 2.68390E-14 1.91684E-13
 -1      2762 2.06699E+01-8.53462E-02-1.03903E-02-1.81331E+00 1.86189E-13 2.84993E-13
 -1      2763 2.08601E+01 2.35781E-01 3.30337E-03-1.47179E+00 9.47076E-15 1.62067E-13
 -1      2764 2.07215E+01 3.01993E-01 6.62699E-04-1.39358E+00 5.56665E-14 1.35066E-13
 -1      2765 2.04399E+01 2.40455E-01-5.01072E-03-1.62780E+00 4.16810E-14 2.56768E-13
 -1      2766 2.06764E+01 3.43409E-01 3.61898E-03-1.28568E+00-7.92807E-15 9.10752E-14
 -1      2767 2.05668E+01 3.63577E-01-7.90369E-04-1.19335E+00-1.26730E-13 1.87744E-13
 -1      2768 2.03188E+01 3.98495E-01-2.02991E-03-1.41192E+00-4.43071E-14 2.14008E-14
 -1      2769 2.05428E+01 3.70957E-01 3.63038E-03-1.08754E+00-6.34595E-14 2.71075E-13
 -1      2770 2.04532E+01 3.64938E-01-1.38929E-03-9.94201E-01-9.82491E-14 3.60965E-13
 -1      2771 2.02521E+01 4.49547E-01-6.27097E-04-1.19334E+00-2.63444E-14 6.73497E-14
 -1      2772 2.04384E+01 3.53874E-01 3.45683E-03-8.96668E-01-2.89726E-13 3.43036E-13
 -1      2773 2.03640E+01 3.34766E-01-1.51904E-03-8.09702E-01-2.86705E-13 2.65061E-13
 -1      2774 2.02100E+01 4.39059E-01-9.67759E-05-9.86955E-01-1.78985E-13 1.55297E-13
 -1      2775 2.03529E+01 3.15153E-01 3.16873E-03-7.23417E-01-2.85415E-13 3.00419E-13
 -1      2776 2.02910E+01 2.90926E-01-1.41759E-03-6.46461E-01-2.44414E-13 2.09440E-13
 -1      2777 2.01784E+01 3.97170E-01 2.04899E-05-8.00659E-01-2.31063E-13 3.45497E-13
 -1      2778 2.02813E+01 2.68597E-01 2.81365E-03-5.72439E-01-2.17135E-13 2.82349E-13
 -1      2779 2.02302E+01 2.43767E-01-1.22056E-03-5.06761E-01-1.35820E-13 2.45578E-13
 -1      2780 2.01514E+01 3.42443E-01-2.56443E-05-6.37990E-01-2.45319E-13 3.70820E-13
 -1      2781 2.02213E+01 2.21912E-01 2.43082E-03-4.44807E-01-1.13944E-13 1.66191E-13
 -1      2782 2.01795E+01 1.98824E-01-1.00057E-03-3.90274E-01-6.49098E-14 5.47380E-14
 -1      2783 2.01268E+01 2.85556E-01-1.12242E-04-4.99682E-01-2.10421E-13 2.76787E-13
 -1      2784 2.01713E+01 1.79014E-01 2.05034E-03-3.39494E-01 2.54559E-14 5.82873E-15
 -1      2785 2.01378E+01 1.58714E-01-7.93025E-04-2.95212E-01 3.09380E-14 4.69907E-14
 -1      2786 2.01043E+01 2.32172E-01-1.86890E-04-3.84694E-01-4.63903E-14 1.90505E-13
 -1      2787 2.01304E+01 1.41581E-01 1.69291E-03-2.54355E-01-1.31031E-14-2.06371E-14
 -1      2788 2.01039E+01 1.24380E-01-6.12581E-04-2.19080E-01 6.28168E-14 1.87496E-14
 -1      2789 2.00842E+01 1.84913E-01-2.33267E-04-2.90955E-01-9.12885E-14-3.89931E-14
 -1      2790 2.00974E+01 1.10031E-01 1.37089E-03-1.86761E-01 1.22634E-13-3.09831E-14
 -1      2791 2.00768E+01 9.58447E-02-4.63057E-04-1.59144E-01 8.43455E-14-1.62319E-14
 -1      2792 2.00666E+01 1.44647E-01-2.51515E-04-2.15889E-01 1.49442E-14-2.09115E-14
 -1      2793 2.00713E+01 8.41151E-02 1.09010E-03-1.33992E-01 9.19302E-14-1.74321E-14
 -1      2794 2.00557E+01 7.26627E-02-3.43104E-04-1.12723E-01 2.60030E-13-4.35650E-14
 -1      2795 2.00517E+01 1.11280E-01-2.47844E-04-1.56774E-01 1.61128E-13-1.70783E-13
 -1      2796 2.00511E+01 6.32622E-02 8.51705E-04-9.34613E-02 3.64182E-13-4.29982E-14
 -1      2797 2.00394E+01 5.41820E-02-2.49248E-04-7.73472E-02 2.89453E-13 1.78650E-14
 -1      2798 2.00394E+01 8.42277E-02-2.29524E-04-1.10969E-01 2.65211E-13-2.46413E-13
 -1      2799 2.00357E+01 4.67736E-02 6.53939E-04-6.28377E-02 2.79234E-13 2.13982E-14
 -1      2800 2.00272E+01 3.96852E-02-1.77559E-04-5.08374E-02 1.38433E-13-9.05712E-14
 -1      2801 2.00294E+01 6.26936E-02-2.02836E-04-7.60496E-02 2.70153E-13-8.65212E-14
 -1      2802 2.00243E+01 3.39285E-02 4.93276E-04-4.01015E-02 7.24294E-15-1.84364E-13
 -1      2803 2.00182E+01 2.84636E-02-1.24769E-04-3.13368E-02-4.11572E-14-2.17483E-13
 -1      2804 2.00215E+01 4.58171E-02-1.72679E-04-4.98785E-02-1.44533E-14-3.03634E-13
 -1      2805 2.00159E+01 2.40357E-02 3.65070E-04-2.35616E-02 3.60774E-14-3.85673E-14
 -1      2806 2.00118E+01 1.98599E-02-8.68176E-05-1.73162E-02 2.90033E-13 2.46714E-14
 -1      2807 2.00153E+01 3.27529E-02-1.42856E-04-3.06367E-02 1.44548E-13-7.73768E-14
 -1      2808 2.00100E+01 1.64733E-02 2.65130E-04-1.18370E-02 2.93865E-13 1.06580E-14
 -1      2809 2.00072E+01 1.32781E-02-6.12697E-05-7.53696E-03 1.46791E-13 6.66001E-14
 -1      2810 2.00106E+01 2.27290E-02-1.14444E-04-1.68258E-02 2.43089E-13-9.03603E-14
 -1      2811 2.00060E+01 1.06577E-02 1.91565E-04-3.83280E-03-7.08792E-14 1.22065E-13
 -1      2812 2.00042E+01 8.15440E-03-4.28745E-05-1.04469E-03-1.36485E-13-8.35415E-14
 -1      2813 2.00071E+01 1.50312E-02-8.67703E-05-7.22515E-03-2.65639E-14-2.89382E-13
 -1      2814 2.00032E+01 6.02062E-03 1.27276E-04 1.25297E-03-5.60168E-14-2.36247E-13
 -1      2815 2.00022E+01 4.05259E-03-1.10010E-05 2.81752E-03-7.04166E-14-3.85414E-13
 -1      2816 2.00044E+01 8.93036E-03-8.29709E-05-8.99856E-04-1.52784E-13-4.24709E-13
 -1      2817 2.05750E+01 2.10097E-01 1.97007E-03-9.04236E-01 1.32473E-13-1.04893E-13
 -1      2818 2.04910E+01 2.51834E-01 3.48307E-03-8.25316E-01 1.37954E-13-9.57379E-14
 -1      2819 2.00017E+01 2.76514E-03 7.70907E-05 3.72116E-03-4.92848E-14-2.59032E-13
 -1      2820 2.00013E+01 1.55719E-03 3.09013E-06 4.23043E-03-4.24458E-15-7.26344E-14
 -1      2821 2.00028E+01 4.62259E-03-7.99420E-05 2.44473E-03 2.35954E-14-4.19458E-13
 -1      2822 2.04612E+01 2.92808E-01 2.09588E-03-7.20125E-01 9.72572E-14-1.02380E-13
 -1      2823 2.04136E+01 3.41106E-01 5.05332E-03-6.12339E-01 8.71486E-14-9.92119E-14
 -1      2824 2.04199E+01 3.52356E-01-3.76464E-03-8.14005E-01 1.26002E-13-1.75011E-13
 -1      2825 2.09729E+01-8.67050E-03-3.54894E-04-1.10382E+00 2.59681E-14 2.12805E-14
 -1      2826 2.08349E+01 6.21575E-02 3.27805E-03-1.08671E+00 6.12108E-14-8.45580E-15
 -1      2827 2.12612E+01-1.93548E-01-2.82087E-03-1.08847E+00 5.02248E-14 4.51310E-15
 -1      2828 2.11038E+01-9.02133E-02 4.55810E-03-1.11849E+00 5.27507E-14 2.85377E-14
 -1      2829 2.08468E+01-5.80550E-02-5.34086E-03-1.23207E+00 2.86527E-14-1.14522E-14
 -1      2830 2.16158E+01-4.48847E-01-6.30330E-03-9.53671E-01 5.22395E-14 1.29297E-14
 -1      2831 2.14454E+01-3.08397E-01 6.61345E-03-1.04880E+00 6.43077E-14 2.09043E-14
 -1      2832 2.11405E+01-3.10619E-01-7.03705E-03-1.22025E+00 4.86536E-14 3.02899E-14
 -1      2833 2.20353E+01-7.59722E-01-1.05228E-02-6.57055E-01 4.32688E-14 3.57093E-14
 -1      2834 2.18635E+01-5.94432E-01 8.83138E-03-8.35354E-01 5.90259E-14 1.74866E-14
 -1      2835 2.15421E+01-6.49258E-01-8.84838E-03-1.07796E+00 5.47583E-14 6.49329E-15
 -1      2836 2.24956E+01-1.05680E+00-1.42180E-02-1.65577E-01 4.72519E-14 9.90570E-15
 -1      2837 2.23442E+01-9.10912E-01 9.74084E-03-4.33928E-01 5.90694E-14 6.98032E-14
 -1      2838 2.20641E+01-1.04253E+00-9.44425E-03-7.52989E-01 5.58998E-14 3.90750E-14
 -1      2839 2.29289E+01-1.19136E+00-1.44488E-02 5.07551E-01-7.97337E-14 4.07340E-15
 -1      2840 2.28311E+01-1.15225E+00 6.40938E-03 1.73548E-01-1.50681E-14 9.69277E-15
 -1      2841 2.26821E+01-1.38155E+00-6.70045E-03-2.00176E-01 1.33885E-14 1.58897E-13
 -1      2842 2.32160E+01-9.49284E-01-6.19921E-03 1.24425E+00-5.57244E-14 5.56487E-14
 -1      2843 2.32076E+01-1.13229E+00-3.57965E-03 9.24965E-01-8.84624E-14 1.69102E-14
 -1      2844 2.32982E+01-1.45902E+00 3.25582E-05 5.69490E-01-7.40548E-14 8.15469E-14
 -1      2845 2.32284E+01-1.78245E-01 9.84675E-03 1.76078E+00 7.08906E-14 8.20984E-14
 -1      2846 2.33170E+01-6.38803E-01-1.93863E-02 1.60364E+00-1.44897E-14 9.05070E-14
 -1      2847 2.37244E+01-1.00209E+00 9.70418E-03 1.40060E+00-5.40097E-14 1.17178E-13
 -1      2848 2.29485E+01 9.73927E-01 1.98953E-02 1.67797E+00 1.36060E-13 1.07697E-13
 -1      2849 2.30867E+01 3.65346E-01-3.50624E-02 1.83679E+00 7.46007E-14 9.65786E-14
 -1      2850 2.37713E+01 1.12408E-01 1.10025E-02 1.92254E+00 7.11497E-14 1.59286E-13
 -1      2851 2.25986E+01 1.93090E+00 1.20203E-02 8.05318E-01 1.89187E-13 8.45604E-14
 -1      2852 2.26929E+01 1.51464E+00-3.21178E-02 1.29623E+00 2.24602E-13 1.12100E-13
 -1      2853 2.34575E+01 1.54637E+00-6.34892E-03 1.66286E+00 1.92839E-13 1.90497E-13
 -1      2854 2.25052E+01 2.04220E+00-2.55600E-02-5.03701E-01 1.25108E-13 1.56108E-14
 -1      2855 2.25058E+01 2.10533E+00-9.46618E-03 8.87499E-02 1.50827E-13 4.71029E-14
 -1      2856 2.31692E+01 2.50389E+00-1.84578E-02 4.99249E-01 1.84951E-13 6.80064E-14
 -1      2857 2.28079E+01 1.20633E+00-4.76636E-02-1.59563E+00 1.43385E-13-1.13643E-13
 -1      2858 2.26765E+01 1.72626E+00 2.66470E-03-1.20419E+00 1.42945E-13-7.27265E-14
 -1      2859 2.31826E+01 2.32214E+00-2.04214E-04-9.89708E-01 1.84729E-13-1.41900E-14
 -1      2860 2.32155E+01 5.91422E-02-3.17524E-02-1.91978E+00 1.63981E-13-1.94650E-13
 -1      2861 2.30753E+01 6.59600E-01 2.03276E-02-1.85225E+00 1.89326E-13-1.95793E-13
 -1      2862 2.35969E+01 1.20341E+00 1.42788E-02-1.92861E+00 1.98168E-13-2.09196E-13
 -1      2863 2.33682E+01-8.09053E-01-1.39454E-02-1.52291E+00 6.58644E-14-2.21132E-13
 -1      2864 2.32989E+01-4.30263E-01 6.09196E-03-1.73435E+00 7.00933E-14-2.17024E-13
 -1      2865 2.38308E+01-2.46670E-01 1.50034E-02-1.93291E+00 1.41055E-13-2.29825E-13
 -1      2866 2.31869E+01-1.14795E+00 1.21372E-03-8.08696E-01 6.71492E-14-8.87075E-14
 -1      2867 2.32125E+01-1.03966E+00-8.38521E-03-1.13583E+00 1.03088E-13-1.66113E-13
 -1      2868 2.36694E+01-1.16081E+00 9.09825E-03-1.27734E+00 6.46514E-14-2.54611E-13
 -1      2869 2.27825E+01-1.06838E+00 8.93348E-03-1.01017E-01-1.13977E-13-2.12110E-13
 -1      2870 2.28859E+01-1.15127E+00-1.45649E-02-4.13277E-01 8.70875E-15-7.54642E-14
 -1      2871 2.31788E+01-1.43793E+00 7.34025E-04-4.48434E-01-1.44296E-14-1.19197E-13
 -1      2872 2.23063E+01-7.87094E-01 9.96048E-03 4.30062E-01-1.59218E-13-3.16173E-13
 -1      2873 2.24521E+01-9.46725E-01-1.35534E-02 1.96060E-01-1.26291E-13-2.59051E-13
 -1      2874 2.25547E+01-1.25980E+00-7.64545E-03 2.49563E-01-6.03260E-14-1.17283E-13
 -1      2875 2.18593E+01-4.72343E-01 8.31946E-03 7.55219E-01-9.88889E-14-3.23177E-13
 -1      2876 2.20175E+01-6.32963E-01-9.66049E-03 6.11132E-01-1.40844E-13-3.39006E-13
 -1      2877 2.19672E+01-8.85520E-01-9.42079E-03 7.14717E-01-1.00616E-13-3.19404E-13
 -1      2878 2.14799E+01-2.08449E-01 5.86597E-03 9.07206E-01 6.56323E-14-3.44740E-13
 -1      2879 2.16331E+01-3.35824E-01-5.56917E-03 8.40038E-01 1.16691E-14-3.11632E-13
 -1      2880 2.14871E+01-5.03213E-01-8.14031E-03 9.64618E-01-3.29066E-14-3.06038E-13
 -1      2881 2.11722E+01-2.13528E-02 3.64549E-03 9.35213E-01 7.61018E-15-2.07183E-13
 -1      2882 2.13127E+01-1.07902E-01-2.31957E-03 9.23983E-01-1.35383E-14-2.35988E-13
 -1      2883 2.11221E+01-1.96367E-01-5.95876E-03 1.05217E+00-2.53795E-14-3.09919E-13
 -1      2884 2.09263E+01 9.40959E-02 1.99729E-03 8.84755E-01 6.67192E-14-1.76284E-13
 -1      2885 2.10513E+01 4.30811E-02-8.66350E-05 9.09345E-01 5.88737E-14-1.80631E-13
 -1      2886 2.08531E+01 1.45154E-02-4.04775E-03 1.03222E+00-1.77518E-14-1.20271E-13
 -1      2887 2.07296E+01 1.54219E-01 9.14209E-04 7.90976E-01 1.04910E-13-3.20643E-15
 -1      2888 2.08386E+01 1.29584E-01 1.30128E-03 8.35362E-01 8.84824E-14-1.25152E-13
 -1      2889 2.06551E+01 1.40749E-01-2.69451E-03 9.48618E-01 3.69214E-14-1.77173E-13
 -1      2890 2.05714E+01 1.76335E-01 2.70845E-04 6.78531E-01 1.20972E-13 4.04355E-14
 -1      2891 2.06648E+01 1.69285E-01 2.06133E-03 7.31285E-01 1.95021E-13 3.67903E-14
 -1      2892 2.05071E+01 2.03460E-01-1.83527E-03 8.32855E-01 1.11932E-13 7.29545E-14
 -1      2893 2.04438E+01 1.74759E-01-7.22704E-05 5.63435E-01-3.64234E-14 9.29160E-14
 -1      2894 2.05225E+01 1.78339E-01 2.38205E-03 6.17102E-01 7.12565E-14 1.46107E-13
 -1      2895 2.03941E+01 2.23345E-01-1.31988E-03 7.06109E-01 1.01763E-13 1.59748E-13
 -1      2896 2.03409E+01 1.59958E-01-2.28307E-04 4.55244E-01-1.25734E-13 4.40220E-14
 -1      2897 2.04062E+01 1.69217E-01 2.41162E-03 5.05407E-01-1.09610E-13 5.16853E-14
 -1      2898 2.03061E+01 2.16984E-01-1.01542E-03 5.81752E-01-4.12608E-14 7.25577E-14
 -1      2899 2.02585E+01 1.38985E-01-2.76232E-04 3.58982E-01-6.38444E-14 6.79545E-14
 -1      2900 2.03116E+01 1.50656E-01 2.26237E-03 4.03364E-01-1.16459E-13 8.45504E-14
 -1      2901 2.02366E+01 1.96310E-01-8.28560E-04 4.67524E-01-1.43484E-13 4.63860E-14
 -1      2902 2.01931E+01 1.16279E-01-2.66836E-04 2.76657E-01 8.02291E-14-6.89337E-14
 -1      2903 2.02355E+01 1.28350E-01 2.01612E-03 3.14399E-01 6.05538E-14 4.93861E-14
 -1      2904 2.01813E+01 1.69284E-01-7.01753E-04 3.67268E-01 2.83032E-14 1.28795E-13
 -1      2905 2.01417E+01 9.44274E-02-2.30987E-04 2.08392E-01 2.21001E-13-1.82904E-13
 -1      2906 2.01750E+01 1.05758E-01 1.72935E-03 2.39511E-01 1.40039E-13-1.17071E-13
 -1      2907 2.01374E+01 1.40870E-01-6.03555E-04 2.82252E-01 2.12986E-13-1.37626E-13
 -1      2908 2.01019E+01 7.47851E-02-1.86379E-04 1.53219E-01 1.11058E-13-1.39486E-13
 -1      2909 2.01275E+01 8.48062E-02 1.43872E-03 1.78226E-01 1.57725E-13-8.34989E-14
 -1      2910 2.01027E+01 1.13932E-01-5.18936E-04 2.12139E-01 6.22139E-14-1.75747E-13
 -1      2911 2.00716E+01 5.79196E-02-1.42475E-04 1.09619E-01 1.40511E-13-4.13964E-14
 -1      2912 2.00910E+01 6.64232E-02 1.16625E-03 1.29265E-01 8.35402E-14-5.61488E-14
 -1      2913 2.00755E+01 8.99338E-02-4.41916E-04 1.55677E-01 4.82511E-14-1.48378E-13
 -1      2914 2.00489E+01 4.39214E-02-1.03853E-04 7.58733E-02-1.28805E-13 6.13155E-14
 -1      2915 2.00632E+01 5.09140E-02 9.23643E-04 9.09870E-02 3.14539E-14 8.41082E-14
 -1      2916 2.00545E+01 6.94501E-02-3.70873E-04 1.11169E-01-3.36669E-14-3.44639E-14
 -1      2917 2.00324E+01 3.26094E-02-7.23680E-05 5.02757E-02-1.40182E-14-1.39047E-13
 -1      2918 2.00427E+01 3.82168E-02 7.15667E-04 6.16658E-02-8.22355E-14-3.72546E-14
 -1      2919 2.00385E+01 5.25202E-02-3.05909E-04 7.67817E-02-4.38182E-14 1.32840E-13
 -1      2920 2.00205E+01 2.36613E-02-4.84966E-05 3.12609E-02 4.01376E-14-2.83081E-13
 -1      2921 2.00277E+01 2.80685E-02 5.42727E-04 3.96601E-02 4.73373E-14-1.65956E-13
 -1      2922 2.00266E+01 3.88795E-02-2.47563E-04 5.07358E-02-2.13305E-14 1.17118E-14
 -1      2923 2.00124E+01 1.66932E-02-3.20787E-05 1.74680E-02 6.42259E-14-1.98020E-13
 -1      2924 2.00172E+01 2.01084E-02 4.02678E-04 2.35056E-02 6.91819E-14-2.53453E-13
 -1      2925 2.00178E+01 2.81080E-02-1.96191E-04 3.14183E-02 8.19755E-14-1.57471E-13
 -1      2926 2.00069E+01 1.13046E-02-2.31067E-05 7.76736E-03 2.07685E-13-1.39915E-13
 -1      2927 2.00100E+01 1.39399E-02 2.92009E-04 1.19591E-02 1.12929E-13-1.40696E-13
 -1      2928 2.00115E+01 1.97205E-02-1.51807E-04 1.74383E-02 2.72821E-14-1.52541E-13
 -1      2929 2.00034E+01 7.10886E-03-1.61761E-05 1.26875E-03 2.04594E-13 3.67491E-14
 -1      2930 2.00053E+01 9.16199E-03 2.06504E-04 4.01290E-03 2.23539E-13 3.86077E-14
 -1      2931 2.00071E+01 1.32159E-02-1.14185E-04 7.64733E-03 1.22268E-13-9.00190E-14
 -1      2932 2.00015E+01 3.76732E-03 1.42481E-05-2.67258E-03 1.09443E-13 3.32266E-14
 -1      2933 2.00024E+01 5.35380E-03 1.32576E-04-1.12368E-03 1.55848E-13-1.87254E-14
 -1      2934 2.00041E+01 8.13375E-03-7.86976E-05 1.13872E-03 1.84101E-13 5.47919E-14
 -1      2935 2.00007E+01 1.31788E-03 3.62836E-06-4.34287E-03-6.13540E-14 1.64009E-13
 -1      2936 2.00010E+01 2.74675E-03 6.84992E-05-3.67007E-03 3.22078E-14 5.63176E-14
 -1      2937 2.00025E+01 4.47288E-03-7.98416E-05-2.37130E-03 6.14964E-14-7.48679E-14
 -1      2938 2.00017E+01 1.67606E-03-4.59138E-05-3.91128E-03-1.02230E-13-2.23091E-13
 -1      2939 2.21413E+01-5.28377E+00-8.47541E-02 4.86242E+00-2.90185E-13 7.35731E-14
 -1      2940 1.88619E+01-4.79991E+00 1.28385E-01 5.88347E+00-3.49595E-13 1.25153E-13
 -1      2941 2.00010E+01 9.40437E-03-3.13765E-05-3.72592E-05-5.15355E-14 2.32573E-13
 -1      2942 2.00011E+01 9.29237E-03-1.13194E-05-1.44414E-04 3.39924E-14 1.54882E-13
 -1      2943 2.97640E+01 3.92880E-02-1.74101E-01-1.39795E+00-3.74499E-13 4.13794E-13
 -1      2944 2.94951E+01-1.74772E+00-3.34403E-02-6.29106E-01-2.29036E-13 3.31818E-13
 -1      2945 2.00018E+01 7.29352E-03-5.22016E-05-4.99453E-04 2.59210E-13 5.35996E-13
 -1      2946 2.00021E+01 6.77370E-03 2.41447E-05-9.05562E-04 2.22261E-13 3.93569E-13
 -1      2947 2.00011E+01 9.24693E-03-1.01316E-05-3.91523E-05-6.92599E-14 1.40523E-13
 -1      2948 2.00010E+01 9.38632E-03-3.27292E-05-1.55784E-04-1.04584E-13 2.18764E-13
 -1      2949 2.00012E+01 1.43183E-02 8.48013E-05-1.11410E-04-5.46937E-14 2.18198E-13
 -1      2950 2.00013E+01 8.71085E-03-4.75407E-05-1.01157E-04 4.41452E-14 3.78327E-14
 -1      2951 2.00015E+01 8.37157E-03 1.03722E-05-3.19341E-04 1.82791E-13 2.91466E-13
 -1      2952 2.00020E+01 1.21445E-02 5.94147E-05 2.62810E-04 1.08488E-13 3.43366E-13
 -1      2953 2.00014E+01 1.37690E-02 7.85446E-05 2.37494E-04 1.59352E-13 8.18225E-14
 -1      2954 2.00016E+01 8.29515E-03 1.15589E-05 1.77998E-04-2.00928E-14 2.02894E-14
 -1      2955 2.00013E+01 8.64458E-03-4.86885E-05-6.04566E-05-5.09873E-14 1.82643E-13
 -1      2956 2.00015E+01 1.37163E-02 7.98551E-05-4.35393E-04-4.02668E-15 1.26317E-13
 -1      2957 2.00023E+01 6.67663E-03 2.33427E-05 8.30132E-04 1.57966E-13-3.19315E-13
 -1      2958 2.00020E+01 7.19642E-03-5.46750E-05 3.92305E-04 5.58503E-14-2.29859E-13
 -1      2959 2.00022E+01 1.20637E-02 6.20268E-05-3.98817E-04 3.29938E-14 1.66735E-14
 -1      2960 2.00026E+01 4.63720E-03-4.47932E-07 1.96000E-03 2.88716E-13 1.85638E-13
 -1      2961 2.00025E+01 5.27816E-03-4.81667E-05 1.31999E-03 3.05635E-13 6.28687E-14
 -1      2962 2.00029E+01 9.64386E-03 4.43647E-05 2.23933E-04 1.45129E-13 4.92163E-14
 -1      2963 2.90280E+01 1.38759E+00-5.18464E-02 1.73449E+00 2.62887E-13 1.20029E-13
 -1      2964 2.86984E+01 3.29695E+00-1.98717E-01 1.89904E+00 3.52329E-13 8.74995E-14
 -1      2965 2.94567E+01 1.46195E+00-5.41064E-02 2.16666E+00-4.62727E-13-3.28210E-13
 -1      2966 2.91217E+01 3.17283E+00-2.54373E-01 2.27079E+00-5.94996E-13-2.84023E-13
 -1      2967 1.11762E+01-2.23111E+00 1.23614E-01 5.44557E+00-2.19158E-13 2.22114E-13
 -1      2968 9.03491E+00-1.10663E+00 1.18437E-01 3.81853E+00-1.20293E-13 4.03177E-13
 -1      2969 2.04715E+01 1.69577E+00-7.82213E-03-9.12892E-01-2.60223E-13-1.95039E-13
 -1      2970 2.04868E+01 1.34885E+00 2.89440E-03-6.11781E-01-2.31210E-13-1.81177E-13
 -1      2971 2.03377E+01 1.98339E+00-2.41575E-03-8.83940E-01-2.27546E-13-2.37674E-13
 -1      2972 7.81080E+00-2.11172E-01 1.40062E-01 1.51877E+00 3.06005E-15 7.01217E-13
 -1      2973 7.78392E+00-2.38384E-01 1.61705E-01-1.14345E+00 4.76875E-14 8.19927E-13
 -1      2974 2.85210E+01 6.45779E+00-1.99923E-01-5.52392E-01 6.60805E-13-9.36820E-14
 -1      2975 2.87906E+01 5.87819E+00-1.54327E-01-1.31209E+00 6.21253E-13-1.50172E-13
 -1      2976 2.57288E+01-4.84895E+00 8.43584E-02-2.79517E+00 1.77830E-13-1.48381E-13
 -1      2977 2.77984E+01-3.88300E+00-1.35139E-01-1.14513E+00 6.91461E-14-3.09183E-13
 -1      2978 2.04072E+01 3.95415E-01 1.69978E-03-4.76763E-01 9.38170E-14-9.71503E-14
 -1      2979 2.04035E+01 4.67892E-01 7.52405E-03-3.30665E-01 1.32863E-13-8.79366E-14
 -1      2980 2.03903E+01 4.77317E-01-3.75735E-03-5.57787E-01 9.97030E-14-1.58339E-13
 -1      2981 2.07455E+01 1.18267E-01 1.19098E-03-1.03493E+00 9.29469E-14-7.02269E-14
 -1      2982 2.06318E+01 1.67898E-01 2.90991E-03-9.83744E-01 1.02743E-13-9.09438E-14
 -1      2983 2.05012E+01 2.44274E-01-3.77750E-03-1.01136E+00 1.07934E-13-1.47542E-13
 -1      2984 2.06397E+01 1.18088E-01-4.24500E-03-1.15406E+00 2.32356E-14-6.47436E-14
 -1      2985 2.04903E+01 1.14572E+00 2.83688E-03-4.05266E-01-1.98062E-13-1.70894E-13
 -1      2986 2.04395E+01 9.46666E-01-1.01888E-03-1.23741E-01-1.73521E-13-1.73876E-13
 -1      2987 2.03821E+01 1.06846E+00-3.46936E-03-3.72944E-02-1.68161E-13-2.00736E-13
 -1      2988 2.04038E+01 1.40285E+00 1.34137E-03-4.22751E-01-1.99129E-13-2.09340E-13
 -1      2989 1.86868E+01-4.97283E+00 9.41776E-02-6.06162E+00-2.79970E-13-6.78069E-14
 -1      2990 2.18857E+01-5.39850E+00-3.46508E-02-5.27570E+00-2.11386E-13 2.56514E-14
 -1      2991 2.04157E+01 5.56215E-01 8.30092E-04-1.52942E-01 1.77970E-13-9.42431E-14
 -1      2992 2.04607E+01 6.78620E-01 1.02324E-02 5.13503E-02 1.97144E-13-7.77721E-14
 -1      2993 2.04570E+01 9.69751E-01-6.00409E-04 2.07874E-01 2.10729E-13-1.39704E-13
 -1      2994 2.04065E+01 6.63415E-01-2.95205E-03-2.25498E-01 1.66651E-13-1.50240E-13
 -1      2995 1.97580E+01 2.86839E+00-6.56137E-03 5.35660E-01 2.32947E-13-3.14099E-13
 -1      2996 1.96589E+01 2.98391E+00-7.34322E-03 4.18354E-01 1.91556E-13-3.52648E-13
 -1      2997 1.97227E+01 2.74607E+00 5.35691E-03 2.87934E-01 1.69715E-13-3.22760E-13
 -1      2998 1.99218E+01 2.48179E+00 6.15040E-03 4.43420E-01 2.31000E-13-2.71188E-13
 -1      2999 1.96354E+01 3.01680E+00-7.37481E-03-4.20071E-01-9.03996E-14-3.67931E-13
 -1      3000 1.97329E+01 2.90564E+00-6.56193E-03-5.33257E-01-1.23567E-13-3.62676E-13
 -1      3001 2.66827E+01-3.80546E+00-1.16271E-01 1.33618E+00-2.13995E-13-1.96662E-13
 -1      3002 2.51513E+01-4.69467E+00 9.78728E-02 2.98524E+00-2.92079E-13-1.09149E-13
 -1      3003 1.91865E+01-5.04224E+00 1.25637E-01-5.68970E+00 3.47486E-13 2.64556E-13
 -1      3004 2.24632E+01-5.54436E+00-9.90852E-02-4.76575E+00 3.06422E-13 2.88571E-14
 -1      3005 1.07095E+01-2.94767E+00 5.16674E-02 5.69326E+00 1.32117E-13-5.69378E-13
 -1      3006 8.20304E+00-1.86138E+00 1.44998E-01 4.06242E+00 5.41373E-14-6.20615E-13
 -1      3007 2.80822E+01-2.71807E+00-4.91256E-03-5.75878E-01 7.47683E-14 2.06390E-13
 -1      3008 2.86505E+01-1.10766E+00-1.78913E-01 6.89520E-01 2.03754E-13 1.99549E-13
 -1      3009 6.79246E+00-9.40920E-01 1.79701E-01-2.07779E+00-2.31523E-13-6.95444E-13
 -1      3010 8.13320E+00-1.57976E+00 1.13780E-01-4.00164E+00-2.89171E-13-5.97911E-13
 -1      3011 1.24559E+01-3.24437E+00 1.26235E-01-5.82210E+00 2.52590E-13 5.89362E-13
 -1      3012 1.56434E+01-4.44355E+00 1.88983E-02-6.35125E+00 2.44332E-13 5.72459E-13
 -1      3013 2.05211E+01 1.57452E+00-9.78360E-04 9.73956E-01 2.83663E-13-7.27205E-14
 -1      3014 1.79540E+01-5.13706E+00-2.03772E-02 6.28955E+00 1.53849E-13-1.17392E-13
 -1      3015 1.43370E+01-4.05891E+00 1.42541E-01 6.25135E+00 2.18603E-13-3.63043E-13
 -1      3016 2.47799E+01-4.90866E+00 5.92336E-02-3.55654E+00-1.21014E-13 7.74103E-14
 -1      3017 2.67874E+01-4.15033E+00-1.18624E-01-2.14365E+00-4.95437E-15 1.97828E-13
 -1      3018 2.70166E+01-3.50133E+00-6.66092E-03-8.83897E-01 1.20390E-15 1.27454E-13
 -1      3019 2.82086E+01-3.54154E+00-1.49746E-01 9.87664E-01-1.14245E-13 2.04031E-13
 -1      3020 2.64431E+01-4.68745E+00 3.21661E-02 2.57056E+00-9.35918E-14 1.63952E-13
 -1      3021 2.91762E+01 9.28744E-01-1.60924E-01-1.51969E+00 3.45085E-13-3.00399E-13
 -1      3022 2.82048E+01-1.48796E+00-4.01994E-02-5.61401E-01 1.33733E-13-3.47042E-13
 -1      3023 2.88679E+01 5.11057E+00-1.35082E-01 1.58222E+00-6.97914E-13-1.33837E-13
 -1      3024 2.85342E+01 5.79788E+00-2.47138E-01 6.84173E-01-7.38520E-13-8.41063E-14
 -1      3025 2.41244E+01-5.45525E+00-6.76418E-02 4.21651E+00-1.82354E-14 9.50628E-14
 -1      3026 2.15252E+01-5.43358E+00 9.18044E-02 5.18225E+00 1.08469E-13-2.95423E-14
 -1      3027 2.00018E+01 1.74990E-03-1.92120E-05 3.93614E-03 2.51299E-13-2.93054E-13
 -1      3028 2.90840E+01 4.73060E+00-1.96151E-01-1.71013E+00 5.18308E-13-1.73375E-13
 -1      3029 2.92710E+01 3.25695E+00-9.13433E-02-1.91715E+00 3.96044E-13-2.42972E-13
 -1      3030 1.98472E+01 2.74630E+00-8.04282E-03-6.16146E-01-1.39685E-13-3.62783E-13
 -1      3031 1.99767E+01 2.57258E+00-9.00223E-03-7.27507E-01-1.71038E-13-3.44393E-13
 -1      3032 1.98940E+01 2.52790E+00 6.81812E-03-4.41417E-01-1.23720E-13-3.30591E-13
 -1      3033 2.54844E+01-4.91279E+00 3.48955E-02 2.76483E+00 4.85653E-14 1.80259E-13
 -1      3034 1.95427E+01 2.96646E+00 5.01807E-03-1.11199E-02 5.47109E-14-3.08034E-13
 -1      3035 1.94441E+01 3.24448E+00-5.67879E-03-4.60010E-02 4.71840E-14-3.37315E-13
 -1      3036 1.94615E+01 3.22694E+00-5.50094E-03-1.51855E-01 9.38405E-15-3.48326E-13
 -1      3037 8.03966E+00-3.75104E-01 1.68278E-01-8.84316E-01-1.48085E-13-6.67855E-13
 -1      3038 1.35932E+01-2.31321E+00 1.26490E-01 5.30409E+00-3.40269E-13 1.60219E-13
 -1      3039 1.28866E+01-2.30147E+00 1.45525E-01-5.11782E+00 2.98761E-13 6.41959E-13
 -1      3040 2.81059E+01 1.58340E+00-9.80228E-02-2.00847E+00 2.35562E-13-3.54619E-13
 -1      3041 2.85870E+01 3.58328E-01-8.85556E-03 2.26223E+00-2.75779E-13-4.12337E-13
 -1      3042 2.75593E+01 3.81413E+00-9.30350E-02 1.98778E+00-4.68875E-13-3.16490E-13
 -1      3043 2.71301E+01-2.68847E+00-6.90967E-02 8.47462E-01 1.23526E-13-4.29941E-13
 -1      3044 2.58317E+01-2.28076E+00-1.52428E-02 1.15457E+00 6.62153E-14-3.24960E-13
 -1      3045 2.54645E+01-2.58461E+00 1.25884E-02 5.29744E-01 2.37435E-13-2.75168E-13
 -1      3046 2.43267E+01-4.96262E+00 4.22120E-02-3.23047E+00 3.29070E-13-1.22277E-13
 -1      3047 2.35478E+01-4.74152E+00 4.01043E-02 3.53726E+00-3.38701E-13-1.23311E-13
 -1      3048 2.00022E+01 2.95874E-03 2.11326E-05-3.10457E-03-1.92515E-14-2.39351E-13
 -1      3049 2.00026E+01 4.61151E-03 4.58489E-05-2.55851E-03-1.31934E-13-1.57877E-13
 -1      3050 2.00024E+01 3.46405E-03-5.23812E-05-2.52772E-03 1.28921E-15 1.39080E-14
 -1      3051 2.75175E+01 6.00667E+00-1.23001E-01-8.92860E-02 5.75845E-13-1.66180E-13
 -1      3052 2.83454E+01-2.87507E+00-2.64713E-02-2.37092E-01-1.15206E-13 3.88883E-13
 -1      3053 2.71443E+01 2.77547E+00-9.26245E-02 2.05511E+00 2.92696E-13 1.33366E-14
 -1      3054 2.80696E+01 4.15109E+00-1.37829E-01 1.86376E+00 3.71092E-13 4.09950E-14
 -1      3055 2.69344E+01 4.75627E+00-1.45788E-01 1.59122E+00 3.43420E-13-6.07153E-14
 -1      3056 2.80166E+01-1.98751E-01-5.37870E-02 1.45209E+00 1.78454E-13 9.87266E-14
 -1      3057 2.00023E+01 2.46641E-03 4.35477E-05 3.22966E-03 3.61031E-13-6.47784E-14
 -1      3058 1.01031E+01-2.35425E-01 1.38300E-01 2.39756E+00-1.38375E-13 4.70832E-13
 -1      3059 2.48512E+01-3.14012E+00-4.18919E-02-4.38644E-01 2.69580E-13-2.34915E-13
 -1      3060 2.36269E+01-4.96074E+00 3.45228E-02-3.84718E+00-1.68365E-13 1.14214E-14
 -1      3061 1.02668E+01-1.84355E+00 1.81569E-01-4.80035E+00-3.41976E-13-4.31377E-13
 -1      3062 1.25018E+01-2.31312E+00 6.23724E-02-5.33636E+00-3.97349E-13-2.57669E-13
 -1      3063 1.03687E+01-1.03829E+00 1.24464E-01-3.90129E+00-3.18440E-13-4.44131E-13
 -1      3064 1.84040E+01-4.13213E+00 1.18257E-01 5.59382E+00-3.95628E-13 1.05162E-13
 -1      3065 2.76743E+01 4.70595E+00-1.06185E-01-1.66066E+00 4.73954E-13-3.02224E-13
 -1      3066 1.71365E+01-4.37126E+00 1.00828E-01-6.21921E+00-2.88991E-13-1.39666E-13
 -1      3067 1.93170E+01-4.38010E+00 4.74603E-02-5.35636E+00-2.56968E-13-1.01724E-13
 -1      3068 1.55957E+01-3.38996E+00 1.05442E-01-5.90692E+00-3.10002E-13-2.00506E-13
 -1      3069 2.78457E+01-3.27361E+00-2.52768E-02-5.57472E-02 9.29708E-14-3.67650E-13
 -1      3070 2.00023E+01 5.40662E-03-5.35058E-05-1.33970E-03 1.79181E-13 2.80134E-13
 -1      3071 2.00025E+01 4.82922E-03 2.34911E-05-1.89357E-03 1.19321E-13 5.84325E-14
 -1      3072 2.00030E+01 7.14677E-03 3.96932E-05-1.22837E-03 2.04797E-13 1.41601E-13
 -1      3073 2.00027E+01 9.75777E-03 4.42805E-05-2.40656E-04 3.52234E-13 3.56877E-13
 -1      3074 1.38937E+01-3.01738E+00 1.56058E-01 5.59364E+00 2.27901E-13-3.62835E-13
 -1      3075 1.94991E+01 3.17968E+00-6.47177E-03-2.30378E-01-1.50052E-14-3.41507E-13
 -1      3076 1.95578E+01 3.11822E+00-5.64574E-03-3.39022E-01-6.99390E-14-3.49289E-13
 -1      3077 1.96977E+01 2.78163E+00 5.68134E-03-2.97136E-01-7.80817E-14-3.24219E-13
 -1      3078 1.95782E+01 2.92580E+00 5.24567E-03-1.53435E-01-1.37925E-14-3.13455E-13
 -1      3079 2.92066E+01 1.12782E+00-6.27777E-02-2.06844E+00-3.47347E-13 4.23495E-13
 -1      3080 1.84115E+01-4.30007E+00 1.16475E-01-5.49791E+00 3.19605E-13 2.77112E-13
 -1      3081 2.74423E+01-2.79979E+00-3.87501E-02-3.64272E-02-7.75638E-14-2.97068E-13
 -1      3082 2.61994E+01-3.47098E+00-2.34736E-02 6.25806E-01-2.72393E-13-2.53571E-13
 -1      3083 2.71985E+01-1.45637E+00-7.05718E-02-1.19759E+00 2.82621E-14-4.01484E-13
 -1      3084 9.19511E+00-9.39207E-01 1.80811E-01 3.07732E+00 9.62425E-14-5.76650E-13
 -1      3085 2.00030E+01 5.26116E-03-2.77935E-05 2.17853E-03 1.65055E-13-1.04453E-13
 -1      3086 2.00028E+01 4.42654E-03-3.19150E-05 2.19995E-03 2.58781E-13 1.68696E-13
 -1      3087 2.00035E+01 8.05860E-03 8.57666E-05 8.39509E-04 1.72849E-13 2.10972E-13
 -1      3088 2.00038E+01 7.23161E-03 1.20701E-04 1.08664E-03-4.10626E-14-2.31010E-13
 -1      3089 2.89126E+01 6.08172E+00-1.96760E-01-3.22007E-01-7.61474E-13 6.01429E-15
 -1      3090 2.96878E+01 5.80841E+00-1.17379E-01-1.30219E+00-7.62612E-13 8.93868E-14
 -1      3091 2.04289E+01 1.69775E+00-2.55592E-03 8.36720E-01 2.74012E-13-1.38222E-13
 -1      3092 2.03860E+01-4.92995E+00 8.38139E-02 5.22642E+00 2.07862E-13-2.12538E-14
 -1      3093 2.73772E+01 5.15891E+00-1.49711E-01 1.06589E-01-6.60749E-13-5.11917E-14
 -1      3094 2.03969E+01 1.51951E+00 2.90485E-03 5.58081E-01 2.52230E-13-1.69127E-13
 -1      3095 2.21046E+01-4.99221E+00-4.26542E-02 4.40293E+00 1.53141E-13 6.21638E-14
 -1      3096 1.93329E+01-4.20144E+00 1.07671E-01 5.13584E+00 2.20976E-13-4.20636E-14
 -1      3097 2.02495E+01 1.70502E+00-5.54538E-03 4.16876E-01 2.43756E-13-1.99362E-13
 -1      3098 2.01299E+01 1.93140E+00-2.13183E-03 3.70219E-01 2.24979E-13-2.24503E-13
 -1      3099 1.18279E+01-3.30413E-01 9.20643E-02 3.36204E+00-2.54397E-13 1.80064E-13
 -1      3100 1.05957E+01 3.98701E-01 4.88252E-02 1.30646E+00-1.30478E-13 4.96631E-13
 -1      3101 2.00905E+01 2.40023E+00-6.34879E-03-7.77666E-01-1.86295E-13-3.22315E-13
 -1      3102 2.02193E+01 2.18429E+00-9.58840E-03-8.52424E-01-2.13033E-13-2.88332E-13
 -1      3103 2.03099E+01 1.81546E+00 4.41439E-03-6.05654E-01-2.08430E-13-2.56802E-13
 -1      3104 2.01129E+01 2.19617E+00 6.92028E-03-5.53432E-01-1.67391E-13-3.15949E-13
 -1      3105 2.80158E+01 1.84146E-01-8.67357E-02-2.16633E+00-2.34042E-13 4.03122E-13
 -1      3106 2.69460E+01 2.29794E+00-1.58235E-01-2.21755E+00 2.44096E-13-2.90691E-13
 -1      3107 2.71282E+01 5.82142E-01-6.49276E-02-2.03525E+00 1.57770E-13-3.75526E-13
 -1      3108 1.55544E+01-2.69767E+00 4.58510E-02 5.37913E+00-3.39707E-13 1.34788E-13
 -1      3109 1.36152E+01-1.58127E+00 6.09015E-02 4.69486E+00-3.24574E-13 1.59900E-13
 -1      3110 2.60777E+01-4.60794E+00-8.75278E-02 1.66044E+00 6.67869E-14 2.61645E-13
 -1      3111 2.43934E+01-4.80103E+00 7.48178E-02 2.97078E+00 1.21042E-13 2.25243E-13
 -1      3112 2.03464E+01 5.68832E-01-1.70364E-05-6.26011E-01 1.11726E-13-1.99497E-13
 -1      3113 2.03492E+01 6.57059E-01 3.52919E-03-4.75126E-01 1.27326E-13-1.75455E-13
 -1      3114 2.86119E+01 4.73915E+00-2.26419E-02-1.75039E+00-5.55833E-13 1.35857E-13
 -1      3115 2.65081E+01-3.76550E+00 4.37184E-02-4.47450E-01 2.66969E-13-3.60587E-13
 -1      3116 2.02169E+01 8.46232E-01 1.86074E-03 5.80177E-01-1.12609E-13-1.73058E-13
 -1      3117 2.01936E+01 7.75744E-01-4.67721E-05 7.45607E-01-8.44112E-14-1.72988E-13
 -1      3118 2.01403E+01 7.23559E-01 4.12194E-04 8.94549E-01-7.96750E-14-1.52342E-13
 -1      3119 2.01298E+01 6.82324E-01 1.34147E-03 1.03842E+00-8.67688E-14-1.65709E-13
 -1      3120 2.00440E+01 8.85434E-01 6.47513E-04 7.88932E-01-8.29610E-14-1.67968E-13
 -1      3121 2.00668E+01 6.46661E-01-6.26074E-04 1.17613E+00-6.31642E-14-1.53144E-13
 -1      3122 2.00722E+01 6.12507E-01 2.58874E-03 1.30642E+00-2.39153E-14-1.53167E-13
 -1      3123 1.99254E+01 7.85535E-01 5.67371E-04 1.07809E+00-6.05302E-14-1.64643E-13
 -1      3124 2.00070E+01 5.71218E-01-1.14300E-03 1.44071E+00 2.50013E-14-1.28526E-13
 -1      3125 2.00352E+01 5.20041E-01 4.01030E-03 1.56146E+00 2.44980E-14-8.32121E-14
 -1      3126 1.97971E+01 7.03669E-01 2.79095E-04 1.35147E+00 6.33861E-15-1.35265E-13
 -1      3127 1.99805E+01 4.46903E-01-7.13062E-04 1.69881E+00 4.87075E-14-1.11117E-14
 -1      3128 2.00471E+01 3.48629E-01 5.92985E-03 1.80921E+00 7.87453E-14 4.85361E-14
 -1      3129 1.96752E+01 5.87612E-01-8.81068E-04 1.62523E+00 9.45830E-14-4.69990E-14
 -1      3130 2.00277E+01 2.10481E-01 1.41808E-03 1.95380E+00 4.69351E-14 6.07076E-14
 -1      3131 2.01624E+01 2.70223E-02 8.63143E-03 2.04627E+00 5.79830E-14 6.78767E-14
 -1      3132 1.95913E+01 3.72379E-01-3.83291E-03 1.91416E+00 7.91451E-14 2.75180E-14
 -1      3133 2.02253E+01-2.15886E-01 6.97224E-03 2.19648E+00 1.62665E-14 8.92695E-14
 -1      3134 2.04765E+01-5.27913E-01 1.24062E-02 2.25118E+00 1.89816E-14 8.47231E-14
 -1      3135 1.96081E+01-2.53837E-02-9.73940E-03 2.22910E+00 2.41591E-14 6.81974E-14
 -1      3136 2.07060E+01-9.14768E-01 1.91924E-02 2.38895E+00 4.94620E-14 1.12979E-13
 -1      3137 2.11335E+01-1.38793E+00 1.45961E-02 2.35944E+00 8.16161E-14 1.15513E-13
 -1      3138 1.98403E+01-7.04646E-01-1.93930E-02 2.56532E+00 5.22479E-14 1.12291E-13
 -1      3139 2.16908E+01-1.92918E+00 4.44916E-02 2.41493E+00 1.16719E-13 1.31733E-13
 -1      3140 2.24878E+01-2.48490E+00 4.59482E-02 2.15780E+00 1.52774E-13 1.63062E-13
 -1      3141 2.05113E+01-1.75287E+00-2.51813E-02 2.88153E+00 1.31996E-13 1.58474E-13
 -1      3142 2.26532E+01-3.42863E+00 2.28459E-02 2.68752E+00 1.79202E-13 1.65889E-13
 -1      3143 2.37324E+01-3.86321E+00 3.56822E-02 2.26958E+00 1.03972E-13 2.22565E-13
 -1      3144 2.59781E+01 4.26874E+00-2.51479E-01-6.39906E-01-5.70682E-13-2.08028E-14
 -1      3145 2.24000E+01-4.70362E+00 6.22552E-02-4.11612E+00-2.22461E-13-4.71381E-14
 -1      3146 2.45207E+01-4.69687E+00-7.68330E-02-2.72799E+00-1.18447E-13-3.78066E-14
 -1      3147 2.14096E+01-1.65255E+00 1.21221E-02-2.23224E+00 1.78224E-13 1.12540E-13
 -1      3148 2.09222E+01-1.12573E+00 2.49876E-02-2.28291E+00 2.13754E-13 1.60112E-13
 -1      3149 2.06095E+01-6.97424E-01 1.15115E-02-2.15512E+00 2.08396E-13 2.57584E-13
 -1      3150 2.03131E+01-3.37380E-01 9.62350E-03-2.10934E+00 2.24397E-13 3.36334E-13
 -1      3151 1.99289E+01-9.20884E-01-2.45472E-02-2.52477E+00 2.52799E-13 2.27993E-13
 -1      3152 2.02019E+01-5.78022E-02 9.19813E-03-1.95267E+00 1.44916E-13 2.40358E-13
 -1      3153 2.00354E+01 1.54728E-01 2.20474E-03-1.86269E+00 1.03309E-13 2.25052E-13
 -1      3154 1.95805E+01-1.34225E-01-1.18893E-02-2.17693E+00 1.66888E-13 1.23205E-13
 -1      3155 2.00254E+01 3.11786E-01 6.41805E-03-1.71208E+00 5.41534E-14 1.34515E-13
 -1      3156 1.99357E+01 4.18829E-01-1.15764E-03-1.60493E+00-6.15707E-14 1.07354E-13
 -1      3157 1.94944E+01 3.23898E-01-4.84432E-03-1.84448E+00-1.71331E-16-1.09223E-13
 -1      3158 1.99701E+01 4.91263E-01 4.56999E-03-1.46856E+00-9.57357E-14 1.83893E-13
 -1      3159 1.99210E+01 5.30236E-01-2.41519E-03-1.35826E+00-7.10737E-14 1.40740E-13
 -1      3160 1.95314E+01 5.54044E-01-8.27639E-04-1.54997E+00-4.14379E-14 2.86997E-14
 -1      3161 1.99694E+01 5.49817E-01 3.43369E-03-1.23709E+00-1.11869E-13 1.92473E-13
 -1      3162 1.99398E+01 5.48491E-01-2.81015E-03-1.13123E+00-4.45731E-14 2.49295E-13
 -1      3163 1.96151E+01 6.37406E-01 9.69102E-04-1.29253E+00-9.37658E-14 2.43819E-13
 -1      3164 1.99878E+01 5.37928E-01 2.75179E-03-1.02461E+00-1.79459E-13 1.42758E-13
 -1      3165 1.99668E+01 5.15005E-01-2.76202E-03-9.27464E-01-2.36994E-13 8.35801E-14
 -1      3166 1.97068E+01 6.34048E-01 1.54595E-03-1.06741E+00-1.51530E-13 1.65379E-13
 -1      3167 2.00083E+01 4.89182E-01 2.33053E-03-8.34755E-01-1.59669E-13 1.61444E-13
 -1      3168 1.99909E+01 4.56503E-01-2.50289E-03-7.48562E-01-1.23475E-13 2.58342E-13
 -1      3169 1.97892E+01 5.83728E-01 1.54921E-03-8.71088E-01-1.79139E-13 1.15750E-13
 -1      3170 2.00241E+01 4.24617E-01 2.03047E-03-6.69101E-01-1.88914E-13 2.46227E-13
 -1      3171 2.00086E+01 3.89270E-01-2.15925E-03-5.94710E-01-2.59360E-13 2.10691E-13
 -1      3172 1.98562E+01 5.11797E-01 1.31811E-03-7.01398E-01-1.51748E-13 1.66940E-13
 -1      3173 2.00338E+01 3.56660E-01 1.77902E-03-5.27677E-01-2.68190E-13 3.30533E-13
 -1      3174 2.00196E+01 3.22607E-01-1.80119E-03-4.64964E-01-1.58203E-13 3.33559E-13
 -1      3175 1.99073E+01 4.33609E-01 1.02350E-03-5.56631E-01-1.86241E-13 3.24151E-13
 -1      3176 2.00380E+01 2.92138E-01 1.54582E-03-4.09335E-01-2.14692E-13 2.73190E-13
 -1      3177 2.00252E+01 2.61380E-01-1.46509E-03-3.57549E-01-1.80614E-13 2.10963E-13
 -1      3178 1.99444E+01 3.57900E-01 7.44972E-04-4.34999E-01-1.73769E-13 3.73706E-13
 -1      3179 2.00382E+01 2.34396E-01 1.32289E-03-3.12136E-01-9.31971E-14 2.10617E-13
 -1      3180 2.00268E+01 2.07749E-01-1.16751E-03-2.70162E-01-8.99067E-14 1.66354E-13
 -1      3181 1.99702E+01 2.89183E-01 5.13257E-04-3.34442E-01-2.39735E-13 2.79393E-13
 -1      3182 2.00358E+01 1.84702E-01 1.11192E-03-2.33684E-01-1.21549E-13 1.07079E-13
 -1      3183 2.00259E+01 1.62300E-01-9.13862E-04-2.00247E-01-7.99749E-14 3.65916E-14
 -1      3184 1.99874E+01 2.29384E-01 3.34504E-04-2.52656E-01-1.78833E-13 2.53207E-13
 -1      3185 2.00318E+01 1.43136E-01 9.17245E-04-1.71410E-01 7.46652E-15-1.01272E-13
 -1      3186 2.00236E+01 1.24739E-01-7.03560E-04-1.45210E-01 1.68105E-13-1.87304E-13
 -1      3187 1.99984E+01 1.78902E-01 2.03875E-04-1.87204E-01-8.41235E-14 1.82133E-13
 -1      3188 2.00273E+01 1.09145E-01 7.42684E-04-1.22773E-01 3.19392E-13-1.88832E-13
 -1      3189 2.00205E+01 9.43290E-02-5.33031E-04-1.02575E-01 3.49669E-13-2.28306E-13
 -1      3190 2.00048E+01 1.37287E-01 1.12695E-04-1.35657E-01 2.19506E-13-1.14906E-15
 -1      3191 2.00226E+01 8.18684E-02 5.90444E-04-8.53981E-02 3.76957E-13-1.86188E-13
 -1      3192 2.00172E+01 7.01357E-02-3.97327E-04-7.00828E-02 2.04663E-13-6.18442E-14
 -1      3193 2.00081E+01 1.03651E-01 5.19611E-05-9.57122E-02 3.13587E-13-1.40894E-14
 -1      3194 2.00183E+01 6.03340E-02 4.61197E-04-5.71552E-02 1.50092E-14-7.09522E-14
 -1      3195 2.00140E+01 5.11759E-02-2.91274E-04-4.57482E-02-3.48685E-14-1.90809E-13
 -1      3196 2.00094E+01 7.69231E-02 1.39075E-05-6.52669E-02 1.71213E-13-2.09821E-13
 -1      3197 2.00143E+01 4.35598E-02 3.53764E-04-3.61979E-02 4.45319E-14-8.59038E-14
 -1      3198 2.00110E+01 3.64782E-02-2.12912E-04-2.78779E-02 2.59058E-13-1.45117E-14
 -1      3199 2.00093E+01 5.59890E-02-7.86822E-06-4.24682E-02 1.64675E-13-3.55285E-14
 -1      3200 2.00109E+01 3.06147E-02 2.64945E-04-2.10038E-02 2.00076E-13-7.33633E-14
 -1      3201 2.00084E+01 2.51951E-02-1.52466E-04-1.50984E-02 9.81203E-14-2.37445E-13
 -1      3202 2.00085E+01 3.97692E-02-1.59992E-05-2.57517E-02 2.12336E-13-1.00875E-13
 -1      3203 2.00080E+01 2.06720E-02 1.96473E-04-1.02746E-02 3.52349E-15-3.16763E-13
 -1      3204 2.00062E+01 1.64852E-02-9.34167E-05-6.25865E-03-1.61070E-13-2.74666E-13
 -1      3205 2.00071E+01 2.72776E-02-2.29174E-05-1.38235E-02 2.99998E-14-2.19322E-13
 -1      3206 2.00057E+01 1.31823E-02 1.51583E-04-3.34921E-03-1.75869E-13-2.72356E-13
 -1      3207 2.00043E+01 9.87562E-03-5.32580E-05-7.76605E-04-1.79762E-13-1.91222E-13
 -1      3208 2.00042E+01 1.04995E-02-9.30980E-05-9.26821E-04-9.44994E-14 2.43415E-14
 -1      3209 2.00057E+01 1.77263E-02-6.82637E-05-5.92408E-03-1.76260E-13-1.92792E-13
 -1      3210 2.03604E+01 4.30068E-01 1.04532E-03-8.80076E-01 1.27070E-13-1.97969E-13
 -1      3211 2.03377E+01 4.96514E-01 2.96696E-03-7.62574E-01 1.06055E-13-1.87605E-13
 -1      3212 2.02623E+01 6.48843E-01-1.97164E-03-6.93925E-01 1.24334E-13-2.28210E-13
 -1      3213 2.10007E+01-3.86598E-01-7.87607E-05-1.35335E+00 2.44047E-14-1.96262E-15
 -1      3214 2.08345E+01-2.12234E-01 6.89457E-03-1.37610E+00 4.21827E-14-4.39880E-15
 -1      3215 2.07087E+01-7.06346E-02 1.24873E-03-1.33750E+00-4.70321E-15-6.47449E-14
 -1      3216 2.05889E+01 5.05498E-02 4.19680E-03-1.31024E+00-8.99344E-15-6.28133E-14
 -1      3217 2.05181E+01-1.42634E-01-8.11145E-03-1.47293E+00-4.75021E-15-9.52459E-14
 -1      3218 2.20395E+01-1.31893E+00-7.74140E-03-9.48879E-01-2.56050E-14 1.08232E-13
 -1      3219 2.17697E+01-1.05478E+00 1.60248E-02-1.14363E+00 1.64750E-14 5.59141E-14
 -1      3220 2.27981E+01-1.76857E+00-1.41814E-02-3.98491E-01-3.84666E-14 2.05543E-13
 -1      3221 2.25071E+01-1.55528E+00 1.94548E-02-7.12321E-01-9.98442E-16 1.73977E-13
 -1      3222 2.20750E+01-1.68158E+00-1.98174E-02-1.16128E+00-7.84547E-14 1.49503E-13
 -1      3223 2.35978E+01-1.88451E+00-2.10199E-02 4.21426E-01-6.10711E-14 1.39070E-13
 -1      3224 2.33539E+01-1.87880E+00 1.53219E-02 1.43560E-02-3.77519E-14 1.81168E-13
 -1      3225 2.30566E+01-2.17421E+00-1.93174E-02-5.55168E-01-6.03359E-15 1.60314E-13
 -1      3226 2.42164E+01-1.24856E+00-1.40174E-02 1.37411E+00-1.40703E-14 1.12613E-13
 -1      3227 2.41147E+01-1.66873E+00 1.23161E-03 9.95527E-01-7.83874E-14 1.33242E-13
 -1      3228 2.41243E+01-2.20356E+00-2.63622E-02 4.11356E-01-5.27074E-14 1.91178E-13
 -1      3229 2.43898E+01 3.35220E-01-5.10640E-03 2.00852E+00 9.35120E-14 1.53223E-13
 -1      3230 2.44679E+01-5.73948E-01-3.35746E-02 1.87537E+00 4.88082E-14 1.10670E-13
 -1      3231 2.49484E+01-1.18145E+00-2.29812E-02 1.53942E+00 3.30291E-14 1.06458E-13
 -1      3232 2.37075E+01 3.48078E+00-3.18355E-02 1.96666E-01 2.23030E-13 1.98554E-14
 -1      3233 2.38375E+01 3.10247E+00-7.06379E-02 9.47887E-01 2.95985E-13 8.92871E-14
 -1      3234 2.48375E+01 3.55149E+00-9.31323E-02-1.38571E+00 4.20101E-13-2.13529E-13
 -1      3235 2.47610E+01 4.10109E+00-8.33092E-02-6.76083E-01 3.59102E-13-1.63344E-13
 -1      3236 2.48336E+01 7.34973E-01-7.40525E-02-2.19657E+00 1.95430E-13-2.70363E-13
 -1      3237 2.46768E+01 1.79298E+00-3.85557E-02-2.00030E+00 2.64060E-13-2.55628E-13
 -1      3238 2.39353E+01-1.77897E+00 1.58860E-03-7.91596E-01 1.06182E-14-8.28703E-14
 -1      3239 2.41035E+01-1.51101E+00-8.21161E-03-1.19498E+00 3.12497E-14-1.54071E-13
 -1      3240 2.31329E+01-1.78345E+00 1.71928E-02 1.04606E-01-5.49231E-14 3.88994E-14
 -1      3241 2.34050E+01-1.85846E+00-1.35464E-02-2.83630E-01 8.89566E-15-1.51346E-14
 -1      3242 2.38331E+01-2.16684E+00-1.77849E-03-2.34063E-01-3.67571E-14 7.65460E-14
 -1      3243 2.23038E+01-1.36679E+00 1.85377E-02 7.25211E-01-5.90370E-14-8.95237E-14
 -1      3244 2.25892E+01-1.60941E+00-1.24239E-02 4.55707E-01 6.13507E-15 7.93701E-15
 -1      3245 2.27502E+01-2.01022E+00-2.09331E-02 6.41178E-01 6.48700E-15 1.03047E-13
 -1      3246 2.16182E+01-8.61560E-01 1.42517E-02 1.06291E+00-1.25394E-13-1.94658E-13
 -1      3247 2.18706E+01-1.12111E+00-6.93694E-03 9.08019E-01-1.10381E-13-1.57428E-13
 -1      3248 2.18241E+01-1.44775E+00-1.95809E-02 1.12661E+00-4.38665E-14 3.05181E-15
 -1      3249 2.11127E+01-4.19610E-01 9.37517E-03 1.19172E+00-8.09632E-14-1.18734E-13
 -1      3250 2.13144E+01-6.32580E-01-2.48027E-03 1.12704E+00-1.34500E-13-1.50889E-13
 -1      3251 2.11413E+01-8.54289E-01-1.58059E-02 1.32720E+00-1.00990E-13-6.54737E-14
 -1      3252 2.07659E+01-9.60383E-02 5.41539E-03 1.18587E+00-6.95770E-14-7.32993E-14
 -1      3253 2.09186E+01-2.45334E-01 1.49131E-04 1.18260E+00-3.66843E-14-1.03280E-13
 -1      3254 2.06872E+01-3.67269E-01-1.04933E-02 1.34834E+00-1.23603E-13 1.15150E-13
 -1      3255 2.05358E+01 1.11971E-01 2.63189E-03 1.10229E+00-4.55764E-14-6.13821E-14
 -1      3256 2.06496E+01 1.98853E-02 1.38543E-03 1.13690E+00-3.01267E-14-4.31554E-14
 -1      3257 2.04060E+01-2.65394E-02-6.39661E-03 1.26903E+00-6.89984E-14 1.72251E-13
 -1      3258 2.03845E+01 2.27792E-01 8.45461E-04 9.78823E-01 2.69340E-14-4.93944E-14
 -1      3259 2.04700E+01 1.79449E-01 1.91906E-03 1.03405E+00-7.33993E-15-4.56176E-14
 -1      3260 2.02406E+01 1.84216E-01-3.65040E-03 1.13925E+00-3.49550E-14 2.49166E-13
 -1      3261 2.02836E+01 2.78115E-01-1.95651E-04 8.39976E-01 2.99989E-14 1.47304E-13
 -1      3262 2.03492E+01 2.59940E-01 2.10962E-03 9.03906E-01-1.13319E-14 2.21327E-14
 -1      3263 2.01473E+01 2.95808E-01-1.96582E-03 9.88835E-01-6.87857E-14 4.07179E-14
 -1      3264 2.02144E+01 2.85905E-01-7.31223E-04 7.01092E-01 2.45104E-14 2.32243E-13
 -1      3265 2.02658E+01 2.86792E-01 2.12676E-03 7.65926E-01 1.11063E-13 1.98314E-13
 -1      3266 2.00963E+01 3.38836E-01-9.95347E-04 8.35611E-01 7.12825E-15 7.75139E-14
 -1      3267 2.01649E+01 2.68554E-01-9.50407E-04 5.71302E-01-1.82722E-14 7.82526E-14
 -1      3268 2.02059E+01 2.80327E-01 2.03992E-03 6.32283E-01 1.01238E-13 1.99188E-13
 -1      3269 2.00688E+01 3.38274E-01-4.74902E-04 6.90083E-01 7.79061E-14 1.28453E-13
 -1      3270 2.01281E+01 2.38226E-01-9.83304E-04 4.55498E-01-1.66072E-13 4.01792E-14
 -1      3271 2.01612E+01 2.55283E-01 1.88457E-03 5.10035E-01-1.80505E-13 2.63227E-15
 -1      3272 2.00537E+01 3.12565E-01-2.21087E-04 5.58139E-01-2.85972E-14 2.04663E-13
 -1      3273 2.00999E+01 2.02891E-01-9.14592E-04 3.55713E-01 2.13305E-13-1.27341E-13
 -1      3274 2.01265E+01 2.21629E-01 1.68714E-03 4.02700E-01 2.55775E-14 6.65397E-14
 -1      3275 2.00446E+01 2.74419E-01-1.13472E-04 4.42602E-01-8.47858E-14 4.92933E-15
 -1      3276 2.00777E+01 1.67445E-01-7.97881E-04 2.72119E-01 1.56224E-13-3.76992E-14
 -1      3277 2.00991E+01 1.85698E-01 1.46932E-03 3.11416E-01 2.10971E-13-1.00358E-13
 -1      3278 2.00384E+01 2.32083E-01-7.85284E-05 3.44247E-01 8.43110E-14-9.56411E-14
 -1      3279 2.00600E+01 1.34646E-01-6.65651E-04 2.03749E-01-1.18120E-13 2.83632E-14
 -1      3280 2.00770E+01 1.51236E-01 1.24828E-03 2.35805E-01-6.86353E-15 5.69796E-15
 -1      3281 2.00333E+01 1.90565E-01-7.48557E-05 2.62513E-01-9.68897E-15 8.88479E-14
 -1      3282 2.00459E+01 1.05837E-01-5.36482E-04 1.49013E-01 5.84209E-14-3.24497E-14
 -1      3283 2.00593E+01 1.20228E-01 1.03666E-03 1.74592E-01-1.35024E-14 4.55902E-14
 -1      3284 2.00288E+01 1.52638E-01-8.09570E-05 1.96034E-01-4.68654E-14 3.89248E-14
 -1      3285 2.00347E+01 8.14659E-02-4.20067E-04 1.06051E-01-9.59402E-14 1.03838E-13
 -1      3286 2.00451E+01 9.35258E-02 8.42863E-04 1.26051E-01-2.66511E-14 1.08570E-14
 -1      3287 2.00246E+01 1.19593E-01-8.68427E-05 1.43020E-01-4.08147E-14 7.63943E-14
 -1      3288 2.00258E+01 6.14387E-02-3.20626E-04 7.29686E-02-1.03122E-13-1.04566E-13
 -1      3289 2.00337E+01 7.12741E-02 6.71626E-04 8.83028E-02-9.09144E-14-9.58143E-14
 -1      3290 2.00207E+01 9.17921E-02-8.87287E-05 1.01529E-01-1.84671E-14-1.28975E-13
 -1      3291 2.00189E+01 4.53616E-02-2.39211E-04 4.79825E-02-7.39632E-14 3.45201E-14
 -1      3292 2.00248E+01 5.32082E-02 5.24815E-04 5.95062E-02-1.44452E-13-6.81522E-14
 -1      3293 2.00170E+01 6.90346E-02-8.59927E-05 6.96531E-02-1.40110E-13-1.89093E-13
 -1      3294 2.00136E+01 3.26897E-02-1.75165E-04 2.95037E-02 3.95976E-14 2.52901E-14
 -1      3295 2.00179E+01 3.88444E-02 4.02380E-04 3.79742E-02 2.14150E-14 6.92863E-14
 -1      3296 2.00137E+01 5.08123E-02-7.95345E-05 4.56274E-02-1.13017E-13-2.63526E-14
 -1      3297 2.00095E+01 2.28208E-02-1.26757E-04 1.61792E-02-1.52384E-14 8.88019E-14
 -1      3298 2.00126E+01 2.75993E-02 3.02895E-04 2.22360E-02 9.38257E-14 4.38705E-14
 -1      3299 2.00108E+01 3.64657E-02-7.05355E-05 2.78998E-02-3.08480E-14 2.49292E-13
 -1      3300 2.00064E+01 1.51514E-02-8.96362E-05 6.90057E-03 1.16673E-13 1.59391E-13
 -1      3301 2.00086E+01 1.88646E-02 2.24159E-04 1.10616E-02-4.37860E-14 1.03349E-13
 -1      3302 2.00082E+01 2.52855E-02-5.99691E-05 1.51577E-02 1.76481E-14 4.25882E-13
 -1      3303 2.00042E+01 9.19064E-03-1.90044E-05 8.49032E-04 4.78611E-13-6.55072E-14
 -1      3304 2.00056E+01 1.20017E-02 1.53772E-04 3.46617E-03 4.23250E-13 1.11218E-13
 -1      3305 2.00059E+01 1.65660E-02-4.92772E-05 6.33174E-03 3.47205E-13 2.54203E-13
 -1      3306 2.00031E+01 6.18807E-03 2.35898E-05-1.60281E-03-3.96431E-14-1.03020E-13
 -1      3307 2.00037E+01 7.77970E-03 7.10295E-05-5.21374E-04 1.98767E-13-9.14995E-14
 -1      3308 2.00044E+01 1.10500E-02-4.06704E-05 1.48360E-03 3.52812E-13-7.68747E-14
 -1      3309 2.00033E+01 7.38367E-03-6.47912E-05-9.10290E-04 6.60879E-14 1.49894E-13
 -1      3310 2.00012E+01 1.84206E-02-1.08126E-05-1.20382E-03-1.10805E-13 1.96799E-13
 -1      3311 2.00008E+01 1.89295E-02-7.12894E-05-9.71717E-04-1.00024E-13 3.38861E-13
 -1      3312 1.60259E+01-3.35420E+00-1.45130E-02 5.62917E+00 2.54158E-13-1.46202E-13
 -1      3313 1.31596E+01-1.94542E+00 1.30706E-01 4.93567E+00 2.22780E-13-3.79488E-13
 -1      3314 2.00005E+01 1.94279E-02-4.27655E-05-2.93229E-04-1.17234E-13 3.40888E-14
 -1      3315 2.00005E+01 1.94431E-02-4.37060E-05 5.24819E-05 1.01519E-14 9.78377E-15
 -1      3316 2.00005E+01 2.48804E-02 1.29052E-04-9.70557E-04-1.34425E-13 1.97841E-13
 -1      3317 1.27019E+01-1.49539E+00 8.35401E-02-4.48382E+00 2.50605E-13 6.89490E-13
 -1      3318 1.48506E+01-2.63553E+00 4.62097E-02-5.30292E+00 2.31724E-13 6.24473E-13
 -1      3319 2.00023E+01 1.60805E-02 1.57369E-05-1.57246E-03 1.63039E-13 1.44143E-13
 -1      3320 2.00017E+01 1.70326E-02-8.72623E-05-1.61083E-03-6.94904E-14 2.38419E-13
 -1      3321 2.00014E+01 2.30468E-02 1.12186E-04-2.35613E-03-8.28354E-15 2.36792E-13
 -1      3322 2.04275E+01 1.16510E+00-5.47319E-04 2.82277E-01 2.14387E-13-1.77445E-13
 -1      3323 2.03334E+01 1.50643E+00 2.13214E-03 3.71050E-01 2.35446E-13-1.94815E-13
 -1      3324 2.02994E+01 1.37796E+00 2.33382E-03 1.57165E-01 2.08675E-13-1.99660E-13
 -1      3325 2.03959E+01 9.75163E-01-1.79074E-03 3.20677E-02 1.88967E-13-1.82792E-13
 -1      3326 2.00034E+01 1.26647E-02-1.04470E-05-1.09492E-03 2.34094E-13 7.86140E-14
 -1      3327 2.00029E+01 1.40093E-02-8.59624E-05-1.53030E-03 8.06294E-14-3.98320E-14
 -1      3328 2.00029E+01 1.96911E-02 8.46716E-05-2.95825E-03 1.33489E-13-4.56314E-15
 -1      3329 1.96476E+01 2.60795E+00-3.80519E-03 1.16967E-01 1.19537E-13-2.92431E-13
 -1      3330 1.95999E+01 2.66281E+00-4.59147E-03 5.06549E-02 8.82390E-14-2.85605E-13
 -1      3331 1.73754E+01-3.43962E+00 1.08336E-01-5.25950E+00 2.76640E-13 2.26062E-13
 -1      3332 2.00768E+01-4.44891E+00-5.21089E-02-4.84408E+00 3.42594E-13-6.34215E-15
 -1      3333 2.14353E+01-8.13923E-01-2.86199E-03-1.24444E+00 7.02204E-14-1.35397E-14
 -1      3334 2.12156E+01-5.82037E-01 1.10782E-02-1.33952E+00 4.31286E-14 5.01796E-15
 -1      3335 2.08254E+01-5.42258E-01-1.20810E-02-1.52388E+00 3.39443E-14-2.96848E-14
 -1      3336 2.13275E+01-1.07320E+00-1.65609E-02-1.44802E+00-3.72445E-15 8.87157E-14
 -1      3337 2.49768E+01-4.52053E+00-8.43903E-02-2.04621E+00 3.31516E-13-3.02262E-13
 -1      3338 2.50172E+01-3.82790E+00-2.86163E-03-1.13956E+00 3.12538E-13-2.21614E-13
 -1      3339 2.28476E+01-4.50061E+00 1.10902E-01-3.57197E+00 4.03320E-13-1.63218E-13
 -1      3340 2.27879E+01-2.83331E+00 6.97215E-03-1.99074E+00 2.41961E-13-2.79851E-14
 -1      3341 2.20710E+01-2.22001E+00 4.78919E-02-2.24240E+00 2.14263E-13 5.74853E-14
 -1      3342 2.07566E+01-2.08905E+00-4.49367E-02-2.78290E+00 2.69761E-13-8.05953E-14
 -1      3343 2.39510E+01-3.37246E+00 7.16934E-02-1.68486E+00 3.38040E-13-1.58333E-13
 -1      3344 2.02870E+01 1.05966E+00 4.44119E-03 2.13998E-01-1.31737E-13-2.04936E-13
 -1      3345 2.02532E+01 9.34742E-01-2.32325E-03 4.10631E-01-1.24125E-13-2.00218E-13
 -1      3346 2.01409E+01 1.05147E+00 1.16531E-03 4.67016E-01-1.03153E-13-1.91849E-13
 -1      3347 2.72136E+01-1.30954E+00 6.97939E-03 1.29479E+00 1.03834E-13 1.11064E-13
 -1      3348 2.70289E+01 4.68917E-01-1.27468E-01 2.00167E+00 1.57638E-13 9.64645E-14
 -1      3349 8.97125E+00 1.18166E-01 1.24082E-01 1.48466E-01-6.53991E-14-5.74471E-13
 -1      3350 9.25630E+00-1.11545E-01 1.09262E-01-1.85476E+00-1.86573E-13-5.92013E-13
 -1      3351 2.41057E+01-4.29836E+00-5.72339E-02 2.37008E+00-3.21160E-13-1.29934E-13
 -1      3352 2.21497E+01-4.30946E+00 8.34237E-02 3.85718E+00-3.38864E-13-1.24612E-13
 -1      3353 2.00753E+01-4.23477E+00-3.51400E-02 4.81182E+00-3.95683E-13-4.21815E-14
 -1      3354 1.77498E+01-3.36836E+00 8.32939E-02 5.21584E+00-3.33372E-13-1.41553E-15
 -1      3355 1.76233E+01-2.72871E+00 4.55845E-02 4.70981E+00-2.93689E-13 1.62717E-14
 -1      3356 2.14281E+01-3.78406E+00 3.66843E-02 3.68970E+00-2.86458E-13-4.94405E-14
 -1      3357 2.60580E+01-3.86249E+00 5.41477E-02-1.20012E+00-2.21186E-14 9.88307E-14
 -1      3358 2.66178E+01-3.05544E+00-1.30902E-01-2.08216E-02 5.14771E-14 1.37949E-13
 -1      3359 1.07904E+01-1.00825E+00 7.39520E-02 3.89492E+00 1.32526E-13-4.71997E-13
 -1      3360 9.55319E+00-2.29697E-01 1.09127E-01 2.15923E+00 8.27290E-14-5.23817E-13
 -1      3361 1.95733E+01 2.69748E+00-3.87591E-03 1.54753E-02 6.47798E-14-2.81807E-13
 -1      3362 1.95681E+01 2.70198E+00-4.36518E-03-4.80029E-02 2.59285E-14-2.81362E-13
 -1      3363 1.96467E+01 2.44942E+00 6.60852E-03 4.60256E-03 7.50097E-14-2.56499E-13
 -1      3364 2.01219E+01 1.78218E+00 6.02851E-03 1.83523E-01 1.97163E-13-2.37509E-13
 -1      3365 2.00089E+01 2.11336E+00-5.36829E-03 3.32811E-01 2.21248E-13-2.63932E-13
 -1      3366 1.98984E+01 2.27564E+00-4.31902E-03 2.66615E-01 1.98404E-13-2.77756E-13
 -1      3367 1.22144E+01 6.72058E-01 4.65260E-02 1.00376E+00-1.73558E-13 4.74482E-13
 -1      3368 1.10481E+01 7.45427E-01 1.23406E-01-4.55453E-02-1.31909E-13 6.75203E-13
 -1      3369 1.20157E+01 5.84466E-01 1.59411E-02-1.21019E+00-1.06171E-13 6.78929E-13
 -1      3370 1.05782E+01 3.45657E-01 7.80062E-02-1.26868E+00-5.17537E-14 7.29056E-13
 -1      3371 2.02222E+01 1.78534E+00-2.63847E-03-4.12045E-01-1.82745E-13-2.81121E-13
 -1      3372 2.03254E+01 1.58124E+00-1.63363E-03-4.23115E-01-1.90147E-13-2.32607E-13
 -1      3373 2.03306E+01 1.40458E+00 5.19733E-03-2.25815E-01-1.68601E-13-2.25877E-13
 -1      3374 2.72683E+01-3.05760E+00 3.88845E-02-2.61721E-01-2.63123E-14 4.20886E-13
 -1      3375 2.63707E+01-3.42739E+00 2.14385E-02 2.77910E-01 1.34771E-14 3.81487E-13
 -1      3376 1.50143E+01-1.04851E+00 1.00826E-02 3.91265E+00-2.26298E-13 1.13031E-13
 -1      3377 1.33581E+01-6.68257E-01 8.45554E-02 3.74901E+00-1.92390E-13 7.09988E-14
 -1      3378 1.34037E+01 3.78545E-02 8.60376E-03 2.79419E+00-1.34906E-13 1.62242E-13
 -1      3379 2.11490E+01-3.36138E+00-3.42042E-02 3.62674E+00 1.75079E-13 9.70665E-14
 -1      3380 2.54762E+01-3.78108E+00 6.73843E-02 1.05474E+00 5.51139E-14 3.34063E-13
 -1      3381 2.60395E+01 2.34372E-01-2.05803E-02-2.18118E+00 1.41789E-13-2.31801E-13
 -1      3382 2.68396E+01-7.07456E-01-7.49106E-02-1.74529E+00 1.27249E-13-3.24782E-13
 -1      3383 2.61871E+01-1.68901E+00-2.40990E-02-1.21020E+00 3.98293E-15-2.51597E-13
 -1      3384 2.10548E+01-4.44003E+00 3.74657E-02-4.63508E+00-1.95621E-13-3.51282E-14
 -1      3385 2.23118E+01-4.16008E+00 3.51890E-02-3.50812E+00-1.72860E-13-3.01448E-14
 -1      3386 1.94858E+01-3.75569E+00 4.02790E-02-4.80446E+00-1.78486E-13-1.17812E-13
 -1      3387 1.04081E+01-2.61833E-01 1.52003E-01-2.79722E+00-2.46397E-13-5.02640E-13
 -1      3388 1.18424E+01-7.04101E-01 5.72775E-02-3.61401E+00-2.89829E-13-3.49068E-13
 -1      3389 1.09422E+01 1.61622E-01 7.33790E-02-1.82165E+00-1.29459E-13-4.61423E-13
 -1      3390 2.04144E+01 3.02855E-01 1.61123E-03-1.08370E+00 5.70896E-14-1.45314E-13
 -1      3391 2.03637E+01 3.68267E-01 2.48952E-03-9.93473E-01 1.19093E-13-1.73425E-13
 -1      3392 2.02479E+01 4.89202E-01-2.57136E-03-9.53502E-01 9.46787E-14-1.90482E-13
 -1      3393 2.03108E+01 1.24575E+00-2.98200E-03-5.00949E-02-1.52068E-13-2.15170E-13
 -1      3394 1.39935E+01-1.80487E+00 6.71149E-02-4.83755E+00-2.86722E-13-2.70117E-13
 -1      3395 1.47427E+01-2.60026E+00 1.31833E-01-5.48296E+00-3.19300E-13-2.82566E-13
 -1      3396 1.67512E+01-2.96192E+00 3.06727E-02-5.18018E+00-2.46803E-13-2.38518E-13
 -1      3397 2.17035E+01-3.90392E+00 5.81840E-02-3.65830E+00 3.38105E-13-1.81330E-13
 -1      3398 2.03481E+01 1.37085E-01-5.25920E-03-1.34634E+00-1.98839E-14-1.19237E-13
 -1      3399 2.05234E+01 1.48347E-01 1.71076E-03-1.23944E+00-1.63151E-14-8.94382E-14
 -1      3400 2.04412E+01 2.32196E-01 2.81286E-03-1.17699E+00-5.62037E-15-1.36685E-13
 -1      3401 2.41027E+01 2.35935E+00-4.20315E-03 1.66238E+00 2.41293E-13 1.67018E-13
 -1      3402 2.42498E+01 1.35901E+00-6.95080E-02 2.01143E+00 1.54409E-13 1.30482E-13
 -1      3403 2.51328E+01 8.91908E-01-3.21777E-02 2.10235E+00 1.11605E-13 7.16580E-14
 -1      3404 2.48145E+01 3.24105E+00-5.91122E-02 1.46864E+00 2.85307E-13 1.06137E-13
 -1      3405 2.57001E+01 4.98900E+00-1.19810E-01-1.29697E-01 4.94646E-13-1.49023E-13
 -1      3406 2.50317E+01-1.59472E+00-1.37641E-02-1.31405E+00 2.44336E-14-8.92775E-14
 -1      3407 2.47136E+01-9.48388E-01-2.79232E-02-1.76264E+00 8.97858E-14-2.13124E-13
 -1      3408 2.46889E+01-1.35821E-01-2.00873E-02-1.98270E+00 1.58963E-13-2.00168E-13
 -1      3409 1.85525E+01-3.27292E+00 1.21659E-01 4.79952E+00 2.19130E-13-1.19429E-13
 -1      3410 2.00015E+01 1.71242E-02-8.13643E-05 1.43581E-03 2.15968E-13 3.05622E-13
 -1      3411 2.00021E+01 1.61704E-02 1.46381E-05 1.43169E-03 1.97904E-13 4.50377E-13
 -1      3412 1.33079E+01-1.15492E+00 1.28478E-01 4.10186E+00 1.90004E-13-3.52898E-13
 -1      3413 1.17313E+01-6.93005E-01 1.33920E-01-3.75630E+00 2.11636E-13 8.19095E-13
 -1      3414 1.36547E+01-9.95926E-01 9.12435E-02-3.95451E+00 2.46574E-13 6.60312E-13
 -1      3415 2.00007E+01 1.89733E-02-6.99309E-05 7.40977E-04 9.84749E-14 3.05107E-14
 -1      3416 2.00010E+01 1.84764E-02-1.25291E-05 9.97340E-04 1.88647E-13 5.09128E-14
 -1      3417 2.00012E+01 2.31143E-02 1.06948E-04 2.14741E-03 1.95928E-13 9.97555E-14
 -1      3418 2.00004E+01 2.49017E-02 1.28804E-04 7.18967E-04 6.06976E-14-1.44131E-13
 -1      3419 2.60198E+01 4.90934E+00-1.57529E-01 9.37820E-01 3.99528E-13-1.74097E-14
 -1      3420 2.48517E+01-4.06356E+00 7.19034E-04-1.76041E+00-6.11421E-14-2.63053E-14
 -1      3421 1.71116E+01-2.63589E+00 1.04226E-01-4.75112E+00 2.53922E-13 1.98182E-13
 -1      3422 1.97141E+01 2.52034E+00-4.71020E-03 1.56062E-01 1.50535E-13-2.90217E-13
 -1      3423 1.97430E+01 2.32901E+00 6.48213E-03 6.19340E-02 1.24559E-13-2.63413E-13
 -1      3424 1.97983E+01 2.41406E+00-4.26468E-03 2.24861E-01 1.93757E-13-2.78869E-13
 -1      3425 2.51778E+01-3.85121E+00 3.50622E-02 1.29372E+00-3.79008E-13-1.41852E-13
 -1      3426 2.37381E+01-3.77743E+00-1.28454E-02 1.90352E+00-1.89392E-13-3.17261E-14
 -1      3427 2.55019E+01-3.10296E+00-3.52006E-02 1.06998E-01-2.51105E-13-1.96169E-13
 -1      3428 2.24146E+01-3.51101E+00-5.79281E-02-2.70205E+00 3.29912E-13-2.05133E-13
 -1      3429 1.00957E+01 2.21085E-01 1.23756E-01 1.12437E+00 1.68502E-14-4.72733E-13
 -1      3430 1.09231E+01 4.87517E-01 5.77757E-02 1.73636E-01-3.01929E-14-4.24771E-13
 -1      3431 1.14962E+01 2.24723E-01 6.48229E-02 1.89722E+00 1.03451E-13-4.27394E-13
 -1      3432 2.02189E+01 1.35290E+00 6.02845E-04 3.82325E-02-1.44409E-13-2.28347E-13
 -1      3433 2.63798E+01-2.02939E+00-3.22649E-03 8.79310E-01 4.46154E-14 9.78384E-14
 -1      3434 2.00026E+01 1.42243E-02-8.09035E-05 1.35911E-03 3.30720E-13 4.74067E-13
 -1      3435 2.00030E+01 1.30317E-02 1.81392E-05 1.01554E-03 3.47681E-13 2.98575E-13
 -1      3436 2.00025E+01 1.98791E-02 9.57356E-05 2.75858E-03 3.42897E-13 2.53954E-13
 -1      3437 2.03654E+01 7.29652E-01-8.58025E-04-3.32988E-01 1.36908E-13-1.86150E-13
 -1      3438 2.03867E+01 8.58071E-01 3.21277E-03-1.39402E-01 1.64466E-13-1.85049E-13
 -1      3439 2.03429E+01 1.04371E+00 5.91308E-04-7.68616E-02 1.63113E-13-1.91519E-13
 -1      3440 2.03008E+01 8.24396E-01-1.38437E-03-4.03799E-01 1.44080E-13-2.12935E-13
 -1      3441 8.00183E+00-4.79921E-01 1.60816E-01-1.89857E+00 1.11511E-13 9.43162E-13
 -1      3442 9.94892E+00-5.13579E-01 1.25159E-01-2.81473E+00 1.45335E-13 8.75522E-13
 -1      3443 9.23245E+00 1.60617E-01 4.11789E-02-7.96925E-01-6.66646E-14 6.90434E-13
 -1      3444 2.00040E+01 1.14857E-02-4.31361E-05-1.06085E-03 3.11508E-14 6.89107E-14
 -1      3445 2.00037E+01 1.18474E-02-6.05422E-05-1.09694E-03 1.26227E-13 3.31821E-14
 -1      3446 2.00041E+01 1.69026E-02 8.22129E-05-3.06117E-03 4.35457E-16 1.54970E-14
 -1      3447 2.00049E+01 1.51568E-02 1.24458E-04-3.15531E-03-2.23889E-13-5.80117E-14
 -1      3448 1.96852E+01 2.55893E+00-4.34357E-03-1.74405E-01-5.04887E-14-2.89420E-13
 -1      3449 1.97644E+01 2.45803E+00-4.66748E-03-2.37700E-01-8.18066E-14-3.06102E-13
 -1      3450 1.98605E+01 2.32679E+00-5.00093E-03-2.71277E-01-9.77773E-14-3.16875E-13
 -1      3451 1.99750E+01 2.17350E+00-3.77152E-03-3.31011E-01-1.27276E-13-3.17299E-13
 -1      3452 1.98713E+01 2.15936E+00 6.62796E-03-1.37129E-01-8.69154E-14-2.94604E-13
 -1      3453 1.09541E+01-1.11466E-01 8.50370E-02-2.49528E+00 1.60243E-13 8.57731E-13
 -1      3454 1.32351E+01 6.90745E-01 8.87012E-02 1.81436E+00-2.00688E-13 2.99243E-13
 -1      3455 1.30956E+01 8.57189E-01-4.68687E-03 6.22536E-01-1.95751E-13 4.62089E-13
 -1      3456 2.77224E+01-2.13992E+00-1.86078E-01-1.52002E+00-1.40882E-13 4.89900E-13
 -1      3457 2.66895E+01 3.57952E+00-8.74098E-02-2.08940E+00 4.15432E-13-3.45626E-13
 -1      3458 2.59348E+01 2.47188E+00-3.40594E-02-2.20920E+00 3.46070E-13-3.43815E-13
 -1      3459 2.33129E+01-4.53595E+00 1.39487E-02 3.23609E+00 1.49547E-13 1.66072E-13
 -1      3460 1.99434E+01 1.03871E+00-5.87064E-04 6.50925E-01-7.08116E-14-1.87814E-13
 -1      3461 1.98857E+01 9.71709E-01-7.47437E-04 8.00299E-01-6.23443E-14-1.90039E-13
 -1      3462 2.60488E+01 4.48663E-01-7.15389E-02 2.01275E+00 1.09204E-13 9.60100E-14
 -1      3463 2.67148E+01 1.81668E+00-6.20553E-02 2.24205E+00 1.86684E-13 8.40161E-14
 -1      3464 1.97837E+01 9.19820E-01-1.75502E-03 9.31070E-01-6.23930E-14-1.86462E-13
 -1      3465 1.97200E+01 8.78308E-01 5.96301E-04 1.06777E+00-3.22005E-14-1.65067E-13
 -1      3466 1.96936E+01 1.07242E+00 3.08101E-03 7.94414E-01-5.47726E-14-1.90019E-13
 -1      3467 1.95910E+01 8.38940E-01-2.92926E-03 1.19612E+00 8.26601E-15-1.41707E-13
 -1      3468 1.95283E+01 7.99956E-01 2.27056E-03 1.32841E+00 6.30585E-14-1.08980E-13
 -1      3469 1.94643E+01 9.78799E-01 3.29776E-03 1.04769E+00 1.79467E-14-1.37006E-13
 -1      3470 1.93768E+01 7.48446E-01-4.07445E-03 1.46512E+00 9.95536E-14-1.06710E-13
 -1      3471 1.93273E+01 6.85176E-01 4.75736E-03 1.60159E+00 1.09054E-13-9.25934E-14
 -1      3472 1.91888E+01 8.95768E-01 3.40766E-03 1.30530E+00 7.75356E-14-1.18267E-13
 -1      3473 1.91618E+01 5.90933E-01-4.91164E-03 1.76102E+00 8.97899E-14-1.06113E-13
 -1      3474 1.91497E+01 4.68825E-01 8.68051E-03 1.91064E+00 8.42651E-14-6.71291E-14
 -1      3475 1.88780E+01 7.69374E-01 2.82010E-03 1.59380E+00 9.23318E-14-1.93804E-13
 -1      3476 1.89897E+01 2.92119E-01-4.64345E-03 2.11182E+00 7.96254E-14-3.32734E-14
 -1      3477 1.90605E+01 6.59011E-02 1.51853E-02 2.28229E+00 5.92565E-14-3.33724E-14
 -1      3478 1.85555E+01 5.30159E-01 6.11226E-04 1.95066E+00 1.01471E-13-1.73756E-13
 -1      3479 1.89496E+01-2.45371E-01-6.43546E-04 2.54778E+00 6.12347E-14 1.14959E-14
 -1      3480 1.91687E+01-6.36501E-01 2.09139E-02 2.73929E+00 8.43506E-14 3.92761E-14
 -1      3481 1.82726E+01 8.19923E-02-5.23220E-03 2.42553E+00 8.28435E-14-8.59271E-14
 -1      3482 1.92067E+01-1.13717E+00 1.12560E-02 3.06545E+00 1.04062E-13 5.73395E-14
 -1      3483 1.97716E+01-1.74012E+00 2.95055E-02 3.25024E+00 1.39728E-13 6.35620E-14
 -1      3484 1.81826E+01-6.93442E-01-1.06246E-03 3.07851E+00 1.17329E-13-4.51592E-14
 -1      3485 2.01617E+01 7.25231E-01-9.32736E-05-7.43887E-01 1.15819E-13-2.43420E-13
 -1      3486 2.01782E+01 8.21405E-01 1.50366E-03-5.99678E-01 1.20065E-13-2.50101E-13
 -1      3487 1.89597E+01-4.05578E-02 1.64136E-02-2.27042E+00 1.09860E-13 8.24595E-15
 -1      3488 1.88468E+01 2.25184E-01-3.53397E-03-2.08780E+00 8.86937E-15-8.10845E-14
 -1      3489 1.89811E+01 4.27024E-01 9.63940E-03-1.86642E+00-3.38012E-14-9.68114E-14
 -1      3490 1.89625E+01 5.62488E-01-5.98672E-03-1.70965E+00-1.65521E-14-1.46321E-13
 -1      3491 1.83037E+01 4.78669E-01-2.63660E-03-1.94273E+00-9.71757E-15-1.52909E-13
 -1      3492 1.91129E+01 6.58877E-01 5.70049E-03-1.54104E+00 7.21470E-14-1.93400E-13
 -1      3493 1.91386E+01 7.11118E-01-5.42295E-03-1.40756E+00 9.76020E-14-2.17638E-14
 -1      3494 1.85900E+01 7.44969E-01 2.65739E-03-1.55576E+00 3.22010E-14-1.21525E-13
 -1      3495 1.92784E+01 7.40941E-01 3.37271E-03-1.27515E+00 4.44623E-14-3.75439E-14
 -1      3496 1.93189E+01 7.43154E-01-4.71843E-03-1.15979E+00-6.09556E-14 4.51633E-14
 -1      3497 1.88718E+01 8.39709E-01 3.89307E-03-1.26485E+00 5.18971E-14-1.23428E-13
 -1      3498 1.94399E+01 7.33523E-01 2.10791E-03-1.05154E+00-1.81594E-13 4.21673E-14
 -1      3499 1.94807E+01 7.07473E-01-4.04262E-03-9.50975E-01-2.06375E-13 1.77565E-14
 -1      3500 1.91222E+01 8.36166E-01 3.88704E-03-1.03479E+00-7.38958E-14-1.80384E-13
 -1      3501 1.95808E+01 6.76522E-01 1.47499E-03-8.60326E-01-2.34144E-13 3.74573E-14
 -1      3502 1.96157E+01 6.36468E-01-3.42914E-03-7.72802E-01-1.61790E-13 9.64833E-14
 -1      3503 1.93330E+01 7.76648E-01 3.44049E-03-8.45442E-01-2.27079E-13-5.41804E-14
 -1      3504 1.96960E+01 5.95904E-01 1.17092E-03-6.96152E-01-1.88335E-13-2.43524E-14
 -1      3505 1.97233E+01 5.50831E-01-2.87532E-03-6.20682E-01-1.81645E-13-8.10123E-15
 -1      3506 1.95040E+01 6.89181E-01 2.86618E-03-6.86012E-01-2.63729E-13-1.72377E-13
 -1      3507 1.97862E+01 5.07839E-01 1.01594E-03-5.55952E-01-7.42001E-14 9.02004E-14
 -1      3508 1.98061E+01 4.63122E-01-2.38141E-03-4.91761E-01-9.96498E-15 2.02717E-13
 -1      3509 1.96388E+01 5.91641E-01 2.29517E-03-5.50765E-01-2.22367E-15-1.39918E-13
 -1      3510 1.98545E+01 4.21847E-01 9.15772E-04-4.37551E-01-1.30841E-13 2.89233E-13
 -1      3511 1.98682E+01 3.80463E-01-1.94720E-03-3.83810E-01-2.45174E-13 2.01152E-13
 -1      3512 1.97426E+01 4.94940E-01 1.78559E-03-4.36417E-01-2.55623E-14 1.75634E-14
 -1      3513 1.99047E+01 3.43078E-01 8.27554E-04-3.38969E-01-2.14585E-13 2.49495E-13
 -1      3514 1.99137E+01 3.06465E-01-1.57107E-03-2.94714E-01-1.44376E-13 2.89532E-13
 -1      3515 1.98211E+01 4.05254E-01 1.35719E-03-3.40694E-01-1.95132E-13 1.83901E-13
 -1      3516 1.99407E+01 2.73907E-01 7.36617E-04-2.58155E-01-2.34914E-13 3.02936E-13
 -1      3517 1.99462E+01 2.42549E-01-1.25023E-03-2.22311E-01-2.36787E-13 2.60111E-13
 -1      3518 1.98792E+01 3.25659E-01 1.01085E-03-2.61639E-01-1.43325E-13 2.99264E-13
 -1      3519 1.99658E+01 2.15009E-01 6.41565E-04-1.92961E-01-1.81831E-13 3.80943E-13
 -1      3520 1.99688E+01 1.88823E-01-9.80934E-04-1.64401E-01-2.27430E-14 2.89077E-13
 -1      3521 1.99215E+01 2.57253E-01 7.38723E-04-1.97335E-01-1.69626E-13 5.53313E-13
 -1      3522 1.99828E+01 1.66063E-01 5.45950E-04-1.41209E-01 9.16551E-14 2.14714E-13
 -1      3523 1.99841E+01 1.44650E-01-7.58592E-04-1.18820E-01 1.90963E-13 1.74579E-13
 -1      3524 1.99515E+01 1.99936E-01 5.29680E-04-1.45855E-01-5.35623E-14 4.59389E-13
 -1      3525 1.99938E+01 1.26205E-01 4.54200E-04-1.00790E-01 2.24864E-13 1.36458E-13
 -1      3526 1.99940E+01 1.09008E-01-5.78040E-04-8.35254E-02 2.55907E-13 5.76133E-14
 -1      3527 1.99723E+01 1.52909E-01 3.72180E-04-1.05306E-01 1.02061E-13 2.96015E-13
 -1      3528 2.00006E+01 9.43120E-02 3.70075E-04-6.97417E-02 2.01552E-13-7.13338E-14
 -1      3529 2.00001E+01 8.07195E-02-4.33524E-04-5.66562E-02 1.96634E-13-6.62179E-15
 -1      3530 1.99862E+01 1.15023E-01 2.55798E-04-7.38957E-02 1.04726E-13 6.01614E-14
 -1      3531 2.00043E+01 6.91826E-02 2.96885E-04-4.63082E-02 2.17482E-13-7.13744E-14
 -1      3532 2.00034E+01 5.85895E-02-3.17873E-04-3.65762E-02 3.03003E-13-3.04339E-14
 -1      3533 1.99951E+01 8.49831E-02 1.72283E-04-4.99878E-02 2.08914E-13-1.51193E-13
 -1      3534 2.00059E+01 4.95459E-02 2.16605E-04-2.89408E-02 2.84362E-13-1.52874E-13
 -1      3535 2.00048E+01 4.13447E-02-2.60722E-04-2.19516E-02 4.58542E-14-2.35223E-13
 -1      3536 2.00004E+01 6.14723E-02 1.25837E-04-3.20918E-02 2.36254E-13-2.76081E-13
 -1      3537 2.00061E+01 3.44938E-02 1.68454E-04-1.63998E-02 2.09945E-14-2.29571E-13
 -1      3538 2.00052E+01 2.82310E-02-1.02210E-04-1.14528E-02 8.32125E-14-2.14779E-13
 -1      3539 2.00031E+01 4.35149E-02 1.34196E-04-1.91093E-02 4.72447E-14-1.77352E-13
 -1      3540 2.03130E+01-1.41888E-01 4.69474E-03-1.58094E+00-4.47415E-14-1.00967E-13
 -1      3541 2.01958E+01 3.17685E-02 3.73102E-03-1.52269E+00-4.66806E-14-1.65682E-13
 -1      3542 2.32195E+01-2.59610E+00 8.51250E-04-9.37384E-01-2.74858E-14 1.40234E-13
 -1      3543 2.26797E+01-2.31798E+00 3.36396E-02-1.30198E+00-4.30698E-14 1.21760E-13
 -1      3544 2.20120E+01-1.96462E+00-4.03632E-04-1.49838E+00-6.25645E-14 9.69488E-14
 -1      3545 2.15849E+01-1.58019E+00 2.38047E-02-1.67050E+00-9.99042E-14 1.00547E-13
 -1      3546 2.19236E+01-2.38377E+00-2.54763E-02-1.90936E+00-4.51722E-14 4.50568E-14
 -1      3547 2.38478E+01-3.84883E+00 4.68491E-02-2.09839E+00-1.12617E-13-2.47983E-14
 -1      3548 2.47845E+01-3.51641E+00-5.95496E-02-8.53870E-01-7.98233E-15 7.85847E-14
 -1      3549 2.54146E+01-2.42352E+00-1.84065E-02-6.74241E-01-1.13304E-13-1.34585E-13
 -1      3550 2.39379E+01-2.79304E+00 1.67702E-02 5.63539E-01-1.06977E-13 4.43361E-14
 -1      3551 2.44570E+01-2.76238E+00-1.30459E-02 4.96726E-02-1.57549E-13 3.80512E-14
 -1      3552 2.06414E+01-6.56232E-01 1.14252E-02 1.58442E+00-1.38514E-13 9.12072E-14
 -1      3553 2.09194E+01-9.67995E-01 2.24020E-03 1.56393E+00-7.53900E-14 1.45496E-13
 -1      3554 2.02534E+01-1.80810E-01 5.62142E-03 1.47341E+00-1.07644E-13 2.11669E-13
 -1      3555 2.04362E+01-3.98464E-01 4.93507E-03 1.50837E+00-1.87784E-13 1.26576E-13
 -1      3556 2.01009E+01-5.23589E-01-1.43414E-02 1.73441E+00-1.68794E-13 1.73516E-13
 -1      3557 2.00447E+01 1.29582E-01 2.18501E-03 1.31199E+00-6.29452E-14 2.75075E-13
 -1      3558 2.01565E+01-7.06108E-03 4.56802E-03 1.37533E+00-5.57264E-14 3.18463E-13
 -1      3559 1.98335E+01-5.05736E-02-7.81715E-03 1.52885E+00-1.32295E-13 2.06180E-13
 -1      3560 1.99464E+01 3.08236E-01 1.56849E-04 1.13491E+00 6.25553E-15 2.96363E-13
 -1      3561 2.00120E+01 2.33568E-01 3.73591E-03 1.21049E+00 2.33021E-14 2.64907E-13
 -1      3562 1.97218E+01 2.43122E-01-4.00703E-03 1.31259E+00 2.69502E-14 2.25883E-13
 -1      3563 1.99114E+01 3.92153E-01-9.45867E-04 9.60058E-01-2.73262E-14 1.02866E-13
 -1      3564 1.99489E+01 3.60800E-01 2.93510E-03 1.03841E+00-2.68185E-14 2.15813E-13
 -1      3565 1.96992E+01 4.02659E-01-1.75694E-03 1.10695E+00 2.18928E-14 1.36853E-13
 -1      3566 1.99096E+01 4.13084E-01-1.45344E-03 7.96561E-01-1.07564E-15 3.67584E-14
 -1      3567 1.99309E+01 4.09834E-01 2.34510E-03 8.72069E-01-6.79696E-15 2.35450E-14
 -1      3568 1.97227E+01 4.69106E-01-4.49100E-04 9.19667E-01 7.03860E-14 1.20344E-13
 -1      3569 1.99228E+01 3.95363E-01-1.61447E-03 6.49080E-01 7.95145E-14 9.25794E-14
 -1      3570 1.99354E+01 4.08863E-01 1.93286E-03 7.18470E-01 4.46865E-14-5.99523E-16
 -1      3571 1.97661E+01 4.75073E-01 2.28933E-04 7.53213E-01 3.22635E-14-1.71482E-14
 -1      3572 1.99411E+01 3.56410E-01-1.58053E-03 5.19718E-01-1.60406E-13 9.83833E-14
 -1      3573 1.99491E+01 3.78681E-01 1.63182E-03 5.81266E-01 7.62777E-14 1.60300E-13
 -1      3574 1.98144E+01 4.44893E-01 5.22668E-04 6.07963E-01 2.35911E-14 2.41921E-15
 -1      3575 1.99591E+01 3.08014E-01-1.44181E-03 4.08928E-01-6.81787E-15-4.03534E-14
 -1      3576 1.99649E+01 3.33743E-01 1.39402E-03 4.61974E-01-1.46711E-13-7.19422E-15
 -1      3577 1.98600E+01 3.95674E-01 5.98264E-04 4.83367E-01-1.15757E-13 1.56622E-14
 -1      3578 1.99745E+01 2.57709E-01-1.25474E-03 3.16055E-01 2.87881E-14-1.57206E-14
 -1      3579 1.99791E+01 2.83564E-01 1.19239E-03 3.60662E-01 6.33117E-14-2.96540E-14
 -1      3580 1.98991E+01 3.38864E-01 5.62437E-04 3.78275E-01-1.67744E-14-3.95930E-14
 -1      3581 1.99865E+01 2.09976E-01-1.05411E-03 2.39726E-01-7.08783E-14 9.86879E-14
 -1      3582 1.99905E+01 2.34025E-01 1.01307E-03 2.76424E-01-2.31440E-14 4.11010E-14
 -1      3583 1.99308E+01 2.81697E-01 4.78111E-04 2.91113E-01-1.62457E-14 1.23939E-13
 -1      3584 1.99953E+01 1.67202E-01-8.60566E-04 1.78148E-01-4.33612E-14 5.13045E-14
 -1      3585 1.99989E+01 1.88465E-01 8.50604E-04 2.07742E-01-5.36227E-14 1.02790E-13
 -1      3586 1.99553E+01 2.28408E-01 3.80375E-04 2.20020E-01-5.90132E-14 1.96088E-13
 -1      3587 2.00012E+01 1.30391E-01-6.85441E-04 1.29351E-01-7.21716E-14 5.11586E-14
 -1      3588 2.00044E+01 1.48509E-01 7.03823E-04 1.52770E-01-1.78274E-14 8.01552E-14
 -1      3589 1.99735E+01 1.81175E-01 2.87385E-04 1.62985E-01-7.12566E-14 1.63877E-13
 -1      3590 2.00047E+01 9.96788E-02-5.33944E-04 9.13540E-02-4.05101E-14 4.26006E-14
 -1      3591 2.00076E+01 1.14677E-01 5.73115E-04 1.09551E-01-5.16077E-14 4.29925E-14
 -1      3592 1.99863E+01 1.40823E-01 2.07316E-04 1.17977E-01-9.81722E-14 6.05724E-14
 -1      3593 2.00066E+01 7.46853E-02-4.07438E-04 6.22884E-02-1.95278E-13 7.47247E-14
 -1      3594 2.00091E+01 8.68130E-02 4.58991E-04 7.61680E-02-9.03117E-14 8.77890E-15
 -1      3595 1.99950E+01 1.07329E-01 1.42841E-04 8.30455E-02-1.37539E-13 2.28642E-13
 -1      3596 2.00072E+01 5.47537E-02-3.05025E-04 4.04705E-02-1.57769E-13 6.21818E-14
 -1      3597 2.00094E+01 6.43755E-02 3.61445E-04 5.08500E-02-1.66938E-13-2.69887E-15
 -1      3598 2.00004E+01 8.01711E-02 9.34034E-05 5.64004E-02-8.17448E-14 1.46691E-13
 -1      3599 2.00069E+01 3.90937E-02-2.25121E-04 2.44418E-02-1.85424E-13 2.16553E-13
 -1      3600 2.00088E+01 4.66266E-02 2.80049E-04 3.20269E-02-1.14917E-13 9.49509E-14
 -1      3601 2.00034E+01 5.85651E-02 5.80444E-05 3.64521E-02-2.65962E-13-4.01102E-14
 -1      3602 2.00060E+01 2.69021E-02-1.58957E-04 1.29930E-02 6.30526E-14 2.89954E-13
 -1      3603 2.00076E+01 3.27534E-02 2.13579E-04 1.83695E-02-1.72229E-13 2.99915E-13
 -1      3604 2.00048E+01 4.16046E-02 3.47403E-05 2.18476E-02-1.87489E-13 1.91844E-13
 -1      3605 2.00049E+01 1.73927E-02-8.78781E-05 5.13712E-03 3.58859E-13 2.74400E-13
 -1      3606 2.00062E+01 2.19229E-02 1.53093E-04 8.75475E-03 2.88302E-13 3.36097E-13
 -1      3607 2.00049E+01 2.83806E-02 1.23141E-05 1.14715E-02 1.02003E-13 3.09942E-13
 -1      3608 1.50308E+01-1.37130E+00 4.73507E-02 4.23701E+00 2.12411E-13-1.65180E-13
 -1      3609 1.30582E+01-4.16666E-01 7.17816E-02 3.30693E+00 1.23278E-13-3.40006E-13
 -1      3610 2.59653E+01 2.56826E+00-9.44881E-02 2.14091E+00 2.02983E-13 2.07334E-14
 -1      3611 2.54940E+01 4.00627E+00-5.95772E-02 1.34867E+00 3.29195E-13-1.42733E-14
 -1      3612 2.00008E+01 2.80657E-02 9.63194E-07-4.13310E-03 1.20812E-13 2.10177E-13
 -1      3613 1.99999E+01 2.92703E-02-1.18323E-04-3.41600E-03 6.65459E-14 8.38663E-14
 -1      3614 2.01242E+01 1.95418E+00-3.32169E-03-3.82418E-01-1.56203E-13-2.89145E-13
 -1      3615 1.30999E+01 7.75877E-01 1.37934E-03-1.03891E+00-1.68478E-13 5.58650E-13
 -1      3616 1.31257E+01 5.06327E-01 7.61516E-02-2.05935E+00-7.86654E-14 5.55590E-13
 -1      3617 1.99993E+01 3.06575E-02-4.33552E-05-1.98572E-03-2.03108E-14 3.09022E-13
 -1      3618 1.99989E+01 3.10867E-02-8.67633E-05-9.57411E-04-1.26247E-14 9.97878E-14
 -1      3619 1.99989E+01 3.66940E-02 1.75041E-04-3.68305E-03 8.21871E-14 1.85092E-13
 -1      3620 2.05797E+01-3.04542E+00 7.13965E-02-3.69525E+00 3.35832E-13-1.64014E-13
 -1      3621 2.13018E+01-1.30533E+00 2.11506E-02 1.57079E+00-1.01496E-13 9.70218E-14
 -1      3622 2.16912E+01-1.68093E+00-9.77952E-04 1.44654E+00-1.40851E-14 1.73012E-13
 -1      3623 2.06243E+01-1.22130E+00-2.70030E-02 1.88118E+00-1.01888E-13 1.73066E-13
 -1      3624 2.00033E+01 1.07468E-02-6.19900E-05 4.84906E-04 3.77833E-13 4.20479E-13
 -1      3625 2.00035E+01 9.48404E-03 1.47867E-05-8.39537E-05 1.58836E-13 3.85744E-13
 -1      3626 2.00039E+01 1.13405E-02-6.56930E-07 9.16572E-04 2.17414E-13 3.92503E-13
 -1      3627 2.00034E+01 1.56691E-02-9.72276E-06 2.18891E-03 3.17026E-13 3.20514E-13
 -1      3628 2.23001E+01-2.04921E+00 3.11753E-02 1.32600E+00-1.29228E-14 5.17633E-14
 -1      3629 2.27732E+01-2.41906E+00-1.11002E-02 1.04653E+00-2.80522E-14 1.02031E-13
 -1      3630 2.15226E+01-2.04537E+00-2.92109E-02 1.82929E+00-5.50825E-14 2.12821E-13
 -1      3631 1.95851E+01 2.68149E+00-4.29737E-03-8.01927E-02 3.28622E-15-2.83144E-13
 -1      3632 1.96241E+01 2.63464E+00-4.43334E-03-1.42596E-01-3.19760E-14-2.90538E-13
 -1      3633 1.97111E+01 2.36829E+00 6.60990E-03-9.24933E-02-3.46992E-14-2.80593E-13
 -1      3634 1.91997E+01-8.58566E-01 2.57177E-02-2.76355E+00 3.09930E-13 8.81755E-15
 -1      3635 1.89030E+01-3.92977E-01 7.38071E-03-2.56703E+00 2.66599E-13 7.09975E-14
 -1      3636 1.80847E+01-3.45372E-02-4.72642E-03-2.46631E+00 1.04552E-13-6.36470E-14
 -1      3637 1.08639E+01 2.31271E-01 1.54516E-01-1.98845E+00 5.42517E-14 9.14532E-13
 -1      3638 2.00030E+01 2.36499E-02 1.66302E-05-5.14563E-03 2.37128E-14-1.58622E-13
 -1      3639 2.00019E+01 2.54996E-02-1.27774E-04-4.98253E-03 5.88064E-14-6.26898E-14
 -1      3640 2.00011E+01 3.28516E-02 1.42418E-04-6.38144E-03-4.21291E-14 1.47570E-14
 -1      3641 2.62299E+01 4.38360E+00-1.32401E-01-1.52713E+00 5.54307E-13-4.34833E-13
 -1      3642 2.00619E+01 1.24094E+00 1.80527E-03 3.39964E-01-1.11332E-13-2.19056E-13
 -1      3643 2.00138E+01 1.12329E+00-2.58425E-03 5.09185E-01-8.84483E-14-2.00286E-13
 -1      3644 1.98686E+01 1.22301E+00 3.18858E-03 5.26037E-01-7.01230E-14-1.76721E-13
 -1      3645 1.40117E+01-5.87242E-01 2.76408E-02-3.46051E+00 3.13007E-13 6.27901E-13
 -1      3646 1.51208E+01-1.27973E+00 3.70493E-02-4.14855E+00 2.85508E-13 3.53821E-13
 -1      3647 1.86793E+01-2.41902E+00 1.68003E-02 4.04578E+00 1.71490E-13-2.82691E-14
 -1      3648 2.01390E+01 1.64320E+00 1.15629E-03-1.14780E-01-1.33895E-13-2.48969E-13
 -1      3649 2.01023E+01 1.40849E+00-4.74800E-03 1.40581E-01-1.13645E-13-2.26321E-13
 -1      3650 1.86952E+01-2.67411E+00-2.16327E-02-4.20079E+00 3.92901E-13-1.27048E-13
 -1      3651 2.00982E+01-2.24568E+00 4.54094E-02-3.32080E+00 3.53046E-13-1.62531E-13
 -1      3652 1.94485E+01-1.51881E+00 3.57344E-02-3.16740E+00 3.47076E-13-4.98620E-14
 -1      3653 1.67392E+01-1.74697E+00 5.54404E-02-4.18296E+00 3.55386E-13 1.16743E-13
 -1      3654 2.44462E+01-2.74779E+00-7.68688E-03-1.20033E-01-5.51685E-14 1.40830E-13
 -1      3655 2.39050E+01-2.78535E+00 3.69706E-02-6.63257E-01-3.16084E-14 1.80272E-13
 -1      3656 2.01741E+01 1.47677E+00-2.64369E-03 3.44780E-02 1.77990E-13-2.32285E-13
 -1      3657 2.00657E+01 1.66177E+00-1.61366E-03 1.85200E-02 1.69444E-13-2.53477E-13
 -1      3658 1.74982E+01-2.49321E+00 2.52693E-02-4.59336E+00-2.07282E-13-2.17860E-13
 -1      3659 1.85964E+01-3.18773E+00 7.73638E-02-4.82863E+00-2.03518E-13-1.60490E-13
 -1      3660 2.00016E+01-3.36195E+00-1.33591E-02-4.12151E+00-1.98119E-13-1.01197E-13
 -1      3661 1.41765E+01 3.13452E-01-7.66832E-03 2.25906E+00-1.80782E-13 2.24584E-13
 -1      3662 1.69867E+01-1.26640E+00 3.34417E-02-3.71864E+00 4.15380E-13 1.07081E-13
 -1      3663 2.00970E+01 1.01648E+00 4.91290E-04-5.03667E-01 1.31362E-13-2.60462E-13
 -1      3664 2.02058E+01 9.34934E-01-1.10996E-03-4.48389E-01 1.31001E-13-2.34824E-13
 -1      3665 2.31748E+01-3.14264E+00-4.03875E-02-1.53358E+00-6.63575E-14 1.01541E-13
 -1      3666 1.22077E+01-9.57740E-02 2.92190E-02-2.80431E+00 1.58044E-13 7.92769E-13
 -1      3667 2.01260E+01 6.40722E-01 1.15723E-03-8.76243E-01 8.06660E-14-2.26952E-13
 -1      3668 2.00252E+01 7.98676E-01-4.85236E-04-7.89667E-01 9.54338E-14-2.47784E-13
 -1      3669 2.01243E+01 5.60406E-01 1.24426E-03-9.97295E-01 5.49093E-14-1.86728E-13
 -1      3670 1.12565E+01 6.04954E-01 1.22829E-01-7.83064E-01-7.31828E-14-4.06758E-13
 -1      3671 1.18935E+01 3.25428E-01 3.60442E-02-1.70142E+00-1.23396E-13-4.13405E-13
 -1      3672 1.19052E+01 6.19097E-01 3.35214E-02 9.57236E-02-2.62637E-15-3.87884E-13
 -1      3673 2.02689E+01 3.33355E-01-3.52572E-03-1.17011E+00 3.24135E-14-1.53976E-13
 -1      3674 1.34484E+01-9.77453E-01 1.15588E-01-4.12527E+00-2.73285E-13-3.40034E-13
 -1      3675 1.50792E+01-1.43499E+00 2.73733E-02-4.26187E+00-2.03428E-13-3.09204E-13
 -1      3676 1.31138E+01-3.76553E-01 3.26730E-02-3.24677E+00-2.04774E-13-3.71224E-13
 -1      3677 1.99048E+01 1.64752E-01-5.88562E-03-1.52048E+00-6.22490E-14-2.40847E-13
 -1      3678 2.01645E+01 1.74276E-01 3.70274E-03-1.41666E+00-2.02514E-14-1.84444E-13
 -1      3679 2.01039E+01 2.92618E-01 1.84922E-03-1.33334E+00-2.86112E-14-1.72768E-13
 -1      3680 2.04214E+01-3.49867E-01 7.50187E-03-1.67321E+00-1.59642E-14-6.33301E-14
 -1      3681 2.00206E+01-2.14120E-01-1.03243E-02-1.74170E+00-6.53754E-14-1.70904E-13
 -1      3682 2.06197E+01-6.00622E-01 4.89853E-03-1.69045E+00-8.22888E-15-4.70302E-14
 -1      3683 2.00057E+01 2.34194E-02 1.09730E-04-8.52465E-03 6.04491E-14-3.35796E-13
 -1      3684 2.00050E+01 1.89087E-02-4.31176E-05-5.42977E-03-2.37880E-13-1.41225E-13
 -1      3685 2.00045E+01 1.99823E-02-4.85417E-05-5.41016E-03-1.36129E-13-1.70149E-13
 -1      3686 2.00044E+01 2.98333E-02 4.27401E-05-1.07640E-02 5.12523E-14-3.10608E-13
 -1      3687 2.53968E+01-2.59289E+00 1.49918E-02 4.51503E-01-1.95226E-14 1.36488E-13
 -1      3688 2.09182E+01-1.50063E+00-1.88553E-02-2.03314E+00-8.77336E-14-1.41770E-14
 -1      3689 2.11615E+01-1.22460E+00 3.59210E-03-1.69557E+00-8.07245E-14 7.30390E-14
 -1      3690 2.08554E+01-8.88313E-01 1.43667E-02-1.74919E+00 8.08229E-15 2.78762E-14
 -1      3691 2.27586E+01-3.94455E+00-1.63640E-02-2.92701E+00-1.58798E-13-8.58133E-14
 -1      3692 2.31409E+01-3.40031E+00 1.63154E-02-1.99884E+00-1.25448E-13-1.09614E-14
 -1      3693 2.25020E+01-3.01064E+00 4.43216E-02-2.18955E+00-1.05689E-13-3.36970E-14
 -1      3694 2.17525E+01-3.51959E+00 6.78607E-02-3.35523E+00-1.41913E-13-7.23753E-14
 -1      3695 2.57839E+01-1.82854E+00-2.01453E-02 1.02235E+00 5.71487E-14 8.60909E-14
 -1      3696 1.99935E+01 1.49885E+00 2.87768E-03 1.94261E-01-1.01099E-13-2.26689E-13
 -1      3697 2.32220E+01-3.01391E+00-2.06556E-02 1.35237E+00-1.05065E-13 6.33209E-14
 -1      3698 1.44766E+01-5.24575E-02 3.95519E-02 2.80555E+00 9.21173E-14-2.57180E-13
 -1      3699 1.29089E+01 1.16645E-01 7.81212E-02 2.57709E+00 9.66449E-14-4.13961E-13
 -1      3700 1.30067E+01 4.84260E-01 2.45376E-02 1.68930E+00 4.03219E-14-3.51781E-13
 -1      3701 1.71276E+01-1.76407E+00 2.86298E-02 4.15912E+00 1.67977E-13-1.20407E-13
 -1      3702 1.65358E+01-9.28006E-01 2.50811E-03 3.57252E+00 1.29261E-13-1.63206E-13
 -1      3703 2.00045E+01 1.33661E-02 6.63076E-05 2.38304E-03 3.55231E-13 3.00307E-13
 -1      3704 2.02990E+01 1.15766E+00-1.50406E-03-4.40815E-02 1.58220E-13-2.20940E-13
 -1      3705 2.02324E+01 1.36123E+00 7.07961E-04 7.87267E-03 1.75265E-13-2.15465E-13
 -1      3706 2.01842E+01 1.27423E+00 1.79551E-03-1.57977E-01 1.50073E-13-2.33332E-13
 -1      3707 2.02807E+01 1.03504E+00-3.55346E-04-2.19984E-01 1.37467E-13-2.26417E-13
 -1      3708 1.99989E+01 3.10931E-02-8.62646E-05 6.83354E-04-5.19081E-14-9.45737E-14
 -1      3709 1.99992E+01 3.06874E-02-4.55316E-05 1.71782E-03-2.51425E-15-6.72496E-14
 -1      3710 1.99981E+01 3.80412E-02 1.84017E-04-1.43607E-04 3.00513E-14-2.82008E-14
 -1      3711 1.41163E+01 9.80348E-01 8.73152E-03 4.92960E-01-1.83761E-13 4.08564E-13
 -1      3712 1.34595E+01 1.07236E+00 6.68802E-02-2.05386E-01-1.72187E-13 5.97486E-13
 -1      3713 1.40326E+01 8.96568E-01-1.32434E-02-1.00189E+00-1.20979E-13 5.38045E-13
 -1      3714 1.99997E+01 2.93311E-02-1.09896E-04 3.16876E-03 9.49067E-14-1.05499E-13
 -1      3715 2.00006E+01 2.81134E-02-7.79260E-06 3.91324E-03 2.05427E-13 7.97137E-14
 -1      3716 1.99987E+01 3.67157E-02 1.59145E-04 3.41789E-03 4.97934E-14-6.19679E-14
 -1      3717 1.66670E+01-1.58852E+00 9.50748E-02 4.21447E+00-2.62771E-13 1.04541E-13
 -1      3718 1.60774E+01-8.72542E-01 2.54002E-02 3.53486E+00-1.46504E-13 1.12521E-13
 -1      3719 2.01031E+01 1.81672E+00 3.62087E-03-1.95679E-01-1.34593E-13-2.75387E-13
 -1      3720 2.00040E+01 2.08020E-02-7.47747E-05-5.27627E-03 5.90096E-15-1.32525E-13
 -1      3721 1.99105E+01 2.10545E+00 6.52718E-03 1.24940E-01 1.89367E-13-2.63567E-13
 -1      3722 2.00006E+01 3.30153E-02 1.31312E-04 5.94679E-03 4.03626E-14 1.28284E-13
 -1      3723 2.00014E+01 2.57061E-02-1.35093E-04 4.59658E-03 2.57891E-13 2.55071E-13
 -1      3724 2.00024E+01 2.40943E-02 2.79252E-05 4.76898E-03 2.64076E-13 8.54168E-14
 -1      3725 1.96483E+01 2.21231E+00-3.31093E-03-1.73102E-02 9.04543E-14-2.17144E-13
 -1      3726 1.96187E+01 2.24552E+00-3.92173E-03-3.52536E-02 6.18405E-14-2.37746E-13
 -1      3727 2.02305E+01 1.03513E+00 8.75985E-04-2.99895E-01 1.42888E-13-2.42594E-13
 -1      3728 2.25695E+01-3.13450E+00 4.43685E-02 2.21944E+00-1.06434E-13-1.49360E-15
 -1      3729 1.96355E+01 2.46338E+00 6.88505E-03-4.57296E-02 1.29851E-14-2.61403E-13
 -1      3730 1.81442E+01-1.04096E+00-4.54541E-03-3.24250E+00 3.83605E-13-1.88478E-14
 -1      3731 2.00034E+01 2.74673E-02 3.27670E-05-7.62687E-03-1.75281E-14-1.97838E-13
 -1      3732 2.14473E+01-2.49802E+00-9.06005E-03 2.33724E+00-8.31965E-14 1.29201E-13
 -1      3733 2.16331E+01-3.19796E+00-2.13416E-02 2.84632E+00-1.79136E-13-8.77597E-15
 -1      3734 2.03363E+01-2.82397E+00 8.91171E-02 3.63696E+00-2.22768E-13-1.57166E-14
 -1      3735 2.09347E+01-1.93309E+00 3.30541E-02 2.34575E+00-6.64703E-14 1.91257E-13
 -1      3736 2.00043E+01 1.79933E-02 1.32700E-05 4.37029E-03 3.08981E-13 4.06226E-13
 -1      3737 1.83020E+01-2.46623E+00-2.17366E-02 4.14405E+00-2.64607E-13-2.63817E-14
 -1      3738 1.97001E+01 2.14919E+00-3.77960E-03-2.66883E-02 1.13371E-13-2.50624E-13
 -1      3739 1.96932E+01 1.99768E+00 6.44868E-03-7.62986E-02 1.09858E-13-2.13165E-13
 -1      3740 1.97701E+01 2.06282E+00-3.29287E-03-4.49835E-03 1.48409E-13-2.48980E-13
 -1      3741 1.96684E+01 2.18725E+00-3.38072E-03-1.87549E-02-1.04708E-14-2.63827E-13
 -1      3742 1.97260E+01 2.10956E+00-4.74270E-03-3.63069E-02-3.41350E-14-2.66531E-13
 -1      3743 1.31893E+01 1.33186E-01 2.17455E-02-2.56487E+00 4.54307E-14 5.20049E-13
 -1      3744 1.36085E+01-1.00991E-01 7.07969E-02-3.00914E+00 2.05733E-13 6.33625E-13
 -1      3745 1.42261E+01 3.83660E-01 2.47872E-02-2.23288E+00 7.55618E-15 3.22357E-13
 -1      3746 1.48972E+01-3.05801E-01 3.25391E-02-3.15866E+00 2.67768E-13 4.34194E-13
 -1      3747 2.00003E+01 3.82897E-02 4.96445E-05-9.56715E-03-3.39535E-14-1.37495E-13
 -1      3748 1.99986E+01 4.04906E-02-1.57530E-04-8.28314E-03 1.16090E-13-1.93128E-17
 -1      3749 1.97953E+01 1.37040E+00-1.16118E-03 3.86368E-01-5.93672E-14-1.75630E-13
 -1      3750 1.97203E+01 1.26956E+00-2.15695E-03 5.23145E-01-5.61291E-14-1.79761E-13
 -1      3751 1.60031E+01-4.35200E-01 5.17426E-02-3.27970E+00 3.15276E-13 2.37562E-13
 -1      3752 1.73407E+01-9.43613E-01 2.21738E-02-3.33985E+00 3.52551E-13 2.05686E-14
 -1      3753 1.71877E+01-2.90687E-01-4.45857E-03-2.84831E+00 2.44404E-13 1.95373E-14
 -1      3754 1.53858E+01-7.77658E-02 1.68553E-03-2.85636E+00 2.30512E-13 2.82486E-13
 -1      3755 2.56399E+01 2.75162E+00-1.17878E-01 2.00928E+00 2.04545E-13-8.97199E-15
 -1      3756 1.96242E+01 2.23538E+00-4.21418E-03-3.53566E-02-6.74442E-16-2.35979E-13
 -1      3757 1.96588E+01 2.03173E+00 5.57567E-03 1.30323E-02-2.67787E-15-2.29422E-13
 -1      3758 1.96094E+01 2.25583E+00-3.68811E-03-2.18980E-02 3.48740E-14-2.38493E-13
 -1      3759 1.93456E+01 1.08745E+00-3.87265E-03 8.53801E-01 8.16377E-15-1.32286E-13
 -1      3760 1.92185E+01 1.05111E+00-4.64115E-04 9.72853E-01 4.50263E-14-1.22867E-13
 -1      3761 1.90139E+01 1.01411E+00-5.61417E-03 1.07903E+00 7.24937E-14-1.10680E-13
 -1      3762 1.88683E+01 9.78052E-01 1.18723E-03 1.20419E+00 7.55897E-14-1.28487E-13
 -1      3763 1.89392E+01 1.14300E+00 6.47253E-03 8.77243E-01 5.23297E-14-1.18744E-13
 -1      3764 1.86118E+01 9.26650E-01-8.20998E-03 1.32854E+00 7.78453E-14-1.28833E-13
 -1      3765 1.84573E+01 8.65356E-01 3.89429E-03 1.47557E+00 8.68214E-14-1.50473E-13
 -1      3766 1.84929E+01 1.07682E+00 7.92982E-03 1.08889E+00 6.05601E-14-1.00024E-13
 -1      3767 1.81416E+01 7.69044E-01-1.16675E-02 1.64027E+00 1.04291E-13-1.45069E-13
 -1      3768 1.80001E+01 6.49219E-01 9.22357E-03 1.83159E+00 1.09156E-13-1.10470E-13
 -1      3769 1.79443E+01 9.74025E-01 9.95725E-03 1.35420E+00 9.63571E-14-1.07561E-13
 -1      3770 1.76153E+01 4.68408E-01-1.50902E-02 2.07380E+00 1.10954E-13-1.04604E-13
 -1      3771 1.75201E+01 2.41174E-01 1.78712E-02 2.34277E+00 1.27602E-13-6.81939E-14
 -1      3772 1.72714E+01 7.72023E-01 1.02367E-02 1.72811E+00 1.15253E-13-1.12071E-13
 -1      3773 1.69651E+01-8.48253E-01-3.14396E-02 3.24815E+00-2.01155E-13 2.23745E-14
 -1      3774 1.58477E+01-1.28724E-01 8.09978E-02 2.97523E+00-2.10559E-13 1.71394E-13
 -1      3775 1.52772E+01 3.12943E-01 1.76413E-03 2.16197E+00-2.23288E-13 1.89849E-13
 -1      3776 1.99295E+01 1.72356E+00 3.23897E-03 6.60003E-02-8.23070E-14-2.57023E-13
 -1      3777 1.98729E+01 1.51486E+00-3.64429E-03 2.51934E-01-6.31807E-14-2.19147E-13
 -1      3778 1.81068E+01 8.54641E-01 4.73127E-03-1.45033E+00 4.94432E-14 2.92143E-14
 -1      3779 1.82416E+01 9.06558E-01-9.78731E-03-1.29655E+00 6.54984E-14 6.08232E-15
 -1      3780 1.84951E+01 9.37274E-01 2.22265E-03-1.16832E+00-3.75395E-14 3.12161E-14
 -1      3781 1.86241E+01 9.37693E-01-7.18335E-03-1.05082E+00-2.87640E-14-9.68673E-14
 -1      3782 1.80619E+01 1.04699E+00 9.01018E-03-1.06415E+00 2.05486E-14 9.12234E-14
 -1      3783 1.88275E+01 9.26292E-01 8.72037E-04-9.54001E-01-1.21538E-14-2.31137E-13
 -1      3784 1.89403E+01 8.96381E-01-5.42923E-03-8.58917E-01-8.40065E-14-1.04382E-13
 -1      3785 1.84980E+01 1.02954E+00 7.22507E-03-8.61199E-01-9.90541E-14 5.48791E-14
 -1      3786 1.91025E+01 8.60606E-01 2.60976E-04-7.81619E-01-1.56356E-13-2.70544E-14
 -1      3787 1.91962E+01 8.14416E-01-4.25958E-03-7.01875E-01-2.05362E-13 4.63788E-14
 -1      3788 1.88482E+01 9.58070E-01 5.72317E-03-7.04931E-01-4.88098E-14-6.09287E-14
 -1      3789 1.93248E+01 7.66547E-01 6.77907E-05-6.37772E-01-2.78291E-13 8.20603E-14
 -1      3790 1.93996E+01 7.13476E-01-3.41273E-03-5.69774E-01-2.85320E-13 2.92382E-14
 -1      3791 1.91272E+01 8.57377E-01 4.54255E-03-5.77475E-01-2.18464E-13 1.65729E-13
 -1      3792 1.95007E+01 6.61548E-01 6.17889E-05-5.15680E-01-1.41762E-13 8.32853E-14
 -1      3793 1.95589E+01 6.07699E-01-2.76420E-03-4.57584E-01 1.20705E-13 1.07880E-13
 -1      3794 1.93474E+01 7.44340E-01 3.58636E-03-4.70093E-01-1.95323E-13 2.74237E-13
 -1      3795 1.96376E+01 5.56709E-01 1.22581E-04-4.11811E-01 1.32161E-13 1.79388E-14
 -1      3796 1.96817E+01 5.05778E-01-2.24587E-03-3.62550E-01 1.31203E-14 1.03278E-13
 -1      3797 1.95194E+01 6.30409E-01 2.81304E-03-3.78486E-01 2.06305E-14 5.59949E-14
 -1      3798 1.97423E+01 4.58618E-01 1.87503E-04-3.24097E-01-2.71971E-14 1.35366E-13
 -1      3799 1.97750E+01 4.12640E-01-1.81865E-03-2.82860E-01-7.11362E-14 2.62655E-13
 -1      3800 1.96520E+01 5.22713E-01 2.18727E-03-3.00494E-01 1.09613E-13 8.13821E-14
 -1      3801 1.98210E+01 3.70779E-01 2.32409E-04-2.50960E-01-1.51876E-13 3.78764E-13
 -1      3802 1.98449E+01 3.30669E-01-1.46107E-03-2.16965E-01-1.32617E-13 3.38437E-13
 -1      3803 1.97531E+01 4.25309E-01 1.68302E-03-2.34790E-01-8.13838E-15 5.01591E-13
 -1      3804 1.98793E+01 2.94643E-01 2.52549E-04-1.90903E-01-1.46908E-13 3.53787E-13
 -1      3805 1.98963E+01 2.60583E-01-1.16105E-03-1.63331E-01-1.29708E-13 4.32704E-13
 -1      3806 1.98289E+01 3.40096E-01 1.28003E-03-1.80251E-01-1.35475E-13 4.45206E-13
 -1      3807 1.99217E+01 2.30340E-01 2.51468E-04-1.42385E-01-1.75700E-13 3.87118E-13
 -1      3808 1.99334E+01 2.02059E-01-9.10902E-04-1.20391E-01-3.76876E-14 3.49849E-13
 -1      3809 1.98849E+01 2.67514E-01 9.61311E-04-1.35727E-01-1.50515E-13 3.30567E-13
 -1      3810 1.99517E+01 1.77197E-01 2.35356E-04-1.03838E-01-2.69689E-15 3.28879E-13
 -1      3811 1.99595E+01 1.54165E-01-7.04776E-04-8.65866E-02 2.91828E-14 1.81097E-13
 -1      3812 1.99255E+01 2.07061E-01 7.12085E-04-1.00002E-01 5.04675E-14 1.75255E-13
 -1      3813 1.99725E+01 1.34096E-01 2.10451E-04-7.37305E-02 3.26761E-14 2.01737E-13
 -1      3814 1.99775E+01 1.15657E-01-5.37065E-04-6.04305E-02 2.04309E-14 8.99161E-14
 -1      3815 1.99543E+01 1.57682E-01 5.19330E-04-7.18352E-02-3.92511E-14 2.93197E-13
 -1      3816 1.99863E+01 9.97190E-02 1.83638E-04-5.06249E-02 4.18570E-14-1.09937E-14
 -1      3817 1.99893E+01 8.51648E-02-4.03776E-04-4.05502E-02 1.01268E-13-8.14256E-14
 -1      3818 1.99740E+01 1.18033E-01 3.70550E-04-5.00267E-02 1.19392E-14 2.30612E-13
 -1      3819 1.99950E+01 7.27709E-02 1.84453E-04-3.32366E-02 2.05738E-13-2.36821E-13
 -1      3820 1.99964E+01 6.13241E-02-3.38967E-04-2.55593E-02 2.16138E-13-3.01775E-13
 -1      3821 1.99870E+01 8.66276E-02 2.31000E-04-3.34820E-02-1.05688E-15 3.29099E-14
 -1      3822 2.00028E+01 3.25186E-02-1.21618E-04-1.05348E-02 1.55020E-14-1.58532E-13
 -1      3823 2.41340E+01 2.54264E+00-1.03962E-01-1.70771E+00 3.51354E-13-2.43427E-13
 -1      3824 1.95369E+01-2.27171E-01 4.71171E-04 1.80898E+00-1.43075E-13 1.01981E-13
 -1      3825 1.97483E+01-5.03318E-01 1.25026E-02 1.91572E+00-1.16359E-13 1.63734E-13
 -1      3826 1.94553E+01 5.22923E-01-2.47781E-03 1.03031E+00 2.86326E-14 1.47236E-13
 -1      3827 1.94584E+01 4.81397E-01 4.19701E-03 1.12872E+00 5.87152E-15 1.77998E-13
 -1      3828 1.95375E+01 5.54542E-01-2.57400E-03 8.39933E-01 1.92526E-14 1.52197E-13
 -1      3829 1.95235E+01 5.48395E-01 2.76167E-03 9.27092E-01 7.77855E-14 1.67988E-13
 -1      3830 1.92777E+01 6.18765E-01 7.03483E-04 9.45817E-01 1.17120E-15 2.56115E-13
 -1      3831 1.96252E+01 5.35628E-01-2.44417E-03 6.77984E-01 1.00540E-13 1.01342E-13
 -1      3832 1.96047E+01 5.51287E-01 1.91929E-03 7.54097E-01 8.94169E-14 1.22108E-13
 -1      3833 1.94082E+01 6.25801E-01 1.26575E-03 7.59813E-01 1.07189E-13 1.75081E-13
 -1      3834 1.97076E+01 4.87802E-01-2.21265E-03 5.41026E-01-1.49837E-13 2.82913E-13
 -1      3835 1.96863E+01 5.15445E-01 1.40509E-03 6.06603E-01 5.22935E-14 1.88951E-13
 -1      3836 1.95308E+01 5.88673E-01 1.45542E-03 6.06408E-01 4.60197E-14 2.89097E-13
 -1      3837 1.97794E+01 4.26078E-01-1.93819E-03 4.26197E-01-7.81959E-14 1.68452E-13
 -1      3838 1.97602E+01 4.58963E-01 1.07941E-03 4.81887E-01-1.54007E-13 2.49920E-13
 -1      3839 1.96386E+01 5.27336E-01 1.42214E-03 4.79680E-01-7.66497E-14 4.52149E-13
 -1      3840 1.98389E+01 3.60370E-01-1.65370E-03 3.30973E-01-5.89865E-14 1.80218E-13
 -1      3841 1.98230E+01 3.94115E-01 8.64020E-04 3.77547E-01-7.45341E-14 1.37753E-13
 -1      3842 1.97292E+01 4.55536E-01 1.27744E-03 3.75259E-01-1.00160E-13 4.10651E-13
 -1      3843 1.98864E+01 2.96842E-01-1.37898E-03 2.53008E-01-5.25286E-14 1.86816E-13
 -1      3844 1.98739E+01 3.28781E-01 7.10271E-04 2.91345E-01-3.99033E-14 2.01522E-13
 -1      3845 1.98028E+01 3.82261E-01 1.08748E-03 2.89785E-01-4.56464E-14 1.72751E-13
 -1      3846 1.99230E+01 2.38990E-01-1.12603E-03 1.90052E-01-7.67674E-14 2.75829E-13
 -1      3847 1.99138E+01 2.67665E-01 5.91062E-04 2.21106E-01-9.62681E-14 2.56228E-13
 -1      3848 1.98607E+01 3.13019E-01 8.90007E-04 2.20484E-01-1.08734E-13 2.56613E-13
 -1      3849 1.99504E+01 1.88481E-01-9.01505E-04 1.39950E-01-8.89327E-14 2.63317E-13
 -1      3850 1.99438E+01 2.13258E-01 4.92435E-04 1.64703E-01 4.23014E-15 3.20209E-13
 -1      3851 1.99051E+01 2.50842E-01 7.05542E-04 1.64941E-01-6.78149E-14 2.09846E-13
 -1      3852 1.99702E+01 1.45779E-01-7.08356E-04 1.00675E-01-1.20229E-13 1.98409E-13
 -1      3853 1.99658E+01 1.66557E-01 4.07807E-04 1.20088E-01-1.26022E-13 2.25851E-13
 -1      3854 1.99381E+01 1.97061E-01 5.43957E-04 1.20994E-01-5.17988E-14 3.77169E-13
 -1      3855 1.99840E+01 1.10601E-01-5.46552E-04 7.03689E-02-1.17844E-13 1.62008E-13
 -1      3856 1.99813E+01 1.27605E-01 3.34364E-04 8.53411E-02-1.35393E-13 9.83857E-14
 -1      3857 1.99620E+01 1.51890E-01 4.08457E-04 8.67022E-02-1.12841E-13 2.67032E-13
 -1      3858 1.99931E+01 8.22394E-02-4.15093E-04 4.73759E-02-4.24219E-14 1.52188E-15
 -1      3859 1.99917E+01 9.58741E-02 2.70939E-04 5.87206E-02 7.00220E-15 3.39881E-14
 -1      3860 1.99787E+01 1.14855E-01 2.98590E-04 6.03469E-02 3.14194E-14-5.69396E-14
 -1      3861 1.99988E+01 5.97666E-02-3.06416E-04 3.02582E-02-3.92042E-13 5.78080E-14
 -1      3862 1.99982E+01 7.05207E-02 2.16834E-04 3.86790E-02-2.24321E-13-3.03604E-15
 -1      3863 1.99898E+01 8.50819E-02 2.06309E-04 4.04102E-02-1.53420E-13 1.73411E-13
 -1      3864 2.00019E+01 4.21511E-02-2.16628E-04 1.78108E-02-1.50966E-13 1.20047E-13
 -1      3865 2.00019E+01 5.05385E-02 1.62601E-04 2.38834E-02-3.21470E-13 4.15845E-14
 -1      3866 1.99968E+01 6.15748E-02 1.50903E-04 2.56179E-02-3.54311E-13 8.57322E-15
 -1      3867 1.97590E+01 1.86291E+00 3.21851E-03 8.38397E-02-3.16637E-14-2.28274E-13
 -1      3868 1.97935E+01 1.99614E+00-1.64527E-03 1.77849E-03-5.08850E-14-2.52411E-13
 -1      3869 1.91769E+01-2.01927E+00 1.32413E-02 3.40036E+00-1.68282E-13 5.74298E-14
 -1      3870 2.00038E+01 2.02695E-02-3.60553E-05 4.95557E-03 2.67688E-13 2.54267E-13
 -1      3871 2.53901E+01 1.98114E+00-9.47110E-03 2.15727E+00 1.02307E-13 6.35984E-14
 -1      3872 1.99971E+01 4.31792E-02-3.97304E-05-6.00549E-03 1.23731E-13 1.84513E-13
 -1      3873 1.99960E+01 4.44452E-02-1.31174E-04-4.10483E-03 1.53466E-13 1.86627E-13
 -1      3874 1.99967E+01 4.98542E-02 2.73743E-04-9.19984E-03 1.58156E-13 1.17330E-13
 -1      3875 1.99887E+01 1.84920E+00-3.97273E-03-8.32286E-02-9.66196E-14-2.75315E-13
 -1      3876 1.99565E+01 1.81331E+00-3.44173E-03 1.67877E-02 1.71063E-13-2.66703E-13
 -1      3877 1.98574E+01 1.95119E+00-3.34004E-03-6.69066E-03 1.60885E-13-2.60032E-13
 -1      3878 1.98361E+01 1.82142E+00 6.02380E-03-1.05823E-01 1.37004E-13-2.44867E-13
 -1      3879 2.00258E+01 1.55424E+00 3.67459E-03-1.18955E-01 1.46426E-13-2.55987E-13
 -1      3880 1.93994E+01 4.10285E-01-2.06569E-03 1.25356E+00-5.16453E-15 5.91951E-14
 -1      3881 1.94381E+01 3.15584E-01 6.61941E-03 1.36188E+00-9.58257E-14 8.87874E-14
 -1      3882 1.91537E+01 5.40337E-01-1.60930E-04 1.17369E+00-5.53424E-14 2.40033E-13
 -1      3883 1.72965E+01-5.45074E-01 1.98753E-02 3.11334E+00 1.16816E-13-1.13812E-13
 -1      3884 1.56738E+01-2.38012E-01 4.53837E-02 3.11318E+00 1.05614E-13-2.05065E-13
 -1      3885 1.52695E+01 1.87888E-01-6.36816E-03 2.49881E+00 6.28560E-14-2.18043E-13
 -1      3886 1.72437E+01-1.11288E-01-1.80878E-02 2.71304E+00 1.13837E-13-1.01424E-13
 -1      3887 1.94060E+01 1.76332E-01-1.38267E-03 1.51351E+00-1.70065E-13 1.05932E-13
 -1      3888 1.95107E+01 6.04058E-03 1.01870E-02 1.62662E+00-1.64875E-13 1.45292E-13
 -1      3889 1.90555E+01 6.99022E-03-2.21210E-03 1.80007E+00-1.68579E-13-1.87808E-14
 -1      3890 2.16992E+01-2.51434E+00 9.88784E-03-2.28740E+00-6.26738E-14-9.01991E-14
 -1      3891 2.10909E+01-1.99456E+00 2.70448E-02-2.37665E+00-8.28007E-14-1.25223E-13
 -1      3892 2.13725E+01-2.83016E+00-3.28244E-02-2.76858E+00-1.09680E-13-2.08391E-13
 -1      3893 1.98984E+01-8.28677E-01 1.42883E-02 2.11310E+00-5.56773E-14 1.25922E-13
 -1      3894 2.02330E+01-1.26986E+00 2.13265E-03 2.20247E+00-9.39960E-15 2.15989E-13
 -1      3895 1.92214E+01-5.71932E-01-5.94118E-03 2.21254E+00-7.07106E-14 4.44683E-14
 -1      3896 1.96324E+01 2.07103E+00 7.42664E-03-3.69503E-02 4.61892E-14-2.09617E-13
 -1      3897 1.97529E+01 1.57656E+00 3.16560E-03 2.60449E-01-4.68903E-14-2.09369E-13
 -1      3898 2.00007E+01 4.10575E-02-7.91776E-05-1.27931E-02 6.77900E-14-7.36656E-14
 -1      3899 1.98894E+01 1.87047E+00-9.73001E-04-7.57882E-03-7.79749E-14-2.81528E-13
 -1      3900 1.96347E+01 1.77960E+00 1.00654E-03 1.19302E-01-1.17400E-14-2.32083E-13
 -1      3901 1.96876E+01 1.66281E+00-2.67800E-03 1.75803E-01-1.73407E-14-2.20753E-13
 -1      3902 1.96020E+01 1.51666E+00-9.39302E-04 2.92142E-01-1.93422E-14-1.89975E-13
 -1      3903 1.96068E+01 1.19212E+00-2.70949E-03 6.28081E-01-4.22721E-14-1.58578E-13
 -1      3904 1.95038E+01 1.13437E+00-1.40134E-03 7.52059E-01-2.09959E-14-1.52712E-13
 -1      3905 1.95615E+01 1.34411E+00 4.37157E-03 4.88292E-01-2.94330E-14-1.39762E-13
 -1      3906 2.57904E+01-4.88207E-01-5.70817E-02 1.97023E+00 9.44730E-14 9.08787E-14
 -1      3907 2.01154E+01 3.92432E-01 2.51607E-03-1.22018E+00-1.79128E-15-1.55181E-13
 -1      3908 2.00926E+01 4.79800E-01 1.13390E-03-1.11797E+00 4.72526E-14-1.66496E-13
 -1      3909 1.98987E+01 4.23791E-01-3.08206E-03-1.28864E+00 5.41257E-15-1.89185E-13
 -1      3910 1.75117E+01 8.64893E-02 1.84935E-02-2.44919E+00 1.92897E-13-1.22446E-13
 -1      3911 1.75644E+01 3.66301E-01-9.63623E-03-2.14734E+00 9.24720E-14-1.38796E-13
 -1      3912 1.67224E+01 1.48534E-01 9.11136E-03-2.52168E+00 1.57032E-13-3.25477E-14
 -1      3913 1.76603E+01 6.20485E-01 8.34381E-03-1.85322E+00 5.53958E-14-5.83184E-14
 -1      3914 1.77902E+01 7.65734E-01-1.11288E-02-1.63334E+00 2.95911E-14 4.97083E-14
 -1      3915 1.75176E+01 9.76105E-01 9.63995E-03-1.34268E+00 8.01444E-14 3.25937E-14
 -1      3916 1.99797E+01 1.07148E+00-4.68891E-04-5.45884E-01 1.24640E-13-2.49388E-13
 -1      3917 2.00108E+01 1.19931E+00-6.07724E-04-3.92974E-01 1.29744E-13-2.49711E-13
 -1      3918 2.00031E+01 2.68189E-02 4.32214E-05 7.19190E-03 2.67490E-13 1.76541E-13
 -1      3919 2.53515E+01 5.54493E-01-7.86700E-02 2.13161E+00 1.00892E-13 6.47815E-14
 -1      3920 2.07594E+01-3.12824E+00 2.06769E-02-3.52026E+00-1.89276E-13-1.18577E-13
 -1      3921 1.92935E+01 1.21890E+00 5.28795E-03 6.83747E-01 8.22020E-15-1.01186E-13
 -1      3922 1.86426E+01-1.13492E+00 5.27571E-02 3.01939E+00-1.79645E-13 7.33168E-14
 -1      3923 1.81366E+01-6.24359E-01-5.93889E-03 2.65638E+00-1.60860E-13 5.31613E-14
 -1      3924 1.99503E+01 6.17671E-01-1.52289E-03-1.04747E+00 3.86981E-14-2.24399E-13
 -1      3925 1.61817E+01 2.69687E-01-2.19507E-02 2.18024E+00-1.66688E-13 1.79938E-13
 -1      3926 1.50335E+01 8.39868E-01 3.29640E-02 1.49086E+00-2.27221E-13 3.28786E-13
 -1      3927 1.27955E+01 7.65292E-01 7.28958E-02 9.77891E-01 7.08374E-15-3.70468E-13
 -1      3928 1.28085E+01 7.66632E-01 1.99993E-02 1.17905E-01-3.55159E-14-3.85220E-13
 -1      3929 1.39084E+01 6.22292E-01 3.06409E-02 1.53831E+00 3.51529E-14-3.05440E-13
 -1      3930 1.28811E+01 2.31011E-01 1.01496E-01-2.44113E+00-1.35975E-13-3.71814E-13
 -1      3931 1.39694E+01-1.91683E-01 1.25538E-02-2.93874E+00-1.30653E-13-3.42434E-13
 -1      3932 1.28164E+01 4.91457E-01 1.31741E-02-1.53771E+00-1.02581E-13-3.63116E-13
 -1      3933 1.98826E+01 8.63846E-01 7.10552E-04-8.10522E-01 6.43865E-14-2.13865E-13
 -1      3934 1.99205E+01 9.60122E-01-6.51745E-04-6.74726E-01 1.00658E-13-2.18741E-13
 -1      3935 1.98391E+01 1.13741E+00 6.02909E-04-5.69438E-01 8.39650E-14-2.14086E-13
 -1      3936 1.96427E+01 2.24506E-01 6.61234E-03-1.56881E+00-7.68503E-14-1.94698E-13
 -1      3937 1.96098E+01 3.68748E-01-6.61063E-04-1.44974E+00-2.48066E-14-1.91158E-13
 -1      3938 2.03225E+01-7.59562E-01-1.46491E-02-1.93327E+00-5.54550E-14-4.30665E-14
 -1      3939 2.00000E+01 4.93762E-02 1.01236E-04-1.79590E-02 2.16335E-13-1.25201E-13
 -1      3940 2.06484E+01-1.53070E+00 9.63216E-03-2.26901E+00-9.51210E-14-1.45957E-13
 -1      3941 2.02676E+01-1.09322E+00 1.33884E-02-2.22612E+00-8.78143E-14-1.33550E-13
 -1      3942 2.02309E+01-1.69454E+00-2.47503E-02-2.61563E+00-1.08789E-13-2.43408E-13
 -1      3943 1.99955E+01 4.53499E-02-1.01330E-04-1.22659E-03 1.58293E-13 2.46293E-13
 -1      3944 1.99954E+01 4.54426E-02-7.14596E-05 8.92386E-04 1.89053E-15 9.28844E-14
 -1      3945 1.99941E+01 5.33892E-02 2.43024E-04-3.45597E-03 1.14882E-13 3.38808E-13
 -1      3946 1.97085E+01-1.74328E-01 7.83736E-03-1.84842E+00-6.53734E-14-2.18038E-13
 -1      3947 1.96063E+01 4.49381E-02 8.52892E-04-1.72841E+00-7.16011E-14-2.11883E-13
 -1      3948 1.92701E+01 2.40635E-01-5.28712E-03-1.66062E+00-6.41670E-14-2.10700E-13
 -1      3949 1.95809E+01 1.82911E+00-1.30145E-03 7.79315E-02-3.44356E-15-2.22319E-13
 -1      3950 1.66656E+01-1.77160E+00 6.69207E-02-4.33959E+00-1.98220E-13-2.49554E-13
 -1      3951 1.81435E+01-2.09039E+00 2.52891E-02-4.00396E+00-2.00806E-13-1.83064E-13
 -1      3952 1.58534E+01-1.11129E+00 1.12040E-02-3.81102E+00-1.66941E-13-3.00680E-13
 -1      3953 1.90642E+01 3.53527E-01-5.85213E-04 1.45490E+00-7.08027E-14 6.29270E-14
 -1      3954 2.00033E+01 2.86221E-02-5.99136E-05 9.09804E-03 3.32680E-13 8.33160E-14
 -1      3955 2.00036E+01 3.49378E-02 1.19214E-04 1.32440E-02 7.47129E-14 1.15438E-13
 -1      3956 1.99191E+01-1.69686E+00-3.71645E-02 2.66049E+00-1.06885E-13 1.44502E-13
 -1      3957 1.48567E+01 1.04831E+00 1.19470E-02 9.25779E-01-2.14134E-13 3.77771E-13
 -1      3958 1.49642E+01 1.17768E+00 1.50269E-02 1.57944E-01-1.55278E-13 3.25494E-13
 -1      3959 1.58137E+01 9.60127E-01 1.29859E-02 1.02265E+00-1.97870E-13 2.78404E-13
 -1      3960 1.99959E+01 4.43968E-02-1.41312E-04 3.81369E-03-9.51312E-14-2.56645E-14
 -1      3961 1.99969E+01 4.32643E-02-1.67552E-05 5.68484E-03-4.68121E-14-1.32108E-13
 -1      3962 1.99939E+01 5.33688E-02 2.06104E-04 2.95235E-03-5.89648E-14 8.01798E-14
 -1      3963 1.99981E+01 4.05504E-02-1.50209E-04 7.61344E-03-5.39686E-14-1.37931E-13
 -1      3964 1.99996E+01 3.85057E-02 4.32964E-05 8.57532E-03 5.37514E-14 3.25104E-14
 -1      3965 1.99958E+01 4.96706E-02 9.42364E-05 8.27664E-03-1.80925E-13-1.23157E-13
 -1      3966 2.00006E+01 4.31714E-02 1.00512E-04 1.49179E-02 4.11887E-14-1.87841E-14
 -1      3967 1.66409E+01 3.46588E-01 1.13519E-02 2.33438E+00 1.12874E-13-1.27893E-13
 -1      3968 1.48533E+01 9.90688E-01-2.83142E-02-8.68344E-01 4.88108E-14 4.38980E-13
 -1      3969 1.49717E+01 8.16317E-01 4.09270E-02-1.61256E+00 2.47380E-14 3.45020E-13
 -1      3970 1.99951E+01 5.94691E-02 6.87958E-05-1.85569E-02 2.52621E-13-4.15020E-14
 -1      3971 1.51018E+01 3.47601E-01 3.21784E-02-2.40543E+00 5.64121E-14 1.40880E-13
 -1      3972 1.60575E+01 1.86340E-01 1.67746E-02-2.50021E+00 1.81021E-13 6.46332E-14
 -1      3973 1.63548E+01 5.09440E-01 5.48602E-03-2.12360E+00 9.51503E-14-1.95092E-14
 -1      3974 1.48835E+01 5.80939E-01 2.71683E-03-1.96967E+00 2.50824E-14 2.07189E-13
 -1      3975 1.95813E+01 1.89351E+00-3.03748E-03-5.90631E-02 6.28880E-14-1.73434E-13
 -1      3976 1.95681E+01 1.90197E+00-4.18087E-03-3.60706E-02 1.77489E-14-1.77458E-13
 -1      3977 1.96714E+01 1.79023E+00-3.77248E-03-1.44155E-01 1.23236E-13-1.96652E-13
 -1      3978 1.96161E+01 1.85591E+00-3.23610E-03-1.21160E-01 7.95650E-14-1.72899E-13
 -1      3979 1.95680E+01 1.73703E+00 3.79775E-03-1.25272E-01 6.71370E-14-1.49659E-13
 -1      3980 1.70689E+01 6.72256E-01-9.49346E-03-1.82759E+00 1.16004E-13-3.79798E-14
 -1      3981 2.00276E+01-2.43656E+00 3.08742E-02-3.41371E+00-1.67766E-13-2.10823E-13
 -1      3982 1.70394E+01 1.06146E+00 8.63231E-03-1.08810E+00 7.09493E-14 5.71531E-14
 -1      3983 1.72971E+01 1.08960E+00-1.47837E-02-9.60056E-01 8.35872E-14 1.04368E-13
 -1      3984 1.99093E+01 1.46776E+00-2.96001E-06-2.76307E-01 1.42372E-13-2.45493E-13
 -1      3985 2.00237E+01 1.41597E+00-2.04046E-04-2.26865E-01 1.35567E-13-2.48047E-13
 -1      3986 1.84832E+01-3.80273E-01 1.06951E-03 2.30457E+00-1.84442E-14 1.26513E-13
 -1      3987 1.72585E+01 3.68468E-02 3.91445E-02 2.42860E+00-1.23979E-13 1.94097E-13
 -1      3988 1.66688E+01 4.39620E-01-2.82087E-02 1.88488E+00-1.73097E-13 2.46655E-13
 -1      3989 1.83255E+01-5.50628E-02-1.71240E-02 2.06351E+00-8.71211E-14 9.22462E-14
 -1      3990 1.83991E+01 1.15343E+00-8.19248E-03 7.90423E-01 5.95563E-14-1.18665E-13
 -1      3991 1.81507E+01 1.12751E+00-2.02799E-03 8.90447E-01 6.96471E-14-1.18863E-13
 -1      3992 1.77834E+01 1.08702E+00-1.20189E-02 9.73129E-01 7.44154E-14-1.31327E-13
 -1      3993 1.74837E+01 1.04079E+00-1.09357E-04 1.10474E+00 9.65233E-14-1.30750E-13
 -1      3994 1.77951E+01 1.21493E+00 1.38522E-02 6.52377E-01 7.68790E-14-1.00018E-13
 -1      3995 1.69952E+01 9.64559E-01-1.72018E-02 1.22757E+00 1.06244E-13-1.33473E-13
 -1      3996 1.66404E+01 8.73609E-01 6.62795E-03 1.42051E+00 1.07310E-13-1.33223E-13
 -1      3997 1.69803E+01 1.15514E+00 1.98607E-02 8.08133E-01 8.80977E-14-8.54271E-14
 -1      3998 1.97737E+01 6.87239E-01 2.26796E-03-1.06035E+00 2.11719E-14-1.87770E-13
 -1      3999 1.98059E+01 7.73574E-01-8.94701E-04-9.34992E-01 4.41709E-14-2.04953E-13
 -1      4000 1.97017E+01 9.29309E-01-3.15492E-04-8.23565E-01 3.98672E-14-1.91460E-13
 -1      4001 1.84676E+01 3.64141E-01-1.18009E-02 1.60180E+00-1.82465E-13 4.88131E-14
 -1      4002 1.85013E+01 1.91272E-01 9.42384E-03 1.79347E+00-2.23659E-13 9.37344E-14
 -1      4003 1.77971E+01 3.97767E-01 1.65989E-02 1.82406E+00-1.86477E-13 2.36963E-13
 -1      4004 1.95207E+01 1.70211E+00-1.10680E-04 6.45588E-02 1.61463E-14-1.80174E-13
 -1      4005 2.00156E+01-7.49269E-01 8.10070E-03-2.09942E+00-9.46898E-14-1.27900E-13
 -1      4006 1.98070E+01-4.26584E-01 5.98250E-03-1.99516E+00-6.39737E-14-1.95186E-13
 -1      4007 1.93110E+01-2.06354E-01-1.34979E-02-1.99829E+00-8.14404E-14-2.34884E-13
 -1      4008 1.96183E+01-8.25251E-01-1.99369E-02-2.31711E+00-9.74850E-14-2.37233E-13
 -1      4009 1.82011E+01 1.09312E+00-1.74778E-03-7.04118E-01-1.01887E-13 2.05370E-14
 -1      4010 1.83969E+01 1.05962E+00-6.53144E-03-6.29859E-01-4.25806E-14 2.58213E-14
 -1      4011 1.86178E+01 1.02000E+00-1.73119E-03-5.81793E-01-5.04609E-15-1.77248E-14
 -1      4012 1.87746E+01 9.70181E-01-4.82043E-03-5.21924E-01-6.54554E-14 4.45518E-14
 -1      4013 1.83892E+01 1.10225E+00 8.26066E-03-4.34076E-01-6.39947E-14-7.76395E-14
 -1      4014 1.89473E+01 9.17342E-01-1.50333E-03-4.82209E-01-1.46070E-13 3.97427E-15
 -1      4015 1.90718E+01 8.59403E-01-3.70061E-03-4.31649E-01-1.72869E-13 1.41918E-13
 -1      4016 1.87692E+01 9.94855E-01 6.21072E-03-3.66407E-01-2.01374E-14 1.19929E-13
 -1      4017 1.92071E+01 8.01224E-01-1.19641E-03-3.97469E-01-2.21250E-13 2.07413E-13
 -1      4018 1.93047E+01 7.41219E-01-2.92125E-03-3.53798E-01-1.33322E-13 2.01058E-13
 -1      4019 1.90674E+01 8.73632E-01 4.76982E-03-3.07948E-01-1.27719E-13 9.22715E-14
 -1      4020 1.94106E+01 6.82913E-01-8.83888E-04-3.23926E-01-1.15279E-13 1.58727E-13
 -1      4021 1.94862E+01 6.24879E-01-2.34808E-03-2.86112E-01 2.89333E-14 4.01854E-14
 -1      4022 1.93011E+01 7.49333E-01 3.71132E-03-2.55587E-01-1.84472E-13 2.68001E-13
 -1      4023 1.95687E+01 5.69810E-01-6.18009E-04-2.60146E-01 1.33827E-13 5.48333E-14
 -1      4024 1.96265E+01 5.16291E-01-1.90074E-03-2.27706E-01 1.23472E-13 1.83728E-13
 -1      4025 1.94834E+01 6.29326E-01 2.89777E-03-2.08657E-01 1.01148E-13 3.70552E-14
 -1      4026 1.96900E+01 4.66436E-01-4.09399E-04-2.05470E-01 7.07727E-14 2.11114E-13
 -1      4027 1.97336E+01 4.18826E-01-1.53607E-03-1.78061E-01 5.47521E-14 3.05429E-13
 -1      4028 1.96243E+01 5.18495E-01 2.25531E-03-1.67234E-01 9.35703E-14-6.19367E-15
 -1      4029 1.97820E+01 3.75141E-01-2.54487E-04-1.59372E-01-1.59558E-13 2.27259E-13
 -1      4030 1.98143E+01 3.33994E-01-1.23209E-03-1.36617E-01-2.52182E-13 2.19305E-13
 -1      4031 1.97321E+01 4.19641E-01 1.74259E-03-1.31435E-01-5.73545E-14 2.10778E-15
 -1      4032 1.98506E+01 2.96717E-01-1.44739E-04-1.21219E-01-2.37495E-13 2.59202E-13
 -1      4033 1.98741E+01 2.62007E-01-9.77301E-04-1.02672E-01-1.69564E-13 2.53958E-13
 -1      4034 1.98134E+01 3.33950E-01 1.33317E-03-1.01192E-01-2.44713E-13 6.35226E-14
 -1      4035 1.99010E+01 2.30907E-01-7.04738E-05-9.02364E-02-5.20066E-15 1.95832E-13
 -1      4036 1.99177E+01 2.02233E-01-7.64826E-04-7.53931E-02 4.47443E-14 1.68442E-13
 -1      4037 1.98737E+01 2.61445E-01 1.00795E-03-7.62067E-02-8.37871E-14 2.76401E-13
 -1      4038 1.99371E+01 1.76791E-01-2.26068E-05-6.55453E-02 5.66273E-14 1.75531E-13
 -1      4039 1.99487E+01 1.53537E-01-5.89884E-04-5.38824E-02 8.69263E-14 2.96902E-13
 -1      4040 1.99176E+01 2.01377E-01 7.51667E-04-5.60055E-02 9.26444E-14 9.59080E-14
 -1      4041 1.99624E+01 1.33084E-01 7.59248E-06-4.62349E-02-4.32541E-14 2.28802E-13
 -1      4042 1.99702E+01 1.14511E-01-4.55989E-04-3.72391E-02-1.09298E-13 1.48000E-13
 -1      4043 1.99488E+01 1.52527E-01 5.48842E-04-4.00085E-02-3.62690E-14 2.00946E-13
 -1      4044 1.99796E+01 9.84329E-02 6.36856E-05-3.14443E-02-4.39007E-14 1.80071E-13
 -1      4045 1.99843E+01 8.36053E-02-4.16909E-04-2.46189E-02-1.62193E-14 1.07277E-13
 -1      4046 1.99703E+01 1.13359E-01 3.60197E-04-2.76439E-02-9.75937E-14 6.95377E-14
 -1      4047 1.94411E+01 6.26433E-01-2.99112E-03 5.09094E-01-1.36929E-14 4.08821E-13
 -1      4048 1.93860E+01 6.60307E-01 1.02185E-03 5.75252E-01 5.19227E-14 3.32810E-13
 -1      4049 1.92850E+01 6.85217E-01-3.60307E-03 6.45769E-01 9.72029E-14 3.20563E-13
 -1      4050 1.92249E+01 7.05198E-01 1.69725E-03 7.26208E-01 4.18421E-14 2.64895E-13
 -1      4051 1.92186E+01 7.38913E-01 2.74399E-03 5.41360E-01 1.45253E-14 3.42911E-13
 -1      4052 1.92507E+01 1.29481E+00-4.95899E-03 4.92305E-01-8.08509E-15-1.18315E-13
 -1      4053 1.90969E+01 1.24958E+00-2.15433E-03 5.79151E-01 1.15155E-14-1.33157E-13
 -1      4054 2.00015E+01 3.25214E-02-1.17156E-04 8.72681E-03 1.93287E-13 1.60637E-13
 -1      4055 2.01827E+01 1.14837E+00-3.36045E-04-2.69494E-01 1.42248E-13-2.47905E-13
 -1      4056 2.01259E+01 1.26691E+00 6.07565E-05-2.39162E-01 1.47568E-13-2.27187E-13
 -1      4057 1.58685E+01 4.88827E-01 1.71440E-02 2.06694E+00 9.00803E-14-1.58352E-13
 -1      4058 1.48523E+01 6.61306E-01 2.64869E-02 1.79197E+00 4.89036E-14-1.79412E-13
 -1      4059 1.60877E+01 7.17108E-01-2.16728E-02 1.68757E+00 9.52529E-14-1.27394E-13
 -1      4060 1.91070E+01 7.10173E-01-4.36310E-03 8.15894E-01-1.15270E-14 2.36571E-13
 -1      4061 1.90471E+01 7.05424E-01 2.61344E-03 9.14489E-01-2.87613E-14 1.95784E-13
 -1      4062 1.90093E+01 7.88812E-01 2.94141E-03 6.93386E-01 8.09614E-15 2.15914E-13
 -1      4063 1.95730E+01 5.50690E-01-2.48111E-03 3.98498E-01-1.75574E-13 3.99130E-13
 -1      4064 1.95254E+01 5.90993E-01 6.42282E-04 4.53012E-01-4.46185E-14 4.56140E-13
 -1      4065 1.93957E+01 6.63034E-01 2.43100E-03 4.22010E-01-3.77737E-14 4.90510E-13
 -1      4066 1.96812E+01 4.69409E-01-2.04750E-03 3.08901E-01 2.75493E-14 2.87076E-13
 -1      4067 1.96419E+01 5.11099E-01 4.29688E-04 3.53678E-01-1.24911E-13 2.88808E-13
 -1      4068 1.95419E+01 5.75507E-01 2.08056E-03 3.27257E-01-2.57791E-14 3.41656E-13
 -1      4069 1.97678E+01 3.89984E-01-1.67449E-03 2.36587E-01-9.05115E-14 2.46631E-13
 -1      4070 1.97364E+01 4.29854E-01 3.10544E-04 2.73103E-01 5.03797E-14 3.08209E-13
 -1      4071 1.96601E+01 4.86093E-01 1.73292E-03 2.51698E-01-1.26972E-14 2.94514E-13
 -1      4072 1.98354E+01 3.16837E-01-1.35351E-03 1.78644E-01-1.64785E-13 2.90635E-13
 -1      4073 1.98111E+01 3.53029E-01 2.41799E-04 2.08127E-01-1.57530E-13 2.80500E-13
 -1      4074 1.97536E+01 4.01059E-01 1.40965E-03 1.91499E-01-1.45866E-13 3.78325E-13
 -1      4075 1.98870E+01 2.52254E-01-1.07942E-03 1.32664E-01-1.02112E-14 3.22713E-13
 -1      4076 1.98687E+01 2.83870E-01 1.99021E-04 1.56190E-01-7.29386E-14 3.25058E-13
 -1      4077 1.98260E+01 3.24050E-01 1.12199E-03 1.43767E-01-3.60386E-14 4.29954E-13
 -1      4078 1.99254E+01 1.97056E-01-8.48165E-04 9.65947E-02-1.68315E-13 4.50747E-13
 -1      4079 1.99121E+01 2.23854E-01 1.69019E-04 1.15124E-01-3.63773E-14 4.10030E-13
 -1      4080 1.98809E+01 2.56822E-01 8.74742E-04 1.06211E-01-6.30507E-14 4.86633E-13
 -1      4081 1.99532E+01 1.51106E-01-6.56184E-04 6.86587E-02 1.30908E-13 1.61627E-13
 -1      4082 1.99438E+01 1.73264E-01 1.45293E-04 8.30473E-02 8.73167E-15 3.88153E-13
 -1      4083 1.99216E+01 1.99826E-01 6.68246E-04 7.69529E-02 4.32463E-14 3.07942E-13
 -1      4084 1.99727E+01 1.13672E-01-5.05851E-04 4.73256E-02 1.09813E-14 2.10919E-13
 -1      4085 1.99664E+01 1.31628E-01 1.25788E-04 5.83299E-02 5.99087E-14 9.97618E-14
 -1      4086 1.99509E+01 1.52659E-01 4.98251E-04 5.44151E-02 1.29855E-13 2.72532E-13
 -1      4087 1.99858E+01 8.37867E-02-3.83800E-04 3.12825E-02-2.39001E-13 2.62822E-13
 -1      4088 1.99818E+01 9.81106E-02 1.28255E-04 3.96101E-02-1.36315E-13 2.13631E-13
 -1      4089 1.99714E+01 1.14377E-01 3.55859E-04 3.73249E-02-7.73801E-14 4.69811E-13
 -1      4090 1.99943E+01 6.02485E-02-2.28348E-04 1.94512E-02-2.30605E-13-1.09275E-13
 -1      4091 1.99919E+01 7.14407E-02 1.10480E-04 2.56287E-02-1.92662E-13 1.55008E-13
 -1      4092 1.99850E+01 8.38397E-02 1.98149E-04 2.45781E-02-1.53201E-13 2.51723E-13
 -1      4093 1.95029E+01 1.42850E+00-4.06169E-03 3.47630E-01-1.84902E-14-1.68991E-13
 -1      4094 1.93882E+01 1.34987E+00-2.42661E-03 4.40875E-01-4.83717E-16-1.25889E-13
 -1      4095 1.92381E+01 1.40832E+00 1.02786E-02 3.44317E-01-3.10380E-15-1.49596E-13
 -1      4096 1.94663E+01 1.54256E+00 8.96064E-03 2.52611E-01 1.30160E-14-1.81322E-13
 -1      4097 1.89141E+01 6.77999E-01-5.19128E-03 1.02877E+00-7.94180E-14 1.81197E-13
 -1      4098 1.88617E+01 6.33870E-01 3.51145E-03 1.15236E+00-1.19904E-13 1.51912E-13
 -1      4099 1.87712E+01 7.91903E-01 3.47428E-03 8.90644E-01-8.81515E-14 1.45597E-13
 -1      4100 1.86928E+01 5.78367E-01-7.32727E-03 1.27802E+00-1.26894E-13 1.66129E-13
 -1      4101 1.86658E+01 4.77812E-01 5.11497E-03 1.43260E+00-1.09072E-13 1.10037E-13
 -1      4102 1.81483E+01 6.49649E-01 1.18869E-02 1.39845E+00-1.95722E-13 1.38102E-13
 -1      4103 1.84911E+01 7.50129E-01 7.30118E-03 1.12133E+00-1.25831E-13 1.98862E-13
 -1      4104 1.55033E+01 1.11033E+00 1.80641E-03-4.46738E-01-3.39425E-14 3.04308E-13
 -1      4105 1.76739E+01 1.11703E+00-7.37419E-04-8.63847E-01 1.08585E-13 3.89158E-15
 -1      4106 1.79150E+01 1.10904E+00-9.47455E-03-7.65972E-01 5.59990E-16 4.82788E-14
 -1      4107 1.79053E+01 1.18397E+00 1.25214E-02-5.17186E-01 3.57426E-14-1.21737E-13
 -1      4108 1.72708E+01 1.23007E+00 1.97504E-02-6.39010E-01-2.12173E-14 1.30819E-14
 -1      4109 1.99900E+01 7.28742E-02 2.47119E-04-1.94951E-02 5.45401E-14 1.66298E-13
 -1      4110 1.99929E+01 5.83595E-02-2.48072E-04-1.23156E-02 1.64231E-13 2.02219E-13
 -1      4111 1.99913E+01 6.11851E-02-1.47822E-04-9.54771E-03 1.02671E-13 2.63394E-13
 -1      4112 1.99834E+01 8.40221E-02 1.65913E-04-1.72786E-02 3.81070E-14 1.82524E-13
 -1      4113 1.96811E+01 4.91707E-01 4.14482E-03-1.30915E+00 1.50539E-14-2.06868E-13
 -1      4114 1.96919E+01 5.93319E-01-9.99855E-04-1.18893E+00 2.15949E-14-1.83802E-13
 -1      4115 1.95418E+01 7.46628E-01-7.16810E-04-1.07873E+00 3.27420E-14-1.94345E-13
 -1      4116 1.93862E+01 5.36569E-01-1.63357E-03-1.35157E+00 3.06915E-15-1.71958E-13
 -1      4117 1.56872E+01 7.17869E-01 1.59894E-03-1.77289E+00 6.33679E-14 1.26749E-13
 -1      4118 1.94571E+01 1.66783E+00 5.27954E-03-7.31881E-02 5.74996E-14-1.17116E-13
 -1      4119 1.94314E+01 1.58846E+00-5.03985E-03 6.40984E-02 3.17835E-14-1.76183E-13
 -1      4120 1.93304E+01 1.50309E+00-6.11142E-03 1.03401E-01 4.69587E-14-1.58568E-13
 -1      4121 1.98230E+01 1.58516E+00-2.82900E-03-2.22094E-01 1.36366E-13-2.34625E-13
 -1      4122 1.97337E+01 1.69857E+00-1.90992E-03-2.02300E-01 1.22574E-13-2.24316E-13
 -1      4123 1.96737E+01 1.60000E+00 4.92194E-03-2.54682E-01 9.96526E-14-1.87890E-13
 -1      4124 1.98169E+01 1.38149E+00 3.30266E-03-3.78774E-01 1.11777E-13-2.27681E-13
 -1      4125 1.88801E+01 1.21001E+00-6.19679E-03 6.39617E-01 4.06931E-14-1.35722E-13
 -1      4126 1.86818E+01 1.18248E+00-2.19518E-03 7.27116E-01 4.05303E-14-1.52739E-13
 -1      4127 1.89009E+01 1.31368E+00 1.02873E-02 4.36528E-01 1.20925E-14-1.41950E-13
 -1      4128 1.63521E+01 6.81873E-01 8.32168E-03-1.82382E+00 8.82835E-14 5.01029E-14
 -1      4129 1.89673E+01-2.05398E+00-3.25897E-03-3.63441E+00-1.56494E-13-2.11954E-13
 -1      4130 1.98985E+01-1.78222E+00 2.03549E-02-2.93326E+00-1.01575E-13-2.20776E-13
 -1      4131 1.94746E+01-1.24140E+00 2.06531E-02-2.75946E+00-1.03033E-13-2.28689E-13
 -1      4132 1.81029E+01-1.40325E+00 6.57112E-03-3.44080E+00-1.38873E-13-2.27873E-13
 -1      4133 1.64303E+01 9.03582E-01-1.05859E-02-1.47608E+00 1.16020E-13 1.28948E-13
 -1      4134 1.99994E+01 4.08508E-02-6.89845E-05 1.05497E-02 1.20644E-13-4.13923E-14
 -1      4135 1.62867E+01 1.11678E+00 1.51805E-02-1.05198E+00 4.52034E-14 1.47756E-13
 -1      4136 1.71366E+01 5.96146E-01-1.03368E-03 1.61065E+00-1.78056E-13 2.44266E-13
 -1      4137 1.64109E+01 9.03276E-01 2.77193E-02 1.32159E+00-2.49069E-13 2.23310E-13
 -1      4138 1.72987E+01 7.32240E-01-2.40594E-02 1.35481E+00-1.79725E-13 2.11525E-13
 -1      4139 1.84200E+01 1.25299E+00 1.03392E-02 5.37674E-01 7.10853E-14-1.60449E-13
 -1      4140 1.31574E+01 8.55843E-01 7.33523E-02-6.38766E-01-6.96004E-14-3.31950E-13
 -1      4141 1.36947E+01 6.34886E-01 5.28456E-03-1.34388E+00-1.03179E-13-3.07514E-13
 -1      4142 1.37531E+01 8.84247E-01 2.06424E-02 1.64071E-01-5.04857E-14-3.43937E-13
 -1      4143 1.99897E+01 6.29748E-02-1.82303E-04-4.83744E-03 1.57536E-13 2.44665E-13
 -1      4144 1.99892E+01 6.39373E-02-9.60301E-05-1.44072E-03 1.62112E-13 2.69534E-13
 -1      4145 1.99867E+01 7.40814E-02 2.31154E-04-7.83490E-03 8.36189E-14 3.02061E-13
 -1      4146 1.52113E+01-4.60534E-01 6.49399E-02-3.35465E+00-1.51845E-13-3.54732E-13
 -1      4147 1.64978E+01-8.95644E-01 2.24446E-02-3.44593E+00-1.39234E-13-2.68917E-13
 -1      4148 1.46241E+01-2.99902E-02-6.99871E-03-2.69047E+00-1.13061E-13-3.23543E-13
 -1      4149 1.61732E+01 1.19952E+00-1.43352E-02-1.39910E-01-1.44108E-13 2.05558E-13
 -1      4150 1.45057E+01 8.41925E-01-2.44110E-03 1.13080E+00 2.59200E-14-2.78300E-13
 -1      4151 1.99981E+01 4.91953E-02 2.56030E-05 1.48785E-02-1.16271E-13-2.14868E-13
 -1      4152 1.99940E+01 5.84444E-02 9.98688E-05 1.45144E-02-1.27784E-13-2.61230E-13
 -1      4153 1.61899E+01 1.04305E+00-1.82833E-02 8.29318E-01-1.52962E-13 1.44821E-13
 -1      4154 1.99893E+01 6.33955E-02-1.84010E-04 3.70536E-03 8.32293E-14 3.23185E-13
 -1      4155 1.99905E+01 6.24164E-02-1.55191E-05 7.12055E-03-1.16133E-14-1.28934E-13
 -1      4156 1.99851E+01 7.50083E-02 3.08192E-05 2.97303E-03 1.43603E-13 2.78922E-13
 -1      4157 1.91010E+01 6.18785E-01 4.98049E-03-1.32509E+00-1.21937E-14-1.82599E-13
 -1      4158 1.91662E+01 7.23130E-01-3.89483E-03-1.18270E+00 2.33899E-14-1.81813E-13
 -1      4159 1.99919E+01 6.09495E-02-1.04166E-04 1.20694E-02-1.39294E-13-1.40334E-13
 -1      4160 1.59896E+01 1.00588E+00 2.31810E-02 1.13813E+00 8.35732E-14-1.71355E-13
 -1      4161 1.96800E+01 1.13987E+00 2.06682E-03-6.13724E-01 5.18555E-14-1.91513E-13
 -1      4162 1.97362E+01 1.24655E+00-2.58613E-03-4.87441E-01 8.38143E-14-2.01784E-13
 -1      4163 1.96560E+01 1.37054E+00 8.14440E-04-4.22765E-01 7.20231E-14-1.80374E-13
 -1      4164 1.94799E+01 1.61324E+00-3.94567E-03-1.50813E-01 7.52725E-14-1.29660E-13
 -1      4165 1.89114E+01 3.36535E-01 9.02492E-03-1.66120E+00-4.16967E-14-2.43191E-13
 -1      4166 1.89363E+01 4.88896E-01-4.83448E-03-1.49332E+00-1.99764E-14-2.15931E-13
 -1      4167 1.87241E+01 6.92523E-01 1.15051E-03-1.31611E+00 2.59660E-14-2.11459E-13
 -1      4168 1.99881E+01 7.25972E-02 1.64956E-04 1.37008E-02-7.23291E-14-5.72075E-14
 -1      4169 1.78471E+01 1.22133E+00-8.98833E-03 3.10211E-01 1.04629E-13-1.15027E-13
 -1      4170 1.74934E+01 1.20041E+00-5.65455E-03 3.52350E-01 6.88069E-14-9.27168E-14
 -1      4171 1.94960E+01 9.55733E-01 2.51086E-03-8.46285E-01 9.42635E-15-2.05481E-13
 -1      4172 1.95700E+01 1.04019E+00-2.26918E-03-7.22461E-01 2.75559E-14-2.02462E-13
 -1      4173 1.94715E+01 1.15536E+00 5.19964E-04-6.35244E-01 2.90628E-14-1.91730E-13
 -1      4174 1.70399E+01 1.16143E+00-1.42986E-02 3.40770E-01 2.55046E-14-8.53506E-14
 -1      4175 1.65729E+01 1.13487E+00-6.25804E-03 3.93148E-01 5.90558E-14-1.53110E-13
 -1      4176 1.72598E+01 1.22595E+00 2.11469E-02-3.38370E-02 4.06375E-14-1.23760E-13
 -1      4177 1.91595E+01 7.63989E-01-4.42298E-03 4.13689E-01-3.58113E-14 3.24544E-13
 -1      4178 1.90676E+01 8.06303E-01 5.75994E-04 4.74355E-01-2.21758E-14 3.23443E-13
 -1      4179 1.84507E+01 1.26059E+00-1.08982E-02 2.68134E-01 4.28668E-14-1.35082E-13
 -1      4180 1.81797E+01 1.24282E+00-7.68316E-03 3.06235E-01 8.86186E-14-1.31957E-13
 -1      4181 1.79936E+01 1.28421E+00 1.74812E-02 2.46557E-02 8.65489E-14-1.07977E-13
 -1      4182 1.81886E+01 1.12375E+00-5.42018E-03-2.49434E-01 1.99648E-14-3.40676E-14
 -1      4183 1.84096E+01 1.07730E+00-4.57898E-03-2.26530E-01 6.05772E-14 3.32285E-14
 -1      4184 1.86113E+01 1.02348E+00-4.35755E-03-2.23995E-01-2.68687E-15 4.46935E-15
 -1      4185 1.87843E+01 9.67086E-01-3.50658E-03-2.03490E-01-5.20974E-14 8.11736E-14
 -1      4186 1.84897E+01 1.07933E+00 1.12657E-02-4.74793E-02 3.92570E-14 5.66593E-15
 -1      4187 1.89424E+01 9.07079E-01-3.25455E-03-1.97956E-01-1.37558E-13 3.05486E-14
 -1      4188 1.90777E+01 8.46240E-01-2.74533E-03-1.78371E-01-1.76217E-13 6.35525E-14
 -1      4189 1.88433E+01 9.63344E-01 8.78013E-03-6.21035E-02-1.33089E-13-2.12743E-14
 -1      4190 1.92024E+01 7.84464E-01-2.44004E-03-1.71004E-01-1.96500E-13 1.92651E-13
 -1      4191 1.93080E+01 7.23598E-01-2.19437E-03-1.52275E-01-8.64322E-14 2.33376E-13
 -1      4192 1.91219E+01 8.39332E-01 6.91884E-03-6.60627E-02-9.49031E-14 1.64270E-13
 -1      4193 1.94060E+01 6.63710E-01-1.82826E-03-1.44147E-01-3.13175E-15 2.21061E-13
 -1      4194 1.94879E+01 6.05972E-01-1.77003E-03-1.26671E-01 9.88278E-14 1.37336E-13
 -1      4195 1.93414E+01 7.15314E-01 5.47212E-03-6.33522E-02-6.20593E-14 3.04517E-13
 -1      4196 1.95644E+01 5.50468E-01-1.36385E-03-1.18576E-01 1.40291E-13 1.62469E-13
 -1      4197 1.96274E+01 4.97871E-01-1.42663E-03-1.02764E-01 9.02329E-14 2.07881E-13
 -1      4198 1.95132E+01 5.97398E-01 4.31577E-03-5.68393E-02 9.29919E-14 2.81960E-13
 -1      4199 1.96864E+01 4.48219E-01-1.01011E-03-9.52323E-02-9.13115E-14 2.54992E-13
 -1      4200 1.97341E+01 4.01832E-01-1.14102E-03-8.13536E-02-1.84818E-13 1.39863E-13
 -1      4201 1.96465E+01 4.89630E-01 3.37841E-03-4.85535E-02 1.24852E-14 4.34600E-13
 -1      4202 1.97791E+01 3.58685E-01-7.41257E-04-7.46938E-02-1.79800E-13 1.57903E-13
 -1      4203 1.98148E+01 3.18866E-01-9.01648E-04-6.28508E-02-1.93159E-13 2.01292E-13
 -1      4204 1.97485E+01 3.94263E-01 2.61618E-03-3.98620E-02-1.09806E-13 2.76366E-13
 -1      4205 1.98484E+01 2.82285E-01-5.38013E-04-5.71948E-02-1.23883E-13 2.48311E-13
 -1      4206 1.98746E+01 2.48887E-01-7.02171E-04-4.73456E-02 5.30003E-14 2.05193E-13
 -1      4207 1.98255E+01 3.12129E-01 1.99908E-03-3.16153E-02-7.42353E-14 1.98465E-13
 -1      4208 1.98994E+01 2.18532E-01-3.85353E-04-4.27023E-02 5.04353E-15 9.19738E-14
 -1      4209 1.99182E+01 1.91085E-01-5.37951E-04-3.47019E-02 3.11028E-14 6.24272E-14
 -1      4210 1.98826E+01 2.43028E-01 1.50328E-03-2.42816E-02-7.39923E-14 2.18297E-13
 -1      4211 1.99360E+01 1.66374E-01-2.70675E-04-3.09982E-02 1.05078E-13-1.12840E-13
 -1      4212 1.99492E+01 1.44213E-01-4.03058E-04-2.46408E-02-5.58344E-14 6.64421E-15
 -1      4213 1.99239E+01 1.86072E-01 1.10347E-03-1.80677E-02-1.38978E-14-1.43368E-14
 -1      4214 1.99616E+01 1.24489E-01-1.62485E-04-2.17273E-02-1.22831E-13 6.65263E-14
 -1      4215 1.99704E+01 1.06832E-01-3.42639E-04-1.68817E-02-4.06645E-14 1.16075E-13
 -1      4216 1.99531E+01 1.39891E-01 7.39053E-04-1.30185E-02-4.33363E-14-2.67459E-14
 -1      4217 1.95148E+01 5.77163E-01-2.75565E-03 2.43580E-01 9.45973E-15 3.07601E-13
 -1      4218 1.94515E+01 6.27186E-01 4.53713E-05 2.81746E-01 1.14172E-13 3.90643E-13
 -1      4219 1.93558E+01 6.73588E-01-3.47261E-03 3.18126E-01-3.08696E-14 4.34450E-13
 -1      4220 1.92785E+01 7.22305E-01 2.27155E-04 3.66016E-01-4.84114E-14 4.23388E-13
 -1      4221 1.91549E+01 8.00046E-01 7.30478E-03 3.06028E-01-5.94488E-14 2.45891E-13
 -1      4222 1.93571E+01 6.95481E-01 5.87183E-03 2.31355E-01 1.08139E-13 2.46921E-13
 -1      4223 1.86331E+01 8.75841E-01-7.89697E-03 7.00365E-01-4.17186E-14 5.84964E-14
 -1      4224 1.85062E+01 8.75091E-01-1.95889E-03 8.06749E-01-5.32959E-14 8.99351E-14
 -1      4225 1.99770E+01 9.60643E-02 1.12141E-04-1.40845E-02 2.94387E-14 1.66850E-13
 -1      4226 1.99817E+01 8.29918E-02-2.20321E-04-9.62858E-03 1.05857E-13 1.42567E-13
 -1      4227 1.99809E+01 8.51049E-02 1.12791E-04-4.12499E-03 1.91848E-13 2.01208E-13
 -1      4228 1.99707E+01 1.07773E-01 4.90600E-04-8.13891E-03 5.13606E-15 1.50444E-13
 -1      4229 1.89208E+01 8.36700E-01-5.76426E-03 5.37462E-01-4.07672E-14 2.61653E-13
 -1      4230 1.88144E+01 8.65256E-01 1.04788E-03 6.15758E-01-4.02327E-14 1.08079E-13
 -1      4231 1.85999E+01 9.64015E-01 1.09526E-02 5.38365E-01-6.84000E-14-9.70884E-14
 -1      4232 1.89053E+01 8.94015E-01 9.01760E-03 4.05164E-01-7.41699E-14 6.96310E-14
 -1      4233 1.96416E+01 4.82639E-01-2.19206E-03 1.85139E-01-3.02944E-14 2.74520E-13
 -1      4234 1.95910E+01 5.30560E-01-3.29087E-05 2.15651E-01-7.87626E-14 1.37565E-13
 -1      4235 1.95192E+01 5.89765E-01 4.68905E-03 1.74510E-01 6.26956E-14 1.42154E-13
 -1      4236 1.97410E+01 3.94995E-01-1.73790E-03 1.39307E-01-1.39885E-13 1.57643E-13
 -1      4237 1.97014E+01 4.38738E-01-5.39274E-05 1.63657E-01-7.14241E-14 1.97928E-13
 -1      4238 1.96471E+01 4.89258E-01 3.71061E-03 1.30940E-01-7.95608E-14-7.30122E-14
 -1      4239 1.98175E+01 3.16975E-01-1.36776E-03 1.03485E-01-8.53266E-14 1.83787E-13
 -1      4240 1.97872E+01 3.55467E-01-4.70541E-05 1.22811E-01-1.45203E-13 1.05816E-13
 -1      4241 1.97466E+01 3.97859E-01 2.90160E-03 9.74431E-02-1.48471E-13-5.35809E-14
 -1      4242 1.98752E+01 2.49710E-01-1.06582E-03 7.56599E-02-4.25967E-14 2.92104E-13
 -1      4243 1.98526E+01 2.82596E-01-2.94932E-05 9.08739E-02-4.00380E-14 3.38318E-13
 -1      4244 1.98227E+01 3.17568E-01 2.23691E-03 7.17044E-02-1.36626E-13 5.83990E-14
 -1      4245 1.99177E+01 1.93226E-01-8.21147E-04 5.42314E-02 6.97801E-14 3.91213E-13
 -1      4246 1.99013E+01 2.20637E-01-1.05699E-05 6.60876E-02-4.23789E-14 3.25838E-13
 -1      4247 1.98796E+01 2.49007E-01 1.69658E-03 5.19983E-02-7.75040E-14 2.26663E-13
 -1      4248 1.99483E+01 1.46853E-01-6.19173E-04 3.78988E-02 4.77163E-14 5.19601E-13
 -1      4249 1.99367E+01 1.69220E-01 5.80975E-06 4.70325E-02 1.39947E-13 5.01077E-13
 -1      4250 1.99213E+01 1.91851E-01 1.26192E-03 3.70100E-02-1.71521E-14 3.31033E-13
 -1      4251 1.99696E+01 1.09458E-01-4.88086E-04 2.56420E-02 7.16227E-14 3.42373E-13
 -1      4252 1.99617E+01 1.27400E-01 1.35787E-05 3.24923E-02 6.60042E-14 5.67879E-13
 -1      4253 1.99511E+01 1.45185E-01 8.97822E-04 2.56980E-02 4.39860E-15 4.65198E-13
 -1      4254 1.99826E+01 8.27620E-02-2.67495E-04 1.67193E-02-4.82787E-14 1.22081E-13
 -1      4255 1.99774E+01 9.71390E-02 1.19319E-04 2.17433E-02 8.80522E-14 3.30121E-13
 -1      4256 1.99698E+01 1.10808E-01 5.84494E-04 1.71421E-02 2.09348E-13 3.05824E-13
 -1      4257 1.99816E+01 8.51527E-02 2.30301E-04 1.09506E-02 1.26721E-13 2.22934E-13
 -1      4258 1.92104E+01 1.42965E+00-6.31477E-03 9.33771E-02 4.98698E-14-1.42751E-13
 -1      4259 1.90770E+01 1.37816E+00-4.76160E-03 1.24489E-01 3.58941E-14-1.17594E-13
 -1      4260 1.92640E+01 1.49618E+00 9.79533E-03-1.06275E-01 6.78849E-14-8.32023E-14
 -1      4261 1.95766E+01 1.45413E+00-4.06171E-03-3.30012E-01 6.30684E-14-1.70709E-13
 -1      4262 1.95271E+01 1.55523E+00 1.98090E-03-2.62004E-01 5.90607E-14-1.50541E-13
 -1      4263 1.95069E+01 1.34432E+00 2.66603E-03-4.29140E-01 4.13645E-14-1.66348E-13
 -1      4264 1.76653E+01 7.98101E-01-3.45583E-03 1.20771E+00-1.54742E-13 1.52195E-13
 -1      4265 1.71920E+01 1.03947E+00 2.79415E-02 9.59676E-01-8.73344E-14 6.49496E-14
 -1      4266 1.78551E+01 8.40408E-01-1.56082E-02 1.06660E+00-1.08735E-13 1.21503E-13
 -1      4267 1.63865E+01 1.22343E+00 2.22096E-02 3.05276E-01-8.50760E-14 6.02673E-14
 -1      4268 1.68527E+01 1.21843E+00-1.21319E-02-2.73673E-01-6.11545E-14 1.70626E-13
 -1      4269 1.72374E+01 1.21047E+00-1.03472E-02-2.30708E-01-4.23254E-14 1.54436E-13
 -1      4270 1.68402E+01 1.11295E+00-4.69771E-03 5.93607E-01-1.06532E-13 2.54527E-15
 -1      4271 1.88947E+01 1.32574E+00-8.62069E-03 1.68680E-01 2.28492E-14-1.11413E-13
 -1      4272 1.86918E+01 1.29393E+00-3.91503E-03 2.03385E-01 4.27318E-14-1.14771E-13
 -1      4273 1.85547E+01 1.32598E+00 1.65834E-02-8.33623E-03 5.12199E-14-7.79486E-14
 -1      4274 1.89684E+01 1.38247E+00 1.24106E-02-9.85150E-02 5.55664E-14-9.74712E-14
 -1      4275 1.93931E+01 1.49689E+00 3.21620E-04-2.09846E-01 4.77773E-14-1.32763E-13
 -1      4276 1.58751E+01 1.07648E+00-1.70389E-02 4.52312E-01 5.65437E-14-2.17116E-13
 -1      4277 1.53889E+01 1.00385E+00 8.64591E-03 6.44305E-01 1.11248E-14-2.54444E-13
 -1      4278 1.92999E+01 8.01150E-01 3.04855E-03-1.07080E+00 3.00660E-14-1.77870E-13
 -1      4279 1.93796E+01 8.85720E-01-2.37369E-03-9.42056E-01 2.51682E-14-1.94871E-13
 -1      4280 1.92500E+01 1.00281E+00 1.14865E-03-8.36797E-01 1.98741E-14-1.99372E-13
 -1      4281 1.90122E+01 8.74895E-01 2.64723E-03-1.04084E+00 2.30655E-14-1.82292E-13
 -1      4282 1.45261E+01 1.01167E+00 1.77045E-02 3.82867E-01-4.44328E-15-3.22817E-13
 -1      4283 1.76396E+01 1.19118E+00-8.89818E-03-2.77912E-01-1.30658E-13 1.03211E-13
 -1      4284 1.79263E+01 1.15971E+00-7.85890E-03-2.50396E-01-1.01412E-13-5.24125E-15
 -1      4285 1.80337E+01 1.17873E+00 1.40733E-02-1.88112E-02-5.90243E-14 1.67580E-13
 -1      4286 1.47296E+01 1.04257E+00 3.02624E-02-2.99529E-01-2.91217E-14-2.85055E-13
 -1      4287 1.92445E+01-8.31068E-01 1.05773E-02-2.51318E+00-1.07965E-13-2.16333E-13
 -1      4288 1.90155E+01-4.54130E-01 1.19604E-02-2.33593E+00-9.41881E-14-2.21208E-13
 -1      4289 1.86799E+01-9.60137E-01-1.77830E-02-2.82195E+00-9.85024E-14-2.03589E-13
 -1      4290 1.44574E+01 5.31401E-01 7.10981E-02-1.97116E+00-9.72135E-14-2.84555E-13
 -1      4291 1.52708E+01 1.06046E-01-1.73976E-02-2.43552E+00-1.14109E-13-2.86000E-13
 -1      4292 1.43684E+01 7.44475E-01-1.32884E-02-1.15671E+00-7.22590E-14-2.84496E-13
 -1      4293 1.87585E+01 9.52454E-01 1.87171E-03-9.26598E-01 4.87294E-14-1.76995E-13
 -1      4294 1.88784E+01 1.00488E+00-6.01953E-03-8.26181E-01 3.58524E-14-1.73434E-13
 -1      4295 1.92651E+01 1.41016E+00-6.54610E-03-2.36091E-01 4.71170E-14-1.51075E-13
 -1      4296 1.99802E+01 8.44236E-02-2.25770E-04 1.77458E-03 1.23143E-13 3.31193E-13
 -1      4297 1.99747E+01 9.62055E-02-1.92181E-04 4.11375E-03 2.01929E-13 3.81776E-13
 -1      4298 1.71540E+01 1.11150E+00-1.80549E-02 5.10840E-01-5.96732E-14-2.93054E-14
 -1      4299 1.61646E+01 1.17866E+00 3.03515E-02-5.80206E-02 2.23025E-14-1.74731E-13
 -1      4300 1.87576E+01 1.47987E-01-3.07390E-04-1.88499E+00-9.93157E-14-2.47857E-13
 -1      4301 1.84017E+01 4.04322E-01-2.38219E-03-1.70556E+00-6.90866E-14-2.67959E-13
 -1      4302 1.83565E+01 7.77303E-01 3.10988E-03-1.22640E+00 3.46195E-14-1.86629E-13
 -1      4303 1.85060E+01 8.69810E-01-9.62876E-03-1.06751E+00 5.97617E-14-1.76016E-13
 -1      4304 1.84217E+01 1.05359E+00 1.28939E-02-8.33662E-01 5.96713E-14-1.59036E-13
 -1      4305 1.88494E+01-1.00071E-01 8.36420E-03-2.06964E+00-9.79628E-14-2.37713E-13
 -1      4306 1.72777E+01-9.55464E-01-1.47422E-03-3.34365E+00-1.38007E-13-2.53706E-13
 -1      4307 1.81828E+01-9.13949E-01 1.66414E-02-2.99311E+00-1.06130E-13-2.42425E-13
 -1      4308 1.79808E+01-4.72424E-01 1.05203E-02-2.67856E+00-1.19046E-13-2.64303E-13
 -1      4309 1.66263E+01-3.73102E-01 3.26181E-02-2.97529E+00-1.29529E-13-2.84250E-13
 -1      4310 1.82946E+01 8.83234E-01-7.82553E-03 8.71280E-01-6.46172E-14 1.43771E-13
 -1      4311 1.81307E+01 8.66977E-01-1.63123E-03 9.82101E-01-5.63252E-14 1.93912E-13
 -1      4312 1.77707E+01 1.03685E+00 1.55012E-02 7.75759E-01-3.93960E-14 4.17931E-14
 -1      4313 1.82344E+01 1.00048E+00 1.15329E-02 6.68443E-01-4.42144E-14 5.92230E-14
 -1      4314 1.74034E+01 1.24403E+00 2.08522E-02 5.66286E-02-1.50761E-13 1.81968E-13
 -1      4315 1.92609E+01 1.16029E+00 8.00104E-04-6.11858E-01 3.18716E-14-1.85109E-13
 -1      4316 1.93693E+01 1.24222E+00-3.91747E-03-5.08696E-01 4.35853E-14-1.67930E-13
 -1      4317 1.93121E+01 1.34274E+00 4.48808E-03-4.07662E-01 3.77557E-14-1.67885E-13
 -1      4318 1.74843E+01 1.13551E+00-1.56317E-02-3.77446E-01 4.89109E-14-1.34840E-13
 -1      4319 1.70495E+01 1.11074E+00-1.68498E-02-4.20275E-01 3.70971E-14-1.33475E-13
 -1      4320 1.97324E+01 3.92065E-01-2.29842E-03 2.23653E-02-9.30667E-14 2.18835E-13
 -1      4321 1.96870E+01 4.37569E-01-1.53359E-03 3.37906E-02-1.24358E-13 2.61648E-13
 -1      4322 1.81519E+01 1.13858E+00-8.06765E-03-4.47723E-01 6.58413E-14-1.38571E-13
 -1      4323 1.78250E+01 1.10616E+00-9.87195E-03-5.02363E-01 7.77804E-14-1.54719E-13
 -1      4324 1.51117E+01 8.57577E-01-8.98552E-03-8.76334E-01-2.51283E-14-2.68069E-13
 -1      4325 1.88128E+01 9.20900E-01-7.74419E-03 1.55114E-01-5.19066E-14 6.29369E-14
 -1      4326 1.89748E+01 8.69408E-01-3.81739E-03 1.41033E-01-1.24485E-13 1.46498E-14
 -1      4327 1.90918E+01 8.12528E-01-6.07046E-03 1.06252E-01-9.15300E-14 1.57845E-13
 -1      4328 1.92196E+01 7.57093E-01-3.08660E-03 9.85235E-02 1.12133E-14 1.87450E-13
 -1      4329 1.93139E+01 6.98994E-01-4.77568E-03 7.25188E-02 3.18674E-14 2.34515E-13
 -1      4330 1.94144E+01 6.43813E-01-2.47403E-03 6.89206E-02 1.28533E-13 2.62273E-13
 -1      4331 1.94894E+01 5.87983E-01-3.76116E-03 4.92747E-02 6.97415E-14 2.23140E-13
 -1      4332 1.95677E+01 5.35958E-01-1.96165E-03 4.82572E-02 3.32710E-14 2.64669E-13
 -1      4333 1.96265E+01 4.84660E-01-2.95145E-03 3.33055E-02-5.90100E-14 2.73740E-13
 -1      4334 1.97784E+01 3.50800E-01-1.17889E-03 2.36253E-02-9.30372E-14 2.71276E-13
 -1      4335 1.98128E+01 3.11585E-01-1.77075E-03 1.48877E-02-9.67702E-14 2.29483E-13
 -1      4336 1.98473E+01 2.76385E-01-8.88819E-04 1.64532E-02-4.69316E-14 1.95789E-13
 -1      4337 1.98729E+01 2.43412E-01-1.34565E-03 9.78714E-03-8.07371E-14 2.52422E-13
 -1      4338 1.98982E+01 2.14069E-01-6.54123E-04 1.13721E-02-9.97097E-14 1.90062E-13
 -1      4339 1.99168E+01 1.86938E-01-1.00144E-03 6.32016E-03-3.80344E-14 2.86386E-13
 -1      4340 1.99350E+01 1.62965E-01-4.58136E-04 7.76683E-03-2.42124E-14 1.74122E-13
 -1      4341 1.99482E+01 1.41136E-01-6.87070E-04 4.00258E-03 3.79995E-14 1.30664E-13
 -1      4342 1.99609E+01 1.21892E-01-2.69426E-04 5.11373E-03 7.23920E-14 2.07130E-13
 -1      4343 1.83322E+01-1.42150E-01-1.53161E-02-2.23671E+00-1.17550E-13-2.25651E-13
 -1      4344 1.91266E+01 1.33047E+00-4.23541E-03-3.07476E-01 3.13492E-14-1.70511E-13
 -1      4345 1.99683E+01 1.07493E-01-4.37748E-04 1.99052E-03 1.49239E-13 2.07728E-13
 -1      4346 1.75514E+01 1.12936E+00-6.64086E-03 4.04767E-01-1.42487E-13 6.39910E-14
 -1      4347 1.65389E+01 1.02887E+00-1.18678E-02-6.33729E-01-9.99515E-15-1.70037E-13
 -1      4348 1.58529E+01 9.73157E-01-1.60904E-02-6.79938E-01-1.22567E-14-1.98779E-13
 -1      4349 1.58027E+01 7.40574E-01 1.54160E-02-1.49501E+00-6.30485E-14-2.40738E-13
 -1      4350 1.84634E+01 1.01398E+00-9.77166E-03 2.26149E-01-6.02267E-14 8.87132E-14
 -1      4351 1.86689E+01 9.71682E-01-4.63096E-03 2.02228E-01-8.68936E-14 5.79300E-15
 -1      4352 1.90258E+01 1.05730E+00 1.25827E-03-7.60248E-01 2.77634E-14-1.77745E-13
 -1      4353 1.91376E+01 1.11071E+00-3.46827E-03-6.67591E-01 2.81295E-14-1.72931E-13
 -1      4354 1.90574E+01 1.21149E+00 4.42585E-03-5.38704E-01 2.45560E-14-1.77217E-13
 -1      4355 1.88088E+01 1.13698E+00 9.83920E-03-6.50334E-01 5.13855E-14-1.62660E-13
 -1      4356 1.69976E+01 9.74307E-01 1.13809E-02-9.73890E-01-5.00782E-15-1.53861E-13
 -1      4357 1.82887E+01 1.05174E+00-5.31217E-03 2.91582E-01-1.16878E-14 7.81553E-14
 -1      4358 1.79145E+01-6.20576E-02 1.20297E-02-2.28606E+00-1.19830E-13-2.78879E-13
 -1      4359 1.77843E+01 2.87173E-01 1.69752E-03-1.95539E+00-1.22317E-13-2.87662E-13
 -1      4360 1.72881E+01-8.40124E-02-1.96719E-02-2.44212E+00-1.31694E-13-2.87857E-13
 -1      4361 1.78119E+01 1.10259E+00-1.08919E-02 3.64030E-01-1.14592E-13 1.75956E-13
 -1      4362 1.80299E+01 1.08892E+00-7.65961E-03 3.33861E-01-1.50915E-13 1.66361E-13
 -1      4363 1.86530E+01 1.20962E+00-8.93636E-03-3.83562E-01 5.16387E-14-1.64020E-13
 -1      4364 1.84118E+01 1.18787E+00-8.88940E-03-3.47333E-01 6.33449E-14-1.23283E-13
 -1      4365 1.61708E+01 6.12002E-02 9.56279E-03-2.40863E+00-1.11706E-13-2.83083E-13
 -1      4366 1.89432E+01 1.29135E+00-2.92786E-03-2.89199E-01 3.19169E-14-1.60303E-13
 -1      4367 1.79318E+01 5.38298E-01 9.32991E-03-1.60937E+00-7.45297E-14-2.47342E-13
 -1      4368 1.80800E+01 6.81507E-01-6.73223E-03-1.39380E+00-1.09359E-14-2.16302E-13
 -1      4369 1.79167E+01 8.86279E-01 5.02802E-03-1.12051E+00 4.10329E-14-1.86776E-13
 -1      4370 1.74372E+01 5.72943E-01-8.80843E-03-1.62570E+00-5.94175E-14-2.39348E-13
 -1      4371 1.78159E+01 1.02685E+00 8.34387E-03-8.61966E-01 5.80532E-14-1.56396E-13
 -1      4372 1.62325E+01 4.65376E-01 7.70976E-03-1.92515E+00-1.05654E-13-2.63702E-13
 -1      4373 1.88078E+01 1.24423E+00-6.99826E-03-3.33283E-01 4.08073E-14-1.61376E-13
 -1      4374 1.75671E+01 9.29563E-01 6.92820E-03-9.94622E-01 3.18184E-14-1.60872E-13
 -1      4375 1.70653E+01 8.21570E-01-1.76616E-03-1.24954E+00-3.50014E-14-1.85368E-13
 -1      4376 1.69223E+01 6.01349E-01 1.10254E-02-1.61082E+00-1.02538E-13-2.17378E-13
 -3
    1PSTEP                         3           1           1          
  100CL  101 1.000000000        4376                     0    1           1
 -4  TOSTRAIN    6    1
 -5  EXX         1    4    1    1
 -5  EYY         1    4    2    2
 -5  EZZ         1    4    3    3
 -5  EXY         1    4    1    2
 -5  EYZ         1    4    2    3
 -5  EZX         1    4    3    1
 -1         1 1.62753E-05 1.96100E-05-1.83950E-05 3.22302E-05-1.71113E-17-1.37664E-17
 -1         2 3.59350E-05-1.10108E-04 1.99071E-05-3.78165E-07 2.85146E-18-8.42083E-19
 -1         3 9.52380E-05-2.85702E-05-2.85719E-05 1.76310E-09-2.87768E-18-3.16015E-18
 -1         4 9.52380E-05-2.85703E-05-2.85720E-05-1.52864E-09 1.82695E-18-6.31445E-19
 -1         5 1.41980E-04-2.11847E-05-4.23156E-05 3.80385E-05-1.75283E-19 1.46166E-17
 -1         6 1.43839E-04 2.56602E-10-4.39380E-05-5.27377E-05-8.66091E-19 1.34335E-17
 -1         7 9.08382E-05-5.71050E-07-3.90632E-05-2.84608E-05-1.40396E-19 2.42416E-18
 -1         8 8.56132E-05 5.36986E-08-3.64954E-05-1.92071E-05-1.42434E-19-9.41821E-19
 -1         9 8.33132E-05 5.68878E-08-3.55362E-05-1.43950E-05-1.52453E-19-2.81091E-18
 -1        10 8.21169E-05 2.88455E-08-3.50211E-05-1.07919E-05-9.71904E-20-3.65424E-18
 -1        11 8.13616E-05 1.76820E-08-3.47105E-05-7.83410E-06-6.85236E-20-4.09542E-18
 -1        12 8.08598E-05 1.30536E-08-3.45111E-05-5.34093E-06-1.88167E-20-4.26663E-18
 -1        13 8.05319E-05 1.24613E-08-3.43835E-05-3.08651E-06-2.44399E-20-4.32681E-18
 -1        14 8.03722E-05 1.25913E-08-3.43218E-05-9.93686E-07 8.25609E-21-4.25941E-18
 -1        15 8.03771E-05 1.24899E-08-3.43232E-05 1.05124E-06 3.29392E-20-4.16231E-18
 -1        16 8.05449E-05 1.21635E-08-3.43872E-05 3.15926E-06 5.72508E-20-4.10614E-18
 -1        17 8.08778E-05 1.18597E-08-3.45156E-05 5.44320E-06 7.93299E-20-3.89085E-18
 -1        18 8.13793E-05 1.61965E-08-3.47146E-05 7.97427E-06 1.18730E-19-3.49909E-18
 -1        19 8.21307E-05 2.87617E-08-3.50251E-05 1.09840E-05 1.57403E-19-2.84004E-18
 -1        20 8.33215E-05 6.21949E-08-3.55429E-05 1.46451E-05 1.73748E-19-1.63005E-18
 -1        21 8.55665E-05 1.35042E-07-3.65281E-05 1.94416E-05 2.00509E-19 5.84729E-19
 -1        22 9.17793E-05-1.50684E-07-3.87385E-05 2.72419E-05 3.20814E-20 4.97443E-18
 -1        23 1.12651E-04-3.80288E-05-3.53108E-05-4.19256E-06-5.61556E-19 1.04231E-17
 -1        24 9.34587E-05-2.79016E-05-2.91787E-05 4.11853E-07-1.39641E-19 7.83042E-18
 -1        25 9.05814E-05-2.72977E-05-2.73646E-05 3.81303E-07-6.42223E-20 5.46618E-18
 -1        26 9.03625E-05-2.72000E-05-2.71033E-05 2.11779E-07 6.75674E-20 3.76841E-18
 -1        27 9.14826E-05-2.75078E-05-2.74307E-05 1.54560E-07-1.07506E-19 2.45640E-18
 -1        28 9.34263E-05-2.80686E-05-2.80294E-05 1.27309E-07 5.20003E-20 1.65997E-18
 -1        29 9.60068E-05-2.88297E-05-2.88158E-05 1.18647E-07 2.83057E-20 1.44481E-18
 -1        30 9.91605E-05-2.97674E-05-2.97702E-05 1.23566E-07-5.32642E-20 7.47513E-19
 -1        31 1.02863E-04-3.08708E-05-3.08856E-05 1.39745E-07-1.17595E-19 5.61027E-20
 -1        32 1.07065E-04-3.21228E-05-3.21442E-05 1.64309E-07-6.81936E-20-4.67516E-19
 -1        33 1.11614E-04-3.34770E-05-3.34929E-05 1.90202E-07 1.34741E-19-6.70605E-19
 -1        34 1.16149E-04-3.48261E-05-3.48131E-05 2.01161E-07-3.84118E-20-7.80091E-19
 -1        35 1.19983E-04-3.59673E-05-3.58888E-05 1.66174E-07 8.37917E-20-1.27514E-18
 -1        36 1.22025E-04-3.65791E-05-3.63965E-05 3.96769E-08-8.01207E-20-1.69068E-18
 -1        37 1.20911E-04-3.62564E-05-3.59658E-05-2.17569E-07-2.33923E-19-1.93068E-18
 -1        38 1.15548E-04-3.46670E-05-3.43525E-05-5.85738E-07 1.67421E-21-2.28347E-18
 -1        39 1.06143E-04-3.18565E-05-3.17111E-05-9.12203E-07-1.53461E-19-2.03426E-18
 -1        40 9.51926E-05-2.85617E-05-2.87744E-05-9.31399E-07 3.04237E-21-3.28278E-18
 -1        41 8.71500E-05-2.61277E-05-2.66859E-05-4.76293E-07 2.53035E-19-3.99806E-18
 -1        42 8.60232E-05-2.57867E-05-2.63981E-05 2.64482E-07-3.86366E-19-4.71809E-18
 -1        43 9.24588E-05-2.77367E-05-2.80643E-05 8.46071E-07 6.91060E-20-4.42532E-18
 -1        44 1.03231E-04-3.09847E-05-3.09270E-05 9.65030E-07 1.69855E-19-3.59438E-18
 -1        45 1.13694E-04-3.41179E-05-3.38277E-05 7.04159E-07-3.37018E-19-4.50653E-18
 -1        46 1.20648E-04-3.61847E-05-3.58724E-05 3.26995E-07-2.01994E-19-4.49673E-18
 -1        47 1.23272E-04-3.69566E-05-3.67411E-05 3.10385E-08 4.28992E-20-2.26481E-18
 -1        48 1.22405E-04-3.66936E-05-3.65909E-05-1.28788E-07-1.12704E-19-2.73186E-18
 -1        49 1.19425E-04-3.58064E-05-3.57829E-05-1.81611E-07-1.36343E-19-4.35659E-18
 -1        50 1.15542E-04-3.46521E-05-3.46689E-05-1.74666E-07 3.33709E-19-4.00468E-18
 -1        51 1.11567E-04-3.34694E-05-3.34996E-05-1.43518E-07-2.54733E-19-2.55271E-18
 -1        52 1.07944E-04-3.23893E-05-3.24189E-05-1.07926E-07 3.49581E-19-7.50094E-19
 -1        53 1.04858E-04-3.14675E-05-3.14912E-05-7.64690E-08-4.00257E-19-1.01888E-18
 -1        54 1.02345E-04-3.07150E-05-3.07321E-05-5.16482E-08 1.12633E-20-2.84067E-18
 -1        55 1.00363E-04-3.01204E-05-3.01318E-05-3.32684E-08-1.85891E-19-4.89024E-18
 -1        56 9.88391E-05-2.96622E-05-2.96694E-05-2.02120E-08 2.15439E-19-4.69356E-18
 -1        57 9.76928E-05-2.93170E-05-2.93212E-05-1.12320E-08 4.28659E-19-4.44061E-18
 -1        58 9.68486E-05-2.90623E-05-2.90644E-05-5.24245E-09 2.96839E-20-5.45430E-18
 -1        59 9.62404E-05-2.88784E-05-2.88793E-05-1.38622E-09-2.48649E-19-6.44643E-18
 -1        60 9.58132E-05-2.87490E-05-2.87491E-05 9.81186E-10-4.69442E-19-4.25398E-18
 -1        61 9.55224E-05-2.86606E-05-2.86603E-05 2.33208E-09 2.36515E-19-3.88371E-18
 -1        62 9.53326E-05-2.86028E-05-2.86022E-05 3.00743E-09 2.31336E-19-3.07594E-18
 -1        63 9.52165E-05-2.85672E-05-2.85665E-05 3.25079E-09-6.14538E-19-2.80742E-18
 -1        64 9.51529E-05-2.85476E-05-2.85469E-05 3.23430E-09-4.96439E-19-3.92214E-18
 -1        65 9.51261E-05-2.85391E-05-2.85384E-05 3.07824E-09 2.54423E-19-4.26023E-18
 -1        66 9.51242E-05-2.85381E-05-2.85376E-05 2.86495E-09 3.21291E-19-2.86682E-18
 -1        67 9.51385E-05-2.85421E-05-2.85417E-05 2.64606E-09 4.89680E-19 1.31542E-19
 -1        68 9.51622E-05-2.85490E-05-2.85486E-05 2.44348E-09 2.33852E-19 1.31811E-18
 -1        69 9.51899E-05-2.85571E-05-2.85567E-05 2.22282E-09 3.16533E-19 2.34088E-18
 -1        70 9.52161E-05-2.85649E-05-2.85642E-05 1.72890E-09-2.84631E-19 3.49002E-18
 -1        71 9.52344E-05-2.85708E-05-2.85694E-05 7.35812E-10-7.90036E-19 1.23328E-18
 -1        72 1.01988E-04-3.05209E-05-3.40957E-05-1.96582E-06 1.59586E-19 1.34248E-17
 -1        73 9.32397E-05-2.77242E-05-2.90958E-05-3.42053E-07 1.27214E-19 1.02031E-17
 -1        74 9.05556E-05-2.71419E-05-2.74045E-05-1.25099E-07 1.02255E-19 7.75028E-18
 -1        75 9.03311E-05-2.71286E-05-2.71289E-05-9.19520E-08-2.60314E-21 6.41123E-18
 -1        76 9.13694E-05-2.74371E-05-2.74125E-05-7.48958E-08-3.30086E-20 5.75915E-18
 -1        77 9.31579E-05-2.79634E-05-2.79538E-05-6.70016E-08 1.26808E-19 4.89209E-18
 -1        78 9.54684E-05-2.86486E-05-2.86521E-05-6.69885E-08-3.10234E-20 3.99250E-18
 -1        79 9.81746E-05-2.94543E-05-2.94652E-05-7.42544E-08 4.47070E-21 3.41511E-18
 -1        80 1.01167E-04-3.03464E-05-3.03591E-05-8.85823E-08-9.51063E-20 2.41703E-18
 -1        81 1.04295E-04-3.12793E-05-3.12860E-05-1.08679E-07 2.56657E-19 1.65066E-18
 -1        82 1.07313E-04-3.21804E-05-3.21679E-05-1.30049E-07-1.02678E-19 1.39543E-18
 -1        83 1.09829E-04-3.29348E-05-3.28845E-05-1.42352E-07 1.11587E-19 1.67752E-18
 -1        84 1.11290E-04-3.33796E-05-3.32713E-05-1.27445E-07-5.34342E-20 1.62560E-18
 -1        85 1.11032E-04-3.33178E-05-3.31419E-05-6.15627E-08 1.94175E-19 2.08250E-18
 -1        86 1.08472E-04-3.25724E-05-3.23501E-05 7.27561E-08-2.25448E-20 1.26584E-18
 -1        87 1.03465E-04-3.10886E-05-3.08894E-05 2.62698E-07-3.64720E-19 1.12550E-18
 -1        88 9.67123E-05-2.90607E-05-2.89914E-05 4.42936E-07 3.76348E-20 1.61458E-18
 -1        89 8.99297E-05-2.69944E-05-2.71398E-05 5.07931E-07 2.54340E-19-6.12961E-19
 -1        90 8.53969E-05-2.55869E-05-2.59314E-05 3.80053E-07-3.52528E-19-1.18038E-18
 -1        91 8.48915E-05-2.54017E-05-2.58088E-05 9.05065E-08-1.67421E-20-1.64139E-19
 -1        92 8.86554E-05-2.65327E-05-2.68261E-05-2.23020E-07-2.58249E-19 8.85255E-19
 -1        93 9.52502E-05-2.85409E-05-2.86224E-05-4.18854E-07 3.06699E-19 1.32050E-18
 -1        94 1.02425E-04-3.07272E-05-3.06205E-05-4.45645E-07 4.05654E-20-1.25162E-18
 -1        95 1.08252E-04-3.24956E-05-3.22949E-05-3.48153E-07-2.45271E-19-1.38950E-18
 -1        96 1.11772E-04-3.35559E-05-3.33532E-05-2.06298E-07-9.99681E-20 3.78273E-19
 -1        97 1.12959E-04-3.39068E-05-3.37539E-05-7.96900E-08 1.88962E-19 1.04499E-18
 -1        98 1.12335E-04-3.37118E-05-3.36209E-05 7.18036E-09-2.94460E-20 5.73504E-19
 -1        99 1.10575E-04-3.31776E-05-3.31381E-05 5.46462E-08-3.13039E-19-4.42393E-19
 -1       100 1.08274E-04-3.24838E-05-3.24784E-05 7.31359E-08 1.89642E-19-8.28931E-19
 -1       101 1.05860E-04-3.17580E-05-3.17714E-05 7.39948E-08-3.61109E-19-2.91634E-18
 -1       102 1.03595E-04-3.10780E-05-3.10992E-05 6.59023E-08 2.09306E-19-2.30374E-18
 -1       103 1.01611E-04-3.04830E-05-3.05057E-05 5.44042E-08 2.44797E-19-2.69770E-18
 -1       104 9.99557E-05-2.99869E-05-3.00078E-05 4.25994E-08-2.27153E-19-1.65563E-18
 -1       105 9.86260E-05-2.95883E-05-2.96060E-05 3.19873E-08 2.16013E-19-4.41796E-19
 -1       106 9.75904E-05-2.92778E-05-2.92921E-05 2.31318E-08-4.46888E-19-1.16883E-18
 -1       107 9.68063E-05-2.90427E-05-2.90537E-05 1.60993E-08 1.16225E-19-3.12380E-18
 -1       108 9.62286E-05-2.88694E-05-2.88777E-05 1.07201E-08-3.49703E-19-3.89397E-18
 -1       109 9.58155E-05-2.87454E-05-2.87515E-05 6.73461E-09 5.99359E-20-1.09525E-18
 -1       110 9.55301E-05-2.86597E-05-2.86640E-05 3.86872E-09 4.15445E-19-3.00489E-18
 -1       111 9.53414E-05-2.86030E-05-2.86060E-05 1.86959E-09-2.25074E-20-3.09620E-18
 -1       112 9.52245E-05-2.85678E-05-2.85698E-05 5.19543E-10-5.97286E-19-1.43577E-18
 -1       113 9.51595E-05-2.85482E-05-2.85495E-05-3.61248E-10 9.02518E-19-3.25301E-18
 -1       114 9.51312E-05-2.85397E-05-2.85404E-05-9.17549E-10-1.09096E-18-4.66323E-18
 -1       115 9.51281E-05-2.85386E-05-2.85391E-05-1.26427E-09 1.13906E-18-4.75224E-18
 -1       116 9.51414E-05-2.85425E-05-2.85428E-05-1.49196E-09-3.80193E-19-6.03508E-18
 -1       117 9.51644E-05-2.85494E-05-2.85494E-05-1.66830E-09-1.21756E-19-7.21447E-18
 -1       118 9.51915E-05-2.85575E-05-2.85572E-05-1.82557E-09 2.51142E-19-7.19591E-18
 -1       119 9.52172E-05-2.85652E-05-2.85645E-05-1.87532E-09-3.60605E-19-8.75283E-18
 -1       120 9.52344E-05-2.85708E-05-2.85695E-05-1.10403E-09 1.38202E-18-7.39576E-18
 -1       121 9.52381E-05-2.85748E-05-2.85695E-05-9.76248E-10-7.10982E-18-2.05244E-19
 -1       122 9.52432E-05-2.85913E-05-2.85647E-05-1.62190E-09-8.09702E-18 5.88564E-19
 -1       123 9.52499E-05-2.86136E-05-2.85585E-05-1.57274E-09-2.09588E-18 2.66001E-18
 -1       124 9.52562E-05-2.86348E-05-2.85524E-05-1.20589E-09-6.49714E-18-5.21733E-19
 -1       125 9.52613E-05-2.86518E-05-2.85473E-05-8.04488E-10-7.65467E-18 1.14168E-19
 -1       126 9.52649E-05-2.86637E-05-2.85437E-05-4.90799E-10-7.83276E-18 9.13237E-19
 -1       127 9.52671E-05-2.86712E-05-2.85414E-05-2.53866E-10-2.49070E-18 1.80856E-19
 -1       128 9.52682E-05-2.86749E-05-2.85402E-05-8.50573E-11-2.64442E-18-1.34275E-19
 -1       129 9.52683E-05-2.86751E-05-2.85402E-05 6.09620E-11 3.39594E-18 1.57706E-18
 -1       130 9.52673E-05-2.86718E-05-2.85412E-05 2.35865E-10 5.85051E-19-1.87318E-18
 -1       131 9.52651E-05-2.86645E-05-2.85435E-05 4.94343E-10-7.06428E-18 8.52554E-20
 -1       132 9.52616E-05-2.86526E-05-2.85471E-05 8.17373E-10-8.48571E-18 7.54272E-19
 -1       133 9.52564E-05-2.86354E-05-2.85522E-05 1.23245E-09-9.52193E-18-8.54946E-19
 -1       134 9.52500E-05-2.86138E-05-2.85584E-05 1.67515E-09-9.80037E-18-6.08742E-19
 -1       135 9.52434E-05-2.85917E-05-2.85647E-05 2.28770E-09-5.34208E-18-8.54745E-20
 -1       136 9.52385E-05-2.85754E-05-2.85694E-05 9.33150E-10-2.49812E-18 1.01819E-18
 -1       137 2.54050E-05-8.58703E-05 1.51592E-05-2.28344E-05 6.51157E-18 2.01737E-18
 -1       138 7.47915E-06-3.22365E-05 2.82747E-06-1.75844E-05 1.30316E-17 5.77401E-18
 -1       139 1.04477E-05 1.50775E-05-1.45992E-05 2.24958E-05 1.72985E-17 1.21812E-17
 -1       140 5.88722E-05 2.69604E-05-3.53399E-05 7.82859E-05 1.47735E-17 1.74451E-17
 -1       141 1.48559E-04-4.57531E-06-5.53009E-05 1.11891E-04 9.44399E-18 1.60492E-17
 -1       142 2.44037E-04-5.62256E-05-7.02507E-05 9.56326E-05 3.42715E-18 8.62068E-18
 -1       143 3.01573E-04-9.15567E-05-7.77767E-05 3.25135E-05 1.01525E-19 4.38234E-19
 -1       144 2.94806E-04-8.69188E-05-7.70106E-05-4.69994E-05 6.65477E-19-4.15258E-18
 -1       145 2.21796E-04-4.32789E-05-6.70128E-05-1.04490E-04 3.41365E-18-8.74392E-18
 -1       146 1.24091E-04 6.93405E-06-5.08508E-05-1.08965E-04 7.57099E-18-1.14934E-17
 -1       147 4.48577E-05 2.91035E-05-3.12455E-05-6.83210E-05 1.17081E-17-1.20719E-17
 -1       148 7.77094E-06 6.94677E-06-1.08720E-05-1.30510E-05 1.39299E-17-9.03954E-18
 -1       149 1.10443E-05-4.71395E-05 6.75204E-06 2.28753E-05 1.24319E-17-5.39528E-18
 -1       150 2.98776E-05-9.64207E-05 1.72716E-05 2.00106E-05 5.48327E-18-1.42785E-18
 -1       151 3.64396E-05-1.11071E-04 2.00134E-05-6.10348E-06-3.87528E-18-2.64857E-19
 -1       152 2.20269E-05-7.95180E-05 1.40099E-05-2.68647E-05-1.26216E-17-3.72446E-18
 -1       153 6.11679E-06-2.25584E-05-3.14695E-07-1.21278E-05-1.77204E-17-9.29280E-18
 -1       154 6.95361E-05 2.44598E-05-3.83289E-05 8.49134E-05-1.27889E-17-1.57862E-17
 -1       155 1.58929E-04-9.23019E-06-5.73030E-05 1.13624E-04-7.45220E-18-1.46952E-17
 -1       156 2.51173E-04-5.94477E-05-7.14558E-05 9.27833E-05-3.51910E-18-1.12088E-17
 -1       157 3.07753E-04-9.33772E-05-7.90227E-05 2.95554E-05-9.48068E-19-3.12301E-18
 -1       158 2.99061E-04-8.82612E-05-7.77567E-05-4.91687E-05-1.27406E-18 7.08522E-18
 -1       159 2.28756E-04-4.68156E-05-6.81068E-05-1.03116E-04-5.26452E-18 1.51771E-17
 -1       160 1.35583E-04 1.19378E-06-5.29299E-05-1.10252E-04-1.14311E-17 1.94593E-17
 -1       161 5.40795E-05 2.64593E-05-3.37968E-05-7.37050E-05-1.59454E-17 1.72663E-17
 -1       162 9.50053E-06 1.02186E-05-1.27881E-05-1.72206E-05-1.66442E-17 1.20321E-17
 -1       163 8.62922E-06-3.79172E-05 4.17901E-06 2.02600E-05-1.43856E-17 6.57996E-18
 -1       164 2.67956E-05-9.04967E-05 1.62009E-05 2.35389E-05-3.57871E-18 1.77419E-18
 -1       165 9.55168E-05-1.26759E-05-3.56972E-05-2.12221E-05-1.96161E-18 7.17305E-19
 -1       166 8.99243E-05-8.65285E-06-3.49867E-05-1.61086E-05-1.74289E-18-1.40574E-18
 -1       167 8.70018E-05-6.51299E-06-3.46021E-05-1.22521E-05-1.41420E-18-2.60427E-18
 -1       168 8.52739E-05-5.29637E-06-3.43555E-05-9.09095E-06-1.04566E-18-3.27352E-18
 -1       169 8.41487E-05-4.52431E-06-3.41894E-05-6.46188E-06-7.04534E-19-3.50128E-18
 -1       170 8.33897E-05-4.01625E-06-3.40737E-05-4.12358E-06-3.99135E-19-3.59353E-18
 -1       171 8.29537E-05-3.73097E-06-3.40050E-05-1.99989E-06-6.56124E-20-3.54151E-18
 -1       172 8.28195E-05-3.64677E-06-3.39824E-05 2.32691E-08 2.45562E-19-3.46319E-18
 -1       173 8.29809E-05-3.75667E-06-3.40059E-05 2.05445E-06 6.21140E-19-3.44817E-18
 -1       174 8.34394E-05-4.06509E-06-3.40746E-05 4.20080E-06 8.68422E-19-3.36640E-18
 -1       175 8.41975E-05-4.58187E-06-3.41865E-05 6.53020E-06 1.14876E-18-3.04495E-18
 -1       176 8.53496E-05-5.38424E-06-3.43523E-05 9.24427E-06 1.58390E-18-2.52479E-18
 -1       177 8.70925E-05-6.62766E-06-3.45974E-05 1.24637E-05 1.89797E-18-1.74967E-18
 -1       178 9.00559E-05-8.80337E-06-3.49834E-05 1.63746E-05 2.17824E-18-2.67305E-19
 -1       179 9.63816E-05-1.39074E-05-3.55495E-05 2.08239E-05 2.05760E-18 2.37349E-18
 -1       180 1.05890E-04-2.62831E-05-3.52920E-05 1.78747E-05 1.47804E-18 5.86840E-18
 -1       181 1.03976E-04-2.75334E-05-3.27569E-05-1.12949E-05-1.63549E-18 3.23156E-18
 -1       182 9.82458E-05-2.86272E-05-2.98681E-05-3.89721E-06-1.39853E-18 2.37078E-18
 -1       183 9.53259E-05-2.81411E-05-2.87424E-05-8.32631E-07-1.02736E-18 1.67265E-18
 -1       184 9.46171E-05-2.81282E-05-2.84566E-05 7.35469E-07-8.58647E-19 8.99781E-19
 -1       185 9.50767E-05-2.83366E-05-2.85806E-05 1.72151E-06-5.29179E-19 5.75666E-19
 -1       186 9.63401E-05-2.87419E-05-2.89575E-05 2.46317E-06-4.03783E-19 1.52749E-19
 -1       187 9.82139E-05-2.93125E-05-2.95206E-05 3.09927E-06-3.71830E-19-1.16810E-20
 -1       188 1.00593E-04-3.00327E-05-3.02348E-05 3.68022E-06-3.02510E-19 5.68869E-20
 -1       189 1.03401E-04-3.08960E-05-3.10714E-05 4.18948E-06-3.30371E-19 1.60844E-19
 -1       190 1.06537E-04-3.18962E-05-3.19915E-05 4.53528E-06-1.45833E-19 2.67735E-19
 -1       191 1.09829E-04-3.30127E-05-3.29297E-05 4.53055E-06-3.42025E-19-6.21552E-19
 -1       192 1.12975E-04-3.41873E-05-3.37804E-05 3.88255E-06-2.12116E-19-8.52918E-19
 -1       193 1.15495E-04-3.52842E-05-3.43940E-05 2.23653E-06-2.20368E-19-4.24822E-19
 -1       194 1.16727E-04-3.60327E-05-3.45995E-05-6.48539E-07-3.94962E-19-8.81704E-20
 -1       195 1.15953E-04-3.60077E-05-3.42706E-05-4.53778E-06-3.53335E-19 7.41617E-20
 -1       196 1.12743E-04-3.47458E-05-3.34271E-05-8.28623E-06 1.93342E-19-2.30466E-19
 -1       197 1.07578E-04-3.21905E-05-3.23094E-05-9.81403E-06-4.43818E-19 4.46082E-20
 -1       198 1.02330E-04-2.92629E-05-3.13234E-05-7.27966E-06-7.52529E-19-1.12695E-20
 -1       199 9.96950E-05-2.76968E-05-3.08711E-05-1.00994E-06-1.15699E-18-1.57221E-18
 -1       200 1.01264E-04-2.85965E-05-3.11532E-05 5.85869E-06-4.65266E-19-2.48598E-18
 -1       201 1.06157E-04-3.13550E-05-3.20565E-05 9.71950E-06-1.34038E-19-3.24465E-18
 -1       202 1.11766E-04-3.42103E-05-3.32323E-05 9.30958E-06-4.59330E-19-3.99186E-18
 -1       203 1.15869E-04-3.59490E-05-3.42553E-05 6.03304E-06 4.88718E-19-2.29187E-18
 -1       204 1.17584E-04-3.63701E-05-3.48202E-05 2.06381E-06 8.59083E-19-1.73393E-18
 -1       205 1.17143E-04-3.58768E-05-3.48466E-05-1.12324E-06-6.50310E-19-1.24923E-18
 -1       206 1.15236E-04-3.49366E-05-3.44297E-05-3.05887E-06-7.31554E-19-1.24822E-18
 -1       207 1.12567E-04-3.38685E-05-3.37376E-05-3.89270E-06 2.56801E-19-1.38879E-18
 -1       208 1.09669E-04-3.28425E-05-3.29295E-05-3.97804E-06 1.10159E-18-2.60108E-18
 -1       209 1.06884E-04-3.19331E-05-3.21212E-05-3.64514E-06 3.02066E-19-1.32935E-18
 -1       210 1.04395E-04-3.11637E-05-3.13814E-05-3.12879E-06-6.47649E-19-1.74890E-18
 -1       211 1.02275E-04-3.05326E-05-3.07422E-05-2.57106E-06-6.75738E-19-2.08254E-18
 -1       212 1.00533E-04-3.00271E-05-3.02117E-05-2.04691E-06-1.02145E-18-2.68732E-18
 -1       213 9.91384E-05-2.96302E-05-2.97846E-05-1.58930E-06-6.09760E-20-3.45836E-18
 -1       214 9.80483E-05-2.93243E-05-2.94490E-05-1.20758E-06 5.35592E-19-3.36340E-18
 -1       215 9.72130E-05-2.90926E-05-2.91910E-05-8.98964E-07-1.84096E-19-3.40605E-18
 -1       216 9.65854E-05-2.89205E-05-2.89965E-05-6.55269E-07-7.39654E-19-3.89811E-18
 -1       217 9.61235E-05-2.87951E-05-2.88528E-05-4.66542E-07 3.83337E-19-5.60010E-18
 -1       218 9.57909E-05-2.87059E-05-2.87490E-05-3.22899E-07 1.10012E-18-3.58436E-18
 -1       219 9.55579E-05-2.86443E-05-2.86759E-05-2.15376E-07 6.49572E-19-2.35052E-18
 -1       220 9.54000E-05-2.86033E-05-2.86261E-05-1.36243E-07 3.25268E-19-1.09729E-18
 -1       221 9.52981E-05-2.85776E-05-2.85937E-05-7.90596E-08-8.01628E-19-1.18873E-18
 -1       222 9.52369E-05-2.85629E-05-2.85740E-05-3.86076E-08 3.12553E-19-5.33916E-19
 -1       223 9.52047E-05-2.85560E-05-2.85634E-05-1.07700E-08 1.11505E-18 9.52981E-19
 -1       224 9.51928E-05-2.85544E-05-2.85590E-05 7.57920E-09 1.00254E-18 3.10633E-19
 -1       225 9.51940E-05-2.85564E-05-2.85588E-05 1.86555E-08 1.68615E-18 6.94183E-19
 -1       226 9.52030E-05-2.85605E-05-2.85610E-05 2.37990E-08 1.01979E-18 1.35416E-18
 -1       227 9.52154E-05-2.85658E-05-2.85641E-05 2.34007E-08 7.72730E-19 4.88762E-19
 -1       228 9.52279E-05-2.85716E-05-2.85670E-05 1.71678E-08-6.98021E-19 1.24395E-18
 -1       229 1.00258E-04-2.88011E-05-3.08001E-05 6.52421E-06 1.58109E-18 4.98635E-18
 -1       230 9.57920E-05-2.81936E-05-2.89389E-05 2.05306E-06 1.13469E-18 3.91215E-18
 -1       231 9.41845E-05-2.79967E-05-2.83201E-05 1.36784E-07 6.91027E-19 3.08484E-18
 -1       232 9.40925E-05-2.80754E-05-2.82652E-05-9.01096E-07 4.78029E-19 2.40165E-18
 -1       233 9.49279E-05-2.83708E-05-2.85103E-05-1.56067E-06 5.09834E-19 2.00255E-18
 -1       234 9.63827E-05-2.88314E-05-2.89434E-05-2.02890E-06 3.09476E-19 1.95013E-18
 -1       235 9.82734E-05-2.94181E-05-2.95063E-05-2.37511E-06 4.36806E-19 1.39264E-18
 -1       236 1.00463E-04-3.01003E-05-3.01549E-05-2.60464E-06 5.82956E-19 8.88845E-19
 -1       237 1.02807E-04-3.08452E-05-3.08424E-05-2.67404E-06 3.78036E-19 1.30475E-19
 -1       238 1.05115E-04-3.16061E-05-3.15067E-05-2.49539E-06 2.02668E-20 4.66843E-19
 -1       239 1.07117E-04-3.23092E-05-3.20634E-05-1.94678E-06 1.78828E-19 6.35300E-19
 -1       240 1.08457E-04-3.28426E-05-3.24066E-05-9.06097E-07 8.88227E-21 8.89591E-19
 -1       241 1.08717E-04-3.30521E-05-3.24241E-05 6.73496E-07 1.79409E-19 3.99058E-19
 -1       242 1.07532E-04-3.27620E-05-3.20353E-05 2.64291E-06 8.83429E-21 4.21240E-19
 -1       243 1.04775E-04-3.18452E-05-3.12457E-05 4.53751E-06-9.81202E-21 7.06260E-19
 -1       244 1.00816E-04-3.03523E-05-3.01954E-05 5.58991E-06 1.88448E-19 1.67633E-19
 -1       245 9.66529E-05-2.86401E-05-2.91578E-05 5.03262E-06 1.08291E-18-3.81813E-19
 -1       246 9.37022E-05-2.73419E-05-2.84612E-05 2.65146E-06-1.53952E-19-7.75824E-19
 -1       247 9.31644E-05-2.70606E-05-2.83518E-05-8.20170E-07-3.47902E-19-9.04595E-19
 -1       248 9.53052E-05-2.79515E-05-2.88745E-05-3.98413E-06-5.64633E-19-1.36135E-18
 -1       249 9.92821E-05-2.95989E-05-2.98562E-05-5.64863E-06 1.87423E-19-1.23814E-18
 -1       250 1.03683E-04-3.13329E-05-3.09914E-05-5.49424E-06 9.31513E-19-5.82401E-19
 -1       251 1.07268E-04-3.26277E-05-3.19753E-05-4.03323E-06-2.28082E-19-1.65946E-18
 -1       252 1.09399E-04-3.32892E-05-3.26129E-05-2.08639E-06-5.25127E-19-1.98686E-18
 -1       253 1.10025E-04-3.33798E-05-3.28493E-05-3.07537E-07-5.95373E-19-7.40465E-19
 -1       254 1.09445E-04-3.30720E-05-3.27368E-05 9.83091E-07-2.34645E-19 7.33478E-19
 -1       255 1.08077E-04-3.25412E-05-3.23787E-05 1.73795E-06 5.59545E-19 2.14332E-19
 -1       256 1.06305E-04-3.19220E-05-3.18833E-05 2.05251E-06 6.23674E-20-4.99688E-19
 -1       257 1.04422E-04-3.13025E-05-3.13397E-05 2.06353E-06 1.03991E-18-2.27767E-19
 -1       258 1.02618E-04-3.07331E-05-3.08092E-05 1.89507E-06 2.70103E-20-2.55613E-18
 -1       259 1.01004E-04-3.02378E-05-3.03282E-05 1.63976E-06-3.24186E-19-1.95270E-18
 -1       260 9.96255E-05-2.98241E-05-2.99139E-05 1.35868E-06-5.49963E-19-1.41017E-18
 -1       261 9.84908E-05-2.94892E-05-2.95707E-05 1.08786E-06 1.40840E-19-1.22847E-18
 -1       262 9.75847E-05-2.92254E-05-2.92953E-05 8.45914E-07-2.65459E-20-2.91557E-19
 -1       263 9.68803E-05-2.90227E-05-2.90803E-05 6.40287E-07 1.29097E-18-4.78028E-19
 -1       264 9.63463E-05-2.88708E-05-2.89167E-05 4.71810E-07-2.90651E-19-6.40299E-19
 -1       265 9.59518E-05-2.87597E-05-2.87954E-05 3.37738E-07-6.11216E-20-9.80018E-19
 -1       266 9.56683E-05-2.86808E-05-2.87079E-05 2.33671E-07 3.99899E-19-2.05770E-18
 -1       267 9.54713E-05-2.86267E-05-2.86469E-05 1.54708E-07-8.48107E-19 4.57266E-19
 -1       268 9.53401E-05-2.85914E-05-2.86060E-05 9.60942E-08-2.33119E-19-1.60940E-19
 -1       269 9.52579E-05-2.85698E-05-2.85802E-05 5.35606E-08 4.91510E-19-9.63779E-19
 -1       270 9.52115E-05-2.85582E-05-2.85653E-05 2.34763E-08 3.82767E-19-2.92926E-20
 -1       271 9.51903E-05-2.85536E-05-2.85583E-05 2.89592E-09 1.18135E-18-1.51207E-18
 -1       272 9.51863E-05-2.85537E-05-2.85566E-05-1.04372E-08 7.34194E-19-2.43612E-18
 -1       273 9.51932E-05-2.85569E-05-2.85583E-05-1.80849E-08 9.66642E-19-2.77148E-18
 -1       274 9.52059E-05-2.85617E-05-2.85617E-05-2.08609E-08 1.01696E-18-3.91723E-18
 -1       275 9.52200E-05-2.85672E-05-2.85654E-05-1.87516E-08 4.36544E-19-4.38907E-18
 -1       276 9.52319E-05-2.85725E-05-2.85682E-05-1.11788E-08-1.65529E-18-3.98591E-18
 -1       277 9.52375E-05-2.85811E-05-2.85670E-05-1.64242E-08-2.01874E-18-7.63131E-20
 -1       278 9.52433E-05-2.85930E-05-2.85644E-05-2.07331E-08-1.36858E-18 3.96321E-18
 -1       279 9.52482E-05-2.86049E-05-2.85614E-05-1.96596E-08-2.10970E-18-3.07629E-18
 -1       280 9.52517E-05-2.86150E-05-2.85585E-05-1.58277E-08-2.44730E-18 2.61928E-19
 -1       281 9.52539E-05-2.86225E-05-2.85563E-05-1.12881E-08-3.18260E-18 4.23149E-20
 -1       282 9.52552E-05-2.86276E-05-2.85547E-05-7.00660E-09-2.47526E-18 2.35457E-18
 -1       283 9.52559E-05-2.86304E-05-2.85537E-05-3.38808E-09-1.56680E-18 8.57168E-19
 -1       284 9.52561E-05-2.86314E-05-2.85534E-05-2.17502E-10 7.29357E-19 3.30526E-18
 -1       285 9.52560E-05-2.86307E-05-2.85537E-05 3.00761E-09-7.61074E-19-1.56358E-18
 -1       286 9.52554E-05-2.86281E-05-2.85545E-05 6.77975E-09 8.91429E-19-2.98232E-18
 -1       287 9.52542E-05-2.86233E-05-2.85561E-05 1.11992E-08-7.32314E-19-1.57211E-18
 -1       288 9.52519E-05-2.86156E-05-2.85584E-05 1.60163E-08-1.63057E-18-8.42223E-19
 -1       289 9.52484E-05-2.86054E-05-2.85613E-05 2.00325E-08-2.06273E-18 1.09135E-18
 -1       290 9.52431E-05-2.85930E-05-2.85644E-05 2.05951E-08-9.45020E-19 1.66250E-18
 -1       291 9.52370E-05-2.85818E-05-2.85666E-05 2.23491E-08-1.52426E-19 7.21297E-19
 -1       292 1.18933E-05-4.40651E-05 1.09094E-05 9.41524E-06 2.19927E-18 2.34660E-18
 -1       293 2.62145E-05-4.29798E-05 4.32051E-06 2.10098E-05 3.50121E-18 4.17460E-18
 -1       294 5.15847E-05-3.51684E-05-8.79654E-06 3.44189E-05 4.17375E-18 6.48536E-18
 -1       295 8.85517E-05-3.00176E-05-2.54515E-05 4.46925E-05 6.27418E-18 6.54566E-18
 -1       296 1.35173E-04-3.26114E-05-4.29823E-05 4.28546E-05 6.12712E-18 4.62882E-18
 -1       297 1.73328E-04-3.21246E-05-5.82275E-05 3.60737E-05 5.68712E-18 3.57702E-18
 -1       298 2.03045E-04-3.56016E-05-6.83388E-05 2.13485E-05 4.64068E-18 2.75265E-18
 -1       299 2.07355E-04-3.43304E-05-7.08228E-05-2.21433E-06 2.72628E-18 1.26477E-18
 -1       300 1.92119E-04-3.19324E-05-6.59170E-05-2.15973E-05 2.68001E-18-6.24899E-19
 -1       301 1.65431E-04-3.14357E-05-5.52170E-05-4.24856E-05 3.84508E-18-2.67768E-18
 -1       302 1.23394E-04-2.89152E-05-3.95985E-05-4.80520E-05 4.55090E-18-3.83664E-18
 -1       303 8.05667E-05-3.06934E-05-2.20400E-05-4.30139E-05 5.21688E-18-4.10006E-18
 -1       304 4.87097E-05-3.90305E-05-5.86431E-06-3.45360E-05 3.42455E-18-3.61514E-18
 -1       305 2.19225E-05-4.49635E-05 6.86173E-06-1.80337E-05 2.48032E-18-4.33353E-18
 -1       306 1.13054E-05-4.77140E-05 1.23032E-05-5.09638E-06-1.87988E-19-4.52294E-18
 -1       307 1.44027E-05-4.89589E-05 1.13343E-05 8.67350E-06-3.06785E-18-5.02926E-18
 -1       308 3.24156E-05-4.18736E-05 1.72044E-06 2.60821E-05-5.12603E-18-5.36410E-18
 -1       309 5.94321E-05-3.54739E-05-1.18924E-05 3.58185E-05-7.05261E-18-5.84061E-18
 -1       310 9.72424E-05-3.11621E-05-2.85099E-05 4.49927E-05-7.16929E-18-6.52554E-18
 -1       311 1.41387E-04-3.28888E-05-4.52880E-05 4.36652E-05-6.08456E-18-5.82610E-18
 -1       312 1.79516E-04-3.37706E-05-5.98369E-05 3.73984E-05-5.03278E-18-4.86705E-18
 -1       313 1.92178E-04-2.96460E-05-6.73537E-05 1.14196E-05-4.70421E-18-8.56774E-19
 -1       314 2.13296E-04-3.67378E-05-7.19652E-05-3.01828E-06-4.60722E-18 1.70333E-19
 -1       315 1.95209E-04-3.34177E-05-6.64960E-05-1.95075E-05-5.93865E-18 2.31600E-18
 -1       316 1.70755E-04-3.34673E-05-5.65047E-05-4.01089E-05-7.09520E-18 6.45037E-18
 -1       317 1.30354E-04-3.10578E-05-4.16071E-05-4.61318E-05-6.84731E-18 8.68357E-18
 -1       318 9.16348E-05-3.63527E-05-2.41928E-05-4.21640E-05-6.51728E-18 7.34229E-18
 -1       319 5.00685E-05-3.70315E-05-7.51072E-06-3.24017E-05-5.95782E-18 7.22789E-18
 -1       320 2.52320E-05-4.32821E-05 4.97217E-06-2.04893E-05-3.41608E-18 6.96309E-18
 -1       321 1.18400E-05-4.63455E-05 1.16629E-05-6.17448E-06-6.85779E-19 4.41018E-18
 -1       322 9.22415E-05-1.44679E-05-3.34084E-05-1.14525E-05-1.83668E-18-1.37292E-18
 -1       323 9.65556E-05-1.93741E-05-3.31373E-05-1.32749E-05-1.96804E-18-1.04066E-19
 -1       324 8.76528E-05-9.69314E-06-3.34635E-05-6.77805E-06-1.06937E-18-2.60521E-18
 -1       325 8.63582E-05-8.45445E-06-3.34316E-05-4.64104E-06-7.61975E-19-2.76098E-18
 -1       326 8.55393E-05-7.69724E-06-3.34007E-05-2.69655E-06-2.67274E-19-2.73169E-18
 -1       327 8.51513E-05-7.34764E-06-3.33823E-05-8.72720E-07 1.82907E-19-2.67801E-18
 -1       328 8.51781E-05-7.37655E-06-3.33815E-05 9.17306E-07 5.96399E-19-2.56986E-18
 -1       329 8.56154E-05-7.78087E-06-3.33978E-05 2.76141E-06 9.51057E-19-2.66605E-18
 -1       330 8.64542E-05-8.56741E-06-3.34248E-05 4.70654E-06 1.23809E-18-2.49887E-18
 -1       331 8.77672E-05-9.83676E-06-3.34514E-05 6.88004E-06 1.66814E-18-1.99453E-18
 -1       332 8.96776E-05-1.17663E-05-3.34557E-05 9.25865E-06 2.07038E-18-1.46548E-18
 -1       333 9.25167E-05-1.47755E-05-3.33968E-05 1.16799E-05 2.33319E-18-5.71185E-19
 -1       334 9.66219E-05-1.97138E-05-3.30654E-05 1.30747E-05 2.33682E-18 1.07543E-18
 -1       335 9.96198E-05-2.47314E-05-3.21787E-05 1.08341E-05 2.03868E-18 2.63965E-18
 -1       336 9.76380E-05-2.71423E-05-3.01808E-05 4.59277E-06 1.59206E-18 2.01781E-18
 -1       337 9.77117E-05-2.62756E-05-3.05688E-05-4.82379E-06-1.61485E-18 1.40974E-19
 -1       338 9.66934E-05-2.73147E-05-2.97060E-05-9.86207E-07-1.26965E-18 5.29114E-20
 -1       339 9.63594E-05-2.78003E-05-2.93646E-05 1.40277E-06-9.52397E-19 6.01761E-20
 -1       340 9.66530E-05-2.81587E-05-2.93441E-05 3.08623E-06-6.78304E-19-2.65275E-19
 -1       341 9.74731E-05-2.85292E-05-2.95400E-05 4.40925E-06-5.35144E-19-4.07263E-19
 -1       342 9.87351E-05-2.89751E-05-2.98915E-05 5.54013E-06-3.66398E-19-5.17128E-19
 -1       343 1.00385E-04-2.95492E-05-3.03544E-05 6.52979E-06-3.25653E-20-6.07044E-19
 -1       344 1.02396E-04-3.03206E-05-3.08884E-05 7.32266E-06-2.17622E-19-5.99968E-19
 -1       345 1.04757E-04-3.13837E-05-3.14491E-05 7.74190E-06-5.69735E-19-7.60874E-19
 -1       346 1.07457E-04-3.28468E-05-3.19859E-05 7.46782E-06-3.45687E-19-2.95469E-19
 -1       347 1.10445E-04-3.47714E-05-3.24494E-05 6.04329E-06 1.35390E-19-4.22956E-19
 -1       348 1.13526E-04-3.70161E-05-3.28151E-05 2.97109E-06 2.18139E-19 1.90574E-19
 -1       349 1.16172E-04-3.89616E-05-3.31171E-05-1.95764E-06-1.94038E-19 9.77774E-19
 -1       350 1.17416E-04-3.93768E-05-3.34723E-05-8.07034E-06-3.69707E-19 6.40125E-19
 -1       351 1.16098E-04-3.67633E-05-3.40284E-05-1.30832E-05-8.97764E-20 3.18165E-19
 -1       352 1.12191E-04-3.11287E-05-3.47815E-05-1.33631E-05-3.46499E-19 4.89251E-19
 -1       353 1.08147E-04-2.55850E-05-3.54224E-05-6.74819E-06-1.67306E-18 4.51510E-19
 -1       354 1.07516E-04-2.46942E-05-3.55380E-05 3.98719E-06-1.88746E-18-5.23149E-19
 -1       355 1.10949E-04-2.92302E-05-3.50600E-05 1.24444E-05-1.16143E-18-1.72759E-18
 -1       356 1.15415E-04-3.53834E-05-3.43190E-05 1.41721E-05-5.13616E-19-1.97778E-18
 -1       357 1.17696E-04-3.90144E-05-3.37432E-05 1.02899E-05 7.53644E-19-1.18117E-18
 -1       358 1.17283E-04-3.94328E-05-3.33934E-05 4.25193E-06 6.01119E-19-8.64918E-19
 -1       359 1.15094E-04-3.78212E-05-3.31455E-05-1.08469E-06 3.82368E-19-8.51278E-19
 -1       360 1.12250E-04-3.56164E-05-3.28636E-05-4.61911E-06 2.29505E-19-3.35902E-20
 -1       361 1.09403E-04-3.36198E-05-3.24904E-05-6.38295E-06-3.28512E-19 3.54276E-19
 -1       362 1.06822E-04-3.20851E-05-3.20346E-05-6.84411E-06 2.51525E-20 4.80266E-19
 -1       363 1.04578E-04-3.09921E-05-3.15360E-05-6.50662E-06 7.37980E-19 2.31253E-19
 -1       364 1.02666E-04-3.02371E-05-3.10377E-05-5.76179E-06-4.62437E-19-7.19331E-19
 -1       365 1.01063E-04-2.97179E-05-3.05720E-05-4.86766E-06-1.12607E-18-6.88415E-19
 -1       366 9.97379E-05-2.93578E-05-3.01581E-05-3.97506E-06-1.18959E-18-1.07669E-18
 -1       367 9.86586E-05-2.91050E-05-2.98043E-05-3.16157E-06-1.11699E-18 1.64064E-19
 -1       368 9.77935E-05-2.89260E-05-2.95108E-05-2.45950E-06-1.51033E-20-8.18245E-19
 -1       369 9.71111E-05-2.87991E-05-2.92734E-05-1.87537E-06 3.31812E-19-1.31640E-18
 -1       370 9.65819E-05-2.87097E-05-2.90855E-05-1.40228E-06-4.25957E-19-1.27662E-18
 -1       371 9.61784E-05-2.86476E-05-2.89398E-05-1.02725E-06-6.21214E-19-4.73632E-19
 -1       372 9.58766E-05-2.86057E-05-2.88289E-05-7.35388E-07 8.68062E-19-1.37480E-18
 -1       373 9.56555E-05-2.85784E-05-2.87461E-05-5.12049E-07 1.96399E-18-2.08585E-18
 -1       374 9.54972E-05-2.85618E-05-2.86857E-05-3.43935E-07 1.43470E-18-3.82318E-19
 -1       375 9.53874E-05-2.85528E-05-2.86428E-05-2.19517E-07 6.48779E-19 5.15514E-19
 -1       376 9.53141E-05-2.85491E-05-2.86131E-05-1.29139E-07-2.03499E-19 2.45371E-18
 -1       377 9.52678E-05-2.85491E-05-2.85934E-05-6.49478E-08 1.09998E-18 2.12045E-18
 -1       378 9.52411E-05-2.85516E-05-2.85810E-05-2.07455E-08 1.05928E-18 2.71321E-18
 -1       379 9.52281E-05-2.85558E-05-2.85737E-05 8.14875E-09 9.95433E-19 3.14465E-18
 -1       380 9.52243E-05-2.85612E-05-2.85699E-05 2.50043E-08 2.82284E-19 1.98591E-18
 -1       381 9.52263E-05-2.85677E-05-2.85680E-05 3.19819E-08-8.41466E-19 1.86586E-19
 -1       382 9.52304E-05-2.85743E-05-2.85670E-05 3.05047E-08 1.08674E-19 6.73922E-19
 -1       383 9.61653E-05-2.77722E-05-2.92715E-05 1.13028E-06 1.14401E-18 1.58358E-18
 -1       384 9.56426E-05-2.80470E-05-2.89456E-05-8.84668E-07 7.84670E-19 1.05128E-18
 -1       385 9.59299E-05-2.83401E-05-2.89546E-05-2.17896E-06 5.90020E-19 7.76921E-19
 -1       386 9.68093E-05-2.87195E-05-2.91746E-05-3.08243E-06 4.02067E-19 8.15358E-19
 -1       387 9.81264E-05-2.92014E-05-2.95356E-05-3.73680E-06 5.94275E-19 5.38205E-19
 -1       388 9.97651E-05-2.97918E-05-2.99875E-05-4.17326E-06 9.98690E-19 4.83887E-19
 -1       389 1.01620E-04-3.04946E-05-3.04844E-05-4.34237E-06 7.02972E-19 4.34293E-19
 -1       390 1.03571E-04-3.13057E-05-3.09763E-05-4.12541E-06 2.91432E-20 3.93084E-19
 -1       391 1.05453E-04-3.21963E-05-3.14056E-05-3.35133E-06 8.92528E-20 3.95583E-19
 -1       392 1.07039E-04-3.30812E-05-3.17096E-05-1.84338E-06 1.73137E-19 2.43859E-19
 -1       393 1.08020E-04-3.37794E-05-3.18328E-05 4.78406E-07 5.74063E-19 6.05179E-20
 -1       394 1.08035E-04-3.39904E-05-3.17474E-05 3.42884E-06 4.61070E-21 2.04008E-19
 -1       395 1.06780E-04-3.33542E-05-3.14757E-05 6.37312E-06-2.57774E-19 1.10970E-19
 -1       396 1.04250E-04-3.16791E-05-3.11007E-05 8.19581E-06 3.53435E-19 1.15871E-19
 -1       397 1.01042E-04-2.92915E-05-3.07419E-05 7.68507E-06 8.03927E-19-4.03143E-19
 -1       398 9.83932E-05-2.71724E-05-3.05083E-05 4.36060E-06 5.57493E-19-3.98916E-20
 -1       399 9.76153E-05-2.64870E-05-3.04691E-05-8.10265E-07 8.64172E-20-1.07862E-18
 -1       400 9.91706E-05-2.76671E-05-3.06301E-05-5.70001E-06-3.44769E-20-6.70657E-19
 -1       401 1.02273E-04-3.00060E-05-3.09575E-05-8.36961E-06 2.95802E-19-1.70701E-18
 -1       402 1.05552E-04-3.23256E-05-3.13785E-05-8.24085E-06 4.21990E-19-2.40324E-18
 -1       403 1.07912E-04-3.37781E-05-3.17792E-05-6.06635E-06 3.14074E-19-1.90989E-18
 -1       404 1.08958E-04-3.42069E-05-3.20514E-05-3.10363E-06-3.95394E-19-2.47824E-18
 -1       405 1.08824E-04-3.38820E-05-3.21347E-05-3.62385E-07-1.23164E-18-1.96850E-18
 -1       406 1.07862E-04-3.31700E-05-3.20249E-05 1.65412E-06-7.50463E-19-1.27281E-18
 -1       407 1.06428E-04-3.23458E-05-3.17590E-05 2.85725E-06 6.40006E-19-4.95877E-19
 -1       408 1.04799E-04-3.15619E-05-3.13923E-05 3.37879E-06 2.83644E-19 1.59794E-19
 -1       409 1.03165E-04-3.08822E-05-3.09796E-05 3.41959E-06 1.07598E-18 6.56110E-19
 -1       410 1.01641E-04-3.03218E-05-3.05641E-05 3.16750E-06 1.06895E-18 7.49909E-19
 -1       411 1.00288E-04-2.98732E-05-3.01754E-05 2.76679E-06 3.30016E-19-1.62224E-18
 -1       412 9.91331E-05-2.95215E-05-2.98305E-05 2.31533E-06-2.89572E-19-2.89671E-18
 -1       413 9.81757E-05-2.92503E-05-2.95364E-05 1.87299E-06-1.33206E-18-2.72705E-18
 -1       414 9.74030E-05-2.90444E-05-2.92936E-05 1.47221E-06-2.12664E-19-8.03999E-19
 -1       415 9.67938E-05-2.88907E-05-2.90988E-05 1.12728E-06 7.57171E-19 1.29221E-18
 -1       416 9.63244E-05-2.87781E-05-2.89463E-05 8.41346E-07 5.83642E-19 1.19620E-18
 -1       417 9.59709E-05-2.86974E-05-2.88298E-05 6.11231E-07 3.47196E-19-6.76903E-21
 -1       418 9.57109E-05-2.86411E-05-2.87429E-05 4.30627E-07 6.73634E-19-3.07085E-19
 -1       419 9.55250E-05-2.86032E-05-2.86797E-05 2.92043E-07-2.01542E-18-3.17310E-18
 -1       420 9.53964E-05-2.85790E-05-2.86353E-05 1.87966E-07-2.31666E-19-2.16153E-18
 -1       421 9.53112E-05-2.85647E-05-2.86051E-05 1.11502E-07 5.22693E-19-9.05641E-19
 -1       422 9.52584E-05-2.85574E-05-2.85857E-05 5.66805E-08 1.85044E-19-8.94439E-19
 -1       423 9.52289E-05-2.85552E-05-2.85742E-05 1.85852E-08 1.90590E-18 5.27421E-19
 -1       424 9.52158E-05-2.85563E-05-2.85682E-05-6.62538E-09 1.25456E-18-1.14164E-19
 -1       425 9.52137E-05-2.85597E-05-2.85659E-05-2.17307E-08 9.79232E-19 1.76863E-19
 -1       426 9.52181E-05-2.85647E-05-2.85657E-05-2.84022E-08 9.67057E-19-7.59385E-19
 -1       427 9.52260E-05-2.85709E-05-2.85665E-05-2.73305E-08 1.18707E-18 8.53817E-19
 -1       428 9.52320E-05-2.85759E-05-2.85669E-05-2.32547E-08-2.55430E-19 4.34019E-19
 -1       429 9.52469E-05-2.85895E-05-2.85674E-05-2.49785E-08-1.58434E-18-1.69612E-18
 -1       430 9.52431E-05-2.85855E-05-2.85675E-05-2.93863E-08-1.99873E-18 2.60022E-19
 -1       431 9.52380E-05-2.85817E-05-2.85670E-05-2.88304E-08 2.34847E-19 2.39696E-18
 -1       432 9.52481E-05-2.85912E-05-2.85672E-05-1.85170E-08-1.78372E-18-1.06414E-18
 -1       433 9.52477E-05-2.85914E-05-2.85669E-05-1.20563E-08-1.48966E-18 1.83921E-18
 -1       434 9.52468E-05-2.85910E-05-2.85667E-05-6.67206E-09-1.16210E-19 1.94240E-18
 -1       435 9.52462E-05-2.85907E-05-2.85666E-05-2.34229E-09-1.24275E-18 2.25448E-18
 -1       436 9.52463E-05-2.85908E-05-2.85666E-05 1.62044E-09-2.30625E-18 1.12351E-18
 -1       437 9.52471E-05-2.85914E-05-2.85667E-05 6.12320E-09-1.13144E-18-7.85105E-19
 -1       438 9.52481E-05-2.85920E-05-2.85669E-05 1.17037E-08 5.74852E-19-3.22265E-18
 -1       439 9.52485E-05-2.85919E-05-2.85671E-05 1.85057E-08 6.39468E-19 3.83961E-19
 -1       440 9.52472E-05-2.85900E-05-2.85673E-05 2.54034E-08 2.12206E-18 2.94012E-19
 -1       441 9.52433E-05-2.85862E-05-2.85674E-05 3.04734E-08 4.09185E-19 1.55887E-18
 -1       442 5.59512E-05-4.08123E-05-6.74235E-06 4.23229E-05 8.80067E-19 4.04569E-18
 -1       443 1.34007E-05-1.83277E-05 2.30296E-06 8.60444E-07 2.42316E-19 3.80339E-18
 -1       444 2.76725E-05-2.76230E-05-1.09356E-08 3.01835E-05 9.33324E-19 4.24025E-18
 -1       445 9.95661E-05-5.31671E-05-1.98128E-05 4.12801E-05-9.85311E-19 1.97687E-18
 -1       446 1.28063E-04-5.51624E-05-3.13632E-05 2.80883E-05 6.37392E-19 6.71485E-19
 -1       447 8.95288E-05-1.15766E-05-3.34726E-05-9.11371E-06-1.47713E-18-2.14836E-18
 -1       448 1.59086E-04-2.47491E-05-5.73139E-05 1.14931E-06 4.39187E-18 6.91602E-19
 -1       449 1.62155E-04-1.52060E-05-6.26014E-05-2.35109E-07 3.85104E-18 1.00913E-18
 -1       450 1.51224E-04-1.27057E-05-5.95625E-05 2.80600E-06 3.69846E-18-8.25857E-20
 -1       451 1.52848E-04-2.94881E-05-5.30213E-05 9.50701E-07 2.61511E-18 1.12761E-19
 -1       452 1.49705E-04-4.41887E-05-4.51140E-05-1.14411E-05 2.87575E-18 2.02759E-19
 -1       453 1.24188E-04-5.29455E-05-3.05596E-05-3.22759E-05 1.87131E-18-6.09228E-19
 -1       454 9.09522E-05-5.09099E-05-1.72403E-05-4.29560E-05 4.83126E-19-1.32757E-18
 -1       455 5.00236E-05-3.68775E-05-5.52976E-06-4.16793E-05-1.22079E-18-2.85720E-18
 -1       456 1.96654E-05-2.74278E-05 3.00970E-06-2.29585E-05-7.27442E-19-5.36881E-18
 -1       457 1.28491E-05-2.27516E-05 4.07284E-06 6.11804E-06-7.38348E-19-5.32540E-18
 -1       458 2.86218E-05-3.05796E-05 5.64985E-07 2.97080E-05-8.03305E-19-5.48274E-18
 -1       459 6.84268E-05-4.55082E-05-9.98378E-06 4.31492E-05-1.81106E-18-3.28289E-18
 -1       460 1.03787E-04-5.32779E-05-2.17961E-05 3.91453E-05-2.52003E-18-2.60050E-18
 -1       461 1.35245E-04-5.28717E-05-3.52990E-05 2.60794E-05-2.83179E-18-1.01993E-18
 -1       462 1.56101E-04-4.13842E-05-4.88890E-05 9.89212E-06-3.53607E-18-9.84041E-19
 -1       463 1.60265E-04-2.70462E-05-5.69348E-05-1.37944E-06-4.79325E-18 3.50989E-19
 -1       464 1.56011E-04-1.27889E-05-6.14582E-05-7.62473E-07-4.77292E-18 1.18317E-18
 -1       465 1.56800E-04-1.52387E-05-6.06331E-05 3.55941E-06-5.28951E-18 1.17907E-18
 -1       466 1.59938E-04-3.08310E-05-5.51083E-05-5.85209E-07-5.94797E-18 5.02502E-19
 -1       467 1.53758E-04-4.40156E-05-4.67878E-05-1.25466E-05-4.73621E-18 1.54986E-18
 -1       468 1.31912E-04-5.47282E-05-3.30635E-05-2.68251E-05-2.57456E-18 3.37701E-18
 -1       469 9.36943E-05-5.25980E-05-1.77668E-05-4.11086E-05-8.45762E-19 4.82703E-18
 -1       470 5.79249E-05-4.16421E-05-7.12908E-06-4.15054E-05-3.40295E-19 4.84053E-18
 -1       471 2.47459E-05-2.64948E-05 7.79357E-07-2.57974E-05-4.91385E-19 7.47920E-18
 -1       472 1.50367E-04-4.16152E-05-4.65772E-05 7.98675E-06 3.77348E-18-2.31981E-19
 -1       473 1.41835E-04-1.47150E-05-5.49397E-05-8.05331E-06-5.28983E-18 8.71729E-19
 -1       474 9.69763E-05-2.52654E-05-3.07185E-05 4.24838E-06 1.56275E-18 1.55514E-19
 -1       475 8.80644E-05-1.17199E-05-3.27362E-05-2.85498E-06-5.46829E-19-2.45822E-18
 -1       476 8.92998E-05-1.30514E-05-3.26976E-05-4.37778E-06-8.60366E-19-2.40818E-18
 -1       477 8.71334E-05-1.07558E-05-3.27486E-05-1.33478E-08 4.00078E-19-2.28291E-18
 -1       478 8.74219E-05-1.10578E-05-3.27433E-05 1.40061E-06 7.76711E-19-2.32674E-18
 -1       479 8.81846E-05-1.18629E-05-3.27265E-05 2.85641E-06 1.11135E-18-2.44513E-18
 -1       480 8.94482E-05-1.32388E-05-3.26808E-05 4.42386E-06 1.52424E-18-2.00056E-18
 -1       481 9.12222E-05-1.52723E-05-3.25723E-05 6.02335E-06 1.75611E-18-1.48788E-18
 -1       482 9.36182E-05-1.81951E-05-3.23441E-05 7.48551E-06 1.97597E-18-9.23014E-19
 -1       483 9.66410E-05-2.66834E-05-2.99627E-05 7.33427E-07 1.22560E-18-8.68300E-20
 -1       484 9.64472E-05-2.42868E-05-3.09147E-05-3.68951E-06-1.39576E-18-8.21892E-19
 -1       485 1.39163E-04-5.48650E-05-3.63649E-05 3.91059E-06-1.03555E-19-1.65251E-18
 -1       486 9.65127E-05-2.59538E-05-3.02298E-05-2.31134E-07-1.02695E-18-7.44401E-19
 -1       487 9.65281E-05-2.68134E-05-2.98729E-05 2.33239E-06-9.56650E-19-6.84838E-19
 -1       488 9.67205E-05-2.73015E-05-2.97476E-05 4.31880E-06-7.88731E-19-6.45815E-19
 -1       489 9.71576E-05-2.76583E-05-2.97827E-05 5.96407E-06-4.95490E-19-6.14037E-19
 -1       490 9.78591E-05-2.80316E-05-2.99239E-05 7.39972E-06-4.31489E-19-6.37865E-19
 -1       491 9.88639E-05-2.85679E-05-3.01254E-05 8.65730E-06-4.90207E-20-6.29484E-19
 -1       492 1.00264E-04-2.94551E-05-3.03465E-05 9.66252E-06-4.16658E-19-5.27671E-19
 -1       493 1.02229E-04-3.09410E-05-3.05546E-05 1.02124E-05 1.35569E-20 1.18076E-20
 -1       494 1.05016E-04-3.33039E-05-3.07391E-05 9.94115E-06 9.70395E-20 4.90533E-19
 -1       495 1.08886E-04-3.67074E-05-3.09423E-05 8.29806E-06 3.04313E-19 3.92036E-19
 -1       496 1.13910E-04-4.08726E-05-3.13134E-05 4.57352E-06 5.42892E-19 2.17909E-19
 -1       497 1.19237E-04-4.42916E-05-3.21367E-05-1.63824E-06-3.44369E-19 1.12626E-18
 -1       498 1.23045E-04-4.42946E-05-3.38034E-05-9.67286E-06-5.11604E-19 1.44901E-18
 -1       499 1.22056E-04-3.75941E-05-3.62879E-05-1.55182E-05-5.78338E-19 9.75516E-19
 -1       500 1.17688E-04-2.63455E-05-3.93115E-05-1.41188E-05-1.32655E-18 2.69992E-21
 -1       501 1.12916E-04-1.78767E-05-4.11148E-05-2.17534E-06-2.94222E-18-3.14593E-19
 -1       502 1.15763E-04-2.26686E-05-4.01550E-05 1.15514E-05-2.24949E-18-1.48523E-18
 -1       503 1.20882E-04-3.39540E-05-3.74740E-05 1.69902E-05-1.12805E-18-2.04556E-18
 -1       504 1.23587E-04-4.29892E-05-3.45773E-05 1.26843E-05 8.01505E-20-1.74438E-18
 -1       505 1.20976E-04-4.48765E-05-3.26494E-05 4.63525E-06 1.18191E-18-1.01082E-18
 -1       506 1.15872E-04-4.20573E-05-3.16552E-05-2.27663E-06 8.18840E-19-5.54860E-19
 -1       507 1.10708E-04-3.79064E-05-3.12139E-05-6.63612E-06 2.21759E-19-8.25341E-19
 -1       508 1.06560E-04-3.42236E-05-3.10091E-05-8.71384E-06 4.00287E-20-5.89934E-19
 -1       509 1.03556E-04-3.15789E-05-3.08507E-05-9.21903E-06 9.71546E-19 8.07256E-19
 -1       510 1.01455E-04-2.99063E-05-3.06642E-05-8.78107E-06 1.53250E-19 8.57295E-19
 -1       511 9.99727E-05-2.89463E-05-3.04387E-05-7.85322E-06 3.75773E-19 1.12346E-18
 -1       512 9.88912E-05-2.84458E-05-3.01889E-05-6.72960E-06-8.11509E-19 2.05151E-18
 -1       513 9.80711E-05-2.82178E-05-2.99350E-05-5.58707E-06-1.35637E-18 2.77983E-18
 -1       514 9.74302E-05-2.81407E-05-2.96934E-05-4.52311E-06-1.51545E-18 1.47876E-18
 -1       515 9.69207E-05-2.81419E-05-2.94748E-05-3.58428E-06-1.34511E-18 2.27353E-19
 -1       516 9.65139E-05-2.81796E-05-2.92846E-05-2.78600E-06-2.80326E-19 2.92911E-19
 -1       517 9.61904E-05-2.82316E-05-2.91240E-05-2.12582E-06-2.61204E-19-9.03570E-19
 -1       518 9.59360E-05-2.82860E-05-2.89919E-05-1.59189E-06 2.33716E-20 4.91101E-21
 -1       519 9.57386E-05-2.83372E-05-2.88855E-05-1.16822E-06 2.70052E-19 5.70882E-19
 -1       520 9.55881E-05-2.83828E-05-2.88017E-05-8.37782E-07 7.01971E-19 2.38230E-19
 -1       521 9.54756E-05-2.84220E-05-2.87368E-05-5.84256E-07 2.17924E-18 7.05509E-20
 -1       522 9.53933E-05-2.84549E-05-2.86876E-05-3.92897E-07 1.92727E-18 9.20250E-19
 -1       523 9.53348E-05-2.84822E-05-2.86509E-05-2.50931E-07 8.96583E-19 5.25137E-19
 -1       524 9.52945E-05-2.85045E-05-2.86241E-05-1.47654E-07-5.14856E-19 9.89967E-23
 -1       525 9.52679E-05-2.85227E-05-2.86050E-05-7.43555E-08 1.45360E-18 6.19835E-19
 -1       526 9.52515E-05-2.85378E-05-2.85915E-05-2.41365E-08 5.75568E-19 1.99222E-18
 -1       527 9.52426E-05-2.85509E-05-2.85821E-05 8.13800E-09-1.32264E-19 8.36482E-19
 -1       528 9.52389E-05-2.85629E-05-2.85754E-05 2.61319E-08-1.18260E-18 6.06907E-19
 -1       529 9.67863E-05-2.79587E-05-2.94923E-05-3.32258E-06 4.76111E-19-3.19243E-19
 -1       530 9.73865E-05-2.84242E-05-2.95524E-05-4.55494E-06 7.07147E-19-3.82900E-19
 -1       531 9.83109E-05-2.89533E-05-2.97233E-05-5.45272E-06 7.58367E-19-5.26055E-19
 -1       532 9.95370E-05-2.96318E-05-2.99596E-05-6.02221E-06 7.51730E-19-1.17285E-19
 -1       533 1.01054E-04-3.05393E-05-3.02231E-05-6.17636E-06 2.59746E-19 3.07738E-19
 -1       534 1.02853E-04-3.17394E-05-3.04824E-05-5.74430E-06 2.86556E-19 2.32744E-20
 -1       535 1.04892E-04-3.32361E-05-3.07179E-05-4.49515E-06 4.25473E-19-1.75833E-19
 -1       536 1.07034E-04-3.48866E-05-3.09313E-05-2.20591E-06 3.44510E-19-6.13683E-20
 -1       537 1.08954E-04-3.62851E-05-3.11561E-05 1.18574E-06 1.56758E-19-4.11345E-19
 -1       538 1.10081E-04-3.67055E-05-3.14565E-05 5.32180E-06-3.94169E-19-2.86616E-19
 -1       539 1.09718E-04-3.52918E-05-3.18998E-05 9.12328E-06-2.09631E-19 1.44370E-19
 -1       540 1.07572E-04-3.17522E-05-3.24935E-05 1.07807E-05 6.26842E-19 3.12041E-19
 -1       541 1.04454E-04-2.72108E-05-3.31046E-05 8.58434E-06 9.38991E-19 5.86269E-19
 -1       542 1.02292E-04-2.41709E-05-3.34780E-05 2.52210E-06 7.89344E-19 1.84481E-19
 -1       543 1.02689E-04-2.46730E-05-3.34524E-05-4.86540E-06 2.70074E-19 2.29923E-20
 -1       544 1.05442E-04-2.84498E-05-3.30023E-05-1.00003E-05 8.71547E-19-5.56412E-19
 -1       545 1.08551E-04-3.29468E-05-3.24009E-05-1.10830E-05 6.24530E-19-1.50136E-18
 -1       546 1.10304E-04-3.59264E-05-3.18802E-05-8.68639E-06 4.99378E-19-1.13540E-18
 -1       547 1.10297E-04-3.67714E-05-3.15207E-05-4.73281E-06 4.00537E-19-6.86928E-19
 -1       548 1.08996E-04-3.60080E-05-3.12921E-05-8.41445E-07-8.02020E-19-1.95963E-18
 -1       549 1.07097E-04-3.45060E-05-3.11212E-05 2.13050E-06-1.34043E-18-2.26535E-18
 -1       550 1.05104E-04-3.29123E-05-3.09468E-05 3.98900E-06-4.33600E-19-2.03209E-18
 -1       551 1.03270E-04-3.15492E-05-3.07415E-05 4.88007E-06 2.04414E-19-1.96799E-18
 -1       552 1.01684E-04-3.05106E-05-3.05041E-05 5.06353E-06 3.01852E-19-1.55820E-18
 -1       553 1.00351E-04-2.97740E-05-3.02470E-05 4.79400E-06 5.98191E-19-7.46601E-19
 -1       554 9.92496E-05-2.92765E-05-2.99870E-05 4.27451E-06 1.36527E-18 6.20534E-19
 -1       555 9.83472E-05-2.89527E-05-2.97385E-05 3.64908E-06 5.99104E-19 4.97340E-19
 -1       556 9.76152E-05-2.87489E-05-2.95120E-05 3.01087E-06-5.92085E-19-8.67560E-20
 -1       557 9.70278E-05-2.86254E-05-2.93134E-05 2.41454E-06-1.32960E-18 6.94527E-20
 -1       558 9.65622E-05-2.85543E-05-2.91446E-05 1.88787E-06-4.10122E-19 3.22831E-20
 -1       559 9.61985E-05-2.85167E-05-2.90051E-05 1.44108E-06 3.74392E-19-3.40238E-19
 -1       560 9.59188E-05-2.85000E-05-2.88926E-05 1.07373E-06 1.32524E-18 1.03512E-20
 -1       561 9.57074E-05-2.84961E-05-2.88039E-05 7.79433E-07 5.88559E-19-2.93972E-19
 -1       562 9.55508E-05-2.84995E-05-2.87356E-05 5.48971E-07 1.17012E-18 1.94248E-19
 -1       563 9.54376E-05-2.85068E-05-2.86841E-05 3.72272E-07-1.50103E-18-1.07375E-18
 -1       564 9.53579E-05-2.85160E-05-2.86462E-05 2.39581E-07-5.21374E-19-1.68169E-18
 -1       565 9.53039E-05-2.85257E-05-2.86190E-05 1.42101E-07 1.79739E-19-1.26716E-18
 -1       566 9.52691E-05-2.85352E-05-2.86000E-05 7.23136E-08 4.17491E-19-1.01849E-18
 -1       567 9.52483E-05-2.85443E-05-2.85873E-05 2.40899E-08 1.61328E-18 3.96973E-19
 -1       568 9.52375E-05-2.85531E-05-2.85789E-05-7.29855E-09 1.27570E-18 3.42523E-19
 -1       569 9.52335E-05-2.85619E-05-2.85735E-05-2.53956E-08 1.54488E-18 3.31847E-19
 -1       570 9.52345E-05-2.85714E-05-2.85699E-05-3.24286E-08-1.31884E-19 1.37720E-18
 -1       571 9.52432E-05-2.85614E-05-2.85779E-05-1.20397E-08 5.59746E-19 1.55679E-18
 -1       572 9.52397E-05-2.85554E-05-2.85790E-05-6.40995E-09 1.47876E-18 3.37042E-18
 -1       573 9.52441E-05-2.85718E-05-2.85739E-05-2.71272E-08-2.98274E-19-2.40861E-18
 -1       574 9.52453E-05-2.85675E-05-2.85762E-05-1.93810E-08-9.29948E-19-7.44859E-19
 -1       575 9.52368E-05-2.85512E-05-2.85796E-05-2.83914E-09-4.20136E-19 3.25563E-19
 -1       576 9.52359E-05-2.85497E-05-2.85797E-05-5.23028E-10-9.36873E-19 1.56922E-18
 -1       577 9.52372E-05-2.85515E-05-2.85796E-05 1.90797E-09-1.04507E-18 8.21286E-19
 -1       578 9.52402E-05-2.85560E-05-2.85790E-05 5.72954E-09 2.63657E-19-9.75080E-19
 -1       579 9.52439E-05-2.85621E-05-2.85779E-05 1.18079E-08 1.93706E-18-1.95553E-18
 -1       580 9.52460E-05-2.85681E-05-2.85763E-05 1.97927E-08 2.19390E-18 1.74670E-18
 -1       581 9.52442E-05-2.85720E-05-2.85738E-05 2.75390E-08 1.25519E-18-6.78066E-19
 -1       582 3.23090E-05-1.44086E-05-7.03201E-06 1.88387E-05 3.07155E-19 3.81827E-18
 -1       583 8.49526E-05-4.73463E-05-1.58412E-05 4.21975E-05-1.94595E-18 1.39845E-18
 -1       584 9.65400E-05-2.74461E-05-2.96015E-05-1.64344E-06 8.68390E-19-3.03055E-19
 -1       585 3.09873E-05-1.43057E-05-6.46350E-06-1.54143E-05 1.14168E-18 6.12855E-18
 -1       586 1.22085E-04-5.97578E-05-2.66300E-05 2.74782E-05-1.71339E-18 5.19469E-19
 -1       587 9.53317E-05-2.06928E-05-3.20063E-05-7.62333E-06-1.82122E-18-1.07517E-18
 -1       588 1.44003E-04-5.54430E-05-3.81075E-05-4.19440E-06-5.66218E-19-2.14262E-18
 -1       589 1.45367E-04-5.37372E-05-3.94680E-05 3.32235E-06-1.34962E-18 1.03687E-18
 -1       590 1.35548E-04-1.89428E-05-5.05538E-05 1.05720E-05 2.68652E-18 7.36204E-19
 -1       591 8.73451E-05-1.09704E-05-3.27478E-05-1.41244E-06 1.03094E-20-2.39328E-18
 -1       592 1.32952E-04-7.58506E-06-5.43142E-05-1.30569E-06 4.45878E-18 5.14129E-19
 -1       593 1.18493E-04-5.93917E-05-2.52529E-05-3.15678E-05-9.39942E-19 3.75077E-19
 -1       594 1.36808E-04-1.43284E-05-5.30355E-05-8.58819E-06 4.01038E-18 1.72795E-19
 -1       595 1.42363E-04-4.02220E-05-4.41458E-05 6.27628E-06 1.92827E-18 1.24630E-18
 -1       596 1.23088E-04-6.10223E-05-2.65459E-05-2.74403E-05 7.58465E-19 3.82382E-19
 -1       597 1.39097E-04-5.62392E-05-3.56749E-05-1.16344E-05 4.90379E-19 1.28961E-18
 -1       598 8.40328E-05-4.74219E-05-1.53964E-05-4.29021E-05-1.94849E-18-7.00973E-19
 -1       599 4.10167E-05-2.31004E-05-7.08045E-06-3.10217E-05-1.91173E-18-3.73388E-18
 -1       600 2.49182E-05-1.33672E-05-4.28195E-06-7.51173E-06-1.22530E-18-4.72888E-18
 -1       601 2.98154E-05-1.80105E-05-4.48178E-06 2.06117E-05-2.60251E-19-4.99199E-18
 -1       602 5.88640E-05-3.52570E-05-9.71939E-06 4.01639E-05 8.76150E-19-3.82165E-18
 -1       603 1.00002E-04-5.48574E-05-1.91313E-05 3.93137E-05 1.89524E-20-1.02007E-18
 -1       604 1.28097E-04-6.12086E-05-2.86780E-05 2.51403E-05-1.06578E-18 4.14940E-19
 -1       605 1.44752E-04-3.58412E-05-4.70707E-05-9.65323E-06-3.07409E-18 2.36190E-18
 -1       606 1.35614E-04-1.05967E-05-5.42427E-05 2.64579E-06-5.10115E-18-1.94791E-19
 -1       607 1.40798E-04-2.16380E-05-5.15694E-05 1.23072E-05-4.96361E-18-7.96582E-19
 -1       608 1.46056E-04-4.25036E-05-4.47729E-05 7.73003E-06-2.60677E-18-1.55536E-18
 -1       609 8.60213E-05-4.87347E-05-1.57129E-05-4.12595E-05 1.62694E-18 4.00170E-18
 -1       610 5.01291E-05-2.89796E-05-8.54991E-06-3.57345E-05 1.06017E-18 4.16894E-18
 -1       611 1.42302E-04-3.11090E-05-4.80532E-05-9.24643E-06 3.10390E-18-7.90493E-19
 -1       612 9.71399E-05-2.33859E-05-3.16118E-05 8.08639E-06 1.94219E-18 5.31791E-19
 -1       613 5.58647E-05-3.11157E-05-1.00351E-05 3.89705E-05-1.11597E-18 1.55097E-18
 -1       614 9.10630E-05-1.50572E-05-3.25963E-05-5.92117E-06-1.15434E-18-2.15888E-18
 -1       615 9.30289E-05-1.75030E-05-3.23880E-05-7.01995E-06-1.49054E-18-1.73759E-18
 -1       616 1.33657E-04-2.47093E-05-4.70876E-05-1.54108E-05-2.69685E-18 1.92451E-18
 -1       617 6.75130E-05-3.41200E-05-1.38524E-05-3.80637E-05-2.44118E-18-1.42736E-18
 -1       618 1.23566E-04-1.11225E-05-4.87649E-05 6.53476E-06 2.91369E-18-4.74338E-20
 -1       619 9.52386E-05-2.85711E-05-2.85718E-05 3.17625E-08-8.29870E-19 2.15917E-18
 -1       620 8.94392E-05-1.45457E-05-3.21022E-05 1.30199E-06 8.63326E-19-2.01029E-18
 -1       621 8.88432E-05-1.38865E-05-3.21290E-05 3.76233E-07 5.42848E-19-1.92039E-18
 -1       622 9.20885E-05-1.76577E-05-3.19043E-05 3.21956E-06 1.55103E-18-1.55235E-18
 -1       623 9.39797E-05-2.01686E-05-3.16408E-05 3.96069E-06 1.68180E-18-1.21211E-18
 -1       624 9.59526E-05-2.37401E-05-3.09382E-05 2.87326E-06 1.42414E-18-8.58861E-19
 -1       625 3.75697E-05-1.24125E-05-1.02082E-05 7.84415E-06-8.08850E-20-3.98979E-18
 -1       626 7.91029E-05-3.86333E-05-1.70169E-05 3.70834E-05-2.04876E-18 8.68209E-19
 -1       627 5.22937E-05-2.10872E-05-1.28976E-05-2.62808E-05 1.39441E-18 5.10462E-18
 -1       628 1.38707E-04-4.93376E-05-3.85672E-05 9.13031E-06-2.64407E-19-2.68764E-18
 -1       629 9.56775E-05-2.46145E-05-3.04572E-05 8.39179E-07-8.85836E-19-1.23648E-18
 -1       630 9.57445E-05-2.55518E-05-3.00813E-05 3.27132E-06-8.13175E-19-1.03943E-18
 -1       631 9.57278E-05-2.60587E-05-2.98573E-05 5.28688E-06-4.98224E-19-9.77470E-19
 -1       632 9.57432E-05-2.63668E-05-2.97319E-05 7.04477E-06-5.07203E-19-9.11337E-19
 -1       633 9.58824E-05-2.66841E-05-2.96557E-05 8.64376E-06-8.23998E-20-9.10807E-19
 -1       634 9.62779E-05-2.72477E-05-2.95838E-05 1.01235E-05 8.26887E-21-2.19093E-19
 -1       635 9.71591E-05-2.83716E-05-2.94801E-05 1.14505E-05 2.59487E-19 4.77795E-19
 -1       636 9.89089E-05-3.04707E-05-2.93306E-05 1.24863E-05 2.37228E-19 5.52066E-19
 -1       637 1.02100E-04-3.40213E-05-2.91742E-05 1.29088E-05 1.74468E-19 3.62704E-19
 -1       638 1.07380E-04-3.92996E-05-2.91696E-05 1.20430E-05 4.09689E-19 6.90377E-19
 -1       639 1.15435E-04-4.59922E-05-2.97950E-05 8.59011E-06 9.34645E-19 1.14080E-18
 -1       640 1.24785E-04-5.12623E-05-3.15527E-05 1.43467E-06 6.07680E-20 1.96632E-18
 -1       641 1.31544E-04-4.95786E-05-3.53083E-05-9.30549E-06-4.15152E-19 2.91388E-18
 -1       642 1.21255E-04-1.40161E-05-4.65557E-05 6.67075E-06-3.83124E-18-9.63745E-19
 -1       643 1.29795E-04-2.90451E-05-4.36035E-05 1.69097E-05-2.43998E-18-2.79905E-18
 -1       644 1.17954E-04-4.76731E-05-3.01008E-05-6.48397E-06 1.42212E-18-5.17036E-19
 -1       645 1.09545E-04-4.10625E-05-2.93473E-05-1.06382E-05 7.57961E-19 3.46256E-19
 -1       646 1.03486E-04-3.52283E-05-2.92540E-05-1.19385E-05 1.07079E-18 8.10210E-19
 -1       647 9.97253E-05-3.11622E-05-2.93846E-05-1.16970E-05 1.33742E-18 2.01520E-18
 -1       648 9.75979E-05-2.87032E-05-2.95263E-05-1.07146E-05 7.38380E-19 1.91192E-18
 -1       649 9.64813E-05-2.74076E-05-2.96026E-05-9.42503E-06-1.76603E-19 9.39463E-19
 -1       650 9.59307E-05-2.68537E-05-2.96037E-05-8.05500E-06-4.70603E-19 8.13294E-20
 -1       651 9.56718E-05-2.67299E-05-2.95457E-05-6.72603E-06-7.11414E-20 1.24163E-18
 -1       652 9.55512E-05-2.68324E-05-2.94502E-05-5.50385E-06-1.66807E-18 1.07281E-18
 -1       653 9.54904E-05-2.70378E-05-2.93362E-05-4.42137E-06-1.33032E-18 2.40395E-18
 -1       654 9.54521E-05-2.72757E-05-2.92179E-05-3.49026E-06-1.70013E-18 2.22929E-18
 -1       655 9.54212E-05-2.75090E-05-2.91048E-05-2.70844E-06-8.87895E-19 1.41949E-18
 -1       656 9.53926E-05-2.77198E-05-2.90023E-05-2.06551E-06-1.11456E-19 6.30127E-19
 -1       657 9.53655E-05-2.79015E-05-2.89129E-05-1.54651E-06-4.11614E-19-1.43007E-19
 -1       658 9.53406E-05-2.80532E-05-2.88372E-05-1.13470E-06 4.09940E-19-6.99640E-19
 -1       659 9.53184E-05-2.81768E-05-2.87748E-05-8.13233E-07 1.35315E-18-1.25498E-18
 -1       660 9.52994E-05-2.82757E-05-2.87244E-05-5.66320E-07 2.18482E-18-1.46368E-18
 -1       661 9.52837E-05-2.83535E-05-2.86843E-05-3.79781E-07 7.03394E-19-4.12972E-19
 -1       662 9.52712E-05-2.84139E-05-2.86531E-05-2.41346E-07-3.10068E-19-1.86554E-18
 -1       663 9.52615E-05-2.84604E-05-2.86290E-05-1.40787E-07 1.79157E-18 4.02678E-20
 -1       664 9.52542E-05-2.84960E-05-2.86106E-05-6.96931E-08 1.07871E-18-1.50680E-18
 -1       665 9.52491E-05-2.85238E-05-2.85965E-05-2.14283E-08-1.15970E-18-1.96470E-18
 -1       666 9.52460E-05-2.85464E-05-2.85856E-05 8.67213E-09-6.33426E-19-3.17870E-18
 -1       667 9.69878E-05-2.77840E-05-2.96580E-05-5.71883E-06 9.42113E-19-1.03050E-18
 -1       668 9.52447E-05-2.85597E-05-2.85793E-05 2.08317E-08 1.24545E-18-2.48560E-18
 -1       669 9.65809E-05-2.71943E-05-2.97360E-05-4.32912E-06 5.53305E-19-1.05596E-18
 -1       670 9.86701E-05-2.93814E-05-2.96955E-05-7.48013E-06 5.11408E-20-1.17103E-19
 -1       671 1.00147E-04-3.07240E-05-2.97542E-05-7.72710E-06 3.07042E-19 5.61742E-20
 -1       672 1.02219E-04-3.26205E-05-2.98306E-05-7.31112E-06 2.42634E-19 2.44486E-19
 -1       673 1.04977E-04-3.50872E-05-2.99566E-05-5.93391E-06 4.36620E-19 7.19965E-20
 -1       674 1.08329E-04-3.78436E-05-3.02135E-05-3.25428E-06 3.49572E-19 6.83691E-19
 -1       675 1.11782E-04-4.00760E-05-3.07399E-05 9.21647E-07-3.45955E-19 8.35929E-19
 -1       676 1.14261E-04-4.03359E-05-3.16953E-05 6.21875E-06-5.56109E-19 5.50097E-19
 -1       677 1.14336E-04-3.69994E-05-3.31611E-05 1.09884E-05 1.38290E-19 7.78283E-19
 -1       678 1.11399E-04-2.99199E-05-3.49641E-05 1.23016E-05 6.23256E-19 1.11734E-18
 -1       679 1.07395E-04-2.24281E-05-3.64734E-05 7.62794E-06 1.57790E-18 1.05691E-18
 -1       680 1.05719E-04-1.98750E-05-3.68443E-05-1.68864E-06 8.47576E-19 2.03771E-19
 -1       681 1.07798E-04-2.41076E-05-3.60003E-05-1.00327E-05 1.38283E-18-6.39629E-19
 -1       682 1.12467E-04-3.20765E-05-3.44822E-05-1.29921E-05 1.21816E-18-1.41074E-18
 -1       683 1.14738E-04-3.83210E-05-3.27477E-05-1.03912E-05 3.78797E-19-1.60917E-18
 -1       684 1.13880E-04-4.04472E-05-3.14739E-05-5.31974E-06 4.19478E-19-1.11728E-18
 -1       685 1.11021E-04-3.94541E-05-3.06751E-05-3.43399E-07-3.21415E-19-4.86103E-19
 -1       686 1.07548E-04-3.69397E-05-3.02664E-05 3.28365E-06-6.79180E-19-1.45353E-18
 -1       687 1.04380E-04-3.42240E-05-3.00711E-05 5.44142E-06-6.37436E-19-1.98247E-18
 -1       688 1.01854E-04-3.19381E-05-2.99661E-05 6.41225E-06 1.80337E-19-2.03743E-18
 -1       689 9.99850E-05-3.02684E-05-2.98795E-05 6.55736E-06-3.45898E-19-1.10981E-18
 -1       690 9.86525E-05-2.91661E-05-2.97800E-05 6.18911E-06 2.47375E-20-1.21687E-18
 -1       691 9.77136E-05-2.85029E-05-2.96613E-05 5.53904E-06 3.38429E-19-4.66613E-19
 -1       692 9.70490E-05-2.81473E-05-2.95287E-05 4.76697E-06 1.11170E-18 8.44156E-19
 -1       693 9.65722E-05-2.79914E-05-2.93911E-05 3.97679E-06 2.12464E-19 1.23253E-18
 -1       694 9.62241E-05-2.79568E-05-2.92567E-05 3.23133E-06-9.54688E-19-1.60158E-19
 -1       695 9.59660E-05-2.79900E-05-2.91320E-05 2.56451E-06-6.54816E-19 1.00240E-18
 -1       696 9.57725E-05-2.80566E-05-2.90206E-05 1.99069E-06 1.28109E-18-5.33168E-19
 -1       697 9.56267E-05-2.81354E-05-2.89244E-05 1.51171E-06 1.10210E-18-1.29140E-18
 -1       698 9.55168E-05-2.82142E-05-2.88436E-05 1.12194E-06-9.91225E-20-6.80733E-19
 -1       699 9.54345E-05-2.82866E-05-2.87774E-05 8.11753E-07 4.75468E-19-8.54823E-19
 -1       700 9.53734E-05-2.83496E-05-2.87243E-05 5.69917E-07-6.41760E-19 6.71059E-19
 -1       701 9.53287E-05-2.84024E-05-2.86826E-05 3.85065E-07-2.99784E-19 2.73813E-19
 -1       702 9.52967E-05-2.84455E-05-2.86504E-05 2.46596E-07 3.90502E-19-3.28405E-19
 -1       703 9.52744E-05-2.84800E-05-2.86261E-05 1.45168E-07 5.03091E-19-1.12229E-18
 -1       704 9.52593E-05-2.85075E-05-2.86079E-05 7.29086E-08 1.71552E-19-1.18873E-18
 -1       705 9.52498E-05-2.85295E-05-2.85944E-05 2.35099E-08 1.16212E-18 4.23391E-19
 -1       706 9.52445E-05-2.85477E-05-2.85843E-05-7.87317E-09 1.28651E-18-3.86464E-19
 -1       707 9.52438E-05-2.85591E-05-2.85791E-05-2.07648E-08-8.84882E-19-7.06900E-19
 -1       708 1.06702E-04-5.32393E-05-2.27585E-05 3.15019E-05-2.52387E-18 3.80503E-21
 -1       709 9.52229E-05-2.85057E-05-2.85931E-05 5.96723E-10 4.61799E-19 1.20313E-18
 -1       710 1.40198E-04-4.81406E-05-3.99372E-05-9.32826E-06-1.46003E-18 2.91496E-18
 -1       711 9.52336E-05-2.85227E-05-2.85904E-05 7.69386E-10 1.57445E-18 3.23346E-18
 -1       712 9.52231E-05-2.85059E-05-2.85931E-05-1.95985E-09-4.67533E-19 1.19529E-18
 -1       713 9.52268E-05-2.85117E-05-2.85922E-05 2.15147E-09 1.06670E-18 8.93762E-19
 -1       714 9.52275E-05-2.85121E-05-2.85923E-05-3.21746E-09-3.44603E-19 8.92746E-19
 -1       715 9.52346E-05-2.85234E-05-2.85905E-05-1.34734E-09 4.44667E-19-8.79690E-19
 -1       716 9.52417E-05-2.85373E-05-2.85876E-05 4.52109E-09 1.69877E-18 1.35674E-18
 -1       717 1.30059E-04-3.05579E-05-4.30178E-05 1.36728E-05 1.52974E-18 3.59777E-19
 -1       718 5.66504E-05-2.22542E-05-1.43109E-05 2.82165E-05-1.75873E-18 8.80597E-19
 -1       719 9.49041E-05-2.15771E-05-3.14253E-05-3.85595E-06-1.40641E-18-1.32633E-18
 -1       720 4.29391E-05-1.09803E-05-1.33412E-05 3.26815E-07-4.95491E-19 4.14842E-18
 -1       721 1.20756E-04-1.15344E-05-4.73519E-05-6.90096E-06 3.79545E-18-2.17643E-18
 -1       722 1.34073E-04-5.99266E-05-3.18386E-05-8.97158E-06 1.51299E-18-1.97083E-18
 -1       723 9.63526E-05-2.64972E-05-2.99354E-05-2.53754E-06 7.46145E-19-8.74630E-19
 -1       724 9.76552E-05-2.84568E-05-2.96561E-05-6.77482E-06 3.35709E-19-7.41041E-19
 -1       725 9.54326E-05-2.33945E-05-3.08713E-05-1.33402E-06-1.11354E-18-1.27801E-18
 -1       726 1.07084E-04-5.41492E-05-2.25350E-05-3.25475E-05-1.64298E-18-1.55768E-19
 -1       727 9.61972E-05-2.54597E-05-3.03114E-05-2.07280E-07 1.18664E-18-9.36948E-19
 -1       728 9.05396E-05-1.57982E-05-3.20374E-05 2.26702E-06 1.28614E-18-1.85811E-18
 -1       729 9.03391E-05-1.55559E-05-3.20551E-05-2.28821E-06-6.11635E-19-2.07547E-18
 -1       730 1.28671E-04-5.75488E-05-3.04926E-05 1.14262E-05-2.42106E-18-1.20588E-18
 -1       731 1.09357E-04-5.51651E-05-2.30868E-05-3.02650E-05 2.63279E-18 1.41064E-19
 -1       732 5.28033E-05-2.37251E-05-1.19930E-05 2.99802E-05 9.21889E-19-3.22206E-18
 -1       733 1.35718E-04-5.07469E-05-3.66562E-05 3.15303E-06 5.35186E-19 9.07172E-19
 -1       734 4.14330E-05-1.53861E-05-1.06134E-05-1.84217E-05-1.66265E-18-3.81827E-18
 -1       735 7.70723E-05-3.82919E-05-1.62680E-05-3.66452E-05 1.67461E-18 3.40475E-18
 -1       736 8.74758E-05-4.50098E-05-1.79164E-05 3.78241E-05 1.70423E-18-6.08064E-19
 -1       737 1.30226E-04-5.90773E-05-3.05305E-05-1.39075E-05-4.33734E-19 5.18172E-19
 -1       738 1.36113E-04-5.96640E-05-3.28840E-05 7.65873E-06-1.35658E-20 1.64838E-18
 -1       739 1.33714E-04-4.13769E-05-3.99262E-05-1.03587E-05 1.14269E-18-2.80929E-18
 -1       740 1.19144E-04-5.92118E-05-2.55829E-05 2.62810E-05 8.47721E-19 7.67868E-19
 -1       741 1.28074E-04-2.26558E-05-4.56649E-05-1.35589E-05 2.03055E-18-1.84134E-18
 -1       742 9.18891E-05-1.73886E-05-3.19322E-05-3.17523E-06-8.99332E-19-2.04359E-18
 -1       743 8.87908E-05-1.38277E-05-3.21317E-05-5.11515E-07 1.18282E-19-1.90531E-18
 -1       744 1.28723E-04-5.27200E-05-3.26108E-05 1.71761E-06 1.44911E-18-2.12773E-18
 -1       745 9.52441E-05-2.85484E-05-2.85839E-05-1.14702E-08 8.85741E-20 5.38302E-19
 -1       746 1.20572E-04-2.06285E-05-4.32524E-05 1.23654E-05 1.76466E-18-4.66755E-19
 -1       747 5.94813E-05-2.40188E-05-1.48250E-05-2.86595E-05-2.24538E-18-1.81622E-18
 -1       748 9.02679E-05-4.32061E-05-1.99073E-05-3.42620E-05-1.47435E-18-1.04016E-18
 -1       749 9.52400E-05-2.85359E-05-2.85875E-05-4.10149E-09 2.09674E-18 1.46354E-18
 -1       750 8.92969E-05-1.43817E-05-3.21115E-05-1.39042E-06-2.89101E-19-1.90264E-18
 -1       751 1.30318E-04-5.03159E-05-3.44130E-05-3.90700E-06-9.07556E-19-2.14227E-18
 -1       752 9.52447E-05-2.85407E-05-2.85874E-05 6.14613E-09 5.91133E-19 5.61394E-19
 -1       753 1.24684E-04-1.45545E-05-4.77551E-05-6.40542E-06-4.20202E-18 2.58345E-19
 -1       754 1.08148E-04-5.13994E-05-2.41791E-05 2.68627E-05 1.25436E-18 2.48439E-19
 -1       755 9.40602E-05-2.13802E-05-3.11494E-05 1.27974E-06 1.30741E-18-1.27699E-18
 -1       756 5.73039E-05-1.56526E-05-1.76937E-05 1.43409E-05-1.23879E-18 1.65746E-18
 -1       757 9.33437E-05-1.93005E-05-3.17322E-05-3.64571E-06-1.19556E-18-1.86684E-18
 -1       758 1.22791E-04-3.08848E-05-3.96339E-05-1.46253E-05 1.25657E-18-1.90494E-18
 -1       759 7.68934E-05-3.14718E-05-1.93011E-05 2.94151E-05-2.02042E-18 1.02148E-18
 -1       760 1.27112E-04-5.78086E-05-2.95627E-05 1.19321E-05 7.26020E-19 1.81384E-18
 -1       761 9.55321E-05-2.54614E-05-3.00305E-05-3.39947E-06 8.18640E-19-1.34893E-18
 -1       762 9.43614E-05-2.42091E-05-3.00649E-05 3.94147E-06-5.43724E-19-1.14366E-18
 -1       763 9.40029E-05-2.46270E-05-2.97323E-05 5.80938E-06-4.83606E-19-1.05100E-18
 -1       764 9.35117E-05-2.48240E-05-2.94373E-05 7.52919E-06-2.24146E-19-9.73406E-19
 -1       765 9.30152E-05-2.50428E-05-2.91306E-05 9.20277E-06 4.30055E-19-5.82048E-19
 -1       766 9.27027E-05-2.55834E-05-2.87649E-05 1.09270E-05 6.71616E-19-7.01584E-21
 -1       767 9.28961E-05-2.68549E-05-2.83027E-05 1.27880E-05 3.74956E-19 3.31075E-19
 -1       768 9.41446E-05-2.94200E-05-2.77358E-05 1.48292E-05 1.27081E-19 5.10942E-19
 -1       769 9.73135E-05-3.39816E-05-2.71315E-05 1.69492E-05 4.79749E-19 9.83503E-19
 -1       770 1.04335E-04-4.15185E-05-2.69069E-05 1.85031E-05 9.58924E-19 9.45861E-19
 -1       771 1.18370E-04-5.50311E-05-2.71398E-05-1.89198E-05-1.05837E-18-5.49013E-19
 -1       772 9.85691E-05-3.55099E-05-2.70105E-05-1.66452E-05 1.59638E-18 4.34088E-19
 -1       773 9.44672E-05-3.01545E-05-2.75577E-05-1.45735E-05 1.56190E-18 1.60394E-18
 -1       774 9.26730E-05-2.70740E-05-2.81131E-05-1.24037E-05 1.66248E-19 1.76012E-19
 -1       775 9.21547E-05-2.55475E-05-2.85462E-05-1.04563E-05-8.02463E-20-8.94517E-19
 -1       776 9.22788E-05-2.49903E-05-2.88376E-05-8.75339E-06-1.56938E-19 1.13989E-18
 -1       777 9.26771E-05-2.49905E-05-2.90082E-05-7.26538E-06-7.97931E-19 1.81104E-18
 -1       778 9.31528E-05-2.52826E-05-2.90870E-05-5.96438E-06-1.52245E-18 6.11603E-19
 -1       779 9.36088E-05-2.57035E-05-2.91021E-05-4.83387E-06-6.90343E-19 7.85572E-19
 -1       780 9.40040E-05-2.61577E-05-2.90768E-05-3.86277E-06-1.20728E-18 1.20654E-18
 -1       781 9.43270E-05-2.65930E-05-2.90287E-05-3.04072E-06-8.29186E-19 2.62486E-18
 -1       782 9.45810E-05-2.69839E-05-2.89701E-05-2.35586E-06-1.77209E-18 1.79970E-18
 -1       783 9.47751E-05-2.73207E-05-2.89090E-05-1.79457E-06-9.97425E-19 2.19329E-18
 -1       784 9.49202E-05-2.76022E-05-2.88505E-05-1.34201E-06-1.29685E-18 1.06759E-18
 -1       785 9.50262E-05-2.78323E-05-2.87974E-05-9.82953E-07 3.23376E-19 2.06349E-19
 -1       786 9.51022E-05-2.80168E-05-2.87509E-05-7.02623E-07 2.04532E-18-7.94445E-21
 -1       787 9.51553E-05-2.81621E-05-2.87114E-05-4.87302E-07 1.86472E-18-9.76474E-19
 -1       788 9.51913E-05-2.82749E-05-2.86785E-05-3.24719E-07 6.75068E-19-6.14287E-19
 -1       789 9.52148E-05-2.83613E-05-2.86515E-05-2.04164E-07 1.80287E-18 4.29088E-20
 -1       790 9.52295E-05-2.84269E-05-2.86297E-05-1.17180E-07 3.99819E-19-1.12192E-18
 -1       791 9.52380E-05-2.84767E-05-2.86119E-05-5.59534E-08-1.17817E-20-1.71746E-18
 -1       792 9.52428E-05-2.85128E-05-2.85986E-05-1.86183E-08-1.83162E-18-4.29915E-19
 -1       793 9.56488E-05-2.62454E-05-2.97441E-05-5.15898E-06 7.04282E-19-1.34471E-18
 -1       794 9.87890E-05-3.09340E-05-2.90812E-05-9.39810E-06 1.35703E-19-2.11542E-19
 -1       795 9.72047E-05-2.90353E-05-2.92156E-05-8.80120E-06-1.01265E-19-7.76351E-19
 -1       796 1.05202E-04-3.74092E-05-2.90545E-05-8.41041E-06-5.17636E-19 8.70919E-19
 -1       797 1.10311E-04-4.16041E-05-2.94457E-05-5.78375E-06-2.80693E-19 1.06033E-18
 -1       798 1.15993E-04-4.48631E-05-3.04869E-05-8.60406E-07-6.17672E-20 1.17851E-18
 -1       799 1.20407E-04-4.45684E-05-3.25279E-05 6.25529E-06-3.34277E-19 9.99598E-19
 -1       800 1.20444E-04-3.76689E-05-3.56525E-05 1.27272E-05 5.68961E-19 5.44859E-19
 -1       801 1.10869E-04-1.51438E-05-4.13300E-05 4.71322E-06 2.24443E-18 2.41451E-19
 -1       802 1.19040E-04-4.50020E-05-3.17545E-05-4.59265E-06-3.28541E-19 1.26729E-19
 -1       803 1.14275E-04-4.39674E-05-3.01410E-05 1.76858E-06-1.54504E-19 7.90012E-19
 -1       804 1.08615E-04-4.01111E-05-2.93616E-05 5.90383E-06 2.44988E-19 3.39577E-19
 -1       805 1.03816E-04-3.59710E-05-2.90796E-05 7.88363E-06-5.39342E-19-1.81270E-19
 -1       806 1.00306E-04-3.25247E-05-2.90510E-05 8.45278E-06-1.00438E-18-2.21687E-20
 -1       807 9.79870E-05-3.00617E-05-2.91113E-05 8.19142E-06-4.33640E-19 1.20535E-18
 -1       808 9.65640E-05-2.84854E-05-2.91764E-05 7.49562E-06-2.98603E-19 1.03702E-18
 -1       809 9.57499E-05-2.75867E-05-2.92126E-05 6.59930E-06-1.47186E-19 1.12384E-18
 -1       810 9.53212E-05-2.71583E-05-2.92124E-05 5.64221E-06-4.63312E-19 2.57610E-19
 -1       811 9.51221E-05-2.70322E-05-2.91812E-05 4.70753E-06 2.14204E-19 6.62280E-19
 -1       812 9.50514E-05-2.70854E-05-2.91281E-05 3.84346E-06 8.33514E-19 1.38261E-18
 -1       813 9.50471E-05-2.72338E-05-2.90627E-05 3.07540E-06-1.38799E-18 3.83286E-19
 -1       814 9.50728E-05-2.74228E-05-2.89927E-05 2.41341E-06 6.43789E-19-3.49198E-19
 -1       815 9.51084E-05-2.76191E-05-2.89239E-05 1.85737E-06 4.76564E-19-1.06813E-19
 -1       816 9.51437E-05-2.78037E-05-2.88599E-05 1.40074E-06-6.67618E-19 6.15378E-19
 -1       817 9.51741E-05-2.79674E-05-2.88028E-05 1.03335E-06 1.15152E-19 3.73618E-19
 -1       818 9.51982E-05-2.81064E-05-2.87535E-05 7.43360E-07-3.94351E-19 3.61559E-19
 -1       819 9.52160E-05-2.82209E-05-2.87121E-05 5.18661E-07-2.67195E-19-1.43791E-18
 -1       820 9.52283E-05-2.83128E-05-2.86780E-05 3.47780E-07-1.21646E-18-5.65748E-19
 -1       821 9.52362E-05-2.83851E-05-2.86505E-05 2.20391E-07-2.63631E-19 7.79171E-19
 -1       822 9.52409E-05-2.84411E-05-2.86285E-05 1.27616E-07-3.51094E-19 2.30413E-18
 -1       823 9.52432E-05-2.84842E-05-2.86110E-05 6.20878E-08 8.32714E-19 2.26582E-18
 -1       824 9.52441E-05-2.85177E-05-2.85970E-05 1.82807E-08 3.38602E-18 3.12037E-19
 -1       825 9.52436E-05-2.85329E-05-2.85903E-05 4.84845E-10 8.65916E-19 2.67745E-19
 -1       826 9.52066E-05-2.84577E-05-2.86067E-05-1.10346E-08-5.22215E-19 1.95246E-18
 -1       827 7.74265E-05-3.32019E-05-1.86931E-05 3.12291E-05 1.56804E-18-1.24180E-18
 -1       828 9.52027E-05-2.84524E-05-2.86073E-05-8.00353E-10-4.61908E-19-5.59534E-19
 -1       829 7.28360E-05-2.96577E-05-1.82520E-05-2.89993E-05 1.36474E-18 3.11597E-18
 -1       830 9.52168E-05-2.84722E-05-2.86048E-05-1.76740E-08 7.55891E-19 1.67895E-18
 -1       831 9.53130E-05-2.35378E-05-3.07600E-05 6.31313E-07 1.20171E-18-1.24365E-18
 -1       832 9.52301E-05-2.84934E-05-2.86014E-05-1.82061E-08 5.83034E-19-1.01461E-19
 -1       833 9.02307E-05-1.66770E-05-3.15241E-05 1.96348E-07 5.92393E-19-1.59747E-18
 -1       834 9.68870E-05-4.45211E-05-2.22760E-05-2.90653E-05 2.00168E-18-6.14192E-19
 -1       835 1.01364E-04-3.37082E-05-2.89957E-05-9.40579E-06 3.45132E-19 8.16249E-20
 -1       836 1.19089E-04-5.38123E-05-2.79036E-05-1.53945E-05 2.41894E-18-1.56964E-18
 -1       837 1.06393E-04-4.36954E-05-2.68334E-05-1.76503E-05 1.80557E-18-8.81176E-19
 -1       838 9.44705E-05-2.33507E-05-3.04789E-05 1.82057E-06-7.54975E-19-1.33482E-18
 -1       839 1.27051E-04-4.07897E-05-3.71016E-05 1.16918E-05 5.29435E-19 6.17381E-19
 -1       840 4.73065E-05-1.26472E-05-1.45188E-05-5.07450E-06-5.84338E-19-3.09463E-18
 -1       841 1.14779E-04-5.16403E-05-2.70145E-05 1.73396E-05-1.31902E-18-6.45401E-19
 -1       842 9.82086E-05-4.44538E-05-2.29354E-05 2.79060E-05-1.92449E-18-5.53020E-19
 -1       843 1.28671E-04-5.34587E-05-3.23038E-05-1.80081E-06 1.07693E-19 7.25490E-19
 -1       844 5.36795E-05-1.72273E-05-1.52983E-05 1.84276E-05 7.75909E-19-2.95887E-18
 -1       845 8.98663E-05-1.62734E-05-3.15406E-05-1.36241E-07 2.73407E-19-1.60696E-18
 -1       846 9.24658E-05-1.92923E-05-3.13608E-05 9.72426E-07 1.18776E-18-1.65236E-18
 -1       847 5.74630E-05-1.32448E-05-1.88130E-05-1.05185E-06-1.13966E-18 3.98523E-18
 -1       848 5.65123E-05-1.59529E-05-1.71441E-05-1.45216E-05 5.56792E-20 4.76755E-18
 -1       849 9.41754E-05-2.14325E-05-3.11757E-05-1.43287E-06-1.02395E-18-1.55147E-18
 -1       850 7.02524E-05-2.20947E-05-2.05434E-05 1.95804E-05-7.37741E-19 8.16086E-19
 -1       851 1.23909E-04-4.09485E-05-3.56561E-05-1.15419E-05 7.26126E-19-1.03200E-18
 -1       852 1.05854E-04-4.83715E-05-2.45122E-05-2.48053E-05-9.44640E-19-3.07400E-19
 -1       853 5.62804E-05-1.69948E-05-1.65746E-05-1.66406E-05-1.19652E-18-2.53888E-18
 -1       854 9.58559E-05-2.69418E-05-2.95344E-05-6.62367E-06 4.88249E-19-9.56722E-19
 -1       855 7.86839E-05-3.31019E-05-1.93366E-05-3.03310E-05-1.44651E-18-1.77148E-18
 -1       856 9.63102E-05-2.77896E-05-2.93658E-05-7.84291E-06-1.58154E-19-8.99341E-19
 -1       857 1.16078E-04-2.53146E-05-3.90688E-05 1.29536E-05 1.01939E-18 4.83040E-19
 -1       858 9.52157E-05-2.84715E-05-2.86046E-05 1.66071E-08 1.87379E-18 1.98097E-18
 -1       859 6.03772E-05-1.96487E-05-1.72075E-05-2.04244E-05 1.54754E-18 5.00042E-18
 -1       860 9.52060E-05-2.84573E-05-2.86066E-05 9.54189E-09 6.17725E-19-6.16051E-19
 -1       861 9.11265E-05-1.76948E-05-3.14718E-05 5.74205E-07 1.05808E-18-1.59506E-18
 -1       862 1.21733E-04-5.14669E-05-3.01208E-05 5.38983E-06-1.52725E-18-1.45796E-19
 -1       863 5.54031E-05-1.40554E-05-1.75178E-05 6.35834E-06 2.16822E-19-2.33466E-18
 -1       864 9.52272E-05-2.84909E-05-2.86013E-05 1.68042E-08 1.99058E-18 1.34888E-18
 -1       865 9.54895E-05-2.46784E-05-3.03468E-05-1.56597E-06 9.03824E-19-1.29983E-18
 -1       866 4.47527E-05-1.32673E-05-1.30262E-05-9.51485E-06 3.57517E-19 5.46932E-18
 -1       867 9.52364E-05-2.85018E-05-2.86004E-05-1.94676E-08-5.04392E-19-4.08461E-19
 -1       868 9.08775E-05-1.74128E-05-3.14860E-05-7.14679E-07-3.56970E-19-1.73409E-18
 -1       869 9.21537E-05-1.89143E-05-3.13906E-05-9.78434E-07-6.23436E-19-1.89472E-18
 -1       870 6.52853E-05-1.58102E-05-2.11352E-05 8.47815E-06-1.48351E-18 2.10480E-18
 -1       871 1.16588E-04-2.01320E-05-4.16077E-05-1.20183E-05 2.93961E-18-2.62861E-18
 -1       872 9.26250E-05-2.29110E-05-2.98775E-05 4.11819E-06-3.54079E-19-1.16383E-18
 -1       873 1.19755E-04-2.86196E-05-3.92464E-05 1.39436E-05 6.85197E-19 4.55869E-19
 -1       874 9.18055E-05-2.31488E-05-2.94243E-05 5.70974E-06-1.97544E-19-1.07090E-18
 -1       875 9.06969E-05-2.31504E-05-2.89485E-05 7.26231E-06 3.52216E-19-7.41114E-19
 -1       876 8.94084E-05-2.31558E-05-2.83940E-05 8.91270E-06 6.27872E-19-9.49528E-19
 -1       877 8.81015E-05-2.34692E-05-2.76999E-05 1.08547E-05 5.62672E-19-1.29680E-18
 -1       878 8.70663E-05-2.45199E-05-2.68066E-05 1.33576E-05 5.82733E-19-8.16104E-19
 -1       879 8.68096E-05-2.69289E-05-2.56640E-05 1.67791E-05 6.11028E-19-2.99892E-19
 -1       880 8.87962E-05-3.17587E-05-2.43854E-05 2.14566E-05 7.67974E-19-3.94317E-19
 -1       881 9.42781E-05-2.44144E-05-2.99416E-05-4.04725E-06 8.01935E-19-1.60982E-18
 -1       882 8.60841E-05-2.45240E-05-2.63818E-05-1.34295E-05-6.40722E-20-9.33868E-19
 -1       883 8.68335E-05-2.31846E-05-2.72815E-05-1.06772E-05-2.26381E-19-5.70675E-19
 -1       884 8.79931E-05-2.28545E-05-2.79168E-05-8.63405E-06 4.71150E-19-6.87880E-19
 -1       885 8.92300E-05-2.30817E-05-2.83491E-05-7.05549E-06 2.56298E-19-1.48299E-18
 -1       886 9.03956E-05-2.36016E-05-2.86259E-05-5.77576E-06-1.21763E-18-6.09061E-19
 -1       887 9.14229E-05-2.42484E-05-2.87890E-05-4.70605E-06-1.51491E-18-2.46866E-19
 -1       888 9.22904E-05-2.49210E-05-2.88725E-05-3.79933E-06-1.54285E-18-1.36577E-18
 -1       889 9.30008E-05-2.55607E-05-2.89028E-05-3.03015E-06 8.50177E-19-2.85244E-19
 -1       890 9.35691E-05-2.61373E-05-2.88993E-05-2.38259E-06-1.06407E-18 6.86956E-19
 -1       891 9.40149E-05-2.66379E-05-2.88758E-05-1.84410E-06-9.19766E-19 1.76437E-18
 -1       892 9.43586E-05-2.70606E-05-2.88420E-05-1.40286E-06-1.31027E-18 2.09657E-18
 -1       893 9.46191E-05-2.74094E-05-2.88042E-05-1.04696E-06-9.18951E-19 3.26768E-18
 -1       894 9.48132E-05-2.76918E-05-2.87663E-05-7.64510E-07 2.33277E-19 2.65902E-18
 -1       895 9.49552E-05-2.79164E-05-2.87309E-05-5.44004E-07 9.32729E-19 1.16008E-18
 -1       896 9.50567E-05-2.80922E-05-2.86991E-05-3.74775E-07 7.45623E-19-4.51920E-19
 -1       897 9.51275E-05-2.82277E-05-2.86713E-05-2.47321E-07 1.55810E-18-1.27903E-18
 -1       898 9.51749E-05-2.83309E-05-2.86475E-05-1.52795E-07 9.29250E-19-1.93422E-18
 -1       899 9.52062E-05-2.84089E-05-2.86274E-05-8.51498E-08 2.92322E-19-1.09311E-18
 -1       900 9.49592E-05-2.84073E-05-2.85224E-05-1.01160E-05-5.69181E-19-1.26416E-18
 -1       901 1.11817E-04-4.56564E-05-2.83400E-05-1.07532E-05-3.26324E-19 4.77129E-19
 -1       902 1.04503E-04-3.95781E-05-2.78138E-05-1.25941E-05-5.07338E-19 2.51297E-21
 -1       903 1.18963E-04-5.04370E-05-2.93763E-05-7.81069E-06-3.51096E-19 6.34044E-19
 -1       904 9.79484E-05-3.28209E-05-2.79139E-05 1.13258E-05-7.53126E-19 1.28211E-18
 -1       905 9.53045E-05-2.95806E-05-2.81668E-05 1.01400E-05-1.04169E-18 1.14110E-18
 -1       906 9.39062E-05-2.75678E-05-2.84300E-05 8.79134E-06-6.12694E-19 1.62294E-18
 -1       907 9.33082E-05-2.64656E-05-2.86464E-05 7.46848E-06 4.94265E-19 1.12476E-18
 -1       908 9.31829E-05-2.59845E-05-2.87992E-05 6.24663E-06 3.93988E-19 8.90950E-19
 -1       909 9.33143E-05-2.59007E-05-2.88915E-05 5.15041E-06 3.87881E-20 2.31980E-19
 -1       910 9.35660E-05-2.60518E-05-2.89346E-05 4.18589E-06 5.71841E-19-3.00941E-19
 -1       911 9.38566E-05-2.63261E-05-2.89416E-05 3.35183E-06-7.66985E-19 4.60244E-19
 -1       912 9.41402E-05-2.66503E-05-2.89242E-05 2.64272E-06-3.47518E-19-4.56777E-19
 -1       913 9.43939E-05-2.69787E-05-2.88922E-05 2.04992E-06 1.21749E-19 4.97804E-19
 -1       914 9.46083E-05-2.72850E-05-2.88529E-05 1.56263E-06-4.05454E-19 8.78395E-19
 -1       915 9.47821E-05-2.75559E-05-2.88113E-05 1.16869E-06-1.34676E-19 1.22601E-18
 -1       916 9.49183E-05-2.77863E-05-2.87708E-05 8.55439E-07-6.74680E-19 5.74681E-19
 -1       917 9.50217E-05-2.79767E-05-2.87336E-05 6.10435E-07-6.71594E-19 8.90674E-19
 -1       918 9.50978E-05-2.81299E-05-2.87005E-05 4.22030E-07-7.81373E-19 1.38057E-18
 -1       919 9.51520E-05-2.82507E-05-2.86720E-05 2.79717E-07-1.00429E-18 2.08507E-20
 -1       920 9.51891E-05-2.83443E-05-2.86478E-05 1.74336E-07-1.77018E-18 6.00995E-19
 -1       921 9.52135E-05-2.84160E-05-2.86275E-05 9.83571E-08-8.55544E-19 1.60845E-18
 -1       922 9.52285E-05-2.84705E-05-2.86105E-05 4.54084E-08 2.03919E-18 1.93185E-18
 -1       923 7.09954E-05-2.38773E-05-2.00757E-05 2.17958E-05 8.64724E-19-1.23695E-18
 -1       924 9.51862E-05-2.84045E-05-2.86207E-05-3.26862E-08 7.32362E-19 6.78637E-19
 -1       925 6.58867E-05-1.68935E-05-2.09283E-05-1.11400E-05-4.56095E-19 2.62638E-18
 -1       926 9.51745E-05-2.83896E-05-2.86221E-05-1.24141E-08 7.03240E-19 1.26092E-18
 -1       927 1.02472E-04-3.75806E-05-2.78167E-05 1.18043E-05-3.81072E-19 1.65669E-18
 -1       928 9.52372E-05-2.85130E-05-2.85961E-05 1.03034E-08 1.97209E-18 3.54859E-18
 -1       929 1.09109E-04-4.35233E-05-2.81005E-05 1.08153E-05-3.09924E-19 6.24851E-19
 -1       930 9.00808E-05-1.65146E-05-3.15297E-05-4.27364E-07-9.50515E-20-1.65740E-18
 -1       931 8.63273E-05-2.74757E-05-2.52030E-05-1.72448E-05 1.79213E-18-2.79767E-19
 -1       932 9.52055E-05-2.84314E-05-2.86175E-05-4.54179E-08-4.92650E-19-9.42585E-19
 -1       933 9.30649E-05-2.22344E-05-3.03559E-05 2.38662E-06-5.37363E-19-1.24083E-18
 -1       934 7.47048E-05-2.57722E-05-2.08603E-05-2.25046E-05 2.21648E-18 2.22425E-18
 -1       935 9.29797E-05-2.05739E-05-3.10355E-05-3.71702E-08-6.54699E-19-1.51813E-18
 -1       936 9.02532E-05-3.46524E-05-2.37501E-05-2.30345E-05 2.77623E-18-5.50403E-19
 -1       937 9.38621E-05-2.21336E-05-3.07384E-05-7.88754E-07 9.60657E-19-1.48869E-18
 -1       938 9.50246E-05-4.06000E-05-2.32616E-05-2.60194E-05-1.33068E-18-9.49243E-19
 -1       939 9.42225E-05-2.33226E-05-3.03870E-05-2.16241E-06 8.32644E-19-1.53252E-18
 -1       940 9.41747E-05-2.51925E-05-2.95639E-05-5.71443E-06 3.55206E-19-1.44336E-18
 -1       941 5.67419E-05-1.40771E-05-1.81054E-05-4.76162E-06-3.94302E-19-2.30921E-18
 -1       942 6.98844E-05-2.40054E-05-1.95205E-05-2.28082E-05-1.16812E-18-2.30718E-18
 -1       943 9.42683E-05-2.68912E-05-2.88757E-05-8.70479E-06-1.11755E-19-1.40523E-18
 -1       944 9.65428E-05-3.08155E-05-2.81677E-05-1.14387E-05-3.18168E-19-8.30560E-19
 -1       945 9.52255E-05-2.84619E-05-2.86130E-05-4.82727E-08-3.00931E-19-1.88205E-18
 -1       946 9.95312E-05-3.44775E-05-2.78745E-05-1.24607E-05-4.54553E-19-9.34755E-21
 -1       947 1.10757E-04-4.78176E-05-2.68906E-05-1.70238E-05-8.94698E-19-6.98197E-19
 -1       948 6.72067E-05-1.84427E-05-2.08006E-05 1.37400E-05 2.96617E-19-1.77825E-18
 -1       949 9.47245E-05-2.34297E-05-3.05539E-05-1.16537E-06 8.82119E-19-1.50555E-18
 -1       950 9.51741E-05-2.83894E-05-2.86220E-05 1.06174E-08-3.78668E-19-4.08170E-19
 -1       951 6.62856E-05-1.50572E-05-2.19474E-05-1.62285E-06-6.83328E-19 3.13421E-18
 -1       952 9.51849E-05-2.84040E-05-2.86204E-05 3.12410E-08 4.16949E-19-7.62977E-19
 -1       953 8.52919E-05-3.19144E-05-2.27912E-05 2.32414E-05-1.20116E-18 2.22667E-19
 -1       954 9.52017E-05-2.84286E-05-2.86171E-05 4.18137E-08 9.53028E-19 1.20561E-18
 -1       955 9.05737E-05-1.83170E-05-3.09677E-05-3.57832E-07 4.79085E-19-1.22579E-18
 -1       956 1.02081E-04-4.11045E-05-2.60781E-05 1.79298E-05-7.67339E-19 4.80774E-19
 -1       957 9.12642E-05-1.90701E-05-3.09409E-05-5.79216E-07 8.52538E-19-1.49029E-18
 -1       958 9.09787E-05-1.87520E-05-3.09499E-05 2.41024E-07-1.04148E-19-1.53960E-18
 -1       959 6.83830E-05-2.00843E-05-2.05998E-05-1.68967E-05 7.32015E-19 2.20776E-18
 -1       960 9.51626E-05-2.83469E-05-2.86353E-05-7.14423E-08 1.23198E-18-3.10339E-19
 -1       961 9.16056E-05-2.13211E-05-3.01217E-05 2.39830E-06-3.05329E-19-1.12193E-18
 -1       962 7.84255E-05-2.43789E-05-2.31057E-05-1.81441E-05 1.59063E-18 6.37366E-19
 -1       963 9.04497E-05-1.81964E-05-3.09672E-05-9.69943E-08 5.72283E-20-1.30721E-18
 -1       964 8.93879E-05-2.17577E-05-2.89849E-05 4.82452E-06 2.24022E-19-6.82592E-19
 -1       965 8.75601E-05-2.14808E-05-2.83201E-05 6.04367E-06 3.64092E-19-7.01985E-19
 -1       966 8.52823E-05-2.11165E-05-2.75000E-05 7.46372E-06 4.67230E-19-6.42233E-19
 -1       967 8.25701E-05-2.08982E-05-2.64305E-05 9.35563E-06 7.10929E-19-6.87547E-19
 -1       968 7.94047E-05-2.11217E-05-2.49786E-05 1.21488E-05 7.82874E-19-6.09217E-19
 -1       969 7.98248E-05-2.47923E-05-2.35565E-05 1.72866E-05-1.36030E-18 4.73510E-19
 -1       970 9.19149E-05-2.00578E-05-3.07932E-05 8.10783E-07-2.93575E-19-1.47767E-18
 -1       971 8.32448E-05-2.05238E-05-2.68802E-05-7.33420E-06 6.81918E-19 4.56740E-19
 -1       972 8.55471E-05-2.11312E-05-2.76068E-05-5.88338E-06-6.66754E-19 7.07561E-19
 -1       973 8.74979E-05-2.19321E-05-2.80995E-05-4.80182E-06-1.04125E-19-4.20472E-19
 -1       974 8.91278E-05-2.28089E-05-2.84224E-05-3.93921E-06-9.55351E-19 1.87544E-19
 -1       975 9.04747E-05-2.36857E-05-2.86239E-05-3.21999E-06-1.75225E-18 1.66415E-18
 -1       976 9.15733E-05-2.45123E-05-2.87405E-05-2.60784E-06-4.52045E-19 1.25816E-18
 -1       977 9.24578E-05-2.52601E-05-2.87991E-05-2.08495E-06 7.02650E-19 1.12768E-19
 -1       978 9.31604E-05-2.59155E-05-2.88193E-05-1.64169E-06 4.09385E-19 1.70047E-18
 -1       979 9.37109E-05-2.64752E-05-2.88153E-05-1.27096E-06-4.29396E-19 3.18030E-18
 -1       980 9.41361E-05-2.69428E-05-2.87971E-05-9.65884E-07-1.00140E-18 2.33632E-18
 -1       981 9.44594E-05-2.73258E-05-2.87716E-05-7.19097E-07-5.06099E-19 1.42132E-18
 -1       982 9.47011E-05-2.76339E-05-2.87431E-05-5.22928E-07 3.16156E-20 1.42165E-18
 -1       983 9.48785E-05-2.78777E-05-2.87146E-05-3.69742E-07 1.61606E-19 1.88918E-18
 -1       984 9.50058E-05-2.80676E-05-2.86878E-05-2.52289E-07-2.64270E-19 1.02190E-18
 -1       985 9.50945E-05-2.82133E-05-2.86634E-05-1.63510E-07 5.83758E-19-8.15442E-19
 -1       986 9.12404E-05-2.83347E-05-2.69634E-05 1.23821E-05-9.15208E-19 9.19560E-20
 -1       987 9.06132E-05-2.45839E-05-2.82985E-05 6.49835E-06-1.03123E-19 1.63466E-18
 -1       988 9.11860E-05-2.46070E-05-2.85341E-05 5.23262E-06 1.44050E-19 1.55026E-18
 -1       989 9.18278E-05-2.48905E-05-2.86876E-05 4.19099E-06 8.67814E-19 1.30691E-18
 -1       990 9.24584E-05-2.53103E-05-2.87779E-05 3.33040E-06-1.23205E-19 2.69467E-18
 -1       991 9.30332E-05-2.57820E-05-2.88220E-05 2.61980E-06-8.97949E-19 2.44799E-18
 -1       992 9.35319E-05-2.62523E-05-2.88342E-05 2.03592E-06-3.93350E-20 1.96402E-18
 -1       993 9.39487E-05-2.66894E-05-2.88255E-05 1.56018E-06-5.12302E-19 1.24614E-18
 -1       994 9.42866E-05-2.70766E-05-2.88043E-05 1.17670E-06-9.04502E-19 1.54115E-18
 -1       995 9.45535E-05-2.74077E-05-2.87768E-05 8.71401E-07 1.56696E-19 1.90199E-18
 -1       996 9.47589E-05-2.76828E-05-2.87469E-05 6.31599E-07-9.42343E-19 2.54074E-18
 -1       997 9.49132E-05-2.79058E-05-2.87174E-05 4.45954E-07-1.88596E-19 2.82508E-19
 -1       998 9.50259E-05-2.80828E-05-2.86899E-05 3.04525E-07 4.62124E-20-6.66697E-20
 -1       999 9.51061E-05-2.82209E-05-2.86651E-05 1.98576E-07-1.83567E-18 9.94988E-19
 -1      1000 9.51610E-05-2.83269E-05-2.86432E-05 1.20728E-07-1.58756E-18-7.35786E-19
 -1      1001 9.51384E-05-2.83170E-05-2.86378E-05-4.07402E-08 7.81354E-19 1.40851E-18
 -1      1002 9.24348E-05-2.03960E-05-3.08739E-05-7.13070E-07 9.13285E-19-1.61237E-18
 -1      1003 9.02492E-05-2.50057E-05-2.79615E-05 8.06115E-06-5.20564E-19 5.83197E-19
 -1      1004 7.80052E-05-2.32242E-05-2.34435E-05 1.69011E-05 6.20457E-19-1.09994E-18
 -1      1005 9.03320E-05-2.61374E-05-2.75121E-05 9.99351E-06-8.50071E-19 2.30082E-19
 -1      1006 1.01839E-04-4.00394E-05-2.64792E-05-1.70199E-05-6.00610E-19-1.53146E-18
 -1      1007 9.38257E-05-3.21584E-05-2.64208E-05 1.51175E-05-3.22375E-19 6.27555E-19
 -1      1008 9.07803E-05-2.02605E-05-3.02241E-05 1.23205E-06 9.25486E-21-1.32976E-18
 -1      1009 9.07508E-05-2.17656E-05-2.95663E-05 3.64002E-06-5.82273E-20-6.39005E-19
 -1      1010 9.41000E-05-2.59244E-05-2.92180E-05-7.24607E-06 1.12668E-19-1.13818E-18
 -1      1011 8.02697E-05-2.20484E-05-2.49435E-05-1.32654E-05 7.18498E-19-8.23595E-19
 -1      1012 8.05216E-05-2.02332E-05-2.58391E-05-9.37483E-06 5.81591E-19 3.10111E-19
 -1      1013 9.29559E-05-2.24518E-05-3.02150E-05-2.72185E-06 7.37024E-19-1.48443E-18
 -1      1014 7.46440E-05-1.91145E-05-2.37846E-05 9.72038E-06-1.39344E-18 1.53277E-18
 -1      1015 6.34925E-05-1.53589E-05-2.05342E-05 5.53163E-06-5.53450E-20-2.28392E-18
 -1      1016 6.44168E-05-1.78902E-05-1.98324E-05-1.37454E-05-6.58203E-19-2.01735E-18
 -1      1017 9.27211E-05-2.33828E-05-2.97160E-05-4.32336E-06 3.69644E-19-1.21261E-18
 -1      1018 9.13964E-05-2.56047E-05-2.81966E-05-9.26488E-06-3.05345E-19-1.07679E-18
 -1      1019 9.64290E-05-3.39588E-05-2.67659E-05-1.52658E-05-6.43677E-19-1.54997E-18
 -1      1020 9.51288E-05-2.83059E-05-2.86384E-05-1.75704E-09 4.89848E-19 2.29878E-18
 -1      1021 9.15466E-05-2.71684E-05-2.75933E-05-1.13365E-05-4.75056E-19-1.49454E-18
 -1      1022 8.42400E-05-3.15856E-05-2.24908E-05-2.36961E-05-1.05617E-18-1.42573E-18
 -1      1023 9.51968E-05-2.84075E-05-2.86241E-05 6.55951E-08 1.61536E-18 1.70743E-19
 -1      1024 7.27147E-05-1.66294E-05-2.40097E-05 3.22346E-06-1.05953E-18 1.49198E-18
 -1      1025 9.51372E-05-2.83166E-05-2.86374E-05 3.75208E-08-9.76423E-19-7.77990E-19
 -1      1026 9.51585E-05-2.83445E-05-2.86345E-05 6.39660E-08-3.56952E-19-1.70278E-18
 -1      1027 7.32433E-05-1.79616E-05-2.36807E-05-8.94756E-06 7.47700E-19 1.71645E-18
 -1      1028 7.39677E-05-1.98015E-05-2.31807E-05-1.29862E-05 3.69587E-19 7.58988E-20
 -1      1029 9.04754E-05-1.94888E-05-3.04184E-05-3.57694E-07 2.67053E-19-8.22065E-19
 -1      1030 9.09599E-05-1.99904E-05-3.04152E-05-1.20136E-06 5.56875E-19-9.58092E-19
 -1      1031 7.85154E-05-1.83041E-05-2.58084E-05-4.39472E-06-1.67540E-19 7.07163E-19
 -1      1032 8.35298E-05-2.42618E-05-2.53937E-05 1.31013E-05-4.74194E-19 1.47910E-18
 -1      1033 8.45037E-05-2.00551E-05-2.76220E-05 3.65021E-06 5.81317E-19-7.75234E-19
 -1      1034 8.11537E-05-1.92451E-05-2.65319E-05 4.44953E-06 4.29580E-19-5.31811E-19
 -1      1035 7.67537E-05-1.82911E-05-2.50489E-05 5.60521E-06 6.74772E-19-8.98577E-19
 -1      1036 9.22534E-05-2.40375E-05-2.92347E-05-5.87584E-06 1.47454E-19-1.17150E-18
 -1      1037 8.45384E-05-2.29386E-05-2.64023E-05 9.71501E-06-1.56532E-18 1.29178E-18
 -1      1038 9.31725E-05-2.98820E-05-2.71260E-05-1.33966E-05-5.55691E-19-1.47437E-18
 -1      1039 8.47925E-05-2.04974E-05-2.75549E-05-2.91706E-06-2.45922E-19-8.12375E-19
 -1      1040 8.69871E-05-2.15645E-05-2.80387E-05-2.46196E-06-5.26793E-21 2.21791E-19
 -1      1041 8.87682E-05-2.25999E-05-2.83583E-05-2.07805E-06-5.01876E-19 5.44489E-19
 -1      1042 9.02114E-05-2.35684E-05-2.85616E-05-1.73697E-06-1.28558E-18 1.03127E-18
 -1      1043 9.13771E-05-2.44494E-05-2.86836E-05-1.42981E-06-3.79051E-19 9.84815E-19
 -1      1044 9.23116E-05-2.52304E-05-2.87493E-05-1.15615E-06 1.04823E-18 3.25485E-19
 -1      1045 9.30528E-05-2.59063E-05-2.87772E-05-9.17098E-07 4.33096E-19 1.35527E-19
 -1      1046 9.36334E-05-2.64787E-05-2.87807E-05-7.12941E-07-1.34071E-18 2.00392E-20
 -1      1047 9.40818E-05-2.69537E-05-2.87693E-05-5.42521E-07-1.55208E-18 1.17705E-18
 -1      1048 9.44226E-05-2.73407E-05-2.87495E-05-4.03367E-07 4.23939E-19 1.17076E-18
 -1      1049 9.46773E-05-2.76505E-05-2.87258E-05-2.92117E-07 7.90888E-19 7.77009E-19
 -1      1050 9.48638E-05-2.78946E-05-2.87012E-05-2.04951E-07-1.04991E-18 7.25138E-19
 -1      1051 9.49969E-05-2.80833E-05-2.86773E-05-1.38508E-07-1.73912E-19 1.08888E-18
 -1      1052 9.09356E-05-2.42380E-05-2.85852E-05 2.94633E-06-8.24824E-20 2.50094E-18
 -1      1053 8.99152E-05-2.36433E-05-2.84029E-05 3.77371E-06 1.62630E-19 2.17546E-18
 -1      1054 8.89500E-05-2.08710E-05-2.91755E-05 2.39705E-06-6.56664E-20-8.69776E-19
 -1      1055 7.21542E-05-1.78378E-05-2.32553E-05 8.57636E-06 3.64718E-19-1.07837E-18
 -1      1056 8.87900E-05-2.31672E-05-2.81255E-05 4.83644E-06-2.72281E-19 9.68246E-19
 -1      1057 9.18290E-05-2.48706E-05-2.86969E-05 2.29183E-06-2.74268E-19 3.00516E-18
 -1      1058 9.25891E-05-2.54883E-05-2.87578E-05 1.77035E-06-3.02083E-19 1.27468E-18
 -1      1059 9.32197E-05-2.60587E-05-2.87835E-05 1.35431E-06-2.45815E-19 2.66408E-18
 -1      1060 9.37310E-05-2.65643E-05-2.87860E-05 1.02346E-06-1.01354E-18 2.21323E-18
 -1      1061 9.41369E-05-2.69982E-05-2.87739E-05 7.62091E-07-1.10991E-19 3.07805E-18
 -1      1062 9.44521E-05-2.73607E-05-2.87536E-05 5.57460E-07-4.58775E-19 2.55485E-18
 -1      1063 9.46918E-05-2.76566E-05-2.87295E-05 3.98970E-07 1.22541E-18 1.97789E-18
 -1      1064 9.48700E-05-2.78933E-05-2.87044E-05 2.77658E-07 1.94831E-19 2.89126E-18
 -1      1065 9.49988E-05-2.80787E-05-2.86801E-05 1.86793E-07-7.72727E-19 2.19265E-18
 -1      1066 9.50898E-05-2.82224E-05-2.86576E-05 1.18406E-07-1.00292E-18-1.75607E-19
 -1      1067 9.00660E-05-2.07387E-05-2.97110E-05 1.86321E-06 5.95680E-20-1.10982E-18
 -1      1068 8.76078E-05-2.29264E-05-2.77219E-05 6.22654E-06-7.62875E-19 8.54140E-19
 -1      1069 8.61586E-05-2.27784E-05-2.71627E-05 7.71762E-06-8.82470E-19 1.27951E-18
 -1      1070 8.20320E-05-1.93936E-05-2.68415E-05-3.50101E-06 2.06194E-19-1.34985E-19
 -1      1071 9.50785E-05-2.82130E-05-2.86567E-05-7.91153E-08 3.28141E-19 1.72808E-18
 -1      1072 9.17350E-05-2.46802E-05-2.87375E-05-7.48727E-06 2.09288E-19-1.15142E-18
 -1      1073 8.99651E-05-2.02369E-05-2.98840E-05-5.50471E-07 4.12561E-19-6.25623E-19
 -1      1074 9.18167E-05-2.10705E-05-3.03191E-05-1.97624E-06 6.46671E-19-1.28503E-18
 -1      1075 8.70581E-05-2.06336E-05-2.84699E-05 3.00842E-06 2.15773E-19-1.02307E-18
 -1      1076 9.22193E-05-3.36345E-05-2.50848E-05-1.92265E-05-5.65568E-19-1.33567E-18
 -1      1077 7.84944E-05-1.92814E-05-2.53701E-05 6.77929E-06-1.04252E-18 1.01553E-18
 -1      1078 6.50078E-05-1.55243E-05-2.11290E-05-3.35563E-06-4.74410E-19-1.89133E-18
 -1      1079 9.50600E-05-2.81921E-05-2.86574E-05-1.64958E-08 1.14251E-18 1.51887E-18
 -1      1080 7.54493E-05-2.40852E-05-2.19497E-05-1.89187E-05-8.18179E-19-1.88635E-18
 -1      1081 9.50656E-05-2.81998E-05-2.86568E-05 5.17815E-08 5.68833E-19 1.11226E-18
 -1      1082 8.87464E-05-2.31401E-05-2.81169E-05-7.13416E-06 2.12856E-19-1.21584E-18
 -1      1083 9.14430E-05-2.20244E-05-2.97510E-05-3.27384E-06 3.03152E-19-1.06772E-18
 -1      1084 8.75414E-05-2.37555E-05-2.73372E-05-9.21079E-06 1.92092E-21-1.48498E-18
 -1      1085 8.21784E-05-1.93083E-05-2.69438E-05-1.42197E-08 5.17290E-19-7.36975E-19
 -1      1086 9.06666E-05-2.25877E-05-2.91776E-05-4.60067E-06 8.63579E-20-1.25132E-18
 -1      1087 7.80693E-05-1.82760E-05-2.56275E-05-4.16011E-07 1.03081E-19-8.39887E-19
 -1      1088 8.93705E-05-2.31613E-05-2.83746E-05 2.16195E-06-3.19891E-19 1.12820E-18
 -1      1089 8.51643E-05-1.99706E-05-2.79432E-05 2.70537E-07 3.62806E-19-5.61743E-19
 -1      1090 8.53148E-05-2.07338E-05-2.76776E-05-2.23818E-07 5.13496E-19 6.83223E-19
 -1      1091 8.73986E-05-2.18260E-05-2.81034E-05-3.57899E-07-1.96797E-19 5.49592E-20
 -1      1092 8.90852E-05-2.28519E-05-2.83864E-05-4.08787E-07-1.13409E-18 6.01027E-20
 -1      1093 9.04571E-05-2.38009E-05-2.85674E-05-4.07760E-07-6.30110E-19 1.34684E-18
 -1      1094 9.15684E-05-2.46576E-05-2.86763E-05-3.75643E-07 3.02391E-19 1.89880E-18
 -1      1095 9.24608E-05-2.54126E-05-2.87351E-05-3.27344E-07 7.70181E-19 2.40316E-18
 -1      1096 9.31693E-05-2.60627E-05-2.87601E-05-2.73171E-07-8.28855E-19 2.17381E-18
 -1      1097 9.37241E-05-2.66108E-05-2.87629E-05-2.19789E-07-7.04899E-19 1.67300E-18
 -1      1098 9.41521E-05-2.70636E-05-2.87523E-05-1.71093E-07-2.58747E-19 1.45862E-18
 -1      1099 9.44768E-05-2.74309E-05-2.87340E-05-1.29011E-07-5.35369E-19 9.30427E-19
 -1      1100 9.47184E-05-2.77235E-05-2.87121E-05-9.41532E-08 1.18484E-19-1.02210E-18
 -1      1101 9.48939E-05-2.79523E-05-2.86892E-05-6.66555E-08-3.39445E-19 2.65586E-19
 -1      1102 9.16302E-05-2.47313E-05-2.86705E-05 1.23563E-06 1.03314E-18 1.58717E-18
 -1      1103 9.06021E-05-2.39653E-05-2.85581E-05 1.63500E-06-7.87177E-20 1.72758E-18
 -1      1104 8.62054E-05-2.16291E-05-2.76777E-05 3.82909E-06-3.43865E-19-1.72938E-19
 -1      1105 9.49868E-05-2.80829E-05-2.86730E-05-3.57791E-08 7.74892E-19 1.42118E-18
 -1      1106 8.79142E-05-2.23618E-05-2.80933E-05 2.86615E-06-6.07967E-19 1.49479E-19
 -1      1107 9.24755E-05-2.54319E-05-2.87326E-05 9.30274E-07-4.13874E-20 2.18108E-19
 -1      1108 9.31594E-05-2.60516E-05-2.87602E-05 6.95650E-07-9.61845E-19-8.33319E-20
 -1      1109 9.37032E-05-2.65846E-05-2.87649E-05 5.15165E-07-9.53060E-19-1.65929E-19
 -1      1110 9.41280E-05-2.70319E-05-2.87554E-05 3.76622E-07-4.48264E-19 1.01228E-18
 -1      1111 9.44538E-05-2.73990E-05-2.87377E-05 2.70813E-07-5.59988E-19 1.61226E-18
 -1      1112 9.46985E-05-2.76944E-05-2.87160E-05 1.90688E-07 7.64724E-20 2.91090E-18
 -1      1113 9.48777E-05-2.79272E-05-2.86930E-05 1.30500E-07 8.23511E-19 2.44415E-18
 -1      1114 9.49848E-05-2.80775E-05-2.86745E-05 8.51499E-08 1.45796E-18 1.86032E-18
 -1      1115 8.90208E-05-2.05836E-05-2.93308E-05-7.97069E-07 3.90126E-19-6.94432E-19
 -1      1116 9.04945E-05-2.09614E-05-2.98007E-05-2.05797E-06 2.33278E-19-9.98194E-19
 -1      1117 8.16560E-05-2.00285E-05-2.64125E-05 5.26569E-06-3.78583E-19 5.87722E-21
 -1      1118 7.89415E-05-1.83339E-05-2.59840E-05 8.34003E-07-1.97544E-19 6.04586E-19
 -1      1119 8.73432E-05-2.04368E-05-2.86796E-05-4.01618E-07 2.84972E-19-6.43386E-19
 -1      1120 7.16760E-05-1.66517E-05-2.35653E-05-3.87835E-07 6.30982E-20-1.51278E-18
 -1      1121 8.97607E-05-2.28572E-05-2.86739E-05-5.77777E-06 1.37411E-19-1.13830E-18
 -1      1122 8.26340E-05-1.95485E-05-2.70481E-05-1.93019E-08-1.38773E-18 1.32816E-18
 -1      1123 8.88906E-05-2.88119E-05-2.57451E-05-1.57061E-05-6.73814E-19-1.35316E-18
 -1      1124 7.06004E-05-1.86130E-05-2.22543E-05-1.10392E-05-4.47238E-19-1.70746E-18
 -1      1125 8.71754E-05-2.14117E-05-2.81837E-05-4.42337E-06 3.64995E-19-1.00946E-18
 -1      1126 8.65427E-05-2.49545E-05-2.63950E-05-1.19849E-05-7.80903E-19-1.65228E-18
 -1      1127 8.49818E-05-2.12518E-05-2.73099E-05-6.00087E-06 4.33501E-19-1.06665E-18
 -1      1128 8.34207E-05-2.70213E-05-2.41382E-05-1.78552E-05-7.82174E-19-1.73687E-18
 -1      1129 8.43059E-05-2.09076E-05-2.71506E-05 4.43688E-06-1.44333E-19 6.99186E-19
 -1      1130 8.94569E-05-2.14109E-05-2.91651E-05-3.00830E-06 1.63495E-19-1.15611E-18
 -1      1131 8.15357E-05-1.98740E-05-2.64414E-05-4.59715E-06 2.63946E-19-7.97836E-19
 -1      1132 7.71718E-05-1.94210E-05-2.47421E-05-7.63169E-06-4.04155E-19-1.15735E-18
 -1      1133 8.85061E-05-2.15010E-05-2.87020E-05-3.65724E-06 2.03651E-19-9.94576E-19
 -1      1134 8.19429E-05-2.31095E-05-2.52213E-05-1.23585E-05-7.87224E-19-1.76428E-18
 -1      1135 8.27806E-05-2.13285E-05-2.63305E-05-7.90792E-06-4.23268E-21-1.22626E-18
 -1      1136 1.16237E-04 2.56602E-10-4.17205E-05-4.07221E-05-2.44793E-19 7.77830E-18
 -1      1137 8.89636E-05 7.37310E-11-3.73415E-05-2.32317E-05-1.36161E-19 1.10644E-18
 -1      1138 8.45668E-05 4.26720E-11-3.59415E-05-1.67143E-05-9.11619E-20-1.81375E-18
 -1      1139 8.27539E-05 3.21738E-11-3.52371E-05-1.25618E-05-6.15422E-20-3.15095E-18
 -1      1140 8.17586E-05 2.62975E-11-3.48382E-05-9.29126E-06-4.28281E-20-3.79128E-18
 -1      1141 8.11230E-05 2.24979E-11-3.45894E-05-6.57216E-06-2.45110E-20-4.09118E-18
 -1      1142 8.07058E-05 1.99938E-11-3.44286E-05-4.20357E-06-1.33342E-20-4.25130E-18
 -1      1143 8.04611E-05 1.85722E-11-3.43353E-05-2.03521E-06-5.57520E-21-4.19737E-18
 -1      1144 8.03833E-05 1.81524E-11-3.43055E-05 2.83829E-08 6.90861E-21-4.14945E-18
 -1      1145 8.04698E-05 1.87039E-11-3.43378E-05 2.09962E-06 2.02097E-20-4.05521E-18
 -1      1146 8.07206E-05 2.02437E-11-3.44326E-05 4.29015E-06 3.13071E-20-3.93337E-18
 -1      1147 8.11420E-05 2.28185E-11-3.45935E-05 6.69320E-06 4.39134E-20-3.60325E-18
 -1      1148 8.17749E-05 2.67403E-11-3.48419E-05 9.45736E-06 5.85247E-20-3.11009E-18
 -1      1149 8.27661E-05 3.27166E-11-3.52419E-05 1.27840E-05 8.20298E-20-2.15804E-18
 -1      1150 8.45506E-05 4.31696E-11-3.59556E-05 1.69865E-05 1.04662E-19-4.40285E-19
 -1      1151 8.86555E-05 6.86582E-11-3.74058E-05 2.31056E-05 1.09055E-19 2.80085E-18
 -1      1152 1.06195E-04 1.64892E-10-4.05249E-05 3.55073E-05 2.33569E-19 9.44071E-18
 -1      1153 1.29228E-04-2.56601E-05-4.00929E-05-2.56104E-05-9.79170E-19 1.20186E-17
 -1      1154 9.76323E-05-2.89236E-05-3.16297E-05-5.98121E-07-3.20655E-19 9.68783E-18
 -1      1155 9.12104E-05-2.73525E-05-2.82000E-05 4.00507E-07-1.19961E-19 6.60593E-18
 -1      1156 9.01203E-05-2.71448E-05-2.72136E-05 2.58969E-07-5.04084E-20 4.61548E-18
 -1      1157 9.07309E-05-2.73113E-05-2.72607E-05 1.78650E-07-4.13408E-20 3.12386E-18
 -1      1158 9.23234E-05-2.77611E-05-2.77258E-05 1.40362E-07-7.42494E-20 2.04598E-18
 -1      1159 9.46104E-05-2.84287E-05-2.84180E-05 1.24402E-07 5.94875E-20 1.56905E-18
 -1      1160 9.74882E-05-2.92812E-05-2.92877E-05 1.23477E-07-2.84343E-20 1.17502E-18
 -1      1161 1.00925E-04-3.03045E-05-3.03222E-05 1.34320E-07-1.21443E-19 3.89185E-19
 -1      1162 1.04895E-04-3.14873E-05-3.15096E-05 1.54330E-07-3.18514E-20-2.41325E-19
 -1      1163 1.09312E-04-3.28004E-05-3.28157E-05 1.78394E-07-2.39268E-20-7.16960E-19
 -1      1164 1.13936E-04-3.41700E-05-3.41564E-05 1.94753E-07 6.30576E-20-7.02640E-19
 -1      1165 1.18258E-04-3.54418E-05-3.53659E-05 1.80043E-07-6.02419E-20-9.38751E-19
 -1      1166 1.21384E-04-3.63492E-05-3.61748E-05 9.67915E-08 6.25613E-20-1.60429E-18
 -1      1167 1.22038E-04-3.65151E-05-3.62318E-05-9.61166E-08-9.86860E-20-2.06554E-18
 -1      1168 1.18872E-04-3.55492E-05-3.52183E-05-4.08041E-07-1.01042E-19-1.85548E-18
 -1      1169 1.11285E-04-3.32957E-05-3.30734E-05-7.54873E-07-6.35275E-20-2.05713E-18
 -1      1170 1.00575E-04-3.01651E-05-3.02345E-05-9.28698E-07-2.90179E-20-2.38524E-18
 -1      1171 9.04233E-05-2.72384E-05-2.76591E-05-7.10443E-07 1.51665E-19-3.96761E-18
 -1      1172 8.54768E-05-2.58244E-05-2.64358E-05-1.06928E-07-1.13039E-19-3.96798E-18
 -1      1173 8.83316E-05-2.66438E-05-2.71442E-05 5.60784E-07 2.48617E-20-4.81845E-18
 -1      1174 9.75461E-05-2.92932E-05-2.94676E-05 9.13282E-07 7.58425E-20-3.95003E-18
 -1      1175 1.08767E-04-3.25617E-05-3.24064E-05 8.40775E-07-1.04589E-19-4.03145E-18
 -1      1176 1.17779E-04-3.52259E-05-3.49068E-05 5.22040E-07-2.60853E-19-4.79442E-18
 -1      1177 1.22562E-04-3.66674E-05-3.63612E-05 1.86385E-07-3.22799E-20-3.26743E-18
 -1      1178 1.23269E-04-3.69075E-05-3.67031E-05-4.18325E-08-5.81111E-20-2.27588E-18
 -1      1179 1.21147E-04-3.63021E-05-3.62055E-05-1.50251E-07 1.04748E-19-3.87463E-18
 -1      1180 1.17560E-04-3.52524E-05-3.52310E-05-1.75902E-07 1.17910E-19-4.70297E-18
 -1      1181 1.13534E-04-3.40634E-05-3.40815E-05-1.59132E-07 2.22452E-20-2.87856E-18
 -1      1182 1.09686E-04-3.29204E-05-3.29531E-05-1.27195E-07 9.95925E-20-1.93519E-18
 -1      1183 1.06313E-04-3.19142E-05-3.19480E-05-9.43301E-08 2.38625E-20-6.10393E-19
 -1      1184 1.03513E-04-3.10759E-05-3.11050E-05-6.63174E-08-1.48454E-20-1.76883E-18
 -1      1185 1.01274E-04-3.04033E-05-3.04262E-05-4.45440E-08-9.26277E-20-4.38033E-18
 -1      1186 9.95333E-05-2.98788E-05-2.98959E-05-2.85206E-08 1.23903E-19-5.12546E-18
 -1      1187 9.82105E-05-2.94793E-05-2.94916E-05-1.71658E-08 3.28982E-19-4.64539E-18
 -1      1188 9.72265E-05-2.91813E-05-2.91900E-05-9.36560E-09 2.39597E-19-4.67852E-18
 -1      1189 9.65100E-05-2.89638E-05-2.89697E-05-4.17062E-09-1.30698E-19-5.89525E-18
 -1      1190 9.60004E-05-2.88087E-05-2.88126E-05-8.35704E-10-6.92057E-20-6.05890E-18
 -1      1191 9.56479E-05-2.87010E-05-2.87035E-05 1.20020E-09-1.47422E-19-3.71039E-18
 -1      1192 9.54128E-05-2.86289E-05-2.86304E-05 2.34980E-09-4.00103E-20-3.27994E-18
 -1      1193 9.52639E-05-2.85830E-05-2.85838E-05 2.91230E-09-1.52239E-19-3.29092E-18
 -1      1194 9.51771E-05-2.85559E-05-2.85563E-05 3.10212E-09-3.18943E-19-2.34517E-18
 -1      1195 9.51342E-05-2.85423E-05-2.85424E-05 3.07106E-09-1.30650E-20-4.62881E-18
 -1      1196 9.51216E-05-2.85379E-05-2.85379E-05 2.92497E-09 8.31451E-20-3.29156E-18
 -1      1197 9.51291E-05-2.85397E-05-2.85395E-05 2.73412E-09 4.69047E-19-1.37883E-18
 -1      1198 9.51491E-05-2.85453E-05-2.85451E-05 2.53709E-09 7.17499E-20 1.54330E-18
 -1      1199 9.51758E-05-2.85530E-05-2.85527E-05 2.33134E-09 1.72347E-19 1.16853E-18
 -1      1200 9.52036E-05-2.85611E-05-2.85605E-05 1.99991E-09 1.04636E-19 3.72891E-18
 -1      1201 9.52267E-05-2.85679E-05-2.85669E-05 1.28048E-09-3.23460E-19 1.77818E-18
 -1      1202 9.52371E-05-2.85713E-05-2.85707E-05-1.18241E-10 2.97760E-19 3.79761E-19
 -1      1203 1.30061E-04-3.73986E-05-3.85193E-05 1.20126E-05-1.64166E-19 1.48294E-17
 -1      1204 9.68014E-05-2.82719E-05-3.13965E-05 7.71444E-07 7.87741E-20 1.19955E-17
 -1      1205 9.14224E-05-2.72560E-05-2.81827E-05 1.16138E-07 1.00466E-19 9.02850E-18
 -1      1206 9.01732E-05-2.70616E-05-2.72391E-05 1.51367E-08 5.59803E-20 7.11666E-18
 -1      1207 9.06765E-05-2.72422E-05-2.72565E-05-1.52696E-08-3.07595E-20 6.10915E-18
 -1      1208 9.21350E-05-2.76744E-05-2.76732E-05-2.49118E-08 5.63674E-20 5.45754E-18
 -1      1209 9.42071E-05-2.82872E-05-2.82943E-05-3.11795E-08 3.35496E-20 4.52162E-18
 -1      1210 9.67293E-05-2.90361E-05-2.90503E-05-3.99474E-08-4.83305E-20 3.77707E-18
 -1      1211 9.95927E-05-2.98868E-05-2.99042E-05-5.41327E-08-2.06361E-20 2.92113E-18
 -1      1212 1.02675E-04-3.08008E-05-3.08157E-05-7.54684E-08 6.35562E-20 2.22365E-18
 -1      1213 1.05788E-04-3.17204E-05-3.17229E-05-1.03675E-07 8.81160E-20 1.36026E-18
 -1      1214 1.08620E-04-3.25536E-05-3.25279E-05-1.34259E-07-3.69146E-20 1.69912E-18
 -1      1215 1.10703E-04-3.31634E-05-3.30889E-05-1.55533E-07 1.47205E-19 1.40234E-18
 -1      1216 1.11418E-04-3.33715E-05-3.32300E-05-1.46855E-07-2.06679E-19 2.20032E-18
 -1      1217 1.10111E-04-3.29906E-05-3.27818E-05-8.25615E-08 1.07325E-19 1.56153E-18
 -1      1218 1.06362E-04-3.18992E-05-3.16616E-05 5.26968E-08-4.10943E-20 1.19045E-18
 -1      1219 1.00389E-04-3.01542E-05-2.99747E-05 2.38860E-07-3.02632E-19 1.56759E-18
 -1      1220 9.33865E-05-2.80884E-05-2.80764E-05 4.05195E-07 2.16468E-19 7.71435E-19
 -1      1221 8.74243E-05-2.62966E-05-2.65143E-05 4.54548E-07-5.20297E-20-1.25742E-18
 -1      1222 8.46721E-05-2.54290E-05-2.58232E-05 3.31962E-07-1.14720E-19-5.66553E-19
 -1      1223 8.62555E-05-2.58545E-05-2.62638E-05 8.07353E-08 5.11297E-20 1.09320E-19
 -1      1224 9.15772E-05-2.74277E-05-2.76832E-05-1.80614E-07-1.32921E-19 1.37161E-18
 -1      1225 9.86910E-05-2.95703E-05-2.96029E-05-3.43453E-07 1.33607E-19-1.21549E-19
 -1      1226 1.05392E-04-3.16029E-05-3.14599E-05-3.71953E-07 3.46357E-20-1.32328E-18
 -1      1227 1.10176E-04-3.30562E-05-3.28385E-05-3.01205E-07-1.12490E-19-6.90835E-19
 -1      1228 1.12555E-04-3.37772E-05-3.35716E-05-1.90849E-07-1.21132E-20 1.16568E-18
 -1      1229 1.12809E-04-3.38528E-05-3.37034E-05-8.70447E-08 6.20402E-20 3.28063E-19
 -1      1230 1.11570E-04-3.34775E-05-3.33913E-05-1.10168E-08-1.12020E-19 4.44097E-19
 -1      1231 1.09494E-04-3.28513E-05-3.28157E-05 3.46596E-08-6.31614E-20-5.24419E-19
 -1      1232 1.07100E-04-3.21314E-05-3.21288E-05 5.62346E-08 1.08220E-19-2.24481E-18
 -1      1233 1.04735E-04-3.14212E-05-3.14367E-05 6.18475E-08-1.72074E-19-2.87176E-18
 -1      1234 1.02595E-04-3.07792E-05-3.08024E-05 5.83688E-08 2.46687E-19-2.27587E-18
 -1      1235 1.00767E-04-3.02312E-05-3.02558E-05 5.05874E-08 1.65605E-19-2.79071E-18
 -1      1236 9.92715E-05-2.97828E-05-2.98056E-05 4.14479E-08-3.51800E-19-9.06884E-19
 -1      1237 9.80884E-05-2.94281E-05-2.94477E-05 3.25700E-08 1.62272E-20-8.97891E-19
 -1      1238 9.71798E-05-2.91556E-05-2.91716E-05 2.47252E-08-8.74657E-20-1.58750E-18
 -1      1239 9.65010E-05-2.89520E-05-2.89645E-05 1.81865E-08 2.04122E-19-4.09091E-18
 -1      1240 9.60081E-05-2.88040E-05-2.88135E-05 1.29567E-08-2.12465E-19-2.51779E-18
 -1      1241 9.56613E-05-2.86998E-05-2.87068E-05 8.90684E-09 1.44457E-19-1.43794E-18
 -1      1242 9.54264E-05-2.86291E-05-2.86343E-05 5.85612E-09 1.96796E-19-3.76717E-18
 -1      1243 9.52756E-05-2.85837E-05-2.85873E-05 3.61498E-09-3.09327E-19-1.99733E-18
 -1      1244 9.51862E-05-2.85567E-05-2.85592E-05 2.00625E-09 3.93783E-20-2.07231E-18
 -1      1245 9.51409E-05-2.85430E-05-2.85446E-05 8.73953E-10-3.41832E-22-4.26348E-18
 -1      1246 9.51263E-05-2.85384E-05-2.85395E-05 8.49741E-11 1.68265E-19-4.77810E-18
 -1      1247 9.51322E-05-2.85400E-05-2.85407E-05-4.73180E-10-1.13888E-19-4.99578E-18
 -1      1248 9.51511E-05-2.85456E-05-2.85459E-05-8.95119E-10 2.23530E-19-6.73162E-18
 -1      1249 9.51768E-05-2.85531E-05-2.85532E-05-1.25612E-09-3.05462E-19-6.98962E-18
 -1      1250 9.52041E-05-2.85612E-05-2.85608E-05-1.58024E-09 4.54967E-20-8.06378E-18
 -1      1251 9.52269E-05-2.85678E-05-2.85671E-05-1.62216E-09 5.79105E-19-8.31629E-18
 -1      1252 9.52371E-05-2.85713E-05-2.85707E-05 4.50113E-11-1.97967E-19-5.43224E-18
 -1      1253 9.52369E-05-2.85712E-05-2.85708E-05-9.66516E-11-5.83474E-18-6.23836E-19
 -1      1254 9.52404E-05-2.85816E-05-2.85672E-05-1.06784E-09-7.92054E-18-7.54110E-19
 -1      1255 9.52464E-05-2.86021E-05-2.85616E-05-1.60018E-09-5.51671E-18 1.69853E-18
 -1      1256 9.52531E-05-2.86246E-05-2.85554E-05-1.39995E-09-3.20993E-18-2.60248E-19
 -1      1257 9.52589E-05-2.86440E-05-2.85498E-05-1.02364E-09-7.91355E-18 6.87795E-19
 -1      1258 9.52632E-05-2.86585E-05-2.85454E-05-6.56575E-10-8.90269E-18 2.08981E-19
 -1      1259 9.52661E-05-2.86681E-05-2.85425E-05-3.86988E-10-4.82813E-18 7.75825E-19
 -1      1260 9.52678E-05-2.86736E-05-2.85407E-05-1.77431E-10-1.97105E-18-1.14594E-18
 -1      1261 9.52684E-05-2.86755E-05-2.85402E-05-1.19084E-11-4.05220E-19 1.15206E-18
 -1      1262 9.52679E-05-2.86741E-05-2.85406E-05 1.57138E-10 3.91947E-18-6.61232E-19
 -1      1263 9.52663E-05-2.86689E-05-2.85423E-05 3.76939E-10-4.14164E-18-9.84160E-19
 -1      1264 9.52635E-05-2.86593E-05-2.85452E-05 6.75155E-10-8.52517E-18 8.01032E-20
 -1      1265 9.52591E-05-2.86447E-05-2.85496E-05 1.04293E-09-8.49484E-18-4.46125E-19
 -1      1266 9.52532E-05-2.86250E-05-2.85553E-05 1.44879E-09-9.42643E-18-7.77826E-20
 -1      1267 9.52465E-05-2.86020E-05-2.85616E-05 1.92294E-09-8.90702E-18-2.59485E-19
 -1      1268 9.52406E-05-2.85817E-05-2.85671E-05 1.32826E-09-2.62952E-18 2.96467E-19
 -1      1269 9.52369E-05-2.85713E-05-2.85708E-05 2.29519E-10-5.46732E-19 2.96876E-19
 -1      1270 3.33123E-05-1.05350E-04 1.78196E-05-1.33598E-05 3.74092E-18 6.54836E-19
 -1      1271 1.72063E-05-6.34613E-05 9.18390E-06-2.44710E-05 9.98991E-18 3.56262E-18
 -1      1272 7.05946E-06-8.41524E-06-5.76590E-06-8.42277E-07 1.55922E-17 9.77307E-18
 -1      1273 3.16598E-05 2.43655E-05-2.49130E-05 5.03322E-05 1.65188E-17 1.51907E-17
 -1      1274 1.03267E-04 1.44688E-05-4.54090E-05 9.86093E-05 1.27665E-17 1.79181E-17
 -1      1275 2.00663E-04-3.00916E-05-6.29909E-05 1.09074E-04 6.20663E-18 1.31265E-17
 -1      1276 2.81890E-04-7.69688E-05-7.42530E-05 6.76869E-05 1.42164E-18 3.96835E-18
 -1      1277 3.08760E-04-9.31012E-05-7.76588E-05-7.57951E-06 1.96670E-19-1.97465E-18
 -1      1278 2.66556E-04-6.71791E-05-7.23140E-05-8.00063E-05 2.22007E-18-6.95414E-18
 -1      1279 1.76055E-04-1.70653E-05-5.90614E-05-1.12133E-04 5.48750E-18-1.04575E-17
 -1      1280 8.32853E-05 2.12389E-05-4.11108E-05-9.13034E-05 9.87302E-18-1.24243E-17
 -1      1281 2.32193E-05 2.07339E-05-2.10418E-05-3.96446E-05 1.29969E-17-1.09742E-17
 -1      1282 7.64935E-06-2.07569E-05-1.88161E-06 8.62723E-06 1.38236E-17-7.48608E-18
 -1      1283 2.20454E-05-7.72724E-05 1.22221E-05 2.54875E-05 9.66973E-18-3.51836E-18
 -1      1284 3.60601E-05-1.11143E-04 1.89212E-05 8.04479E-06 7.35648E-19-9.22022E-19
 -1      1285 3.24580E-05-1.03050E-04 1.72714E-05-1.91382E-05-8.48388E-18-1.84341E-18
 -1      1286 1.37785E-05-5.41191E-05 7.08069E-06-2.36460E-05-1.58234E-17-6.74069E-18
 -1      1287 8.70130E-06-7.34599E-07-9.29245E-06 7.05245E-06-1.81418E-17-1.21439E-17
 -1      1288 4.02976E-05 2.52179E-05-2.83358E-05 5.89655E-05-1.50247E-17-1.52601E-17
 -1      1289 1.14108E-04 1.04734E-05-4.79107E-05 1.02786E-04-1.02796E-17-1.55109E-17
 -1      1290 2.10973E-04-3.46510E-05-6.45209E-05 1.09215E-04-5.64039E-18-1.32815E-17
 -1      1291 2.87407E-04-7.78822E-05-7.55600E-05 6.41146E-05-2.15549E-18-7.68767E-18
 -1      1292 3.16127E-04-9.59533E-05-7.86204E-05-1.03746E-05-8.59950E-19 2.37879E-18
 -1      1293 2.71421E-04-6.90118E-05-7.31998E-05-8.00309E-05-3.18241E-18 1.17051E-17
 -1      1294 1.85768E-04-2.18933E-05-6.06349E-05-1.11830E-04-8.45932E-18 1.80638E-17
 -1      1295 9.39307E-05 1.68137E-05-4.34639E-05-9.51154E-05-1.42149E-17 1.93276E-17
 -1      1296 2.87347E-05 2.12870E-05-2.32466E-05-4.48459E-05-1.67780E-17 1.48434E-17
 -1      1297 7.15147E-06-1.40742E-05-4.17647E-06 5.26882E-06-1.63443E-17 9.57740E-18
 -1      1298 1.84937E-05-6.88566E-05 1.04384E-05 2.60488E-05-9.48677E-18 4.75228E-18
 -1      1299 3.44496E-05-1.08305E-04 1.82780E-05 1.32444E-05 1.06091E-18 4.50039E-19
 -1      1300 1.04357E-04-2.20020E-05-3.78301E-05-1.67657E-05-3.66554E-19 6.31421E-18
 -1      1301 9.08705E-05-6.86902E-06-3.61573E-05-1.94180E-05-9.81288E-19-2.18640E-19
 -1      1302 9.30964E-05-6.96166E-06-3.72875E-05-2.47764E-05-1.30581E-18 1.27754E-18
 -1      1303 8.64819E-05-4.21565E-06-3.53206E-05-1.51848E-05-9.67259E-19-2.39115E-18
 -1      1304 8.77499E-05-4.22210E-06-3.57762E-05-1.76756E-05-1.08928E-18-1.45234E-18
 -1      1305 9.27897E-05-1.07029E-05-3.52617E-05-1.78504E-05-1.72112E-18-1.62630E-19
 -1      1306 8.44832E-05-3.20400E-06-3.48481E-05-1.15132E-05-7.77417E-19-3.43518E-18
 -1      1307 8.51902E-05-3.18194E-06-3.50953E-05-1.33383E-05-8.99284E-19-2.97976E-18
 -1      1308 8.84295E-05-7.48118E-06-3.47689E-05-1.41035E-05-1.49971E-18-1.96525E-18
 -1      1309 8.32708E-05-2.62055E-06-3.45598E-05-8.46251E-06-5.61530E-19-3.98022E-18
 -1      1310 8.37236E-05-2.61141E-06-3.47097E-05-9.95115E-06-6.55140E-19-3.72933E-18
 -1      1311 8.61321E-05-5.87017E-06-3.44615E-05-1.06419E-05-1.17943E-18-2.90297E-18
 -1      1312 8.24727E-05-2.24272E-06-3.43720E-05-5.90312E-06-3.55674E-19-4.18851E-18
 -1      1313 8.27754E-05-2.23955E-06-3.44686E-05-7.15573E-06-4.57914E-19-4.08508E-18
 -1      1314 8.47109E-05-4.89367E-06-3.42595E-05-7.75817E-06-8.42265E-19-3.33511E-18
 -1      1315 8.19408E-05-1.99205E-06-3.42473E-05-3.60542E-06-2.06471E-19-4.26013E-18
 -1      1316 8.21374E-05-1.99189E-06-3.43092E-05-4.73759E-06-2.43959E-19-4.23208E-18
 -1      1317 8.37688E-05-4.25916E-06-3.41205E-05-5.28058E-06-5.18824E-19-3.53867E-18
 -1      1318 8.16524E-05-1.85023E-06-3.41803E-05-1.49550E-06-3.88279E-21-4.20843E-18
 -1      1319 8.17476E-05-1.85057E-06-3.42103E-05-2.54721E-06-8.50011E-20-4.22219E-18
 -1      1320 8.31716E-05-3.86597E-06-3.40293E-05-3.05500E-06-2.48157E-19-3.52978E-18
 -1      1321 8.15962E-05-1.80856E-06-3.41689E-05 5.40151E-07 1.70786E-19-4.12309E-18
 -1      1322 8.15927E-05-1.80859E-06-3.41682E-05-4.87852E-07 1.13822E-19-4.16738E-18
 -1      1323 8.28864E-05-3.68291E-06-3.39840E-05-9.86407E-07 1.04058E-19-3.48275E-18
 -1      1324 8.17688E-05-1.86376E-06-3.42126E-05 2.61113E-06 3.89936E-19-4.07206E-18
 -1      1325 8.16674E-05-1.86347E-06-3.41815E-05 1.55172E-06 3.23229E-19-4.10634E-18
 -1      1326 8.28999E-05-3.69587E-06-3.39844E-05 1.03608E-06 3.98415E-19-3.43921E-18
 -1      1327 8.21719E-05-2.01751E-06-3.43120E-05 4.82726E-06 5.35682E-19-3.90442E-18
 -1      1328 8.19714E-05-2.01700E-06-3.42497E-05 3.68036E-06 4.72413E-19-4.02094E-18
 -1      1329 8.32094E-05-3.90321E-06-3.40301E-05 3.12010E-06 7.10624E-19-3.38690E-18
 -1      1330 8.28095E-05-2.27058E-06-3.44692E-05 7.25910E-06 7.19634E-19-3.54622E-18
 -1      1331 8.25065E-05-2.27423E-06-3.43730E-05 5.98846E-06 6.40913E-19-3.76061E-18
 -1      1332 8.38191E-05-4.31279E-06-3.41195E-05 5.35340E-06 9.75942E-19-3.17473E-18
 -1      1333 8.37693E-05-2.65519E-06-3.47105E-05 1.01239E-05 9.77277E-19-2.93568E-18
 -1      1334 8.33162E-05-2.66539E-06-3.45606E-05 8.60958E-06 8.66554E-19-3.28257E-18
 -1      1335 8.47721E-05-4.96458E-06-3.42562E-05 7.86809E-06 1.27904E-18-2.74373E-18
 -1      1336 8.52404E-05-3.23207E-06-3.50969E-05 1.35686E-05 1.18066E-18-1.92494E-18
 -1      1337 8.45323E-05-3.25971E-06-3.48482E-05 1.17146E-05 1.06684E-18-2.55739E-18
 -1      1338 8.62168E-05-5.97032E-06-3.44572E-05 1.08235E-05 1.66476E-18-2.12147E-18
 -1      1339 8.78356E-05-4.22666E-06-3.57910E-05 1.79393E-05 1.35938E-18-7.57036E-20
 -1      1340 8.65396E-05-4.27745E-06-3.53215E-05 1.54685E-05 1.21393E-18-1.18992E-18
 -1      1341 8.85442E-05-7.61693E-06-3.47632E-05 1.43623E-05 1.94362E-18-9.53203E-19
 -1      1342 9.38585E-05-6.99638E-06-3.71800E-05 2.41710E-05 1.16404E-18 3.39565E-18
 -1      1343 9.06776E-05-6.62894E-06-3.61750E-05 2.01104E-05 1.12782E-18 1.28151E-18
 -1      1344 9.30014E-05-1.09334E-05-3.52407E-05 1.85148E-05 2.01970E-18 1.09945E-18
 -1      1345 1.23136E-04-2.48797E-05-3.89187E-05 2.77301E-05 5.37866E-19 9.84443E-18
 -1      1346 1.00266E-04-1.45531E-05-3.73601E-05 2.32913E-05 5.67089E-19 5.36479E-18
 -1      1347 1.02109E-04-1.95614E-05-3.54821E-05 2.04400E-05 1.89048E-18 4.23178E-18
 -1      1348 1.02684E-04-2.78704E-05-3.47434E-05 6.90053E-06 9.38539E-19 9.50434E-18
 -1      1349 1.05359E-04-3.03198E-05-3.35669E-05-7.46042E-06-1.00924E-18 6.68320E-18
 -1      1350 9.88900E-05-2.80623E-05-3.09232E-05-4.56581E-06-9.22842E-19 5.47782E-18
 -1      1351 9.64042E-05-2.81214E-05-2.95175E-05-2.06593E-06-7.30037E-19 4.94081E-18
 -1      1352 9.45736E-05-2.79441E-05-2.86018E-05-1.62204E-06-7.02773E-19 3.89834E-18
 -1      1353 1.00333E-04-2.83295E-05-3.12248E-05-7.05649E-06-1.64404E-18 2.85866E-18
 -1      1354 9.32313E-05-2.76788E-05-2.80804E-05-3.73273E-07-5.55892E-19 3.48993E-18
 -1      1355 9.29582E-05-2.77106E-05-2.79131E-05-2.47175E-07-4.68614E-19 2.71297E-18
 -1      1356 9.61788E-05-2.81915E-05-2.92657E-05-2.24201E-06-1.21160E-18 2.08619E-18
 -1      1357 9.26293E-05-2.76445E-05-2.78032E-05 3.98200E-07-3.93278E-19 2.28786E-18
 -1      1358 9.31031E-05-2.78312E-05-2.79322E-05 4.82546E-07-4.81403E-19 1.65533E-18
 -1      1359 9.47235E-05-2.81130E-05-2.85844E-05-1.12625E-08-9.55850E-19 1.36330E-18
 -1      1360 9.33706E-05-2.79117E-05-2.80232E-05 8.86543E-07-3.27385E-19 1.50105E-18
 -1      1361 9.42864E-05-2.82098E-05-2.82937E-05 9.51397E-07-2.75272E-19 1.11024E-18
 -1      1362 9.46864E-05-2.82202E-05-2.85079E-05 1.24372E-06-7.13506E-19 7.63309E-19
 -1      1363 9.49553E-05-2.84014E-05-2.85080E-05 1.25570E-06-1.45099E-19 9.29500E-19
 -1      1364 9.62013E-05-2.87922E-05-2.88753E-05 1.31299E-06-1.80787E-19 7.48526E-19
 -1      1365 9.55946E-05-2.85334E-05-2.87611E-05 2.10024E-06-4.86485E-19 4.37443E-19
 -1      1366 9.71756E-05-2.90715E-05-2.91818E-05 1.57497E-06-1.55184E-19 6.87354E-19
 -1      1367 9.87110E-05-2.95478E-05-2.96331E-05 1.63046E-06-1.99149E-19 3.72086E-19
 -1      1368 9.71878E-05-2.90246E-05-2.92328E-05 2.78592E-06-3.80963E-19 3.19523E-20
 -1      1369 9.99397E-05-2.99021E-05-3.00165E-05 1.87060E-06-1.70889E-19 3.95564E-19
 -1      1370 1.01746E-04-3.04625E-05-3.05463E-05 1.92509E-06-2.45678E-19 9.03678E-20
 -1      1371 9.93300E-05-2.96723E-05-2.98727E-05 3.39413E-06-3.38446E-19 4.40821E-20
 -1      1372 1.03191E-04-3.08838E-05-3.09938E-05 2.13590E-06-2.16815E-19 1.27187E-19
 -1      1373 1.05236E-04-3.15239E-05-3.15916E-05 2.18438E-06-1.90018E-19-1.20146E-19
 -1      1374 1.01939E-04-3.04662E-05-3.06493E-05 3.94186E-06-3.43093E-19 7.19300E-20
 -1      1375 1.06846E-04-3.20027E-05-3.20844E-05 2.32669E-06-1.37141E-19-6.46921E-20
 -1      1376 1.09051E-04-3.27042E-05-3.27238E-05 2.35560E-06 2.99903E-20-1.63358E-19
 -1      1377 1.04935E-04-3.14006E-05-3.15293E-05 4.37585E-06-2.66513E-19 1.29398E-19
 -1      1378 1.10735E-04-3.32223E-05-3.32283E-05 2.34994E-06-6.83044E-20-5.98508E-19
 -1      1379 1.12917E-04-3.39369E-05-3.38527E-05 2.33376E-06-2.20136E-19-7.94835E-19
 -1      1380 1.08189E-04-3.24618E-05-3.24609E-05 4.55776E-06-1.59865E-19-9.74551E-20
 -1      1381 1.14514E-04-3.44580E-05-3.43117E-05 2.05602E-06-2.18591E-19-7.93061E-19
 -1      1382 1.16339E-04-3.50860E-05-3.48202E-05 1.95563E-06-2.51350E-19-9.84305E-19
 -1      1383 1.11471E-04-3.36093E-05-3.33593E-05 4.24765E-06-2.94374E-19-8.48681E-19
 -1      1384 1.17594E-04-3.55431E-05-3.51491E-05 1.25614E-06 4.92536E-20-8.47218E-19
 -1      1385 1.18543E-04-3.59151E-05-3.53936E-05 1.02609E-06-1.42824E-19-1.10332E-18
 -1      1386 1.14391E-04-3.47436E-05-3.40965E-05 3.11771E-06-1.85997E-19-5.61490E-19
 -1      1387 1.19112E-04-3.61961E-05-3.54906E-05-1.94354E-07-3.25896E-19-9.29629E-19
 -1      1388 1.18555E-04-3.60812E-05-3.53049E-05-5.76358E-07-4.33740E-19-1.24696E-18
 -1      1389 1.16365E-04-3.56575E-05-3.45115E-05 8.56622E-07-4.01957E-19-2.77787E-19
 -1      1390 1.18073E-04-3.60321E-05-3.50871E-05-2.21305E-06-2.47135E-19-9.21704E-19
 -1      1391 1.15530E-04-3.52136E-05-3.43659E-05-2.69107E-06-2.35674E-19-1.24429E-18
 -1      1392 1.16660E-04-3.60008E-05-3.44533E-05-2.56161E-06-3.17240E-19-1.84471E-19
 -1      1393 1.13798E-04-3.46858E-05-3.38307E-05-4.25318E-06 9.00436E-20-1.31777E-18
 -1      1394 1.09408E-04-3.31397E-05-3.26502E-05-4.63228E-06-1.33275E-19-1.20326E-18
 -1      1395 1.14639E-04-3.53342E-05-3.38655E-05-6.47046E-06-9.11222E-20-9.50265E-21
 -1      1396 1.06703E-04-3.21463E-05-3.19310E-05-5.24932E-06-2.20612E-19-1.22518E-18
 -1      1397 1.01646E-04-3.02614E-05-3.06235E-05-5.24015E-06-3.77744E-19-1.54409E-18
 -1      1398 1.10272E-04-3.34242E-05-3.28752E-05-9.23745E-06-1.67554E-20-2.97586E-19
 -1      1399 9.89378E-05-2.91582E-05-2.99760E-05-4.15662E-06-3.02536E-19-1.95892E-18
 -1      1400 9.52477E-05-2.77306E-05-2.90492E-05-3.60174E-06-2.43482E-19-2.09429E-18
 -1      1401 1.04768E-04-3.07255E-05-3.18083E-05-8.79941E-06-7.36674E-19 5.25425E-21
 -1      1402 9.38970E-05-2.71495E-05-2.87464E-05-9.77421E-07-3.17373E-19-2.91030E-18
 -1      1403 9.33852E-05-2.69454E-05-2.86200E-05-1.04071E-07-8.09049E-19-3.24432E-18
 -1      1404 1.00559E-04-2.85442E-05-3.10737E-05-4.29015E-06-8.23329E-19-7.18853E-19
 -1      1405 9.41881E-05-2.72841E-05-2.88034E-05 2.76858E-06-3.07896E-19-3.82779E-18
 -1      1406 9.71430E-05-2.84281E-05-2.95444E-05 3.46530E-06-8.80253E-20-3.77099E-18
 -1      1407 9.99857E-05-2.82227E-05-3.09868E-05 2.50398E-06-9.88514E-19-1.89250E-18
 -1      1408 9.96591E-05-2.94668E-05-3.01356E-05 5.09713E-06 3.02351E-20-3.80826E-18
 -1      1409 1.04629E-04-3.13370E-05-3.14109E-05 5.26980E-06 6.71770E-20-3.36897E-18
 -1      1410 1.03429E-04-2.99975E-05-3.15913E-05 8.03166E-06-1.04767E-19-3.09808E-18
 -1      1411 1.07549E-04-3.24406E-05-3.21653E-05 5.12390E-06-1.07401E-19-3.77427E-18
 -1      1412 1.12423E-04-3.41833E-05-3.34631E-05 4.83621E-06-3.97536E-19-4.19742E-18
 -1      1413 1.08987E-04-3.27440E-05-3.26468E-05 9.73237E-06-4.18050E-19-3.71773E-18
 -1      1414 1.14606E-04-3.48942E-05-3.41061E-05 3.47634E-06-1.91244E-20-3.45267E-18
 -1      1415 1.17890E-04-3.59832E-05-3.50238E-05 3.00530E-06 1.05429E-19-3.44438E-18
 -1      1416 1.14067E-04-3.50339E-05-3.37581E-05 7.76790E-06-3.20417E-20-3.26886E-18
 -1      1417 1.18857E-04-3.61971E-05-3.53787E-05 1.33897E-06 5.44126E-19-3.04590E-18
 -1      1418 1.20133E-04-3.65516E-05-3.57662E-05 9.21617E-07 6.23615E-19-1.90690E-18
 -1      1419 1.17046E-04-3.61328E-05-3.45560E-05 4.03730E-06 6.89763E-19-2.16838E-18
 -1      1420 1.19977E-04-3.63898E-05-3.57993E-05-4.24945E-07-2.29837E-19-1.63571E-18
 -1      1421 1.19599E-04-3.61937E-05-3.57217E-05-6.93977E-07-3.93169E-19-1.81923E-18
 -1      1422 1.17637E-04-3.61181E-05-3.48493E-05 4.11448E-07 7.93432E-20-1.18972E-18
 -1      1423 1.18665E-04-3.58198E-05-3.55001E-05-1.51562E-06-4.55601E-19-2.18913E-18
 -1      1424 1.17261E-04-3.53147E-05-3.51182E-05-1.64262E-06-5.20078E-19-2.83305E-18
 -1      1425 1.16369E-04-3.54129E-05-3.46488E-05-2.15289E-06-7.13731E-19-1.35819E-18
 -1      1426 1.15914E-04-3.48552E-05-3.47440E-05-1.99900E-06-6.33620E-20-2.80185E-18
 -1      1427 1.14056E-04-3.42334E-05-3.42179E-05-2.02732E-06 2.76308E-19-2.83150E-18
 -1      1428 1.13988E-04-3.44121E-05-3.40889E-05-3.52212E-06-2.57074E-19-1.32496E-18
 -1      1429 1.12579E-04-3.37672E-05-3.37829E-05-2.06691E-06 7.34837E-19-3.05153E-18
 -1      1430 1.10658E-04-3.31486E-05-3.32285E-05-2.03963E-06 2.94551E-19-2.62589E-18
 -1      1431 1.11134E-04-3.33639E-05-3.33346E-05-3.96406E-06 7.54227E-19-1.93287E-18
 -1      1432 1.09233E-04-3.27186E-05-3.27966E-05-1.90211E-06-1.66852E-19-1.86030E-18
 -1      1433 1.07469E-04-3.21644E-05-3.22818E-05-1.84990E-06 3.03541E-19-1.07062E-18
 -1      1434 1.08249E-04-3.23936E-05-3.25237E-05-3.82667E-06 3.82593E-19-2.07822E-18
 -1      1435 1.06194E-04-3.17898E-05-3.18896E-05-1.63471E-06 6.87420E-20-1.31461E-18
 -1      1436 1.04683E-04-3.13233E-05-3.14455E-05-1.57587E-06-6.24619E-19-1.48152E-18
 -1      1437 1.05590E-04-3.15518E-05-3.17482E-05-3.39327E-06 1.00903E-19-1.56591E-18
 -1      1438 1.03598E-04-3.10096E-05-3.11091E-05-1.34311E-06-4.91099E-19-1.45029E-18
 -1      1439 1.02361E-04-3.06327E-05-3.07440E-05-1.28712E-06-2.85065E-19-2.08710E-18
 -1      1440 1.03277E-04-3.08498E-05-3.10582E-05-2.85122E-06-7.08662E-19-1.79131E-18
 -1      1441 1.01470E-04-3.03776E-05-3.04668E-05-1.06843E-06-4.76706E-19-2.76733E-18
 -1      1442 1.00491E-04-3.00821E-05-3.01766E-05-1.01942E-06-4.39382E-19-3.72485E-18
 -1      1443 1.01347E-04-3.02804E-05-3.04733E-05-2.30772E-06-1.02902E-18-2.39921E-18
 -1      1444 9.97796E-05-2.98796E-05-2.99549E-05-8.28652E-07-2.10001E-19-3.64206E-18
 -1      1445 9.90234E-05-2.96534E-05-2.97303E-05-7.87799E-07 1.26608E-20-3.92978E-18
 -1      1446 9.97840E-05-2.98286E-05-2.99948E-05-1.81573E-06-4.99002E-19-2.91142E-18
 -1      1447 9.84685E-05-2.94960E-05-2.95572E-05-6.28832E-07 2.19086E-19-3.61489E-18
 -1      1448 9.78978E-05-2.93265E-05-2.93873E-05-5.95874E-07 5.50333E-19-3.70553E-18
 -1      1449 9.85490E-05-2.94769E-05-2.96139E-05-1.39576E-06 1.90076E-19-3.86981E-18
 -1      1450 9.74736E-05-2.92064E-05-2.92550E-05-4.67498E-07-2.80116E-20-4.00568E-18
 -1      1451 9.70517E-05-2.90821E-05-2.91291E-05-4.41538E-07-2.59594E-19-4.38079E-18
 -1      1452 9.75938E-05-2.92080E-05-2.93176E-05-1.05068E-06 3.15091E-19-3.29972E-18
 -1      1453 9.67337E-05-2.89922E-05-2.90299E-05-3.40286E-07-4.05036E-19-4.85165E-18
 -1      1454 9.64286E-05-2.89030E-05-2.89387E-05-3.20231E-07-6.33314E-19-4.86023E-18
 -1      1455 9.68694E-05-2.90061E-05-2.90917E-05-7.74791E-07-5.11825E-19-3.57725E-18
 -1      1456 9.61952E-05-2.88371E-05-2.88659E-05-2.41911E-07 4.21036E-19-5.84734E-18
 -1      1457 9.59799E-05-2.87747E-05-2.88013E-05-2.26684E-07 2.39026E-19-4.98034E-18
 -1      1458 9.63309E-05-2.88573E-05-2.89230E-05-5.58915E-07-1.35237E-19-4.83967E-18
 -1      1459 9.58123E-05-2.87275E-05-2.87491E-05-1.67145E-07 1.29146E-19-3.60676E-18
 -1      1460 9.56650E-05-2.86852E-05-2.87048E-05-1.55772E-07 7.38257E-19-3.56034E-18
 -1      1461 9.59389E-05-2.87501E-05-2.87996E-05-3.93067E-07 6.23890E-19-4.85104E-18
 -1      1462 9.55480E-05-2.86524E-05-2.86683E-05-1.11260E-07 2.51636E-19-3.25074E-18
 -1      1463 9.54512E-05-2.86250E-05-2.86390E-05-1.02907E-07 1.16109E-19-2.86886E-18
 -1      1464 9.56604E-05-2.86748E-05-2.87115E-05-2.67795E-07 1.04807E-18-2.89244E-18
 -1      1465 9.53723E-05-2.86029E-05-2.86145E-05-7.01900E-08 4.51110E-19-2.32069E-18
 -1      1466 9.53124E-05-2.85863E-05-2.85962E-05-6.41652E-08-2.95085E-19-2.69855E-18
 -1      1467 9.54684E-05-2.86235E-05-2.86503E-05-1.74738E-07 4.92098E-19-1.38254E-18
 -1      1468 9.52617E-05-2.85722E-05-2.85805E-05-4.05559E-08-6.94352E-19-2.07702E-18
 -1      1469 9.52282E-05-2.85633E-05-2.85701E-05-3.62978E-08-6.54528E-19-2.72535E-18
 -1      1470 9.53413E-05-2.85903E-05-2.86094E-05-1.06809E-07-1.67150E-19-1.00154E-18
 -1      1471 9.51981E-05-2.85550E-05-2.85608E-05-1.96213E-08-4.72931E-19-2.45243E-18
 -1      1472 9.51832E-05-2.85515E-05-2.85560E-05-1.66859E-08 2.44543E-19-2.63986E-18
 -1      1473 9.52618E-05-2.85701E-05-2.85835E-05-5.81796E-08-4.81828E-19-9.69154E-19
 -1      1474 9.51678E-05-2.85473E-05-2.85512E-05-5.22931E-09 5.37412E-19-1.38131E-18
 -1      1475 9.51655E-05-2.85474E-05-2.85503E-05-3.27452E-09 4.44292E-19-8.08361E-19
 -1      1476 9.52168E-05-2.85593E-05-2.85684E-05-2.41835E-08 1.10169E-18 3.21197E-19
 -1      1477 9.51601E-05-2.85460E-05-2.85486E-05 4.26074E-09 7.94351E-19-1.34292E-18
 -1      1478 9.51661E-05-2.85485E-05-2.85501E-05 5.48545E-09 9.39068E-19-2.05555E-19
 -1      1479 9.51961E-05-2.85551E-05-2.85610E-05-1.20181E-09 7.94049E-19 6.78741E-19
 -1      1480 9.51673E-05-2.85490E-05-2.85505E-05 1.00173E-08 1.08781E-18 1.88272E-19
 -1      1481 9.51781E-05-2.85528E-05-2.85535E-05 1.06766E-08 8.17585E-19 1.18966E-18
 -1      1482 9.51917E-05-2.85553E-05-2.85588E-05 1.34350E-08 1.39062E-18 1.18955E-19
 -1      1483 9.51832E-05-2.85545E-05-2.85551E-05 1.27540E-08 5.74105E-19 1.11620E-18
 -1      1484 9.51961E-05-2.85589E-05-2.85587E-05 1.29183E-08 5.32813E-19 1.62556E-18
 -1      1485 9.51976E-05-2.85584E-05-2.85599E-05 2.15081E-08 1.17974E-18 1.12268E-18
 -1      1486 9.52028E-05-2.85611E-05-2.85606E-05 1.26888E-08 4.94652E-19 1.57828E-18
 -1      1487 9.52151E-05-2.85654E-05-2.85640E-05 1.22936E-08 1.57569E-19 2.10963E-18
 -1      1488 9.52090E-05-2.85631E-05-2.85626E-05 2.38682E-08 9.08920E-19 1.12740E-18
 -1      1489 9.52214E-05-2.85676E-05-2.85657E-05 9.45989E-09-6.76480E-19 2.27873E-18
 -1      1490 9.52302E-05-2.85708E-05-2.85681E-05 8.53165E-09-9.41750E-19 1.68911E-18
 -1      1491 9.52219E-05-2.85686E-05-2.85656E-05 2.04882E-08 2.58364E-19 3.98826E-19
 -1      1492 9.52360E-05-2.85726E-05-2.85696E-05 1.47327E-09-1.65641E-18 1.29647E-18
 -1      1493 9.52346E-05-2.85748E-05-2.85682E-05 9.18219E-09-1.50711E-18 1.12149E-18
 -1      1494 9.72988E-05-2.85900E-05-2.99729E-05 2.64240E-06 9.23769E-19 7.51546E-18
 -1      1495 1.02835E-04-2.94910E-05-3.22397E-05 4.08541E-06 7.81706E-19 8.90814E-18
 -1      1496 1.02807E-04-2.69288E-05-3.28285E-05 1.20529E-05 1.54250E-18 5.80207E-18
 -1      1497 9.34489E-05-2.78507E-05-2.81850E-05 7.97301E-07 6.57231E-19 5.75469E-18
 -1      1498 9.50128E-05-2.78921E-05-2.89804E-05 1.12380E-06 6.32178E-19 6.82001E-18
 -1      1499 9.75393E-05-2.83567E-05-2.98468E-05 4.18784E-06 1.33657E-18 4.54305E-18
 -1      1500 9.23955E-05-2.76506E-05-2.77285E-05-7.68460E-08 2.99142E-19 4.70222E-18
 -1      1501 9.25915E-05-2.75393E-05-2.78723E-05 1.03700E-07 3.82647E-19 5.27363E-18
 -1      1502 9.47554E-05-2.80777E-05-2.86236E-05 1.11722E-06 9.72500E-19 3.57879E-18
 -1      1503 9.28142E-05-2.78068E-05-2.78388E-05-5.56745E-07 2.39621E-19 4.02818E-18
 -1      1504 9.23472E-05-2.75855E-05-2.77141E-05-4.39589E-07 2.18283E-19 4.37217E-18
 -1      1505 9.39805E-05-2.80228E-05-2.82832E-05-3.55106E-07 5.07465E-19 2.83978E-18
 -1      1506 9.41006E-05-2.82014E-05-2.82300E-05-8.66531E-07 3.68860E-19 3.39554E-18
 -1      1507 9.32456E-05-2.78938E-05-2.79768E-05-7.79407E-07 2.43757E-19 3.81422E-18
 -1      1508 9.43935E-05-2.82129E-05-2.83779E-05-1.20763E-06 4.76297E-19 2.23756E-18
 -1      1509 9.59692E-05-2.87667E-05-2.87946E-05-1.09095E-06 1.42270E-19 2.92743E-18
 -1      1510 9.48486E-05-2.83912E-05-2.84622E-05-1.01947E-06 2.02302E-19 3.28074E-18
 -1      1511 9.55633E-05-2.85935E-05-2.87180E-05-1.77504E-06 4.32940E-19 1.98272E-18
 -1      1512 9.82578E-05-2.94591E-05-2.94814E-05-1.25948E-06 2.26487E-19 2.35810E-18
 -1      1513 9.69397E-05-2.90297E-05-2.90919E-05-1.19865E-06 1.92214E-19 2.61930E-18
 -1      1514 9.72521E-05-2.91185E-05-2.92172E-05-2.18557E-06 3.29400E-19 1.77557E-18
 -1      1515 1.00838E-04-3.02435E-05-3.02514E-05-1.37102E-06 2.81760E-19 1.59367E-18
 -1      1516 9.93812E-05-2.97757E-05-2.98228E-05-1.32232E-06 3.16575E-19 2.07769E-18
 -1      1517 9.93062E-05-2.97535E-05-2.98240E-05-2.47756E-06 5.23967E-19 1.15810E-18
 -1      1518 1.03558E-04-3.10780E-05-3.10571E-05-1.39970E-06 3.10991E-19 9.36858E-19
 -1      1519 1.02042E-04-3.05960E-05-3.06140E-05-1.37124E-06 1.22725E-19 1.23335E-18
 -1      1520 1.01591E-04-3.04673E-05-3.04935E-05-2.63327E-06 4.64563E-19 4.63102E-19
 -1      1521 1.06196E-04-3.19000E-05-3.18289E-05-1.29621E-06-7.96633E-20 8.73331E-19
 -1      1522 1.04745E-04-3.14445E-05-3.14101E-05-1.30337E-06 1.40060E-19 9.23848E-19
 -1      1523 1.03943E-04-3.12205E-05-3.11715E-05-2.58832E-06 2.72187E-19 3.21998E-19
 -1      1524 1.08420E-04-3.26118E-05-3.24654E-05-9.93080E-07 2.02070E-19 1.14788E-18
 -1      1525 1.07228E-04-3.22476E-05-3.21291E-05-1.05785E-06 3.93639E-20 9.98480E-19
 -1      1526 1.06139E-04-3.19535E-05-3.17854E-05-2.23847E-06 1.80921E-20 5.39970E-19
 -1      1527 1.09775E-04-3.30733E-05-3.28323E-05-4.23309E-07 2.90539E-20 1.13438E-18
 -1      1528 1.09112E-04-3.28918E-05-3.26565E-05-5.69530E-07 1.00655E-19 1.11380E-18
 -1      1529 1.07866E-04-3.25743E-05-3.22403E-05-1.46063E-06 2.24623E-19 8.12702E-19
 -1      1530 1.09732E-04-3.31099E-05-3.27817E-05 4.37541E-07 1.88749E-19 1.24280E-18
 -1      1531 1.09910E-04-3.32184E-05-3.28525E-05 1.96582E-07-1.24196E-19 1.11628E-18
 -1      1532 1.08732E-04-3.29513E-05-3.24267E-05-1.65967E-07-1.13807E-19 7.66965E-19
 -1      1533 1.07835E-04-3.25546E-05-3.22005E-05 1.50420E-06-9.97117E-20 8.48833E-19
 -1      1534 1.09116E-04-3.30425E-05-3.25820E-05 1.18699E-06 1.54279E-19 1.15805E-18
 -1      1535 1.08329E-04-3.29208E-05-3.22468E-05 1.60284E-06 1.97789E-19 4.54036E-19
 -1      1536 1.03976E-04-3.13376E-05-3.10864E-05 2.51684E-06-6.26341E-20 8.90708E-19
 -1      1537 1.06401E-04-3.22138E-05-3.17747E-05 2.19533E-06 1.43036E-19 9.63553E-19
 -1      1538 1.06384E-04-3.23307E-05-3.16604E-05 3.54883E-06 3.95657E-20 5.58539E-19
 -1      1539 9.87065E-05-2.96075E-05-2.96206E-05 3.05289E-06 2.18028E-19 7.89011E-19
 -1      1540 1.01912E-04-3.07314E-05-3.05007E-05 2.85092E-06-2.05265E-19 6.22040E-19
 -1      1541 1.02986E-04-3.11369E-05-3.07376E-05 5.05877E-06-1.39559E-19 4.36129E-19
 -1      1542 9.33673E-05-2.78062E-05-2.81765E-05 2.69986E-06 7.08272E-19-4.98055E-19
 -1      1543 9.65248E-05-2.88669E-05-2.90204E-05 2.74235E-06 6.14450E-19 4.94561E-19
 -1      1544 9.88110E-05-2.95323E-05-2.96850E-05 5.35165E-06 6.63597E-19-6.59098E-20
 -1      1545 8.97523E-05-2.65695E-05-2.72143E-05 1.36017E-06-4.58093E-19-1.16143E-18
 -1      1546 9.17969E-05-2.71812E-05-2.77488E-05 1.68335E-06-1.74171E-20-8.90893E-19
 -1      1547 9.50978E-05-2.80029E-05-2.88061E-05 3.90958E-06 6.14297E-19-5.81501E-19
 -1      1548 8.92837E-05-2.64182E-05-2.70819E-05-5.43979E-07-2.87316E-19-4.29459E-19
 -1      1549 8.94159E-05-2.63208E-05-2.71116E-05-5.00152E-08-3.99680E-19-8.68930E-19
 -1      1550 9.32229E-05-2.71768E-05-2.83934E-05 9.72420E-07-3.71477E-19-9.41623E-19
 -1      1551 9.21888E-05-2.74291E-05-2.78362E-05-2.24262E-06-4.87646E-19-2.48922E-19
 -1      1552 9.03370E-05-2.66548E-05-2.73458E-05-1.78150E-06-3.28940E-19-5.52649E-19
 -1      1553 9.39771E-05-2.74547E-05-2.85958E-05-2.38114E-06-3.21753E-19-1.03163E-18
 -1      1554 9.73607E-05-2.91839E-05-2.92160E-05-3.09917E-06 3.66539E-19 1.62524E-19
 -1      1555 9.42220E-05-2.80373E-05-2.83771E-05-2.83732E-06-2.98546E-20 1.02994E-19
 -1      1556 9.70793E-05-2.87250E-05-2.93491E-05-4.82677E-06-3.40037E-19-1.37374E-18
 -1      1557 1.03031E-04-3.10480E-05-3.07811E-05-2.96537E-06 3.94436E-19-9.01561E-19
 -1      1558 9.96577E-05-2.99172E-05-2.98601E-05-2.94551E-06 5.91648E-19 4.20287E-19
 -1      1559 1.01363E-04-3.04380E-05-3.04123E-05-5.59302E-06 5.98965E-19-8.00049E-19
 -1      1560 1.07660E-04-3.25078E-05-3.21145E-05-2.14127E-06-3.18372E-19-1.45428E-18
 -1      1561 1.04942E-04-3.16740E-05-3.13506E-05-2.29439E-06-6.31304E-21-1.28781E-18
 -1      1562 1.05452E-04-3.19776E-05-3.14776E-05-4.77946E-06 5.58856E-19-1.16144E-18
 -1      1563 1.10462E-04-3.33381E-05-3.29691E-05-1.08051E-06-3.46228E-19-8.86619E-19
 -1      1564 1.08835E-04-3.29021E-05-3.24936E-05-1.30108E-06-3.59658E-19-1.48739E-18
 -1      1565 1.08376E-04-3.29713E-05-3.22931E-05-3.06635E-06-2.97110E-19-1.77538E-18
 -1      1566 1.11381E-04-3.35613E-05-3.32945E-05-1.31943E-07-1.21960E-19 2.37498E-19
 -1      1567 1.10853E-04-3.34832E-05-3.31239E-05-3.38332E-07-3.28278E-19-3.08446E-19
 -1      1568 1.09786E-04-3.33523E-05-3.27332E-05-1.19785E-06-7.23518E-19-1.49097E-18
 -1      1569 1.10810E-04-3.33292E-05-3.31771E-05 5.42358E-07-1.33497E-19 6.15058E-19
 -1      1570 1.11135E-04-3.35040E-05-3.32531E-05 3.89294E-07-6.64458E-20 7.88009E-19
 -1      1571 1.09812E-04-3.32420E-05-3.27967E-05 3.38386E-07-4.14808E-19 2.96513E-19
 -1      1572 1.09279E-04-3.28197E-05-3.27602E-05 9.26738E-07 1.16111E-19 5.26087E-21
 -1      1573 1.10140E-04-3.31372E-05-3.29973E-05 8.33293E-07 3.39932E-19 7.58822E-19
 -1      1574 1.08826E-04-3.28184E-05-3.25617E-05 1.36071E-06 2.76699E-19 7.94815E-19
 -1      1575 1.07269E-04-3.21829E-05-3.21845E-05 1.07857E-06-1.14514E-19-4.08415E-19
 -1      1576 1.08386E-04-3.25560E-05-3.25029E-05 1.03442E-06-3.49612E-19-6.65212E-19
 -1      1577 1.07238E-04-3.22390E-05-3.21345E-05 1.89477E-06 9.04108E-20-5.48533E-19
 -1      1578 1.05139E-04-3.15244E-05-3.15599E-05 1.07354E-06 3.64720E-19-1.31778E-18
 -1      1579 1.06309E-04-3.18955E-05-3.18992E-05 1.06377E-06 6.64935E-19-3.63933E-19
 -1      1580 1.05391E-04-3.16161E-05-3.16142E-05 2.05736E-06 5.59529E-19-8.83495E-20
 -1      1581 1.03116E-04-3.09085E-05-3.09586E-05 9.78029E-07 8.49361E-20-2.57931E-18
 -1      1582 1.04215E-04-3.12454E-05-3.12807E-05 9.89126E-07-4.45114E-20-2.96422E-18
 -1      1583 1.03533E-04-3.10191E-05-3.10763E-05 1.97886E-06 7.20898E-19-1.72284E-18
 -1      1584 1.01323E-04-3.03682E-05-3.04209E-05 8.40447E-07-1.94972E-19-2.29133E-18
 -1      1585 1.02286E-04-3.06562E-05-3.07053E-05 8.62331E-07-8.66571E-20-2.36001E-18
 -1      1586 1.01814E-04-3.04853E-05-3.05698E-05 1.76743E-06-9.29437E-20-2.46962E-18
 -1      1587 9.98079E-05-2.99153E-05-2.99642E-05 6.92035E-07-3.16707E-19-1.43535E-18
 -1      1588 1.00613E-04-3.01510E-05-3.02031E-05 7.18000E-07-6.08424E-20-1.88473E-18
 -1      1589 1.00310E-04-3.00299E-05-3.01215E-05 1.49971E-06-4.15979E-19-1.35139E-18
 -1      1590 9.85754E-05-2.95488E-05-2.95910E-05 5.50820E-07 1.79725E-19-9.89775E-19
 -1      1591 9.92236E-05-2.97353E-05-2.97841E-05 5.76815E-07-1.50774E-19-1.20614E-18
 -1      1592 9.90495E-05-2.96551E-05-2.97423E-05 1.22413E-06-2.81787E-19-1.53369E-18
 -1      1593 9.76030E-05-2.92610E-05-2.92958E-05 4.25809E-07-2.51396E-19-7.38563E-19
 -1      1594 9.81088E-05-2.94043E-05-2.94470E-05 4.49641E-07 9.98308E-20-5.32198E-19
 -1      1595 9.80273E-05-2.93557E-05-2.94327E-05 9.67993E-07-1.66846E-19-9.69359E-19
 -1      1596 9.68566E-05-2.90409E-05-2.90686E-05 3.20349E-07 5.72142E-19-1.73617E-18
 -1      1597 9.72404E-05-2.91480E-05-2.91836E-05 3.41023E-07 4.38550E-19-9.75098E-19
 -1      1598 9.72217E-05-2.91225E-05-2.91873E-05 7.44318E-07 8.38238E-19-2.66062E-19
 -1      1599 9.62985E-05-2.88769E-05-2.88983E-05 2.34495E-07-3.90911E-19-2.18061E-18
 -1      1600 9.65819E-05-2.89547E-05-2.89835E-05 2.51747E-07-3.48260E-20-2.31113E-18
 -1      1601 9.66031E-05-2.89454E-05-2.89979E-05 5.57274E-07 5.35833E-19-5.06130E-19
 -1      1602 9.58926E-05-2.87581E-05-2.87742E-05 1.66576E-07-3.72864E-20-1.25883E-18
 -1      1603 9.60958E-05-2.88129E-05-2.88355E-05 1.80549E-07-5.16733E-19-2.04590E-18
 -1      1604 9.61399E-05-2.88141E-05-2.88555E-05 4.05935E-07-4.39699E-19-2.89847E-19
 -1      1605 9.56063E-05-2.86747E-05-2.86865E-05 1.14154E-07 4.18917E-19-2.37702E-18
 -1      1606 9.57471E-05-2.87118E-05-2.87291E-05 1.25198E-07 3.09915E-19-1.52514E-18
 -1      1607 9.58021E-05-2.87193E-05-2.87512E-05 2.86758E-07 5.21068E-19-2.03233E-18
 -1      1608 9.54118E-05-2.86183E-05-2.86268E-05 7.46020E-08-1.84803E-19-1.55754E-18
 -1      1609 9.55053E-05-2.86422E-05-2.86552E-05 8.31496E-08 6.45792E-20-1.77342E-18
 -1      1610 9.55632E-05-2.86530E-05-2.86769E-05 1.95116E-07-3.75892E-19-8.26568E-19
 -1      1611 9.52864E-05-2.85822E-05-2.85881E-05 4.54138E-08-3.90221E-19-9.19014E-19
 -1      1612 9.53447E-05-2.85964E-05-2.86059E-05 5.19053E-08-2.80109E-19-1.44559E-18
 -1      1613 9.54003E-05-2.86084E-05-2.86260E-05 1.26195E-07-6.67465E-19 4.85243E-19
 -1      1614 9.52118E-05-2.85610E-05-2.85649E-05 2.43654E-08 7.57009E-19-1.99888E-18
 -1      1615 9.52445E-05-2.85682E-05-2.85751E-05 2.92099E-08 1.24013E-19-1.44944E-18
 -1      1616 9.52946E-05-2.85801E-05-2.85927E-05 7.54947E-08 3.32209E-19-1.11501E-18
 -1      1617 9.51736E-05-2.85504E-05-2.85529E-05 9.58147E-09-6.49343E-19-2.63754E-18
 -1      1618 9.51882E-05-2.85528E-05-2.85576E-05 1.31353E-08 4.88907E-19-1.94995E-18
 -1      1619 9.52312E-05-2.85636E-05-2.85725E-05 3.90692E-08 4.71714E-19-1.60391E-19
 -1      1620 9.51608E-05-2.85471E-05-2.85487E-05-4.47375E-10 1.10835E-18-3.58365E-18
 -1      1621 9.51630E-05-2.85463E-05-2.85496E-05 2.10933E-09 9.24466E-20-3.52981E-18
 -1      1622 9.51981E-05-2.85556E-05-2.85616E-05 1.36315E-08 7.51715E-19-9.53070E-19
 -1      1623 9.51649E-05-2.85489E-05-2.85496E-05-6.86692E-09-7.34712E-20-4.40785E-18
 -1      1624 9.51590E-05-2.85460E-05-2.85481E-05-5.08265E-09 7.58597E-19-3.65701E-18
 -1      1625 9.51862E-05-2.85534E-05-2.85573E-05-3.42282E-09 7.04598E-19-1.58541E-18
 -1      1626 9.51794E-05-2.85536E-05-2.85538E-05-1.04551E-08 5.56605E-19-5.03547E-18
 -1      1627 9.51688E-05-2.85496E-05-2.85508E-05-9.29759E-09 6.25355E-19-4.84714E-18
 -1      1628 9.51882E-05-2.85552E-05-2.85573E-05-1.40113E-08 1.12549E-18-2.81242E-18
 -1      1629 9.51990E-05-2.85599E-05-2.85594E-05-1.15883E-08 6.19251E-19-5.39280E-18
 -1      1630 9.51863E-05-2.85555E-05-2.85558E-05-1.10111E-08 2.38153E-19-5.44030E-18
 -1      1631 9.51986E-05-2.85592E-05-2.85599E-05-1.93374E-08 7.20457E-19-3.07252E-18
 -1      1632 9.52184E-05-2.85662E-05-2.85649E-05-1.01686E-08-4.44262E-20-6.81268E-18
 -1      1633 9.52065E-05-2.85623E-05-2.85616E-05-1.02807E-08 5.94248E-19-5.82930E-18
 -1      1634 9.52125E-05-2.85644E-05-2.85635E-05-1.98137E-08 1.00349E-18-3.73729E-18
 -1      1635 9.52325E-05-2.85711E-05-2.85688E-05-5.82551E-09-3.49104E-19-5.81801E-18
 -1      1636 9.52247E-05-2.85687E-05-2.85666E-05-6.74577E-09-7.49470E-19-6.43675E-18
 -1      1637 9.52261E-05-2.85699E-05-2.85668E-05-1.51469E-08-4.80258E-19-4.50725E-18
 -1      1638 9.52361E-05-2.85727E-05-2.85696E-05-1.65378E-09-2.95642E-18-3.12791E-18
 -1      1639 9.52409E-05-2.85865E-05-2.85660E-05-9.14120E-09-4.84887E-18-1.05784E-19
 -1      1640 9.52380E-05-2.85786E-05-2.85682E-05-7.95091E-09-4.26885E-18-8.50729E-19
 -1      1641 9.52468E-05-2.86031E-05-2.85616E-05-1.10495E-08-1.92077E-18 3.72669E-18
 -1      1642 9.52432E-05-2.85926E-05-2.85644E-05-1.09704E-08-4.53967E-18 2.32703E-18
 -1      1643 9.52404E-05-2.85868E-05-2.85657E-05-1.88897E-08-1.90492E-18 1.57746E-18
 -1      1644 9.52522E-05-2.86194E-05-2.85570E-05-1.02271E-08-3.91185E-18-2.48271E-18
 -1      1645 9.52489E-05-2.86093E-05-2.85598E-05-1.06008E-08-1.97029E-18 2.24940E-19
 -1      1646 9.52458E-05-2.85990E-05-2.85629E-05-2.04108E-08-1.56944E-18 1.45945E-18
 -1      1647 9.52564E-05-2.86329E-05-2.85530E-05-8.10222E-09-4.91724E-18 3.57409E-19
 -1      1648 9.52538E-05-2.86248E-05-2.85553E-05-8.61997E-09-4.61988E-18 1.89225E-19
 -1      1649 9.52499E-05-2.86103E-05-2.85600E-05-1.78416E-08-2.23364E-18-2.30418E-18
 -1      1650 9.52593E-05-2.86427E-05-2.85500E-05-5.70452E-09-5.57985E-18 7.58720E-19
 -1      1651 9.52575E-05-2.86369E-05-2.85517E-05-6.18759E-09-5.10587E-18-1.90775E-19
 -1      1652 9.52528E-05-2.86192E-05-2.85574E-05-1.35675E-08-3.29110E-18-4.90751E-19
 -1      1653 9.52611E-05-2.86491E-05-2.85481E-05-3.48355E-09-2.72695E-18 1.68912E-18
 -1      1654 9.52600E-05-2.86454E-05-2.85491E-05-3.89046E-09-4.61039E-18 2.09277E-18
 -1      1655 9.52546E-05-2.86254E-05-2.85554E-05-9.12716E-09-2.90662E-18 1.40523E-18
 -1      1656 9.52620E-05-2.86524E-05-2.85470E-05-1.61681E-09-1.64350E-18-2.05268E-20
 -1      1657 9.52614E-05-2.86506E-05-2.85475E-05-1.94411E-09-2.15357E-18 5.19206E-19
 -1      1658 9.52556E-05-2.86293E-05-2.85542E-05-5.17204E-09-2.46472E-18 1.82162E-18
 -1      1659 9.52621E-05-2.86530E-05-2.85468E-05 3.69173E-11 1.77054E-18 2.74147E-18
 -1      1660 9.52621E-05-2.86529E-05-2.85468E-05-2.63145E-10-1.02899E-18 2.09476E-18
 -1      1661 9.52560E-05-2.86312E-05-2.85535E-05-1.79396E-09-6.22495E-20 1.81077E-18
 -1      1662 9.52616E-05-2.86510E-05-2.85474E-05 1.75217E-09-3.82669E-20-1.52155E-18
 -1      1663 9.52621E-05-2.86526E-05-2.85469E-05 1.41347E-09 1.05833E-18 3.57497E-19
 -1      1664 9.52561E-05-2.86314E-05-2.85535E-05 1.38087E-09-2.09729E-19 9.87456E-19
 -1      1665 9.52602E-05-2.86460E-05-2.85489E-05 3.78208E-09-2.66036E-18-1.82952E-18
 -1      1666 9.52613E-05-2.86496E-05-2.85479E-05 3.35491E-09 3.22140E-19-2.31387E-18
 -1      1667 9.52557E-05-2.86298E-05-2.85541E-05 4.86417E-09 2.46983E-19-2.13506E-18
 -1      1668 9.52578E-05-2.86377E-05-2.85515E-05 6.16023E-09-4.54149E-18-4.86575E-19
 -1      1669 9.52595E-05-2.86434E-05-2.85498E-05 5.65888E-09-3.30944E-18-1.28019E-18
 -1      1670 9.52548E-05-2.86261E-05-2.85553E-05 8.96670E-09-1.71592E-19-2.94848E-18
 -1      1671 9.52540E-05-2.86253E-05-2.85552E-05 8.73181E-09-5.72296E-18-1.43208E-18
 -1      1672 9.52566E-05-2.86336E-05-2.85528E-05 8.19192E-09-4.70359E-18 5.10003E-19
 -1      1673 9.52530E-05-2.86199E-05-2.85572E-05 1.36233E-08-1.46509E-18 4.04362E-19
 -1      1674 9.52490E-05-2.86097E-05-2.85597E-05 1.08426E-08-5.77415E-18 2.73802E-21
 -1      1675 9.52524E-05-2.86199E-05-2.85569E-05 1.04146E-08-5.93891E-18 3.53144E-19
 -1      1676 9.52501E-05-2.86108E-05-2.85598E-05 1.81101E-08-2.16013E-18-5.81526E-19
 -1      1677 9.52434E-05-2.85931E-05-2.85644E-05 1.10325E-08-3.70689E-18 1.29848E-18
 -1      1678 9.52469E-05-2.86034E-05-2.85616E-05 1.10838E-08-5.49803E-18 3.15506E-19
 -1      1679 9.52457E-05-2.85992E-05-2.85628E-05 2.07667E-08-1.76681E-18 8.05965E-19
 -1      1680 9.52378E-05-2.85795E-05-2.85678E-05 1.07033E-08-1.42671E-18 5.50814E-19
 -1      1681 9.52406E-05-2.85873E-05-2.85658E-05 1.25416E-08-2.07414E-18 2.11405E-19
 -1      1682 9.52405E-05-2.85869E-05-2.85655E-05 2.14477E-08-2.47473E-19 1.98454E-18
 -1      1683 9.52324E-05-2.85760E-05-2.85668E-05 1.97115E-08-5.27025E-19 1.58386E-19
 -1      1684 1.99818E-05-6.37278E-05 1.31497E-05-4.50217E-06 4.25507E-18 2.45407E-18
 -1      1685 2.30852E-05-7.35457E-05 1.53931E-05 2.73526E-06 2.30054E-18 6.26593E-19
 -1      1686 1.90248E-05-3.78565E-05 3.73289E-06 2.18956E-06 8.13236E-18 4.59071E-18
 -1      1687 2.37075E-05-6.03575E-05 9.62378E-06-1.23184E-06 5.12963E-18 3.15378E-18
 -1      1688 3.27784E-05-1.06402E-05-1.14661E-05 2.72491E-05 1.05091E-17 8.85742E-18
 -1      1689 2.76965E-05-3.10821E-05-3.15836E-06 1.01151E-05 8.59654E-18 6.21468E-18
 -1      1690 7.26749E-05-6.92848E-07-3.01699E-05 5.90076E-05 1.06896E-17 1.16145E-17
 -1      1691 4.82946E-05-6.79688E-06-2.02527E-05 3.57603E-05 1.17653E-17 9.27416E-18
 -1      1692 1.38793E-04-1.72000E-05-4.88910E-05 7.47061E-05 8.18954E-18 9.65194E-18
 -1      1693 9.85450E-05-5.77659E-06-3.94542E-05 6.20876E-05 1.00526E-17 1.10165E-17
 -1      1694 2.03879E-04-4.16777E-05-6.40944E-05 6.52531E-05 4.74910E-18 6.23162E-18
 -1      1695 1.61640E-04-2.15987E-05-5.69870E-05 7.31247E-05 6.91920E-18 9.54776E-18
 -1      1696 2.47595E-04-6.20445E-05-7.30047E-05 2.85884E-05 2.30054E-18 1.62122E-18
 -1      1697 2.22385E-04-4.79287E-05-6.94125E-05 5.60744E-05 3.90249E-18 5.05425E-18
 -1      1698 2.47720E-04-6.11091E-05-7.39616E-05-2.11688E-05 1.54732E-18-1.27606E-18
 -1      1699 2.51074E-04-6.28998E-05-7.43288E-05 1.26124E-05 1.46685E-18 6.94885E-19
 -1      1700 2.06841E-04-4.06640E-05-6.66551E-05-6.04710E-05 2.95366E-18-4.53501E-18
 -1      1701 2.38164E-04-5.75246E-05-7.13876E-05-3.58853E-05 1.83976E-18-2.43903E-18
 -1      1702 1.44989E-04-1.48058E-05-5.32236E-05-7.58633E-05 5.41889E-18-6.88722E-18
 -1      1703 1.88472E-04-3.45728E-05-6.09383E-05-7.30509E-05 3.67083E-18-5.40661E-18
 -1      1704 8.44769E-05-1.50518E-06-3.56333E-05-6.00633E-05 7.81303E-18-7.99006E-18
 -1      1705 1.21154E-04-9.42918E-06-4.49760E-05-7.62177E-05 6.13929E-18-7.49116E-18
 -1      1706 4.30546E-05-1.05802E-05-1.66844E-05-3.04070E-05 9.26993E-18-6.53571E-18
 -1      1707 6.27873E-05-4.93468E-07-2.64202E-05-5.33885E-05 8.47372E-18-7.70800E-18
 -1      1708 2.81578E-05-3.99631E-05 2.19118E-07-7.72497E-06 7.46151E-18-4.47826E-18
 -1      1709 3.10413E-05-1.75169E-05-8.11298E-06-2.29842E-05 8.59569E-18-5.86443E-18
 -1      1710 2.39966E-05-6.69482E-05 1.19899E-05 1.61692E-06 4.01155E-18-3.03270E-18
 -1      1711 1.84717E-05-4.58990E-05 6.96122E-06 1.43475E-06 7.35309E-18-4.53967E-18
 -1      1712 2.33922E-05-7.64048E-05 1.61564E-05-3.57111E-06-1.84261E-18-2.34543E-18
 -1      1713 2.13754E-05-7.03401E-05 1.48555E-05 5.35955E-06 2.37169E-18-3.00654E-18
 -1      1714 1.96699E-05-6.33286E-05 1.27739E-05-7.37789E-06-7.69360E-18-4.13617E-18
 -1      1715 2.42851E-05-7.66656E-05 1.56473E-05-3.90423E-07-3.47347E-18-2.67662E-18
 -1      1716 2.21745E-05-3.32567E-05 9.22762E-07 7.66776E-06-1.11588E-17-6.81459E-18
 -1      1717 2.51525E-05-5.66303E-05 7.70253E-06 5.42877E-07-8.74646E-18-4.73465E-18
 -1      1718 3.93290E-05-8.34351E-06-1.49409E-05 3.25722E-05-1.21719E-17-9.35124E-18
 -1      1719 3.10870E-05-2.63674E-05-6.31236E-06 1.38242E-05-1.20778E-17-7.76179E-18
 -1      1720 8.25987E-05-2.93873E-06-3.31836E-05 6.23923E-05-1.00848E-17-1.06955E-17
 -1      1721 5.64653E-05-5.89900E-06-2.36736E-05 4.09348E-05-1.18009E-17-1.01500E-17
 -1      1722 1.47080E-04-1.96472E-05-5.10624E-05 7.60558E-05-6.99988E-18-1.01949E-17
 -1      1723 1.06822E-04-6.96645E-06-4.20628E-05 6.54208E-05-9.17252E-18-1.08048E-17
 -1      1724 2.09677E-04-4.42415E-05-6.54947E-05 6.47378E-05-4.40044E-18-8.01632E-18
 -1      1725 1.69052E-04-2.39954E-05-5.87389E-05 7.47102E-05-6.02431E-18-9.82982E-18
 -1      1726 2.44118E-04-5.93672E-05-7.31769E-05 2.21557E-05-3.06224E-18-2.22219E-18
 -1      1727 2.20579E-04-4.66446E-05-6.96379E-05 4.89300E-05-3.83462E-18-5.76491E-18
 -1      1728 2.52989E-04-6.28968E-05-7.49280E-05-2.32192E-05-2.95911E-18 3.31063E-18
 -1      1729 2.56639E-04-6.50847E-05-7.55233E-05 1.09448E-05-2.92290E-18-1.44758E-18
 -1      1730 2.11539E-04-4.28062E-05-6.74818E-05-5.87379E-05-5.34097E-18 8.24925E-18
 -1      1731 2.41592E-04-5.87113E-05-7.20388E-05-3.55003E-05-3.65791E-18 4.40838E-18
 -1      1732 1.53437E-04-1.87225E-05-5.48971E-05-7.48609E-05-8.63465E-18 1.27326E-17
 -1      1733 1.94672E-04-3.76859E-05-6.21317E-05-7.07217E-05-6.19181E-18 1.05252E-17
 -1      1734 9.26116E-05-3.82543E-06-3.79303E-05-6.15553E-05-1.08988E-17 1.32052E-17
 -1      1735 1.30398E-04-1.33847E-05-4.70605E-05-7.58696E-05-9.34531E-18 1.38151E-17
 -1      1736 5.08286E-05-1.31227E-05-1.87715E-05-3.26915E-05-1.08971E-17 1.00441E-17
 -1      1737 7.35574E-05-5.70583E-06-2.87049E-05-5.51628E-05-1.11182E-17 1.15823E-17
 -1      1738 2.71799E-05-3.44289E-05-1.82833E-06-7.47017E-06-9.96788E-18 6.63735E-18
 -1      1739 3.13488E-05-1.38207E-05-9.93377E-06-2.36540E-05-1.13469E-17 8.96669E-18
 -1      1740 2.40686E-05-6.28482E-05 1.04819E-05 1.72189E-06-3.77607E-18 4.74518E-18
 -1      1741 1.94359E-05-4.10174E-05 4.75903E-06-9.94591E-07-8.42798E-18 6.62634E-18
 -1      1742 2.32103E-05-7.48608E-05 1.57762E-05-1.39817E-06 1.27754E-18 1.41370E-18
 -1      1743 2.04313E-05-6.68985E-05 1.40149E-05 6.60502E-06-1.95411E-18 2.99003E-18
 -1      1744 1.13270E-04-3.06803E-05-3.43416E-05 4.54207E-05 6.32776E-18 6.44592E-18
 -1      1745 6.97791E-05-3.28450E-05-1.70469E-05 3.93718E-05 5.43710E-18 6.66022E-18
 -1      1746 9.52360E-05-2.85745E-05-2.85688E-05-6.08264E-09-3.99555E-18-2.40454E-18
 -1      1747 9.52346E-05-2.85765E-05-2.85676E-05-1.37654E-08-2.06985E-18-1.62022E-18
 -1      1748 1.86348E-05-4.67271E-05 7.85856E-06 1.47025E-05 2.71474E-18 3.70767E-18
 -1      1749 3.82827E-05-4.06712E-05-2.08891E-06 2.70175E-05 4.27159E-18 5.47083E-18
 -1      1750 1.12187E-05-4.83861E-05 1.14882E-05 1.60569E-06 1.05694E-18 2.78420E-18
 -1      1751 1.56243E-04-3.14778E-05-5.06948E-05 4.00512E-05 6.00726E-18 4.41982E-18
 -1      1752 1.91592E-04-3.30316E-05-6.34560E-05 2.97776E-05 5.43499E-18 2.88584E-18
 -1      1753 2.10334E-04-3.48659E-05-6.98120E-05 9.78775E-06 3.38305E-18 2.03055E-18
 -1      1754 2.03979E-04-3.21026E-05-6.85892E-05-1.25274E-05 2.77361E-18 3.42201E-19
 -1      1755 1.83332E-04-3.13331E-05-6.08099E-05-3.32974E-05 3.35086E-18-1.84738E-18
 -1      1756 1.46400E-04-2.93751E-05-4.74927E-05-4.61867E-05 4.25719E-18-3.58295E-18
 -1      1757 1.02397E-04-2.93949E-05-3.08216E-05-4.61163E-05 4.93227E-18-4.29700E-18
 -1      1758 6.42918E-05-3.60772E-05-1.37788E-05-3.77916E-05 4.70612E-18-4.06957E-18
 -1      1759 3.44519E-05-4.31338E-05 5.77533E-07-2.63138E-05 3.21618E-18-4.04538E-18
 -1      1760 1.63088E-05-4.95489E-05 9.82296E-06-1.09908E-05 1.17060E-18-4.80501E-18
 -1      1761 1.22656E-05-5.14236E-05 1.20515E-05 1.61725E-06-1.56246E-18-4.73788E-18
 -1      1762 2.25216E-05-4.73717E-05 6.68067E-06 1.71254E-05-4.45243E-18-5.46675E-18
 -1      1763 4.55897E-05-4.06729E-05-4.88833E-06 2.99884E-05-6.24517E-18-5.90583E-18
 -1      1764 7.80510E-05-3.34141E-05-2.01660E-05 4.04188E-05-7.40646E-18-6.57679E-18
 -1      1765 1.20519E-04-3.15326E-05-3.69832E-05 4.54027E-05-6.79151E-18-6.26466E-18
 -1      1766 1.62381E-04-3.23396E-05-5.26130E-05 4.14098E-05-5.72404E-18-5.65818E-18
 -1      1767 1.91378E-04-3.20402E-05-6.39470E-05 2.55680E-05-4.71628E-18-2.97563E-18
 -1      1768 2.07083E-04-3.25192E-05-6.99037E-05 5.02193E-06-4.75482E-18-6.47133E-19
 -1      1769 2.08684E-04-3.42087E-05-6.94181E-05-1.20038E-05-5.23170E-18 1.26398E-18
 -1      1770 1.87322E-04-3.32271E-05-6.17169E-05-3.09569E-05-6.65662E-18 4.68494E-18
 -1      1771 1.52472E-04-3.14983E-05-4.91575E-05-4.42032E-05-7.29105E-18 7.82913E-18
 -1      1772 1.11130E-04-3.35034E-05-3.28138E-05-4.37575E-05-6.89231E-18 8.05698E-18
 -1      1773 7.06491E-05-3.67545E-05-1.58767E-05-3.80285E-05-6.67462E-18 7.83082E-18
 -1      1774 3.70276E-05-4.21553E-05-1.06986E-06-2.54645E-05-4.75355E-18 6.90988E-18
 -1      1775 1.79618E-05-4.78308E-05 8.52242E-06-1.28502E-05-2.14977E-18 6.35974E-18
 -1      1776 1.06230E-04-2.33109E-05-3.56271E-05-1.61253E-05-1.28715E-18 5.16267E-18
 -1      1777 8.96434E-05-1.05764E-05-3.40126E-05-1.19130E-05-1.57901E-18-1.72276E-18
 -1      1778 9.11105E-05-1.17402E-05-3.41594E-05-1.37073E-05-1.81437E-18-1.15313E-18
 -1      1779 9.32437E-05-1.41092E-05-3.40747E-05-1.46995E-05-1.81064E-18-4.46863E-19
 -1      1780 9.49834E-05-1.61217E-05-3.42872E-05-1.64336E-05-1.95462E-18 5.29343E-19
 -1      1781 9.41841E-05-1.65057E-05-3.32962E-05-1.23039E-05-1.90567E-18-6.80167E-19
 -1      1782 8.58771E-05-7.12460E-06-3.38243E-05-6.63978E-06-8.97342E-19-2.75609E-18
 -1      1783 8.64875E-05-7.52364E-06-3.38956E-05-7.92986E-06-1.07944E-18-2.65254E-18
 -1      1784 8.48572E-05-6.24667E-06-3.37496E-05-4.39664E-06-5.60883E-19-2.88077E-18
 -1      1785 8.52714E-05-6.50671E-06-3.38004E-05-5.54736E-06-7.28103E-19-2.83784E-18
 -1      1786 8.70015E-05-9.02243E-06-3.34470E-05-5.69864E-06-9.11636E-19-2.68327E-18
 -1      1787 8.42372E-05-5.72303E-06-3.36991E-05-2.35828E-06-1.76644E-19-2.83237E-18
 -1      1788 8.44752E-05-5.86816E-06-3.37297E-05-3.40618E-06-3.43583E-19-2.87643E-18
 -1      1789 8.59470E-05-8.03923E-06-3.34150E-05-3.66147E-06-5.06542E-19-2.74768E-18
 -1      1790 8.39835E-05-5.50525E-06-3.36776E-05-4.31447E-07 2.24231E-19-2.75823E-18
 -1      1791 8.40558E-05-5.54801E-06-3.36878E-05-1.43106E-06 5.87691E-20-2.81886E-18
 -1      1792 8.53442E-05-7.49260E-06-3.33901E-05-1.78117E-06-4.67365E-20-2.73673E-18
 -1      1793 8.40846E-05-5.57510E-06-3.36878E-05 1.48159E-06 6.30152E-19-2.71556E-18
 -1      1794 8.39947E-05-5.51931E-06-3.36774E-05 4.77815E-07 4.01328E-19-2.73336E-18
 -1      1795 8.51637E-05-7.33443E-06-3.33804E-05 2.17338E-08 3.61418E-19-2.63316E-18
 -1      1796 8.45392E-05-5.93396E-06-3.37285E-05 3.47828E-06 9.15313E-19-2.74885E-18
 -1      1797 8.42867E-05-5.77649E-06-3.36982E-05 2.41868E-06 7.90281E-19-2.77072E-18
 -1      1798 8.53950E-05-7.54895E-06-3.33883E-05 1.83503E-06 7.82912E-19-2.62289E-18
 -1      1799 8.53441E-05-6.59081E-06-3.37955E-05 5.61509E-06 1.20629E-18-2.47372E-18
 -1      1800 8.49289E-05-6.32695E-06-3.37467E-05 4.46846E-06 1.06168E-18-2.66590E-18
 -1      1801 8.60339E-05-8.13888E-06-3.34102E-05 3.72627E-06 1.08297E-18-2.60809E-18
 -1      1802 8.65838E-05-7.64036E-06-3.38878E-05 8.05596E-06 1.66185E-18-2.02651E-18
 -1      1803 8.59570E-05-7.22392E-06-3.38170E-05 6.72537E-06 1.38161E-18-2.25118E-18
 -1      1804 8.71060E-05-9.15076E-06-3.34376E-05 5.78259E-06 1.38780E-18-2.22825E-18
 -1      1805 8.84172E-05-9.26646E-06-3.40044E-05 1.08427E-05 2.00057E-18-1.37863E-18
 -1      1806 8.74853E-05-8.60484E-06-3.39039E-05 9.28072E-06 1.82006E-18-1.75652E-18
 -1      1807 8.87124E-05-1.07172E-05-3.34543E-05 8.05805E-06 1.85264E-18-1.74910E-18
 -1      1808 9.12795E-05-1.19717E-05-3.41416E-05 1.39356E-05 2.27553E-18-2.26025E-19
 -1      1809 8.97720E-05-1.07807E-05-3.39954E-05 1.21156E-05 2.08708E-18-9.01455E-19
 -1      1810 9.10648E-05-1.31114E-05-3.34258E-05 1.04721E-05 2.18998E-18-9.89917E-19
 -1      1811 9.65903E-05-1.73061E-05-3.41749E-05 1.65108E-05 2.20902E-18 1.87941E-18
 -1      1812 9.35865E-05-1.45750E-05-3.40387E-05 1.49219E-05 2.21129E-18 6.16958E-19
 -1      1813 9.46798E-05-1.70380E-05-3.32635E-05 1.24962E-05 2.27619E-18 2.27375E-19
 -1      1814 1.02482E-04-2.53188E-05-3.34942E-05 1.35170E-05 1.81016E-18 4.43581E-18
 -1      1815 9.87570E-05-1.98981E-05-3.37972E-05 1.59043E-05 2.02442E-18 2.75079E-18
 -1      1816 9.81598E-05-2.21238E-05-3.26602E-05 1.20574E-05 2.23431E-18 1.86959E-18
 -1      1817 9.95589E-05-2.64060E-05-3.15620E-05 8.54384E-06 1.82803E-18 3.83453E-18
 -1      1818 1.00735E-04-1.98467E-05-3.43517E-05-1.78600E-05-1.71899E-18 2.26401E-18
 -1      1819 9.66338E-05-2.76522E-05-2.95875E-05 3.13724E-06 1.35803E-18 3.00400E-18
 -1      1820 9.87539E-05-2.76835E-05-3.04982E-05 5.49665E-06 1.53887E-18 3.49125E-18
 -1      1821 9.85898E-05-2.59196E-05-3.11405E-05 7.66162E-06 1.79455E-18 2.35621E-18
 -1      1822 1.00526E-04-2.27937E-05-3.30360E-05-1.33484E-05-1.77136E-18 1.52688E-18
 -1      1823 9.81792E-05-2.72820E-05-3.02673E-05-4.53765E-06-1.44364E-18 1.24271E-18
 -1      1824 9.67118E-05-2.74019E-05-2.96654E-05-2.66243E-06-1.27918E-18 8.65443E-19
 -1      1825 9.61428E-05-2.76409E-05-2.92591E-05-1.03842E-06-1.15269E-18 8.25592E-19
 -1      1826 9.57829E-05-2.78114E-05-2.90814E-05-5.20489E-08-1.01232E-18 5.01175E-19
 -1      1827 9.70069E-05-2.68121E-05-3.01105E-05-2.79749E-06-1.47052E-18 1.02106E-19
 -1      1828 9.55831E-05-2.79251E-05-2.89347E-05 9.86731E-07-9.24073E-19 4.46843E-19
 -1      1829 9.57986E-05-2.81123E-05-2.89690E-05 1.61516E-06-6.94392E-19 2.88661E-19
 -1      1830 9.63658E-05-2.75517E-05-2.95182E-05 2.48770E-07-1.12902E-18 5.04713E-20
 -1      1831 9.59325E-05-2.82292E-05-2.89812E-05 2.34918E-06-5.67618E-19 1.38857E-19
 -1      1832 9.65521E-05-2.84726E-05-2.91453E-05 2.81642E-06-5.13143E-19-6.79529E-20
 -1      1833 9.63871E-05-2.79751E-05-2.93429E-05 2.26512E-06-8.48135E-19-4.48646E-20
 -1      1834 9.69578E-05-2.86265E-05-2.92654E-05 3.39619E-06-4.73672E-19-1.79895E-19
 -1      1835 9.78853E-05-2.89336E-05-2.95232E-05 3.78908E-06-4.22147E-19-2.10513E-19
 -1      1836 9.69728E-05-2.83408E-05-2.94339E-05 3.75818E-06-6.00252E-19-3.87140E-19
 -1      1837 9.85149E-05-2.91371E-05-2.97221E-05 4.28805E-06-4.04341E-19-2.64814E-19
 -1      1838 9.96968E-05-2.95148E-05-3.00540E-05 4.63935E-06-2.70961E-19-2.66025E-19
 -1      1839 9.80337E-05-2.87506E-05-2.97099E-05 4.98089E-06-5.07736E-19-3.80236E-19
 -1      1840 1.00520E-04-2.97802E-05-3.03109E-05 5.07884E-06-1.64958E-19-3.00673E-19
 -1      1841 1.01917E-04-3.02389E-05-3.07011E-05 5.38165E-06-1.09051E-19-2.00568E-19
 -1      1842 9.95045E-05-2.92618E-05-3.01190E-05 6.04145E-06-2.33063E-19-6.63296E-19
 -1      1843 1.02918E-04-3.05858E-05-3.09967E-05 5.73483E-06-2.74451E-19-1.26178E-19
 -1      1844 1.04481E-04-3.11384E-05-3.14247E-05 5.93943E-06-1.89135E-19-1.85292E-19
 -1      1845 1.01348E-04-2.99353E-05-3.06192E-05 6.93788E-06-7.49624E-20-4.92713E-19
 -1      1846 1.05649E-04-3.15963E-05-3.17367E-05 6.12355E-06-3.98116E-19-2.38241E-19
 -1      1847 1.07294E-04-3.22514E-05-3.21707E-05 6.12798E-06-4.20112E-19-5.48950E-19
 -1      1848 1.03548E-04-3.08529E-05-3.11684E-05 7.55520E-06-4.49110E-19-8.48548E-19
 -1      1849 1.08620E-04-3.28557E-05-3.24716E-05 5.99342E-06-3.91551E-19-4.91047E-19
 -1      1850 1.10197E-04-3.36014E-05-3.28626E-05 5.63929E-06-1.44307E-19-6.29316E-19
 -1      1851 1.06095E-04-3.21160E-05-3.17190E-05 7.64626E-06-4.31344E-19-4.85694E-19
 -1      1852 1.11654E-04-3.43718E-05-3.31218E-05 4.97161E-06 5.80350E-20-6.28002E-19
 -1      1853 1.12926E-04-3.51400E-05-3.34041E-05 4.06863E-06-7.33411E-20-4.18520E-19
 -1      1854 1.08960E-04-3.38096E-05-3.22203E-05 6.82168E-06-1.19154E-19-3.39493E-19
 -1      1855 1.14420E-04-3.60257E-05-3.35978E-05 2.63623E-06-7.86814E-20-2.67745E-19
 -1      1856 1.15051E-04-3.66314E-05-3.37022E-05 1.05256E-06-6.55987E-20 2.99483E-19
 -1      1857 1.12023E-04-3.58952E-05-3.26342E-05 4.59773E-06 1.78367E-19-3.49929E-19
 -1      1858 1.16335E-04-3.74109E-05-3.38299E-05-1.23385E-06-1.66468E-19 6.06661E-19
 -1      1859 1.15956E-04-3.75120E-05-3.37144E-05-3.37712E-06-2.60966E-19 8.90536E-19
 -1      1860 1.14928E-04-3.79916E-05-3.29652E-05 5.95644E-07-6.69619E-20 6.25258E-19
 -1      1861 1.16578E-04-3.77369E-05-3.38155E-05-6.18294E-06-2.97328E-19 6.78854E-19
 -1      1862 1.14962E-04-3.68991E-05-3.35072E-05-8.28644E-06-3.70577E-20 5.89323E-19
 -1      1863 1.16926E-04-3.91693E-05-3.32898E-05-4.98272E-06-2.08906E-19 7.92849E-19
 -1      1864 1.14369E-04-3.60097E-05-3.36470E-05-1.05251E-05 8.72808E-20 1.42791E-19
 -1      1865 1.11749E-04-3.40853E-05-3.32582E-05-1.14435E-05-2.24937E-19 3.44941E-19
 -1      1866 1.16907E-04-3.80407E-05-3.37465E-05-1.07098E-05-2.99188E-19 4.73250E-19
 -1      1867 1.09964E-04-3.21004E-05-3.34604E-05-1.14919E-05-4.30954E-19 3.85254E-19
 -1      1868 1.07290E-04-2.97726E-05-3.31390E-05-1.01725E-05-6.45519E-19 4.14636E-19
 -1      1869 1.14251E-04-3.39413E-05-3.44085E-05-1.35698E-05-2.90691E-19 3.58679E-19
 -1      1870 1.05396E-04-2.77685E-05-3.33221E-05-7.10386E-06-1.18177E-18 3.08029E-19
 -1      1871 1.04060E-04-2.64937E-05-3.31836E-05-3.62810E-06-1.33368E-18-4.93577E-19
 -1      1872 1.10116E-04-2.83375E-05-3.51188E-05-1.04287E-05-1.02413E-18 4.72597E-19
 -1      1873 1.03779E-04-2.61863E-05-3.32211E-05 1.25771E-06-1.64655E-18-7.17004E-19
 -1      1874 1.04578E-04-2.69075E-05-3.33141E-05 5.06730E-06-1.34652E-18-1.13983E-18
 -1      1875 1.07684E-04-2.51903E-05-3.54998E-05-1.45346E-06-1.76092E-18-5.91103E-20
 -1      1876 1.06171E-04-2.85410E-05-3.31832E-05 8.94543E-06-8.74257E-19-1.89541E-18
 -1      1877 1.08662E-04-3.07435E-05-3.34773E-05 1.10279E-05-5.36437E-19-2.45018E-18
 -1      1878 1.09155E-04-2.69989E-05-3.53194E-05 8.52494E-06-1.62738E-18-1.31886E-18
 -1      1879 1.10723E-04-3.29322E-05-3.32829E-05 1.19065E-05-5.65117E-19-2.43428E-18
 -1      1880 1.13566E-04-3.51077E-05-3.36920E-05 1.15933E-05-5.82520E-19-2.80631E-18
 -1      1881 1.13241E-04-3.22862E-05-3.46972E-05 1.37101E-05-7.06942E-19-1.93423E-18
 -1      1882 1.14617E-04-3.63775E-05-3.35573E-05 9.88059E-06 2.22478E-20-2.49337E-18
 -1      1883 1.16690E-04-3.75859E-05-3.39348E-05 8.02489E-06 9.04585E-19-1.90832E-18
 -1      1884 1.16687E-04-3.71683E-05-3.40285E-05 1.24210E-05-8.24418E-20-1.57375E-18
 -1      1885 1.16465E-04-3.76715E-05-3.38560E-05 5.27159E-06 4.62692E-19-1.31838E-18
 -1      1886 1.17319E-04-3.78419E-05-3.40700E-05 3.07643E-06 5.22262E-19-1.52098E-18
 -1      1887 1.17632E-04-3.92181E-05-3.35630E-05 7.27912E-06 7.97051E-19-1.01273E-18
 -1      1888 1.16257E-04-3.71904E-05-3.39850E-05 6.05662E-07 4.03300E-19-1.26870E-18
 -1      1889 1.16021E-04-3.67276E-05-3.39828E-05-1.14307E-06-1.50507E-19-1.11882E-18
 -1      1890 1.16281E-04-3.86301E-05-3.32673E-05 1.50123E-06 4.58642E-19-1.24937E-18
 -1      1891 1.14646E-04-3.58634E-05-3.38415E-05-2.79010E-06-4.56511E-19-1.03815E-18
 -1      1892 1.13679E-04-3.51606E-05-3.36491E-05-3.85097E-06-2.52145E-19-4.92589E-19
 -1      1893 1.13718E-04-3.67209E-05-3.30057E-05-2.94642E-06 2.28732E-19-6.75165E-19
 -1      1894 1.12296E-04-3.43723E-05-3.34416E-05-4.67685E-06-1.94133E-19-3.51459E-19
 -1      1895 1.10954E-04-3.36601E-05-3.31247E-05-5.13345E-06 1.14821E-19-3.18190E-19
 -1      1896 1.10840E-04-3.46191E-05-3.26796E-05-5.57522E-06 9.96488E-20 3.32173E-19
 -1      1897 1.09691E-04-3.30381E-05-3.28688E-05-5.35434E-06 2.34597E-20-6.57599E-19
 -1      1898 1.08241E-04-3.24133E-05-3.24958E-05-5.39714E-06 4.62826E-19-1.22150E-18
 -1      1899 1.08105E-04-3.28536E-05-3.22645E-05-6.66146E-06-2.17668E-19 4.18881E-19
 -1      1900 1.07134E-04-3.19510E-05-3.22192E-05-5.24861E-06 9.80851E-19-1.48879E-18
 -1      1901 1.05743E-04-3.14377E-05-3.18423E-05-5.05698E-06 7.08838E-19-6.32767E-19
 -1      1902 1.05678E-04-3.15401E-05-3.17859E-05-6.70169E-06 2.92802E-19 1.05178E-19
 -1      1903 1.04794E-04-3.11000E-05-3.15699E-05-4.72140E-06 1.60941E-19-1.05955E-18
 -1      1904 1.03552E-04-3.06921E-05-3.12217E-05-4.42463E-06-7.19621E-19-1.01040E-18
 -1      1905 1.03591E-04-3.06162E-05-3.12861E-05-6.14579E-06 2.83045E-19-2.36154E-19
 -1      1906 1.02752E-04-3.04445E-05-3.09705E-05-4.02134E-06-9.38370E-19-1.23085E-18
 -1      1907 1.01695E-04-3.01264E-05-3.06671E-05-3.69906E-06-7.57701E-19-1.46111E-18
 -1      1908 1.01829E-04-2.99788E-05-3.08030E-05-5.31742E-06-8.03102E-19-5.95968E-19
 -1      1909 1.01030E-04-2.99429E-05-3.04465E-05-3.29716E-06-1.28302E-18-1.61588E-18
 -1      1910 1.00160E-04-2.96983E-05-3.01929E-05-2.99230E-06-1.41304E-18-1.77601E-18
 -1      1911 1.00363E-04-2.95388E-05-3.03627E-05-4.41925E-06-1.30238E-18-7.97242E-19
 -1      1912 9.96176E-05-2.95611E-05-3.00061E-05-2.62691E-06-1.23177E-18-1.66919E-18
 -1      1913 9.89216E-05-2.93753E-05-2.98005E-05-2.35902E-06-5.25083E-19-1.78268E-18
 -1      1914 9.91625E-05-2.92319E-05-2.99787E-05-3.56399E-06-1.09833E-18-8.14034E-19
 -1      1915 9.84856E-05-2.92723E-05-2.96470E-05-2.04446E-06-2.32951E-20-2.39393E-18
 -1      1916 9.79409E-05-2.91330E-05-2.94845E-05-1.81960E-06 4.15870E-19-2.34879E-18
 -1      1917 9.81935E-05-2.90158E-05-2.96551E-05-2.80548E-06-6.37051E-19-1.20076E-20
 -1      1918 9.75966E-05-2.90560E-05-2.93612E-05-1.55851E-06 2.59793E-19-2.39901E-18
 -1      1919 9.71789E-05-2.89531E-05-2.92355E-05-1.37563E-06 3.10255E-19-2.28296E-18
 -1      1920 9.74239E-05-2.88626E-05-2.93898E-05-2.16246E-06 2.30930E-19-1.39060E-18
 -1      1921 9.69115E-05-2.88960E-05-2.91387E-05-1.16466E-06-3.13391E-19-2.64774E-18
 -1      1922 9.65974E-05-2.88214E-05-2.90433E-05-1.01944E-06-6.11273E-19-2.44553E-18
 -1      1923 9.68224E-05-2.87543E-05-2.91775E-05-1.63432E-06 9.56378E-20-1.23725E-18
 -1      1924 9.63934E-05-2.87796E-05-2.89688E-05-8.52566E-07-6.07654E-19-2.45986E-18
 -1      1925 9.61619E-05-2.87266E-05-2.88979E-05-7.39490E-07-4.28399E-19-3.43136E-18
 -1      1926 9.63602E-05-2.86785E-05-2.90110E-05-1.21088E-06-4.98815E-19-6.83317E-19
 -1      1927 9.60092E-05-2.86967E-05-2.88415E-05-6.09890E-07 6.98009E-19-3.66193E-18
 -1      1928 9.58424E-05-2.86601E-05-2.87900E-05-5.23365E-07 1.35461E-18-2.77628E-18
 -1      1929 9.60114E-05-2.86265E-05-2.88830E-05-8.78077E-07 3.94284E-20-1.36083E-18
 -1      1930 9.57303E-05-2.86392E-05-2.87483E-05-4.24397E-07 1.46244E-18-3.02738E-18
 -1      1931 9.56133E-05-2.86148E-05-2.87117E-05-3.59279E-07 1.60645E-18-2.38593E-18
 -1      1932 9.57532E-05-2.85919E-05-2.87864E-05-6.21078E-07 1.14011E-18-1.79025E-18
 -1      1933 9.55330E-05-2.86007E-05-2.86815E-05-2.84935E-07 1.16185E-18-7.39972E-19
 -1      1934 9.54536E-05-2.85853E-05-2.86563E-05-2.36742E-07 7.37335E-19-3.15375E-19
 -1      1935 9.55663E-05-2.85699E-05-2.87151E-05-4.25883E-07 2.00184E-18-1.00278E-18
 -1      1936 9.53979E-05-2.85762E-05-2.86351E-05-1.81838E-07 3.87543E-19 8.86128E-20
 -1      1937 9.53464E-05-2.85673E-05-2.86184E-05-1.46807E-07 3.00707E-20 3.39188E-19
 -1      1938 9.54347E-05-2.85572E-05-2.86636E-05-2.80070E-07 9.17176E-19-3.74973E-19
 -1      1939 9.53092E-05-2.85619E-05-2.86040E-05-1.07012E-07-8.29281E-19 9.88827E-19
 -1      1940 9.52782E-05-2.85576E-05-2.85936E-05-8.20732E-08-1.35955E-19 1.17208E-18
 -1      1941 9.53450E-05-2.85509E-05-2.86274E-05-1.73045E-07 4.91917E-19 1.39890E-18
 -1      1942 9.52546E-05-2.85549E-05-2.85842E-05-5.38752E-08 1.19389E-18 8.30850E-19
 -1      1943 9.52382E-05-2.85538E-05-2.85784E-05-3.65917E-08 1.85312E-18 1.42697E-18
 -1      1944 9.52867E-05-2.85490E-05-2.86029E-05-9.60599E-08 1.47310E-19 2.00574E-18
 -1      1945 9.52245E-05-2.85529E-05-2.85726E-05-1.72252E-08 1.12288E-18 1.71301E-18
 -1      1946 9.52182E-05-2.85539E-05-2.85699E-05-5.73503E-09 8.18009E-19 2.61892E-18
 -1      1947 9.52514E-05-2.85503E-05-2.85869E-05-4.20957E-08 1.46961E-18 2.14857E-18
 -1      1948 9.52115E-05-2.85544E-05-2.85667E-05 6.88114E-09 7.68133E-19 1.99735E-18
 -1      1949 9.52118E-05-2.85568E-05-2.85661E-05 1.39100E-08 1.34840E-18 2.01800E-18
 -1      1950 9.52325E-05-2.85536E-05-2.85772E-05-5.71662E-09 7.97680E-19 3.12241E-18
 -1      1951 9.52098E-05-2.85582E-05-2.85646E-05 2.12282E-08 1.16256E-18 1.70456E-18
 -1      1952 9.52141E-05-2.85614E-05-2.85653E-05 2.46186E-08 9.12185E-19 1.43100E-18
 -1      1953 9.52248E-05-2.85584E-05-2.85717E-05 1.70566E-08 7.48794E-19 2.42934E-18
 -1      1954 9.52150E-05-2.85636E-05-2.85647E-05 2.76213E-08 4.12076E-19 5.95501E-19
 -1      1955 9.52211E-05-2.85673E-05-2.85659E-05 2.76417E-08 2.34451E-19 6.96216E-19
 -1      1956 9.52245E-05-2.85642E-05-2.85689E-05 2.88913E-08-2.77679E-19 4.82466E-19
 -1      1957 9.52230E-05-2.85696E-05-2.85657E-05 2.67854E-08 5.78792E-19 3.02318E-19
 -1      1958 9.52292E-05-2.85735E-05-2.85668E-05 2.34984E-08 2.75508E-20 5.24828E-19
 -1      1959 9.52335E-05-2.85779E-05-2.85668E-05 2.67581E-08-2.57834E-19 6.31579E-19
 -1      1960 9.52281E-05-2.85711E-05-2.85674E-05 3.15227E-08-1.98304E-19 5.57935E-19
 -1      1961 9.51633E-05-2.78753E-05-2.88036E-05 5.29031E-07 9.98017E-19 2.33463E-18
 -1      1962 9.59982E-05-2.78863E-05-2.91291E-05 1.67464E-06 1.09881E-18 2.74256E-18
 -1      1963 9.67314E-05-2.74266E-05-2.97116E-05 2.81733E-06 1.37777E-18 1.81556E-18
 -1      1964 9.48816E-05-2.80602E-05-2.86069E-05-9.63196E-07 6.68895E-19 1.65747E-18
 -1      1965 9.49445E-05-2.79721E-05-2.86483E-05-2.99144E-07 7.15293E-19 2.09987E-18
 -1      1966 9.57408E-05-2.78764E-05-2.90965E-05 1.09095E-07 9.39148E-19 1.42415E-18
 -1      1967 9.54511E-05-2.83577E-05-2.87320E-05-1.92136E-06 5.22497E-19 1.38719E-18
 -1      1968 9.50400E-05-2.81774E-05-2.86213E-05-1.47952E-06 5.30497E-19 1.51409E-18
 -1      1969 9.56689E-05-2.81769E-05-2.89405E-05-1.53499E-06 7.39956E-19 8.69347E-19
 -1      1970 9.66208E-05-2.87803E-05-2.90578E-05-2.59618E-06 4.11096E-19 1.41650E-18
 -1      1971 9.58960E-05-2.85253E-05-2.88527E-05-2.27128E-06 4.17615E-19 1.43281E-18
 -1      1972 9.62832E-05-2.85211E-05-2.90570E-05-2.62889E-06 4.35107E-19 8.11037E-19
 -1      1973 9.82241E-05-2.93173E-05-2.95190E-05-3.08850E-06 4.57277E-19 9.97352E-19
 -1      1974 9.72803E-05-2.90014E-05-2.92501E-05-2.84000E-06 3.93720E-19 1.38375E-18
 -1      1975 9.74030E-05-2.89562E-05-2.93493E-05-3.40687E-06 5.38068E-19 8.32748E-19
 -1      1976 1.00134E-04-2.99566E-05-3.00684E-05-3.41344E-06 7.10159E-19 7.92719E-19
 -1      1977 9.90422E-05-2.95909E-05-2.97581E-05-3.23811E-06 6.57678E-19 1.00708E-18
 -1      1978 9.88982E-05-2.94952E-05-2.97573E-05-3.95444E-06 8.15532E-19 3.81164E-19
 -1      1979 1.02224E-04-3.06834E-05-3.06592E-05-3.52175E-06 4.34107E-19 2.28540E-19
 -1      1980 1.01059E-04-3.02816E-05-3.03316E-05-3.44607E-06 6.03922E-19 6.06232E-19
 -1      1981 1.00662E-04-3.01438E-05-3.02334E-05-4.26275E-06 8.81322E-19 4.98873E-19
 -1      1982 1.04338E-04-3.14714E-05-3.12358E-05-3.30756E-06 3.67103E-21 4.80625E-19
 -1      1983 1.03197E-04-3.10560E-05-3.09215E-05-3.38548E-06 1.78049E-19 2.54580E-19
 -1      1984 1.02586E-04-3.09023E-05-3.07300E-05-4.24814E-06 3.36959E-19 4.43524E-19
 -1      1985 1.06259E-04-3.22676E-05-3.17272E-05-2.62255E-06 5.63773E-20 5.68366E-19
 -1      1986 1.05276E-04-3.18779E-05-3.14668E-05-2.92959E-06 1.11252E-19 4.73250E-19
 -1      1987 1.04528E-04-3.17537E-05-3.11933E-05-3.76545E-06 1.55857E-19 3.20769E-19
 -1      1988 1.07696E-04-3.29707E-05-3.20500E-05-1.31774E-06 1.33117E-19 7.93635E-19
 -1      1989 1.07048E-04-3.26719E-05-3.18927E-05-1.93076E-06 1.15815E-19 5.78623E-19
 -1      1990 1.06294E-04-3.26406E-05-3.15631E-05-2.63840E-06 3.81396E-20 3.01805E-19
 -1      1991 1.08296E-04-3.34100E-05-3.21214E-05 6.65117E-07 4.91008E-19 2.08984E-19
 -1      1992 1.08184E-04-3.32976E-05-3.21172E-05-2.86484E-07 2.71097E-19 5.54479E-19
 -1      1993 1.07612E-04-3.34290E-05-3.17798E-05-7.32329E-07 3.98092E-19 1.66156E-19
 -1      1994 1.07705E-04-3.33471E-05-3.18885E-05 3.14675E-06 9.88779E-20 4.00488E-19
 -1      1995 1.08302E-04-3.35346E-05-3.20695E-05 1.94212E-06 1.58633E-19 3.02010E-19
 -1      1996 1.08140E-04-3.38778E-05-3.18009E-05 1.91098E-06 2.50556E-19 1.52042E-19
 -1      1997 1.05720E-04-3.25439E-05-3.13655E-05 5.55939E-06-1.90036E-19 4.23225E-19
 -1      1998 1.07079E-04-3.31153E-05-3.17226E-05 4.38032E-06-6.84839E-20 1.60374E-19
 -1      1999 1.07531E-04-3.36582E-05-3.16224E-05 4.89321E-06-5.06235E-20 6.52612E-20
 -1      2000 1.02519E-04-3.09447E-05-3.06622E-05 6.94866E-06 2.45335E-19 2.32444E-19
 -1      2001 1.04457E-04-3.18641E-05-3.11260E-05 6.26031E-06-1.49746E-19 3.29761E-19
 -1      2002 1.05613E-04-3.25003E-05-3.12962E-05 7.33852E-06-9.74022E-20 5.70887E-20
 -1      2003 9.88768E-05-2.89069E-05-2.99709E-05 6.33432E-06 8.02842E-19-2.41153E-19
 -1      2004 1.00915E-04-2.99359E-05-3.04180E-05 6.60139E-06 5.03793E-19-9.24854E-20
 -1      2005 1.02680E-04-3.04804E-05-3.09238E-05 8.05385E-06 7.60017E-19-1.57217E-19
 -1      2006 9.60927E-05-2.72405E-05-2.95062E-05 3.40726E-06 2.44958E-19-1.32256E-19
 -1      2007 9.75530E-05-2.79723E-05-2.97967E-05 4.75414E-06 7.35364E-19-1.57257E-19
 -1      2008 9.96699E-05-2.82541E-05-3.06212E-05 6.14255E-06 6.09943E-19-2.40789E-19
 -1      2009 9.54219E-05-2.68093E-05-2.94246E-05-9.42722E-07-2.06914E-19-1.15247E-18
 -1      2010 9.57150E-05-2.68855E-05-2.94581E-05 1.03977E-06-1.24673E-20-9.10347E-19
 -1      2011 9.78938E-05-2.68668E-05-3.04794E-05 1.82349E-06 4.02857E-19-5.34639E-19
 -1      2012 9.72492E-05-2.78759E-05-2.97545E-05-4.94442E-06-1.49256E-19-1.20059E-18
 -1      2013 9.62288E-05-2.72521E-05-2.95177E-05-3.14335E-06-4.31457E-20-9.39518E-19
 -1      2014 9.82764E-05-2.71089E-05-3.05397E-05-3.31009E-06-2.75418E-20-9.63871E-19
 -1      2015 1.00788E-04-2.98719E-05-3.03978E-05-7.06358E-06 1.02574E-19-1.92103E-18
 -1      2016 9.88417E-05-2.88518E-05-2.99647E-05-6.10604E-06-1.67600E-19-1.86113E-18
 -1      2017 1.00643E-04-2.88313E-05-3.07858E-05-7.14320E-06 1.06243E-19-1.20901E-18
 -1      2018 1.04643E-04-3.18794E-05-3.11687E-05-6.87594E-06 5.50884E-19-1.60715E-18
 -1      2019 1.02457E-04-3.08786E-05-3.06698E-05-6.92207E-06 1.80526E-19-1.97249E-18
 -1      2020 1.03888E-04-3.11363E-05-3.11643E-05-8.39891E-06 2.57157E-19-2.00183E-18
 -1      2021 1.07629E-04-3.32293E-05-3.18594E-05-5.02654E-06-5.69431E-20-1.87126E-18
 -1      2022 1.05824E-04-3.25355E-05-3.14273E-05-5.78251E-06 7.63058E-19-1.44165E-18
 -1      2023 1.06749E-04-3.30226E-05-3.15791E-05-7.19256E-06 5.00084E-19-2.16860E-18
 -1      2024 1.09221E-04-3.37561E-05-3.23171E-05-2.55659E-06-5.63039E-19-2.34058E-18
 -1      2025 1.08127E-04-3.34442E-05-3.20390E-05-3.58039E-06-4.78799E-19-2.25591E-18
 -1      2026 1.08474E-04-3.39757E-05-3.19183E-05-4.57717E-06-2.24728E-20-2.20274E-18
 -1      2027 1.09458E-04-3.36283E-05-3.24820E-05-2.94416E-07-8.94470E-19-1.62607E-18
 -1      2028 1.09115E-04-3.36324E-05-3.23841E-05-1.23923E-06-8.81503E-19-2.09592E-18
 -1      2029 1.08937E-04-3.40415E-05-3.20973E-05-1.70194E-06-8.37524E-19-1.69057E-18
 -1      2030 1.08674E-04-3.31134E-05-3.23758E-05 1.35303E-06-4.62212E-19-4.92996E-19
 -1      2031 1.08939E-04-3.33209E-05-3.24366E-05 6.57531E-07-7.44787E-19-8.05778E-19
 -1      2032 1.08386E-04-3.35318E-05-3.20842E-05 6.79801E-07-9.92613E-19-1.60187E-18
 -1      2033 1.07259E-04-3.24341E-05-3.20677E-05 2.32220E-06 7.17574E-19-4.12336E-19
 -1      2034 1.07928E-04-3.27441E-05-3.22413E-05 1.90519E-06 1.30324E-19-4.78077E-20
 -1      2035 1.07179E-04-3.27669E-05-3.18955E-05 2.28264E-06-1.16864E-20-9.48023E-19
 -1      2036 1.05549E-04-3.17325E-05-3.16392E-05 2.73017E-06 3.22218E-19-4.07343E-19
 -1      2037 1.06428E-04-3.20738E-05-3.18765E-05 2.54579E-06 3.15366E-19-2.44773E-19
 -1      2038 1.05636E-04-3.19624E-05-3.15780E-05 3.13565E-06 5.44048E-19-2.67950E-19
 -1      2039 1.03785E-04-3.10837E-05-3.11624E-05 2.74761E-06 8.25046E-19 8.53766E-20
 -1      2040 1.04725E-04-3.14132E-05-3.14223E-05 2.72692E-06 6.40576E-19 9.49653E-20
 -1      2041 1.03993E-04-3.12286E-05-3.11872E-05 3.40878E-06 5.67666E-19 1.17331E-19
 -1      2042 1.02119E-04-3.05199E-05-3.06898E-05 2.53115E-06 3.33029E-19-7.84164E-19
 -1      2043 1.03022E-04-3.08152E-05-3.09438E-05 2.61008E-06 1.07368E-18 5.73997E-20
 -1      2044 1.02404E-04-3.06062E-05-3.07721E-05 3.29745E-06 1.28303E-18 9.16237E-19
 -1      2045 1.00635E-04-3.00492E-05-3.02549E-05 2.19917E-06-4.87491E-20-1.73321E-18
 -1      2046 1.01447E-04-3.03011E-05-3.04857E-05 2.32879E-06-4.06096E-20-1.68138E-18
 -1      2047 1.00958E-04-3.00997E-05-3.03693E-05 2.96755E-06 6.00555E-19-6.09577E-19
 -1      2048 9.93697E-05-2.96677E-05-2.98750E-05 1.83072E-06-3.10021E-19-2.44117E-18
 -1      2049 1.00064E-04-2.98749E-05-3.00741E-05 1.97799E-06-2.18635E-19-2.05751E-18
 -1      2050 9.96998E-05-2.96981E-05-3.00021E-05 2.53957E-06-9.11139E-21-2.33922E-18
 -1      2051 9.83253E-05-2.93657E-05-2.95559E-05 1.47326E-06-3.05188E-19-1.71619E-18
 -1      2052 9.88973E-05-2.95312E-05-2.97213E-05 1.61805E-06-7.29674E-19-1.99408E-18
 -1      2053 9.86411E-05-2.93858E-05-2.96823E-05 2.09184E-06-7.07672E-19-2.86599E-18
 -1      2054 9.74876E-05-2.91318E-05-2.92963E-05 1.15189E-06-1.74848E-19-4.96740E-19
 -1      2055 9.79449E-05-2.92606E-05-2.94294E-05 1.28330E-06-3.08719E-19-7.07663E-19
 -1      2056 9.77754E-05-2.91467E-05-2.94138E-05 1.67009E-06-9.15651E-19-1.88984E-18
 -1      2057 9.68324E-05-2.89544E-05-2.90910E-05 8.77109E-07 1.15119E-18 3.58804E-19
 -1      2058 9.71882E-05-2.90523E-05-2.91951E-05 9.90343E-07 5.01823E-19 3.38175E-19
 -1      2059 9.70850E-05-2.89666E-05-2.91951E-05 1.29738E-06 3.52611E-19 2.68933E-19
 -1      2060 9.63320E-05-2.88227E-05-2.89326E-05 6.50667E-07 3.37047E-20 3.64754E-19
 -1      2061 9.66020E-05-2.88953E-05-2.90121E-05 7.44637E-07 5.58278E-19 7.29405E-19
 -1      2062 9.65469E-05-2.88334E-05-2.90215E-05 9.82253E-07 5.68894E-19 1.31198E-18
 -1      2063 9.59590E-05-2.87273E-05-2.88134E-05 4.69437E-07 1.44781E-20-7.38367E-19
 -1      2064 9.61587E-05-2.87797E-05-2.88725E-05 5.45152E-07 7.23357E-20-5.34463E-19
 -1      2065 9.61370E-05-2.87368E-05-2.88871E-05 7.24585E-07 6.65210E-19 8.69025E-19
 -1      2066 9.56881E-05-2.86601E-05-2.87260E-05 3.27960E-07 5.50180E-19-1.00752E-18
 -1      2067 9.58317E-05-2.86968E-05-2.87687E-05 3.87473E-07 6.31246E-19-6.14716E-19
 -1      2068 9.58318E-05-2.86684E-05-2.87856E-05 5.19576E-07 5.63255E-19-3.17248E-19
 -1      2069 9.54973E-05-2.86144E-05-2.86637E-05 2.19977E-07-1.54095E-18-1.09796E-18
 -1      2070 9.55972E-05-2.86392E-05-2.86937E-05 2.65736E-07-9.13978E-19-1.97600E-18
 -1      2071 9.56105E-05-2.86214E-05-2.87107E-05 3.60296E-07-7.35720E-19-1.42634E-18
 -1      2072 9.53678E-05-2.85848E-05-2.86209E-05 1.39327E-07-7.75724E-20-6.20973E-19
 -1      2073 9.54345E-05-2.86006E-05-2.86411E-05 1.73789E-07-8.13156E-19-4.75021E-19
 -1      2074 9.54547E-05-2.85905E-05-2.86570E-05 2.39231E-07-1.30588E-18-2.93629E-18
 -1      2075 9.52845E-05-2.85670E-05-2.85928E-05 8.04183E-08 2.89075E-19-7.82061E-19
 -1      2076 9.53263E-05-2.85763E-05-2.86056E-05 1.05842E-07 4.14135E-19-9.17405E-19
 -1      2077 9.53490E-05-2.85714E-05-2.86198E-05 1.49176E-07 5.29495E-19-1.74699E-18
 -1      2078 9.52350E-05-2.85577E-05-2.85756E-05 3.84553E-08 4.25905E-19-7.09319E-20
 -1      2079 9.52588E-05-2.85624E-05-2.85831E-05 5.67937E-08-9.10461E-20-6.54228E-19
 -1      2080 9.52811E-05-2.85607E-05-2.85951E-05 8.37006E-08-2.19075E-20-8.63083E-19
 -1      2081 9.52098E-05-2.85544E-05-2.85663E-05 9.51914E-09 1.57133E-18-1.57931E-19
 -1      2082 9.52208E-05-2.85558E-05-2.85699E-05 2.23779E-08 1.32778E-18 1.86497E-19
 -1      2083 9.52409E-05-2.85560E-05-2.85797E-05 3.73658E-08 1.25511E-18-7.18214E-20
 -1      2084 9.52013E-05-2.85551E-05-2.85624E-05-9.42137E-09 1.11687E-18-1.03889E-18
 -1      2085 9.52036E-05-2.85543E-05-2.85635E-05-8.01085E-10 1.43033E-18-3.80633E-19
 -1      2086 9.52203E-05-2.85556E-05-2.85710E-05 5.79586E-09 1.60143E-18 2.18233E-19
 -1      2087 9.52037E-05-2.85585E-05-2.85621E-05-2.05139E-08 7.47728E-19-1.28935E-18
 -1      2088 9.52004E-05-2.85562E-05-2.85615E-05-1.52687E-08 9.06215E-19-1.24952E-18
 -1      2089 9.52133E-05-2.85579E-05-2.85669E-05-1.43211E-08 1.09226E-18 2.13500E-19
 -1      2090 9.52122E-05-2.85634E-05-2.85637E-05-2.49753E-08 7.40207E-19-2.68400E-18
 -1      2091 9.52060E-05-2.85604E-05-2.85622E-05-2.26642E-08 1.06289E-18-1.69197E-18
 -1      2092 9.52150E-05-2.85621E-05-2.85657E-05-2.52013E-08 1.33714E-18-5.73553E-19
 -1      2093 9.52230E-05-2.85693E-05-2.85658E-05-2.29905E-08 5.01557E-19-1.60919E-18
 -1      2094 9.52161E-05-2.85660E-05-2.85643E-05-2.38044E-08 1.08049E-18-1.97880E-18
 -1      2095 9.52215E-05-2.85677E-05-2.85661E-05-2.81400E-08 7.65572E-19 1.23268E-19
 -1      2096 9.52319E-05-2.85746E-05-2.85674E-05-1.69324E-08-1.20548E-18-1.40978E-18
 -1      2097 9.52258E-05-2.85712E-05-2.85662E-05-2.08799E-08-4.30938E-20-1.86285E-18
 -1      2098 9.52287E-05-2.85731E-05-2.85667E-05-2.53305E-08 7.30740E-19 8.02894E-19
 -1      2099 9.52348E-05-2.85785E-05-2.85669E-05-1.98828E-08-1.35938E-18 3.46453E-19
 -1      2100 9.52494E-05-2.86022E-05-2.85631E-05-2.02767E-08-1.54856E-18-6.73579E-19
 -1      2101 9.52473E-05-2.85971E-05-2.85643E-05-2.24090E-08-1.77850E-18-2.68333E-18
 -1      2102 9.52459E-05-2.85951E-05-2.85646E-05-2.44751E-08-2.47140E-18-1.77770E-18
 -1      2103 9.52428E-05-2.85893E-05-2.85658E-05-2.50597E-08-1.51267E-18 2.37977E-18
 -1      2104 9.52449E-05-2.85876E-05-2.85675E-05-2.74242E-08-2.21392E-18-1.25023E-18
 -1      2105 9.52410E-05-2.85875E-05-2.85657E-05-2.46770E-08-8.22120E-19 2.75290E-18
 -1      2106 9.52373E-05-2.85816E-05-2.85668E-05-2.24235E-08-7.57931E-19 1.70043E-18
 -1      2107 9.52351E-05-2.85790E-05-2.85669E-05-2.59694E-08 1.92237E-19 1.58152E-18
 -1      2108 9.52406E-05-2.85839E-05-2.85673E-05-2.93675E-08-7.59051E-19 2.16268E-18
 -1      2109 9.52510E-05-2.86067E-05-2.85618E-05-1.48008E-08-2.46492E-18-9.41468E-19
 -1      2110 9.52498E-05-2.86030E-05-2.85628E-05-1.73088E-08-2.19584E-18-2.62741E-19
 -1      2111 9.52475E-05-2.85905E-05-2.85673E-05-2.17637E-08-1.76450E-18-1.06377E-18
 -1      2112 9.52514E-05-2.86094E-05-2.85609E-05-9.46036E-09-1.82253E-18 1.39990E-18
 -1      2113 9.52508E-05-2.86069E-05-2.85616E-05-1.18157E-08-2.23987E-18 1.57319E-18
 -1      2114 9.52479E-05-2.85914E-05-2.85671E-05-1.52448E-08-1.54173E-18 7.64492E-19
 -1      2115 9.52513E-05-2.86106E-05-2.85603E-05-4.97870E-09-1.32937E-18 1.44586E-18
 -1      2116 9.52511E-05-2.86092E-05-2.85607E-05-6.95202E-09-1.32668E-18 1.90497E-18
 -1      2117 9.52473E-05-2.85913E-05-2.85668E-05-9.30560E-09-6.39404E-19 1.31762E-18
 -1      2118 9.52511E-05-2.86110E-05-2.85600E-05-1.22524E-09-3.05469E-19 2.28216E-18
 -1      2119 9.52510E-05-2.86105E-05-2.85602E-05-2.94102E-09-1.17075E-18 1.17317E-18
 -1      2120 9.52465E-05-2.85908E-05-2.85667E-05-4.46915E-09-5.39150E-19 2.20894E-18
 -1      2121 9.52512E-05-2.86107E-05-2.85601E-05 2.39572E-09-1.38930E-18-6.19613E-19
 -1      2122 9.52512E-05-2.86110E-05-2.85600E-05 6.48405E-10-7.68347E-19 2.07203E-18
 -1      2123 9.52462E-05-2.85907E-05-2.85666E-05-3.65250E-10-1.97830E-18 1.86386E-18
 -1      2124 9.52513E-05-2.86097E-05-2.85606E-05 6.57189E-09-1.48038E-19-1.66311E-18
 -1      2125 9.52515E-05-2.86110E-05-2.85602E-05 4.51056E-09-5.92601E-19-1.39303E-18
 -1      2126 9.52467E-05-2.85911E-05-2.85666E-05 3.82637E-09-1.69801E-18 1.45930E-19
 -1      2127 9.52512E-05-2.86075E-05-2.85614E-05 1.15981E-08-2.68091E-20-2.44469E-18
 -1      2128 9.52517E-05-2.86099E-05-2.85608E-05 9.17177E-09 4.97758E-19-2.62682E-18
 -1      2129 9.52476E-05-2.85918E-05-2.85668E-05 8.85082E-09-2.40975E-19-2.31193E-18
 -1      2130 9.52502E-05-2.86036E-05-2.85627E-05 1.74109E-08-4.09600E-19 2.10012E-19
 -1      2131 9.52513E-05-2.86074E-05-2.85617E-05 1.47424E-08-2.58428E-19-5.12024E-19
 -1      2132 9.52483E-05-2.85921E-05-2.85670E-05 1.50584E-08 4.60777E-19-1.82635E-18
 -1      2133 9.52476E-05-2.85976E-05-2.85642E-05 2.27716E-08 4.16895E-19 8.41517E-19
 -1      2134 9.52497E-05-2.86027E-05-2.85630E-05 2.05664E-08 4.46437E-19-7.26943E-19
 -1      2135 9.52479E-05-2.85911E-05-2.85672E-05 2.19973E-08 1.17020E-18 7.09311E-19
 -1      2136 9.52426E-05-2.85896E-05-2.85657E-05 2.59221E-08-3.39254E-19 1.26955E-18
 -1      2137 9.52463E-05-2.85957E-05-2.85645E-05 2.49560E-08-5.39837E-19 1.30860E-18
 -1      2138 9.52452E-05-2.85881E-05-2.85674E-05 2.79172E-08 1.23893E-18 7.58773E-19
 -1      2139 5.41834E-05-3.79421E-05-7.64272E-06 3.87882E-05 2.54449E-18 5.17701E-18
 -1      2140 4.03027E-05-4.05521E-05-1.41892E-06 3.12972E-05 2.30181E-18 4.04744E-18
 -1      2141 1.24925E-05-2.97132E-05 6.50772E-06 6.48512E-06 1.09246E-18 2.88669E-18
 -1      2142 1.26879E-05-3.10112E-05 6.82812E-06-4.14291E-06-3.01755E-19 4.21992E-18
 -1      2143 2.80019E-05-3.53188E-05 2.16697E-06 2.73452E-05 2.02526E-18 4.03209E-18
 -1      2144 1.91551E-05-3.40520E-05 5.26862E-06 1.91121E-05 1.32942E-18 3.14715E-18
 -1      2145 9.49167E-05-4.27990E-05-2.23184E-05 4.27384E-05 2.39287E-18 3.85421E-18
 -1      2146 7.62697E-05-4.44380E-05-1.46655E-05 3.84891E-05 1.25403E-18 4.22839E-18
 -1      2147 1.29936E-04-4.34721E-05-3.67927E-05 3.53012E-05 3.38601E-18 2.45640E-18
 -1      2148 1.09203E-04-4.40305E-05-2.85836E-05 3.59130E-05 2.92735E-18 3.48808E-18
 -1      2149 1.14683E-04-5.44902E-05-2.55032E-05 3.45853E-05-7.83505E-20 1.51259E-18
 -1      2150 8.73788E-05-8.46316E-06-3.39149E-05-9.13042E-06-1.25343E-18-2.44931E-18
 -1      2151 8.82958E-05-9.10854E-06-3.40166E-05-1.06699E-05-1.47335E-18-2.07782E-18
 -1      2152 9.08656E-05-1.28763E-05-3.34484E-05-1.02801E-05-1.65224E-18-1.76207E-18
 -1      2153 8.85803E-05-1.05514E-05-3.34699E-05-7.93372E-06-1.23355E-18-2.39455E-18
 -1      2154 1.78944E-04-2.93027E-05-6.26062E-05 1.23887E-05 4.62395E-18 1.83976E-18
 -1      2155 1.65695E-04-2.93657E-05-5.78655E-05 1.70816E-05 4.93481E-18 1.60259E-18
 -1      2156 1.82625E-04-2.45246E-05-6.66166E-05 8.72054E-09 3.32503E-18 1.24067E-18
 -1      2157 1.81544E-04-2.57301E-05-6.54427E-05 8.40515E-06 4.21399E-18 2.30139E-18
 -1      2158 1.70055E-04-2.24920E-05-6.27646E-05-6.78016E-06 3.09167E-18-1.38066E-19
 -1      2159 1.76858E-04-2.26505E-05-6.50253E-05-1.61968E-06 3.44361E-18 5.68253E-19
 -1      2160 1.59161E-04-3.20263E-05-5.41816E-05-1.81977E-05 3.25282E-18-1.12528E-18
 -1      2161 1.69241E-04-2.97215E-05-5.91738E-05-1.06776E-05 2.68848E-18-3.16367E-19
 -1      2162 1.37696E-04-3.82161E-05-4.27044E-05-2.86478E-05 3.57533E-18-1.57929E-18
 -1      2163 1.55829E-04-3.75957E-05-4.98630E-05-2.61858E-05 3.46627E-18-1.17441E-18
 -1      2164 1.52889E-04-3.64922E-05-4.90925E-05-5.28083E-06 2.91771E-18 1.25361E-19
 -1      2165 1.02638E-04-4.24121E-05-2.65470E-05-3.75586E-05 3.15943E-18-2.37550E-18
 -1      2166 1.23145E-04-4.08257E-05-3.48292E-05-3.97968E-05 3.20348E-18-2.20652E-18
 -1      2167 6.92286E-05-4.40149E-05-1.18012E-05-3.86583E-05 1.97274E-18-2.47281E-18
 -1      2168 8.66287E-05-4.13142E-05-1.94741E-05-4.32829E-05 3.03492E-18-2.44178E-18
 -1      2169 3.57854E-05-3.96570E-05 3.45694E-07-3.00049E-05 4.70950E-19-3.48596E-18
 -1      2170 4.98100E-05-3.80157E-05-5.46574E-06-3.91917E-05 1.07870E-18-3.25854E-18
 -1      2171 1.50099E-05-3.62649E-05 7.54097E-06-1.28721E-05-3.85824E-19-4.85011E-18
 -1      2172 2.13908E-05-3.59480E-05 4.92669E-06-2.16543E-05 8.23316E-19-4.76498E-18
 -1      2173 1.39164E-05-3.49677E-05 7.61805E-06 8.99980E-06-1.86517E-18-5.00004E-18
 -1      2174 1.18316E-05-3.40158E-05 8.10559E-06-8.64932E-07-4.00752E-19-4.77049E-18
 -1      2175 3.06773E-05-3.57063E-05 1.22388E-06 2.88139E-05-3.01883E-18-5.32106E-18
 -1      2176 2.11240E-05-3.84294E-05 5.71389E-06 1.84061E-05-1.78322E-18-5.31196E-18
 -1      2177 6.51534E-05-4.11397E-05-1.08237E-05 4.01947E-05-4.37069E-18-4.19842E-18
 -1      2178 5.00183E-05-4.26294E-05-4.39877E-06 3.43461E-05-3.36145E-18-4.23093E-18
 -1      2179 1.00605E-04-4.22890E-05-2.49323E-05 4.20083E-05-4.80479E-18-4.34782E-18
 -1      2180 8.15630E-05-4.42691E-05-1.71107E-05 3.76468E-05-4.70230E-18-4.08863E-18
 -1      2181 1.37077E-04-4.22892E-05-4.00303E-05 3.50095E-05-4.54200E-18-3.19416E-18
 -1      2182 1.16778E-04-4.30249E-05-3.21143E-05 3.51641E-05-4.75143E-18-3.79090E-18
 -1      2183 1.66062E-04-3.70516E-05-5.40903E-05 2.41193E-05-4.35821E-18-2.98494E-18
 -1      2184 1.48662E-04-3.79466E-05-4.72672E-05 2.58223E-05-4.48059E-18-3.42413E-18
 -1      2185 1.73966E-04-2.79799E-05-6.19842E-05 6.02291E-06-4.58880E-18-7.36072E-19
 -1      2186 1.71085E-04-3.16957E-05-5.85471E-05 1.60847E-05-4.69722E-18-2.17433E-18
 -1      2187 1.60221E-04-3.37559E-05-5.31330E-05 4.51318E-06-4.19112E-18-3.00273E-19
 -1      2188 1.83475E-04-2.43921E-05-6.65656E-05 8.28802E-08-4.53586E-18 1.16133E-18
 -1      2189 1.73005E-04-2.12341E-05-6.43955E-05 4.09715E-06-4.73788E-18 5.45913E-19
 -1      2190 1.74464E-04-2.44970E-05-6.35571E-05-5.81614E-06-5.57051E-18 1.80926E-18
 -1      2191 1.82725E-04-2.55639E-05-6.60669E-05-1.52714E-06-4.83741E-18 7.91764E-19
 -1      2192 1.58116E-04-1.32751E-05-6.11346E-05 1.18140E-06-4.95048E-18 1.18029E-18
 -1      2193 1.65547E-04-3.35137E-05-5.58692E-05-1.85162E-05-6.56376E-18 3.32503E-18
 -1      2194 1.75144E-04-3.15044E-05-6.05917E-05-1.09073E-05-6.11537E-18 1.61063E-18
 -1      2195 1.42562E-04-3.86023E-05-4.44837E-05-2.87588E-05-5.65839E-18 5.03434E-18
 -1      2196 1.60889E-04-3.81485E-05-5.14433E-05-2.65227E-05-6.07010E-18 4.11107E-18
 -1      2197 1.58507E-04-3.70910E-05-5.10282E-05-6.96770E-06-5.37982E-18 1.09225E-18
 -1      2198 1.11676E-04-4.56410E-05-2.88786E-05-3.42152E-05-4.56720E-18 5.12455E-18
 -1      2199 1.31041E-04-4.29866E-05-3.70875E-05-3.63874E-05-4.72983E-18 5.71324E-18
 -1      2200 7.23093E-05-4.49191E-05-1.29395E-05-3.70781E-05-3.09167E-18 6.49568E-18
 -1      2201 9.24032E-05-4.43625E-05-2.07228E-05-4.18443E-05-3.98275E-18 5.75305E-18
 -1      2202 4.08368E-05-4.09456E-05-1.33002E-06-3.09372E-05-2.00408E-18 5.37940E-18
 -1      2203 5.51579E-05-3.96830E-05-7.26056E-06-3.77307E-05-2.99934E-18 6.06881E-18
 -1      2204 7.62040E-05-4.76849E-05-1.24730E-05-4.15053E-05-2.74015E-19 5.32446E-18
 -1      2205 1.77160E-05-3.46430E-05 6.01252E-06-1.52395E-05-8.28610E-19 6.00800E-18
 -1      2206 2.55882E-05-3.44245E-05 2.90713E-06-2.47093E-05-2.19000E-18 6.84784E-18
 -1      2207 1.60191E-04-3.62967E-05-5.21016E-05 2.21125E-05 4.93514E-18 1.78809E-18
 -1      2208 1.43174E-04-3.82716E-05-4.49931E-05 2.39305E-05 4.60722E-18 2.47884E-18
 -1      2209 9.81698E-05-2.46054E-05-3.15931E-05-8.86987E-06-1.68245E-18 1.08416E-18
 -1      2210 1.41318E-04-4.90733E-05-3.90978E-05 1.85170E-05 2.32532E-18 3.94294E-19
 -1      2211 1.56020E-04-3.27530E-05-5.20613E-05 4.32790E-06 4.32707E-18-2.29969E-19
 -1      2212 9.73604E-05-2.33490E-05-3.17910E-05-8.94560E-06-1.81829E-18 1.18068E-19
 -1      2213 4.15256E-05-3.56098E-05-3.15172E-06 3.60643E-05 1.01517E-18 4.34401E-18
 -1      2214 1.98793E-05-2.41636E-05 1.46429E-06 1.54700E-05 7.33636E-19 3.89212E-18
 -1      2215 9.52401E-05-2.85846E-05-2.85667E-05 2.66087E-08 1.20032E-20 2.00563E-18
 -1      2216 7.80323E-05-4.73083E-05-1.33354E-05 4.29999E-05 2.92226E-20 3.07806E-18
 -1      2217 1.87285E-05-2.35871E-05 1.69236E-06-1.23145E-05-1.46537E-19 6.18249E-18
 -1      2218 4.07226E-05-3.52984E-05-2.85429E-06-3.39314E-05-5.33843E-19 5.92669E-18
 -1      2219 1.43832E-04-4.94605E-05-3.99897E-05-1.94436E-05-3.66543E-18 2.63173E-18
 -1      2220 1.61178E-04-2.30638E-05-5.82158E-05 1.30396E-06-5.69524E-18 8.80491E-19
 -1      2221 1.64938E-04-2.15171E-05-6.07294E-05 5.33725E-07-5.20332E-18 4.81538E-19
 -1      2222 1.51825E-04-2.07078E-05-5.59842E-05-4.67246E-06-5.17749E-18 8.04046E-19
 -1      2223 1.48850E-04-1.40113E-05-5.81733E-05-4.50324E-06-5.04281E-18 6.90649E-19
 -1      2224 1.47246E-04-4.73156E-05-4.22031E-05 1.82832E-05-3.32884E-18-1.09521E-18
 -1      2225 1.20337E-04-5.33679E-05-2.85473E-05 3.29836E-05-2.69568E-18-2.03330E-18
 -1      2226 8.64198E-05-5.02198E-05-1.58057E-05 4.09821E-05-2.26920E-18-3.08066E-18
 -1      2227 4.82001E-05-3.89606E-05-4.44334E-06 3.70157E-05-1.50433E-18-4.46768E-18
 -1      2228 2.03732E-05-2.76220E-05 2.45199E-06 1.79209E-05-8.81973E-19-5.53790E-18
 -1      2229 1.54561E-05-2.62827E-05 3.87811E-06-8.51678E-06-6.31463E-19-5.42652E-18
 -1      2230 3.44332E-05-3.24169E-05-1.25388E-06-3.29310E-05-8.31786E-19-4.00202E-18
 -1      2231 7.02379E-05-4.53258E-05-1.09854E-05-4.25735E-05-3.19755E-19-2.37159E-18
 -1      2232 1.38787E-04-4.89214E-05-3.80549E-05-2.25682E-05 2.54629E-18-4.45116E-19
 -1      2233 1.54783E-04-2.09076E-05-5.66577E-05 1.84567E-06 3.00993E-18 7.83505E-21
 -1      2234 1.62569E-04-1.93272E-05-6.01268E-05 5.38772E-07 4.11150E-18 1.30231E-18
 -1      2235 1.58481E-04-1.31491E-05-6.13533E-05 1.08540E-06 3.78793E-18-1.13555E-20
 -1      2236 1.08072E-04-5.23776E-05-2.38613E-05-3.77059E-05 1.26335E-18-9.50583E-19
 -1      2237 1.13685E-04-5.45185E-05-2.53126E-05-3.43875E-05-2.08794E-18 4.22521E-18
 -1      2238 9.66939E-05-2.66424E-05-3.00009E-05 2.63009E-06 1.37289E-18 8.93891E-19
 -1      2239 9.73981E-05-2.60910E-05-3.04865E-05 4.54711E-06 1.57097E-18 1.14016E-18
 -1      2240 8.67963E-05-9.73171E-06-3.30678E-05-2.79631E-06-3.90786E-19-2.60043E-18
 -1      2241 8.72235E-05-1.01151E-05-3.30789E-05-3.73045E-06-6.79784E-19-2.65109E-18
 -1      2242 8.78225E-05-1.07833E-05-3.30647E-05-4.53520E-06-8.16026E-19-2.59610E-18
 -1      2243 8.84882E-05-1.14122E-05-3.30727E-05-5.55276E-06-9.80996E-19-2.51771E-18
 -1      2244 8.86792E-05-1.23209E-05-3.27195E-05-3.61120E-06-7.11590E-19-2.43065E-18
 -1      2245 8.61601E-05-9.08592E-06-3.30628E-05 4.37414E-07 5.06128E-19-2.40636E-18
 -1      2246 8.61448E-05-9.07142E-06-3.30633E-05-4.27683E-07 2.65987E-19-2.47480E-18
 -1      2247 8.65277E-05-9.44138E-06-3.30671E-05 2.06681E-06 8.87048E-19-2.50959E-18
 -1      2248 8.62973E-05-9.23694E-06-3.30611E-05 1.17615E-06 6.91226E-19-2.45600E-18
 -1      2249 8.72758E-05-1.08601E-05-3.27470E-05 6.91573E-07 6.07373E-19-2.29130E-18
 -1      2250 8.73319E-05-1.02430E-05-3.30704E-05 3.76442E-06 1.21000E-18-2.47027E-18
 -1      2251 8.68945E-05-9.84590E-06-3.30615E-05 2.82844E-06 1.02231E-18-2.55349E-18
 -1      2252 8.78025E-05-1.14101E-05-3.27364E-05 2.12438E-06 9.19204E-19-2.41088E-18
 -1      2253 8.86200E-05-1.15785E-05-3.30579E-05 5.62706E-06 1.59247E-18-1.97832E-18
 -1      2254 8.79450E-05-1.09338E-05-3.30528E-05 4.59047E-06 1.34804E-18-2.28535E-18
 -1      2255 8.88123E-05-1.24867E-05-3.27064E-05 3.63548E-06 1.30273E-18-2.26053E-18
 -1      2256 9.04511E-05-1.35869E-05-3.30002E-05 7.59685E-06 1.93773E-18-1.51524E-18
 -1      2257 8.94996E-05-1.26038E-05-3.30126E-05 6.48567E-06 1.71429E-18-1.75637E-18
 -1      2258 9.03301E-05-1.41690E-05-3.26315E-05 5.22302E-06 1.64043E-18-1.72124E-18
 -1      2259 9.29650E-05-1.65464E-05-3.28458E-05 9.46413E-06 2.22966E-18-7.50339E-19
 -1      2260 9.16493E-05-1.50443E-05-3.28950E-05 8.38260E-06 2.02826E-18-1.16562E-18
 -1      2261 9.23703E-05-1.65766E-05-3.24618E-05 6.73366E-06 1.81549E-18-1.18841E-18
 -1      2262 9.62438E-05-2.74557E-05-2.94545E-05-1.32722E-07 9.91297E-19 4.91516E-19
 -1      2263 9.65056E-05-2.71688E-05-2.96437E-05 1.00322E-06 1.14811E-18 8.00704E-19
 -1      2264 9.66612E-05-2.59582E-05-3.03146E-05 2.41422E-06 1.39637E-18 6.21113E-20
 -1      2265 9.70509E-05-2.51602E-05-3.07642E-05-4.37849E-06-1.49378E-18-3.35365E-19
 -1      2266 9.66400E-05-2.59094E-05-3.03156E-05-2.28636E-06-1.34273E-18-3.93434E-19
 -1      2267 1.43784E-04-4.89574E-05-4.11123E-05 6.56083E-06 1.82921E-18-1.07700E-18
 -1      2268 1.34504E-04-5.47886E-05-3.42085E-05 1.52547E-05 2.42357E-19-3.89847E-19
 -1      2269 9.66515E-05-2.65595E-05-2.99853E-05-6.89364E-07-1.16513E-18-2.79544E-19
 -1      2270 9.65077E-05-2.69531E-05-2.97961E-05 6.27928E-07-9.63990E-19-3.23957E-19
 -1      2271 9.64253E-05-2.51569E-05-3.05542E-05-1.90444E-06-1.22083E-18-7.61541E-19
 -1      2272 9.64944E-05-2.72613E-05-2.96345E-05 1.80819E-06-9.77174E-19-2.58760E-19
 -1      2273 9.66413E-05-2.75252E-05-2.96048E-05 2.74100E-06-8.75945E-19-4.34796E-19
 -1      2274 9.64464E-05-2.63992E-05-3.00383E-05 1.08472E-06-1.00450E-18-7.47119E-19
 -1      2275 9.67288E-05-2.77046E-05-2.95602E-05 3.65977E-06-7.20445E-19-4.27583E-19
 -1      2276 9.71353E-05-2.79380E-05-2.96379E-05 4.38978E-06-6.19088E-19-5.00901E-19
 -1      2277 9.65531E-05-2.70563E-05-2.98015E-05 3.34459E-06-9.01322E-19-6.45011E-19
 -1      2278 9.73487E-05-2.80783E-05-2.96751E-05 5.15481E-06-5.30704E-19-5.17445E-19
 -1      2279 9.79761E-05-2.83318E-05-2.98291E-05 5.77272E-06-3.94650E-19-5.55205E-19
 -1      2280 9.68822E-05-2.74788E-05-2.97592E-05 5.15228E-06-6.91152E-19-5.93121E-19
 -1      2281 9.83234E-05-2.84900E-05-2.99215E-05 6.44471E-06-3.83079E-19-5.51829E-19
 -1      2282 9.91465E-05-2.88064E-05-3.01289E-05 6.98038E-06-2.29560E-19-6.37523E-19
 -1      2283 9.74627E-05-2.78436E-05-2.98495E-05 6.68935E-06-4.67944E-19-5.95123E-19
 -1      2284 9.96453E-05-2.90395E-05-3.02541E-05 7.57129E-06 1.04568E-20-6.70383E-19
 -1      2285 1.00652E-04-2.94703E-05-3.04941E-05 8.00027E-06-6.85054E-20-6.63781E-19
 -1      2286 9.83224E-05-2.82979E-05-3.00228E-05 8.03689E-06-1.69138E-19-7.17775E-19
 -1      2287 1.01347E-04-2.98541E-05-3.06322E-05 8.46924E-06-3.66555E-19-6.66071E-19
 -1      2288 1.02534E-04-3.04667E-05-3.08828E-05 8.70689E-06-4.59286E-19-6.60971E-19
 -1      2289 9.95242E-05-2.90085E-05-3.02356E-05 9.17418E-06-3.47028E-19-5.75336E-19
 -1      2290 1.03508E-04-3.11034E-05-3.10166E-05 8.94729E-06-2.71194E-19-2.96768E-19
 -1      2291 1.04873E-04-3.19752E-05-3.12543E-05 8.83978E-06-1.27895E-19-1.27128E-19
 -1      2292 1.01196E-04-3.01932E-05-3.04509E-05 9.96399E-06-1.61659E-19-2.27307E-19
 -1      2293 1.06252E-04-3.29810E-05-3.13758E-05 8.66142E-06-1.75953E-19 8.66794E-20
 -1      2294 1.07769E-04-3.41628E-05-3.15807E-05 7.98865E-06 1.36910E-19 1.11099E-19
 -1      2295 1.03547E-04-3.21161E-05-3.06462E-05 1.01239E-05 6.60756E-20 1.65235E-19
 -1      2296 1.09681E-04-3.56058E-05-3.17053E-05 7.10924E-06 2.74298E-19 7.47920E-20
 -1      2297 1.11250E-04-3.70264E-05-3.18743E-05 5.63061E-06 3.50198E-19 2.42088E-19
 -1      2298 1.06839E-04-3.50012E-05-3.08358E-05 9.19615E-06 2.17343E-19 5.97743E-19
 -1      2299 1.13711E-04-3.87761E-05-3.20642E-05 3.70808E-06 3.97834E-19 3.22554E-19
 -1      2300 1.15051E-04-4.00495E-05-3.22307E-05 1.29795E-06 4.99948E-20 6.04603E-19
 -1      2301 1.11240E-04-3.87876E-05-3.11124E-05 6.56131E-06 4.24221E-19 6.89248E-20
 -1      2302 1.17692E-04-4.15268E-05-3.26084E-05-1.83245E-06-2.91426E-19 8.22299E-19
 -1      2303 1.18293E-04-4.18501E-05-3.28514E-05-4.89004E-06-4.52005E-19 8.18529E-19
 -1      2304 1.16451E-04-4.26253E-05-3.16970E-05 1.57961E-06 1.65679E-19 7.16851E-19
 -1      2305 1.20145E-04-4.19003E-05-3.35862E-05-8.78148E-06-4.22481E-19 8.29890E-19
 -1      2306 1.19433E-04-4.01624E-05-3.40028E-05-1.14488E-05-1.52760E-19 7.69990E-19
 -1      2307 1.21131E-04-4.43409E-05-3.29321E-05-5.55771E-06-5.94285E-19 1.45967E-18
 -1      2308 1.19040E-04-3.74952E-05-3.51465E-05-1.40880E-05-2.49365E-19 5.49022E-19
 -1      2309 1.17040E-04-3.36424E-05-3.57185E-05-1.43700E-05-3.76480E-19 6.15714E-19
 -1      2310 1.22653E-04-4.06927E-05-3.51172E-05-1.30248E-05-5.42313E-19 1.12291E-18
 -1      2311 1.14886E-04-2.92791E-05-3.69467E-05-1.34509E-05-8.22972E-19 6.82722E-20
 -1      2312 1.12631E-04-2.51732E-05-3.74598E-05-1.03264E-05-1.67506E-18 1.36849E-19
 -1      2313 1.20333E-04-3.26506E-05-3.76989E-05-1.50443E-05-8.70684E-19 4.33999E-19
 -1      2314 1.10725E-04-2.23014E-05-3.81395E-05-4.18913E-06-2.19249E-18 9.29255E-20
 -1      2315 1.10590E-04-2.17456E-05-3.82151E-05 1.12372E-06-2.25332E-18-4.45897E-19
 -1      2316 1.15214E-04-2.14099E-05-4.03877E-05-8.72221E-06-2.12547E-18-2.15067E-19
 -1      2317 1.11578E-04-2.33174E-05-3.78582E-05 7.60239E-06-2.13309E-18-1.01778E-18
 -1      2318 1.13387E-04-2.65752E-05-3.74775E-05 1.17885E-05-1.79293E-18-1.57779E-18
 -1      2319 1.14956E-04-2.04859E-05-4.06785E-05 4.84338E-06-2.70765E-18-7.41733E-19
 -1      2320 1.15962E-04-3.10580E-05-3.63353E-05 1.44736E-05-1.14095E-18-1.60287E-18
 -1      2321 1.18246E-04-3.53750E-05-3.57521E-05 1.51226E-05-4.75377E-19-1.85776E-18
 -1      2322 1.18831E-04-2.84009E-05-3.88195E-05 1.48455E-05-1.80704E-18-1.64729E-18
 -1      2323 1.19289E-04-3.86460E-05-3.45550E-05 1.33035E-05-1.20709E-19-1.80515E-18
 -1      2324 1.20489E-04-4.10833E-05-3.41096E-05 1.12546E-05 5.44965E-19-1.26654E-18
 -1      2325 1.22464E-04-3.85029E-05-3.60074E-05 1.53209E-05-3.22217E-19-2.21242E-18
 -1      2326 1.19257E-04-4.18375E-05-3.32596E-05 7.46695E-06 8.37702E-19-1.08805E-18
 -1      2327 1.19070E-04-4.20479E-05-3.29977E-05 4.41940E-06 9.66425E-19-8.09089E-19
 -1      2328 1.22251E-04-4.39376E-05-3.36030E-05 8.75801E-06 7.22903E-19-1.30554E-18
 -1      2329 1.16580E-04-4.08633E-05-3.25485E-05 1.00026E-06 7.16285E-19-6.03645E-19
 -1      2330 1.15479E-04-3.97818E-05-3.23944E-05-1.61742E-06 6.66847E-19-2.25757E-19
 -1      2331 1.18284E-04-4.34731E-05-3.21247E-05 1.04757E-06 9.00237E-19-7.73477E-19
 -1      2332 1.12941E-04-3.80317E-05-3.21809E-05-3.85499E-06 2.61161E-19-4.21025E-19
 -1      2333 1.11492E-04-3.66159E-05-3.20446E-05-5.56063E-06 3.71488E-19-1.51440E-19
 -1      2334 1.13141E-04-3.99940E-05-3.14150E-05-4.58492E-06 5.52181E-19-6.98684E-19
 -1      2335 1.09446E-04-3.50586E-05-3.19261E-05-6.66307E-06 4.88692E-19-1.16614E-19
 -1      2336 1.07996E-04-3.38153E-05-3.17607E-05-7.49990E-06-1.40285E-19 1.44596E-19
 -1      2337 1.08510E-04-3.60626E-05-3.11040E-05-7.76356E-06 2.26730E-19-8.33618E-19
 -1      2338 1.06511E-04-3.26920E-05-3.16565E-05-7.79970E-06 2.26034E-19 4.21669E-19
 -1      2339 1.05202E-04-3.17650E-05-3.14551E-05-7.99971E-06 6.08814E-19 1.19459E-18
 -1      2340 1.04975E-04-3.28950E-05-3.09287E-05-9.02113E-06 5.26729E-19-3.16469E-20
 -1      2341 1.04162E-04-3.10486E-05-3.13358E-05-7.81511E-06 2.28220E-19 6.80871E-19
 -1      2342 1.03029E-04-3.04128E-05-3.11122E-05-7.62264E-06 4.69974E-19 7.02494E-19
 -1      2343 1.02454E-04-3.07375E-05-3.07585E-05-9.03016E-06 4.10344E-19 1.01338E-18
 -1      2344 1.02293E-04-2.99941E-05-3.09761E-05-7.18674E-06 4.97722E-19 6.55625E-19
 -1      2345 1.01332E-04-2.95761E-05-3.07489E-05-6.79218E-06-1.06019E-19 2.94628E-19
 -1      2346 1.00682E-04-2.94234E-05-3.05526E-05-8.33111E-06 3.94998E-19 9.34509E-19
 -1      2347 1.00793E-04-2.93490E-05-3.06047E-05-6.25605E-06-4.57563E-19 3.47715E-19
 -1      2348 9.99906E-05-2.90790E-05-3.03895E-05-5.78643E-06-7.67966E-19 7.07130E-19
 -1      2349 9.94088E-05-2.86948E-05-3.03142E-05-7.29544E-06-2.90658E-19 1.67638E-18
 -1      2350 9.95805E-05-2.89655E-05-3.02474E-05-5.23987E-06-1.23244E-18 7.90655E-19
 -1      2351 9.89181E-05-2.87921E-05-3.00538E-05-4.77072E-06-9.84955E-19 7.48879E-19
 -1      2352 9.84618E-05-2.83315E-05-3.00616E-05-6.15669E-06-1.07436E-18 2.49088E-18
 -1      2353 9.85964E-05-2.87421E-05-2.99217E-05-4.26237E-06-9.78755E-19 1.43509E-19
 -1      2354 9.80575E-05-2.86306E-05-2.97545E-05-3.83334E-06-1.03698E-18 1.27513E-18
 -1      2355 9.77328E-05-2.81793E-05-2.98133E-05-5.05051E-06-1.55423E-18 2.17800E-18
 -1      2356 9.78011E-05-2.86144E-05-2.96370E-05-3.38591E-06-1.15230E-18 4.68437E-19
 -1      2357 9.73693E-05-2.85429E-05-2.94972E-05-3.01406E-06-6.90117E-19 7.04200E-21
 -1      2358 9.71586E-05-2.81415E-05-2.95829E-05-4.04790E-06-1.41972E-18 3.63819E-19
 -1      2359 9.71640E-05-2.85436E-05-2.93962E-05-2.63474E-06-2.94183E-19-5.94540E-19
 -1      2360 9.68234E-05-2.84983E-05-2.92822E-05-2.32397E-06 2.71888E-19-8.62157E-19
 -1      2361 9.67016E-05-2.81609E-05-2.93784E-05-3.17914E-06-8.97776E-19 2.00763E-19
 -1      2362 9.66599E-05-2.85067E-05-2.91980E-05-2.01120E-06-1.43889E-19-1.03260E-18
 -1      2363 9.63956E-05-2.84788E-05-2.91071E-05-1.75839E-06-3.01134E-19-1.15887E-18
 -1      2364 9.63378E-05-2.82057E-05-2.92030E-05-2.45027E-06-2.14226E-19-1.48971E-19
 -1      2365 9.62667E-05-2.84903E-05-2.90385E-05-1.50617E-06-4.10692E-19-6.26703E-19
 -1      2366 9.60652E-05-2.84739E-05-2.89675E-05-1.30490E-06-3.26287E-19 2.41049E-19
 -1      2367 9.60505E-05-2.82588E-05-2.90567E-05-1.85383E-06-6.89540E-20-8.13791E-19
 -1      2368 9.59651E-05-2.84860E-05-2.89127E-05-1.10532E-06-4.40098E-19 7.66026E-19
 -1      2369 9.58142E-05-2.84774E-05-2.88584E-05-9.48015E-07-1.72423E-19-1.09418E-19
 -1      2370 9.58264E-05-2.83116E-05-2.89376E-05-1.37575E-06 2.42631E-19 5.13642E-19
 -1      2371 9.57377E-05-2.84890E-05-2.88155E-05-7.92771E-07 5.27939E-19-3.35325E-19
 -1      2372 9.56271E-05-2.84855E-05-2.87747E-05-6.71902E-07 1.43928E-18-7.94838E-19
 -1      2373 9.56542E-05-2.83600E-05-2.88427E-05-9.99408E-07 3.19300E-19-2.15336E-19
 -1      2374 9.55698E-05-2.84959E-05-2.87418E-05-5.53103E-07 2.15408E-18-8.94207E-19
 -1      2375 9.54906E-05-2.84959E-05-2.87118E-05-4.61741E-07 1.85203E-18-4.36538E-19
 -1      2376 9.55243E-05-2.84024E-05-2.87685E-05-7.08090E-07 1.45339E-18 2.27962E-19
 -1      2377 9.54487E-05-2.85050E-05-2.86870E-05-3.72306E-07 1.60772E-18-3.08893E-19
 -1      2378 9.53936E-05-2.85070E-05-2.86654E-05-3.04402E-07 1.22680E-18 4.49614E-19
 -1      2379 9.54284E-05-2.84384E-05-2.87116E-05-4.86231E-07 1.78265E-18 5.50118E-19
 -1      2380 9.53637E-05-2.85148E-05-2.86472E-05-2.38227E-07 1.02863E-18 4.32730E-19
 -1      2381 9.53269E-05-2.85181E-05-2.86321E-05-1.88682E-07 9.61459E-19 1.45379E-18
 -1      2382 9.53593E-05-2.84685E-05-2.86687E-05-3.20065E-07 1.68689E-18 7.79191E-19
 -1      2383 9.53063E-05-2.85248E-05-2.86190E-05-1.40673E-07 1.88796E-19 1.43807E-18
 -1      2384 9.52830E-05-2.85287E-05-2.86088E-05-1.05318E-07 1.45238E-19 1.63141E-18
 -1      2385 9.53109E-05-2.84933E-05-2.86371E-05-1.97852E-07 1.52699E-19 4.28911E-21
 -1      2386 9.52693E-05-2.85344E-05-2.85995E-05-7.13417E-08 8.52367E-19 1.53355E-18
 -1      2387 9.52558E-05-2.85386E-05-2.85929E-05-4.68663E-08 1.28775E-18 1.21265E-18
 -1      2388 9.52784E-05-2.85136E-05-2.86142E-05-1.09894E-07 1.64803E-19 6.19764E-19
 -1      2389 9.52473E-05-2.85435E-05-2.85865E-05-2.36672E-08 8.19639E-19 1.52672E-18
 -1      2390 9.52407E-05-2.85479E-05-2.85825E-05-7.55562E-09 9.31112E-19 2.61777E-18
 -1      2391 9.52577E-05-2.85302E-05-2.85980E-05-4.83899E-08 1.05294E-18 9.27952E-19
 -1      2392 9.52360E-05-2.85523E-05-2.85782E-05 7.29019E-09 7.15741E-19 1.79007E-18
 -1      2393 9.52341E-05-2.85569E-05-2.85759E-05 1.68041E-08 2.16535E-19 1.68031E-18
 -1      2394 9.52456E-05-2.85443E-05-2.85867E-05-7.30791E-09 5.80053E-20 1.49322E-18
 -1      2395 9.52321E-05-2.85613E-05-2.85729E-05 2.50701E-08-7.18337E-19 1.65047E-18
 -1      2396 9.52330E-05-2.85659E-05-2.85716E-05 2.90301E-08-1.26391E-18 1.14964E-18
 -1      2397 9.52397E-05-2.85567E-05-2.85787E-05 1.77524E-08-5.87472E-19 4.71547E-19
 -1      2398 9.68391E-05-2.83711E-05-2.93261E-05-3.24187E-06 3.84758E-19 1.82669E-19
 -1      2399 9.64102E-05-2.81273E-05-2.92374E-05-2.72088E-06 5.23776E-19 2.82880E-19
 -1      2400 9.77821E-05-2.88367E-05-2.95346E-05-4.17727E-06 6.69075E-19-5.23068E-21
 -1      2401 9.71334E-05-2.85540E-05-2.93751E-05-3.79844E-06 5.64672E-19 1.58693E-19
 -1      2402 9.70207E-05-2.81897E-05-2.95161E-05-3.95434E-06 5.97956E-19-3.14546E-19
 -1      2403 9.90521E-05-2.93964E-05-2.98442E-05-4.83568E-06 9.18808E-19-1.61394E-19
 -1      2404 9.82404E-05-2.90578E-05-2.96396E-05-4.58042E-06 7.53465E-19-1.61849E-19
 -1      2405 9.77990E-05-2.86875E-05-2.96338E-05-5.01721E-06 7.80866E-19-4.76246E-19
 -1      2406 1.00583E-04-3.00933E-05-3.02091E-05-5.19378E-06 8.14469E-19 1.40224E-19
 -1      2407 9.96596E-05-2.96847E-05-2.99823E-05-5.08665E-06 9.50079E-19 1.99747E-19
 -1      2408 9.88870E-05-2.92919E-05-2.98393E-05-5.75294E-06 7.21507E-19-3.04463E-19
 -1      2409 1.02307E-04-3.09639E-05-3.05860E-05-5.14717E-06 1.46244E-19 3.33157E-19
 -1      2410 1.01331E-04-3.04767E-05-3.03608E-05-5.24935E-06 5.58109E-19 3.80898E-19
 -1      2411 1.00269E-04-3.00853E-05-3.00906E-05-6.12070E-06 5.32434E-19 1.01324E-19
 -1      2412 1.04137E-04-3.20222E-05-3.09311E-05-4.52402E-06 1.39506E-19 2.10377E-19
 -1      2413 1.03189E-04-3.14652E-05-3.07338E-05-4.92403E-06 2.26240E-19 2.28532E-19
 -1      2414 1.01936E-04-3.11394E-05-3.03531E-05-5.99118E-06 2.52105E-19 1.74671E-19
 -1      2415 1.05938E-04-3.32205E-05-3.12052E-05-3.12115E-06 3.48663E-19-1.88124E-19
 -1      2416 1.05131E-04-3.26419E-05-3.10622E-05-3.91065E-06 2.40802E-19 1.85566E-19
 -1      2417 1.03865E-04-3.24884E-05-3.06008E-05-5.16201E-06 3.68196E-19-8.21200E-20
 -1      2418 1.07486E-04-3.43834E-05-3.13829E-05-7.90780E-07 4.17210E-19-1.78351E-19
 -1      2419 1.06977E-04-3.39021E-05-3.13151E-05-2.01210E-06 3.90006E-19-2.68018E-19
 -1      2420 1.05970E-04-3.40632E-05-3.08245E-05-3.40200E-06 4.00216E-19-2.66425E-19
 -1      2421 1.08440E-04-3.51407E-05-3.14678E-05 2.39708E-06 3.00167E-20-9.96852E-20
 -1      2422 1.08415E-04-3.49680E-05-3.14814E-05 8.37240E-07 3.01117E-19-6.19740E-20
 -1      2423 1.08023E-04-3.55885E-05-3.10417E-05-5.59268E-07 2.34491E-19-7.10526E-20
 -1      2424 1.08368E-04-3.49401E-05-3.15016E-05 5.93174E-06-1.97398E-19-7.02442E-20
 -1      2425 1.08988E-04-3.53437E-05-3.15798E-05 4.35935E-06-9.47254E-20-4.78371E-20
 -1      2426 1.09580E-04-3.64971E-05-3.13022E-05 3.23309E-06-1.04283E-19-3.39074E-19
 -1      2427 1.06936E-04-3.32837E-05-3.15532E-05 8.69717E-06 1.28757E-19 1.20176E-19
 -1      2428 1.08208E-04-3.44260E-05-3.16573E-05 7.69884E-06-2.79630E-19 1.84977E-19
 -1      2429 1.09993E-04-3.59930E-05-3.16739E-05 7.27292E-06-2.68193E-19-2.12578E-19
 -1      2430 1.04310E-04-3.02639E-05-3.16757E-05 9.18391E-06 8.21802E-19 1.39717E-19
 -1      2431 1.05931E-04-3.19355E-05-3.17626E-05 9.41489E-06 6.76677E-19 3.89715E-19
 -1      2432 1.08735E-04-3.35039E-05-3.21958E-05 1.01035E-05 2.40159E-19 1.94650E-19
 -1      2433 1.01498E-04-2.70182E-05-3.18474E-05 6.34424E-06 6.04040E-19 1.07699E-19
 -1      2434 1.02846E-04-2.85174E-05-3.18946E-05 8.08211E-06 7.65390E-19 3.85982E-19
 -1      2435 1.06044E-04-2.94699E-05-3.28057E-05 9.90012E-06 7.83065E-19 5.25929E-19
 -1      2436 1.00081E-04-2.53694E-05-3.19818E-05 7.29249E-07 5.32870E-19-3.49649E-19
 -1      2437 1.00491E-04-2.58470E-05-3.19846E-05 3.45740E-06 6.95983E-19-1.20861E-19
 -1      2438 1.03325E-04-2.57088E-05-3.33049E-05 5.71173E-06 7.28091E-19 1.39811E-19
 -1      2439 1.01051E-04-2.64190E-05-3.20099E-05-5.32634E-06-6.32892E-20-1.49031E-19
 -1      2440 1.00286E-04-2.55685E-05-3.19750E-05-2.76651E-06 1.93441E-19-3.01274E-19
 -1      2441 1.02417E-04-2.44426E-05-3.34797E-05-1.19127E-06 5.85909E-19 2.22374E-19
 -1      2442 1.03894E-04-2.95075E-05-3.19288E-05-9.13458E-06 7.36800E-19-8.80451E-19
 -1      2443 1.02354E-04-2.78721E-05-3.18523E-05-7.79436E-06 4.14192E-19-4.21518E-19
 -1      2444 1.04053E-04-2.65761E-05-3.32390E-05-7.63389E-06 3.87557E-19-3.55439E-19
 -1      2445 1.07006E-04-3.28202E-05-3.18361E-05-9.57295E-06 4.85962E-19-2.10847E-18
 -1      2446 1.05360E-04-3.12406E-05-3.17191E-05-9.71124E-06 5.82368E-19-1.40932E-18
 -1      2447 1.07045E-04-3.06793E-05-3.27065E-05-1.07569E-05 9.69596E-19-1.06788E-18
 -1      2448 1.09015E-04-3.49020E-05-3.17855E-05-7.31563E-06 2.38135E-19-1.65245E-18
 -1      2449 1.07823E-04-3.39600E-05-3.16588E-05-8.48170E-06 5.31513E-19-1.90506E-18
 -1      2450 1.09520E-04-3.44226E-05-3.21381E-05-1.00008E-05 5.05925E-19-1.58456E-18
 -1      2451 1.09525E-04-3.54391E-05-3.17565E-05-3.89399E-06 1.22807E-19-1.94323E-18
 -1      2452 1.08992E-04-3.52011E-05-3.16650E-05-5.43245E-06 3.68995E-19-1.48143E-18
 -1      2453 1.10380E-04-3.63446E-05-3.16958E-05-6.73392E-06 3.34452E-19-6.68044E-19
 -1      2454 1.08825E-04-3.48523E-05-3.16981E-05-6.02518E-07-9.28100E-19-1.84991E-18
 -1      2455 1.08887E-04-3.51051E-05-3.16744E-05-2.00530E-06-3.90737E-19-1.92782E-18
 -1      2456 1.09692E-04-3.63914E-05-3.14027E-05-2.75352E-06-2.42083E-19-1.21333E-18
 -1      2457 1.07422E-04-3.37455E-05-3.15687E-05 1.88251E-06-1.05998E-18-1.66414E-18
 -1      2458 1.07902E-04-3.42280E-05-3.16231E-05 8.57366E-07-1.34945E-18-2.23003E-18
 -1      2459 1.08063E-04-3.52598E-05-3.12054E-05 6.96035E-07-9.87730E-19-2.25748E-18
 -1      2460 1.05736E-04-3.25568E-05-3.13558E-05 3.41217E-06 1.14098E-19-1.21279E-18
 -1      2461 1.06453E-04-3.30859E-05-3.14779E-05 2.80303E-06-5.90958E-19-1.79017E-18
 -1      2462 1.06100E-04-3.37105E-05-3.10344E-05 3.10791E-06-9.67755E-19-2.13059E-18
 -1      2463 1.04026E-04-3.15079E-05-3.10739E-05 4.11993E-06 1.38779E-19-5.24813E-19
 -1      2464 1.04841E-04-3.19891E-05-3.12421E-05 3.85845E-06 3.47111E-19-1.02952E-18
 -1      2465 1.04178E-04-3.22315E-05-3.08452E-05 4.47150E-06 1.01991E-19-2.12624E-18
 -1      2466 1.02431E-04-3.06702E-05-3.07504E-05 4.23352E-06 5.78203E-19-3.69287E-19
 -1      2467 1.03248E-04-3.10692E-05-3.09414E-05 4.21808E-06 2.55123E-19-4.75571E-19
 -1      2468 1.02463E-04-3.10305E-05-3.06237E-05 4.99664E-06 2.82190E-19-1.89413E-18
 -1      2469 1.01012E-04-3.00374E-05-3.04143E-05 3.97356E-06 8.83971E-19 3.81329E-19
 -1      2470 1.01773E-04-3.03518E-05-3.06083E-05 4.10908E-06 9.39673E-19 9.89647E-20
 -1      2471 1.01001E-04-3.01429E-05-3.03759E-05 4.94349E-06 3.21892E-19-1.24074E-18
 -1      2472 9.97895E-05-2.95746E-05-3.00891E-05 3.51385E-06 1.08813E-18-3.15870E-19
 -1      2473 1.00465E-04-2.98149E-05-3.02723E-05 3.72684E-06 1.35747E-18 8.98392E-19
 -1      2474 9.97824E-05-2.95258E-05-3.01167E-05 4.54157E-06 9.82626E-19 2.22933E-19
 -1      2475 9.87619E-05-2.92427E-05-2.97913E-05 2.97565E-06 1.23060E-19-1.12377E-18
 -1      2476 9.93387E-05-2.94227E-05-2.99551E-05 3.21570E-06 6.16715E-19-7.23177E-19
 -1      2477 9.87793E-05-2.91151E-05-2.98619E-05 3.96415E-06 8.88618E-19 2.69485E-19
 -1      2478 9.79163E-05-2.90081E-05-2.95297E-05 2.43568E-06-1.17101E-18-1.88670E-18
 -1      2479 9.83945E-05-2.91406E-05-2.96705E-05 2.67158E-06-3.57849E-19-1.57922E-18
 -1      2480 9.79621E-05-2.88512E-05-2.96241E-05 3.32929E-06 1.52431E-19 2.64357E-19
 -1      2481 9.72342E-05-2.88443E-05-2.93078E-05 1.93754E-06-9.80520E-19-9.07364E-19
 -1      2482 9.76204E-05-2.89403E-05-2.94248E-05 2.15211E-06-1.61164E-18-1.74432E-18
 -1      2483 9.73033E-05-2.86874E-05-2.94114E-05 2.71035E-06-9.35131E-19 4.68222E-20
 -1      2484 9.66943E-05-2.87316E-05-2.91250E-05 1.50227E-06-1.45734E-19 7.16056E-19
 -1      2485 9.69989E-05-2.88000E-05-2.92194E-05 1.68773E-06-3.93072E-19-5.75346E-19
 -1      2486 9.67783E-05-2.85900E-05-2.92276E-05 2.14809E-06-1.03020E-18-2.56688E-19
 -1      2487 9.62750E-05-2.86556E-05-2.89781E-05 1.13653E-06 7.83440E-19 3.41927E-19
 -1      2488 9.65100E-05-2.87032E-05-2.90525E-05 1.29094E-06 5.06522E-19 9.05358E-19
 -1      2489 9.63655E-05-2.85355E-05-2.90735E-05 1.66117E-06 1.07360E-20-1.19641E-19
 -1      2490 9.59558E-05-2.86058E-05-2.88629E-05 8.38449E-07 7.91219E-19 4.12035E-19
 -1      2491 9.61329E-05-2.86380E-05-2.89202E-05 9.63276E-07 1.12877E-18 7.83721E-19
 -1      2492 9.60458E-05-2.85083E-05-2.89477E-05 1.25425E-06 8.51393E-19-1.16892E-19
 -1      2493 9.57178E-05-2.85744E-05-2.87746E-05 6.01636E-07 3.84324E-19-5.67908E-19
 -1      2494 9.58482E-05-2.85954E-05-2.88176E-05 7.00064E-07 5.14472E-19-3.33999E-20
 -1      2495 9.58023E-05-2.84980E-05-2.88473E-05 9.23758E-07 1.22118E-18-2.13642E-19
 -1      2496 9.55446E-05-2.85561E-05-2.87084E-05 4.17708E-07-3.33382E-19-1.90123E-18
 -1      2497 9.56380E-05-2.85689E-05-2.87399E-05 4.93605E-07 8.47446E-19-5.39358E-19
 -1      2498 9.56202E-05-2.84977E-05-2.87689E-05 6.61779E-07 5.78170E-19 1.95493E-19
 -1      2499 9.54220E-05-2.85466E-05-2.86601E-05 2.77854E-07-1.14643E-18-2.05723E-18
 -1      2500 9.54868E-05-2.85537E-05-2.86825E-05 3.35150E-07-2.13012E-18-2.61767E-18
 -1      2501 9.54871E-05-2.85031E-05-2.87091E-05 4.58608E-07-2.47506E-19 2.25089E-20
 -1      2502 9.53383E-05-2.85432E-05-2.86259E-05 1.73742E-07-1.94453E-19-1.16815E-18
 -1      2503 9.53813E-05-2.85463E-05-2.86413E-05 2.16075E-07-6.07761E-19-2.05865E-18
 -1      2504 9.53921E-05-2.85113E-05-2.86646E-05 3.04295E-07-9.62627E-19-1.91738E-18
 -1      2505 9.52838E-05-2.85437E-05-2.86024E-05 9.79908E-08 2.55794E-19-1.22402E-18
 -1      2506 9.53106E-05-2.85441E-05-2.86125E-05 1.28532E-07 3.17622E-19-4.28202E-19
 -1      2507 9.53266E-05-2.85207E-05-2.86321E-05 1.89545E-07-2.68306E-19-9.93891E-19
 -1      2508 9.52508E-05-2.85468E-05-2.85871E-05 4.43902E-08 1.03912E-18-2.12086E-19
 -1      2509 9.52659E-05-2.85454E-05-2.85933E-05 6.57657E-08 5.78067E-19-9.40835E-19
 -1      2510 9.52832E-05-2.85304E-05-2.86092E-05 1.06192E-07 3.97776E-19-1.58981E-18
 -1      2511 9.52333E-05-2.85515E-05-2.85776E-05 7.96745E-09 1.32961E-18 2.19917E-19
 -1      2512 9.52401E-05-2.85490E-05-2.85810E-05 2.22393E-08 1.80423E-18 5.01387E-19
 -1      2513 9.52563E-05-2.85397E-05-2.85934E-05 4.74099E-08 9.47801E-19-1.70516E-20
 -1      2514 9.52263E-05-2.85573E-05-2.85723E-05-1.50136E-08 1.31244E-18 4.66983E-19
 -1      2515 9.52276E-05-2.85540E-05-2.85738E-05-6.35095E-09 1.01291E-18 5.58959E-19
 -1      2516 9.52412E-05-2.85487E-05-2.85829E-05 7.76093E-09 1.34182E-18 6.09328E-19
 -1      2517 9.52262E-05-2.85641E-05-2.85694E-05-2.71762E-08 1.73547E-18-5.52096E-19
 -1      2518 9.52241E-05-2.85602E-05-2.85699E-05-2.31959E-08 1.89282E-18 7.80201E-20
 -1      2519 9.52343E-05-2.85574E-05-2.85761E-05-1.68161E-08 1.36423E-18 2.20035E-19
 -1      2520 9.52302E-05-2.85717E-05-2.85680E-05-2.99015E-08 3.57191E-19 7.91814E-19
 -1      2521 9.52264E-05-2.85673E-05-2.85679E-05-3.00199E-08 5.48725E-20 4.92741E-19
 -1      2522 9.52334E-05-2.85668E-05-2.85716E-05-2.94233E-08 6.81002E-19 1.08347E-18
 -1      2523 9.52320E-05-2.85758E-05-2.85669E-05-2.79916E-08 9.08803E-19 1.36090E-18
 -1      2524 9.52453E-05-2.85765E-05-2.85725E-05-1.21175E-08-3.95421E-19 1.56763E-18
 -1      2525 9.52457E-05-2.85763E-05-2.85725E-05-1.52846E-08-4.96720E-19-5.93651E-20
 -1      2526 9.52431E-05-2.85733E-05-2.85729E-05-6.64089E-09 8.64377E-19 2.60367E-18
 -1      2527 9.52438E-05-2.85735E-05-2.85729E-05-9.22549E-09-2.15710E-19 2.50827E-18
 -1      2528 9.52414E-05-2.85582E-05-2.85784E-05-9.13156E-09 1.03640E-18 2.66683E-18
 -1      2529 9.52457E-05-2.85806E-05-2.85708E-05-2.59923E-08-1.27947E-18-1.93986E-18
 -1      2530 9.52431E-05-2.85784E-05-2.85706E-05-2.82406E-08-1.06771E-18-1.17135E-18
 -1      2531 9.52467E-05-2.85793E-05-2.85718E-05-1.89994E-08-1.65888E-18-7.86579E-19
 -1      2532 9.52460E-05-2.85784E-05-2.85717E-05-2.21494E-08-1.87641E-18-1.12161E-18
 -1      2533 9.52449E-05-2.85696E-05-2.85751E-05-2.31172E-08-8.22937E-19-1.81389E-18
 -1      2534 9.52443E-05-2.85643E-05-2.85771E-05-1.56250E-08-1.64578E-19 4.14693E-19
 -1      2535 9.52414E-05-2.85710E-05-2.85731E-05-2.69708E-09-5.51118E-19 1.81627E-18
 -1      2536 9.52419E-05-2.85712E-05-2.85731E-05-4.70276E-09-3.03415E-19 1.30293E-18
 -1      2537 9.52383E-05-2.85530E-05-2.85793E-05-4.54126E-09 3.41225E-19 1.10129E-18
 -1      2538 9.52411E-05-2.85704E-05-2.85732E-05 4.62865E-10-1.55725E-18 1.57409E-18
 -1      2539 9.52410E-05-2.85703E-05-2.85732E-05-1.34200E-09-1.54061E-18 2.15885E-18
 -1      2540 9.52364E-05-2.85501E-05-2.85797E-05-1.65258E-09-7.87281E-19 1.24803E-18
 -1      2541 9.52422E-05-2.85716E-05-2.85731E-05 3.97111E-09-1.35232E-18 1.83090E-20
 -1      2542 9.52417E-05-2.85712E-05-2.85731E-05 1.87260E-09-1.88378E-18 9.26259E-19
 -1      2543 9.52365E-05-2.85503E-05-2.85797E-05 6.53226E-10-4.98740E-19 1.39669E-18
 -1      2544 9.52443E-05-2.85740E-05-2.85729E-05 8.70976E-09 6.71837E-19-2.09947E-18
 -1      2545 9.52436E-05-2.85738E-05-2.85728E-05 6.02618E-09-3.91812E-19-6.08319E-19
 -1      2546 9.52387E-05-2.85534E-05-2.85793E-05 3.72679E-09-6.99732E-19-6.27226E-20
 -1      2547 9.52463E-05-2.85770E-05-2.85724E-05 1.51687E-08 1.23428E-18-5.37577E-19
 -1      2548 9.52459E-05-2.85771E-05-2.85724E-05 1.18030E-08 1.24520E-18-2.83330E-18
 -1      2549 9.52421E-05-2.85588E-05-2.85784E-05 8.65268E-09 1.43768E-18-2.36627E-18
 -1      2550 9.52466E-05-2.85792E-05-2.85717E-05 2.25513E-08 2.05530E-18 1.43889E-18
 -1      2551 9.52473E-05-2.85800E-05-2.85717E-05 1.90563E-08 1.52704E-18 1.94962E-18
 -1      2552 9.52449E-05-2.85650E-05-2.85771E-05 1.57506E-08 1.79965E-18 1.87090E-19
 -1      2553 9.52435E-05-2.85791E-05-2.85705E-05 2.87607E-08 8.79694E-19 3.59110E-19
 -1      2554 9.52460E-05-2.85811E-05-2.85707E-05 2.64228E-08 1.47292E-18 7.40123E-20
 -1      2555 9.52454E-05-2.85703E-05-2.85751E-05 2.36290E-08 1.73779E-18 4.53663E-19
 -1      2556 3.00541E-05-2.06838E-05-3.62497E-06 2.49872E-05 8.51692E-19 4.05199E-18
 -1      2557 2.27238E-05-1.58849E-05-2.50198E-06 9.80865E-06 4.85535E-19 3.31402E-18
 -1      2558 9.08724E-05-5.00496E-05-1.76043E-05 4.20657E-05-1.29003E-18 1.75466E-18
 -1      2559 7.13001E-05-4.39441E-05-1.15586E-05 4.19771E-05-9.06537E-19 2.49224E-18
 -1      2560 9.62995E-05-2.79446E-05-2.92733E-05-1.95902E-06 7.30622E-19 2.64530E-19
 -1      2561 9.61648E-05-2.77117E-05-2.92917E-05-1.21883E-06 8.27119E-19 3.66552E-19
 -1      2562 9.65778E-05-2.77009E-05-2.95376E-05-2.50569E-06 6.65519E-19-3.40145E-19
 -1      2563 9.52372E-05-2.85797E-05-2.85674E-05 3.05921E-08 1.94754E-19 1.81923E-18
 -1      2564 2.20276E-05-1.58728E-05-2.19027E-06-7.17742E-06 5.96364E-19 4.81983E-18
 -1      2565 2.81856E-05-2.02162E-05-2.96182E-06-2.12662E-05 3.33307E-19 6.74005E-18
 -1      2566 1.24045E-04-5.74856E-05-2.88255E-05 2.83502E-05-5.95252E-19 7.17543E-19
 -1      2567 1.11226E-04-5.61480E-05-2.34016E-05 3.34196E-05-1.55219E-18 1.16562E-18
 -1      2568 9.58747E-05-2.01206E-05-3.25100E-05-1.02102E-05-1.86218E-18-6.03551E-19
 -1      2569 9.64835E-05-2.34399E-05-3.13175E-05-6.28333E-06-1.76786E-18-5.16206E-19
 -1      2570 9.58787E-05-2.24697E-05-3.14593E-05-5.65809E-06-1.61571E-18-9.08665E-19
 -1      2571 9.38858E-05-1.76814E-05-3.26935E-05-9.65421E-06-1.78161E-18-1.17298E-18
 -1      2572 1.38367E-04-5.48826E-05-3.58446E-05-1.45614E-05-1.27118E-18 4.01705E-19
 -1      2573 1.47802E-04-4.98983E-05-4.21713E-05-8.55699E-06-2.80209E-18-4.05305E-19
 -1      2574 1.49485E-04-4.77517E-05-4.39112E-05 6.92413E-06-2.48470E-18 1.68348E-19
 -1      2575 1.40808E-04-5.32806E-05-3.75917E-05 1.38397E-05-1.88952E-18 5.69630E-20
 -1      2576 1.44514E-04-2.39989E-05-5.19537E-05 6.46645E-06 2.43374E-18 3.23567E-19
 -1      2577 1.42649E-04-1.59097E-05-5.49158E-05 6.06028E-06 3.12047E-18 3.92812E-19
 -1      2578 8.62471E-05-9.17913E-06-3.30637E-05-1.15933E-06 9.96493E-20-2.56832E-18
 -1      2579 8.64501E-05-9.35592E-06-3.30710E-05-2.03934E-06-1.26639E-19-2.60064E-18
 -1      2580 8.77025E-05-1.12926E-05-3.27434E-05-2.13033E-06-2.60144E-19-2.41540E-18
 -1      2581 8.72377E-05-1.08163E-05-3.27492E-05-7.12141E-07 1.70069E-19-2.36388E-18
 -1      2582 1.41534E-04-9.91449E-06-5.69295E-05 7.44831E-07 4.05729E-18 4.35693E-20
 -1      2583 1.47436E-04-1.15959E-05-5.83461E-05-1.66003E-06 4.08778E-18 5.46548E-19
 -1      2584 1.05131E-04-5.48123E-05-2.15158E-05-3.67238E-05-3.10861E-19-5.37548E-19
 -1      2585 1.20546E-04-5.63964E-05-2.76774E-05-3.24088E-05 6.54968E-19 1.76183E-19
 -1      2586 1.48396E-04-1.47994E-05-5.76165E-05-3.59454E-06 3.81758E-18 6.39086E-19
 -1      2587 1.47362E-04-1.93630E-05-5.52044E-05-4.63397E-06 4.04501E-18 5.48030E-19
 -1      2588 1.35869E-04-1.08713E-05-5.37753E-05-4.84069E-06 4.26883E-18 6.11664E-19
 -1      2589 1.46014E-04-4.20632E-05-4.46095E-05-1.57637E-06 2.30176E-18 7.00920E-19
 -1      2590 1.46539E-04-3.51551E-05-4.83453E-05 2.73343E-06 2.32616E-18 6.02664E-19
 -1      2591 1.08941E-04-5.64234E-05-2.23952E-05-3.37874E-05-2.02653E-19 2.41606E-18
 -1      2592 1.26598E-04-5.82352E-05-2.95634E-05-2.76277E-05-1.09352E-18 1.89375E-18
 -1      2593 1.32367E-04-5.46096E-05-3.33400E-05-2.11872E-05 1.20670E-18 3.13614E-19
 -1      2594 1.42966E-04-5.01430E-05-4.01554E-05-1.21385E-05 1.75876E-18 5.09067E-19
 -1      2595 6.70202E-05-4.16039E-05-1.06193E-05-4.22956E-05-1.49840E-18-1.80916E-18
 -1      2596 8.70348E-05-4.93744E-05-1.60977E-05-4.35402E-05-8.06799E-19-1.06006E-18
 -1      2597 3.09871E-05-2.50924E-05-2.24986E-06-2.66878E-05-1.56352E-18-4.59431E-18
 -1      2598 4.44501E-05-2.94367E-05-6.21346E-06-3.60191E-05-1.56320E-18-3.05546E-18
 -1      2599 1.89693E-05-1.75144E-05-2.45496E-07-3.89148E-07-9.50781E-19-4.96192E-18
 -1      2600 2.17943E-05-1.98807E-05-6.46152E-07-1.55759E-05-1.06239E-18-4.99665E-18
 -1      2601 3.27426E-05-1.85717E-05-5.48557E-06-1.96773E-05-1.62715E-18-4.46556E-18
 -1      2602 2.90856E-05-2.40145E-05-2.01801E-06 2.57064E-05-6.05205E-19-5.25287E-18
 -1      2603 2.13022E-05-1.98895E-05-3.78811E-07 1.29552E-05-4.95091E-19-5.15250E-18
 -1      2604 6.30069E-05-4.04046E-05-9.72153E-06 4.21664E-05-6.33369E-19-3.65537E-18
 -1      2605 4.40356E-05-3.24340E-05-4.79677E-06 3.47373E-05 1.48231E-19-4.42215E-18
 -1      2606 1.01573E-04-5.43109E-05-2.03418E-05 3.96386E-05-1.41264E-18-1.76818E-18
 -1      2607 8.46467E-05-4.98295E-05-1.48002E-05 4.07697E-05-9.06537E-19-2.22344E-18
 -1      2608 1.30756E-04-5.71642E-05-3.17873E-05 2.60592E-05-1.90942E-18-2.13241E-19
 -1      2609 1.16234E-04-5.70025E-05-2.54321E-05 3.16257E-05-1.61148E-18-1.15154E-18
 -1      2610 1.50898E-04-3.11650E-05-5.17741E-05-5.21702E-06-4.03230E-18 1.50899E-18
 -1      2611 1.50528E-04-3.87495E-05-4.80513E-05-1.34599E-06-3.27346E-18 9.56300E-19
 -1      2612 1.45918E-04-1.30596E-05-5.73253E-05 4.14968E-06-5.05001E-18 5.83288E-19
 -1      2613 1.46027E-04-1.22038E-05-5.77909E-05-3.43350E-07-4.96022E-18 4.25237E-20
 -1      2614 1.50714E-04-2.65984E-05-5.33598E-05 6.98555E-06-5.39073E-18-7.34801E-20
 -1      2615 1.48005E-04-1.88139E-05-5.59664E-05 7.14182E-06-5.26473E-18 2.32828E-19
 -1      2616 1.49711E-04-4.36330E-05-4.57160E-05-1.66870E-06-3.43625E-18-1.77877E-19
 -1      2617 1.51435E-04-3.68048E-05-4.96423E-05 2.99064E-06-4.20033E-18-4.08482E-19
 -1      2618 1.45884E-04-4.91412E-05-4.14059E-05 1.52481E-06-1.63094E-18-1.79317E-18
 -1      2619 7.24571E-05-4.49285E-05-1.16407E-05-4.07348E-05 9.24960E-19 4.71305E-18
 -1      2620 8.90596E-05-5.05510E-05-1.66489E-05-4.16953E-05 4.61633E-19 4.47263E-18
 -1      2621 3.74919E-05-2.72830E-05-4.07622E-06-3.04082E-05 4.37493E-19 5.68994E-18
 -1      2622 5.35591E-05-3.53804E-05-7.66116E-06-3.91960E-05 1.40607E-19 4.15576E-18
 -1      2623 4.04378E-05-2.19934E-05-7.36937E-06-2.56286E-05 1.23900E-18 5.33694E-18
 -1      2624 1.49944E-04-2.82110E-05-5.24992E-05-3.23122E-06 3.85358E-18 1.66654E-19
 -1      2625 1.45880E-04-3.56055E-05-4.74577E-05-1.39291E-06 3.49348E-18-6.37392E-19
 -1      2626 1.40417E-04-2.24778E-05-5.07204E-05-8.95430E-06 3.53784E-18-3.36907E-19
 -1      2627 9.74583E-05-2.53545E-05-3.09193E-05 6.26749E-06 1.74310E-18 1.25764E-18
 -1      2628 9.83676E-05-2.40218E-05-3.18810E-05 9.42614E-06 1.96173E-18 1.54139E-18
 -1      2629 9.67777E-05-2.15248E-05-3.23070E-05 1.05027E-05 2.14134E-18 7.90070E-19
 -1      2630 9.69378E-05-2.43159E-05-3.11587E-05 6.05876E-06 1.78989E-18 4.06143E-19
 -1      2631 5.59795E-05-3.61357E-05-8.31976E-06 4.12982E-05 3.21873E-20 2.62178E-18
 -1      2632 4.18083E-05-2.87173E-05-5.26005E-06 3.43903E-05 8.15269E-20 2.85789E-18
 -1      2633 7.05810E-05-3.95462E-05-1.28515E-05 4.06429E-05-1.75802E-18 1.41836E-18
 -1      2634 1.40061E-04-2.94110E-05-4.76156E-05 8.92057E-06 2.23892E-18 7.72706E-19
 -1      2635 9.01713E-05-1.39607E-05-3.26532E-05-5.15031E-06-9.91212E-19-2.29396E-18
 -1      2636 8.93645E-05-1.24193E-05-3.30321E-05-6.38823E-06-1.09358E-18-2.40233E-18
 -1      2637 9.03042E-05-1.33861E-05-3.30214E-05-7.47997E-06-1.31614E-18-2.18063E-18
 -1      2638 9.64866E-05-2.70673E-05-2.97688E-05-4.93025E-07 1.09899E-18-2.23210E-19
 -1      2639 9.50306E-05-1.92018E-05-3.25427E-05 1.01015E-05 2.11636E-18-3.98105E-20
 -1      2640 9.13293E-05-1.46285E-05-3.29297E-05-8.12393E-06-1.45671E-18-1.96857E-18
 -1      2641 9.26089E-05-1.60832E-05-3.28719E-05-9.15203E-06-1.68310E-18-1.62092E-18
 -1      2642 9.41556E-05-1.89466E-05-3.22122E-05-7.35682E-06-1.68282E-18-1.39444E-18
 -1      2643 9.20496E-05-1.61684E-05-3.25023E-05-6.47938E-06-1.30243E-18-1.94020E-18
 -1      2644 1.34885E-04-5.90652E-05-3.23880E-05-1.57751E-05 1.34572E-19-6.64497E-19
 -1      2645 1.31947E-04-5.77386E-05-3.16424E-05 1.58114E-05-9.79223E-19-4.57821E-19
 -1      2646 1.45087E-04-3.22022E-05-4.83503E-05 1.07219E-05-3.91837E-18-1.10601E-18
 -1      2647 1.38880E-04-1.54723E-05-5.31035E-05 7.86146E-06-4.97568E-18-3.10332E-19
 -1      2648 1.41637E-04-4.37162E-05-4.21851E-05-3.22498E-06 1.72609E-18-1.41793E-18
 -1      2649 1.46734E-04-2.65139E-05-5.18420E-05-8.54653E-06-3.97597E-18 1.41200E-18
 -1      2650 1.40198E-04-3.00327E-05-4.72485E-05-1.29905E-05-2.90998E-18 2.23828E-18
 -1      2651 1.36277E-04-1.97129E-05-5.09787E-05-1.11431E-05-3.95289E-18 1.19008E-18
 -1      2652 9.52357E-05-2.85761E-05-2.85685E-05-3.08809E-08 2.50612E-20 1.32954E-18
 -1      2653 1.04066E-04-5.41021E-05-2.11571E-05 3.58686E-05-1.74362E-18 1.26655E-18
 -1      2654 9.52393E-05-2.85781E-05-2.85690E-05-3.06722E-08-5.43749E-19 1.13445E-18
 -1      2655 1.38005E-04-5.80270E-05-3.41775E-05 1.44908E-05-1.25086E-18 5.27913E-19
 -1      2656 3.06149E-05-1.41782E-05-6.41843E-06 1.78988E-06 6.61811E-19 4.95345E-18
 -1      2657 4.41106E-05-2.32425E-05-8.36334E-06 2.88842E-05-4.83444E-19 2.82443E-18
 -1      2658 1.14587E-04-5.84132E-05-2.38557E-05 3.21629E-05-5.01444E-19-4.69786E-19
 -1      2659 7.97771E-05-4.56900E-05-1.42433E-05 4.04258E-05 3.04508E-19-2.60187E-18
 -1      2660 9.54099E-05-2.05689E-05-3.20318E-05 7.99898E-06 1.97026E-18-2.16622E-19
 -1      2661 2.72033E-05-1.59697E-05-4.23141E-06 6.36426E-06-6.88969E-19-4.93164E-18
 -1      2662 9.52396E-05-2.85716E-05-2.85720E-05-2.99736E-08-6.30175E-20 1.75654E-19
 -1      2663 1.46295E-04-4.50106E-05-4.34067E-05-3.28799E-06-2.26518E-18 1.72985E-18
 -1      2664 5.98405E-05-3.55676E-05-9.96399E-06-3.97706E-05-1.88571E-18-2.08836E-18
 -1      2665 7.49316E-05-4.06439E-05-1.44950E-05-4.00293E-05-2.34522E-18-9.89229E-19
 -1      2666 5.44715E-05-2.86353E-05-1.05084E-05-3.53189E-05-1.98110E-18-2.45735E-18
 -1      2667 1.39596E-04-1.22821E-05-5.48685E-05-2.63135E-06-5.15928E-18 1.10908E-20
 -1      2668 1.29865E-04-5.83443E-05-3.04692E-05-2.15585E-05-3.54589E-19 8.82397E-19
 -1      2669 1.29554E-04-1.47421E-05-4.96581E-05 8.22833E-06 2.77700E-18 4.55174E-19
 -1      2670 1.36599E-04-1.22431E-05-5.37496E-05 4.84902E-06 3.34387E-18 2.87885E-19
 -1      2671 1.27980E-04-9.02223E-06-5.15440E-05 2.73773E-06 3.78793E-18 2.53911E-19
 -1      2672 1.05321E-04-5.54676E-05-2.10903E-05-3.50004E-05 1.28813E-18 2.37193E-18
 -1      2673 1.01739E-04-5.41887E-05-2.01835E-05-3.79308E-05-1.43699E-18-3.82515E-19
 -1      2674 1.41814E-04-4.85473E-05-4.00301E-05-2.92953E-06 1.48161E-18 1.18690E-18
 -1      2675 4.41287E-05-2.67480E-05-6.92631E-06 3.07782E-05 4.50198E-19-4.32834E-18
 -1      2676 6.79313E-05-3.91405E-05-1.19133E-05-3.90973E-05 1.26631E-18 4.11298E-18
 -1      2677 9.52345E-05-2.85730E-05-2.85692E-05 3.10967E-08-1.45812E-19 1.72035E-18
 -1      2678 9.52410E-05-2.85784E-05-2.85697E-05 3.15287E-08-1.27719E-19 1.98618E-18
 -1      2679 9.52416E-05-2.85712E-05-2.85729E-05 2.95855E-08 2.12224E-19 5.23822E-19
 -1      2680 9.52325E-05-2.85689E-05-2.85699E-05 3.14853E-08-9.71550E-19 1.19515E-18
 -1      2681 9.52383E-05-2.85672E-05-2.85736E-05 2.90983E-08-1.06608E-18 1.58515E-18
 -1      2682 8.88188E-05-1.32360E-05-3.24117E-05 2.05680E-06 9.96376E-19-2.24686E-18
 -1      2683 8.84287E-05-1.28312E-05-3.24223E-05 1.37538E-06 8.01762E-19-2.17797E-18
 -1      2684 8.81374E-05-1.25000E-05-3.24345E-05 8.66846E-07 6.83930E-19-2.10634E-18
 -1      2685 8.79886E-05-1.23489E-05-3.24379E-05 2.03604E-07 4.90952E-19-2.11604E-18
 -1      2686 8.91392E-05-1.41566E-05-3.21176E-05 8.36703E-07 6.99820E-19-1.94677E-18
 -1      2687 9.16449E-05-1.65152E-05-3.22307E-05 4.57906E-06 1.68247E-18-1.51290E-18
 -1      2688 9.07785E-05-1.54936E-05-3.22924E-05 3.85529E-06 1.54534E-18-1.77064E-18
 -1      2689 9.37647E-05-1.92544E-05-3.19701E-05 5.61786E-06 1.80562E-18-1.10777E-18
 -1      2690 9.26431E-05-1.77748E-05-3.21087E-05 5.05306E-06 1.68693E-18-1.30302E-18
 -1      2691 9.30312E-05-1.88153E-05-3.17837E-05 3.61192E-06 1.61781E-18-1.35559E-18
 -1      2692 9.63304E-05-2.52779E-05-3.04552E-05 1.76530E-06 1.33962E-18-4.85000E-19
 -1      2693 9.64828E-05-2.44476E-05-3.08396E-05 3.59687E-06 1.45918E-18-4.14197E-19
 -1      2694 3.36355E-05-1.51302E-05-7.40014E-06 1.42984E-05-1.98312E-19-4.54285E-18
 -1      2695 3.09581E-05-1.28634E-05-7.26795E-06 2.83273E-07-7.31261E-19-4.39864E-18
 -1      2696 8.12624E-05-4.28195E-05-1.63873E-05 3.98933E-05-1.74690E-18 1.05233E-18
 -1      2697 6.75143E-05-3.46434E-05-1.36648E-05 3.76169E-05-1.59009E-18 1.46823E-18
 -1      2698 4.14584E-05-1.77660E-05-9.76157E-06-2.11520E-05 1.08177E-18 5.74225E-18
 -1      2699 5.13018E-05-2.49889E-05-1.07858E-05-3.09701E-05 1.21877E-18 4.84386E-18
 -1      2700 1.41207E-04-5.18435E-05-3.83914E-05 2.76784E-06-4.64333E-19-2.22928E-18
 -1      2701 1.41430E-04-4.62535E-05-4.15438E-05 7.64646E-06-1.57506E-18-2.01604E-18
 -1      2702 9.61174E-05-2.52356E-05-3.03558E-05 2.59712E-07-9.51141E-19-1.05188E-18
 -1      2703 9.61257E-05-2.57470E-05-3.01641E-05 1.60565E-06-8.70355E-19-1.05645E-18
 -1      2704 9.61614E-05-2.61461E-05-2.99884E-05 2.76772E-06-8.23544E-19-8.83691E-19
 -1      2705 9.62588E-05-2.64566E-05-2.99105E-05 3.81050E-06-7.92397E-19-9.31417E-19
 -1      2706 9.56698E-05-2.50726E-05-3.02616E-05 2.08688E-06-8.73001E-19-1.12814E-18
 -1      2707 9.62465E-05-2.66576E-05-2.98136E-05 4.77654E-06-6.75381E-19-8.37243E-19
 -1      2708 9.64644E-05-2.68779E-05-2.98136E-05 5.63814E-06-5.07279E-19-7.66875E-19
 -1      2709 9.57040E-05-2.58057E-05-2.99638E-05 4.29320E-06-6.86985E-19-9.63706E-19
 -1      2710 9.64692E-05-2.69979E-05-2.97686E-05 6.48490E-06-4.38307E-19-7.14627E-19
 -1      2711 9.68192E-05-2.72136E-05-2.98192E-05 7.23221E-06-4.63421E-19-7.26346E-19
 -1      2712 9.57093E-05-2.62121E-05-2.97913E-05 6.17453E-06-4.87614E-19-9.50726E-19
 -1      2713 9.68875E-05-2.73452E-05-2.98015E-05 8.00579E-06-2.91125E-19-7.56679E-19
 -1      2714 9.73913E-05-2.76421E-05-2.98795E-05 8.65875E-06-7.17368E-20-6.23475E-19
 -1      2715 9.57904E-05-2.65236E-05-2.96925E-05 7.84988E-06-3.56494E-19-9.06487E-19
 -1      2716 9.75895E-05-2.78911E-05-2.98671E-05 9.37301E-06-9.96931E-21-2.81433E-19
 -1      2717 9.82956E-05-2.83777E-05-2.99520E-05 9.90208E-06-1.50610E-19-2.36926E-19
 -1      2718 9.60544E-05-2.69621E-05-2.96202E-05 9.38895E-06 2.30570E-20-7.10452E-19
 -1      2719 9.87387E-05-2.88846E-05-2.99270E-05 1.05296E-05-5.20519E-20-4.89364E-20
 -1      2720 9.97362E-05-2.97044E-05-3.00028E-05 1.08467E-05 1.50461E-19 1.09367E-19
 -1      2721 9.66754E-05-2.78026E-05-2.95333E-05 1.07954E-05 1.21444E-19 2.36436E-19
 -1      2722 1.00615E-04-3.06539E-05-2.99580E-05 1.12998E-05 1.10813E-19 3.52977E-19
 -1      2723 1.02035E-04-3.19737E-05-3.00208E-05 1.12440E-05 1.88710E-19 3.74730E-19
 -1      2724 9.79498E-05-2.94095E-05-2.94059E-05 1.19852E-05 2.43070E-19 6.24834E-19
 -1      2725 1.03631E-04-3.35693E-05-2.99747E-05 1.13335E-05 1.31397E-19 4.78189E-19
 -1      2726 1.05608E-04-3.55097E-05-3.00486E-05 1.06585E-05 2.55776E-19 4.23803E-19
 -1      2727 1.00344E-04-3.22292E-05-2.92484E-05 1.27332E-05 1.03828E-19 3.56075E-19
 -1      2728 1.08237E-04-3.78511E-05-3.00762E-05 1.00215E-05 2.61246E-19 5.15994E-19
 -1      2729 1.10816E-04-4.03063E-05-3.02433E-05 8.41165E-06 5.02479E-19 4.03684E-19
 -1      2730 1.04479E-04-3.66615E-05-2.91554E-05 1.25496E-05 3.45478E-19 3.62394E-19
 -1      2731 1.14585E-04-4.30932E-05-3.05226E-05 6.53854E-06 8.50563E-19 5.82384E-19
 -1      2732 1.17407E-04-4.53272E-05-3.09409E-05 3.83621E-06 4.09686E-19 9.20212E-19
 -1      2733 1.10715E-04-4.25334E-05-2.93966E-05 1.04737E-05 6.92119E-19 1.08755E-18
 -1      2734 1.22049E-04-4.75843E-05-3.17868E-05-3.11338E-07-1.42459E-19 1.40890E-18
 -1      2735 1.23687E-04-4.77212E-05-3.26950E-05-4.07709E-06-3.23810E-19 1.73974E-18
 -1      2736 1.19914E-04-4.89375E-05-3.06166E-05 5.26074E-06 4.47630E-19 1.52524E-18
 -1      2737 1.27357E-04-4.72179E-05-3.45070E-05-9.16794E-06-4.82094E-19 2.02388E-18
 -1      2738 1.26524E-04-4.29388E-05-3.58635E-05-1.26326E-05-5.60630E-19 1.95902E-18
 -1      2739 1.27509E-04-5.03697E-05-3.32929E-05-3.27614E-06-1.86983E-19 2.34123E-18
 -1      2740 1.27375E-04-3.27674E-05-4.09321E-05-1.55705E-05-1.49898E-18 1.62906E-18
 -1      2741 1.24492E-04-2.49264E-05-4.30174E-05-1.42500E-05-1.87374E-18 1.17174E-18
 -1      2742 1.22525E-04-1.93258E-05-4.45689E-05-8.55484E-06-2.95106E-18 5.73215E-19
 -1      2743 1.16920E-04-1.55892E-05-4.37056E-05 1.93650E-06-3.47029E-18-6.26354E-19
 -1      2744 1.18234E-04-1.87912E-05-4.32428E-05 8.70079E-06-2.79796E-18-1.44152E-18
 -1      2745 1.22111E-04-2.47794E-05-4.19302E-05 1.41557E-05-2.01139E-18-2.47860E-18
 -1      2746 1.24636E-04-3.20975E-05-4.03455E-05 1.63329E-05-1.85622E-18-2.34641E-18
 -1      2747 1.29719E-04-4.04764E-05-3.83843E-05 1.40109E-05-8.37133E-19-2.78669E-18
 -1      2748 1.30674E-04-4.63830E-05-3.63352E-05 1.11684E-05 2.93020E-20-2.57321E-18
 -1      2749 1.19660E-04-4.65118E-05-3.14110E-05-1.04129E-06 1.30449E-18-7.04579E-19
 -1      2750 1.17051E-04-4.46363E-05-3.09103E-05-4.16776E-06 9.73222E-19-5.30137E-19
 -1      2751 1.12881E-04-4.17961E-05-3.05104E-05-6.55116E-06 6.42693E-19-5.63093E-19
 -1      2752 1.10236E-04-3.93054E-05-3.03011E-05-8.46513E-06 4.93671E-19-6.79339E-19
 -1      2753 1.13340E-04-4.43910E-05-2.96875E-05-8.72255E-06 9.06530E-19 8.69863E-20
 -1      2754 1.07228E-04-3.67346E-05-3.02280E-05-9.35316E-06 6.23618E-19-3.05230E-19
 -1      2755 1.05107E-04-3.46184E-05-3.01490E-05-1.02200E-05 4.48851E-19-1.24673E-20
 -1      2756 1.06204E-04-3.81349E-05-2.92788E-05-1.13849E-05 8.73970E-19 4.41751E-19
 -1      2757 1.03226E-04-3.27937E-05-3.01848E-05-1.02418E-05 5.38787E-19 5.71386E-19
 -1      2758 1.01692E-04-3.13105E-05-3.01321E-05-1.04005E-05 1.10649E-18 8.99054E-19
 -1      2759 1.01419E-04-3.31797E-05-2.93128E-05-1.18622E-05 1.17345E-18 1.44897E-18
 -1      2760 1.00624E-04-3.01953E-05-3.01751E-05-9.98412E-06 6.62278E-19 1.14212E-18
 -1      2761 9.95546E-05-2.92747E-05-3.01071E-05-9.71997E-06 1.66146E-19 1.18661E-18
 -1      2762 9.85647E-05-2.99199E-05-2.94559E-05-1.12253E-05 1.15260E-18 1.76424E-18
 -1      2763 9.89922E-05-2.86821E-05-3.01212E-05-9.11109E-06 5.86288E-20 1.00327E-18
 -1      2764 9.82414E-05-2.81650E-05-3.00304E-05-8.62693E-06 3.44602E-19 8.36125E-19
 -1      2765 9.69963E-05-2.80476E-05-2.95672E-05-1.00768E-05 2.58025E-19 1.58952E-18
 -1      2766 9.79634E-05-2.79076E-05-3.00111E-05-7.95896E-06-4.90787E-20 5.63799E-19
 -1      2767 9.74188E-05-2.76487E-05-2.99043E-05-7.38739E-06-7.84518E-19 1.16222E-18
 -1      2768 9.61900E-05-2.71264E-05-2.96059E-05-8.74049E-06-2.74282E-19 1.32481E-19
 -1      2769 9.72876E-05-2.75856E-05-2.98595E-05-6.73242E-06-3.92845E-19 1.67808E-18
 -1      2770 9.68768E-05-2.74791E-05-2.97468E-05-6.15458E-06-6.08209E-19 2.23454E-18
 -1      2771 9.57970E-05-2.67899E-05-2.95767E-05-7.38731E-06-1.63085E-19 4.16927E-19
 -1      2772 9.68153E-05-2.75176E-05-2.96868E-05-5.55080E-06-1.79354E-18 2.12355E-18
 -1      2773 9.64954E-05-2.74952E-05-2.95769E-05-5.01244E-06-1.77484E-18 1.64085E-18
 -1      2774 9.56109E-05-2.67805E-05-2.94991E-05-6.10972E-06-1.10800E-18 9.61364E-19
 -1      2775 9.64639E-05-2.75794E-05-2.95107E-05-4.47830E-06-1.76685E-18 1.85974E-18
 -1      2776 9.62102E-05-2.75998E-05-2.94095E-05-4.00190E-06-1.51304E-18 1.29653E-18
 -1      2777 9.55203E-05-2.69351E-05-2.93936E-05-4.95646E-06-1.43039E-18 2.13879E-18
 -1      2778 9.61901E-05-2.76983E-05-2.93437E-05-3.54367E-06-1.34417E-18 1.74787E-18
 -1      2779 9.59877E-05-2.77377E-05-2.92543E-05-3.13709E-06-8.40788E-19 1.52024E-18
 -1      2780 9.54697E-05-2.71569E-05-2.92770E-05-3.94946E-06-1.51864E-18 2.29555E-18
 -1      2781 9.59712E-05-2.78343E-05-2.91930E-05-2.75357E-06-7.05366E-19 1.02880E-18
 -1      2782 9.58104E-05-2.78797E-05-2.91167E-05-2.41598E-06-4.01823E-19 3.38854E-19
 -1      2783 9.54340E-05-2.73926E-05-2.91610E-05-3.09327E-06-1.30261E-18 1.71344E-18
 -1      2784 9.57951E-05-2.79666E-05-2.90621E-05-2.10163E-06 1.57584E-19 3.60827E-20
 -1      2785 9.56686E-05-2.80113E-05-2.89988E-05-1.82750E-06 1.91521E-19 2.90895E-19
 -1      2786 9.54034E-05-2.76146E-05-2.90530E-05-2.38144E-06-2.87178E-19 1.17932E-18
 -1      2787 9.56541E-05-2.80859E-05-2.89518E-05-1.57458E-06-8.11142E-20-1.27753E-19
 -1      2788 9.55559E-05-2.81267E-05-2.89004E-05-1.35621E-06 3.88866E-19 1.16069E-19
 -1      2789 9.53752E-05-2.78108E-05-2.89570E-05-1.80115E-06-5.65119E-19-2.41386E-19
 -1      2790 9.55426E-05-2.81885E-05-2.88612E-05-1.15614E-06 7.59162E-19-1.91800E-19
 -1      2791 9.54677E-05-2.82241E-05-2.88203E-05-9.85175E-07 5.22139E-19-1.00483E-19
 -1      2792 9.53491E-05-2.79775E-05-2.88745E-05-1.33646E-06 9.25117E-20-1.29452E-19
 -1      2793 9.54559E-05-2.82743E-05-2.87883E-05-8.29477E-07 5.69092E-19-1.07913E-19
 -1      2794 9.53998E-05-2.83044E-05-2.87564E-05-6.97809E-07 1.60971E-18-2.69688E-19
 -1      2795 9.53258E-05-2.81151E-05-2.88055E-05-9.70507E-07 9.97460E-19-1.05723E-18
 -1      2796 9.53897E-05-2.83444E-05-2.87307E-05-5.78570E-07 2.25446E-18-2.66179E-19
 -1      2797 9.53487E-05-2.83694E-05-2.87063E-05-4.78816E-07 1.79185E-18 1.10593E-19
 -1      2798 9.53056E-05-2.82263E-05-2.87491E-05-6.86952E-07 1.64178E-18-1.52542E-18
 -1      2799 9.53404E-05-2.84006E-05-2.86861E-05-3.88995E-07 1.72859E-18 1.32465E-19
 -1      2800 9.53111E-05-2.84210E-05-2.86678E-05-3.14708E-07 8.56966E-19-5.60679E-19
 -1      2801 9.52887E-05-2.83146E-05-2.87039E-05-4.70783E-07 1.67237E-18-5.35608E-19
 -1      2802 9.53045E-05-2.84452E-05-2.86522E-05-2.48247E-07 4.48373E-20-1.14130E-18
 -1      2803 9.52843E-05-2.84617E-05-2.86387E-05-1.93990E-07-2.54783E-19-1.34632E-18
 -1      2804 9.52751E-05-2.83837E-05-2.86684E-05-3.08772E-07-8.94726E-20-1.87964E-18
 -1      2805 9.52792E-05-2.84803E-05-2.86268E-05-1.45857E-07 2.23336E-19-2.38750E-19
 -1      2806 9.52659E-05-2.84935E-05-2.86170E-05-1.07195E-07 1.79544E-18 1.52728E-19
 -1      2807 9.52644E-05-2.84371E-05-2.86408E-05-1.89656E-07 8.94820E-19-4.79000E-19
 -1      2808 9.52620E-05-2.85077E-05-2.86080E-05-7.32768E-08 1.81917E-18 6.59781E-20
 -1      2809 9.52537E-05-2.85185E-05-2.86010E-05-4.66574E-08 9.08706E-19 4.12286E-19
 -1      2810 9.52563E-05-2.84782E-05-2.86196E-05-1.04160E-07 1.50483E-18-5.59373E-19
 -1      2811 9.52510E-05-2.85295E-05-2.85942E-05-2.37268E-08-4.38776E-19 7.55639E-19
 -1      2812 9.52465E-05-2.85385E-05-2.85893E-05-6.46711E-09-8.44907E-19-5.17162E-19
 -1      2813 9.52505E-05-2.85098E-05-2.86034E-05-4.47271E-08-1.64443E-19-1.79141E-18
 -1      2814 9.52447E-05-2.85476E-05-2.85841E-05 7.75648E-09-3.46771E-19-1.46248E-18
 -1      2815 9.52428E-05-2.85553E-05-2.85804E-05 1.74418E-08-4.35913E-19-2.38590E-18
 -1      2816 9.52466E-05-2.85351E-05-2.85909E-05-5.57053E-09-9.45803E-19-2.62915E-18
 -1      2817 9.76733E-05-2.83952E-05-2.96836E-05-5.59765E-06 8.20069E-19-6.49338E-19
 -1      2818 9.72114E-05-2.80786E-05-2.96160E-05-5.10910E-06 8.54003E-19-5.92663E-19
 -1      2819 9.52422E-05-2.85608E-05-2.85775E-05 2.30357E-08-3.05096E-19-1.60353E-18
 -1      2820 9.52419E-05-2.85658E-05-2.85754E-05 2.61884E-08-2.62760E-20-4.49641E-19
 -1      2821 9.52449E-05-2.85533E-05-2.85824E-05 1.51341E-08 1.46067E-19-2.59664E-18
 -1      2822 9.70131E-05-2.78390E-05-2.96386E-05-4.45792E-06 6.02068E-19-6.33783E-19
 -1      2823 9.67133E-05-2.75453E-05-2.96256E-05-3.79067E-06 5.39491E-19-6.14169E-19
 -1      2824 9.67394E-05-2.74880E-05-2.96925E-05-5.03908E-06 7.80014E-19-1.08340E-18
 -1      2825 9.98836E-05-3.00020E-05-2.99505E-05-6.83319E-06 1.60755E-19 1.31736E-19
 -1      2826 9.91205E-05-2.94729E-05-2.98374E-05-6.72728E-06 3.78924E-19-5.23455E-20
 -1      2827 1.01524E-04-3.12907E-05-3.01100E-05-6.73816E-06 3.10916E-19 2.79384E-20
 -1      2828 1.00617E-04-3.05844E-05-2.99977E-05-6.92396E-06 3.26553E-19 1.76662E-19
 -1      2829 9.93613E-05-3.00500E-05-2.97237E-05-7.62710E-06 1.77374E-19-7.08942E-20
 -1      2830 1.03582E-04-3.30080E-05-3.02685E-05-5.90368E-06 3.23386E-19 8.00413E-20
 -1      2831 1.02552E-04-3.21143E-05-3.01642E-05-6.49254E-06 3.98095E-19 1.29407E-19
 -1      2832 1.01123E-04-3.16698E-05-2.97905E-05-7.55394E-06 3.01189E-19 1.87509E-19
 -1      2833 1.06030E-04-3.50817E-05-3.04438E-05-4.06749E-06 2.67853E-19 2.21059E-19
 -1      2834 1.04949E-04-3.40768E-05-3.03424E-05-5.17124E-06 3.65399E-19 1.08251E-19
 -1      2835 1.03522E-04-3.38535E-05-2.98891E-05-6.67307E-06 3.38981E-19 4.01962E-20
 -1      2836 1.08652E-04-3.71486E-05-3.06946E-05-1.02500E-06 2.92513E-19 6.13206E-20
 -1      2837 1.07688E-04-3.62719E-05-3.05726E-05-2.68622E-06 3.65666E-19 4.32117E-19
 -1      2838 1.06570E-04-3.64711E-05-3.00758E-05-4.66136E-06 3.46049E-19 2.41894E-19
 -1      2839 1.10908E-04-3.84080E-05-3.11224E-05 3.14199E-06-4.93589E-19 2.52168E-20
 -1      2840 1.10356E-04-3.81119E-05-3.09393E-05 1.07434E-06-9.32778E-20 6.00037E-20
 -1      2841 1.09993E-04-3.89723E-05-3.04613E-05-1.23918E-06 8.28814E-20 9.83650E-19
 -1      2842 1.11917E-04-3.76772E-05-3.18391E-05 7.70250E-06-3.44961E-19 3.44492E-19
 -1      2843 1.12135E-04-3.85405E-05-3.15532E-05 5.72597E-06-5.47622E-19 1.04683E-19
 -1      2844 1.13028E-04-4.02308E-05-3.11986E-05 3.52541E-06-4.58435E-19 5.04815E-19
 -1      2845 1.10852E-04-3.40463E-05-3.28820E-05 1.09001E-05 4.38842E-19 5.08226E-19
 -1      2846 1.11973E-04-3.63242E-05-3.24897E-05 9.92732E-06-8.97028E-20 5.60285E-19
 -1      2847 1.14391E-04-3.86778E-05-3.24143E-05 8.67041E-06-3.34346E-19 7.25386E-19
 -1      2848 1.07859E-04-2.81742E-05-3.40801E-05 1.03874E-05 8.42268E-19 6.66698E-19
 -1      2849 1.09465E-04-3.11912E-05-3.36699E-05 1.13706E-05 4.61807E-19 5.97865E-19
 -1      2850 1.13021E-04-3.34395E-05-3.40673E-05 1.19014E-05 4.40431E-19 9.86062E-19
 -1      2851 1.04837E-04-2.31061E-05-3.49849E-05 4.98530E-06 1.17116E-18 5.23470E-19
 -1      2852 1.05943E-04-2.51599E-05-3.47351E-05 8.02430E-06 1.39038E-18 6.93955E-19
 -1      2853 1.09502E-04-2.61380E-05-3.57500E-05 1.02939E-05 1.19373E-18 1.17927E-18
 -1      2854 1.04287E-04-2.23890E-05-3.51894E-05-3.11815E-06 7.74479E-19 9.66445E-20
 -1      2855 1.04177E-04-2.21123E-05-3.52039E-05 5.49404E-07 9.33688E-19 2.91584E-19
 -1      2856 1.06779E-04-2.11491E-05-3.67637E-05 3.09059E-06 1.14494E-18 4.20995E-19
 -1      2857 1.06954E-04-2.67702E-05-3.45330E-05-9.87771E-06 8.87611E-19-7.03507E-19
 -1      2858 1.05514E-04-2.41786E-05-3.48484E-05-7.45452E-06 8.84911E-19-4.50215E-19
 -1      2859 1.07076E-04-2.20600E-05-3.64364E-05-6.12676E-06 1.14354E-18-8.78466E-20
 -1      2860 1.10511E-04-3.28381E-05-3.34007E-05-1.18844E-05 1.01512E-18-1.20497E-18
 -1      2861 1.08911E-04-2.98529E-05-3.38103E-05-1.14663E-05 1.17201E-18-1.21205E-18
 -1      2862 1.10627E-04-2.79998E-05-3.53610E-05-1.19390E-05 1.22674E-18-1.29502E-18
 -1      2863 1.12453E-04-3.72158E-05-3.22937E-05-9.42756E-06 4.07734E-19-1.36891E-18
 -1      2864 1.11553E-04-3.53417E-05-3.26404E-05-1.07365E-05 4.33912E-19-1.34347E-18
 -1      2865 1.13811E-04-3.52401E-05-3.36202E-05-1.19656E-05 8.73200E-19-1.42272E-18
 -1      2866 1.12052E-04-3.85924E-05-3.14785E-05-5.00621E-06 4.15685E-19-5.49142E-19
 -1      2867 1.12033E-04-3.80995E-05-3.17155E-05-7.03134E-06 6.38162E-19-1.02832E-18
 -1      2868 1.14357E-04-3.93542E-05-3.21119E-05-7.90736E-06 4.00228E-19-1.57616E-18
 -1      2869 1.10002E-04-3.76468E-05-3.09777E-05-6.25345E-07-7.05569E-19-1.31306E-18
 -1      2870 1.10646E-04-3.81555E-05-3.11188E-05-2.55838E-06 5.39090E-20-4.67159E-19
 -1      2871 1.12428E-04-3.99608E-05-3.10548E-05-2.77602E-06-8.93223E-20-7.37891E-19
 -1      2872 1.07331E-04-3.56285E-05-3.06943E-05 2.66229E-06-9.85637E-19-1.95726E-18
 -1      2873 1.08287E-04-3.65633E-05-3.07866E-05 1.21370E-06-7.81801E-19-1.60364E-18
 -1      2874 1.09214E-04-3.82091E-05-3.04577E-05 1.54491E-06-3.73446E-19-7.26036E-19
 -1      2875 1.04755E-04-3.34887E-05-3.05132E-05 4.67517E-06-6.12169E-19-2.00062E-18
 -1      2876 1.05763E-04-3.44538E-05-3.05953E-05 3.78320E-06-8.71888E-19-2.09861E-18
 -1      2877 1.05884E-04-3.55850E-05-3.01615E-05 4.42444E-06-6.22861E-19-1.97727E-18
 -1      2878 1.02574E-04-3.16865E-05-3.03598E-05 5.61604E-06 4.06295E-19-2.13410E-18
 -1      2879 1.03503E-04-3.24957E-05-3.04512E-05 5.20023E-06 7.22344E-20-1.92915E-18
 -1      2880 1.03050E-04-3.30804E-05-3.00157E-05 5.97144E-06-2.03708E-19-1.89452E-18
 -1      2881 1.00845E-04-3.03529E-05-3.01982E-05 5.78941E-06 4.71106E-20-1.28256E-18
 -1      2882 1.01647E-04-3.09573E-05-3.03037E-05 5.71989E-06-8.38087E-20-1.46088E-18
 -1      2883 1.00871E-04-3.11010E-05-2.99223E-05 6.51341E-06-1.57111E-19-1.91854E-18
 -1      2884 9.95118E-05-2.94495E-05-3.00196E-05 5.47705E-06 4.13024E-19-1.09128E-18
 -1      2885 1.00183E-04-2.98680E-05-3.01353E-05 5.62928E-06 3.64456E-19-1.11819E-18
 -1      2886 9.92855E-05-2.97152E-05-2.98301E-05 6.38992E-06-1.09891E-19-7.44537E-19
 -1      2887 9.84906E-05-2.88806E-05-2.98296E-05 4.89652E-06 6.49440E-19-1.98493E-20
 -1      2888 9.90443E-05-2.91542E-05-2.99483E-05 5.17129E-06 5.47748E-19-7.74750E-19
 -1      2889 9.81603E-05-2.88332E-05-2.97212E-05 5.87240E-06 2.28561E-19-1.09678E-18
 -1      2890 9.77066E-05-2.85484E-05-2.96383E-05 4.20043E-06 7.48873E-19 2.50315E-19
 -1      2891 9.81590E-05-2.87180E-05-2.97532E-05 4.52700E-06 1.20727E-18 2.27749E-19
 -1      2892 9.73649E-05-2.83244E-05-2.95953E-05 5.15577E-06 6.92914E-19 4.51623E-19
 -1      2893 9.71017E-05-2.83731E-05-2.94554E-05 3.48793E-06-2.25478E-19 5.75195E-19
 -1      2894 9.74681E-05-2.84720E-05-2.95613E-05 3.82016E-06 4.41112E-19 9.04474E-19
 -1      2895 9.67977E-05-2.80690E-05-2.94598E-05 4.37115E-06 6.29961E-19 9.88919E-19
 -1      2896 9.66335E-05-2.82965E-05-2.92881E-05 2.81818E-06-7.78356E-19 2.72517E-19
 -1      2897 9.69271E-05-2.83493E-05-2.93819E-05 3.12871E-06-6.78536E-19 3.19956E-19
 -1      2898 9.63872E-05-2.79740E-05-2.93235E-05 3.60132E-06-2.55424E-19 4.49167E-19
 -1      2899 9.62710E-05-2.82785E-05-2.91406E-05 2.22227E-06-3.95227E-19 4.20671E-19
 -1      2900 9.65036E-05-2.83024E-05-2.92211E-05 2.49701E-06-7.20937E-19 5.23407E-19
 -1      2901 9.60854E-05-2.79734E-05-2.91938E-05 2.89420E-06-8.88232E-19 2.87151E-19
 -1      2902 9.59917E-05-2.82931E-05-2.90146E-05 1.71264E-06 4.96656E-19-4.26732E-19
 -1      2903 9.61733E-05-2.82996E-05-2.90816E-05 1.94628E-06 3.74857E-19 3.05723E-19
 -1      2904 9.58606E-05-2.80233E-05-2.90756E-05 2.27357E-06 1.75210E-19 7.97302E-19
 -1      2905 9.57781E-05-2.83238E-05-2.89098E-05 1.29005E-06 1.36810E-18-1.13226E-18
 -1      2906 9.59178E-05-2.83203E-05-2.89642E-05 1.48269E-06 8.66909E-19-7.24726E-19
 -1      2907 9.56919E-05-2.80960E-05-2.89718E-05 1.74727E-06 1.31848E-18-8.51969E-19
 -1      2908 9.56166E-05-2.83606E-05-2.88247E-05 9.48498E-07 6.87499E-19-8.63484E-19
 -1      2909 9.57222E-05-2.83518E-05-2.88679E-05 1.10330E-06 9.76392E-19-5.16898E-19
 -1      2910 9.55650E-05-2.81748E-05-2.88833E-05 1.31324E-06 3.85134E-19-1.08796E-18
 -1      2911 9.54964E-05-2.83977E-05-2.87571E-05 6.78596E-07 8.69833E-19-2.56264E-19
 -1      2912 9.55746E-05-2.83867E-05-2.87907E-05 8.00212E-07 5.17154E-19-3.47588E-19
 -1      2913 9.54698E-05-2.82504E-05-2.88099E-05 9.63716E-07 2.98697E-19-9.18533E-19
 -1      2914 9.54085E-05-2.84320E-05-2.87046E-05 4.69692E-07-7.97361E-19 3.79572E-19
 -1      2915 9.54652E-05-2.84206E-05-2.87301E-05 5.63253E-07 1.94715E-19 5.20670E-19
 -1      2916 9.53990E-05-2.83181E-05-2.87503E-05 6.88190E-07-2.08414E-19-2.13348E-19
 -1      2917 9.53457E-05-2.84623E-05-2.86646E-05 3.11231E-07-8.67796E-20-8.60767E-19
 -1      2918 9.53856E-05-2.84514E-05-2.86836E-05 3.81740E-07-5.09077E-19-2.30624E-19
 -1      2919 9.53470E-05-2.83759E-05-2.87030E-05 4.75315E-07-2.71256E-19 8.22341E-19
 -1      2920 9.53022E-05-2.84880E-05-2.86348E-05 1.93520E-07 2.48471E-19-1.75241E-18
 -1      2921 9.53293E-05-2.84782E-05-2.86486E-05 2.45515E-07 2.93040E-19-1.02734E-18
 -1      2922 9.53094E-05-2.84239E-05-2.86661E-05 3.14079E-07-1.32046E-19 7.25016E-20
 -1      2923 9.52731E-05-2.85095E-05-2.86131E-05 1.08135E-07 3.97589E-19-1.22584E-18
 -1      2924 9.52906E-05-2.85008E-05-2.86228E-05 1.45511E-07 4.28269E-19-1.56899E-18
 -1      2925 9.52830E-05-2.84627E-05-2.86379E-05 1.94494E-07 5.07467E-19-9.74818E-19
 -1      2926 9.52548E-05-2.85274E-05-2.85975E-05 4.80836E-08 1.28567E-18-8.66143E-19
 -1      2927 9.52653E-05-2.85197E-05-2.86042E-05 7.40324E-08 6.99082E-19-8.70976E-19
 -1      2928 9.52649E-05-2.84937E-05-2.86167E-05 1.07951E-07 1.68889E-19-9.44302E-19
 -1      2929 9.52444E-05-2.85425E-05-2.85866E-05 7.85418E-09 1.26654E-18 2.27494E-19
 -1      2930 9.52498E-05-2.85356E-05-2.85911E-05 2.48418E-08 1.38382E-18 2.39000E-19
 -1      2931 9.52531E-05-2.85184E-05-2.86010E-05 4.73406E-08 7.56899E-19-5.57261E-19
 -1      2932 9.52396E-05-2.85556E-05-2.85788E-05-1.65446E-08 6.77505E-19 2.05688E-19
 -1      2933 9.52415E-05-2.85495E-05-2.85818E-05-6.95614E-09 9.64772E-19-1.15919E-19
 -1      2934 9.52459E-05-2.85384E-05-2.85892E-05 7.04923E-09 1.13967E-18 3.39188E-19
 -1      2935 9.52393E-05-2.85661E-05-2.85742E-05-2.68844E-08-3.79810E-19 1.01529E-18
 -1      2936 9.52389E-05-2.85599E-05-2.85765E-05-2.27195E-08 1.99381E-19 3.48633E-19
 -1      2937 9.52436E-05-2.85536E-05-2.85817E-05-1.46795E-08 3.80692E-19-4.63468E-19
 -1      2938 9.52438E-05-2.85658E-05-2.85765E-05-2.42127E-08-6.32854E-19-1.38104E-18
 -1      2939 1.13104E-04-5.66701E-05-2.44857E-05 3.01007E-05-1.79656E-18 4.55492E-19
 -1      2940 9.64922E-05-4.99857E-05-1.94772E-05 3.64215E-05-2.16417E-18 7.74797E-19
 -1      2941 9.52293E-05-2.85280E-05-2.85864E-05-2.30652E-10-3.19029E-19 1.43974E-18
 -1      2942 9.52299E-05-2.85287E-05-2.85863E-05-8.93992E-10 2.10429E-19 9.58793E-19
 -1      2943 1.41926E-04-4.20842E-05-4.34052E-05-8.65395E-06-2.31822E-18 2.56164E-18
 -1      2944 1.42997E-04-5.04106E-05-3.97984E-05-3.89446E-06-1.41784E-18 2.05405E-18
 -1      2945 9.52365E-05-2.85392E-05-2.85847E-05-3.09185E-09 1.60463E-18 3.31807E-18
 -1      2946 9.52386E-05-2.85423E-05-2.85841E-05-5.60586E-09 1.37590E-18 2.43638E-18
 -1      2947 9.52303E-05-2.85290E-05-2.85863E-05-2.42371E-10-4.28752E-19 8.69905E-19
 -1      2948 9.52295E-05-2.85281E-05-2.85864E-05-9.64374E-10-6.47425E-19 1.35425E-18
 -1      2949 9.52230E-05-2.85050E-05-2.85931E-05-6.89679E-10-3.38580E-19 1.35075E-18
 -1      2950 9.52317E-05-2.85317E-05-2.85859E-05-6.26211E-10 2.73280E-19 2.34202E-19
 -1      2951 9.52334E-05-2.85338E-05-2.85855E-05-1.97687E-09 1.13156E-18 1.80432E-18
 -1      2952 9.52302E-05-2.85165E-05-2.85914E-05 1.62692E-09 6.71594E-19 2.12560E-18
 -1      2953 9.52248E-05-2.85079E-05-2.85927E-05 1.47020E-09 9.86464E-19 5.06520E-19
 -1      2954 9.52341E-05-2.85343E-05-2.85856E-05 1.10189E-09-1.24384E-19 1.25601E-19
 -1      2955 9.52322E-05-2.85321E-05-2.85859E-05-3.74255E-10-3.15636E-19 1.13065E-18
 -1      2956 9.52253E-05-2.85083E-05-2.85927E-05-2.69529E-09-2.49271E-20 7.81960E-19
 -1      2957 9.52394E-05-2.85429E-05-2.85841E-05 5.13892E-09 9.77885E-19-1.97671E-18
 -1      2958 9.52372E-05-2.85399E-05-2.85848E-05 2.42855E-09 3.45740E-19-1.42294E-18
 -1      2959 9.52310E-05-2.85172E-05-2.85914E-05-2.46887E-09 2.04247E-19 1.03217E-19
 -1      2960 9.52440E-05-2.85531E-05-2.85818E-05 1.21333E-08 1.78729E-18 1.14919E-18
 -1      2961 9.52427E-05-2.85498E-05-2.85828E-05 8.17135E-09 1.89203E-18 3.89187E-19
 -1      2962 9.52381E-05-2.85297E-05-2.85891E-05 1.38625E-09 8.98421E-19 3.04673E-19
 -1      2963 1.36320E-04-3.47869E-05-4.36977E-05 1.07373E-05 1.62715E-18 7.43166E-19
 -1      2964 1.32233E-04-2.50140E-05-4.66539E-05 1.17560E-05 2.18132E-18 5.41783E-19
 -1      2965 1.38259E-04-3.50420E-05-4.44271E-05 1.34126E-05-2.86456E-18-2.03182E-18
 -1      2966 1.34506E-04-2.61303E-05-4.73464E-05 1.40573E-05-3.68332E-18-1.75812E-18
 -1      2967 5.62308E-05-2.67669E-05-1.21901E-05 3.37107E-05-1.35695E-18 1.37505E-18
 -1      2968 4.44351E-05-1.83459E-05-1.07621E-05 2.36385E-05-7.44595E-19 2.49621E-18
 -1      2969 9.50721E-05-2.11588E-05-3.17048E-05-5.65124E-06-1.61090E-18-1.20739E-18
 -1      2970 9.56252E-05-2.28479E-05-3.11800E-05-3.78721E-06-1.43130E-18-1.12157E-18
 -1      2971 9.40164E-05-1.96057E-05-3.18988E-05-5.47201E-06-1.40862E-18-1.47131E-18
 -1      2972 3.72959E-05-1.23639E-05-1.01896E-05 9.40191E-06 1.89524E-20 4.34104E-18
 -1      2973 3.71758E-05-1.24860E-05-1.00093E-05-7.07847E-06 2.95191E-19 5.07563E-18
 -1      2974 1.26875E-04-9.70732E-06-5.09217E-05-3.41957E-06 4.09053E-18-5.79926E-19
 -1      2975 1.28921E-04-1.29175E-05-5.02617E-05-8.12244E-06 3.84574E-18-9.29725E-19
 -1      2976 1.29325E-04-5.99662E-05-2.94267E-05-1.73035E-05 1.10083E-18-9.18607E-19
 -1      2977 1.38114E-04-5.80095E-05-3.48084E-05-7.08893E-06 4.27963E-19-1.91398E-18
 -1      2978 9.66100E-05-2.72727E-05-2.97100E-05-2.95139E-06 5.80770E-19-6.01407E-19
 -1      2979 9.64803E-05-2.69305E-05-2.97804E-05-2.04697E-06 8.22484E-19-5.44370E-19
 -1      2980 9.64202E-05-2.68507E-05-2.98288E-05-3.45297E-06 6.17208E-19-9.80192E-19
 -1      2981 9.86174E-05-2.90749E-05-2.97997E-05-6.40669E-06 5.75385E-19-4.34738E-19
 -1      2982 9.80028E-05-2.86787E-05-2.97000E-05-6.08984E-06 6.36028E-19-5.62986E-19
 -1      2983 9.72810E-05-2.81188E-05-2.96543E-05-6.26080E-06 6.68164E-19-9.13353E-19
 -1      2984 9.81218E-05-2.89170E-05-2.96742E-05-7.14416E-06 1.43840E-19-4.00794E-19
 -1      2985 9.59321E-05-2.38201E-05-3.08951E-05-2.50879E-06-1.22610E-18-1.05792E-18
 -1      2986 9.59802E-05-2.46900E-05-3.05566E-05-7.66018E-07-1.07418E-18-1.07637E-18
 -1      2987 9.55363E-05-2.40245E-05-3.06602E-05-2.30870E-07-1.04100E-18-1.24265E-18
 -1      2988 9.51550E-05-2.24700E-05-3.11460E-05-2.61703E-06-1.23270E-18-1.29592E-18
 -1      2989 9.59542E-05-5.05101E-05-1.91429E-05-3.75243E-05-1.73314E-18-4.19758E-19
 -1      2990 1.11979E-04-5.69230E-05-2.37182E-05-3.26591E-05-1.30856E-18 1.58832E-19
 -1      2991 9.64220E-05-2.65179E-05-2.99560E-05-9.46785E-07 1.10172E-18-5.83409E-19
 -1      2992 9.64479E-05-2.60127E-05-3.01503E-05 3.17883E-07 1.22041E-18-4.81446E-19
 -1      2993 9.60300E-05-2.46056E-05-3.06126E-05 1.28684E-06 1.30451E-18-8.64836E-19
 -1      2994 9.62303E-05-2.59888E-05-3.01140E-05-1.39594E-06 1.03165E-18-9.30056E-19
 -1      2995 8.99972E-05-1.45573E-05-3.23546E-05 3.31599E-06 1.44205E-18-1.94442E-18
 -1      2996 8.93614E-05-1.38645E-05-3.23818E-05 2.58981E-06 1.18582E-18-2.18306E-18
 -1      2997 8.99872E-05-1.51065E-05-3.20728E-05 1.78245E-06 1.05062E-18-1.99804E-18
 -1      2998 9.13113E-05-1.66504E-05-3.19758E-05 2.74498E-06 1.43000E-18-1.67879E-18
 -1      2999 8.92028E-05-1.36743E-05-3.23954E-05-2.60044E-06-5.59616E-19-2.27767E-18
 -1      3000 8.98248E-05-1.43442E-05-3.23721E-05-3.30111E-06-7.64937E-19-2.24514E-18
 -1      3001 1.32663E-04-5.60733E-05-3.32354E-05 8.27157E-06-1.32472E-18-1.21750E-18
 -1      3002 1.26335E-04-5.84258E-05-2.87576E-05 1.84801E-05-1.80810E-18-6.75615E-19
 -1      3003 9.83882E-05-5.15995E-05-1.96079E-05-3.52219E-05 2.15104E-18 1.63776E-18
 -1      3004 1.15030E-04-5.83504E-05-2.46416E-05-2.95023E-05 1.89693E-18 1.78631E-19
 -1      3005 5.51347E-05-2.94096E-05-1.08423E-05 3.52440E-05 8.17704E-19-3.52472E-18
 -1      3006 4.15141E-05-2.07895E-05-8.36905E-06 2.51483E-05 3.35266E-19-3.84193E-18
 -1      3007 1.37615E-04-5.30537E-05-3.62579E-05-3.56496E-06 4.62877E-19 1.27764E-18
 -1      3008 1.38269E-04-4.59482E-05-4.01988E-05 4.26846E-06 1.26128E-18 1.23519E-18
 -1      3009 3.34325E-05-1.44408E-05-7.50363E-06-1.28625E-05-1.43318E-18-4.30526E-18
 -1      3010 4.08238E-05-1.93041E-05-8.82025E-06-2.47721E-05-1.79005E-18-3.70132E-18
 -1      3011 6.37681E-05-3.34238E-05-1.25581E-05-3.60416E-05 1.56362E-18 3.64828E-18
 -1      3012 8.08132E-05-4.35344E-05-1.59098E-05-3.93173E-05 1.51248E-18 3.54377E-18
 -1      3013 9.54718E-05-2.18168E-05-3.15699E-05 6.02925E-06 1.75601E-18-4.50181E-19
 -1      3014 9.28628E-05-5.00816E-05-1.84069E-05 3.89353E-05 9.52489E-19-7.26754E-19
 -1      3015 7.38663E-05-4.00132E-05-1.40042E-05 3.86988E-05 1.35303E-18-2.24739E-18
 -1      3016 1.24927E-04-5.88591E-05-2.81055E-05-2.20167E-05-7.49148E-19 4.79103E-19
 -1      3017 1.33658E-04-5.78617E-05-3.29035E-05-1.32702E-05-3.07049E-20 1.22460E-18
 -1      3018 1.33662E-04-5.52587E-05-3.36250E-05-5.47174E-06 7.45124E-21 7.89117E-19
 -1      3019 1.39600E-04-5.69486E-05-3.59518E-05 6.11411E-06-7.07246E-19 1.26282E-18
 -1      3020 1.32570E-04-6.01430E-05-3.09263E-05 1.59130E-05-5.79371E-19 1.01475E-18
 -1      3021 1.37837E-04-3.70278E-05-4.37734E-05-9.40759E-06 2.13611E-18-1.85945E-18
 -1      3022 1.36492E-04-4.73207E-05-3.83583E-05-3.47534E-06 8.27816E-19-2.14850E-18
 -1      3023 1.30359E-04-1.67109E-05-4.91840E-05 9.79471E-06-4.32072E-18-8.28451E-19
 -1      3024 1.27948E-04-1.28012E-05-5.02227E-05 4.23535E-06-4.57165E-18-5.20661E-19
 -1      3025 1.22768E-04-6.03441E-05-2.69923E-05 2.61022E-05-1.13185E-19 5.88476E-19
 -1      3026 1.10132E-04-5.67556E-05-2.25509E-05 3.20806E-05 6.71697E-19-1.82880E-19
 -1      3027 9.52441E-05-2.85656E-05-2.85766E-05 2.43666E-08 1.55566E-18-1.81414E-18
 -1      3028 1.32017E-04-1.87416E-05-4.92406E-05-1.05865E-05 3.20877E-18-1.07340E-18
 -1      3029 1.34863E-04-2.61759E-05-4.69034E-05-1.18681E-05 2.45184E-18-1.50391E-18
 -1      3030 9.05988E-05-1.52641E-05-3.23148E-05-3.81424E-06-8.64720E-19-2.24580E-18
 -1      3031 9.14647E-05-1.62749E-05-3.22561E-05-4.50361E-06-1.05881E-18-2.13196E-18
 -1      3032 9.11124E-05-1.63921E-05-3.19989E-05-2.73258E-06-7.65888E-19-2.04652E-18
 -1      3033 1.28323E-04-5.98503E-05-2.92218E-05 1.71156E-05 3.00485E-19 1.11586E-18
 -1      3034 8.88154E-05-1.37993E-05-3.21320E-05-6.88373E-08 3.38687E-19-1.90687E-18
 -1      3035 8.79640E-05-1.23193E-05-3.24393E-05-2.84768E-07 2.92091E-19-2.08814E-18
 -1      3036 8.80717E-05-1.24279E-05-3.24382E-05-9.40052E-07 5.80917E-20-2.15630E-18
 -1      3037 3.85795E-05-1.35118E-05-1.01480E-05-5.47434E-06-9.16675E-19-4.13416E-18
 -1      3038 6.78536E-05-3.06149E-05-1.55120E-05 3.28349E-05-2.10641E-18 9.91770E-19
 -1      3039 6.44447E-05-2.95767E-05-1.44286E-05-3.16817E-05 1.84955E-18 3.97407E-18
 -1      3040 1.31716E-04-3.24713E-05-4.28801E-05-1.24334E-05 1.45801E-18-2.19530E-18
 -1      3041 1.35629E-04-3.91196E-05-4.13927E-05 1.40043E-05-1.70725E-18-2.55275E-18
 -1      3042 1.25919E-04-2.10750E-05-4.52621E-05 1.23053E-05-2.90236E-18-1.95919E-18
 -1      3043 1.33130E-04-5.14608E-05-3.52456E-05 5.24619E-06 7.64659E-19-2.66154E-18
 -1      3044 1.26288E-04-4.77415E-05-3.37168E-05 7.14733E-06 4.09914E-19-2.01166E-18
 -1      3045 1.24934E-04-4.87034E-05-3.26256E-05 3.27937E-06 1.46984E-18-1.70342E-18
 -1      3046 1.22871E-04-5.84442E-05-2.74619E-05-1.99982E-05 2.03711E-18-7.56930E-19
 -1      3047 1.18849E-04-5.62756E-05-2.66751E-05 2.18973E-05-2.09672E-18-7.63283E-19
 -1      3048 9.52444E-05-2.85605E-05-2.85787E-05-1.92188E-08-1.19176E-19-1.48170E-18
 -1      3049 9.52440E-05-2.85533E-05-2.85816E-05-1.58384E-08-8.16734E-19-9.77336E-19
 -1      3050 9.52446E-05-2.85583E-05-2.85800E-05-1.56478E-08 7.98080E-21 8.60973E-20
 -1      3051 1.22630E-04-1.05318E-05-4.84774E-05-5.52723E-07 3.56474E-18-1.02879E-18
 -1      3052 1.39123E-04-5.41465E-05-3.65123E-05-1.46771E-06-7.13175E-19 2.40737E-18
 -1      3053 1.25426E-04-2.54288E-05-4.31837E-05 1.27221E-05 1.81191E-18 8.25857E-20
 -1      3054 1.27932E-04-2.01355E-05-4.66860E-05 1.15376E-05 2.29715E-18 2.53792E-19
 -1      3055 1.21673E-04-1.56206E-05-4.59667E-05 9.85041E-06 2.12605E-18-3.75765E-19
 -1      3056 1.33773E-04-4.08933E-05-3.99959E-05 8.98915E-06 1.10469E-18 6.11240E-19
 -1      3057 9.52455E-05-2.85631E-05-2.85780E-05 1.99932E-08 2.23496E-18-4.01009E-19
 -1      3058 4.82490E-05-1.57517E-05-1.34382E-05 1.48420E-05-8.56615E-19 2.91496E-18
 -1      3059 1.22885E-04-5.03949E-05-3.12153E-05-2.71542E-06 1.66885E-18-1.45424E-18
 -1      3060 1.19547E-04-5.74247E-05-2.65016E-05-2.38159E-05-1.04206E-18 7.06743E-20
 -1      3061 5.12637E-05-2.37050E-05-1.11686E-05-2.97165E-05-2.11684E-18-2.67038E-18
 -1      3062 6.27479E-05-2.89637E-05-1.42583E-05-3.30346E-05-2.45984E-18-1.59507E-18
 -1      3063 5.06804E-05-1.99345E-05-1.27365E-05-2.41508E-05-1.97120E-18-2.74926E-18
 -1      3064 9.33724E-05-4.61372E-05-1.98253E-05 3.46284E-05-2.44914E-18 6.51077E-19
 -1      3065 1.25211E-04-1.69737E-05-4.67632E-05-1.02803E-05 2.93370E-18-1.87094E-18
 -1      3066 8.77030E-05-4.54403E-05-1.77559E-05-3.84999E-05-1.78883E-18-8.64609E-19
 -1      3067 9.81750E-05-4.85211E-05-2.11124E-05-3.31584E-05-1.59078E-18-6.29743E-19
 -1      3068 7.89574E-05-3.85729E-05-1.69347E-05-3.65666E-05-1.91895E-18-1.24122E-18
 -1      3069 1.37311E-04-5.53321E-05-3.52234E-05-3.45101E-07 5.75506E-19-2.27598E-18
 -1      3070 9.52414E-05-2.85489E-05-2.85827E-05-8.29341E-09 1.10921E-18 1.73416E-18
 -1      3071 9.52429E-05-2.85520E-05-2.85817E-05-1.17221E-08 7.38654E-19 3.61725E-19
 -1      3072 9.52421E-05-2.85417E-05-2.85857E-05-7.60421E-09 1.26779E-18 8.76577E-19
 -1      3073 9.52368E-05-2.85289E-05-2.85890E-05-1.48977E-09 2.18050E-18 2.20924E-18
 -1      3074 7.02481E-05-3.44396E-05-1.47945E-05 3.46273E-05 1.41084E-18-2.24612E-18
 -1      3075 8.83199E-05-1.27053E-05-3.24291E-05-1.42615E-06-9.28892E-20-2.11409E-18
 -1      3076 8.86861E-05-1.30831E-05-3.24213E-05-2.09871E-06-4.32956E-19-2.16227E-18
 -1      3077 8.98165E-05-1.49018E-05-3.20862E-05-1.83941E-06-4.83363E-19-2.00707E-18
 -1      3078 8.90422E-05-1.40439E-05-3.21235E-05-9.49834E-07-8.53818E-20-1.94044E-18
 -1      3079 1.37557E-04-3.62634E-05-4.36338E-05-1.28046E-05-2.15009E-18 2.62167E-18
 -1      3080 9.36503E-05-4.69450E-05-1.96045E-05-3.40347E-05 1.97846E-18 1.71548E-18
 -1      3081 1.34733E-04-5.24803E-05-3.53881E-05-2.25502E-07-4.80155E-19-1.83891E-18
 -1      3082 1.29751E-04-5.39227E-05-3.25810E-05 3.87403E-06-1.68620E-18-1.56974E-18
 -1      3083 1.31698E-04-4.56893E-05-3.71106E-05-7.41366E-06 1.74992E-19-2.48530E-18
 -1      3084 4.48696E-05-1.78666E-05-1.09331E-05 1.90501E-05 5.95835E-19-3.56950E-18
 -1      3085 9.52449E-05-2.85506E-05-2.85834E-05 1.34861E-08 1.02177E-18-6.46612E-19
 -1      3086 9.52450E-05-2.85543E-05-2.85819E-05 1.36187E-08 1.60198E-18 1.04431E-18
 -1      3087 9.52433E-05-2.85382E-05-2.85876E-05 5.19696E-09 1.07002E-18 1.30602E-18
 -1      3088 9.52456E-05-2.85426E-05-2.85866E-05 6.72680E-09-2.54197E-19-1.43006E-18
 -1      3089 1.29272E-04-1.20621E-05-5.09289E-05-1.99338E-06-4.71395E-18 3.72231E-20
 -1      3090 1.33241E-04-1.45844E-05-5.12679E-05-8.06119E-06-4.72051E-18 5.53430E-19
 -1      3091 9.48585E-05-2.10959E-05-3.16216E-05 5.17969E-06 1.69626E-18-8.55662E-19
 -1      3092 1.03999E-04-5.27186E-05-2.16810E-05 3.23540E-05 1.28654E-18-1.31568E-19
 -1      3093 1.23211E-04-1.43301E-05-4.71930E-05 6.59835E-07-4.09022E-18-3.16923E-19
 -1      3094 9.49533E-05-2.19068E-05-3.12953E-05 3.45479E-06 1.56142E-18-1.04698E-18
 -1      3095 1.12453E-04-5.52895E-05-2.46494E-05 2.72562E-05 9.47830E-19 3.84804E-19
 -1      3096 9.79097E-05-4.77791E-05-2.11037E-05 3.17933E-05 1.36785E-18-2.60357E-19
 -1      3097 9.39985E-05-2.08008E-05-3.13901E-05 2.58066E-06 1.50897E-18-1.23414E-18
 -1      3098 9.31007E-05-1.95568E-05-3.15263E-05 2.29183E-06 1.39272E-18-1.38978E-18
 -1      3099 5.66638E-05-1.86019E-05-1.59866E-05 2.08126E-05-1.57479E-18 1.11480E-18
 -1      3100 4.98165E-05-1.33079E-05-1.54738E-05 8.08762E-06-8.07712E-19 3.07436E-18
 -1      3101 9.22492E-05-1.72620E-05-3.21598E-05-4.81412E-06-1.15326E-18-1.99528E-18
 -1      3102 9.31755E-05-1.84696E-05-3.20508E-05-5.27691E-06-1.31878E-18-1.78491E-18
 -1      3103 9.41139E-05-2.03754E-05-3.15866E-05-3.74929E-06-1.29028E-18-1.58973E-18
 -1      3104 9.26285E-05-1.82847E-05-3.18372E-05-3.42601E-06-1.03623E-18-1.95588E-18
 -1      3105 1.33269E-04-3.90217E-05-4.06986E-05-1.34106E-05-1.44880E-18 2.49557E-18
 -1      3106 1.25257E-04-2.73256E-05-4.25305E-05-1.37277E-05 1.51090E-18-1.79957E-18
 -1      3107 1.28443E-04-3.58898E-05-3.98954E-05-1.25992E-05 9.76682E-19-2.32473E-18
 -1      3108 7.78570E-05-3.51322E-05-1.81485E-05 3.32994E-05-2.10292E-18 8.34433E-19
 -1      3109 6.70063E-05-2.70671E-05-1.69013E-05 2.90634E-05-2.00929E-18 9.89864E-19
 -1      3110 1.30887E-04-5.90714E-05-3.10879E-05 1.02789E-05 4.13458E-19 1.61953E-18
 -1      3111 1.22911E-04-5.78167E-05-2.76329E-05 1.83906E-05 7.49227E-19 1.39443E-18
 -1      3112 9.60749E-05-2.63575E-05-2.98790E-05-3.87530E-06 6.91637E-19-1.23498E-18
 -1      3113 9.59571E-05-2.59464E-05-2.99921E-05-2.94125E-06 7.88210E-19-1.08615E-18
 -1      3114 1.29509E-04-1.82744E-05-4.77522E-05-1.08358E-05-3.44065E-18 8.40945E-19
 -1      3115 1.31546E-04-5.58621E-05-3.22812E-05-2.76993E-06 1.65269E-18-2.23222E-18
 -1      3116 9.50593E-05-2.48542E-05-3.00813E-05 3.59157E-06-6.97104E-19-1.07131E-18
 -1      3117 9.50521E-05-2.51540E-05-2.99565E-05 4.61566E-06-5.22546E-19-1.07088E-18
 -1      3118 9.48718E-05-2.53269E-05-2.98035E-05 5.53768E-06-4.93226E-19-9.43066E-19
 -1      3119 9.48794E-05-2.55096E-05-2.97252E-05 6.42834E-06-5.37140E-19-1.02581E-18
 -1      3120 9.41817E-05-2.44188E-05-2.98961E-05 4.88387E-06-5.13568E-19-1.03980E-18
 -1      3121 9.46334E-05-2.55866E-05-2.95937E-05 7.28081E-06-3.91016E-19-9.48035E-19
 -1      3122 9.47030E-05-2.57615E-05-2.95372E-05 8.08733E-06-1.48047E-19-9.48179E-19
 -1      3123 9.37598E-05-2.47250E-05-2.95843E-05 6.67389E-06-3.74710E-19-1.01922E-18
 -1      3124 9.44570E-05-2.58597E-05-2.94029E-05 8.91871E-06 1.54770E-19-7.95639E-19
 -1      3125 9.46571E-05-2.61511E-05-2.93455E-05 9.66616E-06 1.51654E-19-5.15122E-19
 -1      3126 9.32663E-05-2.49312E-05-2.92855E-05 8.36627E-06 3.92398E-20-8.37354E-19
 -1      3127 9.45077E-05-2.64144E-05-2.91854E-05 1.05164E-05 3.01523E-19-6.87867E-20
 -1      3128 9.49561E-05-2.69871E-05-2.91086E-05 1.11999E-05 4.87471E-19 3.00462E-19
 -1      3129 9.28532E-05-2.53080E-05-2.89511E-05 1.00610E-05 5.85514E-19-2.90946E-19
 -1      3130 9.50672E-05-2.76107E-05-2.89049E-05 1.20950E-05 2.90550E-19 3.75810E-19
 -1      3131 9.59604E-05-2.86871E-05-2.88009E-05 1.26674E-05 3.58943E-19 4.20190E-19
 -1      3132 9.27656E-05-2.62089E-05-2.85378E-05 1.18496E-05 4.89946E-19 1.70350E-19
 -1      3133 9.66095E-05-2.99313E-05-2.85517E-05 1.35973E-05 1.00697E-19 5.52622E-19
 -1      3134 9.82437E-05-3.17838E-05-2.84390E-05 1.39359E-05 1.17504E-19 5.24476E-19
 -1      3135 9.34219E-05-2.81185E-05-2.80216E-05 1.37992E-05 1.49556E-19 4.22175E-19
 -1      3136 9.98792E-05-3.39634E-05-2.81817E-05 1.47887E-05 3.06189E-19 6.99391E-19
 -1      3137 1.02598E-04-3.68207E-05-2.81384E-05 1.46061E-05 5.05242E-19 7.15091E-19
 -1      3138 9.55118E-05-3.16710E-05-2.74289E-05 1.58806E-05 3.23442E-19 6.95129E-19
 -1      3139 1.05982E-04-4.02370E-05-2.80190E-05 1.49496E-05 7.22546E-19 8.15504E-19
 -1      3140 1.10569E-04-4.40239E-05-2.83568E-05 1.33578E-05 9.45752E-19 1.00942E-18
 -1      3141 1.00213E-04-3.76129E-05-2.69177E-05 1.78381E-05 8.17119E-19 9.81023E-19
 -1      3142 1.12738E-04-4.87211E-05-2.73548E-05 1.66370E-05 1.10933E-18 1.02693E-18
 -1      3143 1.18479E-04-5.23507E-05-2.82147E-05 1.40498E-05 6.43613E-19 1.37779E-18
 -1      3144 1.17966E-04-1.64250E-05-4.44073E-05-3.96133E-06-3.53276E-18-1.28762E-19
 -1      3145 1.13297E-04-5.44871E-05-2.49840E-05-2.54808E-05-1.37722E-18-2.91819E-19
 -1      3146 1.23585E-04-5.72859E-05-2.86857E-05-1.68875E-05-7.33292E-19-2.34033E-19
 -1      3147 1.04294E-04-3.84718E-05-2.81667E-05-1.38186E-05 1.10328E-18 6.96680E-19
 -1      3148 1.01202E-04-3.52851E-05-2.81617E-05-1.41323E-05 1.32324E-18 9.91165E-19
 -1      3149 9.91205E-05-3.27797E-05-2.83910E-05-1.33412E-05 1.29007E-18 1.59457E-18
 -1      3150 9.71972E-05-3.06390E-05-2.84909E-05-1.30578E-05 1.38912E-18 2.08207E-18
 -1      3151 9.62501E-05-3.28200E-05-2.72712E-05-1.56296E-05 1.56495E-18 1.41139E-18
 -1      3152 9.62690E-05-2.91483E-05-2.87335E-05-1.20879E-05 8.97099E-19 1.48793E-18
 -1      3153 9.51823E-05-2.78883E-05-2.88325E-05-1.15309E-05 6.39533E-19 1.39318E-18
 -1      3154 9.34492E-05-2.85943E-05-2.78370E-05-1.34762E-05 1.03312E-18 7.62697E-19
 -1      3155 9.49043E-05-2.71321E-05-2.90225E-05-1.05986E-05 3.35235E-19 8.32715E-19
 -1      3156 9.43352E-05-2.64835E-05-2.90834E-05-9.93526E-06-3.81152E-19 6.64571E-19
 -1      3157 9.23749E-05-2.62999E-05-2.83350E-05-1.14182E-05-1.06024E-21-6.76139E-19
 -1      3158 9.43872E-05-2.61958E-05-2.92087E-05-9.09108E-06-5.92649E-19 1.13839E-18
 -1      3159 9.41079E-05-2.59302E-05-2.92276E-05-8.40829E-06-4.39980E-19 8.71245E-19
 -1      3160 9.22162E-05-2.52625E-05-2.86974E-05-9.59502E-06-2.56520E-19 1.77665E-19
 -1      3161 9.43021E-05-2.59145E-05-2.92968E-05-7.65816E-06-6.92524E-19 1.19150E-18
 -1      3162 9.41720E-05-2.58696E-05-2.92824E-05-7.00287E-06-2.75929E-19 1.54325E-18
 -1      3163 9.24931E-05-2.49876E-05-2.89275E-05-8.00139E-06-5.80455E-19 1.50936E-18
 -1      3164 9.44076E-05-2.59964E-05-2.93094E-05-6.34284E-06-1.11094E-18 8.83740E-19
 -1      3165 9.43482E-05-2.60677E-05-2.92729E-05-5.74144E-06-1.46710E-18 5.17401E-19
 -1      3166 9.29338E-05-2.51355E-05-2.90510E-05-6.60778E-06-9.38040E-19 1.02377E-18
 -1      3167 9.45752E-05-2.62571E-05-2.92709E-05-5.16753E-06-9.88427E-19 9.99417E-19
 -1      3168 9.45463E-05-2.63811E-05-2.92225E-05-4.63396E-06-7.64368E-19 1.59926E-18
 -1      3169 9.33981E-05-2.54928E-05-2.90968E-05-5.39245E-06-1.10896E-18 7.16551E-19
 -1      3170 9.47434E-05-2.65868E-05-2.92028E-05-4.14206E-06-1.16947E-18 1.52426E-18
 -1      3171 9.47259E-05-2.67269E-05-2.91500E-05-3.68154E-06-1.60556E-18 1.30428E-18
 -1      3172 9.38203E-05-2.59307E-05-2.90909E-05-4.34199E-06-9.39393E-19 1.03344E-18
 -1      3173 9.48870E-05-2.69239E-05-2.91208E-05-3.26657E-06-1.66023E-18 2.04616E-18
 -1      3174 9.48730E-05-2.70606E-05-2.90688E-05-2.87835E-06-9.79349E-19 2.06489E-18
 -1      3175 9.41757E-05-2.63756E-05-2.90535E-05-3.44581E-06-1.15292E-18 2.00665E-18
 -1      3176 9.49997E-05-2.72368E-05-2.90358E-05-2.53398E-06-1.32905E-18 1.69118E-18
 -1      3177 9.49866E-05-2.73606E-05-2.89877E-05-2.21340E-06-1.11809E-18 1.30596E-18
 -1      3178 9.44609E-05-2.67888E-05-2.89997E-05-2.69285E-06-1.07572E-18 2.31342E-18
 -1      3179 9.50833E-05-2.75117E-05-2.89546E-05-1.93227E-06-5.76934E-19 1.30382E-18
 -1      3180 9.50707E-05-2.76188E-05-2.89121E-05-1.67243E-06-5.56566E-19 1.02981E-18
 -1      3181 9.46824E-05-2.71526E-05-2.89396E-05-2.07036E-06-1.48407E-18 1.72957E-18
 -1      3182 9.51429E-05-2.77446E-05-2.88811E-05-1.44661E-06-7.52445E-19 6.62872E-19
 -1      3183 9.51311E-05-2.78343E-05-2.88447E-05-1.23963E-06-4.95083E-19 2.26519E-19
 -1      3184 9.48501E-05-2.74617E-05-2.88796E-05-1.56406E-06-1.10706E-18 1.56747E-18
 -1      3185 9.51838E-05-2.79366E-05-2.88170E-05-1.06111E-06 4.62213E-20-6.26922E-19
 -1      3186 9.51732E-05-2.80101E-05-2.87867E-05-8.98920E-07 1.04065E-18-1.15950E-18
 -1      3187 9.49744E-05-2.77175E-05-2.88237E-05-1.15888E-06-5.20764E-19 1.12749E-18
 -1      3188 9.52109E-05-2.80917E-05-2.87627E-05-7.60024E-07 1.97719E-18-1.16896E-18
 -1      3189 9.52017E-05-2.81508E-05-2.87380E-05-6.34986E-07 2.16461E-18-1.41332E-18
 -1      3190 9.50645E-05-2.79247E-05-2.87738E-05-8.39784E-07 1.35885E-18-7.11325E-21
 -1      3191 9.52280E-05-2.82147E-05-2.87179E-05-5.28655E-07 2.33355E-18-1.15260E-18
 -1      3192 9.52204E-05-2.82615E-05-2.86981E-05-4.33846E-07 1.26696E-18-3.82845E-19
 -1      3193 9.51286E-05-2.80895E-05-2.87308E-05-5.92504E-07 1.94125E-18-8.72202E-20
 -1      3194 9.52382E-05-2.83109E-05-2.86815E-05-3.53818E-07 9.29139E-20-4.39228E-19
 -1      3195 9.52321E-05-2.83473E-05-2.86659E-05-2.83203E-07-2.15853E-19-1.18120E-18
 -1      3196 9.51728E-05-2.82185E-05-2.86946E-05-4.04033E-07 1.05989E-18-1.29889E-18
 -1      3197 9.52436E-05-2.83850E-05-2.86525E-05-2.24082E-07 2.75673E-19-5.31786E-19
 -1      3198 9.52389E-05-2.84132E-05-2.86403E-05-1.72577E-07 1.60369E-18-8.98341E-20
 -1      3199 9.52025E-05-2.83181E-05-2.86648E-05-2.62898E-07 1.01942E-18-2.19938E-19
 -1      3200 9.52460E-05-2.84416E-05-2.86295E-05-1.30024E-07 1.23857E-18-4.54154E-19
 -1      3201 9.52424E-05-2.84633E-05-2.86202E-05-9.34665E-08 6.07411E-19-1.46990E-18
 -1      3202 9.52216E-05-2.83941E-05-2.86404E-05-1.59415E-07 1.31446E-18-6.24462E-19
 -1      3203 9.52464E-05-2.84847E-05-2.86115E-05-6.36047E-08 2.18121E-20-1.96091E-18
 -1      3204 9.52440E-05-2.85016E-05-2.86042E-05-3.87440E-08-9.97099E-19-1.70031E-18
 -1      3205 9.52330E-05-2.84517E-05-2.86207E-05-8.55739E-08 1.85713E-19-1.35771E-18
 -1      3206 9.52463E-05-2.85170E-05-2.85977E-05-2.07332E-08-1.08871E-18-1.68601E-18
 -1      3207 9.52446E-05-2.85305E-05-2.85920E-05-4.80756E-09-1.11281E-18-1.18376E-18
 -1      3208 9.52433E-05-2.85273E-05-2.85929E-05-5.73746E-09-5.84996E-19 1.50686E-19
 -1      3209 9.52398E-05-2.84950E-05-2.86052E-05-3.66729E-08-1.09113E-18-1.19347E-18
 -1      3210 9.63383E-05-2.70398E-05-2.96956E-05-5.44809E-06 7.86625E-19-1.22552E-18
 -1      3211 9.61327E-05-2.66937E-05-2.97490E-05-4.72070E-06 6.56532E-19-1.16136E-18
 -1      3212 9.55631E-05-2.58536E-05-2.98825E-05-4.29573E-06 7.69689E-19-1.41273E-18
 -1      3213 1.00556E-04-3.18418E-05-2.94491E-05-8.37790E-06 1.51075E-19-1.21494E-20
 -1      3214 9.95053E-05-3.07841E-05-2.94276E-05-8.51873E-06 2.61130E-19-2.72304E-20
 -1      3215 9.87120E-05-2.99220E-05-2.94770E-05-8.27973E-06-2.91153E-20-4.00802E-19
 -1      3216 9.79640E-05-2.91779E-05-2.94649E-05-8.11100E-06-5.56733E-20-3.88844E-19
 -1      3217 9.79208E-05-2.99793E-05-2.91465E-05-9.11813E-06-2.94065E-20-5.89617E-19
 -1      3218 1.06845E-04-3.77546E-05-2.96377E-05-5.87401E-06-1.58503E-19 6.70004E-19
 -1      3219 1.05149E-04-3.61452E-05-2.95164E-05-7.07964E-06 1.01990E-19 3.46137E-19
 -1      3220 1.11109E-04-4.09702E-05-3.01097E-05-2.46685E-06-2.38129E-19 1.27241E-18
 -1      3221 1.09371E-04-3.95869E-05-2.98385E-05-4.40961E-06-6.17987E-21 1.07700E-18
 -1      3222 1.07550E-04-3.95150E-05-2.92278E-05-7.18887E-06-4.85671E-19 9.25493E-19
 -1      3223 1.15093E-04-4.26550E-05-3.11191E-05 2.60883E-06-3.78059E-19 8.60913E-19
 -1      3224 1.13871E-04-4.23313E-05-3.06058E-05 8.88707E-08-2.33702E-19 1.12152E-18
 -1      3225 1.12927E-04-4.32638E-05-2.99239E-05-3.43676E-06-3.73522E-20 9.92415E-19
 -1      3226 1.17120E-04-4.05204E-05-3.28780E-05 8.50642E-06-8.71054E-20 6.97128E-19
 -1      3227 1.17214E-04-4.23976E-05-3.20598E-05 6.16279E-06-4.85254E-19 8.24818E-19
 -1      3228 1.18063E-04-4.49187E-05-3.14408E-05 2.54649E-06-3.26286E-19 1.18348E-18
 -1      3229 1.15670E-04-3.32390E-05-3.53458E-05 1.24337E-05 5.78868E-19 9.48528E-19
 -1      3230 1.17382E-04-3.76393E-05-3.42942E-05 1.16094E-05 3.02146E-19 6.85108E-19
 -1      3231 1.20522E-04-4.12336E-05-3.40622E-05 9.52972E-06 2.04466E-19 6.59031E-19
 -1      3232 1.07966E-04-1.72473E-05-3.89921E-05 1.21746E-06 1.38069E-18 1.22911E-19
 -1      3233 1.09181E-04-1.91791E-05-3.88221E-05 5.86787E-06 1.83229E-18 5.52734E-19
 -1      3234 1.13333E-04-1.84373E-05-4.09992E-05-8.57819E-06 2.60050E-18-1.32181E-18
 -1      3235 1.12170E-04-1.57248E-05-4.16283E-05-4.18528E-06 2.22304E-18-1.01119E-18
 -1      3236 1.17311E-04-3.18710E-05-3.68792E-05-1.35978E-05 1.20980E-18-1.67366E-18
 -1      3237 1.15002E-04-2.66595E-05-3.79976E-05-1.23828E-05 1.63467E-18-1.58244E-18
 -1      3238 1.16517E-04-4.26668E-05-3.16443E-05-4.90035E-06 6.57311E-20-5.13004E-19
 -1      3239 1.16949E-04-4.16171E-05-3.23140E-05-7.39747E-06 1.93456E-19-9.53779E-19
 -1      3240 1.12680E-04-4.15641E-05-3.04173E-05 6.47559E-07-3.39999E-19 2.40809E-19
 -1      3241 1.14127E-04-4.22662E-05-3.08453E-05-1.75580E-06 5.50704E-20-9.36898E-20
 -1      3242 1.16589E-04-4.43630E-05-3.09603E-05-1.44896E-06-2.27544E-19 4.73852E-19
 -1      3243 1.08135E-04-3.83976E-05-2.98218E-05 4.48940E-06-3.65467E-19-5.54193E-19
 -1      3244 1.09884E-04-3.99164E-05-3.00303E-05 2.82104E-06 3.79825E-20 4.91354E-20
 -1      3245 1.11236E-04-4.20428E-05-2.97282E-05 3.96920E-06 4.01613E-20 6.37912E-19
 -1      3246 1.04154E-04-3.50062E-05-2.95845E-05 6.57991E-06-7.76245E-19-1.20503E-18
 -1      3247 1.05757E-04-3.65724E-05-2.96752E-05 5.62107E-06-6.83309E-19-9.74557E-19
 -1      3248 1.06020E-04-3.80433E-05-2.92023E-05 6.97427E-06-2.71558E-19 1.88895E-20
 -1      3249 1.01123E-04-3.21726E-05-2.95169E-05 7.37734E-06-5.01201E-19-7.35020E-19
 -1      3250 1.02405E-04-3.34580E-05-2.95573E-05 6.97692E-06-8.32620E-19-9.34071E-19
 -1      3251 1.01916E-04-3.42473E-05-2.90567E-05 8.21598E-06-6.25175E-19-4.05314E-19
 -1      3252 9.90147E-05-3.01306E-05-2.95026E-05 7.34112E-06-4.30715E-19-4.53758E-19
 -1      3253 9.99628E-05-3.10522E-05-2.95326E-05 7.32083E-06-2.27093E-19-6.39350E-19
 -1      3254 9.90501E-05-3.12870E-05-2.90784E-05 8.34686E-06-7.65160E-19 7.12831E-19
 -1      3255 9.76259E-05-2.88075E-05-2.94843E-05 6.82368E-06-2.82140E-19-3.79985E-19
 -1      3256 9.83010E-05-2.94067E-05-2.95212E-05 7.03796E-06-1.86499E-19-2.67152E-19
 -1      3257 9.72184E-05-2.92686E-05-2.91439E-05 7.85589E-06-4.27134E-19 1.06631E-18
 -1      3258 9.67423E-05-2.80372E-05-2.94421E-05 6.05938E-06 1.66734E-19-3.05775E-19
 -1      3259 9.72169E-05-2.83910E-05-2.94900E-05 6.40129E-06-4.54374E-20-2.82395E-19
 -1      3260 9.61258E-05-2.80327E-05-2.91957E-05 7.05247E-06-2.16388E-19 1.54245E-18
 -1      3261 9.61916E-05-2.76519E-05-2.93748E-05 5.19985E-06 1.85707E-19 9.11880E-19
 -1      3262 9.65264E-05-2.78354E-05-2.94315E-05 5.59561E-06-7.01502E-20 1.37012E-19
 -1      3263 9.55198E-05-2.73705E-05-2.92138E-05 6.12136E-06-4.25817E-19 2.52063E-19
 -1      3264 9.58514E-05-2.75152E-05-2.92896E-05 4.34009E-06 1.51731E-19 1.43769E-18
 -1      3265 9.60909E-05-2.75885E-05-2.93507E-05 4.74144E-06 6.87531E-19 1.22766E-18
 -1      3266 9.52142E-05-2.70941E-05-2.91978E-05 5.17283E-06 4.41273E-20 4.79848E-19
 -1      3267 9.56410E-05-2.75268E-05-2.91952E-05 3.53663E-06-1.13113E-19 4.84421E-19
 -1      3268 9.58153E-05-2.75336E-05-2.92564E-05 3.91413E-06 6.26711E-19 1.23307E-18
 -1      3269 9.50834E-05-2.70583E-05-2.91553E-05 4.27194E-06 4.82276E-19 7.95187E-19
 -1      3270 9.55093E-05-2.76187E-05-2.90995E-05 2.81975E-06-1.02806E-18 2.48728E-19
 -1      3271 9.56382E-05-2.75887E-05-2.91574E-05 3.15736E-06-1.11741E-18 1.62949E-20
 -1      3272 9.50475E-05-2.71594E-05-2.90957E-05 3.45515E-06-1.77030E-19 1.26696E-18
 -1      3273 9.54252E-05-2.77467E-05-2.90083E-05 2.20203E-06 1.32046E-18-7.88301E-19
 -1      3274 9.55215E-05-2.76992E-05-2.90607E-05 2.49290E-06 1.58337E-19 4.11912E-19
 -1      3275 9.50587E-05-2.73282E-05-2.90277E-05 2.73992E-06-5.24864E-19 3.05149E-20
 -1      3276 9.53699E-05-2.78839E-05-2.89254E-05 1.68454E-06 9.67099E-19-2.33376E-19
 -1      3277 9.54424E-05-2.78308E-05-2.89712E-05 1.92781E-06 1.30601E-18-6.21265E-19
 -1      3278 9.50893E-05-2.75209E-05-2.89581E-05 2.13105E-06 5.21925E-19-5.92064E-19
 -1      3279 9.53324E-05-2.80150E-05-2.88527E-05 1.26130E-06-7.31220E-19 1.75582E-19
 -1      3280 9.53870E-05-2.79631E-05-2.88916E-05 1.45974E-06-4.24886E-20 3.52731E-20
 -1      3281 9.51246E-05-2.77115E-05-2.88916E-05 1.62508E-06-5.99793E-20 5.50011E-19
 -1      3282 9.53062E-05-2.81322E-05-2.87907E-05 9.22461E-07 3.61653E-19-2.00879E-19
 -1      3283 9.53471E-05-2.80851E-05-2.88229E-05 1.08081E-06-8.35866E-20 2.82225E-19
 -1      3284 9.51573E-05-2.78856E-05-2.88310E-05 1.21354E-06-2.90119E-19 2.40963E-19
 -1      3285 9.52875E-05-2.82324E-05-2.87394E-05 6.56506E-07-5.93915E-19 6.42805E-19
 -1      3286 9.53178E-05-2.81916E-05-2.87654E-05 7.80315E-07-1.64983E-19 6.72099E-20
 -1      3287 9.51845E-05-2.80370E-05-2.87778E-05 8.85361E-07-2.52663E-19 4.72917E-19
 -1      3288 9.52738E-05-2.83153E-05-2.86976E-05 4.51710E-07-6.38376E-19-6.47313E-19
 -1      3289 9.52960E-05-2.82812E-05-2.87183E-05 5.46636E-07-5.62804E-19-5.93136E-19
 -1      3290 9.52055E-05-2.81637E-05-2.87325E-05 6.28515E-07-1.14320E-19-7.98416E-19
 -1      3291 9.52637E-05-2.83821E-05-2.86644E-05 2.97034E-07-4.57868E-19 2.13696E-19
 -1      3292 9.52797E-05-2.83543E-05-2.86804E-05 3.68372E-07-8.94225E-19-4.21894E-19
 -1      3293 9.52207E-05-2.82669E-05-2.86948E-05 4.31186E-07-8.67347E-19-1.17057E-18
 -1      3294 9.52563E-05-2.84349E-05-2.86384E-05 1.82642E-07 2.45128E-19 1.56558E-19
 -1      3295 9.52674E-05-2.84126E-05-2.86506E-05 2.35078E-07 1.32569E-19 4.28915E-19
 -1      3296 9.52310E-05-2.83490E-05-2.86640E-05 2.82455E-07-6.99629E-19-1.63135E-19
 -1      3297 9.52509E-05-2.84761E-05-2.86182E-05 1.00157E-07-9.43333E-20 5.49726E-19
 -1      3298 9.52584E-05-2.84585E-05-2.86275E-05 1.37651E-07 5.80826E-19 2.71579E-19
 -1      3299 9.52374E-05-2.84131E-05-2.86393E-05 1.72713E-07-1.90964E-19 1.54324E-18
 -1      3300 9.52471E-05-2.85083E-05-2.86026E-05 4.27178E-08 7.22262E-19 9.86707E-19
 -1      3301 9.52518E-05-2.84942E-05-2.86096E-05 6.84765E-08-2.71056E-19 6.39782E-19
 -1      3302 9.52411E-05-2.84626E-05-2.86195E-05 9.38333E-08 1.09250E-19 2.63641E-18
 -1      3303 9.52448E-05-2.85336E-05-2.85906E-05 5.25591E-09 2.96283E-18-4.05521E-19
 -1      3304 9.52474E-05-2.85225E-05-2.85959E-05 2.14572E-08 2.62012E-18 6.88493E-19
 -1      3305 9.52428E-05-2.85010E-05-2.86038E-05 3.91965E-08 2.14936E-18 1.57363E-18
 -1      3306 9.52441E-05-2.85465E-05-2.85846E-05-9.92216E-09-2.45409E-19-6.37742E-19
 -1      3307 9.52444E-05-2.85397E-05-2.85875E-05-3.22756E-09 1.23046E-18-5.66426E-19
 -1      3308 9.52433E-05-2.85250E-05-2.85937E-05 9.18417E-09 2.18407E-18-4.75891E-19
 -1      3309 9.52436E-05-2.85410E-05-2.85871E-05-5.63513E-09 4.09116E-19 9.27915E-19
 -1      3310 9.52173E-05-2.84854E-05-2.85995E-05-7.45221E-09-6.85935E-19 1.21828E-18
 -1      3311 9.52147E-05-2.84823E-05-2.85999E-05-6.01539E-09-6.19198E-19 2.09771E-18
 -1      3312 8.11262E-05-3.88458E-05-1.81715E-05 3.48472E-05 1.57347E-18-9.05055E-19
 -1      3313 6.52570E-05-2.82500E-05-1.53978E-05 3.05541E-05 1.37913E-18-2.34935E-18
 -1      3314 9.52130E-05-2.84796E-05-2.86002E-05-1.81523E-09-7.25732E-19 2.11026E-19
 -1      3315 9.52128E-05-2.84795E-05-2.86001E-05 3.24888E-10 6.28449E-20 6.05662E-20
 -1      3316 9.52047E-05-2.84538E-05-2.86070E-05-6.00821E-09-8.32154E-19 1.22473E-18
 -1      3317 6.25024E-05-2.53859E-05-1.56116E-05-2.77570E-05 1.55137E-18 4.26830E-18
 -1      3318 7.44161E-05-3.38313E-05-1.72300E-05-3.28276E-05 1.43456E-18 3.86575E-18
 -1      3319 9.52261E-05-2.84982E-05-2.85976E-05-9.73428E-09 1.00929E-18 8.92313E-19
 -1      3320 9.52218E-05-2.84926E-05-2.85986E-05-9.97181E-09-4.30179E-19 1.47593E-18
 -1      3321 9.52118E-05-2.84639E-05-2.86058E-05-1.45856E-08-5.12791E-20 1.46585E-18
 -1      3322 9.56102E-05-2.36333E-05-3.08492E-05 1.74743E-06 1.32716E-18-1.09847E-18
 -1      3323 9.46704E-05-2.18772E-05-3.11895E-05 2.29697E-06 1.45752E-18-1.20600E-18
 -1      3324 9.46922E-05-2.24408E-05-3.09566E-05 9.72929E-07 1.29180E-18-1.23599E-18
 -1      3325 9.57328E-05-2.44908E-05-3.05386E-05 1.98514E-07 1.16980E-18-1.13157E-18
 -1      3326 9.52362E-05-2.85160E-05-2.85944E-05-6.77808E-09 1.44915E-18 4.86658E-19
 -1      3327 9.52321E-05-2.85088E-05-2.85960E-05-9.47326E-09 4.99134E-19-2.46579E-19
 -1      3328 9.52234E-05-2.84819E-05-2.86032E-05-1.83130E-08 8.26359E-19-2.82480E-20
 -1      3329 8.98396E-05-1.56437E-05-3.18117E-05 7.24079E-07 7.39994E-19-1.81029E-18
 -1      3330 8.95352E-05-1.53132E-05-3.18257E-05 3.13578E-07 5.46242E-19-1.76803E-18
 -1      3331 8.74989E-05-4.13559E-05-1.93924E-05-3.25588E-05 1.71259E-18 1.39940E-18
 -1      3332 1.02034E-04-4.97920E-05-2.25737E-05-2.99872E-05 2.12086E-18-3.93076E-20
 -1      3333 1.03240E-04-3.44936E-05-2.94728E-05-7.70368E-06 4.34697E-19-8.38153E-20
 -1      3334 1.01842E-04-3.30954E-05-2.94237E-05-8.29227E-06 2.66988E-19 3.10633E-20
 -1      3335 9.99606E-05-3.23155E-05-2.90335E-05-9.43355E-06 2.10130E-19-1.83763E-19
 -1      3336 1.03116E-04-3.55547E-05-2.90136E-05-8.96396E-06-2.30572E-20 5.49190E-19
 -1      3337 1.25516E-04-5.70869E-05-2.96251E-05-1.26670E-05 2.05225E-18-1.87111E-18
 -1      3338 1.24602E-04-5.39629E-05-3.02840E-05-7.05441E-06 1.93477E-18-1.37191E-18
 -1      3339 1.15069E-04-5.42293E-05-2.56819E-05-2.21122E-05 2.49674E-18-1.01043E-18
 -1      3340 1.12552E-04-4.60561E-05-2.84734E-05-1.23236E-05 1.49784E-18-1.73257E-19
 -1      3341 1.08203E-04-4.21699E-05-2.81305E-05-1.38815E-05 1.32638E-18 3.55861E-19
 -1      3342 1.01889E-04-3.95359E-05-2.68819E-05-1.72275E-05 1.66995E-18-4.98916E-19
 -1      3343 1.18768E-04-5.03774E-05-2.90565E-05-1.04301E-05 2.09264E-18-9.80163E-19
 -1      3344 9.50848E-05-2.39418E-05-3.04741E-05 1.32475E-06-8.15512E-19-1.26865E-18
 -1      3345 9.51119E-05-2.44787E-05-3.02796E-05 2.54200E-06-7.68392E-19-1.23945E-18
 -1      3346 9.44051E-05-2.37673E-05-3.02692E-05 2.89105E-06-6.38568E-19-1.18764E-18
 -1      3347 1.31450E-04-4.51225E-05-3.69726E-05 8.01539E-06 6.42792E-19 6.87632E-19
 -1      3348 1.28221E-04-3.61976E-05-3.98895E-05 1.23913E-05 9.75835E-19 5.97105E-19
 -1      3349 4.23742E-05-1.24306E-05-1.23940E-05 9.19075E-07-4.04845E-19-3.55627E-18
 -1      3350 4.40809E-05-1.39105E-05-1.25436E-05-1.14819E-05-1.15493E-18-3.66469E-18
 -1      3351 1.21012E-04-5.48234E-05-2.85688E-05 1.46719E-05-1.98815E-18-8.04324E-19
 -1      3352 1.11512E-04-5.22829E-05-2.50889E-05 2.38778E-05-2.09770E-18-7.71376E-19
 -1      3353 1.01697E-04-4.87945E-05-2.27967E-05 2.97875E-05-2.44951E-18-2.61124E-19
 -1      3354 8.92158E-05-4.15156E-05-2.01483E-05 3.22885E-05-2.06374E-18-8.78797E-21
 -1      3355 8.77537E-05-3.82352E-05-2.10610E-05 2.91560E-05-1.81805E-18 1.00744E-19
 -1      3356 1.07392E-04-4.86833E-05-2.50310E-05 2.28410E-05-1.77332E-18-3.06050E-19
 -1      3357 1.29526E-04-5.56960E-05-3.14501E-05-7.42932E-06-1.36928E-19 6.11822E-19
 -1      3358 1.31303E-04-5.23882E-05-3.42839E-05-1.28896E-07 3.18676E-19 8.53915E-19
 -1      3359 5.27175E-05-2.03217E-05-1.36223E-05 2.41114E-05 8.20351E-19-2.92184E-18
 -1      3360 4.56636E-05-1.48971E-05-1.27996E-05 1.33666E-05 5.12137E-19-3.24255E-18
 -1      3361 8.93582E-05-1.51112E-05-3.18339E-05 9.57997E-08 4.01018E-19-1.74452E-18
 -1      3362 8.93275E-05-1.50816E-05-3.18351E-05-2.97161E-07 1.60510E-19-1.74176E-18
 -1      3363 9.00469E-05-1.64122E-05-3.15344E-05 2.84920E-08 4.64345E-19-1.58785E-18
 -1      3364 9.32639E-05-2.02676E-05-3.12628E-05 1.13610E-06 1.22053E-18-1.47029E-18
 -1      3365 9.22689E-05-1.85128E-05-3.16288E-05 2.06026E-06 1.36963E-18-1.63386E-18
 -1      3366 9.15093E-05-1.75837E-05-3.16977E-05 1.65048E-06 1.22821E-18-1.71944E-18
 -1      3367 5.71373E-05-1.43153E-05-1.81877E-05 6.21375E-06-1.07441E-18 2.93722E-18
 -1      3368 5.13689E-05-1.24097E-05-1.62603E-05-2.81947E-07-8.16603E-19 4.17990E-18
 -1      3369 5.63597E-05-1.44048E-05-1.79243E-05-7.49168E-06-6.57258E-19 4.20287E-18
 -1      3370 4.97669E-05-1.35771E-05-1.52340E-05-7.85373E-06-3.20403E-19 4.51320E-18
 -1      3371 9.37495E-05-2.03835E-05-3.14519E-05-2.55076E-06-1.13128E-18-1.74027E-18
 -1      3372 9.45309E-05-2.15042E-05-3.13029E-05-2.61928E-06-1.17710E-18-1.43995E-18
 -1      3373 9.47985E-05-2.23627E-05-3.10255E-05-1.39790E-06-1.04372E-18-1.39829E-18
 -1      3374 1.34161E-04-5.35703E-05-3.44015E-05-1.62018E-06-1.62789E-19 2.60537E-18
 -1      3375 1.30440E-04-5.40239E-05-3.26740E-05 1.72039E-06 8.34394E-20 2.36147E-18
 -1      3376 7.29801E-05-2.64563E-05-1.99031E-05 2.42211E-05-1.40091E-18 6.99676E-19
 -1      3377 6.44440E-05-2.23860E-05-1.77257E-05 2.32082E-05-1.19099E-18 4.39584E-19
 -1      3378 6.37609E-05-1.89802E-05-1.91613E-05 1.72974E-05-8.35148E-19 1.00442E-18
 -1      3379 1.05560E-04-4.61706E-05-2.55738E-05 2.24513E-05 1.08383E-18 6.00890E-19
 -1      3380 1.26621E-04-5.44960E-05-3.06722E-05 6.52931E-06 3.41169E-19 2.06800E-18
 -1      3381 1.23692E-04-3.60538E-05-3.76321E-05-1.35026E-05 8.77764E-19-1.43495E-18
 -1      3382 1.28925E-04-4.16041E-05-3.76883E-05-1.08041E-05 7.87688E-19-2.01059E-18
 -1      3383 1.27148E-04-4.54186E-05-3.51120E-05-7.49171E-06 2.46434E-20-1.55752E-18
 -1      3384 1.06550E-04-5.12748E-05-2.35569E-05-2.86934E-05-1.21105E-18-2.17449E-19
 -1      3385 1.12139E-04-5.17342E-05-2.57635E-05-2.17170E-05-1.07009E-18-1.86608E-19
 -1      3386 9.80973E-05-4.57787E-05-2.22798E-05-2.97419E-05-1.10495E-18-7.29322E-19
 -1      3387 4.97192E-05-1.63327E-05-1.37708E-05-1.73161E-05-1.52528E-18-3.11158E-18
 -1      3388 5.73162E-05-2.03523E-05-1.56390E-05-2.23725E-05-1.79416E-18-2.16078E-18
 -1      3389 5.17701E-05-1.49669E-05-1.55132E-05-1.12769E-05-8.01399E-19-2.85651E-18
 -1      3390 9.67767E-05-2.77236E-05-2.95885E-05-6.70864E-06 3.53412E-19-8.99561E-19
 -1      3391 9.64402E-05-2.73409E-05-2.96052E-05-6.15007E-06 7.37244E-19-1.07358E-18
 -1      3392 9.57232E-05-2.65923E-05-2.96366E-05-5.90263E-06 5.86106E-19-1.17917E-18
 -1      3393 9.49425E-05-2.30790E-05-3.08092E-05-3.10111E-07-9.41375E-19-1.33201E-18
 -1      3394 6.91182E-05-2.86812E-05-1.70927E-05-2.99468E-05-1.77496E-18-1.67215E-18
 -1      3395 7.37294E-05-3.36314E-05-1.67185E-05-3.39421E-05-1.97666E-18-1.74918E-18
 -1      3396 8.39553E-05-3.80785E-05-1.95530E-05-3.20678E-05-1.52776E-18-1.47648E-18
 -1      3397 1.08844E-04-4.96783E-05-2.51509E-05-2.26466E-05 2.09307E-18-1.12257E-18
 -1      3398 9.67075E-05-2.84084E-05-2.92896E-05-8.33449E-06-1.23091E-19-7.38135E-19
 -1      3399 9.75161E-05-2.86152E-05-2.95229E-05-7.67271E-06-1.00998E-19-5.53665E-19
 -1      3400 9.70033E-05-2.81000E-05-2.95200E-05-7.28610E-06-3.47927E-20-8.46148E-19
 -1      3401 1.11410E-04-2.31914E-05-3.78229E-05 1.02909E-05 1.49372E-18 1.03392E-18
 -1      3402 1.13633E-04-2.80718E-05-3.69150E-05 1.24517E-05 9.55877E-19 8.07755E-19
 -1      3403 1.18452E-04-3.16108E-05-3.73313E-05 1.30145E-05 6.90888E-19 4.43607E-19
 -1      3404 1.13619E-04-1.99313E-05-4.03609E-05 9.09160E-06 1.76617E-18 6.57059E-19
 -1      3405 1.15426E-04-1.27862E-05-4.44122E-05-8.02889E-07 3.06202E-18-9.22578E-19
 -1      3406 1.21496E-04-4.33338E-05-3.35469E-05-8.13458E-06 1.51248E-19-5.52676E-19
 -1      3407 1.19078E-04-3.97813E-05-3.40832E-05-1.09116E-05 5.55826E-19-1.31934E-18
 -1      3408 1.17789E-04-3.58880E-05-3.51715E-05-1.22738E-05 9.84107E-19-1.23913E-18
 -1      3409 9.28472E-05-4.22628E-05-2.12487E-05 2.97113E-05 1.35663E-18-7.39274E-19
 -1      3410 9.52209E-05-2.84919E-05-2.85984E-05 8.88833E-09 1.33695E-18 1.89195E-18
 -1      3411 9.52250E-05-2.84975E-05-2.85975E-05 8.86285E-09 1.22512E-18 2.78805E-18
 -1      3412 6.48372E-05-2.46945E-05-1.67496E-05 2.53925E-05 1.17624E-18-2.18455E-18
 -1      3413 5.66622E-05-2.02504E-05-1.51313E-05-2.32533E-05 1.31020E-18 5.07055E-18
 -1      3414 6.63147E-05-2.43795E-05-1.76494E-05-2.44803E-05 1.52641E-18 4.08773E-18
 -1      3415 9.52143E-05-2.84819E-05-2.85998E-05 4.58700E-09 6.09607E-19 1.88875E-19
 -1      3416 9.52166E-05-2.84849E-05-2.85994E-05 6.17401E-09 1.16781E-18 3.15175E-19
 -1      3417 9.52108E-05-2.84633E-05-2.86057E-05 1.32935E-08 1.21289E-18 6.17534E-19
 -1      3418 9.52044E-05-2.84536E-05-2.86070E-05 4.45075E-09 3.75747E-19-8.92241E-19
 -1      3419 1.17115E-04-1.35682E-05-4.49346E-05 5.80555E-06 2.47334E-18-1.07811E-19
 -1      3420 1.24145E-04-5.48537E-05-2.96939E-05-1.08978E-05-3.78518E-19-1.62842E-19
 -1      3421 8.51006E-05-3.71460E-05-2.01833E-05-2.94117E-05 1.57188E-18 1.22682E-18
 -1      3422 9.02831E-05-1.61547E-05-3.17860E-05 9.66100E-07 9.31883E-19-1.79658E-18
 -1      3423 9.06777E-05-1.71230E-05-3.15005E-05 3.83401E-07 7.71082E-19-1.63065E-18
 -1      3424 9.08350E-05-1.67816E-05-3.17522E-05 1.39199E-06 1.19945E-18-1.72633E-18
 -1      3425 1.25346E-04-5.43575E-05-3.02996E-05 8.00873E-06-2.34624E-18-8.78161E-19
 -1      3426 1.18453E-04-5.18810E-05-2.85764E-05 1.17837E-05-1.17243E-18-1.96402E-19
 -1      3427 1.25921E-04-5.11570E-05-3.21661E-05 6.62371E-07-1.55446E-18-1.21433E-18
 -1      3428 1.11835E-04-4.86572E-05-2.72810E-05-1.67270E-05 2.04231E-18-1.26989E-18
 -1      3429 4.75821E-05-1.35464E-05-1.41489E-05 6.96042E-06 1.04291E-19-2.92639E-18
 -1      3430 5.12359E-05-1.33655E-05-1.60258E-05 1.07489E-06-1.86930E-19-2.62956E-18
 -1      3431 5.43303E-05-1.54457E-05-1.64355E-05 1.17447E-05 6.40402E-19-2.64581E-18
 -1      3432 9.43469E-05-2.24426E-05-3.08140E-05 2.36678E-07-8.93963E-19-1.41358E-18
 -1      3433 1.28522E-04-4.73445E-05-3.48016E-05 5.44335E-06 2.76172E-19 6.05681E-19
 -1      3434 9.52302E-05-2.85073E-05-2.85958E-05 8.41356E-09 2.04731E-18 2.93470E-18
 -1      3435 9.52338E-05-2.85137E-05-2.85943E-05 6.28669E-09 2.15231E-18 1.84832E-18
 -1      3436 9.52216E-05-2.84805E-05-2.86030E-05 1.70769E-08 2.12269E-18 1.57210E-18
 -1      3437 9.59369E-05-2.56176E-05-3.01399E-05-2.06135E-06 8.47523E-19-1.15236E-18
 -1      3438 9.58492E-05-2.50424E-05-3.03344E-05-8.62965E-07 1.01812E-18-1.14554E-18
 -1      3439 9.53791E-05-2.40921E-05-3.05495E-05-4.75810E-07 1.00975E-18-1.18560E-18
 -1      3440 9.54948E-05-2.50735E-05-3.01854E-05-2.49971E-06 8.91922E-19-1.31817E-18
 -1      3441 3.85598E-05-1.39463E-05-9.97980E-06-1.17531E-05 6.90332E-19 5.83860E-18
 -1      3442 4.79307E-05-1.68372E-05-1.28831E-05-1.74245E-05 8.99748E-19 5.41995E-18
 -1      3443 4.36758E-05-1.24832E-05-1.32226E-05-4.93334E-06-4.12684E-19 4.27392E-18
 -1      3444 9.52410E-05-2.85224E-05-2.85938E-05-6.56717E-09 1.92838E-19 4.26590E-19
 -1      3445 9.52390E-05-2.85202E-05-2.85940E-05-6.79057E-09 7.81405E-19 2.05413E-19
 -1      3446 9.52331E-05-2.84968E-05-2.86010E-05-1.89501E-08 2.69568E-21 9.59335E-20
 -1      3447 9.52398E-05-2.85065E-05-2.85995E-05-1.95329E-08-1.38598E-18-3.59120E-19
 -1      3448 9.00897E-05-1.59301E-05-3.17981E-05-1.07965E-06-3.12549E-19-1.79165E-18
 -1      3449 9.06114E-05-1.65233E-05-3.17686E-05-1.47147E-06-5.06422E-19-1.89491E-18
 -1      3450 9.12567E-05-1.72850E-05-3.17199E-05-1.67933E-06-6.05288E-19-1.96160E-18
 -1      3451 9.20196E-05-1.81804E-05-3.16587E-05-2.04912E-06-7.87897E-19-1.96423E-18
 -1      3452 9.15309E-05-1.81143E-05-3.14408E-05-8.48895E-07-5.38048E-19-1.82374E-18
 -1      3453 5.22001E-05-1.63010E-05-1.50845E-05-1.54470E-05 9.91981E-19 5.30978E-18
 -1      3454 6.19106E-05-1.57447E-05-1.94716E-05 1.12317E-05-1.24238E-18 1.85243E-18
 -1      3455 6.11423E-05-1.46195E-05-1.99549E-05 3.85379E-06-1.21179E-18 2.86054E-18
 -1      3456 1.35334E-04-4.95277E-05-3.74325E-05-9.40963E-06-8.72159E-19 3.03275E-18
 -1      3457 1.22104E-04-2.09577E-05-4.36577E-05-1.29344E-05 2.57159E-18-2.13955E-18
 -1      3458 1.20016E-04-2.52302E-05-4.07431E-05-1.36760E-05 2.14236E-18-2.12838E-18
 -1      3459 1.17474E-04-5.49239E-05-2.67578E-05 2.00329E-05 9.25701E-19 1.02811E-18
 -1      3460 9.34856E-05-2.35435E-05-2.99773E-05 4.02953E-06-4.38358E-19-1.16266E-18
 -1      3461 9.33065E-05-2.37798E-05-2.97998E-05 4.95423E-06-3.85941E-19-1.17643E-18
 -1      3462 1.23503E-04-3.49739E-05-3.81942E-05 1.24599E-05 6.76012E-19 5.94326E-19
 -1      3463 1.24707E-04-2.94246E-05-4.10548E-05 1.38793E-05 1.15562E-18 5.20078E-19
 -1      3464 9.28964E-05-2.38798E-05-2.95847E-05 5.76376E-06-3.86242E-19-1.15429E-18
 -1      3465 9.26494E-05-2.39899E-05-2.94234E-05 6.61002E-06-1.99336E-19-1.02184E-18
 -1      3466 9.22426E-05-2.30314E-05-2.96511E-05 4.91780E-06-3.39069E-19-1.17631E-18
 -1      3467 9.20963E-05-2.39881E-05-2.91996E-05 7.40455E-06 5.11706E-20-8.77234E-19
 -1      3468 9.18461E-05-2.40916E-05-2.90296E-05 8.22350E-06 3.90362E-19-6.74638E-19
 -1      3469 9.12843E-05-2.31500E-05-2.91888E-05 6.48568E-06 1.11098E-19-8.48136E-19
 -1      3470 9.12070E-05-2.41113E-05-2.87697E-05 9.06979E-06 6.16284E-19-6.60585E-19
 -1      3471 9.10493E-05-2.43545E-05-2.85666E-05 9.91461E-06 6.75098E-19-5.73197E-19
 -1      3472 9.00908E-05-2.31519E-05-2.86760E-05 8.08043E-06 4.79982E-19-7.32127E-19
 -1      3473 9.04093E-05-2.45530E-05-2.82415E-05 1.09015E-05 5.55842E-19-6.56891E-19
 -1      3474 9.05070E-05-2.51367E-05-2.79852E-05 1.18278E-05 5.21641E-19-4.15560E-19
 -1      3475 8.87921E-05-2.33089E-05-2.80542E-05 9.86639E-06 5.71578E-19-1.19974E-18
 -1      3476 9.00163E-05-2.57304E-05-2.75675E-05 1.30732E-05 4.92919E-19-2.05978E-19
 -1      3477 9.06485E-05-2.69372E-05-2.72511E-05 1.41285E-05 3.66826E-19-2.06590E-19
 -1      3478 8.76011E-05-2.39841E-05-2.72623E-05 1.20755E-05 6.28156E-19-1.07563E-18
 -1      3479 9.05877E-05-2.82384E-05-2.67234E-05 1.57720E-05 3.79073E-19 7.11623E-20
 -1      3480 9.21592E-05-3.04448E-05-2.63750E-05 1.69575E-05 5.22169E-19 2.43134E-19
 -1      3481 8.69028E-05-2.57058E-05-2.62458E-05 1.50152E-05 5.12842E-19-5.31929E-19
 -1      3482 9.30690E-05-3.28693E-05-2.57600E-05 1.89766E-05 6.44193E-19 3.54961E-19
 -1      3483 9.65942E-05-3.65736E-05-2.56188E-05 2.01206E-05 8.64979E-19 3.93480E-19
 -1      3484 8.75762E-05-2.92758E-05-2.49896E-05 1.90575E-05 7.26318E-19-2.79557E-19
 -1      3485 9.49723E-05-2.53489E-05-2.98390E-05-4.60502E-06 7.16974E-19-1.50688E-18
 -1      3486 9.49111E-05-2.49167E-05-2.99923E-05-3.71229E-06 7.43259E-19-1.54825E-18
 -1      3487 9.03188E-05-2.73019E-05-2.69492E-05-1.40550E-05 6.80086E-19 5.10466E-20
 -1      3488 8.94298E-05-2.58466E-05-2.72625E-05-1.29245E-05 5.49058E-20-5.01952E-19
 -1      3489 8.97625E-05-2.50962E-05-2.76800E-05-1.15540E-05-2.09246E-19-5.99309E-19
 -1      3490 8.95024E-05-2.44022E-05-2.79213E-05-1.05836E-05-1.02466E-19-9.05795E-19
 -1      3491 8.64803E-05-2.38650E-05-2.68445E-05-1.20264E-05-6.01561E-20-9.46583E-19
 -1      3492 9.00646E-05-2.41748E-05-2.82183E-05-9.53980E-06 4.46625E-19-1.19724E-18
 -1      3493 9.01279E-05-2.39468E-05-2.83825E-05-8.71346E-06 6.04203E-19-1.34729E-19
 -1      3494 8.74558E-05-2.30135E-05-2.76087E-05-9.63089E-06 1.99340E-19-7.52301E-19
 -1      3495 9.07386E-05-2.40171E-05-2.85830E-05-7.89378E-06 2.75243E-19-2.32415E-19
 -1      3496 9.09401E-05-2.40529E-05-2.86826E-05-7.17967E-06-3.77344E-19 2.79582E-19
 -1      3497 8.86606E-05-2.29667E-05-2.81408E-05-7.83004E-06 3.21268E-19-7.64080E-19
 -1      3498 9.15198E-05-2.42813E-05-2.88091E-05-6.50953E-06-1.12415E-18 2.61036E-19
 -1      3499 9.17604E-05-2.44549E-05-2.88595E-05-5.88699E-06-1.27756E-18 1.09921E-19
 -1      3500 8.98580E-05-2.33412E-05-2.84934E-05-6.40587E-06-4.57450E-19-1.11666E-18
 -1      3501 9.22732E-05-2.47531E-05-2.89320E-05-5.32583E-06-1.44946E-18 2.31879E-19
 -1      3502 9.25038E-05-2.49867E-05-2.89480E-05-4.78401E-06-1.00156E-18 5.97278E-19
 -1      3503 9.09476E-05-2.39252E-05-2.87117E-05-5.23369E-06-1.40572E-18-3.35403E-19
 -1      3504 9.29376E-05-2.53012E-05-2.89829E-05-4.30951E-06-1.16589E-18-1.50753E-19
 -1      3505 9.31375E-05-2.55490E-05-2.89767E-05-3.84231E-06-1.12447E-18-5.01507E-20
 -1      3506 9.18875E-05-2.45851E-05-2.88337E-05-4.24674E-06-1.63261E-18-1.06710E-18
 -1      3507 9.34931E-05-2.58492E-05-2.89867E-05-3.44161E-06-4.59334E-19 5.58383E-19
 -1      3508 9.36566E-05-2.60857E-05-2.89674E-05-3.04423E-06-6.16878E-20 1.25491E-18
 -1      3509 9.26695E-05-2.52413E-05-2.88897E-05-3.40950E-06-1.37658E-20-8.66159E-19
 -1      3510 9.39411E-05-2.63560E-05-2.89618E-05-2.70865E-06-8.09968E-19 1.79049E-18
 -1      3511 9.40698E-05-2.65687E-05-2.89360E-05-2.37597E-06-1.51774E-18 1.24523E-18
 -1      3512 9.33030E-05-2.58495E-05-2.89023E-05-2.70163E-06-1.58243E-19 1.08726E-19
 -1      3513 9.42930E-05-2.68028E-05-2.89215E-05-2.09838E-06-1.32839E-18 1.54450E-18
 -1      3514 9.43914E-05-2.69865E-05-2.88934E-05-1.82442E-06-8.93754E-19 1.79234E-18
 -1      3515 9.38053E-05-2.63880E-05-2.88883E-05-2.10906E-06-1.20796E-18 1.13844E-18
 -1      3516 9.45635E-05-2.71835E-05-2.88745E-05-1.59810E-06-1.45423E-18 1.87532E-18
 -1      3517 9.46370E-05-2.73377E-05-2.88470E-05-1.37621E-06-1.46583E-18 1.61021E-18
 -1      3518 9.41963E-05-2.68496E-05-2.88593E-05-1.61967E-06-8.87247E-19 1.85259E-18
 -1      3519 9.47674E-05-2.74997E-05-2.88267E-05-1.19452E-06-1.12562E-18 2.35822E-18
 -1      3520 9.48212E-05-2.76263E-05-2.88013E-05-1.01772E-06-1.40790E-19 1.78952E-18
 -1      3521 9.44955E-05-2.72353E-05-2.88232E-05-1.22160E-06-1.05007E-18 3.42527E-18
 -1      3522 9.49183E-05-2.77569E-05-2.87815E-05-8.74153E-07 5.67389E-19 1.32918E-18
 -1      3523 9.49569E-05-2.78588E-05-2.87590E-05-7.35555E-07 1.18215E-18 1.08073E-18
 -1      3524 9.47207E-05-2.75508E-05-2.87852E-05-9.02909E-07-3.31576E-19 2.84384E-18
 -1      3525 9.50278E-05-2.79623E-05-2.87408E-05-6.23936E-07 1.39201E-18 8.44740E-19
 -1      3526 9.50548E-05-2.80430E-05-2.87214E-05-5.17062E-07 1.58419E-18 3.56654E-19
 -1      3527 9.48872E-05-2.78042E-05-2.87485E-05-6.51894E-07 6.31807E-19 1.83247E-18
 -1      3528 9.51055E-05-2.81237E-05-2.87052E-05-4.31734E-07 1.24770E-18-4.41590E-19
 -1      3529 9.51239E-05-2.81866E-05-2.86889E-05-3.50729E-07 1.21726E-18-4.09920E-20
 -1      3530 9.50078E-05-2.80044E-05-2.87149E-05-4.57450E-07 6.48302E-19 3.72427E-19
 -1      3531 9.51592E-05-2.82485E-05-2.86749E-05-2.86670E-07 1.34632E-18-4.41841E-19
 -1      3532 9.51711E-05-2.82968E-05-2.86615E-05-2.26424E-07 1.87573E-18-1.88400E-19
 -1      3533 9.50932E-05-2.81600E-05-2.86850E-05-3.09448E-07 1.29328E-18-9.35959E-19
 -1      3534 9.51951E-05-2.83442E-05-2.86496E-05-1.79157E-07 1.76033E-18-9.46360E-19
 -1      3535 9.52024E-05-2.83811E-05-2.86386E-05-1.35891E-07 2.83860E-19-1.45614E-18
 -1      3536 9.51521E-05-2.82795E-05-2.86592E-05-1.98664E-07 1.46252E-18-1.70908E-18
 -1      3537 9.52176E-05-2.84161E-05-2.86286E-05-1.01522E-07 1.29966E-19-1.42116E-18
 -1      3538 9.52226E-05-2.84442E-05-2.86196E-05-7.08985E-08 5.15125E-19-1.32958E-18
 -1      3539 9.51904E-05-2.83688E-05-2.86373E-05-1.18296E-07 2.92467E-19-1.09789E-18
 -1      3540 9.69248E-05-2.97010E-05-2.87936E-05-9.78679E-06-2.76971E-19-6.25036E-19
 -1      3541 9.61197E-05-2.87052E-05-2.88787E-05-9.42616E-06-2.88976E-19-1.02565E-18
 -1      3542 1.14277E-04-4.55343E-05-2.94579E-05-5.80285E-06-1.70154E-19 8.68106E-19
 -1      3543 1.11262E-04-4.34856E-05-2.89279E-05-8.05988E-06-2.66623E-19 7.53750E-19
 -1      3544 1.07626E-04-4.08004E-05-2.86410E-05-9.27570E-06-3.87306E-19 6.00157E-19
 -1      3545 1.05009E-04-3.83943E-05-2.84649E-05-1.03412E-05-6.18455E-19 6.22438E-19
 -1      3546 1.07840E-04-4.26343E-05-2.80354E-05-1.18198E-05-2.79643E-19 2.78925E-19
 -1      3547 1.18992E-04-5.24630E-05-2.83469E-05-1.29900E-05-6.97154E-19-1.53508E-19
 -1      3548 1.23130E-04-5.20662E-05-3.06666E-05-5.28586E-06-4.93893E-20 4.86472E-19
 -1      3549 1.24511E-04-4.78209E-05-3.29321E-05-4.17387E-06-7.01403E-19-8.33116E-19
 -1      3550 1.17956E-04-4.75211E-05-3.01271E-05 3.48857E-06-6.62244E-19 2.74457E-19
 -1      3551 1.20427E-04-4.80741E-05-3.10545E-05 3.07497E-07-9.75305E-19 2.35561E-19
 -1      3552 9.92137E-05-3.26290E-05-2.84959E-05 9.80834E-06-8.57469E-19 5.64616E-19
 -1      3553 1.00996E-04-3.44976E-05-2.84914E-05 9.68145E-06-4.66702E-19 9.00690E-19
 -1      3554 9.66952E-05-2.98025E-05-2.86484E-05 9.12110E-06-6.66368E-19 1.31033E-18
 -1      3555 9.78772E-05-3.10990E-05-2.86018E-05 9.33755E-06-1.16247E-18 7.83565E-19
 -1      3556 9.64872E-05-3.11884E-05-2.80359E-05 1.07368E-05-1.04491E-18 1.07414E-18
 -1      3557 9.52627E-05-2.80213E-05-2.88100E-05 8.12182E-06-3.89661E-19 1.70284E-18
 -1      3558 9.59868E-05-2.88351E-05-2.87631E-05 8.51398E-06-3.44974E-19 1.97144E-18
 -1      3559 9.45289E-05-2.85633E-05-2.82986E-05 9.46431E-06-8.18967E-19 1.27635E-18
 -1      3560 9.45425E-05-2.70274E-05-2.89345E-05 7.02564E-06 3.87246E-20 1.83463E-18
 -1      3561 9.49563E-05-2.74817E-05-2.89045E-05 7.49354E-06 1.44251E-19 1.63990E-18
 -1      3562 9.35715E-05-2.70105E-05-2.85403E-05 8.12556E-06 1.66835E-19 1.39832E-18
 -1      3563 9.42575E-05-2.65762E-05-2.90096E-05 5.94322E-06-1.69162E-19 6.36792E-19
 -1      3564 9.44751E-05-2.67845E-05-2.89999E-05 6.42828E-06-1.66019E-19 1.33599E-18
 -1      3565 9.32331E-05-2.62218E-05-2.87253E-05 6.85256E-06 1.35527E-19 8.47187E-19
 -1      3566 9.42195E-05-2.64731E-05-2.90393E-05 4.93109E-06-6.65878E-21 2.27552E-19
 -1      3567 9.43204E-05-2.65245E-05-2.90471E-05 5.39852E-06-4.20764E-20 1.45755E-19
 -1      3568 9.32483E-05-2.59409E-05-2.88476E-05 5.69318E-06 4.35723E-19 7.44985E-19
 -1      3569 9.43082E-05-2.65762E-05-2.90337E-05 4.01812E-06 4.92233E-19 5.73110E-19
 -1      3570 9.43438E-05-2.65350E-05-2.90541E-05 4.44767E-06 2.76631E-19-3.71130E-21
 -1      3571 9.34453E-05-2.59754E-05-2.89149E-05 4.66275E-06 1.99726E-19-1.06155E-19
 -1      3572 9.44507E-05-2.67878E-05-2.90040E-05 3.21730E-06-9.92990E-19 6.09039E-19
 -1      3573 9.44526E-05-2.66979E-05-2.90320E-05 3.59831E-06 4.72195E-19 9.92332E-19
 -1      3574 9.37182E-05-2.61886E-05-2.89394E-05 3.76358E-06 1.46040E-19 1.49761E-20
 -1      3575 9.46054E-05-2.70442E-05-2.89599E-05 2.53146E-06-4.22058E-20-2.49807E-19
 -1      3576 9.45920E-05-2.69340E-05-2.89914E-05 2.85984E-06-9.08211E-19-4.45358E-20
 -1      3577 9.40052E-05-2.64881E-05-2.89338E-05 2.99227E-06-7.16589E-19 9.69567E-20
 -1      3578 9.47504E-05-2.73060E-05-2.89091E-05 1.95653E-06 1.78212E-19-9.73183E-20
 -1      3579 9.47319E-05-2.71930E-05-2.89410E-05 2.23267E-06 3.91929E-19-1.83572E-19
 -1      3580 9.42729E-05-2.68145E-05-2.89087E-05 2.34170E-06-1.03841E-19-2.45100E-19
 -1      3581 9.48755E-05-2.75508E-05-2.88572E-05 1.48402E-06-4.38770E-19 6.10925E-19
 -1      3582 9.48573E-05-2.74450E-05-2.88874E-05 1.71119E-06-1.43273E-19 2.54435E-19
 -1      3583 9.45057E-05-2.71319E-05-2.88728E-05 1.80213E-06-1.00568E-19 7.67241E-19
 -1      3584 9.49780E-05-2.77672E-05-2.88076E-05 1.10282E-06-2.68427E-19 3.17599E-19
 -1      3585 9.49622E-05-2.76736E-05-2.88350E-05 1.28602E-06-3.31950E-19 6.36319E-19
 -1      3586 9.46986E-05-2.74205E-05-2.88321E-05 1.36203E-06-3.65320E-19 1.21388E-18
 -1      3587 9.50583E-05-2.79512E-05-2.87626E-05 8.00746E-07-4.46776E-19 3.16696E-19
 -1      3588 9.50459E-05-2.78715E-05-2.87865E-05 9.45722E-07-1.10360E-19 4.96199E-19
 -1      3589 9.48525E-05-2.76712E-05-2.87910E-05 1.00896E-06-4.41112E-19 1.01448E-18
 -1      3590 9.51190E-05-2.81028E-05-2.87231E-05 5.65525E-07-2.50777E-19 2.63718E-19
 -1      3591 9.51098E-05-2.80371E-05-2.87434E-05 6.78172E-07-3.19476E-19 2.66144E-19
 -1      3592 9.49714E-05-2.78816E-05-2.87521E-05 7.30331E-07-6.07733E-19 3.74972E-19
 -1      3593 9.51633E-05-2.82246E-05-2.86895E-05 3.85595E-07-1.20886E-18 4.62582E-19
 -1      3594 9.51569E-05-2.81717E-05-2.87063E-05 4.71516E-07-5.59072E-19 5.43456E-20
 -1      3595 9.50606E-05-2.80533E-05-2.87169E-05 5.14091E-07-8.51433E-19 1.41540E-18
 -1      3596 9.51944E-05-2.83205E-05-2.86613E-05 2.50532E-07-9.76664E-19 3.84935E-19
 -1      3597 9.51903E-05-2.82788E-05-2.86751E-05 3.14786E-07-1.03343E-18-1.67073E-20
 -1      3598 9.51253E-05-2.81904E-05-2.86861E-05 3.49145E-07-5.06039E-19 9.08090E-19
 -1      3599 9.52153E-05-2.83948E-05-2.86382E-05 1.51306E-07-1.14786E-18 1.34057E-18
 -1      3600 9.52129E-05-2.83623E-05-2.86492E-05 1.98262E-07-7.11388E-19 5.87791E-19
 -1      3601 9.51707E-05-2.82975E-05-2.86597E-05 2.25656E-07-1.64643E-18-2.48301E-19
 -1      3602 9.52286E-05-2.84517E-05-2.86192E-05 8.04327E-08 3.90326E-19 1.79495E-18
 -1      3603 9.52274E-05-2.84267E-05-2.86281E-05 1.13716E-07-1.06618E-18 1.85661E-18
 -1      3604 9.52013E-05-2.83802E-05-2.86375E-05 1.35247E-07-1.16065E-18 1.18761E-18
 -1      3605 9.52367E-05-2.84955E-05-2.86037E-05 3.18012E-08 2.22151E-18 1.69867E-18
 -1      3606 9.52360E-05-2.84761E-05-2.86109E-05 5.41961E-08 1.78473E-18 2.08060E-18
 -1      3607 9.52207E-05-2.84433E-05-2.86189E-05 7.10141E-08 6.31444E-19 1.91869E-18
 -1      3608 7.34667E-05-2.80703E-05-1.92881E-05 2.62291E-05 1.31491E-18-1.02258E-18
 -1      3609 6.26747E-05-2.07413E-05-1.77176E-05 2.04715E-05 7.63150E-19-2.10488E-18
 -1      3610 1.20110E-04-2.47285E-05-4.12121E-05 1.32533E-05 1.25657E-18 1.28352E-19
 -1      3611 1.15762E-04-1.72574E-05-4.24270E-05 8.34891E-06 2.03780E-18-8.83297E-20
 -1      3612 9.52020E-05-2.84390E-05-2.86127E-05-2.55859E-08 7.47886E-19 1.30109E-18
 -1      3613 9.51960E-05-2.84317E-05-2.86137E-05-2.11467E-08 4.11951E-19 5.19172E-19
 -1      3614 9.30426E-05-1.94385E-05-3.15564E-05-2.36735E-06-9.66969E-19-1.78994E-18
 -1      3615 6.12701E-05-1.50215E-05-1.98160E-05-6.43137E-06-1.04297E-18 3.45832E-18
 -1      3616 6.16711E-05-1.64487E-05-1.91117E-05-1.27484E-05-4.86978E-19 3.43938E-18
 -1      3617 9.51909E-05-2.84243E-05-2.86144E-05-1.22926E-08-1.25733E-19 1.91299E-18
 -1      3618 9.51885E-05-2.84217E-05-2.86147E-05-5.92683E-09-7.81528E-20 6.17734E-19
 -1      3619 9.51804E-05-2.83954E-05-2.86215E-05-2.27998E-08 5.08777E-19 1.14581E-18
 -1      3620 1.02247E-04-4.40036E-05-2.47090E-05-2.28753E-05 2.07897E-18-1.01533E-18
 -1      3621 1.03272E-04-3.66772E-05-2.84656E-05 9.72397E-06-6.28312E-19 6.00609E-19
 -1      3622 1.05694E-04-3.89905E-05-2.85907E-05 8.95474E-06-8.71981E-20 1.07102E-18
 -1      3623 9.99942E-05-3.52404E-05-2.78472E-05 1.16454E-05-6.30739E-19 1.07136E-18
 -1      3624 9.52384E-05-2.85248E-05-2.85918E-05 3.00180E-09 2.33897E-18 2.60297E-18
 -1      3625 9.52410E-05-2.85312E-05-2.85899E-05-5.19714E-10 9.83273E-19 2.38794E-18
 -1      3626 9.52406E-05-2.85230E-05-2.85932E-05 5.67402E-09 1.34590E-18 2.42978E-18
 -1      3627 9.52318E-05-2.85016E-05-2.85987E-05 1.35504E-08 1.96254E-18 1.98413E-18
 -1      3628 1.09074E-04-4.16599E-05-2.87813E-05 8.20860E-06-8.00016E-20 3.20441E-19
 -1      3629 1.11915E-04-4.40366E-05-2.91302E-05 6.47853E-06-1.73655E-19 6.31612E-19
 -1      3630 1.05452E-04-4.04447E-05-2.79637E-05 1.13241E-05-3.40999E-19 1.31746E-18
 -1      3631 8.94379E-05-1.52036E-05-3.18299E-05-4.96431E-07 2.03434E-20-1.75279E-18
 -1      3632 8.96907E-05-1.54822E-05-3.18193E-05-8.82735E-07-1.97947E-19-1.79857E-18
 -1      3633 9.04699E-05-1.68906E-05-3.15106E-05-5.72578E-07-2.14804E-19-1.73701E-18
 -1      3634 9.26171E-05-3.15533E-05-2.60792E-05-1.71077E-05 1.91861E-18 5.45885E-20
 -1      3635 9.05652E-05-2.88862E-05-2.64078E-05-1.58911E-05 1.65038E-18 4.39506E-19
 -1      3636 8.61737E-05-2.59930E-05-2.58085E-05-1.52676E-05 6.47231E-19-3.94006E-19
 -1      3637 5.11820E-05-1.46394E-05-1.51145E-05-1.23095E-05 3.35835E-19 5.66136E-18
 -1      3638 9.52184E-05-2.84631E-05-2.86094E-05-3.18539E-08 1.46794E-19-9.81948E-19
 -1      3639 9.52108E-05-2.84525E-05-2.86111E-05-3.08443E-08 3.64040E-19-3.88080E-19
 -1      3640 9.51960E-05-2.84167E-05-2.86192E-05-3.95042E-08-2.60799E-19 9.13527E-20
 -1      3641 1.18831E-04-1.64078E-05-4.43640E-05-9.45364E-06 3.43144E-18-2.69187E-18
 -1      3642 9.37574E-05-2.27532E-05-3.04240E-05 2.10454E-06-6.89201E-19-1.35606E-18
 -1      3643 9.37029E-05-2.32385E-05-3.02082E-05 3.15210E-06-5.47537E-19-1.23986E-18
 -1      3644 9.28606E-05-2.25644E-05-3.01157E-05 3.25642E-06-4.34095E-19-1.09398E-18
 -1      3645 6.75219E-05-2.28526E-05-1.90462E-05-2.14222E-05 1.93767E-18 3.88701E-18
 -1      3646 7.37792E-05-2.77480E-05-1.95966E-05-2.56815E-05 1.76747E-18 2.19035E-18
 -1      3647 9.23808E-05-3.82279E-05-2.31490E-05 2.50453E-05 1.06162E-18-1.74992E-19
 -1      3648 9.35511E-05-2.09469E-05-3.11120E-05-7.10543E-07-8.28873E-19-1.54123E-18
 -1      3649 9.37201E-05-2.20038E-05-3.07524E-05 8.70262E-07-7.03515E-19-1.40103E-18
 -1      3650 9.28757E-05-3.94103E-05-2.29903E-05-2.60049E-05 2.43227E-18-7.86523E-19
 -1      3651 9.88491E-05-3.94703E-05-2.52874E-05-2.05573E-05 2.18552E-18-1.00615E-18
 -1      3652 9.47308E-05-3.50671E-05-2.54437E-05-1.96077E-05 2.14856E-18-3.08664E-19
 -1      3653 8.21268E-05-3.23112E-05-2.11534E-05-2.58945E-05 2.20001E-18 7.22651E-19
 -1      3654 1.20347E-04-4.79969E-05-3.10344E-05-7.43061E-07-3.41506E-19 8.71802E-19
 -1      3655 1.17760E-04-4.74664E-05-2.99949E-05-4.10588E-06-1.95668E-19 1.11596E-18
 -1      3656 9.39611E-05-2.17841E-05-3.09424E-05 2.13435E-07 1.10184E-18-1.43795E-18
 -1      3657 9.31791E-05-2.07497E-05-3.10469E-05 1.14647E-07 1.04894E-18-1.56914E-18
 -1      3658 8.68502E-05-3.69059E-05-2.13153E-05-2.84351E-05-1.28315E-18-1.34858E-18
 -1      3659 9.29976E-05-4.18564E-05-2.16440E-05-2.98915E-05-1.25988E-18-9.93464E-19
 -1      3660 1.00067E-04-4.45638E-05-2.38345E-05-2.55141E-05-1.22646E-18-6.26447E-19
 -1      3661 6.70703E-05-1.87486E-05-2.07364E-05 1.39847E-05-1.11912E-18 1.39030E-18
 -1      3662 8.26504E-05-3.03450E-05-2.22983E-05-2.30202E-05 2.57141E-18 6.62869E-19
 -1      3663 9.42470E-05-2.38703E-05-3.01597E-05-3.11794E-06 8.13196E-19-1.61238E-18
 -1      3664 9.48843E-05-2.44118E-05-3.02064E-05-2.77574E-06 8.10957E-19-1.45367E-18
 -1      3665 1.14903E-04-4.80141E-05-2.88097E-05-9.49359E-06-4.10778E-19 6.28584E-19
 -1      3666 5.82270E-05-1.79374E-05-1.71636E-05-1.73600E-05 9.78389E-19 4.90766E-18
 -1      3667 9.49209E-05-2.57020E-05-2.96612E-05-5.42436E-06 4.99361E-19-1.40494E-18
 -1      3668 9.42179E-05-2.48035E-05-2.97507E-05-4.88841E-06 5.90781E-19-1.53390E-18
 -1      3669 9.50275E-05-2.60821E-05-2.95436E-05-6.17373E-06 3.39915E-19-1.15594E-18
 -1      3670 5.25628E-05-1.33755E-05-1.63601E-05-4.84754E-06-4.53024E-19-2.51807E-18
 -1      3671 5.61192E-05-1.54925E-05-1.72839E-05-1.05326E-05-7.63867E-19-2.55931E-18
 -1      3672 5.57591E-05-1.41072E-05-1.77322E-05 5.92575E-07-1.62524E-20-2.40121E-18
 -1      3673 9.60475E-05-2.73632E-05-2.94486E-05-7.24357E-06 2.00655E-19-9.53184E-19
 -1      3674 6.52712E-05-2.40316E-05-1.72652E-05-2.55374E-05-1.69176E-18-2.10493E-18
 -1      3675 7.38165E-05-2.84141E-05-1.93614E-05-2.63830E-05-1.25930E-18-1.91414E-18
 -1      3676 6.29378E-05-2.05737E-05-1.80404E-05-2.00991E-05-1.26765E-18-2.29811E-18
 -1      3677 9.45579E-05-2.76425E-05-2.86988E-05-9.41248E-06-3.85351E-19-1.49096E-18
 -1      3678 9.57671E-05-2.79818E-05-2.90377E-05-8.76978E-06-1.25366E-19-1.14179E-18
 -1      3679 9.53122E-05-2.73291E-05-2.91291E-05-8.25403E-06-1.77117E-19-1.06952E-18
 -1      3680 9.77340E-05-3.08502E-05-2.86379E-05-1.03580E-05-9.88262E-20-3.92043E-19
 -1      3681 9.56568E-05-2.96057E-05-2.83441E-05-1.07820E-05-4.04706E-19-1.05798E-18
 -1      3682 9.90401E-05-3.23238E-05-2.85754E-05-1.04647E-05-5.09399E-20-2.91139E-19
 -1      3683 9.52317E-05-2.84682E-05-2.86125E-05-5.27717E-08 3.74209E-19-2.07874E-18
 -1      3684 9.52347E-05-2.84884E-05-2.86057E-05-3.36129E-08-1.47259E-18-8.74250E-19
 -1      3685 9.52311E-05-2.84826E-05-2.86066E-05-3.34915E-08-8.42701E-19-1.05330E-18
 -1      3686 9.52163E-05-2.84357E-05-2.86201E-05-6.66344E-08 3.17276E-19-1.92281E-18
 -1      3687 1.24620E-04-4.86496E-05-3.25056E-05 2.79502E-06-1.20861E-19 8.44915E-19
 -1      3688 1.01781E-04-3.70020E-05-2.78291E-05-1.25861E-05-5.43110E-19-8.77572E-20
 -1      3689 1.02513E-04-3.60673E-05-2.84642E-05-1.04964E-05-4.99726E-19 4.52149E-19
 -1      3690 1.00560E-04-3.40440E-05-2.84559E-05-1.08283E-05 5.00337E-20 1.72566E-19
 -1      3691 1.14033E-04-5.12725E-05-2.69551E-05-1.81196E-05-9.83035E-19-5.31209E-19
 -1      3692 1.15029E-04-4.92737E-05-2.81232E-05-1.23737E-05-7.76590E-19-6.78553E-20
 -1      3693 1.11390E-04-4.65454E-05-2.76337E-05-1.35544E-05-6.54267E-19-2.08588E-19
 -1      3694 1.08514E-04-4.79319E-05-2.57239E-05-2.07705E-05-8.78492E-19-4.48031E-19
 -1      3695 1.25421E-04-4.55127E-05-3.43178E-05 6.32881E-06 3.53782E-19 5.32969E-19
 -1      3696 9.30620E-05-2.14289E-05-3.06897E-05 1.20257E-06-6.25851E-19-1.40331E-18
 -1      3697 1.14916E-04-4.74968E-05-2.89671E-05 8.37179E-06-6.50396E-19 3.91971E-19
 -1      3698 6.89544E-05-2.09871E-05-2.04175E-05 1.73677E-05 5.70252E-19-1.59208E-18
 -1      3699 6.11927E-05-1.79974E-05-1.82359E-05 1.59534E-05 5.98303E-19-2.56259E-18
 -1      3700 6.12097E-05-1.63100E-05-1.91559E-05 1.04576E-05 2.49630E-19-2.17770E-18
 -1      3701 8.40392E-05-3.29092E-05-2.18116E-05 2.57469E-05 1.03984E-18-7.45376E-19
 -1      3702 8.00640E-05-2.80452E-05-2.22849E-05 2.21156E-05 8.00155E-19-1.01034E-18
 -1      3703 9.52406E-05-2.85144E-05-2.85967E-05 1.47522E-08 2.19905E-18 1.85904E-18
 -1      3704 9.50104E-05-2.34838E-05-3.06596E-05-2.72885E-07 9.79456E-19-1.36773E-18
 -1      3705 9.43989E-05-2.24223E-05-3.08446E-05 4.87356E-08 1.08497E-18-1.33383E-18
 -1      3706 9.42924E-05-2.27694E-05-3.06464E-05-9.77952E-07 9.29022E-19-1.44444E-18
 -1      3707 9.50964E-05-2.40431E-05-3.04527E-05-1.36180E-06 8.50983E-19-1.40163E-18
 -1      3708 9.51883E-05-2.84216E-05-2.86146E-05 4.23028E-09-3.21336E-19-5.85457E-19
 -1      3709 9.51903E-05-2.84240E-05-2.86143E-05 1.06341E-08-1.55644E-20-4.16307E-19
 -1      3710 9.51744E-05-2.83878E-05-2.86222E-05-8.88996E-10 1.86032E-19-1.74576E-19
 -1      3711 6.58073E-05-1.55102E-05-2.15250E-05 3.05166E-06-1.13756E-18 2.52919E-18
 -1      3712 6.24655E-05-1.42170E-05-2.04413E-05-1.27143E-06-1.06592E-18 3.69871E-18
 -1      3713 6.55598E-05-1.57582E-05-2.13904E-05-6.20218E-06-7.48918E-19 3.33074E-18
 -1      3714 9.51952E-05-2.84312E-05-2.86135E-05 1.96161E-08 5.87518E-19-6.53086E-19
 -1      3715 9.52008E-05-2.84384E-05-2.86125E-05 2.42248E-08 1.27169E-18 4.93466E-19
 -1      3716 9.51794E-05-2.83950E-05-2.86213E-05 2.11583E-08 3.08245E-19-3.83611E-19
 -1      3717 8.15001E-05-3.15102E-05-2.10879E-05 2.60895E-05-1.62667E-18 6.47133E-19
 -1      3718 7.77692E-05-2.71590E-05-2.16003E-05 2.18825E-05-9.06921E-19 6.96552E-19
 -1      3719 9.31287E-05-2.00729E-05-3.12968E-05-1.21134E-06-8.33196E-19-1.70478E-18
 -1      3720 9.52274E-05-2.84780E-05-2.86072E-05-3.26626E-08 3.65298E-20-8.20391E-19
 -1      3721 9.17948E-05-1.84270E-05-3.14203E-05 7.73441E-07 1.17227E-18-1.63160E-18
 -1      3722 9.51935E-05-2.84152E-05-2.86188E-05 3.68135E-08 2.49864E-19 7.94137E-19
 -1      3723 9.52083E-05-2.84508E-05-2.86108E-05 2.84550E-08 1.59647E-18 1.57901E-18
 -1      3724 9.52150E-05-2.84601E-05-2.86091E-05 2.95223E-08 1.63475E-18 5.28771E-19
 -1      3725 9.04075E-05-1.75294E-05-3.12452E-05-1.07158E-07 5.59955E-19-1.34423E-18
 -1      3726 9.02201E-05-1.73282E-05-3.12533E-05-2.18237E-07 3.82822E-19-1.47176E-18
 -1      3727 9.48559E-05-2.39728E-05-3.03754E-05-1.85650E-06 8.84545E-19-1.50177E-18
 -1      3728 1.11889E-04-4.72318E-05-2.75531E-05 1.37394E-05-6.58873E-19-9.25450E-21
 -1      3729 8.99734E-05-1.63302E-05-3.15370E-05-2.83088E-07 8.03838E-20-1.61821E-18
 -1      3730 8.78945E-05-3.08707E-05-2.44549E-05-2.00726E-05 2.37470E-18-1.16679E-19
 -1      3731 9.52148E-05-2.84455E-05-2.86153E-05-4.72140E-08-1.08507E-19-1.22471E-18
 -1      3732 1.05711E-04-4.25213E-05-2.71135E-05 1.44686E-05-5.15029E-19 7.99817E-19
 -1      3733 1.07614E-04-4.61023E-05-2.64375E-05 1.76201E-05-1.10895E-18-5.43160E-20
 -1      3734 1.00747E-04-4.26267E-05-2.45933E-05 2.25145E-05-1.37903E-18-9.72864E-20
 -1      3735 1.02404E-04-3.91592E-05-2.69878E-05 1.45213E-05-4.11489E-19 1.18398E-18
 -1      3736 9.52328E-05-2.84919E-05-2.86032E-05 2.70542E-08 1.91274E-18 2.51474E-18
 -1      3737 9.07066E-05-3.78586E-05-2.27260E-05 2.56536E-05-1.63803E-18-1.63345E-19
 -1      3738 9.07451E-05-1.79034E-05-3.12313E-05-1.65213E-07 7.01819E-19-1.55148E-18
 -1      3739 9.09139E-05-1.86295E-05-3.09562E-05-4.72325E-07 6.80073E-19-1.31959E-18
 -1      3740 9.12011E-05-1.84153E-05-3.12056E-05-2.78469E-08 9.18725E-19-1.54131E-18
 -1      3741 9.05392E-05-1.76774E-05-3.12385E-05-1.16102E-07-6.48190E-20-1.63321E-18
 -1      3742 9.09266E-05-1.81278E-05-3.12163E-05-2.24757E-07-2.11312E-19-1.64995E-18
 -1      3743 6.25848E-05-1.82387E-05-1.89285E-05-1.58778E-05 2.81228E-19 3.21936E-18
 -1      3744 6.48455E-05-2.00227E-05-1.89593E-05-1.86280E-05 1.27359E-18 3.92242E-18
 -1      3745 6.71601E-05-1.85315E-05-2.07531E-05-1.38226E-05 4.67762E-20 1.99555E-18
 -1      3746 7.13295E-05-2.27844E-05-2.06899E-05-1.95536E-05 1.65762E-18 2.68787E-18
 -1      3747 9.51849E-05-2.83896E-05-2.86264E-05-5.92252E-08-2.10188E-19-8.51162E-19
 -1      3748 9.51736E-05-2.83763E-05-2.86280E-05-5.12766E-08 7.18651E-19-1.19560E-22
 -1      3749 9.23072E-05-2.17516E-05-3.02422E-05 2.39180E-06-3.67511E-19-1.08723E-18
 -1      3750 9.20958E-05-2.21233E-05-2.99958E-05 3.23852E-06-3.47466E-19-1.11281E-18
 -1      3751 7.67529E-05-2.50078E-05-2.19934E-05-2.03029E-05 1.95171E-18 1.47062E-18
 -1      3752 8.38909E-05-2.92974E-05-2.33188E-05-2.06753E-05 2.18247E-18 1.27333E-19
 -1      3753 8.22680E-05-2.59318E-05-2.41599E-05-1.76324E-05 1.51298E-18 1.20954E-19
 -1      3754 7.33744E-05-2.23524E-05-2.18606E-05-1.76822E-05 1.42699E-18 1.74873E-18
 -1      3755 1.18332E-04-2.33570E-05-4.11206E-05 1.24384E-05 1.26626E-18-5.55336E-20
 -1      3756 9.02611E-05-1.73839E-05-3.12480E-05-2.18874E-07-4.17530E-21-1.46082E-18
 -1      3757 9.07027E-05-1.84170E-05-3.09599E-05 8.06759E-08-1.65775E-20-1.42023E-18
 -1      3758 9.01608E-05-1.72661E-05-3.12536E-05-1.35559E-07 2.15886E-19-1.47638E-18
 -1      3759 9.05741E-05-2.24528E-05-2.92086E-05 5.28544E-06 5.05376E-20-8.18915E-19
 -1      3760 9.00158E-05-2.24491E-05-2.89588E-05 6.02242E-06 2.78733E-19-7.60606E-19
 -1      3761 8.91018E-05-2.23256E-05-2.86382E-05 6.67970E-06 4.48770E-19-6.85163E-19
 -1      3762 8.84502E-05-2.22990E-05-2.83463E-05 7.45449E-06 4.67936E-19-7.95393E-19
 -1      3763 8.85444E-05-2.16224E-05-2.86580E-05 5.43055E-06 3.23945E-19-7.35085E-19
 -1      3764 8.73155E-05-2.21639E-05-2.79511E-05 8.22432E-06 4.81899E-19-7.97538E-19
 -1      3765 8.66501E-05-2.22524E-05-2.75853E-05 9.13448E-06 5.37466E-19-9.31499E-19
 -1      3766 8.65119E-05-2.13021E-05-2.79190E-05 6.74076E-06 3.74896E-19-6.19198E-19
 -1      3767 8.53065E-05-2.22378E-05-2.70707E-05 1.01541E-05 6.45612E-19-8.98050E-19
 -1      3768 8.47740E-05-2.26360E-05-2.65979E-05 1.13384E-05 6.75728E-19-6.83862E-19
 -1      3769 8.40435E-05-2.10108E-05-2.69788E-05 8.38313E-06 5.96496E-19-6.65853E-19
 -1      3770 8.32348E-05-2.29127E-05-2.59057E-05 1.28378E-05 6.86859E-19-6.47550E-19
 -1      3771 8.30589E-05-2.39058E-05-2.52881E-05 1.45028E-05 7.89921E-19-4.22155E-19
 -1      3772 8.11272E-05-2.10117E-05-2.57276E-05 1.06978E-05 7.13469E-19-6.93767E-19
 -1      3773 8.20429E-05-2.82302E-05-2.31738E-05 2.01076E-05-1.24525E-18 1.38503E-19
 -1      3774 7.55333E-05-2.33682E-05-2.20699E-05 1.84181E-05-1.30347E-18 1.06102E-18
 -1      3775 7.22992E-05-2.03369E-05-2.22633E-05 1.33836E-05-1.38227E-18 1.17526E-18
 -1      3776 9.24354E-05-2.02679E-05-3.09175E-05 4.08573E-07-5.09520E-19-1.59110E-18
 -1      3777 9.24742E-05-2.11711E-05-3.05714E-05 1.55959E-06-3.91119E-19-1.35663E-18
 -1      3778 8.49952E-05-2.18039E-05-2.70652E-05-8.97823E-06 3.06078E-19 1.80850E-19
 -1      3779 8.55837E-05-2.17285E-05-2.74011E-05-8.02627E-06 4.05468E-19 3.76508E-20
 -1      3780 8.67299E-05-2.19616E-05-2.77500E-05-7.23248E-06-2.32387E-19 1.93241E-19
 -1      3781 8.73570E-05-2.21304E-05-2.79797E-05-6.50510E-06-1.78063E-19-5.99655E-19
 -1      3782 8.45006E-05-2.08300E-05-2.72555E-05-6.58762E-06 1.27204E-19 5.64716E-19
 -1      3783 8.83302E-05-2.24867E-05-2.82155E-05-5.90572E-06-7.52375E-20-1.43085E-18
 -1      3784 8.89193E-05-2.27814E-05-2.83640E-05-5.31711E-06-5.20040E-19-6.46176E-19
 -1      3785 8.66048E-05-2.15335E-05-2.78621E-05-5.33123E-06-6.13191E-19 3.39728E-19
 -1      3786 8.97347E-05-2.31916E-05-2.85175E-05-4.83859E-06-9.67919E-19-1.67480E-19
 -1      3787 9.02530E-05-2.35389E-05-2.86068E-05-4.34494E-06-1.27129E-18 2.87107E-19
 -1      3788 8.83765E-05-2.23720E-05-2.82674E-05-4.36386E-06-3.02156E-19-3.77178E-19
 -1      3789 9.09275E-05-2.39567E-05-2.87016E-05-3.94811E-06-1.72276E-18 5.07992E-19
 -1      3790 9.13648E-05-2.43114E-05-2.87493E-05-3.52717E-06-1.76626E-18 1.80998E-19
 -1      3791 8.98507E-05-2.32484E-05-2.85278E-05-3.57485E-06-1.35239E-18 1.02594E-18
 -1      3792 9.19154E-05-2.47080E-05-2.88029E-05-3.19230E-06-8.77577E-19 5.15575E-19
 -1      3793 9.22734E-05-2.50435E-05-2.88226E-05-2.83266E-06 7.47219E-19 6.67829E-19
 -1      3794 9.10622E-05-2.40998E-05-2.86855E-05-2.91010E-06-1.20914E-18 1.69766E-18
 -1      3795 9.27167E-05-2.54028E-05-2.88484E-05-2.54931E-06 8.18141E-19 1.11049E-19
 -1      3796 9.30031E-05-2.57050E-05-2.88500E-05-2.24436E-06 8.12206E-20 6.39337E-19
 -1      3797 9.20448E-05-2.48869E-05-2.87720E-05-2.34301E-06 1.27712E-19 3.46635E-19
 -1      3798 9.33553E-05-2.60196E-05-2.88575E-05-2.00631E-06-1.68363E-19 8.37981E-19
 -1      3799 9.35800E-05-2.62825E-05-2.88482E-05-1.75104E-06-4.40367E-19 1.62596E-18
 -1      3800 9.28312E-05-2.55883E-05-2.88106E-05-1.86020E-06 6.78557E-19 5.03794E-19
 -1      3801 9.38559E-05-2.65505E-05-2.88444E-05-1.55356E-06-9.40184E-19 2.34473E-18
 -1      3802 9.40292E-05-2.67731E-05-2.88292E-05-1.34312E-06-8.20963E-19 2.09509E-18
 -1      3803 9.34522E-05-2.61958E-05-2.88182E-05-1.45346E-06-5.03806E-20 3.10509E-18
 -1      3804 9.42422E-05-2.69964E-05-2.88188E-05-1.18178E-06-9.09429E-19 2.19011E-18
 -1      3805 9.43736E-05-2.71807E-05-2.88010E-05-1.01110E-06-8.02954E-19 2.67864E-18
 -1      3806 9.39357E-05-2.67093E-05-2.88068E-05-1.11584E-06-8.38653E-19 2.75603E-18
 -1      3807 9.45356E-05-2.73630E-05-2.87874E-05-8.81428E-07-1.08766E-18 2.39644E-18
 -1      3808 9.46335E-05-2.75128E-05-2.87692E-05-7.45277E-07-2.33304E-19 2.16573E-18
 -1      3809 9.43066E-05-2.71345E-05-2.87846E-05-8.40217E-07-9.31761E-19 2.04637E-18
 -1      3810 9.47546E-05-2.76590E-05-2.87544E-05-6.42807E-07-1.66951E-20 2.03592E-18
 -1      3811 9.48262E-05-2.77785E-05-2.87372E-05-5.36013E-07 1.80655E-19 1.12108E-18
 -1      3812 9.45866E-05-2.74800E-05-2.87574E-05-6.19059E-07 3.12418E-19 1.08491E-18
 -1      3813 9.49151E-05-2.78938E-05-2.87226E-05-4.56427E-07 2.02280E-19 1.24885E-18
 -1      3814 9.49663E-05-2.79877E-05-2.87070E-05-3.74094E-07 1.26477E-19 5.56624E-19
 -1      3815 9.47943E-05-2.77560E-05-2.87289E-05-4.44694E-07-2.42983E-19 1.81503E-18
 -1      3816 9.50301E-05-2.80773E-05-2.86934E-05-3.13392E-07 2.59115E-19-6.80562E-20
 -1      3817 9.50659E-05-2.81500E-05-2.86797E-05-2.51025E-07 6.26895E-19-5.04063E-19
 -1      3818 9.49452E-05-2.79728E-05-2.87012E-05-3.09689E-07 7.39091E-20 1.42760E-18
 -1      3819 9.51102E-05-2.82181E-05-2.86674E-05-2.05750E-07 1.27362E-18-1.46603E-18
 -1      3820 9.51337E-05-2.82738E-05-2.86555E-05-1.58224E-07 1.33799E-18-1.86813E-18
 -1      3821 9.50522E-05-2.81407E-05-2.86755E-05-2.07270E-07-6.54256E-21 2.03728E-19
 -1      3822 9.52051E-05-2.84204E-05-2.86224E-05-6.52157E-08 9.59649E-20-9.81390E-19
 -1      3823 1.11440E-04-2.22209E-05-3.86046E-05-1.05715E-05 2.17507E-18-1.50690E-18
 -1      3824 9.33566E-05-2.89923E-05-2.75830E-05 1.11984E-05-8.85705E-19 6.31314E-19
 -1      3825 9.47407E-05-3.06265E-05-2.74333E-05 1.18592E-05-7.20312E-19 1.01359E-18
 -1      3826 9.19006E-05-2.52996E-05-2.85521E-05 6.37812E-06 1.77250E-19 9.11458E-19
 -1      3827 9.19653E-05-2.55113E-05-2.84654E-05 6.98733E-06 3.63476E-20 1.10189E-18
 -1      3828 9.22470E-05-2.52663E-05-2.87151E-05 5.19958E-06 1.19183E-19 9.42170E-19
 -1      3829 9.21818E-05-2.52833E-05-2.86610E-05 5.73914E-06 4.81529E-19 1.03993E-18
 -1      3830 9.09137E-05-2.45941E-05-2.84202E-05 5.85506E-06 7.24995E-21 1.58548E-18
 -1      3831 9.26917E-05-2.54819E-05-2.88128E-05 4.19704E-06 6.22392E-19 6.27355E-19
 -1      3832 9.25655E-05-2.53843E-05-2.87852E-05 4.66822E-06 5.53533E-19 7.55909E-19
 -1      3833 9.15242E-05-2.47478E-05-2.86140E-05 4.70360E-06 6.63551E-19 1.08383E-18
 -1      3834 9.31519E-05-2.58277E-05-2.88611E-05 3.34921E-06-9.27560E-19 1.75137E-18
 -1      3835 9.30059E-05-2.56708E-05-2.88529E-05 3.75516E-06 3.23721E-19 1.16970E-18
 -1      3836 9.21607E-05-2.51000E-05-2.87351E-05 3.75396E-06 2.84884E-19 1.78965E-18
 -1      3837 9.35817E-05-2.62246E-05-2.88742E-05 2.63836E-06-4.84070E-19 1.04280E-18
 -1      3838 9.34389E-05-2.60448E-05-2.88794E-05 2.98311E-06-9.53375E-19 1.54712E-18
 -1      3839 9.27618E-05-2.55461E-05-2.88017E-05 2.96945E-06-4.74498E-19 2.79902E-18
 -1      3840 9.39586E-05-2.66229E-05-2.88640E-05 2.04888E-06-3.65154E-19 1.11564E-18
 -1      3841 9.38309E-05-2.64430E-05-2.88774E-05 2.33720E-06-4.61402E-19 8.52760E-19
 -1      3842 9.32962E-05-2.60172E-05-2.88293E-05 2.32303E-06-6.20040E-19 2.54213E-18
 -1      3843 9.42751E-05-2.69937E-05-2.88398E-05 1.56624E-06-3.25177E-19 1.15648E-18
 -1      3844 9.41671E-05-2.68267E-05-2.88576E-05 1.80357E-06-2.47020E-19 1.24752E-18
 -1      3845 9.37513E-05-2.64710E-05-2.88306E-05 1.79391E-06-2.82573E-19 1.06941E-18
 -1      3846 9.45318E-05-2.73218E-05-2.88083E-05 1.17651E-06-4.75227E-19 1.70751E-18
 -1      3847 9.44442E-05-2.71745E-05-2.88278E-05 1.36875E-06-5.95945E-19 1.58617E-18
 -1      3848 9.41263E-05-2.68831E-05-2.88154E-05 1.36490E-06-6.73117E-19 1.58855E-18
 -1      3849 9.47340E-05-2.76018E-05-2.87742E-05 8.66355E-07-5.50536E-19 1.63006E-18
 -1      3850 9.46654E-05-2.74764E-05-2.87935E-05 1.01959E-06 2.61865E-20 1.98224E-18
 -1      3851 9.44267E-05-2.72423E-05-2.87908E-05 1.02106E-06-4.19806E-19 1.29905E-18
 -1      3852 9.48890E-05-2.78337E-05-2.87405E-05 6.23224E-07-7.44277E-19 1.22824E-18
 -1      3853 9.48368E-05-2.77301E-05-2.87586E-05 7.43399E-07-7.80135E-19 1.39812E-18
 -1      3854 9.46611E-05-2.75454E-05-2.87619E-05 7.49010E-07-3.20659E-19 2.33486E-18
 -1      3855 9.50046E-05-2.80211E-05-2.87092E-05 4.35617E-07-7.29512E-19 1.00291E-18
 -1      3856 9.49662E-05-2.79375E-05-2.87254E-05 5.28302E-07-8.38146E-19 6.09055E-19
 -1      3857 9.48395E-05-2.77944E-05-2.87322E-05 5.36728E-07-6.98539E-19 1.65306E-18
 -1      3858 9.50884E-05-2.81694E-05-2.86811E-05 2.93279E-07-2.62612E-19 9.42119E-21
 -1      3859 9.50611E-05-2.81034E-05-2.86952E-05 3.63509E-07 4.33470E-20 2.10403E-19
 -1      3860 9.49720E-05-2.79944E-05-2.87036E-05 3.73576E-07 1.94501E-19-3.52483E-19
 -1      3861 9.51473E-05-2.82846E-05-2.86565E-05 1.87313E-07-2.42692E-18 3.57859E-19
 -1      3862 9.51285E-05-2.82334E-05-2.86686E-05 2.39441E-07-1.38865E-18-1.87945E-20
 -1      3863 9.50676E-05-2.81520E-05-2.86774E-05 2.50159E-07-9.49745E-19 1.07349E-18
 -1      3864 9.51872E-05-2.83731E-05-2.86354E-05 1.10257E-07-9.34553E-19 7.43151E-19
 -1      3865 9.51747E-05-2.83337E-05-2.86456E-05 1.47850E-07-1.99005E-18 2.57428E-19
 -1      3866 9.51344E-05-2.82738E-05-2.86540E-05 1.58587E-07-2.19335E-18 5.30723E-20
 -1      3867 9.14245E-05-1.93607E-05-3.08731E-05 5.19008E-07-1.96013E-19-1.41312E-18
 -1      3868 9.14056E-05-1.87687E-05-3.11359E-05 1.10097E-08-3.15002E-19-1.56254E-18
 -1      3869 9.41843E-05-3.70300E-05-2.44478E-05 2.10499E-05-1.04174E-18 3.55509E-19
 -1      3870 9.52273E-05-2.84803E-05-2.86060E-05 3.06773E-08 1.65711E-18 1.57403E-18
 -1      3871 1.18089E-04-2.68241E-05-3.91469E-05 1.33546E-05 6.33316E-19 3.93712E-19
 -1      3872 9.51628E-05-2.83616E-05-2.86292E-05-3.71768E-08 7.65954E-19 1.14222E-18
 -1      3873 9.51560E-05-2.83540E-05-2.86299E-05-2.54108E-08 9.50027E-19 1.15531E-18
 -1      3874 9.51507E-05-2.83297E-05-2.86366E-05-5.69514E-08 9.79063E-19 7.26327E-19
 -1      3875 9.25482E-05-1.97439E-05-3.12159E-05-5.15225E-07-5.98121E-19-1.70433E-18
 -1      3876 9.24454E-05-1.98695E-05-3.11161E-05 1.03924E-07 1.05896E-18-1.65102E-18
 -1      3877 9.17764E-05-1.90716E-05-3.11710E-05-4.14184E-08 9.95953E-19-1.60972E-18
 -1      3878 9.18472E-05-1.96725E-05-3.09107E-05-6.55095E-07 8.48119E-19-1.51584E-18
 -1      3879 9.31352E-05-2.12123E-05-3.08111E-05-7.36390E-07 9.06446E-19-1.58468E-18
 -1      3880 9.17951E-05-2.57568E-05-2.83095E-05 7.76015E-06-3.19707E-20 3.66446E-19
 -1      3881 9.21020E-05-2.62754E-05-2.81880E-05 8.43068E-06-5.93207E-19 5.49637E-19
 -1      3882 9.04363E-05-2.47891E-05-2.81351E-05 7.26570E-06-3.42596E-19 1.48592E-18
 -1      3883 8.31144E-05-2.73332E-05-2.38359E-05 1.92730E-05 7.23115E-19-7.04549E-19
 -1      3884 7.49122E-05-2.35893E-05-2.18350E-05 1.92720E-05 6.53804E-19-1.26945E-18
 -1      3885 7.24526E-05-2.09098E-05-2.21123E-05 1.54688E-05 3.89106E-19-1.34981E-18
 -1      3886 8.22976E-05-2.51379E-05-2.45610E-05 1.67950E-05 7.04698E-19-6.27862E-19
 -1      3887 9.21597E-05-2.68812E-05-2.79814E-05 9.36934E-06-1.05278E-18 6.55772E-19
 -1      3888 9.28849E-05-2.78582E-05-2.78325E-05 1.00695E-05-1.02065E-18 8.99424E-19
 -1      3889 9.07336E-05-2.71857E-05-2.72426E-05 1.11433E-05-1.04359E-18-1.16263E-19
 -1      3890 1.06907E-04-4.29860E-05-2.73598E-05-1.41601E-05-3.87981E-19-5.58373E-19
 -1      3891 1.03243E-04-3.96663E-05-2.71517E-05-1.47126E-05-5.12579E-19-7.75194E-19
 -1      3892 1.05864E-04-4.39623E-05-2.66454E-05-1.71388E-05-6.78970E-19-1.29004E-18
 -1      3893 9.59175E-05-3.23927E-05-2.71744E-05 1.30811E-05-3.44665E-19 7.79517E-19
 -1      3894 9.81587E-05-3.49543E-05-2.70801E-05 1.36343E-05-5.81905E-20 1.33707E-18
 -1      3895 9.23562E-05-3.01742E-05-2.66704E-05 1.36967E-05-4.37731E-19 2.75281E-19
 -1      3896 9.05186E-05-1.81949E-05-3.09696E-05-2.28740E-07 2.85934E-19-1.29763E-18
 -1      3897 9.18047E-05-2.07155E-05-3.04556E-05 1.61230E-06-2.90273E-19-1.29609E-18
 -1      3898 9.51830E-05-2.83768E-05-2.86315E-05-7.91954E-08 4.19652E-19-4.56025E-19
 -1      3899 9.20407E-05-1.95050E-05-3.10902E-05-4.69165E-08-4.82701E-19-1.74279E-18
 -1      3900 9.09548E-05-1.95767E-05-3.05870E-05 7.38539E-07-7.26766E-20-1.43670E-18
 -1      3901 9.13791E-05-2.02033E-05-3.05134E-05 1.08831E-06-1.07347E-19-1.36656E-18
 -1      3902 9.11774E-05-2.07793E-05-3.01740E-05 1.80850E-06-1.19737E-19-1.17603E-18
 -1      3903 9.16666E-05-2.23291E-05-2.97257E-05 3.88812E-06-2.61685E-19-9.81673E-19
 -1      3904 9.12565E-05-2.24587E-05-2.94897E-05 4.65561E-06-1.29974E-19-9.45362E-19
 -1      3905 9.12235E-05-2.15507E-05-2.98443E-05 3.02276E-06-1.82204E-19-8.65193E-19
 -1      3906 1.23591E-04-3.90867E-05-3.64178E-05 1.21966E-05 5.84850E-19 5.62589E-19
 -1      3907 9.52236E-05-2.68712E-05-2.92850E-05-7.55346E-06-1.10889E-20-9.60643E-19
 -1      3908 9.49921E-05-2.64206E-05-2.93838E-05-6.92074E-06 2.92517E-19-1.03069E-18
 -1      3909 9.41547E-05-2.64042E-05-2.90468E-05-7.97728E-06 3.35066E-20-1.17115E-18
 -1      3910 8.32393E-05-2.46313E-05-2.50523E-05-1.51617E-05 1.19412E-18-7.57997E-19
 -1      3911 8.31305E-05-2.33339E-05-2.56612E-05-1.32931E-05 5.72445E-19-8.59212E-19
 -1      3912 7.94052E-05-2.31948E-05-2.40579E-05-1.56104E-05 9.72108E-19-2.01481E-19
 -1      3913 8.31984E-05-2.22863E-05-2.60757E-05-1.14723E-05 3.42928E-19-3.61019E-19
 -1      3914 8.36373E-05-2.17524E-05-2.65615E-05-1.01112E-05 1.83181E-19 3.07717E-19
 -1      3915 8.20088E-05-2.03908E-05-2.63736E-05-8.31185E-06 4.96131E-19 2.01769E-19
 -1      3916 9.36114E-05-2.34395E-05-3.00754E-05-3.37928E-06 7.71581E-19-1.54383E-18
 -1      3917 9.35773E-05-2.28750E-05-3.03031E-05-2.43269E-06 8.03175E-19-1.54583E-18
 -1      3918 9.52146E-05-2.84483E-05-2.86140E-05 4.45213E-08 1.65589E-18 1.09287E-18
 -1      3919 1.20042E-04-3.34636E-05-3.73832E-05 1.31957E-05 6.24528E-19 4.01017E-19
 -1      3920 1.03293E-04-4.45822E-05-2.50888E-05-2.17921E-05-1.17174E-18-7.34047E-19
 -1      3921 9.01247E-05-2.17653E-05-2.92782E-05 4.23272E-06 5.08873E-20-6.26386E-19
 -1      3922 9.03203E-05-3.21121E-05-2.47598E-05 1.86915E-05-1.11209E-18 4.53864E-19
 -1      3923 8.72652E-05-2.88741E-05-2.50458E-05 1.64443E-05-9.95800E-19 3.29095E-19
 -1      3924 9.41213E-05-2.55570E-05-2.93901E-05-6.48432E-06 2.39559E-19-1.38914E-18
 -1      3925 7.67020E-05-2.18012E-05-2.36066E-05 1.34967E-05-1.03188E-18 1.11389E-18
 -1      3926 7.03414E-05-1.75242E-05-2.25193E-05 9.22914E-06-1.40661E-18 2.03534E-18
 -1      3927 5.97335E-05-1.47392E-05-1.90254E-05 6.05361E-06 4.38604E-20-2.29334E-18
 -1      3928 5.98690E-05-1.46758E-05-1.92978E-05 7.29887E-07-2.19858E-19-2.38469E-18
 -1      3929 6.52979E-05-1.69497E-05-2.06123E-05 9.52287E-06 2.17612E-19-1.89080E-18
 -1      3930 6.08637E-05-1.74466E-05-1.82483E-05-1.51118E-05-8.41752E-19-2.30171E-18
 -1      3931 6.67770E-05-2.08870E-05-1.96227E-05-1.81922E-05-8.08811E-19-2.11981E-18
 -1      3932 6.03095E-05-1.59877E-05-1.89485E-05-9.51915E-06-6.35036E-19-2.24789E-18
 -1      3933 9.34439E-05-2.42912E-05-2.96344E-05-5.01752E-06 3.98583E-19-1.32392E-18
 -1      3934 9.34889E-05-2.38849E-05-2.98326E-05-4.17687E-06 6.23118E-19-1.35411E-18
 -1      3935 9.28463E-05-2.29262E-05-2.99636E-05-3.52509E-06 5.19783E-19-1.32529E-18
 -1      3936 9.32067E-05-2.70014E-05-2.83503E-05-9.71166E-06-4.75739E-19-1.20527E-18
 -1      3937 9.28544E-05-2.62572E-05-2.85440E-05-8.97459E-06-1.53565E-19-1.18336E-18
 -1      3938 9.78797E-05-3.26282E-05-2.80168E-05-1.19678E-05-3.43290E-19-2.66602E-19
 -1      3939 9.51675E-05-2.83365E-05-2.86415E-05-1.11175E-07 1.33922E-18-7.75053E-19
 -1      3940 1.00498E-04-3.68005E-05-2.72651E-05-1.40462E-05-5.88843E-19-9.03542E-19
 -1      3941 9.80551E-05-3.41787E-05-2.73282E-05-1.37807E-05-5.43611E-19-8.26738E-19
 -1      3942 9.87937E-05-3.69352E-05-2.65984E-05-1.61920E-05-6.73453E-19-1.50681E-18
 -1      3943 9.51519E-05-2.83489E-05-2.86302E-05-7.59316E-09 9.79910E-19 1.52467E-18
 -1      3944 9.51516E-05-2.83484E-05-2.86302E-05 5.52430E-09 1.17033E-20 5.74999E-19
 -1      3945 9.51336E-05-2.83092E-05-2.86382E-05-2.13941E-08 7.11174E-19 2.09738E-18
 -1      3946 9.40876E-05-2.89963E-05-2.78686E-05-1.14426E-05-4.04693E-19-1.34976E-18
 -1      3947 9.32980E-05-2.77963E-05-2.80692E-05-1.06997E-05-4.43245E-19-1.31166E-18
 -1      3948 9.14264E-05-2.63753E-05-2.78977E-05-1.02800E-05-3.97224E-19-1.30433E-18
 -1      3949 9.06312E-05-1.92608E-05-3.05919E-05 4.82433E-07-2.13173E-20-1.37626E-18
 -1      3950 8.17954E-05-3.23399E-05-2.09585E-05-2.68641E-05-1.22707E-18-1.54488E-18
 -1      3951 8.93476E-05-3.59096E-05-2.28125E-05-2.47864E-05-1.24309E-18-1.13325E-18
 -1      3952 7.70641E-05-2.79556E-05-2.10069E-05-2.35920E-05-1.03345E-18-1.86139E-18
 -1      3953 9.02778E-05-2.55503E-05-2.77424E-05 9.00651E-06-4.38302E-19 3.89549E-19
 -1      3954 9.52131E-05-2.84398E-05-2.86173E-05 5.63212E-08 2.05945E-18 5.15766E-19
 -1      3955 9.52051E-05-2.84103E-05-2.86259E-05 8.19866E-08 4.62509E-19 7.14619E-19
 -1      3956 9.73302E-05-3.64831E-05-2.62088E-05 1.64697E-05-6.61665E-19 8.94546E-19
 -1      3957 6.92315E-05-1.62490E-05-2.26645E-05 5.73101E-06-1.32559E-18 2.33859E-18
 -1      3958 6.95543E-05-1.57909E-05-2.29883E-05 9.77748E-07-9.61243E-19 2.01497E-18
 -1      3959 7.39130E-05-1.80375E-05-2.39007E-05 6.33071E-06-1.22492E-18 1.72346E-18
 -1      3960 9.51555E-05-2.83540E-05-2.86297E-05 2.36086E-08-5.88907E-19-1.58876E-19
 -1      3961 9.51616E-05-2.83610E-05-2.86289E-05 3.51919E-08-2.89789E-19-8.17812E-19
 -1      3962 9.51326E-05-2.83089E-05-2.86380E-05 1.82765E-08-3.65020E-19 4.96351E-19
 -1      3963 9.51715E-05-2.83755E-05-2.86274E-05 4.71308E-08-3.34091E-19-8.53860E-19
 -1      3964 9.51813E-05-2.83876E-05-2.86257E-05 5.30853E-08 3.32747E-19 2.01255E-19
 -1      3965 9.51472E-05-2.83291E-05-2.86360E-05 5.12363E-08-1.12001E-18-7.62401E-19
 -1      3966 9.51793E-05-2.83669E-05-2.86335E-05 9.23488E-08 2.54977E-19-1.16283E-19
 -1      3967 7.87309E-05-2.21385E-05-2.42137E-05 1.44509E-05 6.98736E-19-7.91719E-19
 -1      3968 6.93554E-05-1.64611E-05-2.27692E-05-5.37546E-06 3.02159E-19 2.71749E-18
 -1      3969 7.00694E-05-1.75594E-05-2.23595E-05-9.98250E-06 1.53138E-19 2.13584E-18
 -1      3970 9.51299E-05-2.82814E-05-2.86491E-05-1.14876E-07 1.56385E-18-2.56917E-19
 -1      3971 7.13709E-05-1.99648E-05-2.19174E-05-1.48907E-05 3.49222E-19 8.72120E-19
 -1      3972 7.61741E-05-2.20759E-05-2.31256E-05-1.54775E-05 1.12061E-18 4.00111E-19
 -1      3973 7.71445E-05-2.09460E-05-2.40657E-05-1.31461E-05 5.89026E-19-1.20772E-19
 -1      3974 7.00400E-05-1.84996E-05-2.20791E-05-1.21932E-05 1.55275E-19 1.28259E-18
 -1      3975 9.05437E-05-1.89523E-05-3.06928E-05-3.65629E-07 3.89307E-19-1.07364E-18
 -1      3976 9.04701E-05-1.88914E-05-3.06914E-05-2.23294E-07 1.09874E-19-1.09855E-18
 -1      3977 9.11211E-05-1.95717E-05-3.06774E-05-8.92386E-07 7.62891E-19-1.21737E-18
 -1      3978 9.07634E-05-1.91807E-05-3.06897E-05-7.50035E-07 4.92546E-19-1.07033E-18
 -1      3979 9.06942E-05-1.96882E-05-3.04177E-05-7.75491E-07 4.15610E-19-9.26462E-19
 -1      3980 8.03336E-05-2.11693E-05-2.53897E-05-1.13137E-05 7.18120E-19-2.35112E-19
 -1      3981 9.88063E-05-4.02576E-05-2.49831E-05-2.11325E-05-1.03855E-18-1.30509E-18
 -1      3982 7.96114E-05-1.92998E-05-2.58173E-05-6.73586E-06 4.39208E-19 3.53806E-19
 -1      3983 8.08315E-05-1.95004E-05-2.63371E-05-5.94320E-06 5.17446E-19 6.46085E-19
 -1      3984 9.27095E-05-2.14525E-05-3.05387E-05-1.71047E-06 8.81353E-19-1.51972E-18
 -1      3985 9.33285E-05-2.18623E-05-3.06291E-05-1.40440E-06 8.39225E-19-1.53553E-18
 -1      3986 8.85567E-05-2.82169E-05-2.58562E-05 1.42664E-05-1.14179E-19 7.83175E-19
 -1      3987 8.20745E-05-2.45354E-05-2.45212E-05 1.50342E-05-7.67488E-19 1.20154E-18
 -1      3988 7.87874E-05-2.16788E-05-2.45749E-05 1.16683E-05-1.07156E-18 1.52691E-18
 -1      3989 8.73676E-05-2.64171E-05-2.61822E-05 1.27741E-05-5.39322E-19 5.71047E-19
 -1      3990 8.59789E-05-2.07803E-05-2.79712E-05 4.89309E-06 3.68682E-19-7.34592E-19
 -1      3991 8.48238E-05-2.05575E-05-2.75499E-05 5.51229E-06 4.31150E-19-7.35821E-19
 -1      3992 8.31470E-05-2.02114E-05-2.70149E-05 6.02413E-06 4.60668E-19-8.12978E-19
 -1      3993 8.17692E-05-2.00205E-05-2.64641E-05 6.83889E-06 5.97524E-19-8.09404E-19
 -1      3994 8.29832E-05-1.96560E-05-2.70912E-05 4.03852E-06 4.75919E-19-6.19160E-19
 -1      3995 7.95760E-05-1.96611E-05-2.57387E-05 7.59926E-06 6.57703E-19-8.26265E-19
 -1      3996 7.79826E-05-1.96214E-05-2.49885E-05 8.79363E-06 6.64301E-19-8.24707E-19
 -1      3997 7.91801E-05-1.87853E-05-2.58132E-05 5.00273E-06 5.45363E-19-5.28835E-19
 -1      3998 9.31754E-05-2.49788E-05-2.92191E-05-6.56410E-06 1.31064E-19-1.16239E-18
 -1      3999 9.32100E-05-2.46092E-05-2.94035E-05-5.78805E-06 2.73439E-19-1.26876E-18
 -1      4000 9.24907E-05-2.37196E-05-2.94744E-05-5.09826E-06 2.46797E-19-1.18523E-18
 -1      4001 8.74376E-05-2.46314E-05-2.69587E-05 9.91594E-06-1.12955E-18 3.02174E-19
 -1      4002 8.78146E-05-2.55330E-05-2.66588E-05 1.11024E-05-1.38456E-18 5.80259E-19
 -1      4003 8.41563E-05-2.35541E-05-2.59137E-05 1.12918E-05-1.15438E-18 1.46692E-18
 -1      4004 9.05241E-05-1.97812E-05-3.03188E-05 3.99650E-07 9.99534E-20-1.11536E-18
 -1      4005 9.63711E-05-3.21732E-05-2.74847E-05-1.29964E-05-5.86174E-19-7.91765E-19
 -1      4006 9.49200E-05-3.03356E-05-2.76578E-05-1.23510E-05-3.96026E-19-1.20830E-18
 -1      4007 9.22713E-05-2.85505E-05-2.73566E-05-1.23704E-05-5.04155E-19-1.45404E-18
 -1      4008 9.46278E-05-3.19274E-05-2.69421E-05-1.43440E-05-6.03475E-19-1.46859E-18
 -1      4009 8.51130E-05-2.07938E-05-2.75716E-05-4.35883E-06-6.30730E-19 1.27134E-19
 -1      4010 8.60998E-05-2.12261E-05-2.78261E-05-3.89913E-06-2.63594E-19 1.59847E-19
 -1      4011 8.72013E-05-2.17372E-05-2.80622E-05-3.60158E-06-3.12376E-20-1.09725E-19
 -1      4012 8.80239E-05-2.21941E-05-2.82298E-05-3.23096E-06-4.05200E-19 2.75797E-19
 -1      4013 8.59812E-05-2.10333E-05-2.78056E-05-2.68714E-06-3.96157E-19-4.80626E-19
 -1      4014 8.89169E-05-2.26971E-05-2.83852E-05-2.98510E-06-9.04241E-19 2.46026E-20
 -1      4015 8.95956E-05-2.31477E-05-2.84908E-05-2.67211E-06-1.07014E-18 8.78538E-19
 -1      4016 8.79470E-05-2.20846E-05-2.82048E-05-2.26823E-06-1.24659E-19 7.42420E-19
 -1      4017 9.03195E-05-2.36217E-05-2.85890E-05-2.46052E-06-1.36964E-18 1.28398E-18
 -1      4018 9.08725E-05-2.40444E-05-2.86510E-05-2.19018E-06-8.25329E-19 1.24465E-18
 -1      4019 8.95421E-05-2.30857E-05-2.84644E-05-1.90635E-06-7.90644E-19 5.71205E-19
 -1      4020 9.14573E-05-2.44763E-05-2.87093E-05-2.00526E-06-7.13632E-19 9.82599E-19
 -1      4021 9.19023E-05-2.48585E-05-2.87414E-05-1.77117E-06 1.79111E-19 2.48766E-19
 -1      4022 9.08340E-05-2.40100E-05-2.86257E-05-1.58221E-06-1.14197E-18 1.65905E-18
 -1      4023 9.23710E-05-2.52410E-05-2.87722E-05-1.61043E-06 8.28454E-19 3.39444E-19
 -1      4024 9.27245E-05-2.55766E-05-2.87844E-05-1.40961E-06 7.64348E-19 1.13736E-18
 -1      4025 9.18747E-05-2.48407E-05-2.87186E-05-1.29169E-06 6.26152E-19 2.29389E-19
 -1      4026 9.30962E-05-2.59069E-05-2.87969E-05-1.27196E-06 4.38116E-19 1.30690E-18
 -1      4027 9.33732E-05-2.61942E-05-2.87964E-05-1.10228E-06 3.38941E-19 1.89075E-18
 -1      4028 9.27053E-05-2.55690E-05-2.87647E-05-1.03526E-06 5.79245E-19-3.83417E-20
 -1      4029 9.36643E-05-2.64732E-05-2.87971E-05-9.86588E-07-9.87741E-19 1.40684E-18
 -1      4030 9.38783E-05-2.67139E-05-2.87891E-05-8.45727E-07-1.56112E-18 1.35760E-18
 -1      4031 9.33605E-05-2.61930E-05-2.87799E-05-8.13648E-07-3.55052E-19 1.30483E-20
 -1      4032 9.41031E-05-2.69449E-05-2.87826E-05-7.50406E-07-1.47021E-18 1.60458E-18
 -1      4033 9.42658E-05-2.71426E-05-2.87706E-05-6.35589E-07-1.04968E-18 1.57212E-18
 -1      4034 9.38706E-05-2.67165E-05-2.87756E-05-6.26426E-07-1.51489E-18 3.93235E-19
 -1      4035 9.44367E-05-2.73303E-05-2.87602E-05-5.58607E-07-3.21946E-20 1.21230E-18
 -1      4036 9.45584E-05-2.74898E-05-2.87464E-05-4.66719E-07 2.76989E-19 1.04274E-18
 -1      4037 9.42618E-05-2.71475E-05-2.87597E-05-4.71756E-07-5.18682E-19 1.71105E-18
 -1      4038 9.46861E-05-2.76397E-05-2.87343E-05-4.05757E-07 3.50550E-19 1.08662E-18
 -1      4039 9.47755E-05-2.77662E-05-2.87203E-05-3.33558E-07 5.38115E-19 1.83797E-18
 -1      4040 9.45570E-05-2.74959E-05-2.87378E-05-3.46701E-07 5.73513E-19 5.93716E-19
 -1      4041 9.48690E-05-2.78840E-05-2.87078E-05-2.86216E-07-2.67763E-19 1.41639E-18
 -1      4042 9.49331E-05-2.79829E-05-2.86946E-05-2.30528E-07-6.76608E-19 9.16191E-19
 -1      4043 9.47755E-05-2.77727E-05-2.87135E-05-2.47672E-07-2.24523E-19 1.24395E-18
 -1      4044 9.50000E-05-2.80736E-05-2.86825E-05-1.94655E-07-2.71766E-19 1.11473E-18
 -1      4045 9.50446E-05-2.81503E-05-2.86704E-05-1.52403E-07-1.00405E-19 6.64096E-19
 -1      4046 9.49341E-05-2.79897E-05-2.86892E-05-1.71129E-07-6.04151E-19 4.30471E-19
 -1      4047 9.16859E-05-2.47857E-05-2.86821E-05 3.15153E-06-8.47654E-20 2.53080E-18
 -1      4048 9.13693E-05-2.45514E-05-2.86326E-05 3.56108E-06 3.21426E-19 2.06025E-18
 -1      4049 9.08597E-05-2.42819E-05-2.85461E-05 3.99762E-06 6.01732E-19 1.98444E-18
 -1      4050 9.05375E-05-2.41085E-05-2.84635E-05 4.49557E-06 2.59022E-19 1.63983E-18
 -1      4051 9.04578E-05-2.39405E-05-2.84977E-05 3.35128E-06 8.99186E-20 2.12278E-18
 -1      4052 8.98276E-05-2.13282E-05-2.93744E-05 3.04760E-06-5.00507E-20-7.32425E-19
 -1      4053 8.91554E-05-2.13278E-05-2.90766E-05 3.58522E-06 7.12873E-20-8.24304E-19
 -1      4054 9.51990E-05-2.84186E-05-2.86206E-05 5.40231E-08 1.19654E-18 9.94421E-19
 -1      4055 9.44682E-05-2.33636E-05-3.04746E-05-1.66830E-06 8.80584E-19-1.53465E-18
 -1      4056 9.40276E-05-2.27184E-05-3.05609E-05-1.48053E-06 9.13519E-19-1.40640E-18
 -1      4057 7.48416E-05-2.03661E-05-2.32860E-05 1.27953E-05 5.57644E-19-9.80269E-19
 -1      4058 6.97428E-05-1.81064E-05-2.20362E-05 1.10931E-05 3.02737E-19-1.11063E-18
 -1      4059 7.56145E-05-1.95366E-05-2.41100E-05 1.04469E-05 5.89661E-19-7.88627E-19
 -1      4060 8.99775E-05-2.39077E-05-2.83311E-05 5.05077E-06-7.13577E-20 1.46449E-18
 -1      4061 8.96890E-05-2.38547E-05-2.82054E-05 5.66112E-06-1.78047E-19 1.21199E-18
 -1      4062 8.93894E-05-2.34041E-05-2.82690E-05 4.29239E-06 5.01186E-20 1.33661E-18
 -1      4063 9.24214E-05-2.53355E-05-2.87599E-05 2.46689E-06-1.08689E-18 2.47080E-18
 -1      4064 9.21328E-05-2.50801E-05-2.87346E-05 2.80436E-06-2.76210E-19 2.82373E-18
 -1      4065 9.14097E-05-2.45543E-05-2.86437E-05 2.61244E-06-2.33837E-19 3.03649E-18
 -1      4066 9.30524E-05-2.58778E-05-2.87963E-05 1.91225E-06 1.70543E-19 1.77714E-18
 -1      4067 9.28019E-05-2.56266E-05-2.87879E-05 2.18944E-06-7.73260E-19 1.78786E-18
 -1      4068 9.22316E-05-2.51795E-05-2.87293E-05 2.02587E-06-1.59584E-19 2.11501E-18
 -1      4069 9.35776E-05-2.63802E-05-2.88048E-05 1.46459E-06-5.60309E-19 1.52676E-18
 -1      4070 9.33682E-05-2.61484E-05-2.88074E-05 1.69063E-06 3.11874E-19 1.90796E-18
 -1      4071 9.29226E-05-2.57736E-05-2.87720E-05 1.55813E-06-7.86018E-20 1.82318E-18
 -1      4072 9.40037E-05-2.68256E-05-2.87954E-05 1.10589E-06-1.02010E-18 1.79917E-18
 -1      4073 9.38339E-05-2.66208E-05-2.88047E-05 1.28840E-06-9.75187E-19 1.73643E-18
 -1      4074 9.34897E-05-2.63116E-05-2.87856E-05 1.18547E-06-9.02983E-19 2.34201E-18
 -1      4075 9.43412E-05-2.72073E-05-2.87755E-05 8.21256E-07-6.32121E-20 1.99774E-18
 -1      4076 9.42071E-05-2.70324E-05-2.87885E-05 9.66893E-07-4.51525E-19 2.01226E-18
 -1      4077 9.39451E-05-2.67814E-05-2.87805E-05 8.89984E-07-2.23096E-19 2.66162E-18
 -1      4078 9.46026E-05-2.75253E-05-2.87504E-05 5.97967E-07-1.04195E-18 2.79034E-18
 -1      4079 9.44993E-05-2.73801E-05-2.87648E-05 7.12670E-07-2.25193E-19 2.53828E-18
 -1      4080 9.43029E-05-2.71796E-05-2.87640E-05 6.57499E-07-3.90314E-19 3.01249E-18
 -1      4081 9.48003E-05-2.77841E-05-2.87236E-05 4.25030E-07 8.10383E-19 1.00055E-18
 -1      4082 9.47228E-05-2.76663E-05-2.87380E-05 5.14102E-07 5.40532E-20 2.40285E-18
 -1      4083 9.45782E-05-2.75088E-05-2.87417E-05 4.76375E-07 2.67715E-19 1.90631E-18
 -1      4084 9.49464E-05-2.79904E-05-2.86972E-05 2.92968E-07 6.79792E-20 1.30569E-18
 -1      4085 9.48897E-05-2.78968E-05-2.87108E-05 3.61090E-07 3.70863E-19 6.17573E-19
 -1      4086 9.47854E-05-2.77750E-05-2.87170E-05 3.36856E-07 8.03866E-19 1.68710E-18
 -1      4087 9.50513E-05-2.81516E-05-2.86727E-05 1.93654E-07-1.47953E-18 1.62699E-18
 -1      4088 9.50111E-05-2.80784E-05-2.86850E-05 2.45206E-07-8.43855E-19 1.32248E-18
 -1      4089 9.49378E-05-2.79864E-05-2.86922E-05 2.31059E-07-4.79019E-19 2.90835E-18
 -1      4090 9.51251E-05-2.82760E-05-2.86504E-05 1.20412E-07-1.42755E-18-6.76467E-19
 -1      4091 9.50972E-05-2.82198E-05-2.86614E-05 1.58654E-07-1.19267E-18 9.59571E-19
 -1      4092 9.50464E-05-2.81510E-05-2.86688E-05 1.52150E-07-9.48384E-19 1.55829E-18
 -1      4093 9.08359E-05-2.10531E-05-2.99213E-05 2.15199E-06-1.14462E-19-1.04614E-18
 -1      4094 9.04000E-05-2.12661E-05-2.96374E-05 2.72923E-06-2.99398E-21-7.79311E-19
 -1      4095 8.95834E-05-2.07914E-05-2.94459E-05 2.13149E-06-1.92146E-20-9.26073E-19
 -1      4096 9.04802E-05-2.04763E-05-2.99700E-05 1.56379E-06 8.05740E-20-1.12247E-18
 -1      4097 8.91061E-05-2.37842E-05-2.80135E-05 6.36855E-06-4.91636E-19 1.12169E-18
 -1      4098 8.89070E-05-2.39318E-05-2.78341E-05 7.13368E-06-7.42265E-19 9.40404E-19
 -1      4099 8.82504E-05-2.30500E-05-2.79308E-05 5.51351E-06-5.45700E-19 9.01316E-19
 -1      4100 8.81977E-05-2.39394E-05-2.75652E-05 7.91153E-06-7.85535E-19 1.02842E-18
 -1      4101 8.81946E-05-2.43974E-05-2.73236E-05 8.86845E-06-6.75207E-19 6.81180E-19
 -1      4102 8.54753E-05-2.28495E-05-2.67976E-05 8.65707E-06-1.21161E-18 8.54916E-19
 -1      4103 8.69706E-05-2.28542E-05-2.74526E-05 6.94155E-06-7.78954E-19 1.23105E-18
 -1      4104 7.22365E-05-1.68629E-05-2.37252E-05-2.76552E-06-2.10120E-19 1.88380E-18
 -1      4105 8.25665E-05-1.99281E-05-2.68476E-05-5.34762E-06 6.72194E-19 2.40896E-20
 -1      4106 8.37385E-05-2.02981E-05-2.72223E-05-4.74173E-06 3.46423E-21 2.98869E-19
 -1      4107 8.35538E-05-1.99589E-05-2.72107E-05-3.20163E-06 2.21264E-19-7.53609E-19
 -1      4108 8.04564E-05-1.88433E-05-2.63357E-05-3.95577E-06-1.31344E-19 8.09847E-20
 -1      4109 9.50862E-05-2.82105E-05-2.86601E-05-1.20684E-07 3.37629E-19 1.02946E-18
 -1      4110 9.51214E-05-2.82831E-05-2.86459E-05-7.62395E-08 1.01667E-18 1.25183E-18
 -1      4111 9.51094E-05-2.82674E-05-2.86471E-05-5.91049E-08 6.35581E-19 1.63053E-18
 -1      4112 9.50388E-05-2.81478E-05-2.86670E-05-1.06963E-07 2.35900E-19 1.12991E-18
 -1      4113 9.30112E-05-2.57803E-05-2.87986E-05-8.10424E-06 9.31909E-20-1.28061E-18
 -1      4114 9.29246E-05-2.53045E-05-2.89836E-05-7.36007E-06 1.33683E-19-1.13782E-18
 -1      4115 9.19907E-05-2.43605E-05-2.89869E-05-6.67783E-06 2.02689E-19-1.20309E-18
 -1      4116 9.15512E-05-2.51372E-05-2.84689E-05-8.36689E-06 1.89992E-20-1.06450E-18
 -1      4117 7.36730E-05-1.89941E-05-2.34281E-05-1.09750E-05 3.92280E-19 7.84637E-19
 -1      4118 9.02627E-05-1.98613E-05-3.01533E-05-4.53070E-07 3.55949E-19-7.25004E-19
 -1      4119 9.02686E-05-2.01879E-05-3.00524E-05 3.96799E-07 1.96753E-19-1.09066E-18
 -1      4120 8.99108E-05-2.04485E-05-2.97912E-05 6.40099E-07 2.90696E-19-9.81612E-19
 -1      4121 9.21346E-05-2.07661E-05-3.05965E-05-1.37487E-06 8.44169E-19-1.45244E-18
 -1      4122 9.15463E-05-2.00999E-05-3.06267E-05-1.25233E-06 7.58792E-19-1.38863E-18
 -1      4123 9.13915E-05-2.04932E-05-3.03676E-05-1.57661E-06 6.16897E-19-1.16313E-18
 -1      4124 9.23877E-05-2.17360E-05-3.02676E-05-2.34479E-06 6.91950E-19-1.40945E-18
 -1      4125 8.81853E-05-2.12007E-05-2.87296E-05 3.95953E-06 2.51910E-19-8.40187E-19
 -1      4126 8.72748E-05-2.10543E-05-2.83880E-05 4.50119E-06 2.50902E-19-9.45527E-19
 -1      4127 8.81129E-05-2.07604E-05-2.88290E-05 2.70232E-06 7.48594E-20-8.78740E-19
 -1      4128 7.68810E-05-2.01250E-05-2.42946E-05-1.12903E-05 5.46522E-19 3.10163E-19
 -1      4129 9.32594E-05-3.68724E-05-2.41774E-05-2.24987E-05-9.68767E-19-1.31210E-18
 -1      4130 9.72718E-05-3.69423E-05-2.57835E-05-1.81583E-05-6.28796E-19-1.36671E-18
 -1      4131 9.44801E-05-3.37618E-05-2.59491E-05-1.70824E-05-6.37821E-19-1.41569E-18
 -1      4132 8.81997E-05-3.25529E-05-2.38254E-05-2.13002E-05-8.59687E-19-1.41065E-18
 -1      4133 7.69636E-05-1.91539E-05-2.48130E-05-9.13767E-06 7.18224E-19 7.98249E-19
 -1      4134 9.51772E-05-2.83760E-05-2.86293E-05 6.53075E-08 7.46843E-19-2.56238E-19
 -1      4135 7.59385E-05-1.79704E-05-2.47898E-05-6.51226E-06 2.79831E-19 9.14683E-19
 -1      4136 8.07525E-05-2.16405E-05-2.53374E-05 9.97069E-06-1.10225E-18 1.51212E-18
 -1      4137 7.68171E-05-1.91824E-05-2.46025E-05 8.18124E-06-1.54186E-18 1.38239E-18
 -1      4138 8.13633E-05-2.11913E-05-2.58731E-05 8.38691E-06-1.11258E-18 1.30944E-18
 -1      4139 8.59096E-05-2.03625E-05-2.80550E-05 3.32846E-06 4.40052E-19-9.93254E-19
 -1      4140 6.13267E-05-1.48256E-05-1.96696E-05-3.95426E-06-4.30865E-19-2.05493E-18
 -1      4141 6.42985E-05-1.65482E-05-2.04457E-05-8.31923E-06-6.38731E-19-1.90369E-18
 -1      4142 6.41980E-05-1.54660E-05-2.08121E-05 1.01568E-06-3.12532E-19-2.12912E-18
 -1      4143 9.50994E-05-2.82566E-05-2.86476E-05-2.99461E-08 9.75225E-19 1.51460E-18
 -1      4144 9.50955E-05-2.82514E-05-2.86478E-05-8.91872E-09 1.00355E-18 1.66854E-18
 -1      4145 9.50686E-05-2.82000E-05-2.86571E-05-4.85017E-08 5.17641E-19 1.86990E-18
 -1      4146 7.29999E-05-2.40162E-05-2.07633E-05-2.07669E-05-9.39995E-19-2.19599E-18
 -1      4147 7.98085E-05-2.78654E-05-2.21820E-05-2.13319E-05-8.61922E-19-1.66472E-18
 -1      4148 6.96915E-05-2.10244E-05-2.08821E-05-1.66553E-05-6.99887E-19-2.00288E-18
 -1      4149 7.53222E-05-1.73721E-05-2.48865E-05-8.66110E-07-8.92098E-19 1.27250E-18
 -1      4150 6.78757E-05-1.67098E-05-2.19369E-05 7.00019E-06 1.60457E-19-1.72280E-18
 -1      4151 9.51588E-05-2.83345E-05-2.86389E-05 9.21048E-08-7.19771E-19-1.33014E-18
 -1      4152 9.51259E-05-2.82847E-05-2.86459E-05 8.98512E-08-7.91041E-19-1.61714E-18
 -1      4153 7.56307E-05-1.81353E-05-2.47055E-05 5.13387E-06-9.46907E-19 8.96510E-19
 -1      4154 9.50966E-05-2.82539E-05-2.86475E-05 2.29379E-08 5.15229E-19 2.00067E-18
 -1      4155 9.51035E-05-2.82606E-05-2.86470E-05 4.40796E-08-7.18920E-20-7.98161E-19
 -1      4156 9.50599E-05-2.81930E-05-2.86571E-05 1.84044E-08 8.88973E-19 1.72666E-18
 -1      4157 9.00660E-05-2.43476E-05-2.81474E-05-8.20292E-06-7.54846E-20-1.13037E-18
 -1      4158 9.02399E-05-2.39312E-05-2.84318E-05-7.32149E-06 1.44795E-19-1.12551E-18
 -1      4159 9.51126E-05-2.82695E-05-2.86474E-05 7.47155E-08-8.62295E-19-8.68732E-19
 -1      4160 7.46708E-05-1.80855E-05-2.41688E-05 7.04558E-06 5.17358E-19-1.06077E-18
 -1      4161 9.20829E-05-2.26893E-05-2.97328E-05-3.79924E-06 3.21010E-19-1.18556E-18
 -1      4162 9.22048E-05-2.22549E-05-2.99877E-05-3.01749E-06 5.18850E-19-1.24914E-18
 -1      4163 9.16410E-05-2.15548E-05-3.00341E-05-2.61712E-06 4.45857E-19-1.11660E-18
 -1      4164 9.04622E-05-2.01407E-05-3.01518E-05-9.33603E-07 4.65972E-19-8.02660E-19
 -1      4165 8.95608E-05-2.54267E-05-2.74541E-05-1.02836E-05-2.58123E-19-1.50547E-18
 -1      4166 8.94816E-05-2.47169E-05-2.77734E-05-9.24439E-06-1.23664E-19-1.33672E-18
 -1      4167 8.81715E-05-2.34527E-05-2.77326E-05-8.14734E-06 1.60742E-19-1.30903E-18
 -1      4168 9.50773E-05-2.82089E-05-2.86573E-05 8.48145E-08-4.47751E-19-3.54142E-19
 -1      4169 8.32545E-05-1.96672E-05-2.72835E-05 1.92036E-06 6.47703E-19-7.12072E-19
 -1      4170 8.15949E-05-1.92662E-05-2.67323E-05 2.18121E-06 4.25948E-19-5.73959E-19
 -1      4171 9.14691E-05-2.33039E-05-2.92048E-05-5.23891E-06 5.83536E-20-1.27203E-18
 -1      4172 9.17077E-05-2.30006E-05-2.94539E-05-4.47238E-06 1.70584E-19-1.25333E-18
 -1      4173 9.10703E-05-2.23155E-05-2.94645E-05-3.93246E-06 1.79912E-19-1.18690E-18
 -1      4174 7.95037E-05-1.87917E-05-2.60700E-05 2.10953E-06 1.57884E-19-5.28361E-19
 -1      4175 7.73061E-05-1.82624E-05-2.53266E-05 2.43378E-06 3.65584E-19-9.47821E-19
 -1      4176 8.04077E-05-1.88492E-05-2.63074E-05-2.09467E-07 2.51567E-19-7.66131E-19
 -1      4177 9.01505E-05-2.37263E-05-2.84832E-05 2.56093E-06-2.21689E-19 2.00908E-18
 -1      4178 8.96455E-05-2.34007E-05-2.83886E-05 2.93648E-06-1.37279E-19 2.00227E-18
 -1      4179 8.60753E-05-2.03398E-05-2.82109E-05 1.65988E-06 2.65366E-19-8.36223E-19
 -1      4180 8.48053E-05-2.00418E-05-2.77830E-05 1.89574E-06 5.48590E-19-8.16878E-19
 -1      4181 8.38244E-05-1.96149E-05-2.74565E-05 1.52631E-07 5.35777E-19-6.68431E-19
 -1      4182 8.50147E-05-2.06247E-05-2.76149E-05-1.54411E-06 1.23592E-19-2.10895E-19
 -1      4183 8.61325E-05-2.11629E-05-2.78603E-05-1.40233E-06 3.75001E-19 2.05700E-19
 -1      4184 8.71693E-05-2.17076E-05-2.80704E-05-1.38663E-06-1.66329E-20 2.76673E-20
 -1      4185 8.80727E-05-2.22246E-05-2.82330E-05-1.25970E-06-3.22508E-19 5.02503E-19
 -1      4186 8.64882E-05-2.12903E-05-2.79021E-05-2.93919E-07 2.43019E-19 3.50741E-20
 -1      4187 8.89109E-05-2.27365E-05-2.83719E-05-1.22544E-06-8.51553E-19 1.89110E-19
 -1      4188 8.96413E-05-2.32203E-05-2.84759E-05-1.10420E-06-1.09087E-18 3.93420E-19
 -1      4189 8.83412E-05-2.23442E-05-2.82534E-05-3.84450E-07-8.23883E-19-1.31698E-19
 -1      4190 9.03228E-05-2.36930E-05-2.85643E-05-1.05860E-06-1.21643E-18 1.19260E-18
 -1      4191 9.09123E-05-2.41340E-05-2.86270E-05-9.42652E-07-5.35057E-19 1.44471E-18
 -1      4192 8.98477E-05-2.33300E-05-2.84831E-05-4.08959E-07-5.87495E-19 1.01691E-18
 -1      4193 9.14641E-05-2.45598E-05-2.86798E-05-8.92338E-07-1.93870E-20 1.36847E-18
 -1      4194 9.19366E-05-2.49518E-05-2.87140E-05-7.84156E-07 6.11791E-19 8.50173E-19
 -1      4195 9.10720E-05-2.42321E-05-2.86263E-05-3.92180E-07-3.84176E-19 1.88510E-18
 -1      4196 9.23796E-05-2.53260E-05-2.87421E-05-7.34041E-07 8.68468E-19 1.00576E-18
 -1      4197 9.27544E-05-2.56662E-05-2.87571E-05-6.36156E-07 5.58584E-19 1.28688E-18
 -1      4198 9.20605E-05-2.50374E-05-2.87089E-05-3.51862E-07 5.75665E-19 1.74547E-18
 -1      4199 9.31059E-05-2.59876E-05-2.87686E-05-5.89533E-07-5.65262E-19 1.57852E-18
 -1      4200 9.33996E-05-2.62765E-05-2.87711E-05-5.03617E-07-1.14411E-18 8.65816E-19
 -1      4201 9.28504E-05-2.57397E-05-2.87498E-05-3.00569E-07 7.72890E-20 2.69038E-18
 -1      4202 9.36748E-05-2.65468E-05-2.87718E-05-4.62390E-07-1.11305E-18 9.77492E-19
 -1      4203 9.39017E-05-2.67871E-05-2.87666E-05-3.89076E-07-1.19575E-18 1.24609E-18
 -1      4204 9.34737E-05-2.63385E-05-2.87630E-05-2.46765E-07-6.79752E-19 1.71084E-18
 -1      4205 9.41139E-05-2.70099E-05-2.87607E-05-3.54063E-07-7.66894E-19 1.53716E-18
 -1      4206 9.42865E-05-2.72061E-05-2.87512E-05-2.93092E-07 3.28097E-19 1.27024E-18
 -1      4207 9.39584E-05-2.68387E-05-2.87585E-05-1.95713E-07-4.59552E-19 1.22859E-18
 -1      4208 9.44473E-05-2.73865E-05-2.87417E-05-2.64348E-07 3.12219E-20 5.69362E-19
 -1      4209 9.45764E-05-2.75439E-05-2.87301E-05-2.14821E-07 1.92541E-19 3.86454E-19
 -1      4210 9.43295E-05-2.72485E-05-2.87437E-05-1.50315E-07-4.58048E-19 1.35136E-18
 -1      4211 9.46960E-05-2.76873E-05-2.87189E-05-1.91893E-07 6.50483E-19-6.98536E-19
 -1      4212 9.47907E-05-2.78115E-05-2.87068E-05-1.52538E-07-3.45642E-19 4.11308E-20
 -1      4213 9.46085E-05-2.75783E-05-2.87233E-05-1.11848E-07-8.60341E-20-8.87516E-20
 -1      4214 9.48777E-05-2.79235E-05-2.86952E-05-1.34502E-07-7.60385E-19 4.11830E-19
 -1      4215 9.49449E-05-2.80199E-05-2.86834E-05-1.04506E-07-2.51733E-19 7.18558E-19
 -1      4216 9.48140E-05-2.78394E-05-2.87008E-05-8.05907E-08-2.68272E-19-1.65570E-19
 -1      4217 9.21071E-05-2.51260E-05-2.87159E-05 1.50787E-06 5.85603E-20 1.90419E-18
 -1      4218 9.17303E-05-2.48014E-05-2.86837E-05 1.74414E-06 7.06780E-19 2.41826E-18
 -1      4219 9.12130E-05-2.44386E-05-2.86299E-05 1.96935E-06-1.91097E-19 2.68945E-18
 -1      4220 9.07704E-05-2.41015E-05-2.85716E-05 2.26581E-06-2.99690E-19 2.62097E-18
 -1      4221 9.00604E-05-2.35648E-05-2.84723E-05 1.89446E-06-3.68015E-19 1.52218E-18
 -1      4222 9.11749E-05-2.43496E-05-2.86186E-05 1.43220E-06 6.69433E-19 1.52856E-18
 -1      4223 8.74892E-05-2.24368E-05-2.79075E-05 4.33559E-06-2.58258E-19 3.62121E-19
 -1      4224 8.68773E-05-2.22675E-05-2.76968E-05 4.99416E-06-3.29927E-19 5.56741E-19
 -1      4225 9.49911E-05-2.80813E-05-2.86752E-05-8.71901E-08 1.82240E-19 1.03288E-18
 -1      4226 9.50326E-05-2.81498E-05-2.86649E-05-5.96055E-08 6.55308E-19 8.82560E-19
 -1      4227 9.50255E-05-2.81391E-05-2.86652E-05-2.55356E-08 1.18763E-18 1.24557E-18
 -1      4228 9.49437E-05-2.80170E-05-2.86811E-05-5.03837E-08 3.17947E-20 9.31320E-19
 -1      4229 8.89119E-05-2.30372E-05-2.82524E-05 3.32715E-06-2.52368E-19 1.61976E-18
 -1      4230 8.83550E-05-2.27590E-05-2.81089E-05 3.81184E-06-2.49060E-19 6.69062E-19
 -1      4231 8.71784E-05-2.19965E-05-2.78964E-05 3.33273E-06-4.23430E-19-6.01024E-19
 -1      4232 8.87353E-05-2.27633E-05-2.82418E-05 2.50816E-06-4.59144E-19 4.31050E-19
 -1      4233 9.28452E-05-2.57581E-05-2.87594E-05 1.14610E-06-1.87537E-19 1.69941E-18
 -1      4234 9.25325E-05-2.54606E-05-2.87452E-05 1.33498E-06-4.87578E-19 8.51591E-19
 -1      4235 9.20991E-05-2.50828E-05-2.87047E-05 1.08030E-06 3.88116E-19 8.80004E-19
 -1      4236 9.34431E-05-2.63181E-05-2.87740E-05 8.62379E-07-8.65952E-19 9.75886E-19
 -1      4237 9.31895E-05-2.60556E-05-2.87719E-05 1.01312E-06-4.42149E-19 1.22527E-18
 -1      4238 9.28536E-05-2.57428E-05-2.87486E-05 8.10579E-07-4.92519E-19-4.51980E-19
 -1      4239 9.39182E-05-2.67994E-05-2.87701E-05 6.40620E-07-5.28212E-19 1.13773E-18
 -1      4240 9.37171E-05-2.65747E-05-2.87755E-05 7.60259E-07-8.98874E-19 6.55053E-19
 -1      4241 9.34591E-05-2.63191E-05-2.87640E-05 6.03219E-07-9.19106E-19-3.31692E-19
 -1      4242 9.42886E-05-2.72025E-05-2.87549E-05 4.68371E-07-2.63694E-19 1.80827E-18
 -1      4243 9.41324E-05-2.70151E-05-2.87647E-05 5.62553E-07-2.47854E-19 2.09435E-18
 -1      4244 9.39368E-05-2.68091E-05-2.87611E-05 4.43884E-07-8.45778E-19 3.61518E-19
 -1      4245 9.45715E-05-2.75326E-05-2.87339E-05 3.35718E-07 4.31972E-19 2.42180E-18
 -1      4246 9.44529E-05-2.73797E-05-2.87457E-05 4.09114E-07-2.62345E-19 2.01710E-18
 -1      4247 9.43067E-05-2.72161E-05-2.87471E-05 3.21894E-07-4.79787E-19 1.40315E-18
 -1      4248 9.47831E-05-2.77974E-05-2.87104E-05 2.34611E-07 2.95386E-19 3.21658E-18
 -1      4249 9.46950E-05-2.76752E-05-2.87227E-05 2.91154E-07 8.66336E-19 3.10191E-18
 -1      4250 9.45877E-05-2.75473E-05-2.87271E-05 2.29110E-07-1.06179E-19 2.04925E-18
 -1      4251 9.49376E-05-2.80060E-05-2.86867E-05 1.58736E-07 4.43378E-19 2.11945E-18
 -1      4252 9.48739E-05-2.79101E-05-2.86987E-05 2.01143E-07 4.08598E-19 3.51544E-18
 -1      4253 9.47963E-05-2.78114E-05-2.87046E-05 1.59083E-07 2.72294E-20 2.87980E-18
 -1      4254 9.50375E-05-2.81521E-05-2.86661E-05 1.03501E-07-2.98868E-19 7.55737E-19
 -1      4255 9.49917E-05-2.80768E-05-2.86774E-05 1.34601E-07 5.45085E-19 2.04360E-18
 -1      4256 9.49351E-05-2.80015E-05-2.86838E-05 1.06118E-07 1.29596E-18 1.89320E-18
 -1      4257 9.50283E-05-2.81399E-05-2.86656E-05 6.77892E-08 7.84461E-19 1.38007E-18
 -1      4258 8.94446E-05-2.06265E-05-2.95158E-05 5.78049E-07 3.08717E-19-8.83694E-19
 -1      4259 8.88810E-05-2.06834E-05-2.92444E-05 7.70649E-07 2.22202E-19-7.27962E-19
 -1      4260 8.95819E-05-2.04093E-05-2.96108E-05-6.57890E-07 4.20240E-19-5.15061E-19
 -1      4261 9.11503E-05-2.10363E-05-3.00632E-05-2.04293E-06 3.90423E-19-1.05677E-18
 -1      4262 9.07616E-05-2.04928E-05-3.01082E-05-1.62193E-06 3.65614E-19-9.31922E-19
 -1      4263 9.09658E-05-2.14693E-05-2.97748E-05-2.65658E-06 2.56066E-19-1.02978E-18
 -1      4264 8.29855E-05-2.14308E-05-2.63928E-05 7.47629E-06-9.57926E-19 9.42160E-19
 -1      4265 8.03419E-05-1.96501E-05-2.59119E-05 5.94085E-06-5.40640E-19 4.02071E-19
 -1      4266 8.38460E-05-2.14830E-05-2.67822E-05 6.60279E-06-6.73125E-19 7.52163E-19
 -1      4267 7.62516E-05-1.76152E-05-2.50513E-05 1.88980E-06-5.26663E-19 3.73085E-19
 -1      4268 7.85278E-05-1.82560E-05-2.58737E-05-1.69417E-06-3.78578E-19 1.05626E-18
 -1      4269 8.03683E-05-1.88459E-05-2.64033E-05-1.42819E-06-2.62014E-19 9.56034E-19
 -1      4270 7.86082E-05-1.87509E-05-2.56697E-05 3.67471E-06-6.59481E-19 1.57565E-20
 -1      4271 8.80932E-05-2.06671E-05-2.89274E-05 1.04421E-06 1.41449E-19-6.89697E-19
 -1      4272 8.71658E-05-2.05355E-05-2.85697E-05 1.25905E-06 2.64530E-19-7.10488E-19
 -1      4273 8.64376E-05-2.02162E-05-2.83219E-05-5.16053E-08 3.17075E-19-4.82538E-19
 -1      4274 8.83328E-05-2.05322E-05-2.90135E-05-6.09855E-07 3.43983E-19-6.03394E-19
 -1      4275 9.02091E-05-2.05768E-05-2.98413E-05-1.29905E-06 2.95764E-19-8.21865E-19
 -1      4276 7.40824E-05-1.75283E-05-2.42977E-05 2.80003E-06 3.50036E-19-1.34405E-18
 -1      4277 7.18341E-05-1.72163E-05-2.33771E-05 3.98855E-06 6.88677E-20-1.57513E-18
 -1      4278 9.07555E-05-2.37607E-05-2.87013E-05-6.62878E-06 1.86123E-19-1.10110E-18
 -1      4279 9.10218E-05-2.34640E-05-2.89617E-05-5.83177E-06 1.55803E-19-1.20635E-18
 -1      4280 9.02325E-05-2.27264E-05-2.89271E-05-5.18017E-06 1.23029E-19-1.23421E-18
 -1      4281 8.92805E-05-2.29978E-05-2.83975E-05-6.44328E-06 1.42786E-19-1.12848E-18
 -1      4282 6.77012E-05-1.59593E-05-2.21125E-05 2.37013E-06-2.75067E-20-1.99840E-18
 -1      4283 8.23093E-05-1.95145E-05-2.69435E-05-1.72041E-06-8.08833E-19 6.38925E-19
 -1      4284 8.37180E-05-2.00754E-05-2.73032E-05-1.55007E-06-6.27789E-19-3.24478E-20
 -1      4285 8.41706E-05-2.01695E-05-2.73792E-05-1.16450E-07-3.65387E-19 1.03740E-18
 -1      4286 6.86083E-05-1.61209E-05-2.23876E-05-1.85423E-06-1.80267E-19-1.76463E-18
 -1      4287 9.28127E-05-3.14647E-05-2.62546E-05-1.55578E-05-6.68355E-19-1.33920E-18
 -1      4288 9.11816E-05-2.93446E-05-2.64593E-05-1.44605E-05-5.83068E-19-1.36938E-18
 -1      4289 9.03490E-05-3.12323E-05-2.53987E-05-1.74692E-05-6.09778E-19-1.26031E-18
 -1      4290 6.79843E-05-1.82246E-05-2.10741E-05-1.22024E-05-6.01797E-19-1.76154E-18
 -1      4291 7.25915E-05-2.12856E-05-2.20498E-05-1.50770E-05-7.06388E-19-1.77048E-18
 -1      4292 6.73766E-05-1.69623E-05-2.16532E-05-7.16057E-06-4.47326E-19-1.76118E-18
 -1      4293 8.79628E-05-2.22650E-05-2.81496E-05-5.73608E-06 3.01657E-19-1.09568E-18
 -1      4294 8.84700E-05-2.21753E-05-2.84333E-05-5.11446E-06 2.21943E-19-1.07364E-18
 -1      4295 8.97334E-05-2.07972E-05-2.95672E-05-1.46151E-06 2.91677E-19-9.35224E-19
 -1      4296 9.50236E-05-2.81408E-05-2.86649E-05 1.09855E-08 7.62317E-19 2.05024E-18
 -1      4297 9.49806E-05-2.80769E-05-2.86737E-05 2.54661E-08 1.25004E-18 2.36338E-18
 -1      4298 8.01236E-05-1.91870E-05-2.61795E-05 3.16234E-06-3.69403E-19-1.81414E-19
 -1      4299 7.52472E-05-1.75230E-05-2.46316E-05-3.59175E-07 1.38064E-19-1.08167E-18
 -1      4300 8.91111E-05-2.60915E-05-2.70095E-05-1.16690E-05-6.14812E-19-1.53435E-18
 -1      4301 8.70529E-05-2.43594E-05-2.68771E-05-1.05583E-05-4.27678E-19-1.65879E-18
 -1      4302 8.62970E-05-2.25266E-05-2.73192E-05-7.59199E-06 2.14311E-19-1.15532E-18
 -1      4303 8.68950E-05-2.22815E-05-2.77256E-05-6.60842E-06 3.69953E-19-1.08962E-18
 -1      4304 8.61990E-05-2.13181E-05-2.77605E-05-5.16076E-06 3.69394E-19-9.84507E-19
 -1      4305 8.98901E-05-2.74162E-05-2.67449E-05-1.28120E-05-6.06438E-19-1.47155E-18
 -1      4306 8.36419E-05-2.92302E-05-2.33245E-05-2.06988E-05-8.54329E-19-1.57057E-18
 -1      4307 8.78664E-05-3.03513E-05-2.45905E-05-1.85288E-05-6.56993E-19-1.50073E-18
 -1      4308 8.62825E-05-2.79515E-05-2.49618E-05-1.65816E-05-7.36951E-19-1.63616E-18
 -1      4309 7.96593E-05-2.55751E-05-2.30635E-05-1.84184E-05-8.01846E-19-1.75965E-18
 -1      4310 8.58668E-05-2.19182E-05-2.74342E-05 5.39364E-06-4.00012E-19 8.90012E-19
 -1      4311 8.51002E-05-2.17701E-05-2.71472E-05 6.07967E-06-3.48681E-19 1.20041E-18
 -1      4312 8.31188E-05-2.04714E-05-2.67941E-05 4.80232E-06-2.43881E-19 2.58719E-19
 -1      4313 8.53847E-05-2.13014E-05-2.74235E-05 4.13798E-06-2.73707E-19 3.66620E-19
 -1      4314 8.10662E-05-1.89678E-05-2.65398E-05 3.50558E-07-9.33285E-19 1.12647E-18
 -1      4315 9.00599E-05-2.19915E-05-2.91693E-05-3.78769E-06 1.97301E-19-1.14591E-18
 -1      4316 9.04659E-05-2.17495E-05-2.94637E-05-3.14907E-06 2.69814E-19-1.03957E-18
 -1      4317 9.00376E-05-2.12011E-05-2.94855E-05-2.52362E-06 2.33726E-19-1.03929E-18
 -1      4318 8.16589E-05-1.95481E-05-2.66742E-05-2.33657E-06 3.02781E-19-8.34724E-19
 -1      4319 7.96254E-05-1.90431E-05-2.60234E-05-2.60170E-06 2.29647E-19-8.26277E-19
 -1      4320 9.34070E-05-2.63189E-05-2.87602E-05 1.38452E-07-5.76127E-19 1.35469E-18
 -1      4321 9.31247E-05-2.60384E-05-2.87567E-05 2.09180E-07-7.69835E-19 1.61973E-18
 -1      4322 8.48224E-05-2.04979E-05-2.75962E-05-2.77162E-06 4.07587E-19-8.57821E-19
 -1      4323 8.33148E-05-2.01827E-05-2.70915E-05-3.10986E-06 4.81499E-19-9.57786E-19
 -1      4324 7.07482E-05-1.74916E-05-2.28560E-05-5.42493E-06-1.55546E-19-1.65947E-18
 -1      4325 8.82802E-05-2.24791E-05-2.82279E-05 9.60230E-07-3.21324E-19 3.89610E-19
 -1      4326 8.91194E-05-2.29613E-05-2.83670E-05 8.73064E-07-7.70621E-19 9.06904E-20
 -1      4327 8.97613E-05-2.33962E-05-2.84637E-05 6.57747E-07-5.66613E-19 9.77134E-19
 -1      4328 9.04449E-05-2.38470E-05-2.85529E-05 6.09907E-07 6.94159E-20 1.16040E-18
 -1      4329 9.09792E-05-2.42559E-05-2.86126E-05 4.48926E-07 1.97275E-19 1.45176E-18
 -1      4330 9.15332E-05-2.46655E-05-2.86663E-05 4.26651E-07 7.95683E-19 1.62360E-18
 -1      4331 9.19718E-05-2.50366E-05-2.86998E-05 3.05034E-07 4.31734E-19 1.38134E-18
 -1      4332 9.24168E-05-2.53989E-05-2.87289E-05 2.98735E-07 2.05963E-19 1.63843E-18
 -1      4333 9.27715E-05-2.57258E-05-2.87443E-05 2.06177E-07-3.65300E-19 1.69458E-18
 -1      4334 9.36835E-05-2.65827E-05-2.87616E-05 1.46252E-07-5.75944E-19 1.67933E-18
 -1      4335 9.39043E-05-2.68178E-05-2.87576E-05 9.21620E-08-5.99054E-19 1.42061E-18
 -1      4336 9.41174E-05-2.70359E-05-2.87524E-05 1.01853E-07-2.90529E-19 1.21203E-18
 -1      4337 9.42870E-05-2.72288E-05-2.87440E-05 6.05870E-08-4.99801E-19 1.56261E-18
 -1      4338 9.44486E-05-2.74057E-05-2.87350E-05 7.03988E-08-6.17250E-19 1.17657E-18
 -1      4339 9.45763E-05-2.75610E-05-2.87244E-05 3.91248E-08-2.35451E-19 1.77287E-18
 -1      4340 9.46966E-05-2.77019E-05-2.87136E-05 4.80804E-08-1.49886E-19 1.07790E-18
 -1      4341 9.47906E-05-2.78243E-05-2.87023E-05 2.47779E-08 2.35235E-19 8.08875E-19
 -1      4342 9.48781E-05-2.79347E-05-2.86910E-05 3.16564E-08 4.48141E-19 1.28223E-18
 -1      4343 8.75214E-05-2.68439E-05-2.60588E-05-1.38463E-05-7.27692E-19-1.39689E-18
 -1      4344 8.91847E-05-2.09822E-05-2.92446E-05-1.90342E-06 1.94066E-19-1.05554E-18
 -1      4345 9.49341E-05-2.80136E-05-2.86818E-05 1.23222E-08 9.23862E-19 1.28593E-18
 -1      4346 8.19741E-05-1.96860E-05-2.67184E-05 2.50570E-06-8.82061E-19 3.96134E-19
 -1      4347 7.73037E-05-1.87106E-05-2.51533E-05-3.92308E-06-6.18748E-20-1.05262E-18
 -1      4348 7.41226E-05-1.79899E-05-2.41138E-05-4.20914E-06-7.58723E-20-1.23053E-18
 -1      4349 7.41709E-05-1.90707E-05-2.35598E-05-9.25480E-06-3.90297E-19-1.49028E-18
 -1      4350 8.64866E-05-2.15339E-05-2.78714E-05 1.39997E-06-3.72833E-19 5.49176E-19
 -1      4351 8.75181E-05-2.20362E-05-2.80801E-05 1.25189E-06-5.37913E-19 3.58610E-20
 -1      4352 8.90870E-05-2.21468E-05-2.86842E-05-4.70630E-06 1.71869E-19-1.10033E-18
 -1      4353 8.95494E-05-2.20453E-05-2.89426E-05-4.13271E-06 1.74134E-19-1.07052E-18
 -1      4354 8.90126E-05-2.14622E-05-2.89345E-05-3.33483E-06 1.52014E-19-1.09706E-18
 -1      4355 8.79275E-05-2.14696E-05-2.84471E-05-4.02588E-06 3.18101E-19-1.00695E-18
 -1      4356 7.95330E-05-1.96590E-05-2.56200E-05-6.02884E-06-3.10027E-20-9.52472E-19
 -1      4357 8.55939E-05-2.11108E-05-2.76544E-05 1.80503E-06-7.23527E-20 4.83817E-19
 -1      4358 8.53784E-05-2.59048E-05-2.54461E-05-1.41518E-05-7.41806E-19-1.72640E-18
 -1      4359 8.42746E-05-2.40411E-05-2.58084E-05-1.21048E-05-7.57203E-19-1.78077E-18
 -1      4360 8.24724E-05-2.50693E-05-2.46710E-05-1.51179E-05-8.15249E-19-1.78198E-18
 -1      4361 8.32591E-05-2.01796E-05-2.70726E-05 2.25352E-06-7.09380E-19 1.08925E-18
 -1      4362 8.43122E-05-2.05608E-05-2.73491E-05 2.06676E-06-9.34236E-19 1.02985E-18
 -1      4363 8.71087E-05-2.08743E-05-2.84178E-05-2.37443E-06 3.19667E-19-1.01536E-18
 -1      4364 8.59909E-05-2.06333E-05-2.80418E-05-2.15016E-06 3.92135E-19-7.63181E-19
 -1      4365 7.69028E-05-2.28234E-05-2.31431E-05-1.49106E-05-6.91503E-19-1.75242E-18
 -1      4366 8.83650E-05-2.09082E-05-2.89204E-05-1.79028E-06 1.97581E-19-9.92352E-19
 -1      4367 8.46071E-05-2.30668E-05-2.63414E-05-9.96274E-06-4.61375E-19-1.53116E-18
 -1      4368 8.51314E-05-2.25737E-05-2.68343E-05-8.62826E-06-6.76984E-20-1.33901E-18
 -1      4369 8.40444E-05-2.13821E-05-2.68375E-05-6.93652E-06 2.54015E-19-1.15623E-18
 -1      4370 8.22283E-05-2.21694E-05-2.57707E-05-1.00639E-05-3.67826E-19-1.48167E-18
 -1      4371 8.33589E-05-2.05735E-05-2.68785E-05-5.33598E-06 3.59377E-19-9.68165E-19
 -1      4372 7.66219E-05-2.09843E-05-2.38174E-05-1.19176E-05-6.54048E-19-1.63244E-18
 -1      4373 8.77937E-05-2.09335E-05-2.86791E-05-2.06318E-06 2.52617E-19-9.98993E-19
 -1      4374 8.23151E-05-2.06793E-05-2.63908E-05-6.15718E-06 1.96972E-19-9.95875E-19
 -1      4375 8.00920E-05-2.04642E-05-2.55610E-05-7.73526E-06-2.16677E-19-1.14752E-18
 -1      4376 7.97078E-05-2.13270E-05-2.49813E-05-9.97175E-06-6.34756E-19-1.34568E-18
 -3
    1PSTEP                         4           1           1          
  100CL  101 1.000000000        4376                     0    1           1
 -4  ERROR       1    1
 -5  STR(%)      1    1    0    0
 -1         1 4.47515E+01
 -1         2 2.54109E+01
 -1         3 8.38631E-04
 -1         4 9.02229E-04
 -1         5 1.38513E+01
 -1         6 1.29499E+01
 -1         7 1.29499E+01
 -1         8 3.54774E+00
 -1         9 1.79846E+00
 -1        10 1.29930E+00
 -1        11 1.03897E+00
 -1        12 8.70340E-01
 -1        13 7.50297E-01
 -1        14 6.67614E-01
 -1        15 6.73935E-01
 -1        16 7.59536E-01
 -1        17 8.74559E-01
 -1        18 1.05179E+00
 -1        19 1.31933E+00
 -1        20 1.80937E+00
 -1        21 3.39717E+00
 -1        22 8.41027E+00
 -1        23 1.29499E+01
 -1        24 4.29176E+00
 -1        25 3.24163E+00
 -1        26 1.98899E+00
 -1        27 1.45723E+00
 -1        28 1.13007E+00
 -1        29 8.86807E-01
 -1        30 8.52502E-01
 -1        31 9.11700E-01
 -1        32 1.00628E+00
 -1        33 1.32863E+00
 -1        34 1.60383E+00
 -1        35 1.71842E+00
 -1        36 1.71842E+00
 -1        37 1.63980E+00
 -1        38 1.89763E+00
 -1        39 2.90404E+00
 -1        40 4.56293E+00
 -1        41 4.78441E+00
 -1        42 4.82976E+00
 -1        43 4.82976E+00
 -1        44 3.50866E+00
 -1        45 2.09837E+00
 -1        46 1.71818E+00
 -1        47 1.71818E+00
 -1        48 1.68411E+00
 -1        49 1.65781E+00
 -1        50 1.43587E+00
 -1        51 1.14821E+00
 -1        52 9.18974E-01
 -1        53 7.05779E-01
 -1        54 5.83386E-01
 -1        55 4.78716E-01
 -1        56 3.80589E-01
 -1        57 2.94585E-01
 -1        58 2.22547E-01
 -1        59 1.64183E-01
 -1        60 1.18849E-01
 -1        61 9.86738E-02
 -1        62 7.99898E-02
 -1        63 6.33548E-02
 -1        64 4.89360E-02
 -1        65 3.66595E-02
 -1        66 2.63131E-02
 -1        67 2.05425E-02
 -1        68 1.55135E-02
 -1        69 1.03672E-02
 -1        70 6.16146E-03
 -1        71 4.64751E-03
 -1        72 1.38513E+01
 -1        73 3.40685E+00
 -1        74 2.38752E+00
 -1        75 1.62438E+00
 -1        76 1.30647E+00
 -1        77 1.11041E+00
 -1        78 9.44763E-01
 -1        79 7.85931E-01
 -1        80 6.80501E-01
 -1        81 6.69651E-01
 -1        82 6.84376E-01
 -1        83 8.32013E-01
 -1        84 8.86514E-01
 -1        85 1.14863E+00
 -1        86 1.16880E+00
 -1        87 1.45799E+00
 -1        88 1.69872E+00
 -1        89 2.56753E+00
 -1        90 2.85749E+00
 -1        91 3.28185E+00
 -1        92 3.28185E+00
 -1        93 2.93284E+00
 -1        94 1.96661E+00
 -1        95 1.25278E+00
 -1        96 8.79399E-01
 -1        97 9.59108E-01
 -1        98 1.03457E+00
 -1        99 1.03457E+00
 -1       100 9.75268E-01
 -1       101 8.45751E-01
 -1       102 7.11951E-01
 -1       103 5.80492E-01
 -1       104 4.53138E-01
 -1       105 3.39822E-01
 -1       106 2.62671E-01
 -1       107 2.04630E-01
 -1       108 1.54820E-01
 -1       109 1.13746E-01
 -1       110 8.09486E-02
 -1       111 5.54697E-02
 -1       112 4.35832E-02
 -1       113 3.58067E-02
 -1       114 2.84574E-02
 -1       115 2.17277E-02
 -1       116 1.82239E-02
 -1       117 1.51182E-02
 -1       118 1.12333E-02
 -1       119 6.93091E-03
 -1       120 4.36639E-03
 -1       121 2.05225E-03
 -1       122 1.21760E-03
 -1       123 4.99467E-04
 -1       124 7.15602E-04
 -1       125 7.15602E-04
 -1       126 7.02747E-04
 -1       127 5.96547E-04
 -1       128 4.95740E-04
 -1       129 5.10308E-04
 -1       130 6.17989E-04
 -1       131 7.31052E-04
 -1       132 7.45508E-04
 -1       133 7.45508E-04
 -1       134 5.22738E-04
 -1       135 1.63548E-03
 -1       136 2.94552E-03
 -1       137 2.54109E+01
 -1       138 4.76610E+01
 -1       139 4.76610E+01
 -1       140 2.09386E+01
 -1       141 1.20589E+01
 -1       142 1.20589E+01
 -1       143 1.19865E+01
 -1       144 1.27560E+01
 -1       145 1.27560E+01
 -1       146 1.18862E+01
 -1       147 2.49228E+01
 -1       148 3.06701E+01
 -1       149 3.06701E+01
 -1       150 2.46173E+01
 -1       151 2.42549E+01
 -1       152 2.42170E+01
 -1       153 4.47515E+01
 -1       154 1.74954E+01
 -1       155 1.22208E+01
 -1       156 1.34371E+01
 -1       157 1.34371E+01
 -1       158 1.27656E+01
 -1       159 1.27656E+01
 -1       160 1.17248E+01
 -1       161 2.27072E+01
 -1       162 4.91203E+01
 -1       163 4.91203E+01
 -1       164 2.50945E+01
 -1       165 5.88863E+00
 -1       166 2.28165E+00
 -1       167 1.52791E+00
 -1       168 1.16891E+00
 -1       169 9.56462E-01
 -1       170 8.17551E-01
 -1       171 7.19001E-01
 -1       172 6.58190E-01
 -1       173 7.26374E-01
 -1       174 8.24090E-01
 -1       175 9.69430E-01
 -1       176 1.18580E+00
 -1       177 1.55116E+00
 -1       178 2.27049E+00
 -1       179 3.82862E+00
 -1       180 1.38513E+01
 -1       181 4.29176E+00
 -1       182 3.24163E+00
 -1       183 1.98899E+00
 -1       184 1.45723E+00
 -1       185 1.13007E+00
 -1       186 8.86807E-01
 -1       187 7.68591E-01
 -1       188 8.52502E-01
 -1       189 9.11700E-01
 -1       190 1.05181E+00
 -1       191 1.32863E+00
 -1       192 1.60383E+00
 -1       193 1.71842E+00
 -1       194 1.63980E+00
 -1       195 1.61801E+00
 -1       196 1.89763E+00
 -1       197 2.90404E+00
 -1       198 4.56293E+00
 -1       199 4.78441E+00
 -1       200 4.82976E+00
 -1       201 3.50866E+00
 -1       202 2.09837E+00
 -1       203 1.52441E+00
 -1       204 1.71818E+00
 -1       205 1.68411E+00
 -1       206 1.65781E+00
 -1       207 1.43587E+00
 -1       208 1.19045E+00
 -1       209 1.02424E+00
 -1       210 8.63203E-01
 -1       211 6.92179E-01
 -1       212 5.33016E-01
 -1       213 3.96095E-01
 -1       214 2.94585E-01
 -1       215 2.29578E-01
 -1       216 1.75057E-01
 -1       217 1.30616E-01
 -1       218 9.86738E-02
 -1       219 7.99898E-02
 -1       220 6.33548E-02
 -1       221 4.89360E-02
 -1       222 3.66595E-02
 -1       223 2.69443E-02
 -1       224 2.05425E-02
 -1       225 1.55135E-02
 -1       226 1.03672E-02
 -1       227 6.41090E-03
 -1       228 4.64751E-03
 -1       229 3.40685E+00
 -1       230 2.38752E+00
 -1       231 1.62438E+00
 -1       232 1.30647E+00
 -1       233 1.11041E+00
 -1       234 9.44763E-01
 -1       235 7.85931E-01
 -1       236 6.80501E-01
 -1       237 6.69651E-01
 -1       238 6.56972E-01
 -1       239 6.84376E-01
 -1       240 8.32013E-01
 -1       241 8.86514E-01
 -1       242 1.14863E+00
 -1       243 1.16880E+00
 -1       244 1.45799E+00
 -1       245 1.85082E+00
 -1       246 2.56753E+00
 -1       247 2.85749E+00
 -1       248 3.28185E+00
 -1       249 2.93284E+00
 -1       250 1.96661E+00
 -1       251 1.25278E+00
 -1       252 8.04030E-01
 -1       253 8.79399E-01
 -1       254 9.59108E-01
 -1       255 1.03457E+00
 -1       256 9.75268E-01
 -1       257 8.45751E-01
 -1       258 7.11951E-01
 -1       259 5.90124E-01
 -1       260 4.74820E-01
 -1       261 3.67256E-01
 -1       262 2.73678E-01
 -1       263 2.04630E-01
 -1       264 1.54820E-01
 -1       265 1.13746E-01
 -1       266 8.31952E-02
 -1       267 5.90133E-02
 -1       268 4.35832E-02
 -1       269 3.58067E-02
 -1       270 2.84574E-02
 -1       271 2.17277E-02
 -1       272 1.82239E-02
 -1       273 1.51182E-02
 -1       274 1.12333E-02
 -1       275 6.93091E-03
 -1       276 4.36639E-03
 -1       277 1.36570E-03
 -1       278 1.01177E-03
 -1       279 1.25262E-03
 -1       280 1.25262E-03
 -1       281 1.23570E-03
 -1       282 1.13862E-03
 -1       283 9.23030E-04
 -1       284 7.70321E-04
 -1       285 9.70737E-04
 -1       286 1.19040E-03
 -1       287 1.28567E-03
 -1       288 1.28567E-03
 -1       289 1.27545E-03
 -1       290 1.15743E-03
 -1       291 2.66968E-03
 -1       292 3.30639E+01
 -1       293 2.95588E+01
 -1       294 4.76610E+01
 -1       295 2.20946E+01
 -1       296 1.12505E+01
 -1       297 1.20589E+01
 -1       298 1.19865E+01
 -1       299 1.18916E+01
 -1       300 1.27560E+01
 -1       301 1.16994E+01
 -1       302 1.18862E+01
 -1       303 2.60703E+01
 -1       304 3.22902E+01
 -1       305 3.22902E+01
 -1       306 2.94829E+01
 -1       307 2.94829E+01
 -1       308 3.72520E+01
 -1       309 4.47515E+01
 -1       310 1.84277E+01
 -1       311 1.05947E+01
 -1       312 1.22208E+01
 -1       313 1.34371E+01
 -1       314 1.20071E+01
 -1       315 1.27656E+01
 -1       316 1.17248E+01
 -1       317 1.13631E+01
 -1       318 2.52274E+01
 -1       319 4.91203E+01
 -1       320 3.09601E+01
 -1       321 3.30639E+01
 -1       322 1.08024E+00
 -1       323 2.38713E+00
 -1       324 7.98437E-01
 -1       325 6.82590E-01
 -1       326 5.94981E-01
 -1       327 5.27211E-01
 -1       328 5.34714E-01
 -1       329 6.01982E-01
 -1       330 6.93663E-01
 -1       331 8.09344E-01
 -1       332 9.58385E-01
 -1       333 1.16787E+00
 -1       334 1.30777E+00
 -1       335 2.07740E+00
 -1       336 1.74969E+00
 -1       337 1.59781E+00
 -1       338 1.08277E+00
 -1       339 7.75452E-01
 -1       340 6.32786E-01
 -1       341 5.20497E-01
 -1       342 6.16490E-01
 -1       343 7.12155E-01
 -1       344 8.89038E-01
 -1       345 1.03517E+00
 -1       346 1.21427E+00
 -1       347 1.27033E+00
 -1       348 1.16141E+00
 -1       349 1.23100E+00
 -1       350 1.28890E+00
 -1       351 1.89396E+00
 -1       352 2.52749E+00
 -1       353 2.86821E+00
 -1       354 2.87499E+00
 -1       355 2.72558E+00
 -1       356 2.05727E+00
 -1       357 1.40777E+00
 -1       358 1.23602E+00
 -1       359 1.15978E+00
 -1       360 1.27676E+00
 -1       361 1.29842E+00
 -1       362 1.17515E+00
 -1       363 1.06142E+00
 -1       364 9.38434E-01
 -1       365 7.86897E-01
 -1       366 6.33396E-01
 -1       367 4.93089E-01
 -1       368 3.72842E-01
 -1       369 2.74322E-01
 -1       370 1.96322E-01
 -1       371 1.36292E-01
 -1       372 9.52684E-02
 -1       373 6.79574E-02
 -1       374 4.94071E-02
 -1       375 3.87645E-02
 -1       376 3.10355E-02
 -1       377 2.39229E-02
 -1       378 1.75341E-02
 -1       379 1.22304E-02
 -1       380 9.17501E-03
 -1       381 6.01147E-03
 -1       382 3.53604E-03
 -1       383 1.07014E+00
 -1       384 7.26988E-01
 -1       385 6.66845E-01
 -1       386 6.15445E-01
 -1       387 5.41691E-01
 -1       388 5.37277E-01
 -1       389 5.39290E-01
 -1       390 6.18854E-01
 -1       391 6.18854E-01
 -1       392 6.05782E-01
 -1       393 4.67809E-01
 -1       394 4.96307E-01
 -1       395 9.19788E-01
 -1       396 1.45028E+00
 -1       397 1.71909E+00
 -1       398 1.71909E+00
 -1       399 1.68345E+00
 -1       400 1.90672E+00
 -1       401 1.90982E+00
 -1       402 1.46716E+00
 -1       403 9.32431E-01
 -1       404 6.03373E-01
 -1       405 5.64034E-01
 -1       406 6.98194E-01
 -1       407 7.40646E-01
 -1       408 7.54558E-01
 -1       409 6.97220E-01
 -1       410 6.24448E-01
 -1       411 5.39994E-01
 -1       412 4.45313E-01
 -1       413 3.52897E-01
 -1       414 2.69841E-01
 -1       415 1.99351E-01
 -1       416 1.51090E-01
 -1       417 1.13693E-01
 -1       418 8.31952E-02
 -1       419 5.90133E-02
 -1       420 4.03084E-02
 -1       421 2.63294E-02
 -1       422 2.19697E-02
 -1       423 1.75622E-02
 -1       424 1.32438E-02
 -1       425 9.20483E-03
 -1       426 7.21823E-03
 -1       427 5.08777E-03
 -1       428 3.24862E-03
 -1       429 1.89231E-03
 -1       430 1.97647E-03
 -1       431 2.67922E-03
 -1       432 1.61185E-03
 -1       433 1.45707E-03
 -1       434 1.14446E-03
 -1       435 7.71510E-04
 -1       436 8.33899E-04
 -1       437 1.21160E-03
 -1       438 1.54045E-03
 -1       439 1.79835E-03
 -1       440 1.85733E-03
 -1       441 2.86571E-03
 -1       442 2.95588E+01
 -1       443 3.30639E+01
 -1       444 2.80820E+01
 -1       445 1.67409E+01
 -1       446 9.14533E+00
 -1       447 9.37411E-01
 -1       448 9.64224E+00
 -1       449 9.97561E+00
 -1       450 1.13090E+01
 -1       451 9.65756E+00
 -1       452 7.04768E+00
 -1       453 1.09518E+01
 -1       454 1.86007E+01
 -1       455 3.22902E+01
 -1       456 3.61686E+01
 -1       457 3.61686E+01
 -1       458 2.62835E+01
 -1       459 2.58682E+01
 -1       460 1.54180E+01
 -1       461 8.45875E+00
 -1       462 7.10171E+00
 -1       463 8.17719E+00
 -1       464 1.10499E+01
 -1       465 1.12718E+01
 -1       466 8.75586E+00
 -1       467 6.92850E+00
 -1       468 1.00200E+01
 -1       469 1.77342E+01
 -1       470 3.09601E+01
 -1       471 2.79269E+01
 -1       472 7.02160E+00
 -1       473 9.10348E+00
 -1       474 8.99030E-01
 -1       475 4.73996E-01
 -1       476 5.25480E-01
 -1       477 3.70737E-01
 -1       478 4.22463E-01
 -1       479 4.80506E-01
 -1       480 5.30392E-01
 -1       481 5.48526E-01
 -1       482 7.07849E-01
 -1       483 6.86860E-01
 -1       484 6.57389E-01
 -1       485 5.53052E+00
 -1       486 4.57196E-01
 -1       487 3.14405E-01
 -1       488 2.70887E-01
 -1       489 4.29372E-01
 -1       490 6.14574E-01
 -1       491 8.06018E-01
 -1       492 9.82471E-01
 -1       493 1.11417E+00
 -1       494 1.35047E+00
 -1       495 1.59642E+00
 -1       496 1.80997E+00
 -1       497 2.33447E+00
 -1       498 2.39329E+00
 -1       499 3.17968E+00
 -1       500 3.74804E+00
 -1       501 6.03914E+00
 -1       502 4.00624E+00
 -1       503 3.58164E+00
 -1       504 2.83212E+00
 -1       505 2.56273E+00
 -1       506 1.85606E+00
 -1       507 1.73177E+00
 -1       508 1.51757E+00
 -1       509 1.28399E+00
 -1       510 1.15174E+00
 -1       511 1.01188E+00
 -1       512 8.52671E-01
 -1       513 6.95310E-01
 -1       514 5.51854E-01
 -1       515 4.27794E-01
 -1       516 3.24500E-01
 -1       517 2.40984E-01
 -1       518 1.75081E-01
 -1       519 1.24189E-01
 -1       520 8.56906E-02
 -1       521 5.71728E-02
 -1       522 3.65297E-02
 -1       523 2.40135E-02
 -1       524 1.75164E-02
 -1       525 1.43437E-02
 -1       526 1.10264E-02
 -1       527 7.80917E-03
 -1       528 5.16300E-03
 -1       529 4.04799E-01
 -1       530 3.53602E-01
 -1       531 4.03687E-01
 -1       532 4.63158E-01
 -1       533 5.46117E-01
 -1       534 6.24625E-01
 -1       535 6.57750E-01
 -1       536 6.91256E-01
 -1       537 8.15146E-01
 -1       538 9.38275E-01
 -1       539 1.22641E+00
 -1       540 1.49590E+00
 -1       541 1.80139E+00
 -1       542 1.77214E+00
 -1       543 2.07898E+00
 -1       544 1.67829E+00
 -1       545 1.45082E+00
 -1       546 1.11129E+00
 -1       547 8.16954E-01
 -1       548 7.86544E-01
 -1       549 7.15933E-01
 -1       550 7.61210E-01
 -1       551 7.34242E-01
 -1       552 6.80593E-01
 -1       553 6.18378E-01
 -1       554 5.49088E-01
 -1       555 4.64936E-01
 -1       556 3.78696E-01
 -1       557 2.98285E-01
 -1       558 2.27852E-01
 -1       559 1.68938E-01
 -1       560 1.21443E-01
 -1       561 8.43543E-02
 -1       562 5.62401E-02
 -1       563 3.87269E-02
 -1       564 2.74675E-02
 -1       565 2.19697E-02
 -1       566 1.75622E-02
 -1       567 1.32438E-02
 -1       568 9.20483E-03
 -1       569 6.39215E-03
 -1       570 4.50224E-03
 -1       571 1.53097E-03
 -1       572 1.32351E-03
 -1       573 3.63332E-03
 -1       574 1.98885E-03
 -1       575 9.51404E-04
 -1       576 7.60444E-04
 -1       577 1.01197E-03
 -1       578 1.41803E-03
 -1       579 1.83019E-03
 -1       580 2.39956E-03
 -1       581 2.31938E-03
 -1       582 2.80820E+01
 -1       583 1.28969E+01
 -1       584 4.93097E-01
 -1       585 2.79269E+01
 -1       586 9.85828E+00
 -1       587 8.39372E-01
 -1       588 6.10271E+00
 -1       589 5.41793E+00
 -1       590 6.00974E+00
 -1       591 4.16859E-01
 -1       592 8.05390E+00
 -1       593 9.05083E+00
 -1       594 7.54779E+00
 -1       595 3.85795E+00
 -1       596 9.75440E+00
 -1       597 5.93768E+00
 -1       598 1.48169E+01
 -1       599 2.16035E+01
 -1       600 3.61686E+01
 -1       601 2.62835E+01
 -1       602 2.01814E+01
 -1       603 1.24049E+01
 -1       604 7.53081E+00
 -1       605 5.15750E+00
 -1       606 7.22887E+00
 -1       607 6.13676E+00
 -1       608 4.56204E+00
 -1       609 1.27836E+01
 -1       610 2.08530E+01
 -1       611 5.04885E+00
 -1       612 1.20518E+00
 -1       613 1.97829E+01
 -1       614 5.25480E-01
 -1       615 5.12517E-01
 -1       616 6.94527E+00
 -1       617 1.37803E+01
 -1       618 6.87105E+00
 -1       619 3.56927E-03
 -1       620 3.33239E-01
 -1       621 2.87054E-01
 -1       622 3.92612E-01
 -1       623 4.13234E-01
 -1       624 4.27953E-01
 -1       625 1.30363E+01
 -1       626 9.67655E+00
 -1       627 1.40610E+01
 -1       628 3.58164E+00
 -1       629 2.64626E-01
 -1       630 2.82011E-01
 -1       631 3.61952E-01
 -1       632 5.11773E-01
 -1       633 7.01021E-01
 -1       634 9.25976E-01
 -1       635 1.18117E+00
 -1       636 1.45148E+00
 -1       637 1.78770E+00
 -1       638 2.36920E+00
 -1       639 2.86828E+00
 -1       640 4.49780E+00
 -1       641 3.21252E+00
 -1       642 5.89030E+00
 -1       643 4.00624E+00
 -1       644 3.17851E+00
 -1       645 2.62790E+00
 -1       646 2.02697E+00
 -1       647 1.62527E+00
 -1       648 1.37466E+00
 -1       649 1.12970E+00
 -1       650 9.14021E-01
 -1       651 7.28013E-01
 -1       652 5.73638E-01
 -1       653 4.46366E-01
 -1       654 3.42705E-01
 -1       655 2.59329E-01
 -1       656 1.93154E-01
 -1       657 1.41368E-01
 -1       658 1.01446E-01
 -1       659 7.11638E-02
 -1       660 4.86023E-02
 -1       661 3.21338E-02
 -1       662 2.04035E-02
 -1       663 1.22957E-02
 -1       664 7.71035E-03
 -1       665 6.35879E-03
 -1       666 4.83656E-03
 -1       667 3.38760E-01
 -1       668 3.51871E-03
 -1       669 2.35962E-01
 -1       670 5.47417E-01
 -1       671 6.70398E-01
 -1       672 8.08651E-01
 -1       673 9.16363E-01
 -1       674 1.06751E+00
 -1       675 1.34300E+00
 -1       676 1.46085E+00
 -1       677 1.80727E+00
 -1       678 1.80139E+00
 -1       679 2.62409E+00
 -1       680 4.73298E+00
 -1       681 4.47304E+00
 -1       682 2.68347E+00
 -1       683 2.17522E+00
 -1       684 1.43825E+00
 -1       685 1.28480E+00
 -1       686 1.02158E+00
 -1       687 9.86940E-01
 -1       688 8.84201E-01
 -1       689 7.61107E-01
 -1       690 6.74298E-01
 -1       691 5.93294E-01
 -1       692 5.02554E-01
 -1       693 4.12584E-01
 -1       694 3.29655E-01
 -1       695 2.56966E-01
 -1       696 1.95632E-01
 -1       697 1.45459E-01
 -1       698 1.05501E-01
 -1       699 7.44561E-02
 -1       700 5.09159E-02
 -1       701 3.35145E-02
 -1       702 2.10125E-02
 -1       703 1.31226E-02
 -1       704 9.88685E-03
 -1       705 7.94394E-03
 -1       706 5.86974E-03
 -1       707 4.50224E-03
 -1       708 7.24479E+00
 -1       709 2.20218E-03
 -1       710 3.22355E+00
 -1       711 1.77954E-03
 -1       712 2.23552E-03
 -1       713 2.20218E-03
 -1       714 2.23552E-03
 -1       715 1.91040E-03
 -1       716 2.39956E-03
 -1       717 3.30666E+00
 -1       718 1.34174E+01
 -1       719 3.85740E-01
 -1       720 1.15960E+01
 -1       721 5.58065E+00
 -1       722 6.56802E+00
 -1       723 1.85427E-01
 -1       724 4.48553E-01
 -1       725 3.21868E-01
 -1       726 7.92511E+00
 -1       727 2.67335E-01
 -1       728 3.76281E-01
 -1       729 3.65846E-01
 -1       730 6.26279E+00
 -1       731 8.26223E+00
 -1       732 1.55947E+01
 -1       733 3.14659E+00
 -1       734 1.42992E+01
 -1       735 1.17053E+01
 -1       736 1.10886E+01
 -1       737 5.95561E+00
 -1       738 4.94676E+00
 -1       739 2.39619E+00
 -1       740 7.82068E+00
 -1       741 4.05498E+00
 -1       742 3.67409E-01
 -1       743 2.78036E-01
 -1       744 3.59823E+00
 -1       745 2.41252E-03
 -1       746 4.61514E+00
 -1       747 9.82235E+00
 -1       748 8.40671E+00
 -1       749 1.66957E-03
 -1       750 3.22425E-01
 -1       751 3.17771E+00
 -1       752 2.92760E-03
 -1       753 6.12147E+00
 -1       754 7.19524E+00
 -1       755 3.17322E-01
 -1       756 7.99935E+00
 -1       757 3.54485E-01
 -1       758 3.93725E+00
 -1       759 7.64691E+00
 -1       760 4.52263E+00
 -1       761 2.66770E-01
 -1       762 3.94213E-01
 -1       763 4.95913E-01
 -1       764 6.40709E-01
 -1       765 8.37083E-01
 -1       766 1.11672E+00
 -1       767 1.51500E+00
 -1       768 2.11572E+00
 -1       769 3.05876E+00
 -1       770 6.26616E+00
 -1       771 4.25200E+00
 -1       772 2.87261E+00
 -1       773 2.38990E+00
 -1       774 1.77263E+00
 -1       775 1.32165E+00
 -1       776 1.02701E+00
 -1       777 8.25721E-01
 -1       778 6.57458E-01
 -1       779 5.12492E-01
 -1       780 3.92047E-01
 -1       781 2.94527E-01
 -1       782 2.17192E-01
 -1       783 1.56970E-01
 -1       784 1.11141E-01
 -1       785 7.82372E-02
 -1       786 5.37984E-02
 -1       787 3.61849E-02
 -1       788 2.44510E-02
 -1       789 1.60495E-02
 -1       790 1.02394E-02
 -1       791 6.23420E-03
 -1       792 3.95661E-03
 -1       793 3.21915E-01
 -1       794 8.63260E-01
 -1       795 7.07938E-01
 -1       796 1.39320E+00
 -1       797 1.61826E+00
 -1       798 1.65737E+00
 -1       799 2.30267E+00
 -1       800 1.80727E+00
 -1       801 4.73298E+00
 -1       802 2.58916E+00
 -1       803 2.66677E+00
 -1       804 1.63595E+00
 -1       805 1.39471E+00
 -1       806 1.13863E+00
 -1       807 9.19540E-01
 -1       808 7.92504E-01
 -1       809 6.62290E-01
 -1       810 5.45025E-01
 -1       811 4.37199E-01
 -1       812 3.43234E-01
 -1       813 2.66891E-01
 -1       814 2.04407E-01
 -1       815 1.53975E-01
 -1       816 1.13929E-01
 -1       817 8.26568E-02
 -1       818 5.86592E-02
 -1       819 4.05910E-02
 -1       820 2.72745E-02
 -1       821 1.77009E-02
 -1       822 1.10216E-02
 -1       823 6.54336E-03
 -1       824 4.28159E-03
 -1       825 3.21863E-03
 -1       826 4.41156E-03
 -1       827 9.52729E+00
 -1       828 4.41156E-03
 -1       829 8.71872E+00
 -1       830 4.22716E-03
 -1       831 2.67335E-01
 -1       832 3.17371E-03
 -1       833 2.32603E-01
 -1       834 6.72318E+00
 -1       835 1.12390E+00
 -1       836 5.75353E+00
 -1       837 3.94057E+00
 -1       838 3.33632E-01
 -1       839 2.15983E+00
 -1       840 9.08899E+00
 -1       841 4.40387E+00
 -1       842 6.01673E+00
 -1       843 3.47791E+00
 -1       844 9.80813E+00
 -1       845 1.77876E-01
 -1       846 3.09697E-01
 -1       847 6.94471E+00
 -1       848 8.84037E+00
 -1       849 3.67409E-01
 -1       850 5.55472E+00
 -1       851 2.68347E+00
 -1       852 4.80600E+00
 -1       853 6.86834E+00
 -1       854 4.30918E-01
 -1       855 7.35618E+00
 -1       856 5.63557E-01
 -1       857 2.62409E+00
 -1       858 4.06907E-03
 -1       859 8.46793E+00
 -1       860 4.34383E-03
 -1       861 2.78237E-01
 -1       862 3.45960E+00
 -1       863 9.08899E+00
 -1       864 3.43826E-03
 -1       865 2.60969E-01
 -1       866 9.93689E+00
 -1       867 2.92760E-03
 -1       868 2.61572E-01
 -1       869 3.67409E-01
 -1       870 5.55472E+00
 -1       871 4.47304E+00
 -1       872 4.62382E-01
 -1       873 2.68548E+00
 -1       874 6.16993E-01
 -1       875 8.37083E-01
 -1       876 1.11672E+00
 -1       877 1.46941E+00
 -1       878 2.05451E+00
 -1       879 2.71564E+00
 -1       880 5.20603E+00
 -1       881 3.54141E-01
 -1       882 2.01725E+00
 -1       883 1.68136E+00
 -1       884 1.32165E+00
 -1       885 1.02701E+00
 -1       886 7.97495E-01
 -1       887 6.15922E-01
 -1       888 4.72323E-01
 -1       889 3.58864E-01
 -1       890 2.69576E-01
 -1       891 1.99763E-01
 -1       892 1.45663E-01
 -1       893 1.04208E-01
 -1       894 7.28710E-02
 -1       895 5.04086E-02
 -1       896 3.41627E-02
 -1       897 2.23366E-02
 -1       898 1.39929E-02
 -1       899 8.89602E-03
 -1       900 9.64029E-01
 -1       901 2.35067E+00
 -1       902 1.79359E+00
 -1       903 2.36584E+00
 -1       904 1.53150E+00
 -1       905 1.25534E+00
 -1       906 9.90563E-01
 -1       907 7.65584E-01
 -1       908 6.06675E-01
 -1       909 4.88435E-01
 -1       910 3.99752E-01
 -1       911 3.18515E-01
 -1       912 2.47796E-01
 -1       913 1.88427E-01
 -1       914 1.40006E-01
 -1       915 1.01497E-01
 -1       916 7.15830E-02
 -1       917 5.01068E-02
 -1       918 3.39853E-02
 -1       919 2.21517E-02
 -1       920 1.37133E-02
 -1       921 8.25436E-03
 -1       922 5.14905E-03
 -1       923 7.27238E+00
 -1       924 7.49121E-03
 -1       925 4.74188E+00
 -1       926 7.49121E-03
 -1       927 2.16027E+00
 -1       928 3.29915E-03
 -1       929 2.79431E+00
 -1       930 2.16395E-01
 -1       931 2.97047E+00
 -1       932 6.64400E-03
 -1       933 3.70969E-01
 -1       934 5.10015E+00
 -1       935 3.46397E-01
 -1       936 5.37734E+00
 -1       937 2.86532E-01
 -1       938 4.93574E+00
 -1       939 3.05027E-01
 -1       940 4.26205E-01
 -1       941 4.85307E+00
 -1       942 5.75016E+00
 -1       943 7.13191E-01
 -1       944 1.18902E+00
 -1       945 4.48328E-03
 -1       946 1.47298E+00
 -1       947 4.08671E+00
 -1       948 5.52611E+00
 -1       949 2.57411E-01
 -1       950 7.08510E-03
 -1       951 3.79001E+00
 -1       952 7.08510E-03
 -1       953 4.73373E+00
 -1       954 6.08466E-03
 -1       955 1.75000E-01
 -1       956 4.61609E+00
 -1       957 2.40751E-01
 -1       958 2.70400E-01
 -1       959 4.38741E+00
 -1       960 1.36274E-02
 -1       961 4.15060E-01
 -1       962 3.29288E+00
 -1       963 1.63876E-01
 -1       964 7.33160E-01
 -1       965 1.01904E+00
 -1       966 1.42876E+00
 -1       967 2.05451E+00
 -1       968 2.40980E+00
 -1       969 5.55472E+00
 -1       970 3.60443E-01
 -1       971 1.68136E+00
 -1       972 1.20513E+00
 -1       973 8.96618E-01
 -1       974 6.76310E-01
 -1       975 5.14154E-01
 -1       976 3.91258E-01
 -1       977 2.96601E-01
 -1       978 2.23047E-01
 -1       979 1.65812E-01
 -1       980 1.21469E-01
 -1       981 8.74095E-02
 -1       982 6.15569E-02
 -1       983 4.22237E-02
 -1       984 2.88124E-02
 -1       985 1.92081E-02
 -1       986 2.28262E+00
 -1       987 7.43604E-01
 -1       988 6.06675E-01
 -1       989 4.86246E-01
 -1       990 3.83628E-01
 -1       991 2.98202E-01
 -1       992 2.28275E-01
 -1       993 1.71884E-01
 -1       994 1.27089E-01
 -1       995 9.20615E-02
 -1       996 6.51304E-02
 -1       997 4.48025E-02
 -1       998 3.06571E-02
 -1       999 2.02710E-02
 -1      1000 1.27590E-02
 -1      1001 1.36274E-02
 -1      1002 2.86532E-01
 -1      1003 9.90867E-01
 -1      1004 4.02296E+00
 -1      1005 1.54037E+00
 -1      1006 2.70672E+00
 -1      1007 3.86526E+00
 -1      1008 3.60443E-01
 -1      1009 5.30286E-01
 -1      1010 5.46663E-01
 -1      1011 2.37894E+00
 -1      1012 2.42038E+00
 -1      1013 3.87741E-01
 -1      1014 3.53542E+00
 -1      1015 4.60925E+00
 -1      1016 4.29461E+00
 -1      1017 5.01581E-01
 -1      1018 9.61040E-01
 -1      1019 1.80513E+00
 -1      1020 1.20378E-02
 -1      1021 1.35962E+00
 -1      1022 4.59832E+00
 -1      1023 7.51329E-03
 -1      1024 3.34796E+00
 -1      1025 1.10032E-02
 -1      1026 9.80288E-03
 -1      1027 3.39479E+00
 -1      1028 2.87918E+00
 -1      1029 2.67436E-01
 -1      1030 3.44162E-01
 -1      1031 2.42038E+00
 -1      1032 2.93401E+00
 -1      1033 1.07015E+00
 -1      1034 1.60498E+00
 -1      1035 2.25713E+00
 -1      1036 6.07122E-01
 -1      1037 1.84387E+00
 -1      1038 1.65881E+00
 -1      1039 8.79921E-01
 -1      1040 6.53100E-01
 -1      1041 4.92660E-01
 -1      1042 3.75512E-01
 -1      1043 2.87192E-01
 -1      1044 2.18814E-01
 -1      1045 1.65285E-01
 -1      1046 1.23323E-01
 -1      1047 9.05975E-02
 -1      1048 6.53178E-02
 -1      1049 4.60402E-02
 -1      1050 3.15803E-02
 -1      1051 2.14626E-02
 -1      1052 4.33148E-01
 -1      1053 5.64203E-01
 -1      1054 5.72442E-01
 -1      1055 3.36839E+00
 -1      1056 7.24928E-01
 -1      1057 3.31738E-01
 -1      1058 2.52437E-01
 -1      1059 1.90261E-01
 -1      1060 1.41634E-01
 -1      1061 1.03848E-01
 -1      1062 7.47679E-02
 -1      1063 5.26639E-02
 -1      1064 3.61300E-02
 -1      1065 2.44366E-02
 -1      1066 1.80190E-02
 -1      1067 4.26504E-01
 -1      1068 9.82035E-01
 -1      1069 1.36554E+00
 -1      1070 1.25954E+00
 -1      1071 1.50088E-02
 -1      1072 7.29741E-01
 -1      1073 3.30454E-01
 -1      1074 3.68162E-01
 -1      1075 7.48344E-01
 -1      1076 2.71370E+00
 -1      1077 2.20715E+00
 -1      1078 3.51979E+00
 -1      1079 1.33672E-02
 -1      1080 4.26067E+00
 -1      1081 1.56641E-02
 -1      1082 9.61040E-01
 -1      1083 5.01581E-01
 -1      1084 1.27230E+00
 -1      1085 1.30535E+00
 -1      1086 6.07122E-01
 -1      1087 2.13935E+00
 -1      1088 6.22811E-01
 -1      1089 9.19853E-01
 -1      1090 8.42763E-01
 -1      1091 6.22811E-01
 -1      1092 4.64889E-01
 -1      1093 3.48861E-01
 -1      1094 2.61871E-01
 -1      1095 1.95742E-01
 -1      1096 1.45242E-01
 -1      1097 1.08630E-01
 -1      1098 7.99562E-02
 -1      1099 5.77072E-02
 -1      1100 4.06264E-02
 -1      1101 2.76059E-02
 -1      1102 3.48861E-01
 -1      1103 4.64889E-01
 -1      1104 1.15834E+00
 -1      1105 1.53523E-02
 -1      1106 8.42763E-01
 -1      1107 2.61871E-01
 -1      1108 1.95742E-01
 -1      1109 1.45115E-01
 -1      1110 1.06312E-01
 -1      1111 7.66708E-02
 -1      1112 5.41564E-02
 -1      1113 3.72671E-02
 -1      1114 2.07158E-02
 -1      1115 4.97912E-01
 -1      1116 4.86609E-01
 -1      1117 1.43310E+00
 -1      1118 2.05930E+00
 -1      1119 6.86352E-01
 -1      1120 3.28170E+00
 -1      1121 7.29741E-01
 -1      1122 1.18140E+00
 -1      1123 1.89139E+00
 -1      1124 4.26067E+00
 -1      1125 9.47489E-01
 -1      1126 1.65881E+00
 -1      1127 1.21295E+00
 -1      1128 4.26067E+00
 -1      1129 1.15834E+00
 -1      1130 6.23800E-01
 -1      1131 1.72593E+00
 -1      1132 3.41962E+00
 -1      1133 6.23800E-01
 -1      1134 3.41962E+00
 -1      1135 1.72593E+00
 -1      1136 1.29499E+01
 -1      1137 8.24880E+00
 -1      1138 2.67310E+00
 -1      1139 1.54888E+00
 -1      1140 1.16914E+00
 -1      1141 9.54655E-01
 -1      1142 8.10319E-01
 -1      1143 7.08955E-01
 -1      1144 6.70774E-01
 -1      1145 7.16736E-01
 -1      1146 8.17047E-01
 -1      1147 9.63174E-01
 -1      1148 1.18556E+00
 -1      1149 1.56435E+00
 -1      1150 2.60327E+00
 -1      1151 5.90372E+00
 -1      1152 1.11308E+01
 -1      1153 1.29499E+01
 -1      1154 8.62082E+00
 -1      1155 3.76670E+00
 -1      1156 2.61531E+00
 -1      1157 1.72311E+00
 -1      1158 1.29365E+00
 -1      1159 1.00844E+00
 -1      1160 8.69655E-01
 -1      1161 8.82101E-01
 -1      1162 9.58992E-01
 -1      1163 1.16746E+00
 -1      1164 1.46623E+00
 -1      1165 1.66112E+00
 -1      1166 1.71842E+00
 -1      1167 1.67911E+00
 -1      1168 1.76871E+00
 -1      1169 2.40084E+00
 -1      1170 3.73349E+00
 -1      1171 4.67367E+00
 -1      1172 4.80709E+00
 -1      1173 4.82976E+00
 -1      1174 4.16921E+00
 -1      1175 2.80352E+00
 -1      1176 1.90827E+00
 -1      1177 1.71818E+00
 -1      1178 1.70115E+00
 -1      1179 1.67096E+00
 -1      1180 1.54684E+00
 -1      1181 1.29204E+00
 -1      1182 1.03359E+00
 -1      1183 8.12376E-01
 -1      1184 6.44582E-01
 -1      1185 5.31051E-01
 -1      1186 4.29653E-01
 -1      1187 3.37587E-01
 -1      1188 2.58566E-01
 -1      1189 1.93365E-01
 -1      1190 1.41516E-01
 -1      1191 1.08761E-01
 -1      1192 8.93318E-02
 -1      1193 7.16723E-02
 -1      1194 5.61454E-02
 -1      1195 4.27978E-02
 -1      1196 3.14863E-02
 -1      1197 2.34278E-02
 -1      1198 1.80280E-02
 -1      1199 1.29404E-02
 -1      1200 8.26435E-03
 -1      1201 5.40448E-03
 -1      1202 2.77487E-03
 -1      1203 1.38513E+01
 -1      1204 8.62907E+00
 -1      1205 2.89718E+00
 -1      1206 2.00595E+00
 -1      1207 1.46543E+00
 -1      1208 1.20844E+00
 -1      1209 1.02759E+00
 -1      1210 8.65347E-01
 -1      1211 7.33216E-01
 -1      1212 6.75076E-01
 -1      1213 6.77014E-01
 -1      1214 7.58194E-01
 -1      1215 8.59264E-01
 -1      1216 1.01757E+00
 -1      1217 1.15871E+00
 -1      1218 1.31340E+00
 -1      1219 1.57836E+00
 -1      1220 2.13313E+00
 -1      1221 2.71251E+00
 -1      1222 3.06967E+00
 -1      1223 3.28185E+00
 -1      1224 3.10734E+00
 -1      1225 2.44973E+00
 -1      1226 1.60969E+00
 -1      1227 1.06609E+00
 -1      1228 9.19254E-01
 -1      1229 9.96841E-01
 -1      1230 1.03457E+00
 -1      1231 1.00492E+00
 -1      1232 9.10510E-01
 -1      1233 7.78851E-01
 -1      1234 6.46222E-01
 -1      1235 5.16815E-01
 -1      1236 3.96480E-01
 -1      1237 3.01246E-01
 -1      1238 2.33651E-01
 -1      1239 1.79725E-01
 -1      1240 1.34283E-01
 -1      1241 9.73473E-02
 -1      1242 6.82091E-02
 -1      1243 4.95264E-02
 -1      1244 3.96949E-02
 -1      1245 3.21321E-02
 -1      1246 2.50926E-02
 -1      1247 1.99758E-02
 -1      1248 1.66710E-02
 -1      1249 1.31757E-02
 -1      1250 9.08211E-03
 -1      1251 5.64865E-03
 -1      1252 2.60251E-03
 -1      1253 1.44544E-03
 -1      1254 1.63493E-03
 -1      1255 8.58535E-04
 -1      1256 6.07534E-04
 -1      1257 7.15602E-04
 -1      1258 7.09175E-04
 -1      1259 6.49647E-04
 -1      1260 5.46143E-04
 -1      1261 5.03024E-04
 -1      1262 5.64148E-04
 -1      1263 6.74520E-04
 -1      1264 7.38280E-04
 -1      1265 7.45508E-04
 -1      1266 6.34123E-04
 -1      1267 1.07911E-03
 -1      1268 2.29050E-03
 -1      1269 1.92387E-03
 -1      1270 2.54109E+01
 -1      1271 3.65360E+01
 -1      1272 4.76610E+01
 -1      1273 3.42998E+01
 -1      1274 1.64988E+01
 -1      1275 1.20589E+01
 -1      1276 1.20227E+01
 -1      1277 1.23713E+01
 -1      1278 1.27560E+01
 -1      1279 1.23211E+01
 -1      1280 1.84045E+01
 -1      1281 2.77964E+01
 -1      1282 3.06701E+01
 -1      1283 2.76437E+01
 -1      1284 2.44361E+01
 -1      1285 2.42360E+01
 -1      1286 3.44843E+01
 -1      1287 4.47515E+01
 -1      1288 3.11234E+01
 -1      1289 1.48581E+01
 -1      1290 1.28290E+01
 -1      1291 1.34371E+01
 -1      1292 1.31014E+01
 -1      1293 1.27656E+01
 -1      1294 1.22452E+01
 -1      1295 1.72160E+01
 -1      1296 3.59137E+01
 -1      1297 4.91203E+01
 -1      1298 3.71074E+01
 -1      1299 2.52527E+01
 -1      1300 1.29499E+01
 -1      1301 4.71818E+00
 -1      1302 9.41925E+00
 -1      1303 2.04006E+00
 -1      1304 2.91470E+00
 -1      1305 4.08514E+00
 -1      1306 1.41361E+00
 -1      1307 1.66318E+00
 -1      1308 1.90478E+00
 -1      1309 1.10394E+00
 -1      1310 1.23411E+00
 -1      1311 1.34841E+00
 -1      1312 9.13401E-01
 -1      1313 9.97716E-01
 -1      1314 1.06269E+00
 -1      1315 7.83924E-01
 -1      1316 8.43945E-01
 -1      1317 8.87007E-01
 -1      1318 6.93307E-01
 -1      1319 7.34649E-01
 -1      1320 7.68276E-01
 -1      1321 6.66063E-01
 -1      1322 6.62902E-01
 -1      1323 6.88596E-01
 -1      1324 7.42955E-01
 -1      1325 7.00155E-01
 -1      1326 6.92282E-01
 -1      1327 8.49324E-01
 -1      1328 7.91813E-01
 -1      1329 7.75232E-01
 -1      1330 1.01061E+00
 -1      1331 9.21994E-01
 -1      1332 8.96760E-01
 -1      1333 1.25257E+00
 -1      1334 1.11879E+00
 -1      1335 1.07761E+00
 -1      1336 1.68027E+00
 -1      1337 1.43525E+00
 -1      1338 1.36848E+00
 -1      1339 2.83383E+00
 -1      1340 2.03993E+00
 -1      1341 1.91083E+00
 -1      1342 6.11944E+00
 -1      1343 3.61290E+00
 -1      1344 3.04956E+00
 -1      1345 1.38513E+01
 -1      1346 1.11308E+01
 -1      1347 8.83995E+00
 -1      1348 1.38513E+01
 -1      1349 8.62082E+00
 -1      1350 4.29176E+00
 -1      1351 3.76670E+00
 -1      1352 3.24163E+00
 -1      1353 3.76670E+00
 -1      1354 2.61531E+00
 -1      1355 1.98899E+00
 -1      1356 2.61531E+00
 -1      1357 1.72311E+00
 -1      1358 1.45723E+00
 -1      1359 1.72311E+00
 -1      1360 1.29365E+00
 -1      1361 1.13007E+00
 -1      1362 1.29365E+00
 -1      1363 1.00844E+00
 -1      1364 8.86807E-01
 -1      1365 1.00844E+00
 -1      1366 8.27699E-01
 -1      1367 8.10546E-01
 -1      1368 8.27699E-01
 -1      1369 8.52502E-01
 -1      1370 8.82101E-01
 -1      1371 8.10546E-01
 -1      1372 9.11700E-01
 -1      1373 9.58992E-01
 -1      1374 8.82101E-01
 -1      1375 1.02905E+00
 -1      1376 1.19022E+00
 -1      1377 9.81755E-01
 -1      1378 1.32863E+00
 -1      1379 1.46623E+00
 -1      1380 1.19022E+00
 -1      1381 1.60383E+00
 -1      1382 1.66112E+00
 -1      1383 1.46623E+00
 -1      1384 1.71842E+00
 -1      1385 1.71842E+00
 -1      1386 1.66112E+00
 -1      1387 1.67911E+00
 -1      1388 1.63980E+00
 -1      1389 1.67911E+00
 -1      1390 1.62890E+00
 -1      1391 1.75782E+00
 -1      1392 1.62890E+00
 -1      1393 1.89763E+00
 -1      1394 2.40084E+00
 -1      1395 1.75782E+00
 -1      1396 2.90404E+00
 -1      1397 3.73349E+00
 -1      1398 2.40084E+00
 -1      1399 4.56293E+00
 -1      1400 4.67367E+00
 -1      1401 3.73349E+00
 -1      1402 4.78441E+00
 -1      1403 4.80709E+00
 -1      1404 4.67367E+00
 -1      1405 4.82976E+00
 -1      1406 4.82976E+00
 -1      1407 4.80709E+00
 -1      1408 4.16921E+00
 -1      1409 3.50866E+00
 -1      1410 4.16921E+00
 -1      1411 2.80352E+00
 -1      1412 2.09837E+00
 -1      1413 2.80352E+00
 -1      1414 1.81139E+00
 -1      1415 1.62130E+00
 -1      1416 1.81139E+00
 -1      1417 1.71818E+00
 -1      1418 1.71818E+00
 -1      1419 1.62130E+00
 -1      1420 1.70115E+00
 -1      1421 1.68411E+00
 -1      1422 1.70115E+00
 -1      1423 1.67096E+00
 -1      1424 1.65781E+00
 -1      1425 1.67096E+00
 -1      1426 1.54684E+00
 -1      1427 1.43587E+00
 -1      1428 1.54684E+00
 -1      1429 1.31316E+00
 -1      1430 1.16933E+00
 -1      1431 1.31316E+00
 -1      1432 1.08623E+00
 -1      1433 9.71608E-01
 -1      1434 1.10734E+00
 -1      1435 8.91088E-01
 -1      1436 7.84491E-01
 -1      1437 9.43722E-01
 -1      1438 6.98979E-01
 -1      1439 6.37783E-01
 -1      1440 7.77691E-01
 -1      1441 5.58201E-01
 -1      1442 5.05866E-01
 -1      1443 6.12598E-01
 -1      1444 4.37406E-01
 -1      1445 3.88342E-01
 -1      1446 4.64556E-01
 -1      1447 3.37587E-01
 -1      1448 2.94585E-01
 -1      1449 3.45340E-01
 -1      1450 2.62082E-01
 -1      1451 2.26062E-01
 -1      1452 2.62082E-01
 -1      1453 1.98802E-01
 -1      1454 1.69620E-01
 -1      1455 2.02317E-01
 -1      1456 1.47400E-01
 -1      1457 1.24732E-01
 -1      1458 1.52836E-01
 -1      1459 1.08761E-01
 -1      1460 9.86738E-02
 -1      1461 1.14645E-01
 -1      1462 8.93318E-02
 -1      1463 7.99898E-02
 -1      1464 8.93318E-02
 -1      1465 7.16723E-02
 -1      1466 6.33548E-02
 -1      1467 7.16723E-02
 -1      1468 5.61454E-02
 -1      1469 4.89360E-02
 -1      1470 5.61454E-02
 -1      1471 4.27978E-02
 -1      1472 3.66595E-02
 -1      1473 4.27978E-02
 -1      1474 3.18019E-02
 -1      1475 2.66287E-02
 -1      1476 3.18019E-02
 -1      1477 2.34278E-02
 -1      1478 2.05425E-02
 -1      1479 2.37434E-02
 -1      1480 1.80280E-02
 -1      1481 1.55135E-02
 -1      1482 1.80280E-02
 -1      1483 1.29404E-02
 -1      1484 1.03672E-02
 -1      1485 1.29404E-02
 -1      1486 8.38907E-03
 -1      1487 6.28618E-03
 -1      1488 8.38907E-03
 -1      1489 5.40448E-03
 -1      1490 4.64751E-03
 -1      1491 5.52920E-03
 -1      1492 3.79651E-03
 -1      1493 3.79651E-03
 -1      1494 3.40685E+00
 -1      1495 8.62907E+00
 -1      1496 8.62907E+00
 -1      1497 2.38752E+00
 -1      1498 2.89718E+00
 -1      1499 2.89718E+00
 -1      1500 1.62438E+00
 -1      1501 2.00595E+00
 -1      1502 2.00595E+00
 -1      1503 1.30647E+00
 -1      1504 1.46543E+00
 -1      1505 1.46543E+00
 -1      1506 1.11041E+00
 -1      1507 1.20844E+00
 -1      1508 1.20844E+00
 -1      1509 9.44763E-01
 -1      1510 1.02759E+00
 -1      1511 1.02759E+00
 -1      1512 7.85931E-01
 -1      1513 8.65347E-01
 -1      1514 8.65347E-01
 -1      1515 6.80501E-01
 -1      1516 7.33216E-01
 -1      1517 7.33216E-01
 -1      1518 6.69651E-01
 -1      1519 6.75076E-01
 -1      1520 6.75076E-01
 -1      1521 6.70674E-01
 -1      1522 6.63312E-01
 -1      1523 6.63312E-01
 -1      1524 7.58194E-01
 -1      1525 6.84376E-01
 -1      1526 6.70674E-01
 -1      1527 8.59264E-01
 -1      1528 8.32013E-01
 -1      1529 7.58194E-01
 -1      1530 1.01757E+00
 -1      1531 8.86514E-01
 -1      1532 8.59264E-01
 -1      1533 1.15871E+00
 -1      1534 1.14863E+00
 -1      1535 1.01757E+00
 -1      1536 1.31340E+00
 -1      1537 1.16880E+00
 -1      1538 1.15871E+00
 -1      1539 1.57836E+00
 -1      1540 1.45799E+00
 -1      1541 1.31340E+00
 -1      1542 2.20918E+00
 -1      1543 1.77477E+00
 -1      1544 1.65441E+00
 -1      1545 2.71251E+00
 -1      1546 2.56753E+00
 -1      1547 2.20918E+00
 -1      1548 3.06967E+00
 -1      1549 2.85749E+00
 -1      1550 2.71251E+00
 -1      1551 3.28185E+00
 -1      1552 3.28185E+00
 -1      1553 3.06967E+00
 -1      1554 2.93284E+00
 -1      1555 3.10734E+00
 -1      1556 3.10734E+00
 -1      1557 1.96661E+00
 -1      1558 2.44973E+00
 -1      1559 2.44973E+00
 -1      1560 1.25278E+00
 -1      1561 1.60969E+00
 -1      1562 1.60969E+00
 -1      1563 8.41715E-01
 -1      1564 1.02840E+00
 -1      1565 1.02840E+00
 -1      1566 9.19254E-01
 -1      1567 8.79399E-01
 -1      1568 8.41715E-01
 -1      1569 9.96841E-01
 -1      1570 9.59108E-01
 -1      1571 9.19254E-01
 -1      1572 1.03457E+00
 -1      1573 1.03457E+00
 -1      1574 9.96841E-01
 -1      1575 9.75268E-01
 -1      1576 1.00492E+00
 -1      1577 1.00492E+00
 -1      1578 8.45751E-01
 -1      1579 9.10510E-01
 -1      1580 9.10510E-01
 -1      1581 7.11951E-01
 -1      1582 7.78851E-01
 -1      1583 7.78851E-01
 -1      1584 5.85308E-01
 -1      1585 6.51038E-01
 -1      1586 6.51038E-01
 -1      1587 4.63979E-01
 -1      1588 5.27656E-01
 -1      1589 5.32472E-01
 -1      1590 3.53539E-01
 -1      1591 4.10197E-01
 -1      1592 4.21038E-01
 -1      1593 2.68175E-01
 -1      1594 3.06750E-01
 -1      1595 3.20467E-01
 -1      1596 2.04630E-01
 -1      1597 2.33651E-01
 -1      1598 2.39154E-01
 -1      1599 1.54820E-01
 -1      1600 1.79725E-01
 -1      1601 1.79725E-01
 -1      1602 1.13746E-01
 -1      1603 1.34283E-01
 -1      1604 1.34283E-01
 -1      1605 8.20719E-02
 -1      1606 9.84706E-02
 -1      1607 9.84706E-02
 -1      1608 5.72415E-02
 -1      1609 6.99809E-02
 -1      1610 7.11043E-02
 -1      1611 4.35832E-02
 -1      1612 4.95264E-02
 -1      1613 5.12982E-02
 -1      1614 3.58067E-02
 -1      1615 3.96949E-02
 -1      1616 3.96949E-02
 -1      1617 2.84574E-02
 -1      1618 3.21321E-02
 -1      1619 3.21321E-02
 -1      1620 2.17277E-02
 -1      1621 2.50926E-02
 -1      1622 2.50926E-02
 -1      1623 1.82239E-02
 -1      1624 1.99758E-02
 -1      1625 1.99758E-02
 -1      1626 1.51182E-02
 -1      1627 1.66710E-02
 -1      1628 1.66710E-02
 -1      1629 1.12333E-02
 -1      1630 1.31757E-02
 -1      1631 1.31757E-02
 -1      1632 6.93091E-03
 -1      1633 9.08211E-03
 -1      1634 9.08211E-03
 -1      1635 4.36639E-03
 -1      1636 5.64865E-03
 -1      1637 5.64865E-03
 -1      1638 3.20932E-03
 -1      1639 1.29165E-03
 -1      1640 1.70898E-03
 -1      1641 7.55620E-04
 -1      1642 1.11469E-03
 -1      1643 1.18874E-03
 -1      1644 9.84110E-04
 -1      1645 8.76043E-04
 -1      1646 1.13220E-03
 -1      1647 9.84110E-04
 -1      1648 9.84110E-04
 -1      1649 1.25262E-03
 -1      1650 9.69226E-04
 -1      1651 9.75653E-04
 -1      1652 1.24416E-03
 -1      1653 8.67584E-04
 -1      1654 9.20684E-04
 -1      1655 1.18716E-03
 -1      1656 7.09385E-04
 -1      1657 7.59788E-04
 -1      1658 1.03083E-03
 -1      1659 6.40315E-04
 -1      1660 6.33030E-04
 -1      1661 8.46675E-04
 -1      1662 7.94363E-04
 -1      1663 7.40523E-04
 -1      1664 8.70529E-04
 -1      1665 9.60725E-04
 -1      1666 9.04194E-04
 -1      1667 1.08057E-03
 -1      1668 1.01559E-03
 -1      1669 1.00836E-03
 -1      1670 1.23803E-03
 -1      1671 1.01559E-03
 -1      1672 1.01559E-03
 -1      1673 1.28567E-03
 -1      1674 8.99096E-04
 -1      1675 1.01048E-03
 -1      1676 1.28056E-03
 -1      1677 1.39646E-03
 -1      1678 8.40086E-04
 -1      1679 1.21644E-03
 -1      1680 2.80760E-03
 -1      1681 2.15258E-03
 -1      1682 1.91356E-03
 -1      1683 3.65859E-03
 -1      1684 2.92374E+01
 -1      1685 2.92374E+01
 -1      1686 3.86099E+01
 -1      1687 2.74848E+01
 -1      1688 4.76610E+01
 -1      1689 4.76610E+01
 -1      1690 2.15166E+01
 -1      1691 3.48778E+01
 -1      1692 1.16547E+01
 -1      1693 1.60946E+01
 -1      1694 1.20589E+01
 -1      1695 1.20589E+01
 -1      1696 1.19865E+01
 -1      1697 1.20227E+01
 -1      1698 1.23238E+01
 -1      1699 1.19390E+01
 -1      1700 1.27560E+01
 -1      1701 1.27560E+01
 -1      1702 1.17928E+01
 -1      1703 1.22277E+01
 -1      1704 1.84045E+01
 -1      1705 1.18862E+01
 -1      1706 2.83702E+01
 -1      1707 2.54966E+01
 -1      1708 3.14802E+01
 -1      1709 3.14802E+01
 -1      1710 2.84538E+01
 -1      1711 3.14802E+01
 -1      1712 2.68689E+01
 -1      1713 2.70501E+01
 -1      1714 2.68500E+01
 -1      1715 2.68689E+01
 -1      1716 4.10018E+01
 -1      1717 3.07345E+01
 -1      1718 4.47515E+01
 -1      1719 4.47515E+01
 -1      1720 1.79615E+01
 -1      1721 3.15896E+01
 -1      1722 1.14077E+01
 -1      1723 1.40450E+01
 -1      1724 1.28290E+01
 -1      1725 1.22208E+01
 -1      1726 1.34371E+01
 -1      1727 1.34371E+01
 -1      1728 1.23864E+01
 -1      1729 1.27221E+01
 -1      1730 1.27656E+01
 -1      1731 1.27656E+01
 -1      1732 1.17248E+01
 -1      1733 1.22452E+01
 -1      1734 1.70351E+01
 -1      1735 1.15439E+01
 -1      1736 3.71738E+01
 -1      1737 2.39673E+01
 -1      1738 4.91203E+01
 -1      1739 4.91203E+01
 -1      1740 2.80273E+01
 -1      1741 4.00402E+01
 -1      1742 2.92374E+01
 -1      1743 2.90792E+01
 -1      1744 1.66725E+01
 -1      1745 3.48778E+01
 -1      1746 3.20932E-03
 -1      1747 2.86605E-03
 -1      1748 3.13113E+01
 -1      1749 3.86099E+01
 -1      1750 3.30639E+01
 -1      1751 1.16547E+01
 -1      1752 1.20227E+01
 -1      1753 1.19390E+01
 -1      1754 1.23238E+01
 -1      1755 1.22277E+01
 -1      1756 1.17928E+01
 -1      1757 1.89783E+01
 -1      1758 2.91803E+01
 -1      1759 3.22902E+01
 -1      1760 3.08866E+01
 -1      1761 2.94829E+01
 -1      1762 3.33674E+01
 -1      1763 4.10018E+01
 -1      1764 3.15896E+01
 -1      1765 1.45112E+01
 -1      1766 1.14077E+01
 -1      1767 1.28290E+01
 -1      1768 1.27221E+01
 -1      1769 1.23864E+01
 -1      1770 1.22452E+01
 -1      1771 1.15439E+01
 -1      1772 1.82953E+01
 -1      1773 3.71738E+01
 -1      1774 4.00402E+01
 -1      1775 3.20120E+01
 -1      1776 9.41925E+00
 -1      1777 1.30407E+00
 -1      1778 1.68094E+00
 -1      1779 2.33439E+00
 -1      1780 4.13788E+00
 -1      1781 1.73368E+00
 -1      1782 8.77450E-01
 -1      1783 9.83675E-01
 -1      1784 7.50071E-01
 -1      1785 8.19526E-01
 -1      1786 7.40514E-01
 -1      1787 6.56991E-01
 -1      1788 7.06266E-01
 -1      1789 6.38786E-01
 -1      1790 5.92701E-01
 -1      1791 6.23106E-01
 -1      1792 5.61096E-01
 -1      1793 6.30544E-01
 -1      1794 5.96452E-01
 -1      1795 5.30962E-01
 -1      1796 7.13036E-01
 -1      1797 6.64178E-01
 -1      1798 5.68348E-01
 -1      1799 8.31546E-01
 -1      1800 7.58876E-01
 -1      1801 6.47823E-01
 -1      1802 9.97571E-01
 -1      1803 8.89387E-01
 -1      1804 7.51503E-01
 -1      1805 1.25477E+00
 -1      1806 1.07209E+00
 -1      1807 8.83865E-01
 -1      1808 1.71918E+00
 -1      1809 1.35952E+00
 -1      1810 1.06313E+00
 -1      1811 2.56819E+00
 -1      1812 1.78913E+00
 -1      1813 1.23782E+00
 -1      1814 7.96434E+00
 -1      1815 2.95301E+00
 -1      1816 1.69258E+00
 -1      1817 2.74212E+00
 -1      1818 5.09019E+00
 -1      1819 2.06860E+00
 -1      1820 2.57827E+00
 -1      1821 1.91354E+00
 -1      1822 3.33945E+00
 -1      1823 2.41972E+00
 -1      1824 1.79340E+00
 -1      1825 1.53588E+00
 -1      1826 1.27000E+00
 -1      1827 1.34029E+00
 -1      1828 1.11634E+00
 -1      1829 9.52761E-01
 -1      1830 9.29111E-01
 -1      1831 8.81428E-01
 -1      1832 7.59797E-01
 -1      1833 7.04119E-01
 -1      1834 7.03652E-01
 -1      1835 6.44544E-01
 -1      1836 5.76641E-01
 -1      1837 6.92541E-01
 -1      1838 7.34496E-01
 -1      1839 5.68493E-01
 -1      1840 7.82329E-01
 -1      1841 8.11928E-01
 -1      1842 6.64323E-01
 -1      1843 9.00369E-01
 -1      1844 9.70424E-01
 -1      1845 8.00596E-01
 -1      1846 1.04349E+00
 -1      1847 1.18190E+00
 -1      1848 9.62103E-01
 -1      1849 1.27145E+00
 -1      1850 1.40905E+00
 -1      1851 1.12472E+00
 -1      1852 1.43708E+00
 -1      1853 1.49437E+00
 -1      1854 1.24230E+00
 -1      1855 1.43991E+00
 -1      1856 1.40060E+00
 -1      1857 1.21587E+00
 -1      1858 1.43540E+00
 -1      1859 1.42450E+00
 -1      1860 1.19620E+00
 -1      1861 1.45345E+00
 -1      1862 1.59327E+00
 -1      1863 1.25995E+00
 -1      1864 1.89580E+00
 -1      1865 2.39900E+00
 -1      1866 1.59143E+00
 -1      1867 2.71577E+00
 -1      1868 3.54521E+00
 -1      1869 2.21073E+00
 -1      1870 3.71557E+00
 -1      1871 3.82631E+00
 -1      1872 2.69785E+00
 -1      1873 3.82970E+00
 -1      1874 3.85238E+00
 -1      1875 2.87160E+00
 -1      1876 3.77767E+00
 -1      1877 3.11712E+00
 -1      1878 2.80029E+00
 -1      1879 2.78297E+00
 -1      1880 2.07782E+00
 -1      1881 2.39142E+00
 -1      1882 1.75307E+00
 -1      1883 1.46609E+00
 -1      1884 1.73252E+00
 -1      1885 1.38022E+00
 -1      1886 1.47710E+00
 -1      1887 1.32189E+00
 -1      1888 1.43898E+00
 -1      1889 1.42195E+00
 -1      1890 1.19790E+00
 -1      1891 1.48044E+00
 -1      1892 1.46728E+00
 -1      1893 1.21827E+00
 -1      1894 1.47811E+00
 -1      1895 1.36715E+00
 -1      1896 1.28759E+00
 -1      1897 1.30551E+00
 -1      1898 1.18280E+00
 -1      1899 1.23678E+00
 -1      1900 1.12593E+00
 -1      1901 1.04283E+00
 -1      1902 1.11829E+00
 -1      1903 9.81338E-01
 -1      1904 9.00818E-01
 -1      1905 9.99925E-01
 -1      1906 8.25050E-01
 -1      1907 7.39538E-01
 -1      1908 8.62665E-01
 -1      1909 6.62787E-01
 -1      1910 5.83206E-01
 -1      1911 7.10146E-01
 -1      1912 5.13053E-01
 -1      1913 4.44592E-01
 -1      1914 5.63242E-01
 -1      1915 3.84468E-01
 -1      1916 3.33714E-01
 -1      1917 4.32965E-01
 -1      1918 2.84454E-01
 -1      1919 2.51950E-01
 -1      1920 3.23582E-01
 -1      1921 2.12950E-01
 -1      1922 1.85689E-01
 -1      1923 2.35322E-01
 -1      1924 1.55674E-01
 -1      1925 1.33454E-01
 -1      1926 1.66307E-01
 -1      1927 1.12942E-01
 -1      1928 9.69711E-02
 -1      1929 1.15780E-01
 -1      1930 8.33156E-02
 -1      1931 7.39736E-02
 -1      1932 8.16129E-02
 -1      1933 6.46984E-02
 -1      1934 5.63809E-02
 -1      1935 5.86823E-02
 -1      1936 5.10596E-02
 -1      1937 4.38502E-02
 -1      1938 4.40858E-02
 -1      1939 3.99857E-02
 -1      1940 3.38475E-02
 -1      1941 3.49000E-02
 -1      1942 3.02912E-02
 -1      1943 2.54336E-02
 -1      1944 2.74792E-02
 -1      1945 2.22392E-02
 -1      1946 1.90383E-02
 -1      1947 2.07285E-02
 -1      1948 1.63865E-02
 -1      1949 1.38720E-02
 -1      1950 1.48822E-02
 -1      1951 1.23443E-02
 -1      1952 9.77112E-03
 -1      1953 1.07027E-02
 -1      1954 8.18935E-03
 -1      1955 6.21118E-03
 -1      1956 7.59324E-03
 -1      1957 4.97347E-03
 -1      1958 4.09177E-03
 -1      1959 3.10286E-03
 -1      1960 4.77375E-03
 -1      1961 1.34726E+00
 -1      1962 1.72883E+00
 -1      1963 1.40991E+00
 -1      1964 1.01673E+00
 -1      1965 1.17568E+00
 -1      1966 8.98562E-01
 -1      1967 8.88628E-01
 -1      1968 9.86658E-01
 -1      1969 6.96917E-01
 -1      1970 7.80104E-01
 -1      1971 8.62928E-01
 -1      1972 6.41145E-01
 -1      1973 6.63811E-01
 -1      1974 7.43227E-01
 -1      1975 5.78568E-01
 -1      1976 6.08889E-01
 -1      1977 6.61604E-01
 -1      1978 5.39484E-01
 -1      1979 6.04471E-01
 -1      1980 6.09896E-01
 -1      1981 5.38283E-01
 -1      1982 6.37913E-01
 -1      1983 6.44253E-01
 -1      1984 5.79072E-01
 -1      1985 6.51615E-01
 -1      1986 6.37913E-01
 -1      1987 6.18854E-01
 -1      1988 7.18898E-01
 -1      1989 6.45079E-01
 -1      1990 6.12318E-01
 -1      1991 6.77161E-01
 -1      1992 6.49911E-01
 -1      1993 5.36795E-01
 -1      1994 8.22467E-01
 -1      1995 6.91410E-01
 -1      1996 4.82058E-01
 -1      1997 1.04429E+00
 -1      1998 1.03421E+00
 -1      1999 7.08047E-01
 -1      2000 1.45414E+00
 -1      2001 1.30954E+00
 -1      2002 1.18503E+00
 -1      2003 1.78495E+00
 -1      2004 1.58854E+00
 -1      2005 1.58468E+00
 -1      2006 2.14331E+00
 -1      2007 1.78495E+00
 -1      2008 1.71909E+00
 -1      2009 2.27047E+00
 -1      2010 2.12549E+00
 -1      2011 1.70127E+00
 -1      2012 2.59428E+00
 -1      2013 2.38211E+00
 -1      2014 1.79509E+00
 -1      2015 2.42133E+00
 -1      2016 2.59583E+00
 -1      2017 1.90827E+00
 -1      2018 1.71689E+00
 -1      2019 2.20000E+00
 -1      2020 1.68849E+00
 -1      2021 1.09260E+00
 -1      2022 1.44952E+00
 -1      2023 1.19980E+00
 -1      2024 7.03702E-01
 -1      2025 9.28074E-01
 -1      2026 7.67902E-01
 -1      2027 7.21717E-01
 -1      2028 6.84032E-01
 -1      2029 5.83703E-01
 -1      2030 8.28651E-01
 -1      2031 7.88796E-01
 -1      2032 6.31114E-01
 -1      2033 8.87610E-01
 -1      2034 8.49877E-01
 -1      2035 7.19420E-01
 -1      2036 8.64913E-01
 -1      2037 8.94566E-01
 -1      2038 7.47602E-01
 -1      2039 7.71485E-01
 -1      2040 8.36244E-01
 -1      2041 7.25889E-01
 -1      2042 6.68199E-01
 -1      2043 7.35099E-01
 -1      2044 6.60834E-01
 -1      2045 5.65059E-01
 -1      2046 6.25973E-01
 -1      2047 5.82221E-01
 -1      2048 4.60067E-01
 -1      2049 5.17719E-01
 -1      2050 4.92653E-01
 -1      2051 3.60076E-01
 -1      2052 4.13858E-01
 -1      2053 3.99105E-01
 -1      2054 2.71760E-01
 -1      2055 3.18548E-01
 -1      2056 3.11369E-01
 -1      2057 2.01991E-01
 -1      2058 2.36515E-01
 -1      2059 2.34596E-01
 -1      2060 1.52955E-01
 -1      2061 1.77860E-01
 -1      2062 1.75221E-01
 -1      2063 1.13720E-01
 -1      2064 1.34257E-01
 -1      2065 1.32392E-01
 -1      2066 8.31952E-02
 -1      2067 9.84706E-02
 -1      2068 9.84443E-02
 -1      2069 5.90133E-02
 -1      2070 7.11043E-02
 -1      2071 7.11043E-02
 -1      2072 4.19458E-02
 -1      2073 4.96608E-02
 -1      2074 4.96608E-02
 -1      2075 3.10681E-02
 -1      2076 3.49563E-02
 -1      2077 3.33189E-02
 -1      2078 2.52136E-02
 -1      2079 2.88882E-02
 -1      2080 2.41496E-02
 -1      2081 1.96450E-02
 -1      2082 2.30098E-02
 -1      2083 1.97660E-02
 -1      2084 1.57338E-02
 -1      2085 1.74857E-02
 -1      2086 1.54030E-02
 -1      2087 1.21615E-02
 -1      2088 1.37144E-02
 -1      2089 1.12243E-02
 -1      2090 9.22577E-03
 -1      2091 1.11682E-02
 -1      2092 8.21153E-03
 -1      2093 6.00934E-03
 -1      2094 8.16054E-03
 -1      2095 6.15300E-03
 -1      2096 3.80751E-03
 -1      2097 5.08977E-03
 -1      2098 4.16820E-03
 -1      2099 2.30716E-03
 -1      2100 1.57247E-03
 -1      2101 1.57247E-03
 -1      2102 1.61454E-03
 -1      2103 1.49412E-03
 -1      2104 1.93439E-03
 -1      2105 1.84549E-03
 -1      2106 2.02246E-03
 -1      2107 2.96392E-03
 -1      2108 2.32784E-03
 -1      2109 1.42377E-03
 -1      2110 1.43223E-03
 -1      2111 1.75208E-03
 -1      2112 1.29785E-03
 -1      2113 1.34639E-03
 -1      2114 1.53446E-03
 -1      2115 1.03375E-03
 -1      2116 1.14154E-03
 -1      2117 1.30077E-03
 -1      2118 7.70915E-04
 -1      2119 8.47270E-04
 -1      2120 9.57987E-04
 -1      2121 9.02318E-04
 -1      2122 8.02110E-04
 -1      2123 8.02705E-04
 -1      2124 1.20100E-03
 -1      2125 1.09117E-03
 -1      2126 1.02275E-03
 -1      2127 1.41306E-03
 -1      2128 1.36542E-03
 -1      2129 1.37603E-03
 -1      2130 1.54201E-03
 -1      2131 1.54201E-03
 -1      2132 1.66940E-03
 -1      2133 1.56639E-03
 -1      2134 1.57150E-03
 -1      2135 1.82784E-03
 -1      2136 2.01157E-03
 -1      2137 2.07058E-03
 -1      2138 2.36152E-03
 -1      2139 3.86099E+01
 -1      2140 2.95588E+01
 -1      2141 3.30639E+01
 -1      2142 3.30639E+01
 -1      2143 2.88204E+01
 -1      2144 3.05730E+01
 -1      2145 1.94177E+01
 -1      2146 3.22010E+01
 -1      2147 1.01979E+01
 -1      2148 1.56199E+01
 -1      2149 1.29431E+01
 -1      2150 1.05316E+00
 -1      2151 1.23266E+00
 -1      2152 1.00882E+00
 -1      2153 8.67924E-01
 -1      2154 1.08144E+01
 -1      2155 1.08506E+01
 -1      2156 1.09336E+01
 -1      2157 1.09811E+01
 -1      2158 1.20325E+01
 -1      2159 1.16003E+01
 -1      2160 1.06785E+01
 -1      2161 1.12068E+01
 -1      2162 9.46692E+00
 -1      2163 9.37353E+00
 -1      2164 8.35262E+00
 -1      2165 1.85111E+01
 -1      2166 1.14190E+01
 -1      2167 2.54454E+01
 -1      2168 2.23355E+01
 -1      2169 3.22902E+01
 -1      2170 3.22902E+01
 -1      2171 3.28257E+01
 -1      2172 3.42294E+01
 -1      2173 3.28257E+01
 -1      2174 3.28257E+01
 -1      2175 3.17678E+01
 -1      2176 2.78832E+01
 -1      2177 3.53098E+01
 -1      2178 3.15601E+01
 -1      2179 1.69229E+01
 -1      2180 3.00848E+01
 -1      2181 9.52671E+00
 -1      2182 1.34432E+01
 -1      2183 9.66125E+00
 -1      2184 8.84819E+00
 -1      2185 1.08072E+01
 -1      2186 1.01990E+01
 -1      2187 7.63945E+00
 -1      2188 1.15285E+01
 -1      2189 1.22435E+01
 -1      2190 1.20187E+01
 -1      2191 1.16394E+01
 -1      2192 1.11608E+01
 -1      2193 1.02403E+01
 -1      2194 1.07607E+01
 -1      2195 9.14581E+00
 -1      2196 9.32662E+00
 -1      2197 7.84218E+00
 -1      2198 1.76237E+01
 -1      2199 1.06915E+01
 -1      2200 3.34273E+01
 -1      2201 2.14808E+01
 -1      2202 3.09601E+01
 -1      2203 4.00402E+01
 -1      2204 2.43472E+01
 -1      2205 3.04954E+01
 -1      2206 2.94435E+01
 -1      2207 9.54025E+00
 -1      2208 9.13604E+00
 -1      2209 2.81438E+00
 -1      2210 8.08347E+00
 -1      2211 8.33192E+00
 -1      2212 1.99247E+00
 -1      2213 2.88204E+01
 -1      2214 3.05730E+01
 -1      2215 2.76769E-03
 -1      2216 2.31498E+01
 -1      2217 3.04954E+01
 -1      2218 2.94435E+01
 -1      2219 8.47423E+00
 -1      2220 1.00138E+01
 -1      2221 1.12703E+01
 -1      2222 8.64033E+00
 -1      2223 1.00767E+01
 -1      2224 7.78023E+00
 -1      2225 1.19384E+01
 -1      2226 2.06431E+01
 -1      2227 2.60758E+01
 -1      2228 3.12261E+01
 -1      2229 3.61686E+01
 -1      2230 3.42294E+01
 -1      2231 2.54454E+01
 -1      2232 8.99972E+00
 -1      2233 1.04833E+01
 -1      2234 9.80892E+00
 -1      2235 1.06423E+01
 -1      2236 1.47762E+01
 -1      2237 1.38771E+01
 -1      2238 9.84583E-01
 -1      2239 1.32436E+00
 -1      2240 5.34488E-01
 -1      2241 5.78293E-01
 -1      2242 6.04035E-01
 -1      2243 6.61958E-01
 -1      2244 4.99738E-01
 -1      2245 4.52726E-01
 -1      2246 4.48974E-01
 -1      2247 5.12223E-01
 -1      2248 4.78588E-01
 -1      2249 3.96600E-01
 -1      2250 5.87085E-01
 -1      2251 5.41244E-01
 -1      2252 4.51485E-01
 -1      2253 6.69868E-01
 -1      2254 6.12028E-01
 -1      2255 5.05449E-01
 -1      2256 7.53456E-01
 -1      2257 6.78935E-01
 -1      2258 5.39459E-01
 -1      2259 9.37861E-01
 -1      2260 8.33117E-01
 -1      2261 6.28188E-01
 -1      2262 7.06924E-01
 -1      2263 8.78498E-01
 -1      2264 7.92945E-01
 -1      2265 1.12760E+00
 -1      2266 8.70079E-01
 -1      2267 6.27606E+00
 -1      2268 7.33792E+00
 -1      2269 7.69983E-01
 -1      2270 6.16324E-01
 -1      2271 5.57292E-01
 -1      2272 5.44928E-01
 -1      2273 4.73596E-01
 -1      2274 3.85800E-01
 -1      2275 4.51837E-01
 -1      2276 3.95692E-01
 -1      2277 2.92646E-01
 -1      2278 4.74934E-01
 -1      2279 5.22931E-01
 -1      2280 3.50130E-01
 -1      2281 6.15532E-01
 -1      2282 6.63364E-01
 -1      2283 5.21973E-01
 -1      2284 7.59087E-01
 -1      2285 8.47528E-01
 -1      2286 7.10296E-01
 -1      2287 9.35754E-01
 -1      2288 1.00882E+00
 -1      2289 8.94244E-01
 -1      2290 1.07467E+00
 -1      2291 1.16422E+00
 -1      2292 1.04832E+00
 -1      2293 1.28237E+00
 -1      2294 1.31040E+00
 -1      2295 1.23232E+00
 -1      2296 1.43338E+00
 -1      2297 1.37892E+00
 -1      2298 1.47344E+00
 -1      2299 1.48569E+00
 -1      2300 1.52048E+00
 -1      2301 1.70319E+00
 -1      2302 1.78273E+00
 -1      2303 1.81168E+00
 -1      2304 2.07222E+00
 -1      2305 1.84109E+00
 -1      2306 2.14362E+00
 -1      2307 2.36388E+00
 -1      2308 2.53682E+00
 -1      2309 2.85359E+00
 -1      2310 2.78648E+00
 -1      2311 3.13777E+00
 -1      2312 3.30813E+00
 -1      2313 3.46386E+00
 -1      2314 4.45368E+00
 -1      2315 4.45707E+00
 -1      2316 4.89359E+00
 -1      2317 3.44062E+00
 -1      2318 3.36591E+00
 -1      2319 5.02269E+00
 -1      2320 3.15361E+00
 -1      2321 2.81945E+00
 -1      2322 3.79394E+00
 -1      2323 2.44470E+00
 -1      2324 2.11995E+00
 -1      2325 3.20688E+00
 -1      2326 1.98525E+00
 -1      2327 1.89937E+00
 -1      2328 2.69743E+00
 -1      2329 1.54604E+00
 -1      2330 1.50792E+00
 -1      2331 2.20939E+00
 -1      2332 1.44577E+00
 -1      2333 1.50426E+00
 -1      2334 1.79392E+00
 -1      2335 1.39716E+00
 -1      2336 1.40799E+00
 -1      2337 1.62467E+00
 -1      2338 1.29120E+00
 -1      2339 1.22957E+00
 -1      2340 1.40078E+00
 -1      2341 1.16345E+00
 -1      2342 1.10658E+00
 -1      2343 1.21787E+00
 -1      2344 1.03665E+00
 -1      2345 9.75157E-01
 -1      2346 1.08181E+00
 -1      2347 8.95553E-01
 -1      2348 8.19784E-01
 -1      2349 9.32276E-01
 -1      2350 7.41104E-01
 -1      2351 6.64353E-01
 -1      2352 7.73991E-01
 -1      2353 5.92625E-01
 -1      2354 5.22471E-01
 -1      2355 6.23582E-01
 -1      2356 4.60441E-01
 -1      2357 4.00318E-01
 -1      2358 4.89824E-01
 -1      2359 3.48671E-01
 -1      2360 2.99411E-01
 -1      2361 3.76147E-01
 -1      2362 2.57653E-01
 -1      2363 2.18653E-01
 -1      2364 2.82742E-01
 -1      2365 1.85701E-01
 -1      2366 1.55686E-01
 -1      2367 2.08032E-01
 -1      2368 1.30241E-01
 -1      2369 1.09729E-01
 -1      2370 1.49635E-01
 -1      2371 9.04795E-02
 -1      2372 7.68240E-02
 -1      2373 1.04940E-01
 -1      2374 6.25651E-02
 -1      2375 5.32900E-02
 -1      2376 7.14317E-02
 -1      2377 4.29684E-02
 -1      2378 3.76471E-02
 -1      2379 4.68513E-02
 -1      2380 3.13890E-02
 -1      2381 2.75245E-02
 -1      2382 3.02716E-02
 -1      2383 2.42760E-02
 -1      2384 2.07197E-02
 -1      2385 2.07650E-02
 -1      2386 1.91333E-02
 -1      2387 1.59389E-02
 -1      2388 1.59301E-02
 -1      2389 1.42802E-02
 -1      2390 1.16284E-02
 -1      2391 1.26850E-02
 -1      2392 1.00198E-02
 -1      2393 8.49209E-03
 -1      2394 9.41778E-03
 -1      2395 7.16901E-03
 -1      2396 5.58723E-03
 -1      2397 6.48609E-03
 -1      2398 5.10122E-01
 -1      2399 5.35822E-01
 -1      2400 4.47646E-01
 -1      2401 4.84523E-01
 -1      2402 3.79200E-01
 -1      2403 4.70482E-01
 -1      2404 4.72689E-01
 -1      2405 3.78645E-01
 -1      2406 5.01224E-01
 -1      2407 5.00217E-01
 -1      2408 4.33423E-01
 -1      2409 5.82486E-01
 -1      2410 5.42704E-01
 -1      2411 5.04638E-01
 -1      2412 6.21739E-01
 -1      2413 6.21739E-01
 -1      2414 5.85371E-01
 -1      2415 6.31766E-01
 -1      2416 6.38302E-01
 -1      2417 6.41187E-01
 -1      2418 5.79533E-01
 -1      2419 6.48519E-01
 -1      2420 6.74503E-01
 -1      2421 6.55726E-01
 -1      2422 6.41477E-01
 -1      2423 7.53201E-01
 -1      2424 9.29031E-01
 -1      2425 7.17291E-01
 -1      2426 8.76710E-01
 -1      2427 1.33834E+00
 -1      2428 1.07310E+00
 -1      2429 1.08234E+00
 -1      2430 1.60749E+00
 -1      2431 1.47309E+00
 -1      2432 1.36115E+00
 -1      2433 1.76024E+00
 -1      2434 1.76024E+00
 -1      2435 1.64865E+00
 -1      2436 1.72780E+00
 -1      2437 1.74562E+00
 -1      2438 1.78677E+00
 -1      2439 1.99285E+00
 -1      2440 1.88122E+00
 -1      2441 1.92556E+00
 -1      2442 1.79405E+00
 -1      2443 1.79251E+00
 -1      2444 1.87864E+00
 -1      2445 1.45899E+00
 -1      2446 1.68032E+00
 -1      2447 1.56455E+00
 -1      2448 1.02186E+00
 -1      2449 1.28923E+00
 -1      2450 1.28106E+00
 -1      2451 7.10163E-01
 -1      2452 8.74693E-01
 -1      2453 9.64124E-01
 -1      2454 6.75289E-01
 -1      2455 6.94958E-01
 -1      2456 8.01749E-01
 -1      2457 7.07063E-01
 -1      2458 6.39984E-01
 -1      2459 7.51238E-01
 -1      2460 7.50928E-01
 -1      2461 7.29702E-01
 -1      2462 7.38572E-01
 -1      2463 7.44400E-01
 -1      2464 7.37444E-01
 -1      2465 7.47726E-01
 -1      2466 6.88907E-01
 -1      2467 7.17576E-01
 -1      2468 7.07418E-01
 -1      2469 6.21413E-01
 -1      2470 6.57799E-01
 -1      2471 6.49486E-01
 -1      2472 5.44541E-01
 -1      2473 5.86768E-01
 -1      2474 5.83733E-01
 -1      2475 4.55125E-01
 -1      2476 5.02465E-01
 -1      2477 5.07012E-01
 -1      2478 3.65796E-01
 -1      2479 4.12005E-01
 -1      2480 4.21816E-01
 -1      2481 2.84063E-01
 -1      2482 3.25591E-01
 -1      2483 3.38490E-01
 -1      2484 2.13602E-01
 -1      2485 2.48847E-01
 -1      2486 2.63068E-01
 -1      2487 1.60014E-01
 -1      2488 1.84144E-01
 -1      2489 1.98395E-01
 -1      2490 1.17568E-01
 -1      2491 1.36267E-01
 -1      2492 1.45190E-01
 -1      2493 8.37747E-02
 -1      2494 9.90238E-02
 -1      2495 1.02898E-01
 -1      2496 5.76267E-02
 -1      2497 6.97177E-02
 -1      2498 7.02972E-02
 -1      2499 3.95177E-02
 -1      2500 4.88701E-02
 -1      2501 4.74835E-02
 -1      2502 2.68984E-02
 -1      2503 3.38879E-02
 -1      2504 3.30972E-02
 -1      2505 2.19697E-02
 -1      2506 2.41496E-02
 -1      2507 2.47186E-02
 -1      2508 1.75622E-02
 -1      2509 1.97660E-02
 -1      2510 1.97660E-02
 -1      2511 1.32438E-02
 -1      2512 1.54030E-02
 -1      2513 1.54030E-02
 -1      2514 9.20483E-03
 -1      2515 1.12243E-02
 -1      2516 1.12243E-02
 -1      2517 6.80519E-03
 -1      2518 7.79849E-03
 -1      2519 7.79849E-03
 -1      2520 4.79501E-03
 -1      2521 5.86023E-03
 -1      2522 5.44719E-03
 -1      2523 3.88349E-03
 -1      2524 1.49402E-03
 -1      2525 1.57141E-03
 -1      2526 1.23399E-03
 -1      2527 1.39029E-03
 -1      2528 1.42724E-03
 -1      2529 2.76281E-03
 -1      2530 2.80489E-03
 -1      2531 1.80035E-03
 -1      2532 1.94058E-03
 -1      2533 2.81108E-03
 -1      2534 1.75991E-03
 -1      2535 8.61457E-04
 -1      2536 1.04793E-03
 -1      2537 1.13746E-03
 -1      2538 7.97172E-04
 -1      2539 7.65977E-04
 -1      2540 8.55924E-04
 -1      2541 1.11179E-03
 -1      2542 9.22936E-04
 -1      2543 8.86208E-04
 -1      2544 1.47924E-03
 -1      2545 1.31482E-03
 -1      2546 1.21500E-03
 -1      2547 1.81427E-03
 -1      2548 1.68532E-03
 -1      2549 1.62411E-03
 -1      2550 2.12845E-03
 -1      2551 2.09895E-03
 -1      2552 2.11487E-03
 -1      2553 2.59254E-03
 -1      2554 2.08836E-03
 -1      2555 2.35947E-03
 -1      2556 2.80820E+01
 -1      2557 3.05730E+01
 -1      2558 1.48189E+01
 -1      2559 2.12278E+01
 -1      2560 5.79971E-01
 -1      2561 6.10043E-01
 -1      2562 4.48948E-01
 -1      2563 3.20087E-03
 -1      2564 3.04954E+01
 -1      2565 2.79269E+01
 -1      2566 9.50181E+00
 -1      2567 1.32996E+01
 -1      2568 1.61325E+00
 -1      2569 1.21859E+00
 -1      2570 7.48380E-01
 -1      2571 9.59804E-01
 -1      2572 8.06134E+00
 -1      2573 6.51560E+00
 -1      2574 6.25982E+00
 -1      2575 6.93834E+00
 -1      2576 7.83365E+00
 -1      2577 8.65936E+00
 -1      2578 4.72035E-01
 -1      2579 5.05920E-01
 -1      2580 4.45428E-01
 -1      2581 3.93798E-01
 -1      2582 9.68144E+00
 -1      2583 9.01476E+00
 -1      2584 1.38257E+01
 -1      2585 1.00013E+01
 -1      2586 8.76170E+00
 -1      2587 8.59501E+00
 -1      2588 7.80085E+00
 -1      2589 5.45281E+00
 -1      2590 6.75775E+00
 -1      2591 1.37443E+01
 -1      2592 9.88719E+00
 -1      2593 8.44472E+00
 -1      2594 6.49268E+00
 -1      2595 2.35535E+01
 -1      2596 1.67088E+01
 -1      2597 2.88860E+01
 -1      2598 2.69469E+01
 -1      2599 3.61686E+01
 -1      2600 3.61686E+01
 -1      2601 2.88860E+01
 -1      2602 2.62835E+01
 -1      2603 3.12261E+01
 -1      2604 2.30248E+01
 -1      2605 2.32325E+01
 -1      2606 1.39115E+01
 -1      2607 1.91365E+01
 -1      2608 7.99477E+00
 -1      2609 1.14744E+01
 -1      2610 6.66735E+00
 -1      2611 6.12961E+00
 -1      2612 9.25032E+00
 -1      2613 9.13939E+00
 -1      2614 7.44631E+00
 -1      2615 8.70426E+00
 -1      2616 5.74527E+00
 -1      2617 6.65895E+00
 -1      2618 5.33238E+00
 -1      2619 2.18719E+01
 -1      2620 1.52589E+01
 -1      2621 2.43900E+01
 -1      2622 2.59066E+01
 -1      2623 2.43900E+01
 -1      2624 7.34554E+00
 -1      2625 6.03522E+00
 -1      2626 6.29832E+00
 -1      2627 1.47743E+00
 -1      2628 1.64129E+00
 -1      2629 1.25647E+00
 -1      2630 1.05210E+00
 -1      2631 2.46708E+01
 -1      2632 2.39325E+01
 -1      2633 1.63399E+01
 -1      2634 4.93385E+00
 -1      2635 5.25480E-01
 -1      2636 6.61958E-01
 -1      2637 7.31446E-01
 -1      2638 5.89979E-01
 -1      2639 1.18653E+00
 -1      2640 7.24964E-01
 -1      2641 7.96377E-01
 -1      2642 6.75944E-01
 -1      2643 5.18998E-01
 -1      2644 7.92856E+00
 -1      2645 7.69440E+00
 -1      2646 5.34940E+00
 -1      2647 6.68282E+00
 -1      2648 5.28968E+00
 -1      2649 7.56123E+00
 -1      2650 6.05139E+00
 -1      2651 8.02437E+00
 -1      2652 3.59073E-03
 -1      2653 1.13776E+01
 -1      2654 3.23935E-03
 -1      2655 6.47437E+00
 -1      2656 2.80045E+01
 -1      2657 2.39325E+01
 -1      2658 9.96784E+00
 -1      2659 1.62931E+01
 -1      2660 9.56514E-01
 -1      2661 3.12261E+01
 -1      2662 4.06778E-03
 -1      2663 5.28772E+00
 -1      2664 2.30353E+01
 -1      2665 1.42986E+01
 -1      2666 1.76919E+01
 -1      2667 8.16618E+00
 -1      2668 7.49425E+00
 -1      2669 6.44039E+00
 -1      2670 9.09001E+00
 -1      2671 7.46247E+00
 -1      2672 1.12690E+01
 -1      2673 1.19338E+01
 -1      2674 4.89781E+00
 -1      2675 2.32325E+01
 -1      2676 1.68183E+01
 -1      2677 3.55265E-03
 -1      2678 3.21749E-03
 -1      2679 2.94432E-03
 -1      2680 4.79037E-03
 -1      2681 4.36613E-03
 -1      2682 4.06872E-01
 -1      2683 3.77851E-01
 -1      2684 3.54758E-01
 -1      2685 3.28896E-01
 -1      2686 3.10146E-01
 -1      2687 4.70569E-01
 -1      2688 4.61502E-01
 -1      2689 5.60541E-01
 -1      2690 4.80880E-01
 -1      2691 4.02923E-01
 -1      2692 5.57406E-01
 -1      2693 6.63491E-01
 -1      2694 1.96599E+01
 -1      2695 2.46025E+01
 -1      2696 1.12867E+01
 -1      2697 1.47297E+01
 -1      2698 2.09939E+01
 -1      2699 1.74570E+01
 -1      2700 4.84218E+00
 -1      2701 4.07184E+00
 -1      2702 3.60911E-01
 -1      2703 2.89516E-01
 -1      2704 2.98208E-01
 -1      2705 2.76449E-01
 -1      2706 2.73319E-01
 -1      2707 3.16419E-01
 -1      2708 3.95662E-01
 -1      2709 3.21981E-01
 -1      2710 4.70573E-01
 -1      2711 5.63173E-01
 -1      2712 4.36862E-01
 -1      2713 6.57798E-01
 -1      2714 7.53520E-01
 -1      2715 6.06397E-01
 -1      2716 8.65997E-01
 -1      2717 9.54223E-01
 -1      2718 8.13499E-01
 -1      2719 1.08182E+00
 -1      2720 1.14767E+00
 -1      2721 1.05357E+00
 -1      2722 1.28283E+00
 -1      2723 1.40097E+00
 -1      2724 1.31632E+00
 -1      2725 1.56908E+00
 -1      2726 1.69206E+00
 -1      2727 1.61959E+00
 -1      2728 1.98281E+00
 -1      2729 2.08958E+00
 -1      2730 2.07845E+00
 -1      2731 2.33912E+00
 -1      2732 2.60137E+00
 -1      2733 2.61874E+00
 -1      2734 3.41614E+00
 -1      2735 3.44555E+00
 -1      2736 3.68304E+00
 -1      2737 2.80290E+00
 -1      2738 3.19610E+00
 -1      2739 3.85516E+00
 -1      2740 5.06247E+00
 -1      2741 5.34665E+00
 -1      2742 6.49221E+00
 -1      2743 5.96472E+00
 -1      2744 4.94827E+00
 -1      2745 4.00624E+00
 -1      2746 3.79394E+00
 -1      2747 3.58164E+00
 -1      2748 3.20688E+00
 -1      2749 2.87062E+00
 -1      2750 2.51729E+00
 -1      2751 2.24198E+00
 -1      2752 2.17983E+00
 -1      2753 2.90320E+00
 -1      2754 1.87937E+00
 -1      2755 1.77227E+00
 -1      2756 2.32743E+00
 -1      2757 1.57142E+00
 -1      2758 1.45463E+00
 -1      2759 1.82612E+00
 -1      2760 1.32932E+00
 -1      2761 1.26320E+00
 -1      2762 1.49996E+00
 -1      2763 1.14072E+00
 -1      2764 1.07079E+00
 -1      2765 1.25218E+00
 -1      2766 9.62950E-01
 -1      2767 8.83346E-01
 -1      2768 1.02186E+00
 -1      2769 7.90342E-01
 -1      2770 7.11661E-01
 -1      2771 8.21017E-01
 -1      2772 6.34474E-01
 -1      2773 5.62746E-01
 -1      2774 6.50825E-01
 -1      2775 4.99110E-01
 -1      2776 4.37080E-01
 -1      2777 5.10002E-01
 -1      2778 3.85249E-01
 -1      2779 3.33602E-01
 -1      2780 3.94535E-01
 -1      2781 2.91914E-01
 -1      2782 2.50156E-01
 -1      2783 3.01017E-01
 -1      2784 2.17069E-01
 -1      2785 1.84118E-01
 -1      2786 2.26242E-01
 -1      2787 1.58225E-01
 -1      2788 1.32779E-01
 -1      2789 1.67261E-01
 -1      2790 1.12818E-01
 -1      2791 9.35682E-02
 -1      2792 1.21407E-01
 -1      2793 7.84272E-02
 -1      2794 6.41683E-02
 -1      2795 8.63048E-02
 -1      2796 5.28876E-02
 -1      2797 4.25660E-02
 -1      2798 5.98831E-02
 -1      2799 3.43318E-02
 -1      2800 2.80737E-02
 -1      2801 4.03681E-02
 -1      2802 2.22085E-02
 -1      2803 1.89600E-02
 -1      2804 2.62687E-02
 -1      2805 1.49061E-02
 -1      2806 1.33197E-02
 -1      2807 1.63496E-02
 -1      2808 1.10270E-02
 -1      2809 9.36837E-03
 -1      2810 1.00030E-02
 -1      2811 8.69259E-03
 -1      2812 7.08398E-03
 -1      2813 7.03457E-03
 -1      2814 6.32286E-03
 -1      2815 4.99978E-03
 -1      2816 5.59767E-03
 -1      2817 3.71224E-01
 -1      2818 3.46181E-01
 -1      2819 4.34086E-03
 -1      2820 3.54399E-03
 -1      2821 4.17764E-03
 -1      2822 2.94782E-01
 -1      2823 3.20381E-01
 -1      2824 2.87361E-01
 -1      2825 5.46767E-01
 -1      2826 5.05287E-01
 -1      2827 6.47511E-01
 -1      2828 6.08258E-01
 -1      2829 6.08908E-01
 -1      2830 7.33201E-01
 -1      2831 7.16638E-01
 -1      2832 7.39525E-01
 -1      2833 8.03810E-01
 -1      2834 7.87057E-01
 -1      2835 8.62507E-01
 -1      2836 9.41327E-01
 -1      2837 8.79383E-01
 -1      2838 9.91936E-01
 -1      2839 1.14064E+00
 -1      2840 1.07907E+00
 -1      2841 1.20525E+00
 -1      2842 1.34363E+00
 -1      2843 1.19956E+00
 -1      2844 1.40192E+00
 -1      2845 1.65158E+00
 -1      2846 1.51684E+00
 -1      2847 1.63406E+00
 -1      2848 1.80139E+00
 -1      2849 1.64865E+00
 -1      2850 1.80433E+00
 -1      2851 2.19812E+00
 -1      2852 2.21274E+00
 -1      2853 2.21274E+00
 -1      2854 3.40598E+00
 -1      2855 3.25256E+00
 -1      2856 3.67853E+00
 -1      2857 3.07566E+00
 -1      2858 3.27601E+00
 -1      2859 4.60301E+00
 -1      2860 2.06714E+00
 -1      2861 2.18088E+00
 -1      2862 3.57825E+00
 -1      2863 1.64326E+00
 -1      2864 1.81302E+00
 -1      2865 2.42934E+00
 -1      2866 1.12760E+00
 -1      2867 1.27477E+00
 -1      2868 1.80673E+00
 -1      2869 1.03567E+00
 -1      2870 1.05088E+00
 -1      2871 1.36152E+00
 -1      2872 8.68758E-01
 -1      2873 9.04063E-01
 -1      2874 1.15319E+00
 -1      2875 8.74075E-01
 -1      2876 8.51437E-01
 -1      2877 1.00426E+00
 -1      2878 8.09222E-01
 -1      2879 8.22706E-01
 -1      2880 9.35571E-01
 -1      2881 7.20850E-01
 -1      2882 7.47675E-01
 -1      2883 8.22654E-01
 -1      2884 6.46338E-01
 -1      2885 6.77446E-01
 -1      2886 7.17703E-01
 -1      2887 5.71191E-01
 -1      2888 6.05836E-01
 -1      2889 6.33796E-01
 -1      2890 4.83745E-01
 -1      2891 5.25821E-01
 -1      2892 5.47924E-01
 -1      2893 3.95640E-01
 -1      2894 4.38760E-01
 -1      2895 4.57569E-01
 -1      2896 3.13970E-01
 -1      2897 3.54176E-01
 -1      2898 3.71119E-01
 -1      2899 2.42409E-01
 -1      2900 2.77625E-01
 -1      2901 2.93310E-01
 -1      2902 1.82285E-01
 -1      2903 2.11742E-01
 -1      2904 2.26299E-01
 -1      2905 1.33451E-01
 -1      2906 1.57198E-01
 -1      2907 1.70546E-01
 -1      2908 9.49274E-02
 -1      2909 1.13472E-01
 -1      2910 1.25480E-01
 -1      2911 6.53481E-02
 -1      2912 7.94052E-02
 -1      2913 8.99784E-02
 -1      2914 4.48214E-02
 -1      2915 5.35780E-02
 -1      2916 6.26860E-02
 -1      2917 3.04910E-02
 -1      2918 3.61207E-02
 -1      2919 4.22152E-02
 -1      2920 2.14911E-02
 -1      2921 2.42400E-02
 -1      2922 2.72635E-02
 -1      2923 1.53424E-02
 -1      2924 1.75462E-02
 -1      2925 1.70676E-02
 -1      2926 1.15653E-02
 -1      2927 1.37245E-02
 -1      2928 1.15047E-02
 -1      2929 8.57439E-03
 -1      2930 1.05939E-02
 -1      2931 8.91539E-03
 -1      2932 6.13095E-03
 -1      2933 7.53728E-03
 -1      2934 6.90684E-03
 -1      2935 4.50224E-03
 -1      2936 5.44719E-03
 -1      2937 5.18599E-03
 -1      2938 4.06778E-03
 -1      2939 8.55153E+00
 -1      2940 1.00708E+01
 -1      2941 1.48131E-03
 -1      2942 1.57679E-03
 -1      2943 4.19053E+00
 -1      2944 4.32074E+00
 -1      2945 1.55153E-03
 -1      2946 1.65525E-03
 -1      2947 1.62375E-03
 -1      2948 1.49798E-03
 -1      2949 2.21885E-03
 -1      2950 1.57679E-03
 -1      2951 1.76285E-03
 -1      2952 1.99086E-03
 -1      2953 2.20218E-03
 -1      2954 1.82678E-03
 -1      2955 1.62375E-03
 -1      2956 2.23552E-03
 -1      2957 1.87029E-03
 -1      2958 1.66422E-03
 -1      2959 2.07296E-03
 -1      2960 2.39956E-03
 -1      2961 2.11487E-03
 -1      2962 2.15498E-03
 -1      2963 3.58230E+00
 -1      2964 4.65820E+00
 -1      2965 4.28414E+00
 -1      2966 5.07150E+00
 -1      2967 1.66001E+01
 -1      2968 2.07497E+01
 -1      2969 6.12556E-01
 -1      2970 5.21565E-01
 -1      2971 4.49128E-01
 -1      2972 1.98390E+01
 -1      2973 1.97614E+01
 -1      2974 6.81728E+00
 -1      2975 6.56422E+00
 -1      2976 8.16121E+00
 -1      2977 6.33537E+00
 -1      2978 2.95113E-01
 -1      2979 3.39262E-01
 -1      2980 2.10695E-01
 -1      2981 4.55856E-01
 -1      2982 4.26120E-01
 -1      2983 3.93657E-01
 -1      2984 4.97985E-01
 -1      2985 4.89629E-01
 -1      2986 3.89532E-01
 -1      2987 2.93247E-01
 -1      2988 3.53804E-01
 -1      2989 1.13710E+01
 -1      2990 8.48797E+00
 -1      2991 3.80216E-01
 -1      2992 4.77097E-01
 -1      2993 3.47644E-01
 -1      2994 2.26381E-01
 -1      2995 4.53337E-01
 -1      2996 4.28394E-01
 -1      2997 3.54760E-01
 -1      2998 3.84447E-01
 -1      2999 4.19921E-01
 -1      3000 4.45663E-01
 -1      3001 5.89665E+00
 -1      3002 8.06053E+00
 -1      3003 1.05229E+01
 -1      3004 9.00831E+00
 -1      3005 1.78881E+01
 -1      3006 2.09391E+01
 -1      3007 4.54213E+00
 -1      3008 3.50227E+00
 -1      3009 2.52339E+01
 -1      3010 1.79513E+01
 -1      3011 1.62792E+01
 -1      3012 1.22445E+01
 -1      3013 8.03440E-01
 -1      3014 1.17468E+01
 -1      3015 1.56350E+01
 -1      3016 7.50322E+00
 -1      3017 5.94664E+00
 -1      3018 4.55110E+00
 -1      3019 5.18234E+00
 -1      3020 6.23878E+00
 -1      3021 3.72252E+00
 -1      3022 3.96335E+00
 -1      3023 6.01353E+00
 -1      3024 6.55959E+00
 -1      3025 7.67574E+00
 -1      3026 1.01128E+01
 -1      3027 2.91905E-03
 -1      3028 5.80138E+00
 -1      3029 4.55191E+00
 -1      3030 4.46444E-01
 -1      3031 4.46444E-01
 -1      3032 3.66627E-01
 -1      3033 6.38372E+00
 -1      3034 2.82545E-01
 -1      3035 3.24387E-01
 -1      3036 3.47447E-01
 -1      3037 1.36678E+01
 -1      3038 1.15470E+01
 -1      3039 1.28832E+01
 -1      3040 3.22558E+00
 -1      3041 3.79394E+00
 -1      3042 4.94827E+00
 -1      3043 3.58993E+00
 -1      3044 3.21518E+00
 -1      3045 3.08048E+00
 -1      3046 7.41512E+00
 -1      3047 6.75379E+00
 -1      3048 3.02292E-03
 -1      3049 3.45738E-03
 -1      3050 2.20069E-03
 -1      3051 6.22585E+00
 -1      3052 4.08515E+00
 -1      3053 3.96090E+00
 -1      3054 5.31244E+00
 -1      3055 5.74309E+00
 -1      3056 3.22662E+00
 -1      3057 2.95914E-03
 -1      3058 1.25067E+01
 -1      3059 3.38837E+00
 -1      3060 6.94036E+00
 -1      3061 1.57129E+01
 -1      3062 1.18013E+01
 -1      3063 1.20608E+01
 -1      3064 8.46067E+00
 -1      3065 4.81781E+00
 -1      3066 1.16118E+01
 -1      3067 8.16591E+00
 -1      3068 1.10935E+01
 -1      3069 5.07483E+00
 -1      3070 1.60027E-03
 -1      3071 1.82921E-03
 -1      3072 2.04105E-03
 -1      3073 1.72455E-03
 -1      3074 1.33417E+01
 -1      3075 3.69642E-01
 -1      3076 3.98210E-01
 -1      3077 3.44135E-01
 -1      3078 3.00230E-01
 -1      3079 5.08441E+00
 -1      3080 9.98378E+00
 -1      3081 4.35411E+00
 -1      3082 4.72025E+00
 -1      3083 2.78695E+00
 -1      3084 1.43155E+01
 -1      3085 3.22316E-03
 -1      3086 2.66358E-03
 -1      3087 2.66358E-03
 -1      3088 3.88208E-03
 -1      3089 6.67517E+00
 -1      3090 7.61247E+00
 -1      3091 5.67901E-01
 -1      3092 9.45466E+00
 -1      3093 6.00588E+00
 -1      3094 4.20593E-01
 -1      3095 7.50796E+00
 -1      3096 9.14194E+00
 -1      3097 3.65278E-01
 -1      3098 3.54967E-01
 -1      3099 1.07084E+01
 -1      3100 9.79767E+00
 -1      3101 4.39982E-01
 -1      3102 4.33501E-01
 -1      3103 3.70113E-01
 -1      3104 3.60947E-01
 -1      3105 5.07889E+00
 -1      3106 3.99611E+00
 -1      3107 3.16672E+00
 -1      3108 8.66173E+00
 -1      3109 1.05322E+01
 -1      3110 4.73469E+00
 -1      3111 6.17165E+00
 -1      3112 2.51366E-01
 -1      3113 2.26099E-01
 -1      3114 6.53337E+00
 -1      3115 5.08312E+00
 -1      3116 3.38112E-01
 -1      3117 3.78082E-01
 -1      3118 4.28932E-01
 -1      3119 5.03843E-01
 -1      3120 4.45063E-01
 -1      3121 5.76241E-01
 -1      3122 6.70865E-01
 -1      3123 5.68311E-01
 -1      3124 7.69052E-01
 -1      3125 8.81529E-01
 -1      3126 7.38896E-01
 -1      3127 1.02135E+00
 -1      3128 1.14894E+00
 -1      3129 9.76902E-01
 -1      3130 1.34808E+00
 -1      3131 1.48324E+00
 -1      3132 1.31586E+00
 -1      3133 1.78360E+00
 -1      3134 1.95171E+00
 -1      3135 1.81536E+00
 -1      3136 2.42323E+00
 -1      3137 2.71398E+00
 -1      3138 2.58724E+00
 -1      3139 4.31768E+00
 -1      3140 4.56722E+00
 -1      3141 4.66246E+00
 -1      3142 5.03176E+00
 -1      3143 5.84652E+00
 -1      3144 6.08030E+00
 -1      3145 6.08855E+00
 -1      3146 5.10380E+00
 -1      3147 2.75025E+00
 -1      3148 2.44979E+00
 -1      3149 2.20844E+00
 -1      3150 2.00759E+00
 -1      3151 2.63126E+00
 -1      3152 1.69895E+00
 -1      3153 1.57364E+00
 -1      3154 2.08127E+00
 -1      3155 1.34815E+00
 -1      3156 1.22567E+00
 -1      3157 1.54714E+00
 -1      3158 1.07835E+00
 -1      3159 9.70513E-01
 -1      3160 1.17433E+00
 -1      3161 8.69871E-01
 -1      3162 7.76867E-01
 -1      3163 9.26363E-01
 -1      3164 6.92735E-01
 -1      3165 6.15548E-01
 -1      3166 7.41590E-01
 -1      3167 5.43065E-01
 -1      3168 4.79429E-01
 -1      3169 5.84975E-01
 -1      3170 4.19206E-01
 -1      3171 3.67376E-01
 -1      3172 4.52269E-01
 -1      3173 3.18616E-01
 -1      3174 2.76928E-01
 -1      3175 3.43287E-01
 -1      3176 2.38260E-01
 -1      3177 2.05173E-01
 -1      3178 2.55859E-01
 -1      3179 1.75062E-01
 -1      3180 1.49169E-01
 -1      3181 1.87081E-01
 -1      3182 1.26255E-01
 -1      3183 1.06294E-01
 -1      3184 1.34056E-01
 -1      3185 8.98415E-02
 -1      3186 7.47005E-02
 -1      3187 9.46892E-02
 -1      3188 6.24811E-02
 -1      3189 5.12003E-02
 -1      3190 6.60178E-02
 -1      3191 4.23936E-02
 -1      3192 3.41594E-02
 -1      3193 4.49916E-02
 -1      3194 2.82924E-02
 -1      3195 2.24273E-02
 -1      3196 3.03179E-02
 -1      3197 1.82265E-02
 -1      3198 1.41726E-02
 -1      3199 2.02502E-02
 -1      3200 1.12675E-02
 -1      3201 8.97487E-03
 -1      3202 1.31444E-02
 -1      3203 6.97227E-03
 -1      3204 6.29649E-03
 -1      3205 8.23680E-03
 -1      3206 5.15770E-03
 -1      3207 4.39659E-03
 -1      3208 3.44211E-03
 -1      3209 5.09541E-03
 -1      3210 3.30338E-01
 -1      3211 2.78939E-01
 -1      3212 2.94343E-01
 -1      3213 8.35955E-01
 -1      3214 7.66829E-01
 -1      3215 6.89168E-01
 -1      3216 6.27677E-01
 -1      3217 7.85599E-01
 -1      3218 1.23035E+00
 -1      3219 1.15478E+00
 -1      3220 1.48063E+00
 -1      3221 1.34288E+00
 -1      3222 1.50573E+00
 -1      3223 1.55911E+00
 -1      3224 1.50019E+00
 -1      3225 1.63782E+00
 -1      3226 2.05497E+00
 -1      3227 1.88176E+00
 -1      3228 1.98002E+00
 -1      3229 1.80433E+00
 -1      3230 1.80727E+00
 -1      3231 2.05497E+00
 -1      3232 4.73298E+00
 -1      3233 3.67853E+00
 -1      3234 5.02684E+00
 -1      3235 5.15681E+00
 -1      3236 3.31036E+00
 -1      3237 4.20514E+00
 -1      3238 2.01371E+00
 -1      3239 2.38219E+00
 -1      3240 1.97579E+00
 -1      3241 2.05251E+00
 -1      3242 2.62797E+00
 -1      3243 1.32877E+00
 -1      3244 1.46037E+00
 -1      3245 2.15136E+00
 -1      3246 1.19082E+00
 -1      3247 1.20815E+00
 -1      3248 1.51533E+00
 -1      3249 1.01142E+00
 -1      3250 1.06279E+00
 -1      3251 1.26667E+00
 -1      3252 8.40324E-01
 -1      3253 9.01870E-01
 -1      3254 1.02909E+00
 -1      3255 7.33401E-01
 -1      3256 7.76806E-01
 -1      3257 8.56022E-01
 -1      3258 6.27792E-01
 -1      3259 6.68294E-01
 -1      3260 7.27397E-01
 -1      3261 5.23789E-01
 -1      3262 5.69159E-01
 -1      3263 6.03657E-01
 -1      3264 4.24892E-01
 -1      3265 4.69877E-01
 -1      3266 4.91112E-01
 -1      3267 3.36445E-01
 -1      3268 3.77909E-01
 -1      3269 3.90217E-01
 -1      3270 2.61928E-01
 -1      3271 2.98273E-01
 -1      3272 3.05063E-01
 -1      3273 2.00020E-01
 -1      3274 2.30686E-01
 -1      3275 2.35649E-01
 -1      3276 1.49717E-01
 -1      3277 1.74804E-01
 -1      3278 1.79191E-01
 -1      3279 1.09715E-01
 -1      3280 1.29694E-01
 -1      3281 1.33952E-01
 -1      3282 7.85565E-02
 -1      3283 9.40787E-02
 -1      3284 9.82931E-02
 -1      3285 5.47875E-02
 -1      3286 6.65577E-02
 -1      3287 7.06580E-02
 -1      3288 3.70527E-02
 -1      3289 4.57534E-02
 -1      3290 4.96251E-02
 -1      3291 2.41435E-02
 -1      3292 3.03945E-02
 -1      3293 3.39328E-02
 -1      3294 1.54118E-02
 -1      3295 1.93567E-02
 -1      3296 2.24877E-02
 -1      3297 1.04542E-02
 -1      3298 1.20721E-02
 -1      3299 1.43613E-02
 -1      3300 7.24365E-03
 -1      3301 8.21510E-03
 -1      3302 8.78249E-03
 -1      3303 5.07566E-03
 -1      3304 6.11276E-03
 -1      3305 5.41247E-03
 -1      3306 3.86043E-03
 -1      3307 4.54419E-03
 -1      3308 3.75011E-03
 -1      3309 2.81558E-03
 -1      3310 3.32354E-03
 -1      3311 3.32354E-03
 -1      3312 1.03080E+01
 -1      3313 1.25610E+01
 -1      3314 3.32354E-03
 -1      3315 3.30687E-03
 -1      3316 4.41156E-03
 -1      3317 1.13898E+01
 -1      3318 1.02120E+01
 -1      3319 3.06878E-03
 -1      3320 3.23134E-03
 -1      3321 4.31936E-03
 -1      3322 3.47644E-01
 -1      3323 3.40284E-01
 -1      3324 2.92328E-01
 -1      3325 2.67335E-01
 -1      3326 2.78663E-03
 -1      3327 2.54205E-03
 -1      3328 3.70043E-03
 -1      3329 2.82921E-01
 -1      3330 2.59829E-01
 -1      3331 9.21426E+00
 -1      3332 7.49270E+00
 -1      3333 1.02013E+00
 -1      3334 9.66276E-01
 -1      3335 9.93581E-01
 -1      3336 1.25855E+00
 -1      3337 6.16077E+00
 -1      3338 4.67588E+00
 -1      3339 7.00788E+00
 -1      3340 3.55954E+00
 -1      3341 3.28424E+00
 -1      3342 3.40659E+00
 -1      3343 4.46602E+00
 -1      3344 2.99129E-01
 -1      3345 3.07821E-01
 -1      3346 3.63922E-01
 -1      3347 2.65321E+00
 -1      3348 2.73324E+00
 -1      3349 1.10627E+01
 -1      3350 1.16941E+01
 -1      3351 5.33333E+00
 -1      3352 5.82433E+00
 -1      3353 6.63076E+00
 -1      3354 7.84664E+00
 -1      3355 6.83182E+00
 -1      3356 5.21030E+00
 -1      3357 4.71676E+00
 -1      3358 3.31225E+00
 -1      3359 1.27014E+01
 -1      3360 1.14222E+01
 -1      3361 2.32465E-01
 -1      3362 2.27956E-01
 -1      3363 2.05240E-01
 -1      3364 3.13509E-01
 -1      3365 3.51155E-01
 -1      3366 3.42989E-01
 -1      3367 7.47203E+00
 -1      3368 9.27035E+00
 -1      3369 7.89254E+00
 -1      3370 1.02182E+01
 -1      3371 3.60947E-01
 -1      3372 3.76574E-01
 -1      3373 3.44638E-01
 -1      3374 4.07964E+00
 -1      3375 3.86757E+00
 -1      3376 6.60081E+00
 -1      3377 9.48606E+00
 -1      3378 6.77703E+00
 -1      3379 6.73070E+00
 -1      3380 4.51022E+00
 -1      3381 3.31036E+00
 -1      3382 2.53983E+00
 -1      3383 2.93059E+00
 -1      3384 6.36555E+00
 -1      3385 4.52900E+00
 -1      3386 6.60635E+00
 -1      3387 1.05838E+01
 -1      3388 8.34534E+00
 -1      3389 7.97866E+00
 -1      3390 4.39736E-01
 -1      3391 3.84839E-01
 -1      3392 3.76417E-01
 -1      3393 3.16017E-01
 -1      3394 8.58926E+00
 -1      3395 1.05682E+01
 -1      3396 7.88145E+00
 -1      3397 6.23835E+00
 -1      3398 6.35747E-01
 -1      3399 5.55487E-01
 -1      3400 5.06055E-01
 -1      3401 2.62409E+00
 -1      3402 2.21274E+00
 -1      3403 2.21568E+00
 -1      3404 3.67853E+00
 -1      3405 5.15681E+00
 -1      3406 2.63631E+00
 -1      3407 2.42934E+00
 -1      3408 2.68347E+00
 -1      3409 8.36127E+00
 -1      3410 3.13563E-03
 -1      3411 2.92431E-03
 -1      3412 9.66771E+00
 -1      3413 1.12645E+01
 -1      3414 8.59333E+00
 -1      3415 3.27301E-03
 -1      3416 3.27301E-03
 -1      3417 4.20645E-03
 -1      3418 4.37769E-03
 -1      3419 5.80201E+00
 -1      3420 3.86495E+00
 -1      3421 7.72095E+00
 -1      3422 3.05738E-01
 -1      3423 2.55420E-01
 -1      3424 3.27259E-01
 -1      3425 4.86120E+00
 -1      3426 3.93174E+00
 -1      3427 3.31866E+00
 -1      3428 4.84705E+00
 -1      3429 1.10627E+01
 -1      3430 9.08899E+00
 -1      3431 9.44856E+00
 -1      3432 3.50520E-01
 -1      3433 2.81887E+00
 -1      3434 2.60890E-03
 -1      3435 2.55391E-03
 -1      3436 3.75367E-03
 -1      3437 2.23198E-01
 -1      3438 2.64152E-01
 -1      3439 2.64152E-01
 -1      3440 2.63870E-01
 -1      3441 1.89319E+01
 -1      3442 1.19989E+01
 -1      3443 1.07664E+01
 -1      3444 2.92760E-03
 -1      3445 2.66358E-03
 -1      3446 3.05065E-03
 -1      3447 3.44211E-03
 -1      3448 2.91998E-01
 -1      3449 3.13709E-01
 -1      3450 3.66627E-01
 -1      3451 3.67409E-01
 -1      3452 3.14490E-01
 -1      3453 9.20241E+00
 -1      3454 6.77703E+00
 -1      3455 6.24971E+00
 -1      3456 3.21803E+00
 -1      3457 4.26401E+00
 -1      3458 4.20514E+00
 -1      3459 5.85893E+00
 -1      3460 4.28297E-01
 -1      3461 4.79147E-01
 -1      3462 2.42265E+00
 -1      3463 2.99607E+00
 -1      3464 5.56453E-01
 -1      3465 6.28851E-01
 -1      3466 5.39688E-01
 -1      3467 7.38896E-01
 -1      3468 8.37083E-01
 -1      3469 7.27038E-01
 -1      3470 9.76902E-01
 -1      3471 1.11672E+00
 -1      3472 9.76902E-01
 -1      3473 1.29307E+00
 -1      3474 1.49221E+00
 -1      3475 1.29307E+00
 -1      3476 1.78475E+00
 -1      3477 2.08511E+00
 -1      3478 1.76196E+00
 -1      3479 2.41568E+00
 -1      3480 2.88720E+00
 -1      3481 2.38508E+00
 -1      3482 4.13239E+00
 -1      3483 5.73610E+00
 -1      3484 3.96083E+00
 -1      3485 3.38028E-01
 -1      3486 3.10456E-01
 -1      3487 2.20357E+00
 -1      3488 1.89494E+00
 -1      3489 1.72700E+00
 -1      3490 1.50150E+00
 -1      3491 1.84930E+00
 -1      3492 1.32165E+00
 -1      3493 1.17433E+00
 -1      3494 1.50150E+00
 -1      3495 1.02701E+00
 -1      3496 9.26363E-01
 -1      3497 1.17433E+00
 -1      3498 8.11608E-01
 -1      3499 7.27477E-01
 -1      3500 9.12251E-01
 -1      3501 6.36690E-01
 -1      3502 5.64207E-01
 -1      3503 7.06709E-01
 -1      3504 4.92408E-01
 -1      3505 4.32185E-01
 -1      3506 5.44122E-01
 -1      3507 3.75455E-01
 -1      3508 3.26696E-01
 -1      3509 4.15593E-01
 -1      3510 2.82052E-01
 -1      3511 2.43384E-01
 -1      3512 3.14220E-01
 -1      3513 2.08477E-01
 -1      3514 1.78366E-01
 -1      3515 2.34670E-01
 -1      3516 1.51316E-01
 -1      3517 1.28402E-01
 -1      3518 1.72713E-01
 -1      3519 1.07675E-01
 -1      3520 9.12229E-02
 -1      3521 1.24936E-01
 -1      3522 7.55541E-02
 -1      3523 6.33347E-02
 -1      3524 8.85397E-02
 -1      3525 5.21035E-02
 -1      3526 4.32968E-02
 -1      3527 6.16398E-02
 -1      3528 3.51738E-02
 -1      3529 2.93068E-02
 -1      3530 4.22857E-02
 -1      3531 2.33938E-02
 -1      3532 1.91931E-02
 -1      3533 2.82497E-02
 -1      3534 1.50212E-02
 -1      3535 1.21162E-02
 -1      3536 1.81648E-02
 -1      3537 9.56771E-03
 -1      3538 7.56511E-03
 -1      3539 1.14445E-02
 -1      3540 9.13644E-01
 -1      3541 8.35983E-01
 -1      3542 2.00402E+00
 -1      3543 1.98446E+00
 -1      3544 1.70592E+00
 -1      3545 1.59339E+00
 -1      3546 2.07213E+00
 -1      3547 3.30892E+00
 -1      3548 2.92188E+00
 -1      3549 2.88344E+00
 -1      3550 3.06319E+00
 -1      3551 3.02438E+00
 -1      3552 1.33507E+00
 -1      3553 1.46310E+00
 -1      3554 1.08744E+00
 -1      3555 1.19699E+00
 -1      3556 1.39342E+00
 -1      3557 8.91533E-01
 -1      3558 9.55051E-01
 -1      3559 1.12295E+00
 -1      3560 7.13937E-01
 -1      3561 7.79044E-01
 -1      3562 8.78074E-01
 -1      3563 5.75850E-01
 -1      3564 6.34483E-01
 -1      3565 6.86130E-01
 -1      3566 4.62817E-01
 -1      3567 5.16730E-01
 -1      3568 5.47555E-01
 -1      3569 3.71493E-01
 -1      3570 4.18476E-01
 -1      3571 4.44094E-01
 -1      3572 2.92703E-01
 -1      3573 3.30874E-01
 -1      3574 3.59133E-01
 -1      3575 2.26102E-01
 -1      3576 2.57344E-01
 -1      3577 2.83156E-01
 -1      3578 1.71201E-01
 -1      3579 1.96417E-01
 -1      3580 2.18112E-01
 -1      3581 1.26968E-01
 -1      3582 1.46990E-01
 -1      3583 1.64217E-01
 -1      3584 9.20769E-02
 -1      3585 1.07713E-01
 -1      3586 1.20752E-01
 -1      3587 6.51211E-02
 -1      3588 7.71199E-02
 -1      3589 8.65400E-02
 -1      3590 4.53489E-02
 -1      3591 5.43830E-02
 -1      3592 6.08449E-02
 -1      3593 3.06299E-02
 -1      3594 3.72882E-02
 -1      3595 4.20461E-02
 -1      3596 1.99263E-02
 -1      3597 2.47131E-02
 -1      3598 2.80685E-02
 -1      3599 1.23675E-02
 -1      3600 1.57071E-02
 -1      3601 1.79325E-02
 -1      3602 7.39886E-03
 -1      3603 9.63800E-03
 -1      3604 1.09838E-02
 -1      3605 4.71532E-03
 -1      3606 5.84620E-03
 -1      3607 6.70170E-03
 -1      3608 8.39983E+00
 -1      3609 8.54025E+00
 -1      3610 3.65031E+00
 -1      3611 4.67406E+00
 -1      3612 5.85919E-03
 -1      3613 5.95139E-03
 -1      3614 3.67409E-01
 -1      3615 5.84329E+00
 -1      3616 6.79112E+00
 -1      3617 5.95139E-03
 -1      3618 5.95139E-03
 -1      3619 7.49121E-03
 -1      3620 5.33188E+00
 -1      3621 1.77749E+00
 -1      3622 1.89811E+00
 -1      3623 1.84589E+00
 -1      3624 2.48436E-03
 -1      3625 2.85584E-03
 -1      3626 3.25889E-03
 -1      3627 3.36870E-03
 -1      3628 2.21513E+00
 -1      3629 2.73054E+00
 -1      3630 2.47729E+00
 -1      3631 2.47215E-01
 -1      3632 2.69410E-01
 -1      3633 2.38983E-01
 -1      3634 2.92154E+00
 -1      3635 2.68018E+00
 -1      3636 2.49386E+00
 -1      3637 9.38863E+00
 -1      3638 4.90885E-03
 -1      3639 5.43558E-03
 -1      3640 7.06760E-03
 -1      3641 5.02684E+00
 -1      3642 3.52300E-01
 -1      3643 3.82591E-01
 -1      3644 4.16675E-01
 -1      3645 6.78404E+00
 -1      3646 6.90944E+00
 -1      3647 7.89673E+00
 -1      3648 3.56903E-01
 -1      3649 3.40014E-01
 -1      3650 6.05026E+00
 -1      3651 4.65896E+00
 -1      3652 4.12497E+00
 -1      3653 7.04803E+00
 -1      3654 2.33426E+00
 -1      3655 2.01161E+00
 -1      3656 3.01927E-01
 -1      3657 2.98114E-01
 -1      3658 6.14596E+00
 -1      3659 6.67123E+00
 -1      3660 4.87087E+00
 -1      3661 5.55472E+00
 -1      3662 5.23874E+00
 -1      3663 3.29584E-01
 -1      3664 2.85899E-01
 -1      3665 2.35825E+00
 -1      3666 8.65415E+00
 -1      3667 3.74060E-01
 -1      3668 3.90173E-01
 -1      3669 4.28562E-01
 -1      3670 6.97103E+00
 -1      3671 5.86070E+00
 -1      3672 6.97103E+00
 -1      3673 4.97238E-01
 -1      3674 7.78626E+00
 -1      3675 6.55317E+00
 -1      3676 6.30925E+00
 -1      3677 8.38610E-01
 -1      3678 7.10564E-01
 -1      3679 6.38374E-01
 -1      3680 1.02614E+00
 -1      3681 1.07653E+00
 -1      3682 1.15646E+00
 -1      3683 5.35874E-03
 -1      3684 4.21995E-03
 -1      3685 3.70544E-03
 -1      3686 6.68965E-03
 -1      3687 2.89029E+00
 -1      3688 1.63329E+00
 -1      3689 1.43309E+00
 -1      3690 1.29844E+00
 -1      3691 4.16936E+00
 -1      3692 3.22628E+00
 -1      3693 3.21869E+00
 -1      3694 4.44635E+00
 -1      3695 2.64259E+00
 -1      3696 3.58683E-01
 -1      3697 3.12696E+00
 -1      3698 6.39924E+00
 -1      3699 7.66712E+00
 -1      3700 7.30755E+00
 -1      3701 7.36666E+00
 -1      3702 6.23920E+00
 -1      3703 3.79037E-03
 -1      3704 2.62373E-01
 -1      3705 2.87366E-01
 -1      3706 2.71971E-01
 -1      3707 2.59190E-01
 -1      3708 5.74833E-03
 -1      3709 5.71446E-03
 -1      3710 7.28816E-03
 -1      3711 4.67237E+00
 -1      3712 5.36736E+00
 -1      3713 4.26595E+00
 -1      3714 5.71446E-03
 -1      3715 5.57709E-03
 -1      3716 7.08510E-03
 -1      3717 6.19032E+00
 -1      3718 5.14422E+00
 -1      3719 3.67409E-01
 -1      3720 3.82850E-03
 -1      3721 2.93967E-01
 -1      3722 6.58488E-03
 -1      3723 5.07687E-03
 -1      3724 4.76146E-03
 -1      3725 2.03801E-01
 -1      3726 1.76438E-01
 -1      3727 2.82998E-01
 -1      3728 3.59909E+00
 -1      3729 1.97136E-01
 -1      3730 4.17390E+00
 -1      3731 5.56364E-03
 -1      3732 3.70520E+00
 -1      3733 4.50998E+00
 -1      3734 5.31641E+00
 -1      3735 3.38818E+00
 -1      3736 4.22410E-03
 -1      3737 5.37523E+00
 -1      3738 2.36677E-01
 -1      3739 2.07875E-01
 -1      3740 2.59494E-01
 -1      3741 2.43398E-01
 -1      3742 2.65986E-01
 -1      3743 6.61389E+00
 -1      3744 6.42767E+00
 -1      3745 4.56464E+00
 -1      3746 4.74378E+00
 -1      3747 1.01357E-02
 -1      3748 1.05593E-02
 -1      3749 3.93015E-01
 -1      3750 4.38721E-01
 -1      3751 4.19652E+00
 -1      3752 4.33511E+00
 -1      3753 3.13167E+00
 -1      3754 3.84014E+00
 -1      3755 3.61962E+00
 -1      3756 1.90135E-01
 -1      3757 2.17138E-01
 -1      3758 1.70876E-01
 -1      3759 6.75077E-01
 -1      3760 7.85121E-01
 -1      3761 9.28062E-01
 -1      3762 1.06788E+00
 -1      3763 8.76100E-01
 -1      3764 1.27274E+00
 -1      3765 1.44909E+00
 -1      3766 1.22390E+00
 -1      3767 1.76196E+00
 -1      3768 2.05451E+00
 -1      3769 1.74163E+00
 -1      3770 2.23216E+00
 -1      3771 2.56272E+00
 -1      3772 2.23216E+00
 -1      3773 5.14422E+00
 -1      3774 5.55472E+00
 -1      3775 5.55472E+00
 -1      3776 3.53420E-01
 -1      3777 3.65706E-01
 -1      3778 1.68136E+00
 -1      3779 1.50150E+00
 -1      3780 1.26339E+00
 -1      3781 1.11607E+00
 -1      3782 1.44325E+00
 -1      3783 9.61812E-01
 -1      3784 8.47057E-01
 -1      3785 1.05087E+00
 -1      3786 7.36903E-01
 -1      3787 6.46116E-01
 -1      3788 7.86464E-01
 -1      3789 5.65038E-01
 -1      3790 4.93238E-01
 -1      3791 5.95232E-01
 -1      3792 4.31791E-01
 -1      3793 3.75061E-01
 -1      3794 4.52706E-01
 -1      3795 3.27732E-01
 -1      3796 2.83089E-01
 -1      3797 3.43930E-01
 -1      3798 2.46311E-01
 -1      3799 2.11405E-01
 -1      3800 2.59824E-01
 -1      3801 1.82787E-01
 -1      3802 1.55737E-01
 -1      3803 1.94429E-01
 -1      3804 1.33566E-01
 -1      3805 1.12839E-01
 -1      3806 1.43641E-01
 -1      3807 9.58090E-02
 -1      3808 8.01402E-02
 -1      3809 1.04439E-01
 -1      3810 6.72139E-02
 -1      3811 5.59827E-02
 -1      3812 7.44832E-02
 -1      3813 4.63162E-02
 -1      3814 3.81932E-02
 -1      3815 5.18903E-02
 -1      3816 3.14875E-02
 -1      3817 2.55745E-02
 -1      3818 3.55180E-02
 -1      3819 2.07724E-02
 -1      3820 1.66005E-02
 -1      3821 2.40102E-02
 -1      3822 7.77001E-03
 -1      3823 4.47304E+00
 -1      3824 1.76898E+00
 -1      3825 1.90706E+00
 -1      3826 6.75140E-01
 -1      3827 7.54594E-01
 -1      3828 5.47555E-01
 -1      3829 6.06675E-01
 -1      3830 6.75140E-01
 -1      3831 4.42999E-01
 -1      3832 4.87341E-01
 -1      3833 5.46461E-01
 -1      3834 3.51071E-01
 -1      3835 3.91690E-01
 -1      3836 4.34937E-01
 -1      3837 2.72999E-01
 -1      3838 3.08358E-01
 -1      3839 3.40915E-01
 -1      3840 2.08351E-01
 -1      3841 2.38036E-01
 -1      3842 2.63238E-01
 -1      3843 1.55945E-01
 -1      3844 1.80156E-01
 -1      3845 2.00080E-01
 -1      3846 1.14293E-01
 -1      3847 1.33548E-01
 -1      3848 1.49487E-01
 -1      3849 8.18223E-02
 -1      3850 9.67793E-02
 -1      3851 1.09575E-01
 -1      3852 5.76186E-02
 -1      3853 6.83567E-02
 -1      3854 7.85960E-02
 -1      3855 3.93939E-02
 -1      3856 4.74547E-02
 -1      3857 5.49665E-02
 -1      3858 2.64044E-02
 -1      3859 3.23212E-02
 -1      3860 3.77298E-02
 -1      3861 1.69922E-02
 -1      3862 2.12114E-02
 -1      3863 2.54641E-02
 -1      3864 1.05067E-02
 -1      3865 1.32361E-02
 -1      3866 1.65150E-02
 -1      3867 3.15422E-01
 -1      3868 3.11007E-01
 -1      3869 4.67491E+00
 -1      3870 4.29365E-03
 -1      3871 2.65478E+00
 -1      3872 1.05593E-02
 -1      3873 1.05593E-02
 -1      3874 1.36274E-02
 -1      3875 3.56903E-01
 -1      3876 2.98114E-01
 -1      3877 2.82384E-01
 -1      3878 2.63641E-01
 -1      3879 2.86532E-01
 -1      3880 8.78226E-01
 -1      3881 9.90715E-01
 -1      3882 8.67235E-01
 -1      3883 4.61449E+00
 -1      3884 5.64767E+00
 -1      3885 4.77453E+00
 -1      3886 3.36930E+00
 -1      3887 1.26547E+00
 -1      3888 1.39786E+00
 -1      3889 1.91150E+00
 -1      3890 2.52869E+00
 -1      3891 2.25016E+00
 -1      3892 3.39672E+00
 -1      3893 2.69838E+00
 -1      3894 3.01277E+00
 -1      3895 3.07394E+00
 -1      3896 1.69438E-01
 -1      3897 3.87752E-01
 -1      3898 1.12617E-02
 -1      3899 3.63926E-01
 -1      3900 3.15422E-01
 -1      3901 3.60443E-01
 -1      3902 3.87752E-01
 -1      3903 4.96334E-01
 -1      3904 5.73640E-01
 -1      3905 4.72673E-01
 -1      3906 1.98355E+00
 -1      3907 5.55110E-01
 -1      3908 4.88791E-01
 -1      3909 6.29927E-01
 -1      3910 2.67470E+00
 -1      3911 2.19809E+00
 -1      3912 2.83591E+00
 -1      3913 2.21882E+00
 -1      3914 2.05087E+00
 -1      3915 2.05087E+00
 -1      3916 3.70941E-01
 -1      3917 3.46384E-01
 -1      3918 5.61685E-03
 -1      3919 2.24638E+00
 -1      3920 4.51123E+00
 -1      3921 6.31723E-01
 -1      3922 4.29950E+00
 -1      3923 4.70999E+00
 -1      3924 4.86434E-01
 -1      3925 4.54507E+00
 -1      3926 4.54507E+00
 -1      3927 6.84912E+00
 -1      3928 4.73116E+00
 -1      3929 5.06768E+00
 -1      3930 5.58147E+00
 -1      3931 5.02239E+00
 -1      3932 4.57384E+00
 -1      3933 4.63893E-01
 -1      3934 4.27861E-01
 -1      3935 4.44661E-01
 -1      3936 9.62534E-01
 -1      3937 8.37116E-01
 -1      3938 1.33100E+00
 -1      3939 1.38101E-02
 -1      3940 1.79936E+00
 -1      3941 1.63906E+00
 -1      3942 2.25593E+00
 -1      3943 9.76451E-03
 -1      3944 9.56145E-03
 -1      3945 1.28326E-02
 -1      3946 1.27432E+00
 -1      3947 1.16182E+00
 -1      3948 1.16033E+00
 -1      3949 2.62159E-01
 -1      3950 5.97725E+00
 -1      3951 4.76703E+00
 -1      3952 5.17424E+00
 -1      3953 1.26562E+00
 -1      3954 6.33117E-03
 -1      3955 7.88382E-03
 -1      3956 4.24068E+00
 -1      3957 4.45134E+00
 -1      3958 3.56899E+00
 -1      3959 3.44169E+00
 -1      3960 9.04414E-03
 -1      3961 9.04414E-03
 -1      3962 1.15205E-02
 -1      3963 8.44399E-03
 -1      3964 7.94377E-03
 -1      3965 1.04030E-02
 -1      3966 1.01361E-02
 -1      3967 3.21638E+00
 -1      3968 3.59240E+00
 -1      3969 4.06833E+00
 -1      3970 1.64177E-02
 -1      3971 3.63330E+00
 -1      3972 3.08603E+00
 -1      3973 2.62906E+00
 -1      3974 3.81053E+00
 -1      3975 2.21218E-01
 -1      3976 2.15656E-01
 -1      3977 2.92457E-01
 -1      3978 2.59581E-01
 -1      3979 3.05799E-01
 -1      3980 2.39966E+00
 -1      3981 3.82123E+00
 -1      3982 2.42038E+00
 -1      3983 2.05087E+00
 -1      3984 3.37136E-01
 -1      3985 2.95780E-01
 -1      3986 3.39964E+00
 -1      3987 4.24436E+00
 -1      3988 3.23471E+00
 -1      3989 2.60831E+00
 -1      3990 1.04460E+00
 -1      3991 1.24945E+00
 -1      3992 1.51687E+00
 -1      3993 1.82975E+00
 -1      3994 1.33757E+00
 -1      3995 2.15582E+00
 -1      3996 2.33347E+00
 -1      3997 1.93106E+00
 -1      3998 5.76893E-01
 -1      3999 5.16664E-01
 -1      4000 5.54351E-01
 -1      4001 1.69212E+00
 -1      4002 2.06324E+00
 -1      4003 2.38894E+00
 -1      4004 3.13939E-01
 -1      4005 1.56590E+00
 -1      4006 1.42392E+00
 -1      4007 1.50922E+00
 -1      4008 1.73197E+00
 -1      4009 1.04253E+00
 -1      4010 8.88269E-01
 -1      4011 7.74859E-01
 -1      4012 6.64705E-01
 -1      4013 7.66511E-01
 -1      4014 5.84485E-01
 -1      4015 5.03407E-01
 -1      4016 5.72880E-01
 -1      4017 4.44833E-01
 -1      4018 3.83385E-01
 -1      4019 4.34086E-01
 -1      4020 3.39225E-01
 -1      4021 2.91896E-01
 -1      4022 3.31352E-01
 -1      4023 2.57708E-01
 -1      4024 2.20931E-01
 -1      4025 2.53003E-01
 -1      4026 1.94166E-01
 -1      4027 1.65548E-01
 -1      4028 1.92050E-01
 -1      4029 1.44567E-01
 -1      4030 1.22396E-01
 -1      4031 1.44304E-01
 -1      4032 1.06033E-01
 -1      4033 8.90035E-02
 -1      4034 1.06960E-01
 -1      4035 7.63636E-02
 -1      4036 6.34373E-02
 -1      4037 7.79576E-02
 -1      4038 5.37985E-02
 -1      4039 4.41320E-02
 -1      4040 5.56790E-02
 -1      4041 3.69020E-02
 -1      4042 3.01963E-02
 -1      4043 3.88103E-02
 -1      4044 2.51375E-02
 -1      4045 2.03353E-02
 -1      4046 2.65214E-02
 -1      4047 4.08388E-01
 -1      4048 4.59697E-01
 -1      4049 5.25225E-01
 -1      4050 5.85439E-01
 -1      4051 4.98676E-01
 -1      4052 5.51364E-01
 -1      4053 6.52801E-01
 -1      4054 6.79898E-03
 -1      4055 2.81219E-01
 -1      4056 2.95780E-01
 -1      4057 3.69568E+00
 -1      4058 4.44725E+00
 -1      4059 2.88910E+00
 -1      4060 6.65802E-01
 -1      4061 7.34266E-01
 -1      4062 6.44566E-01
 -1      4063 3.14970E-01
 -1      4064 3.57683E-01
 -1      4065 3.82443E-01
 -1      4066 2.40356E-01
 -1      4067 2.75320E-01
 -1      4068 2.92088E-01
 -1      4069 1.81073E-01
 -1      4070 2.09268E-01
 -1      4071 2.21349E-01
 -1      4072 1.34362E-01
 -1      4073 1.56759E-01
 -1      4074 1.65948E-01
 -1      4075 9.79550E-02
 -1      4076 1.15469E-01
 -1      4077 1.22741E-01
 -1      4078 6.99491E-02
 -1      4079 8.34147E-02
 -1      4080 8.93082E-02
 -1      4081 4.87332E-02
 -1      4082 5.88972E-02
 -1      4083 6.37159E-02
 -1      4084 3.33935E-02
 -1      4085 4.04662E-02
 -1      4086 4.43970E-02
 -1      4087 2.23538E-02
 -1      4088 2.75468E-02
 -1      4089 3.02833E-02
 -1      4090 1.53890E-02
 -1      4091 1.91450E-02
 -1      4092 2.12278E-02
 -1      4093 4.20782E-01
 -1      4094 4.78395E-01
 -1      4095 4.99473E-01
 -1      4096 3.93474E-01
 -1      4097 8.62819E-01
 -1      4098 9.86451E-01
 -1      4099 8.53481E-01
 -1      4100 1.17821E+00
 -1      4101 1.45296E+00
 -1      4102 1.60471E+00
 -1      4103 1.17379E+00
 -1      4104 3.37137E+00
 -1      4105 1.47045E+00
 -1      4106 1.23234E+00
 -1      4107 1.06973E+00
 -1      4108 1.83996E+00
 -1      4109 1.71084E-02
 -1      4110 1.43181E-02
 -1      4111 1.43181E-02
 -1      4112 1.82357E-02
 -1      4113 7.21466E-01
 -1      4114 6.38202E-01
 -1      4115 6.68432E-01
 -1      4116 8.45391E-01
 -1      4117 3.13698E+00
 -1      4118 2.98945E-01
 -1      4119 3.45449E-01
 -1      4120 3.78479E-01
 -1      4121 3.27347E-01
 -1      4122 3.04457E-01
 -1      4123 3.56162E-01
 -1      4124 3.77952E-01
 -1      4125 7.40752E-01
 -1      4126 8.83693E-01
 -1      4127 6.60393E-01
 -1      4128 2.88686E+00
 -1      4129 3.82472E+00
 -1      4130 2.71021E+00
 -1      4131 2.25942E+00
 -1      4132 3.65601E+00
 -1      4133 2.90759E+00
 -1      4134 8.65808E-03
 -1      4135 2.90759E+00
 -1      4136 2.57058E+00
 -1      4137 2.87129E+00
 -1      4138 2.02551E+00
 -1      4139 9.09247E-01
 -1      4140 4.18643E+00
 -1      4141 3.90720E+00
 -1      4142 4.06452E+00
 -1      4143 1.34973E-02
 -1      4144 1.27025E-02
 -1      4145 1.41880E-02
 -1      4146 5.00541E+00
 -1      4147 4.42949E+00
 -1      4148 4.27764E+00
 -1      4149 2.88417E+00
 -1      4150 3.98882E+00
 -1      4151 1.12809E-02
 -1      4152 1.39109E-02
 -1      4153 2.77755E+00
 -1      4154 1.38509E-02
 -1      4155 1.33336E-02
 -1      4156 1.45157E-02
 -1      4157 9.61040E-01
 -1      4158 8.45391E-01
 -1      4159 1.45111E-02
 -1      4160 2.81276E+00
 -1      4161 5.01581E-01
 -1      4162 4.44661E-01
 -1      4163 4.34872E-01
 -1      4164 3.37308E-01
 -1      4165 1.31596E+00
 -1      4166 1.11667E+00
 -1      4167 1.11667E+00
 -1      4168 1.68415E-02
 -1      4169 1.18775E+00
 -1      4170 1.45517E+00
 -1      4171 6.07122E-01
 -1      4172 5.54351E-01
 -1      4173 5.54351E-01
 -1      4174 1.87217E+00
 -1      4175 2.19824E+00
 -1      4176 1.72235E+00
 -1      4177 5.27980E-01
 -1      4178 5.93507E-01
 -1      4179 8.34099E-01
 -1      4180 9.95001E-01
 -1      4181 1.11260E+00
 -1      4182 8.61342E-01
 -1      4183 7.47932E-01
 -1      4184 6.37956E-01
 -1      4185 5.57736E-01
 -1      4186 7.32787E-01
 -1      4187 4.78775E-01
 -1      4188 4.20201E-01
 -1      4189 5.43850E-01
 -1      4190 3.62187E-01
 -1      4191 3.18027E-01
 -1      4192 4.06875E-01
 -1      4193 2.74532E-01
 -1      4194 2.40343E-01
 -1      4195 3.05366E-01
 -1      4196 2.07278E-01
 -1      4197 1.80513E-01
 -1      4198 2.28806E-01
 -1      4199 1.55263E-01
 -1      4200 1.34282E-01
 -1      4201 1.70492E-01
 -1      4202 1.15976E-01
 -1      4203 9.96137E-02
 -1      4204 1.26936E-01
 -1      4205 8.52768E-02
 -1      4206 7.26370E-02
 -1      4207 9.42930E-02
 -1      4208 6.15125E-02
 -1      4209 5.18737E-02
 -1      4210 6.88317E-02
 -1      4211 4.33333E-02
 -1      4212 3.61033E-02
 -1      4213 4.91668E-02
 -1      4214 2.95931E-02
 -1      4215 2.45342E-02
 -1      4216 3.41162E-02
 -1      4217 3.00649E-01
 -1      4218 3.40300E-01
 -1      4219 3.98314E-01
 -1      4220 4.49019E-01
 -1      4221 5.43850E-01
 -1      4222 4.06875E-01
 -1      4223 9.41635E-01
 -1      4224 1.07019E+00
 -1      4225 1.84074E-02
 -1      4226 1.51805E-02
 -1      4227 1.43598E-02
 -1      4228 2.14791E-02
 -1      4229 7.03483E-01
 -1      4230 7.83846E-01
 -1      4231 1.00055E+00
 -1      4232 7.32787E-01
 -1      4233 2.26066E-01
 -1      4234 2.57154E-01
 -1      4235 3.05366E-01
 -1      4236 1.68688E-01
 -1      4237 1.93001E-01
 -1      4238 2.28806E-01
 -1      4239 1.24482E-01
 -1      4240 1.43375E-01
 -1      4241 1.70428E-01
 -1      4242 9.05398E-02
 -1      4243 1.05080E-01
 -1      4244 1.25713E-01
 -1      4245 6.46674E-02
 -1      4246 7.57193E-02
 -1      4247 9.14913E-02
 -1      4248 4.51432E-02
 -1      4249 5.34102E-02
 -1      4250 6.54136E-02
 -1      4251 3.08518E-02
 -1      4252 3.66985E-02
 -1      4253 4.57118E-02
 -1      4254 1.93674E-02
 -1      4255 2.25762E-02
 -1      4256 2.89914E-02
 -1      4257 1.81899E-02
 -1      4258 4.62208E-01
 -1      4259 5.35177E-01
 -1      4260 4.14183E-01
 -1      4261 4.27386E-01
 -1      4262 4.15386E-01
 -1      4263 4.94095E-01
 -1      4264 1.63848E+00
 -1      4265 1.82012E+00
 -1      4266 1.39932E+00
 -1      4267 2.70363E+00
 -1      4268 2.23984E+00
 -1      4269 1.65942E+00
 -1      4270 2.13323E+00
 -1      4271 6.29397E-01
 -1      4272 7.17348E-01
 -1      4273 8.03103E-01
 -1      4274 5.92132E-01
 -1      4275 4.08531E-01
 -1      4276 2.76941E+00
 -1      4277 3.32504E+00
 -1      4278 7.29741E-01
 -1      4279 6.68432E-01
 -1      4280 6.68432E-01
 -1      4281 8.45391E-01
 -1      4282 3.94547E+00
 -1      4283 1.22047E+00
 -1      4284 1.03066E+00
 -1      4285 1.01208E+00
 -1      4286 3.40074E+00
 -1      4287 1.84826E+00
 -1      4288 1.77510E+00
 -1      4289 2.30254E+00
 -1      4290 4.27764E+00
 -1      4291 4.26067E+00
 -1      4292 3.89023E+00
 -1      4293 9.54265E-01
 -1      4294 8.38615E-01
 -1      4295 4.92260E-01
 -1      4296 1.55082E-02
 -1      4297 1.80341E-02
 -1      4298 1.74620E+00
 -1      4299 2.71052E+00
 -1      4300 1.50922E+00
 -1      4301 1.46556E+00
 -1      4302 1.24263E+00
 -1      4303 1.08699E+00
 -1      4304 1.08022E+00
 -1      4305 1.65881E+00
 -1      4306 4.42949E+00
 -1      4307 3.48718E+00
 -1      4308 3.07603E+00
 -1      4309 4.26067E+00
 -1      4310 1.07019E+00
 -1      4311 1.26194E+00
 -1      4312 1.29572E+00
 -1      4313 1.15834E+00
 -1      4314 1.62035E+00
 -1      4315 6.15461E-01
 -1      4316 5.62690E-01
 -1      4317 5.55204E-01
 -1      4318 1.51564E+00
 -1      4319 1.93264E+00
 -1      4320 1.45178E-01
 -1      4321 1.70492E-01
 -1      4322 1.06640E+00
 -1      4323 1.25915E+00
 -1      4324 3.77118E+00
 -1      4325 6.22811E-01
 -1      4326 5.43850E-01
 -1      4327 4.64889E-01
 -1      4328 4.06875E-01
 -1      4329 3.48861E-01
 -1      4330 3.05366E-01
 -1      4331 2.61871E-01
 -1      4332 2.28806E-01
 -1      4333 1.95742E-01
 -1      4334 1.26872E-01
 -1      4335 1.07471E-01
 -1      4336 9.31339E-02
 -1      4337 7.83135E-02
 -1      4338 6.71890E-02
 -1      4339 5.59318E-02
 -1      4340 4.73914E-02
 -1      4341 3.89467E-02
 -1      4342 3.24365E-02
 -1      4343 1.77510E+00
 -1      4344 5.60856E-01
 -1      4345 2.41609E-02
 -1      4346 1.30725E+00
 -1      4347 2.77949E+00
 -1      4348 3.35066E+00
 -1      4349 3.84014E+00
 -1      4350 8.42763E-01
 -1      4351 7.32787E-01
 -1      4352 6.76771E-01
 -1      4353 6.15461E-01
 -1      4354 6.23800E-01
 -1      4355 7.85644E-01
 -1      4356 2.57278E+00
 -1      4357 1.00055E+00
 -1      4358 2.65550E+00
 -1      4359 2.53922E+00
 -1      4360 3.84014E+00
 -1      4361 1.16987E+00
 -1      4362 1.16987E+00
 -1      4363 8.16921E-01
 -1      4364 9.33671E-01
 -1      4365 4.26067E+00
 -1      4366 6.55076E-01
 -1      4367 1.69237E+00
 -1      4368 1.49912E+00
 -1      4369 1.46944E+00
 -1      4370 2.57278E+00
 -1      4371 1.46944E+00
 -1      4372 3.84014E+00
 -1      4373 6.55076E-01
 -1      4374 1.72593E+00
 -1      4375 2.57278E+00
 -1      4376 3.41962E+00
 -3
 9999
