    1C
    1UUSER                                                              
    1UDATE              26.october.2022                                 
    1UTIME              23:55:18                                        
    1UHOST                                                              
    1UPGM               CalculiX                                        
    1UVERSION           Version 2.17                             
    1UCOMPILETIME       Thu Jul 23 21:43:50 CEST 2020                    
    1UDIR                                                               
    1UDBN                                                               
    1UMAT    1SOLIDMATERIAL                                             
    2C                          4277                                     1
 -1         1 1.23728E+02 3.14132E+01 0.00000E+00
 -1         2 1.34578E+02 2.55673E+01 0.00000E+00
 -1         3 1.50000E+02 0.00000E+00 0.00000E+00
 -1         4 1.50000E+02 5.00000E+01 0.00000E+00
 -1         5 0.00000E+00 0.00000E+00 0.00000E+00
 -1         6 0.00000E+00 5.00000E+01 0.00000E+00
 -1         7 0.00000E+00 4.70500E+01 0.00000E+00
 -1         8 0.00000E+00 4.41000E+01 0.00000E+00
 -1         9 0.00000E+00 4.11500E+01 0.00000E+00
 -1        10 0.00000E+00 3.82000E+01 0.00000E+00
 -1        11 0.00000E+00 3.52500E+01 0.00000E+00
 -1        12 0.00000E+00 3.23500E+01 0.00000E+00
 -1        13 0.00000E+00 2.94000E+01 0.00000E+00
 -1        14 0.00000E+00 2.64500E+01 0.00000E+00
 -1        15 0.00000E+00 2.35000E+01 0.00000E+00
 -1        16 0.00000E+00 2.05500E+01 0.00000E+00
 -1        17 0.00000E+00 1.76000E+01 0.00000E+00
 -1        18 0.00000E+00 1.47000E+01 0.00000E+00
 -1        19 0.00000E+00 1.17500E+01 0.00000E+00
 -1        20 0.00000E+00 8.80000E+00 0.00000E+00
 -1        21 0.00000E+00 5.85000E+00 0.00000E+00
 -1        22 0.00000E+00 2.90000E+00 0.00000E+00
 -1        23 3.15000E+00 5.00000E+01 0.00000E+00
 -1        24 6.15000E+00 5.00000E+01 0.00000E+00
 -1        25 9.15000E+00 5.00000E+01 0.00000E+00
 -1        26 1.21500E+01 5.00000E+01 0.00000E+00
 -1        27 1.51500E+01 5.00000E+01 0.00000E+00
 -1        28 1.81500E+01 5.00000E+01 0.00000E+00
 -1        29 2.11500E+01 5.00000E+01 0.00000E+00
 -1        30 2.41500E+01 5.00000E+01 0.00000E+00
 -1        31 2.71500E+01 5.00000E+01 0.00000E+00
 -1        32 3.01500E+01 5.00000E+01 0.00000E+00
 -1        33 3.31500E+01 5.00000E+01 0.00000E+00
 -1        34 3.61500E+01 5.00000E+01 0.00000E+00
 -1        35 3.91500E+01 5.00000E+01 0.00000E+00
 -1        36 4.21500E+01 5.00000E+01 0.00000E+00
 -1        37 4.51500E+01 5.00000E+01 0.00000E+00
 -1        38 4.81500E+01 5.00000E+01 0.00000E+00
 -1        39 5.11500E+01 5.00000E+01 0.00000E+00
 -1        40 5.41500E+01 5.00000E+01 0.00000E+00
 -1        41 5.71500E+01 5.00000E+01 0.00000E+00
 -1        42 6.01500E+01 5.00000E+01 0.00000E+00
 -1        43 6.31500E+01 5.00000E+01 0.00000E+00
 -1        44 6.61500E+01 5.00000E+01 0.00000E+00
 -1        45 6.91500E+01 5.00000E+01 0.00000E+00
 -1        46 7.21500E+01 5.00000E+01 0.00000E+00
 -1        47 7.51500E+01 5.00000E+01 0.00000E+00
 -1        48 7.81500E+01 5.00000E+01 0.00000E+00
 -1        49 8.11500E+01 5.00000E+01 0.00000E+00
 -1        50 8.41500E+01 5.00000E+01 0.00000E+00
 -1        51 8.71500E+01 5.00000E+01 0.00000E+00
 -1        52 9.01500E+01 5.00000E+01 0.00000E+00
 -1        53 9.31500E+01 5.00000E+01 0.00000E+00
 -1        54 9.61500E+01 5.00000E+01 0.00000E+00
 -1        55 9.91500E+01 5.00000E+01 0.00000E+00
 -1        56 1.02150E+02 5.00000E+01 0.00000E+00
 -1        57 1.05150E+02 5.00000E+01 0.00000E+00
 -1        58 1.08150E+02 5.00000E+01 0.00000E+00
 -1        59 1.11150E+02 5.00000E+01 0.00000E+00
 -1        60 1.14150E+02 5.00000E+01 0.00000E+00
 -1        61 1.17150E+02 5.00000E+01 0.00000E+00
 -1        62 1.20150E+02 5.00000E+01 0.00000E+00
 -1        63 1.23150E+02 5.00000E+01 0.00000E+00
 -1        64 1.26150E+02 5.00000E+01 0.00000E+00
 -1        65 1.29150E+02 5.00000E+01 0.00000E+00
 -1        66 1.32150E+02 5.00000E+01 0.00000E+00
 -1        67 1.35150E+02 5.00000E+01 0.00000E+00
 -1        68 1.38150E+02 5.00000E+01 0.00000E+00
 -1        69 1.41150E+02 5.00000E+01 0.00000E+00
 -1        70 1.44150E+02 5.00000E+01 0.00000E+00
 -1        71 1.47150E+02 5.00000E+01 0.00000E+00
 -1        72 3.15000E+00 0.00000E+00 0.00000E+00
 -1        73 6.15000E+00 0.00000E+00 0.00000E+00
 -1        74 9.15000E+00 0.00000E+00 0.00000E+00
 -1        75 1.21500E+01 0.00000E+00 0.00000E+00
 -1        76 1.51500E+01 0.00000E+00 0.00000E+00
 -1        77 1.81500E+01 0.00000E+00 0.00000E+00
 -1        78 2.11500E+01 0.00000E+00 0.00000E+00
 -1        79 2.41500E+01 0.00000E+00 0.00000E+00
 -1        80 2.71500E+01 0.00000E+00 0.00000E+00
 -1        81 3.01500E+01 0.00000E+00 0.00000E+00
 -1        82 3.31500E+01 0.00000E+00 0.00000E+00
 -1        83 3.61500E+01 0.00000E+00 0.00000E+00
 -1        84 3.91500E+01 0.00000E+00 0.00000E+00
 -1        85 4.21500E+01 0.00000E+00 0.00000E+00
 -1        86 4.51500E+01 0.00000E+00 0.00000E+00
 -1        87 4.81500E+01 0.00000E+00 0.00000E+00
 -1        88 5.11500E+01 0.00000E+00 0.00000E+00
 -1        89 5.41500E+01 0.00000E+00 0.00000E+00
 -1        90 5.71500E+01 0.00000E+00 0.00000E+00
 -1        91 6.01500E+01 0.00000E+00 0.00000E+00
 -1        92 6.31500E+01 0.00000E+00 0.00000E+00
 -1        93 6.61500E+01 0.00000E+00 0.00000E+00
 -1        94 6.91500E+01 0.00000E+00 0.00000E+00
 -1        95 7.21500E+01 0.00000E+00 0.00000E+00
 -1        96 7.51500E+01 0.00000E+00 0.00000E+00
 -1        97 7.81500E+01 0.00000E+00 0.00000E+00
 -1        98 8.11500E+01 0.00000E+00 0.00000E+00
 -1        99 8.41500E+01 0.00000E+00 0.00000E+00
 -1       100 8.71500E+01 0.00000E+00 0.00000E+00
 -1       101 9.01500E+01 0.00000E+00 0.00000E+00
 -1       102 9.31500E+01 0.00000E+00 0.00000E+00
 -1       103 9.61500E+01 0.00000E+00 0.00000E+00
 -1       104 9.91500E+01 0.00000E+00 0.00000E+00
 -1       105 1.02150E+02 0.00000E+00 0.00000E+00
 -1       106 1.05150E+02 0.00000E+00 0.00000E+00
 -1       107 1.08150E+02 0.00000E+00 0.00000E+00
 -1       108 1.11150E+02 0.00000E+00 0.00000E+00
 -1       109 1.14150E+02 0.00000E+00 0.00000E+00
 -1       110 1.17150E+02 0.00000E+00 0.00000E+00
 -1       111 1.20150E+02 0.00000E+00 0.00000E+00
 -1       112 1.23150E+02 0.00000E+00 0.00000E+00
 -1       113 1.26150E+02 0.00000E+00 0.00000E+00
 -1       114 1.29150E+02 0.00000E+00 0.00000E+00
 -1       115 1.32150E+02 0.00000E+00 0.00000E+00
 -1       116 1.35150E+02 0.00000E+00 0.00000E+00
 -1       117 1.38150E+02 0.00000E+00 0.00000E+00
 -1       118 1.41150E+02 0.00000E+00 0.00000E+00
 -1       119 1.44150E+02 0.00000E+00 0.00000E+00
 -1       120 1.47150E+02 0.00000E+00 0.00000E+00
 -1       121 1.50000E+02 2.95000E+00 0.00000E+00
 -1       122 1.50000E+02 5.90000E+00 0.00000E+00
 -1       123 1.50000E+02 8.85000E+00 0.00000E+00
 -1       124 1.50000E+02 1.18000E+01 0.00000E+00
 -1       125 1.50000E+02 1.47500E+01 0.00000E+00
 -1       126 1.50000E+02 1.77000E+01 0.00000E+00
 -1       127 1.50000E+02 2.06500E+01 0.00000E+00
 -1       128 1.50000E+02 2.35500E+01 0.00000E+00
 -1       129 1.50000E+02 2.65000E+01 0.00000E+00
 -1       130 1.50000E+02 2.94000E+01 0.00000E+00
 -1       131 1.50000E+02 3.23500E+01 0.00000E+00
 -1       132 1.50000E+02 3.53000E+01 0.00000E+00
 -1       133 1.50000E+02 3.82500E+01 0.00000E+00
 -1       134 1.50000E+02 4.12000E+01 0.00000E+00
 -1       135 1.50000E+02 4.41500E+01 0.00000E+00
 -1       136 1.50000E+02 4.71000E+01 0.00000E+00
 -1       137 1.34395E+02 2.39759E+01 0.00000E+00
 -1       138 1.33917E+02 2.25977E+01 0.00000E+00
 -1       139 1.33089E+02 2.12512E+01 0.00000E+00
 -1       140 1.32010E+02 2.01492E+01 0.00000E+00
 -1       141 1.30692E+02 1.92982E+01 0.00000E+00
 -1       142 1.29303E+02 1.87833E+01 0.00000E+00
 -1       143 1.27730E+02 1.85690E+01 0.00000E+00
 -1       144 1.26177E+02 1.87090E+01 0.00000E+00
 -1       145 1.24748E+02 1.91650E+01 0.00000E+00
 -1       146 1.23448E+02 1.99152E+01 0.00000E+00
 -1       147 1.22388E+02 2.08696E+01 0.00000E+00
 -1       148 1.21546E+02 2.20151E+01 0.00000E+00
 -1       149 1.20917E+02 2.34152E+01 0.00000E+00
 -1       150 1.20615E+02 2.48440E+01 0.00000E+00
 -1       151 1.20621E+02 2.63395E+01 0.00000E+00
 -1       152 1.20933E+02 2.77672E+01 0.00000E+00
 -1       153 1.21616E+02 2.92347E+01 0.00000E+00
 -1       154 1.22545E+02 3.04327E+01 0.00000E+00
 -1       155 1.25096E+02 3.21126E+01 0.00000E+00
 -1       156 1.26563E+02 3.24934E+01 0.00000E+00
 -1       157 1.28000E+02 3.25546E+01 0.00000E+00
 -1       158 1.29535E+02 3.22883E+01 0.00000E+00
 -1       159 1.30917E+02 3.17194E+01 0.00000E+00
 -1       160 1.32240E+02 3.07887E+01 0.00000E+00
 -1       161 1.33238E+02 2.96855E+01 0.00000E+00
 -1       162 1.33994E+02 2.83662E+01 0.00000E+00
 -1       163 1.34427E+02 2.70134E+01 0.00000E+00
 -1       164 2.59800E+00 4.55750E+01 0.00000E+00
 -1       165 2.59800E+00 4.26250E+01 0.00000E+00
 -1       166 2.59800E+00 3.96750E+01 0.00000E+00
 -1       167 2.59800E+00 3.67250E+01 0.00000E+00
 -1       168 2.59800E+00 3.38250E+01 0.00000E+00
 -1       169 2.59800E+00 3.08750E+01 0.00000E+00
 -1       170 2.59800E+00 2.79250E+01 0.00000E+00
 -1       171 2.59800E+00 2.49750E+01 0.00000E+00
 -1       172 2.59800E+00 2.20250E+01 0.00000E+00
 -1       173 2.59800E+00 1.90750E+01 0.00000E+00
 -1       174 2.59800E+00 1.61750E+01 0.00000E+00
 -1       175 2.59800E+00 1.32250E+01 0.00000E+00
 -1       176 2.59800E+00 1.02750E+01 0.00000E+00
 -1       177 2.59800E+00 7.32500E+00 0.00000E+00
 -1       178 2.59800E+00 4.37500E+00 0.00000E+00
 -1       179 2.87400E+00 2.18750E+00 0.00000E+00
 -1       180 4.65000E+00 4.74020E+01 0.00000E+00
 -1       181 7.65000E+00 4.74020E+01 0.00000E+00
 -1       182 1.06500E+01 4.74020E+01 0.00000E+00
 -1       183 1.36500E+01 4.74020E+01 0.00000E+00
 -1       184 1.66500E+01 4.74020E+01 0.00000E+00
 -1       185 1.96500E+01 4.74020E+01 0.00000E+00
 -1       186 2.26500E+01 4.74020E+01 0.00000E+00
 -1       187 2.56500E+01 4.74020E+01 0.00000E+00
 -1       188 2.86500E+01 4.74020E+01 0.00000E+00
 -1       189 3.16500E+01 4.74020E+01 0.00000E+00
 -1       190 3.46500E+01 4.74020E+01 0.00000E+00
 -1       191 3.76500E+01 4.74020E+01 0.00000E+00
 -1       192 4.06500E+01 4.74020E+01 0.00000E+00
 -1       193 4.36500E+01 4.74020E+01 0.00000E+00
 -1       194 4.66500E+01 4.74020E+01 0.00000E+00
 -1       195 4.96500E+01 4.74020E+01 0.00000E+00
 -1       196 5.26500E+01 4.74020E+01 0.00000E+00
 -1       197 5.56500E+01 4.74020E+01 0.00000E+00
 -1       198 5.86500E+01 4.74020E+01 0.00000E+00
 -1       199 6.16500E+01 4.74020E+01 0.00000E+00
 -1       200 6.46500E+01 4.74020E+01 0.00000E+00
 -1       201 6.76500E+01 4.74020E+01 0.00000E+00
 -1       202 7.06500E+01 4.74020E+01 0.00000E+00
 -1       203 7.36500E+01 4.74020E+01 0.00000E+00
 -1       204 7.66500E+01 4.74020E+01 0.00000E+00
 -1       205 7.96500E+01 4.74020E+01 0.00000E+00
 -1       206 8.26500E+01 4.74020E+01 0.00000E+00
 -1       207 8.56500E+01 4.74020E+01 0.00000E+00
 -1       208 8.86500E+01 4.74020E+01 0.00000E+00
 -1       209 9.16500E+01 4.74020E+01 0.00000E+00
 -1       210 9.46500E+01 4.74020E+01 0.00000E+00
 -1       211 9.76500E+01 4.74020E+01 0.00000E+00
 -1       212 1.00650E+02 4.74020E+01 0.00000E+00
 -1       213 1.03650E+02 4.74020E+01 0.00000E+00
 -1       214 1.06650E+02 4.74020E+01 0.00000E+00
 -1       215 1.09650E+02 4.74020E+01 0.00000E+00
 -1       216 1.12650E+02 4.74020E+01 0.00000E+00
 -1       217 1.15650E+02 4.74020E+01 0.00000E+00
 -1       218 1.18650E+02 4.74020E+01 0.00000E+00
 -1       219 1.21650E+02 4.74020E+01 0.00000E+00
 -1       220 1.24650E+02 4.74020E+01 0.00000E+00
 -1       221 1.27650E+02 4.74020E+01 0.00000E+00
 -1       222 1.30650E+02 4.74020E+01 0.00000E+00
 -1       223 1.33650E+02 4.74020E+01 0.00000E+00
 -1       224 1.36650E+02 4.74020E+01 0.00000E+00
 -1       225 1.39650E+02 4.74020E+01 0.00000E+00
 -1       226 1.42650E+02 4.74020E+01 0.00000E+00
 -1       227 1.45650E+02 4.74020E+01 0.00000E+00
 -1       228 5.87400E+00 2.18750E+00 0.00000E+00
 -1       229 8.87400E+00 2.18750E+00 0.00000E+00
 -1       230 1.18740E+01 2.18750E+00 0.00000E+00
 -1       231 1.48740E+01 2.18750E+00 0.00000E+00
 -1       232 1.78740E+01 2.18750E+00 0.00000E+00
 -1       233 2.08740E+01 2.18750E+00 0.00000E+00
 -1       234 2.38740E+01 2.18750E+00 0.00000E+00
 -1       235 2.68740E+01 2.18750E+00 0.00000E+00
 -1       236 2.98740E+01 2.18750E+00 0.00000E+00
 -1       237 3.28740E+01 2.18750E+00 0.00000E+00
 -1       238 3.58740E+01 2.18750E+00 0.00000E+00
 -1       239 3.88740E+01 2.18750E+00 0.00000E+00
 -1       240 4.18740E+01 2.18750E+00 0.00000E+00
 -1       241 4.48740E+01 2.18750E+00 0.00000E+00
 -1       242 4.78740E+01 2.18750E+00 0.00000E+00
 -1       243 5.08740E+01 2.18750E+00 0.00000E+00
 -1       244 5.38740E+01 2.18750E+00 0.00000E+00
 -1       245 5.68740E+01 2.18750E+00 0.00000E+00
 -1       246 5.98740E+01 2.18750E+00 0.00000E+00
 -1       247 6.28740E+01 2.18750E+00 0.00000E+00
 -1       248 6.58740E+01 2.18750E+00 0.00000E+00
 -1       249 6.88740E+01 2.18750E+00 0.00000E+00
 -1       250 7.18740E+01 2.18750E+00 0.00000E+00
 -1       251 7.48740E+01 2.18750E+00 0.00000E+00
 -1       252 7.78740E+01 2.18750E+00 0.00000E+00
 -1       253 8.08740E+01 2.18750E+00 0.00000E+00
 -1       254 8.38740E+01 2.18750E+00 0.00000E+00
 -1       255 8.68740E+01 2.18750E+00 0.00000E+00
 -1       256 8.98740E+01 2.18750E+00 0.00000E+00
 -1       257 9.28740E+01 2.18750E+00 0.00000E+00
 -1       258 9.58740E+01 2.18750E+00 0.00000E+00
 -1       259 9.88740E+01 2.18750E+00 0.00000E+00
 -1       260 1.01874E+02 2.18750E+00 0.00000E+00
 -1       261 1.04874E+02 2.18750E+00 0.00000E+00
 -1       262 1.07874E+02 2.18750E+00 0.00000E+00
 -1       263 1.10874E+02 2.18750E+00 0.00000E+00
 -1       264 1.13874E+02 2.18750E+00 0.00000E+00
 -1       265 1.16874E+02 2.18750E+00 0.00000E+00
 -1       266 1.19874E+02 2.18750E+00 0.00000E+00
 -1       267 1.22874E+02 2.18750E+00 0.00000E+00
 -1       268 1.25874E+02 2.18750E+00 0.00000E+00
 -1       269 1.28874E+02 2.18750E+00 0.00000E+00
 -1       270 1.31874E+02 2.18750E+00 0.00000E+00
 -1       271 1.34874E+02 2.18750E+00 0.00000E+00
 -1       272 1.37874E+02 2.18750E+00 0.00000E+00
 -1       273 1.40874E+02 2.18750E+00 0.00000E+00
 -1       274 1.43874E+02 2.18750E+00 0.00000E+00
 -1       275 1.46874E+02 2.18750E+00 0.00000E+00
 -1       276 1.47402E+02 4.42500E+00 0.00000E+00
 -1       277 1.47402E+02 7.37500E+00 0.00000E+00
 -1       278 1.47402E+02 1.03250E+01 0.00000E+00
 -1       279 1.47402E+02 1.32750E+01 0.00000E+00
 -1       280 1.47402E+02 1.62250E+01 0.00000E+00
 -1       281 1.47402E+02 1.91750E+01 0.00000E+00
 -1       282 1.47402E+02 2.20750E+01 0.00000E+00
 -1       283 1.47402E+02 2.50250E+01 0.00000E+00
 -1       284 1.47402E+02 2.79250E+01 0.00000E+00
 -1       285 1.47402E+02 3.08750E+01 0.00000E+00
 -1       286 1.47402E+02 3.38250E+01 0.00000E+00
 -1       287 1.47402E+02 3.67750E+01 0.00000E+00
 -1       288 1.47402E+02 3.97250E+01 0.00000E+00
 -1       289 1.47402E+02 4.26750E+01 0.00000E+00
 -1       290 1.46526E+02 4.50385E+01 0.00000E+00
 -1       291 1.35857E+02 2.46137E+01 0.00000E+00
 -1       292 1.35380E+02 2.28622E+01 0.00000E+00
 -1       293 1.34678E+02 2.12017E+01 0.00000E+00
 -1       294 1.33416E+02 1.98521E+01 0.00000E+00
 -1       295 1.32100E+02 1.85644E+01 0.00000E+00
 -1       296 1.30419E+02 1.79039E+01 0.00000E+00
 -1       297 1.28703E+02 1.73088E+01 0.00000E+00
 -1       298 1.26822E+02 1.71812E+01 0.00000E+00
 -1       299 1.25068E+02 1.77021E+01 0.00000E+00
 -1       300 1.23450E+02 1.84176E+01 0.00000E+00
 -1       301 1.22107E+02 1.94914E+01 0.00000E+00
 -1       302 1.20991E+02 2.07242E+01 0.00000E+00
 -1       303 1.20049E+02 2.21838E+01 0.00000E+00
 -1       304 1.19498E+02 2.38619E+01 0.00000E+00
 -1       305 1.19322E+02 2.55963E+01 0.00000E+00
 -1       306 1.19592E+02 2.73122E+01 0.00000E+00
 -1       307 1.19947E+02 2.91185E+01 0.00000E+00
 -1       308 1.21056E+02 3.06283E+01 0.00000E+00
 -1       309 1.22256E+02 3.19852E+01 0.00000E+00
 -1       310 1.23860E+02 3.28425E+01 0.00000E+00
 -1       311 1.25483E+02 3.36387E+01 0.00000E+00
 -1       312 1.27230E+02 3.37353E+01 0.00000E+00
 -1       313 1.28989E+02 3.36985E+01 0.00000E+00
 -1       314 1.30687E+02 3.31251E+01 0.00000E+00
 -1       315 1.32373E+02 3.23827E+01 0.00000E+00
 -1       316 1.33701E+02 3.11067E+01 0.00000E+00
 -1       317 1.34814E+02 2.97117E+01 0.00000E+00
 -1       318 1.35365E+02 2.80593E+01 0.00000E+00
 -1       319 1.35708E+02 2.64163E+01 0.00000E+00
 -1       320 5.19600E+00 4.11500E+01 0.00000E+00
 -1       321 5.19600E+00 4.41000E+01 0.00000E+00
 -1       322 5.19600E+00 3.52750E+01 0.00000E+00
 -1       323 5.19600E+00 3.23250E+01 0.00000E+00
 -1       324 5.19600E+00 2.93750E+01 0.00000E+00
 -1       325 5.19600E+00 2.64250E+01 0.00000E+00
 -1       326 5.19600E+00 2.34750E+01 0.00000E+00
 -1       327 5.19600E+00 2.05250E+01 0.00000E+00
 -1       328 5.19600E+00 1.76250E+01 0.00000E+00
 -1       329 5.19600E+00 1.46750E+01 0.00000E+00
 -1       330 5.19600E+00 1.17250E+01 0.00000E+00
 -1       331 5.19600E+00 8.77500E+00 0.00000E+00
 -1       332 5.19600E+00 5.82500E+00 0.00000E+00
 -1       333 5.53500E+00 4.00625E+00 0.00000E+00
 -1       334 8.53500E+00 4.00625E+00 0.00000E+00
 -1       335 9.15000E+00 4.48040E+01 0.00000E+00
 -1       336 1.21500E+01 4.48040E+01 0.00000E+00
 -1       337 1.51500E+01 4.48040E+01 0.00000E+00
 -1       338 1.81500E+01 4.48040E+01 0.00000E+00
 -1       339 2.11500E+01 4.48040E+01 0.00000E+00
 -1       340 2.41500E+01 4.48040E+01 0.00000E+00
 -1       341 2.71500E+01 4.48040E+01 0.00000E+00
 -1       342 3.01500E+01 4.48040E+01 0.00000E+00
 -1       343 3.31500E+01 4.48040E+01 0.00000E+00
 -1       344 3.61500E+01 4.48040E+01 0.00000E+00
 -1       345 3.91500E+01 4.48040E+01 0.00000E+00
 -1       346 4.21500E+01 4.48040E+01 0.00000E+00
 -1       347 4.51500E+01 4.48040E+01 0.00000E+00
 -1       348 4.81500E+01 4.48040E+01 0.00000E+00
 -1       349 5.11500E+01 4.48040E+01 0.00000E+00
 -1       350 5.41500E+01 4.48040E+01 0.00000E+00
 -1       351 5.71500E+01 4.48040E+01 0.00000E+00
 -1       352 6.01500E+01 4.48040E+01 0.00000E+00
 -1       353 6.31500E+01 4.48040E+01 0.00000E+00
 -1       354 6.61500E+01 4.48040E+01 0.00000E+00
 -1       355 6.91500E+01 4.48040E+01 0.00000E+00
 -1       356 7.21500E+01 4.48040E+01 0.00000E+00
 -1       357 7.51500E+01 4.48040E+01 0.00000E+00
 -1       358 7.81500E+01 4.48040E+01 0.00000E+00
 -1       359 8.11500E+01 4.48040E+01 0.00000E+00
 -1       360 8.41500E+01 4.48040E+01 0.00000E+00
 -1       361 8.71500E+01 4.48040E+01 0.00000E+00
 -1       362 9.01500E+01 4.48040E+01 0.00000E+00
 -1       363 9.31500E+01 4.48040E+01 0.00000E+00
 -1       364 9.61500E+01 4.48040E+01 0.00000E+00
 -1       365 9.91500E+01 4.48040E+01 0.00000E+00
 -1       366 1.02150E+02 4.48040E+01 0.00000E+00
 -1       367 1.05150E+02 4.48040E+01 0.00000E+00
 -1       368 1.08150E+02 4.48040E+01 0.00000E+00
 -1       369 1.11150E+02 4.48040E+01 0.00000E+00
 -1       370 1.14150E+02 4.48040E+01 0.00000E+00
 -1       371 1.17150E+02 4.48040E+01 0.00000E+00
 -1       372 1.20150E+02 4.48040E+01 0.00000E+00
 -1       373 1.23150E+02 4.48040E+01 0.00000E+00
 -1       374 1.26150E+02 4.48040E+01 0.00000E+00
 -1       375 1.29150E+02 4.48040E+01 0.00000E+00
 -1       376 1.32150E+02 4.48040E+01 0.00000E+00
 -1       377 1.35150E+02 4.48040E+01 0.00000E+00
 -1       378 1.38150E+02 4.48040E+01 0.00000E+00
 -1       379 1.41150E+02 4.48040E+01 0.00000E+00
 -1       380 1.43838E+02 4.49212E+01 0.00000E+00
 -1       381 1.15350E+01 4.00625E+00 0.00000E+00
 -1       382 1.45350E+01 4.00625E+00 0.00000E+00
 -1       383 1.75350E+01 4.00625E+00 0.00000E+00
 -1       384 2.05350E+01 4.00625E+00 0.00000E+00
 -1       385 2.35350E+01 4.00625E+00 0.00000E+00
 -1       386 2.65350E+01 4.00625E+00 0.00000E+00
 -1       387 2.95350E+01 4.00625E+00 0.00000E+00
 -1       388 3.25350E+01 4.00625E+00 0.00000E+00
 -1       389 3.55350E+01 4.00625E+00 0.00000E+00
 -1       390 3.85350E+01 4.00625E+00 0.00000E+00
 -1       391 4.15350E+01 4.00625E+00 0.00000E+00
 -1       392 4.45350E+01 4.00625E+00 0.00000E+00
 -1       393 4.75350E+01 4.00625E+00 0.00000E+00
 -1       394 5.05350E+01 4.00625E+00 0.00000E+00
 -1       395 5.35350E+01 4.00625E+00 0.00000E+00
 -1       396 5.65350E+01 4.00625E+00 0.00000E+00
 -1       397 5.95350E+01 4.00625E+00 0.00000E+00
 -1       398 6.25350E+01 4.00625E+00 0.00000E+00
 -1       399 6.55350E+01 4.00625E+00 0.00000E+00
 -1       400 6.85350E+01 4.00625E+00 0.00000E+00
 -1       401 7.15350E+01 4.00625E+00 0.00000E+00
 -1       402 7.45350E+01 4.00625E+00 0.00000E+00
 -1       403 7.75350E+01 4.00625E+00 0.00000E+00
 -1       404 8.05350E+01 4.00625E+00 0.00000E+00
 -1       405 8.35350E+01 4.00625E+00 0.00000E+00
 -1       406 8.65350E+01 4.00625E+00 0.00000E+00
 -1       407 8.95350E+01 4.00625E+00 0.00000E+00
 -1       408 9.25350E+01 4.00625E+00 0.00000E+00
 -1       409 9.55350E+01 4.00625E+00 0.00000E+00
 -1       410 9.85350E+01 4.00625E+00 0.00000E+00
 -1       411 1.01535E+02 4.00625E+00 0.00000E+00
 -1       412 1.04535E+02 4.00625E+00 0.00000E+00
 -1       413 1.07535E+02 4.00625E+00 0.00000E+00
 -1       414 1.10535E+02 4.00625E+00 0.00000E+00
 -1       415 1.13535E+02 4.00625E+00 0.00000E+00
 -1       416 1.16535E+02 4.00625E+00 0.00000E+00
 -1       417 1.19535E+02 4.00625E+00 0.00000E+00
 -1       418 1.22535E+02 4.00625E+00 0.00000E+00
 -1       419 1.25535E+02 4.00625E+00 0.00000E+00
 -1       420 1.28535E+02 4.00625E+00 0.00000E+00
 -1       421 1.31535E+02 4.00625E+00 0.00000E+00
 -1       422 1.34535E+02 4.00625E+00 0.00000E+00
 -1       423 1.37535E+02 4.00625E+00 0.00000E+00
 -1       424 1.40535E+02 4.00625E+00 0.00000E+00
 -1       425 1.43535E+02 4.00625E+00 0.00000E+00
 -1       426 1.45469E+02 4.21562E+00 0.00000E+00
 -1       427 1.44804E+02 1.18000E+01 0.00000E+00
 -1       428 1.44804E+02 8.85000E+00 0.00000E+00
 -1       429 1.45136E+02 6.53281E+00 0.00000E+00
 -1       430 1.44804E+02 1.47500E+01 0.00000E+00
 -1       431 1.44804E+02 1.77000E+01 0.00000E+00
 -1       432 1.44804E+02 2.06000E+01 0.00000E+00
 -1       433 1.44804E+02 2.35500E+01 0.00000E+00
 -1       434 1.44804E+02 2.64500E+01 0.00000E+00
 -1       435 1.44804E+02 2.94000E+01 0.00000E+00
 -1       436 1.44804E+02 3.23500E+01 0.00000E+00
 -1       437 1.44804E+02 3.53000E+01 0.00000E+00
 -1       438 1.44804E+02 3.82500E+01 0.00000E+00
 -1       439 1.44804E+02 4.12000E+01 0.00000E+00
 -1       440 1.36455E+02 2.14293E+01 0.00000E+00
 -1       441 1.37409E+02 2.56493E+01 0.00000E+00
 -1       442 1.37031E+02 2.33535E+01 0.00000E+00
 -1       443 1.35177E+02 1.94696E+01 0.00000E+00
 -1       444 1.33861E+02 1.81820E+01 0.00000E+00
 -1       445 5.19600E+00 3.82125E+01 0.00000E+00
 -1       446 1.30013E+02 1.63026E+01 0.00000E+00
 -1       447 1.27879E+02 1.55338E+01 0.00000E+00
 -1       448 1.25576E+02 1.61991E+01 0.00000E+00
 -1       449 1.23667E+02 1.67211E+01 0.00000E+00
 -1       450 1.21812E+02 1.77459E+01 0.00000E+00
 -1       451 1.20526E+02 1.91814E+01 0.00000E+00
 -1       452 1.19431E+02 2.07516E+01 0.00000E+00
 -1       453 1.18224E+02 2.25136E+01 0.00000E+00
 -1       454 1.18120E+02 2.45982E+01 0.00000E+00
 -1       455 1.18011E+02 2.66820E+01 0.00000E+00
 -1       456 1.18366E+02 2.84884E+01 0.00000E+00
 -1       457 1.19457E+02 3.06409E+01 0.00000E+00
 -1       458 1.20622E+02 3.22206E+01 0.00000E+00
 -1       459 1.22329E+02 3.37788E+01 0.00000E+00
 -1       460 1.23951E+02 3.45750E+01 0.00000E+00
 -1       461 1.26271E+02 3.52322E+01 0.00000E+00
 -1       462 1.28030E+02 3.51954E+01 0.00000E+00
 -1       463 1.30333E+02 3.48780E+01 0.00000E+00
 -1       464 1.32154E+02 3.41701E+01 0.00000E+00
 -1       465 1.34109E+02 3.28605E+01 0.00000E+00
 -1       466 1.35336E+02 3.12699E+01 0.00000E+00
 -1       467 1.36319E+02 2.92959E+01 0.00000E+00
 -1       468 1.37066E+02 2.72923E+01 0.00000E+00
 -1       469 1.31825E+02 1.67938E+01 0.00000E+00
 -1       470 1.17876E+02 3.00108E+01 0.00000E+00
 -1       471 1.00350E+01 6.60425E+00 0.00000E+00
 -1       472 7.79400E+00 3.08500E+01 0.00000E+00
 -1       473 7.79400E+00 3.38000E+01 0.00000E+00
 -1       474 7.79400E+00 2.49500E+01 0.00000E+00
 -1       475 7.79400E+00 2.20000E+01 0.00000E+00
 -1       476 7.79400E+00 1.91000E+01 0.00000E+00
 -1       477 7.79400E+00 1.61500E+01 0.00000E+00
 -1       478 7.79400E+00 1.32000E+01 0.00000E+00
 -1       479 7.79400E+00 1.02500E+01 0.00000E+00
 -1       480 1.30350E+01 6.60425E+00 0.00000E+00
 -1       481 1.06500E+01 4.22060E+01 0.00000E+00
 -1       482 1.33809E+02 1.60709E+01 0.00000E+00
 -1       483 1.36500E+01 4.22060E+01 0.00000E+00
 -1       484 1.66500E+01 4.22060E+01 0.00000E+00
 -1       485 1.96500E+01 4.22060E+01 0.00000E+00
 -1       486 2.26500E+01 4.22060E+01 0.00000E+00
 -1       487 2.56500E+01 4.22060E+01 0.00000E+00
 -1       488 2.86500E+01 4.22060E+01 0.00000E+00
 -1       489 3.16500E+01 4.22060E+01 0.00000E+00
 -1       490 3.46500E+01 4.22060E+01 0.00000E+00
 -1       491 3.76500E+01 4.22060E+01 0.00000E+00
 -1       492 4.06500E+01 4.22060E+01 0.00000E+00
 -1       493 4.36500E+01 4.22060E+01 0.00000E+00
 -1       494 4.66500E+01 4.22060E+01 0.00000E+00
 -1       495 4.96500E+01 4.22060E+01 0.00000E+00
 -1       496 5.26500E+01 4.22060E+01 0.00000E+00
 -1       497 5.56500E+01 4.22060E+01 0.00000E+00
 -1       498 5.86500E+01 4.22060E+01 0.00000E+00
 -1       499 6.16500E+01 4.22060E+01 0.00000E+00
 -1       500 6.46500E+01 4.22060E+01 0.00000E+00
 -1       501 6.76500E+01 4.22060E+01 0.00000E+00
 -1       502 7.06500E+01 4.22060E+01 0.00000E+00
 -1       503 7.36500E+01 4.22060E+01 0.00000E+00
 -1       504 7.66500E+01 4.22060E+01 0.00000E+00
 -1       505 7.96500E+01 4.22060E+01 0.00000E+00
 -1       506 8.26500E+01 4.22060E+01 0.00000E+00
 -1       507 8.56500E+01 4.22060E+01 0.00000E+00
 -1       508 8.86500E+01 4.22060E+01 0.00000E+00
 -1       509 9.16500E+01 4.22060E+01 0.00000E+00
 -1       510 9.46500E+01 4.22060E+01 0.00000E+00
 -1       511 9.76500E+01 4.22060E+01 0.00000E+00
 -1       512 1.00650E+02 4.22060E+01 0.00000E+00
 -1       513 1.03650E+02 4.22060E+01 0.00000E+00
 -1       514 1.06650E+02 4.22060E+01 0.00000E+00
 -1       515 1.09650E+02 4.22060E+01 0.00000E+00
 -1       516 1.12650E+02 4.22060E+01 0.00000E+00
 -1       517 1.15650E+02 4.22060E+01 0.00000E+00
 -1       518 1.18650E+02 4.22060E+01 0.00000E+00
 -1       519 1.21650E+02 4.22060E+01 0.00000E+00
 -1       520 1.24650E+02 4.22060E+01 0.00000E+00
 -1       521 1.27650E+02 4.22060E+01 0.00000E+00
 -1       522 1.30650E+02 4.22060E+01 0.00000E+00
 -1       523 1.33650E+02 4.22060E+01 0.00000E+00
 -1       524 1.36650E+02 4.22060E+01 0.00000E+00
 -1       525 1.39650E+02 4.22060E+01 0.00000E+00
 -1       526 1.90350E+01 6.60425E+00 0.00000E+00
 -1       527 2.20350E+01 6.60425E+00 0.00000E+00
 -1       528 2.50350E+01 6.60425E+00 0.00000E+00
 -1       529 2.80350E+01 6.60425E+00 0.00000E+00
 -1       530 3.10350E+01 6.60425E+00 0.00000E+00
 -1       531 3.40350E+01 6.60425E+00 0.00000E+00
 -1       532 3.70350E+01 6.60425E+00 0.00000E+00
 -1       533 4.00350E+01 6.60425E+00 0.00000E+00
 -1       534 4.30350E+01 6.60425E+00 0.00000E+00
 -1       535 4.60350E+01 6.60425E+00 0.00000E+00
 -1       536 4.90350E+01 6.60425E+00 0.00000E+00
 -1       537 5.20350E+01 6.60425E+00 0.00000E+00
 -1       538 5.50350E+01 6.60425E+00 0.00000E+00
 -1       539 5.80350E+01 6.60425E+00 0.00000E+00
 -1       540 6.10350E+01 6.60425E+00 0.00000E+00
 -1       541 6.40350E+01 6.60425E+00 0.00000E+00
 -1       542 6.70350E+01 6.60425E+00 0.00000E+00
 -1       543 7.00350E+01 6.60425E+00 0.00000E+00
 -1       544 7.30350E+01 6.60425E+00 0.00000E+00
 -1       545 7.60350E+01 6.60425E+00 0.00000E+00
 -1       546 7.90350E+01 6.60425E+00 0.00000E+00
 -1       547 8.20350E+01 6.60425E+00 0.00000E+00
 -1       548 8.50350E+01 6.60425E+00 0.00000E+00
 -1       549 8.80350E+01 6.60425E+00 0.00000E+00
 -1       550 9.10350E+01 6.60425E+00 0.00000E+00
 -1       551 9.40350E+01 6.60425E+00 0.00000E+00
 -1       552 9.70350E+01 6.60425E+00 0.00000E+00
 -1       553 1.00035E+02 6.60425E+00 0.00000E+00
 -1       554 1.03035E+02 6.60425E+00 0.00000E+00
 -1       555 1.06035E+02 6.60425E+00 0.00000E+00
 -1       556 1.09035E+02 6.60425E+00 0.00000E+00
 -1       557 1.12035E+02 6.60425E+00 0.00000E+00
 -1       558 1.15035E+02 6.60425E+00 0.00000E+00
 -1       559 1.18035E+02 6.60425E+00 0.00000E+00
 -1       560 1.21035E+02 6.60425E+00 0.00000E+00
 -1       561 1.24035E+02 6.60425E+00 0.00000E+00
 -1       562 1.27035E+02 6.60425E+00 0.00000E+00
 -1       563 1.30035E+02 6.60425E+00 0.00000E+00
 -1       564 1.33035E+02 6.60425E+00 0.00000E+00
 -1       565 1.36035E+02 6.60425E+00 0.00000E+00
 -1       566 1.39035E+02 6.60425E+00 0.00000E+00
 -1       567 1.42035E+02 6.60425E+00 0.00000E+00
 -1       568 1.42206E+02 1.62250E+01 0.00000E+00
 -1       569 1.42206E+02 1.91250E+01 0.00000E+00
 -1       570 1.42206E+02 1.03250E+01 0.00000E+00
 -1       571 1.42206E+02 1.32750E+01 0.00000E+00
 -1       572 1.42206E+02 2.20750E+01 0.00000E+00
 -1       573 1.42206E+02 2.49750E+01 0.00000E+00
 -1       574 1.42206E+02 2.79250E+01 0.00000E+00
 -1       575 1.42206E+02 3.08750E+01 0.00000E+00
 -1       576 1.42206E+02 3.38250E+01 0.00000E+00
 -1       577 1.42206E+02 3.67750E+01 0.00000E+00
 -1       578 1.42206E+02 3.97250E+01 0.00000E+00
 -1       579 1.39078E+02 2.41960E+01 0.00000E+00
 -1       580 1.37112E+02 1.96044E+01 0.00000E+00
 -1       581 1.60350E+01 6.60425E+00 0.00000E+00
 -1       582 1.31412E+02 1.47311E+01 0.00000E+00
 -1       583 1.38064E+02 2.88052E+01 0.00000E+00
 -1       584 1.35953E+02 1.73602E+01 0.00000E+00
 -1       585 1.38916E+02 2.68214E+01 0.00000E+00
 -1       586 1.20319E+02 3.42663E+01 0.00000E+00
 -1       587 1.16353E+02 2.55503E+01 0.00000E+00
 -1       588 7.79400E+00 2.79000E+01 0.00000E+00
 -1       589 1.26275E+02 1.42993E+01 0.00000E+00
 -1       590 1.18659E+02 3.24486E+01 0.00000E+00
 -1       591 1.29277E+02 1.39624E+01 0.00000E+00
 -1       592 1.24214E+02 1.49674E+01 0.00000E+00
 -1       593 1.21748E+02 1.54388E+01 0.00000E+00
 -1       594 1.20079E+02 1.74869E+01 0.00000E+00
 -1       595 1.18709E+02 1.90810E+01 0.00000E+00
 -1       596 1.17502E+02 2.08431E+01 0.00000E+00
 -1       597 1.16456E+02 2.34658E+01 0.00000E+00
 -1       598 1.16341E+02 2.79481E+01 0.00000E+00
 -1       599 1.31987E+02 3.64349E+01 0.00000E+00
 -1       600 1.22311E+02 3.58671E+01 0.00000E+00
 -1       601 1.24598E+02 3.67150E+01 0.00000E+00
 -1       602 1.27187E+02 3.69285E+01 0.00000E+00
 -1       603 1.29684E+02 3.67524E+01 0.00000E+00
 -1       604 1.34086E+02 3.49402E+01 0.00000E+00
 -1       605 1.36213E+02 3.32150E+01 0.00000E+00
 -1       606 1.37363E+02 3.10475E+01 0.00000E+00
 -1       607 7.92300E+00 4.16780E+01 0.00000E+00
 -1       608 7.61550E+00 6.21462E+00 0.00000E+00
 -1       609 1.38145E+02 2.19714E+01 0.00000E+00
 -1       610 1.27673E+02 1.27278E+01 0.00000E+00
 -1       611 7.79400E+00 3.67375E+01 0.00000E+00
 -1       612 7.85850E+00 3.92077E+01 0.00000E+00
 -1       613 1.15735E+02 2.17952E+01 0.00000E+00
 -1       614 1.41678E+02 4.22645E+01 0.00000E+00
 -1       615 1.03920E+01 2.05500E+01 0.00000E+00
 -1       616 1.03920E+01 2.35000E+01 0.00000E+00
 -1       617 1.03920E+01 1.46750E+01 0.00000E+00
 -1       618 1.03920E+01 1.17250E+01 0.00000E+00
 -1       619 1.15350E+01 9.20225E+00 0.00000E+00
 -1       620 1.24741E+02 1.30815E+01 0.00000E+00
 -1       621 1.31138E+02 3.87907E+01 0.00000E+00
 -1       622 1.38599E+02 3.30918E+01 0.00000E+00
 -1       623 1.51500E+01 3.96080E+01 0.00000E+00
 -1       624 1.81500E+01 3.96080E+01 0.00000E+00
 -1       625 2.11500E+01 3.96080E+01 0.00000E+00
 -1       626 2.41500E+01 3.96080E+01 0.00000E+00
 -1       627 2.71500E+01 3.96080E+01 0.00000E+00
 -1       628 3.01500E+01 3.96080E+01 0.00000E+00
 -1       629 3.31500E+01 3.96080E+01 0.00000E+00
 -1       630 3.61500E+01 3.96080E+01 0.00000E+00
 -1       631 3.91500E+01 3.96080E+01 0.00000E+00
 -1       632 4.21500E+01 3.96080E+01 0.00000E+00
 -1       633 4.51500E+01 3.96080E+01 0.00000E+00
 -1       634 4.81500E+01 3.96080E+01 0.00000E+00
 -1       635 5.11500E+01 3.96080E+01 0.00000E+00
 -1       636 5.41500E+01 3.96080E+01 0.00000E+00
 -1       637 5.71500E+01 3.96080E+01 0.00000E+00
 -1       638 6.01500E+01 3.96080E+01 0.00000E+00
 -1       639 6.31500E+01 3.96080E+01 0.00000E+00
 -1       640 6.61500E+01 3.96080E+01 0.00000E+00
 -1       641 6.91500E+01 3.96080E+01 0.00000E+00
 -1       642 7.21500E+01 3.96080E+01 0.00000E+00
 -1       643 7.51500E+01 3.96080E+01 0.00000E+00
 -1       644 7.81500E+01 3.96080E+01 0.00000E+00
 -1       645 8.11500E+01 3.96080E+01 0.00000E+00
 -1       646 8.41500E+01 3.96080E+01 0.00000E+00
 -1       647 8.71500E+01 3.96080E+01 0.00000E+00
 -1       648 9.01500E+01 3.96080E+01 0.00000E+00
 -1       649 9.31500E+01 3.96080E+01 0.00000E+00
 -1       650 9.61500E+01 3.96080E+01 0.00000E+00
 -1       651 9.91500E+01 3.96080E+01 0.00000E+00
 -1       652 1.02150E+02 3.96080E+01 0.00000E+00
 -1       653 1.05150E+02 3.96080E+01 0.00000E+00
 -1       654 1.08150E+02 3.96080E+01 0.00000E+00
 -1       655 1.11150E+02 3.96080E+01 0.00000E+00
 -1       656 1.14150E+02 3.96080E+01 0.00000E+00
 -1       657 1.17150E+02 3.96080E+01 0.00000E+00
 -1       658 1.20150E+02 3.96080E+01 0.00000E+00
 -1       659 1.23150E+02 3.96080E+01 0.00000E+00
 -1       660 1.26150E+02 3.96080E+01 0.00000E+00
 -1       661 1.35150E+02 3.96080E+01 0.00000E+00
 -1       662 1.38150E+02 3.96080E+01 0.00000E+00
 -1       663 2.35350E+01 9.20225E+00 0.00000E+00
 -1       664 1.39989E+02 2.84571E+01 0.00000E+00
 -1       665 2.05350E+01 9.20225E+00 0.00000E+00
 -1       666 2.95350E+01 9.20225E+00 0.00000E+00
 -1       667 3.25350E+01 9.20225E+00 0.00000E+00
 -1       668 3.55350E+01 9.20225E+00 0.00000E+00
 -1       669 3.85350E+01 9.20225E+00 0.00000E+00
 -1       670 4.15350E+01 9.20225E+00 0.00000E+00
 -1       671 4.45350E+01 9.20225E+00 0.00000E+00
 -1       672 4.75350E+01 9.20225E+00 0.00000E+00
 -1       673 5.05350E+01 9.20225E+00 0.00000E+00
 -1       674 5.35350E+01 9.20225E+00 0.00000E+00
 -1       675 5.65350E+01 9.20225E+00 0.00000E+00
 -1       676 5.95350E+01 9.20225E+00 0.00000E+00
 -1       677 6.25350E+01 9.20225E+00 0.00000E+00
 -1       678 6.55350E+01 9.20225E+00 0.00000E+00
 -1       679 6.85350E+01 9.20225E+00 0.00000E+00
 -1       680 7.15350E+01 9.20225E+00 0.00000E+00
 -1       681 7.45350E+01 9.20225E+00 0.00000E+00
 -1       682 7.75350E+01 9.20225E+00 0.00000E+00
 -1       683 8.05350E+01 9.20225E+00 0.00000E+00
 -1       684 8.35350E+01 9.20225E+00 0.00000E+00
 -1       685 8.65350E+01 9.20225E+00 0.00000E+00
 -1       686 8.95350E+01 9.20225E+00 0.00000E+00
 -1       687 9.25350E+01 9.20225E+00 0.00000E+00
 -1       688 9.55350E+01 9.20225E+00 0.00000E+00
 -1       689 9.85350E+01 9.20225E+00 0.00000E+00
 -1       690 1.01535E+02 9.20225E+00 0.00000E+00
 -1       691 1.04535E+02 9.20225E+00 0.00000E+00
 -1       692 1.07535E+02 9.20225E+00 0.00000E+00
 -1       693 1.10535E+02 9.20225E+00 0.00000E+00
 -1       694 1.13535E+02 9.20225E+00 0.00000E+00
 -1       695 1.16535E+02 9.20225E+00 0.00000E+00
 -1       696 1.19535E+02 9.20225E+00 0.00000E+00
 -1       697 1.22535E+02 9.20225E+00 0.00000E+00
 -1       698 1.25535E+02 9.20225E+00 0.00000E+00
 -1       699 1.28535E+02 9.20225E+00 0.00000E+00
 -1       700 1.31535E+02 9.20225E+00 0.00000E+00
 -1       701 1.34535E+02 9.20225E+00 0.00000E+00
 -1       702 1.37535E+02 9.20225E+00 0.00000E+00
 -1       703 1.39870E+02 9.76363E+00 0.00000E+00
 -1       704 1.38056E+02 1.76950E+01 0.00000E+00
 -1       705 1.40323E+02 2.35250E+01 0.00000E+00
 -1       706 1.18099E+02 3.46269E+01 0.00000E+00
 -1       707 1.39988E+02 1.76750E+01 0.00000E+00
 -1       708 1.40156E+02 2.06000E+01 0.00000E+00
 -1       709 1.38599E+02 3.60418E+01 0.00000E+00
 -1       710 1.40139E+02 3.91531E+01 0.00000E+00
 -1       711 1.39294E+02 3.07744E+01 0.00000E+00
 -1       712 1.16475E+02 3.18054E+01 0.00000E+00
 -1       713 1.28556E+02 3.85513E+01 0.00000E+00
 -1       714 1.75350E+01 9.20225E+00 0.00000E+00
 -1       715 2.65350E+01 9.20225E+00 0.00000E+00
 -1       716 1.21500E+01 3.96080E+01 0.00000E+00
 -1       717 1.18093E+02 1.71662E+01 0.00000E+00
 -1       718 1.39201E+02 2.01020E+01 0.00000E+00
 -1       719 1.45350E+01 9.20225E+00 0.00000E+00
 -1       720 1.03920E+01 1.76125E+01 0.00000E+00
 -1       721 1.03920E+01 3.23250E+01 0.00000E+00
 -1       722 1.20135E+02 3.65342E+01 0.00000E+00
 -1       723 1.30983E+02 1.25754E+01 0.00000E+00
 -1       724 1.14940E+02 2.97427E+01 0.00000E+00
 -1       725 1.14297E+02 2.67391E+01 0.00000E+00
 -1       726 1.19584E+02 1.53792E+01 0.00000E+00
 -1       727 1.16691E+02 1.89929E+01 0.00000E+00
 -1       728 1.14400E+02 2.46545E+01 0.00000E+00
 -1       729 1.33611E+02 1.36112E+01 0.00000E+00
 -1       730 1.36441E+02 3.56700E+01 0.00000E+00
 -1       731 1.40156E+02 2.59910E+01 0.00000E+00
 -1       732 1.22423E+02 3.73821E+01 0.00000E+00
 -1       733 1.22276E+02 1.35529E+01 0.00000E+00
 -1       734 1.34128E+02 3.72213E+01 0.00000E+00
 -1       735 1.35754E+02 1.49006E+01 0.00000E+00
 -1       736 1.00042E+01 3.94079E+01 0.00000E+00
 -1       737 1.03920E+01 3.52625E+01 0.00000E+00
 -1       738 1.03920E+01 2.64500E+01 0.00000E+00
 -1       739 1.37858E+02 1.52353E+01 0.00000E+00
 -1       740 1.39870E+02 1.27136E+01 0.00000E+00
 -1       741 1.15915E+02 3.39838E+01 0.00000E+00
 -1       742 1.14923E+02 1.99451E+01 0.00000E+00
 -1       743 1.13679E+02 2.29839E+01 0.00000E+00
 -1       744 1.03920E+01 2.93875E+01 0.00000E+00
 -1       745 1.39929E+02 1.51943E+01 0.00000E+00
 -1       746 1.20112E+02 1.34933E+01 0.00000E+00
 -1       747 1.29900E+01 1.32000E+01 0.00000E+00
 -1       748 1.01981E+01 3.73352E+01 0.00000E+00
 -1       749 1.36500E+01 3.70100E+01 0.00000E+00
 -1       750 1.96500E+01 3.70100E+01 0.00000E+00
 -1       751 2.26500E+01 3.70100E+01 0.00000E+00
 -1       752 2.56500E+01 3.70100E+01 0.00000E+00
 -1       753 2.86500E+01 3.70100E+01 0.00000E+00
 -1       754 3.16500E+01 3.70100E+01 0.00000E+00
 -1       755 3.46500E+01 3.70100E+01 0.00000E+00
 -1       756 3.76500E+01 3.70100E+01 0.00000E+00
 -1       757 4.06500E+01 3.70100E+01 0.00000E+00
 -1       758 4.36500E+01 3.70100E+01 0.00000E+00
 -1       759 4.66500E+01 3.70100E+01 0.00000E+00
 -1       760 4.96500E+01 3.70100E+01 0.00000E+00
 -1       761 5.26500E+01 3.70100E+01 0.00000E+00
 -1       762 5.56500E+01 3.70100E+01 0.00000E+00
 -1       763 5.86500E+01 3.70100E+01 0.00000E+00
 -1       764 6.16500E+01 3.70100E+01 0.00000E+00
 -1       765 6.46500E+01 3.70100E+01 0.00000E+00
 -1       766 6.76500E+01 3.70100E+01 0.00000E+00
 -1       767 7.06500E+01 3.70100E+01 0.00000E+00
 -1       768 7.36500E+01 3.70100E+01 0.00000E+00
 -1       769 7.66500E+01 3.70100E+01 0.00000E+00
 -1       770 7.96500E+01 3.70100E+01 0.00000E+00
 -1       771 8.26500E+01 3.70100E+01 0.00000E+00
 -1       772 8.56500E+01 3.70100E+01 0.00000E+00
 -1       773 8.86500E+01 3.70100E+01 0.00000E+00
 -1       774 9.16500E+01 3.70100E+01 0.00000E+00
 -1       775 9.46500E+01 3.70100E+01 0.00000E+00
 -1       776 9.76500E+01 3.70100E+01 0.00000E+00
 -1       777 1.00650E+02 3.70100E+01 0.00000E+00
 -1       778 1.03650E+02 3.70100E+01 0.00000E+00
 -1       779 1.06650E+02 3.70100E+01 0.00000E+00
 -1       780 1.09650E+02 3.70100E+01 0.00000E+00
 -1       781 1.12650E+02 3.70100E+01 0.00000E+00
 -1       782 1.15650E+02 3.70100E+01 0.00000E+00
 -1       783 1.37296E+02 3.76390E+01 0.00000E+00
 -1       784 3.40350E+01 1.18003E+01 0.00000E+00
 -1       785 3.10350E+01 1.18003E+01 0.00000E+00
 -1       786 4.00350E+01 1.18003E+01 0.00000E+00
 -1       787 4.30350E+01 1.18003E+01 0.00000E+00
 -1       788 4.60350E+01 1.18003E+01 0.00000E+00
 -1       789 4.90350E+01 1.18003E+01 0.00000E+00
 -1       790 5.20350E+01 1.18003E+01 0.00000E+00
 -1       791 5.50350E+01 1.18003E+01 0.00000E+00
 -1       792 5.80350E+01 1.18003E+01 0.00000E+00
 -1       793 6.10350E+01 1.18003E+01 0.00000E+00
 -1       794 6.40350E+01 1.18003E+01 0.00000E+00
 -1       795 6.70350E+01 1.18003E+01 0.00000E+00
 -1       796 7.00350E+01 1.18003E+01 0.00000E+00
 -1       797 7.30350E+01 1.18003E+01 0.00000E+00
 -1       798 7.60350E+01 1.18003E+01 0.00000E+00
 -1       799 7.90350E+01 1.18003E+01 0.00000E+00
 -1       800 8.20350E+01 1.18003E+01 0.00000E+00
 -1       801 8.50350E+01 1.18003E+01 0.00000E+00
 -1       802 8.80350E+01 1.18003E+01 0.00000E+00
 -1       803 9.10350E+01 1.18003E+01 0.00000E+00
 -1       804 9.40350E+01 1.18003E+01 0.00000E+00
 -1       805 9.70350E+01 1.18003E+01 0.00000E+00
 -1       806 1.00035E+02 1.18003E+01 0.00000E+00
 -1       807 1.03035E+02 1.18003E+01 0.00000E+00
 -1       808 1.06035E+02 1.18003E+01 0.00000E+00
 -1       809 1.09035E+02 1.18003E+01 0.00000E+00
 -1       810 1.12035E+02 1.18003E+01 0.00000E+00
 -1       811 1.15035E+02 1.18003E+01 0.00000E+00
 -1       812 1.18035E+02 1.18003E+01 0.00000E+00
 -1       813 1.36035E+02 1.18003E+01 0.00000E+00
 -1       814 1.37953E+02 1.22569E+01 0.00000E+00
 -1       815 1.11966E+02 2.55785E+01 0.00000E+00
 -1       816 1.15633E+02 1.67290E+01 0.00000E+00
 -1       817 1.13794E+02 3.21981E+01 0.00000E+00
 -1       818 1.90350E+01 1.18003E+01 0.00000E+00
 -1       819 3.70350E+01 1.18003E+01 0.00000E+00
 -1       820 2.20350E+01 1.18003E+01 0.00000E+00
 -1       821 1.66500E+01 3.70100E+01 0.00000E+00
 -1       822 1.28942E+02 1.18083E+01 0.00000E+00
 -1       823 1.12614E+02 2.86703E+01 0.00000E+00
 -1       824 1.17124E+02 1.49420E+01 0.00000E+00
 -1       825 1.37625E+01 1.12011E+01 0.00000E+00
 -1       826 1.29900E+01 2.20250E+01 0.00000E+00
 -1       827 1.29900E+01 2.49750E+01 0.00000E+00
 -1       828 1.29900E+01 1.61375E+01 0.00000E+00
 -1       829 1.33447E+02 1.12473E+01 0.00000E+00
 -1       830 1.29900E+01 3.37938E+01 0.00000E+00
 -1       831 2.50350E+01 1.18003E+01 0.00000E+00
 -1       832 2.80350E+01 1.18003E+01 0.00000E+00
 -1       833 1.13865E+02 1.76811E+01 0.00000E+00
 -1       834 1.63988E+01 1.15007E+01 0.00000E+00
 -1       835 1.12867E+02 2.11338E+01 0.00000E+00
 -1       836 1.29900E+01 3.08563E+01 0.00000E+00
 -1       837 1.29900E+01 1.90812E+01 0.00000E+00
 -1       838 1.17579E+02 1.33711E+01 0.00000E+00
 -1       839 2.11500E+01 3.44120E+01 0.00000E+00
 -1       840 1.14675E+02 1.44146E+01 0.00000E+00
 -1       841 1.81500E+01 3.44120E+01 0.00000E+00
 -1       842 2.41500E+01 3.44120E+01 0.00000E+00
 -1       843 2.71500E+01 3.44120E+01 0.00000E+00
 -1       844 3.01500E+01 3.44120E+01 0.00000E+00
 -1       845 3.31500E+01 3.44120E+01 0.00000E+00
 -1       846 3.61500E+01 3.44120E+01 0.00000E+00
 -1       847 3.91500E+01 3.44120E+01 0.00000E+00
 -1       848 4.21500E+01 3.44120E+01 0.00000E+00
 -1       849 4.51500E+01 3.44120E+01 0.00000E+00
 -1       850 4.81500E+01 3.44120E+01 0.00000E+00
 -1       851 5.11500E+01 3.44120E+01 0.00000E+00
 -1       852 5.41500E+01 3.44120E+01 0.00000E+00
 -1       853 5.71500E+01 3.44120E+01 0.00000E+00
 -1       854 6.01500E+01 3.44120E+01 0.00000E+00
 -1       855 6.31500E+01 3.44120E+01 0.00000E+00
 -1       856 6.61500E+01 3.44120E+01 0.00000E+00
 -1       857 6.91500E+01 3.44120E+01 0.00000E+00
 -1       858 7.21500E+01 3.44120E+01 0.00000E+00
 -1       859 7.51500E+01 3.44120E+01 0.00000E+00
 -1       860 7.81500E+01 3.44120E+01 0.00000E+00
 -1       861 8.11500E+01 3.44120E+01 0.00000E+00
 -1       862 8.41500E+01 3.44120E+01 0.00000E+00
 -1       863 8.71500E+01 3.44120E+01 0.00000E+00
 -1       864 9.01500E+01 3.44120E+01 0.00000E+00
 -1       865 9.31500E+01 3.44120E+01 0.00000E+00
 -1       866 9.61500E+01 3.44120E+01 0.00000E+00
 -1       867 9.91500E+01 3.44120E+01 0.00000E+00
 -1       868 1.02150E+02 3.44120E+01 0.00000E+00
 -1       869 1.05150E+02 3.44120E+01 0.00000E+00
 -1       870 1.08150E+02 3.44120E+01 0.00000E+00
 -1       871 1.11150E+02 3.44120E+01 0.00000E+00
 -1       872 1.13532E+02 3.41979E+01 0.00000E+00
 -1       873 4.75350E+01 1.43982E+01 0.00000E+00
 -1       874 4.45350E+01 1.43982E+01 0.00000E+00
 -1       875 4.15350E+01 1.43982E+01 0.00000E+00
 -1       876 5.05350E+01 1.43982E+01 0.00000E+00
 -1       877 5.35350E+01 1.43982E+01 0.00000E+00
 -1       878 5.65350E+01 1.43982E+01 0.00000E+00
 -1       879 5.95350E+01 1.43982E+01 0.00000E+00
 -1       880 6.25350E+01 1.43982E+01 0.00000E+00
 -1       881 6.55350E+01 1.43982E+01 0.00000E+00
 -1       882 6.85350E+01 1.43982E+01 0.00000E+00
 -1       883 7.15350E+01 1.43982E+01 0.00000E+00
 -1       884 7.45350E+01 1.43982E+01 0.00000E+00
 -1       885 7.75350E+01 1.43982E+01 0.00000E+00
 -1       886 8.05350E+01 1.43982E+01 0.00000E+00
 -1       887 8.35350E+01 1.43982E+01 0.00000E+00
 -1       888 8.65350E+01 1.43982E+01 0.00000E+00
 -1       889 8.95350E+01 1.43982E+01 0.00000E+00
 -1       890 9.25350E+01 1.43982E+01 0.00000E+00
 -1       891 9.55350E+01 1.43982E+01 0.00000E+00
 -1       892 9.85350E+01 1.43982E+01 0.00000E+00
 -1       893 1.01535E+02 1.43982E+01 0.00000E+00
 -1       894 1.04535E+02 1.43982E+01 0.00000E+00
 -1       895 1.07535E+02 1.43982E+01 0.00000E+00
 -1       896 1.10535E+02 1.43982E+01 0.00000E+00
 -1       897 2.05350E+01 1.43982E+01 0.00000E+00
 -1       898 1.29900E+01 2.79188E+01 0.00000E+00
 -1       899 3.25350E+01 1.43982E+01 0.00000E+00
 -1       900 1.10740E+02 3.12584E+01 0.00000E+00
 -1       901 1.10972E+02 2.30594E+01 0.00000E+00
 -1       902 1.55700E+01 3.41029E+01 0.00000E+00
 -1       903 1.09955E+02 2.76134E+01 0.00000E+00
 -1       904 1.55880E+01 1.46687E+01 0.00000E+00
 -1       905 2.35350E+01 1.43982E+01 0.00000E+00
 -1       906 2.95350E+01 1.43982E+01 0.00000E+00
 -1       907 1.55700E+01 3.11654E+01 0.00000E+00
 -1       908 1.11809E+02 1.88699E+01 0.00000E+00
 -1       909 1.59934E+01 1.30847E+01 0.00000E+00
 -1       910 3.55350E+01 1.43982E+01 0.00000E+00
 -1       911 1.08961E+02 2.50943E+01 0.00000E+00
 -1       912 1.82642E+01 1.37415E+01 0.00000E+00
 -1       913 1.55880E+01 2.35000E+01 0.00000E+00
 -1       914 3.85350E+01 1.43982E+01 0.00000E+00
 -1       915 1.55880E+01 2.05562E+01 0.00000E+00
 -1       916 4.90350E+01 1.69963E+01 0.00000E+00
 -1       917 1.96500E+01 3.18140E+01 0.00000E+00
 -1       918 2.26500E+01 3.18140E+01 0.00000E+00
 -1       919 2.56500E+01 3.18140E+01 0.00000E+00
 -1       920 2.86500E+01 3.18140E+01 0.00000E+00
 -1       921 3.16500E+01 3.18140E+01 0.00000E+00
 -1       922 3.46500E+01 3.18140E+01 0.00000E+00
 -1       923 3.76500E+01 3.18140E+01 0.00000E+00
 -1       924 4.06500E+01 3.18140E+01 0.00000E+00
 -1       925 4.36500E+01 3.18140E+01 0.00000E+00
 -1       926 4.66500E+01 3.18140E+01 0.00000E+00
 -1       927 4.96500E+01 3.18140E+01 0.00000E+00
 -1       928 5.26500E+01 3.18140E+01 0.00000E+00
 -1       929 5.56500E+01 3.18140E+01 0.00000E+00
 -1       930 5.86500E+01 3.18140E+01 0.00000E+00
 -1       931 6.16500E+01 3.18140E+01 0.00000E+00
 -1       932 6.46500E+01 3.18140E+01 0.00000E+00
 -1       933 6.76500E+01 3.18140E+01 0.00000E+00
 -1       934 7.06500E+01 3.18140E+01 0.00000E+00
 -1       935 7.36500E+01 3.18140E+01 0.00000E+00
 -1       936 7.66500E+01 3.18140E+01 0.00000E+00
 -1       937 7.96500E+01 3.18140E+01 0.00000E+00
 -1       938 8.26500E+01 3.18140E+01 0.00000E+00
 -1       939 8.56500E+01 3.18140E+01 0.00000E+00
 -1       940 8.86500E+01 3.18140E+01 0.00000E+00
 -1       941 9.16500E+01 3.18140E+01 0.00000E+00
 -1       942 9.46500E+01 3.18140E+01 0.00000E+00
 -1       943 9.76500E+01 3.18140E+01 0.00000E+00
 -1       944 1.00650E+02 3.18140E+01 0.00000E+00
 -1       945 1.03650E+02 3.18140E+01 0.00000E+00
 -1       946 1.06650E+02 3.18140E+01 0.00000E+00
 -1       947 2.65350E+01 1.43982E+01 0.00000E+00
 -1       948 4.60350E+01 1.69963E+01 0.00000E+00
 -1       949 1.55880E+01 1.76125E+01 0.00000E+00
 -1       950 4.30350E+01 1.69963E+01 0.00000E+00
 -1       951 5.50350E+01 1.69963E+01 0.00000E+00
 -1       952 5.80350E+01 1.69963E+01 0.00000E+00
 -1       953 6.10350E+01 1.69963E+01 0.00000E+00
 -1       954 6.40350E+01 1.69963E+01 0.00000E+00
 -1       955 6.70350E+01 1.69963E+01 0.00000E+00
 -1       956 7.00350E+01 1.69963E+01 0.00000E+00
 -1       957 7.30350E+01 1.69963E+01 0.00000E+00
 -1       958 7.60350E+01 1.69963E+01 0.00000E+00
 -1       959 7.90350E+01 1.69963E+01 0.00000E+00
 -1       960 8.20350E+01 1.69963E+01 0.00000E+00
 -1       961 8.50350E+01 1.69963E+01 0.00000E+00
 -1       962 8.80350E+01 1.69963E+01 0.00000E+00
 -1       963 9.10350E+01 1.69963E+01 0.00000E+00
 -1       964 9.40350E+01 1.69963E+01 0.00000E+00
 -1       965 9.70350E+01 1.69963E+01 0.00000E+00
 -1       966 1.00035E+02 1.69963E+01 0.00000E+00
 -1       967 1.03035E+02 1.69963E+01 0.00000E+00
 -1       968 1.06035E+02 1.69963E+01 0.00000E+00
 -1       969 1.09035E+02 1.69963E+01 0.00000E+00
 -1       970 1.55880E+01 2.64438E+01 0.00000E+00
 -1       971 1.55790E+01 2.88046E+01 0.00000E+00
 -1       972 1.09914E+02 2.07954E+01 0.00000E+00
 -1       973 5.20350E+01 1.69963E+01 0.00000E+00
 -1       974 1.08016E+02 2.99381E+01 0.00000E+00
 -1       975 1.76100E+01 3.14897E+01 0.00000E+00
 -1       976 2.20350E+01 1.69963E+01 0.00000E+00
 -1       977 3.10350E+01 1.69963E+01 0.00000E+00
 -1       978 1.07021E+02 2.74189E+01 0.00000E+00
 -1       979 1.90351E+01 1.69963E+01 0.00000E+00
 -1       980 1.81860E+01 2.49719E+01 0.00000E+00
 -1       981 4.00350E+01 1.69963E+01 0.00000E+00
 -1       982 3.40350E+01 1.69963E+01 0.00000E+00
 -1       983 1.07903E+02 2.28304E+01 0.00000E+00
 -1       984 1.81860E+01 2.20281E+01 0.00000E+00
 -1       985 2.50350E+01 1.69963E+01 0.00000E+00
 -1       986 2.80350E+01 1.69963E+01 0.00000E+00
 -1       987 2.41500E+01 2.92160E+01 0.00000E+00
 -1       988 2.71500E+01 2.92160E+01 0.00000E+00
 -1       989 3.01500E+01 2.92160E+01 0.00000E+00
 -1       990 3.31500E+01 2.92160E+01 0.00000E+00
 -1       991 3.61500E+01 2.92160E+01 0.00000E+00
 -1       992 3.91500E+01 2.92160E+01 0.00000E+00
 -1       993 4.21500E+01 2.92160E+01 0.00000E+00
 -1       994 4.51500E+01 2.92160E+01 0.00000E+00
 -1       995 4.81500E+01 2.92160E+01 0.00000E+00
 -1       996 5.11500E+01 2.92160E+01 0.00000E+00
 -1       997 5.41500E+01 2.92160E+01 0.00000E+00
 -1       998 5.71500E+01 2.92160E+01 0.00000E+00
 -1       999 6.01500E+01 2.92160E+01 0.00000E+00
 -1      1000 6.31500E+01 2.92160E+01 0.00000E+00
 -1      1001 6.61500E+01 2.92160E+01 0.00000E+00
 -1      1002 6.91500E+01 2.92160E+01 0.00000E+00
 -1      1003 7.21500E+01 2.92160E+01 0.00000E+00
 -1      1004 7.51500E+01 2.92160E+01 0.00000E+00
 -1      1005 7.81500E+01 2.92160E+01 0.00000E+00
 -1      1006 8.11500E+01 2.92160E+01 0.00000E+00
 -1      1007 8.41500E+01 2.92160E+01 0.00000E+00
 -1      1008 8.71500E+01 2.92160E+01 0.00000E+00
 -1      1009 9.01500E+01 2.92160E+01 0.00000E+00
 -1      1010 9.31500E+01 2.92160E+01 0.00000E+00
 -1      1011 9.61500E+01 2.92160E+01 0.00000E+00
 -1      1012 9.91500E+01 2.92160E+01 0.00000E+00
 -1      1013 1.02150E+02 2.92160E+01 0.00000E+00
 -1      1014 4.75350E+01 1.95942E+01 0.00000E+00
 -1      1015 4.45350E+01 1.95942E+01 0.00000E+00
 -1      1016 2.05351E+01 1.95943E+01 0.00000E+00
 -1      1017 5.95350E+01 1.95942E+01 0.00000E+00
 -1      1018 5.65350E+01 1.95942E+01 0.00000E+00
 -1      1019 6.55350E+01 1.95942E+01 0.00000E+00
 -1      1020 6.85350E+01 1.95942E+01 0.00000E+00
 -1      1021 7.15350E+01 1.95942E+01 0.00000E+00
 -1      1022 7.45350E+01 1.95942E+01 0.00000E+00
 -1      1023 7.75350E+01 1.95942E+01 0.00000E+00
 -1      1024 8.05350E+01 1.95942E+01 0.00000E+00
 -1      1025 8.35350E+01 1.95942E+01 0.00000E+00
 -1      1026 8.65350E+01 1.95942E+01 0.00000E+00
 -1      1027 8.95350E+01 1.95942E+01 0.00000E+00
 -1      1028 9.25350E+01 1.95942E+01 0.00000E+00
 -1      1029 9.55350E+01 1.95942E+01 0.00000E+00
 -1      1030 9.85350E+01 1.95942E+01 0.00000E+00
 -1      1031 1.01535E+02 1.95942E+01 0.00000E+00
 -1      1032 1.04535E+02 1.95942E+01 0.00000E+00
 -1      1033 1.81770E+01 2.73327E+01 0.00000E+00
 -1      1034 5.05350E+01 1.95942E+01 0.00000E+00
 -1      1035 6.25350E+01 1.95942E+01 0.00000E+00
 -1      1036 2.11500E+01 2.92160E+01 0.00000E+00
 -1      1037 3.70350E+01 1.69963E+01 0.00000E+00
 -1      1038 5.35350E+01 1.95942E+01 0.00000E+00
 -1      1039 1.05336E+02 2.96165E+01 0.00000E+00
 -1      1040 2.95350E+01 1.95942E+01 0.00000E+00
 -1      1041 3.25350E+01 1.95942E+01 0.00000E+00
 -1      1042 1.07060E+02 1.99868E+01 0.00000E+00
 -1      1043 1.78935E+01 2.94112E+01 0.00000E+00
 -1      1044 4.15350E+01 1.95942E+01 0.00000E+00
 -1      1045 2.35351E+01 1.95943E+01 0.00000E+00
 -1      1046 1.05963E+02 2.51550E+01 0.00000E+00
 -1      1047 2.07795E+01 2.61622E+01 0.00000E+00
 -1      1048 2.07795E+01 2.32184E+01 0.00000E+00
 -1      1049 1.81860E+01 1.90844E+01 0.00000E+00
 -1      1050 1.05249E+02 2.23746E+01 0.00000E+00
 -1      1051 2.86500E+01 2.66180E+01 0.00000E+00
 -1      1052 3.16500E+01 2.66180E+01 0.00000E+00
 -1      1053 3.46500E+01 2.66180E+01 0.00000E+00
 -1      1054 3.76500E+01 2.66180E+01 0.00000E+00
 -1      1055 4.06500E+01 2.66180E+01 0.00000E+00
 -1      1056 4.36500E+01 2.66180E+01 0.00000E+00
 -1      1057 4.66500E+01 2.66180E+01 0.00000E+00
 -1      1058 4.96500E+01 2.66180E+01 0.00000E+00
 -1      1059 5.26500E+01 2.66180E+01 0.00000E+00
 -1      1060 5.56500E+01 2.66180E+01 0.00000E+00
 -1      1061 5.86500E+01 2.66180E+01 0.00000E+00
 -1      1062 6.16500E+01 2.66180E+01 0.00000E+00
 -1      1063 6.46500E+01 2.66180E+01 0.00000E+00
 -1      1064 6.76500E+01 2.66180E+01 0.00000E+00
 -1      1065 7.06500E+01 2.66180E+01 0.00000E+00
 -1      1066 7.36500E+01 2.66180E+01 0.00000E+00
 -1      1067 7.66500E+01 2.66180E+01 0.00000E+00
 -1      1068 7.96500E+01 2.66180E+01 0.00000E+00
 -1      1069 8.26500E+01 2.66180E+01 0.00000E+00
 -1      1070 8.56500E+01 2.66180E+01 0.00000E+00
 -1      1071 8.86500E+01 2.66180E+01 0.00000E+00
 -1      1072 9.16500E+01 2.66180E+01 0.00000E+00
 -1      1073 9.46500E+01 2.66180E+01 0.00000E+00
 -1      1074 9.76500E+01 2.66180E+01 0.00000E+00
 -1      1075 1.00650E+02 2.66180E+01 0.00000E+00
 -1      1076 2.65350E+01 1.95943E+01 0.00000E+00
 -1      1077 2.26500E+01 2.66180E+01 0.00000E+00
 -1      1078 1.04057E+02 2.71855E+01 0.00000E+00
 -1      1079 7.00350E+01 2.21922E+01 0.00000E+00
 -1      1080 6.70350E+01 2.21922E+01 0.00000E+00
 -1      1081 7.60350E+01 2.21922E+01 0.00000E+00
 -1      1082 7.90350E+01 2.21922E+01 0.00000E+00
 -1      1083 8.20350E+01 2.21922E+01 0.00000E+00
 -1      1084 8.50350E+01 2.21922E+01 0.00000E+00
 -1      1085 8.80350E+01 2.21922E+01 0.00000E+00
 -1      1086 9.10350E+01 2.21922E+01 0.00000E+00
 -1      1087 9.40350E+01 2.21922E+01 0.00000E+00
 -1      1088 9.70350E+01 2.21922E+01 0.00000E+00
 -1      1089 1.00035E+02 2.21922E+01 0.00000E+00
 -1      1090 1.02642E+02 2.22834E+01 0.00000E+00
 -1      1091 2.56500E+01 2.66180E+01 0.00000E+00
 -1      1092 7.30350E+01 2.21922E+01 0.00000E+00
 -1      1093 5.80350E+01 2.21922E+01 0.00000E+00
 -1      1094 4.90350E+01 2.21922E+01 0.00000E+00
 -1      1095 4.60350E+01 2.21922E+01 0.00000E+00
 -1      1096 3.10350E+01 2.21922E+01 0.00000E+00
 -1      1097 3.55350E+01 1.95942E+01 0.00000E+00
 -1      1098 2.80350E+01 2.21923E+01 0.00000E+00
 -1      1099 4.30350E+01 2.21922E+01 0.00000E+00
 -1      1100 6.10350E+01 2.21922E+01 0.00000E+00
 -1      1101 5.20350E+01 2.21922E+01 0.00000E+00
 -1      1102 6.40350E+01 2.21922E+01 0.00000E+00
 -1      1103 3.85350E+01 1.95942E+01 0.00000E+00
 -1      1104 5.50350E+01 2.21922E+01 0.00000E+00
 -1      1105 2.26500E+01 2.36742E+01 0.00000E+00
 -1      1106 2.50351E+01 2.21923E+01 0.00000E+00
 -1      1107 3.61500E+01 2.40200E+01 0.00000E+00
 -1      1108 3.91500E+01 2.40200E+01 0.00000E+00
 -1      1109 1.03349E+02 2.47345E+01 0.00000E+00
 -1      1110 3.40350E+01 2.21922E+01 0.00000E+00
 -1      1111 0.00000E+00 4.85250E+01 0.00000E+00
 -1      1112 0.00000E+00 4.55750E+01 0.00000E+00
 -1      1113 0.00000E+00 4.26250E+01 0.00000E+00
 -1      1114 0.00000E+00 3.96750E+01 0.00000E+00
 -1      1115 0.00000E+00 3.67250E+01 0.00000E+00
 -1      1116 0.00000E+00 3.38000E+01 0.00000E+00
 -1      1117 0.00000E+00 3.08750E+01 0.00000E+00
 -1      1118 0.00000E+00 2.79250E+01 0.00000E+00
 -1      1119 0.00000E+00 2.49750E+01 0.00000E+00
 -1      1120 0.00000E+00 2.20250E+01 0.00000E+00
 -1      1121 0.00000E+00 1.90750E+01 0.00000E+00
 -1      1122 0.00000E+00 1.61500E+01 0.00000E+00
 -1      1123 0.00000E+00 1.32250E+01 0.00000E+00
 -1      1124 0.00000E+00 1.02750E+01 0.00000E+00
 -1      1125 0.00000E+00 7.32500E+00 0.00000E+00
 -1      1126 0.00000E+00 4.37500E+00 0.00000E+00
 -1      1127 0.00000E+00 1.45000E+00 0.00000E+00
 -1      1128 1.57500E+00 5.00000E+01 0.00000E+00
 -1      1129 4.65000E+00 5.00000E+01 0.00000E+00
 -1      1130 7.65000E+00 5.00000E+01 0.00000E+00
 -1      1131 1.06500E+01 5.00000E+01 0.00000E+00
 -1      1132 1.36500E+01 5.00000E+01 0.00000E+00
 -1      1133 1.66500E+01 5.00000E+01 0.00000E+00
 -1      1134 1.96500E+01 5.00000E+01 0.00000E+00
 -1      1135 2.26500E+01 5.00000E+01 0.00000E+00
 -1      1136 2.56500E+01 5.00000E+01 0.00000E+00
 -1      1137 2.86500E+01 5.00000E+01 0.00000E+00
 -1      1138 3.16500E+01 5.00000E+01 0.00000E+00
 -1      1139 3.46500E+01 5.00000E+01 0.00000E+00
 -1      1140 3.76500E+01 5.00000E+01 0.00000E+00
 -1      1141 4.06500E+01 5.00000E+01 0.00000E+00
 -1      1142 4.36500E+01 5.00000E+01 0.00000E+00
 -1      1143 4.66500E+01 5.00000E+01 0.00000E+00
 -1      1144 4.96500E+01 5.00000E+01 0.00000E+00
 -1      1145 5.26500E+01 5.00000E+01 0.00000E+00
 -1      1146 5.56500E+01 5.00000E+01 0.00000E+00
 -1      1147 5.86500E+01 5.00000E+01 0.00000E+00
 -1      1148 6.16500E+01 5.00000E+01 0.00000E+00
 -1      1149 6.46500E+01 5.00000E+01 0.00000E+00
 -1      1150 6.76500E+01 5.00000E+01 0.00000E+00
 -1      1151 7.06500E+01 5.00000E+01 0.00000E+00
 -1      1152 7.36500E+01 5.00000E+01 0.00000E+00
 -1      1153 7.66500E+01 5.00000E+01 0.00000E+00
 -1      1154 7.96500E+01 5.00000E+01 0.00000E+00
 -1      1155 8.26500E+01 5.00000E+01 0.00000E+00
 -1      1156 8.56500E+01 5.00000E+01 0.00000E+00
 -1      1157 8.86500E+01 5.00000E+01 0.00000E+00
 -1      1158 9.16500E+01 5.00000E+01 0.00000E+00
 -1      1159 9.46500E+01 5.00000E+01 0.00000E+00
 -1      1160 9.76500E+01 5.00000E+01 0.00000E+00
 -1      1161 1.00650E+02 5.00000E+01 0.00000E+00
 -1      1162 1.03650E+02 5.00000E+01 0.00000E+00
 -1      1163 1.06650E+02 5.00000E+01 0.00000E+00
 -1      1164 1.09650E+02 5.00000E+01 0.00000E+00
 -1      1165 1.12650E+02 5.00000E+01 0.00000E+00
 -1      1166 1.15650E+02 5.00000E+01 0.00000E+00
 -1      1167 1.18650E+02 5.00000E+01 0.00000E+00
 -1      1168 1.21650E+02 5.00000E+01 0.00000E+00
 -1      1169 1.24650E+02 5.00000E+01 0.00000E+00
 -1      1170 1.27650E+02 5.00000E+01 0.00000E+00
 -1      1171 1.30650E+02 5.00000E+01 0.00000E+00
 -1      1172 1.33650E+02 5.00000E+01 0.00000E+00
 -1      1173 1.36650E+02 5.00000E+01 0.00000E+00
 -1      1174 1.39650E+02 5.00000E+01 0.00000E+00
 -1      1175 1.42650E+02 5.00000E+01 0.00000E+00
 -1      1176 1.45650E+02 5.00000E+01 0.00000E+00
 -1      1177 1.48575E+02 5.00000E+01 0.00000E+00
 -1      1178 1.57500E+00 0.00000E+00 0.00000E+00
 -1      1179 4.65000E+00 0.00000E+00 0.00000E+00
 -1      1180 7.65000E+00 0.00000E+00 0.00000E+00
 -1      1181 1.06500E+01 0.00000E+00 0.00000E+00
 -1      1182 1.36500E+01 0.00000E+00 0.00000E+00
 -1      1183 1.66500E+01 0.00000E+00 0.00000E+00
 -1      1184 1.96500E+01 0.00000E+00 0.00000E+00
 -1      1185 2.26500E+01 0.00000E+00 0.00000E+00
 -1      1186 2.56500E+01 0.00000E+00 0.00000E+00
 -1      1187 2.86500E+01 0.00000E+00 0.00000E+00
 -1      1188 3.16500E+01 0.00000E+00 0.00000E+00
 -1      1189 3.46500E+01 0.00000E+00 0.00000E+00
 -1      1190 3.76500E+01 0.00000E+00 0.00000E+00
 -1      1191 4.06500E+01 0.00000E+00 0.00000E+00
 -1      1192 4.36500E+01 0.00000E+00 0.00000E+00
 -1      1193 4.66500E+01 0.00000E+00 0.00000E+00
 -1      1194 4.96500E+01 0.00000E+00 0.00000E+00
 -1      1195 5.26500E+01 0.00000E+00 0.00000E+00
 -1      1196 5.56500E+01 0.00000E+00 0.00000E+00
 -1      1197 5.86500E+01 0.00000E+00 0.00000E+00
 -1      1198 6.16500E+01 0.00000E+00 0.00000E+00
 -1      1199 6.46500E+01 0.00000E+00 0.00000E+00
 -1      1200 6.76500E+01 0.00000E+00 0.00000E+00
 -1      1201 7.06500E+01 0.00000E+00 0.00000E+00
 -1      1202 7.36500E+01 0.00000E+00 0.00000E+00
 -1      1203 7.66500E+01 0.00000E+00 0.00000E+00
 -1      1204 7.96500E+01 0.00000E+00 0.00000E+00
 -1      1205 8.26500E+01 0.00000E+00 0.00000E+00
 -1      1206 8.56500E+01 0.00000E+00 0.00000E+00
 -1      1207 8.86500E+01 0.00000E+00 0.00000E+00
 -1      1208 9.16500E+01 0.00000E+00 0.00000E+00
 -1      1209 9.46500E+01 0.00000E+00 0.00000E+00
 -1      1210 9.76500E+01 0.00000E+00 0.00000E+00
 -1      1211 1.00650E+02 0.00000E+00 0.00000E+00
 -1      1212 1.03650E+02 0.00000E+00 0.00000E+00
 -1      1213 1.06650E+02 0.00000E+00 0.00000E+00
 -1      1214 1.09650E+02 0.00000E+00 0.00000E+00
 -1      1215 1.12650E+02 0.00000E+00 0.00000E+00
 -1      1216 1.15650E+02 0.00000E+00 0.00000E+00
 -1      1217 1.18650E+02 0.00000E+00 0.00000E+00
 -1      1218 1.21650E+02 0.00000E+00 0.00000E+00
 -1      1219 1.24650E+02 0.00000E+00 0.00000E+00
 -1      1220 1.27650E+02 0.00000E+00 0.00000E+00
 -1      1221 1.30650E+02 0.00000E+00 0.00000E+00
 -1      1222 1.33650E+02 0.00000E+00 0.00000E+00
 -1      1223 1.36650E+02 0.00000E+00 0.00000E+00
 -1      1224 1.39650E+02 0.00000E+00 0.00000E+00
 -1      1225 1.42650E+02 0.00000E+00 0.00000E+00
 -1      1226 1.45650E+02 0.00000E+00 0.00000E+00
 -1      1227 1.48575E+02 0.00000E+00 0.00000E+00
 -1      1228 1.50000E+02 1.47500E+00 0.00000E+00
 -1      1229 1.50000E+02 4.42500E+00 0.00000E+00
 -1      1230 1.50000E+02 7.37500E+00 0.00000E+00
 -1      1231 1.50000E+02 1.03250E+01 0.00000E+00
 -1      1232 1.50000E+02 1.32750E+01 0.00000E+00
 -1      1233 1.50000E+02 1.62250E+01 0.00000E+00
 -1      1234 1.50000E+02 1.91750E+01 0.00000E+00
 -1      1235 1.50000E+02 2.21000E+01 0.00000E+00
 -1      1236 1.50000E+02 2.50250E+01 0.00000E+00
 -1      1237 1.50000E+02 2.79500E+01 0.00000E+00
 -1      1238 1.50000E+02 3.08750E+01 0.00000E+00
 -1      1239 1.50000E+02 3.38250E+01 0.00000E+00
 -1      1240 1.50000E+02 3.67750E+01 0.00000E+00
 -1      1241 1.50000E+02 3.97250E+01 0.00000E+00
 -1      1242 1.50000E+02 4.26750E+01 0.00000E+00
 -1      1243 1.50000E+02 4.56250E+01 0.00000E+00
 -1      1244 1.50000E+02 4.85500E+01 0.00000E+00
 -1      1245 1.34532E+02 2.47664E+01 0.00000E+00
 -1      1246 1.34192E+02 2.32743E+01 0.00000E+00
 -1      1247 1.33541E+02 2.19010E+01 0.00000E+00
 -1      1248 1.32580E+02 2.06704E+01 0.00000E+00
 -1      1249 1.31375E+02 1.96867E+01 0.00000E+00
 -1      1250 1.30011E+02 1.90039E+01 0.00000E+00
 -1      1251 1.28523E+02 1.86314E+01 0.00000E+00
 -1      1252 1.26950E+02 1.85956E+01 0.00000E+00
 -1      1253 1.25450E+02 1.88986E+01 0.00000E+00
 -1      1254 1.24078E+02 1.95052E+01 0.00000E+00
 -1      1255 1.22894E+02 2.03654E+01 0.00000E+00
 -1      1256 1.21938E+02 2.14209E+01 0.00000E+00
 -1      1257 1.21193E+02 2.26978E+01 0.00000E+00
 -1      1258 1.20729E+02 2.41217E+01 0.00000E+00
 -1      1259 1.20578E+02 2.55919E+01 0.00000E+00
 -1      1260 1.20739E+02 2.70615E+01 0.00000E+00
 -1      1261 1.21232E+02 2.85208E+01 0.00000E+00
 -1      1262 1.22048E+02 2.98589E+01 0.00000E+00
 -1      1263 1.23109E+02 3.09555E+01 0.00000E+00
 -1      1264 1.24393E+02 3.18006E+01 0.00000E+00
 -1      1265 1.25819E+02 3.23428E+01 0.00000E+00
 -1      1266 1.27280E+02 3.25610E+01 0.00000E+00
 -1      1267 1.28775E+02 3.24642E+01 0.00000E+00
 -1      1268 1.30241E+02 3.20409E+01 0.00000E+00
 -1      1269 1.31606E+02 3.12924E+01 0.00000E+00
 -1      1270 1.32769E+02 3.02637E+01 0.00000E+00
 -1      1271 1.33652E+02 2.90464E+01 0.00000E+00
 -1      1272 1.34245E+02 2.77008E+01 0.00000E+00
 -1      1273 1.34540E+02 2.62943E+01 0.00000E+00
 -1      1274 1.57500E+00 4.85250E+01 0.00000E+00
 -1      1275 1.29900E+00 4.48375E+01 0.00000E+00
 -1      1276 1.29900E+00 4.63125E+01 0.00000E+00
 -1      1277 1.29900E+00 4.18875E+01 0.00000E+00
 -1      1278 1.29900E+00 4.33625E+01 0.00000E+00
 -1      1279 2.59800E+00 4.41000E+01 0.00000E+00
 -1      1280 1.29900E+00 3.89375E+01 0.00000E+00
 -1      1281 1.29900E+00 4.04125E+01 0.00000E+00
 -1      1282 2.59800E+00 4.11500E+01 0.00000E+00
 -1      1283 1.29900E+00 3.59875E+01 0.00000E+00
 -1      1284 1.29900E+00 3.74625E+01 0.00000E+00
 -1      1285 2.59800E+00 3.82000E+01 0.00000E+00
 -1      1286 1.29900E+00 3.30875E+01 0.00000E+00
 -1      1287 1.29900E+00 3.45375E+01 0.00000E+00
 -1      1288 2.59800E+00 3.52750E+01 0.00000E+00
 -1      1289 1.29900E+00 3.01375E+01 0.00000E+00
 -1      1290 1.29900E+00 3.16125E+01 0.00000E+00
 -1      1291 2.59800E+00 3.23500E+01 0.00000E+00
 -1      1292 1.29900E+00 2.71875E+01 0.00000E+00
 -1      1293 1.29900E+00 2.86625E+01 0.00000E+00
 -1      1294 2.59800E+00 2.94000E+01 0.00000E+00
 -1      1295 1.29900E+00 2.42375E+01 0.00000E+00
 -1      1296 1.29900E+00 2.57125E+01 0.00000E+00
 -1      1297 2.59800E+00 2.64500E+01 0.00000E+00
 -1      1298 1.29900E+00 2.12875E+01 0.00000E+00
 -1      1299 1.29900E+00 2.27625E+01 0.00000E+00
 -1      1300 2.59800E+00 2.35000E+01 0.00000E+00
 -1      1301 1.29900E+00 1.83375E+01 0.00000E+00
 -1      1302 1.29900E+00 1.98125E+01 0.00000E+00
 -1      1303 2.59800E+00 2.05500E+01 0.00000E+00
 -1      1304 1.29900E+00 1.54375E+01 0.00000E+00
 -1      1305 1.29900E+00 1.68875E+01 0.00000E+00
 -1      1306 2.59800E+00 1.76250E+01 0.00000E+00
 -1      1307 1.29900E+00 1.24875E+01 0.00000E+00
 -1      1308 1.29900E+00 1.39625E+01 0.00000E+00
 -1      1309 2.59800E+00 1.47000E+01 0.00000E+00
 -1      1310 1.29900E+00 9.53750E+00 0.00000E+00
 -1      1311 1.29900E+00 1.10125E+01 0.00000E+00
 -1      1312 2.59800E+00 1.17500E+01 0.00000E+00
 -1      1313 1.29900E+00 6.58750E+00 0.00000E+00
 -1      1314 1.29900E+00 8.06250E+00 0.00000E+00
 -1      1315 2.59800E+00 8.80000E+00 0.00000E+00
 -1      1316 1.29900E+00 3.63750E+00 0.00000E+00
 -1      1317 1.29900E+00 5.11250E+00 0.00000E+00
 -1      1318 2.59800E+00 5.85000E+00 0.00000E+00
 -1      1319 1.43700E+00 1.09375E+00 0.00000E+00
 -1      1320 1.43700E+00 2.54375E+00 0.00000E+00
 -1      1321 2.73600E+00 3.28125E+00 0.00000E+00
 -1      1322 3.01200E+00 1.09375E+00 0.00000E+00
 -1      1323 3.90000E+00 4.87010E+01 0.00000E+00
 -1      1324 5.40000E+00 4.87010E+01 0.00000E+00
 -1      1325 6.90000E+00 4.87010E+01 0.00000E+00
 -1      1326 8.40000E+00 4.87010E+01 0.00000E+00
 -1      1327 6.15000E+00 4.74020E+01 0.00000E+00
 -1      1328 9.90000E+00 4.87010E+01 0.00000E+00
 -1      1329 1.14000E+01 4.87010E+01 0.00000E+00
 -1      1330 9.15000E+00 4.74020E+01 0.00000E+00
 -1      1331 1.29000E+01 4.87010E+01 0.00000E+00
 -1      1332 1.44000E+01 4.87010E+01 0.00000E+00
 -1      1333 1.21500E+01 4.74020E+01 0.00000E+00
 -1      1334 1.59000E+01 4.87010E+01 0.00000E+00
 -1      1335 1.74000E+01 4.87010E+01 0.00000E+00
 -1      1336 1.51500E+01 4.74020E+01 0.00000E+00
 -1      1337 1.89000E+01 4.87010E+01 0.00000E+00
 -1      1338 2.04000E+01 4.87010E+01 0.00000E+00
 -1      1339 1.81500E+01 4.74020E+01 0.00000E+00
 -1      1340 2.19000E+01 4.87010E+01 0.00000E+00
 -1      1341 2.34000E+01 4.87010E+01 0.00000E+00
 -1      1342 2.11500E+01 4.74020E+01 0.00000E+00
 -1      1343 2.49000E+01 4.87010E+01 0.00000E+00
 -1      1344 2.64000E+01 4.87010E+01 0.00000E+00
 -1      1345 2.41500E+01 4.74020E+01 0.00000E+00
 -1      1346 2.79000E+01 4.87010E+01 0.00000E+00
 -1      1347 2.94000E+01 4.87010E+01 0.00000E+00
 -1      1348 2.71500E+01 4.74020E+01 0.00000E+00
 -1      1349 3.09000E+01 4.87010E+01 0.00000E+00
 -1      1350 3.24000E+01 4.87010E+01 0.00000E+00
 -1      1351 3.01500E+01 4.74020E+01 0.00000E+00
 -1      1352 3.39000E+01 4.87010E+01 0.00000E+00
 -1      1353 3.54000E+01 4.87010E+01 0.00000E+00
 -1      1354 3.31500E+01 4.74020E+01 0.00000E+00
 -1      1355 3.69000E+01 4.87010E+01 0.00000E+00
 -1      1356 3.84000E+01 4.87010E+01 0.00000E+00
 -1      1357 3.61500E+01 4.74020E+01 0.00000E+00
 -1      1358 3.99000E+01 4.87010E+01 0.00000E+00
 -1      1359 4.14000E+01 4.87010E+01 0.00000E+00
 -1      1360 3.91500E+01 4.74020E+01 0.00000E+00
 -1      1361 4.29000E+01 4.87010E+01 0.00000E+00
 -1      1362 4.44000E+01 4.87010E+01 0.00000E+00
 -1      1363 4.21500E+01 4.74020E+01 0.00000E+00
 -1      1364 4.59000E+01 4.87010E+01 0.00000E+00
 -1      1365 4.74000E+01 4.87010E+01 0.00000E+00
 -1      1366 4.51500E+01 4.74020E+01 0.00000E+00
 -1      1367 4.89000E+01 4.87010E+01 0.00000E+00
 -1      1368 5.04000E+01 4.87010E+01 0.00000E+00
 -1      1369 4.81500E+01 4.74020E+01 0.00000E+00
 -1      1370 5.19000E+01 4.87010E+01 0.00000E+00
 -1      1371 5.34000E+01 4.87010E+01 0.00000E+00
 -1      1372 5.11500E+01 4.74020E+01 0.00000E+00
 -1      1373 5.49000E+01 4.87010E+01 0.00000E+00
 -1      1374 5.64000E+01 4.87010E+01 0.00000E+00
 -1      1375 5.41500E+01 4.74020E+01 0.00000E+00
 -1      1376 5.79000E+01 4.87010E+01 0.00000E+00
 -1      1377 5.94000E+01 4.87010E+01 0.00000E+00
 -1      1378 5.71500E+01 4.74020E+01 0.00000E+00
 -1      1379 6.09000E+01 4.87010E+01 0.00000E+00
 -1      1380 6.24000E+01 4.87010E+01 0.00000E+00
 -1      1381 6.01500E+01 4.74020E+01 0.00000E+00
 -1      1382 6.39000E+01 4.87010E+01 0.00000E+00
 -1      1383 6.54000E+01 4.87010E+01 0.00000E+00
 -1      1384 6.31500E+01 4.74020E+01 0.00000E+00
 -1      1385 6.69000E+01 4.87010E+01 0.00000E+00
 -1      1386 6.84000E+01 4.87010E+01 0.00000E+00
 -1      1387 6.61500E+01 4.74020E+01 0.00000E+00
 -1      1388 6.99000E+01 4.87010E+01 0.00000E+00
 -1      1389 7.14000E+01 4.87010E+01 0.00000E+00
 -1      1390 6.91500E+01 4.74020E+01 0.00000E+00
 -1      1391 7.29000E+01 4.87010E+01 0.00000E+00
 -1      1392 7.44000E+01 4.87010E+01 0.00000E+00
 -1      1393 7.21500E+01 4.74020E+01 0.00000E+00
 -1      1394 7.59000E+01 4.87010E+01 0.00000E+00
 -1      1395 7.74000E+01 4.87010E+01 0.00000E+00
 -1      1396 7.51500E+01 4.74020E+01 0.00000E+00
 -1      1397 7.89000E+01 4.87010E+01 0.00000E+00
 -1      1398 8.04000E+01 4.87010E+01 0.00000E+00
 -1      1399 7.81500E+01 4.74020E+01 0.00000E+00
 -1      1400 8.19000E+01 4.87010E+01 0.00000E+00
 -1      1401 8.34000E+01 4.87010E+01 0.00000E+00
 -1      1402 8.11500E+01 4.74020E+01 0.00000E+00
 -1      1403 8.49000E+01 4.87010E+01 0.00000E+00
 -1      1404 8.64000E+01 4.87010E+01 0.00000E+00
 -1      1405 8.41500E+01 4.74020E+01 0.00000E+00
 -1      1406 8.79000E+01 4.87010E+01 0.00000E+00
 -1      1407 8.94000E+01 4.87010E+01 0.00000E+00
 -1      1408 8.71500E+01 4.74020E+01 0.00000E+00
 -1      1409 9.09000E+01 4.87010E+01 0.00000E+00
 -1      1410 9.24000E+01 4.87010E+01 0.00000E+00
 -1      1411 9.01500E+01 4.74020E+01 0.00000E+00
 -1      1412 9.39000E+01 4.87010E+01 0.00000E+00
 -1      1413 9.54000E+01 4.87010E+01 0.00000E+00
 -1      1414 9.31500E+01 4.74020E+01 0.00000E+00
 -1      1415 9.69000E+01 4.87010E+01 0.00000E+00
 -1      1416 9.84000E+01 4.87010E+01 0.00000E+00
 -1      1417 9.61500E+01 4.74020E+01 0.00000E+00
 -1      1418 9.99000E+01 4.87010E+01 0.00000E+00
 -1      1419 1.01400E+02 4.87010E+01 0.00000E+00
 -1      1420 9.91500E+01 4.74020E+01 0.00000E+00
 -1      1421 1.02900E+02 4.87010E+01 0.00000E+00
 -1      1422 1.04400E+02 4.87010E+01 0.00000E+00
 -1      1423 1.02150E+02 4.74020E+01 0.00000E+00
 -1      1424 1.05900E+02 4.87010E+01 0.00000E+00
 -1      1425 1.07400E+02 4.87010E+01 0.00000E+00
 -1      1426 1.05150E+02 4.74020E+01 0.00000E+00
 -1      1427 1.08900E+02 4.87010E+01 0.00000E+00
 -1      1428 1.10400E+02 4.87010E+01 0.00000E+00
 -1      1429 1.08150E+02 4.74020E+01 0.00000E+00
 -1      1430 1.11900E+02 4.87010E+01 0.00000E+00
 -1      1431 1.13400E+02 4.87010E+01 0.00000E+00
 -1      1432 1.11150E+02 4.74020E+01 0.00000E+00
 -1      1433 1.14900E+02 4.87010E+01 0.00000E+00
 -1      1434 1.16400E+02 4.87010E+01 0.00000E+00
 -1      1435 1.14150E+02 4.74020E+01 0.00000E+00
 -1      1436 1.17900E+02 4.87010E+01 0.00000E+00
 -1      1437 1.19400E+02 4.87010E+01 0.00000E+00
 -1      1438 1.17150E+02 4.74020E+01 0.00000E+00
 -1      1439 1.20900E+02 4.87010E+01 0.00000E+00
 -1      1440 1.22400E+02 4.87010E+01 0.00000E+00
 -1      1441 1.20150E+02 4.74020E+01 0.00000E+00
 -1      1442 1.23900E+02 4.87010E+01 0.00000E+00
 -1      1443 1.25400E+02 4.87010E+01 0.00000E+00
 -1      1444 1.23150E+02 4.74020E+01 0.00000E+00
 -1      1445 1.26900E+02 4.87010E+01 0.00000E+00
 -1      1446 1.28400E+02 4.87010E+01 0.00000E+00
 -1      1447 1.26150E+02 4.74020E+01 0.00000E+00
 -1      1448 1.29900E+02 4.87010E+01 0.00000E+00
 -1      1449 1.31400E+02 4.87010E+01 0.00000E+00
 -1      1450 1.29150E+02 4.74020E+01 0.00000E+00
 -1      1451 1.32900E+02 4.87010E+01 0.00000E+00
 -1      1452 1.34400E+02 4.87010E+01 0.00000E+00
 -1      1453 1.32150E+02 4.74020E+01 0.00000E+00
 -1      1454 1.35900E+02 4.87010E+01 0.00000E+00
 -1      1455 1.37400E+02 4.87010E+01 0.00000E+00
 -1      1456 1.35150E+02 4.74020E+01 0.00000E+00
 -1      1457 1.38900E+02 4.87010E+01 0.00000E+00
 -1      1458 1.40400E+02 4.87010E+01 0.00000E+00
 -1      1459 1.38150E+02 4.74020E+01 0.00000E+00
 -1      1460 1.41900E+02 4.87010E+01 0.00000E+00
 -1      1461 1.43400E+02 4.87010E+01 0.00000E+00
 -1      1462 1.41150E+02 4.74020E+01 0.00000E+00
 -1      1463 1.44900E+02 4.87010E+01 0.00000E+00
 -1      1464 1.46400E+02 4.87010E+01 0.00000E+00
 -1      1465 1.44150E+02 4.74020E+01 0.00000E+00
 -1      1466 1.48575E+02 4.85500E+01 0.00000E+00
 -1      1467 1.47825E+02 4.72510E+01 0.00000E+00
 -1      1468 6.01200E+00 1.09375E+00 0.00000E+00
 -1      1469 4.51200E+00 1.09375E+00 0.00000E+00
 -1      1470 4.37400E+00 2.18750E+00 0.00000E+00
 -1      1471 9.01200E+00 1.09375E+00 0.00000E+00
 -1      1472 7.51200E+00 1.09375E+00 0.00000E+00
 -1      1473 7.37400E+00 2.18750E+00 0.00000E+00
 -1      1474 1.20120E+01 1.09375E+00 0.00000E+00
 -1      1475 1.05120E+01 1.09375E+00 0.00000E+00
 -1      1476 1.03740E+01 2.18750E+00 0.00000E+00
 -1      1477 1.50120E+01 1.09375E+00 0.00000E+00
 -1      1478 1.35120E+01 1.09375E+00 0.00000E+00
 -1      1479 1.33740E+01 2.18750E+00 0.00000E+00
 -1      1480 1.80120E+01 1.09375E+00 0.00000E+00
 -1      1481 1.65120E+01 1.09375E+00 0.00000E+00
 -1      1482 1.63740E+01 2.18750E+00 0.00000E+00
 -1      1483 2.10120E+01 1.09375E+00 0.00000E+00
 -1      1484 1.95120E+01 1.09375E+00 0.00000E+00
 -1      1485 1.93740E+01 2.18750E+00 0.00000E+00
 -1      1486 2.40120E+01 1.09375E+00 0.00000E+00
 -1      1487 2.25120E+01 1.09375E+00 0.00000E+00
 -1      1488 2.23740E+01 2.18750E+00 0.00000E+00
 -1      1489 2.70120E+01 1.09375E+00 0.00000E+00
 -1      1490 2.55120E+01 1.09375E+00 0.00000E+00
 -1      1491 2.53740E+01 2.18750E+00 0.00000E+00
 -1      1492 3.00120E+01 1.09375E+00 0.00000E+00
 -1      1493 2.85120E+01 1.09375E+00 0.00000E+00
 -1      1494 2.83740E+01 2.18750E+00 0.00000E+00
 -1      1495 3.30120E+01 1.09375E+00 0.00000E+00
 -1      1496 3.15120E+01 1.09375E+00 0.00000E+00
 -1      1497 3.13740E+01 2.18750E+00 0.00000E+00
 -1      1498 3.60120E+01 1.09375E+00 0.00000E+00
 -1      1499 3.45120E+01 1.09375E+00 0.00000E+00
 -1      1500 3.43740E+01 2.18750E+00 0.00000E+00
 -1      1501 3.90120E+01 1.09375E+00 0.00000E+00
 -1      1502 3.75120E+01 1.09375E+00 0.00000E+00
 -1      1503 3.73740E+01 2.18750E+00 0.00000E+00
 -1      1504 4.20120E+01 1.09375E+00 0.00000E+00
 -1      1505 4.05120E+01 1.09375E+00 0.00000E+00
 -1      1506 4.03740E+01 2.18750E+00 0.00000E+00
 -1      1507 4.50120E+01 1.09375E+00 0.00000E+00
 -1      1508 4.35120E+01 1.09375E+00 0.00000E+00
 -1      1509 4.33740E+01 2.18750E+00 0.00000E+00
 -1      1510 4.80120E+01 1.09375E+00 0.00000E+00
 -1      1511 4.65120E+01 1.09375E+00 0.00000E+00
 -1      1512 4.63740E+01 2.18750E+00 0.00000E+00
 -1      1513 5.10120E+01 1.09375E+00 0.00000E+00
 -1      1514 4.95120E+01 1.09375E+00 0.00000E+00
 -1      1515 4.93740E+01 2.18750E+00 0.00000E+00
 -1      1516 5.40120E+01 1.09375E+00 0.00000E+00
 -1      1517 5.25120E+01 1.09375E+00 0.00000E+00
 -1      1518 5.23740E+01 2.18750E+00 0.00000E+00
 -1      1519 5.70120E+01 1.09375E+00 0.00000E+00
 -1      1520 5.55120E+01 1.09375E+00 0.00000E+00
 -1      1521 5.53740E+01 2.18750E+00 0.00000E+00
 -1      1522 6.00120E+01 1.09375E+00 0.00000E+00
 -1      1523 5.85120E+01 1.09375E+00 0.00000E+00
 -1      1524 5.83740E+01 2.18750E+00 0.00000E+00
 -1      1525 6.30120E+01 1.09375E+00 0.00000E+00
 -1      1526 6.15120E+01 1.09375E+00 0.00000E+00
 -1      1527 6.13740E+01 2.18750E+00 0.00000E+00
 -1      1528 6.60120E+01 1.09375E+00 0.00000E+00
 -1      1529 6.45120E+01 1.09375E+00 0.00000E+00
 -1      1530 6.43740E+01 2.18750E+00 0.00000E+00
 -1      1531 6.90120E+01 1.09375E+00 0.00000E+00
 -1      1532 6.75120E+01 1.09375E+00 0.00000E+00
 -1      1533 6.73740E+01 2.18750E+00 0.00000E+00
 -1      1534 7.20120E+01 1.09375E+00 0.00000E+00
 -1      1535 7.05120E+01 1.09375E+00 0.00000E+00
 -1      1536 7.03740E+01 2.18750E+00 0.00000E+00
 -1      1537 7.50120E+01 1.09375E+00 0.00000E+00
 -1      1538 7.35120E+01 1.09375E+00 0.00000E+00
 -1      1539 7.33740E+01 2.18750E+00 0.00000E+00
 -1      1540 7.80120E+01 1.09375E+00 0.00000E+00
 -1      1541 7.65120E+01 1.09375E+00 0.00000E+00
 -1      1542 7.63740E+01 2.18750E+00 0.00000E+00
 -1      1543 8.10120E+01 1.09375E+00 0.00000E+00
 -1      1544 7.95120E+01 1.09375E+00 0.00000E+00
 -1      1545 7.93740E+01 2.18750E+00 0.00000E+00
 -1      1546 8.40120E+01 1.09375E+00 0.00000E+00
 -1      1547 8.25120E+01 1.09375E+00 0.00000E+00
 -1      1548 8.23740E+01 2.18750E+00 0.00000E+00
 -1      1549 8.70120E+01 1.09375E+00 0.00000E+00
 -1      1550 8.55120E+01 1.09375E+00 0.00000E+00
 -1      1551 8.53740E+01 2.18750E+00 0.00000E+00
 -1      1552 9.00120E+01 1.09375E+00 0.00000E+00
 -1      1553 8.85120E+01 1.09375E+00 0.00000E+00
 -1      1554 8.83740E+01 2.18750E+00 0.00000E+00
 -1      1555 9.30120E+01 1.09375E+00 0.00000E+00
 -1      1556 9.15120E+01 1.09375E+00 0.00000E+00
 -1      1557 9.13740E+01 2.18750E+00 0.00000E+00
 -1      1558 9.60120E+01 1.09375E+00 0.00000E+00
 -1      1559 9.45120E+01 1.09375E+00 0.00000E+00
 -1      1560 9.43740E+01 2.18750E+00 0.00000E+00
 -1      1561 9.90120E+01 1.09375E+00 0.00000E+00
 -1      1562 9.75120E+01 1.09375E+00 0.00000E+00
 -1      1563 9.73740E+01 2.18750E+00 0.00000E+00
 -1      1564 1.02012E+02 1.09375E+00 0.00000E+00
 -1      1565 1.00512E+02 1.09375E+00 0.00000E+00
 -1      1566 1.00374E+02 2.18750E+00 0.00000E+00
 -1      1567 1.05012E+02 1.09375E+00 0.00000E+00
 -1      1568 1.03512E+02 1.09375E+00 0.00000E+00
 -1      1569 1.03374E+02 2.18750E+00 0.00000E+00
 -1      1570 1.08012E+02 1.09375E+00 0.00000E+00
 -1      1571 1.06512E+02 1.09375E+00 0.00000E+00
 -1      1572 1.06374E+02 2.18750E+00 0.00000E+00
 -1      1573 1.11012E+02 1.09375E+00 0.00000E+00
 -1      1574 1.09512E+02 1.09375E+00 0.00000E+00
 -1      1575 1.09374E+02 2.18750E+00 0.00000E+00
 -1      1576 1.14012E+02 1.09375E+00 0.00000E+00
 -1      1577 1.12512E+02 1.09375E+00 0.00000E+00
 -1      1578 1.12374E+02 2.18750E+00 0.00000E+00
 -1      1579 1.17012E+02 1.09375E+00 0.00000E+00
 -1      1580 1.15512E+02 1.09375E+00 0.00000E+00
 -1      1581 1.15374E+02 2.18750E+00 0.00000E+00
 -1      1582 1.20012E+02 1.09375E+00 0.00000E+00
 -1      1583 1.18512E+02 1.09375E+00 0.00000E+00
 -1      1584 1.18374E+02 2.18750E+00 0.00000E+00
 -1      1585 1.23012E+02 1.09375E+00 0.00000E+00
 -1      1586 1.21512E+02 1.09375E+00 0.00000E+00
 -1      1587 1.21374E+02 2.18750E+00 0.00000E+00
 -1      1588 1.26012E+02 1.09375E+00 0.00000E+00
 -1      1589 1.24512E+02 1.09375E+00 0.00000E+00
 -1      1590 1.24374E+02 2.18750E+00 0.00000E+00
 -1      1591 1.29012E+02 1.09375E+00 0.00000E+00
 -1      1592 1.27512E+02 1.09375E+00 0.00000E+00
 -1      1593 1.27374E+02 2.18750E+00 0.00000E+00
 -1      1594 1.32012E+02 1.09375E+00 0.00000E+00
 -1      1595 1.30512E+02 1.09375E+00 0.00000E+00
 -1      1596 1.30374E+02 2.18750E+00 0.00000E+00
 -1      1597 1.35012E+02 1.09375E+00 0.00000E+00
 -1      1598 1.33512E+02 1.09375E+00 0.00000E+00
 -1      1599 1.33374E+02 2.18750E+00 0.00000E+00
 -1      1600 1.38012E+02 1.09375E+00 0.00000E+00
 -1      1601 1.36512E+02 1.09375E+00 0.00000E+00
 -1      1602 1.36374E+02 2.18750E+00 0.00000E+00
 -1      1603 1.41012E+02 1.09375E+00 0.00000E+00
 -1      1604 1.39512E+02 1.09375E+00 0.00000E+00
 -1      1605 1.39374E+02 2.18750E+00 0.00000E+00
 -1      1606 1.44012E+02 1.09375E+00 0.00000E+00
 -1      1607 1.42512E+02 1.09375E+00 0.00000E+00
 -1      1608 1.42374E+02 2.18750E+00 0.00000E+00
 -1      1609 1.47012E+02 1.09375E+00 0.00000E+00
 -1      1610 1.45512E+02 1.09375E+00 0.00000E+00
 -1      1611 1.45374E+02 2.18750E+00 0.00000E+00
 -1      1612 1.48575E+02 1.47500E+00 0.00000E+00
 -1      1613 1.48701E+02 5.16250E+00 0.00000E+00
 -1      1614 1.48701E+02 3.68750E+00 0.00000E+00
 -1      1615 1.48701E+02 8.11250E+00 0.00000E+00
 -1      1616 1.48701E+02 6.63750E+00 0.00000E+00
 -1      1617 1.47402E+02 5.90000E+00 0.00000E+00
 -1      1618 1.48701E+02 1.10625E+01 0.00000E+00
 -1      1619 1.48701E+02 9.58750E+00 0.00000E+00
 -1      1620 1.47402E+02 8.85000E+00 0.00000E+00
 -1      1621 1.48701E+02 1.40125E+01 0.00000E+00
 -1      1622 1.48701E+02 1.25375E+01 0.00000E+00
 -1      1623 1.47402E+02 1.18000E+01 0.00000E+00
 -1      1624 1.48701E+02 1.69625E+01 0.00000E+00
 -1      1625 1.48701E+02 1.54875E+01 0.00000E+00
 -1      1626 1.47402E+02 1.47500E+01 0.00000E+00
 -1      1627 1.48701E+02 1.99125E+01 0.00000E+00
 -1      1628 1.48701E+02 1.84375E+01 0.00000E+00
 -1      1629 1.47402E+02 1.77000E+01 0.00000E+00
 -1      1630 1.48701E+02 2.28125E+01 0.00000E+00
 -1      1631 1.48701E+02 2.13625E+01 0.00000E+00
 -1      1632 1.47402E+02 2.06250E+01 0.00000E+00
 -1      1633 1.48701E+02 2.57625E+01 0.00000E+00
 -1      1634 1.48701E+02 2.42875E+01 0.00000E+00
 -1      1635 1.47402E+02 2.35500E+01 0.00000E+00
 -1      1636 1.48701E+02 2.86625E+01 0.00000E+00
 -1      1637 1.48701E+02 2.72125E+01 0.00000E+00
 -1      1638 1.47402E+02 2.64750E+01 0.00000E+00
 -1      1639 1.48701E+02 3.16125E+01 0.00000E+00
 -1      1640 1.48701E+02 3.01375E+01 0.00000E+00
 -1      1641 1.47402E+02 2.94000E+01 0.00000E+00
 -1      1642 1.48701E+02 3.45625E+01 0.00000E+00
 -1      1643 1.48701E+02 3.30875E+01 0.00000E+00
 -1      1644 1.47402E+02 3.23500E+01 0.00000E+00
 -1      1645 1.48701E+02 3.75125E+01 0.00000E+00
 -1      1646 1.48701E+02 3.60375E+01 0.00000E+00
 -1      1647 1.47402E+02 3.53000E+01 0.00000E+00
 -1      1648 1.48701E+02 4.04625E+01 0.00000E+00
 -1      1649 1.48701E+02 3.89875E+01 0.00000E+00
 -1      1650 1.47402E+02 3.82500E+01 0.00000E+00
 -1      1651 1.48701E+02 4.34125E+01 0.00000E+00
 -1      1652 1.48701E+02 4.19375E+01 0.00000E+00
 -1      1653 1.47402E+02 4.12000E+01 0.00000E+00
 -1      1654 1.48263E+02 4.60692E+01 0.00000E+00
 -1      1655 1.48263E+02 4.45942E+01 0.00000E+00
 -1      1656 1.46964E+02 4.38568E+01 0.00000E+00
 -1      1657 1.46088E+02 4.62202E+01 0.00000E+00
 -1      1658 1.35126E+02 2.42948E+01 0.00000E+00
 -1      1659 1.35218E+02 2.50905E+01 0.00000E+00
 -1      1660 1.34649E+02 2.27299E+01 0.00000E+00
 -1      1661 1.34888E+02 2.34190E+01 0.00000E+00
 -1      1662 1.33884E+02 2.12264E+01 0.00000E+00
 -1      1663 1.34298E+02 2.18997E+01 0.00000E+00
 -1      1664 1.32713E+02 2.00006E+01 0.00000E+00
 -1      1665 1.33252E+02 2.05516E+01 0.00000E+00
 -1      1666 1.31396E+02 1.89313E+01 0.00000E+00
 -1      1667 1.32055E+02 1.93568E+01 0.00000E+00
 -1      1668 1.29861E+02 1.83436E+01 0.00000E+00
 -1      1669 1.30556E+02 1.86010E+01 0.00000E+00
 -1      1670 1.28217E+02 1.79389E+01 0.00000E+00
 -1      1671 1.29003E+02 1.80460E+01 0.00000E+00
 -1      1672 1.26499E+02 1.79451E+01 0.00000E+00
 -1      1673 1.27276E+02 1.78751E+01 0.00000E+00
 -1      1674 1.24908E+02 1.84335E+01 0.00000E+00
 -1      1675 1.25623E+02 1.82056E+01 0.00000E+00
 -1      1676 1.23449E+02 1.91664E+01 0.00000E+00
 -1      1677 1.24099E+02 1.87913E+01 0.00000E+00
 -1      1678 1.22248E+02 2.01805E+01 0.00000E+00
 -1      1679 1.22778E+02 1.97033E+01 0.00000E+00
 -1      1680 1.21268E+02 2.13696E+01 0.00000E+00
 -1      1681 1.21690E+02 2.07969E+01 0.00000E+00
 -1      1682 1.20483E+02 2.27995E+01 0.00000E+00
 -1      1683 1.20798E+02 2.20994E+01 0.00000E+00
 -1      1684 1.20057E+02 2.43530E+01 0.00000E+00
 -1      1685 1.20208E+02 2.36386E+01 0.00000E+00
 -1      1686 1.19971E+02 2.59679E+01 0.00000E+00
 -1      1687 1.19969E+02 2.52202E+01 0.00000E+00
 -1      1688 1.20262E+02 2.75397E+01 0.00000E+00
 -1      1689 1.20106E+02 2.68258E+01 0.00000E+00
 -1      1690 1.20781E+02 2.91766E+01 0.00000E+00
 -1      1691 1.20440E+02 2.84429E+01 0.00000E+00
 -1      1692 1.21801E+02 3.05305E+01 0.00000E+00
 -1      1693 1.21336E+02 2.99315E+01 0.00000E+00
 -1      1694 1.22992E+02 3.16992E+01 0.00000E+00
 -1      1695 1.22400E+02 3.12089E+01 0.00000E+00
 -1      1696 1.24478E+02 3.24776E+01 0.00000E+00
 -1      1697 1.23794E+02 3.21279E+01 0.00000E+00
 -1      1698 1.26023E+02 3.30661E+01 0.00000E+00
 -1      1699 1.25290E+02 3.28757E+01 0.00000E+00
 -1      1700 1.27615E+02 3.31449E+01 0.00000E+00
 -1      1701 1.26897E+02 3.31143E+01 0.00000E+00
 -1      1702 1.29262E+02 3.29934E+01 0.00000E+00
 -1      1703 1.28495E+02 3.31266E+01 0.00000E+00
 -1      1704 1.30802E+02 3.24222E+01 0.00000E+00
 -1      1705 1.30111E+02 3.27067E+01 0.00000E+00
 -1      1706 1.32307E+02 3.15857E+01 0.00000E+00
 -1      1707 1.31645E+02 3.20511E+01 0.00000E+00
 -1      1708 1.33470E+02 3.03961E+01 0.00000E+00
 -1      1709 1.32970E+02 3.09477E+01 0.00000E+00
 -1      1710 1.34404E+02 2.90390E+01 0.00000E+00
 -1      1711 1.34026E+02 2.96986E+01 0.00000E+00
 -1      1712 1.34896E+02 2.75363E+01 0.00000E+00
 -1      1713 1.34680E+02 2.82128E+01 0.00000E+00
 -1      1714 1.35143E+02 2.59918E+01 0.00000E+00
 -1      1715 1.35068E+02 2.67148E+01 0.00000E+00
 -1      1716 1.32758E+02 1.92082E+01 0.00000E+00
 -1      1717 1.34047E+02 2.05268E+01 0.00000E+00
 -1      1718 1.48437E+02 2.56875E+00 0.00000E+00
 -1      1719 1.47138E+02 3.30625E+00 0.00000E+00
 -1      1720 1.35619E+02 2.37380E+01 0.00000E+00
 -1      1721 1.35029E+02 2.20319E+01 0.00000E+00
 -1      1722 1.35783E+02 2.55150E+01 0.00000E+00
 -1      1723 1.31259E+02 1.82342E+01 0.00000E+00
 -1      1724 1.29561E+02 1.76064E+01 0.00000E+00
 -1      1725 1.27763E+02 1.72450E+01 0.00000E+00
 -1      1726 1.25945E+02 1.74417E+01 0.00000E+00
 -1      1727 1.24259E+02 1.80599E+01 0.00000E+00
 -1      1728 1.22779E+02 1.89545E+01 0.00000E+00
 -1      1729 1.21549E+02 2.01078E+01 0.00000E+00
 -1      1730 1.20520E+02 2.14540E+01 0.00000E+00
 -1      1731 1.19774E+02 2.30229E+01 0.00000E+00
 -1      1732 1.19410E+02 2.47291E+01 0.00000E+00
 -1      1733 1.19457E+02 2.64543E+01 0.00000E+00
 -1      1734 1.19770E+02 2.82154E+01 0.00000E+00
 -1      1735 1.20502E+02 2.98734E+01 0.00000E+00
 -1      1736 1.21656E+02 3.13068E+01 0.00000E+00
 -1      1737 1.23058E+02 3.24138E+01 0.00000E+00
 -1      1738 1.24672E+02 3.32406E+01 0.00000E+00
 -1      1739 1.26357E+02 3.36870E+01 0.00000E+00
 -1      1740 1.28110E+02 3.37169E+01 0.00000E+00
 -1      1741 1.29838E+02 3.34118E+01 0.00000E+00
 -1      1742 1.31530E+02 3.27539E+01 0.00000E+00
 -1      1743 1.33037E+02 3.17447E+01 0.00000E+00
 -1      1744 1.34257E+02 3.04092E+01 0.00000E+00
 -1      1745 1.35090E+02 2.88855E+01 0.00000E+00
 -1      1746 1.35537E+02 2.72378E+01 0.00000E+00
 -1      1747 2.87400E+00 4.77875E+01 0.00000E+00
 -1      1748 3.89700E+00 4.04125E+01 0.00000E+00
 -1      1749 3.89700E+00 4.18875E+01 0.00000E+00
 -1      1750 3.89700E+00 4.33625E+01 0.00000E+00
 -1      1751 3.89700E+00 4.48375E+01 0.00000E+00
 -1      1752 5.19600E+00 4.26250E+01 0.00000E+00
 -1      1753 3.89700E+00 3.45500E+01 0.00000E+00
 -1      1754 3.89700E+00 3.60000E+01 0.00000E+00
 -1      1755 3.89700E+00 3.16000E+01 0.00000E+00
 -1      1756 3.89700E+00 3.30750E+01 0.00000E+00
 -1      1757 5.19600E+00 3.38000E+01 0.00000E+00
 -1      1758 3.89700E+00 2.86500E+01 0.00000E+00
 -1      1759 3.89700E+00 3.01250E+01 0.00000E+00
 -1      1760 5.19600E+00 3.08500E+01 0.00000E+00
 -1      1761 3.89700E+00 2.57000E+01 0.00000E+00
 -1      1762 3.89700E+00 2.71750E+01 0.00000E+00
 -1      1763 5.19600E+00 2.79000E+01 0.00000E+00
 -1      1764 3.89700E+00 2.27500E+01 0.00000E+00
 -1      1765 3.89700E+00 2.42250E+01 0.00000E+00
 -1      1766 5.19600E+00 2.49500E+01 0.00000E+00
 -1      1767 3.89700E+00 1.98000E+01 0.00000E+00
 -1      1768 3.89700E+00 2.12750E+01 0.00000E+00
 -1      1769 5.19600E+00 2.20000E+01 0.00000E+00
 -1      1770 3.89700E+00 1.69000E+01 0.00000E+00
 -1      1771 3.89700E+00 1.83500E+01 0.00000E+00
 -1      1772 5.19600E+00 1.90750E+01 0.00000E+00
 -1      1773 3.89700E+00 1.39500E+01 0.00000E+00
 -1      1774 3.89700E+00 1.54250E+01 0.00000E+00
 -1      1775 5.19600E+00 1.61500E+01 0.00000E+00
 -1      1776 3.89700E+00 1.10000E+01 0.00000E+00
 -1      1777 3.89700E+00 1.24750E+01 0.00000E+00
 -1      1778 5.19600E+00 1.32000E+01 0.00000E+00
 -1      1779 3.89700E+00 8.05000E+00 0.00000E+00
 -1      1780 3.89700E+00 9.52500E+00 0.00000E+00
 -1      1781 5.19600E+00 1.02500E+01 0.00000E+00
 -1      1782 3.89700E+00 5.10000E+00 0.00000E+00
 -1      1783 3.89700E+00 6.57500E+00 0.00000E+00
 -1      1784 5.19600E+00 7.30000E+00 0.00000E+00
 -1      1785 4.20450E+00 3.09687E+00 0.00000E+00
 -1      1786 4.06650E+00 4.19063E+00 0.00000E+00
 -1      1787 5.36550E+00 4.91563E+00 0.00000E+00
 -1      1788 5.70450E+00 3.09687E+00 0.00000E+00
 -1      1789 3.62400E+00 4.64885E+01 0.00000E+00
 -1      1790 8.70450E+00 3.09687E+00 0.00000E+00
 -1      1791 7.20450E+00 3.09687E+00 0.00000E+00
 -1      1792 7.03500E+00 4.00625E+00 0.00000E+00
 -1      1793 4.92300E+00 4.57510E+01 0.00000E+00
 -1      1794 8.40000E+00 4.61030E+01 0.00000E+00
 -1      1795 9.90000E+00 4.61030E+01 0.00000E+00
 -1      1796 1.14000E+01 4.61030E+01 0.00000E+00
 -1      1797 1.29000E+01 4.61030E+01 0.00000E+00
 -1      1798 1.06500E+01 4.48040E+01 0.00000E+00
 -1      1799 1.44000E+01 4.61030E+01 0.00000E+00
 -1      1800 1.59000E+01 4.61030E+01 0.00000E+00
 -1      1801 1.36500E+01 4.48040E+01 0.00000E+00
 -1      1802 1.74000E+01 4.61030E+01 0.00000E+00
 -1      1803 1.89000E+01 4.61030E+01 0.00000E+00
 -1      1804 1.66500E+01 4.48040E+01 0.00000E+00
 -1      1805 2.04000E+01 4.61030E+01 0.00000E+00
 -1      1806 2.19000E+01 4.61030E+01 0.00000E+00
 -1      1807 1.96500E+01 4.48040E+01 0.00000E+00
 -1      1808 2.34000E+01 4.61030E+01 0.00000E+00
 -1      1809 2.49000E+01 4.61030E+01 0.00000E+00
 -1      1810 2.26500E+01 4.48040E+01 0.00000E+00
 -1      1811 2.64000E+01 4.61030E+01 0.00000E+00
 -1      1812 2.79000E+01 4.61030E+01 0.00000E+00
 -1      1813 2.56500E+01 4.48040E+01 0.00000E+00
 -1      1814 2.94000E+01 4.61030E+01 0.00000E+00
 -1      1815 3.09000E+01 4.61030E+01 0.00000E+00
 -1      1816 2.86500E+01 4.48040E+01 0.00000E+00
 -1      1817 3.24000E+01 4.61030E+01 0.00000E+00
 -1      1818 3.39000E+01 4.61030E+01 0.00000E+00
 -1      1819 3.16500E+01 4.48040E+01 0.00000E+00
 -1      1820 3.54000E+01 4.61030E+01 0.00000E+00
 -1      1821 3.69000E+01 4.61030E+01 0.00000E+00
 -1      1822 3.46500E+01 4.48040E+01 0.00000E+00
 -1      1823 3.84000E+01 4.61030E+01 0.00000E+00
 -1      1824 3.99000E+01 4.61030E+01 0.00000E+00
 -1      1825 3.76500E+01 4.48040E+01 0.00000E+00
 -1      1826 4.14000E+01 4.61030E+01 0.00000E+00
 -1      1827 4.29000E+01 4.61030E+01 0.00000E+00
 -1      1828 4.06500E+01 4.48040E+01 0.00000E+00
 -1      1829 4.44000E+01 4.61030E+01 0.00000E+00
 -1      1830 4.59000E+01 4.61030E+01 0.00000E+00
 -1      1831 4.36500E+01 4.48040E+01 0.00000E+00
 -1      1832 4.74000E+01 4.61030E+01 0.00000E+00
 -1      1833 4.89000E+01 4.61030E+01 0.00000E+00
 -1      1834 4.66500E+01 4.48040E+01 0.00000E+00
 -1      1835 5.04000E+01 4.61030E+01 0.00000E+00
 -1      1836 5.19000E+01 4.61030E+01 0.00000E+00
 -1      1837 4.96500E+01 4.48040E+01 0.00000E+00
 -1      1838 5.34000E+01 4.61030E+01 0.00000E+00
 -1      1839 5.49000E+01 4.61030E+01 0.00000E+00
 -1      1840 5.26500E+01 4.48040E+01 0.00000E+00
 -1      1841 5.64000E+01 4.61030E+01 0.00000E+00
 -1      1842 5.79000E+01 4.61030E+01 0.00000E+00
 -1      1843 5.56500E+01 4.48040E+01 0.00000E+00
 -1      1844 5.94000E+01 4.61030E+01 0.00000E+00
 -1      1845 6.09000E+01 4.61030E+01 0.00000E+00
 -1      1846 5.86500E+01 4.48040E+01 0.00000E+00
 -1      1847 6.24000E+01 4.61030E+01 0.00000E+00
 -1      1848 6.39000E+01 4.61030E+01 0.00000E+00
 -1      1849 6.16500E+01 4.48040E+01 0.00000E+00
 -1      1850 6.54000E+01 4.61030E+01 0.00000E+00
 -1      1851 6.69000E+01 4.61030E+01 0.00000E+00
 -1      1852 6.46500E+01 4.48040E+01 0.00000E+00
 -1      1853 6.84000E+01 4.61030E+01 0.00000E+00
 -1      1854 6.99000E+01 4.61030E+01 0.00000E+00
 -1      1855 6.76500E+01 4.48040E+01 0.00000E+00
 -1      1856 7.14000E+01 4.61030E+01 0.00000E+00
 -1      1857 7.29000E+01 4.61030E+01 0.00000E+00
 -1      1858 7.06500E+01 4.48040E+01 0.00000E+00
 -1      1859 7.44000E+01 4.61030E+01 0.00000E+00
 -1      1860 7.59000E+01 4.61030E+01 0.00000E+00
 -1      1861 7.36500E+01 4.48040E+01 0.00000E+00
 -1      1862 7.74000E+01 4.61030E+01 0.00000E+00
 -1      1863 7.89000E+01 4.61030E+01 0.00000E+00
 -1      1864 7.66500E+01 4.48040E+01 0.00000E+00
 -1      1865 8.04000E+01 4.61030E+01 0.00000E+00
 -1      1866 8.19000E+01 4.61030E+01 0.00000E+00
 -1      1867 7.96500E+01 4.48040E+01 0.00000E+00
 -1      1868 8.34000E+01 4.61030E+01 0.00000E+00
 -1      1869 8.49000E+01 4.61030E+01 0.00000E+00
 -1      1870 8.26500E+01 4.48040E+01 0.00000E+00
 -1      1871 8.64000E+01 4.61030E+01 0.00000E+00
 -1      1872 8.79000E+01 4.61030E+01 0.00000E+00
 -1      1873 8.56500E+01 4.48040E+01 0.00000E+00
 -1      1874 8.94000E+01 4.61030E+01 0.00000E+00
 -1      1875 9.09000E+01 4.61030E+01 0.00000E+00
 -1      1876 8.86500E+01 4.48040E+01 0.00000E+00
 -1      1877 9.24000E+01 4.61030E+01 0.00000E+00
 -1      1878 9.39000E+01 4.61030E+01 0.00000E+00
 -1      1879 9.16500E+01 4.48040E+01 0.00000E+00
 -1      1880 9.54000E+01 4.61030E+01 0.00000E+00
 -1      1881 9.69000E+01 4.61030E+01 0.00000E+00
 -1      1882 9.46500E+01 4.48040E+01 0.00000E+00
 -1      1883 9.84000E+01 4.61030E+01 0.00000E+00
 -1      1884 9.99000E+01 4.61030E+01 0.00000E+00
 -1      1885 9.76500E+01 4.48040E+01 0.00000E+00
 -1      1886 1.01400E+02 4.61030E+01 0.00000E+00
 -1      1887 1.02900E+02 4.61030E+01 0.00000E+00
 -1      1888 1.00650E+02 4.48040E+01 0.00000E+00
 -1      1889 1.04400E+02 4.61030E+01 0.00000E+00
 -1      1890 1.05900E+02 4.61030E+01 0.00000E+00
 -1      1891 1.03650E+02 4.48040E+01 0.00000E+00
 -1      1892 1.07400E+02 4.61030E+01 0.00000E+00
 -1      1893 1.08900E+02 4.61030E+01 0.00000E+00
 -1      1894 1.06650E+02 4.48040E+01 0.00000E+00
 -1      1895 1.10400E+02 4.61030E+01 0.00000E+00
 -1      1896 1.11900E+02 4.61030E+01 0.00000E+00
 -1      1897 1.09650E+02 4.48040E+01 0.00000E+00
 -1      1898 1.13400E+02 4.61030E+01 0.00000E+00
 -1      1899 1.14900E+02 4.61030E+01 0.00000E+00
 -1      1900 1.12650E+02 4.48040E+01 0.00000E+00
 -1      1901 1.16400E+02 4.61030E+01 0.00000E+00
 -1      1902 1.17900E+02 4.61030E+01 0.00000E+00
 -1      1903 1.15650E+02 4.48040E+01 0.00000E+00
 -1      1904 1.19400E+02 4.61030E+01 0.00000E+00
 -1      1905 1.20900E+02 4.61030E+01 0.00000E+00
 -1      1906 1.18650E+02 4.48040E+01 0.00000E+00
 -1      1907 1.22400E+02 4.61030E+01 0.00000E+00
 -1      1908 1.23900E+02 4.61030E+01 0.00000E+00
 -1      1909 1.21650E+02 4.48040E+01 0.00000E+00
 -1      1910 1.25400E+02 4.61030E+01 0.00000E+00
 -1      1911 1.26900E+02 4.61030E+01 0.00000E+00
 -1      1912 1.24650E+02 4.48040E+01 0.00000E+00
 -1      1913 1.28400E+02 4.61030E+01 0.00000E+00
 -1      1914 1.29900E+02 4.61030E+01 0.00000E+00
 -1      1915 1.27650E+02 4.48040E+01 0.00000E+00
 -1      1916 1.31400E+02 4.61030E+01 0.00000E+00
 -1      1917 1.32900E+02 4.61030E+01 0.00000E+00
 -1      1918 1.30650E+02 4.48040E+01 0.00000E+00
 -1      1919 1.34400E+02 4.61030E+01 0.00000E+00
 -1      1920 1.35900E+02 4.61030E+01 0.00000E+00
 -1      1921 1.33650E+02 4.48040E+01 0.00000E+00
 -1      1922 1.37400E+02 4.61030E+01 0.00000E+00
 -1      1923 1.38900E+02 4.61030E+01 0.00000E+00
 -1      1924 1.36650E+02 4.48040E+01 0.00000E+00
 -1      1925 1.40400E+02 4.61030E+01 0.00000E+00
 -1      1926 1.41900E+02 4.61030E+01 0.00000E+00
 -1      1927 1.39650E+02 4.48040E+01 0.00000E+00
 -1      1928 1.43244E+02 4.61616E+01 0.00000E+00
 -1      1929 1.44744E+02 4.61616E+01 0.00000E+00
 -1      1930 1.45182E+02 4.49799E+01 0.00000E+00
 -1      1931 1.42494E+02 4.48626E+01 0.00000E+00
 -1      1932 1.17045E+01 3.09687E+00 0.00000E+00
 -1      1933 1.02045E+01 3.09687E+00 0.00000E+00
 -1      1934 1.00350E+01 4.00625E+00 0.00000E+00
 -1      1935 1.47045E+01 3.09687E+00 0.00000E+00
 -1      1936 1.32045E+01 3.09687E+00 0.00000E+00
 -1      1937 1.30350E+01 4.00625E+00 0.00000E+00
 -1      1938 1.77045E+01 3.09687E+00 0.00000E+00
 -1      1939 1.62045E+01 3.09687E+00 0.00000E+00
 -1      1940 1.60350E+01 4.00625E+00 0.00000E+00
 -1      1941 2.07045E+01 3.09687E+00 0.00000E+00
 -1      1942 1.92045E+01 3.09687E+00 0.00000E+00
 -1      1943 1.90350E+01 4.00625E+00 0.00000E+00
 -1      1944 2.37045E+01 3.09687E+00 0.00000E+00
 -1      1945 2.22045E+01 3.09687E+00 0.00000E+00
 -1      1946 2.20350E+01 4.00625E+00 0.00000E+00
 -1      1947 2.67045E+01 3.09687E+00 0.00000E+00
 -1      1948 2.52045E+01 3.09687E+00 0.00000E+00
 -1      1949 2.50350E+01 4.00625E+00 0.00000E+00
 -1      1950 2.97045E+01 3.09687E+00 0.00000E+00
 -1      1951 2.82045E+01 3.09687E+00 0.00000E+00
 -1      1952 2.80350E+01 4.00625E+00 0.00000E+00
 -1      1953 3.27045E+01 3.09687E+00 0.00000E+00
 -1      1954 3.12045E+01 3.09687E+00 0.00000E+00
 -1      1955 3.10350E+01 4.00625E+00 0.00000E+00
 -1      1956 3.57045E+01 3.09687E+00 0.00000E+00
 -1      1957 3.42045E+01 3.09687E+00 0.00000E+00
 -1      1958 3.40350E+01 4.00625E+00 0.00000E+00
 -1      1959 3.87045E+01 3.09687E+00 0.00000E+00
 -1      1960 3.72045E+01 3.09687E+00 0.00000E+00
 -1      1961 3.70350E+01 4.00625E+00 0.00000E+00
 -1      1962 4.17045E+01 3.09687E+00 0.00000E+00
 -1      1963 4.02045E+01 3.09687E+00 0.00000E+00
 -1      1964 4.00350E+01 4.00625E+00 0.00000E+00
 -1      1965 4.47045E+01 3.09687E+00 0.00000E+00
 -1      1966 4.32045E+01 3.09687E+00 0.00000E+00
 -1      1967 4.30350E+01 4.00625E+00 0.00000E+00
 -1      1968 4.77045E+01 3.09687E+00 0.00000E+00
 -1      1969 4.62045E+01 3.09687E+00 0.00000E+00
 -1      1970 4.60350E+01 4.00625E+00 0.00000E+00
 -1      1971 5.07045E+01 3.09687E+00 0.00000E+00
 -1      1972 4.92045E+01 3.09687E+00 0.00000E+00
 -1      1973 4.90350E+01 4.00625E+00 0.00000E+00
 -1      1974 5.37045E+01 3.09687E+00 0.00000E+00
 -1      1975 5.22045E+01 3.09687E+00 0.00000E+00
 -1      1976 5.20350E+01 4.00625E+00 0.00000E+00
 -1      1977 5.67045E+01 3.09687E+00 0.00000E+00
 -1      1978 5.52045E+01 3.09687E+00 0.00000E+00
 -1      1979 5.50350E+01 4.00625E+00 0.00000E+00
 -1      1980 5.97045E+01 3.09687E+00 0.00000E+00
 -1      1981 5.82045E+01 3.09687E+00 0.00000E+00
 -1      1982 5.80350E+01 4.00625E+00 0.00000E+00
 -1      1983 6.27045E+01 3.09687E+00 0.00000E+00
 -1      1984 6.12045E+01 3.09687E+00 0.00000E+00
 -1      1985 6.10350E+01 4.00625E+00 0.00000E+00
 -1      1986 6.57045E+01 3.09687E+00 0.00000E+00
 -1      1987 6.42045E+01 3.09687E+00 0.00000E+00
 -1      1988 6.40350E+01 4.00625E+00 0.00000E+00
 -1      1989 6.87045E+01 3.09687E+00 0.00000E+00
 -1      1990 6.72045E+01 3.09687E+00 0.00000E+00
 -1      1991 6.70350E+01 4.00625E+00 0.00000E+00
 -1      1992 7.17045E+01 3.09687E+00 0.00000E+00
 -1      1993 7.02045E+01 3.09687E+00 0.00000E+00
 -1      1994 7.00350E+01 4.00625E+00 0.00000E+00
 -1      1995 7.47045E+01 3.09687E+00 0.00000E+00
 -1      1996 7.32045E+01 3.09687E+00 0.00000E+00
 -1      1997 7.30350E+01 4.00625E+00 0.00000E+00
 -1      1998 7.77045E+01 3.09687E+00 0.00000E+00
 -1      1999 7.62045E+01 3.09687E+00 0.00000E+00
 -1      2000 7.60350E+01 4.00625E+00 0.00000E+00
 -1      2001 8.07045E+01 3.09687E+00 0.00000E+00
 -1      2002 7.92045E+01 3.09687E+00 0.00000E+00
 -1      2003 7.90350E+01 4.00625E+00 0.00000E+00
 -1      2004 8.37045E+01 3.09687E+00 0.00000E+00
 -1      2005 8.22045E+01 3.09687E+00 0.00000E+00
 -1      2006 8.20350E+01 4.00625E+00 0.00000E+00
 -1      2007 8.67045E+01 3.09687E+00 0.00000E+00
 -1      2008 8.52045E+01 3.09687E+00 0.00000E+00
 -1      2009 8.50350E+01 4.00625E+00 0.00000E+00
 -1      2010 8.97045E+01 3.09687E+00 0.00000E+00
 -1      2011 8.82045E+01 3.09687E+00 0.00000E+00
 -1      2012 8.80350E+01 4.00625E+00 0.00000E+00
 -1      2013 9.27045E+01 3.09687E+00 0.00000E+00
 -1      2014 9.12045E+01 3.09687E+00 0.00000E+00
 -1      2015 9.10350E+01 4.00625E+00 0.00000E+00
 -1      2016 9.57045E+01 3.09687E+00 0.00000E+00
 -1      2017 9.42045E+01 3.09687E+00 0.00000E+00
 -1      2018 9.40350E+01 4.00625E+00 0.00000E+00
 -1      2019 9.87045E+01 3.09687E+00 0.00000E+00
 -1      2020 9.72045E+01 3.09687E+00 0.00000E+00
 -1      2021 9.70350E+01 4.00625E+00 0.00000E+00
 -1      2022 1.01704E+02 3.09687E+00 0.00000E+00
 -1      2023 1.00204E+02 3.09687E+00 0.00000E+00
 -1      2024 1.00035E+02 4.00625E+00 0.00000E+00
 -1      2025 1.04704E+02 3.09687E+00 0.00000E+00
 -1      2026 1.03204E+02 3.09687E+00 0.00000E+00
 -1      2027 1.03035E+02 4.00625E+00 0.00000E+00
 -1      2028 1.07704E+02 3.09687E+00 0.00000E+00
 -1      2029 1.06204E+02 3.09687E+00 0.00000E+00
 -1      2030 1.06035E+02 4.00625E+00 0.00000E+00
 -1      2031 1.10704E+02 3.09687E+00 0.00000E+00
 -1      2032 1.09204E+02 3.09687E+00 0.00000E+00
 -1      2033 1.09035E+02 4.00625E+00 0.00000E+00
 -1      2034 1.13704E+02 3.09687E+00 0.00000E+00
 -1      2035 1.12204E+02 3.09687E+00 0.00000E+00
 -1      2036 1.12035E+02 4.00625E+00 0.00000E+00
 -1      2037 1.16704E+02 3.09687E+00 0.00000E+00
 -1      2038 1.15204E+02 3.09687E+00 0.00000E+00
 -1      2039 1.15035E+02 4.00625E+00 0.00000E+00
 -1      2040 1.19704E+02 3.09687E+00 0.00000E+00
 -1      2041 1.18204E+02 3.09687E+00 0.00000E+00
 -1      2042 1.18035E+02 4.00625E+00 0.00000E+00
 -1      2043 1.22704E+02 3.09687E+00 0.00000E+00
 -1      2044 1.21204E+02 3.09687E+00 0.00000E+00
 -1      2045 1.21035E+02 4.00625E+00 0.00000E+00
 -1      2046 1.25704E+02 3.09687E+00 0.00000E+00
 -1      2047 1.24204E+02 3.09687E+00 0.00000E+00
 -1      2048 1.24035E+02 4.00625E+00 0.00000E+00
 -1      2049 1.28704E+02 3.09687E+00 0.00000E+00
 -1      2050 1.27204E+02 3.09687E+00 0.00000E+00
 -1      2051 1.27035E+02 4.00625E+00 0.00000E+00
 -1      2052 1.31704E+02 3.09687E+00 0.00000E+00
 -1      2053 1.30204E+02 3.09687E+00 0.00000E+00
 -1      2054 1.30035E+02 4.00625E+00 0.00000E+00
 -1      2055 1.34704E+02 3.09687E+00 0.00000E+00
 -1      2056 1.33204E+02 3.09687E+00 0.00000E+00
 -1      2057 1.33035E+02 4.00625E+00 0.00000E+00
 -1      2058 1.37704E+02 3.09687E+00 0.00000E+00
 -1      2059 1.36204E+02 3.09687E+00 0.00000E+00
 -1      2060 1.36035E+02 4.00625E+00 0.00000E+00
 -1      2061 1.40704E+02 3.09687E+00 0.00000E+00
 -1      2062 1.39204E+02 3.09687E+00 0.00000E+00
 -1      2063 1.39035E+02 4.00625E+00 0.00000E+00
 -1      2064 1.43704E+02 3.09687E+00 0.00000E+00
 -1      2065 1.42204E+02 3.09687E+00 0.00000E+00
 -1      2066 1.42035E+02 4.00625E+00 0.00000E+00
 -1      2067 1.46171E+02 3.20156E+00 0.00000E+00
 -1      2068 1.44671E+02 3.20156E+00 0.00000E+00
 -1      2069 1.44502E+02 4.11094E+00 0.00000E+00
 -1      2070 1.46435E+02 4.32031E+00 0.00000E+00
 -1      2071 1.46103E+02 1.25375E+01 0.00000E+00
 -1      2072 1.46103E+02 1.10625E+01 0.00000E+00
 -1      2073 1.46103E+02 9.58750E+00 0.00000E+00
 -1      2074 1.46103E+02 8.11250E+00 0.00000E+00
 -1      2075 1.44804E+02 1.03250E+01 0.00000E+00
 -1      2076 1.46269E+02 6.95391E+00 0.00000E+00
 -1      2077 1.46269E+02 5.47891E+00 0.00000E+00
 -1      2078 1.45302E+02 5.37422E+00 0.00000E+00
 -1      2079 1.44970E+02 7.69141E+00 0.00000E+00
 -1      2080 1.46103E+02 1.54875E+01 0.00000E+00
 -1      2081 1.46103E+02 1.40125E+01 0.00000E+00
 -1      2082 1.44804E+02 1.32750E+01 0.00000E+00
 -1      2083 1.46103E+02 1.84375E+01 0.00000E+00
 -1      2084 1.46103E+02 1.69625E+01 0.00000E+00
 -1      2085 1.44804E+02 1.62250E+01 0.00000E+00
 -1      2086 1.46103E+02 2.13375E+01 0.00000E+00
 -1      2087 1.46103E+02 1.98875E+01 0.00000E+00
 -1      2088 1.44804E+02 1.91500E+01 0.00000E+00
 -1      2089 1.46103E+02 2.42875E+01 0.00000E+00
 -1      2090 1.46103E+02 2.28125E+01 0.00000E+00
 -1      2091 1.44804E+02 2.20750E+01 0.00000E+00
 -1      2092 1.46103E+02 2.71875E+01 0.00000E+00
 -1      2093 1.46103E+02 2.57375E+01 0.00000E+00
 -1      2094 1.44804E+02 2.50000E+01 0.00000E+00
 -1      2095 1.46103E+02 3.01375E+01 0.00000E+00
 -1      2096 1.46103E+02 2.86625E+01 0.00000E+00
 -1      2097 1.44804E+02 2.79250E+01 0.00000E+00
 -1      2098 1.46103E+02 3.30875E+01 0.00000E+00
 -1      2099 1.46103E+02 3.16125E+01 0.00000E+00
 -1      2100 1.44804E+02 3.08750E+01 0.00000E+00
 -1      2101 1.46103E+02 3.60375E+01 0.00000E+00
 -1      2102 1.46103E+02 3.45625E+01 0.00000E+00
 -1      2103 1.44804E+02 3.38250E+01 0.00000E+00
 -1      2104 1.46103E+02 3.89875E+01 0.00000E+00
 -1      2105 1.46103E+02 3.75125E+01 0.00000E+00
 -1      2106 1.44804E+02 3.67750E+01 0.00000E+00
 -1      2107 1.46103E+02 4.19375E+01 0.00000E+00
 -1      2108 1.46103E+02 4.04625E+01 0.00000E+00
 -1      2109 1.44804E+02 3.97250E+01 0.00000E+00
 -1      2110 1.35567E+02 2.13155E+01 0.00000E+00
 -1      2111 1.35918E+02 2.21458E+01 0.00000E+00
 -1      2112 1.36633E+02 2.51315E+01 0.00000E+00
 -1      2113 1.36558E+02 2.60328E+01 0.00000E+00
 -1      2114 1.36206E+02 2.31078E+01 0.00000E+00
 -1      2115 1.36444E+02 2.39836E+01 0.00000E+00
 -1      2116 1.34297E+02 1.96608E+01 0.00000E+00
 -1      2117 1.34928E+02 2.03356E+01 0.00000E+00
 -1      2118 1.32980E+02 1.83732E+01 0.00000E+00
 -1      2119 1.33638E+02 1.90170E+01 0.00000E+00
 -1      2120 1.34519E+02 1.88258E+01 0.00000E+00
 -1      2121 3.89700E+00 3.74688E+01 0.00000E+00
 -1      2122 3.89700E+00 3.89437E+01 0.00000E+00
 -1      2123 5.19600E+00 3.96813E+01 0.00000E+00
 -1      2124 5.19600E+00 3.67438E+01 0.00000E+00
 -1      2125 1.29358E+02 1.68057E+01 0.00000E+00
 -1      2126 1.30216E+02 1.71032E+01 0.00000E+00
 -1      2127 1.27350E+02 1.63575E+01 0.00000E+00
 -1      2128 1.28291E+02 1.64213E+01 0.00000E+00
 -1      2129 1.25322E+02 1.69506E+01 0.00000E+00
 -1      2130 1.26199E+02 1.66901E+01 0.00000E+00
 -1      2131 1.23559E+02 1.75693E+01 0.00000E+00
 -1      2132 1.24368E+02 1.72116E+01 0.00000E+00
 -1      2133 1.21960E+02 1.86187E+01 0.00000E+00
 -1      2134 1.22631E+02 1.80817E+01 0.00000E+00
 -1      2135 1.20758E+02 1.99528E+01 0.00000E+00
 -1      2136 1.21317E+02 1.93364E+01 0.00000E+00
 -1      2137 1.19740E+02 2.14677E+01 0.00000E+00
 -1      2138 1.20211E+02 2.07379E+01 0.00000E+00
 -1      2139 1.18861E+02 2.31878E+01 0.00000E+00
 -1      2140 1.19137E+02 2.23487E+01 0.00000E+00
 -1      2141 1.18721E+02 2.50973E+01 0.00000E+00
 -1      2142 1.18809E+02 2.42301E+01 0.00000E+00
 -1      2143 1.18802E+02 2.69971E+01 0.00000E+00
 -1      2144 1.18667E+02 2.61392E+01 0.00000E+00
 -1      2145 1.19156E+02 2.88035E+01 0.00000E+00
 -1      2146 1.18979E+02 2.79003E+01 0.00000E+00
 -1      2147 1.18189E+02 2.75852E+01 0.00000E+00
 -1      2148 1.20257E+02 3.06346E+01 0.00000E+00
 -1      2149 1.19702E+02 2.98797E+01 0.00000E+00
 -1      2150 1.21439E+02 3.21029E+01 0.00000E+00
 -1      2151 1.20839E+02 3.14245E+01 0.00000E+00
 -1      2152 1.23094E+02 3.33107E+01 0.00000E+00
 -1      2153 1.22292E+02 3.28820E+01 0.00000E+00
 -1      2154 1.24717E+02 3.41068E+01 0.00000E+00
 -1      2155 1.23906E+02 3.37087E+01 0.00000E+00
 -1      2156 1.23140E+02 3.41769E+01 0.00000E+00
 -1      2157 1.26751E+02 3.44837E+01 0.00000E+00
 -1      2158 1.25877E+02 3.44354E+01 0.00000E+00
 -1      2159 1.28510E+02 3.44470E+01 0.00000E+00
 -1      2160 1.27630E+02 3.44654E+01 0.00000E+00
 -1      2161 1.27151E+02 3.52138E+01 0.00000E+00
 -1      2162 1.30510E+02 3.40015E+01 0.00000E+00
 -1      2163 1.29661E+02 3.42883E+01 0.00000E+00
 -1      2164 1.32263E+02 3.32764E+01 0.00000E+00
 -1      2165 1.31421E+02 3.36476E+01 0.00000E+00
 -1      2166 1.33905E+02 3.19836E+01 0.00000E+00
 -1      2167 1.33241E+02 3.26216E+01 0.00000E+00
 -1      2168 1.35075E+02 3.04908E+01 0.00000E+00
 -1      2169 1.34518E+02 3.11883E+01 0.00000E+00
 -1      2170 1.35842E+02 2.86776E+01 0.00000E+00
 -1      2171 1.35566E+02 2.95038E+01 0.00000E+00
 -1      2172 1.36387E+02 2.68543E+01 0.00000E+00
 -1      2173 1.36215E+02 2.76758E+01 0.00000E+00
 -1      2174 1.37237E+02 2.64708E+01 0.00000E+00
 -1      2175 1.31122E+02 1.73489E+01 0.00000E+00
 -1      2176 1.31963E+02 1.76791E+01 0.00000E+00
 -1      2177 6.42300E+00 4.57510E+01 0.00000E+00
 -1      2178 1.32843E+02 1.74879E+01 0.00000E+00
 -1      2179 1.30919E+02 1.65482E+01 0.00000E+00
 -1      2180 7.17300E+00 4.44520E+01 0.00000E+00
 -1      2181 1.36743E+02 2.23914E+01 0.00000E+00
 -1      2182 1.37220E+02 2.45014E+01 0.00000E+00
 -1      2183 1.45665E+02 4.31193E+01 0.00000E+00
 -1      2184 1.35816E+02 2.04495E+01 0.00000E+00
 -1      2185 1.36692E+02 2.82941E+01 0.00000E+00
 -1      2186 1.35827E+02 3.02829E+01 0.00000E+00
 -1      2187 1.34722E+02 3.20652E+01 0.00000E+00
 -1      2188 1.33132E+02 3.35153E+01 0.00000E+00
 -1      2189 1.29182E+02 3.50367E+01 0.00000E+00
 -1      2190 1.25111E+02 3.49036E+01 0.00000E+00
 -1      2191 1.21475E+02 3.29997E+01 0.00000E+00
 -1      2192 1.18912E+02 2.95647E+01 0.00000E+00
 -1      2193 1.18121E+02 2.92496E+01 0.00000E+00
 -1      2194 1.18667E+02 3.03259E+01 0.00000E+00
 -1      2195 1.18066E+02 2.56401E+01 0.00000E+00
 -1      2196 1.18172E+02 2.35559E+01 0.00000E+00
 -1      2197 1.18827E+02 2.16326E+01 0.00000E+00
 -1      2198 1.19978E+02 1.99665E+01 0.00000E+00
 -1      2199 1.21169E+02 1.84636E+01 0.00000E+00
 -1      2200 1.22740E+02 1.72335E+01 0.00000E+00
 -1      2201 1.24622E+02 1.64601E+01 0.00000E+00
 -1      2202 1.28946E+02 1.59182E+01 0.00000E+00
 -1      2203 1.26727E+02 1.58665E+01 0.00000E+00
 -1      2204 1.20040E+02 3.14308E+01 0.00000E+00
 -1      2205 1.31244E+02 3.45241E+01 0.00000E+00
 -1      2206 1.07850E+01 5.30525E+00 0.00000E+00
 -1      2207 9.28500E+00 5.30525E+00 0.00000E+00
 -1      2208 6.49500E+00 3.01125E+01 0.00000E+00
 -1      2209 6.49500E+00 3.15875E+01 0.00000E+00
 -1      2210 6.49500E+00 3.30625E+01 0.00000E+00
 -1      2211 6.49500E+00 3.45375E+01 0.00000E+00
 -1      2212 7.79400E+00 3.23250E+01 0.00000E+00
 -1      2213 6.49500E+00 2.42125E+01 0.00000E+00
 -1      2214 6.49500E+00 2.56875E+01 0.00000E+00
 -1      2215 6.49500E+00 2.12625E+01 0.00000E+00
 -1      2216 6.49500E+00 2.27375E+01 0.00000E+00
 -1      2217 7.79400E+00 2.34750E+01 0.00000E+00
 -1      2218 6.49500E+00 1.83625E+01 0.00000E+00
 -1      2219 6.49500E+00 1.98125E+01 0.00000E+00
 -1      2220 7.79400E+00 2.05500E+01 0.00000E+00
 -1      2221 6.49500E+00 1.54125E+01 0.00000E+00
 -1      2222 6.49500E+00 1.68875E+01 0.00000E+00
 -1      2223 7.79400E+00 1.76250E+01 0.00000E+00
 -1      2224 6.49500E+00 1.24625E+01 0.00000E+00
 -1      2225 6.49500E+00 1.39375E+01 0.00000E+00
 -1      2226 7.79400E+00 1.46750E+01 0.00000E+00
 -1      2227 6.49500E+00 9.51250E+00 0.00000E+00
 -1      2228 6.49500E+00 1.09875E+01 0.00000E+00
 -1      2229 7.79400E+00 1.17250E+01 0.00000E+00
 -1      2230 1.37850E+01 5.30525E+00 0.00000E+00
 -1      2231 1.22850E+01 5.30525E+00 0.00000E+00
 -1      2232 1.15350E+01 6.60425E+00 0.00000E+00
 -1      2233 9.90000E+00 4.35050E+01 0.00000E+00
 -1      2234 1.14000E+01 4.35050E+01 0.00000E+00
 -1      2235 1.32817E+02 1.64324E+01 0.00000E+00
 -1      2236 1.33835E+02 1.71264E+01 0.00000E+00
 -1      2237 1.29000E+01 4.35050E+01 0.00000E+00
 -1      2238 1.44000E+01 4.35050E+01 0.00000E+00
 -1      2239 1.21500E+01 4.22060E+01 0.00000E+00
 -1      2240 1.59000E+01 4.35050E+01 0.00000E+00
 -1      2241 1.74000E+01 4.35050E+01 0.00000E+00
 -1      2242 1.51500E+01 4.22060E+01 0.00000E+00
 -1      2243 1.89000E+01 4.35050E+01 0.00000E+00
 -1      2244 2.04000E+01 4.35050E+01 0.00000E+00
 -1      2245 1.81500E+01 4.22060E+01 0.00000E+00
 -1      2246 2.19000E+01 4.35050E+01 0.00000E+00
 -1      2247 2.34000E+01 4.35050E+01 0.00000E+00
 -1      2248 2.11500E+01 4.22060E+01 0.00000E+00
 -1      2249 2.49000E+01 4.35050E+01 0.00000E+00
 -1      2250 2.64000E+01 4.35050E+01 0.00000E+00
 -1      2251 2.41500E+01 4.22060E+01 0.00000E+00
 -1      2252 2.79000E+01 4.35050E+01 0.00000E+00
 -1      2253 2.94000E+01 4.35050E+01 0.00000E+00
 -1      2254 2.71500E+01 4.22060E+01 0.00000E+00
 -1      2255 3.09000E+01 4.35050E+01 0.00000E+00
 -1      2256 3.24000E+01 4.35050E+01 0.00000E+00
 -1      2257 3.01500E+01 4.22060E+01 0.00000E+00
 -1      2258 3.39000E+01 4.35050E+01 0.00000E+00
 -1      2259 3.54000E+01 4.35050E+01 0.00000E+00
 -1      2260 3.31500E+01 4.22060E+01 0.00000E+00
 -1      2261 3.69000E+01 4.35050E+01 0.00000E+00
 -1      2262 3.84000E+01 4.35050E+01 0.00000E+00
 -1      2263 3.61500E+01 4.22060E+01 0.00000E+00
 -1      2264 3.99000E+01 4.35050E+01 0.00000E+00
 -1      2265 4.14000E+01 4.35050E+01 0.00000E+00
 -1      2266 3.91500E+01 4.22060E+01 0.00000E+00
 -1      2267 4.29000E+01 4.35050E+01 0.00000E+00
 -1      2268 4.44000E+01 4.35050E+01 0.00000E+00
 -1      2269 4.21500E+01 4.22060E+01 0.00000E+00
 -1      2270 4.59000E+01 4.35050E+01 0.00000E+00
 -1      2271 4.74000E+01 4.35050E+01 0.00000E+00
 -1      2272 4.51500E+01 4.22060E+01 0.00000E+00
 -1      2273 4.89000E+01 4.35050E+01 0.00000E+00
 -1      2274 5.04000E+01 4.35050E+01 0.00000E+00
 -1      2275 4.81500E+01 4.22060E+01 0.00000E+00
 -1      2276 5.19000E+01 4.35050E+01 0.00000E+00
 -1      2277 5.34000E+01 4.35050E+01 0.00000E+00
 -1      2278 5.11500E+01 4.22060E+01 0.00000E+00
 -1      2279 5.49000E+01 4.35050E+01 0.00000E+00
 -1      2280 5.64000E+01 4.35050E+01 0.00000E+00
 -1      2281 5.41500E+01 4.22060E+01 0.00000E+00
 -1      2282 5.79000E+01 4.35050E+01 0.00000E+00
 -1      2283 5.94000E+01 4.35050E+01 0.00000E+00
 -1      2284 5.71500E+01 4.22060E+01 0.00000E+00
 -1      2285 6.09000E+01 4.35050E+01 0.00000E+00
 -1      2286 6.24000E+01 4.35050E+01 0.00000E+00
 -1      2287 6.01500E+01 4.22060E+01 0.00000E+00
 -1      2288 6.39000E+01 4.35050E+01 0.00000E+00
 -1      2289 6.54000E+01 4.35050E+01 0.00000E+00
 -1      2290 6.31500E+01 4.22060E+01 0.00000E+00
 -1      2291 6.69000E+01 4.35050E+01 0.00000E+00
 -1      2292 6.84000E+01 4.35050E+01 0.00000E+00
 -1      2293 6.61500E+01 4.22060E+01 0.00000E+00
 -1      2294 6.99000E+01 4.35050E+01 0.00000E+00
 -1      2295 7.14000E+01 4.35050E+01 0.00000E+00
 -1      2296 6.91500E+01 4.22060E+01 0.00000E+00
 -1      2297 7.29000E+01 4.35050E+01 0.00000E+00
 -1      2298 7.44000E+01 4.35050E+01 0.00000E+00
 -1      2299 7.21500E+01 4.22060E+01 0.00000E+00
 -1      2300 7.59000E+01 4.35050E+01 0.00000E+00
 -1      2301 7.74000E+01 4.35050E+01 0.00000E+00
 -1      2302 7.51500E+01 4.22060E+01 0.00000E+00
 -1      2303 7.89000E+01 4.35050E+01 0.00000E+00
 -1      2304 8.04000E+01 4.35050E+01 0.00000E+00
 -1      2305 7.81500E+01 4.22060E+01 0.00000E+00
 -1      2306 8.19000E+01 4.35050E+01 0.00000E+00
 -1      2307 8.34000E+01 4.35050E+01 0.00000E+00
 -1      2308 8.11500E+01 4.22060E+01 0.00000E+00
 -1      2309 8.49000E+01 4.35050E+01 0.00000E+00
 -1      2310 8.64000E+01 4.35050E+01 0.00000E+00
 -1      2311 8.41500E+01 4.22060E+01 0.00000E+00
 -1      2312 8.79000E+01 4.35050E+01 0.00000E+00
 -1      2313 8.94000E+01 4.35050E+01 0.00000E+00
 -1      2314 8.71500E+01 4.22060E+01 0.00000E+00
 -1      2315 9.09000E+01 4.35050E+01 0.00000E+00
 -1      2316 9.24000E+01 4.35050E+01 0.00000E+00
 -1      2317 9.01500E+01 4.22060E+01 0.00000E+00
 -1      2318 9.39000E+01 4.35050E+01 0.00000E+00
 -1      2319 9.54000E+01 4.35050E+01 0.00000E+00
 -1      2320 9.31500E+01 4.22060E+01 0.00000E+00
 -1      2321 9.69000E+01 4.35050E+01 0.00000E+00
 -1      2322 9.84000E+01 4.35050E+01 0.00000E+00
 -1      2323 9.61500E+01 4.22060E+01 0.00000E+00
 -1      2324 9.99000E+01 4.35050E+01 0.00000E+00
 -1      2325 1.01400E+02 4.35050E+01 0.00000E+00
 -1      2326 9.91500E+01 4.22060E+01 0.00000E+00
 -1      2327 1.02900E+02 4.35050E+01 0.00000E+00
 -1      2328 1.04400E+02 4.35050E+01 0.00000E+00
 -1      2329 1.02150E+02 4.22060E+01 0.00000E+00
 -1      2330 1.05900E+02 4.35050E+01 0.00000E+00
 -1      2331 1.07400E+02 4.35050E+01 0.00000E+00
 -1      2332 1.05150E+02 4.22060E+01 0.00000E+00
 -1      2333 1.08900E+02 4.35050E+01 0.00000E+00
 -1      2334 1.10400E+02 4.35050E+01 0.00000E+00
 -1      2335 1.08150E+02 4.22060E+01 0.00000E+00
 -1      2336 1.11900E+02 4.35050E+01 0.00000E+00
 -1      2337 1.13400E+02 4.35050E+01 0.00000E+00
 -1      2338 1.11150E+02 4.22060E+01 0.00000E+00
 -1      2339 1.14900E+02 4.35050E+01 0.00000E+00
 -1      2340 1.16400E+02 4.35050E+01 0.00000E+00
 -1      2341 1.14150E+02 4.22060E+01 0.00000E+00
 -1      2342 1.17900E+02 4.35050E+01 0.00000E+00
 -1      2343 1.19400E+02 4.35050E+01 0.00000E+00
 -1      2344 1.17150E+02 4.22060E+01 0.00000E+00
 -1      2345 1.20900E+02 4.35050E+01 0.00000E+00
 -1      2346 1.22400E+02 4.35050E+01 0.00000E+00
 -1      2347 1.20150E+02 4.22060E+01 0.00000E+00
 -1      2348 1.23900E+02 4.35050E+01 0.00000E+00
 -1      2349 1.25400E+02 4.35050E+01 0.00000E+00
 -1      2350 1.23150E+02 4.22060E+01 0.00000E+00
 -1      2351 1.26900E+02 4.35050E+01 0.00000E+00
 -1      2352 1.28400E+02 4.35050E+01 0.00000E+00
 -1      2353 1.26150E+02 4.22060E+01 0.00000E+00
 -1      2354 1.29900E+02 4.35050E+01 0.00000E+00
 -1      2355 1.31400E+02 4.35050E+01 0.00000E+00
 -1      2356 1.29150E+02 4.22060E+01 0.00000E+00
 -1      2357 1.32900E+02 4.35050E+01 0.00000E+00
 -1      2358 1.34400E+02 4.35050E+01 0.00000E+00
 -1      2359 1.32150E+02 4.22060E+01 0.00000E+00
 -1      2360 1.35900E+02 4.35050E+01 0.00000E+00
 -1      2361 1.37400E+02 4.35050E+01 0.00000E+00
 -1      2362 1.35150E+02 4.22060E+01 0.00000E+00
 -1      2363 1.38900E+02 4.35050E+01 0.00000E+00
 -1      2364 1.40400E+02 4.35050E+01 0.00000E+00
 -1      2365 1.38150E+02 4.22060E+01 0.00000E+00
 -1      2366 1.97850E+01 5.30525E+00 0.00000E+00
 -1      2367 1.82850E+01 5.30525E+00 0.00000E+00
 -1      2368 2.27850E+01 5.30525E+00 0.00000E+00
 -1      2369 2.12850E+01 5.30525E+00 0.00000E+00
 -1      2370 2.05350E+01 6.60425E+00 0.00000E+00
 -1      2371 2.57850E+01 5.30525E+00 0.00000E+00
 -1      2372 2.42850E+01 5.30525E+00 0.00000E+00
 -1      2373 2.35350E+01 6.60425E+00 0.00000E+00
 -1      2374 2.87850E+01 5.30525E+00 0.00000E+00
 -1      2375 2.72850E+01 5.30525E+00 0.00000E+00
 -1      2376 2.65350E+01 6.60425E+00 0.00000E+00
 -1      2377 3.17850E+01 5.30525E+00 0.00000E+00
 -1      2378 3.02850E+01 5.30525E+00 0.00000E+00
 -1      2379 2.95350E+01 6.60425E+00 0.00000E+00
 -1      2380 3.47850E+01 5.30525E+00 0.00000E+00
 -1      2381 3.32850E+01 5.30525E+00 0.00000E+00
 -1      2382 3.25350E+01 6.60425E+00 0.00000E+00
 -1      2383 3.77850E+01 5.30525E+00 0.00000E+00
 -1      2384 3.62850E+01 5.30525E+00 0.00000E+00
 -1      2385 3.55350E+01 6.60425E+00 0.00000E+00
 -1      2386 4.07850E+01 5.30525E+00 0.00000E+00
 -1      2387 3.92850E+01 5.30525E+00 0.00000E+00
 -1      2388 3.85350E+01 6.60425E+00 0.00000E+00
 -1      2389 4.37850E+01 5.30525E+00 0.00000E+00
 -1      2390 4.22850E+01 5.30525E+00 0.00000E+00
 -1      2391 4.15350E+01 6.60425E+00 0.00000E+00
 -1      2392 4.67850E+01 5.30525E+00 0.00000E+00
 -1      2393 4.52850E+01 5.30525E+00 0.00000E+00
 -1      2394 4.45350E+01 6.60425E+00 0.00000E+00
 -1      2395 4.97850E+01 5.30525E+00 0.00000E+00
 -1      2396 4.82850E+01 5.30525E+00 0.00000E+00
 -1      2397 4.75350E+01 6.60425E+00 0.00000E+00
 -1      2398 5.27850E+01 5.30525E+00 0.00000E+00
 -1      2399 5.12850E+01 5.30525E+00 0.00000E+00
 -1      2400 5.05350E+01 6.60425E+00 0.00000E+00
 -1      2401 5.57850E+01 5.30525E+00 0.00000E+00
 -1      2402 5.42850E+01 5.30525E+00 0.00000E+00
 -1      2403 5.35350E+01 6.60425E+00 0.00000E+00
 -1      2404 5.87850E+01 5.30525E+00 0.00000E+00
 -1      2405 5.72850E+01 5.30525E+00 0.00000E+00
 -1      2406 5.65350E+01 6.60425E+00 0.00000E+00
 -1      2407 6.17850E+01 5.30525E+00 0.00000E+00
 -1      2408 6.02850E+01 5.30525E+00 0.00000E+00
 -1      2409 5.95350E+01 6.60425E+00 0.00000E+00
 -1      2410 6.47850E+01 5.30525E+00 0.00000E+00
 -1      2411 6.32850E+01 5.30525E+00 0.00000E+00
 -1      2412 6.25350E+01 6.60425E+00 0.00000E+00
 -1      2413 6.77850E+01 5.30525E+00 0.00000E+00
 -1      2414 6.62850E+01 5.30525E+00 0.00000E+00
 -1      2415 6.55350E+01 6.60425E+00 0.00000E+00
 -1      2416 7.07850E+01 5.30525E+00 0.00000E+00
 -1      2417 6.92850E+01 5.30525E+00 0.00000E+00
 -1      2418 6.85350E+01 6.60425E+00 0.00000E+00
 -1      2419 7.37850E+01 5.30525E+00 0.00000E+00
 -1      2420 7.22850E+01 5.30525E+00 0.00000E+00
 -1      2421 7.15350E+01 6.60425E+00 0.00000E+00
 -1      2422 7.67850E+01 5.30525E+00 0.00000E+00
 -1      2423 7.52850E+01 5.30525E+00 0.00000E+00
 -1      2424 7.45350E+01 6.60425E+00 0.00000E+00
 -1      2425 7.97850E+01 5.30525E+00 0.00000E+00
 -1      2426 7.82850E+01 5.30525E+00 0.00000E+00
 -1      2427 7.75350E+01 6.60425E+00 0.00000E+00
 -1      2428 8.27850E+01 5.30525E+00 0.00000E+00
 -1      2429 8.12850E+01 5.30525E+00 0.00000E+00
 -1      2430 8.05350E+01 6.60425E+00 0.00000E+00
 -1      2431 8.57850E+01 5.30525E+00 0.00000E+00
 -1      2432 8.42850E+01 5.30525E+00 0.00000E+00
 -1      2433 8.35350E+01 6.60425E+00 0.00000E+00
 -1      2434 8.87850E+01 5.30525E+00 0.00000E+00
 -1      2435 8.72850E+01 5.30525E+00 0.00000E+00
 -1      2436 8.65350E+01 6.60425E+00 0.00000E+00
 -1      2437 9.17850E+01 5.30525E+00 0.00000E+00
 -1      2438 9.02850E+01 5.30525E+00 0.00000E+00
 -1      2439 8.95350E+01 6.60425E+00 0.00000E+00
 -1      2440 9.47850E+01 5.30525E+00 0.00000E+00
 -1      2441 9.32850E+01 5.30525E+00 0.00000E+00
 -1      2442 9.25350E+01 6.60425E+00 0.00000E+00
 -1      2443 9.77850E+01 5.30525E+00 0.00000E+00
 -1      2444 9.62850E+01 5.30525E+00 0.00000E+00
 -1      2445 9.55350E+01 6.60425E+00 0.00000E+00
 -1      2446 1.00785E+02 5.30525E+00 0.00000E+00
 -1      2447 9.92850E+01 5.30525E+00 0.00000E+00
 -1      2448 9.85350E+01 6.60425E+00 0.00000E+00
 -1      2449 1.03785E+02 5.30525E+00 0.00000E+00
 -1      2450 1.02285E+02 5.30525E+00 0.00000E+00
 -1      2451 1.01535E+02 6.60425E+00 0.00000E+00
 -1      2452 1.06785E+02 5.30525E+00 0.00000E+00
 -1      2453 1.05285E+02 5.30525E+00 0.00000E+00
 -1      2454 1.04535E+02 6.60425E+00 0.00000E+00
 -1      2455 1.09785E+02 5.30525E+00 0.00000E+00
 -1      2456 1.08285E+02 5.30525E+00 0.00000E+00
 -1      2457 1.07535E+02 6.60425E+00 0.00000E+00
 -1      2458 1.12785E+02 5.30525E+00 0.00000E+00
 -1      2459 1.11285E+02 5.30525E+00 0.00000E+00
 -1      2460 1.10535E+02 6.60425E+00 0.00000E+00
 -1      2461 1.15785E+02 5.30525E+00 0.00000E+00
 -1      2462 1.14285E+02 5.30525E+00 0.00000E+00
 -1      2463 1.13535E+02 6.60425E+00 0.00000E+00
 -1      2464 1.18785E+02 5.30525E+00 0.00000E+00
 -1      2465 1.17285E+02 5.30525E+00 0.00000E+00
 -1      2466 1.16535E+02 6.60425E+00 0.00000E+00
 -1      2467 1.21785E+02 5.30525E+00 0.00000E+00
 -1      2468 1.20285E+02 5.30525E+00 0.00000E+00
 -1      2469 1.19535E+02 6.60425E+00 0.00000E+00
 -1      2470 1.24785E+02 5.30525E+00 0.00000E+00
 -1      2471 1.23285E+02 5.30525E+00 0.00000E+00
 -1      2472 1.22535E+02 6.60425E+00 0.00000E+00
 -1      2473 1.27785E+02 5.30525E+00 0.00000E+00
 -1      2474 1.26285E+02 5.30525E+00 0.00000E+00
 -1      2475 1.25535E+02 6.60425E+00 0.00000E+00
 -1      2476 1.30785E+02 5.30525E+00 0.00000E+00
 -1      2477 1.29285E+02 5.30525E+00 0.00000E+00
 -1      2478 1.28535E+02 6.60425E+00 0.00000E+00
 -1      2479 1.33785E+02 5.30525E+00 0.00000E+00
 -1      2480 1.32285E+02 5.30525E+00 0.00000E+00
 -1      2481 1.31535E+02 6.60425E+00 0.00000E+00
 -1      2482 1.36785E+02 5.30525E+00 0.00000E+00
 -1      2483 1.35285E+02 5.30525E+00 0.00000E+00
 -1      2484 1.34535E+02 6.60425E+00 0.00000E+00
 -1      2485 1.39785E+02 5.30525E+00 0.00000E+00
 -1      2486 1.38285E+02 5.30525E+00 0.00000E+00
 -1      2487 1.37535E+02 6.60425E+00 0.00000E+00
 -1      2488 1.42785E+02 5.30525E+00 0.00000E+00
 -1      2489 1.41285E+02 5.30525E+00 0.00000E+00
 -1      2490 1.40535E+02 6.60425E+00 0.00000E+00
 -1      2491 1.44336E+02 5.26953E+00 0.00000E+00
 -1      2492 1.43505E+02 1.69625E+01 0.00000E+00
 -1      2493 1.43505E+02 1.54875E+01 0.00000E+00
 -1      2494 1.43505E+02 1.98625E+01 0.00000E+00
 -1      2495 1.43505E+02 1.84125E+01 0.00000E+00
 -1      2496 1.42206E+02 1.76750E+01 0.00000E+00
 -1      2497 1.43505E+02 1.10625E+01 0.00000E+00
 -1      2498 1.43505E+02 9.58750E+00 0.00000E+00
 -1      2499 1.43505E+02 1.40125E+01 0.00000E+00
 -1      2500 1.43505E+02 1.25375E+01 0.00000E+00
 -1      2501 1.42206E+02 1.18000E+01 0.00000E+00
 -1      2502 1.42206E+02 1.47500E+01 0.00000E+00
 -1      2503 1.43505E+02 2.28125E+01 0.00000E+00
 -1      2504 1.43505E+02 2.13375E+01 0.00000E+00
 -1      2505 1.42206E+02 2.06000E+01 0.00000E+00
 -1      2506 1.43505E+02 2.57125E+01 0.00000E+00
 -1      2507 1.43505E+02 2.42625E+01 0.00000E+00
 -1      2508 1.42206E+02 2.35250E+01 0.00000E+00
 -1      2509 1.43505E+02 2.86625E+01 0.00000E+00
 -1      2510 1.43505E+02 2.71875E+01 0.00000E+00
 -1      2511 1.42206E+02 2.64500E+01 0.00000E+00
 -1      2512 1.43505E+02 3.16125E+01 0.00000E+00
 -1      2513 1.43505E+02 3.01375E+01 0.00000E+00
 -1      2514 1.42206E+02 2.94000E+01 0.00000E+00
 -1      2515 1.43505E+02 3.45625E+01 0.00000E+00
 -1      2516 1.43505E+02 3.30875E+01 0.00000E+00
 -1      2517 1.42206E+02 3.23500E+01 0.00000E+00
 -1      2518 1.43505E+02 3.75125E+01 0.00000E+00
 -1      2519 1.43505E+02 3.60375E+01 0.00000E+00
 -1      2520 1.42206E+02 3.53000E+01 0.00000E+00
 -1      2521 1.43505E+02 4.04625E+01 0.00000E+00
 -1      2522 1.43505E+02 3.89875E+01 0.00000E+00
 -1      2523 1.42206E+02 3.82500E+01 0.00000E+00
 -1      2524 1.38054E+02 2.37747E+01 0.00000E+00
 -1      2525 1.38243E+02 2.49226E+01 0.00000E+00
 -1      2526 1.36145E+02 1.95370E+01 0.00000E+00
 -1      2527 1.36784E+02 2.05168E+01 0.00000E+00
 -1      2528 1.67850E+01 5.30525E+00 0.00000E+00
 -1      2529 1.52850E+01 5.30525E+00 0.00000E+00
 -1      2530 1.75350E+01 6.60425E+00 0.00000E+00
 -1      2531 1.30712E+02 1.55168E+01 0.00000E+00
 -1      2532 1.31619E+02 1.57625E+01 0.00000E+00
 -1      2533 1.44321E+02 4.30606E+01 0.00000E+00
 -1      2534 1.37565E+02 2.80487E+01 0.00000E+00
 -1      2535 1.37191E+02 2.90505E+01 0.00000E+00
 -1      2536 1.34907E+02 1.77711E+01 0.00000E+00
 -1      2537 1.35565E+02 1.84149E+01 0.00000E+00
 -1      2538 1.38162E+02 2.62353E+01 0.00000E+00
 -1      2539 1.37991E+02 2.70568E+01 0.00000E+00
 -1      2540 1.21324E+02 3.40225E+01 0.00000E+00
 -1      2541 1.20470E+02 3.32434E+01 0.00000E+00
 -1      2542 1.17182E+02 2.61162E+01 0.00000E+00
 -1      2543 1.17237E+02 2.50743E+01 0.00000E+00
 -1      2544 6.49500E+00 2.71625E+01 0.00000E+00
 -1      2545 6.49500E+00 2.86375E+01 0.00000E+00
 -1      2546 7.79400E+00 2.93750E+01 0.00000E+00
 -1      2547 7.79400E+00 2.64250E+01 0.00000E+00
 -1      2548 1.25925E+02 1.52492E+01 0.00000E+00
 -1      2549 1.27077E+02 1.49165E+01 0.00000E+00
 -1      2550 1.19641E+02 3.23346E+01 0.00000E+00
 -1      2551 1.19058E+02 3.15448E+01 0.00000E+00
 -1      2552 1.28578E+02 1.47481E+01 0.00000E+00
 -1      2553 1.29645E+02 1.51325E+01 0.00000E+00
 -1      2554 1.30345E+02 1.43467E+01 0.00000E+00
 -1      2555 1.23940E+02 1.58442E+01 0.00000E+00
 -1      2556 1.24895E+02 1.55833E+01 0.00000E+00
 -1      2557 1.21780E+02 1.65924E+01 0.00000E+00
 -1      2558 1.22708E+02 1.60800E+01 0.00000E+00
 -1      2559 1.20302E+02 1.83342E+01 0.00000E+00
 -1      2560 1.20945E+02 1.76164E+01 0.00000E+00
 -1      2561 1.19070E+02 1.99163E+01 0.00000E+00
 -1      2562 1.19618E+02 1.91312E+01 0.00000E+00
 -1      2563 1.17863E+02 2.16784E+01 0.00000E+00
 -1      2564 1.18467E+02 2.07973E+01 0.00000E+00
 -1      2565 1.18106E+02 1.99620E+01 0.00000E+00
 -1      2566 1.17288E+02 2.40320E+01 0.00000E+00
 -1      2567 1.17340E+02 2.29897E+01 0.00000E+00
 -1      2568 1.16405E+02 2.45080E+01 0.00000E+00
 -1      2569 1.17354E+02 2.82182E+01 0.00000E+00
 -1      2570 1.17176E+02 2.73151E+01 0.00000E+00
 -1      2571 1.32070E+02 3.53025E+01 0.00000E+00
 -1      2572 1.31160E+02 3.56565E+01 0.00000E+00
 -1      2573 1.23131E+02 3.52210E+01 0.00000E+00
 -1      2574 1.22320E+02 3.48229E+01 0.00000E+00
 -1      2575 1.25435E+02 3.59736E+01 0.00000E+00
 -1      2576 1.24275E+02 3.56450E+01 0.00000E+00
 -1      2577 1.27608E+02 3.60620E+01 0.00000E+00
 -1      2578 1.26729E+02 3.60804E+01 0.00000E+00
 -1      2579 1.30008E+02 3.58152E+01 0.00000E+00
 -1      2580 1.28857E+02 3.59739E+01 0.00000E+00
 -1      2581 1.30835E+02 3.65937E+01 0.00000E+00
 -1      2582 1.34098E+02 3.39004E+01 0.00000E+00
 -1      2583 1.33120E+02 3.45552E+01 0.00000E+00
 -1      2584 1.35775E+02 3.22424E+01 0.00000E+00
 -1      2585 1.35161E+02 3.30377E+01 0.00000E+00
 -1      2586 1.36841E+02 3.01717E+01 0.00000E+00
 -1      2587 1.36349E+02 3.11587E+01 0.00000E+00
 -1      2588 6.55950E+00 4.28890E+01 0.00000E+00
 -1      2589 8.53650E+00 4.32410E+01 0.00000E+00
 -1      2590 9.28650E+00 4.19420E+01 0.00000E+00
 -1      2591 6.55950E+00 4.14140E+01 0.00000E+00
 -1      2592 8.07525E+00 5.11044E+00 0.00000E+00
 -1      2593 6.57525E+00 5.11044E+00 0.00000E+00
 -1      2594 6.40575E+00 6.01981E+00 0.00000E+00
 -1      2595 8.82525E+00 6.40944E+00 0.00000E+00
 -1      2596 1.37300E+02 2.17004E+01 0.00000E+00
 -1      2597 1.37588E+02 2.26624E+01 0.00000E+00
 -1      2598 1.26974E+02 1.35135E+01 0.00000E+00
 -1      2599 1.27776E+02 1.41308E+01 0.00000E+00
 -1      2600 1.28475E+02 1.33451E+01 0.00000E+00
 -1      2601 7.79400E+00 3.52687E+01 0.00000E+00
 -1      2602 6.49500E+00 3.60062E+01 0.00000E+00
 -1      2603 6.49500E+00 3.74750E+01 0.00000E+00
 -1      2604 1.45350E+01 6.60425E+00 0.00000E+00
 -1      2605 6.40575E+00 7.49481E+00 0.00000E+00
 -1      2606 1.37629E+02 2.07879E+01 0.00000E+00
 -1      2607 6.52725E+00 3.87101E+01 0.00000E+00
 -1      2608 6.52725E+00 4.01789E+01 0.00000E+00
 -1      2609 7.89075E+00 4.04429E+01 0.00000E+00
 -1      2610 7.82625E+00 3.79726E+01 0.00000E+00
 -1      2611 1.37713E+02 2.99263E+01 0.00000E+00
 -1      2612 1.36788E+02 3.21312E+01 0.00000E+00
 -1      2613 1.34881E+02 1.67156E+01 0.00000E+00
 -1      2614 1.28435E+02 3.68404E+01 0.00000E+00
 -1      2615 1.25892E+02 3.68217E+01 0.00000E+00
 -1      2616 1.43586E+02 6.56853E+00 0.00000E+00
 -1      2617 1.36533E+02 1.84823E+01 0.00000E+00
 -1      2618 1.43419E+02 7.72713E+00 0.00000E+00
 -1      2619 1.23454E+02 3.62910E+01 0.00000E+00
 -1      2620 1.38997E+02 2.55087E+01 0.00000E+00
 -1      2621 1.38611E+02 2.30837E+01 0.00000E+00
 -1      2622 1.33036E+02 3.56876E+01 0.00000E+00
 -1      2623 1.16979E+02 2.21544E+01 0.00000E+00
 -1      2624 1.16619E+02 2.13191E+01 0.00000E+00
 -1      2625 1.16096E+02 2.26305E+01 0.00000E+00
 -1      2626 7.70475E+00 8.23231E+00 0.00000E+00
 -1      2627 1.25244E+02 1.46333E+01 0.00000E+00
 -1      2628 1.42758E+02 4.35929E+01 0.00000E+00
 -1      2629 1.43241E+02 4.17323E+01 0.00000E+00
 -1      2630 1.41942E+02 4.09948E+01 0.00000E+00
 -1      2631 1.41414E+02 4.35342E+01 0.00000E+00
 -1      2632 1.38490E+02 2.78133E+01 0.00000E+00
 -1      2633 1.42120E+02 8.46463E+00 0.00000E+00
 -1      2634 1.19489E+02 3.33574E+01 0.00000E+00
 -1      2635 1.19394E+02 1.82840E+01 0.00000E+00
 -1      2636 1.20914E+02 1.64629E+01 0.00000E+00
 -1      2637 1.16347E+02 2.67492E+01 0.00000E+00
 -1      2638 1.18268E+02 3.12297E+01 0.00000E+00
 -1      2639 1.21315E+02 3.50667E+01 0.00000E+00
 -1      2640 1.32611E+02 1.54010E+01 0.00000E+00
 -1      2641 1.22981E+02 1.52031E+01 0.00000E+00
 -1      2642 1.17109E+02 2.89794E+01 0.00000E+00
 -1      2643 1.35150E+02 3.40776E+01 0.00000E+00
 -1      2644 1.40664E+02 4.22352E+01 0.00000E+00
 -1      2645 9.09300E+00 1.98250E+01 0.00000E+00
 -1      2646 9.09300E+00 2.12750E+01 0.00000E+00
 -1      2647 9.09300E+00 2.27500E+01 0.00000E+00
 -1      2648 9.09300E+00 2.42250E+01 0.00000E+00
 -1      2649 1.03920E+01 2.20250E+01 0.00000E+00
 -1      2650 9.09300E+00 1.39375E+01 0.00000E+00
 -1      2651 9.09300E+00 1.54125E+01 0.00000E+00
 -1      2652 9.09300E+00 1.09875E+01 0.00000E+00
 -1      2653 9.09300E+00 1.24625E+01 0.00000E+00
 -1      2654 1.03920E+01 1.32000E+01 0.00000E+00
 -1      2655 1.22850E+01 7.90325E+00 0.00000E+00
 -1      2656 1.07850E+01 7.90325E+00 0.00000E+00
 -1      2657 1.24477E+02 1.40244E+01 0.00000E+00
 -1      2658 1.25508E+02 1.36904E+01 0.00000E+00
 -1      2659 8.91450E+00 8.42712E+00 0.00000E+00
 -1      2660 1.31562E+02 3.76128E+01 0.00000E+00
 -1      2661 1.30411E+02 3.77715E+01 0.00000E+00
 -1      2662 1.37981E+02 3.20697E+01 0.00000E+00
 -1      2663 1.37406E+02 3.31534E+01 0.00000E+00
 -1      2664 1.44000E+01 4.09070E+01 0.00000E+00
 -1      2665 1.59000E+01 4.09070E+01 0.00000E+00
 -1      2666 1.74000E+01 4.09070E+01 0.00000E+00
 -1      2667 1.89000E+01 4.09070E+01 0.00000E+00
 -1      2668 1.66500E+01 3.96080E+01 0.00000E+00
 -1      2669 2.04000E+01 4.09070E+01 0.00000E+00
 -1      2670 2.19000E+01 4.09070E+01 0.00000E+00
 -1      2671 1.96500E+01 3.96080E+01 0.00000E+00
 -1      2672 2.34000E+01 4.09070E+01 0.00000E+00
 -1      2673 2.49000E+01 4.09070E+01 0.00000E+00
 -1      2674 2.26500E+01 3.96080E+01 0.00000E+00
 -1      2675 2.64000E+01 4.09070E+01 0.00000E+00
 -1      2676 2.79000E+01 4.09070E+01 0.00000E+00
 -1      2677 2.56500E+01 3.96080E+01 0.00000E+00
 -1      2678 2.94000E+01 4.09070E+01 0.00000E+00
 -1      2679 3.09000E+01 4.09070E+01 0.00000E+00
 -1      2680 2.86500E+01 3.96080E+01 0.00000E+00
 -1      2681 3.24000E+01 4.09070E+01 0.00000E+00
 -1      2682 3.39000E+01 4.09070E+01 0.00000E+00
 -1      2683 3.16500E+01 3.96080E+01 0.00000E+00
 -1      2684 3.54000E+01 4.09070E+01 0.00000E+00
 -1      2685 3.69000E+01 4.09070E+01 0.00000E+00
 -1      2686 3.46500E+01 3.96080E+01 0.00000E+00
 -1      2687 3.84000E+01 4.09070E+01 0.00000E+00
 -1      2688 3.99000E+01 4.09070E+01 0.00000E+00
 -1      2689 3.76500E+01 3.96080E+01 0.00000E+00
 -1      2690 4.14000E+01 4.09070E+01 0.00000E+00
 -1      2691 4.29000E+01 4.09070E+01 0.00000E+00
 -1      2692 4.06500E+01 3.96080E+01 0.00000E+00
 -1      2693 4.44000E+01 4.09070E+01 0.00000E+00
 -1      2694 4.59000E+01 4.09070E+01 0.00000E+00
 -1      2695 4.36500E+01 3.96080E+01 0.00000E+00
 -1      2696 4.74000E+01 4.09070E+01 0.00000E+00
 -1      2697 4.89000E+01 4.09070E+01 0.00000E+00
 -1      2698 4.66500E+01 3.96080E+01 0.00000E+00
 -1      2699 5.04000E+01 4.09070E+01 0.00000E+00
 -1      2700 5.19000E+01 4.09070E+01 0.00000E+00
 -1      2701 4.96500E+01 3.96080E+01 0.00000E+00
 -1      2702 5.34000E+01 4.09070E+01 0.00000E+00
 -1      2703 5.49000E+01 4.09070E+01 0.00000E+00
 -1      2704 5.26500E+01 3.96080E+01 0.00000E+00
 -1      2705 5.64000E+01 4.09070E+01 0.00000E+00
 -1      2706 5.79000E+01 4.09070E+01 0.00000E+00
 -1      2707 5.56500E+01 3.96080E+01 0.00000E+00
 -1      2708 5.94000E+01 4.09070E+01 0.00000E+00
 -1      2709 6.09000E+01 4.09070E+01 0.00000E+00
 -1      2710 5.86500E+01 3.96080E+01 0.00000E+00
 -1      2711 6.24000E+01 4.09070E+01 0.00000E+00
 -1      2712 6.39000E+01 4.09070E+01 0.00000E+00
 -1      2713 6.16500E+01 3.96080E+01 0.00000E+00
 -1      2714 6.54000E+01 4.09070E+01 0.00000E+00
 -1      2715 6.69000E+01 4.09070E+01 0.00000E+00
 -1      2716 6.46500E+01 3.96080E+01 0.00000E+00
 -1      2717 6.84000E+01 4.09070E+01 0.00000E+00
 -1      2718 6.99000E+01 4.09070E+01 0.00000E+00
 -1      2719 6.76500E+01 3.96080E+01 0.00000E+00
 -1      2720 7.14000E+01 4.09070E+01 0.00000E+00
 -1      2721 7.29000E+01 4.09070E+01 0.00000E+00
 -1      2722 7.06500E+01 3.96080E+01 0.00000E+00
 -1      2723 7.44000E+01 4.09070E+01 0.00000E+00
 -1      2724 7.59000E+01 4.09070E+01 0.00000E+00
 -1      2725 7.36500E+01 3.96080E+01 0.00000E+00
 -1      2726 7.74000E+01 4.09070E+01 0.00000E+00
 -1      2727 7.89000E+01 4.09070E+01 0.00000E+00
 -1      2728 7.66500E+01 3.96080E+01 0.00000E+00
 -1      2729 8.04000E+01 4.09070E+01 0.00000E+00
 -1      2730 8.19000E+01 4.09070E+01 0.00000E+00
 -1      2731 7.96500E+01 3.96080E+01 0.00000E+00
 -1      2732 8.34000E+01 4.09070E+01 0.00000E+00
 -1      2733 8.49000E+01 4.09070E+01 0.00000E+00
 -1      2734 8.26500E+01 3.96080E+01 0.00000E+00
 -1      2735 8.64000E+01 4.09070E+01 0.00000E+00
 -1      2736 8.79000E+01 4.09070E+01 0.00000E+00
 -1      2737 8.56500E+01 3.96080E+01 0.00000E+00
 -1      2738 8.94000E+01 4.09070E+01 0.00000E+00
 -1      2739 9.09000E+01 4.09070E+01 0.00000E+00
 -1      2740 8.86500E+01 3.96080E+01 0.00000E+00
 -1      2741 9.24000E+01 4.09070E+01 0.00000E+00
 -1      2742 9.39000E+01 4.09070E+01 0.00000E+00
 -1      2743 9.16500E+01 3.96080E+01 0.00000E+00
 -1      2744 9.54000E+01 4.09070E+01 0.00000E+00
 -1      2745 9.69000E+01 4.09070E+01 0.00000E+00
 -1      2746 9.46500E+01 3.96080E+01 0.00000E+00
 -1      2747 9.84000E+01 4.09070E+01 0.00000E+00
 -1      2748 9.99000E+01 4.09070E+01 0.00000E+00
 -1      2749 9.76500E+01 3.96080E+01 0.00000E+00
 -1      2750 1.01400E+02 4.09070E+01 0.00000E+00
 -1      2751 1.02900E+02 4.09070E+01 0.00000E+00
 -1      2752 1.00650E+02 3.96080E+01 0.00000E+00
 -1      2753 1.04400E+02 4.09070E+01 0.00000E+00
 -1      2754 1.05900E+02 4.09070E+01 0.00000E+00
 -1      2755 1.03650E+02 3.96080E+01 0.00000E+00
 -1      2756 1.07400E+02 4.09070E+01 0.00000E+00
 -1      2757 1.08900E+02 4.09070E+01 0.00000E+00
 -1      2758 1.06650E+02 3.96080E+01 0.00000E+00
 -1      2759 1.10400E+02 4.09070E+01 0.00000E+00
 -1      2760 1.11900E+02 4.09070E+01 0.00000E+00
 -1      2761 1.09650E+02 3.96080E+01 0.00000E+00
 -1      2762 1.13400E+02 4.09070E+01 0.00000E+00
 -1      2763 1.14900E+02 4.09070E+01 0.00000E+00
 -1      2764 1.12650E+02 3.96080E+01 0.00000E+00
 -1      2765 1.16400E+02 4.09070E+01 0.00000E+00
 -1      2766 1.17900E+02 4.09070E+01 0.00000E+00
 -1      2767 1.15650E+02 3.96080E+01 0.00000E+00
 -1      2768 1.19400E+02 4.09070E+01 0.00000E+00
 -1      2769 1.20900E+02 4.09070E+01 0.00000E+00
 -1      2770 1.18650E+02 3.96080E+01 0.00000E+00
 -1      2771 1.22400E+02 4.09070E+01 0.00000E+00
 -1      2772 1.23900E+02 4.09070E+01 0.00000E+00
 -1      2773 1.21650E+02 3.96080E+01 0.00000E+00
 -1      2774 1.25400E+02 4.09070E+01 0.00000E+00
 -1      2775 1.26900E+02 4.09070E+01 0.00000E+00
 -1      2776 1.24650E+02 3.96080E+01 0.00000E+00
 -1      2777 1.29394E+02 4.04984E+01 0.00000E+00
 -1      2778 1.30894E+02 4.04984E+01 0.00000E+00
 -1      2779 1.32394E+02 4.04984E+01 0.00000E+00
 -1      2780 1.34400E+02 4.09070E+01 0.00000E+00
 -1      2781 1.35900E+02 4.09070E+01 0.00000E+00
 -1      2782 1.37400E+02 4.09070E+01 0.00000E+00
 -1      2783 1.38900E+02 4.09070E+01 0.00000E+00
 -1      2784 1.36650E+02 3.96080E+01 0.00000E+00
 -1      2785 2.42850E+01 7.90325E+00 0.00000E+00
 -1      2786 2.27850E+01 7.90325E+00 0.00000E+00
 -1      2787 1.39452E+02 2.76392E+01 0.00000E+00
 -1      2788 1.39026E+02 2.86311E+01 0.00000E+00
 -1      2789 2.12850E+01 7.90325E+00 0.00000E+00
 -1      2790 1.97850E+01 7.90325E+00 0.00000E+00
 -1      2791 2.20350E+01 9.20225E+00 0.00000E+00
 -1      2792 3.02850E+01 7.90325E+00 0.00000E+00
 -1      2793 2.87850E+01 7.90325E+00 0.00000E+00
 -1      2794 3.32850E+01 7.90325E+00 0.00000E+00
 -1      2795 3.17850E+01 7.90325E+00 0.00000E+00
 -1      2796 3.10350E+01 9.20225E+00 0.00000E+00
 -1      2797 3.62850E+01 7.90325E+00 0.00000E+00
 -1      2798 3.47850E+01 7.90325E+00 0.00000E+00
 -1      2799 3.40350E+01 9.20225E+00 0.00000E+00
 -1      2800 3.92850E+01 7.90325E+00 0.00000E+00
 -1      2801 3.77850E+01 7.90325E+00 0.00000E+00
 -1      2802 3.70350E+01 9.20225E+00 0.00000E+00
 -1      2803 4.22850E+01 7.90325E+00 0.00000E+00
 -1      2804 4.07850E+01 7.90325E+00 0.00000E+00
 -1      2805 4.00350E+01 9.20225E+00 0.00000E+00
 -1      2806 4.52850E+01 7.90325E+00 0.00000E+00
 -1      2807 4.37850E+01 7.90325E+00 0.00000E+00
 -1      2808 4.30350E+01 9.20225E+00 0.00000E+00
 -1      2809 4.82850E+01 7.90325E+00 0.00000E+00
 -1      2810 4.67850E+01 7.90325E+00 0.00000E+00
 -1      2811 4.60350E+01 9.20225E+00 0.00000E+00
 -1      2812 5.12850E+01 7.90325E+00 0.00000E+00
 -1      2813 4.97850E+01 7.90325E+00 0.00000E+00
 -1      2814 4.90350E+01 9.20225E+00 0.00000E+00
 -1      2815 5.42850E+01 7.90325E+00 0.00000E+00
 -1      2816 5.27850E+01 7.90325E+00 0.00000E+00
 -1      2817 5.20350E+01 9.20225E+00 0.00000E+00
 -1      2818 5.72850E+01 7.90325E+00 0.00000E+00
 -1      2819 5.57850E+01 7.90325E+00 0.00000E+00
 -1      2820 5.50350E+01 9.20225E+00 0.00000E+00
 -1      2821 6.02850E+01 7.90325E+00 0.00000E+00
 -1      2822 5.87850E+01 7.90325E+00 0.00000E+00
 -1      2823 5.80350E+01 9.20225E+00 0.00000E+00
 -1      2824 6.32850E+01 7.90325E+00 0.00000E+00
 -1      2825 6.17850E+01 7.90325E+00 0.00000E+00
 -1      2826 6.10350E+01 9.20225E+00 0.00000E+00
 -1      2827 6.62850E+01 7.90325E+00 0.00000E+00
 -1      2828 6.47850E+01 7.90325E+00 0.00000E+00
 -1      2829 6.40350E+01 9.20225E+00 0.00000E+00
 -1      2830 6.92850E+01 7.90325E+00 0.00000E+00
 -1      2831 6.77850E+01 7.90325E+00 0.00000E+00
 -1      2832 6.70350E+01 9.20225E+00 0.00000E+00
 -1      2833 7.22850E+01 7.90325E+00 0.00000E+00
 -1      2834 7.07850E+01 7.90325E+00 0.00000E+00
 -1      2835 7.00350E+01 9.20225E+00 0.00000E+00
 -1      2836 7.52850E+01 7.90325E+00 0.00000E+00
 -1      2837 7.37850E+01 7.90325E+00 0.00000E+00
 -1      2838 7.30350E+01 9.20225E+00 0.00000E+00
 -1      2839 7.82850E+01 7.90325E+00 0.00000E+00
 -1      2840 7.67850E+01 7.90325E+00 0.00000E+00
 -1      2841 7.60350E+01 9.20225E+00 0.00000E+00
 -1      2842 8.12850E+01 7.90325E+00 0.00000E+00
 -1      2843 7.97850E+01 7.90325E+00 0.00000E+00
 -1      2844 7.90350E+01 9.20225E+00 0.00000E+00
 -1      2845 8.42850E+01 7.90325E+00 0.00000E+00
 -1      2846 8.27850E+01 7.90325E+00 0.00000E+00
 -1      2847 8.20350E+01 9.20225E+00 0.00000E+00
 -1      2848 8.72850E+01 7.90325E+00 0.00000E+00
 -1      2849 8.57850E+01 7.90325E+00 0.00000E+00
 -1      2850 8.50350E+01 9.20225E+00 0.00000E+00
 -1      2851 9.02850E+01 7.90325E+00 0.00000E+00
 -1      2852 8.87850E+01 7.90325E+00 0.00000E+00
 -1      2853 8.80350E+01 9.20225E+00 0.00000E+00
 -1      2854 9.32850E+01 7.90325E+00 0.00000E+00
 -1      2855 9.17850E+01 7.90325E+00 0.00000E+00
 -1      2856 9.10350E+01 9.20225E+00 0.00000E+00
 -1      2857 9.62850E+01 7.90325E+00 0.00000E+00
 -1      2858 9.47850E+01 7.90325E+00 0.00000E+00
 -1      2859 9.40350E+01 9.20225E+00 0.00000E+00
 -1      2860 9.92850E+01 7.90325E+00 0.00000E+00
 -1      2861 9.77850E+01 7.90325E+00 0.00000E+00
 -1      2862 9.70350E+01 9.20225E+00 0.00000E+00
 -1      2863 1.02285E+02 7.90325E+00 0.00000E+00
 -1      2864 1.00785E+02 7.90325E+00 0.00000E+00
 -1      2865 1.00035E+02 9.20225E+00 0.00000E+00
 -1      2866 1.05285E+02 7.90325E+00 0.00000E+00
 -1      2867 1.03785E+02 7.90325E+00 0.00000E+00
 -1      2868 1.03035E+02 9.20225E+00 0.00000E+00
 -1      2869 1.08285E+02 7.90325E+00 0.00000E+00
 -1      2870 1.06785E+02 7.90325E+00 0.00000E+00
 -1      2871 1.06035E+02 9.20225E+00 0.00000E+00
 -1      2872 1.11285E+02 7.90325E+00 0.00000E+00
 -1      2873 1.09785E+02 7.90325E+00 0.00000E+00
 -1      2874 1.09035E+02 9.20225E+00 0.00000E+00
 -1      2875 1.14285E+02 7.90325E+00 0.00000E+00
 -1      2876 1.12785E+02 7.90325E+00 0.00000E+00
 -1      2877 1.12035E+02 9.20225E+00 0.00000E+00
 -1      2878 1.17285E+02 7.90325E+00 0.00000E+00
 -1      2879 1.15785E+02 7.90325E+00 0.00000E+00
 -1      2880 1.15035E+02 9.20225E+00 0.00000E+00
 -1      2881 1.20285E+02 7.90325E+00 0.00000E+00
 -1      2882 1.18785E+02 7.90325E+00 0.00000E+00
 -1      2883 1.18035E+02 9.20225E+00 0.00000E+00
 -1      2884 1.23285E+02 7.90325E+00 0.00000E+00
 -1      2885 1.21785E+02 7.90325E+00 0.00000E+00
 -1      2886 1.21035E+02 9.20225E+00 0.00000E+00
 -1      2887 1.26285E+02 7.90325E+00 0.00000E+00
 -1      2888 1.24785E+02 7.90325E+00 0.00000E+00
 -1      2889 1.24035E+02 9.20225E+00 0.00000E+00
 -1      2890 1.29285E+02 7.90325E+00 0.00000E+00
 -1      2891 1.27785E+02 7.90325E+00 0.00000E+00
 -1      2892 1.27035E+02 9.20225E+00 0.00000E+00
 -1      2893 1.32285E+02 7.90325E+00 0.00000E+00
 -1      2894 1.30785E+02 7.90325E+00 0.00000E+00
 -1      2895 1.30035E+02 9.20225E+00 0.00000E+00
 -1      2896 1.35285E+02 7.90325E+00 0.00000E+00
 -1      2897 1.33785E+02 7.90325E+00 0.00000E+00
 -1      2898 1.33035E+02 9.20225E+00 0.00000E+00
 -1      2899 1.38285E+02 7.90325E+00 0.00000E+00
 -1      2900 1.36785E+02 7.90325E+00 0.00000E+00
 -1      2901 1.36035E+02 9.20225E+00 0.00000E+00
 -1      2902 1.40953E+02 8.18394E+00 0.00000E+00
 -1      2903 1.39453E+02 8.18394E+00 0.00000E+00
 -1      2904 1.38703E+02 9.48294E+00 0.00000E+00
 -1      2905 1.41038E+02 1.00443E+01 0.00000E+00
 -1      2906 1.37005E+02 1.75276E+01 0.00000E+00
 -1      2907 1.37584E+02 1.86497E+01 0.00000E+00
 -1      2908 1.41265E+02 2.42500E+01 0.00000E+00
 -1      2909 1.41265E+02 2.28000E+01 0.00000E+00
 -1      2910 1.19209E+02 3.44466E+01 0.00000E+00
 -1      2911 1.18379E+02 3.35378E+01 0.00000E+00
 -1      2912 1.41097E+02 1.84000E+01 0.00000E+00
 -1      2913 1.41097E+02 1.69500E+01 0.00000E+00
 -1      2914 1.41181E+02 2.13375E+01 0.00000E+00
 -1      2915 1.41181E+02 1.98625E+01 0.00000E+00
 -1      2916 1.41097E+02 2.96660E+01 0.00000E+00
 -1      2917 1.41097E+02 2.81910E+01 0.00000E+00
 -1      2918 1.40403E+02 3.34584E+01 0.00000E+00
 -1      2919 1.40403E+02 3.19834E+01 0.00000E+00
 -1      2920 1.40403E+02 3.64084E+01 0.00000E+00
 -1      2921 1.40403E+02 3.49334E+01 0.00000E+00
 -1      2922 1.38599E+02 3.45668E+01 0.00000E+00
 -1      2923 1.41172E+02 3.94391E+01 0.00000E+00
 -1      2924 1.41172E+02 3.79641E+01 0.00000E+00
 -1      2925 1.39369E+02 3.75975E+01 0.00000E+00
 -1      2926 1.40908E+02 4.07088E+01 0.00000E+00
 -1      2927 1.38679E+02 2.97898E+01 0.00000E+00
 -1      2928 1.38328E+02 3.09110E+01 0.00000E+00
 -1      2929 1.38947E+02 3.19331E+01 0.00000E+00
 -1      2930 1.39641E+02 2.96157E+01 0.00000E+00
 -1      2931 1.17567E+02 3.21270E+01 0.00000E+00
 -1      2932 1.17176E+02 3.09081E+01 0.00000E+00
 -1      2933 1.39234E+02 2.27482E+01 0.00000E+00
 -1      2934 1.39700E+02 2.38605E+01 0.00000E+00
 -1      2935 1.29120E+02 3.76518E+01 0.00000E+00
 -1      2936 1.27871E+02 3.77399E+01 0.00000E+00
 -1      2937 1.82850E+01 7.90325E+00 0.00000E+00
 -1      2938 1.67850E+01 7.90325E+00 0.00000E+00
 -1      2939 1.90350E+01 9.20225E+00 0.00000E+00
 -1      2940 2.72850E+01 7.90325E+00 0.00000E+00
 -1      2941 2.57850E+01 7.90325E+00 0.00000E+00
 -1      2942 2.50350E+01 9.20225E+00 0.00000E+00
 -1      2943 2.80350E+01 9.20225E+00 0.00000E+00
 -1      2944 1.14000E+01 4.09070E+01 0.00000E+00
 -1      2945 1.29000E+01 4.09070E+01 0.00000E+00
 -1      2946 1.36500E+01 3.96080E+01 0.00000E+00
 -1      2947 1.18401E+02 1.81236E+01 0.00000E+00
 -1      2948 1.19086E+02 1.73266E+01 0.00000E+00
 -1      2949 1.38157E+02 1.98532E+01 0.00000E+00
 -1      2950 1.38673E+02 2.10367E+01 0.00000E+00
 -1      2951 1.52850E+01 7.90325E+00 0.00000E+00
 -1      2952 1.37850E+01 7.90325E+00 0.00000E+00
 -1      2953 1.30350E+01 9.20225E+00 0.00000E+00
 -1      2954 1.60350E+01 9.20225E+00 0.00000E+00
 -1      2955 9.09300E+00 1.68813E+01 0.00000E+00
 -1      2956 9.09300E+00 1.83563E+01 0.00000E+00
 -1      2957 1.03920E+01 1.90812E+01 0.00000E+00
 -1      2958 1.03920E+01 1.61437E+01 0.00000E+00
 -1      2959 9.09300E+00 3.15875E+01 0.00000E+00
 -1      2960 9.09300E+00 3.30625E+01 0.00000E+00
 -1      2961 1.21223E+02 3.62006E+01 0.00000E+00
 -1      2962 1.20227E+02 3.54002E+01 0.00000E+00
 -1      2963 1.30130E+02 1.32689E+01 0.00000E+00
 -1      2964 1.31197E+02 1.36533E+01 0.00000E+00
 -1      2965 1.16408E+02 2.98768E+01 0.00000E+00
 -1      2966 1.15641E+02 2.88454E+01 0.00000E+00
 -1      2967 1.15708E+02 3.07741E+01 0.00000E+00
 -1      2968 1.15319E+02 2.73436E+01 0.00000E+00
 -1      2969 1.15325E+02 2.61447E+01 0.00000E+00
 -1      2970 1.19832E+02 1.64331E+01 0.00000E+00
 -1      2971 1.20666E+02 1.54090E+01 0.00000E+00
 -1      2972 1.17097E+02 1.99180E+01 0.00000E+00
 -1      2973 1.17700E+02 1.90370E+01 0.00000E+00
 -1      2974 1.15377E+02 2.51024E+01 0.00000E+00
 -1      2975 1.15428E+02 2.40601E+01 0.00000E+00
 -1      2976 1.14349E+02 2.56968E+01 0.00000E+00
 -1      2977 1.32511E+02 1.41712E+01 0.00000E+00
 -1      2978 1.33710E+02 1.48411E+01 0.00000E+00
 -1      2979 1.36327E+02 3.44425E+01 0.00000E+00
 -1      2980 1.35264E+02 3.53051E+01 0.00000E+00
 -1      2981 1.39617E+02 2.50935E+01 0.00000E+00
 -1      2982 1.39536E+02 2.64062E+01 0.00000E+00
 -1      2983 1.40072E+02 2.72240E+01 0.00000E+00
 -1      2984 1.40240E+02 2.47580E+01 0.00000E+00
 -1      2985 1.23510E+02 3.70485E+01 0.00000E+00
 -1      2986 1.22367E+02 3.66246E+01 0.00000E+00
 -1      2987 1.21279E+02 3.69581E+01 0.00000E+00
 -1      2988 1.22012E+02 1.44959E+01 0.00000E+00
 -1      2989 1.23245E+02 1.42602E+01 0.00000E+00
 -1      2990 1.23508E+02 1.33172E+01 0.00000E+00
 -1      2991 1.34107E+02 3.60808E+01 0.00000E+00
 -1      2992 1.33058E+02 3.68281E+01 0.00000E+00
 -1      2993 1.39894E+02 4.06796E+01 0.00000E+00
 -1      2994 1.34782E+02 1.54857E+01 0.00000E+00
 -1      2995 1.35854E+02 1.61304E+01 0.00000E+00
 -1      2996 1.34683E+02 1.42559E+01 0.00000E+00
 -1      2997 8.96362E+00 4.05429E+01 0.00000E+00
 -1      2998 1.03271E+01 4.08069E+01 0.00000E+00
 -1      2999 1.10771E+01 3.95079E+01 0.00000E+00
 -1      3000 8.93137E+00 3.93078E+01 0.00000E+00
 -1      3001 9.09300E+00 3.45313E+01 0.00000E+00
 -1      3002 9.09300E+00 3.60000E+01 0.00000E+00
 -1      3003 1.03920E+01 3.37938E+01 0.00000E+00
 -1      3004 1.03920E+01 2.49750E+01 0.00000E+00
 -1      3005 9.09300E+00 2.57000E+01 0.00000E+00
 -1      3006 9.09300E+00 2.71750E+01 0.00000E+00
 -1      3007 1.26207E+02 1.29046E+01 0.00000E+00
 -1      3008 9.66450E+00 9.72612E+00 0.00000E+00
 -1      3009 1.32633E+02 3.80060E+01 0.00000E+00
 -1      3010 1.37520E+02 3.43809E+01 0.00000E+00
 -1      3011 1.39144E+02 3.93806E+01 0.00000E+00
 -1      3012 1.36905E+02 1.62978E+01 0.00000E+00
 -1      3013 1.37957E+02 1.64651E+01 0.00000E+00
 -1      3014 1.36806E+02 1.50679E+01 0.00000E+00
 -1      3015 1.41038E+02 1.15193E+01 0.00000E+00
 -1      3016 1.39870E+02 1.12386E+01 0.00000E+00
 -1      3017 1.41038E+02 1.29943E+01 0.00000E+00
 -1      3018 1.41181E+02 2.54830E+01 0.00000E+00
 -1      3019 1.40240E+02 2.20625E+01 0.00000E+00
 -1      3020 1.17007E+02 3.43053E+01 0.00000E+00
 -1      3021 1.17287E+02 3.32162E+01 0.00000E+00
 -1      3022 1.16195E+02 3.28946E+01 0.00000E+00
 -1      3023 1.40072E+02 1.91375E+01 0.00000E+00
 -1      3024 1.41181E+02 2.69580E+01 0.00000E+00
 -1      3025 1.16213E+02 2.03941E+01 0.00000E+00
 -1      3026 1.15807E+02 1.94690E+01 0.00000E+00
 -1      3027 1.15329E+02 2.08701E+01 0.00000E+00
 -1      3028 1.18839E+02 1.62727E+01 0.00000E+00
 -1      3029 1.29847E+02 3.86710E+01 0.00000E+00
 -1      3030 1.15068E+02 2.32248E+01 0.00000E+00
 -1      3031 1.14707E+02 2.23896E+01 0.00000E+00
 -1      3032 1.14040E+02 2.38192E+01 0.00000E+00
 -1      3033 1.19117E+02 3.55805E+01 0.00000E+00
 -1      3034 1.38629E+02 1.88985E+01 0.00000E+00
 -1      3035 1.23874E+02 3.81615E+01 0.00000E+00
 -1      3036 1.22786E+02 3.84950E+01 0.00000E+00
 -1      3037 9.09300E+00 2.86437E+01 0.00000E+00
 -1      3038 9.09300E+00 3.01187E+01 0.00000E+00
 -1      3039 1.03920E+01 3.08563E+01 0.00000E+00
 -1      3040 1.03920E+01 2.79188E+01 0.00000E+00
 -1      3041 1.27353E+02 3.90797E+01 0.00000E+00
 -1      3042 1.26668E+02 3.82683E+01 0.00000E+00
 -1      3043 1.41068E+02 1.57097E+01 0.00000E+00
 -1      3044 1.41068E+02 1.42347E+01 0.00000E+00
 -1      3045 1.39900E+02 1.39540E+01 0.00000E+00
 -1      3046 1.39959E+02 1.64347E+01 0.00000E+00
 -1      3047 1.17392E+02 1.80796E+01 0.00000E+00
 -1      3048 1.32297E+02 1.30933E+01 0.00000E+00
 -1      3049 1.14619E+02 2.82409E+01 0.00000E+00
 -1      3050 1.19848E+02 1.44363E+01 0.00000E+00
 -1      3051 1.20930E+02 1.44661E+01 0.00000E+00
 -1      3052 1.21194E+02 1.35231E+01 0.00000E+00
 -1      3053 1.09635E+01 1.04636E+01 0.00000E+00
 -1      3054 1.35285E+02 3.64456E+01 0.00000E+00
 -1      3055 1.25374E+02 3.81615E+01 0.00000E+00
 -1      3056 1.34639E+02 3.84146E+01 0.00000E+00
 -1      3057 1.33144E+02 3.91994E+01 0.00000E+00
 -1      3058 1.16910E+01 1.24625E+01 0.00000E+00
 -1      3059 1.16910E+01 1.39375E+01 0.00000E+00
 -1      3060 8.99606E+00 3.70363E+01 0.00000E+00
 -1      3061 9.02831E+00 3.82715E+01 0.00000E+00
 -1      3062 1.01012E+01 3.83715E+01 0.00000E+00
 -1      3063 1.02951E+01 3.62988E+01 0.00000E+00
 -1      3064 1.29000E+01 3.83090E+01 0.00000E+00
 -1      3065 1.44000E+01 3.83090E+01 0.00000E+00
 -1      3066 1.28103E+02 4.03787E+01 0.00000E+00
 -1      3067 1.89000E+01 3.83090E+01 0.00000E+00
 -1      3068 2.04000E+01 3.83090E+01 0.00000E+00
 -1      3069 2.19000E+01 3.83090E+01 0.00000E+00
 -1      3070 2.34000E+01 3.83090E+01 0.00000E+00
 -1      3071 2.11500E+01 3.70100E+01 0.00000E+00
 -1      3072 2.49000E+01 3.83090E+01 0.00000E+00
 -1      3073 2.64000E+01 3.83090E+01 0.00000E+00
 -1      3074 2.41500E+01 3.70100E+01 0.00000E+00
 -1      3075 2.79000E+01 3.83090E+01 0.00000E+00
 -1      3076 2.94000E+01 3.83090E+01 0.00000E+00
 -1      3077 2.71500E+01 3.70100E+01 0.00000E+00
 -1      3078 3.09000E+01 3.83090E+01 0.00000E+00
 -1      3079 3.24000E+01 3.83090E+01 0.00000E+00
 -1      3080 3.01500E+01 3.70100E+01 0.00000E+00
 -1      3081 3.39000E+01 3.83090E+01 0.00000E+00
 -1      3082 3.54000E+01 3.83090E+01 0.00000E+00
 -1      3083 3.31500E+01 3.70100E+01 0.00000E+00
 -1      3084 3.69000E+01 3.83090E+01 0.00000E+00
 -1      3085 3.84000E+01 3.83090E+01 0.00000E+00
 -1      3086 3.61500E+01 3.70100E+01 0.00000E+00
 -1      3087 3.99000E+01 3.83090E+01 0.00000E+00
 -1      3088 4.14000E+01 3.83090E+01 0.00000E+00
 -1      3089 3.91500E+01 3.70100E+01 0.00000E+00
 -1      3090 4.29000E+01 3.83090E+01 0.00000E+00
 -1      3091 4.44000E+01 3.83090E+01 0.00000E+00
 -1      3092 4.21500E+01 3.70100E+01 0.00000E+00
 -1      3093 4.59000E+01 3.83090E+01 0.00000E+00
 -1      3094 4.74000E+01 3.83090E+01 0.00000E+00
 -1      3095 4.51500E+01 3.70100E+01 0.00000E+00
 -1      3096 4.89000E+01 3.83090E+01 0.00000E+00
 -1      3097 5.04000E+01 3.83090E+01 0.00000E+00
 -1      3098 4.81500E+01 3.70100E+01 0.00000E+00
 -1      3099 5.19000E+01 3.83090E+01 0.00000E+00
 -1      3100 5.34000E+01 3.83090E+01 0.00000E+00
 -1      3101 5.11500E+01 3.70100E+01 0.00000E+00
 -1      3102 5.49000E+01 3.83090E+01 0.00000E+00
 -1      3103 5.64000E+01 3.83090E+01 0.00000E+00
 -1      3104 5.41500E+01 3.70100E+01 0.00000E+00
 -1      3105 5.79000E+01 3.83090E+01 0.00000E+00
 -1      3106 5.94000E+01 3.83090E+01 0.00000E+00
 -1      3107 5.71500E+01 3.70100E+01 0.00000E+00
 -1      3108 6.09000E+01 3.83090E+01 0.00000E+00
 -1      3109 6.24000E+01 3.83090E+01 0.00000E+00
 -1      3110 6.01500E+01 3.70100E+01 0.00000E+00
 -1      3111 6.39000E+01 3.83090E+01 0.00000E+00
 -1      3112 6.54000E+01 3.83090E+01 0.00000E+00
 -1      3113 6.31500E+01 3.70100E+01 0.00000E+00
 -1      3114 6.69000E+01 3.83090E+01 0.00000E+00
 -1      3115 6.84000E+01 3.83090E+01 0.00000E+00
 -1      3116 6.61500E+01 3.70100E+01 0.00000E+00
 -1      3117 6.99000E+01 3.83090E+01 0.00000E+00
 -1      3118 7.14000E+01 3.83090E+01 0.00000E+00
 -1      3119 6.91500E+01 3.70100E+01 0.00000E+00
 -1      3120 7.29000E+01 3.83090E+01 0.00000E+00
 -1      3121 7.44000E+01 3.83090E+01 0.00000E+00
 -1      3122 7.21500E+01 3.70100E+01 0.00000E+00
 -1      3123 7.59000E+01 3.83090E+01 0.00000E+00
 -1      3124 7.74000E+01 3.83090E+01 0.00000E+00
 -1      3125 7.51500E+01 3.70100E+01 0.00000E+00
 -1      3126 7.89000E+01 3.83090E+01 0.00000E+00
 -1      3127 8.04000E+01 3.83090E+01 0.00000E+00
 -1      3128 7.81500E+01 3.70100E+01 0.00000E+00
 -1      3129 8.19000E+01 3.83090E+01 0.00000E+00
 -1      3130 8.34000E+01 3.83090E+01 0.00000E+00
 -1      3131 8.11500E+01 3.70100E+01 0.00000E+00
 -1      3132 8.49000E+01 3.83090E+01 0.00000E+00
 -1      3133 8.64000E+01 3.83090E+01 0.00000E+00
 -1      3134 8.41500E+01 3.70100E+01 0.00000E+00
 -1      3135 8.79000E+01 3.83090E+01 0.00000E+00
 -1      3136 8.94000E+01 3.83090E+01 0.00000E+00
 -1      3137 8.71500E+01 3.70100E+01 0.00000E+00
 -1      3138 9.09000E+01 3.83090E+01 0.00000E+00
 -1      3139 9.24000E+01 3.83090E+01 0.00000E+00
 -1      3140 9.01500E+01 3.70100E+01 0.00000E+00
 -1      3141 9.39000E+01 3.83090E+01 0.00000E+00
 -1      3142 9.54000E+01 3.83090E+01 0.00000E+00
 -1      3143 9.31500E+01 3.70100E+01 0.00000E+00
 -1      3144 9.69000E+01 3.83090E+01 0.00000E+00
 -1      3145 9.84000E+01 3.83090E+01 0.00000E+00
 -1      3146 9.61500E+01 3.70100E+01 0.00000E+00
 -1      3147 9.99000E+01 3.83090E+01 0.00000E+00
 -1      3148 1.01400E+02 3.83090E+01 0.00000E+00
 -1      3149 9.91500E+01 3.70100E+01 0.00000E+00
 -1      3150 1.02900E+02 3.83090E+01 0.00000E+00
 -1      3151 1.04400E+02 3.83090E+01 0.00000E+00
 -1      3152 1.02150E+02 3.70100E+01 0.00000E+00
 -1      3153 1.05900E+02 3.83090E+01 0.00000E+00
 -1      3154 1.07400E+02 3.83090E+01 0.00000E+00
 -1      3155 1.05150E+02 3.70100E+01 0.00000E+00
 -1      3156 1.08900E+02 3.83090E+01 0.00000E+00
 -1      3157 1.10400E+02 3.83090E+01 0.00000E+00
 -1      3158 1.08150E+02 3.70100E+01 0.00000E+00
 -1      3159 1.11900E+02 3.83090E+01 0.00000E+00
 -1      3160 1.13400E+02 3.83090E+01 0.00000E+00
 -1      3161 1.11150E+02 3.70100E+01 0.00000E+00
 -1      3162 1.14900E+02 3.83090E+01 0.00000E+00
 -1      3163 1.16400E+02 3.83090E+01 0.00000E+00
 -1      3164 1.14150E+02 3.70100E+01 0.00000E+00
 -1      3165 1.21286E+02 3.84950E+01 0.00000E+00
 -1      3166 1.35712E+02 3.74301E+01 0.00000E+00
 -1      3167 1.36223E+02 3.86235E+01 0.00000E+00
 -1      3168 1.37723E+02 3.86235E+01 0.00000E+00
 -1      3169 1.36868E+02 3.66545E+01 0.00000E+00
 -1      3170 1.38375E+02 3.78249E+01 0.00000E+00
 -1      3171 3.47850E+01 1.05013E+01 0.00000E+00
 -1      3172 3.32850E+01 1.05013E+01 0.00000E+00
 -1      3173 3.17850E+01 1.05013E+01 0.00000E+00
 -1      3174 3.02850E+01 1.05013E+01 0.00000E+00
 -1      3175 3.25350E+01 1.18003E+01 0.00000E+00
 -1      3176 4.07850E+01 1.05013E+01 0.00000E+00
 -1      3177 3.92850E+01 1.05013E+01 0.00000E+00
 -1      3178 4.37850E+01 1.05013E+01 0.00000E+00
 -1      3179 4.22850E+01 1.05013E+01 0.00000E+00
 -1      3180 4.15350E+01 1.18003E+01 0.00000E+00
 -1      3181 4.67850E+01 1.05013E+01 0.00000E+00
 -1      3182 4.52850E+01 1.05013E+01 0.00000E+00
 -1      3183 4.45350E+01 1.18003E+01 0.00000E+00
 -1      3184 4.97850E+01 1.05013E+01 0.00000E+00
 -1      3185 4.82850E+01 1.05013E+01 0.00000E+00
 -1      3186 4.75350E+01 1.18003E+01 0.00000E+00
 -1      3187 5.27850E+01 1.05013E+01 0.00000E+00
 -1      3188 5.12850E+01 1.05013E+01 0.00000E+00
 -1      3189 5.05350E+01 1.18003E+01 0.00000E+00
 -1      3190 5.57850E+01 1.05013E+01 0.00000E+00
 -1      3191 5.42850E+01 1.05013E+01 0.00000E+00
 -1      3192 5.35350E+01 1.18003E+01 0.00000E+00
 -1      3193 5.87850E+01 1.05013E+01 0.00000E+00
 -1      3194 5.72850E+01 1.05013E+01 0.00000E+00
 -1      3195 5.65350E+01 1.18003E+01 0.00000E+00
 -1      3196 6.17850E+01 1.05013E+01 0.00000E+00
 -1      3197 6.02850E+01 1.05013E+01 0.00000E+00
 -1      3198 5.95350E+01 1.18003E+01 0.00000E+00
 -1      3199 6.47850E+01 1.05013E+01 0.00000E+00
 -1      3200 6.32850E+01 1.05013E+01 0.00000E+00
 -1      3201 6.25350E+01 1.18003E+01 0.00000E+00
 -1      3202 6.77850E+01 1.05013E+01 0.00000E+00
 -1      3203 6.62850E+01 1.05013E+01 0.00000E+00
 -1      3204 6.55350E+01 1.18003E+01 0.00000E+00
 -1      3205 7.07850E+01 1.05013E+01 0.00000E+00
 -1      3206 6.92850E+01 1.05013E+01 0.00000E+00
 -1      3207 6.85350E+01 1.18003E+01 0.00000E+00
 -1      3208 7.37850E+01 1.05013E+01 0.00000E+00
 -1      3209 7.22850E+01 1.05013E+01 0.00000E+00
 -1      3210 7.15350E+01 1.18003E+01 0.00000E+00
 -1      3211 7.67850E+01 1.05013E+01 0.00000E+00
 -1      3212 7.52850E+01 1.05013E+01 0.00000E+00
 -1      3213 7.45350E+01 1.18003E+01 0.00000E+00
 -1      3214 7.97850E+01 1.05013E+01 0.00000E+00
 -1      3215 7.82850E+01 1.05013E+01 0.00000E+00
 -1      3216 7.75350E+01 1.18003E+01 0.00000E+00
 -1      3217 8.27850E+01 1.05013E+01 0.00000E+00
 -1      3218 8.12850E+01 1.05013E+01 0.00000E+00
 -1      3219 8.05350E+01 1.18003E+01 0.00000E+00
 -1      3220 8.57850E+01 1.05013E+01 0.00000E+00
 -1      3221 8.42850E+01 1.05013E+01 0.00000E+00
 -1      3222 8.35350E+01 1.18003E+01 0.00000E+00
 -1      3223 8.87850E+01 1.05013E+01 0.00000E+00
 -1      3224 8.72850E+01 1.05013E+01 0.00000E+00
 -1      3225 8.65350E+01 1.18003E+01 0.00000E+00
 -1      3226 9.17850E+01 1.05013E+01 0.00000E+00
 -1      3227 9.02850E+01 1.05013E+01 0.00000E+00
 -1      3228 8.95350E+01 1.18003E+01 0.00000E+00
 -1      3229 9.47850E+01 1.05013E+01 0.00000E+00
 -1      3230 9.32850E+01 1.05013E+01 0.00000E+00
 -1      3231 9.25350E+01 1.18003E+01 0.00000E+00
 -1      3232 9.77850E+01 1.05013E+01 0.00000E+00
 -1      3233 9.62850E+01 1.05013E+01 0.00000E+00
 -1      3234 9.55350E+01 1.18003E+01 0.00000E+00
 -1      3235 1.00785E+02 1.05013E+01 0.00000E+00
 -1      3236 9.92850E+01 1.05013E+01 0.00000E+00
 -1      3237 9.85350E+01 1.18003E+01 0.00000E+00
 -1      3238 1.03785E+02 1.05013E+01 0.00000E+00
 -1      3239 1.02285E+02 1.05013E+01 0.00000E+00
 -1      3240 1.01535E+02 1.18003E+01 0.00000E+00
 -1      3241 1.06785E+02 1.05013E+01 0.00000E+00
 -1      3242 1.05285E+02 1.05013E+01 0.00000E+00
 -1      3243 1.04535E+02 1.18003E+01 0.00000E+00
 -1      3244 1.09785E+02 1.05013E+01 0.00000E+00
 -1      3245 1.08285E+02 1.05013E+01 0.00000E+00
 -1      3246 1.07535E+02 1.18003E+01 0.00000E+00
 -1      3247 1.12785E+02 1.05013E+01 0.00000E+00
 -1      3248 1.11285E+02 1.05013E+01 0.00000E+00
 -1      3249 1.10535E+02 1.18003E+01 0.00000E+00
 -1      3250 1.15785E+02 1.05013E+01 0.00000E+00
 -1      3251 1.14285E+02 1.05013E+01 0.00000E+00
 -1      3252 1.13535E+02 1.18003E+01 0.00000E+00
 -1      3253 1.18785E+02 1.05013E+01 0.00000E+00
 -1      3254 1.17285E+02 1.05013E+01 0.00000E+00
 -1      3255 1.16535E+02 1.18003E+01 0.00000E+00
 -1      3256 1.21323E+02 1.13478E+01 0.00000E+00
 -1      3257 1.19823E+02 1.13478E+01 0.00000E+00
 -1      3258 1.25138E+02 1.11419E+01 0.00000E+00
 -1      3259 1.23638E+02 1.11419E+01 0.00000E+00
 -1      3260 1.28104E+02 1.09650E+01 0.00000E+00
 -1      3261 1.26604E+02 1.09650E+01 0.00000E+00
 -1      3262 1.31259E+02 1.08888E+01 0.00000E+00
 -1      3263 1.29759E+02 1.08888E+01 0.00000E+00
 -1      3264 1.36785E+02 1.05013E+01 0.00000E+00
 -1      3265 1.35285E+02 1.05013E+01 0.00000E+00
 -1      3266 1.38912E+02 1.10103E+01 0.00000E+00
 -1      3267 1.37744E+02 1.07296E+01 0.00000E+00
 -1      3268 1.36994E+02 1.20286E+01 0.00000E+00
 -1      3269 1.38912E+02 1.24853E+01 0.00000E+00
 -1      3270 1.13131E+02 2.61588E+01 0.00000E+00
 -1      3271 1.13183E+02 2.51165E+01 0.00000E+00
 -1      3272 1.16162E+02 1.78610E+01 0.00000E+00
 -1      3273 1.16863E+02 1.69476E+01 0.00000E+00
 -1      3274 1.15135E+02 3.20018E+01 0.00000E+00
 -1      3275 1.14367E+02 3.09704E+01 0.00000E+00
 -1      3276 1.40750E+02 3.08247E+01 0.00000E+00
 -1      3277 1.97850E+01 1.05013E+01 0.00000E+00
 -1      3278 1.82850E+01 1.05013E+01 0.00000E+00
 -1      3279 3.77850E+01 1.05013E+01 0.00000E+00
 -1      3280 3.62850E+01 1.05013E+01 0.00000E+00
 -1      3281 3.55350E+01 1.18003E+01 0.00000E+00
 -1      3282 3.85350E+01 1.18003E+01 0.00000E+00
 -1      3283 2.27850E+01 1.05013E+01 0.00000E+00
 -1      3284 2.12850E+01 1.05013E+01 0.00000E+00
 -1      3285 2.05350E+01 1.18003E+01 0.00000E+00
 -1      3286 1.39150E+02 2.12857E+01 0.00000E+00
 -1      3287 1.20143E+02 3.80711E+01 0.00000E+00
 -1      3288 1.59000E+01 3.83090E+01 0.00000E+00
 -1      3289 1.74000E+01 3.83090E+01 0.00000E+00
 -1      3290 1.81500E+01 3.70100E+01 0.00000E+00
 -1      3291 1.39678E+02 2.03510E+01 0.00000E+00
 -1      3292 1.29110E+02 1.28853E+01 0.00000E+00
 -1      3293 1.29962E+02 1.21919E+01 0.00000E+00
 -1      3294 1.17893E+02 3.67721E+01 0.00000E+00
 -1      3295 1.16874E+02 3.58185E+01 0.00000E+00
 -1      3296 1.13777E+02 2.92065E+01 0.00000E+00
 -1      3297 1.13455E+02 2.77047E+01 0.00000E+00
 -1      3298 1.17609E+02 1.60541E+01 0.00000E+00
 -1      3299 1.18354E+02 1.51606E+01 0.00000E+00
 -1      3300 1.16378E+02 1.58355E+01 0.00000E+00
 -1      3301 1.26488E+01 1.02017E+01 0.00000E+00
 -1      3302 1.20772E+01 1.14631E+01 0.00000E+00
 -1      3303 1.33763E+01 1.22006E+01 0.00000E+00
 -1      3304 1.41488E+01 1.02017E+01 0.00000E+00
 -1      3305 1.16910E+01 2.12875E+01 0.00000E+00
 -1      3306 1.16910E+01 2.27625E+01 0.00000E+00
 -1      3307 1.34823E+02 1.27057E+01 0.00000E+00
 -1      3308 1.35895E+02 1.33504E+01 0.00000E+00
 -1      3309 1.28308E+02 1.22681E+01 0.00000E+00
 -1      3310 1.18643E+02 3.80711E+01 0.00000E+00
 -1      3311 1.16910E+01 2.42375E+01 0.00000E+00
 -1      3312 1.16910E+01 2.57125E+01 0.00000E+00
 -1      3313 1.29900E+01 2.35000E+01 0.00000E+00
 -1      3314 1.29900E+01 1.46687E+01 0.00000E+00
 -1      3315 1.16910E+01 1.54063E+01 0.00000E+00
 -1      3316 1.16910E+01 1.68750E+01 0.00000E+00
 -1      3317 1.14854E+02 3.30909E+01 0.00000E+00
 -1      3318 1.32491E+02 1.02248E+01 0.00000E+00
 -1      3319 1.32215E+02 1.19114E+01 0.00000E+00
 -1      3320 1.36853E+02 1.35787E+01 0.00000E+00
 -1      3321 1.37905E+02 1.37461E+01 0.00000E+00
 -1      3322 1.16910E+01 3.30594E+01 0.00000E+00
 -1      3323 1.16910E+01 3.45281E+01 0.00000E+00
 -1      3324 1.11741E+01 3.84716E+01 0.00000E+00
 -1      3325 2.57850E+01 1.05013E+01 0.00000E+00
 -1      3326 2.42850E+01 1.05013E+01 0.00000E+00
 -1      3327 2.35350E+01 1.18003E+01 0.00000E+00
 -1      3328 2.95350E+01 1.18003E+01 0.00000E+00
 -1      3329 2.87850E+01 1.05013E+01 0.00000E+00
 -1      3330 2.72850E+01 1.05013E+01 0.00000E+00
 -1      3331 1.19073E+02 1.26468E+01 0.00000E+00
 -1      3332 1.22405E+02 1.13776E+01 0.00000E+00
 -1      3333 1.33991E+02 1.02248E+01 0.00000E+00
 -1      3334 1.15278E+02 1.83370E+01 0.00000E+00
 -1      3335 1.14749E+02 1.72051E+01 0.00000E+00
 -1      3336 1.14394E+02 1.88131E+01 0.00000E+00
 -1      3337 1.15782E+02 3.54969E+01 0.00000E+00
 -1      3338 1.13204E+02 3.04342E+01 0.00000E+00
 -1      3339 1.37520E+02 3.58559E+01 0.00000E+00
 -1      3340 1.12823E+02 2.42812E+01 0.00000E+00
 -1      3341 1.69669E+01 1.03515E+01 0.00000E+00
 -1      3342 1.54669E+01 1.03515E+01 0.00000E+00
 -1      3343 1.50806E+01 1.13509E+01 0.00000E+00
 -1      3344 1.77169E+01 1.16505E+01 0.00000E+00
 -1      3345 1.33529E+02 1.24293E+01 0.00000E+00
 -1      3346 1.51500E+01 3.70100E+01 0.00000E+00
 -1      3347 1.13273E+02 2.20589E+01 0.00000E+00
 -1      3348 1.14301E+02 2.14645E+01 0.00000E+00
 -1      3349 1.13895E+02 2.05394E+01 0.00000E+00
 -1      3350 1.16910E+01 3.01219E+01 0.00000E+00
 -1      3351 1.16910E+01 3.15906E+01 0.00000E+00
 -1      3352 1.29900E+01 3.23250E+01 0.00000E+00
 -1      3353 1.19241E+01 3.71726E+01 0.00000E+00
 -1      3354 1.37947E+02 3.68404E+01 0.00000E+00
 -1      3355 1.38923E+02 1.64552E+01 0.00000E+00
 -1      3356 1.38894E+02 1.52148E+01 0.00000E+00
 -1      3357 1.16910E+01 1.83469E+01 0.00000E+00
 -1      3358 1.16910E+01 1.98156E+01 0.00000E+00
 -1      3359 1.29900E+01 2.05531E+01 0.00000E+00
 -1      3360 1.29900E+01 1.76094E+01 0.00000E+00
 -1      3361 1.34741E+02 1.15238E+01 0.00000E+00
 -1      3362 1.39022E+02 1.76850E+01 0.00000E+00
 -1      3363 1.39595E+02 1.88885E+01 0.00000E+00
 -1      3364 1.18582E+02 1.43752E+01 0.00000E+00
 -1      3365 1.18846E+02 1.34322E+01 0.00000E+00
 -1      3366 1.17807E+02 1.25857E+01 0.00000E+00
 -1      3367 1.17352E+02 1.41566E+01 0.00000E+00
 -1      3368 1.12290E+02 2.71244E+01 0.00000E+00
 -1      3369 2.04000E+01 3.57110E+01 0.00000E+00
 -1      3370 2.19000E+01 3.57110E+01 0.00000E+00
 -1      3371 1.20210E+01 3.61362E+01 0.00000E+00
 -1      3372 1.28739E+02 1.05053E+01 0.00000E+00
 -1      3373 1.15154E+02 1.55718E+01 0.00000E+00
 -1      3374 1.15900E+02 1.46783E+01 0.00000E+00
 -1      3375 1.74000E+01 3.57110E+01 0.00000E+00
 -1      3376 1.89000E+01 3.57110E+01 0.00000E+00
 -1      3377 1.96500E+01 3.44120E+01 0.00000E+00
 -1      3378 2.34000E+01 3.57110E+01 0.00000E+00
 -1      3379 2.49000E+01 3.57110E+01 0.00000E+00
 -1      3380 2.26500E+01 3.44120E+01 0.00000E+00
 -1      3381 2.64000E+01 3.57110E+01 0.00000E+00
 -1      3382 2.79000E+01 3.57110E+01 0.00000E+00
 -1      3383 2.56500E+01 3.44120E+01 0.00000E+00
 -1      3384 2.94000E+01 3.57110E+01 0.00000E+00
 -1      3385 3.09000E+01 3.57110E+01 0.00000E+00
 -1      3386 2.86500E+01 3.44120E+01 0.00000E+00
 -1      3387 3.24000E+01 3.57110E+01 0.00000E+00
 -1      3388 3.39000E+01 3.57110E+01 0.00000E+00
 -1      3389 3.16500E+01 3.44120E+01 0.00000E+00
 -1      3390 3.54000E+01 3.57110E+01 0.00000E+00
 -1      3391 3.69000E+01 3.57110E+01 0.00000E+00
 -1      3392 3.46500E+01 3.44120E+01 0.00000E+00
 -1      3393 3.84000E+01 3.57110E+01 0.00000E+00
 -1      3394 3.99000E+01 3.57110E+01 0.00000E+00
 -1      3395 3.76500E+01 3.44120E+01 0.00000E+00
 -1      3396 4.14000E+01 3.57110E+01 0.00000E+00
 -1      3397 4.29000E+01 3.57110E+01 0.00000E+00
 -1      3398 4.06500E+01 3.44120E+01 0.00000E+00
 -1      3399 4.44000E+01 3.57110E+01 0.00000E+00
 -1      3400 4.59000E+01 3.57110E+01 0.00000E+00
 -1      3401 4.36500E+01 3.44120E+01 0.00000E+00
 -1      3402 4.74000E+01 3.57110E+01 0.00000E+00
 -1      3403 4.89000E+01 3.57110E+01 0.00000E+00
 -1      3404 4.66500E+01 3.44120E+01 0.00000E+00
 -1      3405 5.04000E+01 3.57110E+01 0.00000E+00
 -1      3406 5.19000E+01 3.57110E+01 0.00000E+00
 -1      3407 4.96500E+01 3.44120E+01 0.00000E+00
 -1      3408 5.34000E+01 3.57110E+01 0.00000E+00
 -1      3409 5.49000E+01 3.57110E+01 0.00000E+00
 -1      3410 5.26500E+01 3.44120E+01 0.00000E+00
 -1      3411 5.64000E+01 3.57110E+01 0.00000E+00
 -1      3412 5.79000E+01 3.57110E+01 0.00000E+00
 -1      3413 5.56500E+01 3.44120E+01 0.00000E+00
 -1      3414 5.94000E+01 3.57110E+01 0.00000E+00
 -1      3415 6.09000E+01 3.57110E+01 0.00000E+00
 -1      3416 5.86500E+01 3.44120E+01 0.00000E+00
 -1      3417 6.24000E+01 3.57110E+01 0.00000E+00
 -1      3418 6.39000E+01 3.57110E+01 0.00000E+00
 -1      3419 6.16500E+01 3.44120E+01 0.00000E+00
 -1      3420 6.54000E+01 3.57110E+01 0.00000E+00
 -1      3421 6.69000E+01 3.57110E+01 0.00000E+00
 -1      3422 6.46500E+01 3.44120E+01 0.00000E+00
 -1      3423 6.84000E+01 3.57110E+01 0.00000E+00
 -1      3424 6.99000E+01 3.57110E+01 0.00000E+00
 -1      3425 6.76500E+01 3.44120E+01 0.00000E+00
 -1      3426 7.14000E+01 3.57110E+01 0.00000E+00
 -1      3427 7.29000E+01 3.57110E+01 0.00000E+00
 -1      3428 7.06500E+01 3.44120E+01 0.00000E+00
 -1      3429 7.44000E+01 3.57110E+01 0.00000E+00
 -1      3430 7.59000E+01 3.57110E+01 0.00000E+00
 -1      3431 7.36500E+01 3.44120E+01 0.00000E+00
 -1      3432 7.74000E+01 3.57110E+01 0.00000E+00
 -1      3433 7.89000E+01 3.57110E+01 0.00000E+00
 -1      3434 7.66500E+01 3.44120E+01 0.00000E+00
 -1      3435 8.04000E+01 3.57110E+01 0.00000E+00
 -1      3436 8.19000E+01 3.57110E+01 0.00000E+00
 -1      3437 7.96500E+01 3.44120E+01 0.00000E+00
 -1      3438 8.34000E+01 3.57110E+01 0.00000E+00
 -1      3439 8.49000E+01 3.57110E+01 0.00000E+00
 -1      3440 8.26500E+01 3.44120E+01 0.00000E+00
 -1      3441 8.64000E+01 3.57110E+01 0.00000E+00
 -1      3442 8.79000E+01 3.57110E+01 0.00000E+00
 -1      3443 8.56500E+01 3.44120E+01 0.00000E+00
 -1      3444 8.94000E+01 3.57110E+01 0.00000E+00
 -1      3445 9.09000E+01 3.57110E+01 0.00000E+00
 -1      3446 8.86500E+01 3.44120E+01 0.00000E+00
 -1      3447 9.24000E+01 3.57110E+01 0.00000E+00
 -1      3448 9.39000E+01 3.57110E+01 0.00000E+00
 -1      3449 9.16500E+01 3.44120E+01 0.00000E+00
 -1      3450 9.54000E+01 3.57110E+01 0.00000E+00
 -1      3451 9.69000E+01 3.57110E+01 0.00000E+00
 -1      3452 9.46500E+01 3.44120E+01 0.00000E+00
 -1      3453 9.84000E+01 3.57110E+01 0.00000E+00
 -1      3454 9.99000E+01 3.57110E+01 0.00000E+00
 -1      3455 9.76500E+01 3.44120E+01 0.00000E+00
 -1      3456 1.01400E+02 3.57110E+01 0.00000E+00
 -1      3457 1.02900E+02 3.57110E+01 0.00000E+00
 -1      3458 1.00650E+02 3.44120E+01 0.00000E+00
 -1      3459 1.04400E+02 3.57110E+01 0.00000E+00
 -1      3460 1.05900E+02 3.57110E+01 0.00000E+00
 -1      3461 1.03650E+02 3.44120E+01 0.00000E+00
 -1      3462 1.07400E+02 3.57110E+01 0.00000E+00
 -1      3463 1.08900E+02 3.57110E+01 0.00000E+00
 -1      3464 1.06650E+02 3.44120E+01 0.00000E+00
 -1      3465 1.10400E+02 3.57110E+01 0.00000E+00
 -1      3466 1.11900E+02 3.57110E+01 0.00000E+00
 -1      3467 1.09650E+02 3.44120E+01 0.00000E+00
 -1      3468 1.13091E+02 3.56039E+01 0.00000E+00
 -1      3469 1.14591E+02 3.56039E+01 0.00000E+00
 -1      3470 1.14724E+02 3.40908E+01 0.00000E+00
 -1      3471 1.12341E+02 3.43049E+01 0.00000E+00
 -1      3472 1.38864E+02 1.39745E+01 0.00000E+00
 -1      3473 4.82850E+01 1.30992E+01 0.00000E+00
 -1      3474 4.67850E+01 1.30992E+01 0.00000E+00
 -1      3475 1.33200E+01 3.54019E+01 0.00000E+00
 -1      3476 4.52850E+01 1.30992E+01 0.00000E+00
 -1      3477 4.37850E+01 1.30992E+01 0.00000E+00
 -1      3478 4.60350E+01 1.43982E+01 0.00000E+00
 -1      3479 4.22850E+01 1.30992E+01 0.00000E+00
 -1      3480 4.07850E+01 1.30992E+01 0.00000E+00
 -1      3481 4.30350E+01 1.43982E+01 0.00000E+00
 -1      3482 5.12850E+01 1.30992E+01 0.00000E+00
 -1      3483 4.97850E+01 1.30992E+01 0.00000E+00
 -1      3484 4.90350E+01 1.43982E+01 0.00000E+00
 -1      3485 5.42850E+01 1.30992E+01 0.00000E+00
 -1      3486 5.27850E+01 1.30992E+01 0.00000E+00
 -1      3487 5.20350E+01 1.43982E+01 0.00000E+00
 -1      3488 5.72850E+01 1.30992E+01 0.00000E+00
 -1      3489 5.57850E+01 1.30992E+01 0.00000E+00
 -1      3490 5.50350E+01 1.43982E+01 0.00000E+00
 -1      3491 6.02850E+01 1.30992E+01 0.00000E+00
 -1      3492 5.87850E+01 1.30992E+01 0.00000E+00
 -1      3493 5.80350E+01 1.43982E+01 0.00000E+00
 -1      3494 6.32850E+01 1.30992E+01 0.00000E+00
 -1      3495 6.17850E+01 1.30992E+01 0.00000E+00
 -1      3496 6.10350E+01 1.43982E+01 0.00000E+00
 -1      3497 6.62850E+01 1.30992E+01 0.00000E+00
 -1      3498 6.47850E+01 1.30992E+01 0.00000E+00
 -1      3499 6.40350E+01 1.43982E+01 0.00000E+00
 -1      3500 6.92850E+01 1.30992E+01 0.00000E+00
 -1      3501 6.77850E+01 1.30992E+01 0.00000E+00
 -1      3502 6.70350E+01 1.43982E+01 0.00000E+00
 -1      3503 7.22850E+01 1.30992E+01 0.00000E+00
 -1      3504 7.07850E+01 1.30992E+01 0.00000E+00
 -1      3505 7.00350E+01 1.43982E+01 0.00000E+00
 -1      3506 7.52850E+01 1.30992E+01 0.00000E+00
 -1      3507 7.37850E+01 1.30992E+01 0.00000E+00
 -1      3508 7.30350E+01 1.43982E+01 0.00000E+00
 -1      3509 7.82850E+01 1.30992E+01 0.00000E+00
 -1      3510 7.67850E+01 1.30992E+01 0.00000E+00
 -1      3511 7.60350E+01 1.43982E+01 0.00000E+00
 -1      3512 8.12850E+01 1.30992E+01 0.00000E+00
 -1      3513 7.97850E+01 1.30992E+01 0.00000E+00
 -1      3514 7.90350E+01 1.43982E+01 0.00000E+00
 -1      3515 8.42850E+01 1.30992E+01 0.00000E+00
 -1      3516 8.27850E+01 1.30992E+01 0.00000E+00
 -1      3517 8.20350E+01 1.43982E+01 0.00000E+00
 -1      3518 8.72850E+01 1.30992E+01 0.00000E+00
 -1      3519 8.57850E+01 1.30992E+01 0.00000E+00
 -1      3520 8.50350E+01 1.43982E+01 0.00000E+00
 -1      3521 9.02850E+01 1.30992E+01 0.00000E+00
 -1      3522 8.87850E+01 1.30992E+01 0.00000E+00
 -1      3523 8.80350E+01 1.43982E+01 0.00000E+00
 -1      3524 9.32850E+01 1.30992E+01 0.00000E+00
 -1      3525 9.17850E+01 1.30992E+01 0.00000E+00
 -1      3526 9.10350E+01 1.43982E+01 0.00000E+00
 -1      3527 9.62850E+01 1.30992E+01 0.00000E+00
 -1      3528 9.47850E+01 1.30992E+01 0.00000E+00
 -1      3529 9.40350E+01 1.43982E+01 0.00000E+00
 -1      3530 9.92850E+01 1.30992E+01 0.00000E+00
 -1      3531 9.77850E+01 1.30992E+01 0.00000E+00
 -1      3532 9.70350E+01 1.43982E+01 0.00000E+00
 -1      3533 1.02285E+02 1.30992E+01 0.00000E+00
 -1      3534 1.00785E+02 1.30992E+01 0.00000E+00
 -1      3535 1.00035E+02 1.43982E+01 0.00000E+00
 -1      3536 1.05285E+02 1.30992E+01 0.00000E+00
 -1      3537 1.03785E+02 1.30992E+01 0.00000E+00
 -1      3538 1.03035E+02 1.43982E+01 0.00000E+00
 -1      3539 1.08285E+02 1.30992E+01 0.00000E+00
 -1      3540 1.06785E+02 1.30992E+01 0.00000E+00
 -1      3541 1.06035E+02 1.43982E+01 0.00000E+00
 -1      3542 1.11285E+02 1.30992E+01 0.00000E+00
 -1      3543 1.09785E+02 1.30992E+01 0.00000E+00
 -1      3544 1.09035E+02 1.43982E+01 0.00000E+00
 -1      3545 1.14855E+02 1.31074E+01 0.00000E+00
 -1      3546 1.13355E+02 1.31074E+01 0.00000E+00
 -1      3547 1.16355E+02 1.31074E+01 0.00000E+00
 -1      3548 2.12850E+01 1.30992E+01 0.00000E+00
 -1      3549 1.97850E+01 1.30992E+01 0.00000E+00
 -1      3550 1.16910E+01 2.71844E+01 0.00000E+00
 -1      3551 1.16910E+01 2.86531E+01 0.00000E+00
 -1      3552 1.29900E+01 2.93875E+01 0.00000E+00
 -1      3553 3.32850E+01 1.30992E+01 0.00000E+00
 -1      3554 3.17850E+01 1.30992E+01 0.00000E+00
 -1      3555 1.12267E+02 3.17283E+01 0.00000E+00
 -1      3556 1.11677E+02 2.99644E+01 0.00000E+00
 -1      3557 1.11469E+02 2.43189E+01 0.00000E+00
 -1      3558 1.12325E+02 2.30217E+01 0.00000E+00
 -1      3559 1.46100E+01 3.55564E+01 0.00000E+00
 -1      3560 1.61100E+01 3.55564E+01 0.00000E+00
 -1      3561 1.68600E+01 3.42574E+01 0.00000E+00
 -1      3562 1.42800E+01 3.39483E+01 0.00000E+00
 -1      3563 1.11284E+02 2.81418E+01 0.00000E+00
 -1      3564 1.10961E+02 2.65960E+01 0.00000E+00
 -1      3565 1.42890E+01 1.39344E+01 0.00000E+00
 -1      3566 1.42890E+01 1.54031E+01 0.00000E+00
 -1      3567 2.42850E+01 1.30992E+01 0.00000E+00
 -1      3568 2.27850E+01 1.30992E+01 0.00000E+00
 -1      3569 2.20350E+01 1.43982E+01 0.00000E+00
 -1      3570 1.13663E+02 3.31980E+01 0.00000E+00
 -1      3571 1.10348E+02 2.94359E+01 0.00000E+00
 -1      3572 1.14270E+02 1.60479E+01 0.00000E+00
 -1      3573 2.65350E+01 1.18003E+01 0.00000E+00
 -1      3574 3.02850E+01 1.30992E+01 0.00000E+00
 -1      3575 2.87850E+01 1.30992E+01 0.00000E+00
 -1      3576 3.10350E+01 1.43982E+01 0.00000E+00
 -1      3577 1.12605E+02 1.44064E+01 0.00000E+00
 -1      3578 1.29900E+01 2.64469E+01 0.00000E+00
 -1      3579 1.42800E+01 3.24796E+01 0.00000E+00
 -1      3580 1.55700E+01 3.26341E+01 0.00000E+00
 -1      3581 1.42800E+01 3.10108E+01 0.00000E+00
 -1      3582 1.13366E+02 1.94075E+01 0.00000E+00
 -1      3583 1.12837E+02 1.82755E+01 0.00000E+00
 -1      3584 1.12338E+02 2.00018E+01 0.00000E+00
 -1      3585 1.48779E+01 1.21429E+01 0.00000E+00
 -1      3586 1.44917E+01 1.31424E+01 0.00000E+00
 -1      3587 1.57907E+01 1.38767E+01 0.00000E+00
 -1      3588 1.61961E+01 1.22927E+01 0.00000E+00
 -1      3589 3.62850E+01 1.30992E+01 0.00000E+00
 -1      3590 3.47850E+01 1.30992E+01 0.00000E+00
 -1      3591 3.40350E+01 1.43982E+01 0.00000E+00
 -1      3592 1.10463E+02 2.53364E+01 0.00000E+00
 -1      3593 1.09966E+02 2.40768E+01 0.00000E+00
 -1      3594 1.09458E+02 2.63539E+01 0.00000E+00
 -1      3595 1.86496E+01 1.27709E+01 0.00000E+00
 -1      3596 1.73315E+01 1.26211E+01 0.00000E+00
 -1      3597 1.71288E+01 1.34131E+01 0.00000E+00
 -1      3598 1.93996E+01 1.40699E+01 0.00000E+00
 -1      3599 1.11919E+02 2.20966E+01 0.00000E+00
 -1      3600 1.42890E+01 2.27625E+01 0.00000E+00
 -1      3601 1.42890E+01 2.42375E+01 0.00000E+00
 -1      3602 3.92850E+01 1.30992E+01 0.00000E+00
 -1      3603 3.77850E+01 1.30992E+01 0.00000E+00
 -1      3604 3.70350E+01 1.43982E+01 0.00000E+00
 -1      3605 4.00350E+01 1.43982E+01 0.00000E+00
 -1      3606 1.42890E+01 1.98188E+01 0.00000E+00
 -1      3607 1.42890E+01 2.12906E+01 0.00000E+00
 -1      3608 1.55880E+01 2.20281E+01 0.00000E+00
 -1      3609 4.97850E+01 1.56973E+01 0.00000E+00
 -1      3610 4.82850E+01 1.56973E+01 0.00000E+00
 -1      3611 1.89000E+01 3.31130E+01 0.00000E+00
 -1      3612 2.04000E+01 3.31130E+01 0.00000E+00
 -1      3613 2.19000E+01 3.31130E+01 0.00000E+00
 -1      3614 2.34000E+01 3.31130E+01 0.00000E+00
 -1      3615 2.11500E+01 3.18140E+01 0.00000E+00
 -1      3616 2.49000E+01 3.31130E+01 0.00000E+00
 -1      3617 2.64000E+01 3.31130E+01 0.00000E+00
 -1      3618 2.41500E+01 3.18140E+01 0.00000E+00
 -1      3619 2.79000E+01 3.31130E+01 0.00000E+00
 -1      3620 2.94000E+01 3.31130E+01 0.00000E+00
 -1      3621 2.71500E+01 3.18140E+01 0.00000E+00
 -1      3622 3.09000E+01 3.31130E+01 0.00000E+00
 -1      3623 3.24000E+01 3.31130E+01 0.00000E+00
 -1      3624 3.01500E+01 3.18140E+01 0.00000E+00
 -1      3625 3.39000E+01 3.31130E+01 0.00000E+00
 -1      3626 3.54000E+01 3.31130E+01 0.00000E+00
 -1      3627 3.31500E+01 3.18140E+01 0.00000E+00
 -1      3628 3.69000E+01 3.31130E+01 0.00000E+00
 -1      3629 3.84000E+01 3.31130E+01 0.00000E+00
 -1      3630 3.61500E+01 3.18140E+01 0.00000E+00
 -1      3631 3.99000E+01 3.31130E+01 0.00000E+00
 -1      3632 4.14000E+01 3.31130E+01 0.00000E+00
 -1      3633 3.91500E+01 3.18140E+01 0.00000E+00
 -1      3634 4.29000E+01 3.31130E+01 0.00000E+00
 -1      3635 4.44000E+01 3.31130E+01 0.00000E+00
 -1      3636 4.21500E+01 3.18140E+01 0.00000E+00
 -1      3637 4.59000E+01 3.31130E+01 0.00000E+00
 -1      3638 4.74000E+01 3.31130E+01 0.00000E+00
 -1      3639 4.51500E+01 3.18140E+01 0.00000E+00
 -1      3640 4.89000E+01 3.31130E+01 0.00000E+00
 -1      3641 5.04000E+01 3.31130E+01 0.00000E+00
 -1      3642 4.81500E+01 3.18140E+01 0.00000E+00
 -1      3643 5.19000E+01 3.31130E+01 0.00000E+00
 -1      3644 5.34000E+01 3.31130E+01 0.00000E+00
 -1      3645 5.11500E+01 3.18140E+01 0.00000E+00
 -1      3646 5.49000E+01 3.31130E+01 0.00000E+00
 -1      3647 5.64000E+01 3.31130E+01 0.00000E+00
 -1      3648 5.41500E+01 3.18140E+01 0.00000E+00
 -1      3649 5.79000E+01 3.31130E+01 0.00000E+00
 -1      3650 5.94000E+01 3.31130E+01 0.00000E+00
 -1      3651 5.71500E+01 3.18140E+01 0.00000E+00
 -1      3652 6.09000E+01 3.31130E+01 0.00000E+00
 -1      3653 6.24000E+01 3.31130E+01 0.00000E+00
 -1      3654 6.01500E+01 3.18140E+01 0.00000E+00
 -1      3655 6.39000E+01 3.31130E+01 0.00000E+00
 -1      3656 6.54000E+01 3.31130E+01 0.00000E+00
 -1      3657 6.31500E+01 3.18140E+01 0.00000E+00
 -1      3658 6.69000E+01 3.31130E+01 0.00000E+00
 -1      3659 6.84000E+01 3.31130E+01 0.00000E+00
 -1      3660 6.61500E+01 3.18140E+01 0.00000E+00
 -1      3661 6.99000E+01 3.31130E+01 0.00000E+00
 -1      3662 7.14000E+01 3.31130E+01 0.00000E+00
 -1      3663 6.91500E+01 3.18140E+01 0.00000E+00
 -1      3664 7.29000E+01 3.31130E+01 0.00000E+00
 -1      3665 7.44000E+01 3.31130E+01 0.00000E+00
 -1      3666 7.21500E+01 3.18140E+01 0.00000E+00
 -1      3667 7.59000E+01 3.31130E+01 0.00000E+00
 -1      3668 7.74000E+01 3.31130E+01 0.00000E+00
 -1      3669 7.51500E+01 3.18140E+01 0.00000E+00
 -1      3670 7.89000E+01 3.31130E+01 0.00000E+00
 -1      3671 8.04000E+01 3.31130E+01 0.00000E+00
 -1      3672 7.81500E+01 3.18140E+01 0.00000E+00
 -1      3673 8.19000E+01 3.31130E+01 0.00000E+00
 -1      3674 8.34000E+01 3.31130E+01 0.00000E+00
 -1      3675 8.11500E+01 3.18140E+01 0.00000E+00
 -1      3676 8.49000E+01 3.31130E+01 0.00000E+00
 -1      3677 8.64000E+01 3.31130E+01 0.00000E+00
 -1      3678 8.41500E+01 3.18140E+01 0.00000E+00
 -1      3679 8.79000E+01 3.31130E+01 0.00000E+00
 -1      3680 8.94000E+01 3.31130E+01 0.00000E+00
 -1      3681 8.71500E+01 3.18140E+01 0.00000E+00
 -1      3682 9.09000E+01 3.31130E+01 0.00000E+00
 -1      3683 9.24000E+01 3.31130E+01 0.00000E+00
 -1      3684 9.01500E+01 3.18140E+01 0.00000E+00
 -1      3685 9.39000E+01 3.31130E+01 0.00000E+00
 -1      3686 9.54000E+01 3.31130E+01 0.00000E+00
 -1      3687 9.31500E+01 3.18140E+01 0.00000E+00
 -1      3688 9.69000E+01 3.31130E+01 0.00000E+00
 -1      3689 9.84000E+01 3.31130E+01 0.00000E+00
 -1      3690 9.61500E+01 3.18140E+01 0.00000E+00
 -1      3691 9.99000E+01 3.31130E+01 0.00000E+00
 -1      3692 1.01400E+02 3.31130E+01 0.00000E+00
 -1      3693 9.91500E+01 3.18140E+01 0.00000E+00
 -1      3694 1.02900E+02 3.31130E+01 0.00000E+00
 -1      3695 1.04400E+02 3.31130E+01 0.00000E+00
 -1      3696 1.02150E+02 3.18140E+01 0.00000E+00
 -1      3697 1.05900E+02 3.31130E+01 0.00000E+00
 -1      3698 1.07400E+02 3.31130E+01 0.00000E+00
 -1      3699 1.05150E+02 3.18140E+01 0.00000E+00
 -1      3700 1.09445E+02 3.28352E+01 0.00000E+00
 -1      3701 1.10945E+02 3.28352E+01 0.00000E+00
 -1      3702 1.12136E+02 3.27282E+01 0.00000E+00
 -1      3703 2.72850E+01 1.30992E+01 0.00000E+00
 -1      3704 2.57850E+01 1.30992E+01 0.00000E+00
 -1      3705 2.80350E+01 1.43982E+01 0.00000E+00
 -1      3706 4.67850E+01 1.56973E+01 0.00000E+00
 -1      3707 4.52850E+01 1.56973E+01 0.00000E+00
 -1      3708 4.75350E+01 1.69963E+01 0.00000E+00
 -1      3709 1.42890E+01 1.68750E+01 0.00000E+00
 -1      3710 1.42890E+01 1.83469E+01 0.00000E+00
 -1      3711 1.55880E+01 1.90844E+01 0.00000E+00
 -1      3712 4.37850E+01 1.56973E+01 0.00000E+00
 -1      3713 4.22850E+01 1.56973E+01 0.00000E+00
 -1      3714 4.45350E+01 1.69963E+01 0.00000E+00
 -1      3715 5.57850E+01 1.56973E+01 0.00000E+00
 -1      3716 5.42850E+01 1.56973E+01 0.00000E+00
 -1      3717 5.87850E+01 1.56973E+01 0.00000E+00
 -1      3718 5.72850E+01 1.56973E+01 0.00000E+00
 -1      3719 5.65350E+01 1.69963E+01 0.00000E+00
 -1      3720 6.17850E+01 1.56973E+01 0.00000E+00
 -1      3721 6.02850E+01 1.56973E+01 0.00000E+00
 -1      3722 5.95350E+01 1.69963E+01 0.00000E+00
 -1      3723 6.47850E+01 1.56973E+01 0.00000E+00
 -1      3724 6.32850E+01 1.56973E+01 0.00000E+00
 -1      3725 6.25350E+01 1.69963E+01 0.00000E+00
 -1      3726 6.77850E+01 1.56973E+01 0.00000E+00
 -1      3727 6.62850E+01 1.56973E+01 0.00000E+00
 -1      3728 6.55350E+01 1.69963E+01 0.00000E+00
 -1      3729 7.07850E+01 1.56973E+01 0.00000E+00
 -1      3730 6.92850E+01 1.56973E+01 0.00000E+00
 -1      3731 6.85350E+01 1.69963E+01 0.00000E+00
 -1      3732 7.37850E+01 1.56973E+01 0.00000E+00
 -1      3733 7.22850E+01 1.56973E+01 0.00000E+00
 -1      3734 7.15350E+01 1.69963E+01 0.00000E+00
 -1      3735 7.67850E+01 1.56973E+01 0.00000E+00
 -1      3736 7.52850E+01 1.56973E+01 0.00000E+00
 -1      3737 7.45350E+01 1.69963E+01 0.00000E+00
 -1      3738 7.97850E+01 1.56973E+01 0.00000E+00
 -1      3739 7.82850E+01 1.56973E+01 0.00000E+00
 -1      3740 7.75350E+01 1.69963E+01 0.00000E+00
 -1      3741 8.27850E+01 1.56973E+01 0.00000E+00
 -1      3742 8.12850E+01 1.56973E+01 0.00000E+00
 -1      3743 8.05350E+01 1.69963E+01 0.00000E+00
 -1      3744 8.57850E+01 1.56973E+01 0.00000E+00
 -1      3745 8.42850E+01 1.56973E+01 0.00000E+00
 -1      3746 8.35350E+01 1.69963E+01 0.00000E+00
 -1      3747 8.87850E+01 1.56973E+01 0.00000E+00
 -1      3748 8.72850E+01 1.56973E+01 0.00000E+00
 -1      3749 8.65350E+01 1.69963E+01 0.00000E+00
 -1      3750 9.17850E+01 1.56973E+01 0.00000E+00
 -1      3751 9.02850E+01 1.56973E+01 0.00000E+00
 -1      3752 8.95350E+01 1.69963E+01 0.00000E+00
 -1      3753 9.47850E+01 1.56973E+01 0.00000E+00
 -1      3754 9.32850E+01 1.56973E+01 0.00000E+00
 -1      3755 9.25350E+01 1.69963E+01 0.00000E+00
 -1      3756 9.77850E+01 1.56973E+01 0.00000E+00
 -1      3757 9.62850E+01 1.56973E+01 0.00000E+00
 -1      3758 9.55350E+01 1.69963E+01 0.00000E+00
 -1      3759 1.00785E+02 1.56973E+01 0.00000E+00
 -1      3760 9.92850E+01 1.56973E+01 0.00000E+00
 -1      3761 9.85350E+01 1.69963E+01 0.00000E+00
 -1      3762 1.03785E+02 1.56973E+01 0.00000E+00
 -1      3763 1.02285E+02 1.56973E+01 0.00000E+00
 -1      3764 1.01535E+02 1.69963E+01 0.00000E+00
 -1      3765 1.06785E+02 1.56973E+01 0.00000E+00
 -1      3766 1.05285E+02 1.56973E+01 0.00000E+00
 -1      3767 1.04535E+02 1.69963E+01 0.00000E+00
 -1      3768 1.09785E+02 1.56973E+01 0.00000E+00
 -1      3769 1.08285E+02 1.56973E+01 0.00000E+00
 -1      3770 1.07535E+02 1.69963E+01 0.00000E+00
 -1      3771 1.42890E+01 2.57094E+01 0.00000E+00
 -1      3772 1.42890E+01 2.71812E+01 0.00000E+00
 -1      3773 1.55880E+01 2.49719E+01 0.00000E+00
 -1      3774 1.42845E+01 2.83617E+01 0.00000E+00
 -1      3775 1.42845E+01 2.98304E+01 0.00000E+00
 -1      3776 1.55745E+01 2.99850E+01 0.00000E+00
 -1      3777 1.55835E+01 2.76242E+01 0.00000E+00
 -1      3778 1.12200E+02 1.60397E+01 0.00000E+00
 -1      3779 1.10443E+02 2.19274E+01 0.00000E+00
 -1      3780 1.11390E+02 2.09646E+01 0.00000E+00
 -1      3781 1.10861E+02 1.98327E+01 0.00000E+00
 -1      3782 5.27850E+01 1.56973E+01 0.00000E+00
 -1      3783 5.12850E+01 1.56973E+01 0.00000E+00
 -1      3784 5.35350E+01 1.69963E+01 0.00000E+00
 -1      3785 1.09378E+02 3.05983E+01 0.00000E+00
 -1      3786 1.08985E+02 2.87758E+01 0.00000E+00
 -1      3787 1.65900E+01 3.27963E+01 0.00000E+00
 -1      3788 1.78800E+01 3.29508E+01 0.00000E+00
 -1      3789 1.86300E+01 3.16518E+01 0.00000E+00
 -1      3790 1.65900E+01 3.13275E+01 0.00000E+00
 -1      3791 1.55880E+01 1.61406E+01 0.00000E+00
 -1      3792 1.16127E+02 1.38929E+01 0.00000E+00
 -1      3793 1.11450E+02 1.73387E+01 0.00000E+00
 -1      3794 2.27850E+01 1.56973E+01 0.00000E+00
 -1      3795 2.12850E+01 1.56973E+01 0.00000E+00
 -1      3796 2.50350E+01 1.43982E+01 0.00000E+00
 -1      3797 1.08695E+02 3.15362E+01 0.00000E+00
 -1      3798 3.17850E+01 1.56973E+01 0.00000E+00
 -1      3799 3.02850E+01 1.56973E+01 0.00000E+00
 -1      3800 1.07518E+02 2.86785E+01 0.00000E+00
 -1      3801 1.08488E+02 2.75162E+01 0.00000E+00
 -1      3802 1.07991E+02 2.62566E+01 0.00000E+00
 -1      3803 2.05350E+01 1.69963E+01 0.00000E+00
 -1      3804 1.97850E+01 1.56973E+01 0.00000E+00
 -1      3805 1.68870E+01 2.42359E+01 0.00000E+00
 -1      3806 1.68870E+01 2.57078E+01 0.00000E+00
 -1      3807 5.05350E+01 1.69963E+01 0.00000E+00
 -1      3808 1.73115E+01 1.58325E+01 0.00000E+00
 -1      3809 1.73115E+01 1.73044E+01 0.00000E+00
 -1      3810 4.07850E+01 1.56973E+01 0.00000E+00
 -1      3811 3.92850E+01 1.56973E+01 0.00000E+00
 -1      3812 4.15350E+01 1.69963E+01 0.00000E+00
 -1      3813 1.86496E+01 1.53689E+01 0.00000E+00
 -1      3814 3.47850E+01 1.56973E+01 0.00000E+00
 -1      3815 3.32850E+01 1.56973E+01 0.00000E+00
 -1      3816 3.25350E+01 1.69963E+01 0.00000E+00
 -1      3817 1.08432E+02 2.39623E+01 0.00000E+00
 -1      3818 1.09437E+02 2.29449E+01 0.00000E+00
 -1      3819 1.08908E+02 2.18129E+01 0.00000E+00
 -1      3820 1.69261E+01 1.42051E+01 0.00000E+00
 -1      3821 1.68870E+01 2.12922E+01 0.00000E+00
 -1      3822 1.68870E+01 2.27641E+01 0.00000E+00
 -1      3823 1.81860E+01 2.35000E+01 0.00000E+00
 -1      3824 2.57850E+01 1.56973E+01 0.00000E+00
 -1      3825 2.42850E+01 1.56973E+01 0.00000E+00
 -1      3826 2.35350E+01 1.69963E+01 0.00000E+00
 -1      3827 2.95350E+01 1.69963E+01 0.00000E+00
 -1      3828 2.87850E+01 1.56973E+01 0.00000E+00
 -1      3829 2.72850E+01 1.56973E+01 0.00000E+00
 -1      3830 2.34000E+01 3.05150E+01 0.00000E+00
 -1      3831 2.49000E+01 3.05150E+01 0.00000E+00
 -1      3832 2.64000E+01 3.05150E+01 0.00000E+00
 -1      3833 2.79000E+01 3.05150E+01 0.00000E+00
 -1      3834 2.56500E+01 2.92160E+01 0.00000E+00
 -1      3835 2.94000E+01 3.05150E+01 0.00000E+00
 -1      3836 3.09000E+01 3.05150E+01 0.00000E+00
 -1      3837 2.86500E+01 2.92160E+01 0.00000E+00
 -1      3838 3.24000E+01 3.05150E+01 0.00000E+00
 -1      3839 3.39000E+01 3.05150E+01 0.00000E+00
 -1      3840 3.16500E+01 2.92160E+01 0.00000E+00
 -1      3841 3.54000E+01 3.05150E+01 0.00000E+00
 -1      3842 3.69000E+01 3.05150E+01 0.00000E+00
 -1      3843 3.46500E+01 2.92160E+01 0.00000E+00
 -1      3844 3.84000E+01 3.05150E+01 0.00000E+00
 -1      3845 3.99000E+01 3.05150E+01 0.00000E+00
 -1      3846 3.76500E+01 2.92160E+01 0.00000E+00
 -1      3847 4.14000E+01 3.05150E+01 0.00000E+00
 -1      3848 4.29000E+01 3.05150E+01 0.00000E+00
 -1      3849 4.06500E+01 2.92160E+01 0.00000E+00
 -1      3850 4.44000E+01 3.05150E+01 0.00000E+00
 -1      3851 4.59000E+01 3.05150E+01 0.00000E+00
 -1      3852 4.36500E+01 2.92160E+01 0.00000E+00
 -1      3853 4.74000E+01 3.05150E+01 0.00000E+00
 -1      3854 4.89000E+01 3.05150E+01 0.00000E+00
 -1      3855 4.66500E+01 2.92160E+01 0.00000E+00
 -1      3856 5.04000E+01 3.05150E+01 0.00000E+00
 -1      3857 5.19000E+01 3.05150E+01 0.00000E+00
 -1      3858 4.96500E+01 2.92160E+01 0.00000E+00
 -1      3859 5.34000E+01 3.05150E+01 0.00000E+00
 -1      3860 5.49000E+01 3.05150E+01 0.00000E+00
 -1      3861 5.26500E+01 2.92160E+01 0.00000E+00
 -1      3862 5.64000E+01 3.05150E+01 0.00000E+00
 -1      3863 5.79000E+01 3.05150E+01 0.00000E+00
 -1      3864 5.56500E+01 2.92160E+01 0.00000E+00
 -1      3865 5.94000E+01 3.05150E+01 0.00000E+00
 -1      3866 6.09000E+01 3.05150E+01 0.00000E+00
 -1      3867 5.86500E+01 2.92160E+01 0.00000E+00
 -1      3868 6.24000E+01 3.05150E+01 0.00000E+00
 -1      3869 6.39000E+01 3.05150E+01 0.00000E+00
 -1      3870 6.16500E+01 2.92160E+01 0.00000E+00
 -1      3871 6.54000E+01 3.05150E+01 0.00000E+00
 -1      3872 6.69000E+01 3.05150E+01 0.00000E+00
 -1      3873 6.46500E+01 2.92160E+01 0.00000E+00
 -1      3874 6.84000E+01 3.05150E+01 0.00000E+00
 -1      3875 6.99000E+01 3.05150E+01 0.00000E+00
 -1      3876 6.76500E+01 2.92160E+01 0.00000E+00
 -1      3877 7.14000E+01 3.05150E+01 0.00000E+00
 -1      3878 7.29000E+01 3.05150E+01 0.00000E+00
 -1      3879 7.06500E+01 2.92160E+01 0.00000E+00
 -1      3880 7.44000E+01 3.05150E+01 0.00000E+00
 -1      3881 7.59000E+01 3.05150E+01 0.00000E+00
 -1      3882 7.36500E+01 2.92160E+01 0.00000E+00
 -1      3883 7.74000E+01 3.05150E+01 0.00000E+00
 -1      3884 7.89000E+01 3.05150E+01 0.00000E+00
 -1      3885 7.66500E+01 2.92160E+01 0.00000E+00
 -1      3886 8.04000E+01 3.05150E+01 0.00000E+00
 -1      3887 8.19000E+01 3.05150E+01 0.00000E+00
 -1      3888 7.96500E+01 2.92160E+01 0.00000E+00
 -1      3889 8.34000E+01 3.05150E+01 0.00000E+00
 -1      3890 8.49000E+01 3.05150E+01 0.00000E+00
 -1      3891 8.26500E+01 2.92160E+01 0.00000E+00
 -1      3892 8.64000E+01 3.05150E+01 0.00000E+00
 -1      3893 8.79000E+01 3.05150E+01 0.00000E+00
 -1      3894 8.56500E+01 2.92160E+01 0.00000E+00
 -1      3895 8.94000E+01 3.05150E+01 0.00000E+00
 -1      3896 9.09000E+01 3.05150E+01 0.00000E+00
 -1      3897 8.86500E+01 2.92160E+01 0.00000E+00
 -1      3898 9.24000E+01 3.05150E+01 0.00000E+00
 -1      3899 9.39000E+01 3.05150E+01 0.00000E+00
 -1      3900 9.16500E+01 2.92160E+01 0.00000E+00
 -1      3901 9.54000E+01 3.05150E+01 0.00000E+00
 -1      3902 9.69000E+01 3.05150E+01 0.00000E+00
 -1      3903 9.46500E+01 2.92160E+01 0.00000E+00
 -1      3904 9.84000E+01 3.05150E+01 0.00000E+00
 -1      3905 9.99000E+01 3.05150E+01 0.00000E+00
 -1      3906 9.76500E+01 2.92160E+01 0.00000E+00
 -1      3907 1.01400E+02 3.05150E+01 0.00000E+00
 -1      3908 1.02900E+02 3.05150E+01 0.00000E+00
 -1      3909 1.00650E+02 2.92160E+01 0.00000E+00
 -1      3910 4.82850E+01 1.82952E+01 0.00000E+00
 -1      3911 4.67850E+01 1.82952E+01 0.00000E+00
 -1      3912 4.52850E+01 1.82952E+01 0.00000E+00
 -1      3913 4.37850E+01 1.82952E+01 0.00000E+00
 -1      3914 4.60350E+01 1.95942E+01 0.00000E+00
 -1      3915 2.12850E+01 1.82953E+01 0.00000E+00
 -1      3916 1.97851E+01 1.82953E+01 0.00000E+00
 -1      3917 6.02850E+01 1.82952E+01 0.00000E+00
 -1      3918 5.87850E+01 1.82952E+01 0.00000E+00
 -1      3919 5.72850E+01 1.82952E+01 0.00000E+00
 -1      3920 5.57850E+01 1.82952E+01 0.00000E+00
 -1      3921 5.80350E+01 1.95942E+01 0.00000E+00
 -1      3922 6.62850E+01 1.82952E+01 0.00000E+00
 -1      3923 6.47850E+01 1.82952E+01 0.00000E+00
 -1      3924 6.92850E+01 1.82952E+01 0.00000E+00
 -1      3925 6.77850E+01 1.82952E+01 0.00000E+00
 -1      3926 6.70350E+01 1.95942E+01 0.00000E+00
 -1      3927 7.22850E+01 1.82952E+01 0.00000E+00
 -1      3928 7.07850E+01 1.82952E+01 0.00000E+00
 -1      3929 7.00350E+01 1.95942E+01 0.00000E+00
 -1      3930 7.52850E+01 1.82952E+01 0.00000E+00
 -1      3931 7.37850E+01 1.82952E+01 0.00000E+00
 -1      3932 7.30350E+01 1.95942E+01 0.00000E+00
 -1      3933 7.82850E+01 1.82952E+01 0.00000E+00
 -1      3934 7.67850E+01 1.82952E+01 0.00000E+00
 -1      3935 7.60350E+01 1.95942E+01 0.00000E+00
 -1      3936 8.12850E+01 1.82952E+01 0.00000E+00
 -1      3937 7.97850E+01 1.82952E+01 0.00000E+00
 -1      3938 7.90350E+01 1.95942E+01 0.00000E+00
 -1      3939 8.42850E+01 1.82952E+01 0.00000E+00
 -1      3940 8.27850E+01 1.82952E+01 0.00000E+00
 -1      3941 8.20350E+01 1.95942E+01 0.00000E+00
 -1      3942 8.72850E+01 1.82952E+01 0.00000E+00
 -1      3943 8.57850E+01 1.82952E+01 0.00000E+00
 -1      3944 8.50350E+01 1.95942E+01 0.00000E+00
 -1      3945 9.02850E+01 1.82952E+01 0.00000E+00
 -1      3946 8.87850E+01 1.82952E+01 0.00000E+00
 -1      3947 8.80350E+01 1.95942E+01 0.00000E+00
 -1      3948 9.32850E+01 1.82952E+01 0.00000E+00
 -1      3949 9.17850E+01 1.82952E+01 0.00000E+00
 -1      3950 9.10350E+01 1.95942E+01 0.00000E+00
 -1      3951 9.62850E+01 1.82952E+01 0.00000E+00
 -1      3952 9.47850E+01 1.82952E+01 0.00000E+00
 -1      3953 9.40350E+01 1.95942E+01 0.00000E+00
 -1      3954 9.92850E+01 1.82952E+01 0.00000E+00
 -1      3955 9.77850E+01 1.82952E+01 0.00000E+00
 -1      3956 9.70350E+01 1.95942E+01 0.00000E+00
 -1      3957 1.02285E+02 1.82952E+01 0.00000E+00
 -1      3958 1.00785E+02 1.82952E+01 0.00000E+00
 -1      3959 1.00035E+02 1.95942E+01 0.00000E+00
 -1      3960 1.05285E+02 1.82952E+01 0.00000E+00
 -1      3961 1.03785E+02 1.82952E+01 0.00000E+00
 -1      3962 1.03035E+02 1.95942E+01 0.00000E+00
 -1      3963 1.81815E+01 2.61523E+01 0.00000E+00
 -1      3964 1.68825E+01 2.68882E+01 0.00000E+00
 -1      3965 1.68780E+01 2.80686E+01 0.00000E+00
 -1      3966 5.12850E+01 1.82952E+01 0.00000E+00
 -1      3967 4.97850E+01 1.82952E+01 0.00000E+00
 -1      3968 4.90350E+01 1.95942E+01 0.00000E+00
 -1      3969 1.07333E+02 3.08760E+01 0.00000E+00
 -1      3970 6.32850E+01 1.82952E+01 0.00000E+00
 -1      3971 6.17850E+01 1.82952E+01 0.00000E+00
 -1      3972 6.10350E+01 1.95942E+01 0.00000E+00
 -1      3973 6.40350E+01 1.95942E+01 0.00000E+00
 -1      3974 2.04000E+01 3.05150E+01 0.00000E+00
 -1      3975 2.19000E+01 3.05150E+01 0.00000E+00
 -1      3976 2.26500E+01 2.92160E+01 0.00000E+00
 -1      3977 3.77850E+01 1.56973E+01 0.00000E+00
 -1      3978 3.62850E+01 1.56973E+01 0.00000E+00
 -1      3979 3.55350E+01 1.69963E+01 0.00000E+00
 -1      3980 3.85350E+01 1.69963E+01 0.00000E+00
 -1      3981 5.42850E+01 1.82952E+01 0.00000E+00
 -1      3982 5.27850E+01 1.82952E+01 0.00000E+00
 -1      3983 5.20350E+01 1.95942E+01 0.00000E+00
 -1      3984 5.50350E+01 1.95942E+01 0.00000E+00
 -1      3985 1.05993E+02 3.07152E+01 0.00000E+00
 -1      3986 1.06676E+02 2.97773E+01 0.00000E+00
 -1      3987 1.06178E+02 2.85177E+01 0.00000E+00
 -1      3988 1.04493E+02 3.07152E+01 0.00000E+00
 -1      3989 3.02850E+01 1.82952E+01 0.00000E+00
 -1      3990 2.87850E+01 1.82952E+01 0.00000E+00
 -1      3991 3.17850E+01 1.82952E+01 0.00000E+00
 -1      3992 3.10350E+01 1.95942E+01 0.00000E+00
 -1      3993 3.32850E+01 1.82952E+01 0.00000E+00
 -1      3994 1.07481E+02 2.14086E+01 0.00000E+00
 -1      3995 1.08487E+02 2.03911E+01 0.00000E+00
 -1      3996 1.67362E+01 2.91079E+01 0.00000E+00
 -1      3997 1.67318E+01 3.02883E+01 0.00000E+00
 -1      3998 1.77518E+01 3.04504E+01 0.00000E+00
 -1      3999 1.80352E+01 2.83719E+01 0.00000E+00
 -1      4000 1.03743E+02 2.94162E+01 0.00000E+00
 -1      4001 4.30350E+01 1.95942E+01 0.00000E+00
 -1      4002 4.22850E+01 1.82952E+01 0.00000E+00
 -1      4003 4.07850E+01 1.82952E+01 0.00000E+00
 -1      4004 2.27850E+01 1.82953E+01 0.00000E+00
 -1      4005 2.20351E+01 1.95943E+01 0.00000E+00
 -1      4006 2.42850E+01 1.82953E+01 0.00000E+00
 -1      4007 1.06492E+02 2.62870E+01 0.00000E+00
 -1      4008 1.07462E+02 2.51247E+01 0.00000E+00
 -1      4009 1.06933E+02 2.39927E+01 0.00000E+00
 -1      4010 1.06548E+02 1.84915E+01 0.00000E+00
 -1      4011 1.05798E+02 1.97905E+01 0.00000E+00
 -1      4012 1.94827E+01 2.55670E+01 0.00000E+00
 -1      4013 1.94782E+01 2.67474E+01 0.00000E+00
 -1      4014 1.08048E+02 1.84915E+01 0.00000E+00
 -1      4015 2.65350E+01 1.69963E+01 0.00000E+00
 -1      4016 1.94827E+01 2.40952E+01 0.00000E+00
 -1      4017 2.07795E+01 2.46903E+01 0.00000E+00
 -1      4018 1.94827E+01 2.26233E+01 0.00000E+00
 -1      4019 1.09474E+02 1.88958E+01 0.00000E+00
 -1      4020 1.68870E+01 1.83484E+01 0.00000E+00
 -1      4021 1.68870E+01 1.98203E+01 0.00000E+00
 -1      4022 1.10422E+02 1.79331E+01 0.00000E+00
 -1      4023 1.81860E+01 2.05562E+01 0.00000E+00
 -1      4024 1.87717E+01 3.06126E+01 0.00000E+00
 -1      4025 1.86105E+01 1.80403E+01 0.00000E+00
 -1      4026 1.95217E+01 2.93136E+01 0.00000E+00
 -1      4027 1.93605E+01 1.93393E+01 0.00000E+00
 -1      4028 1.06576E+02 2.26025E+01 0.00000E+00
 -1      4029 1.06155E+02 2.11807E+01 0.00000E+00
 -1      4030 1.04892E+02 2.09844E+01 0.00000E+00
 -1      4031 1.05606E+02 2.37648E+01 0.00000E+00
 -1      4032 2.79000E+01 2.79170E+01 0.00000E+00
 -1      4033 2.94000E+01 2.79170E+01 0.00000E+00
 -1      4034 3.09000E+01 2.79170E+01 0.00000E+00
 -1      4035 3.24000E+01 2.79170E+01 0.00000E+00
 -1      4036 3.01500E+01 2.66180E+01 0.00000E+00
 -1      4037 3.39000E+01 2.79170E+01 0.00000E+00
 -1      4038 3.54000E+01 2.79170E+01 0.00000E+00
 -1      4039 3.31500E+01 2.66180E+01 0.00000E+00
 -1      4040 3.69000E+01 2.79170E+01 0.00000E+00
 -1      4041 3.84000E+01 2.79170E+01 0.00000E+00
 -1      4042 3.61500E+01 2.66180E+01 0.00000E+00
 -1      4043 3.99000E+01 2.79170E+01 0.00000E+00
 -1      4044 4.14000E+01 2.79170E+01 0.00000E+00
 -1      4045 3.91500E+01 2.66180E+01 0.00000E+00
 -1      4046 4.29000E+01 2.79170E+01 0.00000E+00
 -1      4047 4.44000E+01 2.79170E+01 0.00000E+00
 -1      4048 4.21500E+01 2.66180E+01 0.00000E+00
 -1      4049 4.59000E+01 2.79170E+01 0.00000E+00
 -1      4050 4.74000E+01 2.79170E+01 0.00000E+00
 -1      4051 4.51500E+01 2.66180E+01 0.00000E+00
 -1      4052 4.89000E+01 2.79170E+01 0.00000E+00
 -1      4053 5.04000E+01 2.79170E+01 0.00000E+00
 -1      4054 4.81500E+01 2.66180E+01 0.00000E+00
 -1      4055 5.19000E+01 2.79170E+01 0.00000E+00
 -1      4056 5.34000E+01 2.79170E+01 0.00000E+00
 -1      4057 5.11500E+01 2.66180E+01 0.00000E+00
 -1      4058 5.49000E+01 2.79170E+01 0.00000E+00
 -1      4059 5.64000E+01 2.79170E+01 0.00000E+00
 -1      4060 5.41500E+01 2.66180E+01 0.00000E+00
 -1      4061 5.79000E+01 2.79170E+01 0.00000E+00
 -1      4062 5.94000E+01 2.79170E+01 0.00000E+00
 -1      4063 5.71500E+01 2.66180E+01 0.00000E+00
 -1      4064 6.09000E+01 2.79170E+01 0.00000E+00
 -1      4065 6.24000E+01 2.79170E+01 0.00000E+00
 -1      4066 6.01500E+01 2.66180E+01 0.00000E+00
 -1      4067 6.39000E+01 2.79170E+01 0.00000E+00
 -1      4068 6.54000E+01 2.79170E+01 0.00000E+00
 -1      4069 6.31500E+01 2.66180E+01 0.00000E+00
 -1      4070 6.69000E+01 2.79170E+01 0.00000E+00
 -1      4071 6.84000E+01 2.79170E+01 0.00000E+00
 -1      4072 6.61500E+01 2.66180E+01 0.00000E+00
 -1      4073 6.99000E+01 2.79170E+01 0.00000E+00
 -1      4074 7.14000E+01 2.79170E+01 0.00000E+00
 -1      4075 6.91500E+01 2.66180E+01 0.00000E+00
 -1      4076 7.29000E+01 2.79170E+01 0.00000E+00
 -1      4077 7.44000E+01 2.79170E+01 0.00000E+00
 -1      4078 7.21500E+01 2.66180E+01 0.00000E+00
 -1      4079 7.59000E+01 2.79170E+01 0.00000E+00
 -1      4080 7.74000E+01 2.79170E+01 0.00000E+00
 -1      4081 7.51500E+01 2.66180E+01 0.00000E+00
 -1      4082 7.89000E+01 2.79170E+01 0.00000E+00
 -1      4083 8.04000E+01 2.79170E+01 0.00000E+00
 -1      4084 7.81500E+01 2.66180E+01 0.00000E+00
 -1      4085 8.19000E+01 2.79170E+01 0.00000E+00
 -1      4086 8.34000E+01 2.79170E+01 0.00000E+00
 -1      4087 8.11500E+01 2.66180E+01 0.00000E+00
 -1      4088 8.49000E+01 2.79170E+01 0.00000E+00
 -1      4089 8.64000E+01 2.79170E+01 0.00000E+00
 -1      4090 8.41500E+01 2.66180E+01 0.00000E+00
 -1      4091 8.79000E+01 2.79170E+01 0.00000E+00
 -1      4092 8.94000E+01 2.79170E+01 0.00000E+00
 -1      4093 8.71500E+01 2.66180E+01 0.00000E+00
 -1      4094 9.09000E+01 2.79170E+01 0.00000E+00
 -1      4095 9.24000E+01 2.79170E+01 0.00000E+00
 -1      4096 9.01500E+01 2.66180E+01 0.00000E+00
 -1      4097 9.39000E+01 2.79170E+01 0.00000E+00
 -1      4098 9.54000E+01 2.79170E+01 0.00000E+00
 -1      4099 9.31500E+01 2.66180E+01 0.00000E+00
 -1      4100 9.69000E+01 2.79170E+01 0.00000E+00
 -1      4101 9.84000E+01 2.79170E+01 0.00000E+00
 -1      4102 9.61500E+01 2.66180E+01 0.00000E+00
 -1      4103 9.99000E+01 2.79170E+01 0.00000E+00
 -1      4104 1.01400E+02 2.79170E+01 0.00000E+00
 -1      4105 9.91500E+01 2.66180E+01 0.00000E+00
 -1      4106 2.72850E+01 1.82953E+01 0.00000E+00
 -1      4107 2.57850E+01 1.82953E+01 0.00000E+00
 -1      4108 2.50350E+01 1.95943E+01 0.00000E+00
 -1      4109 2.80350E+01 1.95943E+01 0.00000E+00
 -1      4110 2.19000E+01 2.79170E+01 0.00000E+00
 -1      4111 2.34000E+01 2.79170E+01 0.00000E+00
 -1      4112 1.04696E+02 2.84010E+01 0.00000E+00
 -1      4113 1.05539E+02 2.73022E+01 0.00000E+00
 -1      4114 1.05010E+02 2.61703E+01 0.00000E+00
 -1      4115 1.03103E+02 2.82008E+01 0.00000E+00
 -1      4116 7.07850E+01 2.08932E+01 0.00000E+00
 -1      4117 6.92850E+01 2.08932E+01 0.00000E+00
 -1      4118 6.77850E+01 2.08932E+01 0.00000E+00
 -1      4119 6.62850E+01 2.08932E+01 0.00000E+00
 -1      4120 6.85350E+01 2.21922E+01 0.00000E+00
 -1      4121 7.67850E+01 2.08932E+01 0.00000E+00
 -1      4122 7.52850E+01 2.08932E+01 0.00000E+00
 -1      4123 7.97850E+01 2.08932E+01 0.00000E+00
 -1      4124 7.82850E+01 2.08932E+01 0.00000E+00
 -1      4125 7.75350E+01 2.21922E+01 0.00000E+00
 -1      4126 8.27850E+01 2.08932E+01 0.00000E+00
 -1      4127 8.12850E+01 2.08932E+01 0.00000E+00
 -1      4128 8.05350E+01 2.21922E+01 0.00000E+00
 -1      4129 8.57850E+01 2.08932E+01 0.00000E+00
 -1      4130 8.42850E+01 2.08932E+01 0.00000E+00
 -1      4131 8.35350E+01 2.21922E+01 0.00000E+00
 -1      4132 8.87850E+01 2.08932E+01 0.00000E+00
 -1      4133 8.72850E+01 2.08932E+01 0.00000E+00
 -1      4134 8.65350E+01 2.21922E+01 0.00000E+00
 -1      4135 9.17850E+01 2.08932E+01 0.00000E+00
 -1      4136 9.02850E+01 2.08932E+01 0.00000E+00
 -1      4137 8.95350E+01 2.21922E+01 0.00000E+00
 -1      4138 9.47850E+01 2.08932E+01 0.00000E+00
 -1      4139 9.32850E+01 2.08932E+01 0.00000E+00
 -1      4140 9.25350E+01 2.21922E+01 0.00000E+00
 -1      4141 9.77850E+01 2.08932E+01 0.00000E+00
 -1      4142 9.62850E+01 2.08932E+01 0.00000E+00
 -1      4143 9.55350E+01 2.21922E+01 0.00000E+00
 -1      4144 1.00785E+02 2.08932E+01 0.00000E+00
 -1      4145 9.92850E+01 2.08932E+01 0.00000E+00
 -1      4146 9.85350E+01 2.21922E+01 0.00000E+00
 -1      4147 1.03589E+02 2.09388E+01 0.00000E+00
 -1      4148 1.02089E+02 2.09388E+01 0.00000E+00
 -1      4149 1.01339E+02 2.22378E+01 0.00000E+00
 -1      4150 1.03946E+02 2.23290E+01 0.00000E+00
 -1      4151 2.49000E+01 2.79170E+01 0.00000E+00
 -1      4152 2.64000E+01 2.79170E+01 0.00000E+00
 -1      4153 2.41500E+01 2.66180E+01 0.00000E+00
 -1      4154 7.37850E+01 2.08932E+01 0.00000E+00
 -1      4155 7.22850E+01 2.08932E+01 0.00000E+00
 -1      4156 7.15350E+01 2.21922E+01 0.00000E+00
 -1      4157 7.45350E+01 2.21922E+01 0.00000E+00
 -1      4158 1.96635E+01 2.82743E+01 0.00000E+00
 -1      4159 5.87850E+01 2.08932E+01 0.00000E+00
 -1      4160 5.72850E+01 2.08932E+01 0.00000E+00
 -1      4161 4.97850E+01 2.08932E+01 0.00000E+00
 -1      4162 4.82850E+01 2.08932E+01 0.00000E+00
 -1      4163 4.67850E+01 2.08932E+01 0.00000E+00
 -1      4164 4.52850E+01 2.08932E+01 0.00000E+00
 -1      4165 4.75350E+01 2.21922E+01 0.00000E+00
 -1      4166 1.93605E+01 2.08112E+01 0.00000E+00
 -1      4167 2.06573E+01 2.14063E+01 0.00000E+00
 -1      4168 3.17850E+01 2.08932E+01 0.00000E+00
 -1      4169 3.02850E+01 2.08932E+01 0.00000E+00
 -1      4170 3.62850E+01 1.82952E+01 0.00000E+00
 -1      4171 3.47850E+01 1.82952E+01 0.00000E+00
 -1      4172 3.40350E+01 1.95942E+01 0.00000E+00
 -1      4173 2.71500E+01 2.66180E+01 0.00000E+00
 -1      4174 2.87850E+01 2.08933E+01 0.00000E+00
 -1      4175 2.72850E+01 2.08933E+01 0.00000E+00
 -1      4176 2.95350E+01 2.21923E+01 0.00000E+00
 -1      4177 4.37850E+01 2.08932E+01 0.00000E+00
 -1      4178 4.22850E+01 2.08932E+01 0.00000E+00
 -1      4179 4.45350E+01 2.21922E+01 0.00000E+00
 -1      4180 2.09647E+01 2.76891E+01 0.00000E+00
 -1      4181 2.17147E+01 2.63901E+01 0.00000E+00
 -1      4182 6.17850E+01 2.08932E+01 0.00000E+00
 -1      4183 6.02850E+01 2.08932E+01 0.00000E+00
 -1      4184 5.95350E+01 2.21922E+01 0.00000E+00
 -1      4185 5.12850E+01 2.08932E+01 0.00000E+00
 -1      4186 5.05350E+01 2.21922E+01 0.00000E+00
 -1      4187 5.27850E+01 2.08932E+01 0.00000E+00
 -1      4188 1.02353E+02 2.69018E+01 0.00000E+00
 -1      4189 6.55350E+01 2.21922E+01 0.00000E+00
 -1      4190 6.47850E+01 2.08932E+01 0.00000E+00
 -1      4191 6.32850E+01 2.08932E+01 0.00000E+00
 -1      4192 4.00350E+01 1.95942E+01 0.00000E+00
 -1      4193 3.92850E+01 1.82952E+01 0.00000E+00
 -1      4194 3.77850E+01 1.82952E+01 0.00000E+00
 -1      4195 5.57850E+01 2.08932E+01 0.00000E+00
 -1      4196 5.42850E+01 2.08932E+01 0.00000E+00
 -1      4197 5.65350E+01 2.21922E+01 0.00000E+00
 -1      4198 2.17147E+01 2.34463E+01 0.00000E+00
 -1      4199 2.17147E+01 2.49182E+01 0.00000E+00
 -1      4200 2.26500E+01 2.51461E+01 0.00000E+00
 -1      4201 2.21573E+01 2.14063E+01 0.00000E+00
 -1      4202 2.98425E+01 2.44051E+01 0.00000E+00
 -1      4203 3.13425E+01 2.44051E+01 0.00000E+00
 -1      4204 2.57850E+01 2.08933E+01 0.00000E+00
 -1      4205 2.42851E+01 2.08933E+01 0.00000E+00
 -1      4206 2.65350E+01 2.21923E+01 0.00000E+00
 -1      4207 3.54000E+01 2.53190E+01 0.00000E+00
 -1      4208 3.69000E+01 2.53190E+01 0.00000E+00
 -1      4209 3.84000E+01 2.53190E+01 0.00000E+00
 -1      4210 3.99000E+01 2.53190E+01 0.00000E+00
 -1      4211 3.76500E+01 2.40200E+01 0.00000E+00
 -1      4212 4.18425E+01 2.44051E+01 0.00000E+00
 -1      4213 4.33425E+01 2.44051E+01 0.00000E+00
 -1      4214 4.48425E+01 2.44051E+01 0.00000E+00
 -1      4215 4.63425E+01 2.44051E+01 0.00000E+00
 -1      4216 4.78425E+01 2.44051E+01 0.00000E+00
 -1      4217 4.93425E+01 2.44051E+01 0.00000E+00
 -1      4218 5.08425E+01 2.44051E+01 0.00000E+00
 -1      4219 5.23425E+01 2.44051E+01 0.00000E+00
 -1      4220 5.38425E+01 2.44051E+01 0.00000E+00
 -1      4221 5.53425E+01 2.44051E+01 0.00000E+00
 -1      4222 5.68425E+01 2.44051E+01 0.00000E+00
 -1      4223 5.83425E+01 2.44051E+01 0.00000E+00
 -1      4224 5.98425E+01 2.44051E+01 0.00000E+00
 -1      4225 6.13425E+01 2.44051E+01 0.00000E+00
 -1      4226 6.28425E+01 2.44051E+01 0.00000E+00
 -1      4227 6.43425E+01 2.44051E+01 0.00000E+00
 -1      4228 6.58425E+01 2.44051E+01 0.00000E+00
 -1      4229 6.73425E+01 2.44051E+01 0.00000E+00
 -1      4230 6.88425E+01 2.44051E+01 0.00000E+00
 -1      4231 7.03425E+01 2.44051E+01 0.00000E+00
 -1      4232 7.18425E+01 2.44051E+01 0.00000E+00
 -1      4233 7.33425E+01 2.44051E+01 0.00000E+00
 -1      4234 7.48425E+01 2.44051E+01 0.00000E+00
 -1      4235 7.63425E+01 2.44051E+01 0.00000E+00
 -1      4236 7.78425E+01 2.44051E+01 0.00000E+00
 -1      4237 7.93425E+01 2.44051E+01 0.00000E+00
 -1      4238 8.08425E+01 2.44051E+01 0.00000E+00
 -1      4239 8.23425E+01 2.44051E+01 0.00000E+00
 -1      4240 8.38425E+01 2.44051E+01 0.00000E+00
 -1      4241 8.53425E+01 2.44051E+01 0.00000E+00
 -1      4242 8.68425E+01 2.44051E+01 0.00000E+00
 -1      4243 8.83425E+01 2.44051E+01 0.00000E+00
 -1      4244 8.98425E+01 2.44051E+01 0.00000E+00
 -1      4245 9.13425E+01 2.44051E+01 0.00000E+00
 -1      4246 9.28425E+01 2.44051E+01 0.00000E+00
 -1      4247 9.43425E+01 2.44051E+01 0.00000E+00
 -1      4248 9.58425E+01 2.44051E+01 0.00000E+00
 -1      4249 9.73425E+01 2.44051E+01 0.00000E+00
 -1      4250 9.88425E+01 2.44051E+01 0.00000E+00
 -1      4251 1.00342E+02 2.44051E+01 0.00000E+00
 -1      4252 2.68425E+01 2.44051E+01 0.00000E+00
 -1      4253 2.83425E+01 2.44051E+01 0.00000E+00
 -1      4254 1.04656E+02 2.49447E+01 0.00000E+00
 -1      4255 1.04299E+02 2.35545E+01 0.00000E+00
 -1      4256 1.02996E+02 2.35090E+01 0.00000E+00
 -1      4257 1.03703E+02 2.59600E+01 0.00000E+00
 -1      4258 2.41500E+01 2.51461E+01 0.00000E+00
 -1      4259 1.02000E+02 2.56762E+01 0.00000E+00
 -1      4260 3.32850E+01 2.08932E+01 0.00000E+00
 -1      4261 3.25350E+01 2.21922E+01 0.00000E+00
 -1      4262 3.47850E+01 2.08932E+01 0.00000E+00
 -1      4263 3.28425E+01 2.44051E+01 0.00000E+00
 -1      4264 6.25350E+01 2.21922E+01 0.00000E+00
 -1      4265 3.43425E+01 2.44051E+01 0.00000E+00
 -1      4266 3.50925E+01 2.31061E+01 0.00000E+00
 -1      4267 4.10925E+01 2.31061E+01 0.00000E+00
 -1      4268 1.01692E+02 2.34634E+01 0.00000E+00
 -1      4269 3.70350E+01 1.95942E+01 0.00000E+00
 -1      4270 5.35350E+01 2.21922E+01 0.00000E+00
 -1      4271 4.03425E+01 2.18071E+01 0.00000E+00
 -1      4272 3.88425E+01 2.18071E+01 0.00000E+00
 -1      4273 2.29073E+01 2.27053E+01 0.00000E+00
 -1      4274 3.58425E+01 2.18071E+01 0.00000E+00
 -1      4275 3.73425E+01 2.18071E+01 0.00000E+00
 -1      4276 2.53425E+01 2.44051E+01 0.00000E+00
 -1      4277 2.38425E+01 2.29333E+01 0.00000E+00
 -3
    3C                          2057                                     1
 -1       164    8    0    1
 -2         6         7        23      1111      1274      1128
 -1       165    8    0    1
 -2         7         8       164      1112      1275      1276
 -1       166    8    0    1
 -2         8         9       165      1113      1277      1278
 -1       167    8    0    1
 -2         8       165       164      1278      1279      1275
 -1       168    8    0    1
 -2         9        10       166      1114      1280      1281
 -1       169    8    0    1
 -2         9       166       165      1281      1282      1277
 -1       170    8    0    1
 -2        10        11       167      1115      1283      1284
 -1       171    8    0    1
 -2        10       167       166      1284      1285      1280
 -1       172    8    0    1
 -2        11        12       168      1116      1286      1287
 -1       173    8    0    1
 -2        11       168       167      1287      1288      1283
 -1       174    8    0    1
 -2        12        13       169      1117      1289      1290
 -1       175    8    0    1
 -2        12       169       168      1290      1291      1286
 -1       176    8    0    1
 -2        13        14       170      1118      1292      1293
 -1       177    8    0    1
 -2        13       170       169      1293      1294      1289
 -1       178    8    0    1
 -2        14        15       171      1119      1295      1296
 -1       179    8    0    1
 -2        14       171       170      1296      1297      1292
 -1       180    8    0    1
 -2        15        16       172      1120      1298      1299
 -1       181    8    0    1
 -2        15       172       171      1299      1300      1295
 -1       182    8    0    1
 -2        16        17       173      1121      1301      1302
 -1       183    8    0    1
 -2        16       173       172      1302      1303      1298
 -1       184    8    0    1
 -2        17        18       174      1122      1304      1305
 -1       185    8    0    1
 -2        17       174       173      1305      1306      1301
 -1       186    8    0    1
 -2        18        19       175      1123      1307      1308
 -1       187    8    0    1
 -2        18       175       174      1308      1309      1304
 -1       188    8    0    1
 -2        19        20       176      1124      1310      1311
 -1       189    8    0    1
 -2        19       176       175      1311      1312      1307
 -1       190    8    0    1
 -2        20        21       177      1125      1313      1314
 -1       191    8    0    1
 -2        20       177       176      1314      1315      1310
 -1       192    8    0    1
 -2        21        22       178      1126      1316      1317
 -1       193    8    0    1
 -2        21       178       177      1317      1318      1313
 -1       194    8    0    1
 -2        22         5       179      1127      1319      1320
 -1       195    8    0    1
 -2       178        22       179      1316      1320      1321
 -1       196    8    0    1
 -2         5        72       179      1178      1322      1319
 -1       197    8    0    1
 -2        24        23       180      1129      1323      1324
 -1       198    8    0    1
 -2        25        24       181      1130      1325      1326
 -1       199    8    0    1
 -2        24       180       181      1324      1327      1325
 -1       200    8    0    1
 -2        26        25       182      1131      1328      1329
 -1       201    8    0    1
 -2        25       181       182      1326      1330      1328
 -1       202    8    0    1
 -2        27        26       183      1132      1331      1332
 -1       203    8    0    1
 -2        26       182       183      1329      1333      1331
 -1       204    8    0    1
 -2        28        27       184      1133      1334      1335
 -1       205    8    0    1
 -2        27       183       184      1332      1336      1334
 -1       206    8    0    1
 -2        29        28       185      1134      1337      1338
 -1       207    8    0    1
 -2        28       184       185      1335      1339      1337
 -1       208    8    0    1
 -2        30        29       186      1135      1340      1341
 -1       209    8    0    1
 -2        29       185       186      1338      1342      1340
 -1       210    8    0    1
 -2        31        30       187      1136      1343      1344
 -1       211    8    0    1
 -2        30       186       187      1341      1345      1343
 -1       212    8    0    1
 -2        32        31       188      1137      1346      1347
 -1       213    8    0    1
 -2        31       187       188      1344      1348      1346
 -1       214    8    0    1
 -2        33        32       189      1138      1349      1350
 -1       215    8    0    1
 -2        32       188       189      1347      1351      1349
 -1       216    8    0    1
 -2        34        33       190      1139      1352      1353
 -1       217    8    0    1
 -2        33       189       190      1350      1354      1352
 -1       218    8    0    1
 -2        35        34       191      1140      1355      1356
 -1       219    8    0    1
 -2        34       190       191      1353      1357      1355
 -1       220    8    0    1
 -2        36        35       192      1141      1358      1359
 -1       221    8    0    1
 -2        35       191       192      1356      1360      1358
 -1       222    8    0    1
 -2        37        36       193      1142      1361      1362
 -1       223    8    0    1
 -2        36       192       193      1359      1363      1361
 -1       224    8    0    1
 -2        38        37       194      1143      1364      1365
 -1       225    8    0    1
 -2        37       193       194      1362      1366      1364
 -1       226    8    0    1
 -2        39        38       195      1144      1367      1368
 -1       227    8    0    1
 -2        38       194       195      1365      1369      1367
 -1       228    8    0    1
 -2        40        39       196      1145      1370      1371
 -1       229    8    0    1
 -2        39       195       196      1368      1372      1370
 -1       230    8    0    1
 -2        41        40       197      1146      1373      1374
 -1       231    8    0    1
 -2        40       196       197      1371      1375      1373
 -1       232    8    0    1
 -2        42        41       198      1147      1376      1377
 -1       233    8    0    1
 -2        41       197       198      1374      1378      1376
 -1       234    8    0    1
 -2        43        42       199      1148      1379      1380
 -1       235    8    0    1
 -2        42       198       199      1377      1381      1379
 -1       236    8    0    1
 -2        44        43       200      1149      1382      1383
 -1       237    8    0    1
 -2        43       199       200      1380      1384      1382
 -1       238    8    0    1
 -2        45        44       201      1150      1385      1386
 -1       239    8    0    1
 -2        44       200       201      1383      1387      1385
 -1       240    8    0    1
 -2        46        45       202      1151      1388      1389
 -1       241    8    0    1
 -2        45       201       202      1386      1390      1388
 -1       242    8    0    1
 -2        47        46       203      1152      1391      1392
 -1       243    8    0    1
 -2        46       202       203      1389      1393      1391
 -1       244    8    0    1
 -2        48        47       204      1153      1394      1395
 -1       245    8    0    1
 -2        47       203       204      1392      1396      1394
 -1       246    8    0    1
 -2        49        48       205      1154      1397      1398
 -1       247    8    0    1
 -2        48       204       205      1395      1399      1397
 -1       248    8    0    1
 -2        50        49       206      1155      1400      1401
 -1       249    8    0    1
 -2        49       205       206      1398      1402      1400
 -1       250    8    0    1
 -2        51        50       207      1156      1403      1404
 -1       251    8    0    1
 -2        50       206       207      1401      1405      1403
 -1       252    8    0    1
 -2        52        51       208      1157      1406      1407
 -1       253    8    0    1
 -2        51       207       208      1404      1408      1406
 -1       254    8    0    1
 -2        53        52       209      1158      1409      1410
 -1       255    8    0    1
 -2        52       208       209      1407      1411      1409
 -1       256    8    0    1
 -2        54        53       210      1159      1412      1413
 -1       257    8    0    1
 -2        53       209       210      1410      1414      1412
 -1       258    8    0    1
 -2        55        54       211      1160      1415      1416
 -1       259    8    0    1
 -2        54       210       211      1413      1417      1415
 -1       260    8    0    1
 -2        56        55       212      1161      1418      1419
 -1       261    8    0    1
 -2        55       211       212      1416      1420      1418
 -1       262    8    0    1
 -2        57        56       213      1162      1421      1422
 -1       263    8    0    1
 -2        56       212       213      1419      1423      1421
 -1       264    8    0    1
 -2        58        57       214      1163      1424      1425
 -1       265    8    0    1
 -2        57       213       214      1422      1426      1424
 -1       266    8    0    1
 -2        59        58       215      1164      1427      1428
 -1       267    8    0    1
 -2        58       214       215      1425      1429      1427
 -1       268    8    0    1
 -2        60        59       216      1165      1430      1431
 -1       269    8    0    1
 -2        59       215       216      1428      1432      1430
 -1       270    8    0    1
 -2        61        60       217      1166      1433      1434
 -1       271    8    0    1
 -2        60       216       217      1431      1435      1433
 -1       272    8    0    1
 -2        62        61       218      1167      1436      1437
 -1       273    8    0    1
 -2        61       217       218      1434      1438      1436
 -1       274    8    0    1
 -2        63        62       219      1168      1439      1440
 -1       275    8    0    1
 -2        62       218       219      1437      1441      1439
 -1       276    8    0    1
 -2        64        63       220      1169      1442      1443
 -1       277    8    0    1
 -2        63       219       220      1440      1444      1442
 -1       278    8    0    1
 -2        65        64       221      1170      1445      1446
 -1       279    8    0    1
 -2        64       220       221      1443      1447      1445
 -1       280    8    0    1
 -2        66        65       222      1171      1448      1449
 -1       281    8    0    1
 -2        65       221       222      1446      1450      1448
 -1       282    8    0    1
 -2        67        66       223      1172      1451      1452
 -1       283    8    0    1
 -2        66       222       223      1449      1453      1451
 -1       284    8    0    1
 -2        68        67       224      1173      1454      1455
 -1       285    8    0    1
 -2        67       223       224      1452      1456      1454
 -1       286    8    0    1
 -2        69        68       225      1174      1457      1458
 -1       287    8    0    1
 -2        68       224       225      1455      1459      1457
 -1       288    8    0    1
 -2        70        69       226      1175      1460      1461
 -1       289    8    0    1
 -2        69       225       226      1458      1462      1460
 -1       290    8    0    1
 -2        71        70       227      1176      1463      1464
 -1       291    8    0    1
 -2        70       226       227      1461      1465      1463
 -1       292    8    0    1
 -2         4        71       136      1177      1466      1244
 -1       293    8    0    1
 -2       136        71       227      1466      1464      1467
 -1       294    8    0    1
 -2        72        73       228      1179      1468      1469
 -1       295    8    0    1
 -2        72       228       179      1469      1470      1322
 -1       296    8    0    1
 -2        73        74       229      1180      1471      1472
 -1       297    8    0    1
 -2        73       229       228      1472      1473      1468
 -1       298    8    0    1
 -2        74        75       230      1181      1474      1475
 -1       299    8    0    1
 -2        74       230       229      1475      1476      1471
 -1       300    8    0    1
 -2        75        76       231      1182      1477      1478
 -1       301    8    0    1
 -2        75       231       230      1478      1479      1474
 -1       302    8    0    1
 -2        76        77       232      1183      1480      1481
 -1       303    8    0    1
 -2        76       232       231      1481      1482      1477
 -1       304    8    0    1
 -2        77        78       233      1184      1483      1484
 -1       305    8    0    1
 -2        77       233       232      1484      1485      1480
 -1       306    8    0    1
 -2        78        79       234      1185      1486      1487
 -1       307    8    0    1
 -2        78       234       233      1487      1488      1483
 -1       308    8    0    1
 -2        79        80       235      1186      1489      1490
 -1       309    8    0    1
 -2        79       235       234      1490      1491      1486
 -1       310    8    0    1
 -2        80        81       236      1187      1492      1493
 -1       311    8    0    1
 -2        80       236       235      1493      1494      1489
 -1       312    8    0    1
 -2        81        82       237      1188      1495      1496
 -1       313    8    0    1
 -2        81       237       236      1496      1497      1492
 -1       314    8    0    1
 -2        82        83       238      1189      1498      1499
 -1       315    8    0    1
 -2        82       238       237      1499      1500      1495
 -1       316    8    0    1
 -2        83        84       239      1190      1501      1502
 -1       317    8    0    1
 -2        83       239       238      1502      1503      1498
 -1       318    8    0    1
 -2        84        85       240      1191      1504      1505
 -1       319    8    0    1
 -2        84       240       239      1505      1506      1501
 -1       320    8    0    1
 -2        85        86       241      1192      1507      1508
 -1       321    8    0    1
 -2        85       241       240      1508      1509      1504
 -1       322    8    0    1
 -2        86        87       242      1193      1510      1511
 -1       323    8    0    1
 -2        86       242       241      1511      1512      1507
 -1       324    8    0    1
 -2        87        88       243      1194      1513      1514
 -1       325    8    0    1
 -2        87       243       242      1514      1515      1510
 -1       326    8    0    1
 -2        88        89       244      1195      1516      1517
 -1       327    8    0    1
 -2        88       244       243      1517      1518      1513
 -1       328    8    0    1
 -2        89        90       245      1196      1519      1520
 -1       329    8    0    1
 -2        89       245       244      1520      1521      1516
 -1       330    8    0    1
 -2        90        91       246      1197      1522      1523
 -1       331    8    0    1
 -2        90       246       245      1523      1524      1519
 -1       332    8    0    1
 -2        91        92       247      1198      1525      1526
 -1       333    8    0    1
 -2        91       247       246      1526      1527      1522
 -1       334    8    0    1
 -2        92        93       248      1199      1528      1529
 -1       335    8    0    1
 -2        92       248       247      1529      1530      1525
 -1       336    8    0    1
 -2        93        94       249      1200      1531      1532
 -1       337    8    0    1
 -2        93       249       248      1532      1533      1528
 -1       338    8    0    1
 -2        94        95       250      1201      1534      1535
 -1       339    8    0    1
 -2        94       250       249      1535      1536      1531
 -1       340    8    0    1
 -2        95        96       251      1202      1537      1538
 -1       341    8    0    1
 -2        95       251       250      1538      1539      1534
 -1       342    8    0    1
 -2        96        97       252      1203      1540      1541
 -1       343    8    0    1
 -2        96       252       251      1541      1542      1537
 -1       344    8    0    1
 -2        97        98       253      1204      1543      1544
 -1       345    8    0    1
 -2        97       253       252      1544      1545      1540
 -1       346    8    0    1
 -2        98        99       254      1205      1546      1547
 -1       347    8    0    1
 -2        98       254       253      1547      1548      1543
 -1       348    8    0    1
 -2        99       100       255      1206      1549      1550
 -1       349    8    0    1
 -2        99       255       254      1550      1551      1546
 -1       350    8    0    1
 -2       100       101       256      1207      1552      1553
 -1       351    8    0    1
 -2       100       256       255      1553      1554      1549
 -1       352    8    0    1
 -2       101       102       257      1208      1555      1556
 -1       353    8    0    1
 -2       101       257       256      1556      1557      1552
 -1       354    8    0    1
 -2       102       103       258      1209      1558      1559
 -1       355    8    0    1
 -2       102       258       257      1559      1560      1555
 -1       356    8    0    1
 -2       103       104       259      1210      1561      1562
 -1       357    8    0    1
 -2       103       259       258      1562      1563      1558
 -1       358    8    0    1
 -2       104       105       260      1211      1564      1565
 -1       359    8    0    1
 -2       104       260       259      1565      1566      1561
 -1       360    8    0    1
 -2       105       106       261      1212      1567      1568
 -1       361    8    0    1
 -2       105       261       260      1568      1569      1564
 -1       362    8    0    1
 -2       106       107       262      1213      1570      1571
 -1       363    8    0    1
 -2       106       262       261      1571      1572      1567
 -1       364    8    0    1
 -2       107       108       263      1214      1573      1574
 -1       365    8    0    1
 -2       107       263       262      1574      1575      1570
 -1       366    8    0    1
 -2       108       109       264      1215      1576      1577
 -1       367    8    0    1
 -2       108       264       263      1577      1578      1573
 -1       368    8    0    1
 -2       109       110       265      1216      1579      1580
 -1       369    8    0    1
 -2       109       265       264      1580      1581      1576
 -1       370    8    0    1
 -2       110       111       266      1217      1582      1583
 -1       371    8    0    1
 -2       110       266       265      1583      1584      1579
 -1       372    8    0    1
 -2       111       112       267      1218      1585      1586
 -1       373    8    0    1
 -2       111       267       266      1586      1587      1582
 -1       374    8    0    1
 -2       112       113       268      1219      1588      1589
 -1       375    8    0    1
 -2       112       268       267      1589      1590      1585
 -1       376    8    0    1
 -2       113       114       269      1220      1591      1592
 -1       377    8    0    1
 -2       113       269       268      1592      1593      1588
 -1       378    8    0    1
 -2       114       115       270      1221      1594      1595
 -1       379    8    0    1
 -2       114       270       269      1595      1596      1591
 -1       380    8    0    1
 -2       115       116       271      1222      1597      1598
 -1       381    8    0    1
 -2       115       271       270      1598      1599      1594
 -1       382    8    0    1
 -2       116       117       272      1223      1600      1601
 -1       383    8    0    1
 -2       116       272       271      1601      1602      1597
 -1       384    8    0    1
 -2       117       118       273      1224      1603      1604
 -1       385    8    0    1
 -2       117       273       272      1604      1605      1600
 -1       386    8    0    1
 -2       118       119       274      1225      1606      1607
 -1       387    8    0    1
 -2       118       274       273      1607      1608      1603
 -1       388    8    0    1
 -2       119       120       275      1226      1609      1610
 -1       389    8    0    1
 -2       119       275       274      1610      1611      1606
 -1       390    8    0    1
 -2       120         3       121      1227      1228      1612
 -1       391    8    0    1
 -2       121       122       276      1229      1613      1614
 -1       392    8    0    1
 -2       122       123       277      1230      1615      1616
 -1       393    8    0    1
 -2       122       277       276      1616      1617      1613
 -1       394    8    0    1
 -2       123       124       278      1231      1618      1619
 -1       395    8    0    1
 -2       123       278       277      1619      1620      1615
 -1       396    8    0    1
 -2       124       125       279      1232      1621      1622
 -1       397    8    0    1
 -2       124       279       278      1622      1623      1618
 -1       398    8    0    1
 -2       125       126       280      1233      1624      1625
 -1       399    8    0    1
 -2       125       280       279      1625      1626      1621
 -1       400    8    0    1
 -2       126       127       281      1234      1627      1628
 -1       401    8    0    1
 -2       126       281       280      1628      1629      1624
 -1       402    8    0    1
 -2       127       128       282      1235      1630      1631
 -1       403    8    0    1
 -2       127       282       281      1631      1632      1627
 -1       404    8    0    1
 -2       128       129       283      1236      1633      1634
 -1       405    8    0    1
 -2       128       283       282      1634      1635      1630
 -1       406    8    0    1
 -2       129       130       284      1237      1636      1637
 -1       407    8    0    1
 -2       129       284       283      1637      1638      1633
 -1       408    8    0    1
 -2       130       131       285      1238      1639      1640
 -1       409    8    0    1
 -2       130       285       284      1640      1641      1636
 -1       410    8    0    1
 -2       131       132       286      1239      1642      1643
 -1       411    8    0    1
 -2       131       286       285      1643      1644      1639
 -1       412    8    0    1
 -2       132       133       287      1240      1645      1646
 -1       413    8    0    1
 -2       132       287       286      1646      1647      1642
 -1       414    8    0    1
 -2       133       134       288      1241      1648      1649
 -1       415    8    0    1
 -2       133       288       287      1649      1650      1645
 -1       416    8    0    1
 -2       134       135       289      1242      1651      1652
 -1       417    8    0    1
 -2       134       289       288      1652      1653      1648
 -1       418    8    0    1
 -2       135       136       290      1243      1654      1655
 -1       419    8    0    1
 -2       289       135       290      1651      1655      1656
 -1       420    8    0    1
 -2       136       227       290      1467      1657      1654
 -1       421    8    0    1
 -2         2       137       291      1245      1658      1659
 -1       422    8    0    1
 -2       137       138       292      1246      1660      1661
 -1       423    8    0    1
 -2       138       139       293      1247      1662      1663
 -1       424    8    0    1
 -2       139       140       294      1248      1664      1665
 -1       425    8    0    1
 -2       140       141       295      1249      1666      1667
 -1       426    8    0    1
 -2       141       142       296      1250      1668      1669
 -1       427    8    0    1
 -2       142       143       297      1251      1670      1671
 -1       428    8    0    1
 -2       143       144       298      1252      1672      1673
 -1       429    8    0    1
 -2       144       145       299      1253      1674      1675
 -1       430    8    0    1
 -2       145       146       300      1254      1676      1677
 -1       431    8    0    1
 -2       146       147       301      1255      1678      1679
 -1       432    8    0    1
 -2       147       148       302      1256      1680      1681
 -1       433    8    0    1
 -2       148       149       303      1257      1682      1683
 -1       434    8    0    1
 -2       149       150       304      1258      1684      1685
 -1       435    8    0    1
 -2       150       151       305      1259      1686      1687
 -1       436    8    0    1
 -2       151       152       306      1260      1688      1689
 -1       437    8    0    1
 -2       152       153       307      1261      1690      1691
 -1       438    8    0    1
 -2       153       154       308      1262      1692      1693
 -1       439    8    0    1
 -2       154         1       309      1263      1694      1695
 -1       440    8    0    1
 -2         1       155       310      1264      1696      1697
 -1       441    8    0    1
 -2       155       156       311      1265      1698      1699
 -1       442    8    0    1
 -2       156       157       312      1266      1700      1701
 -1       443    8    0    1
 -2       157       158       313      1267      1702      1703
 -1       444    8    0    1
 -2       158       159       314      1268      1704      1705
 -1       445    8    0    1
 -2       159       160       315      1269      1706      1707
 -1       446    8    0    1
 -2       160       161       316      1270      1708      1709
 -1       447    8    0    1
 -2       161       162       317      1271      1710      1711
 -1       448    8    0    1
 -2       162       163       318      1272      1712      1713
 -1       449    8    0    1
 -2       163         2       319      1273      1714      1715
 -1       450    8    0    1
 -2       294       140       295      1664      1667      1716
 -1       451    8    0    1
 -2       293       139       294      1662      1665      1717
 -1       452    8    0    1
 -2       120       121       275      1612      1718      1609
 -1       453    8    0    1
 -2       121       276       275      1614      1719      1718
 -1       454    8    0    1
 -2       291       137       292      1658      1661      1720
 -1       455    8    0    1
 -2       292       138       293      1660      1663      1721
 -1       456    8    0    1
 -2         2       291       319      1659      1722      1714
 -1       457    8    0    1
 -2       141       296       295      1669      1723      1666
 -1       458    8    0    1
 -2       142       297       296      1671      1724      1668
 -1       459    8    0    1
 -2       143       298       297      1673      1725      1670
 -1       460    8    0    1
 -2       144       299       298      1675      1726      1672
 -1       461    8    0    1
 -2       145       300       299      1677      1727      1674
 -1       462    8    0    1
 -2       146       301       300      1679      1728      1676
 -1       463    8    0    1
 -2       147       302       301      1681      1729      1678
 -1       464    8    0    1
 -2       148       303       302      1683      1730      1680
 -1       465    8    0    1
 -2       149       304       303      1685      1731      1682
 -1       466    8    0    1
 -2       150       305       304      1687      1732      1684
 -1       467    8    0    1
 -2       151       306       305      1689      1733      1686
 -1       468    8    0    1
 -2       152       307       306      1691      1734      1688
 -1       469    8    0    1
 -2       153       308       307      1693      1735      1690
 -1       470    8    0    1
 -2       154       309       308      1695      1736      1692
 -1       471    8    0    1
 -2         1       310       309      1697      1737      1694
 -1       472    8    0    1
 -2       155       311       310      1699      1738      1696
 -1       473    8    0    1
 -2       156       312       311      1701      1739      1698
 -1       474    8    0    1
 -2       157       313       312      1703      1740      1700
 -1       475    8    0    1
 -2       158       314       313      1705      1741      1702
 -1       476    8    0    1
 -2       159       315       314      1707      1742      1704
 -1       477    8    0    1
 -2       160       316       315      1709      1743      1706
 -1       478    8    0    1
 -2       161       317       316      1711      1744      1708
 -1       479    8    0    1
 -2       162       318       317      1713      1745      1710
 -1       480    8    0    1
 -2       163       319       318      1715      1746      1712
 -1       481    8    0    1
 -2        23         7       164      1274      1276      1747
 -1       482    8    0    1
 -2       165       166       320      1282      1748      1749
 -1       483    8    0    1
 -2       164       165       321      1279      1750      1751
 -1       484    8    0    1
 -2       165       320       321      1749      1752      1750
 -1       485    8    0    1
 -2       167       168       322      1288      1753      1754
 -1       486    8    0    1
 -2       168       169       323      1291      1755      1756
 -1       487    8    0    1
 -2       168       323       322      1756      1757      1753
 -1       488    8    0    1
 -2       169       170       324      1294      1758      1759
 -1       489    8    0    1
 -2       169       324       323      1759      1760      1755
 -1       490    8    0    1
 -2       170       171       325      1297      1761      1762
 -1       491    8    0    1
 -2       170       325       324      1762      1763      1758
 -1       492    8    0    1
 -2       171       172       326      1300      1764      1765
 -1       493    8    0    1
 -2       171       326       325      1765      1766      1761
 -1       494    8    0    1
 -2       172       173       327      1303      1767      1768
 -1       495    8    0    1
 -2       172       327       326      1768      1769      1764
 -1       496    8    0    1
 -2       173       174       328      1306      1770      1771
 -1       497    8    0    1
 -2       173       328       327      1771      1772      1767
 -1       498    8    0    1
 -2       174       175       329      1309      1773      1774
 -1       499    8    0    1
 -2       174       329       328      1774      1775      1770
 -1       500    8    0    1
 -2       175       176       330      1312      1776      1777
 -1       501    8    0    1
 -2       175       330       329      1777      1778      1773
 -1       502    8    0    1
 -2       176       177       331      1315      1779      1780
 -1       503    8    0    1
 -2       176       331       330      1780      1781      1776
 -1       504    8    0    1
 -2       177       178       332      1318      1782      1783
 -1       505    8    0    1
 -2       177       332       331      1783      1784      1779
 -1       506    8    0    1
 -2       178       179       333      1321      1785      1786
 -1       507    8    0    1
 -2       332       178       333      1782      1786      1787
 -1       508    8    0    1
 -2       179       228       333      1470      1788      1785
 -1       509    8    0    1
 -2       180        23       164      1323      1747      1789
 -1       510    8    0    1
 -2       228       229       334      1473      1790      1791
 -1       511    8    0    1
 -2       228       334       333      1791      1792      1788
 -1       512    8    0    1
 -2       180       164       321      1789      1751      1793
 -1       513    8    0    1
 -2       182       181       335      1330      1794      1795
 -1       514    8    0    1
 -2       183       182       336      1333      1796      1797
 -1       515    8    0    1
 -2       182       335       336      1795      1798      1796
 -1       516    8    0    1
 -2       184       183       337      1336      1799      1800
 -1       517    8    0    1
 -2       183       336       337      1797      1801      1799
 -1       518    8    0    1
 -2       185       184       338      1339      1802      1803
 -1       519    8    0    1
 -2       184       337       338      1800      1804      1802
 -1       520    8    0    1
 -2       186       185       339      1342      1805      1806
 -1       521    8    0    1
 -2       185       338       339      1803      1807      1805
 -1       522    8    0    1
 -2       187       186       340      1345      1808      1809
 -1       523    8    0    1
 -2       186       339       340      1806      1810      1808
 -1       524    8    0    1
 -2       188       187       341      1348      1811      1812
 -1       525    8    0    1
 -2       187       340       341      1809      1813      1811
 -1       526    8    0    1
 -2       189       188       342      1351      1814      1815
 -1       527    8    0    1
 -2       188       341       342      1812      1816      1814
 -1       528    8    0    1
 -2       190       189       343      1354      1817      1818
 -1       529    8    0    1
 -2       189       342       343      1815      1819      1817
 -1       530    8    0    1
 -2       191       190       344      1357      1820      1821
 -1       531    8    0    1
 -2       190       343       344      1818      1822      1820
 -1       532    8    0    1
 -2       192       191       345      1360      1823      1824
 -1       533    8    0    1
 -2       191       344       345      1821      1825      1823
 -1       534    8    0    1
 -2       193       192       346      1363      1826      1827
 -1       535    8    0    1
 -2       192       345       346      1824      1828      1826
 -1       536    8    0    1
 -2       194       193       347      1366      1829      1830
 -1       537    8    0    1
 -2       193       346       347      1827      1831      1829
 -1       538    8    0    1
 -2       195       194       348      1369      1832      1833
 -1       539    8    0    1
 -2       194       347       348      1830      1834      1832
 -1       540    8    0    1
 -2       196       195       349      1372      1835      1836
 -1       541    8    0    1
 -2       195       348       349      1833      1837      1835
 -1       542    8    0    1
 -2       197       196       350      1375      1838      1839
 -1       543    8    0    1
 -2       196       349       350      1836      1840      1838
 -1       544    8    0    1
 -2       198       197       351      1378      1841      1842
 -1       545    8    0    1
 -2       197       350       351      1839      1843      1841
 -1       546    8    0    1
 -2       199       198       352      1381      1844      1845
 -1       547    8    0    1
 -2       198       351       352      1842      1846      1844
 -1       548    8    0    1
 -2       200       199       353      1384      1847      1848
 -1       549    8    0    1
 -2       199       352       353      1845      1849      1847
 -1       550    8    0    1
 -2       201       200       354      1387      1850      1851
 -1       551    8    0    1
 -2       200       353       354      1848      1852      1850
 -1       552    8    0    1
 -2       202       201       355      1390      1853      1854
 -1       553    8    0    1
 -2       201       354       355      1851      1855      1853
 -1       554    8    0    1
 -2       203       202       356      1393      1856      1857
 -1       555    8    0    1
 -2       202       355       356      1854      1858      1856
 -1       556    8    0    1
 -2       204       203       357      1396      1859      1860
 -1       557    8    0    1
 -2       203       356       357      1857      1861      1859
 -1       558    8    0    1
 -2       205       204       358      1399      1862      1863
 -1       559    8    0    1
 -2       204       357       358      1860      1864      1862
 -1       560    8    0    1
 -2       206       205       359      1402      1865      1866
 -1       561    8    0    1
 -2       205       358       359      1863      1867      1865
 -1       562    8    0    1
 -2       207       206       360      1405      1868      1869
 -1       563    8    0    1
 -2       206       359       360      1866      1870      1868
 -1       564    8    0    1
 -2       208       207       361      1408      1871      1872
 -1       565    8    0    1
 -2       207       360       361      1869      1873      1871
 -1       566    8    0    1
 -2       209       208       362      1411      1874      1875
 -1       567    8    0    1
 -2       208       361       362      1872      1876      1874
 -1       568    8    0    1
 -2       210       209       363      1414      1877      1878
 -1       569    8    0    1
 -2       209       362       363      1875      1879      1877
 -1       570    8    0    1
 -2       211       210       364      1417      1880      1881
 -1       571    8    0    1
 -2       210       363       364      1878      1882      1880
 -1       572    8    0    1
 -2       212       211       365      1420      1883      1884
 -1       573    8    0    1
 -2       211       364       365      1881      1885      1883
 -1       574    8    0    1
 -2       213       212       366      1423      1886      1887
 -1       575    8    0    1
 -2       212       365       366      1884      1888      1886
 -1       576    8    0    1
 -2       214       213       367      1426      1889      1890
 -1       577    8    0    1
 -2       213       366       367      1887      1891      1889
 -1       578    8    0    1
 -2       215       214       368      1429      1892      1893
 -1       579    8    0    1
 -2       214       367       368      1890      1894      1892
 -1       580    8    0    1
 -2       216       215       369      1432      1895      1896
 -1       581    8    0    1
 -2       215       368       369      1893      1897      1895
 -1       582    8    0    1
 -2       217       216       370      1435      1898      1899
 -1       583    8    0    1
 -2       216       369       370      1896      1900      1898
 -1       584    8    0    1
 -2       218       217       371      1438      1901      1902
 -1       585    8    0    1
 -2       217       370       371      1899      1903      1901
 -1       586    8    0    1
 -2       219       218       372      1441      1904      1905
 -1       587    8    0    1
 -2       218       371       372      1902      1906      1904
 -1       588    8    0    1
 -2       220       219       373      1444      1907      1908
 -1       589    8    0    1
 -2       219       372       373      1905      1909      1907
 -1       590    8    0    1
 -2       221       220       374      1447      1910      1911
 -1       591    8    0    1
 -2       220       373       374      1908      1912      1910
 -1       592    8    0    1
 -2       222       221       375      1450      1913      1914
 -1       593    8    0    1
 -2       221       374       375      1911      1915      1913
 -1       594    8    0    1
 -2       223       222       376      1453      1916      1917
 -1       595    8    0    1
 -2       222       375       376      1914      1918      1916
 -1       596    8    0    1
 -2       224       223       377      1456      1919      1920
 -1       597    8    0    1
 -2       223       376       377      1917      1921      1919
 -1       598    8    0    1
 -2       225       224       378      1459      1922      1923
 -1       599    8    0    1
 -2       224       377       378      1920      1924      1922
 -1       600    8    0    1
 -2       226       225       379      1462      1925      1926
 -1       601    8    0    1
 -2       225       378       379      1923      1927      1925
 -1       602    8    0    1
 -2       227       226       380      1465      1928      1929
 -1       603    8    0    1
 -2       290       227       380      1657      1929      1930
 -1       604    8    0    1
 -2       226       379       380      1926      1931      1928
 -1       605    8    0    1
 -2       229       230       381      1476      1932      1933
 -1       606    8    0    1
 -2       229       381       334      1933      1934      1790
 -1       607    8    0    1
 -2       230       231       382      1479      1935      1936
 -1       608    8    0    1
 -2       230       382       381      1936      1937      1932
 -1       609    8    0    1
 -2       231       232       383      1482      1938      1939
 -1       610    8    0    1
 -2       231       383       382      1939      1940      1935
 -1       611    8    0    1
 -2       232       233       384      1485      1941      1942
 -1       612    8    0    1
 -2       232       384       383      1942      1943      1938
 -1       613    8    0    1
 -2       233       234       385      1488      1944      1945
 -1       614    8    0    1
 -2       233       385       384      1945      1946      1941
 -1       615    8    0    1
 -2       234       235       386      1491      1947      1948
 -1       616    8    0    1
 -2       234       386       385      1948      1949      1944
 -1       617    8    0    1
 -2       235       236       387      1494      1950      1951
 -1       618    8    0    1
 -2       235       387       386      1951      1952      1947
 -1       619    8    0    1
 -2       236       237       388      1497      1953      1954
 -1       620    8    0    1
 -2       236       388       387      1954      1955      1950
 -1       621    8    0    1
 -2       237       238       389      1500      1956      1957
 -1       622    8    0    1
 -2       237       389       388      1957      1958      1953
 -1       623    8    0    1
 -2       238       239       390      1503      1959      1960
 -1       624    8    0    1
 -2       238       390       389      1960      1961      1956
 -1       625    8    0    1
 -2       239       240       391      1506      1962      1963
 -1       626    8    0    1
 -2       239       391       390      1963      1964      1959
 -1       627    8    0    1
 -2       240       241       392      1509      1965      1966
 -1       628    8    0    1
 -2       240       392       391      1966      1967      1962
 -1       629    8    0    1
 -2       241       242       393      1512      1968      1969
 -1       630    8    0    1
 -2       241       393       392      1969      1970      1965
 -1       631    8    0    1
 -2       242       243       394      1515      1971      1972
 -1       632    8    0    1
 -2       242       394       393      1972      1973      1968
 -1       633    8    0    1
 -2       243       244       395      1518      1974      1975
 -1       634    8    0    1
 -2       243       395       394      1975      1976      1971
 -1       635    8    0    1
 -2       244       245       396      1521      1977      1978
 -1       636    8    0    1
 -2       244       396       395      1978      1979      1974
 -1       637    8    0    1
 -2       245       246       397      1524      1980      1981
 -1       638    8    0    1
 -2       245       397       396      1981      1982      1977
 -1       639    8    0    1
 -2       246       247       398      1527      1983      1984
 -1       640    8    0    1
 -2       246       398       397      1984      1985      1980
 -1       641    8    0    1
 -2       247       248       399      1530      1986      1987
 -1       642    8    0    1
 -2       247       399       398      1987      1988      1983
 -1       643    8    0    1
 -2       248       249       400      1533      1989      1990
 -1       644    8    0    1
 -2       248       400       399      1990      1991      1986
 -1       645    8    0    1
 -2       249       250       401      1536      1992      1993
 -1       646    8    0    1
 -2       249       401       400      1993      1994      1989
 -1       647    8    0    1
 -2       250       251       402      1539      1995      1996
 -1       648    8    0    1
 -2       250       402       401      1996      1997      1992
 -1       649    8    0    1
 -2       251       252       403      1542      1998      1999
 -1       650    8    0    1
 -2       251       403       402      1999      2000      1995
 -1       651    8    0    1
 -2       252       253       404      1545      2001      2002
 -1       652    8    0    1
 -2       252       404       403      2002      2003      1998
 -1       653    8    0    1
 -2       253       254       405      1548      2004      2005
 -1       654    8    0    1
 -2       253       405       404      2005      2006      2001
 -1       655    8    0    1
 -2       254       255       406      1551      2007      2008
 -1       656    8    0    1
 -2       254       406       405      2008      2009      2004
 -1       657    8    0    1
 -2       255       256       407      1554      2010      2011
 -1       658    8    0    1
 -2       255       407       406      2011      2012      2007
 -1       659    8    0    1
 -2       256       257       408      1557      2013      2014
 -1       660    8    0    1
 -2       256       408       407      2014      2015      2010
 -1       661    8    0    1
 -2       257       258       409      1560      2016      2017
 -1       662    8    0    1
 -2       257       409       408      2017      2018      2013
 -1       663    8    0    1
 -2       258       259       410      1563      2019      2020
 -1       664    8    0    1
 -2       258       410       409      2020      2021      2016
 -1       665    8    0    1
 -2       259       260       411      1566      2022      2023
 -1       666    8    0    1
 -2       259       411       410      2023      2024      2019
 -1       667    8    0    1
 -2       260       261       412      1569      2025      2026
 -1       668    8    0    1
 -2       260       412       411      2026      2027      2022
 -1       669    8    0    1
 -2       261       262       413      1572      2028      2029
 -1       670    8    0    1
 -2       261       413       412      2029      2030      2025
 -1       671    8    0    1
 -2       262       263       414      1575      2031      2032
 -1       672    8    0    1
 -2       262       414       413      2032      2033      2028
 -1       673    8    0    1
 -2       263       264       415      1578      2034      2035
 -1       674    8    0    1
 -2       263       415       414      2035      2036      2031
 -1       675    8    0    1
 -2       264       265       416      1581      2037      2038
 -1       676    8    0    1
 -2       264       416       415      2038      2039      2034
 -1       677    8    0    1
 -2       265       266       417      1584      2040      2041
 -1       678    8    0    1
 -2       265       417       416      2041      2042      2037
 -1       679    8    0    1
 -2       266       267       418      1587      2043      2044
 -1       680    8    0    1
 -2       266       418       417      2044      2045      2040
 -1       681    8    0    1
 -2       267       268       419      1590      2046      2047
 -1       682    8    0    1
 -2       267       419       418      2047      2048      2043
 -1       683    8    0    1
 -2       268       269       420      1593      2049      2050
 -1       684    8    0    1
 -2       268       420       419      2050      2051      2046
 -1       685    8    0    1
 -2       269       270       421      1596      2052      2053
 -1       686    8    0    1
 -2       269       421       420      2053      2054      2049
 -1       687    8    0    1
 -2       270       271       422      1599      2055      2056
 -1       688    8    0    1
 -2       270       422       421      2056      2057      2052
 -1       689    8    0    1
 -2       271       272       423      1602      2058      2059
 -1       690    8    0    1
 -2       271       423       422      2059      2060      2055
 -1       691    8    0    1
 -2       272       273       424      1605      2061      2062
 -1       692    8    0    1
 -2       272       424       423      2062      2063      2058
 -1       693    8    0    1
 -2       273       274       425      1608      2064      2065
 -1       694    8    0    1
 -2       273       425       424      2065      2066      2061
 -1       695    8    0    1
 -2       274       275       426      1611      2067      2068
 -1       696    8    0    1
 -2       425       274       426      2064      2068      2069
 -1       697    8    0    1
 -2       275       276       426      1719      2070      2067
 -1       698    8    0    1
 -2       278       279       427      1623      2071      2072
 -1       699    8    0    1
 -2       277       278       428      1620      2073      2074
 -1       700    8    0    1
 -2       278       427       428      2072      2075      2073
 -1       701    8    0    1
 -2       276       277       429      1617      2076      2077
 -1       702    8    0    1
 -2       426       276       429      2070      2077      2078
 -1       703    8    0    1
 -2       277       428       429      2074      2079      2076
 -1       704    8    0    1
 -2       279       280       430      1626      2080      2081
 -1       705    8    0    1
 -2       279       430       427      2081      2082      2071
 -1       706    8    0    1
 -2       280       281       431      1629      2083      2084
 -1       707    8    0    1
 -2       280       431       430      2084      2085      2080
 -1       708    8    0    1
 -2       281       282       432      1632      2086      2087
 -1       709    8    0    1
 -2       281       432       431      2087      2088      2083
 -1       710    8    0    1
 -2       282       283       433      1635      2089      2090
 -1       711    8    0    1
 -2       282       433       432      2090      2091      2086
 -1       712    8    0    1
 -2       283       284       434      1638      2092      2093
 -1       713    8    0    1
 -2       283       434       433      2093      2094      2089
 -1       714    8    0    1
 -2       284       285       435      1641      2095      2096
 -1       715    8    0    1
 -2       284       435       434      2096      2097      2092
 -1       716    8    0    1
 -2       285       286       436      1644      2098      2099
 -1       717    8    0    1
 -2       285       436       435      2099      2100      2095
 -1       718    8    0    1
 -2       286       287       437      1647      2101      2102
 -1       719    8    0    1
 -2       286       437       436      2102      2103      2098
 -1       720    8    0    1
 -2       287       288       438      1650      2104      2105
 -1       721    8    0    1
 -2       287       438       437      2105      2106      2101
 -1       722    8    0    1
 -2       288       289       439      1653      2107      2108
 -1       723    8    0    1
 -2       288       439       438      2108      2109      2104
 -1       724    8    0    1
 -2       292       293       440      1721      2110      2111
 -1       725    8    0    1
 -2       319       291       441      1722      2112      2113
 -1       726    8    0    1
 -2       291       292       442      1720      2114      2115
 -1       727    8    0    1
 -2       293       294       443      1717      2116      2117
 -1       728    8    0    1
 -2       294       295       444      1716      2118      2119
 -1       729    8    0    1
 -2       294       444       443      2119      2120      2116
 -1       730    8    0    1
 -2       166       167       445      1285      2121      2122
 -1       731    8    0    1
 -2       320       166       445      1748      2122      2123
 -1       732    8    0    1
 -2       167       322       445      1754      2124      2121
 -1       733    8    0    1
 -2       296       297       446      1724      2125      2126
 -1       734    8    0    1
 -2       297       298       447      1725      2127      2128
 -1       735    8    0    1
 -2       298       299       448      1726      2129      2130
 -1       736    8    0    1
 -2       299       300       449      1727      2131      2132
 -1       737    8    0    1
 -2       300       301       450      1728      2133      2134
 -1       738    8    0    1
 -2       301       302       451      1729      2135      2136
 -1       739    8    0    1
 -2       302       303       452      1730      2137      2138
 -1       740    8    0    1
 -2       303       304       453      1731      2139      2140
 -1       741    8    0    1
 -2       304       305       454      1732      2141      2142
 -1       742    8    0    1
 -2       305       306       455      1733      2143      2144
 -1       743    8    0    1
 -2       306       307       456      1734      2145      2146
 -1       744    8    0    1
 -2       306       456       455      2146      2147      2143
 -1       745    8    0    1
 -2       307       308       457      1735      2148      2149
 -1       746    8    0    1
 -2       308       309       458      1736      2150      2151
 -1       747    8    0    1
 -2       309       310       459      1737      2152      2153
 -1       748    8    0    1
 -2       310       311       460      1738      2154      2155
 -1       749    8    0    1
 -2       310       460       459      2155      2156      2152
 -1       750    8    0    1
 -2       311       312       461      1739      2157      2158
 -1       751    8    0    1
 -2       312       313       462      1740      2159      2160
 -1       752    8    0    1
 -2       312       462       461      2160      2161      2157
 -1       753    8    0    1
 -2       313       314       463      1741      2162      2163
 -1       754    8    0    1
 -2       314       315       464      1742      2164      2165
 -1       755    8    0    1
 -2       315       316       465      1743      2166      2167
 -1       756    8    0    1
 -2       316       317       466      1744      2168      2169
 -1       757    8    0    1
 -2       317       318       467      1745      2170      2171
 -1       758    8    0    1
 -2       318       319       468      1746      2172      2173
 -1       759    8    0    1
 -2       319       441       468      2113      2174      2172
 -1       760    8    0    1
 -2       295       296       469      1723      2175      2176
 -1       761    8    0    1
 -2       180       321       181      1793      2177      1327
 -1       762    8    0    1
 -2       444       295       469      2118      2176      2178
 -1       763    8    0    1
 -2       296       446       469      2126      2179      2175
 -1       764    8    0    1
 -2       335       181       321      1794      2177      2180
 -1       765    8    0    1
 -2       442       292       440      2114      2111      2181
 -1       766    8    0    1
 -2       441       291       442      2112      2115      2182
 -1       767    8    0    1
 -2       439       289       290      2107      1656      2183
 -1       768    8    0    1
 -2       440       293       443      2110      2117      2184
 -1       769    8    0    1
 -2       467       318       468      2170      2173      2185
 -1       770    8    0    1
 -2       466       317       467      2168      2171      2186
 -1       771    8    0    1
 -2       465       316       466      2166      2169      2187
 -1       772    8    0    1
 -2       464       315       465      2164      2167      2188
 -1       773    8    0    1
 -2       462       313       463      2159      2163      2189
 -1       774    8    0    1
 -2       460       311       461      2154      2158      2190
 -1       775    8    0    1
 -2       458       309       459      2150      2153      2191
 -1       776    8    0    1
 -2       456       307       470      2145      2192      2193
 -1       777    8    0    1
 -2       307       457       470      2149      2194      2192
 -1       778    8    0    1
 -2       454       305       455      2141      2144      2195
 -1       779    8    0    1
 -2       453       304       454      2139      2142      2196
 -1       780    8    0    1
 -2       452       303       453      2137      2140      2197
 -1       781    8    0    1
 -2       451       302       452      2135      2138      2198
 -1       782    8    0    1
 -2       450       301       451      2133      2136      2199
 -1       783    8    0    1
 -2       449       300       450      2131      2134      2200
 -1       784    8    0    1
 -2       448       299       449      2129      2132      2201
 -1       785    8    0    1
 -2       446       297       447      2125      2128      2202
 -1       786    8    0    1
 -2       447       298       448      2127      2130      2203
 -1       787    8    0    1
 -2       457       308       458      2148      2151      2204
 -1       788    8    0    1
 -2       463       314       464      2162      2165      2205
 -1       789    8    0    1
 -2       334       381       471      1934      2206      2207
 -1       790    8    0    1
 -2       323       324       472      1760      2208      2209
 -1       791    8    0    1
 -2       322       323       473      1757      2210      2211
 -1       792    8    0    1
 -2       323       472       473      2209      2212      2210
 -1       793    8    0    1
 -2       325       326       474      1766      2213      2214
 -1       794    8    0    1
 -2       326       327       475      1769      2215      2216
 -1       795    8    0    1
 -2       326       475       474      2216      2217      2213
 -1       796    8    0    1
 -2       327       328       476      1772      2218      2219
 -1       797    8    0    1
 -2       327       476       475      2219      2220      2215
 -1       798    8    0    1
 -2       328       329       477      1775      2221      2222
 -1       799    8    0    1
 -2       328       477       476      2222      2223      2218
 -1       800    8    0    1
 -2       329       330       478      1778      2224      2225
 -1       801    8    0    1
 -2       329       478       477      2225      2226      2221
 -1       802    8    0    1
 -2       330       331       479      1781      2227      2228
 -1       803    8    0    1
 -2       330       479       478      2228      2229      2224
 -1       804    8    0    1
 -2       381       382       480      1937      2230      2231
 -1       805    8    0    1
 -2       381       480       471      2231      2232      2206
 -1       806    8    0    1
 -2       336       335       481      1798      2233      2234
 -1       807    8    0    1
 -2       444       469       482      2178      2235      2236
 -1       808    8    0    1
 -2       337       336       483      1801      2237      2238
 -1       809    8    0    1
 -2       336       481       483      2234      2239      2237
 -1       810    8    0    1
 -2       338       337       484      1804      2240      2241
 -1       811    8    0    1
 -2       337       483       484      2238      2242      2240
 -1       812    8    0    1
 -2       339       338       485      1807      2243      2244
 -1       813    8    0    1
 -2       338       484       485      2241      2245      2243
 -1       814    8    0    1
 -2       340       339       486      1810      2246      2247
 -1       815    8    0    1
 -2       339       485       486      2244      2248      2246
 -1       816    8    0    1
 -2       341       340       487      1813      2249      2250
 -1       817    8    0    1
 -2       340       486       487      2247      2251      2249
 -1       818    8    0    1
 -2       342       341       488      1816      2252      2253
 -1       819    8    0    1
 -2       341       487       488      2250      2254      2252
 -1       820    8    0    1
 -2       343       342       489      1819      2255      2256
 -1       821    8    0    1
 -2       342       488       489      2253      2257      2255
 -1       822    8    0    1
 -2       344       343       490      1822      2258      2259
 -1       823    8    0    1
 -2       343       489       490      2256      2260      2258
 -1       824    8    0    1
 -2       345       344       491      1825      2261      2262
 -1       825    8    0    1
 -2       344       490       491      2259      2263      2261
 -1       826    8    0    1
 -2       346       345       492      1828      2264      2265
 -1       827    8    0    1
 -2       345       491       492      2262      2266      2264
 -1       828    8    0    1
 -2       347       346       493      1831      2267      2268
 -1       829    8    0    1
 -2       346       492       493      2265      2269      2267
 -1       830    8    0    1
 -2       348       347       494      1834      2270      2271
 -1       831    8    0    1
 -2       347       493       494      2268      2272      2270
 -1       832    8    0    1
 -2       349       348       495      1837      2273      2274
 -1       833    8    0    1
 -2       348       494       495      2271      2275      2273
 -1       834    8    0    1
 -2       350       349       496      1840      2276      2277
 -1       835    8    0    1
 -2       349       495       496      2274      2278      2276
 -1       836    8    0    1
 -2       351       350       497      1843      2279      2280
 -1       837    8    0    1
 -2       350       496       497      2277      2281      2279
 -1       838    8    0    1
 -2       352       351       498      1846      2282      2283
 -1       839    8    0    1
 -2       351       497       498      2280      2284      2282
 -1       840    8    0    1
 -2       353       352       499      1849      2285      2286
 -1       841    8    0    1
 -2       352       498       499      2283      2287      2285
 -1       842    8    0    1
 -2       354       353       500      1852      2288      2289
 -1       843    8    0    1
 -2       353       499       500      2286      2290      2288
 -1       844    8    0    1
 -2       355       354       501      1855      2291      2292
 -1       845    8    0    1
 -2       354       500       501      2289      2293      2291
 -1       846    8    0    1
 -2       356       355       502      1858      2294      2295
 -1       847    8    0    1
 -2       355       501       502      2292      2296      2294
 -1       848    8    0    1
 -2       357       356       503      1861      2297      2298
 -1       849    8    0    1
 -2       356       502       503      2295      2299      2297
 -1       850    8    0    1
 -2       358       357       504      1864      2300      2301
 -1       851    8    0    1
 -2       357       503       504      2298      2302      2300
 -1       852    8    0    1
 -2       359       358       505      1867      2303      2304
 -1       853    8    0    1
 -2       358       504       505      2301      2305      2303
 -1       854    8    0    1
 -2       360       359       506      1870      2306      2307
 -1       855    8    0    1
 -2       359       505       506      2304      2308      2306
 -1       856    8    0    1
 -2       361       360       507      1873      2309      2310
 -1       857    8    0    1
 -2       360       506       507      2307      2311      2309
 -1       858    8    0    1
 -2       362       361       508      1876      2312      2313
 -1       859    8    0    1
 -2       361       507       508      2310      2314      2312
 -1       860    8    0    1
 -2       363       362       509      1879      2315      2316
 -1       861    8    0    1
 -2       362       508       509      2313      2317      2315
 -1       862    8    0    1
 -2       364       363       510      1882      2318      2319
 -1       863    8    0    1
 -2       363       509       510      2316      2320      2318
 -1       864    8    0    1
 -2       365       364       511      1885      2321      2322
 -1       865    8    0    1
 -2       364       510       511      2319      2323      2321
 -1       866    8    0    1
 -2       366       365       512      1888      2324      2325
 -1       867    8    0    1
 -2       365       511       512      2322      2326      2324
 -1       868    8    0    1
 -2       367       366       513      1891      2327      2328
 -1       869    8    0    1
 -2       366       512       513      2325      2329      2327
 -1       870    8    0    1
 -2       368       367       514      1894      2330      2331
 -1       871    8    0    1
 -2       367       513       514      2328      2332      2330
 -1       872    8    0    1
 -2       369       368       515      1897      2333      2334
 -1       873    8    0    1
 -2       368       514       515      2331      2335      2333
 -1       874    8    0    1
 -2       370       369       516      1900      2336      2337
 -1       875    8    0    1
 -2       369       515       516      2334      2338      2336
 -1       876    8    0    1
 -2       371       370       517      1903      2339      2340
 -1       877    8    0    1
 -2       370       516       517      2337      2341      2339
 -1       878    8    0    1
 -2       372       371       518      1906      2342      2343
 -1       879    8    0    1
 -2       371       517       518      2340      2344      2342
 -1       880    8    0    1
 -2       373       372       519      1909      2345      2346
 -1       881    8    0    1
 -2       372       518       519      2343      2347      2345
 -1       882    8    0    1
 -2       374       373       520      1912      2348      2349
 -1       883    8    0    1
 -2       373       519       520      2346      2350      2348
 -1       884    8    0    1
 -2       375       374       521      1915      2351      2352
 -1       885    8    0    1
 -2       374       520       521      2349      2353      2351
 -1       886    8    0    1
 -2       376       375       522      1918      2354      2355
 -1       887    8    0    1
 -2       375       521       522      2352      2356      2354
 -1       888    8    0    1
 -2       377       376       523      1921      2357      2358
 -1       889    8    0    1
 -2       376       522       523      2355      2359      2357
 -1       890    8    0    1
 -2       378       377       524      1924      2360      2361
 -1       891    8    0    1
 -2       377       523       524      2358      2362      2360
 -1       892    8    0    1
 -2       379       378       525      1927      2363      2364
 -1       893    8    0    1
 -2       378       524       525      2361      2365      2363
 -1       894    8    0    1
 -2       383       384       526      1943      2366      2367
 -1       895    8    0    1
 -2       384       385       527      1946      2368      2369
 -1       896    8    0    1
 -2       384       527       526      2369      2370      2366
 -1       897    8    0    1
 -2       385       386       528      1949      2371      2372
 -1       898    8    0    1
 -2       385       528       527      2372      2373      2368
 -1       899    8    0    1
 -2       386       387       529      1952      2374      2375
 -1       900    8    0    1
 -2       386       529       528      2375      2376      2371
 -1       901    8    0    1
 -2       387       388       530      1955      2377      2378
 -1       902    8    0    1
 -2       387       530       529      2378      2379      2374
 -1       903    8    0    1
 -2       388       389       531      1958      2380      2381
 -1       904    8    0    1
 -2       388       531       530      2381      2382      2377
 -1       905    8    0    1
 -2       389       390       532      1961      2383      2384
 -1       906    8    0    1
 -2       389       532       531      2384      2385      2380
 -1       907    8    0    1
 -2       390       391       533      1964      2386      2387
 -1       908    8    0    1
 -2       390       533       532      2387      2388      2383
 -1       909    8    0    1
 -2       391       392       534      1967      2389      2390
 -1       910    8    0    1
 -2       391       534       533      2390      2391      2386
 -1       911    8    0    1
 -2       392       393       535      1970      2392      2393
 -1       912    8    0    1
 -2       392       535       534      2393      2394      2389
 -1       913    8    0    1
 -2       393       394       536      1973      2395      2396
 -1       914    8    0    1
 -2       393       536       535      2396      2397      2392
 -1       915    8    0    1
 -2       394       395       537      1976      2398      2399
 -1       916    8    0    1
 -2       394       537       536      2399      2400      2395
 -1       917    8    0    1
 -2       395       396       538      1979      2401      2402
 -1       918    8    0    1
 -2       395       538       537      2402      2403      2398
 -1       919    8    0    1
 -2       396       397       539      1982      2404      2405
 -1       920    8    0    1
 -2       396       539       538      2405      2406      2401
 -1       921    8    0    1
 -2       397       398       540      1985      2407      2408
 -1       922    8    0    1
 -2       397       540       539      2408      2409      2404
 -1       923    8    0    1
 -2       398       399       541      1988      2410      2411
 -1       924    8    0    1
 -2       398       541       540      2411      2412      2407
 -1       925    8    0    1
 -2       399       400       542      1991      2413      2414
 -1       926    8    0    1
 -2       399       542       541      2414      2415      2410
 -1       927    8    0    1
 -2       400       401       543      1994      2416      2417
 -1       928    8    0    1
 -2       400       543       542      2417      2418      2413
 -1       929    8    0    1
 -2       401       402       544      1997      2419      2420
 -1       930    8    0    1
 -2       401       544       543      2420      2421      2416
 -1       931    8    0    1
 -2       402       403       545      2000      2422      2423
 -1       932    8    0    1
 -2       402       545       544      2423      2424      2419
 -1       933    8    0    1
 -2       403       404       546      2003      2425      2426
 -1       934    8    0    1
 -2       403       546       545      2426      2427      2422
 -1       935    8    0    1
 -2       404       405       547      2006      2428      2429
 -1       936    8    0    1
 -2       404       547       546      2429      2430      2425
 -1       937    8    0    1
 -2       405       406       548      2009      2431      2432
 -1       938    8    0    1
 -2       405       548       547      2432      2433      2428
 -1       939    8    0    1
 -2       406       407       549      2012      2434      2435
 -1       940    8    0    1
 -2       406       549       548      2435      2436      2431
 -1       941    8    0    1
 -2       407       408       550      2015      2437      2438
 -1       942    8    0    1
 -2       407       550       549      2438      2439      2434
 -1       943    8    0    1
 -2       408       409       551      2018      2440      2441
 -1       944    8    0    1
 -2       408       551       550      2441      2442      2437
 -1       945    8    0    1
 -2       409       410       552      2021      2443      2444
 -1       946    8    0    1
 -2       409       552       551      2444      2445      2440
 -1       947    8    0    1
 -2       410       411       553      2024      2446      2447
 -1       948    8    0    1
 -2       410       553       552      2447      2448      2443
 -1       949    8    0    1
 -2       411       412       554      2027      2449      2450
 -1       950    8    0    1
 -2       411       554       553      2450      2451      2446
 -1       951    8    0    1
 -2       412       413       555      2030      2452      2453
 -1       952    8    0    1
 -2       412       555       554      2453      2454      2449
 -1       953    8    0    1
 -2       413       414       556      2033      2455      2456
 -1       954    8    0    1
 -2       413       556       555      2456      2457      2452
 -1       955    8    0    1
 -2       414       415       557      2036      2458      2459
 -1       956    8    0    1
 -2       414       557       556      2459      2460      2455
 -1       957    8    0    1
 -2       415       416       558      2039      2461      2462
 -1       958    8    0    1
 -2       415       558       557      2462      2463      2458
 -1       959    8    0    1
 -2       416       417       559      2042      2464      2465
 -1       960    8    0    1
 -2       416       559       558      2465      2466      2461
 -1       961    8    0    1
 -2       417       418       560      2045      2467      2468
 -1       962    8    0    1
 -2       417       560       559      2468      2469      2464
 -1       963    8    0    1
 -2       418       419       561      2048      2470      2471
 -1       964    8    0    1
 -2       418       561       560      2471      2472      2467
 -1       965    8    0    1
 -2       419       420       562      2051      2473      2474
 -1       966    8    0    1
 -2       419       562       561      2474      2475      2470
 -1       967    8    0    1
 -2       420       421       563      2054      2476      2477
 -1       968    8    0    1
 -2       420       563       562      2477      2478      2473
 -1       969    8    0    1
 -2       421       422       564      2057      2479      2480
 -1       970    8    0    1
 -2       421       564       563      2480      2481      2476
 -1       971    8    0    1
 -2       422       423       565      2060      2482      2483
 -1       972    8    0    1
 -2       422       565       564      2483      2484      2479
 -1       973    8    0    1
 -2       423       424       566      2063      2485      2486
 -1       974    8    0    1
 -2       423       566       565      2486      2487      2482
 -1       975    8    0    1
 -2       424       425       567      2066      2488      2489
 -1       976    8    0    1
 -2       424       567       566      2489      2490      2485
 -1       977    8    0    1
 -2       425       426       429      2069      2078      2491
 -1       978    8    0    1
 -2       430       431       568      2085      2492      2493
 -1       979    8    0    1
 -2       431       432       569      2088      2494      2495
 -1       980    8    0    1
 -2       431       569       568      2495      2496      2492
 -1       981    8    0    1
 -2       428       427       570      2075      2497      2498
 -1       982    8    0    1
 -2       427       430       571      2082      2499      2500
 -1       983    8    0    1
 -2       570       427       571      2497      2500      2501
 -1       984    8    0    1
 -2       430       568       571      2493      2502      2499
 -1       985    8    0    1
 -2       432       433       572      2091      2503      2504
 -1       986    8    0    1
 -2       432       572       569      2504      2505      2494
 -1       987    8    0    1
 -2       433       434       573      2094      2506      2507
 -1       988    8    0    1
 -2       433       573       572      2507      2508      2503
 -1       989    8    0    1
 -2       434       435       574      2097      2509      2510
 -1       990    8    0    1
 -2       434       574       573      2510      2511      2506
 -1       991    8    0    1
 -2       435       436       575      2100      2512      2513
 -1       992    8    0    1
 -2       435       575       574      2513      2514      2509
 -1       993    8    0    1
 -2       436       437       576      2103      2515      2516
 -1       994    8    0    1
 -2       436       576       575      2516      2517      2512
 -1       995    8    0    1
 -2       437       438       577      2106      2518      2519
 -1       996    8    0    1
 -2       437       577       576      2519      2520      2515
 -1       997    8    0    1
 -2       438       439       578      2109      2521      2522
 -1       998    8    0    1
 -2       438       578       577      2522      2523      2518
 -1       999    8    0    1
 -2       441       442       579      2182      2524      2525
 -1      1000    8    0    1
 -2       440       443       580      2184      2526      2527
 -1      1001    8    0    1
 -2       382       383       581      1940      2528      2529
 -1      1002    8    0    1
 -2       383       526       581      2367      2530      2528
 -1      1003    8    0    1
 -2       469       446       582      2179      2531      2532
 -1      1004    8    0    1
 -2       439       290       380      2183      1930      2533
 -1      1005    8    0    1
 -2       467       468       583      2185      2534      2535
 -1      1006    8    0    1
 -2       443       444       584      2120      2536      2537
 -1      1007    8    0    1
 -2       468       441       585      2174      2538      2539
 -1      1008    8    0    1
 -2       458       459       586      2191      2540      2541
 -1      1009    8    0    1
 -2       454       455       587      2195      2542      2543
 -1      1010    8    0    1
 -2       324       325       588      1763      2544      2545
 -1      1011    8    0    1
 -2       472       324       588      2208      2545      2546
 -1      1012    8    0    1
 -2       325       474       588      2214      2547      2544
 -1      1013    8    0    1
 -2       447       448       589      2203      2548      2549
 -1      1014    8    0    1
 -2       457       458       590      2204      2550      2551
 -1      1015    8    0    1
 -2       446       447       591      2202      2552      2553
 -1      1016    8    0    1
 -2       446       591       582      2553      2554      2531
 -1      1017    8    0    1
 -2       448       449       592      2201      2555      2556
 -1      1018    8    0    1
 -2       449       450       593      2200      2557      2558
 -1      1019    8    0    1
 -2       450       451       594      2199      2559      2560
 -1      1020    8    0    1
 -2       451       452       595      2198      2561      2562
 -1      1021    8    0    1
 -2       452       453       596      2197      2563      2564
 -1      1022    8    0    1
 -2       452       596       595      2564      2565      2561
 -1      1023    8    0    1
 -2       453       454       597      2196      2566      2567
 -1      1024    8    0    1
 -2       454       587       597      2543      2568      2566
 -1      1025    8    0    1
 -2       455       456       598      2147      2569      2570
 -1      1026    8    0    1
 -2       463       464       599      2205      2571      2572
 -1      1027    8    0    1
 -2       459       460       600      2156      2573      2574
 -1      1028    8    0    1
 -2       460       461       601      2190      2575      2576
 -1      1029    8    0    1
 -2       461       462       602      2161      2577      2578
 -1      1030    8    0    1
 -2       462       463       603      2189      2579      2580
 -1      1031    8    0    1
 -2       463       599       603      2572      2581      2579
 -1      1032    8    0    1
 -2       464       465       604      2188      2582      2583
 -1      1033    8    0    1
 -2       465       466       605      2187      2584      2585
 -1      1034    8    0    1
 -2       466       467       606      2186      2586      2587
 -1      1035    8    0    1
 -2       335       321       607      2180      2588      2589
 -1      1036    8    0    1
 -2       481       335       607      2233      2589      2590
 -1      1037    8    0    1
 -2       321       320       607      1752      2591      2588
 -1      1038    8    0    1
 -2       333       334       608      1792      2592      2593
 -1      1039    8    0    1
 -2       332       333       608      1787      2593      2594
 -1      1040    8    0    1
 -2       334       471       608      2207      2595      2592
 -1      1041    8    0    1
 -2       442       440       609      2181      2596      2597
 -1      1042    8    0    1
 -2       447       589       610      2549      2598      2599
 -1      1043    8    0    1
 -2       447       610       591      2599      2600      2552
 -1      1044    8    0    1
 -2       322       473       611      2211      2601      2602
 -1      1045    8    0    1
 -2       322       611       445      2602      2603      2124
 -1      1046    8    0    1
 -2       480       382       581      2230      2529      2604
 -1      1047    8    0    1
 -2       331       332       608      1784      2594      2605
 -1      1048    8    0    1
 -2       609       440       580      2596      2527      2606
 -1      1049    8    0    1
 -2       320       445       612      2123      2607      2608
 -1      1050    8    0    1
 -2       607       320       612      2591      2608      2609
 -1      1051    8    0    1
 -2       445       611       612      2603      2610      2607
 -1      1052    8    0    1
 -2       606       467       583      2586      2535      2611
 -1      1053    8    0    1
 -2       605       466       606      2584      2587      2612
 -1      1054    8    0    1
 -2       444       482       584      2236      2613      2536
 -1      1055    8    0    1
 -2       602       462       603      2577      2580      2614
 -1      1056    8    0    1
 -2       601       461       602      2575      2578      2615
 -1      1057    8    0    1
 -2       425       429       567      2491      2616      2488
 -1      1058    8    0    1
 -2       580       443       584      2526      2537      2617
 -1      1059    8    0    1
 -2       429       428       567      2079      2618      2616
 -1      1060    8    0    1
 -2       600       460       601      2573      2576      2619
 -1      1061    8    0    1
 -2       441       579       585      2525      2620      2538
 -1      1062    8    0    1
 -2       579       442       609      2524      2597      2621
 -1      1063    8    0    1
 -2       599       464       604      2571      2583      2622
 -1      1064    8    0    1
 -2       596       453       613      2563      2623      2624
 -1      1065    8    0    1
 -2       453       597       613      2567      2625      2623
 -1      1066    8    0    1
 -2       331       608       479      2605      2626      2227
 -1      1067    8    0    1
 -2       448       592       589      2556      2627      2548
 -1      1068    8    0    1
 -2       439       380       614      2533      2628      2629
 -1      1069    8    0    1
 -2       578       439       614      2521      2629      2630
 -1      1070    8    0    1
 -2       380       379       614      1931      2631      2628
 -1      1071    8    0    1
 -2       583       468       585      2534      2539      2632
 -1      1072    8    0    1
 -2       567       428       570      2618      2498      2633
 -1      1073    8    0    1
 -2       458       586       590      2541      2634      2550
 -1      1074    8    0    1
 -2       594       451       595      2559      2562      2635
 -1      1075    8    0    1
 -2       593       450       594      2557      2560      2636
 -1      1076    8    0    1
 -2       587       455       598      2542      2570      2637
 -1      1077    8    0    1
 -2       470       457       590      2194      2551      2638
 -1      1078    8    0    1
 -2       586       459       600      2540      2574      2639
 -1      1079    8    0    1
 -2       482       469       582      2235      2532      2640
 -1      1080    8    0    1
 -2       592       449       593      2555      2558      2641
 -1      1081    8    0    1
 -2       598       456       470      2569      2193      2642
 -1      1082    8    0    1
 -2       604       465       605      2582      2585      2643
 -1      1083    8    0    1
 -2       614       379       525      2631      2364      2644
 -1      1084    8    0    1
 -2       475       476       615      2220      2645      2646
 -1      1085    8    0    1
 -2       474       475       616      2217      2647      2648
 -1      1086    8    0    1
 -2       475       615       616      2646      2649      2647
 -1      1087    8    0    1
 -2       477       478       617      2226      2650      2651
 -1      1088    8    0    1
 -2       478       479       618      2229      2652      2653
 -1      1089    8    0    1
 -2       478       618       617      2653      2654      2650
 -1      1090    8    0    1
 -2       471       480       619      2232      2655      2656
 -1      1091    8    0    1
 -2       589       592       620      2627      2657      2658
 -1      1092    8    0    1
 -2       608       471       479      2595      2659      2626
 -1      1093    8    0    1
 -2       603       599       621      2581      2660      2661
 -1      1094    8    0    1
 -2       605       606       622      2612      2662      2663
 -1      1095    8    0    1
 -2       484       483       623      2242      2664      2665
 -1      1096    8    0    1
 -2       485       484       624      2245      2666      2667
 -1      1097    8    0    1
 -2       484       623       624      2665      2668      2666
 -1      1098    8    0    1
 -2       486       485       625      2248      2669      2670
 -1      1099    8    0    1
 -2       485       624       625      2667      2671      2669
 -1      1100    8    0    1
 -2       487       486       626      2251      2672      2673
 -1      1101    8    0    1
 -2       486       625       626      2670      2674      2672
 -1      1102    8    0    1
 -2       488       487       627      2254      2675      2676
 -1      1103    8    0    1
 -2       487       626       627      2673      2677      2675
 -1      1104    8    0    1
 -2       489       488       628      2257      2678      2679
 -1      1105    8    0    1
 -2       488       627       628      2676      2680      2678
 -1      1106    8    0    1
 -2       490       489       629      2260      2681      2682
 -1      1107    8    0    1
 -2       489       628       629      2679      2683      2681
 -1      1108    8    0    1
 -2       491       490       630      2263      2684      2685
 -1      1109    8    0    1
 -2       490       629       630      2682      2686      2684
 -1      1110    8    0    1
 -2       492       491       631      2266      2687      2688
 -1      1111    8    0    1
 -2       491       630       631      2685      2689      2687
 -1      1112    8    0    1
 -2       493       492       632      2269      2690      2691
 -1      1113    8    0    1
 -2       492       631       632      2688      2692      2690
 -1      1114    8    0    1
 -2       494       493       633      2272      2693      2694
 -1      1115    8    0    1
 -2       493       632       633      2691      2695      2693
 -1      1116    8    0    1
 -2       495       494       634      2275      2696      2697
 -1      1117    8    0    1
 -2       494       633       634      2694      2698      2696
 -1      1118    8    0    1
 -2       496       495       635      2278      2699      2700
 -1      1119    8    0    1
 -2       495       634       635      2697      2701      2699
 -1      1120    8    0    1
 -2       497       496       636      2281      2702      2703
 -1      1121    8    0    1
 -2       496       635       636      2700      2704      2702
 -1      1122    8    0    1
 -2       498       497       637      2284      2705      2706
 -1      1123    8    0    1
 -2       497       636       637      2703      2707      2705
 -1      1124    8    0    1
 -2       499       498       638      2287      2708      2709
 -1      1125    8    0    1
 -2       498       637       638      2706      2710      2708
 -1      1126    8    0    1
 -2       500       499       639      2290      2711      2712
 -1      1127    8    0    1
 -2       499       638       639      2709      2713      2711
 -1      1128    8    0    1
 -2       501       500       640      2293      2714      2715
 -1      1129    8    0    1
 -2       500       639       640      2712      2716      2714
 -1      1130    8    0    1
 -2       502       501       641      2296      2717      2718
 -1      1131    8    0    1
 -2       501       640       641      2715      2719      2717
 -1      1132    8    0    1
 -2       503       502       642      2299      2720      2721
 -1      1133    8    0    1
 -2       502       641       642      2718      2722      2720
 -1      1134    8    0    1
 -2       504       503       643      2302      2723      2724
 -1      1135    8    0    1
 -2       503       642       643      2721      2725      2723
 -1      1136    8    0    1
 -2       505       504       644      2305      2726      2727
 -1      1137    8    0    1
 -2       504       643       644      2724      2728      2726
 -1      1138    8    0    1
 -2       506       505       645      2308      2729      2730
 -1      1139    8    0    1
 -2       505       644       645      2727      2731      2729
 -1      1140    8    0    1
 -2       507       506       646      2311      2732      2733
 -1      1141    8    0    1
 -2       506       645       646      2730      2734      2732
 -1      1142    8    0    1
 -2       508       507       647      2314      2735      2736
 -1      1143    8    0    1
 -2       507       646       647      2733      2737      2735
 -1      1144    8    0    1
 -2       509       508       648      2317      2738      2739
 -1      1145    8    0    1
 -2       508       647       648      2736      2740      2738
 -1      1146    8    0    1
 -2       510       509       649      2320      2741      2742
 -1      1147    8    0    1
 -2       509       648       649      2739      2743      2741
 -1      1148    8    0    1
 -2       511       510       650      2323      2744      2745
 -1      1149    8    0    1
 -2       510       649       650      2742      2746      2744
 -1      1150    8    0    1
 -2       512       511       651      2326      2747      2748
 -1      1151    8    0    1
 -2       511       650       651      2745      2749      2747
 -1      1152    8    0    1
 -2       513       512       652      2329      2750      2751
 -1      1153    8    0    1
 -2       512       651       652      2748      2752      2750
 -1      1154    8    0    1
 -2       514       513       653      2332      2753      2754
 -1      1155    8    0    1
 -2       513       652       653      2751      2755      2753
 -1      1156    8    0    1
 -2       515       514       654      2335      2756      2757
 -1      1157    8    0    1
 -2       514       653       654      2754      2758      2756
 -1      1158    8    0    1
 -2       516       515       655      2338      2759      2760
 -1      1159    8    0    1
 -2       515       654       655      2757      2761      2759
 -1      1160    8    0    1
 -2       517       516       656      2341      2762      2763
 -1      1161    8    0    1
 -2       516       655       656      2760      2764      2762
 -1      1162    8    0    1
 -2       518       517       657      2344      2765      2766
 -1      1163    8    0    1
 -2       517       656       657      2763      2767      2765
 -1      1164    8    0    1
 -2       519       518       658      2347      2768      2769
 -1      1165    8    0    1
 -2       518       657       658      2766      2770      2768
 -1      1166    8    0    1
 -2       520       519       659      2350      2771      2772
 -1      1167    8    0    1
 -2       519       658       659      2769      2773      2771
 -1      1168    8    0    1
 -2       521       520       660      2353      2774      2775
 -1      1169    8    0    1
 -2       520       659       660      2772      2776      2774
 -1      1170    8    0    1
 -2       522       521       621      2356      2777      2778
 -1      1171    8    0    1
 -2       523       522       621      2359      2778      2779
 -1      1172    8    0    1
 -2       524       523       661      2362      2780      2781
 -1      1173    8    0    1
 -2       525       524       662      2365      2782      2783
 -1      1174    8    0    1
 -2       524       661       662      2781      2784      2782
 -1      1175    8    0    1
 -2       527       528       663      2373      2785      2786
 -1      1176    8    0    1
 -2       583       585       664      2632      2787      2788
 -1      1177    8    0    1
 -2       526       527       665      2370      2789      2790
 -1      1178    8    0    1
 -2       527       663       665      2786      2791      2789
 -1      1179    8    0    1
 -2       529       530       666      2379      2792      2793
 -1      1180    8    0    1
 -2       530       531       667      2382      2794      2795
 -1      1181    8    0    1
 -2       530       667       666      2795      2796      2792
 -1      1182    8    0    1
 -2       531       532       668      2385      2797      2798
 -1      1183    8    0    1
 -2       531       668       667      2798      2799      2794
 -1      1184    8    0    1
 -2       532       533       669      2388      2800      2801
 -1      1185    8    0    1
 -2       532       669       668      2801      2802      2797
 -1      1186    8    0    1
 -2       533       534       670      2391      2803      2804
 -1      1187    8    0    1
 -2       533       670       669      2804      2805      2800
 -1      1188    8    0    1
 -2       534       535       671      2394      2806      2807
 -1      1189    8    0    1
 -2       534       671       670      2807      2808      2803
 -1      1190    8    0    1
 -2       535       536       672      2397      2809      2810
 -1      1191    8    0    1
 -2       535       672       671      2810      2811      2806
 -1      1192    8    0    1
 -2       536       537       673      2400      2812      2813
 -1      1193    8    0    1
 -2       536       673       672      2813      2814      2809
 -1      1194    8    0    1
 -2       537       538       674      2403      2815      2816
 -1      1195    8    0    1
 -2       537       674       673      2816      2817      2812
 -1      1196    8    0    1
 -2       538       539       675      2406      2818      2819
 -1      1197    8    0    1
 -2       538       675       674      2819      2820      2815
 -1      1198    8    0    1
 -2       539       540       676      2409      2821      2822
 -1      1199    8    0    1
 -2       539       676       675      2822      2823      2818
 -1      1200    8    0    1
 -2       540       541       677      2412      2824      2825
 -1      1201    8    0    1
 -2       540       677       676      2825      2826      2821
 -1      1202    8    0    1
 -2       541       542       678      2415      2827      2828
 -1      1203    8    0    1
 -2       541       678       677      2828      2829      2824
 -1      1204    8    0    1
 -2       542       543       679      2418      2830      2831
 -1      1205    8    0    1
 -2       542       679       678      2831      2832      2827
 -1      1206    8    0    1
 -2       543       544       680      2421      2833      2834
 -1      1207    8    0    1
 -2       543       680       679      2834      2835      2830
 -1      1208    8    0    1
 -2       544       545       681      2424      2836      2837
 -1      1209    8    0    1
 -2       544       681       680      2837      2838      2833
 -1      1210    8    0    1
 -2       545       546       682      2427      2839      2840
 -1      1211    8    0    1
 -2       545       682       681      2840      2841      2836
 -1      1212    8    0    1
 -2       546       547       683      2430      2842      2843
 -1      1213    8    0    1
 -2       546       683       682      2843      2844      2839
 -1      1214    8    0    1
 -2       547       548       684      2433      2845      2846
 -1      1215    8    0    1
 -2       547       684       683      2846      2847      2842
 -1      1216    8    0    1
 -2       548       549       685      2436      2848      2849
 -1      1217    8    0    1
 -2       548       685       684      2849      2850      2845
 -1      1218    8    0    1
 -2       549       550       686      2439      2851      2852
 -1      1219    8    0    1
 -2       549       686       685      2852      2853      2848
 -1      1220    8    0    1
 -2       550       551       687      2442      2854      2855
 -1      1221    8    0    1
 -2       550       687       686      2855      2856      2851
 -1      1222    8    0    1
 -2       551       552       688      2445      2857      2858
 -1      1223    8    0    1
 -2       551       688       687      2858      2859      2854
 -1      1224    8    0    1
 -2       552       553       689      2448      2860      2861
 -1      1225    8    0    1
 -2       552       689       688      2861      2862      2857
 -1      1226    8    0    1
 -2       553       554       690      2451      2863      2864
 -1      1227    8    0    1
 -2       553       690       689      2864      2865      2860
 -1      1228    8    0    1
 -2       554       555       691      2454      2866      2867
 -1      1229    8    0    1
 -2       554       691       690      2867      2868      2863
 -1      1230    8    0    1
 -2       555       556       692      2457      2869      2870
 -1      1231    8    0    1
 -2       555       692       691      2870      2871      2866
 -1      1232    8    0    1
 -2       556       557       693      2460      2872      2873
 -1      1233    8    0    1
 -2       556       693       692      2873      2874      2869
 -1      1234    8    0    1
 -2       557       558       694      2463      2875      2876
 -1      1235    8    0    1
 -2       557       694       693      2876      2877      2872
 -1      1236    8    0    1
 -2       558       559       695      2466      2878      2879
 -1      1237    8    0    1
 -2       558       695       694      2879      2880      2875
 -1      1238    8    0    1
 -2       559       560       696      2469      2881      2882
 -1      1239    8    0    1
 -2       559       696       695      2882      2883      2878
 -1      1240    8    0    1
 -2       560       561       697      2472      2884      2885
 -1      1241    8    0    1
 -2       560       697       696      2885      2886      2881
 -1      1242    8    0    1
 -2       561       562       698      2475      2887      2888
 -1      1243    8    0    1
 -2       561       698       697      2888      2889      2884
 -1      1244    8    0    1
 -2       562       563       699      2478      2890      2891
 -1      1245    8    0    1
 -2       562       699       698      2891      2892      2887
 -1      1246    8    0    1
 -2       563       564       700      2481      2893      2894
 -1      1247    8    0    1
 -2       563       700       699      2894      2895      2890
 -1      1248    8    0    1
 -2       564       565       701      2484      2896      2897
 -1      1249    8    0    1
 -2       564       701       700      2897      2898      2893
 -1      1250    8    0    1
 -2       565       566       702      2487      2899      2900
 -1      1251    8    0    1
 -2       565       702       701      2900      2901      2896
 -1      1252    8    0    1
 -2       566       567       703      2490      2902      2903
 -1      1253    8    0    1
 -2       702       566       703      2899      2903      2904
 -1      1254    8    0    1
 -2       567       570       703      2633      2905      2902
 -1      1255    8    0    1
 -2       580       584       704      2617      2906      2907
 -1      1256    8    0    1
 -2       572       573       705      2508      2908      2909
 -1      1257    8    0    1
 -2       590       586       706      2634      2910      2911
 -1      1258    8    0    1
 -2       568       569       707      2496      2912      2913
 -1      1259    8    0    1
 -2       569       572       708      2505      2914      2915
 -1      1260    8    0    1
 -2       574       575       664      2514      2916      2917
 -1      1261    8    0    1
 -2       575       576       622      2517      2918      2919
 -1      1262    8    0    1
 -2       576       577       709      2520      2920      2921
 -1      1263    8    0    1
 -2       576       709       622      2921      2922      2918
 -1      1264    8    0    1
 -2       577       578       710      2523      2923      2924
 -1      1265    8    0    1
 -2       709       577       710      2920      2924      2925
 -1      1266    8    0    1
 -2       578       614       710      2630      2926      2923
 -1      1267    8    0    1
 -2       606       583       711      2611      2927      2928
 -1      1268    8    0    1
 -2       622       606       711      2662      2928      2929
 -1      1269    8    0    1
 -2       583       664       711      2788      2930      2927
 -1      1270    8    0    1
 -2       470       590       712      2638      2931      2932
 -1      1271    8    0    1
 -2       579       609       705      2621      2933      2934
 -1      1272    8    0    1
 -2       602       603       713      2614      2935      2936
 -1      1273    8    0    1
 -2       581       526       714      2530      2937      2938
 -1      1274    8    0    1
 -2       526       665       714      2790      2939      2937
 -1      1275    8    0    1
 -2       528       529       715      2376      2940      2941
 -1      1276    8    0    1
 -2       663       528       715      2785      2941      2942
 -1      1277    8    0    1
 -2       529       666       715      2793      2943      2940
 -1      1278    8    0    1
 -2       483       481       716      2239      2944      2945
 -1      1279    8    0    1
 -2       483       716       623      2945      2946      2664
 -1      1280    8    0    1
 -2       594       595       717      2635      2947      2948
 -1      1281    8    0    1
 -2       609       580       718      2606      2949      2950
 -1      1282    8    0    1
 -2       480       581       719      2604      2951      2952
 -1      1283    8    0    1
 -2       619       480       719      2655      2952      2953
 -1      1284    8    0    1
 -2       581       714       719      2938      2954      2951
 -1      1285    8    0    1
 -2       476       477       720      2223      2955      2956
 -1      1286    8    0    1
 -2       615       476       720      2645      2956      2957
 -1      1287    8    0    1
 -2       477       617       720      2651      2958      2955
 -1      1288    8    0    1
 -2       473       472       721      2212      2959      2960
 -1      1289    8    0    1
 -2       586       600       722      2639      2961      2962
 -1      1290    8    0    1
 -2       582       591       723      2554      2963      2964
 -1      1291    8    0    1
 -2       598       470       724      2642      2965      2966
 -1      1292    8    0    1
 -2       470       712       724      2932      2967      2965
 -1      1293    8    0    1
 -2       587       598       725      2637      2968      2969
 -1      1294    8    0    1
 -2       593       594       726      2636      2970      2971
 -1      1295    8    0    1
 -2       595       596       727      2565      2972      2973
 -1      1296    8    0    1
 -2       597       587       728      2568      2974      2975
 -1      1297    8    0    1
 -2       587       725       728      2969      2976      2974
 -1      1298    8    0    1
 -2       482       582       729      2640      2977      2978
 -1      1299    8    0    1
 -2       604       605       730      2643      2979      2980
 -1      1300    8    0    1
 -2       585       579       731      2620      2981      2982
 -1      1301    8    0    1
 -2       664       585       731      2787      2982      2983
 -1      1302    8    0    1
 -2       579       705       731      2934      2984      2981
 -1      1303    8    0    1
 -2       600       601       732      2619      2985      2986
 -1      1304    8    0    1
 -2       600       732       722      2986      2987      2961
 -1      1305    8    0    1
 -2       592       593       733      2641      2988      2989
 -1      1306    8    0    1
 -2       592       733       620      2989      2990      2657
 -1      1307    8    0    1
 -2       599       604       734      2622      2991      2992
 -1      1308    8    0    1
 -2       614       525       710      2644      2993      2926
 -1      1309    8    0    1
 -2       584       482       735      2613      2994      2995
 -1      1310    8    0    1
 -2       482       729       735      2978      2996      2994
 -1      1311    8    0    1
 -2       481       607       736      2590      2997      2998
 -1      1312    8    0    1
 -2       716       481       736      2944      2998      2999
 -1      1313    8    0    1
 -2       607       612       736      2609      3000      2997
 -1      1314    8    0    1
 -2       611       473       737      2601      3001      3002
 -1      1315    8    0    1
 -2       473       721       737      2960      3003      3001
 -1      1316    8    0    1
 -2       474       616       738      2648      3004      3005
 -1      1317    8    0    1
 -2       474       738       588      3005      3006      2547
 -1      1318    8    0    1
 -2       589       620       610      2658      3007      2598
 -1      1319    8    0    1
 -2       479       471       619      2659      2656      3008
 -1      1320    8    0    1
 -2       621       599       734      2660      2992      3009
 -1      1321    8    0    1
 -2       605       622       730      2663      3010      2979
 -1      1322    8    0    1
 -2       525       662       710      2783      3011      2993
 -1      1323    8    0    1
 -2       704       584       739      2906      3012      3013
 -1      1324    8    0    1
 -2       584       735       739      2995      3014      3012
 -1      1325    8    0    1
 -2       703       570       740      2905      3015      3016
 -1      1326    8    0    1
 -2       570       571       740      2501      3017      3015
 -1      1327    8    0    1
 -2       705       573       731      2908      3018      2984
 -1      1328    8    0    1
 -2       572       705       708      2909      3019      2914
 -1      1329    8    0    1
 -2       590       706       741      2911      3020      3021
 -1      1330    8    0    1
 -2       590       741       712      3021      3022      2931
 -1      1331    8    0    1
 -2       569       708       707      2915      3023      2912
 -1      1332    8    0    1
 -2       573       574       731      2511      3024      3018
 -1      1333    8    0    1
 -2       574       664       731      2917      2983      3024
 -1      1334    8    0    1
 -2       727       596       742      2972      3025      3026
 -1      1335    8    0    1
 -2       596       613       742      2624      3027      3025
 -1      1336    8    0    1
 -2       726       594       717      2970      2948      3028
 -1      1337    8    0    1
 -2       713       603       621      2935      2661      3029
 -1      1338    8    0    1
 -2       613       597       743      2625      3030      3031
 -1      1339    8    0    1
 -2       597       728       743      2975      3032      3030
 -1      1340    8    0    1
 -2       706       586       722      2910      2962      3033
 -1      1341    8    0    1
 -2       580       704       718      2907      3034      2949
 -1      1342    8    0    1
 -2       732       601       659      2985      3035      3036
 -1      1343    8    0    1
 -2       472       588       744      2546      3037      3038
 -1      1344    8    0    1
 -2       721       472       744      2959      3038      3039
 -1      1345    8    0    1
 -2       588       738       744      3006      3040      3037
 -1      1346    8    0    1
 -2       602       713       660      2936      3041      3042
 -1      1347    8    0    1
 -2       571       568       745      2502      3043      3044
 -1      1348    8    0    1
 -2       740       571       745      3017      3044      3045
 -1      1349    8    0    1
 -2       568       707       745      2913      3046      3043
 -1      1350    8    0    1
 -2       717       595       727      2947      2973      3047
 -1      1351    8    0    1
 -2       582       723       729      2964      3048      2977
 -1      1352    8    0    1
 -2       598       724       725      2966      3049      2968
 -1      1353    8    0    1
 -2       593       726       746      2971      3050      3051
 -1      1354    8    0    1
 -2       593       746       733      3051      3052      2988
 -1      1355    8    0    1
 -2       618       479       619      2652      3008      3053
 -1      1356    8    0    1
 -2       604       730       734      2980      3054      2991
 -1      1357    8    0    1
 -2       601       602       660      2615      3042      3055
 -1      1358    8    0    1
 -2       601       660       659      3055      2776      3035
 -1      1359    8    0    1
 -2       621       734       661      3009      3056      3057
 -1      1360    8    0    1
 -2       617       618       747      2654      3058      3059
 -1      1361    8    0    1
 -2       612       611       748      2610      3060      3061
 -1      1362    8    0    1
 -2       736       612       748      3000      3061      3062
 -1      1363    8    0    1
 -2       611       737       748      3002      3063      3060
 -1      1364    8    0    1
 -2       623       716       749      2946      3064      3065
 -1      1365    8    0    1
 -2       521       660       713      2775      3041      3066
 -1      1366    8    0    1
 -2       625       624       750      2671      3067      3068
 -1      1367    8    0    1
 -2       626       625       751      2674      3069      3070
 -1      1368    8    0    1
 -2       625       750       751      3068      3071      3069
 -1      1369    8    0    1
 -2       627       626       752      2677      3072      3073
 -1      1370    8    0    1
 -2       626       751       752      3070      3074      3072
 -1      1371    8    0    1
 -2       628       627       753      2680      3075      3076
 -1      1372    8    0    1
 -2       627       752       753      3073      3077      3075
 -1      1373    8    0    1
 -2       629       628       754      2683      3078      3079
 -1      1374    8    0    1
 -2       628       753       754      3076      3080      3078
 -1      1375    8    0    1
 -2       630       629       755      2686      3081      3082
 -1      1376    8    0    1
 -2       629       754       755      3079      3083      3081
 -1      1377    8    0    1
 -2       631       630       756      2689      3084      3085
 -1      1378    8    0    1
 -2       630       755       756      3082      3086      3084
 -1      1379    8    0    1
 -2       632       631       757      2692      3087      3088
 -1      1380    8    0    1
 -2       631       756       757      3085      3089      3087
 -1      1381    8    0    1
 -2       633       632       758      2695      3090      3091
 -1      1382    8    0    1
 -2       632       757       758      3088      3092      3090
 -1      1383    8    0    1
 -2       634       633       759      2698      3093      3094
 -1      1384    8    0    1
 -2       633       758       759      3091      3095      3093
 -1      1385    8    0    1
 -2       635       634       760      2701      3096      3097
 -1      1386    8    0    1
 -2       634       759       760      3094      3098      3096
 -1      1387    8    0    1
 -2       636       635       761      2704      3099      3100
 -1      1388    8    0    1
 -2       635       760       761      3097      3101      3099
 -1      1389    8    0    1
 -2       637       636       762      2707      3102      3103
 -1      1390    8    0    1
 -2       636       761       762      3100      3104      3102
 -1      1391    8    0    1
 -2       638       637       763      2710      3105      3106
 -1      1392    8    0    1
 -2       637       762       763      3103      3107      3105
 -1      1393    8    0    1
 -2       639       638       764      2713      3108      3109
 -1      1394    8    0    1
 -2       638       763       764      3106      3110      3108
 -1      1395    8    0    1
 -2       640       639       765      2716      3111      3112
 -1      1396    8    0    1
 -2       639       764       765      3109      3113      3111
 -1      1397    8    0    1
 -2       641       640       766      2719      3114      3115
 -1      1398    8    0    1
 -2       640       765       766      3112      3116      3114
 -1      1399    8    0    1
 -2       642       641       767      2722      3117      3118
 -1      1400    8    0    1
 -2       641       766       767      3115      3119      3117
 -1      1401    8    0    1
 -2       643       642       768      2725      3120      3121
 -1      1402    8    0    1
 -2       642       767       768      3118      3122      3120
 -1      1403    8    0    1
 -2       644       643       769      2728      3123      3124
 -1      1404    8    0    1
 -2       643       768       769      3121      3125      3123
 -1      1405    8    0    1
 -2       645       644       770      2731      3126      3127
 -1      1406    8    0    1
 -2       644       769       770      3124      3128      3126
 -1      1407    8    0    1
 -2       646       645       771      2734      3129      3130
 -1      1408    8    0    1
 -2       645       770       771      3127      3131      3129
 -1      1409    8    0    1
 -2       647       646       772      2737      3132      3133
 -1      1410    8    0    1
 -2       646       771       772      3130      3134      3132
 -1      1411    8    0    1
 -2       648       647       773      2740      3135      3136
 -1      1412    8    0    1
 -2       647       772       773      3133      3137      3135
 -1      1413    8    0    1
 -2       649       648       774      2743      3138      3139
 -1      1414    8    0    1
 -2       648       773       774      3136      3140      3138
 -1      1415    8    0    1
 -2       650       649       775      2746      3141      3142
 -1      1416    8    0    1
 -2       649       774       775      3139      3143      3141
 -1      1417    8    0    1
 -2       651       650       776      2749      3144      3145
 -1      1418    8    0    1
 -2       650       775       776      3142      3146      3144
 -1      1419    8    0    1
 -2       652       651       777      2752      3147      3148
 -1      1420    8    0    1
 -2       651       776       777      3145      3149      3147
 -1      1421    8    0    1
 -2       653       652       778      2755      3150      3151
 -1      1422    8    0    1
 -2       652       777       778      3148      3152      3150
 -1      1423    8    0    1
 -2       654       653       779      2758      3153      3154
 -1      1424    8    0    1
 -2       653       778       779      3151      3155      3153
 -1      1425    8    0    1
 -2       655       654       780      2761      3156      3157
 -1      1426    8    0    1
 -2       654       779       780      3154      3158      3156
 -1      1427    8    0    1
 -2       656       655       781      2764      3159      3160
 -1      1428    8    0    1
 -2       655       780       781      3157      3161      3159
 -1      1429    8    0    1
 -2       657       656       782      2767      3162      3163
 -1      1430    8    0    1
 -2       656       781       782      3160      3164      3162
 -1      1431    8    0    1
 -2       659       658       732      2773      3165      3036
 -1      1432    8    0    1
 -2       661       734       783      3056      3166      3167
 -1      1433    8    0    1
 -2       662       661       783      2784      3167      3168
 -1      1434    8    0    1
 -2       734       730       783      3054      3169      3166
 -1      1435    8    0    1
 -2       621       521       713      2777      3066      3029
 -1      1436    8    0    1
 -2       523       621       661      2779      3057      2780
 -1      1437    8    0    1
 -2       710       662       709      3011      3170      2925
 -1      1438    8    0    1
 -2       667       668       784      2799      3171      3172
 -1      1439    8    0    1
 -2       666       667       785      2796      3173      3174
 -1      1440    8    0    1
 -2       667       784       785      3172      3175      3173
 -1      1441    8    0    1
 -2       669       670       786      2805      3176      3177
 -1      1442    8    0    1
 -2       670       671       787      2808      3178      3179
 -1      1443    8    0    1
 -2       670       787       786      3179      3180      3176
 -1      1444    8    0    1
 -2       671       672       788      2811      3181      3182
 -1      1445    8    0    1
 -2       671       788       787      3182      3183      3178
 -1      1446    8    0    1
 -2       672       673       789      2814      3184      3185
 -1      1447    8    0    1
 -2       672       789       788      3185      3186      3181
 -1      1448    8    0    1
 -2       673       674       790      2817      3187      3188
 -1      1449    8    0    1
 -2       673       790       789      3188      3189      3184
 -1      1450    8    0    1
 -2       674       675       791      2820      3190      3191
 -1      1451    8    0    1
 -2       674       791       790      3191      3192      3187
 -1      1452    8    0    1
 -2       675       676       792      2823      3193      3194
 -1      1453    8    0    1
 -2       675       792       791      3194      3195      3190
 -1      1454    8    0    1
 -2       676       677       793      2826      3196      3197
 -1      1455    8    0    1
 -2       676       793       792      3197      3198      3193
 -1      1456    8    0    1
 -2       677       678       794      2829      3199      3200
 -1      1457    8    0    1
 -2       677       794       793      3200      3201      3196
 -1      1458    8    0    1
 -2       678       679       795      2832      3202      3203
 -1      1459    8    0    1
 -2       678       795       794      3203      3204      3199
 -1      1460    8    0    1
 -2       679       680       796      2835      3205      3206
 -1      1461    8    0    1
 -2       679       796       795      3206      3207      3202
 -1      1462    8    0    1
 -2       680       681       797      2838      3208      3209
 -1      1463    8    0    1
 -2       680       797       796      3209      3210      3205
 -1      1464    8    0    1
 -2       681       682       798      2841      3211      3212
 -1      1465    8    0    1
 -2       681       798       797      3212      3213      3208
 -1      1466    8    0    1
 -2       682       683       799      2844      3214      3215
 -1      1467    8    0    1
 -2       682       799       798      3215      3216      3211
 -1      1468    8    0    1
 -2       683       684       800      2847      3217      3218
 -1      1469    8    0    1
 -2       683       800       799      3218      3219      3214
 -1      1470    8    0    1
 -2       684       685       801      2850      3220      3221
 -1      1471    8    0    1
 -2       684       801       800      3221      3222      3217
 -1      1472    8    0    1
 -2       685       686       802      2853      3223      3224
 -1      1473    8    0    1
 -2       685       802       801      3224      3225      3220
 -1      1474    8    0    1
 -2       686       687       803      2856      3226      3227
 -1      1475    8    0    1
 -2       686       803       802      3227      3228      3223
 -1      1476    8    0    1
 -2       687       688       804      2859      3229      3230
 -1      1477    8    0    1
 -2       687       804       803      3230      3231      3226
 -1      1478    8    0    1
 -2       688       689       805      2862      3232      3233
 -1      1479    8    0    1
 -2       688       805       804      3233      3234      3229
 -1      1480    8    0    1
 -2       689       690       806      2865      3235      3236
 -1      1481    8    0    1
 -2       689       806       805      3236      3237      3232
 -1      1482    8    0    1
 -2       690       691       807      2868      3238      3239
 -1      1483    8    0    1
 -2       690       807       806      3239      3240      3235
 -1      1484    8    0    1
 -2       691       692       808      2871      3241      3242
 -1      1485    8    0    1
 -2       691       808       807      3242      3243      3238
 -1      1486    8    0    1
 -2       692       693       809      2874      3244      3245
 -1      1487    8    0    1
 -2       692       809       808      3245      3246      3241
 -1      1488    8    0    1
 -2       693       694       810      2877      3247      3248
 -1      1489    8    0    1
 -2       693       810       809      3248      3249      3244
 -1      1490    8    0    1
 -2       694       695       811      2880      3250      3251
 -1      1491    8    0    1
 -2       694       811       810      3251      3252      3247
 -1      1492    8    0    1
 -2       695       696       812      2883      3253      3254
 -1      1493    8    0    1
 -2       695       812       811      3254      3255      3250
 -1      1494    8    0    1
 -2       696       697       746      2886      3256      3257
 -1      1495    8    0    1
 -2       697       698       620      2889      3258      3259
 -1      1496    8    0    1
 -2       698       699       610      2892      3260      3261
 -1      1497    8    0    1
 -2       699       700       723      2895      3262      3263
 -1      1498    8    0    1
 -2       701       702       813      2901      3264      3265
 -1      1499    8    0    1
 -2       702       703       814      2904      3266      3267
 -1      1500    8    0    1
 -2       813       702       814      3264      3267      3268
 -1      1501    8    0    1
 -2       703       740       814      3016      3269      3266
 -1      1502    8    0    1
 -2       728       725       815      2976      3270      3271
 -1      1503    8    0    1
 -2       717       727       816      3047      3272      3273
 -1      1504    8    0    1
 -2       724       712       817      2967      3274      3275
 -1      1505    8    0    1
 -2       575       622       711      2919      2929      3276
 -1      1506    8    0    1
 -2       714       665       818      2939      3277      3278
 -1      1507    8    0    1
 -2       711       664       575      2930      2916      3276
 -1      1508    8    0    1
 -2       668       669       819      2802      3279      3280
 -1      1509    8    0    1
 -2       784       668       819      3171      3280      3281
 -1      1510    8    0    1
 -2       669       786       819      3177      3282      3279
 -1      1511    8    0    1
 -2       665       663       820      2791      3283      3284
 -1      1512    8    0    1
 -2       665       820       818      3284      3285      3277
 -1      1513    8    0    1
 -2       705       609       708      2933      3286      3019
 -1      1514    8    0    1
 -2       722       732       658      2987      3165      3287
 -1      1515    8    0    1
 -2       624       623       821      2668      3288      3289
 -1      1516    8    0    1
 -2       624       821       750      3289      3290      3067
 -1      1517    8    0    1
 -2       620       698       610      3258      3261      3007
 -1      1518    8    0    1
 -2       609       718       708      2950      3291      3286
 -1      1519    8    0    1
 -2       723       591       822      2963      3292      3293
 -1      1520    8    0    1
 -2       706       722       782      3033      3294      3295
 -1      1521    8    0    1
 -2       725       724       823      3049      3296      3297
 -1      1522    8    0    1
 -2       726       717       824      3028      3298      3299
 -1      1523    8    0    1
 -2       717       816       824      3273      3300      3298
 -1      1524    8    0    1
 -2       618       619       825      3053      3301      3302
 -1      1525    8    0    1
 -2       747       618       825      3058      3302      3303
 -1      1526    8    0    1
 -2       619       719       825      2953      3304      3301
 -1      1527    8    0    1
 -2       616       615       826      2649      3305      3306
 -1      1528    8    0    1
 -2       735       729       813      2996      3307      3308
 -1      1529    8    0    1
 -2       591       610       822      2600      3309      3292
 -1      1530    8    0    1
 -2       722       658       657      3287      2770      3310
 -1      1531    8    0    1
 -2       722       657       782      3310      3163      3294
 -1      1532    8    0    1
 -2       738       616       827      3004      3311      3312
 -1      1533    8    0    1
 -2       616       826       827      3306      3313      3311
 -1      1534    8    0    1
 -2       617       747       828      3059      3314      3315
 -1      1535    8    0    1
 -2       617       828       720      3315      3316      2958
 -1      1536    8    0    1
 -2       817       712       741      3274      3022      3317
 -1      1537    8    0    1
 -2       723       700       829      3262      3318      3319
 -1      1538    8    0    1
 -2       739       735       814      3014      3320      3321
 -1      1539    8    0    1
 -2       737       721       830      3003      3322      3323
 -1      1540    8    0    1
 -2       716       736       748      2999      3062      3324
 -1      1541    8    0    1
 -2       663       715       831      2942      3325      3326
 -1      1542    8    0    1
 -2       663       831       820      3326      3327      3283
 -1      1543    8    0    1
 -2       666       785       832      3174      3328      3329
 -1      1544    8    0    1
 -2       666       832       715      3329      3330      2943
 -1      1545    8    0    1
 -2       696       746       812      3257      3331      3253
 -1      1546    8    0    1
 -2       697       620       733      3259      2990      3332
 -1      1547    8    0    1
 -2       700       701       829      2898      3333      3318
 -1      1548    8    0    1
 -2       816       727       833      3272      3334      3335
 -1      1549    8    0    1
 -2       727       742       833      3026      3336      3334
 -1      1550    8    0    1
 -2       741       706       782      3020      3295      3337
 -1      1551    8    0    1
 -2       724       817       823      3275      3338      3296
 -1      1552    8    0    1
 -2       622       709       730      2922      3339      3010
 -1      1553    8    0    1
 -2       728       815       743      3271      3340      3032
 -1      1554    8    0    1
 -2       719       714       834      2954      3341      3342
 -1      1555    8    0    1
 -2       825       719       834      3304      3342      3343
 -1      1556    8    0    1
 -2       714       818       834      3278      3344      3341
 -1      1557    8    0    1
 -2       723       829       729      3319      3345      3048
 -1      1558    8    0    1
 -2       623       749       821      3065      3346      3288
 -1      1559    8    0    1
 -2       613       743       835      3031      3347      3348
 -1      1560    8    0    1
 -2       613       835       742      3348      3349      3027
 -1      1561    8    0    1
 -2       721       744       836      3039      3350      3351
 -1      1562    8    0    1
 -2       721       836       830      3351      3352      3322
 -1      1563    8    0    1
 -2       814       735       813      3320      3308      3268
 -1      1564    8    0    1
 -2       716       748       749      3324      3353      3064
 -1      1565    8    0    1
 -2       730       709       783      3339      3354      3169
 -1      1566    8    0    1
 -2       745       707       739      3046      3355      3356
 -1      1567    8    0    1
 -2       615       720       837      2957      3357      3358
 -1      1568    8    0    1
 -2       826       615       837      3305      3358      3359
 -1      1569    8    0    1
 -2       720       828       837      3316      3360      3357
 -1      1570    8    0    1
 -2       829       701       813      3333      3265      3361
 -1      1571    8    0    1
 -2       718       704       707      3034      3362      3363
 -1      1572    8    0    1
 -2       746       726       838      3050      3364      3365
 -1      1573    8    0    1
 -2       812       746       838      3331      3365      3366
 -1      1574    8    0    1
 -2       726       824       838      3299      3367      3364
 -1      1575    8    0    1
 -2       725       823       815      3297      3368      3270
 -1      1576    8    0    1
 -2       729       829       813      3345      3361      3307
 -1      1577    8    0    1
 -2       704       739       707      3013      3355      3362
 -1      1578    8    0    1
 -2       751       750       839      3071      3369      3370
 -1      1579    8    0    1
 -2       748       737       749      3063      3371      3353
 -1      1580    8    0    1
 -2       610       699       822      3260      3372      3309
 -1      1581    8    0    1
 -2       824       816       840      3300      3373      3374
 -1      1582    8    0    1
 -2       750       821       841      3290      3375      3376
 -1      1583    8    0    1
 -2       750       841       839      3376      3377      3369
 -1      1584    8    0    1
 -2       752       751       842      3074      3378      3379
 -1      1585    8    0    1
 -2       751       839       842      3370      3380      3378
 -1      1586    8    0    1
 -2       753       752       843      3077      3381      3382
 -1      1587    8    0    1
 -2       752       842       843      3379      3383      3381
 -1      1588    8    0    1
 -2       754       753       844      3080      3384      3385
 -1      1589    8    0    1
 -2       753       843       844      3382      3386      3384
 -1      1590    8    0    1
 -2       755       754       845      3083      3387      3388
 -1      1591    8    0    1
 -2       754       844       845      3385      3389      3387
 -1      1592    8    0    1
 -2       756       755       846      3086      3390      3391
 -1      1593    8    0    1
 -2       755       845       846      3388      3392      3390
 -1      1594    8    0    1
 -2       757       756       847      3089      3393      3394
 -1      1595    8    0    1
 -2       756       846       847      3391      3395      3393
 -1      1596    8    0    1
 -2       758       757       848      3092      3396      3397
 -1      1597    8    0    1
 -2       757       847       848      3394      3398      3396
 -1      1598    8    0    1
 -2       759       758       849      3095      3399      3400
 -1      1599    8    0    1
 -2       758       848       849      3397      3401      3399
 -1      1600    8    0    1
 -2       760       759       850      3098      3402      3403
 -1      1601    8    0    1
 -2       759       849       850      3400      3404      3402
 -1      1602    8    0    1
 -2       761       760       851      3101      3405      3406
 -1      1603    8    0    1
 -2       760       850       851      3403      3407      3405
 -1      1604    8    0    1
 -2       762       761       852      3104      3408      3409
 -1      1605    8    0    1
 -2       761       851       852      3406      3410      3408
 -1      1606    8    0    1
 -2       763       762       853      3107      3411      3412
 -1      1607    8    0    1
 -2       762       852       853      3409      3413      3411
 -1      1608    8    0    1
 -2       764       763       854      3110      3414      3415
 -1      1609    8    0    1
 -2       763       853       854      3412      3416      3414
 -1      1610    8    0    1
 -2       765       764       855      3113      3417      3418
 -1      1611    8    0    1
 -2       764       854       855      3415      3419      3417
 -1      1612    8    0    1
 -2       766       765       856      3116      3420      3421
 -1      1613    8    0    1
 -2       765       855       856      3418      3422      3420
 -1      1614    8    0    1
 -2       767       766       857      3119      3423      3424
 -1      1615    8    0    1
 -2       766       856       857      3421      3425      3423
 -1      1616    8    0    1
 -2       768       767       858      3122      3426      3427
 -1      1617    8    0    1
 -2       767       857       858      3424      3428      3426
 -1      1618    8    0    1
 -2       769       768       859      3125      3429      3430
 -1      1619    8    0    1
 -2       768       858       859      3427      3431      3429
 -1      1620    8    0    1
 -2       770       769       860      3128      3432      3433
 -1      1621    8    0    1
 -2       769       859       860      3430      3434      3432
 -1      1622    8    0    1
 -2       771       770       861      3131      3435      3436
 -1      1623    8    0    1
 -2       770       860       861      3433      3437      3435
 -1      1624    8    0    1
 -2       772       771       862      3134      3438      3439
 -1      1625    8    0    1
 -2       771       861       862      3436      3440      3438
 -1      1626    8    0    1
 -2       773       772       863      3137      3441      3442
 -1      1627    8    0    1
 -2       772       862       863      3439      3443      3441
 -1      1628    8    0    1
 -2       774       773       864      3140      3444      3445
 -1      1629    8    0    1
 -2       773       863       864      3442      3446      3444
 -1      1630    8    0    1
 -2       775       774       865      3143      3447      3448
 -1      1631    8    0    1
 -2       774       864       865      3445      3449      3447
 -1      1632    8    0    1
 -2       776       775       866      3146      3450      3451
 -1      1633    8    0    1
 -2       775       865       866      3448      3452      3450
 -1      1634    8    0    1
 -2       777       776       867      3149      3453      3454
 -1      1635    8    0    1
 -2       776       866       867      3451      3455      3453
 -1      1636    8    0    1
 -2       778       777       868      3152      3456      3457
 -1      1637    8    0    1
 -2       777       867       868      3454      3458      3456
 -1      1638    8    0    1
 -2       779       778       869      3155      3459      3460
 -1      1639    8    0    1
 -2       778       868       869      3457      3461      3459
 -1      1640    8    0    1
 -2       780       779       870      3158      3462      3463
 -1      1641    8    0    1
 -2       779       869       870      3460      3464      3462
 -1      1642    8    0    1
 -2       781       780       871      3161      3465      3466
 -1      1643    8    0    1
 -2       780       870       871      3463      3467      3465
 -1      1644    8    0    1
 -2       782       781       872      3164      3468      3469
 -1      1645    8    0    1
 -2       741       782       872      3337      3469      3470
 -1      1646    8    0    1
 -2       781       871       872      3466      3471      3468
 -1      1647    8    0    1
 -2       745       739       740      3356      3472      3045
 -1      1648    8    0    1
 -2       739       814       740      3321      3269      3472
 -1      1649    8    0    1
 -2       788       789       873      3186      3473      3474
 -1      1650    8    0    1
 -2       709       662       783      3170      3168      3354
 -1      1651    8    0    1
 -2       737       830       749      3323      3475      3371
 -1      1652    8    0    1
 -2       787       788       874      3183      3476      3477
 -1      1653    8    0    1
 -2       788       873       874      3474      3478      3476
 -1      1654    8    0    1
 -2       786       787       875      3180      3479      3480
 -1      1655    8    0    1
 -2       787       874       875      3477      3481      3479
 -1      1656    8    0    1
 -2       789       790       876      3189      3482      3483
 -1      1657    8    0    1
 -2       789       876       873      3483      3484      3473
 -1      1658    8    0    1
 -2       790       791       877      3192      3485      3486
 -1      1659    8    0    1
 -2       790       877       876      3486      3487      3482
 -1      1660    8    0    1
 -2       791       792       878      3195      3488      3489
 -1      1661    8    0    1
 -2       791       878       877      3489      3490      3485
 -1      1662    8    0    1
 -2       792       793       879      3198      3491      3492
 -1      1663    8    0    1
 -2       792       879       878      3492      3493      3488
 -1      1664    8    0    1
 -2       793       794       880      3201      3494      3495
 -1      1665    8    0    1
 -2       793       880       879      3495      3496      3491
 -1      1666    8    0    1
 -2       794       795       881      3204      3497      3498
 -1      1667    8    0    1
 -2       794       881       880      3498      3499      3494
 -1      1668    8    0    1
 -2       795       796       882      3207      3500      3501
 -1      1669    8    0    1
 -2       795       882       881      3501      3502      3497
 -1      1670    8    0    1
 -2       796       797       883      3210      3503      3504
 -1      1671    8    0    1
 -2       796       883       882      3504      3505      3500
 -1      1672    8    0    1
 -2       797       798       884      3213      3506      3507
 -1      1673    8    0    1
 -2       797       884       883      3507      3508      3503
 -1      1674    8    0    1
 -2       798       799       885      3216      3509      3510
 -1      1675    8    0    1
 -2       798       885       884      3510      3511      3506
 -1      1676    8    0    1
 -2       799       800       886      3219      3512      3513
 -1      1677    8    0    1
 -2       799       886       885      3513      3514      3509
 -1      1678    8    0    1
 -2       800       801       887      3222      3515      3516
 -1      1679    8    0    1
 -2       800       887       886      3516      3517      3512
 -1      1680    8    0    1
 -2       801       802       888      3225      3518      3519
 -1      1681    8    0    1
 -2       801       888       887      3519      3520      3515
 -1      1682    8    0    1
 -2       802       803       889      3228      3521      3522
 -1      1683    8    0    1
 -2       802       889       888      3522      3523      3518
 -1      1684    8    0    1
 -2       803       804       890      3231      3524      3525
 -1      1685    8    0    1
 -2       803       890       889      3525      3526      3521
 -1      1686    8    0    1
 -2       804       805       891      3234      3527      3528
 -1      1687    8    0    1
 -2       804       891       890      3528      3529      3524
 -1      1688    8    0    1
 -2       805       806       892      3237      3530      3531
 -1      1689    8    0    1
 -2       805       892       891      3531      3532      3527
 -1      1690    8    0    1
 -2       806       807       893      3240      3533      3534
 -1      1691    8    0    1
 -2       806       893       892      3534      3535      3530
 -1      1692    8    0    1
 -2       807       808       894      3243      3536      3537
 -1      1693    8    0    1
 -2       807       894       893      3537      3538      3533
 -1      1694    8    0    1
 -2       808       809       895      3246      3539      3540
 -1      1695    8    0    1
 -2       808       895       894      3540      3541      3536
 -1      1696    8    0    1
 -2       809       810       896      3249      3542      3543
 -1      1697    8    0    1
 -2       809       896       895      3543      3544      3539
 -1      1698    8    0    1
 -2       810       811       840      3252      3545      3546
 -1      1699    8    0    1
 -2       811       812       840      3255      3547      3545
 -1      1700    8    0    1
 -2       699       723       822      3263      3293      3372
 -1      1701    8    0    1
 -2       718       707       708      3363      3023      3291
 -1      1702    8    0    1
 -2       818       820       897      3285      3548      3549
 -1      1703    8    0    1
 -2       744       738       898      3040      3550      3551
 -1      1704    8    0    1
 -2       744       898       836      3551      3552      3350
 -1      1705    8    0    1
 -2       785       784       899      3175      3553      3554
 -1      1706    8    0    1
 -2       823       817       900      3338      3555      3556
 -1      1707    8    0    1
 -2       743       815       901      3340      3557      3558
 -1      1708    8    0    1
 -2       821       749       902      3346      3559      3560
 -1      1709    8    0    1
 -2       841       821       902      3375      3560      3561
 -1      1710    8    0    1
 -2       749       830       902      3475      3562      3559
 -1      1711    8    0    1
 -2       815       823       903      3368      3563      3564
 -1      1712    8    0    1
 -2       828       747       904      3314      3565      3566
 -1      1713    8    0    1
 -2       820       831       905      3327      3567      3568
 -1      1714    8    0    1
 -2       820       905       897      3568      3569      3548
 -1      1715    8    0    1
 -2       817       741       872      3317      3470      3570
 -1      1716    8    0    1
 -2       903       823       900      3563      3556      3571
 -1      1717    8    0    1
 -2       840       816       833      3373      3335      3572
 -1      1718    8    0    1
 -2       831       715       832      3325      3330      3573
 -1      1719    8    0    1
 -2       832       785       906      3328      3574      3575
 -1      1720    8    0    1
 -2       785       899       906      3554      3576      3574
 -1      1721    8    0    1
 -2       810       840       896      3546      3577      3542
 -1      1722    8    0    1
 -2       697       733       746      3332      3052      3256
 -1      1723    8    0    1
 -2       738       827       898      3312      3578      3550
 -1      1724    8    0    1
 -2       902       830       907      3562      3579      3580
 -1      1725    8    0    1
 -2       830       836       907      3352      3581      3579
 -1      1726    8    0    1
 -2       833       742       908      3336      3582      3583
 -1      1727    8    0    1
 -2       742       835       908      3349      3584      3582
 -1      1728    8    0    1
 -2       747       825       909      3303      3585      3586
 -1      1729    8    0    1
 -2       904       747       909      3565      3586      3587
 -1      1730    8    0    1
 -2       825       834       909      3343      3588      3585
 -1      1731    8    0    1
 -2       784       819       910      3281      3589      3590
 -1      1732    8    0    1
 -2       784       910       899      3590      3591      3553
 -1      1733    8    0    1
 -2       901       815       911      3557      3592      3593
 -1      1734    8    0    1
 -2       815       903       911      3564      3594      3592
 -1      1735    8    0    1
 -2       834       818       912      3344      3595      3596
 -1      1736    8    0    1
 -2       909       834       912      3588      3596      3597
 -1      1737    8    0    1
 -2       818       897       912      3549      3598      3595
 -1      1738    8    0    1
 -2       835       743       901      3347      3558      3599
 -1      1739    8    0    1
 -2       827       826       913      3313      3600      3601
 -1      1740    8    0    1
 -2       819       786       914      3282      3602      3603
 -1      1741    8    0    1
 -2       910       819       914      3589      3603      3604
 -1      1742    8    0    1
 -2       786       875       914      3480      3605      3602
 -1      1743    8    0    1
 -2       826       837       915      3359      3606      3607
 -1      1744    8    0    1
 -2       826       915       913      3607      3608      3600
 -1      1745    8    0    1
 -2       873       876       916      3484      3609      3610
 -1      1746    8    0    1
 -2       839       841       917      3377      3611      3612
 -1      1747    8    0    1
 -2       842       839       918      3380      3613      3614
 -1      1748    8    0    1
 -2       839       917       918      3612      3615      3613
 -1      1749    8    0    1
 -2       843       842       919      3383      3616      3617
 -1      1750    8    0    1
 -2       842       918       919      3614      3618      3616
 -1      1751    8    0    1
 -2       844       843       920      3386      3619      3620
 -1      1752    8    0    1
 -2       843       919       920      3617      3621      3619
 -1      1753    8    0    1
 -2       845       844       921      3389      3622      3623
 -1      1754    8    0    1
 -2       844       920       921      3620      3624      3622
 -1      1755    8    0    1
 -2       846       845       922      3392      3625      3626
 -1      1756    8    0    1
 -2       845       921       922      3623      3627      3625
 -1      1757    8    0    1
 -2       847       846       923      3395      3628      3629
 -1      1758    8    0    1
 -2       846       922       923      3626      3630      3628
 -1      1759    8    0    1
 -2       848       847       924      3398      3631      3632
 -1      1760    8    0    1
 -2       847       923       924      3629      3633      3631
 -1      1761    8    0    1
 -2       849       848       925      3401      3634      3635
 -1      1762    8    0    1
 -2       848       924       925      3632      3636      3634
 -1      1763    8    0    1
 -2       850       849       926      3404      3637      3638
 -1      1764    8    0    1
 -2       849       925       926      3635      3639      3637
 -1      1765    8    0    1
 -2       851       850       927      3407      3640      3641
 -1      1766    8    0    1
 -2       850       926       927      3638      3642      3640
 -1      1767    8    0    1
 -2       852       851       928      3410      3643      3644
 -1      1768    8    0    1
 -2       851       927       928      3641      3645      3643
 -1      1769    8    0    1
 -2       853       852       929      3413      3646      3647
 -1      1770    8    0    1
 -2       852       928       929      3644      3648      3646
 -1      1771    8    0    1
 -2       854       853       930      3416      3649      3650
 -1      1772    8    0    1
 -2       853       929       930      3647      3651      3649
 -1      1773    8    0    1
 -2       855       854       931      3419      3652      3653
 -1      1774    8    0    1
 -2       854       930       931      3650      3654      3652
 -1      1775    8    0    1
 -2       856       855       932      3422      3655      3656
 -1      1776    8    0    1
 -2       855       931       932      3653      3657      3655
 -1      1777    8    0    1
 -2       857       856       933      3425      3658      3659
 -1      1778    8    0    1
 -2       856       932       933      3656      3660      3658
 -1      1779    8    0    1
 -2       858       857       934      3428      3661      3662
 -1      1780    8    0    1
 -2       857       933       934      3659      3663      3661
 -1      1781    8    0    1
 -2       859       858       935      3431      3664      3665
 -1      1782    8    0    1
 -2       858       934       935      3662      3666      3664
 -1      1783    8    0    1
 -2       860       859       936      3434      3667      3668
 -1      1784    8    0    1
 -2       859       935       936      3665      3669      3667
 -1      1785    8    0    1
 -2       861       860       937      3437      3670      3671
 -1      1786    8    0    1
 -2       860       936       937      3668      3672      3670
 -1      1787    8    0    1
 -2       862       861       938      3440      3673      3674
 -1      1788    8    0    1
 -2       861       937       938      3671      3675      3673
 -1      1789    8    0    1
 -2       863       862       939      3443      3676      3677
 -1      1790    8    0    1
 -2       862       938       939      3674      3678      3676
 -1      1791    8    0    1
 -2       864       863       940      3446      3679      3680
 -1      1792    8    0    1
 -2       863       939       940      3677      3681      3679
 -1      1793    8    0    1
 -2       865       864       941      3449      3682      3683
 -1      1794    8    0    1
 -2       864       940       941      3680      3684      3682
 -1      1795    8    0    1
 -2       866       865       942      3452      3685      3686
 -1      1796    8    0    1
 -2       865       941       942      3683      3687      3685
 -1      1797    8    0    1
 -2       867       866       943      3455      3688      3689
 -1      1798    8    0    1
 -2       866       942       943      3686      3690      3688
 -1      1799    8    0    1
 -2       868       867       944      3458      3691      3692
 -1      1800    8    0    1
 -2       867       943       944      3689      3693      3691
 -1      1801    8    0    1
 -2       869       868       945      3461      3694      3695
 -1      1802    8    0    1
 -2       868       944       945      3692      3696      3694
 -1      1803    8    0    1
 -2       870       869       946      3464      3697      3698
 -1      1804    8    0    1
 -2       869       945       946      3695      3699      3697
 -1      1805    8    0    1
 -2       871       870       900      3467      3700      3701
 -1      1806    8    0    1
 -2       872       871       900      3471      3701      3702
 -1      1807    8    0    1
 -2       831       832       947      3573      3703      3704
 -1      1808    8    0    1
 -2       832       906       947      3575      3705      3703
 -1      1809    8    0    1
 -2       874       873       948      3478      3706      3707
 -1      1810    8    0    1
 -2       873       916       948      3610      3708      3706
 -1      1811    8    0    1
 -2       837       828       949      3360      3709      3710
 -1      1812    8    0    1
 -2       837       949       915      3710      3711      3606
 -1      1813    8    0    1
 -2       875       874       950      3481      3712      3713
 -1      1814    8    0    1
 -2       874       948       950      3707      3714      3712
 -1      1815    8    0    1
 -2       877       878       951      3490      3715      3716
 -1      1816    8    0    1
 -2       878       879       952      3493      3717      3718
 -1      1817    8    0    1
 -2       878       952       951      3718      3719      3715
 -1      1818    8    0    1
 -2       879       880       953      3496      3720      3721
 -1      1819    8    0    1
 -2       879       953       952      3721      3722      3717
 -1      1820    8    0    1
 -2       880       881       954      3499      3723      3724
 -1      1821    8    0    1
 -2       880       954       953      3724      3725      3720
 -1      1822    8    0    1
 -2       881       882       955      3502      3726      3727
 -1      1823    8    0    1
 -2       881       955       954      3727      3728      3723
 -1      1824    8    0    1
 -2       882       883       956      3505      3729      3730
 -1      1825    8    0    1
 -2       882       956       955      3730      3731      3726
 -1      1826    8    0    1
 -2       883       884       957      3508      3732      3733
 -1      1827    8    0    1
 -2       883       957       956      3733      3734      3729
 -1      1828    8    0    1
 -2       884       885       958      3511      3735      3736
 -1      1829    8    0    1
 -2       884       958       957      3736      3737      3732
 -1      1830    8    0    1
 -2       885       886       959      3514      3738      3739
 -1      1831    8    0    1
 -2       885       959       958      3739      3740      3735
 -1      1832    8    0    1
 -2       886       887       960      3517      3741      3742
 -1      1833    8    0    1
 -2       886       960       959      3742      3743      3738
 -1      1834    8    0    1
 -2       887       888       961      3520      3744      3745
 -1      1835    8    0    1
 -2       887       961       960      3745      3746      3741
 -1      1836    8    0    1
 -2       888       889       962      3523      3747      3748
 -1      1837    8    0    1
 -2       888       962       961      3748      3749      3744
 -1      1838    8    0    1
 -2       889       890       963      3526      3750      3751
 -1      1839    8    0    1
 -2       889       963       962      3751      3752      3747
 -1      1840    8    0    1
 -2       890       891       964      3529      3753      3754
 -1      1841    8    0    1
 -2       890       964       963      3754      3755      3750
 -1      1842    8    0    1
 -2       891       892       965      3532      3756      3757
 -1      1843    8    0    1
 -2       891       965       964      3757      3758      3753
 -1      1844    8    0    1
 -2       892       893       966      3535      3759      3760
 -1      1845    8    0    1
 -2       892       966       965      3760      3761      3756
 -1      1846    8    0    1
 -2       893       894       967      3538      3762      3763
 -1      1847    8    0    1
 -2       893       967       966      3763      3764      3759
 -1      1848    8    0    1
 -2       894       895       968      3541      3765      3766
 -1      1849    8    0    1
 -2       894       968       967      3766      3767      3762
 -1      1850    8    0    1
 -2       895       896       969      3544      3768      3769
 -1      1851    8    0    1
 -2       895       969       968      3769      3770      3765
 -1      1852    8    0    1
 -2       898       827       970      3578      3771      3772
 -1      1853    8    0    1
 -2       827       913       970      3601      3773      3771
 -1      1854    8    0    1
 -2       900       817       872      3555      3570      3702
 -1      1855    8    0    1
 -2       836       898       971      3552      3774      3775
 -1      1856    8    0    1
 -2       907       836       971      3581      3775      3776
 -1      1857    8    0    1
 -2       898       970       971      3772      3777      3774
 -1      1858    8    0    1
 -2       840       833       896      3572      3778      3577
 -1      1859    8    0    1
 -2       835       901       972      3599      3779      3780
 -1      1860    8    0    1
 -2       835       972       908      3780      3781      3584
 -1      1861    8    0    1
 -2       876       877       973      3487      3782      3783
 -1      1862    8    0    1
 -2       877       951       973      3716      3784      3782
 -1      1863    8    0    1
 -2       903       900       974      3571      3785      3786
 -1      1864    8    0    1
 -2       841       902       975      3561      3787      3788
 -1      1865    8    0    1
 -2       917       841       975      3611      3788      3789
 -1      1866    8    0    1
 -2       902       907       975      3580      3790      3787
 -1      1867    8    0    1
 -2       828       904       949      3566      3791      3709
 -1      1868    8    0    1
 -2       838       824       840      3367      3374      3792
 -1      1869    8    0    1
 -2       896       833       969      3778      3793      3768
 -1      1870    8    0    1
 -2       897       905       976      3569      3794      3795
 -1      1871    8    0    1
 -2       831       947       905      3704      3796      3567
 -1      1872    8    0    1
 -2       900       870       946      3700      3698      3797
 -1      1873    8    0    1
 -2       906       899       977      3576      3798      3799
 -1      1874    8    0    1
 -2       903       974       978      3786      3800      3801
 -1      1875    8    0    1
 -2       903       978       911      3801      3802      3594
 -1      1876    8    0    1
 -2       897       976       979      3795      3803      3804
 -1      1877    8    0    1
 -2       970       913       980      3773      3805      3806
 -1      1878    8    0    1
 -2       876       973       916      3783      3807      3609
 -1      1879    8    0    1
 -2       949       904       979      3791      3808      3809
 -1      1880    8    0    1
 -2       914       875       981      3605      3810      3811
 -1      1881    8    0    1
 -2       875       950       981      3713      3812      3810
 -1      1882    8    0    1
 -2       897       979       912      3804      3813      3598
 -1      1883    8    0    1
 -2       899       910       982      3591      3814      3815
 -1      1884    8    0    1
 -2       899       982       977      3815      3816      3798
 -1      1885    8    0    1
 -2       901       911       983      3593      3817      3818
 -1      1886    8    0    1
 -2       901       983       972      3818      3819      3779
 -1      1887    8    0    1
 -2       904       909       912      3587      3597      3820
 -1      1888    8    0    1
 -2       913       915       984      3608      3821      3822
 -1      1889    8    0    1
 -2       913       984       980      3822      3823      3805
 -1      1890    8    0    1
 -2       979       904       912      3808      3820      3813
 -1      1891    8    0    1
 -2       905       947       985      3796      3824      3825
 -1      1892    8    0    1
 -2       905       985       976      3825      3826      3794
 -1      1893    8    0    1
 -2       906       977       986      3799      3827      3828
 -1      1894    8    0    1
 -2       906       986       947      3828      3829      3705
 -1      1895    8    0    1
 -2       919       918       987      3618      3830      3831
 -1      1896    8    0    1
 -2       920       919       988      3621      3832      3833
 -1      1897    8    0    1
 -2       919       987       988      3831      3834      3832
 -1      1898    8    0    1
 -2       921       920       989      3624      3835      3836
 -1      1899    8    0    1
 -2       920       988       989      3833      3837      3835
 -1      1900    8    0    1
 -2       922       921       990      3627      3838      3839
 -1      1901    8    0    1
 -2       921       989       990      3836      3840      3838
 -1      1902    8    0    1
 -2       923       922       991      3630      3841      3842
 -1      1903    8    0    1
 -2       922       990       991      3839      3843      3841
 -1      1904    8    0    1
 -2       924       923       992      3633      3844      3845
 -1      1905    8    0    1
 -2       923       991       992      3842      3846      3844
 -1      1906    8    0    1
 -2       925       924       993      3636      3847      3848
 -1      1907    8    0    1
 -2       924       992       993      3845      3849      3847
 -1      1908    8    0    1
 -2       926       925       994      3639      3850      3851
 -1      1909    8    0    1
 -2       925       993       994      3848      3852      3850
 -1      1910    8    0    1
 -2       927       926       995      3642      3853      3854
 -1      1911    8    0    1
 -2       926       994       995      3851      3855      3853
 -1      1912    8    0    1
 -2       928       927       996      3645      3856      3857
 -1      1913    8    0    1
 -2       927       995       996      3854      3858      3856
 -1      1914    8    0    1
 -2       929       928       997      3648      3859      3860
 -1      1915    8    0    1
 -2       928       996       997      3857      3861      3859
 -1      1916    8    0    1
 -2       930       929       998      3651      3862      3863
 -1      1917    8    0    1
 -2       929       997       998      3860      3864      3862
 -1      1918    8    0    1
 -2       931       930       999      3654      3865      3866
 -1      1919    8    0    1
 -2       930       998       999      3863      3867      3865
 -1      1920    8    0    1
 -2       932       931      1000      3657      3868      3869
 -1      1921    8    0    1
 -2       931       999      1000      3866      3870      3868
 -1      1922    8    0    1
 -2       933       932      1001      3660      3871      3872
 -1      1923    8    0    1
 -2       932      1000      1001      3869      3873      3871
 -1      1924    8    0    1
 -2       934       933      1002      3663      3874      3875
 -1      1925    8    0    1
 -2       933      1001      1002      3872      3876      3874
 -1      1926    8    0    1
 -2       935       934      1003      3666      3877      3878
 -1      1927    8    0    1
 -2       934      1002      1003      3875      3879      3877
 -1      1928    8    0    1
 -2       936       935      1004      3669      3880      3881
 -1      1929    8    0    1
 -2       935      1003      1004      3878      3882      3880
 -1      1930    8    0    1
 -2       937       936      1005      3672      3883      3884
 -1      1931    8    0    1
 -2       936      1004      1005      3881      3885      3883
 -1      1932    8    0    1
 -2       938       937      1006      3675      3886      3887
 -1      1933    8    0    1
 -2       937      1005      1006      3884      3888      3886
 -1      1934    8    0    1
 -2       939       938      1007      3678      3889      3890
 -1      1935    8    0    1
 -2       938      1006      1007      3887      3891      3889
 -1      1936    8    0    1
 -2       940       939      1008      3681      3892      3893
 -1      1937    8    0    1
 -2       939      1007      1008      3890      3894      3892
 -1      1938    8    0    1
 -2       941       940      1009      3684      3895      3896
 -1      1939    8    0    1
 -2       940      1008      1009      3893      3897      3895
 -1      1940    8    0    1
 -2       942       941      1010      3687      3898      3899
 -1      1941    8    0    1
 -2       941      1009      1010      3896      3900      3898
 -1      1942    8    0    1
 -2       943       942      1011      3690      3901      3902
 -1      1943    8    0    1
 -2       942      1010      1011      3899      3903      3901
 -1      1944    8    0    1
 -2       944       943      1012      3693      3904      3905
 -1      1945    8    0    1
 -2       943      1011      1012      3902      3906      3904
 -1      1946    8    0    1
 -2       945       944      1013      3696      3907      3908
 -1      1947    8    0    1
 -2       944      1012      1013      3905      3909      3907
 -1      1948    8    0    1
 -2       948       916      1014      3708      3910      3911
 -1      1949    8    0    1
 -2       950       948      1015      3714      3912      3913
 -1      1950    8    0    1
 -2       948      1014      1015      3911      3914      3912
 -1      1951    8    0    1
 -2       979       976      1016      3803      3915      3916
 -1      1952    8    0    1
 -2       952       953      1017      3722      3917      3918
 -1      1953    8    0    1
 -2       951       952      1018      3719      3919      3920
 -1      1954    8    0    1
 -2       952      1017      1018      3918      3921      3919
 -1      1955    8    0    1
 -2       954       955      1019      3728      3922      3923
 -1      1956    8    0    1
 -2       955       956      1020      3731      3924      3925
 -1      1957    8    0    1
 -2       955      1020      1019      3925      3926      3922
 -1      1958    8    0    1
 -2       956       957      1021      3734      3927      3928
 -1      1959    8    0    1
 -2       956      1021      1020      3928      3929      3924
 -1      1960    8    0    1
 -2       957       958      1022      3737      3930      3931
 -1      1961    8    0    1
 -2       957      1022      1021      3931      3932      3927
 -1      1962    8    0    1
 -2       958       959      1023      3740      3933      3934
 -1      1963    8    0    1
 -2       958      1023      1022      3934      3935      3930
 -1      1964    8    0    1
 -2       959       960      1024      3743      3936      3937
 -1      1965    8    0    1
 -2       959      1024      1023      3937      3938      3933
 -1      1966    8    0    1
 -2       960       961      1025      3746      3939      3940
 -1      1967    8    0    1
 -2       960      1025      1024      3940      3941      3936
 -1      1968    8    0    1
 -2       961       962      1026      3749      3942      3943
 -1      1969    8    0    1
 -2       961      1026      1025      3943      3944      3939
 -1      1970    8    0    1
 -2       962       963      1027      3752      3945      3946
 -1      1971    8    0    1
 -2       962      1027      1026      3946      3947      3942
 -1      1972    8    0    1
 -2       963       964      1028      3755      3948      3949
 -1      1973    8    0    1
 -2       963      1028      1027      3949      3950      3945
 -1      1974    8    0    1
 -2       964       965      1029      3758      3951      3952
 -1      1975    8    0    1
 -2       964      1029      1028      3952      3953      3948
 -1      1976    8    0    1
 -2       965       966      1030      3761      3954      3955
 -1      1977    8    0    1
 -2       965      1030      1029      3955      3956      3951
 -1      1978    8    0    1
 -2       966       967      1031      3764      3957      3958
 -1      1979    8    0    1
 -2       966      1031      1030      3958      3959      3954
 -1      1980    8    0    1
 -2       967       968      1032      3767      3960      3961
 -1      1981    8    0    1
 -2       967      1032      1031      3961      3962      3957
 -1      1982    8    0    1
 -2       970       980      1033      3806      3963      3964
 -1      1983    8    0    1
 -2       970      1033       971      3964      3965      3777
 -1      1984    8    0    1
 -2       916       973      1034      3807      3966      3967
 -1      1985    8    0    1
 -2       916      1034      1014      3967      3968      3910
 -1      1986    8    0    1
 -2       900       946       974      3797      3969      3785
 -1      1987    8    0    1
 -2       840       812       838      3547      3366      3792
 -1      1988    8    0    1
 -2       953       954      1035      3725      3970      3971
 -1      1989    8    0    1
 -2      1017       953      1035      3917      3971      3972
 -1      1990    8    0    1
 -2       954      1019      1035      3923      3973      3970
 -1      1991    8    0    1
 -2       918       917      1036      3615      3974      3975
 -1      1992    8    0    1
 -2       918      1036       987      3975      3976      3830
 -1      1993    8    0    1
 -2       910       914      1037      3604      3977      3978
 -1      1994    8    0    1
 -2       982       910      1037      3814      3978      3979
 -1      1995    8    0    1
 -2       914       981      1037      3811      3980      3977
 -1      1996    8    0    1
 -2       973       951      1038      3784      3981      3982
 -1      1997    8    0    1
 -2      1034       973      1038      3966      3982      3983
 -1      1998    8    0    1
 -2       951      1018      1038      3920      3984      3981
 -1      1999    8    0    1
 -2       974       946      1039      3969      3985      3986
 -1      2000    8    0    1
 -2       978       974      1039      3800      3986      3987
 -1      2001    8    0    1
 -2       946       945      1039      3699      3988      3985
 -1      2002    8    0    1
 -2       986       977      1040      3827      3989      3990
 -1      2003    8    0    1
 -2      1040       977      1041      3989      3991      3992
 -1      2004    8    0    1
 -2       977       982      1041      3816      3993      3991
 -1      2005    8    0    1
 -2       972       983      1042      3819      3994      3995
 -1      2006    8    0    1
 -2       907       971      1043      3776      3996      3997
 -1      2007    8    0    1
 -2       975       907      1043      3790      3997      3998
 -1      2008    8    0    1
 -2       971      1033      1043      3965      3999      3996
 -1      2009    8    0    1
 -2       945      1013      1039      3908      4000      3988
 -1      2010    8    0    1
 -2       950      1015      1044      3913      4001      4002
 -1      2011    8    0    1
 -2       950      1044       981      4002      4003      3812
 -1      2012    8    0    1
 -2      1016       976      1045      3915      4004      4005
 -1      2013    8    0    1
 -2       976       985      1045      3826      4006      4004
 -1      2014    8    0    1
 -2       911       978      1046      3802      4007      4008
 -1      2015    8    0    1
 -2       911      1046       983      4008      4009      3817
 -1      2016    8    0    1
 -2      1032       968      1042      3960      4010      4011
 -1      2017    8    0    1
 -2      1033       980      1047      3963      4012      4013
 -1      2018    8    0    1
 -2       968       969      1042      3770      4014      4010
 -1      2019    8    0    1
 -2       947       986       985      3829      4015      3824
 -1      2020    8    0    1
 -2      1047       980      1048      4012      4016      4017
 -1      2021    8    0    1
 -2       980       984      1048      3823      4018      4016
 -1      2022    8    0    1
 -2       972      1042       969      3995      4014      4019
 -1      2023    8    0    1
 -2       915       949      1049      3711      4020      4021
 -1      2024    8    0    1
 -2       908       972       969      3781      4019      4022
 -1      2025    8    0    1
 -2       984       915      1049      3821      4021      4023
 -1      2026    8    0    1
 -2       917       975      1043      3789      3998      4024
 -1      2027    8    0    1
 -2       949       979      1049      3809      4025      4020
 -1      2028    8    0    1
 -2      1036       917      1043      3974      4024      4026
 -1      2029    8    0    1
 -2       833       908       969      3583      4022      3793
 -1      2030    8    0    1
 -2      1049       979      1016      4025      3916      4027
 -1      2031    8    0    1
 -2      1042       983      1050      3994      4028      4029
 -1      2032    8    0    1
 -2      1032      1042      1050      4011      4029      4030
 -1      2033    8    0    1
 -2       983      1046      1050      4009      4031      4028
 -1      2034    8    0    1
 -2       989       988      1051      3837      4032      4033
 -1      2035    8    0    1
 -2       990       989      1052      3840      4034      4035
 -1      2036    8    0    1
 -2       989      1051      1052      4033      4036      4034
 -1      2037    8    0    1
 -2       991       990      1053      3843      4037      4038
 -1      2038    8    0    1
 -2       990      1052      1053      4035      4039      4037
 -1      2039    8    0    1
 -2       992       991      1054      3846      4040      4041
 -1      2040    8    0    1
 -2       991      1053      1054      4038      4042      4040
 -1      2041    8    0    1
 -2       993       992      1055      3849      4043      4044
 -1      2042    8    0    1
 -2       992      1054      1055      4041      4045      4043
 -1      2043    8    0    1
 -2       994       993      1056      3852      4046      4047
 -1      2044    8    0    1
 -2       993      1055      1056      4044      4048      4046
 -1      2045    8    0    1
 -2       995       994      1057      3855      4049      4050
 -1      2046    8    0    1
 -2       994      1056      1057      4047      4051      4049
 -1      2047    8    0    1
 -2       996       995      1058      3858      4052      4053
 -1      2048    8    0    1
 -2       995      1057      1058      4050      4054      4052
 -1      2049    8    0    1
 -2       997       996      1059      3861      4055      4056
 -1      2050    8    0    1
 -2       996      1058      1059      4053      4057      4055
 -1      2051    8    0    1
 -2       998       997      1060      3864      4058      4059
 -1      2052    8    0    1
 -2       997      1059      1060      4056      4060      4058
 -1      2053    8    0    1
 -2       999       998      1061      3867      4061      4062
 -1      2054    8    0    1
 -2       998      1060      1061      4059      4063      4061
 -1      2055    8    0    1
 -2      1000       999      1062      3870      4064      4065
 -1      2056    8    0    1
 -2       999      1061      1062      4062      4066      4064
 -1      2057    8    0    1
 -2      1001      1000      1063      3873      4067      4068
 -1      2058    8    0    1
 -2      1000      1062      1063      4065      4069      4067
 -1      2059    8    0    1
 -2      1002      1001      1064      3876      4070      4071
 -1      2060    8    0    1
 -2      1001      1063      1064      4068      4072      4070
 -1      2061    8    0    1
 -2      1003      1002      1065      3879      4073      4074
 -1      2062    8    0    1
 -2      1002      1064      1065      4071      4075      4073
 -1      2063    8    0    1
 -2      1004      1003      1066      3882      4076      4077
 -1      2064    8    0    1
 -2      1003      1065      1066      4074      4078      4076
 -1      2065    8    0    1
 -2      1005      1004      1067      3885      4079      4080
 -1      2066    8    0    1
 -2      1004      1066      1067      4077      4081      4079
 -1      2067    8    0    1
 -2      1006      1005      1068      3888      4082      4083
 -1      2068    8    0    1
 -2      1005      1067      1068      4080      4084      4082
 -1      2069    8    0    1
 -2      1007      1006      1069      3891      4085      4086
 -1      2070    8    0    1
 -2      1006      1068      1069      4083      4087      4085
 -1      2071    8    0    1
 -2      1008      1007      1070      3894      4088      4089
 -1      2072    8    0    1
 -2      1007      1069      1070      4086      4090      4088
 -1      2073    8    0    1
 -2      1009      1008      1071      3897      4091      4092
 -1      2074    8    0    1
 -2      1008      1070      1071      4089      4093      4091
 -1      2075    8    0    1
 -2      1010      1009      1072      3900      4094      4095
 -1      2076    8    0    1
 -2      1009      1071      1072      4092      4096      4094
 -1      2077    8    0    1
 -2      1011      1010      1073      3903      4097      4098
 -1      2078    8    0    1
 -2      1010      1072      1073      4095      4099      4097
 -1      2079    8    0    1
 -2      1012      1011      1074      3906      4100      4101
 -1      2080    8    0    1
 -2      1011      1073      1074      4098      4102      4100
 -1      2081    8    0    1
 -2      1013      1012      1075      3909      4103      4104
 -1      2082    8    0    1
 -2      1012      1074      1075      4101      4105      4103
 -1      2083    8    0    1
 -2       985       986      1076      4015      4106      4107
 -1      2084    8    0    1
 -2      1045       985      1076      4006      4107      4108
 -1      2085    8    0    1
 -2       986      1040      1076      3990      4109      4106
 -1      2086    8    0    1
 -2       987      1036      1077      3976      4110      4111
 -1      2087    8    0    1
 -2       978      1039      1078      3987      4112      4113
 -1      2088    8    0    1
 -2      1046       978      1078      4007      4113      4114
 -1      2089    8    0    1
 -2      1039      1013      1078      4000      4115      4112
 -1      2090    8    0    1
 -2      1020      1021      1079      3929      4116      4117
 -1      2091    8    0    1
 -2      1019      1020      1080      3926      4118      4119
 -1      2092    8    0    1
 -2      1020      1079      1080      4117      4120      4118
 -1      2093    8    0    1
 -2      1022      1023      1081      3935      4121      4122
 -1      2094    8    0    1
 -2      1023      1024      1082      3938      4123      4124
 -1      2095    8    0    1
 -2      1023      1082      1081      4124      4125      4121
 -1      2096    8    0    1
 -2      1024      1025      1083      3941      4126      4127
 -1      2097    8    0    1
 -2      1024      1083      1082      4127      4128      4123
 -1      2098    8    0    1
 -2      1025      1026      1084      3944      4129      4130
 -1      2099    8    0    1
 -2      1025      1084      1083      4130      4131      4126
 -1      2100    8    0    1
 -2      1026      1027      1085      3947      4132      4133
 -1      2101    8    0    1
 -2      1026      1085      1084      4133      4134      4129
 -1      2102    8    0    1
 -2      1027      1028      1086      3950      4135      4136
 -1      2103    8    0    1
 -2      1027      1086      1085      4136      4137      4132
 -1      2104    8    0    1
 -2      1028      1029      1087      3953      4138      4139
 -1      2105    8    0    1
 -2      1028      1087      1086      4139      4140      4135
 -1      2106    8    0    1
 -2      1029      1030      1088      3956      4141      4142
 -1      2107    8    0    1
 -2      1029      1088      1087      4142      4143      4138
 -1      2108    8    0    1
 -2      1030      1031      1089      3959      4144      4145
 -1      2109    8    0    1
 -2      1030      1089      1088      4145      4146      4141
 -1      2110    8    0    1
 -2      1031      1032      1090      3962      4147      4148
 -1      2111    8    0    1
 -2      1089      1031      1090      4144      4148      4149
 -1      2112    8    0    1
 -2      1032      1050      1090      4030      4150      4147
 -1      2113    8    0    1
 -2       988       987      1091      3834      4151      4152
 -1      2114    8    0    1
 -2       987      1077      1091      4111      4153      4151
 -1      2115    8    0    1
 -2      1021      1022      1092      3932      4154      4155
 -1      2116    8    0    1
 -2      1079      1021      1092      4116      4155      4156
 -1      2117    8    0    1
 -2      1022      1081      1092      4122      4157      4154
 -1      2118    8    0    1
 -2      1036      1043      1033      4026      3999      4158
 -1      2119    8    0    1
 -2      1018      1017      1093      3921      4159      4160
 -1      2120    8    0    1
 -2      1014      1034      1094      3968      4161      4162
 -1      2121    8    0    1
 -2      1015      1014      1095      3914      4163      4164
 -1      2122    8    0    1
 -2      1014      1094      1095      4162      4165      4163
 -1      2123    8    0    1
 -2      1049      1016       984      4027      4166      4023
 -1      2124    8    0    1
 -2       984      1016      1048      4166      4167      4018
 -1      2125    8    0    1
 -2      1040      1041      1096      3992      4168      4169
 -1      2126    8    0    1
 -2       982      1037      1097      3979      4170      4171
 -1      2127    8    0    1
 -2       982      1097      1041      4171      4172      3993
 -1      2128    8    0    1
 -2       988      1091      1051      4152      4173      4032
 -1      2129    8    0    1
 -2      1076      1040      1098      4109      4174      4175
 -1      2130    8    0    1
 -2      1040      1096      1098      4169      4176      4174
 -1      2131    8    0    1
 -2      1044      1015      1099      4001      4177      4178
 -1      2132    8    0    1
 -2      1015      1095      1099      4164      4179      4177
 -1      2133    8    0    1
 -2      1077      1036      1047      4110      4180      4181
 -1      2134    8    0    1
 -2      1017      1035      1100      3972      4182      4183
 -1      2135    8    0    1
 -2      1017      1100      1093      4183      4184      4159
 -1      2136    8    0    1
 -2      1094      1034      1101      4161      4185      4186
 -1      2137    8    0    1
 -2      1034      1038      1101      3983      4187      4185
 -1      2138    8    0    1
 -2      1078      1013      1075      4115      4104      4188
 -1      2139    8    0    1
 -2      1019      1080      1102      4119      4189      4190
 -1      2140    8    0    1
 -2      1019      1102      1035      4190      4191      3973
 -1      2141    8    0    1
 -2      1036      1033      1047      4158      4013      4180
 -1      2142    8    0    1
 -2       981      1044      1103      4003      4192      4193
 -1      2143    8    0    1
 -2       981      1103      1037      4193      4194      3980
 -1      2144    8    0    1
 -2      1038      1018      1104      3984      4195      4196
 -1      2145    8    0    1
 -2      1018      1093      1104      4160      4197      4195
 -1      2146    8    0    1
 -2      1047      1048      1105      4017      4198      4199
 -1      2147    8    0    1
 -2      1047      1105      1077      4199      4200      4181
 -1      2148    8    0    1
 -2      1016      1045      1048      4005      4201      4167
 -1      2149    8    0    1
 -2      1052      1051      1096      4036      4202      4203
 -1      2150    8    0    1
 -2      1045      1076      1106      4108      4204      4205
 -1      2151    8    0    1
 -2      1076      1098      1106      4175      4206      4204
 -1      2152    8    0    1
 -2      1054      1053      1107      4042      4207      4208
 -1      2153    8    0    1
 -2      1055      1054      1108      4045      4209      4210
 -1      2154    8    0    1
 -2      1054      1107      1108      4208      4211      4209
 -1      2155    8    0    1
 -2      1056      1055      1099      4048      4212      4213
 -1      2156    8    0    1
 -2      1057      1056      1095      4051      4214      4215
 -1      2157    8    0    1
 -2      1058      1057      1094      4054      4216      4217
 -1      2158    8    0    1
 -2      1059      1058      1101      4057      4218      4219
 -1      2159    8    0    1
 -2      1060      1059      1104      4060      4220      4221
 -1      2160    8    0    1
 -2      1061      1060      1093      4063      4222      4223
 -1      2161    8    0    1
 -2      1062      1061      1100      4066      4224      4225
 -1      2162    8    0    1
 -2      1063      1062      1102      4069      4226      4227
 -1      2163    8    0    1
 -2      1064      1063      1080      4072      4228      4229
 -1      2164    8    0    1
 -2      1065      1064      1079      4075      4230      4231
 -1      2165    8    0    1
 -2      1066      1065      1092      4078      4232      4233
 -1      2166    8    0    1
 -2      1067      1066      1081      4081      4234      4235
 -1      2167    8    0    1
 -2      1068      1067      1082      4084      4236      4237
 -1      2168    8    0    1
 -2      1069      1068      1083      4087      4238      4239
 -1      2169    8    0    1
 -2      1070      1069      1084      4090      4240      4241
 -1      2170    8    0    1
 -2      1071      1070      1085      4093      4242      4243
 -1      2171    8    0    1
 -2      1072      1071      1086      4096      4244      4245
 -1      2172    8    0    1
 -2      1073      1072      1087      4099      4246      4247
 -1      2173    8    0    1
 -2      1074      1073      1088      4102      4248      4249
 -1      2174    8    0    1
 -2      1075      1074      1089      4105      4250      4251
 -1      2175    8    0    1
 -2      1051      1091      1098      4173      4252      4253
 -1      2176    8    0    1
 -2      1050      1046      1109      4031      4254      4255
 -1      2177    8    0    1
 -2      1090      1050      1109      4150      4255      4256
 -1      2178    8    0    1
 -2      1046      1078      1109      4114      4257      4254
 -1      2179    8    0    1
 -2      1085      1070      1084      4242      4241      4134
 -1      2180    8    0    1
 -2      1080      1079      1064      4120      4230      4229
 -1      2181    8    0    1
 -2      1094      1057      1095      4216      4215      4165
 -1      2182    8    0    1
 -2      1082      1083      1068      4128      4238      4237
 -1      2183    8    0    1
 -2      1081      1082      1067      4125      4236      4235
 -1      2184    8    0    1
 -2      1085      1086      1071      4137      4244      4243
 -1      2185    8    0    1
 -2      1086      1087      1072      4140      4246      4245
 -1      2186    8    0    1
 -2      1087      1088      1073      4143      4248      4247
 -1      2187    8    0    1
 -2      1088      1089      1074      4146      4250      4249
 -1      2188    8    0    1
 -2      1091      1077      1105      4153      4200      4258
 -1      2189    8    0    1
 -2      1093      1060      1104      4222      4221      4197
 -1      2190    8    0    1
 -2      1084      1069      1083      4240      4239      4131
 -1      2191    8    0    1
 -2      1078      1075      1109      4188      4259      4257
 -1      2192    8    0    1
 -2      1096      1041      1110      4168      4260      4261
 -1      2193    8    0    1
 -2      1041      1097      1110      4172      4262      4260
 -1      2194    8    0    1
 -2      1081      1066      1092      4234      4233      4157
 -1      2195    8    0    1
 -2      1080      1063      1102      4228      4227      4189
 -1      2196    8    0    1
 -2      1095      1056      1099      4214      4213      4179
 -1      2197    8    0    1
 -2      1096      1051      1098      4202      4253      4176
 -1      2198    8    0    1
 -2      1052      1096      1110      4203      4261      4263
 -1      2199    8    0    1
 -2      1058      1094      1101      4217      4186      4218
 -1      2200    8    0    1
 -2      1061      1093      1100      4223      4184      4224
 -1      2201    8    0    1
 -2      1065      1079      1092      4231      4156      4232
 -1      2202    8    0    1
 -2      1100      1035      1102      4182      4191      4264
 -1      2203    8    0    1
 -2      1052      1110      1053      4263      4265      4039
 -1      2204    8    0    1
 -2      1107      1053      1110      4207      4265      4266
 -1      2205    8    0    1
 -2      1055      1108      1099      4210      4267      4212
 -1      2206    8    0    1
 -2      1062      1100      1102      4225      4264      4226
 -1      2207    8    0    1
 -2      1075      1089      1109      4251      4268      4259
 -1      2208    8    0    1
 -2      1037      1103      1097      4194      4269      4170
 -1      2209    8    0    1
 -2      1101      1038      1104      4187      4196      4270
 -1      2210    8    0    1
 -2      1044      1099      1108      4178      4267      4271
 -1      2211    8    0    1
 -2      1044      1108      1103      4271      4272      4192
 -1      2212    8    0    1
 -2      1048      1045      1106      4201      4205      4273
 -1      2213    8    0    1
 -2      1104      1059      1101      4220      4219      4270
 -1      2214    8    0    1
 -2      1107      1110      1097      4266      4262      4274
 -1      2215    8    0    1
 -2      1089      1090      1109      4149      4256      4268
 -1      2216    8    0    1
 -2      1108      1107      1103      4211      4275      4272
 -1      2217    8    0    1
 -2      1103      1107      1097      4275      4274      4269
 -1      2218    8    0    1
 -2      1098      1091      1106      4252      4276      4206
 -1      2219    8    0    1
 -2      1091      1105      1106      4258      4277      4276
 -1      2220    8    0    1
 -2      1048      1106      1105      4273      4277      4198
 -3
    1PSTEP                         1           1           1          
  100CL  101 1.000000000        4277                     0    1           1
 -4  DISP        4    1
 -5  D1          1    2    1    0
 -5  D2          1    2    2    0
 -5  D3          1    2    3    0
 -5  ALL         1    2    0    0    1ALL
 -1         1 1.13905E-02-8.43699E-04-2.33283E-14
 -1         2 1.52036E-02-6.01844E-05-2.65946E-14
 -1         3 1.43433E-02 1.58158E-04-2.83605E-14
 -1         4 1.44295E-02-2.46988E-04-3.57721E-14
 -1         5 0.00000E+00 0.00000E+00 0.00000E+00
 -1         6 0.00000E+00 0.00000E+00 0.00000E+00
 -1         7 0.00000E+00 0.00000E+00 0.00000E+00
 -1         8 0.00000E+00 0.00000E+00 0.00000E+00
 -1         9 0.00000E+00 0.00000E+00 0.00000E+00
 -1        10 0.00000E+00 0.00000E+00 0.00000E+00
 -1        11 0.00000E+00 0.00000E+00 0.00000E+00
 -1        12 0.00000E+00 0.00000E+00 0.00000E+00
 -1        13 0.00000E+00 0.00000E+00 0.00000E+00
 -1        14 0.00000E+00 0.00000E+00 0.00000E+00
 -1        15 0.00000E+00 0.00000E+00 0.00000E+00
 -1        16 0.00000E+00 0.00000E+00 0.00000E+00
 -1        17 0.00000E+00 0.00000E+00 0.00000E+00
 -1        18 0.00000E+00 0.00000E+00 0.00000E+00
 -1        19 0.00000E+00 0.00000E+00 0.00000E+00
 -1        20 0.00000E+00 0.00000E+00 0.00000E+00
 -1        21 0.00000E+00 0.00000E+00 0.00000E+00
 -1        22 0.00000E+00 0.00000E+00 0.00000E+00
 -1        23 4.11417E-04-2.60741E-04-1.21566E-17
 -1        24 7.03440E-04-4.00993E-04-6.90738E-17
 -1        25 9.73553E-04-4.98381E-04-1.67265E-16
 -1        26 1.23809E-03-5.67144E-04-3.01073E-16
 -1        27 1.50168E-03-6.16430E-04-4.67864E-16
 -1        28 1.76641E-03-6.51626E-04-6.67774E-16
 -1        29 2.03323E-03-6.76445E-04-9.00172E-16
 -1        30 2.30251E-03-6.93588E-04-1.16264E-15
 -1        31 2.57430E-03-7.05078E-04-1.45649E-15
 -1        32 2.84846E-03-7.12447E-04-1.77926E-15
 -1        33 3.12475E-03-7.16853E-04-2.12855E-15
 -1        34 3.40289E-03-7.19163E-04-2.50334E-15
 -1        35 3.68260E-03-7.20014E-04-2.90442E-15
 -1        36 3.96359E-03-7.19863E-04-3.32947E-15
 -1        37 4.24561E-03-7.19026E-04-3.77354E-15
 -1        38 4.52845E-03-7.17705E-04-4.23821E-15
 -1        39 4.81194E-03-7.16020E-04-4.71744E-15
 -1        40 5.09595E-03-7.14018E-04-5.21805E-15
 -1        41 5.38037E-03-7.11699E-04-5.73973E-15
 -1        42 5.66519E-03-7.09022E-04-6.28938E-15
 -1        43 5.95042E-03-7.05920E-04-6.86657E-15
 -1        44 6.23613E-03-7.02309E-04-7.47832E-15
 -1        45 6.52248E-03-6.98105E-04-8.13125E-15
 -1        46 6.80972E-03-6.93237E-04-8.82745E-15
 -1        47 7.09819E-03-6.87671E-04-9.55653E-15
 -1        48 7.38836E-03-6.81440E-04-1.03110E-14
 -1        49 7.68086E-03-6.74692E-04-1.10951E-14
 -1        50 7.97648E-03-6.67743E-04-1.19159E-14
 -1        51 8.27622E-03-6.61163E-04-1.27783E-14
 -1        52 8.58125E-03-6.55882E-04-1.36839E-14
 -1        53 8.89294E-03-6.53327E-04-1.46219E-14
 -1        54 9.21270E-03-6.55583E-04-1.55971E-14
 -1        55 9.54184E-03-6.65556E-04-1.65932E-14
 -1        56 9.88120E-03-6.87073E-04-1.75964E-14
 -1        57 1.02305E-02-7.24794E-04-1.86265E-14
 -1        58 1.05876E-02-7.83700E-04-1.96856E-14
 -1        59 1.09472E-02-8.67809E-04-2.07629E-14
 -1        60 1.13004E-02-9.77823E-04-2.18615E-14
 -1        61 1.16353E-02-1.10785E-03-2.29813E-14
 -1        62 1.19394E-02-1.24254E-03-2.41287E-14
 -1        63 1.22056E-02-1.35725E-03-2.53097E-14
 -1        64 1.24370E-02-1.42413E-03-2.65006E-14
 -1        65 1.26483E-02-1.42278E-03-2.77057E-14
 -1        66 1.28596E-02-1.34917E-03-2.89123E-14
 -1        67 1.30867E-02-1.21606E-03-3.01036E-14
 -1        68 1.33350E-02-1.04428E-03-3.12735E-14
 -1        69 1.36008E-02-8.52175E-04-3.24192E-14
 -1        70 1.38771E-02-6.50434E-04-3.35458E-14
 -1        71 1.41590E-02-4.43903E-04-3.46803E-14
 -1        72 4.13860E-04 2.61446E-04 3.48876E-17
 -1        73 7.03261E-04 4.03696E-04 6.28227E-17
 -1        74 9.74088E-04 5.00151E-04 8.00853E-17
 -1        75 1.23892E-03 5.68854E-04 8.08679E-17
 -1        76 1.50264E-03 6.18190E-04 6.16809E-17
 -1        77 1.76743E-03 6.53477E-04 2.09963E-17
 -1        78 2.03429E-03 6.78406E-04-4.13420E-17
 -1        79 2.30360E-03 6.95671E-04-1.29965E-16
 -1        80 2.57540E-03 7.07288E-04-2.42123E-16
 -1        81 2.84957E-03 7.14789E-04-3.81273E-16
 -1        82 3.12587E-03 7.19327E-04-5.48999E-16
 -1        83 3.40402E-03 7.21771E-04-7.43878E-16
 -1        84 3.68372E-03 7.22756E-04-9.62524E-16
 -1        85 3.96471E-03 7.22739E-04-1.20367E-15
 -1        86 4.24674E-03 7.22036E-04-1.47746E-15
 -1        87 4.52958E-03 7.20850E-04-1.78502E-15
 -1        88 4.81308E-03 7.19299E-04-2.13016E-15
 -1        89 5.09708E-03 7.17433E-04-2.51331E-15
 -1        90 5.38151E-03 7.15251E-04-2.93243E-15
 -1        91 5.66634E-03 7.12715E-04-3.38581E-15
 -1        92 5.95157E-03 7.09757E-04-3.87295E-15
 -1        93 6.23730E-03 7.06299E-04-4.39687E-15
 -1        94 6.52367E-03 7.02259E-04-4.95552E-15
 -1        95 6.81092E-03 6.97574E-04-5.54325E-15
 -1        96 7.09939E-03 6.92219E-04-6.16062E-15
 -1        97 7.38956E-03 6.86243E-04-6.81695E-15
 -1        98 7.68202E-03 6.79809E-04-7.50826E-15
 -1        99 7.97754E-03 6.73253E-04-8.22218E-15
 -1       100 8.27704E-03 6.67169E-04-8.96193E-15
 -1       101 8.58162E-03 6.62500E-04-9.73388E-15
 -1       102 8.89246E-03 6.60665E-04-1.05175E-14
 -1       103 9.21078E-03 6.63693E-04-1.13242E-14
 -1       104 9.53755E-03 6.74330E-04-1.21525E-14
 -1       105 9.87318E-03 6.96075E-04-1.29985E-14
 -1       106 1.02169E-02 7.32995E-04-1.38802E-14
 -1       107 1.05662E-02 7.89136E-04-1.47866E-14
 -1       108 1.09156E-02 8.67262E-04-1.57061E-14
 -1       109 1.12570E-02 9.66780E-04-1.66438E-14
 -1       110 1.15798E-02 1.08114E-03-1.75976E-14
 -1       111 1.18740E-02 1.19588E-03-1.85578E-14
 -1       112 1.21342E-02 1.28949E-03-1.95323E-14
 -1       113 1.23641E-02 1.33862E-03-2.05093E-14
 -1       114 1.25763E-02 1.32651E-03-2.14936E-14
 -1       115 1.27881E-02 1.24968E-03-2.24926E-14
 -1       116 1.30131E-02 1.11819E-03-2.34992E-14
 -1       117 1.32572E-02 9.49113E-04-2.45090E-14
 -1       118 1.35183E-02 7.58565E-04-2.55182E-14
 -1       119 1.37915E-02 5.57399E-04-2.65033E-14
 -1       120 1.40725E-02 3.52169E-04-2.74609E-14
 -1       121 1.45424E-02 7.31830E-05-2.87645E-14
 -1       122 1.47419E-02-1.59433E-05-2.92134E-14
 -1       123 1.49512E-02-1.08025E-04-2.96578E-14
 -1       124 1.51781E-02-1.93242E-04-3.01065E-14
 -1       125 1.54212E-02-2.54593E-04-3.05762E-14
 -1       126 1.56638E-02-2.72656E-04-3.10421E-14
 -1       127 1.58723E-02-2.34709E-04-3.14867E-14
 -1       128 1.60029E-02-1.47186E-04-3.19205E-14
 -1       129 1.60271E-02-3.25500E-05-3.23332E-14
 -1       130 1.59381E-02 6.87316E-05-3.27597E-14
 -1       131 1.57572E-02 1.28576E-04-3.32269E-14
 -1       132 1.55261E-02 1.32405E-04-3.36846E-14
 -1       133 1.52830E-02 8.76393E-05-3.41264E-14
 -1       134 1.50503E-02 1.23360E-05-3.45497E-14
 -1       135 1.48342E-02-7.55367E-05-3.49586E-14
 -1       136 1.46290E-02-1.63234E-04-3.53725E-14
 -1       137 1.51308E-02 1.65705E-04-2.63171E-14
 -1       138 1.49454E-02 3.63071E-04-2.59548E-14
 -1       139 1.46313E-02 5.55842E-04-2.54703E-14
 -1       140 1.42315E-02 7.14539E-04-2.49370E-14
 -1       141 1.37571E-02 8.37128E-04-2.43632E-14
 -1       142 1.32664E-02 9.09559E-04-2.38081E-14
 -1       143 1.27244E-02 9.36140E-04-2.32245E-14
 -1       144 1.22008E-02 9.09494E-04-2.26930E-14
 -1       145 1.17249E-02 8.37691E-04-2.22416E-14
 -1       146 1.12994E-02 7.26223E-04-2.18674E-14
 -1       147 1.09561E-02 5.90768E-04-2.15998E-14
 -1       148 1.06862E-02 4.33668E-04-2.14384E-14
 -1       149 1.04859E-02 2.47155E-04-2.13779E-14
 -1       150 1.03903E-02 5.97136E-05-2.14337E-14
 -1       151 1.03918E-02-1.35863E-04-2.16038E-14
 -1       152 1.04903E-02-3.26073E-04-2.18779E-14
 -1       153 1.07080E-02-5.25135E-04-2.23008E-14
 -1       154 1.10066E-02-6.96049E-04-2.27806E-14
 -1       155 1.18428E-02-9.56471E-04-2.39151E-14
 -1       156 1.23326E-02-1.02541E-03-2.44971E-14
 -1       157 1.28232E-02-1.04595E-03-2.50293E-14
 -1       158 1.33547E-02-1.01623E-03-2.55628E-14
 -1       159 1.38450E-02-9.38950E-04-2.60057E-14
 -1       160 1.43233E-02-8.06728E-04-2.63808E-14
 -1       161 1.46935E-02-6.48824E-04-2.66170E-14
 -1       162 1.49796E-02-4.60692E-04-2.67344E-14
 -1       163 1.51459E-02-2.67127E-04-2.67279E-14
 -1       164 2.40425E-04-1.25508E-04-1.89837E-17
 -1       165 2.25280E-04-9.46045E-05-2.05897E-17
 -1       166 2.19530E-04-7.27692E-05-2.03999E-17
 -1       167 2.16710E-04-5.50927E-05-1.94953E-17
 -1       168 2.15210E-04-3.99561E-05-1.81672E-17
 -1       169 2.14371E-04-2.59076E-05-1.65578E-17
 -1       170 2.13950E-04-1.26401E-05-1.48332E-17
 -1       171 2.13827E-04 2.72798E-07-1.32747E-17
 -1       172 2.13969E-04 1.31981E-05-1.15196E-17
 -1       173 2.14413E-04 2.65053E-05-9.39868E-18
 -1       174 2.15260E-04 4.03824E-05-6.97278E-18
 -1       175 2.16814E-04 5.59008E-05-3.86925E-18
 -1       176 2.19677E-04 7.38032E-05 2.13452E-19
 -1       177 2.25457E-04 9.60066E-05 5.66496E-18
 -1       178 2.39355E-04 1.27589E-04 1.34610E-17
 -1       179 2.97736E-04 1.85499E-04 2.27174E-17
 -1       180 4.68672E-04-2.63549E-04-4.83215E-17
 -1       181 7.66848E-04-3.82148E-04-1.26899E-16
 -1       182 1.05073E-03-4.65040E-04-2.41113E-16
 -1       183 1.32816E-03-5.23835E-04-3.88537E-16
 -1       184 1.60281E-03-5.65556E-04-5.67651E-16
 -1       185 1.87674E-03-5.94893E-04-7.77553E-16
 -1       186 2.15109E-03-6.15154E-04-1.01859E-15
 -1       187 2.42646E-03-6.28767E-04-1.28949E-15
 -1       188 2.70310E-03-6.37547E-04-1.58931E-15
 -1       189 2.98107E-03-6.42860E-04-1.91591E-15
 -1       190 3.26033E-03-6.45725E-04-2.26855E-15
 -1       191 3.54074E-03-6.46895E-04-2.64693E-15
 -1       192 3.82218E-03-6.46910E-04-3.05085E-15
 -1       193 4.10448E-03-6.46149E-04-3.47716E-15
 -1       194 4.38750E-03-6.44861E-04-3.92567E-15
 -1       195 4.67111E-03-6.43196E-04-4.39165E-15
 -1       196 4.95523E-03-6.41226E-04-4.87603E-15
 -1       197 5.23977E-03-6.38963E-04-5.38281E-15
 -1       198 5.52471E-03-6.36373E-04-5.91558E-15
 -1       199 5.81004E-03-6.33388E-04-6.47488E-15
 -1       200 6.09584E-03-6.29918E-04-7.06774E-15
 -1       201 6.38220E-03-6.25859E-04-7.69578E-15
 -1       202 6.66930E-03-6.21110E-04-8.36493E-15
 -1       203 6.95738E-03-6.15593E-04-9.07086E-15
 -1       204 7.24677E-03-6.09274E-04-9.80789E-15
 -1       205 7.53791E-03-6.02205E-04-1.05752E-14
 -1       206 7.83134E-03-5.94569E-04-1.13728E-14
 -1       207 8.12773E-03-5.86756E-04-1.22089E-14
 -1       208 8.42787E-03-5.79461E-04-1.30824E-14
 -1       209 8.73265E-03-5.73807E-04-1.39948E-14
 -1       210 9.04302E-03-5.71514E-04-1.49363E-14
 -1       211 9.35987E-03-5.75078E-04-1.59060E-14
 -1       212 9.68387E-03-5.87956E-04-1.68950E-14
 -1       213 1.00152E-02-6.14634E-04-1.78992E-14
 -1       214 1.03532E-02-6.60423E-04-1.89312E-14
 -1       215 1.06956E-02-7.30655E-04-1.99866E-14
 -1       216 1.10384E-02-8.28861E-04-2.10641E-14
 -1       217 1.13756E-02-9.53677E-04-2.21619E-14
 -1       218 1.16997E-02-1.09501E-03-2.32811E-14
 -1       219 1.20043E-02-1.23160E-03-2.44286E-14
 -1       220 1.22871E-02-1.33366E-03-2.55985E-14
 -1       221 1.25528E-02-1.37271E-03-2.67806E-14
 -1       222 1.28113E-02-1.33447E-03-2.79714E-14
 -1       223 1.30731E-02-1.22500E-03-2.91616E-14
 -1       224 1.33440E-02-1.06527E-03-3.03360E-14
 -1       225 1.36237E-02-8.78136E-04-3.14920E-14
 -1       226 1.39082E-02-6.78858E-04-3.26306E-14
 -1       227 1.41940E-02-4.73736E-04-3.37609E-14
 -1       228 6.04625E-04 3.31036E-04 4.10438E-17
 -1       229 8.93753E-04 4.32658E-04 4.81928E-17
 -1       230 1.17268E-03 5.04419E-04 3.96005E-17
 -1       231 1.44707E-03 5.55530E-04 1.17162E-17
 -1       232 1.71993E-03 5.91814E-04-3.65681E-17
 -1       233 1.99287E-03 6.17254E-04-1.07417E-16
 -1       234 2.26675E-03 6.34727E-04-2.03041E-16
 -1       235 2.54196E-03 6.46369E-04-3.23553E-16
 -1       236 2.81863E-03 6.53786E-04-4.69053E-16
 -1       237 3.09674E-03 6.58186E-04-6.42827E-16
 -1       238 3.37619E-03 6.60468E-04-8.42876E-16
 -1       239 3.65682E-03 6.61291E-04-1.06736E-15
 -1       240 3.93846E-03 6.61124E-04-1.31758E-15
 -1       241 4.22095E-03 6.60289E-04-1.59752E-15
 -1       242 4.50413E-03 6.58994E-04-1.90992E-15
 -1       243 4.78789E-03 6.57355E-04-2.25907E-15
 -1       244 5.07212E-03 6.55420E-04-2.64528E-15
 -1       245 5.35678E-03 6.53182E-04-3.06553E-15
 -1       246 5.64183E-03 6.50596E-04-3.52055E-15
 -1       247 5.92731E-03 6.47586E-04-4.01097E-15
 -1       248 6.21329E-03 6.44060E-04-4.53599E-15
 -1       249 6.49990E-03 6.39922E-04-5.09628E-15
 -1       250 6.78734E-03 6.35086E-04-5.68419E-15
 -1       251 7.07591E-03 6.29502E-04-6.30231E-15
 -1       252 7.36598E-03 6.23185E-04-6.95769E-15
 -1       253 7.65804E-03 6.16257E-04-7.64859E-15
 -1       254 7.95267E-03 6.09005E-04-8.36364E-15
 -1       255 8.25059E-03 6.01961E-04-9.10449E-15
 -1       256 8.55260E-03 5.96008E-04-9.87480E-15
 -1       257 8.85958E-03 5.92501E-04-1.06647E-14
 -1       258 9.17236E-03 5.93419E-04-1.14725E-14
 -1       259 9.49159E-03 6.01502E-04-1.23046E-14
 -1       260 9.81751E-03 6.20323E-04-1.31576E-14
 -1       261 1.01496E-02 6.54172E-04-1.40402E-14
 -1       262 1.04862E-02 7.07541E-04-1.49466E-14
 -1       263 1.08238E-02 7.83932E-04-1.58650E-14
 -1       264 1.11574E-02 8.83746E-04-1.67990E-14
 -1       265 1.14802E-02 1.00142E-03-1.77508E-14
 -1       266 1.17859E-02 1.12294E-03-1.87150E-14
 -1       267 1.20704E-02 1.22602E-03-1.96908E-14
 -1       268 1.23351E-02 1.28517E-03-2.06718E-14
 -1       269 1.25869E-02 1.28102E-03-2.16638E-14
 -1       270 1.28361E-02 1.20858E-03-2.26683E-14
 -1       271 1.30914E-02 1.07815E-03-2.36835E-14
 -1       272 1.33565E-02 9.08349E-04-2.46973E-14
 -1       273 1.36307E-02 7.16763E-04-2.57089E-14
 -1       274 1.39106E-02 5.14807E-04-2.67017E-14
 -1       275 1.41939E-02 3.08772E-04-2.76708E-14
 -1       276 1.43932E-02 2.07452E-04-2.81539E-14
 -1       277 1.45954E-02 1.20431E-04-2.85793E-14
 -1       278 1.48141E-02 3.56063E-05-2.90117E-14
 -1       279 1.50549E-02-3.92991E-05-2.94548E-14
 -1       280 1.53104E-02-9.37469E-05-2.99002E-14
 -1       281 1.55540E-02-1.17842E-04-3.03462E-14
 -1       282 1.57395E-02-1.08753E-04-3.07776E-14
 -1       283 1.58277E-02-7.49520E-05-3.12093E-14
 -1       284 1.57915E-02-3.71515E-05-3.16283E-14
 -1       285 1.56409E-02-1.62444E-05-3.20644E-14
 -1       286 1.54163E-02-2.67030E-05-3.25037E-14
 -1       287 1.51644E-02-6.93658E-05-3.29320E-14
 -1       288 1.49184E-02-1.36084E-04-3.33543E-14
 -1       289 1.46920E-02-2.16165E-04-3.37678E-14
 -1       290 1.44390E-02-3.44890E-04-3.37672E-14
 -1       291 1.52122E-02-5.27301E-06-2.69392E-14
 -1       292 1.50241E-02 1.25334E-04-2.65257E-14
 -1       293 1.46907E-02 2.83984E-04-2.60455E-14
 -1       294 1.42732E-02 5.04685E-04-2.54091E-14
 -1       295 1.37949E-02 7.13276E-04-2.47727E-14
 -1       296 1.33633E-02 8.96097E-04-2.40938E-14
 -1       297 1.29235E-02 1.00620E-03-2.34143E-14
 -1       298 1.25057E-02 1.01360E-03-2.27406E-14
 -1       299 1.20909E-02 9.10163E-04-2.21934E-14
 -1       300 1.16814E-02 7.43730E-04-2.17126E-14
 -1       301 1.12788E-02 5.55085E-04-2.13686E-14
 -1       302 1.09229E-02 3.73073E-04-2.11207E-14
 -1       303 1.06209E-02 2.03811E-04-2.09595E-14
 -1       304 1.04161E-02 7.24231E-05-2.09570E-14
 -1       305 1.03470E-02-3.62207E-05-2.10903E-14
 -1       306 1.04210E-02-1.49206E-04-2.13746E-14
 -1       307 1.06417E-02-2.73092E-04-2.17071E-14
 -1       308 1.09720E-02-4.64818E-04-2.22745E-14
 -1       309 1.13712E-02-6.66437E-04-2.28628E-14
 -1       310 1.17776E-02-8.79082E-04-2.35480E-14
 -1       311 1.22074E-02-1.04461E-03-2.42415E-14
 -1       312 1.25998E-02-1.12052E-03-2.48978E-14
 -1       313 1.30069E-02-1.10702E-03-2.55473E-14
 -1       314 1.34440E-02-9.89914E-04-2.61114E-14
 -1       315 1.38874E-02-7.95877E-04-2.66560E-14
 -1       316 1.43525E-02-5.81936E-04-2.69942E-14
 -1       317 1.47511E-02-3.80620E-04-2.72349E-14
 -1       318 1.50577E-02-2.38346E-04-2.72240E-14
 -1       319 1.52162E-02-1.17032E-04-2.71293E-14
 -1       320 4.55310E-04-1.64723E-04-6.67936E-17
 -1       321 4.74293E-04-2.12965E-04-6.62007E-17
 -1       322 4.40432E-04-9.39970E-05-6.18029E-17
 -1       323 4.37458E-04-6.48974E-05-5.77405E-17
 -1       324 4.35830E-04-3.78969E-05-5.31869E-17
 -1       325 4.35117E-04-1.20144E-05-4.82368E-17
 -1       326 4.35148E-04 1.35330E-05-4.31479E-17
 -1       327 4.35928E-04 3.94730E-05-3.75337E-17
 -1       328 4.37602E-04 6.61249E-05-3.10590E-17
 -1       329 4.40668E-04 9.53967E-05-2.32968E-17
 -1       330 4.46069E-04 1.28307E-04-1.38032E-17
 -1       331 4.55917E-04 1.67288E-04-1.92785E-18
 -1       332 4.75925E-04 2.17034E-04 1.33831E-17
 -1       333 5.32063E-04 2.69965E-04 2.56007E-17
 -1       334 8.24572E-04 3.73503E-04 2.57634E-17
 -1       335 8.63346E-04-3.57402E-04-1.85249E-16
 -1       336 1.14973E-03-4.26166E-04-3.13870E-16
 -1       337 1.43254E-03-4.75361E-04-4.73701E-16
 -1       338 1.71328E-03-5.10129E-04-6.62895E-16
 -1       339 1.99309E-03-5.34273E-04-8.82300E-16
 -1       340 2.27272E-03-5.50620E-04-1.13171E-15
 -1       341 2.55263E-03-5.61290E-04-1.40811E-15
 -1       342 2.83309E-03-5.67876E-04-1.71268E-15
 -1       343 3.11421E-03-5.71573E-04-2.04306E-15
 -1       344 3.39601E-03-5.73265E-04-2.39966E-15
 -1       345 3.67846E-03-5.73593E-04-2.78184E-15
 -1       346 3.96150E-03-5.73010E-04-3.18895E-15
 -1       347 4.24506E-03-5.71824E-04-3.61927E-15
 -1       348 4.52908E-03-5.70224E-04-4.07068E-15
 -1       349 4.81348E-03-5.68314E-04-4.54000E-15
 -1       350 5.09824E-03-5.66128E-04-5.03100E-15
 -1       351 5.38331E-03-5.63646E-04-5.54617E-15
 -1       352 5.66871E-03-5.60807E-04-6.08708E-15
 -1       353 5.95446E-03-5.57524E-04-6.66094E-15
 -1       354 6.24063E-03-5.53685E-04-7.26715E-15
 -1       355 6.52733E-03-5.49177E-04-7.91020E-15
 -1       356 6.81469E-03-5.43892E-04-8.59321E-15
 -1       357 7.10294E-03-5.37752E-04-9.31035E-15
 -1       358 7.39232E-03-5.30740E-04-1.00582E-14
 -1       359 7.68319E-03-5.22939E-04-1.08359E-14
 -1       360 7.97594E-03-5.14595E-04-1.16476E-14
 -1       361 8.27107E-03-5.06197E-04-1.24961E-14
 -1       362 8.56914E-03-4.98588E-04-1.33798E-14
 -1       363 8.87077E-03-4.93108E-04-1.42903E-14
 -1       364 9.17668E-03-4.91771E-04-1.52325E-14
 -1       365 9.48759E-03-4.97461E-04-1.62002E-14
 -1       366 9.80420E-03-5.14094E-04-1.71848E-14
 -1       367 1.01271E-02-5.46650E-04-1.81926E-14
 -1       368 1.04566E-02-6.00861E-04-1.92220E-14
 -1       369 1.07923E-02-6.82179E-04-2.02753E-14
 -1       370 1.11321E-02-7.93551E-04-2.13527E-14
 -1       371 1.14718E-02-9.31597E-04-2.24465E-14
 -1       372 1.18046E-02-1.08189E-03-2.35648E-14
 -1       373 1.21237E-02-1.21642E-03-2.47102E-14
 -1       374 1.24267E-02-1.29915E-03-2.58747E-14
 -1       375 1.27198E-02-1.30209E-03-2.70512E-14
 -1       376 1.30132E-02-1.22057E-03-2.82286E-14
 -1       377 1.33136E-02-1.07504E-03-2.94032E-14
 -1       378 1.36194E-02-8.94267E-04-3.05649E-14
 -1       379 1.39247E-02-6.99711E-04-3.17070E-14
 -1       380 1.41853E-02-5.24426E-04-3.27382E-14
 -1       381 1.11008E-03 4.47834E-04 1.05506E-17
 -1       382 1.39087E-03 5.00917E-04-2.34052E-17
 -1       383 1.66921E-03 5.38560E-04-7.74086E-17
 -1       384 1.94665E-03 5.64888E-04-1.54062E-16
 -1       385 2.22411E-03 5.82912E-04-2.54848E-16
 -1       386 2.50214E-03 5.94874E-04-3.81023E-16
 -1       387 2.78099E-03 6.02454E-04-5.31530E-16
 -1       388 3.06078E-03 6.06917E-04-7.08939E-16
 -1       389 3.34149E-03 6.09199E-04-9.13203E-16
 -1       390 3.62307E-03 6.09986E-04-1.14184E-15
 -1       391 3.90541E-03 6.09767E-04-1.39654E-15
 -1       392 4.18843E-03 6.08877E-04-1.68005E-15
 -1       393 4.47201E-03 6.07531E-04-1.99530E-15
 -1       394 4.75607E-03 6.05850E-04-2.34653E-15
 -1       395 5.04055E-03 6.03884E-04-2.73432E-15
 -1       396 5.32539E-03 6.01626E-04-3.15531E-15
 -1       397 5.61061E-03 5.99028E-04-3.61136E-15
 -1       398 5.89620E-03 5.96010E-04-4.10251E-15
 -1       399 6.18225E-03 5.92474E-04-4.62838E-15
 -1       400 6.46885E-03 5.88312E-04-5.18678E-15
 -1       401 6.75617E-03 5.83426E-04-5.77551E-15
 -1       402 7.04445E-03 5.77748E-04-6.39332E-15
 -1       403 7.33397E-03 5.71266E-04-7.04651E-15
 -1       404 7.62511E-03 5.64070E-04-7.73458E-15
 -1       405 7.91832E-03 5.56403E-04-8.45005E-15
 -1       406 8.21417E-03 5.48743E-04-9.19225E-15
 -1       407 8.51325E-03 5.41900E-04-9.96309E-15
 -1       408 8.81626E-03 5.37147E-04-1.07535E-14
 -1       409 9.12386E-03 5.36366E-04-1.15622E-14
 -1       410 9.43668E-03 5.42203E-04-1.23964E-14
 -1       411 9.75510E-03 5.58164E-04-1.32533E-14
 -1       412 1.00792E-02 5.88567E-04-1.41342E-14
 -1       413 1.04082E-02 6.38137E-04-1.50412E-14
 -1       414 1.07406E-02 7.10974E-04-1.59600E-14
 -1       415 1.10731E-02 8.08583E-04-1.68940E-14
 -1       416 1.14011E-02 9.26947E-04-1.78430E-14
 -1       417 1.17188E-02 1.05341E-03-1.88094E-14
 -1       418 1.20214E-02 1.16568E-03-1.97864E-14
 -1       419 1.23081E-02 1.23611E-03-2.07706E-14
 -1       420 1.25836E-02 1.24179E-03-2.17696E-14
 -1       421 1.28564E-02 1.17524E-03-2.27780E-14
 -1       422 1.31335E-02 1.04691E-03-2.37927E-14
 -1       423 1.34174E-02 8.77428E-04-2.48148E-14
 -1       424 1.37057E-02 6.86212E-04-2.58309E-14
 -1       425 1.39948E-02 4.85180E-04-2.68319E-14
 -1       426 1.41941E-02 3.46878E-04-2.74956E-14
 -1       427 1.46742E-02 1.58252E-04-2.83528E-14
 -1       428 1.44461E-02 2.50866E-04-2.79258E-14
 -1       429 1.43164E-02 3.00530E-04-2.77097E-14
 -1       430 1.49290E-02 7.02695E-05-2.87774E-14
 -1       431 1.51964E-02-2.66841E-06-2.92082E-14
 -1       432 1.54350E-02-4.85601E-05-2.96356E-14
 -1       433 1.55966E-02-6.56121E-05-3.00626E-14
 -1       434 1.56268E-02-6.58087E-05-3.04851E-14
 -1       435 1.55166E-02-7.37021E-05-3.09130E-14
 -1       436 1.53023E-02-1.08369E-04-3.13356E-14
 -1       437 1.50424E-02-1.71997E-04-3.17561E-14
 -1       438 1.47832E-02-2.54839E-04-3.21707E-14
 -1       439 1.45463E-02-3.45420E-04-3.25842E-14
 -1       440 1.48581E-02 1.15497E-04-2.67250E-14
 -1       441 1.52640E-02-6.49778E-05-2.76572E-14
 -1       442 1.51420E-02 9.52749E-06-2.71989E-14
 -1       443 1.43918E-02 3.20800E-04-2.59970E-14
 -1       444 1.39861E-02 5.28645E-04-2.53536E-14
 -1       445 4.45680E-04-1.26468E-04-6.49844E-17
 -1       446 1.30996E-02 9.72293E-04-2.37513E-14
 -1       447 1.27041E-02 1.05993E-03-2.29135E-14
 -1       448 1.23088E-02 9.89195E-04-2.21968E-14
 -1       449 1.19500E-02 8.31106E-04-2.16032E-14
 -1       450 1.15417E-02 6.03547E-04-2.10866E-14
 -1       451 1.11569E-02 3.98507E-04-2.08056E-14
 -1       452 1.08025E-02 2.22726E-04-2.06041E-14
 -1       453 1.05037E-02 7.77959E-05-2.03912E-14
 -1       454 1.03489E-02-5.87724E-07-2.05812E-14
 -1       455 1.03529E-02-6.90684E-05-2.07728E-14
 -1       456 1.04963E-02-1.44041E-04-2.10927E-14
 -1       457 1.08459E-02-3.08816E-04-2.17140E-14
 -1       458 1.12146E-02-4.98004E-04-2.23061E-14
 -1       459 1.16773E-02-7.58917E-04-2.31022E-14
 -1       460 1.20217E-02-9.54261E-04-2.37915E-14
 -1       461 1.24509E-02-1.13226E-03-2.47304E-14
 -1       462 1.27509E-02-1.16420E-03-2.53849E-14
 -1       463 1.31640E-02-1.07039E-03-2.62157E-14
 -1       464 1.35440E-02-8.91795E-04-2.68174E-14
 -1       465 1.40481E-02-6.20610E-04-2.73956E-14
 -1       466 1.44916E-02-4.07334E-04-2.76490E-14
 -1       467 1.49195E-02-2.28677E-04-2.77540E-14
 -1       468 1.51897E-02-1.17121E-04-2.77588E-14
 -1       469 1.34562E-02 8.09697E-04-2.44541E-14
 -1       470 1.06406E-02-1.91787E-04-2.10934E-14
 -1       471 9.31315E-04 3.46026E-04-1.38846E-17
 -1       472 6.65799E-04-7.51253E-05-1.16037E-16
 -1       473 6.69769E-04-1.15879E-04-1.24063E-16
 -1       474 6.63120E-04 1.10464E-06-9.73817E-17
 -1       475 6.63843E-04 3.87624E-05-8.67158E-17
 -1       476 6.65988E-04 7.68125E-05-7.54130E-17
 -1       477 6.70090E-04 1.17721E-04-6.19689E-17
 -1       478 6.77111E-04 1.62337E-04-4.64886E-17
 -1       479 6.89041E-04 2.12701E-04-2.75523E-17
 -1       480 1.21722E-03 4.06529E-04-4.97479E-17
 -1       481 9.76355E-04-3.28631E-04-2.44803E-16
 -1       482 1.36870E-02 6.52271E-04-2.50666E-14
 -1       483 1.26228E-03-3.83522E-04-3.85763E-16
 -1       484 1.54731E-03-4.23296E-04-5.55789E-16
 -1       485 1.83146E-03-4.51390E-04-7.54893E-16
 -1       486 2.11501E-03-4.70708E-04-9.82778E-16
 -1       487 2.39830E-03-4.83544E-04-1.23766E-15
 -1       488 2.68156E-03-4.91671E-04-1.51971E-15
 -1       489 2.96495E-03-4.96436E-04-1.82766E-15
 -1       490 3.24858E-03-4.98849E-04-2.16244E-15
 -1       491 3.53247E-03-4.99654E-04-2.52408E-15
 -1       492 3.81664E-03-4.99383E-04-2.90949E-15
 -1       493 4.10108E-03-4.98401E-04-3.31901E-15
 -1       494 4.38576E-03-4.96949E-04-3.75204E-15
 -1       495 4.67066E-03-4.95165E-04-4.20644E-15
 -1       496 4.95577E-03-4.93111E-04-4.68162E-15
 -1       497 5.24108E-03-4.90788E-04-5.18131E-15
 -1       498 5.52657E-03-4.88152E-04-5.70610E-15
 -1       499 5.81228E-03-4.85125E-04-6.26048E-15
 -1       500 6.09822E-03-4.81601E-04-6.84740E-15
 -1       501 6.38445E-03-4.77465E-04-7.46759E-15
 -1       502 6.67103E-03-4.72596E-04-8.12510E-15
 -1       503 6.95807E-03-4.66893E-04-8.82022E-15
 -1       504 7.24569E-03-4.60292E-04-9.54753E-15
 -1       505 7.53405E-03-4.52803E-04-1.03059E-14
 -1       506 7.82335E-03-4.44559E-04-1.10958E-14
 -1       507 8.11382E-03-4.35873E-04-1.19177E-14
 -1       508 8.40577E-03-4.27333E-04-1.27746E-14
 -1       509 8.69957E-03-4.19912E-04-1.36633E-14
 -1       510 8.99570E-03-4.15109E-04-1.45770E-14
 -1       511 9.29486E-03-4.15124E-04-1.55183E-14
 -1       512 9.59798E-03-4.23034E-04-1.64810E-14
 -1       513 9.90645E-03-4.42963E-04-1.74627E-14
 -1       514 1.02221E-02-4.80143E-04-1.84694E-14
 -1       515 1.05473E-02-5.40695E-04-1.94989E-14
 -1       516 1.08840E-02-6.30738E-04-2.05525E-14
 -1       517 1.12322E-02-7.53972E-04-2.16238E-14
 -1       518 1.15874E-02-9.06506E-04-2.27150E-14
 -1       519 1.19397E-02-1.06896E-03-2.38335E-14
 -1       520 1.22785E-02-1.20178E-03-2.49783E-14
 -1       521 1.26030E-02-1.25677E-03-2.61374E-14
 -1       522 1.29231E-02-1.21008E-03-2.73078E-14
 -1       523 1.32538E-02-1.07662E-03-2.84741E-14
 -1       524 1.35918E-02-8.97392E-04-2.96356E-14
 -1       525 1.39278E-02-7.05940E-04-3.07812E-14
 -1       526 1.78411E-03 4.81147E-04-1.81750E-16
 -1       527 2.06613E-03 5.02546E-04-2.81506E-16
 -1       528 2.34789E-03 5.16925E-04-4.05695E-16
 -1       529 2.62975E-03 5.26198E-04-5.54647E-16
 -1       530 2.91191E-03 5.31816E-04-7.30244E-16
 -1       531 3.19447E-03 5.34864E-04-9.30872E-16
 -1       532 3.47747E-03 5.36144E-04-1.15699E-15
 -1       533 3.76090E-03 5.36232E-04-1.40867E-15
 -1       534 4.04474E-03 5.35531E-04-1.68716E-15
 -1       535 4.32894E-03 5.34307E-04-1.99688E-15
 -1       536 4.61346E-03 5.32721E-04-2.33900E-15
 -1       537 4.89827E-03 5.30849E-04-2.71696E-15
 -1       538 5.18335E-03 5.28708E-04-3.12930E-15
 -1       539 5.46868E-03 5.26263E-04-3.57461E-15
 -1       540 5.75427E-03 5.23444E-04-4.05626E-15
 -1       541 6.04017E-03 5.20153E-04-4.57164E-15
 -1       542 6.32642E-03 5.16278E-04-5.11939E-15
 -1       543 6.61312E-03 5.11707E-04-5.69804E-15
 -1       544 6.90040E-03 5.06342E-04-6.30566E-15
 -1       545 7.18841E-03 5.00123E-04-6.94612E-15
 -1       546 7.47738E-03 4.93065E-04-7.61939E-15
 -1       547 7.76756E-03 4.85299E-04-8.32388E-15
 -1       548 8.05928E-03 4.77139E-04-9.05600E-15
 -1       549 8.35290E-03 4.69165E-04-9.81902E-15
 -1       550 8.64890E-03 4.62331E-04-1.06058E-14
 -1       551 8.94779E-03 4.58100E-04-1.14104E-14
 -1       552 9.25021E-03 4.58592E-04-1.22389E-14
 -1       553 9.55691E-03 4.66732E-04-1.30890E-14
 -1       554 9.86877E-03 4.86333E-04-1.39622E-14
 -1       555 1.01867E-02 5.22026E-04-1.48602E-14
 -1       556 1.05116E-02 5.78815E-04-1.57770E-14
 -1       557 1.08435E-02 6.60933E-04-1.67075E-14
 -1       558 1.11807E-02 7.69517E-04-1.76528E-14
 -1       559 1.15187E-02 8.98906E-04-1.86136E-14
 -1       560 1.18503E-02 1.03202E-03-1.95905E-14
 -1       561 1.21691E-02 1.13971E-03-2.05768E-14
 -1       562 1.24744E-02 1.18813E-03-2.15732E-14
 -1       563 1.27740E-02 1.15615E-03-2.25870E-14
 -1       564 1.30775E-02 1.04782E-03-2.36067E-14
 -1       565 1.33883E-02 8.87205E-04-2.46336E-14
 -1       566 1.37020E-02 7.00907E-04-2.56593E-14
 -1       567 1.40113E-02 5.05345E-04-2.66836E-14
 -1       568 1.47951E-02 1.35104E-04-2.80744E-14
 -1       569 1.50806E-02 3.58981E-05-2.84866E-14
 -1       570 1.42832E-02 3.64238E-04-2.72533E-14
 -1       571 1.45211E-02 2.50686E-04-2.76639E-14
 -1       572 1.53312E-02-3.09631E-05-2.89125E-14
 -1       573 1.54554E-02-6.09643E-05-2.93316E-14
 -1       574 1.54025E-02-8.35617E-05-2.97540E-14
 -1       575 1.51952E-02-1.35382E-04-3.01691E-14
 -1       576 1.49158E-02-2.24624E-04-3.05824E-14
 -1       577 1.46356E-02-3.37285E-04-3.09925E-14
 -1       578 1.43866E-02-4.52448E-04-3.14002E-14
 -1       579 1.52769E-02-4.31364E-05-2.80690E-14
 -1       580 1.46319E-02 1.75899E-04-2.67168E-14
 -1       581 1.50135E-03 4.50224E-04-1.04751E-16
 -1       582 1.32087E-02 9.14319E-04-2.40510E-14
 -1       583 1.50870E-02-1.42639E-04-2.83435E-14
 -1       584 1.41604E-02 3.90097E-04-2.60015E-14
 -1       585 1.52776E-02-8.32332E-05-2.83826E-14
 -1       586 1.14369E-02-5.99934E-04-2.24312E-14
 -1       587 1.02965E-02-3.04733E-05-2.00956E-14
 -1       588 6.63731E-04-3.65173E-05-1.07116E-16
 -1       589 1.24565E-02 1.05226E-03-2.22172E-14
 -1       590 1.10157E-02-3.64088E-04-2.16396E-14
 -1       591 1.28691E-02 1.04744E-03-2.32126E-14
 -1       592 1.21443E-02 9.34468E-04-2.15920E-14
 -1       593 1.17534E-02 7.23261E-04-2.08156E-14
 -1       594 1.13288E-02 4.66561E-04-2.04773E-14
 -1       595 1.09673E-02 2.74332E-04-2.01898E-14
 -1       596 1.06445E-02 1.27444E-04-1.99764E-14
 -1       597 1.03606E-02 1.53892E-05-1.99077E-14
 -1       598 1.03739E-02-8.32298E-05-2.03453E-14
 -1       599 1.33080E-02-9.93365E-04-2.70613E-14
 -1       600 1.18609E-02-8.62732E-04-2.33420E-14
 -1       601 1.22341E-02-1.07100E-03-2.42911E-14
 -1       602 1.26025E-02-1.18081E-03-2.52893E-14
 -1       603 1.29582E-02-1.14274E-03-2.62183E-14
 -1       604 1.37568E-02-7.44541E-04-2.76698E-14
 -1       605 1.42849E-02-4.60507E-04-2.82501E-14
 -1       606 1.47379E-02-2.63371E-04-2.83878E-14
 -1       607 7.12722E-04-2.51862E-04-1.42349E-16
 -1       608 7.03862E-04 2.90884E-04 5.90890E-18
 -1       609 1.50461E-02 2.62454E-05-2.74152E-14
 -1       610 1.26307E-02 1.08907E-03-2.25124E-14
 -1       611 6.76580E-04-1.60059E-04-1.31124E-16
 -1       612 6.91827E-04-2.02888E-04-1.37609E-16
 -1       613 1.04395E-02 5.82032E-05-1.94942E-14
 -1       614 1.41439E-02-5.78786E-04-3.15561E-14
 -1       615 8.99729E-04 7.41125E-05-1.41566E-16
 -1       616 8.97635E-04 2.51785E-05-1.59473E-16
 -1       617 9.11821E-04 1.78230E-04-9.99126E-17
 -1       618 9.24209E-04 2.36795E-04-7.39629E-17
 -1       619 1.04892E-03 3.13926E-04-6.44321E-17
 -1       620 1.22569E-02 1.01218E-03-2.15570E-14
 -1       621 1.30770E-02-1.11429E-03-2.70507E-14
 -1       622 1.45990E-02-3.20776E-04-2.91377E-14
 -1       623 1.38332E-03-3.37081E-04-4.56239E-16
 -1       624 1.66952E-03-3.68027E-04-6.35248E-16
 -1       625 1.95574E-03-3.89846E-04-8.42425E-16
 -1       626 2.24178E-03-4.04696E-04-1.07666E-15
 -1       627 2.52764E-03-4.14368E-04-1.33703E-15
 -1       628 2.81335E-03-4.20283E-04-1.62401E-15
 -1       629 3.09897E-03-4.23533E-04-1.93656E-15
 -1       630 3.38454E-03-4.24938E-04-2.27550E-15
 -1       631 3.67009E-03-4.25096E-04-2.64012E-15
 -1       632 3.95564E-03-4.24428E-04-3.02903E-15
 -1       633 4.24121E-03-4.23219E-04-3.44138E-15
 -1       634 4.52680E-03-4.21644E-04-3.87820E-15
 -1       635 4.81242E-03-4.19796E-04-4.33663E-15
 -1       636 5.09808E-03-4.17701E-04-4.82061E-15
 -1       637 5.38377E-03-4.15337E-04-5.32972E-15
 -1       638 5.66950E-03-4.12642E-04-5.86610E-15
 -1       639 5.95528E-03-4.09526E-04-6.43444E-15
 -1       640 6.24112E-03-4.05882E-04-7.03488E-15
 -1       641 6.52703E-03-4.01591E-04-7.66757E-15
 -1       642 6.81301E-03-3.96543E-04-8.33723E-15
 -1       643 7.09909E-03-3.90651E-04-9.04282E-15
 -1       644 7.38527E-03-3.83878E-04-9.78117E-15
 -1       645 7.67160E-03-3.76269E-04-1.05494E-14
 -1       646 7.95810E-03-3.68003E-04-1.13483E-14
 -1       647 8.24485E-03-3.59453E-04-1.21813E-14
 -1       648 8.53196E-03-3.51269E-04-1.30431E-14
 -1       649 8.81967E-03-3.44477E-04-1.39349E-14
 -1       650 9.10843E-03-3.40600E-04-1.48498E-14
 -1       651 9.39905E-03-3.41803E-04-1.57873E-14
 -1       652 9.69296E-03-3.51064E-04-1.67472E-14
 -1       653 9.99255E-03-3.72396E-04-1.77290E-14
 -1       654 1.03015E-02-4.11128E-04-1.87353E-14
 -1       655 1.06247E-02-4.74193E-04-1.97662E-14
 -1       656 1.09673E-02-5.70062E-04-2.08173E-14
 -1       657 1.13315E-02-7.06021E-04-2.18831E-14
 -1       658 1.17118E-02-8.80821E-04-2.29739E-14
 -1       659 1.20924E-02-1.06503E-03-2.40940E-14
 -1       660 1.24570E-02-1.19406E-03-2.52340E-14
 -1       661 1.35494E-02-8.90787E-04-2.87095E-14
 -1       662 1.39237E-02-6.92975E-04-2.98564E-14
 -1       663 2.19073E-03 4.37582E-04-4.19356E-16
 -1       664 1.52306E-02-1.05869E-04-2.90114E-14
 -1       665 1.90573E-03 4.20779E-04-2.96329E-16
 -1       666 2.76019E-03 4.55602E-04-7.39741E-16
 -1       667 3.04486E-03 4.59584E-04-9.38245E-16
 -1       668 3.32961E-03 4.61513E-04-1.16172E-15
 -1       669 3.61445E-03 4.62048E-04-1.41073E-15
 -1       670 3.89942E-03 4.61656E-04-1.68462E-15
 -1       671 4.18450E-03 4.60655E-04-1.98875E-15
 -1       672 4.46971E-03 4.59247E-04-2.32556E-15
 -1       673 4.75503E-03 4.57543E-04-2.69290E-15
 -1       674 5.04046E-03 4.55583E-04-3.09628E-15
 -1       675 5.32599E-03 4.53355E-04-3.53363E-15
 -1       676 5.61165E-03 4.50804E-04-4.00460E-15
 -1       677 5.89743E-03 4.47845E-04-4.51055E-15
 -1       678 6.18335E-03 4.44372E-04-5.04851E-15
 -1       679 6.46946E-03 4.40268E-04-5.61587E-15
 -1       680 6.75578E-03 4.35425E-04-6.21259E-15
 -1       681 7.04239E-03 4.29753E-04-6.84181E-15
 -1       682 7.32936E-03 4.23214E-04-7.50345E-15
 -1       683 7.61679E-03 4.15852E-04-8.19413E-15
 -1       684 7.90480E-03 4.07847E-04-8.91589E-15
 -1       685 8.19358E-03 3.99572E-04-9.66909E-15
 -1       686 8.48336E-03 3.91682E-04-1.04512E-14
 -1       687 8.77450E-03 3.85216E-04-1.12532E-14
 -1       688 9.06753E-03 3.81722E-04-1.20759E-14
 -1       689 9.36326E-03 3.83395E-04-1.29217E-14
 -1       690 9.66295E-03 3.93221E-04-1.37871E-14
 -1       691 9.96842E-03 4.15104E-04-1.46751E-14
 -1       692 1.02822E-02 4.53911E-04-1.55872E-14
 -1       693 1.06071E-02 5.15284E-04-1.65162E-14
 -1       694 1.09453E-02 6.04682E-04-1.74568E-14
 -1       695 1.12963E-02 7.24595E-04-1.84138E-14
 -1       696 1.16538E-02 8.69358E-04-1.93911E-14
 -1       697 1.20058E-02 1.01381E-03-2.03788E-14
 -1       698 1.23438E-02 1.11598E-03-2.13756E-14
 -1       699 1.26699E-02 1.13104E-03-2.23875E-14
 -1       700 1.29977E-02 1.04656E-03-2.34122E-14
 -1       701 1.33374E-02 8.89652E-04-2.44451E-14
 -1       702 1.36828E-02 7.02221E-04-2.54831E-14
 -1       703 1.39842E-02 5.30808E-04-2.63673E-14
 -1       704 1.44784E-02 2.38861E-04-2.68003E-14
 -1       705 1.53009E-02-3.95324E-05-2.84317E-14
 -1       706 1.11715E-02-4.71489E-04-2.16802E-14
 -1       707 1.47022E-02 1.56355E-04-2.74901E-14
 -1       708 1.50443E-02 3.18414E-05-2.79582E-14
 -1       709 1.42740E-02-4.84801E-04-2.95419E-14
 -1       710 1.41957E-02-5.50075E-04-3.05461E-14
 -1       711 1.49523E-02-1.87535E-04-2.90768E-14
 -1       712 1.07200E-02-2.36096E-04-2.08060E-14
 -1       713 1.27612E-02-1.19672E-03-2.60204E-14
 -1       714 1.62038E-03 3.96262E-04-1.97284E-16
 -1       715 2.47551E-03 4.48668E-04-5.66492E-16
 -1       716 1.09776E-03-2.94632E-04-3.05047E-16
 -1       717 1.11028E-02 3.62490E-04-1.97816E-14
 -1       718 1.49042E-02 7.20575E-05-2.75420E-14
 -1       719 1.33467E-03 3.61578E-04-1.20817E-16
 -1       720 9.04188E-04 1.24618E-04-1.22135E-16
 -1       721 9.03811E-04-1.22207E-04-2.03661E-16
 -1       722 1.15877E-02-7.23510E-04-2.26219E-14
 -1       723 1.30438E-02 9.95351E-04-2.36373E-14
 -1       724 1.04231E-02-1.22321E-04-2.00614E-14
 -1       725 1.02428E-02-4.74461E-05-1.95330E-14
 -1       726 1.14473E-02 5.64701E-04-2.00845E-14
 -1       727 1.07682E-02 1.97906E-04-1.95129E-14
 -1       728 1.02415E-02-1.25884E-05-1.93522E-14
 -1       729 1.34497E-02 7.86410E-04-2.46818E-14
 -1       730 1.40222E-02-5.99100E-04-2.86712E-14
 -1       731 1.53501E-02-6.85328E-05-2.87258E-14
 -1       732 1.19479E-02-9.38871E-04-2.35601E-14
 -1       733 1.19156E-02 8.48959E-04-2.07823E-14
 -1       734 1.35616E-02-8.58757E-04-2.79932E-14
 -1       735 1.38547E-02 5.55059E-04-2.56081E-14
 -1       736 8.93508E-04-2.51804E-04-2.13737E-16
 -1       737 9.11211E-04-1.75599E-04-2.15763E-16
 -1       738 8.97572E-04-2.31576E-05-1.75634E-16
 -1       739 1.41749E-02 3.92584E-04-2.63967E-14
 -1       740 1.42022E-02 4.03598E-04-2.67688E-14
 -1       741 1.08564E-02-3.36480E-04-2.08442E-14
 -1       742 1.05261E-02 1.18703E-04-1.90358E-14
 -1       743 1.02574E-02 1.93481E-05-1.89435E-14
 -1       744 8.99521E-04-7.18267E-05-1.90189E-16
 -1       745 1.44332E-02 2.80754E-04-2.71286E-14
 -1       746 1.16216E-02 7.06206E-04-2.00561E-14
 -1       747 1.16154E-03 2.43655E-04-1.42376E-16
 -1       748 9.00977E-04-2.12835E-04-2.15516E-16
 -1       749 1.22455E-03-2.55031E-04-3.64797E-16
 -1       750 1.79729E-03-3.09554E-04-7.11453E-16
 -1       751 2.08495E-03-3.25673E-04-9.25299E-16
 -1       752 2.37274E-03-3.36498E-04-1.16544E-15
 -1       753 2.66043E-03-3.43382E-04-1.43145E-15
 -1       754 2.94793E-03-3.47414E-04-1.72221E-15
 -1       755 3.23519E-03-3.49437E-04-2.03859E-15
 -1       756 3.52221E-03-3.50082E-04-2.38114E-15
 -1       757 3.80901E-03-3.49804E-04-2.74851E-15
 -1       758 4.09561E-03-3.48919E-04-3.13964E-15
 -1       759 4.38202E-03-3.47634E-04-3.55647E-15
 -1       760 4.66829E-03-3.46067E-04-3.99763E-15
 -1       761 4.95442E-03-3.44272E-04-4.46309E-15
 -1       762 5.24042E-03-3.42248E-04-4.95736E-15
 -1       763 5.52629E-03-3.39956E-04-5.47747E-15
 -1       764 5.81204E-03-3.37326E-04-6.02871E-15
 -1       765 6.09764E-03-3.34268E-04-6.61001E-15
 -1       766 6.38306E-03-3.30677E-04-7.22052E-15
 -1       767 6.66825E-03-3.26448E-04-7.86547E-15
 -1       768 6.95314E-03-3.21487E-04-8.54769E-15
 -1       769 7.23765E-03-3.15732E-04-9.26327E-15
 -1       770 7.52167E-03-3.09175E-04-1.00115E-14
 -1       771 7.80509E-03-3.01898E-04-1.07886E-14
 -1       772 8.08777E-03-2.94112E-04-1.15962E-14
 -1       773 8.36961E-03-2.86214E-04-1.24333E-14
 -1       774 8.65056E-03-2.78850E-04-1.33008E-14
 -1       775 8.93073E-03-2.72980E-04-1.41942E-14
 -1       776 9.21049E-03-2.69968E-04-1.51111E-14
 -1       777 9.49079E-03-2.71677E-04-1.60463E-14
 -1       778 9.77346E-03-2.80647E-04-1.70054E-14
 -1       779 1.00618E-02-3.00454E-04-1.79876E-14
 -1       780 1.03613E-02-3.36435E-04-1.89959E-14
 -1       781 1.06798E-02-3.97164E-04-2.00253E-14
 -1       782 1.10276E-02-4.96401E-04-2.10703E-14
 -1       783 1.39617E-02-6.51656E-04-2.92644E-14
 -1       784 3.18001E-03 3.86047E-04-1.15614E-15
 -1       785 2.89344E-03 3.83409E-04-9.35931E-16
 -1       786 3.75268E-03 3.87124E-04-1.67331E-15
 -1       787 4.03884E-03 3.86440E-04-1.97215E-15
 -1       788 4.32490E-03 3.85298E-04-2.30251E-15
 -1       789 4.61088E-03 3.83842E-04-2.66428E-15
 -1       790 4.89680E-03 3.82138E-04-3.05800E-15
 -1       791 5.18267E-03 3.80197E-04-3.48552E-15
 -1       792 5.46848E-03 3.77988E-04-3.94892E-15
 -1       793 5.75425E-03 3.75441E-04-4.44223E-15
 -1       794 6.03996E-03 3.72466E-04-4.96990E-15
 -1       795 6.32561E-03 3.68956E-04-5.52989E-15
 -1       796 6.61118E-03 3.64803E-04-6.11731E-15
 -1       797 6.89664E-03 3.59907E-04-6.73490E-15
 -1       798 7.18196E-03 3.54197E-04-7.38469E-15
 -1       799 7.46713E-03 3.47659E-04-8.06585E-15
 -1       800 7.75210E-03 3.40367E-04-8.77517E-15
 -1       801 8.03688E-03 3.32529E-04-9.51466E-15
 -1       802 8.32149E-03 3.24549E-04-1.02893E-14
 -1       803 8.60607E-03 3.17093E-04-1.10884E-14
 -1       804 8.89091E-03 3.11174E-04-1.19077E-14
 -1       805 9.17661E-03 3.08261E-04-1.27481E-14
 -1       806 9.46429E-03 3.10394E-04-1.36101E-14
 -1       807 9.75581E-03 3.20358E-04-1.44887E-14
 -1       808 1.00542E-02 3.41940E-04-1.53934E-14
 -1       809 1.03638E-02 3.80346E-04-1.63202E-14
 -1       810 1.06903E-02 4.42689E-04-1.72592E-14
 -1       811 1.10384E-02 5.37960E-04-1.82134E-14
 -1       812 1.14096E-02 6.73467E-04-1.91857E-14
 -1       813 1.36559E-02 6.91810E-04-2.53001E-14
 -1       814 1.39302E-02 5.42893E-04-2.60312E-14
 -1       815 1.01209E-02-2.46377E-05-1.86450E-14
 -1       816 1.08467E-02 2.92300E-04-1.89261E-14
 -1       817 1.05095E-02-2.00797E-04-1.99265E-14
 -1       818 1.74569E-03 3.39144E-04-3.00731E-16
 -1       819 3.46641E-03 3.87113E-04-1.40263E-15
 -1       820 2.03273E-03 3.57736E-04-4.22924E-16
 -1       821 1.51021E-03-2.86561E-04-5.24713E-16
 -1       822 1.27688E-02 1.08458E-03-2.28390E-14
 -1       823 1.02201E-02-8.16383E-05-1.91709E-14
 -1       824 1.11485E-02 4.53573E-04-1.92255E-14
 -1       825 1.24624E-03 3.00858E-04-1.34255E-16
 -1       826 1.13822E-03 5.90588E-05-2.31809E-16
 -1       827 1.13684E-03 1.19518E-06-2.55987E-16
 -1       828 1.14978E-03 1.79124E-04-1.75376E-16
 -1       829 1.32988E-02 8.86957E-04-2.43273E-14
 -1       830 1.14922E-03-1.76137E-04-3.15804E-16
 -1       831 2.31978E-03 3.70341E-04-5.69165E-16
 -1       832 2.60670E-03 3.78490E-04-7.40083E-16
 -1       833 1.05930E-02 2.04161E-04-1.84555E-14
 -1       834 1.49560E-03 3.24149E-04-2.08065E-16
 -1       835 1.02951E-02 6.54132E-05-1.84894E-14
 -1       836 1.14200E-03-1.15204E-04-2.97515E-16
 -1       837 1.14234E-03 1.17943E-04-2.05155E-16
 -1       838 1.12901E-02 5.65733E-04-1.92064E-14
 -1       839 1.92951E-03-2.47833E-04-7.84542E-16
 -1       840 1.08794E-02 3.89075E-04-1.83739E-14
 -1       841 1.64157E-03-2.31795E-04-5.91056E-16
 -1       842 2.21829E-03-2.58961E-04-1.00403E-15
 -1       843 2.50736E-03-2.66299E-04-1.24944E-15
 -1       844 2.79637E-03-2.70821E-04-1.51964E-15
 -1       845 3.08513E-03-2.73318E-04-1.81429E-15
 -1       846 3.37354E-03-2.74399E-04-2.13438E-15
 -1       847 3.66158E-03-2.74518E-04-2.47920E-15
 -1       848 3.94924E-03-2.73998E-04-2.84948E-15
 -1       849 4.23656E-03-2.73058E-04-3.24609E-15
 -1       850 4.52355E-03-2.71834E-04-3.66764E-15
 -1       851 4.81024E-03-2.70398E-04-4.11445E-15
 -1       852 5.09665E-03-2.68772E-04-4.58924E-15
 -1       853 5.38278E-03-2.66939E-04-5.09393E-15
 -1       854 5.66864E-03-2.64851E-04-5.62767E-15
 -1       855 5.95417E-03-2.62441E-04-6.19095E-15
 -1       856 6.23933E-03-2.59625E-04-6.78402E-15
 -1       857 6.52404E-03-2.56314E-04-7.40591E-15
 -1       858 6.80816E-03-2.52423E-04-8.06303E-15
 -1       859 7.09155E-03-2.47883E-04-8.75421E-15
 -1       860 7.37402E-03-2.42659E-04-9.47912E-15
 -1       861 7.65531E-03-2.36774E-04-1.02362E-14
 -1       862 7.93517E-03-2.30331E-04-1.10230E-14
 -1       863 8.21330E-03-2.23553E-04-1.18367E-14
 -1       864 8.48940E-03-2.16814E-04-1.26798E-14
 -1       865 8.76322E-03-2.10672E-04-1.35509E-14
 -1       866 9.03467E-03-2.05906E-04-1.44475E-14
 -1       867 9.30391E-03-2.03541E-04-1.53629E-14
 -1       868 9.57168E-03-2.04898E-04-1.62986E-14
 -1       869 9.83964E-03-2.11756E-04-1.72599E-14
 -1       870 1.01112E-02-2.27030E-04-1.82427E-14
 -1       871 1.03930E-02-2.55366E-04-1.92489E-14
 -1       872 1.06171E-02-2.84664E-04-2.00410E-14
 -1       873 4.46600E-03 3.09643E-04-2.62661E-15
 -1       874 4.17924E-03 3.10782E-04-2.27122E-15
 -1       875 3.89223E-03 3.11590E-04-1.94764E-15
 -1       876 4.75252E-03 3.08263E-04-3.01344E-15
 -1       877 5.03882E-03 3.06676E-04-3.43158E-15
 -1       878 5.32491E-03 3.04871E-04-3.88445E-15
 -1       879 5.61079E-03 3.02802E-04-4.37047E-15
 -1       880 5.89644E-03 3.00399E-04-4.88777E-15
 -1       881 6.18183E-03 2.97573E-04-5.43871E-15
 -1       882 6.46689E-03 2.94228E-04-6.01726E-15
 -1       883 6.75155E-03 2.90267E-04-6.62408E-15
 -1       884 7.03569E-03 2.85609E-04-7.26265E-15
 -1       885 7.31920E-03 2.80205E-04-7.93267E-15
 -1       886 7.60192E-03 2.74060E-04-8.63295E-15
 -1       887 7.88370E-03 2.67264E-04-9.36110E-15
 -1       888 8.16437E-03 2.60030E-04-1.01212E-14
 -1       889 8.44385E-03 2.52735E-04-1.09137E-14
 -1       890 8.72212E-03 2.45969E-04-1.17304E-14
 -1       891 8.99941E-03 2.40591E-04-1.25681E-14
 -1       892 9.27632E-03 2.37798E-04-1.34252E-14
 -1       893 9.55411E-03 2.39233E-04-1.43002E-14
 -1       894 9.83511E-03 2.47201E-04-1.51981E-14
 -1       895 1.01232E-02 2.65177E-04-1.61190E-14
 -1       896 1.04248E-02 2.99076E-04-1.70547E-14
 -1       897 1.87588E-03 2.78813E-04-4.16415E-16
 -1       898 1.13806E-03-5.65209E-05-2.77766E-16
 -1       899 3.02938E-03 3.09882E-04-1.14267E-15
 -1       900 1.02022E-02-1.43343E-04-1.88001E-14
 -1       901 1.00982E-02 2.05506E-05-1.80686E-14
 -1       902 1.39416E-03-2.05811E-04-4.42798E-16
 -1       903 1.00260E-02-5.71461E-05-1.81874E-14
 -1       904 1.40125E-03 2.37085E-04-2.33757E-16
 -1       905 2.16418E-03 2.92129E-04-5.61363E-16
 -1       906 2.74116E-03 3.06641E-04-9.24614E-16
 -1       907 1.38555E-03-1.37405E-04-4.18909E-16
 -1       908 1.03325E-02 1.34891E-04-1.79165E-14
 -1       909 1.44758E-03 2.79832E-04-2.22322E-16
 -1       910 3.31731E-03 3.11459E-04-1.38545E-15
 -1       911 9.94487E-03-1.25795E-05-1.76204E-14
 -1       912 1.66125E-03 2.82073E-04-3.10776E-16
 -1       913 1.38098E-03 3.41137E-05-3.46348E-16
 -1       914 3.60493E-03 3.11902E-04-1.65313E-15
 -1       915 1.38414E-03 9.99938E-05-3.12396E-16
 -1       916 4.60777E-03 2.33880E-04-2.96234E-15
 -1       917 1.77673E-03-1.72737E-04-6.54862E-16
 -1       918 2.06551E-03-1.82900E-04-8.53823E-16
 -1       919 2.35521E-03-1.89831E-04-1.07811E-15
 -1       920 2.64520E-03-1.94287E-04-1.32756E-15
 -1       921 2.93511E-03-1.96917E-04-1.60128E-15
 -1       922 3.22469E-03-1.98243E-04-1.89921E-15
 -1       923 3.51384E-03-1.98667E-04-2.22204E-15
 -1       924 3.80251E-03-1.98484E-04-2.57034E-15
 -1       925 4.09069E-03-1.97900E-04-2.94526E-15
 -1       926 4.37842E-03-1.97049E-04-3.34840E-15
 -1       927 4.66571E-03-1.96011E-04-3.77543E-15
 -1       928 4.95260E-03-1.94822E-04-4.22975E-15
 -1       929 5.23908E-03-1.93482E-04-4.71434E-15
 -1       930 5.52516E-03-1.91966E-04-5.23119E-15
 -1       931 5.81080E-03-1.90231E-04-5.77696E-15
 -1       932 6.09593E-03-1.88219E-04-6.35111E-15
 -1       933 6.38045E-03-1.85863E-04-6.95419E-15
 -1       934 6.66421E-03-1.83096E-04-7.58927E-15
 -1       935 6.94703E-03-1.79860E-04-8.25677E-15
 -1       936 7.22865E-03-1.76115E-04-8.95760E-15
 -1       937 7.50877E-03-1.71853E-04-9.69235E-15
 -1       938 7.78702E-03-1.67117E-04-1.04567E-14
 -1       939 8.06299E-03-1.62020E-04-1.12497E-14
 -1       940 8.33620E-03-1.56766E-04-1.20703E-14
 -1       941 8.60616E-03-1.51659E-04-1.29211E-14
 -1       942 8.87234E-03-1.47117E-04-1.37970E-14
 -1       943 9.13428E-03-1.43658E-04-1.46922E-14
 -1       944 9.39163E-03-1.41880E-04-1.56074E-14
 -1       945 9.64428E-03-1.42452E-04-1.65461E-14
 -1       946 9.89278E-03-1.46176E-04-1.75081E-14
 -1       947 2.45270E-03 3.01029E-04-7.30691E-16
 -1       948 4.32060E-03 2.34887E-04-2.58233E-15
 -1       949 1.39070E-03 1.67329E-04-2.75106E-16
 -1       950 4.03304E-03 2.35667E-04-2.23295E-15
 -1       951 5.18105E-03 2.31342E-04-3.81543E-15
 -1       952 5.46716E-03 2.29795E-04-4.29148E-15
 -1       953 5.75291E-03 2.28008E-04-4.79979E-15
 -1       954 6.03824E-03 2.25915E-04-5.34075E-15
 -1       955 6.32306E-03 2.23440E-04-5.91119E-15
 -1       956 6.60728E-03 2.20502E-04-6.50784E-15
 -1       957 6.89072E-03 2.17024E-04-7.13574E-15
 -1       958 7.17321E-03 2.12946E-04-7.79559E-15
 -1       959 7.45451E-03 2.08237E-04-8.48833E-15
 -1       960 7.73434E-03 2.02914E-04-9.20831E-15
 -1       961 8.01241E-03 1.97064E-04-9.95481E-15
 -1       962 8.28841E-03 1.90865E-04-1.07355E-14
 -1       963 8.56207E-03 1.84613E-04-1.15456E-14
 -1       964 8.83320E-03 1.78738E-04-1.23783E-14
 -1       965 9.10180E-03 1.73825E-04-1.32327E-14
 -1       966 9.36823E-03 1.70646E-04-1.41052E-14
 -1       967 9.63347E-03 1.70248E-04-1.49976E-14
 -1       968 9.89957E-03 1.74112E-04-1.59124E-14
 -1       969 1.01708E-02 1.85370E-04-1.68485E-14
 -1       970 1.38089E-03-3.12586E-05-3.76909E-16
 -1       971 1.38217E-03-8.39543E-05-3.98671E-16
 -1       972 1.00960E-02 7.28245E-05-1.75038E-14
 -1       973 4.89458E-03 2.32696E-04-3.37188E-15
 -1       974 9.94671E-03-1.03430E-04-1.77776E-14
 -1       975 1.58047E-03-1.55606E-04-5.30368E-16
 -1       976 2.01011E-03 2.15257E-04-5.44659E-16
 -1       977 2.87856E-03 2.33351E-04-1.12027E-15
 -1       978 9.82616E-03-5.17258E-05-1.72197E-14
 -1       979 1.72169E-03 2.02502E-04-4.01450E-16
 -1       980 1.62747E-03 1.56456E-06-4.85397E-16
 -1       981 3.74506E-03 2.36117E-04-1.91435E-15
 -1       982 3.16780E-03 2.35268E-04-1.36029E-15
 -1       983 9.89814E-03 3.01371E-05-1.70626E-14
 -1       984 1.62922E-03 7.32770E-05-4.44631E-16
 -1       985 2.29942E-03 2.24060E-04-7.12483E-16
 -1       986 2.58903E-03 2.29827E-04-9.04814E-16
 -1       987 2.20489E-03-1.14911E-04-9.18539E-16
 -1       988 2.49529E-03-1.18490E-04-1.14690E-15
 -1       989 2.78589E-03-1.20706E-04-1.39948E-15
 -1       990 3.07631E-03-1.21929E-04-1.67601E-15
 -1       991 3.36633E-03-1.22452E-04-1.97728E-15
 -1       992 3.65584E-03-1.22493E-04-2.30297E-15
 -1       993 3.94479E-03-1.22214E-04-2.65574E-15
 -1       994 4.23320E-03-1.21723E-04-3.03721E-15
 -1       995 4.52107E-03-1.21090E-04-3.44642E-15
 -1       996 4.80843E-03-1.20349E-04-3.88023E-15
 -1       997 5.09530E-03-1.19512E-04-4.34327E-15
 -1       998 5.38168E-03-1.18572E-04-4.83953E-15
 -1       999 5.66754E-03-1.17507E-04-5.36646E-15
 -1      1000 5.95282E-03-1.16283E-04-5.92241E-15
 -1      1001 6.23741E-03-1.14861E-04-6.50711E-15
 -1      1002 6.52117E-03-1.13201E-04-7.12142E-15
 -1      1003 6.80389E-03-1.11261E-04-7.76750E-15
 -1      1004 7.08530E-03-1.09013E-04-8.44489E-15
 -1      1005 7.36508E-03-1.06444E-04-9.15650E-15
 -1      1006 7.64282E-03-1.03569E-04-9.89878E-15
 -1      1007 7.91804E-03-1.00441E-04-1.06709E-14
 -1      1008 8.19018E-03-9.71631E-05-1.14714E-14
 -1      1009 8.45861E-03-9.38964E-05-1.22994E-14
 -1      1010 8.72259E-03-9.08583E-05-1.31571E-14
 -1      1011 8.98127E-03-8.83093E-05-1.40320E-14
 -1      1012 9.23367E-03-8.65281E-05-1.49267E-14
 -1      1013 9.47848E-03-8.57304E-05-1.58440E-14
 -1      1014 4.46279E-03 1.58956E-04-2.90406E-15
 -1      1015 4.17497E-03 1.59572E-04-2.53038E-15
 -1      1016 1.85862E-03 1.41108E-04-5.20024E-16
 -1      1017 5.60942E-03 1.55157E-04-4.70670E-15
 -1      1018 5.32346E-03 1.56315E-04-4.20771E-15
 -1      1019 6.17970E-03 1.52208E-04-5.79802E-15
 -1      1020 6.46380E-03 1.50309E-04-6.38703E-15
 -1      1021 6.74700E-03 1.48048E-04-7.00512E-15
 -1      1022 7.02907E-03 1.45372E-04-7.65485E-15
 -1      1023 7.30972E-03 1.42239E-04-8.33944E-15
 -1      1024 7.58861E-03 1.38633E-04-9.05132E-15
 -1      1025 7.86537E-03 1.34568E-04-9.78795E-15
 -1      1026 8.13953E-03 1.30103E-04-1.05548E-14
 -1      1027 8.41064E-03 1.25354E-04-1.13562E-14
 -1      1028 8.67818E-03 1.20492E-04-1.21855E-14
 -1      1029 8.94169E-03 1.15740E-04-1.30342E-14
 -1      1030 9.20072E-03 1.11350E-04-1.39031E-14
 -1      1031 9.45499E-03 1.07617E-04-1.47910E-14
 -1      1032 9.70447E-03 1.04943E-04-1.57001E-14
 -1      1033 1.62758E-03-5.58811E-05-5.14918E-16
 -1      1034 4.75014E-03 1.58198E-04-3.30741E-15
 -1      1035 5.89486E-03 1.53805E-04-5.23607E-15
 -1      1036 1.91529E-03-1.09547E-04-7.14679E-16
 -1      1037 3.45665E-03 2.36069E-04-1.62451E-15
 -1      1038 5.03702E-03 1.57320E-04-3.74119E-15
 -1      1039 9.73552E-03-9.44459E-05-1.68840E-14
 -1      1040 2.72835E-03 1.56949E-04-1.08895E-15
 -1      1041 3.01857E-03 1.58863E-04-1.32618E-15
 -1      1042 9.90019E-03 9.41208E-05-1.65213E-14
 -1      1043 1.60316E-03-1.05896E-04-5.23666E-16
 -1      1044 3.88665E-03 1.59998E-04-2.18728E-15
 -1      1045 2.14789E-03 1.48599E-04-6.85195E-16
 -1      1046 9.74053E-03-1.02051E-05-1.66688E-14
 -1      1047 1.87647E-03-2.92181E-05-6.45490E-16
 -1      1048 1.87689E-03 4.71921E-05-5.97331E-16
 -1      1049 1.63441E-03 1.45779E-04-3.99867E-16
 -1      1050 9.71077E-03 4.32658E-05-1.61825E-14
 -1      1051 2.63815E-03-4.52562E-05-1.20916E-15
 -1      1052 2.92903E-03-4.58718E-05-1.46416E-15
 -1      1053 3.21962E-03-4.61582E-05-1.74285E-15
 -1      1054 3.50972E-03-4.62195E-05-2.04792E-15
 -1      1055 3.79924E-03-4.61297E-05-2.37738E-15
 -1      1056 4.08819E-03-4.59324E-05-2.73567E-15
 -1      1057 4.37654E-03-4.56702E-05-3.12345E-15
 -1      1058 4.66432E-03-4.53587E-05-3.53983E-15
 -1      1059 4.95157E-03-4.50083E-05-3.98224E-15
 -1      1060 5.23827E-03-4.46198E-05-4.45480E-15
 -1      1061 5.52442E-03-4.41876E-05-4.96117E-15
 -1      1062 5.80996E-03-4.37011E-05-5.49684E-15
 -1      1063 6.09481E-03-4.31472E-05-6.06374E-15
 -1      1064 6.37883E-03-4.25112E-05-6.65958E-15
 -1      1065 6.66182E-03-4.17797E-05-7.28351E-15
 -1      1066 6.94353E-03-4.09429E-05-7.93984E-15
 -1      1067 7.22363E-03-3.99980E-05-8.62942E-15
 -1      1068 7.50174E-03-3.89544E-05-9.34871E-15
 -1      1069 7.77736E-03-3.78378E-05-1.00981E-14
 -1      1070 8.04994E-03-3.66968E-05-1.08739E-14
 -1      1071 8.31881E-03-3.56072E-05-1.16831E-14
 -1      1072 8.58320E-03-3.46749E-05-1.25220E-14
 -1      1073 8.84219E-03-3.40342E-05-1.33822E-14
 -1      1074 9.09458E-03-3.38372E-05-1.42569E-14
 -1      1075 9.33869E-03-3.42558E-05-1.51539E-14
 -1      1076 2.43799E-03 1.53691E-04-8.75676E-16
 -1      1077 2.05706E-03-4.24988E-05-7.69553E-16
 -1      1078 9.60691E-03-4.61170E-05-1.62556E-14
 -1      1079 6.60431E-03 7.83626E-05-6.86928E-15
 -1      1080 6.32099E-03 7.94518E-05-6.26086E-15
 -1      1081 7.16712E-03 7.55020E-05-8.18125E-15
 -1      1082 7.44596E-03 7.36738E-05-8.88772E-15
 -1      1083 7.72254E-03 7.15568E-05-9.61745E-15
 -1      1084 7.99635E-03 6.91494E-05-1.03743E-14
 -1      1085 8.26681E-03 6.64667E-05-1.11646E-14
 -1      1086 8.53327E-03 6.35392E-05-1.19857E-14
 -1      1087 8.79497E-03 6.04073E-05-1.28309E-14
 -1      1088 9.05105E-03 5.71078E-05-1.36945E-14
 -1      1089 9.30030E-03 5.36033E-05-1.45783E-14
 -1      1090 9.50956E-03 4.86363E-05-1.53708E-14
 -1      1091 2.34732E-03-4.41837E-05-9.77137E-16
 -1      1092 6.88645E-03 7.70565E-05-7.50848E-15
 -1      1093 5.46601E-03 8.17535E-05-4.60842E-15
 -1      1094 4.60567E-03 8.31767E-05-3.23624E-15
 -1      1095 4.31784E-03 8.35139E-05-2.83896E-15
 -1      1096 2.87030E-03 8.26832E-05-1.28478E-15
 -1      1097 3.30842E-03 1.59823E-04-1.58745E-15
 -1      1098 2.57952E-03 8.12968E-05-1.04968E-15
 -1      1099 4.02944E-03 8.37601E-05-2.47216E-15
 -1      1100 5.75170E-03 8.11150E-05-5.12767E-15
 -1      1101 4.89298E-03 8.27707E-05-3.66127E-15
 -1      1102 6.03673E-03 8.03580E-05-5.67920E-15
 -1      1103 3.59780E-03 1.60129E-04-1.87461E-15
 -1      1104 5.17976E-03 8.22992E-05-4.11900E-15
 -1      1105 2.05697E-03 3.66487E-05-7.15414E-16
 -1      1106 2.28884E-03 7.90585E-05-8.38183E-16
 -1      1107 3.36460E-03 3.00825E-05-1.80395E-15
 -1      1108 3.65448E-03 3.01809E-05-2.11209E-15
 -1      1109 9.54813E-03 1.56875E-07-1.58121E-14
 -1      1110 3.16086E-03 8.34628E-05-1.54286E-15
 -1      1111 0.00000E+00 0.00000E+00 0.00000E+00
 -1      1112 0.00000E+00 0.00000E+00 0.00000E+00
 -1      1113 0.00000E+00 0.00000E+00 0.00000E+00
 -1      1114 0.00000E+00 0.00000E+00 0.00000E+00
 -1      1115 0.00000E+00 0.00000E+00 0.00000E+00
 -1      1116 0.00000E+00 0.00000E+00 0.00000E+00
 -1      1117 0.00000E+00 0.00000E+00 0.00000E+00
 -1      1118 0.00000E+00 0.00000E+00 0.00000E+00
 -1      1119 0.00000E+00 0.00000E+00 0.00000E+00
 -1      1120 0.00000E+00 0.00000E+00 0.00000E+00
 -1      1121 0.00000E+00 0.00000E+00 0.00000E+00
 -1      1122 0.00000E+00 0.00000E+00 0.00000E+00
 -1      1123 0.00000E+00 0.00000E+00 0.00000E+00
 -1      1124 0.00000E+00 0.00000E+00 0.00000E+00
 -1      1125 0.00000E+00 0.00000E+00 0.00000E+00
 -1      1126 0.00000E+00 0.00000E+00 0.00000E+00
 -1      1127 0.00000E+00 0.00000E+00 0.00000E+00
 -1      1128 2.11680E-04-1.48332E-04-6.76271E-18
 -1      1129 5.51681E-04-3.37511E-04-4.66342E-17
 -1      1130 8.33538E-04-4.59004E-04-1.22745E-16
 -1      1131 1.10316E-03-5.40692E-04-2.38890E-16
 -1      1132 1.36862E-03-5.97955E-04-3.89323E-16
 -1      1133 1.63349E-03-6.38693E-04-5.72635E-16
 -1      1134 1.89962E-03-6.67555E-04-7.88906E-16
 -1      1135 2.16785E-03-6.87664E-04-1.03600E-15
 -1      1136 2.43848E-03-7.01312E-04-1.31354E-15
 -1      1137 2.71150E-03-7.10227E-04-1.62115E-15
 -1      1138 2.98674E-03-7.15721E-04-1.95707E-15
 -1      1139 3.26396E-03-7.18781E-04-2.31960E-15
 -1      1140 3.54288E-03-7.20140E-04-2.70671E-15
 -1      1141 3.82321E-03-7.20330E-04-3.12033E-15
 -1      1142 4.10470E-03-7.19725E-04-3.55515E-15
 -1      1143 4.38712E-03-7.18573E-04-4.00878E-15
 -1      1144 4.67028E-03-7.17027E-04-4.48108E-15
 -1      1145 4.95402E-03-7.15164E-04-4.97069E-15
 -1      1146 5.23823E-03-7.13001E-04-5.48109E-15
 -1      1147 5.52286E-03-7.10513E-04-6.01944E-15
 -1      1148 5.80789E-03-7.07640E-04-6.58532E-15
 -1      1149 6.09338E-03-7.04301E-04-7.17864E-15
 -1      1150 6.37944E-03-7.00406E-04-7.81012E-15
 -1      1151 6.66627E-03-6.95868E-04-8.48506E-15
 -1      1152 6.95418E-03-6.90623E-04-9.19771E-15
 -1      1153 7.24356E-03-6.84656E-04-9.93927E-15
 -1      1154 7.53497E-03-6.78037E-04-1.07067E-14
 -1      1155 7.82912E-03-6.70970E-04-1.15087E-14
 -1      1156 8.12689E-03-6.63864E-04-1.23541E-14
 -1      1157 8.42938E-03-6.57428E-04-1.32364E-14
 -1      1158 8.73782E-03-6.52794E-04-1.41569E-14
 -1      1159 9.05358E-03-6.51676E-04-1.51135E-14
 -1      1160 9.37801E-03-6.56551E-04-1.60962E-14
 -1      1161 9.71213E-03-6.70828E-04-1.70975E-14
 -1      1162 1.00562E-02-6.98921E-04-1.81135E-14
 -1      1163 1.04090E-02-7.46023E-04-1.91590E-14
 -1      1164 1.07669E-02-8.17281E-04-2.02252E-14
 -1      1165 1.11231E-02-9.15929E-04-2.13157E-14
 -1      1166 1.14671E-02-1.04019E-03-2.24242E-14
 -1      1167 1.17869E-02-1.17957E-03-2.35551E-14
 -1      1168 1.20723E-02-1.31292E-03-2.47189E-14
 -1      1169 1.23210E-02-1.41141E-03-2.59073E-14
 -1      1170 1.25419E-02-1.44812E-03-2.71074E-14
 -1      1171 1.27528E-02-1.40959E-03-2.83138E-14
 -1      1172 1.29720E-02-1.30126E-03-2.95104E-14
 -1      1173 1.32102E-02-1.14258E-03-3.06867E-14
 -1      1174 1.34679E-02-9.55476E-04-3.18448E-14
 -1      1175 1.37392E-02-7.55252E-04-3.29829E-14
 -1      1176 1.40180E-02-5.49085E-04-3.41125E-14
 -1      1177 1.42942E-02-3.46197E-04-3.52294E-14
 -1      1178 2.28438E-04 1.60711E-04 1.70491E-17
 -1      1179 5.53850E-04 3.42141E-04 4.77456E-17
 -1      1180 8.34466E-04 4.61168E-04 6.95109E-17
 -1      1181 1.10405E-03 5.42376E-04 7.82523E-17
 -1      1182 1.36952E-03 5.99636E-04 6.87113E-17
 -1      1183 1.63445E-03 6.40462E-04 3.82994E-17
 -1      1184 1.90063E-03 6.69429E-04-1.37965E-17
 -1      1185 2.16890E-03 6.89657E-04-8.85929E-17
 -1      1186 2.43956E-03 7.03433E-04-1.89342E-16
 -1      1187 2.71259E-03 7.12480E-04-3.14663E-16
 -1      1188 2.98785E-03 7.18109E-04-4.68633E-16
 -1      1189 3.26507E-03 7.21305E-04-6.50033E-16
 -1      1190 3.54399E-03 7.22801E-04-8.57197E-16
 -1      1191 3.82433E-03 7.23128E-04-1.08850E-15
 -1      1192 4.10583E-03 7.22659E-04-1.34493E-15
 -1      1193 4.38825E-03 7.21644E-04-1.63641E-15
 -1      1194 4.67141E-03 7.20235E-04-1.96312E-15
 -1      1195 4.95515E-03 7.18508E-04-2.32675E-15
 -1      1196 5.23937E-03 7.16483E-04-2.72742E-15
 -1      1197 5.52400E-03 7.14134E-04-3.16385E-15
 -1      1198 5.80904E-03 7.11404E-04-3.63346E-15
 -1      1199 6.09454E-03 7.08214E-04-4.14049E-15
 -1      1200 6.38061E-03 7.04476E-04-4.67976E-15
 -1      1201 6.66746E-03 7.00110E-04-5.25267E-15
 -1      1202 6.95537E-03 6.95061E-04-5.85750E-15
 -1      1203 7.24475E-03 6.89323E-04-6.49562E-15
 -1      1204 7.53613E-03 6.82984E-04-7.16584E-15
 -1      1205 7.83019E-03 6.76267E-04-7.86689E-15
 -1      1206 8.12779E-03 6.69606E-04-8.59501E-15
 -1      1207 8.42991E-03 6.63729E-04-9.35161E-15
 -1      1208 8.73768E-03 6.59783E-04-1.01297E-14
 -1      1209 9.05229E-03 6.59463E-04-1.09256E-14
 -1      1210 9.37479E-03 6.65156E-04-1.17439E-14
 -1      1211 9.70585E-03 6.80055E-04-1.25802E-14
 -1      1212 1.00453E-02 7.08128E-04-1.34407E-14
 -1      1213 1.03915E-02 7.53800E-04-1.43315E-14
 -1      1214 1.07405E-02 8.21052E-04-1.52429E-14
 -1      1215 1.10856E-02 9.11690E-04-1.61768E-14
 -1      1216 1.14177E-02 1.02273E-03-1.71257E-14
 -1      1217 1.17264E-02 1.14367E-03-1.80813E-14
 -1      1218 1.20037E-02 1.25542E-03-1.90469E-14
 -1      1219 1.22487E-02 1.33340E-03-2.00214E-14
 -1      1220 1.24695E-02 1.35527E-03-2.10037E-14
 -1      1221 1.26813E-02 1.30988E-03-2.19990E-14
 -1      1222 1.28998E-02 1.20139E-03-2.29923E-14
 -1      1223 1.31347E-02 1.04553E-03-2.39981E-14
 -1      1224 1.33877E-02 8.60862E-04-2.50097E-14
 -1      1225 1.36550E-02 6.61592E-04-2.60083E-14
 -1      1226 1.39320E-02 4.56119E-04-2.69793E-14
 -1      1227 1.42080E-02 2.55329E-04-2.79118E-14
 -1      1228 1.44432E-02 1.16247E-04-2.85611E-14
 -1      1229 1.46407E-02 2.99904E-05-2.89871E-14
 -1      1230 1.48430E-02-6.00927E-05-2.94389E-14
 -1      1231 1.50612E-02-1.48491E-04-2.98823E-14
 -1      1232 1.53002E-02-2.21985E-04-3.03377E-14
 -1      1233 1.55519E-02-2.62493E-04-3.08116E-14
 -1      1234 1.57897E-02-2.53559E-04-3.12708E-14
 -1      1235 1.59704E-02-1.91140E-04-3.17086E-14
 -1      1236 1.60540E-02-8.99366E-05-3.21259E-14
 -1      1237 1.60185E-02 1.83570E-05-3.25392E-14
 -1      1238 1.58741E-02 9.88501E-05-3.29912E-14
 -1      1239 1.56557E-02 1.29776E-04-3.34566E-14
 -1      1240 1.54083E-02 1.08330E-04-3.39074E-14
 -1      1241 1.51647E-02 4.78134E-05-3.43409E-14
 -1      1242 1.49390E-02-3.36180E-05-3.47484E-14
 -1      1243 1.47298E-02-1.20910E-04-3.51620E-14
 -1      1244 1.45292E-02-2.06086E-04-3.55799E-14
 -1      1245 1.52335E-02 3.69593E-05-2.64759E-14
 -1      1246 1.50808E-02 2.25635E-04-2.61549E-14
 -1      1247 1.47998E-02 4.15799E-04-2.57280E-14
 -1      1248 1.44107E-02 6.06457E-04-2.52161E-14
 -1      1249 1.39567E-02 7.75870E-04-2.46634E-14
 -1      1250 1.34767E-02 9.04156E-04-2.40952E-14
 -1      1251 1.29810E-02 9.73081E-04-2.35209E-14
 -1      1252 1.24752E-02 9.72863E-04-2.29607E-14
 -1      1253 1.19964E-02 9.05683E-04-2.24643E-14
 -1      1254 1.15515E-02 7.85018E-04-2.20463E-14
 -1      1255 1.11564E-02 6.33904E-04-2.17225E-14
 -1      1256 1.08262E-02 4.71248E-04-2.15056E-14
 -1      1257 1.05608E-02 2.99273E-04-2.13951E-14
 -1      1258 1.03908E-02 1.27926E-04-2.13960E-14
 -1      1259 1.03349E-02-3.79530E-05-2.15058E-14
 -1      1260 1.03941E-02-2.04614E-04-2.17260E-14
 -1      1261 1.05741E-02-3.83527E-04-2.20805E-14
 -1      1262 1.08640E-02-5.70671E-04-2.25418E-14
 -1      1263 1.12294E-02-7.49632E-04-2.30568E-14
 -1      1264 1.16560E-02-9.10318E-04-2.36279E-14
 -1      1265 1.21176E-02-1.02878E-03-2.42129E-14
 -1      1266 1.25854E-02-1.08859E-03-2.47751E-14
 -1      1267 1.30701E-02-1.08025E-03-2.53174E-14
 -1      1268 1.35627E-02-1.00431E-03-2.58046E-14
 -1      1269 1.40483E-02-8.67949E-04-2.62120E-14
 -1      1270 1.44916E-02-6.94734E-04-2.65103E-14
 -1      1271 1.48520E-02-5.10246E-04-2.66817E-14
 -1      1272 1.51086E-02-3.27017E-04-2.67400E-14
 -1      1273 1.52400E-02-1.49727E-04-2.66783E-14
 -1      1274 1.66713E-04-1.10338E-04-1.12757E-17
 -1      1275 1.12548E-04-5.69661E-05-1.36067E-17
 -1      1276 1.17632E-04-6.75757E-05-1.27665E-17
 -1      1277 1.08420E-04-4.34830E-05-1.45961E-17
 -1      1278 1.10284E-04-4.95953E-05-1.44470E-17
 -1      1279 2.26337E-04-1.07606E-04-3.43828E-17
 -1      1280 1.06848E-04-3.36118E-05-1.44605E-17
 -1      1281 1.07693E-04-3.83369E-05-1.45825E-17
 -1      1282 2.19104E-04-8.24551E-05-3.53856E-17
 -1      1283 1.06065E-04-2.53420E-05-1.37965E-17
 -1      1284 1.06499E-04-2.93739E-05-1.40404E-17
 -1      1285 2.15882E-04-6.32685E-05-3.46132E-17
 -1      1286 1.05655E-04-1.80861E-05-1.30646E-17
 -1      1287 1.05885E-04-2.16532E-05-1.33221E-17
 -1      1288 2.14207E-04-4.71748E-05-3.30140E-17
 -1      1289 1.05433E-04-1.12359E-05-1.20889E-17
 -1      1290 1.05557E-04-1.46203E-05-1.24277E-17
 -1      1291 2.13283E-04-3.27445E-05-3.09811E-17
 -1      1292 1.05332E-04-4.68767E-06-1.10182E-17
 -1      1293 1.05385E-04-7.94016E-06-1.13299E-17
 -1      1294 2.12784E-04-1.91849E-05-2.86229E-17
 -1      1295 1.05321E-04 1.74250E-06-9.90690E-18
 -1      1296 1.05319E-04-1.47005E-06-1.02186E-17
 -1      1297 2.12568E-04-6.15861E-06-2.60886E-17
 -1      1298 1.05394E-04 8.22234E-06-8.71427E-18
 -1      1299 1.05337E-04 4.96337E-06-9.10730E-18
 -1      1300 2.12576E-04 6.70669E-06-2.34459E-17
 -1      1301 1.05573E-04 1.49279E-05-7.14218E-18
 -1      1302 1.05445E-04 1.15286E-05-7.57586E-18
 -1      1303 2.12809E-04 1.97590E-05-2.02746E-17
 -1      1304 1.05908E-04 2.19454E-05-5.48877E-18
 -1      1305 1.05672E-04 1.83547E-05-5.97666E-18
 -1      1306 2.13324E-04 3.32583E-05-1.66018E-17
 -1      1307 1.06535E-04 2.98114E-05-3.33392E-18
 -1      1308 1.06094E-04 2.57347E-05-4.11997E-18
 -1      1309 2.14270E-04 4.77840E-05-1.24412E-17
 -1      1310 1.07729E-04 3.89102E-05-7.45389E-19
 -1      1311 1.06876E-04 3.41165E-05-1.69407E-18
 -1      1312 2.15980E-04 6.41958E-05-7.35902E-18
 -1      1313 1.10271E-04 5.03383E-05 2.79182E-18
 -1      1314 1.08432E-04 4.41539E-05 1.28749E-18
 -1      1315 2.19213E-04 8.36943E-05-1.08420E-18
 -1      1316 1.16947E-04 6.76138E-05 7.42678E-18
 -1      1317 1.12195E-04 5.77679E-05 5.32614E-18
 -1      1318 2.26333E-04 1.09432E-04 7.08797E-18
 -1      1319 1.57591E-04 1.09857E-04 1.32815E-17
 -1      1320 1.35673E-04 8.60865E-05 1.03677E-17
 -1      1321 2.56060E-04 1.52083E-04 1.63443E-17
 -1      1322 3.35110E-04 2.20732E-04 2.70237E-17
 -1      1323 4.21576E-04-2.61731E-04-4.17147E-17
 -1      1324 5.74689E-04-3.36790E-04-6.91450E-17
 -1      1325 7.21894E-04-3.97391E-04-1.07987E-16
 -1      1326 8.65079E-04-4.46687E-04-1.56613E-16
 -1      1327 6.12130E-04-3.30880E-04-9.36480E-17
 -1      1328 1.00512E-03-4.87762E-04-2.13832E-16
 -1      1329 1.14299E-03-5.21754E-04-2.79900E-16
 -1      1330 9.05394E-04-4.31578E-04-1.89641E-16
 -1      1331 1.27950E-03-5.50534E-04-3.54006E-16
 -1      1332 1.41517E-03-5.74580E-04-4.36649E-16
 -1      1333 1.18786E-03-5.01006E-04-3.20002E-16
 -1      1334 1.55044E-03-5.94958E-04-5.27261E-16
 -1      1335 1.68556E-03-6.12001E-04-6.25896E-16
 -1      1336 1.46483E-03-5.49797E-04-4.83161E-16
 -1      1337 1.82077E-03-6.26338E-04-7.32473E-16
 -1      1338 1.95619E-03-6.38262E-04-8.46857E-16
 -1      1339 1.73956E-03-5.84133E-04-6.77708E-16
 -1      1340 2.09193E-03-6.48175E-04-9.68680E-16
 -1      1341 2.22804E-03-6.56328E-04-1.09809E-15
 -1      1342 2.01392E-03-6.07996E-04-9.03005E-16
 -1      1343 2.36458E-03-6.62997E-04-1.23500E-15
 -1      1344 2.50155E-03-6.68387E-04-1.37936E-15
 -1      1345 2.28888E-03-6.24203E-04-1.15850E-15
 -1      1346 2.63898E-03-6.72693E-04-1.53157E-15
 -1      1347 2.77683E-03-6.76080E-04-1.69015E-15
 -1      1348 2.56494E-03-6.34832E-04-1.44344E-15
 -1      1349 2.91513E-03-6.78689E-04-1.85504E-15
 -1      1350 3.05383E-03-6.80648E-04-2.02761E-15
 -1      1351 2.84226E-03-6.41440E-04-1.75623E-15
 -1      1352 3.19292E-03-6.82057E-04-2.20669E-15
 -1      1353 3.33238E-03-6.83015E-04-2.39180E-15
 -1      1354 3.12087E-03-6.45194E-04-2.09563E-15
 -1      1355 3.47219E-03-6.83592E-04-2.58356E-15
 -1      1356 3.61231E-03-6.83863E-04-2.78086E-15
 -1      1357 3.40069E-03-6.46959E-04-2.46167E-15
 -1      1358 3.75272E-03-6.83873E-04-2.98489E-15
 -1      1359 3.89340E-03-6.83678E-04-3.19575E-15
 -1      1360 3.68160E-03-6.47366E-04-2.85287E-15
 -1      1361 4.03433E-03-6.83307E-04-3.41098E-15
 -1      1362 4.17547E-03-6.82798E-04-3.63051E-15
 -1      1363 3.96345E-03-6.46860E-04-3.26785E-15
 -1      1364 4.31680E-03-6.82167E-04-3.85578E-15
 -1      1365 4.45832E-03-6.81441E-04-4.08605E-15
 -1      1366 4.24609E-03-6.45745E-04-3.70460E-15
 -1      1367 4.59999E-03-6.80625E-04-4.32014E-15
 -1      1368 4.74181E-03-6.79735E-04-4.55952E-15
 -1      1369 4.52940E-03-6.44212E-04-4.16140E-15
 -1      1370 4.88376E-03-6.78769E-04-4.80367E-15
 -1      1371 5.02583E-03-6.77735E-04-5.05187E-15
 -1      1372 4.81325E-03-6.42363E-04-4.63648E-15
 -1      1373 5.16802E-03-6.76624E-04-5.30672E-15
 -1      1374 5.31030E-03-6.75441E-04-5.56772E-15
 -1      1375 5.09757E-03-6.40235E-04-5.13322E-15
 -1      1376 5.45270E-03-6.74170E-04-5.83530E-15
 -1      1377 5.59519E-03-6.72811E-04-6.11074E-15
 -1      1378 5.38231E-03-6.37812E-04-5.65369E-15
 -1      1379 5.73779E-03-6.71346E-04-6.39194E-15
 -1      1380 5.88051E-03-6.69773E-04-6.68145E-15
 -1      1381 5.66745E-03-6.35037E-04-6.20039E-15
 -1      1382 6.02335E-03-6.68070E-04-6.97820E-15
 -1      1383 6.16633E-03-6.66235E-04-7.28260E-15
 -1      1384 5.95304E-03-6.31825E-04-6.77690E-15
 -1      1385 6.30946E-03-6.64244E-04-7.59912E-15
 -1      1386 6.45278E-03-6.62095E-04-7.92545E-15
 -1      1387 6.23914E-03-6.28074E-04-7.38854E-15
 -1      1388 6.59630E-03-6.59766E-04-8.26059E-15
 -1      1389 6.74007E-03-6.57261E-04-8.60520E-15
 -1      1390 6.52590E-03-6.23674E-04-8.03753E-15
 -1      1391 6.88413E-03-6.54555E-04-8.95891E-15
 -1      1392 7.02851E-03-6.51664E-04-9.32235E-15
 -1      1393 6.81354E-03-6.18525E-04-8.72418E-15
 -1      1394 7.17328E-03-6.48566E-04-9.69231E-15
 -1      1395 7.31849E-03-6.45290E-04-1.00674E-14
 -1      1396 7.10233E-03-6.12559E-04-9.44515E-15
 -1      1397 7.46423E-03-6.41825E-04-1.04510E-14
 -1      1398 7.61056E-03-6.38219E-04-1.08420E-14
 -1      1399 7.39268E-03-6.05767E-04-1.01955E-14
 -1      1400 7.75757E-03-6.34478E-04-1.12432E-14
 -1      1401 7.90536E-03-6.30679E-04-1.16547E-14
 -1      1402 7.68505E-03-5.98243E-04-1.09790E-14
 -1      1403 8.05404E-03-6.26854E-04-1.20745E-14
 -1      1404 8.20373E-03-6.23122E-04-1.25044E-14
 -1      1405 7.98007E-03-5.90245E-04-1.17969E-14
 -1      1406 8.35454E-03-6.19554E-04-1.29441E-14
 -1      1407 8.50661E-03-6.16326E-04-1.33916E-14
 -1      1408 8.27845E-03-5.82279E-04-1.26525E-14
 -1      1409 8.66008E-03-6.13571E-04-1.38488E-14
 -1      1410 8.81508E-03-6.11537E-04-1.43153E-14
 -1      1411 8.58103E-03-5.75209E-04-1.35446E-14
 -1      1412 8.97177E-03-6.10449E-04-1.47908E-14
 -1      1413 9.13026E-03-6.10637E-04-1.52717E-14
 -1      1414 8.88869E-03-5.70412E-04-1.44693E-14
 -1      1415 9.29068E-03-6.12461E-04-1.57582E-14
 -1      1416 9.45312E-03-6.16344E-04-1.62506E-14
 -1      1417 9.20234E-03-5.69965E-04-1.54245E-14
 -1      1418 9.61765E-03-6.22814E-04-1.67479E-14
 -1      1419 9.78427E-03-6.32384E-04-1.72506E-14
 -1      1420 9.52272E-03-5.76845E-04-1.64036E-14
 -1      1421 9.95295E-03-6.45769E-04-1.77576E-14
 -1      1422 1.01235E-02-6.63537E-04-1.82690E-14
 -1      1423 9.85021E-03-5.95109E-04-1.74007E-14
 -1      1424 1.02958E-02-6.86555E-04-1.87872E-14
 -1      1425 1.04693E-02-7.15339E-04-1.93116E-14
 -1      1426 1.01845E-02-6.29895E-04-1.84198E-14
 -1      1427 1.06436E-02-7.50750E-04-1.98421E-14
 -1      1428 1.08180E-02-7.93048E-04-2.03777E-14
 -1      1429 1.05241E-02-6.87002E-04-1.94620E-14
 -1      1430 1.09916E-02-8.42732E-04-2.09194E-14
 -1      1431 1.11636E-02-8.99446E-04-2.14695E-14
 -1      1432 1.08661E-02-7.71630E-04-2.05283E-14
 -1      1433 1.13327E-02-9.62771E-04-2.20211E-14
 -1      1434 1.14979E-02-1.03131E-03-2.25742E-14
 -1      1435 1.12057E-02-8.85808E-04-2.16166E-14
 -1      1436 1.16580E-02-1.10315E-03-2.31380E-14
 -1      1437 1.18120E-02-1.17557E-03-2.37100E-14
 -1      1438 1.15362E-02-1.02452E-03-2.27255E-14
 -1      1439 1.19593E-02-1.24503E-03-2.42857E-14
 -1      1440 1.20997E-02-1.30782E-03-2.48703E-14
 -1      1441 1.18508E-02-1.17178E-03-2.38569E-14
 -1      1442 1.22334E-02-1.35970E-03-2.54587E-14
 -1      1443 1.23612E-02-1.39713E-03-2.60516E-14
 -1      1444 1.21448E-02-1.30012E-03-2.50158E-14
 -1      1445 1.24842E-02-1.41698E-03-2.66466E-14
 -1      1446 1.26044E-02-1.41745E-03-2.72457E-14
 -1      1447 1.24191E-02-1.37721E-03-2.61912E-14
 -1      1448 1.27233E-02-1.39804E-03-2.78449E-14
 -1      1449 1.28427E-02-1.35948E-03-2.84415E-14
 -1      1450 1.26810E-02-1.37908E-03-2.73790E-14
 -1      1451 1.29639E-02-1.30393E-03-2.90363E-14
 -1      1452 1.30881E-02-1.23398E-03-2.96279E-14
 -1      1453 1.29413E-02-1.30149E-03-2.85668E-14
 -1      1454 1.32155E-02-1.15297E-03-3.02166E-14
 -1      1455 1.33464E-02-1.06373E-03-3.07976E-14
 -1      1456 1.32082E-02-1.16044E-03-2.97467E-14
 -1      1457 1.34804E-02-9.68935E-04-3.13764E-14
 -1      1458 1.36169E-02-8.70573E-04-3.19528E-14
 -1      1459 1.34841E-02-9.80891E-04-3.09112E-14
 -1      1460 1.37553E-02-7.69863E-04-3.25224E-14
 -1      1461 1.38951E-02-6.67697E-04-3.30873E-14
 -1      1462 1.37666E-02-7.83600E-04-3.20584E-14
 -1      1463 1.40359E-02-5.64289E-04-3.36533E-14
 -1      1464 1.41773E-02-4.60232E-04-3.42222E-14
 -1      1465 1.40516E-02-5.79194E-04-3.31942E-14
 -1      1466 1.43937E-02-3.04711E-04-3.50297E-14
 -1      1467 1.44112E-02-3.19760E-04-3.45643E-14
 -1      1468 6.43135E-04 3.72001E-04 4.85723E-17
 -1      1469 4.92993E-04 3.03681E-04 3.88009E-17
 -1      1470 4.44921E-04 2.65881E-04 3.08862E-17
 -1      1471 9.28757E-04 4.71965E-04 5.93330E-17
 -1      1472 7.87875E-04 4.26473E-04 5.56331E-17
 -1      1473 7.44812E-04 3.90699E-04 4.28531E-17
 -1      1474 1.20369E-03 5.41395E-04 5.43727E-17
 -1      1475 1.06700E-03 5.09710E-04 5.92652E-17
 -1      1476 1.03089E-03 4.76143E-04 4.16334E-17
 -1      1477 1.47428E-03 5.90611E-04 3.07778E-17
 -1      1478 1.33921E-03 5.68141E-04 4.49808E-17
 -1      1479 1.30885E-03 5.35980E-04 2.30122E-17
 -1      1480 1.74386E-03 6.25536E-04-1.49213E-17
 -1      1481 1.60903E-03 6.09619E-04 1.08691E-17
 -1      1482 1.58312E-03 5.78291E-04-1.54770E-17
 -1      1483 2.01412E-03 6.50043E-04-8.15862E-17
 -1      1484 1.87882E-03 6.38919E-04-4.54552E-17
 -1      1485 1.85633E-03 6.08054E-04-7.53385E-17
 -1      1486 2.28586E-03 6.66880E-04-1.73337E-16
 -1      1487 2.14977E-03 6.59289E-04-1.24453E-16
 -1      1488 2.12989E-03 6.28656E-04-1.58456E-16
 -1      1489 2.55941E-03 6.78094E-04-2.89929E-16
 -1      1490 2.42240E-03 6.73089E-04-2.28252E-16
 -1      1491 2.40450E-03 6.42550E-04-2.66388E-16
 -1      1492 2.83480E-03 6.85229E-04-4.33139E-16
 -1      1493 2.69687E-03 6.82094E-04-3.58613E-16
 -1      1494 2.68047E-03 6.51565E-04-3.99583E-16
 -1      1495 3.11194E-03 6.89449E-04-6.04239E-16
 -1      1496 2.97316E-03 6.87645E-04-5.14982E-16
 -1      1497 2.95787E-03 6.57077E-04-5.59977E-16
 -1      1498 3.39066E-03 6.91623E-04-8.00195E-16
 -1      1499 3.25111E-03 6.90749E-04-6.98673E-16
 -1      1500 3.23664E-03 6.60117E-04-7.46324E-16
 -1      1501 3.67074E-03 6.92386E-04-1.02252E-15
 -1      1502 3.53054E-03 6.92150E-04-9.08331E-16
 -1      1503 3.51666E-03 6.61445E-04-9.58313E-16
 -1      1504 3.95198E-03 6.92193E-04-1.27039E-15
 -1      1505 3.81123E-03 6.92388E-04-1.14330E-15
 -1      1506 3.79778E-03 6.61609E-04-1.19672E-15
 -1      1507 4.23416E-03 6.91354E-04-1.54666E-15
 -1      1508 4.09296E-03 6.91840E-04-1.40460E-15
 -1      1509 4.07982E-03 6.60994E-04-1.46173E-15
 -1      1510 4.51712E-03 6.90068E-04-1.85886E-15
 -1      1511 4.37556E-03 6.90758E-04-1.69813E-15
 -1      1512 4.36264E-03 6.59854E-04-1.75867E-15
 -1      1513 4.80070E-03 6.88446E-04-2.20567E-15
 -1      1514 4.65884E-03 6.89295E-04-2.02758E-15
 -1      1515 4.64609E-03 6.58341E-04-2.08964E-15
 -1      1516 5.08480E-03 6.86534E-04-2.58907E-15
 -1      1517 4.94269E-03 6.87526E-04-2.39302E-15
 -1      1518 4.93008E-03 6.56532E-04-2.45732E-15
 -1      1519 5.36933E-03 6.84322E-04-3.00958E-15
 -1      1520 5.22701E-03 6.85467E-04-2.79469E-15
 -1      1521 5.21452E-03 6.54441E-04-2.86046E-15
 -1      1522 5.65428E-03 6.81764E-04-3.46245E-15
 -1      1523 5.51176E-03 6.83089E-04-3.23186E-15
 -1      1524 5.49938E-03 6.52036E-04-3.29825E-15
 -1      1525 5.93967E-03 6.78786E-04-3.95171E-15
 -1      1526 5.79692E-03 6.80331E-04-3.70256E-15
 -1      1527 5.78465E-03 6.49252E-04-3.77050E-15
 -1      1528 6.22559E-03 6.75297E-04-4.47758E-15
 -1      1529 6.08256E-03 6.77108E-04-4.21040E-15
 -1      1530 6.07040E-03 6.45999E-04-4.27899E-15
 -1      1531 6.51217E-03 6.71201E-04-5.03291E-15
 -1      1532 6.36878E-03 6.73326E-04-4.75101E-15
 -1      1533 6.35672E-03 6.42176E-04-4.82063E-15
 -1      1534 6.79965E-03 6.66418E-04-5.62217E-15
 -1      1535 6.65578E-03 6.68894E-04-5.32434E-15
 -1      1536 6.64379E-03 6.37684E-04-5.39438E-15
 -1      1537 7.08834E-03 6.60900E-04-6.24488E-15
 -1      1538 6.94382E-03 6.63743E-04-5.92923E-15
 -1      1539 6.93185E-03 6.32444E-04-5.99926E-15
 -1      1540 7.37867E-03 6.54666E-04-6.89818E-15
 -1      1541 7.23327E-03 6.57857E-04-6.56650E-15
 -1      1542 7.22123E-03 6.26425E-04-6.63678E-15
 -1      1543 7.67119E-03 6.47843E-04-7.58389E-15
 -1      1544 7.52462E-03 6.51299E-04-7.23794E-15
 -1      1545 7.51237E-03 6.19674E-04-7.30743E-15
 -1      1546 7.96656E-03 6.40722E-04-8.29974E-15
 -1      1547 7.81847E-03 6.44273E-04-7.93837E-15
 -1      1548 7.80580E-03 6.12373E-04-8.00919E-15
 -1      1549 8.26561E-03 6.33844E-04-9.04208E-15
 -1      1550 8.11558E-03 6.37184E-04-8.66718E-15
 -1      1551 8.10218E-03 6.04901E-04-8.73811E-15
 -1      1552 8.56926E-03 6.28099E-04-9.80887E-15
 -1      1553 8.41680E-03 6.30731E-04-9.42292E-15
 -1      1554 8.40225E-03 5.97931E-04-9.49359E-15
 -1      1555 8.87848E-03 6.24855E-04-1.05977E-14
 -1      1556 8.72311E-03 6.26029E-04-1.02012E-14
 -1      1557 8.70684E-03 5.92545E-04-1.02729E-14
 -1      1558 9.19422E-03 6.26113E-04-1.14071E-14
 -1      1559 9.03548E-03 6.24745E-04-1.09999E-14
 -1      1560 9.01677E-03 5.90384E-04-1.10722E-14
 -1      1561 9.51719E-03 6.34649E-04-1.22359E-14
 -1      1562 9.35476E-03 6.29255E-04-1.18180E-14
 -1      1563 9.33276E-03 5.93802E-04-1.18926E-14
 -1      1564 9.84755E-03 6.54096E-04-1.30875E-14
 -1      1565 9.68145E-03 6.42766E-04-1.26581E-14
 -1      1566 9.65522E-03 6.06011E-04-1.27346E-14
 -1      1567 1.01845E-02 6.88829E-04-1.39635E-14
 -1      1568 1.00153E-02 6.69319E-04-1.35233E-14
 -1      1569 9.98396E-03 6.31101E-04-1.36009E-14
 -1      1570 1.05258E-02 7.43441E-04-1.48653E-14
 -1      1571 1.03548E-02 7.13501E-04-1.44120E-14
 -1      1572 1.03179E-02 6.73785E-04-1.44925E-14
 -1      1573 1.08671E-02 8.21492E-04-1.57885E-14
 -1      1574 1.06968E-02 7.79589E-04-1.53249E-14
 -1      1575 1.06544E-02 7.38591E-04-1.54038E-14
 -1      1576 1.12020E-02 9.23299E-04-1.67279E-14
 -1      1577 1.10358E-02 8.69833E-04-1.62557E-14
 -1      1578 1.09895E-02 8.28171E-04-1.63347E-14
 -1      1579 1.15227E-02 1.04296E-03-1.76789E-14
 -1      1580 1.13647E-02 9.81796E-04-1.72021E-14
 -1      1581 1.13174E-02 9.40610E-04-1.72778E-14
 -1      1582 1.18218E-02 1.16585E-03-1.86417E-14
 -1      1583 1.16754E-02 1.10539E-03-1.81604E-14
 -1      1584 1.16316E-02 1.06629E-03-1.82371E-14
 -1      1585 1.20953E-02 1.26900E-03-1.96130E-14
 -1      1586 1.19618E-02 1.22148E-03-1.91263E-14
 -1      1587 1.19268E-02 1.18618E-03-1.92060E-14
 -1      1588 1.23455E-02 1.32657E-03-2.05943E-14
 -1      1589 1.22229E-02 1.30474E-03-2.01041E-14
 -1      1590 1.22017E-02 1.27432E-03-2.01845E-14
 -1      1591 1.25813E-02 1.31944E-03-2.15857E-14
 -1      1592 1.24644E-02 1.33150E-03-2.10863E-14
 -1      1593 1.24601E-02 1.30579E-03-2.11724E-14
 -1      1594 1.28149E-02 1.24328E-03-2.25856E-14
 -1      1595 1.26975E-02 1.28941E-03-2.20855E-14
 -1      1596 1.27109E-02 1.26705E-03-2.21714E-14
 -1      1597 1.30565E-02 1.10912E-03-2.35875E-14
 -1      1598 1.29342E-02 1.18224E-03-2.30867E-14
 -1      1599 1.29635E-02 1.16145E-03-2.31771E-14
 -1      1600 1.33110E-02 9.36107E-04-2.46010E-14
 -1      1601 1.31821E-02 1.02624E-03-2.40929E-14
 -1      1602 1.32242E-02 1.00568E-03-2.41886E-14
 -1      1603 1.35776E-02 7.42043E-04-2.56072E-14
 -1      1604 1.34429E-02 8.40865E-04-2.51050E-14
 -1      1605 1.34942E-02 8.20002E-04-2.51999E-14
 -1      1606 1.38530E-02 5.38290E-04-2.65959E-14
 -1      1607 1.37144E-02 6.40921E-04-2.61049E-14
 -1      1608 1.37712E-02 6.19789E-04-2.62032E-14
 -1      1609 1.41340E-02 3.31221E-04-2.75599E-14
 -1      1610 1.39929E-02 4.34887E-04-2.70795E-14
 -1      1611 1.40525E-02 4.13521E-04-2.71824E-14
 -1      1612 1.43077E-02 2.13072E-04-2.81108E-14
 -1      1613 1.45660E-02 9.71003E-05-2.86793E-14
 -1      1614 1.44674E-02 1.40405E-04-2.84626E-14
 -1      1615 1.47710E-02 1.03147E-05-2.91183E-14
 -1      1616 1.46668E-02 5.35181E-05-2.88985E-14
 -1      1617 1.44917E-02 1.65483E-04-2.83643E-14
 -1      1618 1.49953E-02-7.09912E-05-2.95571E-14
 -1      1619 1.48803E-02-3.16210E-05-2.93381E-14
 -1      1620 1.47005E-02 8.01840E-05-2.87943E-14
 -1      1621 1.52422E-02-1.36093E-04-3.00121E-14
 -1      1622 1.51163E-02-1.06398E-04-2.97820E-14
 -1      1623 1.49318E-02 8.01487E-07-2.92320E-14
 -1      1624 1.54995E-02-1.72052E-04-3.04694E-14
 -1      1625 1.53710E-02-1.58509E-04-3.02407E-14
 -1      1626 1.51862E-02-6.39725E-05-2.96750E-14
 -1      1627 1.57350E-02-1.69098E-04-3.09152E-14
 -1      1628 1.56225E-02-1.75747E-04-3.06933E-14
 -1      1629 1.54469E-02-1.04062E-04-3.01206E-14
 -1      1630 1.59000E-02-1.28613E-04-3.13462E-14
 -1      1631 1.58285E-02-1.52936E-04-3.11324E-14
 -1      1632 1.56744E-02-1.12481E-04-3.05579E-14
 -1      1633 1.59577E-02-6.37949E-05-3.17685E-14
 -1      1634 1.59445E-02-9.76967E-05-3.15604E-14
 -1      1635 1.58217E-02-9.17577E-05-3.09875E-14
 -1      1636 1.58905E-02-1.38336E-06-3.21899E-14
 -1      1637 1.59391E-02-3.07255E-05-3.19772E-14
 -1      1638 1.58491E-02-5.60501E-05-3.14113E-14
 -1      1639 1.57164E-02 3.64439E-05-3.26405E-14
 -1      1640 1.58145E-02 2.19166E-05-3.24112E-14
 -1      1641 1.57488E-02-2.70001E-05-3.18396E-14
 -1      1642 1.54796E-02 3.55378E-05-3.30852E-14
 -1      1643 1.56029E-02 4.10437E-05-3.28658E-14
 -1      1644 1.55485E-02-2.27420E-05-3.22779E-14
 -1      1645 1.52255E-02-2.90036E-06-3.35282E-14
 -1      1646 1.53525E-02 2.04541E-05-3.33074E-14
 -1      1647 1.52979E-02-5.03113E-05-3.27164E-14
 -1      1648 1.49830E-02-6.84018E-05-3.39505E-14
 -1      1649 1.51018E-02-3.31074E-05-3.37436E-14
 -1      1650 1.50410E-02-1.05429E-04-3.31461E-14
 -1      1651 1.47612E-02-1.48295E-04-3.43618E-14
 -1      1652 1.48696E-02-1.07327E-04-3.41578E-14
 -1      1653 1.48017E-02-1.78602E-04-3.35648E-14
 -1      1654 1.45335E-02-2.55227E-04-3.45677E-14
 -1      1655 1.46355E-02-2.12838E-04-3.43587E-14
 -1      1656 1.45630E-02-2.82574E-04-3.37691E-14
 -1      1657 1.43155E-02-4.11085E-04-3.37645E-14
 -1      1658 1.52216E-02 3.08730E-05-2.66325E-14
 -1      1659 1.52697E-02-2.76819E-05-2.67704E-14
 -1      1660 1.50028E-02 1.74586E-04-2.62469E-14
 -1      1661 1.51201E-02 1.07530E-04-2.64284E-14
 -1      1662 1.46375E-02 3.53011E-04-2.57650E-14
 -1      1663 1.48218E-02 2.62443E-04-2.60064E-14
 -1      1664 1.42049E-02 5.76555E-04-2.51815E-14
 -1      1665 1.44138E-02 4.76890E-04-2.54470E-14
 -1      1666 1.37226E-02 7.82890E-04-2.45770E-14
 -1      1667 1.39398E-02 6.85934E-04-2.48641E-14
 -1      1668 1.32860E-02 9.46841E-04-2.39593E-14
 -1      1669 1.34874E-02 8.81362E-04-2.42389E-14
 -1      1670 1.28380E-02 1.03222E-03-2.33284E-14
 -1      1671 1.30405E-02 1.00548E-03-2.36184E-14
 -1      1672 1.24087E-02 1.01142E-03-2.27270E-14
 -1      1673 1.26015E-02 1.03545E-03-2.29906E-14
 -1      1674 1.19832E-02 8.91459E-04-2.22197E-14
 -1      1675 1.21747E-02 9.55028E-04-2.24472E-14
 -1      1676 1.15640E-02 7.14230E-04-2.17953E-14
 -1      1677 1.17565E-02 8.01500E-04-2.19784E-14
 -1      1678 1.11657E-02 5.25401E-04-2.14852E-14
 -1      1679 1.13417E-02 6.13333E-04-2.16197E-14
 -1      1680 1.08180E-02 3.46037E-04-2.12810E-14
 -1      1681 1.09722E-02 4.26658E-04-2.13603E-14
 -1      1682 1.05298E-02 1.80350E-04-2.11733E-14
 -1      1683 1.06547E-02 2.52048E-04-2.12027E-14
 -1      1684 1.03561E-02 5.07873E-05-2.12004E-14
 -1      1685 1.04194E-02 1.05930E-04-2.11718E-14
 -1      1686 1.03199E-02-6.27853E-05-2.13460E-14
 -1      1687 1.03188E-02-1.12237E-05-2.12644E-14
 -1      1688 1.04242E-02-1.84777E-04-2.16236E-14
 -1      1689 1.03597E-02-1.27750E-04-2.14874E-14
 -1      1690 1.06793E-02-3.28159E-04-2.20083E-14
 -1      1691 1.05434E-02-2.51424E-04-2.17956E-14
 -1      1692 1.10263E-02-5.26479E-04-2.25336E-14
 -1      1693 1.08572E-02-4.36755E-04-2.22966E-14
 -1      1694 1.14384E-02-7.33264E-04-2.31037E-14
 -1      1695 1.12461E-02-6.34258E-04-2.28311E-14
 -1      1696 1.18579E-02-9.38236E-04-2.37404E-14
 -1      1697 1.16579E-02-8.49892E-04-2.34482E-14
 -1      1698 1.22912E-02-1.08594E-03-2.43732E-14
 -1      1699 1.20993E-02-1.02612E-03-2.40832E-14
 -1      1700 1.26936E-02-1.14267E-03-2.49748E-14
 -1      1701 1.25084E-02-1.12699E-03-2.47017E-14
 -1      1702 1.31224E-02-1.10435E-03-2.55706E-14
 -1      1703 1.29196E-02-1.13630E-03-2.53006E-14
 -1      1704 1.35701E-02-9.73048E-04-2.60667E-14
 -1      1705 1.33654E-02-1.04263E-03-2.58486E-14
 -1      1706 1.40354E-02-7.66857E-04-2.65226E-14
 -1      1707 1.38112E-02-8.68503E-04-2.63344E-14
 -1      1708 1.44892E-02-5.57282E-04-2.67982E-14
 -1      1709 1.42915E-02-6.52586E-04-2.66851E-14
 -1      1710 1.48746E-02-3.60621E-04-2.69731E-14
 -1      1711 1.47044E-02-4.44999E-04-2.69172E-14
 -1      1712 1.51477E-02-2.18948E-04-2.69700E-14
 -1      1713 1.50414E-02-2.83552E-04-2.69708E-14
 -1      1714 1.52717E-02-9.36417E-05-2.68629E-14
 -1      1715 1.52338E-02-1.49497E-04-2.69305E-14
 -1      1716 1.39947E-02 5.88298E-04-2.50975E-14
 -1      1717 1.44719E-02 3.49062E-04-2.57345E-14
 -1      1718 1.43679E-02 1.91040E-04-2.82175E-14
 -1      1719 1.42932E-02 2.59186E-04-2.79061E-14
 -1      1720 1.51747E-02 2.64114E-05-2.67377E-14
 -1      1721 1.48829E-02 1.55549E-04-2.62920E-14
 -1      1722 1.52836E-02-5.93223E-05-2.70372E-14
 -1      1723 1.35376E-02 8.19112E-04-2.44410E-14
 -1      1724 1.31102E-02 9.93239E-04-2.37624E-14
 -1      1725 1.27118E-02 1.06346E-03-2.30862E-14
 -1      1726 1.23306E-02 1.00429E-03-2.24722E-14
 -1      1727 1.19307E-02 8.42366E-04-2.19556E-14
 -1      1728 1.15227E-02 6.32728E-04-2.15434E-14
 -1      1729 1.11234E-02 4.24185E-04-2.12453E-14
 -1      1730 1.07648E-02 2.39669E-04-2.10435E-14
 -1      1731 1.04823E-02 9.89732E-05-2.09635E-14
 -1      1732 1.03282E-02 3.37892E-06-2.10254E-14
 -1      1733 1.03309E-02-7.65731E-05-2.12296E-14
 -1      1734 1.04944E-02-1.74208E-04-2.15389E-14
 -1      1735 1.08003E-02-3.19025E-04-2.19926E-14
 -1      1736 1.11971E-02-5.28146E-04-2.25749E-14
 -1      1737 1.16157E-02-7.63628E-04-2.32137E-14
 -1      1738 1.20381E-02-9.83920E-04-2.39015E-14
 -1      1739 1.24226E-02-1.12968E-03-2.45750E-14
 -1      1740 1.27990E-02-1.16739E-03-2.52329E-14
 -1      1741 1.31904E-02-1.08698E-03-2.58407E-14
 -1      1742 1.36235E-02-9.02476E-04-2.63896E-14
 -1      1743 1.40848E-02-6.63233E-04-2.68228E-14
 -1      1744 1.45462E-02-4.33606E-04-2.71054E-14
 -1      1745 1.49336E-02-2.62609E-04-2.72192E-14
 -1      1746 1.51940E-02-1.47885E-04-2.71733E-14
 -1      1747 2.85266E-04-1.76220E-04-3.19433E-17
 -1      1748 3.32156E-04-1.16766E-04-5.36816E-17
 -1      1749 3.36263E-04-1.32970E-04-5.38713E-17
 -1      1750 3.42221E-04-1.51974E-04-5.34241E-17
 -1      1751 3.51791E-04-1.73986E-04-5.19062E-17
 -1      1752 4.58321E-04-1.88035E-04-7.86047E-17
 -1      1753 3.24548E-04-6.53606E-05-4.95480E-17
 -1      1754 3.25699E-04-7.66521E-05-5.09846E-17
 -1      1755 3.23055E-04-4.38723E-05-4.63225E-17
 -1      1756 3.23709E-04-5.43583E-05-4.80573E-17
 -1      1757 4.36486E-04-7.92644E-05-7.14489E-17
 -1      1758 3.22270E-04-2.37615E-05-4.26905E-17
 -1      1759 3.22602E-04-3.36710E-05-4.46149E-17
 -1      1760 4.34488E-04-5.12985E-05-6.67055E-17
 -1      1761 3.21976E-04-4.33511E-06-3.86789E-17
 -1      1762 3.22073E-04-1.39833E-05-4.06711E-17
 -1      1763 4.33466E-04-2.49139E-05-6.12710E-17
 -1      1764 3.22098E-04 1.49745E-05-3.45318E-17
 -1      1765 3.21984E-04 5.31622E-06-3.67002E-17
 -1      1766 4.33168E-04 7.57258E-07-5.54569E-17
 -1      1767 3.22666E-04 3.47156E-05-2.97207E-17
 -1      1768 3.22313E-04 2.47735E-05-3.22686E-17
 -1      1769 4.33525E-04 2.64572E-05-4.92092E-17
 -1      1770 3.23797E-04 5.51459E-05-2.40964E-17
 -1      1771 3.23133E-04 4.47867E-05-2.71051E-17
 -1      1772 4.34604E-04 5.27032E-05-4.22703E-17
 -1      1773 3.25859E-04 7.77915E-05-1.76183E-17
 -1      1774 3.24658E-04 6.62131E-05-2.10877E-17
 -1      1775 4.36663E-04 8.05746E-05-3.41930E-17
 -1      1776 3.29553E-04 1.03626E-04-9.71716E-18
 -1      1777 3.27402E-04 9.02772E-05-1.39998E-17
 -1      1778 4.40317E-04 1.11538E-04-2.46792E-17
 -1      1779 3.36594E-04 1.35084E-04 3.65918E-19
 -1      1780 3.32408E-04 1.18585E-04-5.00088E-18
 -1      1781 4.46796E-04 1.47303E-04-1.28613E-17
 -1      1782 3.52326E-04 1.77581E-04 1.32002E-17
 -1      1783 3.42828E-04 1.54733E-04 6.30193E-18
 -1      1784 4.59340E-04 1.91425E-04 1.73472E-18
 -1      1785 4.07732E-04 2.33667E-04 2.46385E-17
 -1      1786 3.78118E-04 2.02641E-04 1.81062E-17
 -1      1787 4.95892E-04 2.43967E-04 1.63308E-17
 -1      1788 5.58594E-04 3.02480E-04 3.01950E-17
 -1      1789 3.40052E-04-1.90890E-04-4.44929E-17
 -1      1790 8.53646E-04 4.07087E-04 3.24854E-17
 -1      1791 7.07226E-04 3.59348E-04 3.30817E-17
 -1      1792 6.73455E-04 3.28778E-04 2.41099E-17
 -1      1793 4.58996E-04-2.36696E-04-6.92670E-17
 -1      1794 8.07302E-04-3.74088E-04-1.66181E-16
 -1      1795 9.52583E-04-4.15270E-04-2.22532E-16
 -1      1796 1.09544E-03-4.49956E-04-2.87137E-16
 -1      1797 1.23712E-03-4.78854E-04-3.59779E-16
 -1      1798 1.00401E-03-3.97882E-04-2.55533E-16
 -1      1799 1.37755E-03-5.03342E-04-4.40227E-16
 -1      1800 1.51725E-03-5.23721E-04-5.28684E-16
 -1      1801 1.28972E-03-4.55848E-04-3.99176E-16
 -1      1802 1.65644E-03-5.40910E-04-6.24758E-16
 -1      1803 1.79530E-03-5.55147E-04-7.28340E-16
 -1      1804 1.57215E-03-4.96807E-04-5.73448E-16
 -1      1805 1.93404E-03-5.67040E-04-8.39335E-16
 -1      1806 2.07272E-03-5.76794E-04-9.57879E-16
 -1      1807 1.85280E-03-5.25376E-04-7.77671E-16
 -1      1808 2.21149E-03-5.84828E-04-1.08426E-15
 -1      1809 2.35035E-03-5.91311E-04-1.21721E-15
 -1      1810 2.13274E-03-5.44893E-04-1.01168E-15
 -1      1811 2.48941E-03-5.96542E-04-1.35738E-15
 -1      1812 2.62865E-03-6.00659E-04-1.50510E-15
 -1      1813 2.41264E-03-5.57817E-04-1.27422E-15
 -1      1814 2.76813E-03-6.03878E-04-1.65947E-15
 -1      1815 2.90782E-03-6.06308E-04-1.81982E-15
 -1      1816 2.69289E-03-5.65982E-04-1.56445E-15
 -1      1817 3.04777E-03-6.08104E-04-1.98816E-15
 -1      1818 3.18794E-03-6.09353E-04-2.16224E-15
 -1      1819 2.97372E-03-5.70763E-04-1.88265E-15
 -1      1820 3.32835E-03-6.10164E-04-2.34197E-15
 -1      1821 3.46896E-03-6.10602E-04-2.52917E-15
 -1      1822 3.25520E-03-5.73180E-04-2.22550E-15
 -1      1823 3.60980E-03-6.10743E-04-2.72300E-15
 -1      1824 3.75082E-03-6.10637E-04-2.92253E-15
 -1      1825 3.53733E-03-5.73980E-04-2.59538E-15
 -1      1826 3.89203E-03-6.10332E-04-3.12722E-15
 -1      1827 4.03341E-03-6.09864E-04-3.33862E-15
 -1      1828 3.82007E-03-5.73700E-04-2.98958E-15
 -1      1829 4.17495E-03-6.09265E-04-3.55523E-15
 -1      1830 4.31663E-03-6.08556E-04-3.77698E-15
 -1      1831 4.10337E-03-5.72706E-04-3.40705E-15
 -1      1832 4.45845E-03-6.07755E-04-4.00389E-15
 -1      1833 4.60039E-03-6.06876E-04-4.23493E-15
 -1      1834 4.38715E-03-5.71240E-04-3.84739E-15
 -1      1835 4.74245E-03-6.05923E-04-4.47156E-15
 -1      1836 4.88461E-03-6.04906E-04-4.71315E-15
 -1      1837 4.67136E-03-5.69440E-04-4.30766E-15
 -1      1838 5.02688E-03-6.03818E-04-4.96010E-15
 -1      1839 5.16924E-03-6.02664E-04-5.21291E-15
 -1      1840 4.95593E-03-5.67368E-04-4.78831E-15
 -1      1841 5.31169E-03-6.01431E-04-5.47261E-15
 -1      1842 5.45424E-03-6.00118E-04-5.73825E-15
 -1      1843 5.24085E-03-5.65026E-04-5.29198E-15
 -1      1844 5.59688E-03-5.98709E-04-6.01114E-15
 -1      1845 5.73962E-03-5.97201E-04-6.29061E-15
 -1      1846 5.52609E-03-5.62368E-04-5.82215E-15
 -1      1847 5.88247E-03-5.95571E-04-6.57775E-15
 -1      1848 6.02543E-03-5.93815E-04-6.87371E-15
 -1      1849 5.81168E-03-5.59315E-04-6.37995E-15
 -1      1850 6.16852E-03-5.91909E-04-7.17923E-15
 -1      1851 6.31175E-03-5.89850E-04-7.49369E-15
 -1      1852 6.09766E-03-5.55763E-04-6.97130E-15
 -1      1853 6.45514E-03-5.87610E-04-7.81662E-15
 -1      1854 6.59873E-03-5.85189E-04-8.14893E-15
 -1      1855 6.38412E-03-5.51591E-04-7.59672E-15
 -1      1856 6.74251E-03-5.82561E-04-8.49066E-15
 -1      1857 6.88655E-03-5.79731E-04-8.84096E-15
 -1      1858 6.67118E-03-5.46680E-04-8.25955E-15
 -1      1859 7.03086E-03-5.76675E-04-9.20032E-15
 -1      1860 7.17550E-03-5.73406E-04-9.56769E-15
 -1      1861 6.95903E-03-5.40927E-04-8.95779E-15
 -1      1862 7.32048E-03-5.69912E-04-9.94227E-15
 -1      1863 7.46591E-03-5.66217E-04-1.03233E-14
 -1      1864 7.24790E-03-5.34270E-04-9.68927E-15
 -1      1865 7.61178E-03-5.62324E-04-1.07147E-14
 -1      1866 7.75822E-03-5.58278E-04-1.11142E-14
 -1      1867 7.53809E-03-5.26723E-04-1.04525E-14
 -1      1868 7.90524E-03-5.54107E-04-1.15217E-14
 -1      1869 8.05297E-03-5.49883E-04-1.19385E-14
 -1      1870 7.82997E-03-5.18426E-04-1.12477E-14
 -1      1871 8.20142E-03-5.45677E-04-1.23633E-14
 -1      1872 8.35077E-03-5.41599E-04-1.27984E-14
 -1      1873 8.12398E-03-5.09716E-04-1.20773E-14
 -1      1874 8.50100E-03-5.37781E-04-1.32428E-14
 -1      1875 8.65232E-03-5.34383E-04-1.36927E-14
 -1      1876 8.42064E-03-5.01222E-04-1.29420E-14
 -1      1877 8.80471E-03-5.31629E-04-1.41520E-14
 -1      1878 8.95838E-03-5.29748E-04-1.46197E-14
 -1      1879 8.72053E-03-4.93997E-04-1.38397E-14
 -1      1880 9.11330E-03-5.29085E-04-1.50949E-14
 -1      1881 9.26968E-03-5.29955E-04-1.55746E-14
 -1      1882 9.02429E-03-4.89684E-04-1.47674E-14
 -1      1883 9.42750E-03-5.32863E-04-1.60596E-14
 -1      1884 9.58688E-03-5.38229E-04-1.65511E-14
 -1      1885 9.33261E-03-4.90716E-04-1.57210E-14
 -1      1886 9.74784E-03-5.46733E-04-1.70470E-14
 -1      1887 9.91036E-03-5.58911E-04-1.75490E-14
 -1      1888 9.64618E-03-5.00524E-04-1.66964E-14
 -1      1889 1.00745E-02-5.75600E-04-1.80551E-14
 -1      1890 1.02401E-02-5.97428E-04-1.85657E-14
 -1      1891 9.96565E-03-5.23685E-04-1.76907E-14
 -1      1892 1.04072E-02-6.25273E-04-1.90848E-14
 -1      1893 1.05751E-02-6.59761E-04-1.96087E-14
 -1      1894 1.02915E-02-5.65846E-04-1.87105E-14
 -1      1895 1.07444E-02-7.01542E-04-2.01387E-14
 -1      1896 1.09136E-02-7.50997E-04-2.06752E-14
 -1      1897 1.06238E-02-6.33138E-04-1.97528E-14
 -1      1898 1.10834E-02-8.08103E-04-2.12147E-14
 -1      1899 1.12517E-02-8.72474E-04-2.17608E-14
 -1      1900 1.09617E-02-7.30615E-04-2.08160E-14
 -1      1901 1.14193E-02-9.42844E-04-2.23130E-14
 -1      1902 1.15840E-02-1.01747E-03-2.28685E-14
 -1      1903 1.13022E-02-8.59060E-04-2.19017E-14
 -1      1904 1.17459E-02-1.09345E-03-2.34332E-14
 -1      1905 1.19036E-02-1.16721E-03-2.40021E-14
 -1      1906 1.16397E-02-1.01023E-03-2.30093E-14
 -1      1907 1.20568E-02-1.23452E-03-2.45755E-14
 -1      1908 1.22058E-02-1.29081E-03-2.51560E-14
 -1      1909 1.19666E-02-1.16214E-03-2.41414E-14
 -1      1910 1.23498E-02-1.33194E-03-2.57407E-14
 -1      1911 1.24914E-02-1.35427E-03-2.63298E-14
 -1      1912 1.22770E-02-1.27990E-03-2.52938E-14
 -1      1913 1.26296E-02-1.35578E-03-2.69185E-14
 -1      1914 1.27683E-02-1.33590E-03-2.75099E-14
 -1      1915 1.25729E-02-1.32736E-03-2.64633E-14
 -1      1916 1.29063E-02-1.29548E-03-2.81041E-14
 -1      1917 1.30468E-02-1.23736E-03-2.86929E-14
 -1      1918 1.28637E-02-1.28630E-03-2.76398E-14
 -1      1919 1.31886E-02-1.16463E-03-2.92789E-14
 -1      1920 1.33326E-02-1.08101E-03-2.98636E-14
 -1      1921 1.31601E-02-1.16617E-03-2.88149E-14
 -1      1922 1.34783E-02-9.89770E-04-3.04443E-14
 -1      1923 1.36247E-02-8.93669E-04-3.10218E-14
 -1      1924 1.34644E-02-9.95843E-04-2.99782E-14
 -1      1925 1.37719E-02-7.94782E-04-3.15962E-14
 -1      1926 1.39183E-02-6.94152E-04-3.21664E-14
 -1      1927 1.37715E-02-8.03074E-04-3.11327E-14
 -1      1928 1.40455E-02-6.04937E-04-3.26814E-14
 -1      1929 1.41904E-02-5.02235E-04-3.32477E-14
 -1      1930 1.43123E-02-4.37508E-04-3.32495E-14
 -1      1931 1.40552E-02-6.15887E-04-3.22189E-14
 -1      1932 1.13873E-03 4.80051E-04 1.95563E-17
 -1      1933 9.96944E-04 4.46799E-04 2.82841E-17
 -1      1934 9.64552E-04 4.17341E-04 1.59920E-17
 -1      1935 1.41788E-03 5.31542E-04-1.16010E-17
 -1      1936 1.27871E-03 5.08088E-04 6.38324E-18
 -1      1937 1.24906E-03 4.79947E-04-9.06664E-18
 -1      1938 1.69430E-03 5.67855E-04-6.36427E-17
 -1      1939 1.55625E-03 5.51351E-04-3.48707E-17
 -1      1940 1.52936E-03 5.24175E-04-5.32614E-17
 -1      1941 1.96991E-03 5.93173E-04-1.37639E-16
 -1      1942 1.83212E-03 5.81718E-04-9.77273E-17
 -1      1943 1.80764E-03 5.55179E-04-1.18910E-16
 -1      1944 2.24580E-03 6.10452E-04-2.36017E-16
 -1      1945 2.10778E-03 6.02692E-04-1.83813E-16
 -1      1946 2.08530E-03 5.76557E-04-2.07665E-16
 -1      1947 2.52250E-03 6.21875E-04-3.58641E-16
 -1      1948 2.38403E-03 6.16802E-04-2.94429E-16
 -1      1949 2.36316E-03 5.90913E-04-3.21100E-16
 -1      1950 2.80029E-03 6.29071E-04-5.08152E-16
 -1      1951 2.66126E-03 6.25931E-04-4.29656E-16
 -1      1952 2.64165E-03 6.00182E-04-4.59078E-16
 -1      1953 3.07922E-03 6.33264E-04-6.83793E-16
 -1      1954 2.93961E-03 6.31490E-04-5.92503E-16
 -1      1955 2.92100E-03 6.05811E-04-6.23728E-16
 -1      1956 3.35926E-03 6.35361E-04-8.84086E-16
 -1      1957 3.21911E-03 6.34536E-04-7.80870E-16
 -1      1958 3.20126E-03 6.08882E-04-8.14100E-16
 -1      1959 3.64031E-03 6.36027E-04-1.11158E-15
 -1      1960 3.49967E-03 6.35846E-04-9.94823E-16
 -1      1961 3.48240E-03 6.10189E-04-1.03003E-15
 -1      1962 3.92225E-03 6.35731E-04-1.36546E-15
 -1      1963 3.78118E-03 6.35980E-04-1.23466E-15
 -1      1964 3.76435E-03 6.10306E-04-1.27239E-15
 -1      1965 4.20495E-03 6.34795E-04-1.64785E-15
 -1      1966 4.06352E-03 6.35331E-04-1.50308E-15
 -1      1967 4.04702E-03 6.09632E-04-1.54201E-15
 -1      1968 4.48829E-03 6.33424E-04-1.96334E-15
 -1      1969 4.34655E-03 6.34157E-04-1.80161E-15
 -1      1970 4.33031E-03 6.08434E-04-1.84280E-15
 -1      1971 4.77217E-03 6.31732E-04-2.31373E-15
 -1      1972 4.63017E-03 6.32615E-04-2.13371E-15
 -1      1973 4.61412E-03 6.06869E-04-2.17644E-15
 -1      1974 5.05650E-03 6.29763E-04-2.69935E-15
 -1      1975 4.91429E-03 6.30782E-04-2.50215E-15
 -1      1976 4.89838E-03 6.05019E-04-2.54560E-15
 -1      1977 5.34125E-03 6.27507E-04-3.12101E-15
 -1      1978 5.19883E-03 6.28673E-04-2.90607E-15
 -1      1979 5.18304E-03 6.02897E-04-2.95018E-15
 -1      1980 5.62639E-03 6.24911E-04-3.57567E-15
 -1      1981 5.48377E-03 6.26255E-04-3.34395E-15
 -1      1982 5.46808E-03 6.00471E-04-3.38854E-15
 -1      1983 5.91196E-03 6.21896E-04-4.06699E-15
 -1      1984 5.76912E-03 6.23460E-04-3.81702E-15
 -1      1985 5.75349E-03 5.97672E-04-3.86261E-15
 -1      1986 6.19802E-03 6.18359E-04-4.59332E-15
 -1      1987 6.05492E-03 6.20196E-04-4.32567E-15
 -1      1988 6.03933E-03 5.94405E-04-4.37181E-15
 -1      1989 6.48470E-03 6.14194E-04-5.14915E-15
 -1      1990 6.34127E-03 6.16358E-04-4.86700E-15
 -1      1991 6.32568E-03 5.90561E-04-4.91252E-15
 -1      1992 6.77218E-03 6.09302E-04-5.73829E-15
 -1      1993 6.62832E-03 6.11839E-04-5.44061E-15
 -1      1994 6.61268E-03 5.86029E-04-5.48625E-15
 -1      1995 7.06073E-03 6.03614E-04-6.36051E-15
 -1      1996 6.91630E-03 6.06553E-04-6.04464E-15
 -1      1997 6.90052E-03 5.80715E-04-6.09002E-15
 -1      1998 7.35068E-03 5.97120E-04-7.01280E-15
 -1      1999 7.20550E-03 6.00457E-04-6.68237E-15
 -1      2000 7.18947E-03 5.74565E-04-6.72677E-15
 -1      2001 7.64247E-03 5.89912E-04-7.69855E-15
 -1      2002 7.49631E-03 5.93586E-04-7.35216E-15
 -1      2003 7.47987E-03 5.67601E-04-7.39553E-15
 -1      2004 7.93661E-03 5.82237E-04-8.41394E-15
 -1      2005 7.78920E-03 5.86099E-04-8.05321E-15
 -1      2006 7.77212E-03 5.59966E-04-8.09712E-15
 -1      2007 8.23373E-03 5.74582E-04-9.15794E-15
 -1      2008 8.08474E-03 5.78355E-04-8.78240E-15
 -1      2009 8.06673E-03 5.51993E-04-8.82565E-15
 -1      2010 8.53451E-03 5.67775E-04-9.92422E-15
 -1      2011 8.38360E-03 5.70996E-04-9.53807E-15
 -1      2012 8.36427E-03 5.44293E-04-9.58179E-15
 -1      2013 8.83971E-03 5.63115E-04-1.07144E-14
 -1      2014 8.68649E-03 5.65068E-04-1.03167E-14
 -1      2015 8.66537E-03 5.37874E-04-1.03604E-14
 -1      2016 9.15001E-03 5.62539E-04-1.15257E-14
 -1      2017 8.99416E-03 5.62170E-04-1.11171E-14
 -1      2018 8.97070E-03 5.34286E-04-1.11613E-14
 -1      2019 9.46599E-03 5.68772E-04-1.23567E-14
 -1      2020 9.30724E-03 5.64614E-04-1.19384E-14
 -1      2021 9.28085E-03 5.35786E-04-1.19832E-14
 -1      2022 9.78787E-03 5.85445E-04-1.32133E-14
 -1      2023 9.62618E-03 5.75575E-04-1.27821E-14
 -1      2024 9.59632E-03 5.45493E-04-1.28286E-14
 -1      2025 1.01153E-02 6.17041E-04-1.40934E-14
 -1      2026 9.95096E-03 5.99131E-04-1.36510E-14
 -1      2027 9.91730E-03 5.67452E-04-1.36978E-14
 -1      2028 1.04471E-02 6.68449E-04-1.49941E-14
 -1      2029 1.02809E-02 6.40056E-04-1.45418E-14
 -1      2030 1.02435E-02 6.06469E-04-1.45898E-14
 -1      2031 1.07808E-02 7.43840E-04-1.59155E-14
 -1      2032 1.06141E-02 7.03073E-04-1.54518E-14
 -1      2033 1.05738E-02 6.67445E-04-1.55010E-14
 -1      2034 1.11125E-02 8.44526E-04-1.68521E-14
 -1      2035 1.09474E-02 7.91247E-04-1.63819E-14
 -1      2036 1.09061E-02 7.53870E-04-1.64290E-14
 -1      2037 1.14368E-02 9.65854E-04-1.78016E-14
 -1      2038 1.12761E-02 9.03312E-04-1.73253E-14
 -1      2039 1.12364E-02 8.65212E-04-1.73724E-14
 -1      2040 1.17481E-02 1.09418E-03-1.87676E-14
 -1      2041 1.15946E-02 1.03042E-03-1.82830E-14
 -1      2042 1.15598E-02 9.93484E-04-1.83304E-14
 -1      2043 1.20421E-02 1.20622E-03-1.97401E-14
 -1      2044 1.18974E-02 1.15384E-03-1.92532E-14
 -1      2045 1.18705E-02 1.12049E-03-1.93002E-14
 -1      2046 1.23191E-02 1.27419E-03-2.07282E-14
 -1      2047 1.21824E-02 1.24711E-03-2.02338E-14
 -1      2048 1.21651E-02 1.21918E-03-2.02821E-14
 -1      2049 1.25844E-02 1.27604E-03-2.17217E-14
 -1      2050 1.24524E-02 1.28392E-03-2.12223E-14
 -1      2051 1.24455E-02 1.26162E-03-2.12736E-14
 -1      2052 1.28469E-02 1.20540E-03-2.27273E-14
 -1      2053 1.27151E-02 1.24923E-03-2.22235E-14
 -1      2054 1.27187E-02 1.23100E-03-2.22763E-14
 -1      2055 1.31141E-02 1.07331E-03-2.37389E-14
 -1      2056 1.29795E-02 1.14578E-03-2.32341E-14
 -1      2057 1.29934E-02 1.12946E-03-2.32869E-14
 -1      2058 1.33889E-02 9.00481E-04-2.47531E-14
 -1      2059 1.32505E-02 9.90740E-04-2.42448E-14
 -1      2060 1.32744E-02 9.74884E-04-2.43046E-14
 -1      2061 1.36697E-02 7.06295E-04-2.57655E-14
 -1      2062 1.35288E-02 8.05288E-04-2.52618E-14
 -1      2063 1.35614E-02 7.89592E-04-2.53203E-14
 -1      2064 1.39536E-02 5.02655E-04-2.67619E-14
 -1      2065 1.38115E-02 6.05340E-04-2.62670E-14
 -1      2066 1.38506E-02 5.90139E-04-2.63313E-14
 -1      2067 1.41944E-02 3.29249E-04-2.75803E-14
 -1      2068 1.40520E-02 4.33061E-04-2.70929E-14
 -1      2069 1.40944E-02 4.18293E-04-2.71619E-14
 -1      2070 1.42933E-02 2.78604E-04-2.78230E-14
 -1      2071 1.48669E-02 6.34418E-05-2.89004E-14
 -1      2072 1.47445E-02 1.03632E-04-2.86840E-14
 -1      2073 1.46291E-02 1.46624E-04-2.84682E-14
 -1      2074 1.45201E-02 1.89658E-04-2.82541E-14
 -1      2075 1.45559E-02 2.06949E-04-2.81353E-14
 -1      2076 1.44546E-02 2.12859E-04-2.81410E-14
 -1      2077 1.43542E-02 2.56164E-04-2.79298E-14
 -1      2078 1.42539E-02 3.25850E-04-2.75973E-14
 -1      2079 1.43784E-02 2.78360E-04-2.78127E-14
 -1      2080 1.51284E-02-8.23681E-06-2.93360E-14
 -1      2081 1.49953E-02 2.50136E-05-2.91176E-14
 -1      2082 1.48002E-02 1.15225E-04-2.85638E-14
 -1      2083 1.53924E-02-5.85790E-05-2.97733E-14
 -1      2084 1.52623E-02-3.70440E-05-2.95547E-14
 -1      2085 1.50696E-02 3.21184E-05-2.89901E-14
 -1      2086 1.56118E-02-7.96749E-05-3.02018E-14
 -1      2087 1.55104E-02-7.26038E-05-2.99877E-14
 -1      2088 1.53356E-02-2.97859E-05-2.94172E-14
 -1      2089 1.57397E-02-7.43530E-05-3.06324E-14
 -1      2090 1.56910E-02-7.88085E-05-3.04182E-14
 -1      2091 1.55501E-02-6.14880E-05-2.98449E-14
 -1      2092 1.57342E-02-5.85639E-05-3.10516E-14
 -1      2093 1.57542E-02-6.51881E-05-3.08404E-14
 -1      2094 1.56533E-02-6.66068E-05-3.02686E-14
 -1      2095 1.55976E-02-5.48307E-05-3.14814E-14
 -1      2096 1.56804E-02-5.30371E-05-3.12659E-14
 -1      2097 1.56102E-02-6.63075E-05-3.06910E-14
 -1      2098 1.53711E-02-7.87063E-05-3.19138E-14
 -1      2099 1.54921E-02-6.28181E-05-3.16982E-14
 -1      2100 1.54354E-02-8.62263E-05-3.11168E-14
 -1      2101 1.51090E-02-1.31006E-04-3.23421E-14
 -1      2102 1.52414E-02-1.02095E-04-3.21277E-14
 -1      2103 1.51841E-02-1.37395E-04-3.15426E-14
 -1      2104 1.48524E-02-2.03355E-04-3.27635E-14
 -1      2105 1.49785E-02-1.65898E-04-3.25524E-14
 -1      2106 1.49142E-02-2.13579E-04-3.19612E-14
 -1      2107 1.46190E-02-2.85922E-04-3.31761E-14
 -1      2108 1.47326E-02-2.44343E-04-3.29703E-14
 -1      2109 1.46615E-02-3.02206E-04-3.23759E-14
 -1      2110 1.47757E-02 1.38245E-04-2.63907E-14
 -1      2111 1.49561E-02 7.32393E-05-2.66309E-14
 -1      2112 1.52882E-02-5.38818E-05-2.72989E-14
 -1      2113 1.52888E-02-7.25506E-05-2.73945E-14
 -1      2114 1.51148E-02 1.74927E-05-2.68674E-14
 -1      2115 1.52204E-02-1.76054E-05-2.70741E-14
 -1      2116 1.42986E-02 3.62246E-04-2.57098E-14
 -1      2117 1.45191E-02 2.50768E-04-2.60273E-14
 -1      2118 1.38462E-02 6.01618E-04-2.50723E-14
 -1      2119 1.40747E-02 4.79392E-04-2.53911E-14
 -1      2120 1.41628E-02 3.91929E-04-2.56821E-14
 -1      2121 3.27202E-04-8.89539E-05-5.21501E-17
 -1      2122 3.29314E-04-1.02129E-04-5.31937E-17
 -1      2123 4.46344E-04-1.45099E-04-7.80355E-17
 -1      2124 4.40030E-04-1.09927E-04-7.53792E-17
 -1      2125 1.29984E-02 1.03131E-03-2.35920E-14
 -1      2126 1.31765E-02 9.62436E-04-2.39321E-14
 -1      2127 1.26289E-02 1.08416E-03-2.28358E-14
 -1      2128 1.27889E-02 1.07948E-03-2.31698E-14
 -1      2129 1.22531E-02 9.79346E-04-2.21989E-14
 -1      2130 1.24207E-02 1.04248E-03-2.24752E-14
 -1      2131 1.18834E-02 7.87491E-04-2.16620E-14
 -1      2132 1.20619E-02 8.89466E-04-2.18987E-14
 -1      2133 1.14712E-02 5.47970E-04-2.12297E-14
 -1      2134 1.16609E-02 6.58753E-04-2.14013E-14
 -1      2135 1.10739E-02 3.37116E-04-2.09651E-14
 -1      2136 1.12568E-02 4.34474E-04-2.10881E-14
 -1      2137 1.07124E-02 1.64884E-04-2.07872E-14
 -1      2138 1.08772E-02 2.41119E-04-2.08652E-14
 -1      2139 1.04341E-02 4.33092E-05-2.06782E-14
 -1      2140 1.05481E-02 8.62876E-05-2.06803E-14
 -1      2141 1.03072E-02-1.92609E-05-2.08366E-14
 -1      2142 1.03461E-02 5.89307E-06-2.07732E-14
 -1      2143 1.03519E-02-7.72421E-05-2.10715E-14
 -1      2144 1.03093E-02-5.11881E-05-2.09325E-14
 -1      2145 1.05518E-02-1.57769E-04-2.14003E-14
 -1      2146 1.04332E-02-1.15857E-04-2.12338E-14
 -1      2147 1.03853E-02-8.11103E-05-2.09327E-14
 -1      2148 1.09262E-02-3.31002E-04-2.19978E-14
 -1      2149 1.07457E-02-2.43389E-04-2.17138E-14
 -1      2150 1.13324E-02-5.43946E-04-2.25912E-14
 -1      2151 1.11308E-02-4.34431E-04-2.22969E-14
 -1      2152 1.17792E-02-8.12622E-04-2.33330E-14
 -1      2153 1.15865E-02-6.89099E-04-2.29905E-14
 -1      2154 1.21490E-02-1.02414E-03-2.40219E-14
 -1      2155 1.19680E-02-9.23277E-04-2.36777E-14
 -1      2156 1.18923E-02-8.61177E-04-2.34517E-14
 -1      2157 1.25316E-02-1.17310E-03-2.48217E-14
 -1      2158 1.23771E-02-1.12470E-03-2.44898E-14
 -1      2159 1.28485E-02-1.18163E-03-2.54783E-14
 -1      2160 1.26918E-02-1.19169E-03-2.51486E-14
 -1      2161 1.26080E-02-1.19469E-03-2.50639E-14
 -1      2162 1.32435E-02-1.05460E-03-2.61721E-14
 -1      2163 1.30667E-02-1.12857E-03-2.58911E-14
 -1      2164 1.36498E-02-8.35879E-04-2.67404E-14
 -1      2165 1.34494E-02-9.53621E-04-2.64703E-14
 -1      2166 1.41495E-02-5.60859E-04-2.71871E-14
 -1      2167 1.39228E-02-6.83173E-04-2.70225E-14
 -1      2168 1.46064E-02-3.41963E-04-2.74310E-14
 -1      2169 1.43952E-02-4.42526E-04-2.73140E-14
 -1      2170 1.50092E-02-1.88809E-04-2.74797E-14
 -1      2171 1.48430E-02-2.45861E-04-2.74858E-14
 -1      2172 1.52467E-02-9.93762E-05-2.74416E-14
 -1      2173 1.51621E-02-1.29247E-04-2.74851E-14
 -1      2174 1.52815E-02-7.68776E-05-2.77043E-14
 -1      2175 1.33677E-02 8.70628E-04-2.42824E-14
 -1      2176 1.35599E-02 7.58817E-04-2.46207E-14
 -1      2177 6.07934E-04-2.98106E-04-1.05737E-16
 -1      2178 1.36787E-02 6.67252E-04-2.49111E-14
 -1      2179 1.32430E-02 9.16964E-04-2.41113E-14
 -1      2180 6.63655E-04-2.92391E-04-1.29332E-16
 -1      2181 1.50383E-02 2.30020E-05-2.69648E-14
 -1      2182 1.52698E-02-4.50640E-05-2.74290E-14
 -1      2183 1.44896E-02-3.49411E-04-3.31744E-14
 -1      2184 1.46336E-02 1.69924E-04-2.63638E-14
 -1      2185 1.51018E-02-1.33557E-04-2.77496E-14
 -1      2186 1.47181E-02-2.69812E-04-2.76914E-14
 -1      2187 1.42468E-02-4.78443E-04-2.75129E-14
 -1      2188 1.37562E-02-7.48987E-04-2.71029E-14
 -1      2189 1.29387E-02-1.16723E-03-2.58062E-14
 -1      2190 1.22703E-02-1.08116E-03-2.42657E-14
 -1      2191 1.14819E-02-6.05350E-04-2.27087E-14
 -1      2192 1.06444E-02-1.77620E-04-2.14031E-14
 -1      2193 1.05558E-02-1.33738E-04-2.10954E-14
 -1      2194 1.07391E-02-2.04079E-04-2.14056E-14
 -1      2195 1.02982E-02-3.49497E-05-2.06782E-14
 -1      2196 1.03836E-02 1.43921E-05-2.04890E-14
 -1      2197 1.06313E-02 1.03996E-04-2.05014E-14
 -1      2198 1.09899E-02 2.66645E-04-2.07078E-14
 -1      2199 1.13837E-02 4.73215E-04-2.09473E-14
 -1      2200 1.17887E-02 7.16376E-04-2.13465E-14
 -1      2201 1.21657E-02 9.37627E-04-2.19033E-14
 -1      2202 1.28787E-02 1.06482E-03-2.33393E-14
 -1      2203 1.25281E-02 1.07579E-03-2.25601E-14
 -1      2204 1.10430E-02-3.60535E-04-2.20139E-14
 -1      2205 1.33153E-02-1.00403E-03-2.65208E-14
 -1      2206 1.01666E-03 3.99779E-04-7.75205E-18
 -1      2207 8.72185E-04 3.63395E-04 3.22550E-18
 -1      2208 5.47751E-04-5.52876E-05-9.23198E-17
 -1      2209 5.48791E-04-7.20008E-05-9.57215E-17
 -1      2210 5.50213E-04-8.93213E-05-9.89199E-17
 -1      2211 5.52082E-04-1.07297E-04-1.01983E-16
 -1      2212 6.65252E-04-9.54764E-05-1.30795E-16
 -1      2213 5.46364E-04 8.85458E-06-7.65853E-17
 -1      2214 5.46344E-04-6.97931E-06-8.07189E-17
 -1      2215 5.47123E-04 4.08586E-05-6.78575E-17
 -1      2216 5.46620E-04 2.47875E-05-7.23840E-17
 -1      2217 6.61293E-04 1.99268E-05-1.01115E-16
 -1      2218 5.48956E-04 7.34740E-05-5.81403E-17
 -1      2219 5.47889E-04 5.69847E-05-6.32225E-17
 -1      2220 6.62624E-04 5.77758E-05-8.94602E-17
 -1      2221 5.52359E-04 1.08941E-04-4.66207E-17
 -1      2222 5.50429E-04 9.08689E-05-5.24889E-17
 -1      2223 6.65496E-04 9.72385E-05-7.61381E-17
 -1      2224 5.58253E-04 1.48271E-04-3.30682E-17
 -1      2225 5.54927E-04 1.28049E-04-4.01561E-17
 -1      2226 6.70601E-04 1.40004E-04-6.08237E-17
 -1      2227 5.68599E-04 1.93867E-04-1.66018E-17
 -1      2228 5.62751E-04 1.70150E-04-2.53297E-17
 -1      2229 6.79270E-04 1.87543E-04-4.26091E-17
 -1      2230 1.30214E-03 4.56723E-04-4.30428E-17
 -1      2231 1.15981E-03 4.30780E-04-2.29986E-17
 -1      2232 1.07183E-03 3.81299E-04-3.40304E-17
 -1      2233 9.15239E-04-3.46350E-04-2.25067E-16
 -1      2234 1.05934E-03-3.79666E-04-2.88493E-16
 -1      2235 1.35383E-02 7.29957E-04-2.47674E-14
 -1      2236 1.37857E-02 5.78058E-04-2.52190E-14
 -1      2237 1.20261E-03-4.08047E-04-3.59332E-16
 -1      2238 1.34543E-03-4.31923E-04-4.37828E-16
 -1      2239 1.11702E-03-3.60477E-04-3.21100E-16
 -1      2240 1.48760E-03-4.52147E-04-5.23900E-16
 -1      2241 1.62939E-03-4.68992E-04-6.17562E-16
 -1      2242 1.40336E-03-4.07247E-04-4.76317E-16
 -1      2243 1.77082E-03-4.83131E-04-7.18148E-16
 -1      2244 1.91201E-03-4.94780E-04-8.26270E-16
 -1      2245 1.68850E-03-4.40496E-04-6.60401E-16
 -1      2246 2.05305E-03-5.04434E-04-9.41548E-16
 -1      2247 2.19397E-03-5.12269E-04-1.06391E-15
 -1      2248 1.97270E-03-4.63560E-04-8.73501E-16
 -1      2249 2.33488E-03-5.18646E-04-1.19327E-15
 -1      2250 2.47578E-03-5.23707E-04-1.32953E-15
 -1      2251 2.25634E-03-4.79086E-04-1.11459E-15
 -1      2252 2.61673E-03-5.27718E-04-1.47232E-15
 -1      2253 2.75773E-03-5.30793E-04-1.62218E-15
 -1      2254 2.53976E-03-4.89113E-04-1.38295E-15
 -1      2255 2.89883E-03-5.33123E-04-1.77900E-15
 -1      2256 3.04001E-03-5.34798E-04-1.94259E-15
 -1      2257 2.82318E-03-4.95192E-04-1.67851E-15
 -1      2258 3.18132E-03-5.35957E-04-2.11148E-15
 -1      2259 3.32271E-03-5.36668E-04-2.28695E-15
 -1      2260 3.10675E-03-4.98493E-04-1.99988E-15
 -1      2261 3.46424E-03-5.37029E-04-2.46984E-15
 -1      2262 3.60585E-03-5.37090E-04-2.65915E-15
 -1      2263 3.39055E-03-4.99879E-04-2.34746E-15
 -1      2264 3.74759E-03-5.36919E-04-2.85405E-15
 -1      2265 3.88942E-03-5.36552E-04-3.05451E-15
 -1      2266 3.67460E-03-4.99977E-04-2.72048E-15
 -1      2267 4.03136E-03-5.36031E-04-3.26119E-15
 -1      2268 4.17338E-03-5.35384E-04-3.47393E-15
 -1      2269 3.95892E-03-4.99227E-04-3.11795E-15
 -1      2270 4.31550E-03-5.34633E-04-3.69218E-15
 -1      2271 4.45769E-03-5.33797E-04-3.91572E-15
 -1      2272 4.24348E-03-4.97924E-04-3.53844E-15
 -1      2273 4.59997E-03-5.32885E-04-4.14406E-15
 -1      2274 4.74231E-03-5.31906E-04-4.37813E-15
 -1      2275 4.52828E-03-4.96248E-04-3.98195E-15
 -1      2276 4.88474E-03-5.30862E-04-4.61731E-15
 -1      2277 5.02723E-03-5.29756E-04-4.86191E-15
 -1      2278 4.81329E-03-4.94293E-04-4.44673E-15
 -1      2279 5.16978E-03-5.28580E-04-5.11241E-15
 -1      2280 5.31240E-03-5.27332E-04-5.37051E-15
 -1      2281 5.09850E-03-4.92086E-04-4.93490E-15
 -1      2282 5.45510E-03-5.26000E-04-5.63515E-15
 -1      2283 5.59785E-03-5.24579E-04-5.90599E-15
 -1      2284 5.38391E-03-4.89600E-04-5.44864E-15
 -1      2285 5.74069E-03-5.23050E-04-6.18459E-15
 -1      2286 5.88360E-03-5.21406E-04-6.47072E-15
 -1      2287 5.66952E-03-4.86769E-04-5.98989E-15
 -1      2288 6.02659E-03-5.19626E-04-6.76436E-15
 -1      2289 6.16968E-03-5.17703E-04-7.06753E-15
 -1      2290 5.95536E-03-4.83496E-04-6.56079E-15
 -1      2291 6.31287E-03-5.15611E-04-7.38060E-15
 -1      2292 6.45618E-03-5.13345E-04-7.70087E-15
 -1      2293 6.24147E-03-4.79665E-04-7.16453E-15
 -1      2294 6.59961E-03-5.10879E-04-8.03105E-15
 -1      2295 6.74321E-03-5.08211E-04-8.36947E-15
 -1      2296 6.52790E-03-4.75149E-04-7.80466E-15
 -1      2297 6.88696E-03-5.05318E-04-8.71760E-15
 -1      2298 7.03091E-03-5.02202E-04-9.07389E-15
 -1      2299 6.81475E-03-4.69829E-04-8.47950E-15
 -1      2300 7.17506E-03-4.98846E-04-9.43845E-15
 -1      2301 7.31948E-03-4.95263E-04-9.81122E-15
 -1      2302 7.10212E-03-4.63611E-04-9.18964E-15
 -1      2303 7.46415E-03-4.91448E-04-1.01910E-14
 -1      2304 7.60916E-03-4.87425E-04-1.05798E-14
 -1      2305 7.39015E-03-4.56453E-04-9.93250E-15
 -1      2306 7.75449E-03-4.83215E-04-1.09764E-14
 -1      2307 7.90024E-03-4.78859E-04-1.13812E-14
 -1      2308 7.67902E-03-4.48406E-04-1.07057E-14
 -1      2309 8.04639E-03-4.74411E-04-1.17942E-14
 -1      2310 8.19307E-03-4.69943E-04-1.22151E-14
 -1      2311 7.96894E-03-4.39669E-04-1.15117E-14
 -1      2312 8.34025E-03-4.65558E-04-1.26457E-14
 -1      2313 8.48807E-03-4.61369E-04-1.30846E-14
 -1      2314 8.26016E-03-4.30664E-04-1.23516E-14
 -1      2315 8.63651E-03-4.57551E-04-1.35296E-14
 -1      2316 8.78573E-03-4.54274E-04-1.39829E-14
 -1      2317 8.55302E-03-4.22139E-04-1.32228E-14
 -1      2318 8.93570E-03-4.51811E-04-1.44422E-14
 -1      2319 9.08662E-03-4.50408E-04-1.49103E-14
 -1      2320 8.84792E-03-4.15296E-04-1.41222E-14
 -1      2321 9.23847E-03-4.50462E-04-1.53852E-14
 -1      2322 9.39144E-03-4.52330E-04-1.58629E-14
 -1      2323 9.14542E-03-4.11958E-04-1.50502E-14
 -1      2324 9.54558E-03-4.56545E-04-1.63479E-14
 -1      2325 9.70105E-03-4.63613E-04-1.68380E-14
 -1      2326 9.44632E-03-4.14758E-04-1.60028E-14
 -1      2327 9.85802E-03-4.74194E-04-1.73329E-14
 -1      2328 1.00165E-02-4.88979E-04-1.78323E-14
 -1      2329 9.75177E-03-4.27332E-04-1.69759E-14
 -1      2330 1.01770E-02-5.08700E-04-1.83386E-14
 -1      2331 1.03392E-02-5.34237E-04-1.88505E-14
 -1      2332 1.00635E-02-4.54478E-04-1.79707E-14
 -1      2333 1.05038E-02-5.66243E-04-1.93690E-14
 -1      2334 1.06701E-02-6.05698E-04-1.98934E-14
 -1      2335 1.03837E-02-5.02143E-04-1.89872E-14
 -1      2336 1.08392E-02-6.52902E-04-2.04203E-14
 -1      2337 1.10098E-02-7.08614E-04-2.09534E-14
 -1      2338 1.07149E-02-5.76986E-04-2.00288E-14
 -1      2339 1.11827E-02-7.72409E-04-2.14948E-14
 -1      2340 1.13559E-02-8.43816E-04-2.20388E-14
 -1      2341 1.10587E-02-6.85016E-04-2.10896E-14
 -1      2342 1.15299E-02-9.21207E-04-2.25912E-14
 -1      2343 1.17021E-02-1.00189E-03-2.31490E-14
 -1      2344 1.14130E-02-8.27589E-04-2.21744E-14
 -1      2345 1.18723E-02-1.08244E-03-2.37106E-14
 -1      2346 1.20386E-02-1.15724E-03-2.42767E-14
 -1      2347 1.17699E-02-9.94219E-04-2.32817E-14
 -1      2348 1.22000E-02-1.22188E-03-2.48484E-14
 -1      2349 1.23578E-02-1.26940E-03-2.54278E-14
 -1      2350 1.21163E-02-1.15423E-03-2.44096E-14
 -1      2351 1.25107E-02-1.29618E-03-2.60112E-14
 -1      2352 1.26633E-02-1.29864E-03-2.65947E-14
 -1      2353 1.24442E-02-1.25862E-03-2.55582E-14
 -1      2354 1.28139E-02-1.27627E-03-2.71785E-14
 -1      2355 1.29678E-02-1.23110E-03-2.77670E-14
 -1      2356 1.27600E-02-1.26497E-03-2.67226E-14
 -1      2357 1.31234E-02-1.16612E-03-2.83528E-14
 -1      2358 1.32823E-02-1.08751E-03-2.89335E-14
 -1      2359 1.30817E-02-1.16618E-03-2.78891E-14
 -1      2360 1.34433E-02-9.98499E-04-2.95153E-14
 -1      2361 1.36049E-02-9.04183E-04-3.00932E-14
 -1      2362 1.34164E-02-9.99882E-04-2.90520E-14
 -1      2363 1.37666E-02-8.07086E-04-3.06679E-14
 -1      2364 1.39258E-02-7.08833E-04-3.12404E-14
 -1      2365 1.37568E-02-8.07337E-04-3.02047E-14
 -1      2366 1.86535E-03 5.25242E-04-1.75139E-16
 -1      2367 1.72511E-03 5.12489E-04-1.33804E-16
 -1      2368 2.14545E-03 5.44529E-04-2.76079E-16
 -1      2369 2.00545E-03 5.35862E-04-2.22709E-16
 -1      2370 1.92465E-03 4.94625E-04-2.34608E-16
 -1      2371 2.42552E-03 5.57326E-04-4.00992E-16
 -1      2372 2.28547E-03 5.51633E-04-3.35723E-16
 -1      2373 2.20676E-03 5.11893E-04-3.47148E-16
 -1      2374 2.70594E-03 5.65439E-04-5.51235E-16
 -1      2375 2.56568E-03 5.61887E-04-4.72780E-16
 -1      2376 2.48871E-03 5.23212E-04-4.83690E-16
 -1      2377 2.98691E-03 5.70223E-04-7.27595E-16
 -1      2378 2.84636E-03 5.68185E-04-6.35830E-16
 -1      2379 2.77080E-03 5.30252E-04-6.45629E-16
 -1      2380 3.26851E-03 5.72683E-04-9.29134E-16
 -1      2381 3.12763E-03 5.71696E-04-8.25634E-16
 -1      2382 3.05321E-03 5.34267E-04-8.33643E-16
 -1      2383 3.55074E-03 5.73556E-04-1.15718E-15
 -1      2384 3.40955E-03 5.73283E-04-1.03997E-15
 -1      2385 3.33602E-03 5.36185E-04-1.04730E-15
 -1      2386 3.83357E-03 5.73368E-04-1.41093E-15
 -1      2387 3.69209E-03 5.73570E-04-1.28046E-15
 -1      2388 3.61925E-03 5.36684E-04-1.28622E-15
 -1      2389 4.11694E-03 5.72482E-04-1.69266E-15
 -1      2390 3.97520E-03 5.72995E-04-1.54760E-15
 -1      2391 3.90289E-03 5.36242E-04-1.55132E-15
 -1      2392 4.40078E-03 5.71132E-04-2.00656E-15
 -1      2393 4.25881E-03 5.71854E-04-1.84589E-15
 -1      2394 4.18691E-03 5.35184E-04-1.84625E-15
 -1      2395 4.68503E-03 5.69453E-04-2.35327E-15
 -1      2396 4.54286E-03 5.70327E-04-2.17542E-15
 -1      2397 4.47128E-03 5.33715E-04-2.17266E-15
 -1      2398 4.96965E-03 5.67504E-04-2.73594E-15
 -1      2399 4.82730E-03 5.68509E-04-2.54064E-15
 -1      2400 4.75594E-03 5.31947E-04-2.53298E-15
 -1      2401 5.25459E-03 5.65285E-04-3.15271E-15
 -1      2402 5.11208E-03 5.66428E-04-2.93984E-15
 -1      2403 5.04088E-03 5.29920E-04-2.92870E-15
 -1      2404 5.53986E-03 5.62749E-04-3.60343E-15
 -1      2405 5.39719E-03 5.64059E-04-3.37359E-15
 -1      2406 5.32609E-03 5.27620E-04-3.35753E-15
 -1      2407 5.82547E-03 5.59818E-04-4.09006E-15
 -1      2408 5.68262E-03 5.61337E-04-3.84222E-15
 -1      2409 5.61156E-03 5.24989E-04-3.82132E-15
 -1      2410 6.11147E-03 5.56387E-04-4.61065E-15
 -1      2411 5.96842E-03 5.58169E-04-4.34571E-15
 -1      2412 5.89732E-03 5.21938E-04-4.31927E-15
 -1      2413 6.39795E-03 5.52340E-04-5.16136E-15
 -1      2414 6.25464E-03 5.54445E-04-4.88261E-15
 -1      2415 6.18341E-03 5.18358E-04-4.85065E-15
 -1      2416 6.68503E-03 5.47565E-04-5.74600E-15
 -1      2417 6.54140E-03 5.50047E-04-5.45014E-15
 -1      2418 6.46992E-03 5.14127E-04-5.41377E-15
 -1      2419 6.97288E-03 5.41967E-04-6.36065E-15
 -1      2420 6.82884E-03 5.44870E-04-6.04856E-15
 -1      2421 6.75694E-03 5.09132E-04-6.00737E-15
 -1      2422 7.26174E-03 5.35500E-04-7.00561E-15
 -1      2423 7.11716E-03 5.38839E-04-6.67921E-15
 -1      2424 7.04463E-03 5.03283E-04-6.63083E-15
 -1      2425 7.55189E-03 5.28200E-04-7.68558E-15
 -1      2426 7.40662E-03 5.31944E-04-7.34243E-15
 -1      2427 7.33316E-03 4.96543E-04-7.28809E-15
 -1      2428 7.84369E-03 5.20238E-04-8.39557E-15
 -1      2429 7.69754E-03 5.24281E-04-8.03785E-15
 -1      2430 7.62279E-03 4.88966E-04-7.97772E-15
 -1      2431 8.13755E-03 5.11989E-04-9.13419E-15
 -1      2432 7.99032E-03 5.16114E-04-8.76083E-15
 -1      2433 7.91378E-03 4.80751E-04-8.69653E-15
 -1      2434 8.43397E-03 5.04129E-04-9.89677E-15
 -1      2435 8.28539E-03 5.07954E-04-9.51218E-15
 -1      2436 8.20648E-03 4.72319E-04-9.44195E-15
 -1      2437 8.73348E-03 4.97759E-04-1.06836E-14
 -1      2438 8.58328E-03 5.00674E-04-1.02872E-14
 -1      2439 8.50130E-03 4.64407E-04-1.02140E-14
 -1      2440 9.03666E-03 4.94551E-04-1.14937E-14
 -1      2441 8.88455E-03 4.95638E-04-1.10862E-14
 -1      2442 8.79871E-03 4.58197E-04-1.10104E-14
 -1      2443 9.34411E-03 4.96916E-04-1.23243E-14
 -1      2444 9.18980E-03 4.94868E-04-1.19065E-14
 -1      2445 9.09927E-03 4.55461E-04-1.18273E-14
 -1      2446 9.65641E-03 5.08154E-04-1.31795E-14
 -1      2447 9.49962E-03 5.01203E-04-1.27490E-14
 -1      2448 9.40366E-03 4.58732E-04-1.26683E-14
 -1      2449 9.97403E-03 5.32502E-04-1.40564E-14
 -1      2450 9.81457E-03 5.18412E-04-1.36150E-14
 -1      2451 9.71269E-03 4.71439E-04-1.35307E-14
 -1      2452 1.02972E-02 5.74931E-04-1.49538E-14
 -1      2453 1.01350E-02 5.51144E-04-1.45026E-14
 -1      2454 1.00273E-02 4.97957E-04-1.44140E-14
 -1      2455 1.06257E-02 6.40424E-04-1.58718E-14
 -1      2456 1.04611E-02 6.04517E-04-1.54102E-14
 -1      2457 1.03485E-02 5.43410E-04-1.53198E-14
 -1      2458 1.09582E-02 7.32336E-04-1.68055E-14
 -1      2459 1.07919E-02 6.82975E-04-1.63363E-14
 -1      2460 1.06770E-02 6.12944E-04-1.62432E-14
 -1      2461 1.12915E-02 8.49562E-04-1.77523E-14
 -1      2462 1.11253E-02 7.88106E-04-1.72770E-14
 -1      2463 1.10122E-02 7.10015E-04-1.71811E-14
 -1      2464 1.16204E-02 9.82628E-04-1.87166E-14
 -1      2465 1.14571E-02 9.15113E-04-1.82329E-14
 -1      2466 1.13512E-02 8.33223E-04-1.81334E-14
 -1      2467 1.19382E-02 1.11080E-03-1.96907E-14
 -1      2468 1.17811E-02 1.04920E-03-1.92019E-14
 -1      2469 1.16877E-02 9.71766E-04-1.91032E-14
 -1      2470 1.22409E-02 1.20351E-03-2.06803E-14
 -1      2471 1.20912E-02 1.16365E-03-2.01844E-14
 -1      2472 1.20135E-02 1.10116E-03-2.00867E-14
 -1      2473 1.25308E-02 1.23151E-03-2.16760E-14
 -1      2474 1.23865E-02 1.22704E-03-2.11756E-14
 -1      2475 1.23239E-02 1.18672E-03-2.10768E-14
 -1      2476 1.28166E-02 1.18074E-03-2.26852E-14
 -1      2477 1.26731E-02 1.21591E-03-2.21802E-14
 -1      2478 1.26230E-02 1.19749E-03-2.20818E-14
 -1      2479 1.31070E-02 1.05950E-03-2.37039E-14
 -1      2480 1.29606E-02 1.12749E-03-2.31946E-14
 -1      2481 1.29219E-02 1.12391E-03-2.30983E-14
 -1      2482 1.34046E-02 8.91414E-04-2.47223E-14
 -1      2483 1.32551E-02 9.79629E-04-2.42136E-14
 -1      2484 1.32289E-02 9.82586E-04-2.41208E-14
 -1      2485 1.37053E-02 7.00055E-04-2.57458E-14
 -1      2486 1.35550E-02 7.97510E-04-2.52345E-14
 -1      2487 1.35427E-02 8.02796E-04-2.51471E-14
 -1      2488 1.40036E-02 4.99587E-04-2.67541E-14
 -1      2489 1.38552E-02 6.00625E-04-2.62503E-14
 -1      2490 1.38559E-02 6.08008E-04-2.61713E-14
 -1      2491 1.41532E-02 3.95318E-04-2.72631E-14
 -1      2492 1.50083E-02 5.95418E-05-2.86383E-14
 -1      2493 1.48663E-02 1.06328E-04-2.84280E-14
 -1      2494 1.52800E-02-1.53623E-05-2.90599E-14
 -1      2495 1.51479E-02 1.80336E-05-2.88495E-14
 -1      2496 1.49462E-02 7.62151E-05-2.82800E-14
 -1      2497 1.44782E-02 2.61627E-04-2.77974E-14
 -1      2498 1.43653E-02 3.12203E-04-2.75876E-14
 -1      2499 1.47293E-02 1.57708E-04-2.82178E-14
 -1      2500 1.45992E-02 2.09136E-04-2.80073E-14
 -1      2501 1.43961E-02 3.08966E-04-2.74518E-14
 -1      2502 1.46554E-02 1.89756E-04-2.78650E-14
 -1      2503 1.54918E-02-5.56973E-05-2.94841E-14
 -1      2504 1.53995E-02-3.97365E-05-2.92691E-14
 -1      2505 1.52328E-02-1.04410E-05-2.86981E-14
 -1      2506 1.55678E-02-6.65398E-05-2.99024E-14
 -1      2507 1.55500E-02-6.18595E-05-2.96949E-14
 -1      2508 1.54374E-02-5.38779E-05-2.91151E-14
 -1      2509 1.54792E-02-7.89124E-05-3.03246E-14
 -1      2510 1.55431E-02-6.89016E-05-3.01137E-14
 -1      2511 1.54779E-02-6.88690E-05-2.95360E-14
 -1      2512 1.52607E-02-1.22170E-04-3.07489E-14
 -1      2513 1.53811E-02-9.51220E-05-3.05368E-14
 -1      2514 1.53335E-02-9.71913E-05-2.99549E-14
 -1      2515 1.49854E-02-2.01437E-04-3.11661E-14
 -1      2516 1.51255E-02-1.58733E-04-3.09584E-14
 -1      2517 1.50702E-02-1.68461E-04-3.03741E-14
 -1      2518 1.47119E-02-3.00800E-04-3.15810E-14
 -1      2519 1.48459E-02-2.50619E-04-3.13745E-14
 -1      2520 1.47758E-02-2.76243E-04-3.07879E-14
 -1      2521 1.44675E-02-4.03685E-04-3.19892E-14
 -1      2522 1.45859E-02-3.53018E-04-3.17836E-14
 -1      2523 1.45056E-02-3.95349E-04-3.11965E-14
 -1      2524 1.52461E-02-4.33536E-05-2.76334E-14
 -1      2525 1.53123E-02-5.61156E-05-2.78615E-14
 -1      2526 1.45037E-02 2.03626E-04-2.63587E-14
 -1      2527 1.47436E-02 1.06797E-04-2.67217E-14
 -1      2528 1.58458E-03 4.97056E-04-9.83236E-17
 -1      2529 1.44364E-03 4.78728E-04-6.81286E-17
 -1      2530 1.64191E-03 4.69200E-04-1.45920E-16
 -1      2531 1.31292E-02 9.66775E-04-2.39093E-14
 -1      2532 1.32846E-02 8.77727E-04-2.42579E-14
 -1      2533 1.43605E-02-4.37413E-04-3.26577E-14
 -1      2534 1.51699E-02-1.05085E-04-2.80448E-14
 -1      2535 1.50251E-02-1.42501E-04-2.80427E-14
 -1      2536 1.40428E-02 4.29339E-04-2.56830E-14
 -1      2537 1.42418E-02 3.23175E-04-2.60017E-14
 -1      2538 1.53110E-02-7.05834E-05-2.80165E-14
 -1      2539 1.52689E-02-7.85393E-05-2.80652E-14
 -1      2540 1.15911E-02-6.59187E-04-2.27743E-14
 -1      2541 1.13701E-02-5.21208E-04-2.23768E-14
 -1      2542 1.02909E-02-3.84726E-05-2.04341E-14
 -1      2543 1.02904E-02-2.59932E-05-2.03411E-14
 -1      2544 5.46559E-04-2.28956E-05-8.46355E-17
 -1      2545 5.47018E-04-3.89329E-05-8.85658E-17
 -1      2546 6.62474E-04-5.58055E-05-1.21878E-16
 -1      2547 6.61240E-04-1.77019E-05-1.11930E-16
 -1      2548 1.24154E-02 1.05337E-03-2.22122E-14
 -1      2549 1.25789E-02 1.09480E-03-2.25695E-14
 -1      2550 1.11363E-02-3.90332E-04-2.19777E-14
 -1      2551 1.09515E-02-2.96930E-04-2.16820E-14
 -1      2552 1.27873E-02 1.09056E-03-2.30701E-14
 -1      2553 1.29485E-02 1.04343E-03-2.34902E-14
 -1      2554 1.30149E-02 1.01556E-03-2.36369E-14
 -1      2555 1.20955E-02 8.98903E-04-2.16008E-14
 -1      2556 1.22518E-02 9.86176E-04-2.18975E-14
 -1      2557 1.17028E-02 6.54812E-04-2.09534E-14
 -1      2558 1.18891E-02 7.76666E-04-2.12104E-14
 -1      2559 1.12821E-02 4.00918E-04-2.06441E-14
 -1      2560 1.14682E-02 5.10190E-04-2.07836E-14
 -1      2561 1.09025E-02 2.07383E-04-2.04009E-14
 -1      2562 1.10816E-02 2.93754E-04-2.04992E-14
 -1      2563 1.05640E-02 6.92352E-05-2.01872E-14
 -1      2564 1.07228E-02 1.28210E-04-2.02936E-14
 -1      2565 1.08015E-02 1.62163E-04-2.00852E-14
 -1      2566 1.03289E-02-6.83736E-06-2.02473E-14
 -1      2567 1.04052E-02 1.49625E-05-2.01536E-14
 -1      2568 1.02890E-02-1.72360E-05-2.00041E-14
 -1      2569 1.04131E-02-8.11165E-05-2.07208E-14
 -1      2570 1.03386E-02-6.02311E-05-2.05627E-14
 -1      2571 1.33753E-02-9.53719E-04-2.69425E-14
 -1      2572 1.32095E-02-1.05175E-03-2.66423E-14
 -1      2573 1.19778E-02-9.13370E-04-2.35726E-14
 -1      2574 1.18220E-02-8.07884E-04-2.32277E-14
 -1      2575 1.23585E-02-1.13155E-03-2.45181E-14
 -1      2576 1.21772E-02-1.03421E-03-2.40469E-14
 -1      2577 1.26717E-02-1.21063E-03-2.53442E-14
 -1      2578 1.25490E-02-1.19374E-03-2.50141E-14
 -1      2579 1.30262E-02-1.13760E-03-2.62224E-14
 -1      2580 1.28547E-02-1.19376E-03-2.58051E-14
 -1      2581 1.31105E-02-1.09974E-03-2.66420E-14
 -1      2582 1.38544E-02-6.67544E-04-2.75245E-14
 -1      2583 1.36160E-02-8.13188E-04-2.72416E-14
 -1      2584 1.43590E-02-3.97811E-04-2.79393E-14
 -1      2585 1.41416E-02-5.07505E-04-2.78151E-14
 -1      2586 1.48303E-02-2.05545E-04-2.80612E-14
 -1      2587 1.46120E-02-2.87567E-04-2.80092E-14
 -1      2588 5.88559E-04-2.37968E-04-1.12689E-16
 -1      2589 7.81357E-04-3.04819E-04-1.74340E-16
 -1      2590 8.40801E-04-2.93583E-04-2.00970E-16
 -1      2591 5.78984E-04-2.10137E-04-1.12608E-16
 -1      2592 7.57937E-04 3.34191E-04 1.10453E-17
 -1      2593 6.11513E-04 2.84832E-04 1.46638E-17
 -1      2594 5.84784E-04 2.58062E-04 7.65718E-18
 -1      2595 8.13758E-04 3.22861E-04-6.45100E-18
 -1      2596 1.49715E-02 2.86574E-05-2.70741E-14
 -1      2597 1.51196E-02-1.04682E-05-2.73122E-14
 -1      2598 1.25567E-02 1.10289E-03-2.23711E-14
 -1      2599 1.26658E-02 1.10607E-03-2.27198E-14
 -1      2600 1.27401E-02 1.10195E-03-2.28693E-14
 -1      2601 6.70187E-04-1.37952E-04-1.38900E-16
 -1      2602 5.54565E-04-1.26200E-04-1.04815E-16
 -1      2603 5.57780E-04-1.46172E-04-1.07187E-16
 -1      2604 1.35787E-03 4.32706E-04-7.99870E-17
 -1      2605 5.72277E-04 2.27864E-04-3.19840E-18
 -1      2606 1.48634E-02 6.16379E-05-2.70662E-14
 -1      2607 5.64280E-04-1.64935E-04-1.09599E-16
 -1      2608 5.69725E-04-1.88002E-04-1.11009E-16
 -1      2609 6.97838E-04-2.27735E-04-1.51368E-16
 -1      2610 6.80691E-04-1.81654E-04-1.45852E-16
 -1      2611 1.49389E-02-1.65981E-04-2.83590E-14
 -1      2612 1.45079E-02-3.27212E-04-2.83099E-14
 -1      2613 1.38981E-02 5.06445E-04-2.55357E-14
 -1      2614 1.27744E-02-1.20928E-03-2.57560E-14
 -1      2615 1.24343E-02-1.16820E-03-2.47941E-14
 -1      2616 1.41640E-02 4.06169E-04-2.71919E-14
 -1      2617 1.43851E-02 2.51855E-04-2.63568E-14
 -1      2618 1.42249E-02 3.80281E-04-2.72983E-14
 -1      2619 1.20796E-02-9.87169E-04-2.38199E-14
 -1      2620 1.53401E-02-6.26190E-05-2.82216E-14
 -1      2621 1.52101E-02-3.43842E-05-2.77419E-14
 -1      2622 1.34949E-02-8.80754E-04-2.73635E-14
 -1      2623 1.04638E-02 3.51435E-05-1.99463E-14
 -1      2624 1.05256E-02 6.09760E-05-1.97389E-14
 -1      2625 1.03804E-02 1.70725E-05-1.97045E-14
 -1      2626 6.89560E-04 2.51214E-04-1.58700E-17
 -1      2627 1.23253E-02 1.02699E-03-2.19080E-14
 -1      2628 1.41651E-02-5.57114E-04-3.21438E-14
 -1      2629 1.43448E-02-4.63919E-04-3.20688E-14
 -1      2630 1.42601E-02-5.17906E-04-3.14761E-14
 -1      2631 1.40306E-02-6.43437E-04-3.16296E-14
 -1      2632 1.52295E-02-8.84732E-05-2.83579E-14
 -1      2633 1.41404E-02 4.39215E-04-2.69593E-14
 -1      2634 1.12461E-02-4.53482E-04-2.20401E-14
 -1      2635 1.11662E-02 3.38758E-04-2.03354E-14
 -1      2636 1.15803E-02 5.85591E-04-2.06492E-14
 -1      2637 1.02923E-02-4.58051E-05-2.02233E-14
 -1      2638 1.08262E-02-2.39641E-04-2.13700E-14
 -1      2639 1.16847E-02-7.26198E-04-2.28905E-14
 -1      2640 1.34109E-02 7.99762E-04-2.45628E-14
 -1      2641 1.19792E-02 8.42173E-04-2.12059E-14
 -1      2642 1.04737E-02-1.01589E-04-2.07211E-14
 -1      2643 1.39960E-02-5.84020E-04-2.79530E-14
 -1      2644 1.40345E-02-6.45538E-04-3.11657E-14
 -1      2645 7.80156E-04 7.73246E-05-1.13502E-16
 -1      2646 7.78891E-04 5.54653E-05-1.21295E-16
 -1      2647 7.78042E-04 3.35558E-05-1.28885E-16
 -1      2648 7.77618E-04 1.18944E-05-1.36000E-16
 -1      2649 8.96448E-04 4.96756E-05-1.59188E-16
 -1      2650 7.91523E-04 1.73114E-04-7.63278E-17
 -1      2651 7.87510E-04 1.47701E-04-8.66278E-17
 -1      2652 8.03403E-04 2.28308E-04-5.28955E-17
 -1      2653 7.96772E-04 1.99919E-04-6.51741E-17
 -1      2654 9.14826E-04 2.07811E-04-9.30110E-17
 -1      2655 1.12985E-03 3.61937E-04-6.33174E-17
 -1      2656 9.86242E-04 3.32867E-04-4.24465E-17
 -1      2657 1.22296E-02 9.94739E-04-2.15782E-14
 -1      2658 1.23678E-02 1.05754E-03-2.18901E-14
 -1      2659 8.03108E-04 2.78215E-04-2.77556E-17
 -1      2660 1.31626E-02-1.07588E-03-2.70565E-14
 -1      2661 1.30059E-02-1.15133E-03-2.66338E-14
 -1      2662 1.46599E-02-2.66054E-04-2.87523E-14
 -1      2663 1.44381E-02-3.61312E-04-2.86845E-14
 -1      2664 1.32016E-03-3.62757E-04-4.30374E-16
 -1      2665 1.46339E-03-3.81744E-04-5.14115E-16
 -1      2666 1.60643E-03-3.97831E-04-6.04985E-16
 -1      2667 1.74937E-03-4.11248E-04-7.02807E-16
 -1      2668 1.52498E-03-3.55418E-04-5.51317E-16
 -1      2669 1.89214E-03-4.22464E-04-8.07825E-16
 -1      2670 2.03480E-03-4.31667E-04-9.19593E-16
 -1      2671 1.81166E-03-3.81334E-04-7.44305E-16
 -1      2672 2.17735E-03-4.39234E-04-1.03842E-15
 -1      2673 2.31982E-03-4.45315E-04-1.16393E-15
 -1      2674 2.09812E-03-3.99208E-04-9.64615E-16
 -1      2675 2.46223E-03-4.50202E-04-1.29610E-15
 -1      2676 2.60460E-03-4.54015E-04-1.43489E-15
 -1      2677 2.38430E-03-4.11060E-04-1.21173E-15
 -1      2678 2.74695E-03-4.56972E-04-1.58041E-15
 -1      2679 2.88928E-03-4.59170E-04-1.73268E-15
 -1      2680 2.67024E-03-4.18507E-04-1.48559E-15
 -1      2681 3.03163E-03-4.60768E-04-1.89144E-15
 -1      2682 3.17397E-03-4.61840E-04-2.05620E-15
 -1      2683 2.95601E-03-4.22807E-04-1.78530E-15
 -1      2684 3.31635E-03-4.62503E-04-2.22744E-15
 -1      2685 3.45873E-03-4.62810E-04-2.40599E-15
 -1      2686 3.24168E-03-4.24910E-04-2.11100E-15
 -1      2687 3.60116E-03-4.62843E-04-2.58996E-15
 -1      2688 3.74360E-03-4.62642E-04-2.78041E-15
 -1      2689 3.52729E-03-4.25518E-04-2.46218E-15
 -1      2690 3.88608E-03-4.62262E-04-2.97750E-15
 -1      2691 4.02859E-03-4.61730E-04-3.17940E-15
 -1      2692 3.81288E-03-4.25132E-04-2.83864E-15
 -1      2693 4.17113E-03-4.61081E-04-3.38775E-15
 -1      2694 4.31370E-03-4.60332E-04-3.60192E-15
 -1      2695 4.09846E-03-4.24098E-04-3.23914E-15
 -1      2696 4.45630E-03-4.59502E-04-3.82192E-15
 -1      2697 4.59893E-03-4.58601E-04-4.04738E-15
 -1      2698 4.38406E-03-4.22639E-04-3.66380E-15
 -1      2699 4.74160E-03-4.57636E-04-4.27842E-15
 -1      2700 4.88429E-03-4.56611E-04-4.51501E-15
 -1      2701 4.66967E-03-4.20883E-04-4.11139E-15
 -1      2702 5.02701E-03-4.55524E-04-4.75810E-15
 -1      2703 5.16976E-03-4.54373E-04-5.00752E-15
 -1      2704 4.95532E-03-4.18884E-04-4.58235E-15
 -1      2705 5.31254E-03-4.53150E-04-5.26335E-15
 -1      2706 5.45535E-03-4.51850E-04-5.52644E-15
 -1      2707 5.24101E-03-4.16641E-04-5.07996E-15
 -1      2708 5.59819E-03-4.50458E-04-5.79585E-15
 -1      2709 5.74107E-03-4.48967E-04-6.07321E-15
 -1      2710 5.52673E-03-4.14105E-04-5.60359E-15
 -1      2711 5.88399E-03-4.47358E-04-6.35818E-15
 -1      2712 6.02694E-03-4.45622E-04-6.65040E-15
 -1      2713 5.81251E-03-4.11197E-04-6.15668E-15
 -1      2714 6.16994E-03-4.43738E-04-6.95146E-15
 -1      2715 6.31299E-03-4.41696E-04-7.26234E-15
 -1      2716 6.09834E-03-4.07812E-04-6.74149E-15
 -1      2717 6.45609E-03-4.39475E-04-7.58052E-15
 -1      2718 6.59925E-03-4.37065E-04-7.90699E-15
 -1      2719 6.38423E-03-4.03833E-04-7.35807E-15
 -1      2720 6.74247E-03-4.34447E-04-8.24369E-15
 -1      2721 6.88577E-03-4.31614E-04-8.58885E-15
 -1      2722 6.67020E-03-3.99136E-04-8.00927E-15
 -1      2723 7.02915E-03-4.28551E-04-8.94228E-15
 -1      2724 7.17263E-03-4.25256E-04-9.30412E-15
 -1      2725 6.95626E-03-3.93615E-04-8.69720E-15
 -1      2726 7.31620E-03-4.21725E-04-9.67390E-15
 -1      2727 7.45990E-03-4.17964E-04-1.00513E-14
 -1      2728 7.24242E-03-3.87194E-04-9.41711E-15
 -1      2729 7.60370E-03-4.13987E-04-1.04377E-14
 -1      2730 7.74768E-03-4.09812E-04-1.08313E-14
 -1      2731 7.52870E-03-3.79863E-04-1.01707E-14
 -1      2732 7.89179E-03-4.05479E-04-1.12322E-14
 -1      2733 8.03610E-03-4.01026E-04-1.16410E-14
 -1      2734 7.81512E-03-3.71715E-04-1.09546E-14
 -1      2735 8.18059E-03-3.96532E-04-1.20597E-14
 -1      2736 8.32534E-03-3.92065E-04-1.24861E-14
 -1      2737 8.10173E-03-3.63005E-04-1.17699E-14
 -1      2738 8.47031E-03-3.87757E-04-1.29196E-14
 -1      2739 8.61562E-03-3.83717E-04-1.33592E-14
 -1      2740 8.38862E-03-3.54217E-04-1.26176E-14
 -1      2741 8.76124E-03-3.80149E-04-1.38065E-14
 -1      2742 8.90731E-03-3.77224E-04-1.42607E-14
 -1      2743 8.67592E-03-3.46161E-04-1.34937E-14
 -1      2744 9.05382E-03-3.75231E-04-1.47210E-14
 -1      2745 9.20097E-03-3.74434E-04-1.51877E-14
 -1      2746 8.96397E-03-3.40081E-04-1.43955E-14
 -1      2747 9.34879E-03-3.75217E-04-1.56612E-14
 -1      2748 9.49753E-03-3.77980E-04-1.61393E-14
 -1      2749 9.25337E-03-3.37797E-04-1.53225E-14
 -1      2750 9.64735E-03-3.83197E-04-1.66227E-14
 -1      2751 9.79853E-03-3.91471E-04-1.71116E-14
 -1      2752 9.54522E-03-3.41860E-04-1.62729E-14
 -1      2753 9.95144E-03-4.03333E-04-1.76051E-14
 -1      2754 1.01064E-02-4.19690E-04-1.81046E-14
 -1      2755 9.84148E-03-3.55753E-04-1.72437E-14
 -1      2756 1.02639E-02-4.41058E-04-1.86108E-14
 -1      2757 1.04244E-02-4.68719E-04-1.91233E-14
 -1      2758 1.01453E-02-3.84181E-04-1.82377E-14
 -1      2759 1.05887E-02-5.03056E-04-1.96414E-14
 -1      2760 1.07566E-02-5.45753E-04-2.01631E-14
 -1      2761 1.04613E-02-4.33405E-04-1.92557E-14
 -1      2762 1.09295E-02-5.96839E-04-2.06897E-14
 -1      2763 1.11061E-02-6.58057E-04-2.12226E-14
 -1      2764 1.07953E-02-5.11576E-04-2.02953E-14
 -1      2765 1.12877E-02-7.28910E-04-2.17627E-14
 -1      2766 1.14712E-02-8.08926E-04-2.23087E-14
 -1      2767 1.11520E-02-6.28703E-04-2.13552E-14
 -1      2768 1.16577E-02-8.95847E-04-2.28580E-14
 -1      2769 1.18421E-02-9.86240E-04-2.34127E-14
 -1      2770 1.15301E-02-7.89576E-04-2.24383E-14
 -1      2771 1.20239E-02-1.07599E-03-2.39737E-14
 -1      2772 1.22006E-02-1.15402E-03-2.45389E-14
 -1      2773 1.19155E-02-9.82664E-04-2.35420E-14
 -1      2774 1.23702E-02-1.21533E-03-2.51112E-14
 -1      2775 1.25373E-02-1.24939E-03-2.56872E-14
 -1      2776 1.22860E-02-1.15879E-03-2.46688E-14
 -1      2777 1.28151E-02-1.22936E-03-2.65971E-14
 -1      2778 1.29862E-02-1.18094E-03-2.71778E-14
 -1      2779 1.31609E-02-1.10828E-03-2.77592E-14
 -1      2780 1.33840E-02-9.99270E-04-2.85897E-14
 -1      2781 1.35637E-02-9.01779E-04-2.91672E-14
 -1      2782 1.37442E-02-8.02357E-04-2.97404E-14
 -1      2783 1.39210E-02-7.04676E-04-3.03123E-14
 -1      2784 1.37291E-02-7.94782E-04-2.92791E-14
 -1      2785 2.26923E-03 4.78617E-04-4.20603E-16
 -1      2786 2.12741E-03 4.71760E-04-3.55713E-16
 -1      2787 1.52878E-02-8.18187E-05-2.86907E-14
 -1      2788 1.51836E-02-1.00313E-04-2.86714E-14
 -1      2789 1.98549E-03 4.63281E-04-2.96963E-16
 -1      2790 1.84344E-03 4.53016E-04-2.43783E-16
 -1      2791 2.04764E-03 4.31353E-04-3.61690E-16
 -1      2792 2.83629E-03 4.94607E-04-7.42692E-16
 -1      2793 2.69452E-03 4.91995E-04-6.52622E-16
 -1      2794 3.11997E-03 4.97934E-04-9.42361E-16
 -1      2795 2.97811E-03 4.96560E-04-8.39240E-16
 -1      2796 2.90241E-03 4.58592E-04-8.42628E-16
 -1      2797 3.40385E-03 4.99383E-04-1.16727E-15
 -1      2798 3.26189E-03 4.98855E-04-1.05166E-15
 -1      2799 3.18719E-03 4.61296E-04-1.05348E-15
 -1      2800 3.68798E-03 4.99570E-04-1.41765E-15
 -1      2801 3.54589E-03 4.99607E-04-1.28922E-15
 -1      2802 3.47203E-03 4.62334E-04-1.28977E-15
 -1      2803 3.97236E-03 4.98925E-04-1.69487E-15
 -1      2804 3.83014E-03 4.99332E-04-1.55353E-15
 -1      2805 3.75696E-03 4.62258E-04-1.55190E-15
 -1      2806 4.25698E-03 4.97739E-04-2.00351E-15
 -1      2807 4.11464E-03 4.98387E-04-1.84450E-15
 -1      2808 4.04201E-03 4.61455E-04-1.84176E-15
 -1      2809 4.54182E-03 4.96186E-04-2.34211E-15
 -1      2810 4.39937E-03 4.97001E-04-2.16845E-15
 -1      2811 4.32716E-03 4.60175E-04-2.16195E-15
 -1      2812 4.82686E-03 4.94358E-04-2.71606E-15
 -1      2813 4.68432E-03 4.95303E-04-2.52522E-15
 -1      2814 4.61243E-03 4.58569E-04-2.51506E-15
 -1      2815 5.11210E-03 4.92278E-04-3.12367E-15
 -1      2816 4.96946E-03 4.93349E-04-2.91550E-15
 -1      2817 4.89781E-03 4.56707E-04-2.90054E-15
 -1      2818 5.39753E-03 4.89919E-04-3.56495E-15
 -1      2819 5.25479E-03 4.91136E-04-3.33990E-15
 -1      2820 5.18331E-03 4.54598E-04-3.32088E-15
 -1      2821 5.68316E-03 4.87214E-04-4.04089E-15
 -1      2822 5.54032E-03 4.88614E-04-3.79864E-15
 -1      2823 5.46891E-03 4.52202E-04-3.77469E-15
 -1      2824 5.96901E-03 4.84066E-04-4.55053E-15
 -1      2825 5.82605E-03 4.85700E-04-4.29138E-15
 -1      2826 5.75464E-03 4.49446E-04-4.26209E-15
 -1      2827 6.25511E-03 4.80362E-04-5.09236E-15
 -1      2828 6.11202E-03 4.82289E-04-4.81710E-15
 -1      2829 6.04051E-03 4.46227E-04-4.78284E-15
 -1      2830 6.54154E-03 4.75979E-04-5.66559E-15
 -1      2831 6.39828E-03 4.78261E-04-5.37560E-15
 -1      2832 6.32655E-03 4.42430E-04-5.33616E-15
 -1      2833 6.82837E-03 4.70806E-04-6.27010E-15
 -1      2834 6.68490E-03 4.73496E-04-5.96468E-15
 -1      2835 6.61279E-03 4.37935E-04-5.92010E-15
 -1      2836 7.11572E-03 4.64758E-04-6.90328E-15
 -1      2837 6.97197E-03 4.67893E-04-6.58202E-15
 -1      2838 6.89929E-03 4.32632E-04-6.53286E-15
 -1      2839 7.40371E-03 4.57811E-04-7.57027E-15
 -1      2840 7.25961E-03 4.61394E-04-7.23243E-15
 -1      2841 7.18611E-03 4.26446E-04-7.17723E-15
 -1      2842 7.69253E-03 4.50038E-04-8.26879E-15
 -1      2843 7.54799E-03 4.54017E-04-7.91633E-15
 -1      2844 7.47333E-03 4.19367E-04-7.85380E-15
 -1      2845 7.98238E-03 4.41667E-04-8.99655E-15
 -1      2846 7.83729E-03 4.45906E-04-8.62870E-15
 -1      2847 7.76107E-03 4.11486E-04-8.56152E-15
 -1      2848 8.27354E-03 4.33158E-04-9.75161E-15
 -1      2849 8.12776E-03 4.37393E-04-9.37092E-15
 -1      2850 8.04947E-03 4.03059E-04-9.29728E-15
 -1      2851 8.56634E-03 4.25299E-04-1.05324E-14
 -1      2852 8.41969E-03 4.29088E-04-1.01387E-14
 -1      2853 8.33872E-03 3.94576E-04-1.00630E-14
 -1      2854 8.86122E-03 4.19329E-04-1.13389E-14
 -1      2855 8.71347E-03 4.21987E-04-1.09336E-14
 -1      2856 8.62911E-03 3.86859E-04-1.08543E-14
 -1      2857 9.15876E-03 4.17086E-04-1.21641E-14
 -1      2858 9.00960E-03 4.17608E-04-1.17478E-14
 -1      2859 8.92105E-03 3.81178E-04-1.16679E-14
 -1      2860 9.45978E-03 4.21165E-04-1.30116E-14
 -1      2861 9.30876E-03 4.18145E-04-1.25846E-14
 -1      2862 9.21521E-03 3.79390E-04-1.25014E-14
 -1      2863 9.76542E-03 4.35059E-04-1.38812E-14
 -1      2864 9.61195E-03 4.26625E-04-1.34443E-14
 -1      2865 9.51261E-03 3.84092E-04-1.33567E-14
 -1      2866 1.00773E-02 4.63221E-04-1.47733E-14
 -1      2867 9.92051E-03 4.47015E-04-1.43263E-14
 -1      2868 9.81484E-03 3.98772E-04-1.42351E-14
 -1      2869 1.03972E-02 5.10931E-04-1.56852E-14
 -1      2870 1.02362E-02 4.84217E-04-1.52262E-14
 -1      2871 1.01242E-02 4.27926E-04-1.51333E-14
 -1      2872 1.07269E-02 5.83681E-04-1.66163E-14
 -1      2873 1.05610E-02 5.43768E-04-1.61498E-14
 -1      2874 1.04436E-02 4.77089E-04-1.60545E-14
 -1      2875 1.10669E-02 6.85411E-04-1.75574E-14
 -1      2876 1.08960E-02 6.30716E-04-1.70847E-14
 -1      2877 1.07759E-02 5.52413E-04-1.69883E-14
 -1      2878 1.14143E-02 8.15002E-04-1.85198E-14
 -1      2879 1.12404E-02 7.47100E-04-1.80368E-14
 -1      2880 1.11226E-02 6.58836E-04-1.79382E-14
 -1      2881 1.17606E-02 9.60389E-04-1.94925E-14
 -1      2882 1.15885E-02 8.87324E-04-1.90034E-14
 -1      2883 1.14800E-02 7.96370E-04-1.89041E-14
 -1      2884 1.20962E-02 1.09285E-03-2.04822E-14
 -1      2885 1.19306E-02 1.03116E-03-1.99867E-14
 -1      2886 1.18378E-02 9.50920E-04-1.98863E-14
 -1      2887 1.24141E-02 1.17072E-03-2.14802E-14
 -1      2888 1.22564E-02 1.14148E-03-2.09801E-14
 -1      2889 1.21825E-02 1.08708E-03-2.08794E-14
 -1      2890 1.27222E-02 1.16101E-03-2.24916E-14
 -1      2891 1.25675E-02 1.17799E-03-2.19840E-14
 -1      2892 1.25084E-02 1.15407E-03-2.18866E-14
 -1      2893 1.30353E-02 1.06063E-03-2.35138E-14
 -1      2894 1.28768E-02 1.12051E-03-2.30003E-14
 -1      2895 1.28283E-02 1.11770E-03-2.29028E-14
 -1      2896 1.33601E-02 8.97914E-04-2.45421E-14
 -1      2897 1.31963E-02 9.84151E-04-2.40288E-14
 -1      2898 1.31596E-02 9.86944E-04-2.39316E-14
 -1      2899 1.36902E-02 7.08460E-04-2.55754E-14
 -1      2900 1.35255E-02 8.04759E-04-2.50587E-14
 -1      2901 1.35040E-02 8.05000E-04-2.49693E-14
 -1      2902 1.39969E-02 5.24734E-04-2.65263E-14
 -1      2903 1.38346E-02 6.22164E-04-2.60133E-14
 -1      2904 1.38287E-02 6.20316E-04-2.59276E-14
 -1      2905 1.41315E-02 4.49043E-04-2.68087E-14
 -1      2906 1.43118E-02 2.87718E-04-2.63986E-14
 -1      2907 1.45431E-02 1.81445E-04-2.67576E-14
 -1      2908 1.54120E-02-5.83391E-05-2.88746E-14
 -1      2909 1.53385E-02-4.30991E-05-2.86659E-14
 -1      2910 1.13228E-02-5.11315E-04-2.20625E-14
 -1      2911 1.11187E-02-3.94681E-04-2.16671E-14
 -1      2912 1.49061E-02 7.87822E-05-2.79860E-14
 -1      2913 1.47500E-02 1.39528E-04-2.77812E-14
 -1      2914 1.52155E-02-1.73360E-05-2.84306E-14
 -1      2915 1.50716E-02 2.33576E-05-2.82241E-14
 -1      2916 1.52298E-02-1.09814E-04-2.95856E-14
 -1      2917 1.53416E-02-8.34111E-05-2.93749E-14
 -1      2918 1.47634E-02-2.58444E-04-2.98553E-14
 -1      2919 1.49277E-02-1.93829E-04-2.96495E-14
 -1      2920 1.44581E-02-4.04371E-04-3.02654E-14
 -1      2921 1.46051E-02-3.32270E-04-3.00601E-14
 -1      2922 1.44228E-02-3.89553E-04-2.93291E-14
 -1      2923 1.42906E-02-5.02083E-04-3.09682E-14
 -1      2924 1.44117E-02-4.38534E-04-3.07678E-14
 -1      2925 1.42240E-02-5.18389E-04-3.00351E-14
 -1      2926 1.41659E-02-5.69947E-04-3.10455E-14
 -1      2927 1.50333E-02-1.40223E-04-2.87039E-14
 -1      2928 1.48554E-02-1.93678E-04-2.87257E-14
 -1      2929 1.47846E-02-2.28891E-04-2.90982E-14
 -1      2930 1.51242E-02-1.22591E-04-2.90365E-14
 -1      2931 1.08668E-02-2.63751E-04-2.12274E-14
 -1      2932 1.06862E-02-1.82156E-04-2.09562E-14
 -1      2933 1.52119E-02-3.39811E-05-2.79215E-14
 -1      2934 1.53181E-02-5.13157E-05-2.82442E-14
 -1      2935 1.28435E-02-1.20092E-03-2.61234E-14
 -1      2936 1.26881E-02-1.22174E-03-2.56568E-14
 -1      2937 1.70123E-03 4.40546E-04-1.96498E-16
 -1      2938 1.55877E-03 4.25666E-04-1.55488E-16
 -1      2939 1.76214E-03 4.11226E-04-2.50315E-16
 -1      2940 2.55276E-03 4.88551E-04-5.69003E-16
 -1      2941 2.41101E-03 4.84171E-04-4.91713E-16
 -1      2942 2.33275E-03 4.44831E-04-4.96971E-16
 -1      2943 2.61763E-03 4.53450E-04-6.57027E-16
 -1      2944 1.03371E-03-3.14217E-04-2.84644E-16
 -1      2945 1.17696E-03-3.40330E-04-3.53626E-16
 -1      2946 1.23842E-03-3.19070E-04-3.86410E-16
 -1      2947 1.10578E-02 2.91082E-04-1.99887E-14
 -1      2948 1.12348E-02 3.86920E-04-2.01318E-14
 -1      2949 1.47775E-02 8.99291E-05-2.71283E-14
 -1      2950 1.49873E-02 2.37092E-05-2.74814E-14
 -1      2951 1.41609E-03 4.07841E-04-1.19831E-16
 -1      2952 1.27304E-03 3.86807E-04-8.90808E-17
 -1      2953 1.18968E-03 3.41484E-04-9.54369E-17
 -1      2954 1.47612E-03 3.82192E-04-1.62048E-16
 -1      2955 7.84357E-04 1.23447E-04-9.60332E-17
 -1      2956 7.81965E-04 1.00013E-04-1.05073E-16
 -1      2957 8.99569E-04 9.94408E-05-1.39577E-16
 -1      2958 9.05318E-04 1.51578E-04-1.17812E-16
 -1      2959 7.81694E-04-9.79570E-05-1.67103E-16
 -1      2960 7.84008E-04-1.21308E-04-1.72415E-16
 -1      2961 1.17480E-02-7.87355E-04-2.29895E-14
 -1      2962 1.15488E-02-6.51814E-04-2.25370E-14
 -1      2963 1.29477E-02 1.04652E-03-2.34311E-14
 -1      2964 1.30997E-02 9.75957E-04-2.38478E-14
 -1      2965 1.05198E-02-1.21320E-04-2.05799E-14
 -1      2966 1.03841E-02-8.33152E-05-2.02094E-14
 -1      2967 1.05528E-02-1.48943E-04-2.04385E-14
 -1      2968 1.02828E-02-5.00554E-05-1.99433E-14
 -1      2969 1.02474E-02-3.63847E-05-1.98192E-14
 -1      2970 1.14242E-02 4.99823E-04-2.02853E-14
 -1      2971 1.16235E-02 6.34042E-04-2.04529E-14
 -1      2972 1.07111E-02 1.33581E-04-1.97498E-14
 -1      2973 1.08733E-02 2.01491E-04-1.98552E-14
 -1      2974 1.02473E-02-2.34489E-05-1.97260E-14
 -1      2975 1.02753E-02-1.23428E-05-1.96347E-14
 -1      2976 1.02118E-02-2.93333E-05-1.94486E-14
 -1      2977 1.33090E-02 8.61481E-04-2.43702E-14
 -1      2978 1.35297E-02 7.24971E-04-2.48787E-14
 -1      2979 1.41255E-02-5.14979E-04-2.84523E-14
 -1      2980 1.38692E-02-6.58407E-04-2.81646E-14
 -1      2981 1.53579E-02-6.19743E-05-2.83906E-14
 -1      2982 1.53486E-02-6.80831E-05-2.85474E-14
 -1      2983 1.53390E-02-7.56004E-05-2.88608E-14
 -1      2984 1.53759E-02-5.87517E-05-2.85708E-14
 -1      2985 1.21114E-02-1.02011E-03-2.39320E-14
 -1      2986 1.19361E-02-9.07343E-04-2.34566E-14
 -1      2987 1.17917E-02-8.33304E-04-2.30977E-14
 -1      2988 1.18687E-02 7.93024E-04-2.08010E-14
 -1      2989 1.20524E-02 9.01784E-04-2.11883E-14
 -1      2990 1.21070E-02 9.51372E-04-2.11712E-14
 -1      2991 1.36228E-02-8.03798E-04-2.78260E-14
 -1      2992 1.34139E-02-9.34360E-04-2.75268E-14
 -1      2993 1.40526E-02-6.32037E-04-3.06565E-14
 -1      2994 1.37470E-02 5.95019E-04-2.53410E-14
 -1      2995 1.39762E-02 4.63245E-04-2.58027E-14
 -1      2996 1.36279E-02 6.74464E-04-2.51439E-14
 -1      2997 7.99439E-04-2.55185E-04-1.87730E-16
 -1      2998 9.30748E-04-2.90764E-04-2.39744E-16
 -1      2999 9.92840E-04-2.75445E-04-2.67568E-16
 -1      3000 7.89264E-04-2.29226E-04-1.84613E-16
 -1      3001 7.87061E-04-1.45453E-04-1.77389E-16
 -1      3002 7.90936E-04-1.70624E-04-1.82092E-16
 -1      3003 9.04840E-04-1.49050E-04-2.20188E-16
 -1      3004 8.95420E-04 1.00991E-06-1.76752E-16
 -1      3005 7.77589E-04-9.71964E-06-1.42722E-16
 -1      3006 7.77953E-04-3.13645E-05-1.49268E-16
 -1      3007 1.24552E-02 1.09136E-03-2.20383E-14
 -1      3008 8.64863E-04 2.66535E-04-4.87349E-17
 -1      3009 1.32905E-02-1.01230E-03-2.75188E-14
 -1      3010 1.43015E-02-4.37037E-04-2.88969E-14
 -1      3011 1.40552E-02-6.21119E-04-3.01949E-14
 -1      3012 1.41462E-02 3.75918E-04-2.62003E-14
 -1      3013 1.43120E-02 3.01492E-04-2.65968E-14
 -1      3014 1.40031E-02 4.63742E-04-2.60014E-14
 -1      3015 1.42408E-02 3.87983E-04-2.70113E-14
 -1      3016 1.40836E-02 4.70512E-04-2.65690E-14
 -1      3017 1.43613E-02 3.24199E-04-2.72141E-14
 -1      3018 1.54315E-02-6.33798E-05-2.90225E-14
 -1      3019 1.52131E-02-2.40258E-05-2.81882E-14
 -1      3020 1.10185E-02-3.79607E-04-2.12681E-14
 -1      3021 1.09523E-02-3.19917E-04-2.12480E-14
 -1      3022 1.07965E-02-2.63610E-04-2.08331E-14
 -1      3023 1.48843E-02 7.40163E-05-2.77200E-14
 -1      3024 1.54077E-02-7.30692E-05-2.92314E-14
 -1      3025 1.05863E-02 9.34470E-05-1.95082E-14
 -1      3026 1.06394E-02 1.31758E-04-1.92794E-14
 -1      3027 1.04752E-02 6.74871E-05-1.92691E-14
 -1      3028 1.12956E-02 4.45895E-04-1.99382E-14
 -1      3029 1.29106E-02-1.18886E-03-2.65345E-14
 -1      3030 1.02972E-02 2.12559E-06-1.94278E-14
 -1      3031 1.03273E-02 1.99241E-05-1.92225E-14
 -1      3032 1.02283E-02-4.71988E-06-1.91506E-14
 -1      3033 1.14011E-02-5.83350E-04-2.21574E-14
 -1      3034 1.46997E-02 1.26444E-04-2.71687E-14
 -1      3035 1.21821E-02-1.08102E-03-2.42016E-14
 -1      3036 1.20450E-02-1.01635E-03-2.38334E-14
 -1      3037 7.78734E-04-5.31469E-05-1.55326E-16
 -1      3038 7.79954E-04-7.53335E-05-1.61302E-16
 -1      3039 8.99284E-04-9.70906E-05-2.06906E-16
 -1      3040 8.96319E-04-4.75239E-05-1.92487E-16
 -1      3041 1.26064E-02-1.23044E-03-2.56307E-14
 -1      3042 1.25332E-02-1.21369E-03-2.52677E-14
 -1      3043 1.46178E-02 1.98042E-04-2.75990E-14
 -1      3044 1.44750E-02 2.65409E-04-2.73930E-14
 -1      3045 1.43087E-02 3.39385E-04-2.69470E-14
 -1      3046 1.45624E-02 2.08412E-04-2.73054E-14
 -1      3047 1.09405E-02 2.51845E-04-1.96521E-14
 -1      3048 1.32234E-02 9.14304E-04-2.41601E-14
 -1      3049 1.02967E-02-6.67434E-05-1.98028E-14
 -1      3050 1.15604E-02 6.32249E-04-2.00752E-14
 -1      3051 1.17151E-02 7.10458E-04-2.04370E-14
 -1      3052 1.17876E-02 7.80316E-04-2.04213E-14
 -1      3053 9.82952E-04 2.75773E-04-7.53385E-17
 -1      3054 1.37682E-02-7.27766E-04-2.83283E-14
 -1      3055 1.23752E-02-1.16415E-03-2.47651E-14
 -1      3056 1.35373E-02-8.80880E-04-2.83472E-14
 -1      3057 1.33036E-02-1.02101E-03-2.78755E-14
 -1      3058 1.04026E-03 2.43261E-04-1.10819E-16
 -1      3059 1.03363E-03 2.11536E-04-1.26526E-16
 -1      3060 7.85416E-04-1.87496E-04-1.81645E-16
 -1      3061 7.93275E-04-2.11036E-04-1.85710E-16
 -1      3062 8.94172E-04-2.33240E-04-2.25351E-16
 -1      3063 9.03395E-04-1.94915E-04-2.26124E-16
 -1      3064 1.15848E-03-2.76932E-04-3.44275E-16
 -1      3065 1.30136E-03-2.96723E-04-4.18543E-16
 -1      3066 1.26743E-02-1.24855E-03-2.60840E-14
 -1      3067 1.73166E-03-3.40488E-04-6.82844E-16
 -1      3068 1.87533E-03-3.50705E-04-7.84542E-16
 -1      3069 2.01898E-03-3.59205E-04-8.92922E-16
 -1      3070 2.16262E-03-3.66144E-04-1.00804E-15
 -1      3071 1.94013E-03-3.19393E-04-8.23695E-16
 -1      3072 2.30622E-03-3.71799E-04-1.13004E-15
 -1      3073 2.44976E-03-3.76295E-04-1.25837E-15
 -1      3074 2.22816E-03-3.32536E-04-1.05050E-15
 -1      3075 2.59326E-03-3.79854E-04-1.39304E-15
 -1      3076 2.73669E-03-3.82576E-04-1.53444E-15
 -1      3077 2.51612E-03-3.41091E-04-1.30344E-15
 -1      3078 2.88007E-03-3.84632E-04-1.68186E-15
 -1      3079 3.02339E-03-3.86097E-04-1.83634E-15
 -1      3080 2.80388E-03-3.46292E-04-1.58191E-15
 -1      3081 3.16667E-03-3.87102E-04-1.99725E-15
 -1      3082 3.30990E-03-3.87701E-04-2.16395E-15
 -1      3083 3.09138E-03-3.49108E-04-1.88536E-15
 -1      3084 3.45309E-03-3.87989E-04-2.33711E-15
 -1      3085 3.59624E-03-3.88006E-04-2.51653E-15
 -1      3086 3.37860E-03-3.50273E-04-2.21493E-15
 -1      3087 3.73936E-03-3.87818E-04-2.70254E-15
 -1      3088 3.88244E-03-3.87452E-04-2.89477E-15
 -1      3089 3.66557E-03-3.50326E-04-2.56949E-15
 -1      3090 4.02551E-03-3.86953E-04-3.09265E-15
 -1      3091 4.16854E-03-3.86338E-04-3.29681E-15
 -1      3092 3.95231E-03-3.49647E-04-2.94866E-15
 -1      3093 4.31156E-03-3.85636E-04-3.50776E-15
 -1      3094 4.45455E-03-3.84856E-04-3.72413E-15
 -1      3095 4.23884E-03-3.48491E-04-3.35321E-15
 -1      3096 4.59754E-03-3.84011E-04-3.94578E-15
 -1      3097 4.74050E-03-3.83107E-04-4.17369E-15
 -1      3098 4.52520E-03-3.47016E-04-3.78278E-15
 -1      3099 4.88345E-03-3.82147E-04-4.40873E-15
 -1      3100 5.02639E-03-3.81129E-04-4.65031E-15
 -1      3101 4.81142E-03-3.45302E-04-4.23603E-15
 -1      3102 5.16932E-03-3.80052E-04-4.89687E-15
 -1      3103 5.31224E-03-3.78909E-04-5.15138E-15
 -1      3104 5.09750E-03-3.43373E-04-4.71621E-15
 -1      3105 5.45514E-03-3.77691E-04-5.41274E-15
 -1      3106 5.59804E-03-3.76391E-04-5.68135E-15
 -1      3107 5.38345E-03-3.41204E-04-5.22241E-15
 -1      3108 5.74093E-03-3.74996E-04-5.95723E-15
 -1      3109 5.88381E-03-3.73494E-04-6.24059E-15
 -1      3110 5.66928E-03-3.38736E-04-5.75879E-15
 -1      3111 6.02667E-03-3.71870E-04-6.53163E-15
 -1      3112 6.16952E-03-3.70111E-04-6.83119E-15
 -1      3113 5.95497E-03-3.35886E-04-6.32435E-15
 -1      3114 6.31236E-03-3.68202E-04-7.13921E-15
 -1      3115 6.45518E-03-3.66128E-04-7.45428E-15
 -1      3116 6.24050E-03-3.32551E-04-6.92099E-15
 -1      3117 6.59797E-03-3.63875E-04-7.77843E-15
 -1      3118 6.74075E-03-3.61429E-04-8.11188E-15
 -1      3119 6.52583E-03-3.28620E-04-7.55048E-15
 -1      3120 6.88349E-03-3.58780E-04-8.45431E-15
 -1      3121 7.02620E-03-3.55916E-04-8.80452E-15
 -1      3122 6.81089E-03-3.23987E-04-8.21348E-15
 -1      3123 7.16887E-03-3.52833E-04-9.16332E-15
 -1      3124 7.31150E-03-3.49526E-04-9.52978E-15
 -1      3125 7.09561E-03-3.18564E-04-8.91172E-15
 -1      3126 7.45407E-03-3.46004E-04-9.90457E-15
 -1      3127 7.59659E-03-3.42267E-04-1.02885E-14
 -1      3128 7.37989E-03-3.12306E-04-9.64180E-15
 -1      3129 7.73903E-03-3.38345E-04-1.06795E-14
 -1      3130 7.88143E-03-3.34251E-04-1.10772E-14
 -1      3131 7.66361E-03-3.05233E-04-1.04047E-14
 -1      3132 8.02371E-03-3.30044E-04-1.14821E-14
 -1      3133 8.16596E-03-3.25753E-04-1.18956E-14
 -1      3134 7.94663E-03-2.97478E-04-1.11973E-14
 -1      3135 8.30808E-03-3.21477E-04-1.23188E-14
 -1      3136 8.45017E-03-3.17271E-04-1.27471E-14
 -1      3137 8.22883E-03-2.89325E-04-1.20205E-14
 -1      3138 8.59216E-03-3.13285E-04-1.31818E-14
 -1      3139 8.73416E-03-3.09613E-04-1.36239E-14
 -1      3140 8.51010E-03-2.81273E-04-1.28732E-14
 -1      3141 8.87612E-03-3.06463E-04-1.40726E-14
 -1      3142 9.01819E-03-3.03989E-04-1.45270E-14
 -1      3143 8.79045E-03-2.74098E-04-1.37526E-14
 -1      3144 9.16037E-03-3.02461E-04-1.49884E-14
 -1      3145 9.30290E-03-3.02128E-04-1.54555E-14
 -1      3146 9.07011E-03-2.68934E-04-1.46579E-14
 -1      3147 9.44584E-03-3.03313E-04-1.59268E-14
 -1      3148 9.58955E-03-3.06420E-04-1.64038E-14
 -1      3149 9.34969E-03-2.67354E-04-1.55856E-14
 -1      3150 9.73425E-03-3.11804E-04-1.68854E-14
 -1      3151 9.88047E-03-3.20131E-04-1.73732E-14
 -1      3152 9.63060E-03-2.71493E-04-1.65314E-14
 -1      3153 1.00287E-02-3.31732E-04-1.78684E-14
 -1      3154 1.01795E-02-3.47784E-04-1.83696E-14
 -1      3155 9.91544E-03-2.84270E-04-1.75034E-14
 -1      3156 1.03340E-02-3.68531E-04-1.88756E-14
 -1      3157 1.04927E-02-3.95872E-04-1.93873E-14
 -1      3158 1.02089E-02-3.09997E-04-1.84987E-14
 -1      3159 1.06572E-02-4.29902E-04-1.99041E-14
 -1      3160 1.08278E-02-4.73752E-04-2.04248E-14
 -1      3161 1.05182E-02-3.55390E-04-1.95163E-14
 -1      3162 1.10066E-02-5.27142E-04-2.09507E-14
 -1      3163 1.11921E-02-5.94599E-04-2.14851E-14
 -1      3164 1.08535E-02-4.31606E-04-2.05536E-14
 -1      3165 1.18462E-02-9.10303E-04-2.32777E-14
 -1      3166 1.37504E-02-7.51473E-04-2.86257E-14
 -1      3167 1.37370E-02-7.75828E-04-2.89830E-14
 -1      3168 1.39319E-02-6.73556E-04-2.95546E-14
 -1      3169 1.39746E-02-6.21365E-04-2.89616E-14
 -1      3170 1.40788E-02-5.89584E-04-2.96918E-14
 -1      3171 3.25491E-03 4.24351E-04-1.16747E-15
 -1      3172 3.11206E-03 4.23502E-04-1.05314E-15
 -1      3173 2.96917E-03 4.22199E-04-9.44733E-16
 -1      3174 2.82627E-03 4.20377E-04-8.43252E-16
 -1      3175 3.03656E-03 3.85501E-04-1.05016E-15
 -1      3176 3.82622E-03 4.24754E-04-1.68802E-15
 -1      3177 3.68341E-03 4.24997E-04-1.54779E-15
 -1      3178 4.11185E-03 4.23836E-04-1.99081E-15
 -1      3179 3.96904E-03 4.24361E-04-1.83604E-15
 -1      3180 3.89577E-03 3.87103E-04-1.82744E-15
 -1      3181 4.39748E-03 4.22502E-04-2.32358E-15
 -1      3182 4.25466E-03 4.23213E-04-2.15301E-15
 -1      3183 4.18190E-03 3.86109E-04-2.14225E-15
 -1      3184 4.68313E-03 4.20876E-04-2.68950E-15
 -1      3185 4.54030E-03 4.21722E-04-2.50211E-15
 -1      3186 4.46794E-03 3.84753E-04-2.48789E-15
 -1      3187 4.96879E-03 4.19010E-04-3.08821E-15
 -1      3188 4.82596E-03 4.19972E-04-2.88508E-15
 -1      3189 4.75391E-03 3.83135E-04-2.86644E-15
 -1      3190 5.25449E-03 4.16898E-04-3.52023E-15
 -1      3191 5.11164E-03 4.17986E-04-3.29978E-15
 -1      3192 5.03981E-03 3.81291E-04-3.27765E-15
 -1      3193 5.54023E-03 4.14493E-04-3.98608E-15
 -1      3194 5.39736E-03 4.15736E-04-3.74843E-15
 -1      3195 5.32567E-03 3.79203E-04-3.72171E-15
 -1      3196 5.82600E-03 4.11716E-04-4.48574E-15
 -1      3197 5.68311E-03 4.13157E-04-4.23239E-15
 -1      3198 5.61147E-03 3.76819E-04-4.19996E-15
 -1      3199 6.11182E-03 4.08462E-04-5.01818E-15
 -1      3200 5.96890E-03 4.10155E-04-4.74794E-15
 -1      3201 5.89723E-03 3.74053E-04-4.71112E-15
 -1      3202 6.39770E-03 4.04616E-04-5.58074E-15
 -1      3203 6.25475E-03 4.06620E-04-5.29551E-15
 -1      3204 6.18293E-03 3.70803E-04-5.25463E-15
 -1      3205 6.68364E-03 4.00060E-04-6.17568E-15
 -1      3206 6.54066E-03 4.02433E-04-5.87449E-15
 -1      3207 6.46856E-03 3.66954E-04-5.82821E-15
 -1      3208 6.96967E-03 3.94692E-04-6.79761E-15
 -1      3209 6.82664E-03 3.97482E-04-6.48276E-15
 -1      3210 6.75409E-03 3.62395E-04-6.43077E-15
 -1      3211 7.25579E-03 3.88446E-04-7.45259E-15
 -1      3212 7.11271E-03 3.91681E-04-7.12153E-15
 -1      3213 7.03951E-03 3.57032E-04-7.06447E-15
 -1      3214 7.54204E-03 3.81327E-04-8.13833E-15
 -1      3215 7.39889E-03 3.84994E-04-7.79106E-15
 -1      3216 7.32477E-03 3.50811E-04-7.72887E-15
 -1      3217 7.82846E-03 3.73443E-04-8.85465E-15
 -1      3218 7.68521E-03 3.77471E-04-8.49349E-15
 -1      3219 7.60984E-03 3.43748E-04-8.42432E-15
 -1      3220 8.11511E-03 3.65071E-04-9.60184E-15
 -1      3221 7.97173E-03 3.69297E-04-9.22493E-15
 -1      3222 7.89470E-03 3.35968E-04-9.15044E-15
 -1      3223 8.40214E-03 3.56718E-04-1.03758E-14
 -1      3224 8.25855E-03 3.60855E-04-9.98583E-15
 -1      3225 8.17934E-03 3.27757E-04-9.90699E-15
 -1      3226 8.68977E-03 3.49219E-04-1.11764E-14
 -1      3227 8.54584E-03 3.52802E-04-1.07725E-14
 -1      3228 8.46384E-03 3.19628E-04-1.06912E-14
 -1      3229 8.97842E-03 3.43837E-04-1.19975E-14
 -1      3230 8.83391E-03 3.46171E-04-1.15841E-14
 -1      3231 8.74838E-03 3.12398E-04-1.14992E-14
 -1      3232 9.26884E-03 3.42397E-04-1.28406E-14
 -1      3233 9.12333E-03 3.42487E-04-1.24169E-14
 -1      3234 9.03340E-03 3.07285E-04-1.23298E-14
 -1      3235 9.56230E-03 3.47426E-04-1.37046E-14
 -1      3236 9.41508E-03 3.43901E-04-1.32703E-14
 -1      3237 9.31974E-03 3.06017E-04-1.31821E-14
 -1      3238 9.86082E-03 3.62337E-04-1.45901E-14
 -1      3239 9.71077E-03 3.53354E-04-1.41433E-14
 -1      3240 9.60890E-03 3.10982E-04-1.40528E-14
 -1      3241 1.01675E-02 3.91623E-04-1.54951E-14
 -1      3242 1.00129E-02 3.74765E-04-1.50404E-14
 -1      3243 9.90340E-03 3.25437E-04-1.49450E-14
 -1      3244 1.04864E-02 4.41122E-04-1.64232E-14
 -1      3245 1.03252E-02 4.13253E-04-1.59563E-14
 -1      3246 1.02071E-02 3.53847E-04-1.58601E-14
 -1      3247 1.08220E-02 5.18088E-04-1.73620E-14
 -1      3248 1.06521E-02 4.75501E-04-1.68914E-14
 -1      3249 1.05255E-02 4.02635E-04-1.67916E-14
 -1      3250 1.11768E-02 6.28767E-04-1.83186E-14
 -1      3251 1.09975E-02 5.68573E-04-1.78366E-14
 -1      3252 1.08651E-02 4.80469E-04-1.77367E-14
 -1      3253 1.15473E-02 7.75845E-04-1.92903E-14
 -1      3254 1.13615E-02 6.98367E-04-1.88035E-14
 -1      3255 1.12289E-02 5.96469E-04-1.86989E-14
 -1      3256 1.18525E-02 8.83298E-04-2.02226E-14
 -1      3257 1.16614E-02 7.94175E-04-1.97260E-14
 -1      3258 1.23193E-02 1.08500E-03-2.14723E-14
 -1      3259 1.21410E-02 1.02272E-03-2.09681E-14
 -1      3260 1.26531E-02 1.13058E-03-2.24578E-14
 -1      3261 1.24832E-02 1.12507E-03-2.19488E-14
 -1      3262 1.30098E-02 1.03618E-03-2.35286E-14
 -1      3263 1.28356E-02 1.09605E-03-2.30132E-14
 -1      3264 1.36614E-02 7.02741E-04-2.53956E-14
 -1      3265 1.34788E-02 8.02787E-04-2.48745E-14
 -1      3266 1.39521E-02 5.40927E-04-2.62036E-14
 -1      3267 1.37926E-02 6.28994E-04-2.57603E-14
 -1      3268 1.37833E-02 6.19042E-04-2.56681E-14
 -1      3269 1.40608E-02 4.71618E-04-2.64016E-14
 -1      3270 1.01642E-02-3.27635E-05-1.90933E-14
 -1      3271 1.01651E-02-2.14508E-05-1.90024E-14
 -1      3272 1.08202E-02 2.24998E-04-1.92272E-14
 -1      3273 1.09819E-02 3.03405E-04-1.93589E-14
 -1      3274 1.06122E-02-1.93970E-04-2.03709E-14
 -1      3275 1.04616E-02-1.43093E-04-2.00010E-14
 -1      3276 1.50879E-02-1.43528E-04-2.96193E-14
 -1      3277 1.82456E-03 3.81188E-04-3.06599E-16
 -1      3278 1.68121E-03 3.69585E-04-2.54029E-16
 -1      3279 3.54058E-03 4.25038E-04-1.41403E-15
 -1      3280 3.39776E-03 4.24848E-04-1.28735E-15
 -1      3281 3.32312E-03 3.87161E-04-1.28307E-15
 -1      3282 3.60952E-03 3.87551E-04-1.54163E-15
 -1      3283 2.11107E-03 3.98798E-04-4.29303E-16
 -1      3284 1.96785E-03 3.90865E-04-3.65064E-16
 -1      3285 1.88824E-03 3.50474E-04-3.65783E-16
 -1      3286 1.50559E-02 6.02135E-06-2.76888E-14
 -1      3287 1.16779E-02-8.05297E-04-2.28109E-14
 -1      3288 1.44457E-03-3.13755E-04-4.99709E-16
 -1      3289 1.58807E-03-3.28234E-04-5.87841E-16
 -1      3290 1.65234E-03-3.00160E-04-6.23701E-16
 -1      3291 1.49883E-02 3.14020E-05-2.77485E-14
 -1      3292 1.28082E-02 1.09138E-03-2.30320E-14
 -1      3293 1.28951E-02 1.06924E-03-2.32408E-14
 -1      3294 1.13110E-02-5.84167E-04-2.18502E-14
 -1      3295 1.11170E-02-4.68357E-04-2.13840E-14
 -1      3296 1.03038E-02-8.52674E-05-1.96190E-14
 -1      3297 1.02151E-02-5.58670E-05-1.93577E-14
 -1      3298 1.11473E-02 3.92770E-04-1.95083E-14
 -1      3299 1.13106E-02 4.91838E-04-1.96599E-14
 -1      3300 1.10054E-02 3.55464E-04-1.90836E-14
 -1      3301 1.14502E-03 3.10559E-04-1.02118E-16
 -1      3302 1.08235E-03 2.71626E-04-1.07065E-16
 -1      3303 1.20143E-03 2.73046E-04-1.44660E-16
 -1      3304 1.28818E-03 3.32537E-04-1.33723E-16
 -1      3305 1.01651E-03 6.82011E-05-1.91687E-16
 -1      3306 1.01534E-03 4.12206E-05-2.02895E-16
 -1      3307 1.35400E-02 7.41577E-04-2.49953E-14
 -1      3308 1.37295E-02 6.27819E-04-2.54539E-14
 -1      3309 1.27001E-02 1.11428E-03-2.26818E-14
 -1      3310 1.14761E-02-7.05953E-04-2.22646E-14
 -1      3311 1.01474E-03 1.44464E-05-2.13385E-16
 -1      3312 1.01470E-03-1.22285E-05-2.23197E-16
 -1      3313 1.13542E-03 3.01629E-05-2.52443E-16
 -1      3314 1.15304E-03 2.11812E-04-1.65571E-16
 -1      3315 1.02829E-03 1.81159E-04-1.41041E-16
 -1      3316 1.02411E-03 1.51830E-04-1.54797E-16
 -1      3317 1.06741E-02-2.43711E-04-2.03890E-14
 -1      3318 1.31322E-02 9.86894E-04-2.38709E-14
 -1      3319 1.31617E-02 9.56722E-04-2.39861E-14
 -1      3320 1.38776E-02 5.47192E-04-2.58221E-14
 -1      3321 1.40343E-02 4.67453E-04-2.62159E-14
 -1      3322 1.02363E-03-1.49103E-04-2.66402E-16
 -1      3323 1.02769E-03-1.78346E-04-2.73815E-16
 -1      3324 9.95844E-04-2.54009E-04-2.68448E-16
 -1      3325 2.39731E-03 4.10505E-04-5.76430E-16
 -1      3326 2.25422E-03 4.05298E-04-4.99641E-16
 -1      3327 2.17560E-03 3.65691E-04-5.00075E-16
 -1      3328 2.74979E-03 3.81963E-04-8.41869E-16
 -1      3329 2.68333E-03 4.17895E-04-7.47964E-16
 -1      3330 2.54035E-03 4.14668E-04-6.59059E-16
 -1      3331 1.15286E-02 6.85740E-04-1.96227E-14
 -1      3332 1.19895E-02 9.47036E-04-2.05839E-14
 -1      3333 1.33092E-02 8.97931E-04-2.43908E-14
 -1      3334 1.06866E-02 1.79316E-04-1.89861E-14
 -1      3335 1.07185E-02 2.29751E-04-1.86959E-14
 -1      3336 1.05620E-02 1.44663E-04-1.87484E-14
 -1      3337 1.09570E-02-4.02871E-04-2.09658E-14
 -1      3338 1.03389E-02-1.19200E-04-1.95511E-14
 -1      3339 1.41394E-02-5.29953E-04-2.90988E-14
 -1      3340 1.01607E-02-9.70953E-06-1.87985E-14
 -1      3341 1.55631E-03 3.61499E-04-2.09644E-16
 -1      3342 1.41294E-03 3.45320E-04-1.68133E-16
 -1      3343 1.36912E-03 3.15098E-04-1.74638E-16
 -1      3344 1.61928E-03 3.33902E-04-2.58325E-16
 -1      3345 1.33523E-02 8.48265E-04-2.45068E-14
 -1      3346 1.36543E-03-2.73138E-04-4.50391E-16
 -1      3347 1.02627E-02 3.01792E-05-1.87184E-14
 -1      3348 1.03614E-02 4.37852E-05-1.89934E-14
 -1      3349 1.03959E-02 7.27594E-05-1.87662E-14
 -1      3350 1.01805E-03-9.29878E-05-2.50302E-16
 -1      3351 1.02043E-03-1.20702E-04-2.58677E-16
 -1      3352 1.14323E-03-1.45898E-04-3.16316E-16
 -1      3353 1.05994E-03-2.37029E-04-2.95526E-16
 -1      3354 1.41062E-02-5.62086E-04-2.93961E-14
 -1      3355 1.44368E-02 2.54510E-04-2.69405E-14
 -1      3356 1.43006E-02 3.26324E-04-2.67607E-14
 -1      3357 1.02080E-03 1.23290E-04-1.68011E-16
 -1      3358 1.01832E-03 9.55197E-05-1.80479E-16
 -1      3359 1.13809E-03 8.86189E-05-2.26747E-16
 -1      3360 1.14371E-03 1.48768E-04-1.97853E-16
 -1      3361 1.34637E-02 7.98792E-04-2.48159E-14
 -1      3362 1.45911E-02 1.78380E-04-2.71430E-14
 -1      3363 1.48049E-02 9.64084E-05-2.75153E-14
 -1      3364 1.13879E-02 5.54305E-04-1.96497E-14
 -1      3365 1.14679E-02 6.28144E-04-1.96341E-14
 -1      3366 1.13626E-02 6.16236E-04-1.92003E-14
 -1      3367 1.12336E-02 5.01355E-04-1.92216E-14
 -1      3368 1.01407E-02-4.60338E-05-1.89125E-14
 -1      3369 1.86182E-03-2.80029E-04-7.57437E-16
 -1      3370 2.00605E-03-2.87372E-04-8.62063E-16
 -1      3371 1.06452E-03-2.15923E-04-2.95188E-16
 -1      3372 1.27141E-02 1.12856E-03-2.26177E-14
 -1      3373 1.08738E-02 3.29195E-04-1.86581E-14
 -1      3374 1.10194E-02 4.07267E-04-1.88039E-14
 -1      3375 1.57398E-03-2.60715E-04-5.67146E-16
 -1      3376 1.71778E-03-2.71194E-04-6.59181E-16
 -1      3377 1.78420E-03-2.41303E-04-6.93673E-16
 -1      3378 2.15035E-03-2.93443E-04-9.73370E-16
 -1      3379 2.29470E-03-2.98361E-04-1.09175E-15
 -1      3380 2.07292E-03-2.54664E-04-8.99522E-16
 -1      3381 2.43904E-03-3.02326E-04-1.21638E-15
 -1      3382 2.58336E-03-3.05434E-04-1.34730E-15
 -1      3383 2.36213E-03-2.63665E-04-1.13164E-15
 -1      3384 2.72762E-03-3.07851E-04-1.48384E-15
 -1      3385 2.87181E-03-3.09650E-04-1.62720E-15
 -1      3386 2.65138E-03-2.69382E-04-1.38911E-15
 -1      3387 3.01594E-03-3.10960E-04-1.77701E-15
 -1      3388 3.15997E-03-3.11838E-04-1.93304E-15
 -1      3389 2.94043E-03-2.72709E-04-1.67115E-15
 -1      3390 3.30393E-03-3.12382E-04-2.09594E-15
 -1      3391 3.44779E-03-3.12631E-04-2.26425E-15
 -1      3392 3.22913E-03-2.74347E-04-1.97899E-15
 -1      3393 3.59158E-03-3.12657E-04-2.43899E-15
 -1      3394 3.73528E-03-3.12486E-04-2.62029E-15
 -1      3395 3.51745E-03-2.74827E-04-2.31179E-15
 -1      3396 3.87891E-03-3.12171E-04-2.80806E-15
 -1      3397 4.02246E-03-3.11727E-04-3.00160E-15
 -1      3398 3.80536E-03-2.74534E-04-2.66954E-15
 -1      3399 4.16594E-03-3.11190E-04-3.20184E-15
 -1      3400 4.30936E-03-3.10567E-04-3.40869E-15
 -1      3401 4.09289E-03-2.73735E-04-3.05382E-15
 -1      3402 4.45271E-03-3.09880E-04-3.62087E-15
 -1      3403 4.59600E-03-3.09133E-04-3.83970E-15
 -1      3404 4.38008E-03-2.72604E-04-3.46245E-15
 -1      3405 4.73924E-03-3.08335E-04-4.06561E-15
 -1      3406 4.88242E-03-3.07485E-04-4.29794E-15
 -1      3407 4.66694E-03-2.71240E-04-3.89731E-15
 -1      3408 5.02556E-03-3.06587E-04-4.53637E-15
 -1      3409 5.16864E-03-3.05635E-04-4.78139E-15
 -1      3410 4.95351E-03-2.69686E-04-4.35809E-15
 -1      3411 5.31167E-03-3.04625E-04-5.03392E-15
 -1      3412 5.45465E-03-3.03550E-04-5.29451E-15
 -1      3413 5.23981E-03-2.67943E-04-4.84691E-15
 -1      3414 5.59757E-03-3.02401E-04-5.56179E-15
 -1      3415 5.74045E-03-3.01169E-04-5.83682E-15
 -1      3416 5.52582E-03-2.65974E-04-5.36599E-15
 -1      3417 5.88326E-03-2.99844E-04-6.11814E-15
 -1      3418 6.02600E-03-2.98411E-04-6.40694E-15
 -1      3419 5.81153E-03-2.63718E-04-5.91378E-15
 -1      3420 6.16868E-03-2.96860E-04-6.70559E-15
 -1      3421 6.31128E-03-2.95176E-04-7.01160E-15
 -1      3422 6.09690E-03-2.61096E-04-6.49139E-15
 -1      3423 6.45378E-03-2.93349E-04-7.32389E-15
 -1      3424 6.59619E-03-2.91362E-04-7.64529E-15
 -1      3425 6.38186E-03-2.58018E-04-7.10005E-15
 -1      3426 6.73848E-03-2.89210E-04-7.97606E-15
 -1      3427 6.88065E-03-2.86874E-04-8.31521E-15
 -1      3428 6.66629E-03-2.54391E-04-7.74055E-15
 -1      3429 7.02267E-03-2.84355E-04-8.66236E-15
 -1      3430 7.16453E-03-2.81637E-04-9.01738E-15
 -1      3431 6.95006E-03-2.50130E-04-8.41498E-15
 -1      3432 7.30619E-03-2.78730E-04-9.38176E-15
 -1      3433 7.44766E-03-2.75620E-04-9.75328E-15
 -1      3434 7.23300E-03-2.45177E-04-9.12215E-15
 -1      3435 7.58888E-03-2.72334E-04-1.01332E-14
 -1      3436 7.72986E-03-2.68861E-04-1.05212E-14
 -1      3437 7.51487E-03-2.39515E-04-9.86414E-15
 -1      3438 7.87053E-03-2.65251E-04-1.09145E-14
 -1      3439 8.01091E-03-2.61503E-04-1.13154E-14
 -1      3440 7.79542E-03-2.33196E-04-1.06341E-14
 -1      3441 8.15091E-03-2.57694E-04-1.17258E-14
 -1      3442 8.29058E-03-2.53834E-04-1.21446E-14
 -1      3443 8.07434E-03-2.26369E-04-1.14343E-14
 -1      3444 8.42982E-03-2.50038E-04-1.25679E-14
 -1      3445 8.56869E-03-2.46335E-04-1.29978E-14
 -1      3446 8.35133E-03-2.19316E-04-1.22647E-14
 -1      3447 8.70710E-03-2.42880E-04-1.34351E-14
 -1      3448 8.84515E-03-2.39731E-04-1.38794E-14
 -1      3449 8.62609E-03-2.12484E-04-1.31214E-14
 -1      3450 8.98275E-03-2.37083E-04-1.43289E-14
 -1      3451 9.12009E-03-2.35038E-04-1.47852E-14
 -1      3452 8.89842E-03-2.06518E-04-1.40050E-14
 -1      3453 9.25710E-03-2.33827E-04-1.52454E-14
 -1      3454 9.39409E-03-2.33625E-04-1.57111E-14
 -1      3455 9.16833E-03-2.02284E-04-1.49094E-14
 -1      3456 9.53105E-03-2.34675E-04-1.61826E-14
 -1      3457 9.66850E-03-2.37307E-04-1.66585E-14
 -1      3458 9.43623E-03-2.00884E-04-1.58351E-14
 -1      3459 9.80656E-03-2.41741E-04-1.71413E-14
 -1      3460 9.94608E-03-2.48592E-04-1.76305E-14
 -1      3461 9.70332E-03-2.03736E-04-1.67851E-14
 -1      3462 1.00874E-02-2.58001E-04-1.81262E-14
 -1      3463 1.02318E-02-2.71381E-04-1.86270E-14
 -1      3464 9.97217E-03-2.12727E-04-1.77575E-14
 -1      3465 1.03801E-02-2.88773E-04-1.91326E-14
 -1      3466 1.05343E-02-3.12955E-04-1.96435E-14
 -1      3467 1.02481E-02-2.31411E-04-1.87536E-14
 -1      3468 1.06554E-02-3.31034E-04-2.00405E-14
 -1      3469 1.08233E-02-3.70777E-04-2.05604E-14
 -1      3470 1.07365E-02-2.91891E-04-2.04490E-14
 -1      3471 1.05025E-02-2.57663E-04-1.96521E-14
 -1      3472 1.41790E-02 3.96141E-04-2.65844E-14
 -1      3473 4.53855E-03 3.46939E-04-2.65491E-15
 -1      3474 4.39538E-03 3.47645E-04-2.47125E-15
 -1      3475 1.18404E-03-2.15458E-04-3.49493E-16
 -1      3476 4.25217E-03 3.48282E-04-2.29660E-15
 -1      3477 4.10891E-03 3.48846E-04-2.12982E-15
 -1      3478 4.32265E-03 3.10394E-04-2.45385E-15
 -1      3479 3.96561E-03 3.49313E-04-1.97004E-15
 -1      3480 3.82225E-03 3.49670E-04-1.81707E-15
 -1      3481 4.03573E-03 3.11427E-04-2.11463E-15
 -1      3482 4.82478E-03 3.45361E-04-3.04654E-15
 -1      3483 4.68168E-03 3.46178E-04-2.84652E-15
 -1      3484 4.60931E-03 3.09094E-04-2.82493E-15
 -1      3485 5.11086E-03 3.43569E-04-3.46945E-15
 -1      3486 4.96784E-03 3.44493E-04-3.25421E-15
 -1      3487 4.89574E-03 3.07585E-04-3.22817E-15
 -1      3488 5.39682E-03 3.41537E-04-3.92615E-15
 -1      3489 5.25386E-03 3.42586E-04-3.69403E-15
 -1      3490 5.18195E-03 3.05872E-04-3.66401E-15
 -1      3491 5.68264E-03 3.39206E-04-4.41612E-15
 -1      3492 5.53975E-03 3.40414E-04-4.16603E-15
 -1      3493 5.46796E-03 3.03926E-04-4.13248E-15
 -1      3494 5.96832E-03 3.36492E-04-4.93813E-15
 -1      3495 5.82550E-03 3.37903E-04-4.67337E-15
 -1      3496 5.75374E-03 3.01683E-04-4.63339E-15
 -1      3497 6.25383E-03 3.33292E-04-5.49162E-15
 -1      3498 6.11110E-03 3.34959E-04-5.21120E-15
 -1      3499 6.03928E-03 2.99061E-04-5.16710E-15
 -1      3500 6.53912E-03 3.29498E-04-6.07678E-15
 -1      3501 6.39650E-03 3.31477E-04-5.78049E-15
 -1      3502 6.32452E-03 2.95963E-04-5.73185E-15
 -1      3503 6.82415E-03 3.25007E-04-6.68867E-15
 -1      3504 6.68167E-03 3.27347E-04-6.37935E-15
 -1      3505 6.60940E-03 2.92286E-04-6.32486E-15
 -1      3506 7.10883E-03 3.19732E-04-7.33204E-15
 -1      3507 6.96653E-03 3.22473E-04-7.00614E-15
 -1      3508 6.89382E-03 2.87935E-04-6.94759E-15
 -1      3509 7.39308E-03 3.13632E-04-8.00639E-15
 -1      3510 7.25101E-03 3.16788E-04-7.66507E-15
 -1      3511 7.17765E-03 2.82836E-04-7.60058E-15
 -1      3512 7.67681E-03 3.06734E-04-8.71167E-15
 -1      3513 7.53501E-03 3.10282E-04-8.35505E-15
 -1      3514 7.46076E-03 2.76956E-04-8.28596E-15
 -1      3515 7.95991E-03 2.99172E-04-9.44972E-15
 -1      3516 7.81843E-03 3.03028E-04-9.07784E-15
 -1      3517 7.74299E-03 2.70333E-04-9.00270E-15
 -1      3518 8.24232E-03 2.91234E-04-1.02133E-14
 -1      3519 8.10119E-03 2.95233E-04-9.82783E-15
 -1      3520 8.02416E-03 2.63102E-04-9.74827E-15
 -1      3521 8.52404E-03 2.83419E-04-1.10065E-14
 -1      3522 8.38324E-03 2.87280E-04-1.06071E-14
 -1      3523 8.30413E-03 2.55542E-04-1.05221E-14
 -1      3524 8.80521E-03 2.76501E-04-1.18254E-14
 -1      3525 8.66465E-03 2.79796E-04-1.14136E-14
 -1      3526 8.58283E-03 2.48117E-04-1.13250E-14
 -1      3527 9.08625E-03 2.71607E-04-1.26639E-14
 -1      3528 8.94568E-03 2.73720E-04-1.22407E-14
 -1      3529 8.86035E-03 2.41528E-04-1.21518E-14
 -1      3530 9.36808E-03 2.70320E-04-1.35236E-14
 -1      3531 9.22696E-03 2.70389E-04-1.30915E-14
 -1      3532 9.13707E-03 2.36769E-04-1.29984E-14
 -1      3533 9.65238E-03 2.74812E-04-1.44008E-14
 -1      3534 9.50974E-03 2.71650E-04-1.39593E-14
 -1      3535 9.41393E-03 2.35208E-04-1.38647E-14
 -1      3536 9.94209E-03 2.88118E-04-1.53021E-14
 -1      3537 9.79628E-03 2.80054E-04-1.48494E-14
 -1      3538 9.69273E-03 2.38725E-04-1.47512E-14
 -1      3539 1.02418E-02 3.14625E-04-1.62226E-14
 -1      3540 1.00903E-02 2.99212E-04-1.57600E-14
 -1      3541 9.97670E-03 2.50042E-04-1.56595E-14
 -1      3542 1.05584E-02 3.61284E-04-1.71610E-14
 -1      3543 1.03976E-02 3.34610E-04-1.66905E-14
 -1      3544 1.02712E-02 2.73385E-04-1.65879E-14
 -1      3545 1.09693E-02 4.57404E-04-1.82980E-14
 -1      3546 1.07916E-02 4.09486E-04-1.78190E-14
 -1      3547 1.11545E-02 5.17709E-04-1.87832E-14
 -1      3548 1.95313E-03 3.19054E-04-4.27989E-16
 -1      3549 1.80915E-03 3.10455E-04-3.64102E-16
 -1      3550 1.01523E-03-3.89324E-05-2.32697E-16
 -1      3551 1.01632E-03-6.57720E-05-2.41614E-16
 -1      3552 1.13783E-03-8.59812E-05-2.97058E-16
 -1      3553 3.10456E-03 3.48494E-04-1.15800E-15
 -1      3554 2.96083E-03 3.47319E-04-1.04490E-15
 -1      3555 1.03437E-02-1.55140E-04-1.93668E-14
 -1      3556 1.02046E-02-1.01825E-04-1.89936E-14
 -1      3557 1.00895E-02-5.71538E-06-1.83612E-14
 -1      3558 1.01674E-02 1.21713E-05-1.85087E-14
 -1      3559 1.30699E-03-2.32525E-04-4.13271E-16
 -1      3560 1.44994E-03-2.46405E-04-4.92445E-16
 -1      3561 1.51616E-03-2.20076E-04-5.23832E-16
 -1      3562 1.26952E-03-1.92167E-04-3.86220E-16
 -1      3563 1.01099E-02-6.23273E-05-1.86817E-14
 -1      3564 1.00594E-02-3.84619E-05-1.84225E-14
 -1      3565 1.27926E-03 2.42887E-04-1.91280E-16
 -1      3566 1.27312E-03 2.08696E-04-2.10606E-16
 -1      3567 2.24120E-03 3.32005E-04-5.73787E-16
 -1      3568 2.09716E-03 3.26191E-04-4.97906E-16
 -1      3569 2.01905E-03 2.86950E-04-4.93204E-16
 -1      3570 1.05625E-02-2.27726E-04-1.99900E-14
 -1      3571 1.00924E-02-8.88126E-05-1.85004E-14
 -1      3572 1.07418E-02 2.81443E-04-1.84197E-14
 -1      3573 2.46280E-03 3.75723E-04-6.58585E-16
 -1      3574 2.81702E-03 3.45646E-04-9.38119E-16
 -1      3575 2.67315E-03 3.43411E-04-8.37885E-16
 -1      3576 2.88496E-03 3.09008E-04-1.03768E-15
 -1      3577 1.06474E-02 3.27391E-04-1.77159E-14
 -1      3578 1.13534E-03-2.76997E-05-2.75780E-16
 -1      3579 1.26505E-03-1.59247E-04-3.75961E-16
 -1      3580 1.38773E-03-1.71954E-04-4.40633E-16
 -1      3581 1.26160E-03-1.26988E-04-3.65159E-16
 -1      3582 1.04290E-02 1.10879E-04-1.84783E-14
 -1      3583 1.04547E-02 1.53756E-04-1.81890E-14
 -1      3584 1.03086E-02 8.76278E-05-1.82055E-14
 -1      3585 1.34483E-03 2.92882E-04-1.81753E-16
 -1      3586 1.30245E-03 2.63995E-04-1.86022E-16
 -1      3587 1.42262E-03 2.59317E-04-2.34879E-16
 -1      3588 1.46986E-03 3.03094E-04-2.21787E-16
 -1      3589 3.39183E-03 3.49729E-04-1.40185E-15
 -1      3590 3.24823E-03 3.49282E-04-1.27716E-15
 -1      3591 3.17315E-03 3.11240E-04-1.26830E-15
 -1      3592 1.00248E-02-1.91489E-05-1.81355E-14
 -1      3593 1.00060E-02 4.98698E-07-1.78497E-14
 -1      3594 9.96893E-03-3.31921E-05-1.79081E-14
 -1      3595 1.70203E-03 3.11551E-04-3.13348E-16
 -1      3596 1.57659E-03 3.05049E-04-2.63800E-16
 -1      3597 1.55286E-03 2.82795E-04-2.71213E-16
 -1      3598 1.76728E-03 2.82014E-04-3.68615E-16
 -1      3599 1.01779E-02 3.18064E-05-1.82826E-14
 -1      3600 1.25741E-03 4.78509E-05-2.93914E-16
 -1      3601 1.25667E-03 1.67842E-05-3.08144E-16
 -1      3602 3.67883E-03 3.49878E-04-1.67180E-15
 -1      3603 3.53537E-03 3.49917E-04-1.53327E-15
 -1      3604 3.46101E-03 3.12110E-04-1.52371E-15
 -1      3605 3.74853E-03 3.12068E-04-1.80459E-15
 -1      3606 1.26109E-03 1.10620E-04-2.63244E-16
 -1      3607 1.25887E-03 7.90676E-05-2.78938E-16
 -1      3608 1.38057E-03 6.71673E-05-3.37241E-16
 -1      3609 4.68021E-03 2.71234E-04-2.99763E-15
 -1      3610 4.53681E-03 2.71873E-04-2.80144E-15
 -1      3611 1.70743E-03-2.03480E-04-6.32320E-16
 -1      3612 1.85160E-03-2.10508E-04-7.27188E-16
 -1      3613 1.99607E-03-2.16403E-04-8.28195E-16
 -1      3614 2.14075E-03-2.21265E-04-9.35707E-16
 -1      3615 1.91986E-03-1.78810E-04-7.59484E-16
 -1      3616 2.28556E-03-2.25250E-04-1.05023E-15
 -1      3617 2.43044E-03-2.28443E-04-1.17076E-15
 -1      3618 2.20943E-03-1.87202E-04-9.71228E-16
 -1      3619 2.57533E-03-2.30982E-04-1.29755E-15
 -1      3620 2.72019E-03-2.32934E-04-1.42983E-15
 -1      3621 2.49954E-03-1.92740E-04-1.20823E-15
 -1      3622 2.86499E-03-2.34415E-04-1.56864E-15
 -1      3623 3.00970E-03-2.35474E-04-1.71419E-15
 -1      3624 2.78969E-03-1.96142E-04-1.46947E-15
 -1      3625 3.15433E-03-2.36205E-04-1.86575E-15
 -1      3626 3.29885E-03-2.36642E-04-2.02357E-15
 -1      3627 3.07959E-03-1.97999E-04-1.75530E-15
 -1      3628 3.44326E-03-2.36857E-04-2.18732E-15
 -1      3629 3.58755E-03-2.36874E-04-2.35699E-15
 -1      3630 3.36907E-03-1.98775E-04-2.06564E-15
 -1      3631 3.73173E-03-2.36744E-04-2.53421E-15
 -1      3632 3.87579E-03-2.36482E-04-2.71755E-15
 -1      3633 3.65806E-03-1.98818E-04-2.40147E-15
 -1      3634 4.01975E-03-2.36127E-04-2.90694E-15
 -1      3635 4.16360E-03-2.35684E-04-3.10350E-15
 -1      3636 3.94655E-03-1.98374E-04-2.76343E-15
 -1      3637 4.30735E-03-2.35180E-04-3.30604E-15
 -1      3638 4.45100E-03-2.34615E-04-3.51474E-15
 -1      3639 4.23456E-03-1.97612E-04-3.15184E-15
 -1      3640 4.59456E-03-2.34007E-04-3.73003E-15
 -1      3641 4.73802E-03-2.33352E-04-3.95327E-15
 -1      3642 4.52210E-03-1.96636E-04-3.56671E-15
 -1      3643 4.88140E-03-2.32660E-04-4.18333E-15
 -1      3644 5.02468E-03-2.31923E-04-4.41879E-15
 -1      3645 4.80922E-03-1.95501E-04-4.00893E-15
 -1      3646 5.16789E-03-2.31145E-04-4.66197E-15
 -1      3647 5.31101E-03-2.30318E-04-4.91287E-15
 -1      3648 5.09592E-03-1.94222E-04-4.47891E-15
 -1      3649 5.45403E-03-2.29440E-04-5.17124E-15
 -1      3650 5.59697E-03-2.28500E-04-5.43771E-15
 -1      3651 5.38223E-03-1.92786E-04-4.97826E-15
 -1      3652 5.73981E-03-2.27495E-04-5.71105E-15
 -1      3653 5.88255E-03-2.26411E-04-5.99054E-15
 -1      3654 5.66810E-03-1.91154E-04-5.50815E-15
 -1      3655 6.02518E-03-2.25243E-04-6.27844E-15
 -1      3656 6.16768E-03-2.23977E-04-6.57508E-15
 -1      3657 5.95351E-03-1.89274E-04-6.06775E-15
 -1      3658 6.31005E-03-2.22607E-04-6.87880E-15
 -1      3659 6.45226E-03-2.21117E-04-7.18879E-15
 -1      3660 6.23835E-03-1.87079E-04-6.65739E-15
 -1      3661 6.59430E-03-2.19504E-04-7.50756E-15
 -1      3662 6.73615E-03-2.17750E-04-7.83550E-15
 -1      3663 6.52251E-03-1.84501E-04-7.27706E-15
 -1      3664 6.87778E-03-2.15858E-04-8.17062E-15
 -1      3665 7.01918E-03-2.13807E-04-8.51345E-15
 -1      3666 6.80582E-03-1.81472E-04-7.92754E-15
 -1      3667 7.16029E-03-2.11609E-04-8.86624E-15
 -1      3668 7.30110E-03-2.09242E-04-9.22722E-15
 -1      3669 7.08804E-03-1.77936E-04-8.61296E-15
 -1      3670 7.44156E-03-2.06731E-04-9.59549E-15
 -1      3671 7.58164E-03-2.04054E-04-9.97242E-15
 -1      3672 7.36890E-03-1.73865E-04-9.33055E-15
 -1      3673 7.72128E-03-2.01251E-04-1.03569E-14
 -1      3674 7.86046E-03-1.98304E-04-1.07471E-14
 -1      3675 7.64806E-03-1.69267E-04-1.00798E-14
 -1      3676 7.99910E-03-1.95273E-04-1.11439E-14
 -1      3677 8.13718E-03-1.92143E-04-1.15504E-14
 -1      3678 7.92511E-03-1.64212E-04-1.08584E-14
 -1      3679 8.27462E-03-1.89002E-04-1.19635E-14
 -1      3680 8.41140E-03-1.85838E-04-1.23828E-14
 -1      3681 8.19959E-03-1.58848E-04-1.16641E-14
 -1      3682 8.54742E-03-1.82771E-04-1.28100E-14
 -1      3683 8.68271E-03-1.79790E-04-1.32431E-14
 -1      3684 8.47099E-03-1.53417E-04-1.25004E-14
 -1      3685 8.81713E-03-1.77053E-04-1.36824E-14
 -1      3686 8.95076E-03-1.74551E-04-1.41267E-14
 -1      3687 8.73878E-03-1.48264E-04-1.33629E-14
 -1      3688 9.08346E-03-1.72472E-04-1.45775E-14
 -1      3689 9.21537E-03-1.70817E-04-1.50326E-14
 -1      3690 9.00244E-03-1.43833E-04-1.42480E-14
 -1      3691 9.34634E-03-1.69791E-04-1.54927E-14
 -1      3692 9.47668E-03-1.69413E-04-1.59601E-14
 -1      3693 9.26152E-03-1.40638E-04-1.51540E-14
 -1      3694 9.60618E-03-1.69894E-04-1.64315E-14
 -1      3695 9.73547E-03-1.71332E-04-1.69093E-14
 -1      3696 9.51572E-03-1.39201E-04-1.60815E-14
 -1      3697 9.86424E-03-1.73976E-04-1.73920E-14
 -1      3698 9.99371E-03-1.77936E-04-1.78826E-14
 -1      3699 9.76513E-03-1.40083E-04-1.70329E-14
 -1      3700 1.01591E-02-1.77237E-04-1.85330E-14
 -1      3701 1.02902E-02-1.86285E-04-1.90329E-14
 -1      3702 1.03912E-02-1.91172E-04-1.94238E-14
 -1      3703 2.52922E-03 3.40466E-04-7.43708E-16
 -1      3704 2.38523E-03 3.36727E-04-6.55793E-16
 -1      3705 2.59646E-03 3.04796E-04-8.31881E-16
 -1      3706 4.39333E-03 2.72459E-04-2.61333E-15
 -1      3707 4.24978E-03 2.72993E-04-2.43433E-15
 -1      3708 4.46422E-03 2.34512E-04-2.77702E-15
 -1      3709 1.26810E-03 1.75306E-04-2.28929E-16
 -1      3710 1.26415E-03 1.42655E-04-2.46805E-16
 -1      3711 1.38535E-03 1.33917E-04-3.01286E-16
 -1      3712 4.10614E-03 2.73457E-04-2.26223E-15
 -1      3713 3.96242E-03 2.73847E-04-2.09729E-15
 -1      3714 4.17681E-03 2.35444E-04-2.41221E-15
 -1      3715 5.25307E-03 2.68221E-04-3.86046E-15
 -1      3716 5.10996E-03 2.69048E-04-3.63233E-15
 -1      3717 5.53907E-03 2.66394E-04-4.33984E-15
 -1      3718 5.39610E-03 2.67340E-04-4.09621E-15
 -1      3719 5.32421E-03 2.30642E-04-4.05868E-15
 -1      3720 5.82476E-03 2.64279E-04-4.85346E-15
 -1      3721 5.68195E-03 2.65378E-04-4.59288E-15
 -1      3722 5.61016E-03 2.28968E-04-4.55065E-15
 -1      3723 6.11010E-03 2.61798E-04-5.39712E-15
 -1      3724 5.96748E-03 2.63091E-04-5.12101E-15
 -1      3725 5.89571E-03 2.27022E-04-5.07386E-15
 -1      3726 6.39502E-03 2.58858E-04-5.97237E-15
 -1      3727 6.25262E-03 2.60392E-04-5.68159E-15
 -1      3728 6.18081E-03 2.24728E-04-5.62948E-15
 -1      3729 6.67941E-03 2.55366E-04-6.57548E-15
 -1      3730 6.53729E-03 2.57188E-04-6.26966E-15
 -1      3731 6.46535E-03 2.22006E-04-6.21375E-15
 -1      3732 6.96314E-03 2.51237E-04-7.20793E-15
 -1      3733 6.82137E-03 2.53388E-04-6.88842E-15
 -1      3734 6.74919E-03 2.18771E-04-6.82729E-15
 -1      3735 7.24605E-03 2.46408E-04-7.87251E-15
 -1      3736 7.10471E-03 2.48917E-04-7.53618E-15
 -1      3737 7.03217E-03 2.14950E-04-7.47055E-15
 -1      3738 7.52791E-03 2.40857E-04-8.56766E-15
 -1      3739 7.38711E-03 2.43728E-04-8.21592E-15
 -1      3740 7.31405E-03 2.10488E-04-8.14609E-15
 -1      3741 7.80852E-03 2.34624E-04-9.29499E-15
 -1      3742 7.66838E-03 2.37827E-04-8.92660E-15
 -1      3743 7.59459E-03 2.05372E-04-8.85183E-15
 -1      3744 8.08762E-03 2.27842E-04-1.00486E-14
 -1      3745 7.94826E-03 2.31298E-04-9.66973E-15
 -1      3746 7.87349E-03 1.99644E-04-9.58729E-15
 -1      3747 8.36500E-03 2.20767E-04-1.08323E-14
 -1      3748 8.22653E-03 2.24331E-04-1.04367E-14
 -1      3749 8.15042E-03 1.93423E-04-1.03512E-14
 -1      3750 8.64051E-03 2.13812E-04-1.16452E-14
 -1      3751 8.50298E-03 2.17255E-04-1.12354E-14
 -1      3752 8.42509E-03 1.86933E-04-1.11458E-14
 -1      3753 8.91413E-03 2.07580E-04-1.24781E-14
 -1      3754 8.77752E-03 2.10573E-04-1.20586E-14
 -1      3755 8.69724E-03 1.80518E-04-1.19656E-14
 -1      3756 9.18619E-03 2.02901E-04-1.33343E-14
 -1      3757 9.05029E-03 2.04994E-04-1.29032E-14
 -1      3758 8.96674E-03 1.74658E-04-1.28070E-14
 -1      3759 9.45753E-03 2.00892E-04-1.42084E-14
 -1      3760 9.32182E-03 2.01477E-04-1.37693E-14
 -1      3761 9.23377E-03 1.69983E-04-1.36712E-14
 -1      3762 9.72989E-03 2.03076E-04-1.51044E-14
 -1      3763 9.59334E-03 2.01306E-04-1.46532E-14
 -1      3764 9.49896E-03 1.67309E-04-1.45541E-14
 -1      3765 1.00066E-02 2.11826E-04-1.60198E-14
 -1      3766 9.86729E-03 2.06320E-04-1.55595E-14
 -1      3767 9.76382E-03 1.67740E-04-1.54572E-14
 -1      3768 1.02934E-02 2.31026E-04-1.69556E-14
 -1      3769 1.01481E-02 2.19644E-04-1.64853E-14
 -1      3770 1.00315E-02 1.73198E-04-1.63822E-14
 -1      3771 1.25662E-03-1.41521E-05-3.21723E-16
 -1      3772 1.25727E-03-4.51433E-05-3.34476E-16
 -1      3773 1.37897E-03 1.42839E-06-3.69943E-16
 -1      3774 1.25789E-03-7.01211E-05-3.44248E-16
 -1      3775 1.25985E-03-1.01493E-04-3.56066E-16
 -1      3776 1.38197E-03-1.10952E-04-4.18136E-16
 -1      3777 1.37968E-03-5.77452E-05-3.96425E-16
 -1      3778 1.05202E-02 2.43125E-04-1.77548E-14
 -1      3779 1.00867E-02 3.95259E-05-1.77900E-14
 -1      3780 1.01896E-02 5.95522E-05-1.79977E-14
 -1      3781 1.02017E-02 9.17202E-05-1.77153E-14
 -1      3782 4.96678E-03 2.69822E-04-3.41266E-15
 -1      3783 4.82353E-03 2.70552E-04-3.20085E-15
 -1      3784 5.03789E-03 2.32103E-04-3.59908E-15
 -1      3785 1.00639E-02-1.14424E-04-1.82940E-14
 -1      3786 9.97905E-03-7.50246E-05-1.79887E-14
 -1      3787 1.48532E-03-1.82449E-04-4.95928E-16
 -1      3788 1.60911E-03-1.93908E-04-5.69965E-16
 -1      3789 1.67713E-03-1.64849E-04-6.00133E-16
 -1      3790 1.48129E-03-1.47143E-04-4.82524E-16
 -1      3791 1.39379E-03 2.02653E-04-2.61686E-16
 -1      3792 1.10900E-02 4.63039E-04-1.87940E-14
 -1      3793 1.03778E-02 1.80094E-04-1.76487E-14
 -1      3794 2.08599E-03 2.54151E-04-5.61657E-16
 -1      3795 1.94150E-03 2.48195E-04-4.86387E-16
 -1      3796 2.30775E-03 2.97789E-04-6.50481E-16
 -1      3797 1.00446E-02-1.37352E-04-1.81584E-14
 -1      3798 2.95359E-03 2.72048E-04-1.13959E-15
 -1      3799 2.80909E-03 2.70628E-04-1.02776E-15
 -1      3800 9.87452E-03-7.29643E-05-1.75038E-14
 -1      3801 9.91997E-03-5.17986E-05-1.77057E-14
 -1      3802 9.87451E-03-3.10720E-05-1.74249E-14
 -1      3803 1.86461E-03 2.10088E-04-4.77659E-16
 -1      3804 1.79721E-03 2.41009E-04-4.17391E-16
 -1      3805 1.50232E-03 1.87228E-05-4.20603E-16
 -1      3806 1.50226E-03-1.57173E-05-4.38099E-16
 -1      3807 4.75123E-03 2.33390E-04-3.17261E-15
 -1      3808 1.55942E-03 2.22732E-04-3.18593E-16
 -1      3809 1.55427E-03 1.86079E-04-3.42472E-16
 -1      3810 3.81859E-03 2.74132E-04-1.94033E-15
 -1      3811 3.67468E-03 2.74302E-04-1.79033E-15
 -1      3812 3.88900E-03 2.36115E-04-2.07846E-15
 -1      3813 1.68950E-03 2.43222E-04-3.63289E-16
 -1      3814 3.24232E-03 2.73744E-04-1.38072E-15
 -1      3815 3.09801E-03 2.73072E-04-1.25705E-15
 -1      3816 3.02286E-03 2.34822E-04-1.24355E-15
 -1      3817 9.91001E-03 6.16089E-06-1.73462E-14
 -1      3818 9.99226E-03 2.14172E-05-1.75684E-14
 -1      3819 9.98423E-03 4.50446E-05-1.72886E-14
 -1      3820 1.52955E-03 2.60888E-04-2.77732E-16
 -1      3821 1.50481E-03 8.78969E-05-3.83062E-16
 -1      3822 1.50316E-03 5.32232E-05-4.02361E-16
 -1      3823 1.62655E-03 3.74896E-05-4.73566E-16
 -1      3824 2.37523E-03 2.63031E-04-7.30048E-16
 -1      3825 2.23058E-03 2.59064E-04-6.42566E-16
 -1      3826 2.15382E-03 2.20680E-04-6.32781E-16
 -1      3827 2.73332E-03 2.32249E-04-1.01587E-15
 -1      3828 2.66452E-03 2.68705E-04-9.22358E-16
 -1      3829 2.51989E-03 2.66219E-04-8.23086E-16
 -1      3830 2.13387E-03-1.49674E-04-8.94860E-16
 -1      3831 2.27895E-03-1.52490E-04-1.00514E-15
 -1      3832 2.42415E-03-1.54772E-04-1.12109E-15
 -1      3833 2.56941E-03-1.56568E-04-1.24355E-15
 -1      3834 2.34923E-03-1.17173E-04-1.03704E-15
 -1      3835 2.71466E-03-1.57972E-04-1.37256E-15
 -1      3836 2.85987E-03-1.59018E-04-1.50657E-15
 -1      3837 2.63997E-03-1.19979E-04-1.27757E-15
 -1      3838 3.00501E-03-1.59785E-04-1.64774E-15
 -1      3839 3.15005E-03-1.60297E-04-1.79472E-15
 -1      3840 2.93067E-03-1.21618E-04-1.54271E-15
 -1      3841 3.29498E-03-1.60618E-04-1.94736E-15
 -1      3842 3.43977E-03-1.60762E-04-2.10620E-15
 -1      3843 3.22104E-03-1.22422E-04-1.83191E-15
 -1      3844 3.58444E-03-1.60778E-04-2.27163E-15
 -1      3845 3.72897E-03-1.60675E-04-2.44402E-15
 -1      3846 3.51091E-03-1.22650E-04-2.14527E-15
 -1      3847 3.87336E-03-1.60489E-04-2.62317E-15
 -1      3848 4.01762E-03-1.60223E-04-2.80856E-15
 -1      3849 3.80022E-03-1.22488E-04-2.48514E-15
 -1      3850 4.16175E-03-1.59905E-04-3.00049E-15
 -1      3851 4.30575E-03-1.59534E-04-3.19987E-15
 -1      3852 4.08896E-03-1.22070E-04-2.85217E-15
 -1      3853 4.44962E-03-1.59127E-04-3.40528E-15
 -1      3854 4.59337E-03-1.58681E-04-3.61748E-15
 -1      3855 4.37714E-03-1.21484E-04-3.24641E-15
 -1      3856 4.73701E-03-1.58208E-04-3.83677E-15
 -1      3857 4.88053E-03-1.57701E-04-4.06364E-15
 -1      3858 4.66479E-03-1.20780E-04-3.66795E-15
 -1      3859 5.02394E-03-1.57168E-04-4.29774E-15
 -1      3860 5.16723E-03-1.56601E-04-4.53838E-15
 -1      3861 4.95194E-03-1.19980E-04-4.11769E-15
 -1      3862 5.31041E-03-1.56003E-04-4.78709E-15
 -1      3863 5.45347E-03-1.55364E-04-5.04334E-15
 -1      3864 5.23859E-03-1.19084E-04-4.59713E-15
 -1      3865 5.59641E-03-1.54685E-04-5.30721E-15
 -1      3866 5.73922E-03-1.53956E-04-5.57863E-15
 -1      3867 5.52473E-03-1.18076E-04-5.10796E-15
 -1      3868 5.88189E-03-1.53174E-04-5.85750E-15
 -1      3869 6.02441E-03-1.52329E-04-6.14360E-15
 -1      3870 5.81032E-03-1.16927E-04-5.64823E-15
 -1      3871 6.16677E-03-1.51419E-04-6.43723E-15
 -1      3872 6.30894E-03-1.50429E-04-6.73898E-15
 -1      3873 6.09528E-03-1.15598E-04-6.21871E-15
 -1      3874 6.45091E-03-1.49362E-04-7.04696E-15
 -1      3875 6.59266E-03-1.48199E-04-7.36316E-15
 -1      3876 6.37947E-03-1.14048E-04-6.81853E-15
 -1      3877 6.73414E-03-1.46947E-04-7.68832E-15
 -1      3878 6.87535E-03-1.45586E-04-8.01987E-15
 -1      3879 6.66272E-03-1.12233E-04-7.44879E-15
 -1      3880 7.01623E-03-1.44128E-04-8.36153E-15
 -1      3881 7.15676E-03-1.42551E-04-8.71094E-15
 -1      3882 6.94480E-03-1.10115E-04-8.11151E-15
 -1      3883 7.29687E-03-1.40875E-04-9.06789E-15
 -1      3884 7.43655E-03-1.39076E-04-9.43248E-15
 -1      3885 7.22539E-03-1.07670E-04-8.80635E-15
 -1      3886 7.57571E-03-1.37188E-04-9.80521E-15
 -1      3887 7.71432E-03-1.35183E-04-1.01852E-14
 -1      3888 7.50412E-03-1.04893E-04-9.53281E-15
 -1      3889 7.85230E-03-1.33113E-04-1.05730E-14
 -1      3890 7.98961E-03-1.30945E-04-1.09666E-14
 -1      3891 7.78054E-03-1.01816E-04-1.02885E-14
 -1      3892 8.12615E-03-1.28754E-04-1.13685E-14
 -1      3893 8.26187E-03-1.26501E-04-1.17774E-14
 -1      3894 8.05413E-03-9.85089E-05-1.10740E-14
 -1      3895 8.39667E-03-1.24286E-04-1.21936E-14
 -1      3896 8.53051E-03-1.22063E-04-1.26171E-14
 -1      3897 8.32425E-03-9.50984E-05-1.18885E-14
 -1      3898 8.66323E-03-1.19962E-04-1.30459E-14
 -1      3899 8.79483E-03-1.17918E-04-1.34798E-14
 -1      3900 8.59022E-03-9.17661E-05-1.27306E-14
 -1      3901 8.92513E-03-1.16098E-04-1.39204E-14
 -1      3902 9.05413E-03-1.14408E-04-1.43659E-14
 -1      3903 8.85120E-03-8.87403E-05-1.35962E-14
 -1      3904 9.18161E-03-1.13051E-04-1.48174E-14
 -1      3905 9.30762E-03-1.11883E-04-1.52731E-14
 -1      3906 9.10625E-03-8.62650E-05-1.44827E-14
 -1      3907 9.43184E-03-1.11140E-04-1.57347E-14
 -1      3908 9.55446E-03-1.10596E-04-1.62022E-14
 -1      3909 9.35417E-03-8.45602E-05-1.53904E-14
 -1      3910 4.53528E-03 1.96568E-04-2.94282E-15
 -1      3911 4.39156E-03 1.97009E-04-2.75050E-15
 -1      3912 4.24774E-03 1.97403E-04-2.56606E-15
 -1      3913 4.10380E-03 1.97750E-04-2.38924E-15
 -1      3914 4.31889E-03 1.59367E-04-2.72259E-15
 -1      3915 1.93291E-03 1.78278E-04-5.41085E-16
 -1      3916 1.78851E-03 1.72860E-04-4.67047E-16
 -1      3917 5.68123E-03 1.91670E-04-4.76217E-15
 -1      3918 5.53835E-03 1.92441E-04-4.50670E-15
 -1      3919 5.39537E-03 1.93155E-04-4.25879E-15
 -1      3920 5.25228E-03 1.93823E-04-4.01942E-15
 -1      3921 5.46655E-03 1.55784E-04-4.46130E-15
 -1      3922 6.25141E-03 1.87884E-04-5.86209E-15
 -1      3923 6.10908E-03 1.88955E-04-5.57480E-15
 -1      3924 6.53553E-03 1.85443E-04-6.45640E-15
 -1      3925 6.39356E-03 1.86719E-04-6.15594E-15
 -1      3926 6.32192E-03 1.51288E-04-6.09614E-15
 -1      3927 6.81878E-03 1.82540E-04-7.08011E-15
 -1      3928 6.67727E-03 1.84056E-04-6.76422E-15
 -1      3929 6.60559E-03 1.49193E-04-6.70014E-15
 -1      3930 7.10096E-03 1.79114E-04-7.73504E-15
 -1      3931 6.96002E-03 1.80900E-04-7.40379E-15
 -1      3932 6.88823E-03 1.46700E-04-7.33490E-15
 -1      3933 7.38179E-03 1.75120E-04-8.42078E-15
 -1      3934 7.24156E-03 1.77195E-04-8.07403E-15
 -1      3935 7.16958E-03 1.43757E-04-8.00083E-15
 -1      3936 7.66096E-03 1.70549E-04-9.13618E-15
 -1      3937 7.52160E-03 1.72914E-04-8.77453E-15
 -1      3938 7.44934E-03 1.40331E-04-8.69744E-15
 -1      3939 7.93810E-03 1.65440E-04-9.88268E-15
 -1      3940 7.79980E-03 1.68067E-04-9.50660E-15
 -1      3941 7.72712E-03 1.36412E-04-9.42402E-15
 -1      3942 8.21282E-03 1.59894E-04-1.06555E-14
 -1      3943 8.07578E-03 1.62725E-04-1.02656E-14
 -1      3944 8.00249E-03 1.32033E-04-1.01781E-14
 -1      3945 8.48472E-03 1.54092E-04-1.14594E-14
 -1      3946 8.34913E-03 1.57026E-04-1.10538E-14
 -1      3947 8.27498E-03 1.27270E-04-1.09622E-14
 -1      3948 8.75342E-03 1.48301E-04-1.22878E-14
 -1      3949 8.61947E-03 1.51195E-04-1.18710E-14
 -1      3950 8.54408E-03 1.22255E-04-1.17750E-14
 -1      3951 9.01864E-03 1.42868E-04-1.31388E-14
 -1      3952 8.88645E-03 1.45538E-04-1.27111E-14
 -1      3953 8.80929E-03 1.17169E-04-1.26144E-14
 -1      3954 9.28032E-03 1.38211E-04-1.40096E-14
 -1      3955 9.14987E-03 1.40434E-04-1.35710E-14
 -1      3956 9.07011E-03 1.12214E-04-1.34716E-14
 -1      3957 9.53874E-03 1.34871E-04-1.49001E-14
 -1      3958 9.40982E-03 1.36360E-04-1.44525E-14
 -1      3959 9.32612E-03 1.07599E-04-1.43490E-14
 -1      3960 9.79481E-03 1.33490E-04-1.58127E-14
 -1      3961 9.66680E-03 1.33876E-04-1.53543E-14
 -1      3962 9.57712E-03 1.03583E-04-1.52490E-14
 -1      3963 1.62589E-03-2.72293E-05-5.08897E-16
 -1      3964 1.50238E-03-4.33620E-05-4.51611E-16
 -1      3965 1.50299E-03-7.10882E-05-4.64364E-16
 -1      3966 4.82239E-03 1.95577E-04-3.34995E-15
 -1      3967 4.67889E-03 1.96092E-04-3.14267E-15
 -1      3968 4.60650E-03 1.58657E-04-3.11106E-15
 -1      3969 9.91527E-03-1.19719E-04-1.76507E-14
 -1      3970 5.96660E-03 1.89935E-04-5.29701E-15
 -1      3971 5.82398E-03 1.90839E-04-5.02651E-15
 -1      3972 5.75228E-03 1.54524E-04-4.97637E-15
 -1      3973 6.03744E-03 1.53044E-04-5.52135E-15
 -1      3974 1.84442E-03-1.42085E-04-6.93510E-16
 -1      3975 1.98900E-03-1.46228E-04-7.90844E-16
 -1      3976 2.05894E-03-1.12788E-04-8.21392E-16
 -1      3977 3.53066E-03 2.74314E-04-1.64707E-15
 -1      3978 3.38654E-03 2.74148E-04-1.51103E-15
 -1      3979 3.31202E-03 2.36060E-04-1.49593E-15
 -1      3980 3.60074E-03 2.36389E-04-1.77403E-15
 -1      3981 5.10908E-03 1.94445E-04-3.78874E-15
 -1      3982 4.96579E-03 1.95030E-04-3.56509E-15
 -1      3983 4.89365E-03 1.57824E-04-3.52999E-15
 -1      3984 5.18033E-03 1.56872E-04-3.97954E-15
 -1      3985 9.80584E-03-1.15253E-04-1.72027E-14
 -1      3986 9.83616E-03-9.48748E-05-1.73365E-14
 -1      3987 9.77448E-03-7.00836E-05-1.70578E-14
 -1      3988 9.68645E-03-1.14902E-04-1.67232E-14
 -1      3989 2.80284E-03 1.95432E-04-1.11246E-15
 -1      3990 2.65777E-03 1.93957E-04-1.00224E-15
 -1      3991 2.94784E-03 1.96549E-04-1.22879E-15
 -1      3992 2.87302E-03 1.58310E-04-1.21161E-15
 -1      3993 3.09275E-03 1.97340E-04-1.35074E-15
 -1      3994 9.89040E-03 5.68059E-05-1.67964E-14
 -1      3995 9.99465E-03 7.80954E-05-1.70152E-14
 -1      3996 1.49087E-03-9.51591E-05-4.68091E-16
 -1      3997 1.49250E-03-1.23074E-04-4.80031E-16
 -1      3998 1.59017E-03-1.31213E-04-5.36843E-16
 -1      3999 1.61377E-03-8.12077E-05-5.28793E-16
 -1      4000 9.60370E-03-8.76334E-05-1.63679E-14
 -1      4001 4.03077E-03 1.59920E-04-2.36406E-15
 -1      4002 3.95974E-03 1.98030E-04-2.21963E-15
 -1      4003 3.81556E-03 1.98242E-04-2.05805E-15
 -1      4004 2.07762E-03 1.82812E-04-6.21099E-16
 -1      4005 2.00204E-03 1.45583E-04-6.07357E-16
 -1      4006 2.22254E-03 1.86542E-04-7.07361E-16
 -1      4007 9.77310E-03-3.01084E-05-1.69484E-14
 -1      4008 9.83754E-03-1.17946E-05-1.71477E-14
 -1      4009 9.80833E-03 8.08018E-06-1.68709E-14
 -1      4010 9.89628E-03 1.28458E-04-1.62217E-14
 -1      4011 9.79897E-03 9.58197E-05-1.61151E-14
 -1      4012 1.75039E-03-1.34112E-05-5.70263E-16
 -1      4013 1.75046E-03-4.32586E-05-5.87177E-16
 -1      4014 1.00236E-02 1.29403E-04-1.66898E-14
 -1      4015 2.44355E-03 2.27775E-04-8.12338E-16
 -1      4016 1.75052E-03 2.37787E-05-5.48769E-16
 -1      4017 1.87507E-03 9.00782E-06-6.29962E-16
 -1      4018 1.75150E-03 6.10267E-05-5.26109E-16
 -1      4019 1.01284E-02 1.19089E-04-1.71791E-14
 -1      4020 1.51071E-03 1.58203E-04-3.41632E-16
 -1      4021 1.50732E-03 1.22852E-04-3.62842E-16
 -1      4022 1.02526E-02 1.52060E-04-1.73838E-14
 -1      4023 1.63000E-03 1.09744E-04-4.30577E-16
 -1      4024 1.68819E-03-1.39146E-04-5.96501E-16
 -1      4025 1.67644E-03 1.74382E-04-4.08907E-16
 -1      4026 1.75763E-03-1.08515E-04-6.24324E-16
 -1      4027 1.74507E-03 1.44309E-04-4.65556E-16
 -1      4028 9.80015E-03 3.42175E-05-1.66271E-14
 -1      4029 9.79538E-03 6.38659E-05-1.63597E-14
 -1      4030 9.70114E-03 7.03138E-05-1.59498E-14
 -1      4031 9.71599E-03 1.45447E-05-1.64329E-14
 -1      4032 2.56573E-03-8.22543E-05-1.18614E-15
 -1      4033 2.71121E-03-8.30006E-05-1.31041E-15
 -1      4034 2.85667E-03-8.35659E-05-1.44025E-15
 -1      4035 3.00205E-03-8.39657E-05-1.57666E-15
 -1      4036 2.78305E-03-4.56799E-05-1.34127E-15
 -1      4037 3.14734E-03-8.42397E-05-1.71933E-15
 -1      4038 3.29252E-03-8.43961E-05-1.86709E-15
 -1      4039 3.07395E-03-4.61073E-05-1.60881E-15
 -1      4040 3.43756E-03-8.44694E-05-2.02156E-15
 -1      4041 3.58245E-03-8.44583E-05-2.18280E-15
 -1      4042 3.36442E-03-4.62682E-05-1.90093E-15
 -1      4043 3.72720E-03-8.43955E-05-2.34987E-15
 -1      4044 3.87180E-03-8.42755E-05-2.52455E-15
 -1      4045 3.65434E-03-4.62332E-05-2.21829E-15
 -1      4046 4.01625E-03-8.41207E-05-2.70672E-15
 -1      4047 4.16055E-03-8.39287E-05-2.89459E-15
 -1      4048 3.94365E-03-4.60702E-05-2.56261E-15
 -1      4049 4.30471E-03-8.37162E-05-3.08981E-15
 -1      4050 4.44872E-03-8.34765E-05-3.29227E-15
 -1      4051 4.23235E-03-4.58319E-05-2.93557E-15
 -1      4052 4.59260E-03-8.32218E-05-3.50064E-15
 -1      4053 4.73634E-03-8.29460E-05-3.71709E-15
 -1      4054 4.52046E-03-4.55379E-05-3.33677E-15
 -1      4055 4.87996E-03-8.26573E-05-3.94097E-15
 -1      4056 5.02343E-03-8.23492E-05-4.17178E-15
 -1      4057 4.80800E-03-4.52022E-05-3.76561E-15
 -1      4058 5.16678E-03-8.20268E-05-4.41011E-15
 -1      4059 5.31000E-03-8.16833E-05-4.65598E-15
 -1      4060 5.09500E-03-4.48295E-05-4.22420E-15
 -1      4061 5.45308E-03-8.13216E-05-4.91001E-15
 -1      4062 5.59602E-03-8.09345E-05-5.17129E-15
 -1      4063 5.38145E-03-4.44169E-05-4.71418E-15
 -1      4064 5.73880E-03-8.05237E-05-5.44031E-15
 -1      4065 5.88143E-03-8.00811E-05-5.71682E-15
 -1      4066 5.66732E-03-4.39557E-05-5.23396E-15
 -1      4067 6.02387E-03-7.96082E-05-6.00106E-15
 -1      4068 6.16613E-03-7.90959E-05-6.29268E-15
 -1      4069 5.95254E-03-4.34335E-05-5.78457E-15
 -1      4070 6.30817E-03-7.85467E-05-6.59095E-15
 -1      4071 6.44998E-03-7.79497E-05-6.89708E-15
 -1      4072 6.23699E-03-4.28357E-05-6.36481E-15
 -1      4073 6.59153E-03-7.73098E-05-7.21209E-15
 -1      4074 6.73278E-03-7.66142E-05-7.53363E-15
 -1      4075 6.52051E-03-4.21472E-05-6.97577E-15
 -1      4076 6.87370E-03-7.58719E-05-7.86307E-15
 -1      4077 7.01425E-03-7.50672E-05-8.20096E-15
 -1      4078 6.80287E-03-4.13554E-05-7.61620E-15
 -1      4079 7.15439E-03-7.42155E-05-8.54733E-15
 -1      4080 7.29406E-03-7.32977E-05-8.90087E-15
 -1      4081 7.08378E-03-4.04529E-05-8.28912E-15
 -1      4082 7.43321E-03-7.23382E-05-9.26193E-15
 -1      4083 7.57179E-03-7.13133E-05-9.63040E-15
 -1      4084 7.36287E-03-3.94415E-05-8.99317E-15
 -1      4085 7.70972E-03-7.02598E-05-1.00063E-14
 -1      4086 7.84695E-03-6.91479E-05-1.03899E-14
 -1      4087 7.63969E-03-3.83372E-05-9.72626E-15
 -1      4088 7.98338E-03-6.80309E-05-1.07817E-14
 -1      4089 8.11896E-03-6.68702E-05-1.11794E-14
 -1      4090 7.91371E-03-3.71753E-05-1.04898E-14
 -1      4091 8.25355E-03-6.57400E-05-1.15851E-14
 -1      4092 8.38712E-03-6.45889E-05-1.19991E-14
 -1      4093 8.18430E-03-3.60166E-05-1.12832E-14
 -1      4094 8.51950E-03-6.35176E-05-1.24176E-14
 -1      4095 8.65064E-03-6.24535E-05-1.28431E-14
 -1      4096 8.45073E-03-3.49505E-05-1.21053E-14
 -1      4097 8.78035E-03-6.15315E-05-1.32739E-14
 -1      4098 8.90857E-03-6.06413E-05-1.37098E-14
 -1      4099 8.71211E-03-3.40959E-05-1.29535E-14
 -1      4100 9.03504E-03-5.99668E-05-1.41510E-14
 -1      4101 9.15970E-03-5.93240E-05-1.45975E-14
 -1      4102 8.96738E-03-3.35932E-05-1.38218E-14
 -1      4103 9.28219E-03-5.89948E-05-1.50498E-14
 -1      4104 9.40246E-03-5.86532E-05-1.55069E-14
 -1      4105 9.21503E-03-3.35844E-05-1.47106E-14
 -1      4106 2.51267E-03 1.92026E-04-8.97787E-16
 -1      4107 2.36757E-03 1.89593E-04-7.99640E-16
 -1      4108 2.29205E-03 1.51776E-04-7.84705E-16
 -1      4109 2.58253E-03 1.55831E-04-9.86285E-16
 -1      4110 1.98471E-03-7.66872E-05-7.50851E-16
 -1      4111 2.12967E-03-7.85361E-05-8.50651E-16
 -1      4112 9.66267E-03-6.77165E-05-1.65761E-14
 -1      4113 9.71241E-03-4.74482E-05-1.67412E-14
 -1      4114 9.66693E-03-2.73652E-05-1.64696E-14
 -1      4115 9.53843E-03-6.40455E-05-1.60582E-14
 -1      4116 6.67559E-03 1.13277E-04-6.94585E-15
 -1      4117 6.53412E-03 1.14159E-04-6.63513E-15
 -1      4118 6.39239E-03 1.14960E-04-6.33262E-15
 -1      4119 6.25042E-03 1.15698E-04-6.03560E-15
 -1      4120 6.46283E-03 7.89199E-05-6.56949E-15
 -1      4121 7.23815E-03 1.08899E-04-8.26867E-15
 -1      4122 7.09808E-03 1.10138E-04-7.92644E-15
 -1      4123 7.51684E-03 1.06136E-04-8.97511E-15
 -1      4124 7.37774E-03 1.07575E-04-8.61849E-15
 -1      4125 7.30672E-03 7.45566E-05-8.53813E-15
 -1      4126 7.79326E-03 1.02973E-04-9.71293E-15
 -1      4127 7.65535E-03 1.04614E-04-9.33972E-15
 -1      4128 7.58439E-03 7.25524E-05-9.25554E-15
 -1      4129 8.06691E-03 9.94285E-05-1.04752E-14
 -1      4130 7.93045E-03 1.01259E-04-1.00898E-14
 -1      4131 7.85951E-03 7.02453E-05-9.99992E-15
 -1      4132 8.33723E-03 9.55518E-05-1.12707E-14
 -1      4133 8.20251E-03 9.75430E-05-1.08704E-14
 -1      4134 8.13153E-03 6.76380E-05-1.07755E-14
 -1      4135 8.60362E-03 9.14222E-05-1.20938E-14
 -1      4136 8.47094E-03 9.35322E-05-1.16788E-14
 -1      4137 8.39980E-03 6.47477E-05-1.15814E-14
 -1      4138 8.86541E-03 8.71381E-05-1.29399E-14
 -1      4139 8.73511E-03 8.93183E-05-1.25137E-14
 -1      4140 8.66361E-03 6.16019E-05-1.24132E-14
 -1      4141 9.12183E-03 8.27759E-05-1.38047E-14
 -1      4142 8.99430E-03 8.50005E-05-1.33702E-14
 -1      4143 8.92211E-03 5.82244E-05-1.32668E-14
 -1      4144 9.37207E-03 7.83306E-05-1.46898E-14
 -1      4145 9.24771E-03 8.05973E-05-1.42443E-14
 -1      4146 9.17424E-03 5.45761E-05-1.41394E-14
 -1      4147 9.59879E-03 7.32206E-05-1.55433E-14
 -1      4148 9.47796E-03 7.55831E-05-1.50868E-14
 -1      4149 9.40252E-03 4.98532E-05-1.49786E-14
 -1      4150 9.60679E-03 4.41763E-05-1.57831E-14
 -1      4151 2.27489E-03-8.00627E-05-9.56456E-16
 -1      4152 2.42026E-03-8.12826E-05-1.06809E-15
 -1      4153 2.20114E-03-4.35179E-05-8.78217E-16
 -1      4154 6.95761E-03 1.11270E-04-7.59124E-15
 -1      4155 6.81676E-03 1.12321E-04-7.26430E-15
 -1      4156 6.74557E-03 7.77136E-05-7.19254E-15
 -1      4157 7.02698E-03 7.62694E-05-7.84891E-15
 -1      4158 1.76973E-03-8.23274E-05-6.18795E-16
 -1      4159 5.53776E-03 1.18545E-04-4.66615E-15
 -1      4160 5.39476E-03 1.18990E-04-4.41488E-15
 -1      4161 4.67788E-03 1.20797E-04-3.28119E-15
 -1      4162 4.53413E-03 1.21090E-04-3.07718E-15
 -1      4163 4.39024E-03 1.21354E-04-2.88148E-15
 -1      4164 4.24623E-03 1.21595E-04-2.69266E-15
 -1      4165 4.46178E-03 8.33910E-05-3.04299E-15
 -1      4166 1.74215E-03 1.06758E-04-4.90466E-16
 -1      4167 1.86592E-03 9.44253E-05-5.67417E-16
 -1      4168 2.94382E-03 1.20900E-04-1.31348E-15
 -1      4169 2.79849E-03 1.20181E-04-1.19247E-15
 -1      4170 3.38224E-03 1.98199E-04-1.61472E-15
 -1      4171 3.23755E-03 1.97882E-04-1.47956E-15
 -1      4172 3.16320E-03 1.59657E-04-1.46102E-15
 -1      4173 2.49198E-03-4.48650E-05-1.09793E-15
 -1      4174 2.65311E-03 1.19212E-04-1.07747E-15
 -1      4175 2.50772E-03 1.17977E-04-9.68193E-16
 -1      4176 2.72433E-03 8.22149E-05-1.17137E-15
 -1      4177 4.10207E-03 1.21798E-04-2.51172E-15
 -1      4178 3.95778E-03 1.21968E-04-2.33770E-15
 -1      4179 4.17362E-03 8.36979E-05-2.66123E-15
 -1      4180 1.89425E-03-6.93699E-05-6.88102E-16
 -1      4181 1.96557E-03-3.58823E-05-7.14110E-16
 -1      4182 5.82332E-03 1.17547E-04-5.19191E-15
 -1      4183 5.68061E-03 1.18068E-04-4.92511E-15
 -1      4184 5.60898E-03 8.14575E-05-4.87301E-15
 -1      4185 4.82151E-03 1.20484E-04-3.49280E-15
 -1      4186 4.74938E-03 8.30099E-05-3.45396E-15
 -1      4187 4.96501E-03 1.20146E-04-3.71167E-15
 -1      4188 9.47034E-03-3.93739E-05-1.57095E-14
 -1      4189 6.17903E-03 7.99227E-05-5.97458E-15
 -1      4190 6.10824E-03 1.16367E-04-5.74634E-15
 -1      4191 5.96587E-03 1.16985E-04-5.46605E-15
 -1      4192 3.74212E-03 1.60238E-04-2.03564E-15
 -1      4193 3.67124E-03 1.98350E-04-1.90341E-15
 -1      4194 3.52681E-03 1.98351E-04-1.75536E-15
 -1      4195 5.25164E-03 1.19402E-04-4.17301E-15
 -1      4196 5.10839E-03 1.19788E-04-3.93904E-15
 -1      4197 5.32299E-03 8.20523E-05-4.36832E-15
 -1      4198 1.96574E-03 4.21849E-05-6.63396E-16
 -1      4199 1.96523E-03 3.14222E-06-6.89227E-16
 -1      4200 2.05557E-03-2.93952E-06-7.51406E-16
 -1      4201 2.01058E-03 9.71558E-05-6.50535E-16
 -1      4202 2.75292E-03 1.83589E-05-1.25682E-15
 -1      4203 2.89845E-03 1.85142E-05-1.38221E-15
 -1      4204 2.36236E-03 1.16398E-04-8.65126E-16
 -1      4205 2.21710E-03 1.14467E-04-7.67886E-16
 -1      4206 2.43337E-03 8.04618E-05-9.48406E-16
 -1      4207 3.29159E-03-8.09029E-06-1.78307E-15
 -1      4208 3.43672E-03-8.06159E-06-1.93309E-15
 -1      4209 3.58171E-03-8.03354E-06-2.08904E-15
 -1      4210 3.72655E-03-7.99419E-06-2.25143E-15
 -1      4211 3.50935E-03 3.01803E-05-1.96323E-15
 -1      4212 3.91392E-03 1.89045E-05-2.43623E-15
 -1      4213 4.05839E-03 1.89139E-05-2.61470E-15
 -1      4214 4.20271E-03 1.89085E-05-2.79926E-15
 -1      4215 4.34688E-03 1.89081E-05-2.99135E-15
 -1      4216 4.49090E-03 1.88949E-05-3.19106E-15
 -1      4217 4.63479E-03 1.88854E-05-3.39693E-15
 -1      4218 4.77853E-03 1.88656E-05-3.61114E-15
 -1      4219 4.92213E-03 1.88486E-05-3.83328E-15
 -1      4220 5.06560E-03 1.88224E-05-4.06188E-15
 -1      4221 5.20893E-03 1.87978E-05-4.29885E-15
 -1      4222 5.35211E-03 1.87640E-05-4.54255E-15
 -1      4223 5.49516E-03 1.87304E-05-4.79502E-15
 -1      4224 5.63804E-03 1.86864E-05-5.05584E-15
 -1      4225 5.78077E-03 1.86414E-05-5.32318E-15
 -1      4226 5.92332E-03 1.85837E-05-5.59840E-15
 -1      4227 6.06569E-03 1.85239E-05-5.88154E-15
 -1      4228 6.20784E-03 1.84479E-05-6.17212E-15
 -1      4229 6.34976E-03 1.83692E-05-6.46950E-15
 -1      4230 6.49143E-03 1.82693E-05-6.77391E-15
 -1      4231 6.63282E-03 1.81665E-05-7.08714E-15
 -1      4232 6.77388E-03 1.80362E-05-7.40711E-15
 -1      4233 6.91458E-03 1.79035E-05-7.73555E-15
 -1      4234 7.05489E-03 1.77350E-05-8.07156E-15
 -1      4235 7.19475E-03 1.75653E-05-8.41655E-15
 -1      4236 7.33411E-03 1.73493E-05-8.76809E-15
 -1      4237 7.47291E-03 1.71343E-05-9.12661E-15
 -1      4238 7.61109E-03 1.68599E-05-9.49369E-15
 -1      4239 7.74858E-03 1.65895E-05-9.86587E-15
 -1      4240 7.88532E-03 1.62429E-05-1.02460E-14
 -1      4241 8.02121E-03 1.59048E-05-1.06347E-14
 -1      4242 8.15617E-03 1.54685E-05-1.10316E-14
 -1      4243 8.29012E-03 1.50466E-05-1.14354E-14
 -1      4244 8.42294E-03 1.44977E-05-1.18456E-14
 -1      4245 8.55454E-03 1.39713E-05-1.22614E-14
 -1      4246 8.68479E-03 1.32781E-05-1.26841E-14
 -1      4247 8.81356E-03 1.26201E-05-1.31113E-14
 -1      4248 8.94069E-03 1.17378E-05-1.35441E-14
 -1      4249 9.06602E-03 1.09178E-05-1.39827E-14
 -1      4250 9.18937E-03 9.76202E-06-1.44240E-14
 -1      4251 9.31048E-03 8.79114E-06-1.48743E-14
 -1      4252 2.46181E-03 1.79488E-05-1.02354E-15
 -1      4253 2.60736E-03 1.81856E-05-1.13736E-15
 -1      4254 9.64044E-03-5.37601E-06-1.62454E-14
 -1      4255 9.62128E-03 2.01162E-05-1.60073E-14
 -1      4256 9.52248E-03 2.29374E-05-1.55994E-14
 -1      4257 9.56989E-03-2.26728E-05-1.60427E-14
 -1      4258 2.20071E-03-2.98667E-06-8.49567E-16
 -1      4259 9.43936E-03-1.65587E-05-1.54913E-14
 -1      4260 3.08906E-03 1.21433E-04-1.44076E-15
 -1      4261 3.01518E-03 8.32504E-05-1.41823E-15
 -1      4262 3.23419E-03 1.21790E-04-1.57383E-15
 -1      4263 3.04389E-03 1.86192E-05-1.51384E-15
 -1      4264 5.89436E-03 8.07574E-05-5.40816E-15
 -1      4265 3.18924E-03 1.87149E-05-1.65159E-15
 -1      4266 3.26229E-03 5.69039E-05-1.67923E-15
 -1      4267 3.84189E-03 5.70758E-05-2.29696E-15
 -1      4268 9.42112E-03 2.54352E-05-1.51964E-14
 -1      4269 3.45292E-03 1.60209E-04-1.73592E-15
 -1      4270 5.03645E-03 8.25649E-05-3.89561E-15
 -1      4271 3.77014E-03 9.52578E-05-2.16058E-15
 -1      4272 3.62547E-03 9.52882E-05-2.00179E-15
 -1      4273 2.08152E-03 6.31162E-05-7.20493E-16
 -1      4274 3.33566E-03 9.51312E-05-1.70506E-15
 -1      4275 3.48063E-03 9.52401E-05-1.85058E-15
 -1      4276 2.31634E-03 1.76835E-05-9.15866E-16
 -1      4277 2.17180E-03 5.77126E-05-7.84095E-16
 -3
    1PSTEP                         2           1           1          
  100CL  101 1.000000000        4277                     0    1           1
 -4  STRESS      6    1
 -5  SXX         1    4    1    1
 -5  SYY         1    4    2    2
 -5  SZZ         1    4    3    3
 -5  SXY         1    4    1    2
 -5  SYZ         1    4    2    3
 -5  SZX         1    4    3    1
 -1         1 2.73617E+01 1.09129E+01 1.18566E+00 1.70120E+01-4.95215E-13-8.79519E-13
 -1         2-9.22200E-01-3.00142E+01-4.19894E+00-1.87670E-01 3.99965E-13-1.78961E-13
 -1         3 2.00256E+01 2.88090E-02 5.52935E-02 2.63041E-02-2.02070E-13-7.16165E-14
 -1         4 2.00113E+01 1.32596E-02 6.22498E-02-1.13875E-02 1.03220E-13 5.42768E-14
 -1         5 3.27688E+01 6.14289E+00 2.74238E+00 6.22426E+00-1.62856E-14 9.26301E-13
 -1         6 3.57529E+01 1.22635E+01 5.12536E+00-8.64653E+00-6.35603E-14 2.63956E-13
 -1         7 2.08200E+01 6.10003E+00-1.28550E-01-4.72507E+00-1.14492E-14-2.20546E-13
 -1         8 1.96724E+01 5.93511E+00 5.08027E-02-3.27411E+00-3.76782E-15-3.00749E-13
 -1         9 1.91374E+01 5.77205E+00 4.90176E-02-2.52625E+00 2.41474E-15-3.16250E-13
 -1        10 1.88959E+01 5.69228E+00 5.12569E-02-1.95075E+00 2.12937E-15-3.00673E-13
 -1        11 1.87734E+01 5.65125E+00 5.04058E-02-1.45559E+00 5.33644E-15-2.72175E-13
 -1        12 1.87095E+01 5.62944E+00 4.87758E-02-1.01481E+00 4.69264E-15-2.51372E-13
 -1        13 1.86758E+01 5.61794E+00 4.74096E-02-5.95146E-01 5.52097E-15-2.14895E-13
 -1        14 1.86616E+01 5.61308E+00 4.66819E-02-1.91135E-01 6.34505E-15-1.81951E-13
 -1        15 1.86621E+01 5.61324E+00 4.67220E-02 2.08127E-01 1.04431E-14-1.54408E-13
 -1        16 1.86774E+01 5.61844E+00 4.75438E-02 6.12964E-01 7.93343E-15-1.17441E-13
 -1        17 1.87124E+01 5.63020E+00 4.90622E-02 1.03461E+00 1.23564E-14-7.52026E-14
 -1        18 1.87775E+01 5.65232E+00 5.08168E-02 1.47859E+00 9.82591E-15-2.71588E-14
 -1        19 1.89011E+01 5.69380E+00 5.15345E-02 1.97966E+00 1.48345E-14 5.51139E-14
 -1        20 1.91429E+01 5.77463E+00 4.87991E-02 2.56326E+00 1.16036E-14 1.57009E-13
 -1        21 1.96683E+01 5.94984E+00 4.59588E-02 3.30831E+00 1.52170E-14 3.29518E-13
 -1        22 2.12027E+01 6.38175E+00 1.39747E-01 4.52275E+00 2.59515E-15 5.76008E-13
 -1        23 2.30311E+01-1.37931E+00-9.38318E-01-7.11124E-01-4.40793E-14 5.69267E-14
 -1        24 1.93687E+01-9.94716E-02-3.09832E-01 6.32075E-02-9.74047E-15-9.58088E-14
 -1        25 1.86808E+01-5.63203E-02-6.87767E-02 6.07562E-02-3.99507E-15-2.38995E-13
 -1        26 1.84788E+01-2.20877E-02-6.43976E-03 3.29916E-02 1.50498E-14-2.87478E-13
 -1        27 1.84906E+01-1.17971E-02 1.60050E-03 2.26143E-02-8.21782E-15-3.42101E-13
 -1        28 1.86051E+01-6.23331E-03 1.78785E-03 1.63214E-02-2.75358E-14-3.80546E-13
 -1        29 1.87653E+01-3.07402E-03 1.73440E-03 1.21776E-02 1.00774E-14-3.85754E-13
 -1        30 1.89398E+01-1.21477E-03 1.92329E-03 9.22340E-03 8.01073E-15-3.32336E-13
 -1        31 1.91108E+01-1.14942E-04 2.09008E-03 7.00199E-03-1.25360E-14-4.09134E-13
 -1        32 1.92684E+01 5.15630E-04 2.12815E-03 5.28082E-03-2.43605E-14-4.80282E-13
 -1        33 1.94077E+01 8.46067E-04 2.04476E-03 3.92852E-03 2.02197E-14-6.13803E-13
 -1        34 1.95270E+01 9.81423E-04 1.87734E-03 2.86145E-03-8.57075E-16-5.72300E-13
 -1        35 1.96263E+01 9.89765E-04 1.66076E-03 2.02018E-03-2.37693E-14-6.69515E-13
 -1        36 1.97072E+01 9.15810E-04 1.42001E-03 1.35911E-03 3.02665E-14-6.34282E-13
 -1        37 1.97718E+01 7.88359E-04 1.17040E-03 8.41827E-04-2.55802E-14-5.28508E-13
 -1        38 1.98227E+01 6.24734E-04 9.19075E-04 4.39053E-04-6.59760E-15-5.53858E-13
 -1        39 1.98629E+01 4.33661E-04 6.66452E-04 1.27873E-04-1.62412E-14-5.07901E-13
 -1        40 1.98954E+01 2.17276E-04 4.07427E-04-1.08467E-04-5.50064E-14-5.39297E-13
 -1        41 1.99236E+01-2.74010E-05 1.32207E-04-2.80373E-04 5.80401E-14-6.67274E-13
 -1        42 1.99511E+01-3.07311E-04-1.73097E-04-3.91393E-04-1.65008E-14-5.25919E-13
 -1        43 1.99819E+01-6.32334E-04-5.26047E-04-4.37345E-04 2.04578E-14-2.02829E-13
 -1        44 2.00209E+01-1.01421E-03-9.47514E-04-4.05013E-04-3.76991E-14-1.66596E-13
 -1        45 2.00735E+01-1.46513E-03-1.46115E-03-2.70292E-04 1.23405E-15-3.03481E-13
 -1        46 2.01466E+01-1.99568E-03-2.09238E-03 4.31794E-06-1.15670E-14-4.57183E-13
 -1        47 2.02482E+01-2.61142E-03-2.86617E-03 4.72924E-04 6.08309E-14-3.52962E-14
 -1        48 2.03880E+01-3.30732E-03-3.80240E-03 1.21001E-03 6.99457E-15 1.85277E-13
 -1        49 2.05773E+01-4.05849E-03-4.90653E-03 2.31409E-03 3.17181E-14-9.90916E-14
 -1        50 2.08290E+01-4.80515E-03-6.15118E-03 3.90921E-03-5.14297E-14-1.98012E-13
 -1        51 2.11566E+01-5.42928E-03-7.44143E-03 6.13968E-03 2.96023E-14-1.87057E-13
 -1        52 2.15732E+01-5.72045E-03-8.55218E-03 9.14731E-03-9.25524E-14-1.21623E-13
 -1        53 2.20878E+01-5.33180E-03-9.02352E-03 1.30104E-02 1.67454E-14-3.84911E-13
 -1        54 2.27002E+01-3.73721E-03-8.00790E-03 1.76067E-02-4.52766E-14-5.79052E-13
 -1        55 2.33912E+01-2.27412E-04-4.10590E-03 2.23450E-02 7.22332E-14-6.79963E-13
 -1        56 2.41088E+01 5.97240E-03 4.66132E-03 2.57139E-02-4.66706E-14-4.59104E-13
 -1        57 2.47492E+01 1.53109E-02 2.03448E-02 2.46977E-02 2.53084E-14-5.29702E-13
 -1        58 2.51409E+01 2.70812E-02 4.34451E-02 1.44163E-02 1.18193E-14-5.51013E-13
 -1        59 2.50453E+01 3.82907E-02 6.97547E-02-1.09346E-02-4.09880E-14-6.55997E-13
 -1        60 2.42059E+01 4.29068E-02 8.65547E-02-5.40432E-02-1.67808E-14-6.94077E-13
 -1        61 2.24732E+01 3.36089E-02 7.44427E-02-1.07046E-01 1.19924E-13-5.03132E-13
 -1        62 1.99922E+01 7.26829E-03 1.97461E-02-1.45483E-01-9.49245E-14-8.33632E-13
 -1        63 1.73244E+01-2.84272E-02-6.35818E-02-1.36834E-01 3.08625E-14-1.24218E-12
 -1        64 1.53063E+01-5.56207E-02-1.29750E-01-6.89600E-02 1.12961E-14-1.15375E-12
 -1        65 1.45955E+01-5.80973E-02-1.33962E-01 2.71759E-02-1.53484E-14-1.06075E-12
 -1        66 1.52381E+01-3.59024E-02-7.41393E-02 9.82509E-02 5.77455E-14-6.86798E-13
 -1        67 1.66511E+01-5.01992E-03 3.19002E-03 1.10301E-01 9.63170E-14-2.57992E-13
 -1        68 1.80710E+01 1.56270E-02 4.83738E-02 7.72768E-02-3.29146E-14-1.10970E-13
 -1        69 1.90397E+01 1.90456E-02 4.76611E-02 3.62759E-02 9.90041E-14 1.00597E-13
 -1        70 1.95558E+01 1.43960E-02 2.79229E-02 2.02669E-02-2.12126E-14 4.20225E-13
 -1        71 1.98731E+01 1.50437E-02 3.66141E-02 2.55343E-02-8.34677E-14 3.16810E-13
 -1        72 2.10435E+01-4.04900E-01-9.80433E-01-3.11652E-01 9.96078E-15 9.60815E-13
 -1        73 1.93333E+01-6.58828E-02-2.91122E-01-5.38410E-02-3.20664E-15 9.21355E-13
 -1        74 1.86903E+01-2.05065E-02-6.42681E-02-2.03491E-02 8.52942E-16 8.96791E-13
 -1        75 1.84879E+01-9.87914E-03-9.31335E-03-1.54497E-02 6.61580E-16 8.49237E-13
 -1        76 1.84996E+01-5.16448E-03 6.77137E-04-1.23863E-02 1.90240E-14 7.76459E-13
 -1        77 1.86133E+01-2.61196E-03 1.74443E-03-1.01190E-02-1.26550E-14 7.38778E-13
 -1        78 1.87725E+01-1.13969E-03 1.88310E-03-8.38124E-03-1.13377E-14 8.00558E-13
 -1        79 1.89460E+01-2.73146E-04 2.07908E-03-6.95194E-03 3.07165E-15 7.51840E-13
 -1        80 1.91160E+01 2.28936E-04 2.22375E-03-5.72396E-03-2.32573E-14 6.88324E-13
 -1        81 1.92727E+01 5.01738E-04 2.23986E-03-4.65416E-03 3.71869E-14 6.25075E-13
 -1        82 1.94113E+01 6.26863E-04 2.13695E-03-3.72358E-03-8.75815E-16 5.45554E-13
 -1        83 1.95298E+01 6.56197E-04 1.95205E-03-2.91986E-03 1.05283E-14 5.06238E-13
 -1        84 1.96286E+01 6.23553E-04 1.71980E-03-2.23112E-03-1.06672E-14 5.57150E-13
 -1        85 1.97089E+01 5.50839E-04 1.46506E-03-1.64423E-03-2.60646E-14 6.66961E-13
 -1        86 1.97731E+01 4.51603E-04 1.20283E-03-1.14477E-03 1.29861E-14 4.57143E-13
 -1        87 1.98237E+01 3.33233E-04 9.39850E-04-7.17787E-04-2.21254E-14 4.88132E-13
 -1        88 1.98636E+01 1.98450E-04 6.76133E-04-3.48633E-04 7.21293E-15 5.19372E-13
 -1        89 1.98959E+01 4.63744E-05 4.06165E-04-2.38540E-05 5.06587E-14 3.12598E-13
 -1        90 1.99239E+01-1.26631E-04 1.19776E-04 2.67850E-04-2.39656E-14 2.73283E-13
 -1        91 1.99513E+01-3.26222E-04-1.97145E-04 5.34528E-04 2.59093E-14 2.18846E-13
 -1        92 1.99821E+01-5.59302E-04-5.62041E-04 7.79654E-04 7.89930E-15 9.25618E-14
 -1        93 2.00210E+01-8.33062E-04-9.95006E-04 1.00037E-03-3.92749E-14 1.64715E-13
 -1        94 2.00736E+01-1.15360E-03-1.51777E-03 1.18509E-03 2.02590E-14 1.17902E-13
 -1        95 2.01464E+01-1.52374E-03-2.15188E-03 1.31006E-03 1.20207E-14 4.35511E-14
 -1        96 2.02474E+01-1.93963E-03-2.91530E-03 1.33462E-03 9.80513E-15 1.14983E-13
 -1        97 2.03857E+01-2.38520E-03-3.81603E-03 1.19461E-03-3.74832E-14 4.94409E-13
 -1        98 2.05719E+01-2.82355E-03-4.84041E-03 7.93831E-04-7.96187E-15 5.76259E-13
 -1        99 2.08176E+01-3.18396E-03-5.93202E-03-6.09975E-06-4.95423E-15 2.23239E-13
 -1       100 2.11344E+01-3.34356E-03-6.95506E-03-1.39478E-03 2.09490E-14 2.36798E-13
 -1       101 2.15321E+01-3.10438E-03-7.63405E-03-3.61363E-03 1.59725E-15 2.31303E-13
 -1       102 2.20154E+01-2.17194E-03-7.46301E-03-6.93051E-03-3.24819E-14 3.08446E-13
 -1       103 2.25780E+01-1.53493E-04-5.59145E-03-1.15521E-02 1.52501E-14 4.63875E-13
 -1       104 2.31937E+01 3.38217E-03-7.41294E-04-1.74110E-02-3.73675E-14 6.84864E-13
 -1       105 2.38037E+01 8.70904E-03 8.68276E-03-2.37432E-02 1.34104E-14 8.45975E-13
 -1       106 2.43027E+01 1.55244E-02 2.39461E-02-2.84261E-02-5.22914E-14 6.60165E-13
 -1       107 2.45288E+01 2.23338E-02 4.43830E-02-2.73308E-02-2.72434E-14 2.29013E-13
 -1       108 2.42744E+01 2.59469E-02 6.48411E-02-1.45292E-02 1.26522E-13-1.56389E-13
 -1       109 2.33387E+01 2.21142E-02 7.38894E-02 1.50723E-02-4.15932E-14 5.69232E-14
 -1       110 2.16391E+01 8.31323E-03 5.66574E-02 5.94204E-02-1.03896E-13 1.57277E-13
 -1       111 1.93547E+01-1.23837E-02 6.19137E-03 1.02600E-01 7.57879E-14 1.71536E-13
 -1       112 1.69943E+01-3.04558E-02-6.26983E-02 1.18094E-01-1.24530E-13 4.90864E-13
 -1       113 1.52525E+01-3.60008E-02-1.13345E-01 8.72167E-02 1.02785E-13 4.79485E-13
 -1       114 1.46501E+01-2.70053E-02-1.13258E-01 2.08784E-02-2.58031E-13 3.69268E-13
 -1       115 1.52079E+01-1.06061E-02-6.47121E-02-4.42781E-02 2.31840E-14 8.09419E-13
 -1       116 1.64569E+01 3.10885E-03-3.53736E-03-7.53168E-02 5.29288E-14 1.61263E-13
 -1       117 1.77815E+01 8.84860E-03 3.35911E-02-6.80498E-02 5.82693E-14-5.39499E-13
 -1       118 1.87944E+01 8.79112E-03 3.74914E-02-4.42895E-02-9.30153E-15-5.24440E-13
 -1       119 1.94534E+01 1.00648E-02 2.96817E-02-2.96598E-02 7.33525E-14-5.28791E-13
 -1       120 1.98736E+01 7.29929E-03 3.68845E-02-3.36215E-02 7.55126E-14-6.09263E-13
 -1       121 1.99984E+01-1.43651E-01 1.46885E-02-5.05093E-02-7.74537E-13 2.33608E-14
 -1       122 1.99751E+01-4.92157E-01-3.59117E-02-5.39012E-02-1.07066E-12-2.54512E-14
 -1       123 1.99496E+01-4.37317E-01-9.65466E-02-2.25927E-02-5.32155E-13 1.46235E-13
 -1       124 1.99354E+01 5.94793E-01-1.39733E-01 4.52204E-02-8.35960E-13-1.96024E-13
 -1       125 1.99468E+01 2.98520E+00-1.33105E-01 1.39361E-01-1.32875E-12-2.10291E-13
 -1       126 1.99917E+01 6.63158E+00-4.66631E-02 2.21120E-01-8.31113E-13 2.77740E-14
 -1       127 2.00571E+01 1.06645E+01 1.06235E-01 2.25269E-01-1.53849E-13 1.40873E-13
 -1       128 2.01175E+01 1.35724E+01 2.45567E-01 1.21812E-01 3.62068E-13 7.92248E-14
 -1       129 2.01244E+01 1.41124E+01 2.70927E-01-6.00793E-02 5.92514E-13-2.67844E-13
 -1       130 2.00846E+01 1.20251E+01 1.65628E-01-1.97993E-01-7.48519E-13 2.93128E-13
 -1       131 2.00153E+01 8.25998E+00 3.95113E-03-2.33240E-01-1.06559E-12 1.02732E-13
 -1       132 1.99599E+01 4.38130E+00-1.11673E-01-1.71434E-01-8.07410E-13 3.52274E-13
 -1       133 1.99377E+01 1.52962E+00-1.42900E-01-7.51410E-02-4.59084E-13 1.14428E-13
 -1       134 1.99430E+01 5.15618E-02-1.12043E-01 2.95402E-03 1.63249E-13 1.05504E-13
 -1       135 1.99765E+01-3.06983E-01-4.72795E-02 4.08430E-02-8.75949E-14-1.06398E-13
 -1       136 1.99819E+01-1.19748E-01 5.30384E-03 6.66677E-02-5.34184E-13-1.86255E-14
 -1       137-1.76059E+00-2.33070E+01-3.70470E+00-4.59789E+00 1.97731E-13-1.03077E-13
 -1       138-1.60574E+00-8.96236E+00-2.49443E+00-3.08084E+00-3.31180E-13 2.16493E-14
 -1       139 5.12255E+00 5.87519E+00-7.89246E-01 5.75579E+00 1.32006E-13 4.38538E-14
 -1       140 2.14946E+01 1.27865E+01 1.05547E+00 1.62814E+01 3.23130E-13 3.97904E-13
 -1       141 4.39630E+01 1.06966E+01 2.58470E+00 2.09283E+01 8.73468E-14 1.31284E-13
 -1       142 6.34127E+01 4.58530E+00 3.59196E+00 1.52574E+01 6.25194E-15-2.65787E-13
 -1       143 7.14754E+01 1.13956E+00 3.90259E+00 1.50135E+00 6.11525E-14-2.96214E-13
 -1       144 6.37634E+01 3.28288E+00 3.42055E+00-1.21112E+01 5.97473E-14-8.00693E-13
 -1       145 4.47477E+01 8.52434E+00 2.32675E+00-1.87471E+01 4.51611E-13-8.99503E-13
 -1       146 2.31239E+01 1.11107E+01 8.96280E-01-1.58075E+01 9.04610E-13-8.31446E-13
 -1       147 7.24020E+00 7.02346E+00-5.57913E-01-7.25623E+00 3.88634E-13-7.56617E-13
 -1       148-5.91862E-01-3.66224E+00-1.86868E+00 1.16698E+00-3.51386E-14 2.46247E-13
 -1       149-2.06621E+00-1.73500E+01-2.91357E+00 4.90858E+00-7.41074E-14-2.62845E-14
 -1       150-9.80585E-01-2.62315E+01-3.44450E+00 2.45522E+00-1.62065E-13 2.04024E-13
 -1       151-9.61599E-01-2.62834E+01-3.46138E+00-2.59879E+00-6.92363E-13-2.20803E-13
 -1       152-2.20487E+00-1.71650E+01-2.91501E+00-5.10291E+00-1.47121E-12-6.04267E-13
 -1       153-2.38211E-01-3.03025E+00-1.80957E+00-6.44006E-01-1.54571E-12-8.78631E-13
 -1       154 9.16500E+00 7.72648E+00-3.74412E-01 8.50748E+00-8.45213E-13-9.87210E-13
 -1       155 5.01038E+01 7.15805E+00 2.67365E+00 1.78999E+01-1.91513E-13-1.85574E-13
 -1       156 6.71429E+01 2.22988E+00 3.63578E+00 9.53181E+00 2.03666E-13 2.52076E-13
 -1       157 7.16899E+01 1.16953E+00 3.95996E+00-4.39560E+00-1.14058E-13 1.37730E-13
 -1       158 6.11020E+01 5.57987E+00 3.52740E+00-1.69973E+01-2.39544E-13 9.35418E-13
 -1       159 4.03345E+01 1.15807E+01 2.39056E+00-2.09283E+01-4.50806E-13 7.92588E-13
 -1       160 1.77222E+01 1.21623E+01 7.05033E-01-1.45248E+01-2.69729E-13 5.24247E-13
 -1       161 3.54087E+00 3.82475E+00-1.07271E+00-4.04684E+00-1.19904E-14-1.77358E-13
 -1       162-1.88999E+00-1.09898E+01-2.69310E+00 3.81385E+00 8.57980E-13-2.17548E-13
 -1       163-1.59264E+00-2.45140E+01-3.79062E+00 4.59938E+00 1.40465E-12-3.65145E-13
 -1       164 2.10146E+01 3.69371E+00-5.73904E-02-3.60973E+00-7.46035E-14-2.17576E-13
 -1       165 1.99906E+01 4.20845E+00-4.59462E-02-2.80800E+00-3.07306E-14-2.57194E-13
 -1       166 1.95104E+01 4.47660E+00-3.13391E-02-2.19552E+00 1.04227E-14-2.65879E-13
 -1       167 1.92675E+01 4.61528E+00-2.34992E-02-1.67433E+00 3.48129E-14-2.55306E-13
 -1       168 1.91366E+01 4.69695E+00-1.95375E-02-1.21881E+00 5.46915E-14-2.28303E-13
 -1       169 1.90626E+01 4.74791E+00-1.74371E-02-7.91876E-01 6.88318E-14-1.96269E-13
 -1       170 1.90253E+01 4.77576E+00-1.64234E-02-3.86778E-01 8.80730E-14-1.67652E-13
 -1       171 1.90143E+01 4.78429E+00-1.61313E-02 8.26927E-03 1.05493E-13-1.39967E-13
 -1       172 1.90270E+01 4.77449E+00-1.64641E-02 4.03649E-01 1.10903E-13-1.10476E-13
 -1       173 1.90663E+01 4.74495E+00-1.75182E-02 8.09798E-01 1.20227E-13-8.69053E-14
 -1       174 1.91411E+01 4.69254E+00-1.96864E-02 1.23120E+00 1.30598E-13-3.71370E-14
 -1       175 1.92769E+01 4.60540E+00-2.40062E-02 1.69783E+00 1.42145E-13 2.50616E-14
 -1       176 1.95242E+01 4.45961E+00-3.28503E-02 2.22616E+00 1.47326E-13 9.91603E-14
 -1       177 2.00141E+01 4.18388E+00-4.72107E-02 2.84641E+00 1.23049E-13 2.21937E-13
 -1       178 2.11361E+01 3.46367E+00-5.97753E-02 3.53640E+00 8.50969E-14 3.96266E-13
 -1       179 2.24206E+01 1.14332E+00-3.36467E-01 3.01459E+00 3.77059E-14 5.81299E-13
 -1       180 2.19732E+01 8.58186E-01 6.91289E-04-1.95892E+00-7.83124E-14-1.22773E-13
 -1       181 2.04487E+01 1.90349E-01-9.93652E-03-7.63932E-01-6.52742E-14-1.33119E-13
 -1       182 1.96735E+01 1.01647E-01 1.36020E-02-2.85364E-01-3.50197E-14-1.37960E-13
 -1       183 1.93340E+01 4.71849E-02 1.00147E-02-6.76932E-02-4.10583E-14-1.81552E-13
 -1       184 1.92045E+01 2.25730E-02 5.15534E-03 3.96046E-02-2.37271E-14-1.77086E-13
 -1       185 1.91913E+01 9.52020E-03 2.42934E-03 9.22295E-02-1.05336E-14-1.39536E-13
 -1       186 1.92401E+01 2.10924E-03 1.12630E-03 1.14583E-01 2.88086E-14-1.40000E-13
 -1       187 1.93194E+01-2.13767E-03 4.91211E-04 1.19447E-01-2.61222E-14-1.50517E-13
 -1       188 1.94104E+01-4.45573E-03 1.54913E-04 1.14235E-01-6.74545E-14-1.19584E-13
 -1       189 1.95018E+01-5.54654E-03-3.27117E-05 1.03542E-01-5.12991E-14-1.35579E-13
 -1       190 1.95874E+01-5.84764E-03-1.34779E-04 9.03130E-02-3.57181E-14-2.31561E-13
 -1       191 1.96637E+01-5.64619E-03-1.82675E-04 7.64491E-02-3.67505E-14-2.80819E-13
 -1       192 1.97297E+01-5.13319E-03-1.94858E-04 6.31655E-02-2.78503E-15-2.50600E-13
 -1       193 1.97853E+01-4.43274E-03-1.83080E-04 5.12253E-02-2.64291E-15-2.71035E-13
 -1       194 1.98315E+01-3.61972E-03-1.54839E-04 4.11032E-02-3.97192E-14-2.59525E-13
 -1       195 1.98699E+01-2.73143E-03-1.14633E-04 3.31072E-02 3.42181E-16-3.01191E-13
 -1       196 1.99024E+01-1.77593E-03-6.47541E-05 2.74706E-02-1.73925E-14-3.05335E-13
 -1       197 1.99314E+01-7.38012E-04-5.83357E-06 2.44245E-02 1.41944E-14-2.58269E-13
 -1       198 1.99595E+01 4.16351E-04 6.27315E-05 2.42538E-02 9.09128E-14-2.19244E-13
 -1       199 1.99898E+01 1.73650E-03 1.42415E-04 2.73438E-02 1.19641E-13-1.88808E-13
 -1       200 2.00258E+01 3.28394E-03 2.35187E-04 3.42149E-02 3.22540E-14-1.76389E-13
 -1       201 2.00717E+01 5.12860E-03 3.43056E-04 4.55484E-02-1.14798E-13-1.05873E-13
 -1       202 2.01321E+01 7.34349E-03 4.67404E-04 6.21983E-02 2.91888E-14-8.89269E-14
 -1       203 2.02128E+01 9.99539E-03 6.07967E-04 8.51829E-02 1.15126E-13-2.39880E-14
 -1       204 2.03204E+01 1.31286E-02 7.61208E-04 1.15640E-01 1.00316E-13-6.68443E-14
 -1       205 2.04623E+01 1.67353E-02 9.17753E-04 1.54725E-01-1.02128E-13-6.10834E-14
 -1       206 2.06468E+01 2.07040E-02 1.05851E-03 2.03396E-01-8.63606E-14-2.04179E-13
 -1       207 2.08822E+01 2.47296E-02 1.14926E-03 2.62031E-01 5.60608E-14-1.58270E-13
 -1       208 2.11762E+01 2.81648E-02 1.13422E-03 3.29740E-01 3.47159E-14-7.18038E-14
 -1       209 2.15340E+01 2.97870E-02 9.31057E-04 4.03229E-01-2.41754E-13-3.42164E-14
 -1       210 2.19554E+01 2.74708E-02 4.33889E-04 4.74998E-01-1.48196E-13 1.84160E-14
 -1       211 2.24304E+01 1.78217E-02-4.63230E-04 5.30769E-01-2.73066E-14 2.55154E-14
 -1       212 2.29330E+01-3.98713E-03-1.80741E-03 5.46374E-01 5.71344E-14-1.94122E-13
 -1       213 2.34132E+01-4.35199E-02-3.47465E-03 4.85410E-01 6.48852E-15-1.17605E-13
 -1       214 2.37905E+01-1.04295E-01-5.06243E-03 3.01122E-01-4.95454E-14-2.46402E-13
 -1       215 2.39520E+01-1.81279E-01-5.84230E-03-5.08435E-02-7.63721E-14-2.69929E-13
 -1       216 2.37656E+01-2.50653E-01-4.90803E-03-5.80411E-01-2.54926E-14-3.83910E-13
 -1       217 2.31203E+01-2.64102E-01-2.43699E-03-1.21170E+00 1.10185E-13-1.78463E-13
 -1       218 2.20017E+01-1.64718E-01 3.26500E-04-1.74259E+00-1.43803E-13-2.74668E-13
 -1       219 2.05799E+01 5.81635E-02 1.28951E-03-1.88503E+00-1.89027E-13-1.64422E-13
 -1       220 1.92288E+01 3.11973E-01 4.94949E-04-1.44473E+00-1.42068E-13-4.69525E-13
 -1       221 1.83803E+01 4.31995E-01-1.05721E-04-5.42320E-01 1.23038E-13-5.57976E-13
 -1       222 1.82450E+01 3.38367E-01 1.16119E-03 3.96395E-01 1.08922E-13-3.38101E-13
 -1       223 1.86734E+01 1.03551E-01 2.88709E-03 9.28145E-01 2.82808E-13-2.76361E-13
 -1       224 1.92794E+01-9.47684E-02 3.28656E-03 9.33090E-01 1.97676E-13-1.71162E-13
 -1       225 1.97417E+01-1.58516E-01 1.13916E-03 6.22439E-01 6.58215E-14-6.82380E-14
 -1       226 1.99459E+01-9.93935E-02-1.18437E-04 3.05672E-01 1.63790E-13-8.52788E-14
 -1       227 1.99701E+01-1.88540E-02 1.65279E-03 1.59118E-01 6.15688E-14 5.78777E-14
 -1       228 2.09649E+01 2.77012E-01-5.13302E-02 1.16464E+00 2.88831E-14 5.27518E-13
 -1       229 1.98704E+01 1.26841E-01 8.31102E-03 4.42950E-01 3.42218E-14 4.79088E-13
 -1       230 1.93643E+01 5.80710E-02 1.27335E-02 1.49898E-01 3.21141E-14 4.25917E-13
 -1       231 1.91549E+01 2.77294E-02 7.62656E-03 1.05999E-02 7.20368E-14 4.05925E-13
 -1       232 1.91053E+01 1.30719E-02 3.82125E-03-5.85418E-02 1.30234E-15 3.96123E-13
 -1       233 1.91413E+01 5.12251E-03 1.90431E-03-9.09601E-02-2.00847E-14 4.09250E-13
 -1       234 1.92206E+01 5.77826E-04 1.00126E-03-1.02703E-01 4.26079E-14 3.98316E-13
 -1       235 1.93184E+01-2.01448E-03 5.40665E-04-1.02480E-01 5.45351E-14 3.36356E-13
 -1       236 1.94200E+01-3.39674E-03 2.77595E-04-9.54854E-02 3.74335E-14 2.14383E-13
 -1       237 1.95169E+01-4.00359E-03 1.17463E-04-8.49925E-02-6.04195E-15 3.24659E-13
 -1       238 1.96045E+01-4.11152E-03 2.02784E-05-7.31066E-02 5.56587E-14 3.88249E-13
 -1       239 1.96808E+01-3.90343E-03-3.49250E-05-6.11813E-02-2.75085E-14 3.07423E-13
 -1       240 1.97455E+01-3.50065E-03-6.11676E-05-5.00733E-02 1.76359E-15 1.98136E-13
 -1       241 1.97992E+01-2.98073E-03-6.71122E-05-4.03145E-02 7.84411E-14 2.38105E-13
 -1       242 1.98434E+01-2.38867E-03-5.85627E-05-3.22357E-02-3.09935E-14 2.26346E-13
 -1       243 1.98799E+01-1.74459E-03-3.92904E-05-2.60585E-02 5.43245E-14 1.68168E-13
 -1       244 1.99112E+01-1.04920E-03-1.16092E-05-2.19667E-02 1.16603E-13 1.60854E-13
 -1       245 1.99396E+01-2.87722E-04 2.31853E-05-2.01604E-02 1.58401E-14 1.01609E-13
 -1       246 1.99682E+01 5.66954E-04 6.44626E-05-2.09003E-02 3.27264E-14 1.90986E-14
 -1       247 2.00003E+01 1.55152E-03 1.11914E-04-2.45405E-02-9.51770E-14 9.72910E-15
 -1       248 2.00399E+01 2.70936E-03 1.65170E-04-3.15525E-02-3.22591E-14 1.13165E-13
 -1       249 2.00912E+01 4.08674E-03 2.23307E-04-4.25370E-02 4.63633E-14 4.80979E-14
 -1       250 2.01598E+01 5.72693E-03 2.84188E-04-5.82199E-02 7.40313E-14-1.07478E-13
 -1       251 2.02516E+01 7.66051E-03 3.43521E-04-7.94223E-02-1.05770E-13 9.07533E-14
 -1       252 2.03736E+01 9.88873E-03 3.93571E-04-1.06988E-01-2.33387E-13 2.80696E-13
 -1       253 2.05335E+01 1.23554E-02 4.21498E-04-1.41640E-01 5.96543E-14 3.59770E-13
 -1       254 2.07394E+01 1.49000E-02 4.07574E-04-1.83723E-01 1.35620E-13 3.00561E-13
 -1       255 2.09986E+01 1.71820E-02 3.24142E-04-2.32760E-01-1.76558E-13 3.60102E-13
 -1       256 2.13167E+01 1.85648E-02 1.37602E-04-2.86732E-01-3.27505E-15 4.58702E-13
 -1       257 2.16946E+01 1.79525E-02-1.82157E-04-3.40958E-01-3.57611E-14 2.74980E-13
 -1       258 2.21251E+01 1.35992E-02-6.37820E-04-3.86494E-01-6.04328E-14 3.71854E-13
 -1       259 2.25870E+01 2.98106E-03-1.16040E-03-4.08158E-01-2.80686E-14 4.86547E-13
 -1       260 2.30386E+01-1.70116E-02-1.55265E-03-3.82757E-01-3.10223E-14 5.58633E-13
 -1       261 2.34106E+01-4.90041E-02-1.45473E-03-2.79265E-01 1.12909E-13 5.55665E-13
 -1       262 2.36032E+01-9.24047E-02-4.63549E-04-6.45235E-02 2.78015E-13 2.22497E-13
 -1       263 2.34945E+01-1.38692E-01 1.49462E-03 2.80538E-01 1.25428E-13 2.60717E-14
 -1       264 2.29700E+01-1.66691E-01 3.56413E-03 7.31655E-01-2.29462E-13 2.06155E-13
 -1       265 2.19813E+01-1.44212E-01 4.04591E-03 1.18759E+00-4.29474E-14 2.28913E-13
 -1       266 2.06216E+01-4.81984E-02 1.02703E-03 1.46637E+00-5.86944E-14 4.99102E-13
 -1       267 1.91692E+01 1.02164E-01-5.19568E-03 1.37996E+00-1.43503E-13 6.24511E-13
 -1       268 1.80217E+01 2.33046E-01-1.01009E-02 8.77295E-01 1.90800E-13 2.90960E-13
 -1       269 1.75031E+01 2.61173E-01-8.69985E-03 1.44262E-01-2.45587E-13 3.53789E-13
 -1       270 1.76612E+01 1.72258E-01-1.75535E-03-4.88899E-01 7.72589E-14 2.38099E-13
 -1       271 1.82512E+01 3.48904E-02 4.76741E-03-7.79317E-01 4.33928E-13 1.82796E-13
 -1       272 1.89218E+01-6.14314E-02 6.57581E-03-7.24655E-01 2.20492E-13 1.24959E-13
 -1       273 1.94338E+01-7.98173E-02 4.32371E-03-5.06902E-01 9.18540E-14-1.11762E-13
 -1       274 1.97299E+01-4.77253E-02 2.43737E-03-3.18151E-01 1.38723E-13-2.48678E-13
 -1       275 1.98948E+01-4.29774E-02 7.36976E-03-2.02912E-01-1.59218E-13-2.88886E-13
 -1       276 2.00269E+01-1.26140E-01 5.69242E-03-2.01482E-01 1.07457E-14 2.21930E-14
 -1       277 2.02132E+01-7.52048E-02 7.33023E-03 1.07707E-01-2.58093E-13 1.53209E-13
 -1       278 2.03697E+01 3.68262E-01 4.64381E-03 8.10281E-01-3.57320E-13-7.33441E-15
 -1       279 2.04345E+01 1.44134E+00 1.91206E-03 1.77097E+00-2.42219E-13-1.49215E-13
 -1       280 2.03019E+01 3.21385E+00-2.28577E-03 2.65103E+00-3.35183E-13 1.39389E-14
 -1       281 1.99181E+01 5.44197E+00-3.47896E-03 2.91510E+00-2.74192E-13 4.76993E-13
 -1       282 1.94281E+01 7.45287E+00-1.31703E-03 2.13877E+00-1.14721E-13 2.63168E-13
 -1       283 1.91342E+01 8.49365E+00 2.02615E-03 3.91142E-01-5.17188E-14 2.67309E-13
 -1       284 1.92733E+01 8.04220E+00 1.21542E-03-1.51553E+00 4.27870E-15-7.03167E-13
 -1       285 1.97352E+01 6.31969E+00-3.63833E-03-2.71660E+00-1.03322E-13 1.00429E-13
 -1       286 2.01870E+01 4.10011E+00-4.63540E-03-2.80998E+00-1.08387E-13 2.13322E-13
 -1       287 2.04103E+01 2.14066E+00 1.07584E-04-2.09433E+00 8.06083E-14 2.60789E-13
 -1       288 2.04001E+01 8.27178E-01 4.72059E-03-1.12889E+00 9.03855E-14 3.77803E-13
 -1       289 2.02396E+01 1.78819E-01 2.46202E-03-3.34611E-01-9.77760E-14-1.38512E-13
 -1       290 2.01906E+01 7.03218E-03 6.15354E-03 2.06653E-02-2.50715E-14-3.48515E-13
 -1       291-6.70693E-01-1.17752E+01-1.03570E+00 1.86476E+00 3.28487E-13 2.67564E-14
 -1       292 3.97381E+00-9.81085E+00-8.54136E-01 4.72182E+00 3.54244E-13 1.26982E-15
 -1       293 1.26883E+01-5.79594E+00-4.27252E-01 7.22941E+00 9.67004E-14 4.24619E-13
 -1       294 2.26807E+01-2.83246E-01 3.85295E-02 8.57713E+00 2.12219E-13 5.09592E-13
 -1       295 3.44194E+01 3.16324E+00 4.74382E-01 7.91263E+00 4.27838E-13 2.26597E-13
 -1       296 4.40655E+01 6.30061E+00 9.40551E-01 7.03555E+00 2.19089E-13 3.20299E-14
 -1       297 4.80089E+01 7.60359E+00 9.48230E-01 3.00837E+00-4.18832E-14-9.45494E-14
 -1       298 4.71058E+01 7.43988E+00 8.16881E-01-4.11725E-01 1.02057E-13-1.33546E-13
 -1       299 4.35373E+01 5.50950E+00 7.82398E-01-4.42322E+00 2.52104E-13-1.58790E-13
 -1       300 3.44858E+01 2.88393E+00 4.42114E-01-6.62590E+00 2.22225E-13-2.82163E-13
 -1       301 2.35284E+01-1.52981E-01 4.22285E-02-7.36643E+00 4.61020E-14-3.54633E-13
 -1       302 1.33618E+01-4.19650E+00-3.82282E-01-6.09213E+00-5.22915E-14-4.83724E-13
 -1       303 5.50398E+00-8.49692E+00-6.80559E-01-4.36717E+00-1.17545E-13 3.83686E-14
 -1       304 2.06937E-01-1.14371E+01-8.77252E-01-2.20746E+00-2.06474E-13-6.68632E-14
 -1       305-1.57631E+00-1.26239E+01-9.71725E-01-5.47207E-02-5.15449E-13-3.59296E-13
 -1       306 6.78283E-02-1.19334E+01-9.78166E-01 1.91181E+00-5.31131E-13-4.64975E-13
 -1       307 6.65174E+00-8.27201E+00-5.33655E-01 4.99223E+00-5.27245E-13-4.65641E-13
 -1       308 1.48763E+01-4.17211E+00-3.15853E-01 6.22609E+00-7.26585E-13-5.40512E-13
 -1       309 2.61058E+01-4.72349E-01 8.62525E-02 6.71677E+00-6.78541E-13-3.98903E-13
 -1       310 3.69257E+01 3.67908E+00 5.73203E-01 6.60850E+00-4.87055E-13-2.65954E-13
 -1       311 4.46827E+01 5.98858E+00 7.96512E-01 3.01366E+00-3.33011E-13-1.77108E-13
 -1       312 5.02813E+01 7.05604E+00 1.13782E+00-5.37504E-03-1.27592E-13 1.19418E-14
 -1       313 4.85397E+01 7.38076E+00 1.07364E+00-3.91343E+00-3.69788E-13 3.19994E-13
 -1       314 4.28497E+01 6.01845E+00 9.08044E-01-7.46238E+00-2.67975E-13 7.11653E-13
 -1       315 3.26517E+01 2.42062E+00 4.01048E-01-8.06628E+00-2.18284E-13 7.07767E-13
 -1       316 2.12092E+01-1.64990E+00-5.35825E-02-8.27897E+00-1.63258E-13 7.88647E-13
 -1       317 1.13166E+01-6.39245E+00-4.82672E-01-6.96901E+00 8.69305E-14 3.73548E-13
 -1       318 2.87928E+00-1.06185E+01-1.01282E+00-4.03734E+00 4.57412E-14 1.74721E-13
 -1       319-9.52480E-01-1.30913E+01-1.22347E+00-1.36306E+00 6.00908E-14-2.32425E-13
 -1       320 2.01368E+01 3.00088E+00-2.20080E-02-2.09656E+00-1.52134E-14-2.00467E-13
 -1       321 2.07575E+01 2.20822E+00-1.76836E-02-2.36388E+00-6.28048E-14-1.90238E-13
 -1       322 1.95830E+01 3.69175E+00-1.56162E-02-1.31683E+00 5.45358E-14-1.96728E-13
 -1       323 1.94596E+01 3.84870E+00-1.37111E-02-9.23391E-01 7.54690E-14-1.75795E-13
 -1       324 1.93904E+01 3.93958E+00-1.27138E-02-5.43705E-01 9.42490E-14-1.42971E-13
 -1       325 1.93598E+01 3.98092E+00-1.22923E-02-1.73186E-01 1.19858E-13-1.12043E-13
 -1       326 1.93611E+01 3.97931E+00-1.23092E-02 1.94338E-01 1.36813E-13-9.14928E-14
 -1       327 1.93946E+01 3.93440E+00-1.27548E-02 5.65196E-01 1.49112E-13-7.43177E-14
 -1       328 1.94657E+01 3.84110E+00-1.37638E-02 9.39042E-01 1.50891E-13-4.29210E-14
 -1       329 1.95929E+01 3.67882E+00-1.56514E-02 1.33299E+00 1.66739E-13 2.36824E-14
 -1       330 1.98088E+01 3.41009E+00-1.88298E-02 1.73822E+00 1.67156E-13 7.33432E-14
 -1       331 2.01798E+01 2.95526E+00-2.29388E-02 2.12675E+00 1.59523E-13 1.51414E-13
 -1       332 2.07499E+01 2.12942E+00-3.04680E-02 2.32176E+00 1.00328E-13 2.68193E-13
 -1       333 2.10967E+01 1.18770E+00-2.49204E-02 1.92158E+00 6.57547E-14 3.75594E-13
 -1       334 2.03931E+01 4.89272E-01 8.33412E-03 9.27000E-01 5.75512E-14 3.15701E-13
 -1       335 2.04596E+01 6.75333E-01 1.25810E-02-1.02446E+00-3.80815E-14-1.56969E-13
 -1       336 2.00380E+01 3.36855E-01 7.16907E-03-4.57385E-01-3.77695E-14-1.31986E-13
 -1       337 1.97839E+01 1.76528E-01 4.09772E-03-1.48385E-01-4.13878E-14-1.02333E-13
 -1       338 1.96486E+01 9.04693E-02 1.88492E-03 2.27934E-02 7.95360E-15-1.38291E-13
 -1       339 1.95932E+01 4.12955E-02 7.87445E-04 1.13892E-01 3.86851E-14-1.21591E-13
 -1       340 1.95879E+01 1.22838E-02 2.70198E-04 1.56963E-01-6.78614E-15-1.35586E-13
 -1       341 1.96119E+01-4.75100E-03 1.25080E-05 1.70895E-01-1.44812E-14-1.25060E-13
 -1       342 1.96511E+01-1.42649E-02-1.22500E-04 1.67434E-01-6.24663E-14-1.34219E-13
 -1       343 1.96966E+01-1.89195E-02-1.90246E-04 1.54154E-01-9.52913E-14-1.75596E-13
 -1       344 1.97428E+01-2.04124E-02-2.16648E-04 1.36032E-01-2.49759E-14-1.56525E-13
 -1       345 1.97865E+01-1.98644E-02-2.16541E-04 1.16346E-01-3.24916E-14-7.61489E-14
 -1       346 1.98260E+01-1.80180E-02-1.99350E-04 9.72439E-02 1.02089E-14-4.08389E-14
 -1       347 1.98608E+01-1.53498E-02-1.71101E-04 8.01230E-02-5.16370E-14-4.88436E-14
 -1       348 1.98912E+01-1.21402E-02-1.35393E-04 6.59089E-02-1.22127E-13-7.32889E-14
 -1       349 1.99180E+01-8.52081E-03-9.40049E-05 5.52571E-02-4.90844E-14-1.08417E-13
 -1       350 1.99425E+01-4.50768E-03-4.73203E-05 4.87088E-02-2.60711E-14-1.53544E-13
 -1       351 1.99664E+01-2.63056E-05 5.35880E-06 4.68099E-02 8.48262E-14-1.77419E-13
 -1       352 1.99915E+01 5.06956E-03 6.55647E-05 5.02042E-02 4.92899E-14-1.70388E-13
 -1       353 2.00202E+01 1.09814E-02 1.35443E-04 5.97036E-02 9.97695E-14-2.41496E-13
 -1       354 2.00551E+01 1.79488E-02 2.17509E-04 7.63374E-02 1.01395E-14-2.13014E-13
 -1       355 2.00993E+01 2.62281E-02 3.14307E-04 1.01378E-01-1.62967E-14 1.50554E-14
 -1       356 2.01564E+01 3.60588E-02 4.27892E-04 1.36333E-01 6.30704E-14-8.68698E-15
 -1       357 2.02305E+01 4.76097E-02 5.58944E-04 1.82890E-01 1.46746E-13-2.27290E-14
 -1       358 2.03259E+01 6.08862E-02 7.05287E-04 2.42777E-01 4.19497E-14-1.57931E-13
 -1       359 2.04477E+01 7.55737E-02 8.59418E-04 3.17499E-01-1.10306E-13-9.07281E-14
 -1       360 2.06008E+01 9.07748E-02 1.00456E-03 4.07861E-01 7.44154E-14 2.51244E-14
 -1       361 2.07901E+01 1.04584E-01 1.10877E-03 5.13158E-01 4.53934E-14-1.18897E-13
 -1       362 2.10195E+01 1.13430E-01 1.11700E-03 6.29873E-01-3.44485E-14-6.76988E-14
 -1       363 2.12917E+01 1.11137E-01 9.42764E-04 7.49639E-01-1.42669E-13 4.16733E-14
 -1       364 2.16066E+01 8.77954E-02 4.64205E-04 8.56316E-01-8.97513E-14-9.93425E-15
 -1       365 2.19608E+01 2.89277E-02-4.63251E-04 9.22188E-01-9.18176E-15 1.03717E-13
 -1       366 2.23452E+01-8.36738E-02-1.96587E-03 9.04090E-01-9.78536E-14 1.72741E-13
 -1       367 2.27427E+01-2.66395E-01-4.01349E-03 7.41974E-01-1.34116E-13 1.52750E-13
 -1       368 2.31217E+01-5.18909E-01-6.31525E-03 3.65721E-01-1.18933E-13-1.62938E-14
 -1       369 2.34249E+01-7.95864E-01-8.01620E-03-2.79534E-01-4.26083E-14-1.39232E-14
 -1       370 2.35554E+01-9.72816E-01-7.26131E-03-1.17649E+00 5.23947E-14 1.59575E-13
 -1       371 2.33816E+01-8.52158E-01-4.95171E-03-2.15019E+00-1.19446E-13 1.51399E-13
 -1       372 2.28105E+01-2.72146E-01-2.57545E-03-2.81615E+00-5.39085E-14 1.82024E-13
 -1       373 2.19401E+01 6.50978E-01-3.03327E-03-2.70591E+00-2.63616E-13 2.42120E-13
 -1       374 2.11370E+01 1.41546E+00-2.83517E-03-1.64801E+00-1.22454E-13 2.33040E-13
 -1       375 2.08087E+01 1.47717E+00-1.83829E-03-1.33482E-01 2.30113E-13 5.54741E-14
 -1       376 2.09848E+01 7.89866E-01-3.15984E-03 1.03699E+00 3.20048E-13 1.70783E-13
 -1       377 2.12795E+01-5.15243E-02-1.52112E-03 1.33586E+00 1.65210E-13 1.08143E-14
 -1       378 2.13328E+01-5.24587E-01-2.71980E-03 9.47249E-01 1.71798E-14-1.68624E-13
 -1       379 2.10476E+01-4.96986E-01-4.79692E-03 3.71756E-01 7.81863E-14-1.68239E-13
 -1       380 2.06040E+01-2.22180E-01 1.27649E-03 6.30895E-02 1.70610E-15-2.12473E-13
 -1       381 1.98917E+01 2.28490E-01 1.07948E-02 3.98352E-01 7.79867E-14 3.00957E-13
 -1       382 1.96032E+01 1.15361E-01 6.17314E-03 1.19652E-01 7.91654E-14 2.70478E-13
 -1       383 1.94688E+01 5.76209E-02 2.80425E-03-2.91563E-02 4.31650E-14 2.58488E-13
 -1       384 1.94291E+01 2.57089E-02 1.17539E-03-1.05947E-01-2.19853E-14 2.01837E-13
 -1       385 1.94449E+01 7.23305E-03 4.46952E-04-1.41043E-01 4.14441E-14 1.86784E-13
 -1       386 1.94909E+01-3.50776E-03 9.83206E-05-1.51362E-01 1.04069E-13 1.74100E-13
 -1       387 1.95511E+01-9.46518E-03-8.39508E-05-1.47105E-01 5.95568E-14 1.62225E-13
 -1       388 1.96153E+01-1.23580E-02-1.80050E-04-1.34725E-01-5.26235E-14 2.62758E-13
 -1       389 1.96777E+01-1.32682E-02-2.23797E-04-1.18411E-01 3.68527E-14 2.37140E-13
 -1       390 1.97348E+01-1.29061E-02-2.33612E-04-1.00896E-01 4.67319E-14 2.25608E-13
 -1       391 1.97853E+01-1.17426E-02-2.21211E-04-8.39520E-02 8.67201E-14 8.85152E-14
 -1       392 1.98287E+01-1.00812E-02-1.94278E-04-6.87166E-02 2.71013E-14 1.03522E-13
 -1       393 1.98657E+01-8.10278E-03-1.57624E-04-5.59255E-02 7.46830E-14 6.84511E-14
 -1       394 1.98974E+01-5.89569E-03-1.13878E-04-4.60824E-02 1.04716E-13-5.58204E-15
 -1       395 1.99255E+01-3.47678E-03-6.40197E-05-3.95887E-02 1.38716E-13 4.61395E-14
 -1       396 1.99518E+01-8.06915E-04-7.78788E-06-3.68422E-02 7.23560E-14 4.06632E-14
 -1       397 1.99785E+01 2.19678E-03 5.60061E-05-3.83137E-02 5.61213E-14-7.36419E-15
 -1       398 2.00085E+01 5.64984E-03 1.29178E-04-4.46051E-02-7.89437E-14 8.30492E-15
 -1       399 2.00446E+01 9.68898E-03 2.13834E-04-5.64873E-02-8.26779E-14-9.84976E-15
 -1       400 2.00906E+01 1.44572E-02 3.11930E-04-7.49187E-02 8.90373E-14 1.44277E-13
 -1       401 2.01504E+01 2.00821E-02 4.24604E-04-1.01032E-01 8.09185E-14 1.08698E-13
 -1       402 2.02287E+01 2.66399E-02 5.51147E-04-1.36082E-01-2.47827E-13 2.23377E-13
 -1       403 2.03307E+01 3.40985E-02 6.87363E-04-1.81317E-01-2.23127E-13 2.36914E-13
 -1       404 2.04622E+01 4.22215E-02 8.23043E-04-2.37745E-01-1.16188E-14 1.08091E-13
 -1       405 2.06288E+01 5.04153E-02 9.38263E-04-3.05730E-01 1.24214E-13 2.06571E-13
 -1       406 2.08359E+01 5.74891E-02 9.98428E-04-3.84308E-01-1.34088E-13 3.45279E-13
 -1       407 2.10874E+01 6.13004E-02 9.48774E-04-4.70123E-01-5.03829E-14 2.82011E-13
 -1       408 2.13843E+01 5.82787E-02 7.10988E-04-5.55822E-01 7.19259E-14 4.86104E-13
 -1       409 2.17231E+01 4.29047E-02 1.87479E-04-6.27833E-01-1.22382E-13 3.46909E-13
 -1       410 2.20921E+01 7.44005E-03-7.15396E-04-6.63692E-01-1.38834E-14 3.67892E-13
 -1       411 2.24688E+01-5.73356E-02-2.03480E-03-6.29727E-01-1.28051E-13 2.58885E-13
 -1       412 2.28153E+01-1.58853E-01-3.66022E-03-4.81305E-01 1.08998E-13 3.36331E-13
 -1       413 2.30749E+01-2.94690E-01-5.19697E-03-1.70164E-01 3.69229E-13 6.13638E-13
 -1       414 2.31704E+01-4.39003E-01-6.07226E-03 3.34266E-01 1.32816E-13 5.86406E-13
 -1       415 2.30116E+01-5.28858E-01-5.70952E-03 1.00525E+00-2.45646E-13 5.81024E-13
 -1       416 2.25209E+01-4.67621E-01-4.17394E-03 1.70881E+00-1.47117E-13 4.64986E-13
 -1       417 2.16950E+01-1.78556E-01-8.27902E-04 2.18443E+00-1.14364E-13 3.37215E-13
 -1       418 2.06795E+01 2.89551E-01 1.04446E-03 2.13684E+00-6.83295E-14 2.70948E-13
 -1       419 1.97790E+01 7.17889E-01 1.84728E-03 1.44614E+00 1.55829E-13 2.50184E-13
 -1       420 1.93099E+01 8.34796E-01 4.16555E-03 3.58024E-01-1.23062E-13 4.38074E-13
 -1       421 1.93538E+01 5.74139E-01 6.07109E-03-6.20554E-01 1.02932E-13 1.16032E-13
 -1       422 1.97030E+01 1.38216E-01 4.78265E-03-1.08845E+00 3.96483E-13 2.84980E-13
 -1       423 2.00446E+01-1.84235E-01 1.28919E-03-1.01899E+00 3.65720E-13 2.50478E-13
 -1       424 2.01930E+01-2.61846E-01-7.74544E-04-6.83921E-01 3.03159E-13-1.55930E-13
 -1       425 2.01517E+01-1.73090E-01-6.76415E-04-3.82368E-01 3.17593E-14-6.64514E-14
 -1       426 2.01071E+01-1.22022E-01 2.06855E-03-2.57865E-01-1.15313E-13 2.43050E-13
 -1       427 2.14975E+01-8.11828E-02 1.05985E-02 1.91108E+00-1.81699E-13-2.25443E-13
 -1       428 2.10659E+01-2.62560E-01 4.88711E-03 6.44611E-01-2.47813E-13 1.11881E-13
 -1       429 2.05355E+01-1.97568E-01 4.71046E-03 2.00160E-03-2.44441E-13-3.70298E-14
 -1       430 2.14288E+01 5.29163E-01 1.04988E-02 3.42264E+00-9.66295E-14-3.04600E-13
 -1       431 2.05051E+01 1.74151E+00 9.05108E-03 4.52190E+00-2.35671E-13 2.82193E-13
 -1       432 1.88200E+01 3.39241E+00 1.14592E-02 4.30130E+00-3.00506E-14 5.38694E-13
 -1       433 1.71916E+01 4.83277E+00 1.61742E-02 2.21797E+00-7.38160E-14 3.40294E-13
 -1       434 1.68590E+01 5.12057E+00 1.71523E-02-9.65827E-01-3.09193E-13-1.10988E-13
 -1       435 1.81147E+01 4.05427E+00 1.55417E-02-3.65596E+00 2.05912E-13-2.32495E-13
 -1       436 1.99489E+01 2.36143E+00 7.25649E-03-4.57243E+00 9.42545E-14 1.88578E-13
 -1       437 2.12005E+01 9.55819E-01 1.02711E-02-3.86325E+00 1.15305E-13 4.66306E-13
 -1       438 2.15306E+01 1.59180E-01 1.44185E-02-2.42037E+00 1.37174E-13 2.31523E-13
 -1       439 2.12079E+01-1.35944E-01 1.14443E-02-1.02368E+00-6.21517E-14-1.86637E-13
 -1       440 1.32169E+01-6.33128E+00-2.07867E-02 8.66283E+00 3.62904E-13 5.03257E-13
 -1       441 2.26531E+00-4.07003E+00-8.89312E-03-1.88324E-01-1.99901E-13 5.26523E-14
 -1       442 5.39350E+00-5.26315E+00-3.31959E-02 5.93298E+00 2.61041E-14-7.17065E-14
 -1       443 2.35198E+01-6.00986E+00 1.81548E-02 7.70854E+00 1.97384E-13 6.81524E-13
 -1       444 3.02391E+01-3.39572E+00-8.07742E-03 5.00925E+00 3.14235E-13 2.39142E-13
 -1       445 1.97905E+01 3.43337E+00-1.87135E-02-1.71947E+00 2.69655E-14-2.10451E-13
 -1       446 3.77769E+01 6.72266E+00 6.40387E-02 8.09779E-01 3.60087E-13 1.46314E-13
 -1       447 3.58930E+01 8.68501E+00-7.17914E-02 9.74329E-01 6.33382E-14-4.20887E-14
 -1       448 3.76458E+01 6.57614E+00 6.71920E-02 1.14388E+00 1.67005E-13-1.09204E-13
 -1       449 3.50777E+01 2.09092E+00 2.34915E-02 1.38573E-01 1.91298E-13-4.22162E-14
 -1       450 3.03195E+01-2.96678E+00-1.67769E-02-2.61670E+00-3.97599E-14 3.22381E-14
 -1       451 2.30713E+01-5.68699E+00-2.51605E-02-5.71890E+00-2.00839E-13-2.97790E-13
 -1       452 1.43454E+01-6.94927E+00-6.44171E-02-6.97288E+00-1.22180E-13-2.95314E-13
 -1       453 6.94772E+00-6.12595E+00 2.61768E-02-6.11711E+00-3.09128E-13-6.20337E-14
 -1       454 1.20820E+00-6.17079E+00-8.69894E-02-2.26952E+00-3.03063E-13-2.59348E-13
 -1       455 1.56472E+00-5.81467E+00-5.11376E-02 2.39439E+00-1.73916E-13-1.28147E-13
 -1       456 5.97061E+00-6.31216E+00-3.96709E-02 5.63880E+00-1.20931E-13-3.65263E-13
 -1       457 1.55347E+01-6.89391E+00-4.47394E-02 6.76101E+00-2.54741E-13-8.65735E-14
 -1       458 2.42796E+01-5.73422E+00-2.65944E-02 5.18177E+00-3.34038E-13-2.56462E-13
 -1       459 3.20484E+01-1.79246E+00 1.91242E-02 1.44824E+00-4.68844E-13-2.64122E-13
 -1       460 3.54151E+01 2.68777E+00-9.57592E-03-7.58965E-01-5.55764E-13-1.42858E-13
 -1       461 3.71356E+01 7.60909E+00 2.69466E-02-1.62320E+00-3.24352E-13-7.69870E-14
 -1       462 3.80462E+01 8.71457E+00 5.79733E-02-1.01776E+00-3.24796E-13 5.43853E-14
 -1       463 3.71017E+01 6.01286E+00 1.74594E-02-6.65377E-01-2.80248E-13 5.08343E-14
 -1       464 3.51388E+01 1.37089E+00 3.39444E-02-1.91440E+00-9.61731E-14 2.73254E-13
 -1       465 2.95746E+01-4.02587E+00 4.40481E-04-5.27381E+00 5.79259E-14 3.72744E-13
 -1       466 2.15104E+01-6.25743E+00-1.97210E-03-8.14183E+00-4.29934E-14 5.75394E-13
 -1       467 1.10055E+01-6.63917E+00-1.05099E-01-8.16328E+00-8.76799E-14 3.74985E-13
 -1       468 4.00995E+00-5.30922E+00-7.35843E-02-4.76599E+00-3.39714E-13 1.37584E-13
 -1       469 3.56103E+01 2.39362E+00 4.55190E-02 1.56940E+00 4.60416E-13 2.64372E-13
 -1       470 1.27561E+01-6.07840E+00 9.08313E-02 6.99698E+00-7.27196E-15 3.34316E-14
 -1       471 2.03742E+01 8.31969E-01 4.02254E-03 9.71536E-01 7.90288E-14 1.42507E-13
 -1       472 1.97320E+01 3.10422E+00-5.39481E-03-6.33736E-01 8.18608E-14-1.45614E-13
 -1       473 1.98284E+01 2.93076E+00-5.98795E-03-9.50244E-01 5.87785E-14-1.66598E-13
 -1       474 1.96641E+01 3.22686E+00-5.02363E-03 8.81578E-03 1.06533E-13-9.64530E-14
 -1       475 1.96827E+01 3.19383E+00-5.10179E-03 3.30312E-01 1.31698E-13-7.05112E-14
 -1       476 1.97366E+01 3.09699E+00-5.40980E-03 6.45628E-01 1.46279E-13-6.11002E-14
 -1       477 1.98354E+01 2.91914E+00-5.94792E-03 9.61155E-01 1.68771E-13-5.78422E-15
 -1       478 1.99912E+01 2.63402E+00-6.51979E-03 1.25632E+00 1.55014E-13 3.35535E-14
 -1       479 2.02337E+01 2.18789E+00-5.70028E-03 1.50099E+00 1.38573E-13 9.40424E-14
 -1       480 2.01125E+01 4.53660E-01 5.06862E-03 4.63704E-01 8.17916E-14 1.14877E-13
 -1       481 2.03439E+01 9.73294E-01 2.64193E-03-9.41010E-01-2.45122E-14-1.51852E-13
 -1       482 3.15904E+01-2.15196E+00-9.67691E-02 1.01319E+00 2.22499E-13 4.34791E-14
 -1       483 2.01724E+01 5.43836E-01 1.88778E-03-4.67062E-01-1.56423E-14-1.30689E-13
 -1       484 2.00250E+01 3.03649E-01 1.04254E-03-1.65937E-01-2.15749E-14-9.88364E-14
 -1       485 1.99242E+01 1.61547E-01 4.48829E-04 1.54095E-02-7.07041E-15-1.44307E-13
 -1       486 1.98654E+01 7.51959E-02 1.58119E-04 1.17880E-01 7.45210E-15-1.84020E-13
 -1       487 1.98379E+01 2.24027E-02 2.12511E-05 1.69058E-01-1.02827E-14-1.81785E-13
 -1       488 1.98316E+01-9.17523E-03-4.76017E-05 1.87501E-01-5.26143E-15-1.79694E-13
 -1       489 1.98385E+01-2.69233E-02-8.28835E-05 1.85763E-01-6.19584E-14-1.23606E-13
 -1       490 1.98530E+01-3.55369E-02-9.81913E-05 1.72376E-01-3.46047E-14-1.88887E-14
 -1       491 1.98711E+01-3.81211E-02-1.00625E-04 1.53131E-01 6.22784E-14-1.43731E-14
 -1       492 1.98904E+01-3.67598E-02-9.47085E-05 1.31940E-01 4.38004E-14 8.74075E-15
 -1       493 1.99094E+01-3.28355E-02-8.34441E-05 1.11426E-01-4.68136E-14 9.90986E-15
 -1       494 1.99274E+01-2.72226E-02-6.87315E-05 9.33523E-02-1.18971E-13-1.91423E-14
 -1       495 1.99444E+01-2.04163E-02-5.16049E-05 7.89448E-02-1.24737E-13 4.55051E-14
 -1       496 1.99606E+01-1.26221E-02-3.24410E-05 6.91295E-02-1.32974E-13-1.10349E-13
 -1       497 1.99768E+01-3.82134E-03-1.10942E-05 6.47174E-02-1.57250E-14-1.88234E-13
 -1       498 1.99939E+01 6.17894E-03 1.29853E-05 6.65449E-02 5.52158E-14-2.39392E-13
 -1       499 2.00129E+01 1.77053E-02 4.06623E-05 7.55803E-02 4.49796E-14-1.48805E-13
 -1       500 2.00352E+01 3.11791E-02 7.30254E-05 9.29985E-02 9.93812E-14-2.05053E-13
 -1       501 2.00625E+01 4.70730E-02 1.11277E-04 1.20225E-01 1.13459E-13-1.28273E-13
 -1       502 2.00965E+01 6.58517E-02 1.56572E-04 1.58944E-01 6.78188E-14-2.51264E-14
 -1       503 2.01393E+01 8.78817E-02 2.09753E-04 2.11052E-01 5.67513E-15-2.27651E-14
 -1       504 2.01929E+01 1.13286E-01 2.70893E-04 2.78543E-01 3.19884E-14-1.03780E-13
 -1       505 2.02597E+01 1.41708E-01 3.38520E-04 3.63278E-01-2.53988E-14-2.11464E-13
 -1       506 2.03422E+01 1.71924E-01 4.08323E-04 4.66594E-01 1.52635E-14-1.54441E-13
 -1       507 2.04428E+01 2.01231E-01 4.71084E-04 5.88657E-01 1.20607E-14-1.34877E-13
 -1       508 2.05646E+01 2.24494E-01 5.09587E-04 7.27452E-01-1.25834E-14-4.41261E-14
 -1       509 2.07111E+01 2.32763E-01 4.94464E-04 8.77254E-01-5.34517E-14 6.20400E-14
 -1       510 2.08882E+01 2.11463E-01 3.79511E-04 1.02640E+00 6.08315E-14 2.09621E-13
 -1       511 2.11050E+01 1.38503E-01 9.84505E-05 1.15419E+00-7.24469E-14 2.82143E-13
 -1       512 2.13774E+01-1.63838E-02-4.29740E-04 1.22684E+00-4.85748E-14 8.22276E-14
 -1       513 2.17296E+01-2.87858E-01-1.31108E-03 1.19285E+00-1.33931E-13 1.68941E-13
 -1       514 2.21925E+01-7.00058E-01-2.47620E-03 9.79829E-01-1.19965E-13 2.07424E-13
 -1       515 2.27887E+01-1.23172E+00-3.94359E-03 4.98144E-01-4.47436E-14 5.41627E-13
 -1       516 2.34928E+01-1.75227E+00-5.36664E-03-3.33602E-01 9.08736E-14 3.48372E-13
 -1       517 2.41703E+01-1.95341E+00-3.22686E-03-1.50485E+00-9.78362E-14 9.71506E-15
 -1       518 2.45389E+01-1.39847E+00-7.30290E-03-2.76698E+00-2.09654E-13 2.99061E-13
 -1       519 2.43265E+01 1.47626E-01-2.25495E-02-3.48131E+00-1.31188E-15 2.67806E-13
 -1       520 2.36658E+01 2.11502E+00-3.61298E-02-2.92393E+00-2.13628E-13 4.26839E-13
 -1       521 2.30671E+01 3.19072E+00-6.35240E-02-1.13383E+00-1.02529E-13 3.96042E-13
 -1       522 2.33625E+01 2.28275E+00-2.73719E-02 8.11913E-01 1.88889E-13 5.64375E-14
 -1       523 2.36126E+01 4.89103E-01-1.70413E-02 1.49431E+00 3.04277E-14-1.49815E-13
 -1       524 2.35399E+01-8.83099E-01-1.19895E-02 1.05574E+00-2.78098E-14-5.63463E-14
 -1       525 2.28310E+01-1.18690E+00-3.54936E-03 1.43169E-01-8.84281E-15-8.81802E-14
 -1       526 1.98103E+01 1.28857E-01 9.98083E-04-2.00329E-02 6.12194E-14 8.26621E-14
 -1       527 1.97523E+01 5.94353E-02 3.65669E-04-1.18455E-01 1.64362E-14 9.40391E-15
 -1       528 1.97334E+01 1.76368E-02 8.21757E-05-1.66479E-01 8.73503E-14 3.17903E-14
 -1       529 1.97393E+01-7.15982E-03-5.38663E-05-1.82983E-01 4.38794E-14 1.20685E-13
 -1       530 1.97594E+01-2.10500E-02-1.23383E-04-1.80317E-01-1.41282E-14 1.14489E-13
 -1       531 1.97867E+01-2.78079E-02-1.55379E-04-1.66691E-01 2.54402E-14 3.64187E-14
 -1       532 1.98166E+01-2.98887E-02-1.63715E-04-1.47603E-01 7.74720E-14 2.79062E-14
 -1       533 1.98461E+01-2.89283E-02-1.56758E-04-1.26728E-01 1.06766E-13 4.43699E-14
 -1       534 1.98737E+01-2.60113E-02-1.40008E-04-1.06502E-01 1.10929E-13-5.11034E-14
 -1       535 1.98989E+01-2.18271E-02-1.17051E-04-8.85438E-02 5.62293E-14-1.50672E-13
 -1       536 1.99216E+01-1.67735E-02-8.99377E-05-7.39548E-02 1.59201E-14-7.54757E-14
 -1       537 1.99426E+01-1.10272E-02-5.95620E-05-6.35455E-02 8.86643E-14-8.10702E-14
 -1       538 1.99626E+01-4.59467E-03-2.59831E-05-5.80071E-02 3.22071E-14 1.37295E-13
 -1       539 1.99830E+01 2.64909E-03 1.13942E-05-5.80429E-02 7.29935E-15 2.43486E-13
 -1       540 2.00052E+01 1.09275E-02 5.36279E-05-6.44658E-02-4.02805E-14 3.00485E-13
 -1       541 2.00311E+01 2.05306E-02 1.02065E-04-7.82667E-02-5.65131E-15 1.67801E-13
 -1       542 2.00626E+01 3.17783E-02 1.58120E-04-1.00651E-01-1.03876E-13 6.23485E-14
 -1       543 2.01023E+01 4.49717E-02 2.22976E-04-1.33041E-01 4.17828E-14 1.68987E-13
 -1       544 2.01528E+01 6.03196E-02 2.97103E-04-1.77019E-01-7.63911E-14 2.41060E-13
 -1       545 2.02170E+01 7.78223E-02 3.79523E-04-2.34209E-01-2.11685E-13 1.54810E-13
 -1       546 2.02982E+01 9.70896E-02 4.66620E-04-3.06035E-01-3.49653E-14 5.39509E-14
 -1       547 2.03998E+01 1.17052E-01 5.50317E-04-3.93314E-01 1.48930E-13 1.85380E-13
 -1       548 2.05252E+01 1.35517E-01 6.15406E-04-4.95603E-01-9.53038E-14 2.60821E-14
 -1       549 2.06776E+01 1.48513E-01 6.35961E-04-6.10182E-01-1.44091E-13 4.33028E-14
 -1       550 2.08602E+01 1.49394E-01 5.71281E-04-7.30546E-01-1.10500E-13 7.45154E-14
 -1       551 2.10761E+01 1.27761E-01 3.63408E-04-8.44284E-01-1.70246E-14 1.50739E-13
 -1       552 2.13283E+01 6.85809E-02-6.13912E-05-9.30323E-01-1.43265E-13 7.77634E-14
 -1       553 2.16202E+01-4.75041E-02-7.75372E-04-9.55845E-01-4.73332E-14 2.99052E-13
 -1       554 2.19547E+01-2.40434E-01-1.81403E-03-8.73926E-01-1.55410E-14 4.75568E-13
 -1       555 2.23309E+01-5.19550E-01-3.08461E-03-6.24571E-01 2.02200E-13 4.97586E-13
 -1       556 2.27324E+01-8.59742E-01-4.11032E-03-1.45294E-01 1.65523E-13 5.93373E-13
 -1       557 2.31069E+01-1.16724E+00-4.57661E-03 5.97029E-01 6.21786E-14 6.45159E-13
 -1       558 2.33466E+01-1.25697E+00-4.59576E-03 1.54773E+00 7.62773E-14 4.18225E-13
 -1       559 2.32846E+01-8.82692E-01-5.98814E-03 2.47855E+00 1.27440E-13 2.18636E-14
 -1       560 2.28421E+01 3.90884E-02-3.24479E-03 2.94839E+00-1.60370E-13-2.52182E-13
 -1       561 2.21255E+01 1.23714E+00-7.83459E-03 2.54618E+00 9.63088E-14-2.30734E-13
 -1       562 2.15647E+01 1.97770E+00-8.63102E-03 1.26007E+00-8.92177E-14-9.13633E-14
 -1       563 2.14816E+01 1.74327E+00-4.43115E-03-2.54609E-01 1.32570E-13-1.51703E-13
 -1       564 2.17357E+01 7.66069E-01-4.27457E-03-1.19547E+00 6.19958E-14-1.45525E-13
 -1       565 2.19035E+01-2.08314E-01-3.79269E-03-1.25704E+00 3.36093E-13-6.04822E-15
 -1       566 2.17074E+01-6.43881E-01-4.16136E-03-7.78388E-01 4.45344E-13 3.70613E-14
 -1       567 2.12025E+01-5.38326E-01-7.35643E-04-2.46189E-01 8.37471E-14 3.29738E-13
 -1       568 2.23965E+01-1.32832E+00 2.05789E-02 4.85014E+00 9.90388E-14-2.97402E-13
 -1       569 1.97907E+01-2.97867E-01 4.70170E-02 6.05403E+00-3.54199E-13 4.80690E-13
 -1       570 2.25453E+01-1.05969E+00 5.24747E-03 1.08263E+00-1.17902E-13-6.83383E-14
 -1       571 2.31062E+01-1.42613E+00 7.82741E-03 2.83248E+00 2.07720E-14-1.53885E-13
 -1       572 1.57953E+01 1.55334E+00 7.93783E-02 4.91550E+00-1.66765E-13 3.92374E-13
 -1       573 1.32828E+01 2.77921E+00 9.22842E-02 1.01442E+00-1.69542E-13 9.77170E-14
 -1       574 1.45012E+01 2.20503E+00 8.93202E-02-3.61004E+00 4.53006E-14 1.36186E-13
 -1       575 1.82611E+01 4.05820E-01 8.03473E-02-5.97767E+00 1.72200E-13-8.99888E-14
 -1       576 2.16088E+01-1.15181E+00 2.31076E-02-5.47379E+00 1.76588E-13 2.36085E-13
 -1       577 2.29977E+01-1.48235E+00 1.58751E-02-3.53900E+00-1.62335E-14 2.88671E-13
 -1       578 2.27461E+01-1.19401E+00-2.67044E-03-1.63240E+00-8.75241E-14-1.31865E-13
 -1       579 7.75676E+00-6.96885E-01 2.21888E-01 3.40597E+00-3.99968E-13 3.43392E-13
 -1       580 2.09719E+01-5.86667E+00 9.38273E-02 8.27871E+00 4.24036E-13 4.30368E-13
 -1       581 1.99252E+01 2.46286E-01 2.44200E-03 1.58256E-01 7.03395E-14 1.01668E-13
 -1       582 3.18029E+01 3.48800E+00-1.59599E-01-1.15593E+00 4.18068E-13 1.62280E-13
 -1       583 1.08461E+01-3.50050E+00 1.35462E-01-7.40794E+00-3.78073E-13 1.72973E-13
 -1       584 2.80491E+01-5.62091E+00 2.87233E-03 4.74585E+00 2.06512E-13 1.61558E-13
 -1       585 7.28880E+00-9.04325E-01 2.02263E-01-3.12446E+00-3.74867E-13 1.17337E-13
 -1       586 2.84852E+01-5.31531E+00-2.45932E-02 1.47701E+00-3.74908E-14 4.62588E-13
 -1       587 4.26296E+00-2.34029E+00 1.98168E-01-1.24321E-01 1.13751E-13-1.16865E-13
 -1       588 1.96798E+01 3.19825E+00-5.11171E-03-3.12782E-01 9.82689E-14-1.15920E-13
 -1       589 3.12220E+01 6.96877E+00-1.88836E-01 2.36770E+00 1.13035E-13 1.45193E-13
 -1       590 2.22524E+01-6.90857E+00 6.14352E-02 5.38144E+00 1.66298E-13-1.39634E-13
 -1       591 3.03360E+01 6.73797E+00-2.12750E-01-3.93205E-01 3.63112E-13 2.84061E-13
 -1       592 3.21113E+01 3.55696E+00-1.43945E-01 2.91882E+00 1.91042E-13 3.03806E-13
 -1       593 3.06157E+01-2.01295E+00-1.08812E-01 1.64257E+00-1.01868E-13 1.07553E-14
 -1       594 2.72985E+01-5.77995E+00-2.21284E-02-2.86036E+00-2.61950E-13-7.86177E-14
 -1       595 2.10690E+01-6.82780E+00 5.07766E-02-5.92693E+00-3.67886E-13-1.13604E-13
 -1       596 1.39306E+01-5.68371E+00 1.17609E-01-6.91094E+00-3.26225E-13-2.76834E-13
 -1       597 6.52477E+00-2.97522E+00 1.87609E-01-4.14053E+00-2.21666E-13 2.08583E-14
 -1       598 7.12681E+00-3.00497E+00 1.91191E-01 4.40055E+00 2.34011E-13-2.92766E-13
 -1       599 3.13974E+01 2.24249E+00-1.54069E-01 1.24611E+00-2.25014E-13 1.06207E-13
 -1       600 3.10637E+01-9.51182E-01-1.12847E-01-2.30799E+00-7.16857E-14 4.20643E-13
 -1       601 3.10509E+01 4.18326E+00-1.74943E-01-3.40632E+00-3.17538E-13 2.27492E-13
 -1       602 3.10847E+01 7.40966E+00-2.06339E-01-1.66747E+00-2.50272E-13 1.37729E-13
 -1       603 3.13749E+01 6.46577E+00-1.96892E-01 5.46183E-01-2.39794E-13-1.20695E-13
 -1       604 3.13704E+01-2.86048E+00-7.30271E-02-1.40192E+00 8.93647E-14 3.23949E-13
 -1       605 2.67261E+01-6.04241E+00 1.71707E-02-5.74102E+00-1.26628E-13 1.86125E-13
 -1       606 1.91691E+01-5.61736E+00 1.01519E-01-8.52051E+00-2.77556E-14 5.85049E-13
 -1       607 2.03910E+01 1.75704E+00-5.28092E-03-1.52351E+00-3.41736E-14-1.65635E-13
 -1       608 2.05860E+01 1.30523E+00-9.99613E-04 1.54746E+00 9.05300E-14 1.90986E-13
 -1       609 1.21970E+01-3.59041E+00 1.41488E-01 7.80909E+00 1.66048E-14 4.92953E-13
 -1       610 2.77843E+01 6.33068E+00-1.74618E-01 1.17670E+00 1.69788E-13 4.01510E-13
 -1       611 1.99780E+01 2.65351E+00-6.74288E-03-1.24351E+00 3.44949E-14-1.83453E-13
 -1       612 2.01631E+01 2.28262E+00-6.10051E-03-1.43520E+00 5.77571E-15-1.77680E-13
 -1       613 1.14866E+01-3.27694E+00 1.51665E-01-5.60326E+00 1.69934E-14-2.40488E-13
 -1       614 2.21114E+01-8.90697E-01-3.44050E-04-3.44822E-01-2.98852E-14-1.74565E-14
 -1       615 1.99594E+01 2.44934E+00-1.58656E-03 3.94005E-01 1.34872E-13-5.23935E-14
 -1       616 1.99274E+01 2.52429E+00-1.51648E-03 1.35674E-01 1.06302E-13-6.13912E-14
 -1       617 2.01197E+01 2.04616E+00-1.60488E-03 8.49938E-01 1.48597E-13 1.25501E-14
 -1       618 2.02388E+01 1.67582E+00-2.25388E-03 9.91575E-01 1.45556E-13 3.02135E-14
 -1       619 2.03196E+01 1.03667E+00 2.89296E-03 8.31006E-01 1.05657E-13 4.90048E-14
 -1       620 2.85198E+01 4.10618E+00-1.63470E-01 3.38593E+00 4.36109E-14 3.62488E-13
 -1       621 2.73875E+01 3.42962E+00-1.18530E-01 1.47154E+00-2.66280E-13 6.13936E-14
 -1       622 2.33568E+01-4.75045E+00 5.63475E-02-6.64198E+00 8.37073E-14 2.74696E-13
 -1       623 2.02402E+01 6.73285E-01 4.07984E-04-3.92862E-01-3.12765E-14-1.27734E-13
 -1       624 2.01674E+01 3.91553E-01 1.83241E-04-1.39490E-01-3.87036E-14-1.36480E-13
 -1       625 2.01018E+01 2.12058E-01 5.87029E-05 2.21618E-02 1.42785E-14-1.27457E-13
 -1       626 2.00514E+01 9.77169E-02 5.26598E-06 1.16967E-01-6.54801E-15-1.46070E-13
 -1       627 2.00163E+01 2.59383E-02-1.58095E-05 1.65497E-01 3.73602E-14-1.16453E-13
 -1       628 1.99937E+01-1.74446E-02-2.65321E-05 1.83336E-01 2.34682E-14-3.51430E-14
 -1       629 1.99806E+01-4.16929E-02-3.17720E-05 1.81832E-01 4.04834E-14 4.47435E-14
 -1       630 1.99742E+01-5.30448E-02-3.32064E-05 1.69060E-01-3.43521E-16 1.13494E-13
 -1       631 1.99724E+01-5.57660E-02-3.19453E-05 1.50676E-01-2.72223E-14-1.16276E-14
 -1       632 1.99737E+01-5.27627E-02-2.88453E-05 1.30586E-01-2.50683E-14-1.08379E-13
 -1       633 1.99769E+01-4.59575E-02-2.45473E-05 1.11469E-01-5.79491E-14-1.00292E-13
 -1       634 1.99815E+01-3.65411E-02-1.94270E-05 9.51840E-02-9.80347E-14-5.72759E-14
 -1       635 1.99871E+01-2.51497E-02-1.37068E-05 8.30794E-02-2.27777E-13-4.57121E-14
 -1       636 1.99936E+01-1.19941E-02-7.41238E-06 7.62337E-02-1.28458E-13-2.49437E-14
 -1       637 2.00009E+01 3.04359E-03-4.27936E-07 7.56367E-02-6.96947E-15-1.48733E-14
 -1       638 2.00094E+01 2.03327E-02 7.48770E-06 8.23296E-02 1.11245E-13-5.35106E-14
 -1       639 2.00191E+01 4.04257E-02 1.66629E-05 9.75041E-02 5.30981E-14 3.93688E-14
 -1       640 2.00306E+01 6.39883E-02 2.74873E-05 1.22568E-01 9.49243E-14 3.55455E-14
 -1       641 2.00440E+01 9.17161E-02 4.03807E-05 1.59169E-01 1.49451E-13-4.31016E-14
 -1       642 2.00598E+01 1.24217E-01 5.57448E-05 2.09178E-01 9.37748E-15-3.09921E-14
 -1       643 2.00782E+01 1.61838E-01 7.38834E-05 2.74613E-01-1.14640E-14 5.07217E-14
 -1       644 2.00995E+01 2.04388E-01 9.48641E-05 3.57477E-01-9.34813E-14-1.11157E-14
 -1       645 2.01240E+01 2.50713E-01 1.18282E-04 4.59507E-01 6.77987E-14 7.71959E-15
 -1       646 2.01520E+01 2.98023E-01 1.42862E-04 5.81769E-01 9.20484E-14 6.60077E-14
 -1       647 2.01846E+01 3.40875E-01 1.65811E-04 7.24075E-01 1.05361E-14 2.16577E-14
 -1       648 2.02243E+01 3.69665E-01 1.81786E-04 8.84170E-01 7.24286E-15 1.19396E-13
 -1       649 2.02770E+01 3.68547E-01 1.81226E-04 1.05660E+00 1.26741E-13 1.06864E-13
 -1       650 2.03550E+01 3.12847E-01 1.47639E-04 1.23113E+00-3.54518E-14-2.04437E-14
 -1       651 2.04816E+01 1.66584E-01 5.39353E-05 1.39033E+00-7.02813E-14 9.98139E-14
 -1       652 2.06982E+01-1.17883E-01-1.33739E-04 1.50545E+00-1.79123E-13 1.52456E-13
 -1       653 2.10704E+01-5.93075E-01-5.89897E-04 1.52876E+00-1.27490E-13 1.90640E-13
 -1       654 2.16875E+01-1.29065E+00-8.95067E-04 1.38161E+00 6.70352E-14 9.39643E-14
 -1       655 2.26421E+01-2.16550E+00-2.01398E-03 9.38158E-01-9.71167E-14 1.13147E-13
 -1       656 2.39506E+01-2.96418E+00-4.54623E-03 2.18170E-02-9.69166E-14 2.56748E-14
 -1       657 2.53804E+01-3.14385E+00-7.21397E-03-1.42194E+00-8.06473E-14-9.24478E-15
 -1       658 2.63667E+01-1.68414E+00-4.77845E-02-3.10312E+00-7.28844E-14 2.20604E-13
 -1       659 2.65403E+01 1.45518E+00-7.66504E-02-3.84226E+00 1.05020E-14 2.57018E-13
 -1       660 2.59650E+01 4.58989E+00-1.48529E-01-2.58903E+00-1.14422E-13 2.21247E-13
 -1       661 2.62658E+01-1.08520E+00-4.09182E-02 1.12104E+00-1.34901E-14-4.72122E-14
 -1       662 2.51106E+01-2.17285E+00-2.16847E-02-3.20750E-01 1.05446E-13 1.56543E-13
 -1       663 1.99731E+01 8.75630E-02 5.37764E-05-1.19466E-01 5.95869E-14 1.93262E-14
 -1       664 1.24000E+01-4.25417E-01 1.64604E-01-5.64874E+00-2.40929E-13 1.41123E-13
 -1       665 2.00268E+01 1.89154E-01 1.75190E-04-2.11406E-02 7.98531E-14 1.10175E-14
 -1       666 1.99253E+01-1.36068E-02-2.98673E-05-1.87256E-01 5.70449E-15 7.65396E-14
 -1       667 1.99205E+01-3.49157E-02-4.52875E-05-1.85490E-01 7.60377E-14 5.43570E-14
 -1       668 1.99229E+01-4.50503E-02-5.19207E-05-1.72227E-01 2.54370E-14 8.49257E-14
 -1       669 1.99294E+01-4.77458E-02-5.24484E-05-1.53217E-01 8.81709E-14 5.22468E-14
 -1       670 1.99383E+01-4.55369E-02-4.87970E-05-1.32398E-01 1.43993E-13 1.23505E-13
 -1       671 1.99483E+01-4.01026E-02-4.25000E-05-1.12443E-01 8.28242E-14 1.75247E-13
 -1       672 1.99586E+01-3.24907E-02-3.44430E-05-9.51812E-02 5.47243E-17 9.98198E-14
 -1       673 1.99692E+01-2.32800E-02-2.50652E-05-8.19190E-02 4.87334E-14 7.99994E-14
 -1       674 1.99801E+01-1.26897E-02-1.45401E-05-7.36720E-02-3.36925E-15 1.76416E-13
 -1       675 1.99915E+01-6.61741E-04-2.74527E-06-7.13531E-02-1.31644E-14 1.29430E-13
 -1       676 2.00041E+01 1.30704E-02 1.06128E-05-7.59102E-02-3.24888E-14 1.17429E-13
 -1       677 2.00184E+01 2.89201E-02 2.59765E-05-8.84247E-02 3.36976E-14 1.08296E-13
 -1       678 2.00354E+01 4.73857E-02 4.38737E-05-1.10174E-01-6.98311E-14 1.72896E-13
 -1       679 2.00559E+01 6.89728E-02 6.48357E-05-1.42652E-01-2.57822E-15 1.00027E-13
 -1       680 2.00811E+01 9.40893E-02 8.92809E-05-1.87547E-01 2.13748E-14 1.96295E-13
 -1       681 2.01120E+01 1.22887E-01 1.17332E-04-2.46646E-01-1.31320E-13 2.40607E-13
 -1       682 2.01500E+01 1.55023E-01 1.48523E-04-3.21659E-01-6.28739E-14 9.90163E-14
 -1       683 2.01964E+01 1.89288E-01 1.81343E-04-4.13916E-01 2.56788E-15 4.75193E-14
 -1       684 2.02530E+01 2.23051E-01 2.12520E-04-5.23887E-01 1.18844E-13 1.48974E-13
 -1       685 2.03219E+01 2.51434E-01 2.35962E-04-6.50468E-01-6.52883E-14 1.26060E-13
 -1       686 2.04066E+01 2.66156E-01 2.41217E-04-7.89953E-01-1.65342E-13-1.61579E-13
 -1       687 2.05129E+01 2.54036E-01 2.11263E-04-9.34569E-01-6.13190E-14-5.12237E-14
 -1       688 2.06507E+01 1.95393E-01 1.21643E-04-1.07047E+00-9.28138E-14 5.66488E-14
 -1       689 2.08372E+01 6.30752E-02-6.47952E-05-1.17506E+00-1.61312E-13-5.45883E-14
 -1       690 2.10991E+01-1.75956E-01-3.83445E-04-1.21341E+00-1.27805E-13-4.77121E-14
 -1       691 2.14745E+01-5.52478E-01-8.71371E-04-1.13396E+00-2.44697E-15 3.59796E-14
 -1       692 2.20066E+01-1.07307E+00-1.48881E-03-8.64294E-01 1.15197E-13 8.73902E-14
 -1       693 2.27183E+01-1.67137E+00-1.20904E-03-3.14484E-01 1.25625E-13 9.52150E-14
 -1       694 2.35555E+01-2.14236E+00-1.37368E-03 5.83341E-01 6.81976E-14 1.10324E-13
 -1       695 2.43478E+01-2.12456E+00-6.54222E-03 1.80480E+00 2.50568E-13 2.84479E-13
 -1       696 2.47619E+01-1.05685E+00-4.10205E-03 3.04486E+00 1.73981E-13 3.22635E-13
 -1       697 2.43895E+01 9.61913E-01-4.41214E-02 3.49828E+00 1.59095E-13-2.23460E-13
 -1       698 2.37534E+01 2.96609E+00-5.45592E-02 2.48963E+00-7.53182E-14-1.53749E-13
 -1       699 2.34500E+01 3.51723E+00-8.09064E-02 5.10456E-01 8.97771E-14-3.48032E-13
 -1       700 2.39440E+01 2.11537E+00-3.08165E-02-1.13106E+00 6.68085E-14-3.52285E-13
 -1       701 2.41505E+01 1.16687E-01-2.95468E-02-1.41001E+00 1.88396E-13-4.63571E-13
 -1       702 2.37906E+01-1.10929E+00-7.07072E-03-6.78989E-01 2.04117E-13-3.44630E-13
 -1       703 2.33735E+01-1.40468E+00 1.35601E-03 2.59983E-01 5.40747E-14 3.29565E-15
 -1       704 2.44828E+01-5.01770E+00 4.42011E-02 6.21903E+00 9.67629E-14-2.69966E-16
 -1       705 1.12709E+01 5.26635E-01 1.83011E-01 4.21963E+00-3.54317E-13 3.58026E-13
 -1       706 2.54131E+01-6.04501E+00-1.46956E-02 2.37202E+00 2.14880E-13 4.87262E-13
 -1       707 2.27682E+01-3.29272E+00 6.58610E-02 6.24868E+00 1.87298E-14-2.66653E-13
 -1       708 1.72586E+01-1.84026E+00 9.05664E-02 7.25299E+00-1.00128E-14 8.67900E-13
 -1       709 2.59174E+01-3.94600E+00-6.82562E-03-3.38566E+00-5.01509E-15 8.32251E-14
 -1       710 2.41958E+01-2.08034E+00 2.77209E-03-1.40916E+00 2.08598E-14 6.70202E-14
 -1       711 1.76982E+01-3.10281E+00 9.90843E-02-7.79190E+00-2.07438E-13 1.46487E-13
 -1       712 1.80966E+01-5.33629E+00 9.80823E-02 5.75622E+00 7.80279E-14 1.81671E-13
 -1       713 2.75909E+01 5.94470E+00-1.53442E-01-3.24288E-01-2.07050E-13 1.77173E-13
 -1       714 2.01054E+01 3.52826E-01 6.01574E-04 1.48983E-01 7.74778E-14 3.10335E-14
 -1       715 1.99411E+01 2.44139E-02-1.28062E-06-1.69212E-01 1.72021E-15 3.56270E-14
 -1       716 2.02925E+01 1.11598E+00-4.14084E-04-7.62698E-01-4.08419E-16-1.04408E-13
 -1       717 2.46609E+01-6.23630E+00 2.57162E-02-3.44954E+00-1.62374E-13-2.55523E-13
 -1       718 1.82873E+01-3.31969E+00 6.75919E-02 7.77310E+00 1.70700E-13 6.42909E-13
 -1       719 2.02058E+01 6.14866E-01 1.15060E-03 4.20101E-01 9.68438E-14 3.63050E-14
 -1       720 2.00234E+01 2.29478E+00-1.64780E-03 6.37675E-01 1.51598E-13-3.03753E-14
 -1       721 2.00178E+01 2.30524E+00-1.64321E-03-6.29352E-01 3.94328E-14-1.34007E-13
 -1       722 2.84142E+01-3.77043E+00-5.08673E-02-1.39492E+00 6.14370E-14 5.14425E-13
 -1       723 2.78089E+01 3.89795E+00-1.24067E-01-1.36658E+00 2.53950E-13 7.54397E-14
 -1       724 1.26090E+01-2.83538E+00 1.33927E-01 5.27393E+00 1.44371E-13-2.47205E-13
 -1       725 8.35416E+00-7.99135E-01 1.54101E-01 1.75915E+00 1.29266E-13-1.97689E-14
 -1       726 2.79861E+01-4.63523E+00-3.52650E-02-1.35685E-02-1.06045E-13-2.39624E-13
 -1       727 1.92581E+01-5.66561E+00 7.47001E-02-5.69610E+00-2.15168E-13-1.95434E-13
 -1       728 8.11889E+00-8.15112E-01 1.58979E-01-1.52858E+00 1.67504E-13 1.33990E-13
 -1       729 2.91240E+01-2.19951E-01-1.05242E-01-1.09386E+00 1.72494E-13-5.25899E-14
 -1       730 2.83375E+01-4.48022E+00-1.56659E-02-2.44290E+00 3.06821E-14 1.75027E-13
 -1       731 9.35060E+00 8.57221E-01 1.66049E-01-9.29430E-01-3.52760E-13-1.05194E-13
 -1       732 2.91766E+01 7.55041E-02-9.50897E-02-3.42982E+00 3.11660E-14 4.97522E-13
 -1       733 2.88425E+01 1.84552E-01-8.79692E-02 3.37318E+00 1.81161E-13 5.67324E-13
 -1       734 2.92639E+01-1.32626E+00-1.07831E-01 7.67646E-01 3.00281E-14 1.41664E-13
 -1       735 2.87840E+01-3.49237E+00-5.68757E-02 1.31713E+00-5.94429E-14-1.28259E-13
 -1       736 2.02700E+01 1.62740E+00 7.15910E-04-1.08826E+00-4.11092E-15-1.39787E-13
 -1       737 2.01165E+01 2.05832E+00-6.77710E-04-8.43591E-01 3.32375E-14-1.53694E-13
 -1       738 1.99264E+01 2.52598E+00-1.51766E-03-1.26472E-01 8.25119E-14-9.54984E-14
 -1       739 2.67902E+01-4.19204E+00 1.40078E-02 3.17663E+00-1.49490E-14-4.33171E-13
 -1       740 2.46605E+01-2.40048E+00-1.87951E-03 1.90186E+00 1.89146E-13-1.77850E-13
 -1       741 2.20547E+01-5.29861E+00 4.19188E-02 3.85603E+00 1.93737E-13 1.73665E-13
 -1       742 1.61373E+01-3.77044E+00 8.94323E-02-5.45365E+00 1.14448E-13-8.74752E-14
 -1       743 1.07828E+01-1.09492E+00 1.10138E-01-3.32187E+00 3.01173E-13-6.70332E-14
 -1       744 1.99563E+01 2.45509E+00-1.58224E-03-3.84273E-01 7.08438E-14-1.02793E-13
 -1       745 2.45530E+01-3.11244E+00 2.36735E-03 3.97538E+00 1.58187E-13-1.59017E-13
 -1       746 2.78129E+01-2.71505E+00-4.74825E-02 2.18669E+00 2.42298E-13 1.02588E-13
 -1       747 2.02657E+01 1.30356E+00-2.67742E-04 6.28648E-01 1.30433E-13 6.72910E-15
 -1       748 2.01893E+01 1.87131E+00-1.15798E-07-9.84321E-01 4.88184E-15-1.38154E-13
 -1       749 2.02818E+01 1.16285E+00-4.76909E-04-5.66966E-01-1.62672E-14-1.23171E-13
 -1       750 2.02616E+01 4.32486E-01-1.23383E-05-9.37608E-02-6.28740E-15-6.83346E-14
 -1       751 2.02214E+01 2.33640E-01-1.27174E-05 3.56032E-02-2.28994E-14-7.28135E-14
 -1       752 2.01799E+01 1.03083E-01-1.36726E-05 1.12585E-01 1.21676E-14-6.00768E-14
 -1       753 2.01423E+01 1.99378E-02-1.10780E-05 1.51923E-01 7.32917E-14-7.02149E-14
 -1       754 2.01105E+01-3.03032E-02-9.66191E-06 1.65718E-01 9.34039E-14-8.58057E-14
 -1       755 2.00845E+01-5.78143E-02-8.82327E-06 1.63261E-01 4.91950E-14-3.81165E-14
 -1       756 2.00639E+01-6.97659E-02-8.19341E-06 1.51401E-01-6.72982E-14-3.70653E-14
 -1       757 2.00481E+01-7.11878E-02-7.53989E-06 1.35047E-01-6.34991E-14 1.39789E-14
 -1       758 2.00362E+01-6.55312E-02-6.74174E-06 1.17652E-01-4.98043E-14-6.76801E-14
 -1       759 2.00276E+01-5.50540E-02-5.59033E-06 1.01634E-01-1.03877E-13-1.33664E-13
 -1       760 2.00215E+01-4.11102E-02-4.26249E-06 8.87255E-02-1.53617E-13-8.71820E-14
 -1       761 2.00173E+01-2.43611E-02-2.83039E-06 8.02359E-02-1.00667E-13 8.93209E-14
 -1       762 2.00145E+01-4.93378E-03-1.32727E-06 7.72668E-02-1.06488E-13 1.81960E-13
 -1       763 2.00125E+01 1.74548E-02 3.05693E-07 8.08711E-02-1.64275E-14 5.99789E-14
 -1       764 2.00107E+01 4.33913E-02 2.15006E-06 9.21737E-02 1.49980E-13 2.43606E-14
 -1       765 2.00084E+01 7.36674E-02 4.30369E-06 1.12452E-01 6.41813E-14-3.64044E-14
 -1       766 2.00048E+01 1.09171E-01 6.88272E-06 1.43180E-01 7.94647E-14 8.48653E-14
 -1       767 1.99991E+01 1.50753E-01 1.00244E-05 1.86034E-01 1.38011E-13-3.97183E-14
 -1       768 1.99900E+01 1.99036E-01 1.38915E-05 2.42854E-01 7.56844E-14 6.96555E-14
 -1       769 1.99761E+01 2.54144E-01 1.86812E-05 3.15557E-01-4.13719E-14 8.40057E-14
 -1       770 1.99559E+01 3.15283E-01 2.46422E-05 4.05992E-01-8.11292E-14 6.14177E-14
 -1       771 1.99277E+01 3.80132E-01 3.21116E-05 5.15747E-01-1.60884E-14-9.24797E-14
 -1       772 1.98903E+01 4.43918E-01 4.15870E-05 6.45920E-01 1.96479E-14-2.42471E-13
 -1       773 1.98436E+01 4.98078E-01 5.38196E-05 7.96883E-01 8.22964E-14-9.06447E-14
 -1       774 1.97901E+01 5.28372E-01 6.97387E-05 9.68108E-01-6.20905E-15 9.10803E-14
 -1       775 1.97376E+01 5.12347E-01 8.97382E-05 1.15807E+00-4.75579E-14-1.57620E-14
 -1       776 1.97040E+01 4.16227E-01 1.13360E-04 1.36419E+00 3.47769E-15-4.81956E-14
 -1       777 1.97245E+01 1.91595E-01 1.47994E-04 1.58201E+00-1.43127E-13-8.48757E-14
 -1       778 1.98630E+01-2.26179E-01 2.83752E-04 1.80141E+00 1.30112E-14 1.26631E-14
 -1       779 2.02274E+01-9.12381E-01 9.65440E-05 1.99270E+00-1.24478E-13 6.56633E-14
 -1       780 2.09826E+01-1.92188E+00 2.47360E-03 2.08331E+00-7.35671E-14 8.36325E-14
 -1       781 2.23276E+01-3.19624E+00 6.16574E-03 1.89590E+00-1.39686E-13-2.56999E-15
 -1       782 2.44584E+01-4.43984E+00 2.02060E-02 1.10092E+00 5.64106E-14 2.13937E-13
 -1       783 2.68501E+01-3.19755E+00-2.27914E-03-1.10678E+00 1.44289E-13 2.91323E-13
 -1       784 2.00406E+01-5.06231E-02-1.42387E-05-1.72980E-01 2.82775E-14 5.84927E-14
 -1       785 2.00611E+01-2.45565E-02-1.33498E-05-1.75233E-01 9.01888E-15-7.07436E-15
 -1       786 2.00162E+01-6.43709E-02-1.28602E-05-1.43036E-01 4.36159E-14 4.90220E-14
 -1       787 2.00099E+01-5.99476E-02-1.17620E-05-1.24274E-01 4.49120E-14 5.02102E-14
 -1       788 2.00064E+01-5.11689E-02-1.01867E-05-1.06748E-01 8.81926E-14 1.16980E-13
 -1       789 2.00049E+01-3.93186E-02-8.01987E-06-9.22599E-02 2.62251E-14 7.63137E-14
 -1       790 2.00050E+01-2.50615E-02-5.53857E-06-8.21449E-02-1.46792E-14 1.66700E-13
 -1       791 2.00064E+01-8.57513E-03-2.66899E-06-7.74990E-02 5.54494E-14 1.32719E-13
 -1       792 2.00087E+01 1.03278E-02 5.86849E-07-7.93532E-02-4.99412E-14 1.65777E-13
 -1       793 2.00117E+01 3.21003E-02 4.31272E-06-8.87975E-02-9.71654E-14 1.29450E-13
 -1       794 2.00153E+01 5.73682E-02 8.64939E-06-1.07066E-01 3.12247E-14 2.04338E-13
 -1       795 2.00191E+01 8.68277E-02 1.37683E-05-1.35584E-01-6.84254E-14 1.42254E-13
 -1       796 2.00229E+01 1.21114E-01 1.98506E-05-1.75973E-01-8.48836E-14 1.23019E-13
 -1       797 2.00264E+01 1.60624E-01 2.70648E-05-2.30004E-01-5.84904E-14 1.83707E-13
 -1       798 2.00293E+01 2.05247E-01 3.55349E-05-2.99494E-01 6.22227E-15 9.72414E-14
 -1       799 2.00311E+01 2.53983E-01 4.52949E-05-3.86116E-01-4.78108E-14 1.42942E-13
 -1       800 2.00319E+01 3.04363E-01 5.62247E-05-4.91133E-01 3.73578E-15 1.30902E-14
 -1       801 2.00320E+01 3.51616E-01 6.79563E-05-6.15012E-01 2.09408E-14 9.05109E-14
 -1       802 2.00335E+01 3.87489E-01 7.96755E-05-7.56922E-01-1.82705E-14 7.25027E-14
 -1       803 2.00411E+01 3.98642E-01 8.94235E-05-9.14084E-01-8.89772E-14 2.14730E-14
 -1       804 2.00648E+01 3.64672E-01 9.17229E-05-1.08090E+00-1.08442E-13-2.23656E-13
 -1       805 2.01233E+01 2.56091E-01 8.13374E-05-1.24761E+00-1.44587E-13-2.96062E-13
 -1       806 2.02496E+01 3.32217E-02 3.63200E-05-1.39803E+00-8.20683E-14-2.58663E-13
 -1       807 2.04972E+01-3.51556E-01-1.77629E-05-1.50477E+00-1.57908E-13-2.81024E-13
 -1       808 2.09451E+01-9.42591E-01-9.72862E-05-1.51984E+00 3.53608E-14-1.80487E-13
 -1       809 2.16945E+01-1.75028E+00-5.00077E-04-1.35378E+00 5.24922E-14-2.59104E-13
 -1       810 2.28366E+01-2.66941E+00 2.32216E-03-8.57219E-01 1.05982E-13-1.08973E-13
 -1       811 2.42509E+01-3.28062E+00-6.26678E-03 1.25180E-01-1.00829E-13-7.63643E-14
 -1       812 2.58923E+01-3.07240E+00-2.92884E-03 1.61133E+00-1.73952E-14 9.31614E-14
 -1       813 2.63302E+01-1.59871E+00-2.93883E-02-5.18216E-01 4.41704E-14-2.01806E-13
 -1       814 2.57422E+01-2.43259E+00-4.52182E-03 7.38076E-01-2.23747E-14-1.45660E-13
 -1       815 1.09113E+01 1.87944E-01 8.29942E-02-4.80543E-02-3.12838E-14-7.19112E-14
 -1       816 2.23815E+01-5.08446E+00 3.25116E-02-3.48256E+00 4.14235E-14-3.91047E-13
 -1       817 1.76181E+01-3.36723E+00 5.71965E-02 4.70112E+00 8.46528E-14 2.24360E-13
 -1       818 2.02188E+01 4.15273E-01 6.59928E-05 1.10731E-01 9.60457E-14-2.47148E-14
 -1       819 2.00261E+01-6.23355E-02-1.38604E-05-1.60493E-01 6.20250E-14 5.98853E-14
 -1       820 2.01703E+01 2.23504E-01-1.30776E-05-3.22315E-02 4.67979E-14-1.46141E-14
 -1       821 2.02885E+01 7.30815E-01 1.20893E-04-2.91216E-01-2.24212E-14-1.18021E-13
 -1       822 2.66906E+01 5.12135E+00-1.20181E-01-5.95394E-02 8.54317E-14 1.28503E-13
 -1       823 1.22112E+01-8.45694E-01 7.01394E-02 3.22463E+00 1.21422E-13-2.33147E-13
 -1       824 2.53576E+01-5.04676E+00-1.09375E-02-1.28720E+00-4.99524E-14-3.11618E-13
 -1       825 2.02776E+01 9.43104E-01 2.15794E-04 5.52420E-01 1.04838E-13 1.55192E-14
 -1       826 2.01380E+01 1.88864E+00-3.26537E-04 1.99115E-01 9.10807E-14-2.40672E-14
 -1       827 2.01262E+01 1.92678E+00-3.44769E-04 3.21387E-03 8.91157E-14-6.07323E-14
 -1       828 2.02187E+01 1.58208E+00-1.96407E-04 5.34043E-01 1.44150E-13-9.59060E-15
 -1       829 2.62292E+01 7.27194E-01-6.09972E-02-1.52202E+00 1.89054E-13-2.64339E-13
 -1       830 2.02141E+01 1.59256E+00-7.17154E-04-5.27230E-01 1.35484E-14-1.31933E-13
 -1       831 2.01254E+01 1.00538E-01-1.11321E-05-1.16712E-01 1.95011E-14 7.32983E-15
 -1       832 2.00890E+01 2.25891E-02-1.14552E-05-1.59865E-01-3.13821E-15-1.28688E-14
 -1       833 1.97822E+01-3.91940E+00 1.79159E-02-4.13374E+00 8.48800E-14-4.24415E-13
 -1       834 2.02485E+01 6.36374E-01-2.51403E-05 2.93901E-01 8.05237E-14 1.09344E-14
 -1       835 1.40969E+01-1.71217E+00 5.90899E-02-4.15001E+00 1.80773E-13-2.62608E-13
 -1       836 2.01667E+01 1.78222E+00-5.29169E-04-3.74066E-01 4.82131E-14-9.03460E-14
 -1       837 2.01707E+01 1.77506E+00-3.50896E-04 3.81466E-01 1.12562E-13-2.62789E-14
 -1       838 2.59845E+01-4.02855E+00 2.00275E-02 4.98636E-01-1.17831E-13-2.67686E-13
 -1       839 2.03296E+01 4.29994E-01-5.41884E-05-4.67848E-02 2.37842E-14-3.60733E-14
 -1       840 2.35612E+01-4.30967E+00-1.23890E-03-1.75918E+00-4.56124E-14-1.57770E-13
 -1       841 2.03325E+01 7.27572E-01 3.11839E-05-1.88991E-01 9.50857E-15-8.75199E-14
 -1       842 2.03039E+01 2.26662E-01-1.91850E-05 4.71582E-02 4.75973E-14-3.59736E-15
 -1       843 2.02677E+01 9.11913E-02-1.09809E-05 1.02661E-01 2.80088E-14 2.72469E-14
 -1       844 2.02285E+01 4.72041E-03-6.40641E-06 1.30197E-01 4.76986E-14-1.61765E-14
 -1       845 2.01905E+01-4.68650E-02-3.29173E-06 1.38605E-01 8.59962E-14-7.11295E-14
 -1       846 2.01559E+01-7.39656E-02-1.49888E-06 1.34903E-01 2.43630E-14-6.53193E-14
 -1       847 2.01258E+01-8.41407E-02-1.32388E-06 1.24379E-01-6.99161E-14 9.71373E-15
 -1       848 2.01002E+01-8.27692E-02-1.90752E-06 1.10871E-01-1.23353E-13-8.67243E-14
 -1       849 2.00789E+01-7.35190E-02-1.75445E-06 9.71119E-02-8.20876E-14-6.20181E-14
 -1       850 2.00614E+01-5.87409E-02-1.39661E-06 8.50657E-02-8.00242E-14 1.27900E-14
 -1       851 2.00469E+01-3.97804E-02-1.01025E-06 7.61795E-02-6.15789E-14 8.39508E-14
 -1       852 2.00343E+01-1.71999E-02-8.00944E-07 7.15933E-02-9.70283E-14 2.95918E-14
 -1       853 2.00228E+01 9.04341E-03-7.13208E-07 7.23107E-02-6.86297E-14 1.51101E-13
 -1       854 2.00111E+01 3.94461E-02-7.07557E-07 7.93270E-02 8.37951E-14 1.70930E-13
 -1       855 1.99978E+01 7.48259E-02-7.65375E-07 9.37174E-02 3.62299E-14 3.21398E-14
 -1       856 1.99813E+01 1.16190E-01-8.73409E-07 1.16693E-01 1.68188E-13-3.23253E-14
 -1       857 1.99598E+01 1.64584E-01-1.01250E-06 1.49622E-01 3.39956E-14-4.28976E-14
 -1       858 1.99310E+01 2.20902E-01-1.14747E-06 1.94023E-01 1.62216E-13 5.05383E-15
 -1       859 1.98924E+01 2.85627E-01-1.21301E-06 2.51518E-01-2.92764E-14-7.21049E-14
 -1       860 1.98408E+01 3.58459E-01-1.08833E-06 3.23770E-01-1.96956E-13-2.30125E-13
 -1       861 1.97732E+01 4.37798E-01-5.41236E-07 4.12405E-01-1.37564E-13-2.87218E-13
 -1       862 1.96860E+01 5.20005E-01 9.11525E-07 5.18983E-01 4.87907E-14-1.55471E-13
 -1       863 1.95762E+01 5.98366E-01 4.31532E-06 6.45074E-01 1.63001E-13-1.43865E-13
 -1       864 1.94419E+01 6.61676E-01 1.16855E-05 7.92607E-01 9.83058E-14-5.32284E-14
 -1       865 1.92838E+01 6.92309E-01 2.55464E-05 9.64641E-01-2.77903E-15 1.65174E-14
 -1       866 1.91080E+01 6.63713E-01 4.58237E-05 1.16679E+00-8.26042E-14-4.07737E-14
 -1       867 1.89307E+01 5.37167E-01 7.72519E-05 1.40950E+00-2.37968E-13-2.56956E-13
 -1       868 1.87862E+01 2.56999E-01 1.67465E-04 1.71034E+00 7.06767E-15-2.81328E-13
 -1       869 1.87416E+01-2.54533E-01 5.04480E-04 2.09535E+00 1.42454E-14-4.20952E-13
 -1       870 1.89503E+01-1.10683E+00-1.51305E-03 2.56865E+00 8.87406E-14-2.03581E-13
 -1       871 1.96002E+01-2.41794E+00 6.19917E-03 3.11941E+00-1.06682E-13-1.34413E-14
 -1       872 2.04676E+01-3.77288E+00 2.58322E-02 3.63118E+00 1.10622E-13 2.99758E-13
 -1       873 2.00475E+01-5.73389E-02-1.63834E-07-9.30152E-02-7.66921E-16 1.03613E-14
 -1       874 2.00613E+01-7.01891E-02 2.71926E-07-1.06884E-01-4.87382E-15-7.15999E-14
 -1       875 2.00785E+01-7.78138E-02 3.69051E-06-1.22376E-01 8.62762E-14-4.05934E-14
 -1       876 2.00366E+01-4.06488E-02-3.93695E-07-8.23529E-02-9.40164E-14 8.05086E-14
 -1       877 2.00278E+01-2.07289E-02-2.83308E-07-7.61135E-02-4.96781E-15 2.30646E-13
 -1       878 2.00202E+01 2.37217E-03-7.43061E-09-7.53571E-02 1.79007E-14 2.39817E-13
 -1       879 2.00129E+01 2.90253E-02 3.79987E-07-8.11176E-02-2.31834E-14 1.44763E-13
 -1       880 2.00050E+01 5.98955E-02 8.92338E-07-9.45055E-02-8.06384E-14 9.01499E-14
 -1       881 1.99953E+01 9.58129E-02 1.57420E-06-1.16775E-01-1.07067E-14 5.76354E-14
 -1       882 1.99825E+01 1.37625E-01 2.48958E-06-1.49353E-01 3.48467E-14-3.61023E-14
 -1       883 1.99651E+01 1.86005E-01 3.72537E-06-1.93836E-01-6.02489E-14-5.13867E-14
 -1       884 1.99415E+01 2.41193E-01 5.40236E-06-2.51941E-01-4.33119E-15-7.89542E-14
 -1       885 1.99099E+01 3.02625E-01 7.69585E-06-3.25421E-01-8.43096E-14-1.25506E-13
 -1       886 1.98684E+01 3.68409E-01 1.08772E-05-4.15950E-01-9.35772E-14-6.35386E-14
 -1       887 1.98156E+01 4.34585E-01 1.54047E-05-5.24988E-01-1.07976E-13 7.98407E-14
 -1       888 1.97511E+01 4.94099E-01 2.20959E-05-6.53674E-01-2.01288E-14 2.20836E-13
 -1       889 1.96762E+01 5.35406E-01 3.22544E-05-8.02803E-01 5.27801E-14 5.03576E-15
 -1       890 1.95965E+01 5.40627E-01 4.66490E-05-9.72953E-01 1.34472E-13-1.43174E-13
 -1       891 1.95244E+01 4.83248E-01 6.00588E-05-1.16469E+00-4.60612E-14-1.81177E-13
 -1       892 1.94844E+01 3.25742E-01 8.94986E-05-1.37849E+00-7.80693E-14-2.35709E-13
 -1       893 1.95207E+01 1.75903E-02 1.17121E-04-1.61387E+00-1.31468E-13-1.37626E-13
 -1       894 1.97104E+01-5.05039E-01 6.55677E-04-1.86293E+00-9.16629E-14-3.03185E-13
 -1       895 2.01659E+01-1.30352E+00 1.07928E-03-2.09848E+00 6.94333E-14-2.50616E-13
 -1       896 2.10976E+01-2.42874E+00 2.42855E-03-2.19285E+00-7.73544E-14-7.26589E-14
 -1       897 2.02999E+01 4.30059E-01-1.16273E-04 6.41245E-02 6.51197E-14-2.33022E-14
 -1       898 2.01357E+01 1.89161E+00-5.62965E-04-1.92079E-01 7.12457E-14-9.67012E-14
 -1       899 2.01569E+01-3.96926E-02-4.32980E-06-1.52120E-01-3.19982E-15-7.43256E-15
 -1       900 1.61615E+01-1.23499E+00 2.62142E-02 3.42759E+00 2.79454E-13 1.23396E-13
 -1       901 1.29554E+01-1.15164E-01 4.49016E-02-2.19967E+00 1.33846E-13-3.92481E-14
 -1       902 2.03019E+01 1.10306E+00 1.69620E-04-3.47429E-01-1.30530E-14-1.06689E-13
 -1       903 1.33084E+01 2.66532E-01 2.50066E-02 1.52106E+00 2.31075E-13 1.58954E-13
 -1       904 2.03038E+01 1.00124E+00 5.01810E-04 3.63975E-01 1.15471E-13-3.85796E-14
 -1       905 2.02685E+01 2.28955E-01-1.31889E-05-4.48354E-02 3.81866E-14-3.18557E-14
 -1       906 2.01921E+01 1.12400E-02-4.30323E-06-1.41652E-01-4.87309E-15 7.87216E-15
 -1       907 2.02899E+01 1.27416E+00 1.27928E-04-2.59422E-01 5.83563E-14-6.26149E-14
 -1       908 1.74658E+01-2.22552E+00 3.63875E-02-3.84079E+00 6.62995E-14-2.68500E-14
 -1       909 2.02881E+01 8.19034E-01 2.51989E-04 3.39407E-01 9.25522E-14-5.04150E-14
 -1       910 2.01260E+01-6.69866E-02-1.88016E-07-1.48693E-01 1.55015E-14 1.22095E-14
 -1       911 1.35737E+01 5.82568E-01 1.55562E-02-3.60012E-01 9.05799E-14-5.51542E-14
 -1       912 2.02938E+01 6.03665E-01-4.43770E-04 1.81237E-01 7.85695E-14-5.79983E-14
 -1       913 2.02744E+01 1.40569E+00-2.22142E-05 6.96406E-02 6.15772E-14-4.11464E-14
 -1       914 2.01000E+01-7.79391E-02 5.33262E-06-1.37325E-01 9.44987E-14 2.96526E-15
 -1       915 2.02845E+01 1.33750E+00-4.21792E-05 1.97328E-01 5.96029E-14-5.97758E-16
 -1       916 2.00725E+01-5.77084E-02 4.87230E-06-7.39036E-02-7.80142E-14 7.73495E-14
 -1       917 2.03739E+01 6.73835E-01-2.75971E-04-1.02830E-01 4.36213E-14 3.94306E-14
 -1       918 2.03797E+01 3.91958E-01-1.20567E-05-9.68606E-03 4.35657E-14 5.78574E-14
 -1       919 2.03589E+01 1.96136E-01-7.82786E-06 5.02879E-02 2.87245E-14 2.22753E-15
 -1       920 2.03237E+01 6.54497E-02-5.34285E-06 8.50030E-02 4.27495E-14 2.41530E-14
 -1       921 2.02822E+01-1.71262E-02-2.00475E-06 1.01091E-01 4.20990E-14 9.62762E-15
 -1       922 2.02397E+01-6.50269E-02 4.85893E-07 1.04557E-01 6.84689E-14 1.39095E-14
 -1       923 2.01994E+01-8.83813E-02 1.74557E-06 1.00218E-01 5.06169E-15 1.01531E-14
 -1       924 2.01629E+01-9.47104E-02 4.09269E-07 9.16995E-02-1.36162E-13 3.14723E-14
 -1       925 2.01310E+01-8.93602E-02 2.01225E-07 8.16368E-02-1.05969E-13 8.90097E-14
 -1       926 2.01034E+01-7.58682E-02 5.62143E-07 7.19599E-02-7.28109E-15 8.88698E-14
 -1       927 2.00796E+01-5.64732E-02 6.10652E-07 6.40870E-02-4.00875E-14 8.19001E-14
 -1       928 2.00586E+01-3.23548E-02 1.47899E-07 5.90780E-02-8.98454E-14 1.10678E-13
 -1       929 2.00391E+01-3.86333E-03-6.99458E-07 5.78061E-02-6.93196E-14 1.64373E-13
 -1       930 2.00195E+01 2.92754E-02-1.87717E-06 6.10790E-02 4.04646E-14 1.05804E-13
 -1       931 1.99982E+01 6.77908E-02-3.41482E-06 6.97208E-02 1.20548E-14 1.22680E-13
 -1       932 1.99729E+01 1.12711E-01-5.39005E-06 8.46270E-02 7.09770E-14 6.94428E-14
 -1       933 1.99413E+01 1.65199E-01-7.90729E-06 1.06795E-01 1.10578E-13 7.36176E-14
 -1       934 1.99003E+01 2.26361E-01-1.10925E-05 1.37329E-01 1.53930E-13 1.34730E-13
 -1       935 1.98467E+01 2.97005E-01-1.50974E-05 1.77423E-01 2.76632E-14 2.00172E-14
 -1       936 1.97765E+01 3.77312E-01-2.01150E-05 2.28327E-01-1.51943E-13-4.38733E-14
 -1       937 1.96853E+01 4.66414E-01-2.64062E-05 2.91326E-01-9.42633E-14 1.40567E-13
 -1       938 1.95682E+01 5.61821E-01-3.43146E-05 3.67759E-01-6.85639E-14 1.30917E-13
 -1       939 1.94198E+01 6.58688E-01-4.41576E-05 4.59169E-01 9.49405E-14-2.75240E-14
 -1       940 1.92346E+01 7.48880E-01-5.58207E-05 5.67729E-01 1.72391E-13-8.87320E-14
 -1       941 1.90072E+01 8.19802E-01-6.86669E-05 6.97170E-01 1.26887E-13-8.85118E-14
 -1       942 1.87328E+01 8.52895E-01-8.49026E-05 8.54509E-01-1.10229E-13 2.82004E-14
 -1       943 1.84085E+01 8.21839E-01-1.29980E-04 1.05290E+00-1.31847E-13 1.08508E-13
 -1       944 1.80353E+01 6.89929E-01-1.43886E-04 1.31694E+00-1.26345E-13 3.34635E-13
 -1       945 1.76239E+01 4.02502E-01-4.05531E-04 1.68549E+00-1.28732E-13 2.66723E-13
 -1       946 1.72196E+01-1.12362E-01 2.58302E-03 2.23110E+00 1.39521E-13 1.46484E-13
 -1       947 2.02304E+01 9.60620E-02-9.05385E-06-1.09317E-01-1.16914E-14-4.62362E-15
 -1       948 2.00936E+01-7.50710E-02 4.69822E-06-8.36161E-02-6.06335E-14 3.66923E-14
 -1       949 2.02982E+01 1.20167E+00-7.84533E-05 3.01312E-01 8.98140E-14 3.52705E-14
 -1       950 2.01186E+01-8.67841E-02 6.18943E-06-9.51887E-02 6.18137E-14 7.39460E-14
 -1       951 2.00378E+01-1.00162E-02 2.21429E-06-6.46775E-02-9.43454E-16 3.73328E-14
 -1       952 2.00218E+01 2.00052E-02 9.67672E-07-6.70938E-02-5.43536E-14 1.03790E-13
 -1       953 2.00048E+01 5.47836E-02-2.82539E-07-7.54237E-02 2.55677E-14 1.54503E-13
 -1       954 1.99850E+01 9.51955E-02-1.56262E-06-9.06773E-02 1.27338E-14 3.68144E-15
 -1       955 1.99605E+01 1.42240E-01-2.89997E-06-1.13997E-01 6.10266E-14 2.37392E-14
 -1       956 1.99288E+01 1.96843E-01-4.31840E-06-1.46677E-01 4.45099E-15 1.26746E-13
 -1       957 1.98875E+01 2.59616E-01-5.83311E-06-1.90159E-01-6.68946E-14 2.67947E-14
 -1       958 1.98334E+01 3.30515E-01-7.44866E-06-2.46006E-01-3.47352E-14 4.73413E-14
 -1       959 1.97635E+01 4.08398E-01-9.16090E-06-3.15883E-01-1.27259E-13-9.64242E-15
 -1       960 1.96745E+01 4.90415E-01-1.09593E-05-4.01555E-01-1.08646E-13-1.23846E-13
 -1       961 1.95634E+01 5.71203E-01-1.28158E-05-5.04973E-01-3.76561E-14-1.04308E-13
 -1       962 1.94281E+01 6.41845E-01-1.46909E-05-6.28552E-01 7.20223E-14-6.34157E-14
 -1       963 1.92681E+01 6.88517E-01-1.71799E-05-7.75795E-01 1.02481E-13-8.43238E-14
 -1       964 1.90867E+01 6.90722E-01-2.64825E-05-9.52481E-01 2.20160E-14 1.80462E-13
 -1       965 1.88933E+01 6.18827E-01-6.83614E-05-1.16835E+00-4.24410E-15 1.83472E-13
 -1       966 1.87089E+01 4.31611E-01-3.95416E-05-1.43862E+00-1.16542E-13 1.57446E-13
 -1       967 1.85714E+01 7.47958E-02 1.22228E-06-1.78807E+00 8.98069E-15 5.95874E-14
 -1       968 1.85604E+01-5.41703E-01-5.61432E-04-2.25585E+00-1.60505E-15-7.33089E-14
 -1       969 1.88336E+01-1.47628E+00 1.00093E-02-2.84957E+00-1.08868E-13-9.83642E-14
 -1       970 2.02741E+01 1.40633E+00-1.10879E-06-6.47283E-02 8.39394E-14-8.43349E-14
 -1       971 2.02804E+01 1.36086E+00 1.20534E-04-1.67231E-01 8.00615E-14-8.53559E-14
 -1       972 1.54622E+01-6.63466E-01 1.50668E-02-2.97148E+00 9.84633E-14 4.81525E-14
 -1       973 2.00543E+01-3.58713E-02 3.49393E-06-6.72511E-02-7.62613E-14 1.37908E-14
 -1       974 1.56884E+01 3.78907E-02 2.94052E-03 2.12877E+00 6.18839E-14-6.39324E-14
 -1       975 2.03460E+01 9.46923E-01 4.99792E-04-1.78658E-01 4.55095E-14-6.70309E-15
 -1       976 2.03585E+01 4.06388E-01-5.22241E-05 2.23488E-02 4.53881E-14 3.69787E-14
 -1       977 2.02599E+01-7.95416E-03 3.56377E-06-1.15685E-01 3.86244E-14-2.94572E-14
 -1       978 1.49684E+01 6.74828E-01 7.68455E-03 9.15772E-01-5.72974E-14 2.12506E-13
 -1       979 2.03575E+01 6.92382E-01 2.64850E-04 1.33931E-01 5.30359E-14 5.14476E-14
 -1       980 2.03684E+01 9.97491E-01 2.57414E-04 1.54799E-03 8.35888E-14-7.01501E-14
 -1       981 2.01479E+01-9.04176E-02 1.46305E-05-1.06889E-01 2.96847E-14 3.01185E-14
 -1       982 2.02195E+01-5.74109E-02-1.28046E-06-1.20990E-01 4.49583E-14-9.02933E-14
 -1       983 1.48548E+01 3.94032E-01 6.60176E-03-1.54141E+00-1.20308E-15-9.11920E-14
 -1       984 2.03675E+01 9.69275E-01 2.20986E-04 8.01384E-02 3.08076E-14-3.85636E-14
 -1       985 2.03357E+01 2.08482E-01 6.23667E-06-5.18495E-02 4.97215E-15 2.33347E-14
 -1       986 2.03003E+01 7.61211E-02 5.76989E-06-9.50499E-02-2.07453E-14 1.48844E-14
 -1       987 2.04124E+01 3.27916E-01-6.06011E-05 9.80537E-03 4.31820E-15-5.10695E-14
 -1       988 2.03900E+01 1.48978E-01-3.69104E-05 4.14391E-02 3.23213E-14-6.28908E-14
 -1       989 2.03525E+01 3.09282E-02-2.93630E-05 5.86439E-02 2.73545E-14-4.74244E-14
 -1       990 2.03080E+01-4.19174E-02-1.85515E-05 6.56856E-02 6.05826E-14 4.91264E-14
 -1       991 2.02622E+01-8.20370E-02 6.83153E-06 6.58890E-02 1.33700E-14 3.68982E-16
 -1       992 2.02186E+01-9.92452E-02-5.84702E-07 6.21050E-02-1.89835E-14-4.64069E-15
 -1       993 2.01787E+01-1.00368E-01-3.88130E-07 5.63839E-02-7.16976E-14 1.45143E-13
 -1       994 2.01432E+01-9.03736E-02 4.99062E-06 5.01035E-02-9.66634E-14 5.26187E-14
 -1       995 2.01119E+01-7.24265E-02 2.93893E-06 4.45416E-02-5.01496E-15 8.96401E-15
 -1       996 2.00841E+01-4.85297E-02 1.29990E-06 4.04692E-02-7.34009E-14 2.83568E-14
 -1       997 2.00586E+01-1.95396E-02-1.75721E-06 3.85207E-02-3.40461E-14 8.31699E-14
 -1       998 2.00336E+01 1.44791E-02-5.93355E-06 3.92564E-02-2.22023E-14 1.83355E-13
 -1       999 2.00071E+01 5.40560E-02-1.11845E-05 4.32111E-02 1.10958E-14 9.23180E-14
 -1      1000 1.99769E+01 1.00137E-01-1.75847E-05 5.09391E-02-3.33568E-14-3.47583E-15
 -1      1001 1.99402E+01 1.53909E-01-2.52723E-05 6.30406E-02 1.24771E-13-5.50329E-14
 -1      1002 1.98938E+01 2.16603E-01-3.44231E-05 8.01702E-02 1.52694E-13-5.08049E-14
 -1      1003 1.98338E+01 2.89269E-01-4.52486E-05 1.03029E-01-1.66230E-14-7.14286E-14
 -1      1004 1.97561E+01 3.72485E-01-5.80271E-05 1.32346E-01-7.83529E-14-1.23689E-13
 -1      1005 1.96555E+01 4.65991E-01-7.31952E-05 1.68858E-01-4.42558E-14 1.16922E-13
 -1      1006 1.95264E+01 5.68238E-01-9.15370E-05 2.13318E-01-6.78676E-14 7.32865E-14
 -1      1007 1.93624E+01 6.75845E-01-1.14464E-04 2.66574E-01-1.79919E-14 2.58873E-13
 -1      1008 1.91559E+01 7.82998E-01-1.44180E-04 3.29809E-01-3.90719E-14 1.76223E-13
 -1      1009 1.88981E+01 8.80826E-01-1.83253E-04 4.05116E-01 5.60089E-14-1.01859E-13
 -1      1010 1.85779E+01 9.56823E-01-2.36159E-04 4.96681E-01 1.40937E-13-1.37781E-13
 -1      1011 1.81808E+01 9.94100E-01-3.33985E-04 6.13086E-01 7.34222E-14 2.21714E-14
 -1      1012 1.76883E+01 9.70543E-01-1.71188E-04 7.69112E-01-4.28875E-14 3.35784E-14
 -1      1013 1.70670E+01 8.60652E-01-8.08589E-06 9.94676E-01-1.62999E-13 9.43586E-14
 -1      1014 2.01091E+01-7.42183E-02 1.00908E-05-5.70995E-02-7.78911E-14 9.47095E-14
 -1      1015 2.01389E+01-9.02172E-02 1.25399E-05-6.45802E-02-2.75376E-14 5.60468E-14
 -1      1016 2.03944E+01 6.23784E-01 1.11324E-04 6.50225E-02 2.60958E-14 5.21415E-14
 -1      1017 2.00130E+01 4.30901E-02-4.49924E-06-5.23492E-02-2.25924E-14-8.84291E-15
 -1      1018 2.00365E+01 6.33539E-03 2.30680E-07-4.83090E-02-1.01834E-14 1.52233E-13
 -1      1019 1.99551E+01 1.35474E-01-1.56412E-05-7.52042E-02 4.89653E-14 8.16209E-14
 -1      1020 1.99154E+01 1.93276E-01-2.21173E-05-9.57298E-02 2.47036E-15-1.25723E-14
 -1      1021 1.98643E+01 2.60116E-01-2.92290E-05-1.23664E-01 4.50954E-14 6.33720E-14
 -1      1022 1.97982E+01 3.36444E-01-3.69792E-05-1.60183E-01-4.67050E-14-1.74555E-14
 -1      1023 1.97130E+01 4.21856E-01-4.53853E-05-2.06614E-01-1.63503E-13-2.26198E-14
 -1      1024 1.96040E+01 5.14599E-01-5.45820E-05-2.64482E-01-6.00813E-14 1.60075E-14
 -1      1025 1.94666E+01 6.10969E-01-6.50815E-05-3.35638E-01-4.76567E-14-6.11920E-14
 -1      1026 1.92956E+01 7.04574E-01-7.84022E-05-4.22545E-01-8.87425E-14 3.45863E-14
 -1      1027 1.90862E+01 7.85489E-01-9.86926E-05-5.28886E-01 1.00727E-13 2.09594E-13
 -1      1028 1.88335E+01 8.39333E-01-1.38197E-04-6.60726E-01-7.20628E-14 2.13287E-13
 -1      1029 1.85328E+01 8.46094E-01-2.61918E-04-8.28849E-01-9.67643E-14 2.06813E-13
 -1      1030 1.81822E+01 7.76834E-01-5.76893E-04-1.05236E+00-8.97139E-15 2.40397E-13
 -1      1031 1.77815E+01 5.91951E-01-1.24018E-03-1.35918E+00 2.94325E-14 1.82347E-13
 -1      1032 1.73388E+01 2.44936E-01-1.60008E-04-1.80348E+00 3.16019E-14 2.35542E-13
 -1      1033 2.03679E+01 9.80387E-01 3.82574E-04-6.24881E-02 7.27544E-14-7.00856E-14
 -1      1034 2.00829E+01-5.22201E-02 7.80191E-06-5.13742E-02-9.71394E-14 2.13858E-13
 -1      1035 1.99867E+01 8.57825E-02-9.78045E-06-6.10478E-02 2.01392E-15 6.61191E-14
 -1      1036 2.04092E+01 5.85387E-01-2.20151E-04-4.00793E-02 5.78455E-14-4.77066E-14
 -1      1037 2.01817E+01-8.24740E-02 1.02805E-05-1.16572E-01 4.35020E-14-8.04784E-14
 -1      1038 2.00592E+01-2.53011E-02 4.38350E-06-4.82104E-02-5.04481E-14 2.06060E-13
 -1      1039 1.63654E+01 5.42982E-01 2.72394E-03 1.49016E+00-1.04167E-13 1.11142E-13
 -1      1040 2.03414E+01 4.49690E-02-1.81944E-05-7.23785E-02 1.92305E-14-6.28281E-14
 -1      1041 2.02983E+01-3.18153E-02 3.23458E-06-8.27054E-02 1.48537E-14-2.57342E-14
 -1      1042 1.67174E+01-1.40895E-01 3.55851E-03-2.28345E+00 2.89006E-14 1.60432E-13
 -1      1043 2.03580E+01 9.77166E-01 4.92447E-04-1.21980E-01 6.36923E-14-4.64394E-14
 -1      1044 2.01734E+01-9.87761E-02-8.10311E-05-7.30254E-02-3.18235E-14-6.93880E-14
 -1      1045 2.04003E+01 3.52469E-01-1.50401E-04-3.90934E-03 6.90286E-14 7.24874E-14
 -1      1046 1.52228E+01 8.47195E-01 1.86164E-03-2.14037E-01-1.43192E-14 2.60645E-14
 -1      1047 2.04167E+01 6.67761E-01-1.55561E-04-1.31413E-02 4.64463E-14-7.15225E-14
 -1      1048 2.04183E+01 6.59750E-01 1.22392E-04 2.38994E-02 2.51612E-14-1.04237E-13
 -1      1049 2.03601E+01 8.84886E-01-1.44845E-04 1.43898E-01 4.13425E-14 2.40211E-14
 -1      1050 1.60595E+01 6.32480E-01 6.96464E-04-1.25596E+00 2.17333E-14-1.13267E-13
 -1      1051 2.03989E+01 9.50940E-02 9.54074E-05 1.97538E-02 4.87058E-14-5.34550E-14
 -1      1052 2.03574E+01-5.28450E-03 7.75593E-05 2.45242E-02 7.83613E-14-5.54827E-14
 -1      1053 2.03092E+01-6.44275E-02-9.21089E-06 2.59630E-02 9.18619E-15-6.84083E-14
 -1      1054 2.02617E+01-9.52408E-02 9.49556E-06 2.52341E-02-5.04623E-14-1.56066E-14
 -1      1055 2.02175E+01-1.05300E-01-9.73753E-07 2.29125E-02-2.98639E-14-6.70782E-14
 -1      1056 2.01770E+01-1.00447E-01 1.97570E-06 2.05522E-02-1.29402E-13-8.26405E-14
 -1      1057 2.01405E+01-8.56471E-02 2.67473E-05 1.85204E-02-7.24241E-14-1.66577E-16
 -1      1058 2.01080E+01-6.36542E-02 2.03987E-05 1.67292E-02-3.82695E-15-9.89941E-14
 -1      1059 2.00783E+01-3.58031E-02 1.66206E-05 1.56336E-02 3.54406E-14-2.76526E-14
 -1      1060 2.00500E+01-2.60341E-03 1.46424E-05 1.54878E-02 3.88160E-14 8.05059E-14
 -1      1061 2.00210E+01 3.61778E-02 1.43822E-05 1.65059E-02-4.36780E-15 1.56892E-13
 -1      1062 1.99891E+01 8.13085E-02 1.58187E-05 1.88929E-02-4.74368E-14 2.23772E-13
 -1      1063 1.99514E+01 1.33902E-01 1.89661E-05 2.28569E-02-4.92425E-14 1.50092E-13
 -1      1064 1.99046E+01 1.95220E-01 2.38841E-05 2.86107E-02 8.03570E-14 5.14501E-15
 -1      1065 1.98451E+01 2.66457E-01 3.06800E-05 3.63640E-02 5.47823E-14-1.24394E-13
 -1      1066 1.97683E+01 3.48468E-01 3.95124E-05 4.63069E-02-5.73095E-14-1.43108E-13
 -1      1067 1.96693E+01 4.41449E-01 5.06083E-05 5.85875E-02-3.49324E-15-5.26150E-14
 -1      1068 1.95423E+01 5.44543E-01 6.43119E-05 7.32904E-02 7.02790E-14 6.16571E-15
 -1      1069 1.93805E+01 6.55388E-01 8.11854E-05 9.04294E-02-3.96282E-14 7.29857E-14
 -1      1070 1.91761E+01 7.69647E-01 1.02137E-04 1.09979E-01-5.90819E-14-1.47265E-13
 -1      1071 1.89196E+01 8.80591E-01 1.28189E-04 1.31978E-01-1.67056E-14 6.40960E-15
 -1      1072 1.85987E+01 9.78859E-01 1.57046E-04 1.56743E-01-1.24325E-15 1.07695E-13
 -1      1073 1.81960E+01 1.05259E+00 1.56522E-04 1.85165E-01-3.27200E-14-1.74383E-13
 -1      1074 1.76842E+01 1.08741E+00-2.65488E-04 2.19169E-01-3.95571E-14-3.70734E-13
 -1      1075 1.70557E+01 1.06016E+00 1.55224E-03 2.67630E-01 7.65640E-14-2.28000E-13
 -1      1076 2.03777E+01 1.68197E-01-2.38442E-05-4.80977E-02 3.42113E-14-1.55556E-14
 -1      1077 2.04297E+01 4.79295E-01 1.88698E-04-6.83360E-03 3.28814E-14-1.03407E-13
 -1      1078 1.61218E+01 9.11620E-01 4.59392E-04 5.60322E-01-1.17541E-14 1.31282E-13
 -1      1079 1.98654E+01 2.45287E-01-1.16678E-05-5.97742E-02-4.86924E-14 1.90329E-13
 -1      1080 1.99195E+01 1.77813E-01-6.53417E-06-4.65034E-02 2.56661E-14 5.98067E-14
 -1      1081 1.97061E+01 4.11046E-01-3.15031E-05-1.00635E-01-2.20373E-14 1.73741E-13
 -1      1082 1.95911E+01 5.08709E-01-4.74923E-05-1.30010E-01-7.50848E-14 3.52632E-14
 -1      1083 1.94450E+01 6.13608E-01-6.83544E-05-1.66922E-01 8.45603E-15-1.45384E-13
 -1      1084 1.92610E+01 7.21343E-01-9.48207E-05-2.13064E-01-9.38279E-14-8.30047E-14
 -1      1085 1.90317E+01 8.24912E-01-1.28645E-04-2.70928E-01 1.43822E-15-6.85895E-14
 -1      1086 1.87479E+01 9.14235E-01-1.75152E-04-3.44414E-01 8.57498E-14-1.07445E-13
 -1      1087 1.83978E+01 9.75933E-01-2.39117E-04-4.39817E-01-7.27124E-14 7.14170E-14
 -1      1088 1.79638E+01 9.94446E-01-1.87167E-04-5.67153E-01-5.55660E-14 1.94329E-13
 -1      1089 1.74178E+01 9.49130E-01-2.03061E-03-7.57202E-01 1.81270E-13 6.34303E-14
 -1      1090 1.68569E+01 8.22686E-01 3.88361E-03-9.67042E-01 1.39746E-13-2.69786E-13
 -1      1091 2.04282E+01 2.49007E-01-6.44103E-06 8.97444E-03 4.16566E-14-7.27364E-14
 -1      1092 1.97958E+01 3.22962E-01-1.97759E-05-7.75494E-02-6.32051E-15 1.04439E-13
 -1      1093 2.00267E+01 2.69117E-02-3.35053E-06-2.74365E-02 2.87785E-14-9.54182E-14
 -1      1094 2.01108E+01-6.78420E-02-8.89979E-06-2.95414E-02-1.58759E-13 9.28951E-14
 -1      1095 2.01432E+01-8.82705E-02-2.60014E-06-3.29836E-02-5.62169E-14 1.10499E-13
 -1      1096 2.03580E+01 9.18415E-03-6.33941E-06-4.09652E-02 5.68518E-14-2.61085E-14
 -1      1097 2.02540E+01-7.47056E-02-2.24046E-05-8.40169E-02 3.07109E-14-1.66591E-14
 -1      1098 2.03978E+01 1.17333E-01 3.19660E-05-3.09221E-02 4.47706E-14 1.52866E-16
 -1      1099 2.01797E+01-1.01110E-01 5.85395E-05-3.68390E-02-7.31722E-14 6.58076E-14
 -1      1100 1.99969E+01 6.97969E-02-2.86660E-06-3.08679E-02-1.90059E-14-2.90253E-14
 -1      1101 2.00817E+01-4.15283E-02-6.87313E-06-2.71714E-02-4.63632E-14 4.16159E-14
 -1      1102 1.99622E+01 1.19699E-01-3.77616E-06-3.70596E-02 4.08416E-15-3.30225E-14
 -1      1103 2.02126E+01-9.53408E-02-3.10775E-05-8.00693E-02 1.38159E-14-2.61011E-14
 -1      1104 2.00543E+01-9.97808E-03-4.82177E-06-2.63360E-02 4.77943E-14 9.38640E-18
 -1      1105 2.04318E+01 4.75924E-01-7.39986E-04 3.96011E-03 3.11151E-14-1.08184E-13
 -1      1106 2.04231E+01 2.80878E-01 2.96146E-04-1.12419E-02 6.24171E-14-3.67284E-14
 -1      1107 2.02901E+01-8.38527E-02 2.17177E-05-1.63277E-02 4.26977E-14-4.36073E-14
 -1      1108 2.02423E+01-1.02836E-01 6.27676E-05-1.51457E-02-3.03757E-14 3.15634E-14
 -1      1109 1.62460E+01 9.78054E-01-2.52235E-03-2.87942E-01 9.62099E-14 7.75232E-14
 -1      1110 2.03131E+01-5.63367E-02 5.33679E-05-4.47567E-02 2.88759E-14-5.42687E-14
 -1      1111 2.79643E+01 9.08694E+00 2.32538E+00-6.69812E+00-2.33147E-14 1.70697E-14
 -1      1112 2.05484E+01 6.22745E+00 2.09718E-01-3.90358E+00-6.63358E-15-2.48628E-13
 -1      1113 1.94349E+01 5.85303E+00 7.51635E-02-2.88761E+00-2.45637E-15-3.02963E-13
 -1      1114 1.90263E+01 5.72600E+00 6.03612E-02-2.23491E+00 3.12250E-17-3.06748E-13
 -1      1115 1.88400E+01 5.66935E+00 5.78131E-02-1.70106E+00 1.19349E-15-2.80094E-13
 -1      1116 1.87455E+01 5.64032E+00 5.55461E-02-1.23384E+00 1.08854E-15-2.61493E-13
 -1      1117 1.86963E+01 5.62503E+00 5.37546E-02-8.04144E-01 1.94419E-15-2.30226E-13
 -1      1118 1.86722E+01 5.61741E+00 5.25065E-02-3.92745E-01 1.93140E-15-1.93815E-13
 -1      1119 1.86653E+01 5.61522E+00 5.21079E-02 8.47635E-03 3.40851E-15-1.65330E-13
 -1      1120 1.86733E+01 5.61777E+00 5.26206E-02 4.10103E-01 3.80642E-15-1.35935E-13
 -1      1121 1.86985E+01 5.62577E+00 5.40120E-02 8.22846E-01 4.97432E-15-9.09333E-14
 -1      1122 1.87495E+01 5.64171E+00 5.62253E-02 1.25519E+00 5.54157E-15-4.92991E-14
 -1      1123 1.88450E+01 5.67103E+00 5.84443E-02 1.72693E+00 5.90847E-15 1.77462E-14
 -1      1124 1.90318E+01 5.72767E+00 6.04076E-02 2.26797E+00 6.09582E-15 1.06987E-13
 -1      1125 1.94318E+01 5.85032E+00 6.92423E-02 2.92815E+00 6.64746E-15 2.47857E-13
 -1      1126 2.04546E+01 6.18240E+00 1.53336E-01 3.87830E+00 3.91354E-15 4.54914E-13
 -1      1127 2.52185E+01 7.99473E+00 1.43047E+00 5.84633E+00-2.44249E-15 7.50455E-13
 -1      1128 2.88140E+01 3.61631E+00 1.27120E+00-4.21704E+00-7.10543E-14 1.59039E-13
 -1      1129 2.02294E+01-1.77716E-01-6.16305E-01-1.09898E-01-2.26832E-14 6.60583E-15
 -1      1130 1.88355E+01-9.63890E-02-2.36365E-01 6.25385E-02-7.98493E-15-1.81674E-13
 -1      1131 1.85021E+01-4.80590E-02-5.95681E-02 4.05388E-02 3.84024E-15-2.82538E-13
 -1      1132 1.84474E+01-2.46157E-02-1.51728E-02 2.68069E-02-3.32850E-15-3.18242E-13
 -1      1133 1.85296E+01-1.30570E-02-4.97289E-03 1.90826E-02-1.04040E-14-3.59442E-13
 -1      1134 1.86769E+01-6.60417E-03-1.47096E-03 1.41444E-02-4.39622E-15-4.11123E-13
 -1      1135 1.88498E+01-2.82766E-03 5.76067E-04 1.07190E-02 1.74020E-15-3.44395E-13
 -1      1136 1.90258E+01-5.86863E-04 1.90393E-03 8.18438E-03-2.96323E-15-3.79948E-13
 -1      1137 1.91919E+01 7.15991E-04 2.65972E-03 6.23236E-03-3.49526E-15-4.66728E-13
 -1      1138 1.93413E+01 1.42256E-03 2.97945E-03 4.69807E-03-1.08493E-14-5.67452E-13
 -1      1139 1.94709E+01 1.74243E-03 2.99680E-03 3.48262E-03 1.16598E-14-6.00651E-13
 -1      1140 1.95801E+01 1.81079E-03 2.81887E-03 2.51900E-03-2.72314E-15-6.22315E-13
 -1      1141 1.96700E+01 1.71688E-03 2.52215E-03 1.75724E-03-1.06001E-14-7.21418E-13
 -1      1142 1.97423E+01 1.51916E-03 2.15714E-03 1.15780E-03 2.07018E-14-5.55549E-13
 -1      1143 1.97995E+01 1.25407E-03 1.75380E-03 6.88776E-04-2.55196E-14-5.90904E-13
 -1      1144 1.98445E+01 9.41717E-04 1.32602E-03 3.24694E-04-9.00994E-15-5.06091E-13
 -1      1145 1.98803E+01 5.89735E-04 8.74905E-04 4.61884E-05-1.32732E-14-4.97875E-13
 -1      1146 1.99099E+01 1.96040E-04 3.91249E-04-1.59904E-04-7.99940E-15-6.18026E-13
 -1      1147 1.99370E+01-2.49056E-04-1.42636E-04-3.00126E-04 7.11105E-15-6.04571E-13
 -1      1148 1.99653E+01-7.61138E-04-7.51557E-04-3.73664E-04 2.82668E-14-3.48936E-13
 -1      1149 1.99991E+01-1.36007E-03-1.46621E-03-3.71233E-04-1.08435E-14-1.74649E-13
 -1      1150 2.00437E+01-2.06813E-03-2.32179E-03-2.73501E-04 6.16564E-15-2.38460E-13
 -1      1151 2.01051E+01-2.90736E-03-3.35583E-03-4.89606E-05-4.81137E-14-3.79083E-13
 -1      1152 2.01908E+01-3.89544E-03-4.60441E-03 3.48809E-04 3.82833E-14-3.19306E-13
 -1      1153 2.03094E+01-5.03879E-03-6.09505E-03 9.84374E-04 3.25844E-14 1.54524E-13
 -1      1154 2.04717E+01-6.32102E-03-7.83331E-03 1.94368E-03 2.52576E-14 4.86998E-14
 -1      1155 2.06897E+01-7.68361E-03-9.77825E-03 3.33582E-03-1.63797E-14-1.72803E-13
 -1      1156 2.09769E+01-8.99470E-03-1.17981E-02 5.28986E-03-1.42856E-14-2.28135E-13
 -1      1157 2.13470E+01-1.00003E-02-1.35937E-02 7.93894E-03-9.81116E-15-1.84353E-13
 -1      1158 2.18119E+01-1.02533E-02-1.45730E-02 1.13761E-02-4.42493E-14-1.58169E-13
 -1      1159 2.23774E+01-9.02384E-03-1.36681E-02 1.55540E-02 4.34928E-15-5.77580E-13
 -1      1160 2.30360E+01-5.21595E-03-9.12352E-03 2.00834E-02-1.00203E-14-6.98858E-13
 -1      1161 2.37549E+01 2.62159E-03 1.60469E-03 2.38840E-02 2.43369E-14-4.62831E-13
 -1      1162 2.44593E+01 1.60040E-02 2.14533E-02 2.46915E-02 1.52311E-14-5.84546E-13
 -1      1163 2.50131E+01 3.55882E-02 5.21574E-02 1.86233E-02 2.46912E-14-4.80924E-13
 -1      1164 2.52067E+01 5.92611E-02 9.07365E-02 4.76791E-04 1.07423E-14-6.64650E-13
 -1      1165 2.47771E+01 7.95494E-02 1.24367E-01-3.38341E-02-5.37400E-14-7.22700E-13
 -1      1166 2.34930E+01 8.20692E-02 1.28426E-01-8.17392E-02 4.88325E-14-5.62772E-13
 -1      1167 2.13229E+01 5.09389E-02 7.67597E-02-1.27315E-01 1.14943E-14-6.97817E-13
 -1      1168 1.86195E+01-1.62547E-02-3.19856E-02-1.42226E-01 7.95761E-15-1.19865E-12
 -1      1169 1.61364E+01-9.20408E-02-1.51461E-01-1.03758E-01-1.72952E-15-1.11833E-12
 -1      1170 1.47056E+01-1.28256E-01-2.08053E-01-2.13014E-02 2.41213E-14-1.18908E-12
 -1      1171 1.47216E+01-1.01393E-01-1.64113E-01 6.29874E-02 1.83464E-14-8.84279E-13
 -1      1172 1.58758E+01-3.29354E-02-5.48507E-02 1.04864E-01 2.88194E-14-3.80862E-13
 -1      1173 1.74050E+01 2.57895E-02 4.14114E-02 9.45684E-02 7.71757E-15-8.44463E-14
 -1      1174 1.86405E+01 4.57316E-02 7.53102E-02 5.77813E-02 3.14245E-14-2.14467E-13
 -1      1175 1.93578E+01 3.18545E-02 5.55906E-02 2.85503E-02 6.49480E-14 3.43524E-13
 -1      1176 1.97430E+01 1.10111E-02 3.90664E-02 2.56609E-02-9.03310E-14 1.98466E-13
 -1      1177 1.99579E+01 2.05781E-02 5.26137E-02 1.21637E-02 4.29463E-14 2.24993E-13
 -1      1178 2.77935E+01 5.25750E-01 3.76948E-01 1.96666E+00-9.47159E-15 9.50240E-13
 -1      1179 2.00870E+01-6.62498E-02-5.73635E-01 1.29451E-01-2.13718E-15 9.45466E-13
 -1      1180 1.89103E+01-4.06170E-02-1.93235E-01 1.94064E-02-4.25354E-15 9.19766E-13
 -1      1181 1.85310E+01-2.14340E-02-5.05758E-02 1.45382E-03 4.57447E-15 8.70439E-13
 -1      1182 1.84601E+01-1.24224E-02-1.34328E-02-4.08612E-03 3.98986E-16 8.40342E-13
 -1      1183 1.85360E+01-7.41478E-03-4.68652E-03-5.54799E-03 3.19558E-15 7.37264E-13
 -1      1184 1.86802E+01-4.33505E-03-1.95269E-03-5.74256E-03-8.82616E-15 8.05758E-13
 -1      1185 1.88514E+01-2.35801E-03-3.60981E-04-5.46892E-03-8.89848E-15 7.79734E-13
 -1      1186 1.90264E+01-1.07740E-03 7.66356E-04-4.98044E-03-3.12086E-15 7.25800E-13
 -1      1187 1.91920E+01-2.61204E-04 1.48979E-03-4.39062E-03 2.19148E-15 6.75090E-13
 -1      1188 1.93411E+01 2.37629E-04 1.87333E-03-3.76629E-03 2.34469E-14 5.85635E-13
 -1      1189 1.94705E+01 5.17440E-04 2.00456E-03-3.14956E-03 7.16034E-16 5.38394E-13
 -1      1190 1.95797E+01 6.45553E-04 1.96310E-03-2.56573E-03 1.09722E-14 5.09068E-13
 -1      1191 1.96696E+01 6.67999E-04 1.80904E-03-2.02783E-03-3.60727E-14 6.52042E-13
 -1      1192 1.97420E+01 6.15262E-04 1.58321E-03-1.53990E-03 6.70454E-15 5.55566E-13
 -1      1193 1.97993E+01 5.05982E-04 1.31014E-03-1.09960E-03-2.14570E-14 4.44695E-13
 -1      1194 1.98444E+01 3.49463E-04 1.00109E-03-7.00247E-04 9.11836E-15 5.08225E-13
 -1      1195 1.98803E+01 1.47387E-04 6.56383E-04-3.32534E-04 2.60462E-14 4.09469E-13
 -1      1196 1.99102E+01-1.04930E-04 2.67034E-04 1.40571E-05 1.98599E-14 2.85269E-13
 -1      1197 1.99374E+01-4.17524E-04-1.83955E-04 3.49905E-04-3.50055E-15 2.98689E-13
 -1      1198 1.99659E+01-8.04839E-04-7.20578E-04 6.83841E-04 2.75216E-14 1.62196E-13
 -1      1199 2.00000E+01-1.28460E-03-1.37277E-03 1.02150E-03-2.47350E-14 1.12922E-13
 -1      1200 2.00448E+01-1.87617E-03-2.17497E-03 1.36312E-03 1.41014E-14 1.65474E-13
 -1      1201 2.01062E+01-2.59779E-03-3.16359E-03 1.70053E-03-1.81265E-14 9.73243E-14
 -1      1202 2.01916E+01-3.46186E-03-4.37242E-03 2.01265E-03 1.68950E-14 3.82333E-15
 -1      1203 2.03093E+01-4.46684E-03-5.82403E-03 2.25900E-03-8.78914E-15 2.84442E-13
 -1      1204 2.04692E+01-5.58347E-03-7.51398E-03 2.37031E-03-2.75547E-14 5.89444E-13
 -1      1205 2.06825E+01-6.73226E-03-9.38285E-03 2.23554E-03 2.45044E-14 3.51563E-13
 -1      1206 2.09608E+01-7.74800E-03-1.12680E-02 1.68532E-03 1.16883E-14 2.85296E-13
 -1      1207 2.13154E+01-8.32780E-03-1.28249E-02 4.74540E-04-1.02030E-14 2.50907E-13
 -1      1208 2.17541E+01-7.96354E-03-1.34074E-02-1.72677E-03 2.86067E-15 2.65538E-13
 -1      1209 2.22774E+01-5.87533E-03-1.19124E-02-5.31062E-03 3.36385E-15 3.40341E-13
 -1      1210 2.28711E+01-9.99328E-04-6.63876E-03-1.06268E-02 8.06646E-17 5.03424E-13
 -1      1211 2.34955E+01 7.84291E-03 4.67277E-03-1.77111E-02-4.42340E-14 8.09817E-13
 -1      1212 2.40716E+01 2.13752E-02 2.42455E-02-2.57435E-02-2.27414E-14 8.23716E-13
 -1      1213 2.44673E+01 3.86655E-02 5.25681E-02-3.22470E-02-4.15076E-15 4.42913E-13
 -1      1214 2.44952E+01 5.54580E-02 8.53142E-02-3.24302E-02 4.72435E-14 1.06321E-14
 -1      1215 2.39391E+01 6.31198E-02 1.10075E-01-1.98078E-02 5.85469E-15-6.61762E-14
 -1      1216 2.26355E+01 5.12009E-02 1.07068E-01 1.01688E-02-2.96516E-14 1.49464E-13
 -1      1217 2.06097E+01 1.54944E-02 5.95576E-02 5.32937E-02-1.66373E-14 1.96149E-13
 -1      1218 1.82018E+01-3.27536E-02-2.74152E-02 9.21196E-02-3.82797E-14 2.38656E-13
 -1      1219 1.60452E+01-6.82378E-02-1.16531E-01 1.02716E-01-4.79807E-14 6.12205E-13
 -1      1220 1.48024E+01-7.08434E-02-1.57372E-01 7.31380E-02 1.73125E-15 3.78465E-13
 -1      1221 1.47797E+01-4.41092E-02-1.27985E-01 1.72648E-02-1.10701E-13 5.61023E-13
 -1      1222 1.57390E+01-1.07264E-02-5.51973E-02-3.40888E-02-1.95846E-14 5.96204E-13
 -1      1223 1.70904E+01 8.40775E-03 1.04015E-02-5.73106E-02 9.95501E-14-2.47566E-13
 -1      1224 1.82932E+01 9.30244E-03 3.71922E-02-5.22008E-02 3.05923E-14-5.38708E-13
 -1      1225 1.91313E+01 5.00594E-03 3.39356E-02-3.76199E-02 4.72556E-14-4.76230E-13
 -1      1226 1.96786E+01 1.61026E-02 3.93780E-02-3.42922E-02 9.48928E-14-6.35457E-13
 -1      1227 1.99702E+01 1.39948E-02 4.84468E-02-9.48235E-03-1.66625E-14-3.57187E-13
 -1      1228 2.00056E+01-3.69728E-02 3.35843E-02-1.57734E-02-3.69444E-13 3.47806E-14
 -1      1229 1.99831E+01-3.49281E-01-1.75373E-02-4.64808E-02-1.29972E-12-4.56228E-14
 -1      1230 1.99305E+01-5.96450E-01-1.06243E-01-3.66125E-02-7.08582E-13 1.16495E-13
 -1      1231 1.98847E+01-1.41070E-01-1.85516E-01 1.26501E-02-5.26808E-13-9.13887E-14
 -1      1232 1.98691E+01 1.54313E+00-2.13533E-01 9.27385E-02-1.23536E-12-2.68089E-13
 -1      1233 1.99140E+01 4.65093E+00-1.41269E-01 1.80192E-01-1.07592E-12-7.57536E-14
 -1      1234 2.00325E+01 8.71602E+00 4.82284E-02 2.23996E-01-3.39784E-13 1.15723E-13
 -1      1235 2.01814E+01 1.24535E+01 2.82104E-01 1.72174E-01-9.61731E-14 5.77177E-14
 -1      1236 2.02667E+01 1.43344E+01 4.14614E-01 3.21465E-02 8.12746E-13-3.91458E-14
 -1      1237 2.02302E+01 1.34813E+01 3.51443E-01-1.31004E-01-3.73312E-15 8.28504E-15
 -1      1238 2.00883E+01 1.03122E+01 1.35747E-01-2.16612E-01-1.35508E-12 1.81988E-13
 -1      1239 1.99499E+01 6.23223E+00-8.42457E-02-2.02310E-01-9.23817E-13 4.20376E-14
 -1      1240 1.98787E+01 2.72815E+00-1.99155E-01-1.23569E-01-6.95735E-13 2.45120E-13
 -1      1241 1.98777E+01 5.58010E-01-1.98858E-01-3.64797E-02-2.00839E-13 1.20541E-13
 -1      1242 1.99283E+01-3.03295E-01-1.30226E-01 1.71166E-02 1.64901E-13 4.24990E-14
 -1      1243 1.99451E+01-2.64086E-01-3.97441E-02 5.78350E-02-3.95066E-13-1.18775E-13
 -1      1244 2.00078E+01-5.28889E-02 3.12969E-02 2.28770E-02-2.52035E-13 4.54646E-14
 -1      1245-1.44316E+00-2.88506E+01-4.55229E+00-2.80251E+00 3.81362E-13 1.70003E-15
 -1      1246-2.11449E+00-1.75175E+01-3.59699E+00-4.71907E+00-1.31450E-13-1.19571E-13
 -1      1247 1.05085E+00-1.64316E+00-1.85019E+00 7.09342E-01-9.23706E-14 6.79456E-14
 -1      1248 1.28870E+01 1.01783E+01 2.56569E-01 1.12104E+01 1.84963E-13 1.49214E-13
 -1      1249 3.32915E+01 1.27161E+01 2.24297E+00 1.93862E+01 2.56573E-13 2.98428E-13
 -1      1250 5.55812E+01 8.14861E+00 3.75763E+00 1.91762E+01-1.66533E-15-4.19664E-14
 -1      1251 7.03014E+01 3.05690E+00 4.58503E+00 8.85178E+00-1.50921E-14-2.55407E-13
 -1      1252 7.03700E+01 2.54095E+00 4.51486E+00-5.68327E+00 1.04736E-13-4.68958E-13
 -1      1253 5.62204E+01 6.40459E+00 3.56608E+00-1.64027E+01 2.50744E-13-8.48877E-13
 -1      1254 3.44982E+01 1.06527E+01 2.00707E+00-1.80350E+01 6.14175E-13-8.82183E-13
 -1      1255 1.49150E+01 9.78151E+00 3.06259E-01-1.17286E+01 8.00249E-13-1.03251E-12
 -1      1256 2.71598E+00 1.82086E+00-1.34052E+00-2.66299E+00 5.59552E-14-8.57092E-14
 -1      1257-1.83630E+00-1.12840E+01-2.73196E+00 3.77335E+00-8.21565E-15 9.63674E-14
 -1      1258-1.69850E+00-2.34267E+01-3.67172E+00 4.22460E+00-1.64757E-13 1.03154E-13
 -1      1259-9.95531E-01-2.81563E+01-3.96973E+00-7.20413E-02-3.90632E-13-6.99232E-14
 -1      1260-1.67777E+00-2.34344E+01-3.67818E+00-4.45276E+00-1.00697E-12-2.85882E-13
 -1      1261-1.77415E+00-1.08131E+01-2.68526E+00-3.61692E+00-1.70752E-12-8.47322E-13
 -1      1262 3.75202E+00 2.57878E+00-1.22051E+00 3.52707E+00-1.13420E-12-8.91287E-13
 -1      1263 1.80205E+01 1.01156E+01 5.63497E-01 1.30405E+01-7.66942E-13-9.22817E-13
 -1      1264 3.96208E+01 9.73670E+00 2.37004E+00 1.84579E+01-3.49942E-13-6.66578E-13
 -1      1265 6.05245E+01 5.19932E+00 3.81868E+00 1.44294E+01 2.89213E-14 1.51434E-13
 -1      1266 7.21903E+01 1.75219E+00 4.58819E+00 2.80347E+00 1.00829E-13 6.31717E-14
 -1      1267 6.88532E+01 3.59309E+00 4.47105E+00-1.12487E+01-1.77316E-13 5.13034E-13
 -1      1268 5.23634E+01 9.15614E+00 3.57320E+00-2.00390E+01-3.81917E-13 9.17932E-13
 -1      1269 2.93319E+01 1.28819E+01 1.90498E+00-1.84742E+01-4.15890E-13 7.88258E-13
 -1      1270 1.01241E+01 8.70764E+00-1.15482E-01-9.25290E+00-8.03801E-14 1.50102E-13
 -1      1271 1.80497E-01-3.78428E+00-2.09838E+00 5.29076E-01 2.55351E-13-1.61204E-13
 -1      1272-2.08043E+00-1.91102E+01-3.69941E+00 4.98538E+00 1.32716E-12-3.24296E-13
 -1      1273-1.27727E+00-2.94764E+01-4.60325E+00 2.58087E+00 9.04887E-13-3.37896E-13
 -1      1274 2.22682E+01 1.83826E+00-7.25836E-01-2.79046E+00-3.10307E-14-8.14349E-14
 -1      1275 2.03602E+01 4.69015E+00-4.87472E-02-3.30651E+00-3.33344E-14-2.73684E-13
 -1      1276 2.08680E+01 4.81070E+00-1.13351E-01-4.16084E+00-5.77038E-14-2.42278E-13
 -1      1277 1.95316E+01 4.99398E+00-1.97178E-02-2.65415E+00-1.07830E-14-3.05048E-13
 -1      1278 1.98300E+01 5.09041E+00 4.03250E-05-3.04502E+00-2.07820E-14-2.97887E-13
 -1      1279 2.05267E+01 3.95279E+00-2.59881E-02-3.07413E+00-4.62616E-14-2.33355E-13
 -1      1280 1.91852E+01 5.08418E+00-3.39562E-03-2.07046E+00 8.47586E-15-2.99823E-13
 -1      1281 1.93335E+01 5.13939E+00 1.05215E-02-2.36380E+00 4.77396E-15-3.06085E-13
 -1      1282 1.97553E+01 4.36719E+00-2.38596E-02-2.49014E+00-1.18794E-14-2.61235E-13
 -1      1283 1.90089E+01 5.13098E+00 3.46550E-03-1.56426E+00 2.41430E-14-2.78000E-13
 -1      1284 1.90872E+01 5.16071E+00 1.28091E-02-1.81421E+00 1.86257E-14-2.92141E-13
 -1      1285 1.93929E+01 4.55516E+00-1.94903E-02-1.93109E+00 2.16684E-14-2.59515E-13
 -1      1286 1.89150E+01 5.16060E+00 6.55887E-03-1.11681E+00 3.47795E-14-2.53013E-13
 -1      1287 1.89575E+01 5.17699E+00 1.27663E-02-1.33821E+00 3.37308E-14-2.63331E-13
 -1      1288 1.92053E+01 4.66149E+00-1.60461E-02-1.44448E+00 4.29361E-14-2.38858E-13
 -1      1289 1.88634E+01 5.18034E+00 8.18417E-03-6.93656E-01 4.08198E-14-2.17942E-13
 -1      1290 1.88864E+01 5.18922E+00 1.19946E-02-9.03819E-01 3.91857E-14-2.37263E-13
 -1      1291 1.91022E+01 4.72680E+00-1.40007E-02-1.00408E+00 5.83260E-14-2.13364E-13
 -1      1292 1.88394E+01 5.19224E+00 9.27971E-03-2.89088E-01 5.29584E-14-1.87678E-13
 -1      1293 1.88493E+01 5.19608E+00 1.10593E-02-4.91142E-01 4.98373E-14-2.04475E-13
 -1      1294 1.90463E+01 4.76573E+00-1.29280E-02-5.88651E-01 7.30559E-14-1.79391E-13
 -1      1295 1.88356E+01 5.19719E+00 1.02124E-02 1.08182E-01 6.17775E-14-1.58418E-13
 -1      1296 1.88353E+01 5.19705E+00 1.01411E-02-9.14202E-02 5.76858E-14-1.74815E-13
 -1      1297 1.90221E+01 4.78373E+00-1.24782E-02-1.89051E-01 9.33347E-14-1.54217E-13
 -1      1298 1.88510E+01 5.19573E+00 1.11523E-02 5.08485E-01 6.36921E-14-1.26656E-13
 -1      1299 1.88404E+01 5.19161E+00 9.21614E-03 3.06014E-01 6.50486E-14-1.45852E-13
 -1      1300 1.90229E+01 4.78310E+00-1.24952E-02 2.05720E-01 1.03565E-13-1.23429E-13
 -1      1301 1.88898E+01 5.18808E+00 1.20883E-02 9.22642E-01 7.29755E-14-9.12551E-14
 -1      1302 1.88659E+01 5.17902E+00 8.12446E-03 7.11519E-01 6.95392E-14-1.11905E-13
 -1      1303 1.90490E+01 4.76367E+00-1.29810E-02 6.06002E-01 1.10837E-13-9.74047E-14
 -1      1304 1.89619E+01 5.17513E+00 1.28969E-02 1.35578E+00 7.80764E-14-3.90937E-14
 -1      1305 1.89185E+01 5.15836E+00 6.43966E-03 1.13292E+00 7.74723E-14-6.76958E-14
 -1      1306 1.91066E+01 4.72326E+00-1.40031E-02 1.01923E+00 1.18391E-13-6.35915E-14
 -1      1307 1.90949E+01 5.15673E+00 1.28289E-02 1.84039E+00 8.50500E-14 3.27967E-14
 -1      1308 1.90152E+01 5.12634E+00 3.13507E-03 1.58760E+00 7.87148E-14-8.76903E-15
 -1      1309 1.92123E+01 4.65491E+00-1.61464E-02 1.46228E+00 1.29074E-13-1.59595E-16
 -1      1310 1.93439E+01 5.13354E+00 1.01790E-02 2.39748E+00 8.92689E-14 1.24088E-13
 -1      1311 1.91936E+01 5.07637E+00-4.38408E-03 2.10019E+00 8.70727E-14 7.06206E-14
 -1      1312 1.94053E+01 4.54249E+00-1.99833E-02 1.95792E+00 1.36642E-13 6.04169E-14
 -1      1313 1.98559E+01 5.09952E+00 6.06585E-03 3.08363E+00 7.58976E-14 2.69382E-13
 -1      1314 1.95437E+01 4.98448E+00-2.05452E-02 2.69622E+00 7.45862E-14 1.82441E-13
 -1      1315 1.97750E+01 4.34648E+00-2.45585E-02 2.52778E+00 1.33369E-13 1.65062E-13
 -1      1316 2.11040E+01 4.90707E+00 8.32919E-03 4.05379E+00 4.72955E-14 4.81407E-13
 -1      1317 2.03349E+01 4.73392E+00-4.79634E-02 3.41607E+00 5.35127E-14 3.59809E-13
 -1      1318 2.05651E+01 3.91597E+00-2.24049E-02 3.17817E+00 9.47332E-14 3.12708E-13
 -1      1319 2.72036E+01 3.20542E+00 9.29021E-01 4.58223E+00 8.35443E-15 7.52787E-13
 -1      1320 2.20208E+01 3.52224E+00-1.81995E-01 3.88489E+00 1.57652E-14 5.80536E-13
 -1      1321 2.21132E+01 2.56180E+00-3.25393E-02 3.45643E+00 5.96112E-14 4.92134E-13
 -1      1322 2.14278E+01 3.59569E-01-7.63534E-01 1.18376E+00 2.81095E-14 7.66387E-13
 -1      1323 2.20024E+01 1.31296E-01-4.00861E-01-1.28571E+00-5.44148E-14-4.19664E-14
 -1      1324 2.06797E+01 3.06723E-01-1.64792E-01-8.05779E-01-4.18138E-14-1.07366E-13
 -1      1325 2.00820E+01 1.53526E-01-7.35257E-02-4.02042E-01-3.79488E-14-1.19957E-13
 -1      1326 1.96123E+01 9.12232E-02-1.49002E-02-3.29863E-01-3.49373E-14-1.78232E-13
 -1      1327 2.09735E+01 3.69319E-01-1.04173E-01-1.27389E+00-7.83124E-14-1.28404E-13
 -1      1328 1.92550E+01 6.45111E-02 3.05868E-03-1.35211E-01-2.24126E-14-1.85137E-13
 -1      1329 1.91009E+01 4.12581E-02 1.32476E-02-1.17416E-01-1.12080E-14-2.11983E-13
 -1      1330 1.99229E+01 1.33916E-01-3.51142E-02-5.03754E-01-5.13721E-14-1.37739E-13
 -1      1331 1.89406E+01 3.15246E-02 1.32568E-02-2.79136E-02-1.10736E-14-2.27783E-13
 -1      1332 1.89213E+01 1.93849E-02 1.10662E-02-1.85373E-02-3.17472E-14-2.66797E-13
 -1      1333 1.94458E+01 5.54509E-02-8.49383E-03-1.69792E-01-3.56434E-14-1.58287E-13
 -1      1334 1.88653E+01 1.60140E-02 8.77619E-03 2.51072E-02-4.04429E-15-2.52069E-13
 -1      1335 1.89078E+01 9.07523E-03 6.43003E-03 2.97387E-02-2.46597E-14-2.71491E-13
 -1      1336 1.92370E+01 2.43973E-02-3.50781E-03-1.09801E-02-3.25868E-14-1.87047E-13
 -1      1337 1.89079E+01 7.85445E-03 4.66775E-03 5.08987E-02-2.17983E-14-2.58807E-13
 -1      1338 1.89783E+01 3.49635E-03 3.63873E-03 5.27880E-02 3.15514E-15-2.65472E-13
 -1      1339 1.91803E+01 1.02005E-02-2.21876E-03 6.77004E-02-2.59857E-14-1.60260E-13
 -1      1340 1.90078E+01 3.17920E-03 2.44052E-03 6.15653E-02 1.85095E-14-2.51613E-13
 -1      1341 1.90884E+01 3.16408E-04 2.20960E-03 6.18275E-02 1.42972E-14-2.26685E-13
 -1      1342 1.92065E+01 2.76811E-03-1.31993E-03 1.04503E-01 1.23930E-14-1.49637E-13
 -1      1343 1.91320E+01 4.27858E-04 1.33089E-03 6.34778E-02-5.63265E-15-2.31349E-13
 -1      1344 1.92128E+01-1.48507E-03 1.43797E-03 6.27861E-02-2.11830E-14-2.57027E-13
 -1      1345 1.92756E+01-1.32525E-03-5.53021E-04 1.17708E-01-2.36150E-15-1.50787E-13
 -1      1346 1.92613E+01-1.16367E-03 7.45983E-04 6.03516E-02-3.53614E-14-2.62965E-13
 -1      1347 1.93368E+01-2.43554E-03 9.69125E-04 5.91380E-02-3.99419E-14-2.92050E-13
 -1      1348 1.93637E+01-3.53962E-03 7.89829E-06 1.17275E-01-4.80847E-14-1.52291E-13
 -1      1349 1.93848E+01-2.01947E-03 4.09717E-04 5.45013E-02-4.94028E-14-3.06293E-13
 -1      1350 1.94522E+01-2.84307E-03 6.57757E-04 5.30490E-02-2.83617E-14-3.72175E-13
 -1      1351 1.94567E+01-4.61055E-03 3.62294E-04 1.09148E-01-6.09529E-14-1.43284E-13
 -1      1352 1.94967E+01-2.39816E-03 2.06209E-04 4.74136E-02-9.46671E-16-4.15360E-13
 -1      1353 1.95547E+01-2.90287E-03 4.42905E-04 4.59079E-02-1.03339E-14-4.21667E-13
 -1      1354 1.95462E+01-4.96165E-03 5.54436E-04 9.70672E-02-3.97909E-14-1.76478E-13
 -1      1355 1.95942E+01-2.46716E-03 8.30772E-05 4.00485E-02-2.51217E-14-4.16862E-13
 -1      1356 1.96429E+01-2.74363E-03 2.94362E-04 3.86076E-02-4.08821E-14-4.62528E-13
 -1      1357 1.96276E+01-4.85916E-03 6.32107E-04 8.34388E-02-3.17901E-14-2.76530E-13
 -1      1358 1.96767E+01-2.33774E-03 1.25630E-05 3.30180E-02-1.57678E-14-4.47297E-13
 -1      1359 1.97166E+01-2.45047E-03 1.94170E-04 3.17150E-02 1.17441E-14-4.39871E-13
 -1      1360 1.96988E+01-4.47732E-03 6.32977E-04 6.98092E-02-2.87976E-14-2.78907E-13
 -1      1361 1.97450E+01-2.08333E-03-2.21881E-05 2.67037E-02 2.30287E-14-4.24000E-13
 -1      1362 1.97770E+01-2.07783E-03 1.30432E-04 2.55820E-02-8.76025E-15-3.97747E-13
 -1      1363 1.97595E+01-3.92994E-03 5.83646E-04 5.71593E-02 3.06883E-16-2.62922E-13
 -1      1364 1.98005E+01-1.75013E-03-3.22100E-05 2.13398E-02-2.90445E-14-4.12556E-13
 -1      1365 1.98260E+01-1.65750E-03 9.49102E-05 2.04251E-02-2.49663E-14-4.24516E-13
 -1      1366 1.98101E+01-3.28779E-03 5.01707E-04 4.61020E-02-1.87687E-14-3.11256E-13
 -1      1367 1.98454E+01-1.36386E-03-2.49848E-05 1.70750E-02 1.02274E-14-4.13982E-13
 -1      1368 1.98656E+01-1.20406E-03 8.18531E-05 1.63841E-02-1.73960E-14-4.17719E-13
 -1      1369 1.98521E+01-2.58938E-03 3.97831E-04 3.70239E-02-1.62318E-14-2.61314E-13
 -1      1370 1.98820E+01-9.34355E-04-5.69680E-06 1.40195E-02-1.66998E-14-4.00147E-13
 -1      1371 1.98985E+01-7.18680E-04 8.72930E-05 1.35677E-02-4.54313E-14-4.17089E-13
 -1      1372 1.98871E+01-1.84827E-03 2.77381E-04 3.01920E-02-1.63084E-14-3.03844E-13
 -1      1373 1.99130E+01-4.58900E-04 2.19462E-05 1.22818E-02-3.31751E-14-4.01428E-13
 -1      1374 1.99275E+01-1.92078E-04 1.08558E-04 1.20884E-02 2.85973E-14-4.56468E-13
 -1      1375 1.99173E+01-1.05821E-03 1.41601E-04 2.58354E-02-1.30685E-14-2.88960E-13
 -1      1376 1.99415E+01 7.54047E-05 5.50933E-05 1.19978E-02 9.58358E-14-4.53891E-13
 -1      1377 1.99557E+01 3.93379E-04 1.43863E-04 1.20911E-02 3.36135E-14-3.91634E-13
 -1      1378 1.99453E+01-1.96945E-04-1.14809E-05 2.42100E-02 5.07476E-14-2.74232E-13
 -1      1379 1.99708E+01 6.89767E-04 9.12115E-05 1.33547E-02 6.56221E-14-3.78662E-13
 -1      1380 1.99868E+01 1.06184E-03 1.91910E-04 1.37756E-02 7.07268E-14-2.46045E-13
 -1      1381 1.99739E+01 7.70971E-04-1.86358E-04 2.56492E-02 1.13190E-13-1.69394E-13
 -1      1382 2.00047E+01 1.41212E-03 1.27545E-04 1.66093E-02 3.56662E-14-1.93841E-13
 -1      1383 2.00248E+01 1.84223E-03 2.51409E-04 1.74143E-02-1.60067E-14-1.47916E-13
 -1      1384 2.00062E+01 1.89187E-03-3.89438E-04 3.06046E-02 9.22078E-14-2.24137E-13
 -1      1385 2.00476E+01 2.27539E-03 1.60504E-04 2.21019E-02-5.17018E-14-1.29005E-13
 -1      1386 2.00747E+01 2.76599E-03 3.20446E-04 2.33654E-02-2.91368E-14-2.06060E-13
 -1      1387 2.00462E+01 3.22056E-03-6.28449E-04 3.96765E-02-5.43853E-14-1.31863E-13
 -1      1388 2.01049E+01 3.31511E-03 1.84909E-04 3.02635E-02-6.32529E-15-2.01530E-13
 -1      1389 2.01422E+01 3.86387E-03 3.95594E-04 3.20793E-02 1.21886E-15-2.46887E-13
 -1      1390 2.00983E+01 4.81712E-03-9.11715E-04 5.36329E-02-5.39672E-14-9.61679E-14
 -1      1391 2.01826E+01 4.56548E-03 1.93020E-04 4.16139E-02 5.08861E-14-1.95606E-13
 -1      1392 2.02342E+01 5.16035E-03 4.70619E-04 4.40935E-02 9.72198E-14-5.06284E-14
 -1      1393 2.01676E+01 6.74136E-03-1.24715E-03 7.34115E-02 6.62977E-14-1.63503E-15
 -1      1394 2.02883E+01 6.05247E-03 1.73314E-04 5.67425E-02 8.50907E-14-4.32899E-14
 -1      1395 2.03588E+01 6.66409E-03 5.34661E-04 6.00106E-02 1.98460E-14 4.73222E-14
 -1      1396 2.02603E+01 9.04297E-03-1.64070E-03 1.00094E-01 1.29055E-13-1.08168E-13
 -1      1397 2.04304E+01 7.78141E-03 1.09057E-04 7.62600E-02-4.35799E-14 2.30698E-14
 -1      1398 2.05254E+01 8.35136E-03 5.69844E-04 8.04432E-02-3.68331E-14-9.66525E-14
 -1      1399 2.03834E+01 1.17432E-02-2.09375E-03 1.34835E-01-1.42006E-14-4.45212E-14
 -1      1400 2.06187E+01 9.71516E-03-2.29510E-05 1.00700E-01-2.58248E-14-1.62561E-13
 -1      1401 2.07443E+01 1.01375E-02 5.48647E-04 1.05903E-01-7.28286E-14-1.82131E-13
 -1      1402 2.05449E+01 1.48019E-02-2.59891E-03 1.78704E-01-1.11964E-13-1.28926E-13
 -1      1403 2.08638E+01 1.17362E-02-2.52347E-04 1.30332E-01 2.62518E-14-1.78059E-13
 -1      1404 2.10265E+01 1.18293E-02 4.32334E-04 1.36591E-01 5.29041E-14-1.90550E-13
 -1      1405 2.07531E+01 1.80585E-02-3.13278E-03 2.32392E-01 4.38863E-15-2.07510E-13
 -1      1406 2.11763E+01 1.35831E-02-6.11152E-04 1.64828E-01 1.51643E-14-1.59190E-13
 -1      1407 2.13819E+01 1.30489E-02 1.73860E-04 1.72035E-01-3.96113E-14-1.62210E-13
 -1      1408 2.10165E+01 2.11314E-02-3.64382E-03 2.95683E-01 3.36656E-14-8.64987E-14
 -1      1409 2.15647E+01 1.47500E-02-1.11997E-03 2.02704E-01-1.59799E-13-5.92373E-14
 -1      1410 2.18171E+01 1.31213E-02-2.67601E-04 2.10457E-01-9.36837E-14-1.77526E-13
 -1      1411 2.13418E+01 2.32556E-02-4.03210E-03 3.66548E-01-1.20334E-13-9.79444E-14
 -1      1412 2.20332E+01 1.43403E-02-1.75454E-03 2.40411E-01-7.24468E-14-1.66086E-13
 -1      1413 2.23310E+01 1.09280E-02-8.88731E-04 2.47796E-01-8.11044E-14-2.08583E-13
 -1      1414 2.17324E+01 2.30396E-02-4.11701E-03 4.39688E-01-1.89141E-13-4.90088E-14
 -1      1415 2.25754E+01 1.08908E-02-2.38023E-03 2.71022E-01-5.07436E-14-2.61678E-13
 -1      1416 2.29080E+01 4.77684E-03-1.56914E-03 2.76269E-01 1.75194E-14-3.37879E-13
 -1      1417 2.21843E+01 1.81635E-02-3.59072E-03 5.04348E-01-9.32479E-14-6.62794E-15
 -1      1418 2.31676E+01 2.25102E-03-2.65277E-03 2.82568E-01 1.07417E-13-4.46398E-13
 -1      1419 2.35077E+01-7.56233E-03-1.96622E-03 2.82638E-01-5.70182E-16-3.45451E-13
 -1      1420 2.26808E+01 5.14686E-03-1.96651E-03 5.41450E-01 2.84107E-14-6.57998E-14
 -1      1421 2.37566E+01-1.42289E-02-1.92025E-03 2.56639E-01-1.94714E-14-3.02577E-13
 -1      1422 2.40529E+01-2.83001E-02-1.44728E-03 2.46915E-01 4.05015E-14-3.38455E-13
 -1      1423 2.31856E+01-2.04235E-02 1.43660E-03 5.20773E-01 3.59912E-15-1.50004E-13
 -1      1424 2.42489E+01-4.06967E-02 7.15647E-04 1.68902E-01-4.91430E-14-3.11974E-13
 -1      1425 2.44189E+01-5.79639E-02 7.82141E-04 1.43518E-01-4.44124E-14-3.83168E-13
 -1      1426 2.36344E+01-6.23588E-02 7.36098E-03 4.00486E-01-2.97592E-15-1.66617E-13
 -1      1427 2.45020E+01-7.62136E-02 5.94585E-03-5.07334E-03-4.74829E-14-4.37244E-13
 -1      1428 2.44356E+01-9.20613E-02 5.12254E-03-5.12129E-02-5.48771E-14-4.39703E-13
 -1      1429 2.39293E+01-1.19810E-01 1.61201E-02 1.34047E-01-7.39599E-14-3.48283E-13
 -1      1430 2.43349E+01-1.12190E-01 1.31628E-02-2.74096E-01-4.48773E-15-5.61258E-13
 -1      1431 2.39196E+01-1.16837E-01 1.02735E-02-3.40249E-01 1.93769E-15-5.67723E-13
 -1      1432 2.39419E+01-1.80093E-01 2.65789E-02-3.07879E-01-3.25226E-14-3.84393E-13
 -1      1433 2.35747E+01-1.28682E-01 1.87253E-02-6.04696E-01 4.68289E-14-4.15813E-13
 -1      1434 2.27541E+01-1.08961E-01 1.23290E-02-6.76987E-01 1.35211E-13-3.23144E-13
 -1      1435 2.35389E+01-2.12030E-01 3.45676E-02-8.95324E-01 3.54855E-14-2.62580E-13
 -1      1436 2.21558E+01-9.83788E-02 1.66957E-02-8.97387E-01 1.27589E-14-3.78780E-13
 -1      1437 2.10085E+01-4.69315E-02 6.10505E-03-9.44872E-01-1.37975E-13-5.17877E-13
 -1      1438 2.26408E+01-1.72240E-01 3.21849E-02-1.49058E+00 2.26208E-14-2.34545E-13
 -1      1439 2.02473E+01-8.27771E-03 3.07848E-03-1.00130E+00-1.45420E-13-4.96811E-13
 -1      1440 1.90306E+01 6.23869E-02-9.39833E-03-9.87934E-01-7.82638E-14-7.50233E-13
 -1      1441 2.13149E+01-3.58628E-02 1.22399E-02-1.84311E+00-1.71648E-13-2.39312E-13
 -1      1442 1.83087E+01 1.11304E-01-1.67561E-02-8.01572E-01-7.28983E-14-8.49369E-13
 -1      1443 1.73879E+01 1.65972E-01-2.61789E-02-7.16614E-01-5.89043E-14-8.40945E-13
 -1      1444 1.98463E+01 1.58409E-01-2.23861E-02-1.69846E+00-1.84353E-13-3.22818E-13
 -1      1445 1.69398E+01 1.88782E-01-2.93212E-02-3.39294E-01 2.66384E-14-8.34721E-13
 -1      1446 1.65966E+01 1.94659E-01-3.10801E-02-2.20156E-01 4.31859E-14-8.16647E-13
 -1      1447 1.86804E+01 3.07011E-01-5.17662E-02-1.00944E+00-2.49870E-14-5.35421E-13
 -1      1448 1.65364E+01 1.73166E-01-2.52366E-02 1.71794E-01 2.61683E-14-6.47388E-13
 -1      1449 1.67929E+01 1.28744E-01-1.87407E-02 2.63641E-01 6.91253E-14-5.25371E-13
 -1      1450 1.81817E+01 3.16818E-01-5.41052E-02-6.11064E-02 1.60632E-13-4.39820E-13
 -1      1451 1.70383E+01 7.92813E-02-8.37753E-03 4.88384E-01 1.71423E-13-5.04499E-13
 -1      1452 1.76494E+01 1.83520E-02 1.60760E-03 5.12895E-01 1.91379E-13-2.77979E-13
 -1      1453 1.83842E+01 1.87749E-01-2.75049E-02 6.92879E-01 2.03313E-13-3.74277E-13
 -1      1454 1.79891E+01-1.87452E-02 6.92292E-03 5.18204E-01 1.56983E-13-2.67814E-13
 -1      1455 1.86275E+01-5.94154E-02 1.51577E-02 4.87880E-01 5.00151E-14-1.28425E-13
 -1      1456 1.89728E+01 1.08139E-02 4.28640E-03 9.56407E-01 2.32529E-13-1.86155E-13
 -1      1457 1.88870E+01-6.48951E-02 1.12086E-02 3.60178E-01-8.27203E-15-1.01433E-13
 -1      1458 1.93449E+01-7.28057E-02 1.59250E-02 3.14426E-01 4.90562E-14 1.61919E-14
 -1      1459 1.95509E+01-1.00016E-01 2.08834E-02 7.86613E-01 9.03713E-14-1.79199E-13
 -1      1460 1.94650E+01-5.20343E-02 6.08927E-03 1.82454E-01 1.73658E-13 7.95856E-14
 -1      1461 1.97249E+01-3.90495E-02 1.08560E-02 1.55702E-01 9.99608E-14 1.80553E-13
 -1      1462 1.98892E+01-1.06605E-01 1.88511E-02 4.57597E-01 1.34709E-13-6.95524E-14
 -1      1463 1.97470E+01-1.56233E-02 2.53299E-03 9.53903E-02-1.02869E-14 2.06311E-13
 -1      1464 1.99077E+01-1.19423E-02 1.42610E-02 9.03566E-02-5.62050E-14 2.53828E-13
 -1      1465 1.99893E+01-4.21145E-02 1.41100E-02 2.20897E-01 1.19625E-13-1.08218E-13
 -1      1466 1.99386E+01-3.56364E-02 2.06401E-02 4.52775E-02-2.83900E-13 2.07079E-13
 -1      1467 1.99958E+01-5.33302E-02 1.08805E-02 1.13146E-01-1.87649E-13 5.20530E-14
 -1      1468 2.02607E+01 7.54728E-02-1.52088E-01 4.83788E-01 1.48354E-14 7.18061E-13
 -1      1469 2.15309E+01 2.16134E-01-2.29285E-01 7.20775E-01 1.90958E-14 7.37341E-13
 -1      1470 2.17295E+01 8.81743E-01-8.54755E-02 2.06471E+00 3.40977E-14 5.57401E-13
 -1      1471 1.93326E+01 3.23812E-02-2.13302E-02 1.85956E-01 2.31967E-14 6.82288E-13
 -1      1472 1.97532E+01 1.13620E-01-6.26972E-02 2.37966E-01 1.37043E-14 6.91232E-13
 -1      1473 2.03044E+01 1.87669E-01-5.51930E-02 7.86062E-01 2.77833E-14 5.06067E-13
 -1      1474 1.89510E+01 1.51080E-02 5.66584E-03 5.34496E-02 2.16788E-14 6.28594E-13
 -1      1475 1.90895E+01 5.16310E-02 9.78710E-04 7.97674E-02 2.08392E-14 6.53380E-13
 -1      1476 1.95594E+01 7.18378E-02-1.21589E-02 2.98877E-01 3.93418E-14 4.59974E-13
 -1      1477 1.88407E+01 7.12324E-03 6.97422E-03-9.05857E-03 4.78684E-14 5.95793E-13
 -1      1478 1.88552E+01 2.58669E-02 1.10881E-02 5.34814E-03 2.72044E-14 6.22089E-13
 -1      1479 1.92242E+01 3.10404E-02-2.46785E-03 8.33692E-02 4.04780E-14 4.17180E-13
 -1      1480 1.88669E+01 3.20741E-03 4.78209E-03-3.93123E-02-1.20485E-14 5.57290E-13
 -1      1481 1.88230E+01 1.38116E-02 8.51929E-03-3.11890E-02 3.36059E-15 5.65013E-13
 -1      1482 1.91077E+01 1.32648E-02-1.62247E-03-2.16223E-02 4.11090E-14 4.00815E-13
 -1      1483 1.89611E+01 1.04863E-03 3.29438E-03-5.27267E-02-1.53554E-14 5.97113E-13
 -1      1484 1.88906E+01 7.27843E-03 5.36671E-03-4.82531E-02-1.61164E-14 5.64051E-13
 -1      1485 1.91090E+01 4.53103E-03-1.63692E-03-7.30934E-02-1.38724E-14 4.15683E-13
 -1      1486 1.90854E+01-2.01083E-04 2.51220E-03-5.66513E-02 2.01445E-14 5.72190E-13
 -1      1487 1.90053E+01 3.44169E-03 3.43005E-03-5.44372E-02 1.16327E-14 5.81752E-13
 -1      1488 1.91717E+01-1.25391E-04-1.38062E-03-9.56899E-02 7.71350E-15 4.09982E-13
 -1      1489 1.92181E+01-9.10355E-04 2.04779E-03-5.51153E-02 2.03252E-14 5.07256E-13
 -1      1490 1.91379E+01 1.10638E-03 2.32747E-03-5.43233E-02 2.66619E-14 5.42739E-13
 -1      1491 1.92636E+01-2.64696E-03-1.00430E-03-1.01817E-01 4.42933E-14 3.74719E-13
 -1      1492 1.93465E+01-1.27441E-03 1.70430E-03-5.05493E-02 3.88769E-14 4.20109E-13
 -1      1493 1.92717E+01-3.04727E-04 1.64919E-03-5.06382E-02 1.12623E-14 4.43646E-13
 -1      1494 1.93655E+01-3.92113E-03-6.60835E-04-9.84672E-02 5.26627E-14 2.71137E-13
 -1      1495 1.94637E+01-1.41338E-03 1.41485E-03-4.44927E-02-8.56625E-15 4.30715E-13
 -1      1496 1.93971E+01-1.11511E-03 1.18925E-03-4.51013E-02 1.38708E-14 4.47742E-13
 -1      1497 1.94663E+01-4.42538E-03-3.95881E-04-8.99066E-02 1.99643E-14 2.50634E-13
 -1      1498 1.95666E+01-1.40660E-03 1.16149E-03-3.79350E-02 3.53878E-14 4.36818E-13
 -1      1499 1.95092E+01-1.52631E-03 8.58164E-04-3.88194E-02 2.37752E-14 4.62691E-13
 -1      1500 1.95596E+01-4.44879E-03-2.06270E-04-7.88451E-02 1.15447E-14 3.89465E-13
 -1      1501 1.96540E+01-1.30760E-03 9.39674E-04-3.15085E-02-1.15163E-14 4.21785E-13
 -1      1502 1.96059E+01-1.67131E-03 6.14342E-04-3.25036E-02 2.18789E-15 3.94476E-13
 -1      1503 1.96423E+01-4.17735E-03-7.70993E-05-6.70270E-02 2.71188E-14 3.59321E-13
 -1      1504 1.97265E+01-1.15197E-03 7.47294E-04-2.56082E-02-2.40099E-14 4.51214E-13
 -1      1505 1.96872E+01-1.63970E-03 4.34629E-04-2.66031E-02-2.33881E-14 4.19443E-13
 -1      1506 1.97132E+01-3.73313E-03 5.74760E-06-5.55673E-02-1.95346E-14 2.69664E-13
 -1      1507 1.97855E+01-9.62025E-04 5.81934E-04-2.04751E-02 5.41273E-14 3.66297E-13
 -1      1508 1.97539E+01-1.49100E-03 3.03913E-04-2.13951E-02 4.10620E-14 4.16582E-13
 -1      1509 1.97726E+01-3.19474E-03 5.30102E-05-4.51675E-02 3.87127E-14 1.77017E-13
 -1      1510 1.98330E+01-7.49989E-04 4.40371E-04-1.62558E-02-3.69042E-14 3.36829E-13
 -1      1511 1.98079E+01-1.26260E-03 2.11411E-04-1.70491E-02-1.06497E-14 3.34223E-13
 -1      1512 1.98216E+01-2.60939E-03 7.20476E-05-3.62634E-02 2.35283E-14 2.64574E-13
 -1      1513 1.98714E+01-5.20260E-04 3.18634E-04-1.30477E-02 1.68852E-14 3.34842E-13
 -1      1514 1.98515E+01-9.74945E-04 1.49142E-04-1.36751E-02 1.17752E-14 3.38125E-13
 -1      1515 1.98620E+01-2.00079E-03 6.72453E-05-2.91339E-02 1.66070E-14 1.94843E-13
 -1      1516 1.99033E+01-2.71051E-04 2.12138E-04-1.09343E-02 7.95723E-14 2.43525E-13
 -1      1517 1.98870E+01-6.35128E-04 1.11144E-04-1.13603E-02 5.83718E-14 3.24835E-13
 -1      1518 1.98958E+01-1.37484E-03 4.03281E-05-2.39828E-02 7.76445E-14 1.23484E-13
 -1      1519 1.99318E+01 4.38502E-06 1.15789E-04-1.00121E-02-1.77097E-14 1.50939E-13
 -1      1520 1.99175E+01-2.39355E-04 9.29740E-05-1.01982E-02 2.99980E-14 1.97298E-13
 -1      1521 1.99254E+01-7.23659E-04-9.44803E-06-2.10017E-02 6.97844E-14 1.77669E-13
 -1      1522 1.99600E+01 3.16736E-04 2.40812E-05-1.04128E-02 4.07166E-14 1.20264E-13
 -1      1523 1.99460E+01 2.25162E-04 9.13485E-05-1.03110E-02 9.09233E-15 1.61780E-13
 -1      1524 1.99536E+01-2.86097E-05-8.51709E-05-2.04195E-02 2.18210E-14 6.33263E-14
 -1      1525 1.99918E+01 6.79675E-04-6.88376E-05-1.23195E-02-5.01531E-14 4.25837E-14
 -1      1526 1.99760E+01 7.78635E-04 1.03838E-04-1.18673E-02-2.63297E-14 8.03969E-14
 -1      1527 1.99836E+01 7.37136E-04-1.92190E-04-2.25410E-02-1.42165E-14 2.20070E-14
 -1      1528 2.00314E+01 1.10877E-03-1.69138E-04-1.59796E-02-4.41165E-14 1.32248E-13
 -1      1529 2.00115E+01 1.44715E-03 1.28553E-04-1.50950E-02-2.38673E-14 9.78829E-14
 -1      1530 2.00188E+01 1.60620E-03-3.38037E-04-2.77754E-02-7.78636E-14 6.95136E-14
 -1      1531 2.00839E+01 1.61994E-03-2.83273E-04-2.17109E-02 2.82803E-14 8.36322E-14
 -1      1532 2.00571E+01 2.26070E-03 1.63753E-04-2.02889E-02 4.37725E-15 1.10506E-13
 -1      1533 2.00635E+01 2.61428E-03-5.32266E-04-3.66548E-02 2.55331E-14 1.06097E-13
 -1      1534 2.01551E+01 2.22707E-03-4.17869E-04-2.98992E-02 4.28885E-14 2.02207E-14
 -1      1535 2.01183E+01 3.25015E-03 2.07332E-04-2.78100E-02 3.69517E-14 7.00757E-14
 -1      1536 2.01226E+01 3.79630E-03-7.86078E-04-4.98380E-02 5.43915E-14 2.35175E-14
 -1      1537 2.02522E+01 2.93790E-03-5.79396E-04-4.09842E-02-5.49294E-14 7.71642E-14
 -1      1538 2.02015E+01 4.44215E-03 2.56099E-04-3.80736E-02-1.13283E-14 4.64717E-14
 -1      1539 2.02016E+01 5.18041E-03-1.11150E-03-6.80952E-02 2.11332E-14-4.55023E-14
 -1      1540 2.03832E+01 3.74716E-03-7.73321E-04-5.54208E-02-1.37416E-13 3.76850E-13
 -1      1541 2.03140E+01 5.85019E-03 3.04814E-04-5.15166E-02-1.19361E-13 2.37589E-13
 -1      1542 2.03072E+01 6.77782E-03-1.51966E-03-9.22574E-02-2.20761E-13 2.13824E-13
 -1      1543 2.05572E+01 4.62511E-03-1.00211E-03-7.36049E-02 1.71132E-14 5.07895E-13
 -1      1544 2.04645E+01 7.45923E-03 3.44980E-04-6.85332E-02-7.02498E-15 4.63029E-13
 -1      1545 2.04466E+01 8.56575E-03-2.01746E-03-1.23112E-01-8.34706E-14 3.05065E-13
 -1      1546 2.07839E+01 5.49864E-03-1.26078E-03-9.57362E-02 6.83230E-14 2.57747E-13
 -1      1547 2.06622E+01 9.19957E-03 3.63661E-04-8.93543E-02 9.56587E-14 4.08997E-13
 -1      1548 2.06277E+01 1.04587E-02-2.60129E-03-1.61207E-01 1.38148E-13 3.48376E-13
 -1      1549 2.10727E+01 6.22155E-03-1.52763E-03-1.21581E-01-4.83825E-14 2.97839E-13
 -1      1550 2.09165E+01 1.09039E-02 3.43139E-04-1.13841E-01-7.44717E-14 2.97324E-13
 -1      1551 2.08583E+01 1.22614E-02-3.24554E-03-2.06509E-01-5.50794E-14 3.27810E-13
 -1      1552 2.14311E+01 6.53030E-03-1.74587E-03-1.50083E-01 7.14836E-15 3.67244E-13
 -1      1553 2.12360E+01 1.22403E-02 2.63468E-04-1.41142E-01-7.45064E-15 3.65767E-13
 -1      1554 2.11453E+01 1.35943E-02-3.88282E-03-2.57830E-01-1.20549E-13 4.67862E-13
 -1      1555 2.18615E+01 5.98523E-03-1.79078E-03-1.78747E-01-5.89613E-14 3.55836E-13
 -1      1556 2.16258E+01 1.26146E-02 1.11983E-04-1.69156E-01 7.22079E-16 2.52914E-13
 -1      1557 2.14923E+01 1.37842E-02-4.37132E-03-3.11926E-01 3.06391E-14 2.89908E-13
 -1      1558 2.23565E+01 3.90901E-03-1.41850E-03-2.02764E-01-3.84846E-14 4.50856E-13
 -1      1559 2.20839E+01 1.10506E-02-9.38000E-05-1.93749E-01-4.70567E-14 2.86972E-13
 -1      1560 2.18970E+01 1.17220E-02-4.44706E-03-3.62156E-01-5.05462E-14 2.95326E-13
 -1      1561 2.28915E+01-6.33932E-04-2.07137E-04-2.13900E-01-3.41431E-14 5.85728E-13
 -1      1562 2.25958E+01 6.08861E-03-2.63912E-04-2.07756E-01-1.09011E-14 4.74659E-13
 -1      1563 2.23464E+01 5.72764E-03-3.66703E-03-3.96699E-01-5.00382E-14 4.86729E-13
 -1      1564 2.34153E+01-8.70769E-03 2.45745E-03-1.99498E-01 9.22548E-15 6.73640E-13
 -1      1565 2.31259E+01-4.16573E-03-1.79975E-04-2.00000E-01-3.43276E-14 6.30286E-13
 -1      1566 2.28105E+01-6.44669E-03-1.37852E-03-3.96649E-01-3.30671E-14 5.18515E-13
 -1      1567 2.38401E+01-2.10084E-02 7.21382E-03-1.42562E-01 1.93196E-14 6.04447E-13
 -1      1568 2.36083E+01-2.15570E-02 5.34632E-04-1.55111E-01 5.44963E-14 6.66842E-13
 -1      1569 2.32354E+01-2.71629E-02 3.19265E-03-3.35106E-01-3.26779E-15 5.73731E-13
 -1      1570 2.40356E+01-3.67443E-02 1.41475E-02-2.49518E-02 1.38218E-13 2.23291E-13
 -1      1571 2.39382E+01-4.65223E-02 2.29807E-03-5.57955E-02 1.36504E-13 4.20091E-13
 -1      1572 2.35376E+01-5.74170E-02 1.05705E-02-1.79824E-01 2.43974E-13 4.41574E-13
 -1      1573 2.38405E+01-5.19423E-02 2.16818E-02 1.63496E-01 1.45122E-13-5.37469E-14
 -1      1574 2.39733E+01-7.55987E-02 5.14277E-03 1.09935E-01 5.55797E-14 7.75643E-14
 -1      1575 2.36042E+01-9.38779E-02 2.01746E-02 9.62410E-02 1.71032E-13 6.56428E-14
 -1      1576 2.31038E+01-5.81122E-02 2.54989E-02 4.08530E-01-1.29508E-13 1.13805E-13
 -1      1577 2.35560E+01-9.85688E-02 7.97326E-03 3.34861E-01-5.86094E-14 5.84185E-14
 -1      1578 2.33109E+01-1.24774E-01 2.92508E-02 4.92509E-01-5.10651E-14 1.86942E-13
 -1      1579 2.17680E+01-4.41316E-02 1.91304E-02 6.53064E-01-6.96578E-14 2.16466E-13
 -1      1580 2.25710E+01-9.83316E-02 8.11175E-03 5.75073E-01-3.94042E-15 1.52330E-13
 -1      1581 2.25647E+01-1.28204E-01 3.24533E-02 9.48806E-01-8.05727E-14 2.01089E-13
 -1      1582 1.99727E+01-4.72927E-03-1.63481E-03 7.96349E-01 1.93979E-14 3.18856E-13
 -1      1583 2.10382E+01-5.91873E-02 2.21023E-03 7.43717E-01-8.23447E-14 2.32751E-13
 -1      1584 2.13763E+01-7.89699E-02 2.46061E-02 1.32461E+00-6.65735E-14 3.06585E-13
 -1      1585 1.81040E+01 4.85031E-02-3.17769E-02 7.37016E-01-1.55613E-13 5.01460E-13
 -1      1586 1.91974E+01 1.64143E-02-1.05129E-02 7.40306E-01-4.65045E-14 3.62571E-13
 -1      1587 1.99285E+01 2.74211E-02 4.90685E-03 1.43116E+00-1.01354E-13 6.39603E-13
 -1      1588 1.66901E+01 8.70527E-02-5.45078E-02 4.52108E-01 1.03039E-13 3.96697E-13
 -1      1589 1.74979E+01 9.71464E-02-2.43975E-02 5.19379E-01-3.04097E-15 4.47947E-13
 -1      1590 1.85741E+01 1.54176E-01-1.79062E-02 1.14209E+00 1.41536E-14 4.22017E-13
 -1      1591 1.61370E+01 8.60429E-02-5.28078E-02 4.87044E-02-2.50492E-13 3.60252E-13
 -1      1592 1.64261E+01 1.37501E-01-2.93415E-02 1.51367E-01-3.88752E-14 3.59296E-13
 -1      1593 1.77002E+01 2.29875E-01-3.05165E-02 5.20426E-01-1.75207E-15 3.23485E-13
 -1      1594 1.64777E+01 4.83058E-02-2.67826E-02-2.91057E-01 6.70106E-14 5.07483E-13
 -1      1595 1.62378E+01 1.15742E-01-2.00969E-02-2.01376E-01-1.23065E-13 3.48565E-13
 -1      1596 1.75094E+01 2.03137E-01-2.73733E-02-1.71237E-01-1.26964E-13 3.01871E-13
 -1      1597 1.73701E+01 1.74852E-03 5.24412E-03-4.38311E-01 2.19905E-13 1.28099E-13
 -1      1598 1.68091E+01 5.33587E-02-2.38853E-03-3.95173E-01 2.19198E-13 4.08167E-13
 -1      1599 1.78994E+01 9.43214E-02-1.48818E-02-6.38403E-01 2.79795E-13 1.91982E-13
 -1      1600 1.83479E+01-2.53196E-02 2.39889E-02-3.98333E-01 1.36489E-13-2.31731E-13
 -1      1601 1.77415E+01-4.99489E-03 1.21952E-02-4.00089E-01 1.86300E-13 7.17898E-14
 -1      1602 1.85538E+01-2.14687E-02-4.00546E-03-7.54885E-01 3.48723E-13 1.89508E-13
 -1      1603 1.91047E+01-2.55938E-02 2.48647E-02-2.75298E-01 7.01002E-15-3.37272E-13
 -1      1604 1.86310E+01-2.94132E-02 1.67985E-02-2.95783E-01 5.07858E-14-2.64885E-13
 -1      1605 1.91618E+01-7.90784E-02 1.12917E-04-6.13733E-01 1.13376E-13 4.47177E-14
 -1      1606 1.95857E+01-1.53123E-02 1.78616E-02-1.71681E-01 7.93150E-14-3.35270E-13
 -1      1607 1.92730E+01-2.37774E-02 1.33671E-02-1.87484E-01 1.70411E-14-3.25288E-13
 -1      1608 1.95739E+01-6.97440E-02 2.11222E-04-4.06144E-01 7.32973E-14-2.33007E-13
 -1      1609 1.98752E+01-1.90586E-02 1.95282E-02-1.12353E-01-5.83405E-14-4.83115E-13
 -1      1610 1.96791E+01-1.77965E-02 1.24634E-02-1.16761E-01 2.24126E-14-4.38212E-13
 -1      1611 1.98130E+01-4.19179E-02 6.54438E-03-2.56356E-01 8.41055E-14-2.73080E-13
 -1      1612 1.99436E+01-5.37727E-02 2.47047E-02-4.97649E-02-2.11156E-13-2.42334E-13
 -1      1613 2.00357E+01-2.66395E-01 2.21960E-03-1.11811E-01-4.97595E-13-5.56031E-14
 -1      1614 2.00025E+01-1.45726E-01 9.41101E-03-1.12205E-01-4.53779E-13-4.84161E-14
 -1      1615 2.01186E+01-1.69338E-01-9.28041E-03 7.19944E-02-4.13190E-13 1.90507E-13
 -1      1616 2.00798E+01-2.49898E-01-5.14843E-03 1.84887E-02-5.61790E-13 1.10252E-13
 -1      1617 2.00962E+01-1.63773E-01-1.73081E-02-6.87175E-02-1.36826E-13 4.41990E-14
 -1      1618 2.01793E+01 5.90547E-01-2.09077E-02 4.64223E-01-6.08298E-13-1.74853E-13
 -1      1619 2.01573E+01 5.46231E-02-2.07502E-02 3.68082E-01-4.89722E-13 6.77913E-14
 -1      1620 2.02494E+01 3.76798E-02-3.51616E-02 4.41518E-01-2.89997E-13 1.64774E-13
 -1      1621 2.01857E+01 2.29270E+00-2.72963E-02 9.85472E-01-7.96793E-13-1.66559E-13
 -1      1622 2.02031E+01 1.14737E+00-3.30791E-02 8.67777E-01-6.28698E-13-1.44346E-13
 -1      1623 2.03335E+01 7.64012E-01-5.38393E-02 1.28344E+00-3.49352E-13-2.68258E-13
 -1      1624 2.00926E+01 4.91133E+00-1.97086E-02 1.43930E+00-5.52669E-13-2.56375E-14
 -1      1625 2.01685E+01 3.22829E+00-3.30835E-02 1.35258E+00-7.59420E-13-9.88307E-14
 -1      1626 2.03000E+01 2.20528E+00-5.27513E-02 2.22788E+00-2.86243E-13-3.55358E-14
 -1      1627 1.98964E+01 7.91601E+00 7.30852E-03 1.53023E+00-1.50366E-13 3.16523E-13
 -1      1628 2.00175E+01 6.09833E+00-1.15759E-02 1.54627E+00-5.14741E-13 2.15839E-13
 -1      1629 2.00828E+01 4.30044E+00-1.89295E-02 2.83198E+00-2.79901E-13 2.54803E-13
 -1      1630 1.96867E+01 1.02801E+01 4.10772E-02 1.05274E+00 6.13745E-14 1.55469E-13
 -1      1631 1.97909E+01 8.99026E+00 2.55058E-02 1.20133E+00-2.28026E-13 2.19637E-13
 -1      1632 1.97255E+01 6.57507E+00 4.68396E-02 2.58820E+00-2.55906E-13 3.75977E-13
 -1      1633 1.95991E+01 1.10795E+01 5.69068E-02 8.88397E-02 3.14108E-13-4.36734E-14
 -1      1634 1.96230E+01 1.08418E+01 5.53912E-02 3.24167E-01 1.05686E-13 1.62745E-13
 -1      1635 1.94167E+01 8.24233E+00 1.10867E-01 1.30405E+00-1.04469E-13 3.60600E-13
 -1      1636 1.97108E+01 9.91582E+00 3.92927E-02-8.96483E-01-2.50855E-13-1.91999E-13
 -1      1637 1.96314E+01 1.08348E+01 5.10954E-02-7.06009E-01 2.15446E-13-4.63397E-13
 -1      1638 1.93608E+01 8.55980E+00 1.25400E-01-5.80432E-01 9.90267E-14-2.02095E-13
 -1      1639 1.99376E+01 7.30886E+00 8.68760E-04-1.46630E+00-5.74527E-13 1.86512E-13
 -1      1640 1.98136E+01 8.99259E+00 2.00716E-02-1.40037E+00-5.21944E-13 1.13340E-13
 -1      1641 1.95923E+01 7.36982E+00 7.42137E-02-2.17553E+00-1.38629E-13-3.47868E-13
 -1      1642 2.01259E+01 4.35192E+00-2.87736E-02-1.45268E+00-3.79613E-13 2.73899E-13
 -1      1643 2.00298E+01 6.12361E+00-1.29959E-02-1.50978E+00-5.02182E-13 6.12626E-14
 -1      1644 1.99589E+01 5.23583E+00 1.44241E-03-2.82077E+00-2.32994E-13 2.12565E-13
 -1      1645 2.02000E+01 1.96787E+00-3.51425E-02-1.04252E+00-2.17770E-13 9.18710E-14
 -1      1646 2.01635E+01 3.31362E+00-2.71695E-02-1.15584E+00-3.13305E-13 3.80203E-13
 -1      1647 2.02398E+01 3.02467E+00-4.52302E-02-2.48012E+00 5.82347E-14 3.77165E-13
 -1      1648 2.01767E+01 5.41912E-01-2.45909E-02-5.32280E-01 1.92277E-14 2.53960E-13
 -1      1649 2.01871E+01 1.28087E+00-2.37474E-02-6.37022E-01-1.95059E-13 3.03559E-13
 -1      1650 2.03351E+01 1.34517E+00-5.47900E-02-1.61015E+00 1.92259E-14 2.16775E-13
 -1      1651 2.01173E+01 1.93967E-03 7.64809E-04-1.50211E-01-1.00798E-13-1.06382E-13
 -1      1652 2.01225E+01 2.12484E-01-1.60201E-02-1.97898E-01 4.20081E-14-1.42230E-14
 -1      1653 2.02794E+01 3.82661E-01-3.99434E-02-7.12705E-01-5.87030E-15 1.27433E-13
 -1      1654 2.00717E+01-4.92597E-02 1.16302E-02 4.14904E-02-2.70235E-13-1.90564E-13
 -1      1655 2.01009E+01-9.62112E-02-4.84392E-03 1.73111E-02-6.12253E-14-2.24138E-13
 -1      1656 2.02219E+01 5.05959E-02-8.67769E-03-1.42175E-01-4.00322E-14-1.86287E-13
 -1      1657 2.00536E+01-3.64883E-02-1.31575E-02 9.19068E-02 6.12314E-14-1.88160E-13
 -1      1658-5.62564E-01-1.69176E+01-1.95391E+00-9.28352E-01 3.23075E-13-6.65301E-14
 -1      1659-6.13571E-01-1.98193E+01-2.24158E+00 4.72813E-01 3.63487E-13-1.31672E-13
 -1      1660 1.93489E+00-9.13725E+00-1.32701E+00 9.32690E-01 3.28626E-14 6.30884E-14
 -1      1661 9.67766E-01-1.54377E+01-2.01847E+00 6.11689E-02 2.27152E-13-1.13309E-13
 -1      1662 9.48442E+00-4.95853E-02-3.88626E-01 6.18249E+00 1.52767E-13 2.36033E-13
 -1      1663 5.41288E+00-6.74097E+00-1.36842E+00 2.52339E+00-1.24345E-13 2.03948E-13
 -1      1664 2.17238E+01 6.46198E+00 5.55138E-01 1.19521E+01 2.50688E-13 4.03233E-13
 -1      1665 1.35930E+01 2.80465E+00-5.24054E-01 7.57992E+00 1.88516E-13 2.23377E-13
 -1      1666 3.82798E+01 7.02873E+00 1.34491E+00 1.39700E+01 2.75280E-13 1.42553E-13
 -1      1667 2.80116E+01 7.07159E+00 4.39502E-01 1.22756E+01 3.94684E-13 3.55493E-13
 -1      1668 5.24246E+01 5.51846E+00 1.92061E+00 1.12373E+01 1.50678E-13-1.86184E-13
 -1      1669 4.35834E+01 7.58317E+00 1.31736E+00 1.37737E+01 1.52378E-13 3.99680E-14
 -1      1670 5.82905E+01 4.02005E+00 1.88753E+00 2.75675E+00-1.59872E-14-2.60514E-13
 -1      1671 5.49113E+01 5.34579E+00 1.77825E+00 8.59436E+00-4.40759E-14-1.64202E-13
 -1      1672 5.44938E+01 4.62314E+00 1.58954E+00-5.70396E+00 8.50986E-14-4.35207E-13
 -1      1673 5.78070E+01 3.97793E+00 1.83051E+00 5.02804E-03 1.17018E-13-2.03226E-13
 -1      1674 4.37366E+01 6.10246E+00 1.11518E+00-1.13029E+01 3.84554E-13-5.36016E-13
 -1      1675 5.22309E+01 4.39471E+00 1.70585E+00-8.33918E+00 1.31298E-13-4.82725E-13
 -1      1676 2.87256E+01 6.21744E+00 3.54790E-01-1.13437E+01 4.75620E-13-4.94049E-13
 -1      1677 3.86941E+01 5.85992E+00 1.20466E+00-1.23698E+01 3.62599E-13-5.97300E-13
 -1      1678 1.52194E+01 3.20993E+00-4.24130E-01-7.69749E+00 2.50799E-13-6.02407E-13
 -1      1679 2.30067E+01 5.63156E+00 4.74180E-01-1.11611E+01 5.50893E-13-5.15810E-13
 -1      1680 6.19436E+00-3.56109E+00-1.12024E+00-2.85156E+00-1.13243E-14-1.24123E-13
 -1      1681 1.06233E+01 1.48942E+00-3.01147E-01-6.36352E+00 1.20348E-13-5.69766E-13
 -1      1682 1.54226E+00-1.20768E+01-1.63368E+00 1.28801E-01-1.15130E-13 2.27596E-14
 -1      1683 3.14330E+00-5.98148E+00-9.91653E-01-1.56873E+00-2.33147E-14 1.29730E-13
 -1      1684-3.52910E-01-1.78840E+01-1.88013E+00 2.73224E-01-2.24543E-13 5.15699E-14
 -1      1685-2.59908E-01-1.39650E+01-1.53632E+00 1.03212E+00-1.89959E-13-7.31359E-14
 -1      1686-9.21537E-01-1.87139E+01-1.88224E+00-9.52484E-01-6.07014E-13-3.39784E-13
 -1      1687-9.11806E-01-1.86672E+01-1.86204E+00 8.52849E-01-3.24824E-13-1.10745E-13
 -1      1688-4.61370E-01-1.41336E+01-1.61280E+00-1.37575E+00-9.79217E-13-5.29111E-13
 -1      1689-4.68326E-01-1.82256E+01-1.97202E+00-5.57583E-01-5.92082E-13-3.46501E-13
 -1      1690 3.89863E+00-5.66246E+00-8.96325E-01 2.11495E+00-1.03784E-12-6.23945E-13
 -1      1691 2.02035E+00-1.17928E+01-1.54207E+00 2.02817E-01-9.84990E-13-5.82118E-13
 -1      1692 1.22432E+01 1.86080E+00-1.96969E-01 6.99798E+00-7.86704E-13-7.25864E-13
 -1      1693 7.12630E+00-3.19456E+00-1.05108E+00 3.22105E+00-1.10290E-12-6.88671E-13
 -1      1694 2.64221E+01 5.29708E+00 6.33122E-01 1.13264E+01-5.99520E-13-6.19726E-13
 -1      1695 1.77112E+01 3.22225E+00-3.08266E-01 8.04187E+00-7.60725E-13-7.00329E-13
 -1      1696 4.24602E+01 5.67093E+00 1.41922E+00 1.21408E+01-4.11726E-13-2.32259E-13
 -1      1697 3.19121E+01 6.60128E+00 5.49046E-01 1.19410E+01-4.56080E-13-6.01519E-13
 -1      1698 5.45577E+01 4.10018E+00 1.83706E+00 6.40838E+00-5.97994E-14 1.19016E-13
 -1      1699 4.70384E+01 5.58252E+00 1.28591E+00 1.00283E+01-2.66870E-13-1.00031E-13
 -1      1700 5.99055E+01 3.74595E+00 2.11321E+00-1.70221E+00-9.58678E-14 7.44543E-14
 -1      1701 5.77894E+01 4.01120E+00 1.90302E+00 4.27840E+00 3.30846E-14 7.18869E-14
 -1      1702 5.41863E+01 5.61525E+00 1.82177E+00-9.91070E+00-2.87548E-13 5.63549E-13
 -1      1703 5.88796E+01 4.04623E+00 2.08533E+00-4.54822E+00-3.19578E-13 2.79332E-13
 -1      1704 4.12417E+01 7.85748E+00 1.21601E+00-1.40769E+01-2.80331E-13 7.57172E-13
 -1      1705 5.07339E+01 5.96253E+00 1.92335E+00-1.22900E+01-1.93456E-13 8.60423E-13
 -1      1706 2.52103E+01 6.53575E+00 2.60339E-01-1.15674E+01-2.19047E-13 6.62359E-13
 -1      1707 3.56971E+01 7.14263E+00 1.26047E+00-1.40126E+01-3.55160E-13 7.07656E-13
 -1      1708 1.21914E+01 1.13187E+00-6.63697E-01-6.62242E+00-2.53131E-14 2.95430E-13
 -1      1709 1.93141E+01 5.32945E+00 3.68591E-01-1.08859E+01-1.77636E-13 6.37490E-13
 -1      1710 4.60587E+00-8.02841E+00-1.47686E+00-2.03888E+00 4.61187E-13 1.32783E-13
 -1      1711 8.02915E+00-1.42384E+00-5.69810E-01-5.28806E+00 1.02141E-14 7.06102E-14
 -1      1712 5.09088E-01-1.65492E+01-2.16895E+00 3.45759E-01 6.28608E-13-8.23959E-14
 -1      1713 1.19201E+00-1.05659E+01-1.53555E+00-2.06620E-01 5.28022E-13-4.71012E-14
 -1      1714-7.24796E-01-2.05594E+01-2.35111E+00-3.79857E-01 2.92433E-13-2.73115E-13
 -1      1715-7.47229E-01-1.82201E+01-2.15081E+00 1.25638E+00 7.40741E-13-2.43250E-13
 -1      1716 2.92064E+01 1.85994E+00 5.34632E-01 8.56801E+00 3.38174E-13 3.89688E-13
 -1      1717 1.75583E+01-3.28620E+00-2.66763E-01 7.73939E+00 1.50213E-13 4.86944E-13
 -1      1718 1.99693E+01-9.02193E-02 1.79414E-02-1.28837E-01-4.56891E-13-2.01837E-13
 -1      1719 1.99495E+01-9.56097E-02 5.94605E-04-2.08054E-01-1.60105E-13-4.10449E-14
 -1      1720 1.09085E+00-1.18669E+01-1.37427E+00 3.20867E+00 3.68594E-13-7.39409E-14
 -1      1721 7.95485E+00-8.32151E+00-8.87224E-01 5.96819E+00 1.92957E-13 2.36533E-13
 -1      1722-1.50594E+00-1.35753E+01-1.61898E+00 2.39570E-01 2.22322E-13-2.53242E-13
 -1      1723 3.99927E+01 5.38820E+00 1.11355E+00 7.56785E+00 3.00371E-13 9.27036E-14
 -1      1724 4.76584E+01 7.63800E+00 1.56827E+00 5.21587E+00 8.38218E-14-4.59632E-14
 -1      1725 4.90216E+01 8.43443E+00 1.54248E+00 1.28922E+00 4.00235E-14-1.41165E-13
 -1      1726 4.68624E+01 7.14819E+00 1.40512E+00-2.52717E+00 1.57319E-13-8.70415E-14
 -1      1727 3.99703E+01 4.79658E+00 1.04817E+00-5.70915E+00 3.33747E-13-2.69451E-13
 -1      1728 2.95606E+01 1.73955E+00 4.99971E-01-7.18646E+00 1.55820E-13-2.55684E-13
 -1      1729 1.84484E+01-2.13496E+00-1.49380E-01-6.76056E+00-7.68274E-14-5.50671E-13
 -1      1730 9.12534E+00-6.79863E+00-7.25844E-01-5.09261E+00 2.88658E-15-2.15161E-13
 -1      1731 2.37490E+00-1.06995E+01-1.10554E+00-3.21035E+00-2.06835E-13-2.50633E-14
 -1      1732-1.18664E+00-1.30095E+01-1.32080E+00-1.07548E+00-3.46445E-13-2.25264E-13
 -1      1733-1.27908E+00-1.32668E+01-1.37703E+00 8.67409E-01-4.83807E-13-3.63709E-13
 -1      1734 2.84619E+00-1.05270E+01-1.00485E+00 3.42592E+00-5.57554E-13-5.15199E-13
 -1      1735 1.03672E+01-6.79981E+00-6.56883E-01 5.39374E+00-6.98441E-13-4.09006E-13
 -1      1736 2.06403E+01-2.23705E+00-5.43666E-02 6.60768E+00-6.71241E-13-4.59632E-13
 -1      1737 3.18702E+01 1.95289E+00 5.45809E-01 6.67561E+00-5.45952E-13-3.74589E-13
 -1      1738 4.21068E+01 5.42268E+00 1.19135E+00 5.06503E+00-4.91378E-13-1.87739E-13
 -1      1739 4.87623E+01 7.30723E+00 1.54827E+00 1.60604E+00-1.91069E-13-1.26288E-13
 -1      1740 5.09892E+01 7.97503E+00 1.74877E+00-2.01555E+00-2.91600E-13 2.29872E-13
 -1      1741 4.71348E+01 7.42585E+00 1.57988E+00-5.88314E+00-2.89768E-13 5.48228E-13
 -1      1742 3.84719E+01 4.83022E+00 1.03791E+00-7.86795E+00-2.42251E-13 7.37743E-13
 -1      1743 2.74025E+01 6.70483E-01 3.77250E-01-8.36259E+00-2.02616E-13 8.05911E-13
 -1      1744 1.61670E+01-4.26519E+00-3.36344E-01-7.53032E+00-1.07692E-13 4.60021E-13
 -1      1745 6.75309E+00-8.93846E+00-9.68533E-01-5.50629E+00 2.22711E-13 3.22499E-13
 -1      1746 3.77978E-01-1.28936E+01-1.55544E+00-2.66583E+00-7.66054E-15-2.55351E-15
 -1      1747 2.28611E+01 1.98482E+00-2.35560E-02-2.72220E+00-6.58987E-14-8.77076E-14
 -1      1748 1.98223E+01 3.71858E+00-3.49124E-02-2.15465E+00 1.13451E-15-2.19762E-13
 -1      1749 2.00518E+01 3.56058E+00-4.29503E-02-2.44114E+00-2.65482E-14-2.13760E-13
 -1      1750 2.03658E+01 3.18232E+00-4.52072E-02-2.58465E+00-4.34301E-14-1.98487E-13
 -1      1751 2.05850E+01 2.80918E+00-1.42609E-01-2.85292E+00-6.40356E-14-1.85366E-13
 -1      1752 2.04305E+01 2.69105E+00-3.10601E-03-2.22091E+00-4.09625E-14-1.97398E-13
 -1      1753 1.93542E+01 4.18908E+00-2.01991E-02-1.27017E+00 5.37378E-14-1.95864E-13
 -1      1754 1.94277E+01 4.14937E+00-1.71868E-02-1.49455E+00 4.25315E-14-2.07334E-13
 -1      1755 1.92574E+01 4.29478E+00-1.68080E-02-8.59389E-01 7.34981E-14-1.72196E-13
 -1      1756 1.93002E+01 4.27084E+00-1.43623E-02-1.07013E+00 6.30889E-14-1.91748E-13
 -1      1757 1.95260E+01 3.78308E+00-9.30643E-03-1.11925E+00 6.29782E-14-1.89938E-13
 -1      1758 1.92057E+01 4.35520E+00-1.48066E-02-4.66620E-01 9.00331E-14-1.41451E-13
 -1      1759 1.92277E+01 4.34236E+00-1.33237E-02-6.66869E-01 8.24359E-14-1.60120E-13
 -1      1760 1.94287E+01 3.90343E+00-9.22174E-03-7.32952E-01 8.64918E-14-1.59877E-13
 -1      1761 1.91862E+01 4.38082E+00-1.36684E-02-8.35874E-02 1.18228E-13-1.13036E-13
 -1      1762 1.91927E+01 4.37689E+00-1.32167E-02-2.78972E-01 1.04424E-13-1.29516E-13
 -1      1763 1.93782E+01 3.96792E+00-9.16454E-03-3.58156E-01 1.02003E-13-1.27174E-13
 -1      1764 1.91943E+01 4.37553E+00-1.31678E-02 2.98030E-01 1.26554E-13-8.53935E-14
 -1      1765 1.91867E+01 4.37998E+00-1.37509E-02 1.02485E-01 1.23229E-13-1.02867E-13
 -1      1766 1.93634E+01 3.98733E+00-9.14587E-03 1.05640E-02 1.26432E-13-1.02788E-13
 -1      1767 1.92318E+01 4.33834E+00-1.33258E-02 6.86637E-01 1.36072E-13-6.68042E-14
 -1      1768 1.92085E+01 4.35203E+00-1.49150E-02 4.85891E-01 1.32560E-13-8.05900E-14
 -1      1769 1.93809E+01 3.96462E+00-9.18692E-03 3.79471E-01 1.40513E-13-8.35634E-14
 -1      1770 1.93056E+01 4.26494E+00-1.44070E-02 1.08419E+00 1.41312E-13-3.42296E-14
 -1      1771 1.92621E+01 4.28940E+00-1.69717E-02 8.76265E-01 1.32316E-13-5.72563E-14
 -1      1772 1.94339E+01 3.89712E+00-9.19218E-03 7.51510E-01 1.44794E-13-5.63403E-14
 -1      1773 1.94377E+01 4.13774E+00-1.74007E-02 1.51410E+00 1.60474E-13 3.15512E-14
 -1      1774 1.93610E+01 4.18031E+00-2.05019E-02 1.28460E+00 1.46989E-13 1.18308E-15
 -1      1775 1.95339E+01 3.77321E+00-9.23814E-03 1.13516E+00 1.55400E-13-1.03875E-14
 -1      1776 1.96674E+01 3.92119E+00-2.51911E-02 1.97911E+00 1.58834E-13 9.26308E-14
 -1      1777 1.95343E+01 3.99795E+00-2.69045E-02 1.72180E+00 1.54287E-13 5.42587E-14
 -1      1778 1.97078E+01 3.56612E+00-8.69558E-03 1.53478E+00 1.61454E-13 4.98507E-14
 -1      1779 2.00766E+01 3.52283E+00-4.51815E-02 2.47153E+00 1.45620E-13 1.89147E-13
 -1      1780 1.98363E+01 3.68329E+00-3.97260E-02 2.18242E+00 1.49400E-13 1.30864E-13
 -1      1781 2.00048E+01 3.22296E+00-5.26871E-03 1.93404E+00 1.60379E-13 1.17554E-13
 -1      1782 2.09225E+01 2.68181E+00-5.76445E-02 2.85730E+00 9.57958E-14 3.34205E-13
 -1      1783 2.04148E+01 3.09695E+00-5.04303E-02 2.61547E+00 1.09086E-13 2.48766E-13
 -1      1784 2.05185E+01 2.60996E+00 3.18762E-03 2.24402E+00 1.28715E-13 2.05169E-13
 -1      1785 2.17331E+01 1.21296E+00-1.22091E-01 2.32947E+00 5.55528E-14 4.75855E-13
 -1      1786 2.12764E+01 2.26304E+00 1.16979E-04 2.74001E+00 7.62654E-14 3.87732E-13
 -1      1787 2.09392E+01 1.68502E+00-2.29548E-02 2.13971E+00 8.35963E-14 3.26312E-13
 -1      1788 2.09545E+01 7.78666E-01-6.24429E-02 1.52378E+00 4.69277E-14 4.54924E-13
 -1      1789 2.17990E+01 2.45800E+00 9.08965E-02-3.04784E+00-7.34360E-14-1.42081E-13
 -1      1790 2.01040E+01 2.97944E-01-8.91083E-03 6.56633E-01 4.71949E-14 4.00796E-13
 -1      1791 2.06559E+01 4.40406E-01-1.24646E-02 1.03367E+00 4.18415E-14 4.15407E-13
 -1      1792 2.07469E+01 8.45114E-01 2.24675E-03 1.41467E+00 5.67948E-14 3.43611E-13
 -1      1793 2.15095E+01 1.74228E+00 7.95288E-02-2.33699E+00-7.12347E-14-1.56361E-13
 -1      1794 2.05229E+01 5.00831E-01 3.24920E-02-9.21163E-01-4.96027E-14-1.47330E-13
 -1      1795 2.00915E+01 3.52045E-01 7.66227E-03-6.29234E-01-2.93324E-14-1.47562E-13
 -1      1796 1.98971E+01 2.57275E-01 2.74337E-02-3.90886E-01-3.54135E-14-1.35891E-13
 -1      1797 1.97062E+01 1.78025E-01 1.04149E-02-2.53083E-01-3.71959E-14-1.52163E-13
 -1      1798 2.02009E+01 4.83350E-01-5.90510E-03-7.22129E-01-3.50050E-14-1.42718E-13
 -1      1799 1.95843E+01 1.32705E-01 1.66463E-02-1.19557E-01-3.76695E-14-1.40541E-13
 -1      1800 1.95062E+01 9.30331E-02 6.94316E-03-4.87963E-02-2.87452E-14-1.48263E-13
 -1      1801 1.98751E+01 2.43855E-01-5.80226E-03-2.95221E-01-4.54086E-14-1.16364E-13
 -1      1802 1.94414E+01 6.83315E-02 8.67333E-03 2.46760E-02-1.32008E-14-1.55666E-13
 -1      1803 1.94269E+01 4.66052E-02 4.09739E-03 6.07906E-02 1.89020E-15-1.35016E-13
 -1      1804 1.96926E+01 1.25168E-01-4.64429E-03-5.84841E-02-1.83744E-14-1.22085E-13
 -1      1805 1.94009E+01 3.22349E-02 4.22744E-03 9.93845E-02 1.31709E-15-1.17621E-13
 -1      1806 1.94206E+01 1.97606E-02 2.42051E-03 1.16055E-01 3.35236E-14-1.20970E-13
 -1      1807 1.96061E+01 6.07367E-02-3.45517E-03 7.08960E-02 1.97232E-14-1.39598E-13
 -1      1808 1.94188E+01 1.10933E-02 1.84514E-03 1.33812E-01 1.17193E-14-1.35805E-13
 -1      1809 1.94557E+01 3.87834E-03 1.43397E-03 1.39095E-01-7.25822E-15-1.37927E-13
 -1      1810 1.95817E+01 2.37549E-02-2.32817E-03 1.36982E-01 1.25360E-14-1.38624E-13
 -1      1811 1.94680E+01-1.34614E-03 5.42798E-04 1.44271E-01-2.76393E-14-1.32588E-13
 -1      1812 1.95119E+01-5.36637E-03 8.16904E-04 1.42873E-01-4.38308E-14-1.17464E-13
 -1      1813 1.95949E+01 2.12808E-03-1.42676E-03 1.64877E-01-9.97745E-15-1.11550E-13
 -1      1814 1.95316E+01-8.38944E-03-1.79908E-04 1.40588E-01-6.95860E-14-1.06542E-13
 -1      1815 1.95765E+01-1.03928E-02 4.17198E-04 1.35442E-01-4.42839E-14-1.20250E-13
 -1      1816 1.96290E+01-1.02351E-02-7.79713E-04 1.69724E-01-3.92074E-14-1.46989E-13
 -1      1817 1.95992E+01-1.19677E-02-5.67366E-04 1.28991E-01-6.48238E-14-1.43010E-13
 -1      1818 1.96416E+01-1.26799E-02 1.60795E-04 1.21987E-01-6.70837E-14-1.77354E-13
 -1      1819 1.96730E+01-1.67430E-02-3.45753E-04 1.61096E-01-9.00222E-14-1.59400E-13
 -1      1820 1.96645E+01-1.32950E-02-7.48931E-04 1.13531E-01-5.32027E-14-1.70789E-13
 -1      1821 1.97027E+01-1.31852E-02 5.24514E-06 1.05898E-01-1.68463E-14-2.13176E-13
 -1      1822 1.97199E+01-1.94729E-02-7.12181E-05 1.45224E-01-5.60711E-14-1.56482E-13
 -1      1823 1.97243E+01-1.31681E-02-8.00894E-04 9.68557E-02-2.98218E-14-1.83683E-13
 -1      1824 1.97575E+01-1.25445E-02-7.71162E-05 8.93883E-02-3.00612E-14-1.54237E-13
 -1      1825 1.97654E+01-1.97628E-02 8.90518E-05 1.26208E-01-1.99330E-14-1.41747E-13
 -1      1826 1.97769E+01-1.21157E-02-7.71715E-04 8.06838E-02 8.91664E-15-1.87365E-13
 -1      1827 1.98050E+01-1.11777E-02-1.04906E-04 7.38902E-02 1.86564E-15-1.43690E-13
 -1      1828 1.98072E+01-1.84946E-02 1.68655E-04 1.06739E-01-1.59628E-14-6.07640E-14
 -1      1829 1.98222E+01-1.04809E-02-6.93079E-04 6.61228E-02-2.62932E-14-1.67536E-13
 -1      1830 1.98456E+01-9.34946E-03-9.01492E-05 6.03260E-02-2.90654E-14-1.17866E-13
 -1      1831 1.98443E+01-1.62434E-02 1.91429E-04 8.85784E-02-2.73312E-14-6.48544E-14
 -1      1832 1.98606E+01-8.47168E-03-5.85559E-04 5.38896E-02-7.57227E-14-1.54933E-13
 -1      1833 1.98802E+01-7.20920E-03-3.97282E-05 4.93037E-02-4.39604E-14-1.59199E-13
 -1      1834 1.98768E+01-1.33647E-02 1.73710E-04 7.28775E-02-7.96354E-14-9.08352E-14
 -1      1835 1.98933E+01-6.19366E-03-4.61999E-04 4.44767E-02-1.83277E-14-2.21046E-13
 -1      1836 1.99101E+01-4.81770E-03 4.36275E-05 4.12639E-02-8.00728E-15-2.04879E-13
 -1      1837 1.99052E+01-1.00498E-02 1.26192E-04 6.04191E-02-8.27538E-14-8.09201E-14
 -1      1838 1.99221E+01-3.67378E-03-3.29775E-04 3.82768E-02-4.03016E-15-2.41951E-13
 -1      1839 1.99371E+01-2.16669E-03 1.60611E-04 3.65919E-02 1.67467E-14-1.90304E-13
 -1      1840 1.99306E+01-6.36461E-03 5.53358E-05 5.17960E-02-3.92754E-14-1.43348E-13
 -1      1841 1.99488E+01-8.77181E-04-1.92418E-04 3.56806E-02 6.27023E-14-2.24611E-13
 -1      1842 1.99634E+01 8.06713E-04 3.14762E-04 3.57053E-02 7.81390E-14-1.98742E-13
 -1      1843 1.99544E+01-2.27664E-03-3.55549E-05 4.75470E-02 2.32642E-14-1.58515E-13
 -1      1844 1.99757E+01 2.27988E-03-5.08584E-05 3.71516E-02 5.39073E-14-1.32095E-13
 -1      1845 1.99914E+01 4.20862E-03 5.11929E-04 3.91225E-02 6.19240E-14-1.20961E-13
 -1      1846 1.99784E+01 2.32409E-03-1.45474E-04 4.82637E-02 6.01483E-14-1.64049E-13
 -1      1847 2.00055E+01 5.91929E-03 9.55691E-05 4.32856E-02 9.69982E-14-1.84975E-13
 -1      1848 2.00242E+01 8.17810E-03 7.59661E-04 4.75146E-02 7.96518E-14-2.34971E-13
 -1      1849 2.00048E+01 7.60845E-03-2.74954E-04 5.46711E-02 6.52988E-14-2.12887E-13
 -1      1850 2.00413E+01 1.01906E-02 2.48213E-04 5.48537E-02 1.38687E-14-1.73617E-13
 -1      1851 2.00650E+01 1.28759E-02 1.06635E-03 6.17426E-02-7.01208E-14-1.61301E-13
 -1      1852 2.00359E+01 1.37926E-02-4.25343E-04 6.76884E-02 6.79912E-14-2.33890E-13
 -1      1853 2.00867E+01 1.52584E-02 4.08201E-04 7.28283E-02-1.14585E-13-3.93797E-14
 -1      1854 2.01179E+01 1.84693E-02 1.43990E-03 8.28745E-02 1.12796E-14-5.82752E-14
 -1      1855 2.00748E+01 2.11196E-02-5.98046E-04 8.84658E-02-2.15894E-14-7.78632E-14
 -1      1856 2.01459E+01 2.12836E-02 5.75434E-04 9.83867E-02 4.26248E-14-5.62095E-14
 -1      1857 2.01875E+01 2.51078E-02 1.88547E-03 1.12176E-01 8.65037E-14-4.36303E-14
 -1      1858 2.01246E+01 2.98337E-02-7.93677E-04 1.18395E-01 3.02312E-14 3.26688E-14
 -1      1859 2.02238E+01 2.83934E-02 7.47384E-04 1.32879E-01 1.19255E-13-2.82583E-14
 -1      1860 2.02790E+01 3.28832E-02 2.40175E-03 1.51056E-01 1.33563E-13 1.05877E-14
 -1      1861 2.01892E+01 4.01383E-02-1.01108E-03 1.59077E-01 1.13254E-13-5.04132E-14
 -1      1862 2.03259E+01 3.66300E-02 9.17617E-04 1.77741E-01 7.64590E-14-5.84105E-14
 -1      1863 2.03985E+01 4.17603E-02 2.97481E-03 2.00946E-01-2.72558E-14-8.02474E-14
 -1      1864 2.02730E+01 5.21253E-02-1.24623E-03 2.12227E-01 8.88363E-14-9.02791E-14
 -1      1865 2.04583E+01 4.58624E-02 1.07404E-03 2.34311E-01-1.27104E-13-8.79412E-14
 -1      1866 2.05523E+01 5.14600E-02 3.56813E-03 2.63050E-01-1.30114E-13-1.08545E-13
 -1      1867 2.03805E+01 6.56540E-02-1.49120E-03 2.79478E-01-4.09000E-14-1.41134E-13
 -1      1868 2.06277E+01 5.56391E-02 1.19709E-03 3.03487E-01-1.40320E-14-8.84654E-14
 -1      1869 2.07472E+01 6.12630E-02 4.10733E-03 3.37909E-01 5.05594E-14-2.48923E-14
 -1      1870 2.05170E+01 8.01466E-02-1.73340E-03 3.62011E-01-3.13530E-14-1.73570E-14
 -1      1871 2.08406E+01 6.49438E-02 1.25851E-03 3.85142E-01 3.37159E-14-1.01093E-13
 -1      1872 2.09892E+01 6.96951E-02 4.45821E-03 4.24640E-01 6.75046E-14-1.47416E-14
 -1      1873 2.06873E+01 9.42499E-02-1.95578E-03 4.59920E-01 7.62632E-14-3.81576E-14
 -1      1874 2.11026E+01 7.18111E-02 1.22231E-03 4.77125E-01 1.07490E-14-4.06257E-14
 -1      1875 2.12825E+01 7.40455E-02 4.39877E-03 5.19696E-01-1.30911E-13 2.14850E-14
 -1      1876 2.08962E+01 1.05301E-01-2.13869E-03 5.71167E-01-6.12010E-15-1.43818E-13
 -1      1877 2.14176E+01 7.27616E-02 1.05086E-03 5.73690E-01-2.22567E-13 8.77716E-14
 -1      1878 2.16280E+01 6.97030E-02 3.59165E-03 6.14940E-01-1.63103E-13 2.60408E-14
 -1      1879 2.11472E+01 1.08534E-01-2.26380E-03 6.89921E-01-6.53361E-14 6.52752E-14
 -1      1880 2.17852E+01 6.20768E-02 7.19458E-04 6.63132E-01-1.23788E-13 2.51593E-14
 -1      1881 2.20201E+01 4.94144E-02 1.57703E-03 6.94882E-01-5.52215E-14 2.21700E-14
 -1      1882 2.14419E+01 9.60508E-02-2.31836E-03 8.04084E-01-1.28547E-13 8.47776E-15
 -1      1883 2.21984E+01 3.11382E-02 2.40357E-04 7.24607E-01-6.63638E-14 8.09376E-14
 -1      1884 2.24434E+01 2.91076E-03-2.17240E-03 7.33259E-01-3.40288E-14 4.46969E-14
 -1      1885 2.17789E+01 5.58305E-02-2.29165E-03 8.91926E-01-6.12938E-14 9.92847E-15
 -1      1886 2.26393E+01-3.14535E-02-3.22212E-04 7.24638E-01-2.49299E-14 7.08513E-14
 -1      1887 2.28682E+01-8.19177E-02-8.04939E-03 6.90008E-01-5.83383E-14 5.85408E-14
 -1      1888 2.21522E+01-2.82835E-02-2.14508E-03 9.18188E-01-3.76732E-14 2.13557E-13
 -1      1889 2.30743E+01-1.37280E-01-8.66720E-04 6.15230E-01-7.73548E-14 4.83988E-16
 -1      1890 2.32457E+01-2.13968E-01-1.58766E-02 5.11707E-01-8.66191E-15-5.18214E-14
 -1      1891 2.25492E+01-1.73426E-01-1.71385E-03 8.31261E-01-1.50207E-13 1.33601E-13
 -1      1892 2.34468E+01-2.90211E-01-1.44879E-03 3.38244E-01-5.25361E-14-1.85438E-13
 -1      1893 2.35054E+01-3.86740E-01-2.41780E-02 1.41677E-01-8.29675E-14-7.29575E-14
 -1      1894 2.29458E+01-3.87455E-01-5.29984E-04 5.65522E-01-8.31934E-14 5.81802E-14
 -1      1895 2.36715E+01-4.70032E-01-2.53661E-03-1.55531E-01-7.19026E-14-7.28436E-14
 -1      1896 2.35566E+01-5.57698E-01-2.91919E-02-4.50926E-01-8.82298E-14-1.10987E-13
 -1      1897 2.32981E+01-6.47289E-01 2.35146E-03 5.67812E-02-9.89347E-14-1.64966E-14
 -1      1898 2.36344E+01-6.09746E-01-4.87192E-03-8.62316E-01 1.36176E-15-3.94363E-14
 -1      1899 2.33017E+01-6.30412E-01-2.55736E-02-1.21614E+00 6.03129E-14 3.12597E-15
 -1      1900 2.35285E+01-8.67965E-01 8.26641E-03-7.17484E-01 2.79126E-14 2.55126E-14
 -1      1901 2.32169E+01-5.90310E-01-1.00516E-02-1.65831E+00-4.82427E-15 1.19609E-14
 -1      1902 2.26749E+01-4.74448E-01-1.02762E-02-1.96128E+00-9.36352E-14-8.89219E-15
 -1      1903 2.35191E+01-8.88512E-01 1.63005E-02-1.66597E+00-8.51107E-14 1.83636E-13
 -1      1904 2.23723E+01-2.91434E-01-1.60746E-02-2.25618E+00-9.95306E-14-3.80633E-14
 -1      1905 2.17115E+01-2.37112E-02 1.12343E-02-2.34669E+00-8.48124E-14 8.98084E-14
 -1      1906 2.31453E+01-5.35566E-01 1.89332E-02-2.51070E+00-5.67788E-14 4.93728E-14
 -1      1907 2.12438E+01 2.65771E-01-1.61231E-02-2.28549E+00-2.19541E-13 4.85931E-14
 -1      1908 2.06299E+01 5.74742E-01 2.38092E-02-2.04856E+00-1.89959E-13-1.44953E-14
 -1      1909 2.23951E+01 2.02118E-01 5.77893E-03-2.81129E+00-1.76420E-13 2.75422E-13
 -1      1910 2.02018E+01 8.13012E-01-2.07592E-03-1.56441E+00-1.66167E-13-6.56610E-14
 -1      1911 1.98085E+01 9.59478E-01 1.62975E-02-1.06041E+00 3.54682E-14-1.07300E-13
 -1      1912 2.15101E+01 1.01557E+00-1.93620E-02-2.22391E+00-2.17886E-13 1.76116E-13
 -1      1913 1.96424E+01 9.81237E-01 1.90629E-02-3.73719E-01 2.11726E-13-2.44548E-13
 -1      1914 1.95478E+01 8.67143E-01-2.82426E-03 1.53809E-01 2.08529E-13-1.33278E-13
 -1      1915 2.09191E+01 1.40801E+00-3.20078E-02-8.93143E-01 9.03600E-14 1.13094E-13
 -1      1916 1.96666E+01 6.52252E-01 2.88315E-02 6.88968E-01 2.02890E-13-1.32377E-14
 -1      1917 1.98236E+01 3.66955E-01-1.48668E-02 9.77737E-01 2.95758E-13 7.31047E-14
 -1      1918 2.08603E+01 1.12004E+00-1.98664E-02 4.95307E-01 2.99741E-13 1.09728E-13
 -1      1919 2.00003E+01 1.05073E-01 1.71403E-02 1.12299E+00 1.67256E-13-4.91707E-14
 -1      1920 2.02591E+01-1.32177E-01-1.11359E-02 1.11803E+00 1.77143E-13 2.33268E-14
 -1      1921 2.11396E+01 3.73189E-01 1.02195E-03 1.23313E+00 1.91063E-13 6.47546E-14
 -1      1922 2.03013E+01-2.81515E-01-3.49320E-03 9.49541E-01 1.14441E-13-1.70066E-13
 -1      1923 2.05222E+01-3.55308E-01-6.21081E-04 7.72340E-01 9.75578E-14-1.40640E-13
 -1      1924 2.13383E+01-2.67902E-01 1.45601E-02 1.16417E+00 9.29639E-14-1.22673E-13
 -1      1925 2.03808E+01-3.49742E-01-1.85761E-02 5.11260E-01 1.18018E-13-1.63936E-13
 -1      1926 2.04958E+01-2.76151E-01 8.70405E-03 3.32436E-01 1.00886E-13-1.40460E-13
 -1      1927 2.12260E+01-5.02661E-01 1.03671E-02 6.55096E-01 8.58220E-14-2.04421E-13
 -1      1928 2.02499E+01-2.00032E-01-2.06931E-02 1.93445E-01 7.97556E-14-1.69025E-13
 -1      1929 2.02916E+01-9.55194E-02 1.46930E-02 1.00189E-01 8.85273E-14-1.28567E-13
 -1      1930 2.04137E+01-1.04231E-01 7.88533E-03 2.35474E-02-2.29330E-14-2.84148E-13
 -1      1931 2.08540E+01-3.26616E-01 1.64347E-02 2.01490E-01 2.72287E-14-2.12030E-13
 -1      1932 1.96215E+01 1.42053E-01 7.88528E-03 2.58994E-01 6.07847E-14 3.61664E-13
 -1      1933 1.98934E+01 2.04108E-01 1.64344E-02 4.32007E-01 6.14057E-14 3.90516E-13
 -1      1934 2.01048E+01 3.50565E-01-1.53159E-03 6.54490E-01 6.96925E-14 3.13573E-13
 -1      1935 1.93795E+01 7.19371E-02 6.94807E-03 5.59821E-02 8.03507E-14 3.30301E-13
 -1      1936 1.94943E+01 1.01823E-01 1.41949E-02 1.44525E-01 4.82227E-14 3.41172E-13
 -1      1937 1.97123E+01 1.65212E-01-1.94720E-03 2.55707E-01 7.26979E-14 2.86533E-13
 -1      1938 1.92893E+01 3.61503E-02 4.43023E-03-4.94973E-02 2.63635E-14 3.25597E-13
 -1      1939 1.93193E+01 5.19736E-02 8.33496E-03-2.27561E-03 5.91131E-14 3.30832E-13
 -1      1940 1.95122E+01 8.07003E-02-2.82570E-03 4.36817E-02 6.69421E-14 2.74955E-13
 -1      1941 1.92878E+01 1.62026E-02 2.86264E-03-1.01981E-01-1.96822E-14 3.17358E-13
 -1      1942 1.92725E+01 2.50675E-02 4.34946E-03-7.73527E-02-8.11916E-15 3.16684E-13
 -1      1943 1.94334E+01 3.74759E-02-2.84143E-03-6.82176E-02 4.82730E-15 2.26657E-13
 -1      1944 1.93353E+01 4.56117E-03 1.98709E-03-1.24051E-01 3.64961E-14 2.93123E-13
 -1      1945 1.92968E+01 9.59892E-03 2.14443E-03-1.12622E-01 1.28087E-14 3.09905E-13
 -1      1946 1.94270E+01 1.36326E-02-2.31106E-03-1.23744E-01 1.48679E-14 2.05022E-13
 -1      1947 1.94069E+01-2.24381E-03 1.44337E-03-1.28216E-01 5.83074E-14 2.59009E-13
 -1      1948 1.93583E+01 5.09324E-04 9.45129E-04-1.24727E-01 6.66420E-14 2.98445E-13
 -1      1949 1.94617E+01 3.38119E-05-1.69041E-03-1.46243E-01 7.41470E-14 1.78237E-13
 -1      1950 1.94874E+01-6.03187E-03 1.06137E-03-1.22005E-01 4.29620E-14 1.84279E-13
 -1      1951 1.94364E+01-4.70262E-03 2.71463E-04-1.23251E-01 7.30796E-14 2.26742E-13
 -1      1952 1.95173E+01-7.59347E-03-1.16803E-03-1.49167E-01 8.54275E-14 1.61918E-13
 -1      1953 1.95677E+01-7.87515E-03 7.76181E-04-1.10184E-01-2.12387E-14 2.91897E-13
 -1      1954 1.95187E+01-7.44430E-03-1.11833E-04-1.14107E-01-1.07640E-14 2.41094E-13
 -1      1955 1.95812E+01-1.15187E-02-7.75806E-04-1.40794E-01-6.34285E-15 2.27237E-13
 -1      1956 1.96424E+01-8.45452E-03 5.60980E-04-9.58389E-02 3.01989E-14 3.15340E-13
 -1      1957 1.95979E+01-8.58380E-03-3.20087E-04-1.01087E-01 1.93188E-14 3.03859E-13
 -1      1958 1.96456E+01-1.30859E-02-4.95170E-04-1.26424E-01 7.53228E-15 2.50117E-13
 -1      1959 1.97088E+01-8.21946E-03 4.00833E-04-8.09709E-02-5.66051E-15 2.73993E-13
 -1      1960 1.96700E+01-8.68573E-03-4.16435E-04-8.66519E-02 5.24202E-14 2.99727E-13
 -1      1961 1.97060E+01-1.31474E-02-3.00408E-04-1.09503E-01 3.13231E-14 2.26355E-13
 -1      1962 1.97662E+01-7.46836E-03 2.85498E-04-6.68667E-02 7.77775E-14 1.17212E-13
 -1      1963 1.97332E+01-8.12497E-03-4.39651E-04-7.23940E-02 2.23384E-14 1.82153E-13
 -1      1964 1.97602E+01-1.22610E-02-1.70050E-04-9.22751E-02 6.41741E-14 1.56775E-13
 -1      1965 1.98146E+01-6.39323E-03 2.07625E-04-5.43423E-02 5.01111E-14 1.43939E-13
 -1      1966 1.97871E+01-7.14721E-03-4.14918E-04-5.93324E-02 2.39374E-14 1.16511E-13
 -1      1967 1.98073E+01-1.07899E-02-8.80521E-05-7.61902E-02 5.01746E-14 1.06092E-13
 -1      1968 1.98550E+01-5.10752E-03 1.62160E-04-4.39181E-02 9.82856E-15 1.47360E-13
 -1      1969 1.98324E+01-5.90464E-03-3.58597E-04-4.81158E-02 7.09421E-14 1.71109E-13
 -1      1970 1.98476E+01-8.95968E-03-4.29791E-05-6.21807E-02 7.42548E-14 8.84314E-14
 -1      1971 1.98891E+01-3.66513E-03 1.46076E-04-3.59496E-02 9.08327E-14 8.75919E-14
 -1      1972 1.98703E+01-4.47951E-03-2.80835E-04-3.91714E-02 2.18041E-14 1.07320E-13
 -1      1973 1.98819E+01-6.89417E-03-2.69487E-05-5.08628E-02 6.73220E-14-9.54748E-16
 -1      1974 1.99187E+01-2.07380E-03 1.58191E-04-3.07257E-02 1.21505E-13 8.51365E-14
 -1      1975 1.99026E+01-2.90038E-03-1.87253E-04-3.28163E-02 1.03971E-13 1.03344E-13
 -1      1976 1.99116E+01-4.63971E-03-3.48427E-05-4.26863E-02 1.27919E-13 3.68992E-14
 -1      1977 1.99461E+01-3.04864E-04 1.98986E-04-2.85453E-02 3.79753E-14 1.03045E-13
 -1      1978 1.99314E+01-1.15377E-03-8.01508E-05-2.93434E-02 7.69323E-14 1.12275E-13
 -1      1979 1.99385E+01-2.18267E-03-6.38073E-05-3.80478E-02 9.76258E-14 3.67914E-14
 -1      1980 1.99739E+01 1.69879E-03 2.70444E-04-2.97769E-02 1.82241E-14-1.10128E-14
 -1      1981 1.99591E+01 8.06796E-04 4.05896E-05-2.90872E-02 4.50752E-14 4.38639E-14
 -1      1982 1.99647E+01 5.37479E-04-1.12811E-04-3.73791E-02 8.10155E-14 3.87460E-15
 -1      1983 2.00050E+01 4.01554E-03 3.75811E-04-3.49032E-02-7.43781E-14 1.03325E-14
 -1      1984 1.99885E+01 3.05311E-03 1.76736E-04-3.24753E-02-2.95853E-14 5.08843E-15
 -1      1985 1.99927E+01 3.61706E-03-1.82268E-04-4.12139E-02-2.18837E-14 8.85656E-15
 -1      1986 2.00431E+01 6.73733E-03 5.19202E-04-4.45523E-02-6.56651E-14 1.04349E-14
 -1      1987 2.00228E+01 5.67467E-03 3.30965E-04-4.00642E-02-1.18627E-13-2.05259E-14
 -1      1988 2.00252E+01 7.17760E-03-2.73698E-04-5.02359E-02-8.75906E-14-5.22835E-14
 -1      1989 2.00920E+01 9.95961E-03 7.04887E-04-5.95112E-02 9.32876E-14 3.24234E-14
 -1      1990 2.00658E+01 8.76955E-03 5.06039E-04-5.25606E-02 5.42711E-14 9.64344E-14
 -1      1991 2.00657E+01 1.13533E-02-3.89371E-04-6.53076E-02 1.92495E-15 1.13660E-13
 -1      1992 2.01566E+01 1.37660E-02 9.36035E-04-8.07175E-02 9.83176E-14-7.52912E-14
 -1      1993 2.01217E+01 1.24313E-02 7.03736E-04-7.08227E-02 8.51252E-14 3.66039E-14
 -1      1994 2.01178E+01 1.62737E-02-5.31890E-04-8.74731E-02 9.02497E-14 9.98996E-14
 -1      1995 2.02421E+01 1.82038E-02 1.21256E-03-1.09214E-01-1.73536E-13 1.15094E-13
 -1      1996 2.01955E+01 1.67283E-02 9.23366E-04-9.58311E-02-1.00640E-13-5.86424E-14
 -1      1997 2.01860E+01 2.20362E-02-7.03668E-04-1.17926E-01-8.34997E-14 1.48270E-13
 -1      1998 2.03548E+01 2.32432E-02 1.52751E-03-1.46049E-01-2.19476E-13 2.32358E-13
 -1      1999 2.02929E+01 2.16701E-02 1.15959E-03-1.28614E-01-2.10048E-13 2.17990E-13
 -1      2000 2.02752E+01 2.86618E-02-9.06251E-04-1.57922E-01-2.54646E-13 2.96040E-13
 -1      2001 2.05012E+01 2.87106E-02 1.86126E-03-1.92079E-01 4.10399E-14 2.08053E-13
 -1      2002 2.04203E+01 2.71519E-02 1.39924E-03-1.70099E-01-8.52109E-14 1.94199E-13
 -1      2003 2.03909E+01 3.60213E-02-1.13943E-03-2.08600E-01-7.73461E-14 1.53127E-13
 -1      2004 2.06881E+01 3.41811E-02 2.17273E-03-2.47633E-01 1.51992E-13 2.86659E-13
 -1      2005 2.05842E+01 3.28642E-02 1.61687E-03-2.20838E-01 1.16181E-13 2.88391E-13
 -1      2006 2.05388E+01 4.37165E-02-1.40005E-03-2.70666E-01 4.53133E-14 1.78374E-13
 -1      2007 2.09219E+01 3.88104E-02 2.38712E-03-3.11935E-01-1.75109E-13 3.28977E-13
 -1      2008 2.07915E+01 3.81498E-02 1.76888E-03-2.80559E-01-3.31213E-14 3.19211E-13
 -1      2009 2.07246E+01 5.08899E-02-1.68023E-03-3.43859E-01-2.13111E-14 2.74881E-13
 -1      2010 2.12071E+01 4.10884E-02 2.38136E-03-3.82195E-01-6.14044E-14 3.64665E-13
 -1      2011 2.10477E+01 4.17881E-02 1.78694E-03-3.47416E-01-1.68429E-13 3.23170E-13
 -1      2012 2.09532E+01 5.59387E-02-1.96432E-03-4.26087E-01-1.08706E-13 3.13511E-13
 -1      2013 2.15443E+01 3.85131E-02 1.97274E-03-4.52219E-01 2.43043E-14 3.27980E-13
 -1      2014 2.13559E+01 4.16944E-02 1.57314E-03-4.16856E-01 6.36485E-14 4.33393E-13
 -1      2015 2.12273E+01 5.61128E-02-2.22308E-03-5.12104E-01 5.82329E-14 4.14816E-13
 -1      2016 2.19275E+01 2.72461E-02 9.24256E-04-5.10477E-01-6.72208E-14 3.39096E-13
 -1      2017 2.17144E+01 3.45607E-02 1.00218E-03-4.79978E-01-8.11853E-14 3.10874E-13
 -1      2018 2.15460E+01 4.70353E-02-2.40203E-03-5.91609E-01-6.39187E-14 4.01856E-13
 -1      2019 2.23399E+01 1.97574E-03-1.00544E-03-5.37755E-01 4.57208E-16 3.93016E-13
 -1      2020 2.21135E+01 1.55802E-02-5.92003E-05-5.21425E-01-4.81839E-14 4.00350E-13
 -1      2021 2.19024E+01 2.23233E-02-2.39936E-03-6.46795E-01-8.56185E-14 3.77448E-13
 -1      2022 2.27485E+01-4.34542E-02-3.92843E-03-5.05140E-01-8.07219E-14 4.28351E-13
 -1      2023 2.25306E+01-2.13515E-02-1.70484E-03-5.17261E-01-7.40386E-14 3.38360E-13
 -1      2024 2.22800E+01-2.61704E-02-2.02932E-03-6.49810E-01-4.02544E-14 2.44011E-13
 -1      2025 2.30997E+01-1.13557E-01-7.56857E-03-3.74364E-01 8.73733E-14 4.15931E-13
 -1      2026 2.29252E+01-8.21010E-02-3.90904E-03-4.34164E-01 1.05289E-14 5.14146E-13
 -1      2027 2.26493E+01-1.06377E-01-9.77981E-04-5.61582E-01-2.13002E-14 3.79486E-13
 -1      2028 2.33165E+01-2.05393E-01-1.09434E-02-1.04683E-01 3.14773E-13 4.43004E-13
 -1      2029 2.32335E+01-1.67986E-01-6.41195E-03-2.32985E-01 2.60056E-13 5.48906E-13
 -1      2030 2.29632E+01-2.20455E-01 1.22139E-03-3.35276E-01 2.24633E-13 3.88607E-13
 -1      2031 2.33026E+01-2.99329E-01-1.23473E-02 3.27717E-01 1.10163E-13 2.85812E-13
 -1      2032 2.33676E+01-2.67662E-01-8.71991E-03 1.18267E-01 1.67946E-13 3.60381E-13
 -1      2033 2.31540E+01-3.54162E-01 5.01107E-03 6.98753E-02 2.47520E-13 6.58268E-13
 -1      2034 2.29610E+01-3.50696E-01-9.98288E-03 8.94693E-01-2.74893E-13 3.53632E-13
 -1      2035 2.32232E+01-3.47144E-01-1.01470E-02 6.17355E-01-6.68181E-14 3.04802E-13
 -1      2036 2.31354E+01-4.64125E-01 1.01314E-02 6.58369E-01-1.60427E-14 6.06128E-13
 -1      2037 2.22326E+01-2.95460E-01-3.83475E-03 1.47399E+00-7.56999E-14 3.81344E-13
 -1      2038 2.27087E+01-3.46693E-01-1.00928E-02 1.18914E+00-1.87277E-13 3.87766E-13
 -1      2039 2.28181E+01-4.72421E-01 1.49711E-02 1.35324E+00-2.18613E-13 5.34758E-13
 -1      2040 2.11579E+01-9.05113E-02 2.66593E-03 1.84098E+00-1.07278E-13 4.87287E-13
 -1      2041 2.18037E+01-2.04781E-01-7.12401E-03 1.65888E+00-1.22858E-13 3.30066E-13
 -1      2042 2.21535E+01-2.99633E-01 1.53675E-02 1.95766E+00-1.26117E-13 3.80208E-13
 -1      2043 1.99374E+01 2.19168E-01 2.56992E-03 1.75575E+00-5.73474E-14 5.08711E-13
 -1      2044 2.06303E+01 7.87326E-02-1.60639E-03 1.78989E+00-7.81263E-14 5.26678E-13
 -1      2045 2.12089E+01 6.68888E-02 8.71626E-03 2.18617E+00-1.35802E-13 3.41203E-13
 -1      2046 1.89104E+01 4.82398E-01-5.24209E-03 1.14301E+00 1.69986E-13 2.56647E-13
 -1      2047 1.94770E+01 3.93494E-01 5.94256E-03 1.42275E+00 4.17062E-14 3.47552E-13
 -1      2048 2.02161E+01 4.90516E-01-6.16491E-03 1.81804E+00 1.31253E-13 1.43281E-13
 -1      2049 1.84019E+01 5.32898E-01-1.21686E-02 2.27804E-01-2.33273E-13 4.36404E-13
 -1      2050 1.86893E+01 5.55951E-01 1.33203E-02 6.39887E-01 1.90403E-14 3.93659E-13
 -1      2051 1.95070E+01 7.47253E-01-1.52449E-02 9.09472E-01-1.14440E-14 3.70112E-13
 -1      2052 1.84945E+01 3.47557E-01-1.01999E-02-5.72061E-01 7.21628E-14 1.43668E-13
 -1      2053 1.84599E+01 4.64806E-01 1.56262E-02-2.18626E-01-1.09442E-13 2.64811E-13
 -1      2054 1.92957E+01 6.82371E-01-1.01461E-02-1.47272E-01-2.72456E-14 2.91781E-13
 -1      2055 1.89716E+01 6.85822E-02-3.00534E-04-9.42332E-01 4.74657E-13 2.55782E-13
 -1      2056 1.87081E+01 1.98806E-01 1.06134E-02-7.80172E-01 3.15079E-13 2.85858E-13
 -1      2057 1.95109E+01 3.53624E-01 1.11985E-03-8.79490E-01 2.74017E-13 2.02843E-13
 -1      2058 1.94949E+01-1.24820E-01 1.01288E-02-8.74428E-01 3.14326E-13 2.02892E-13
 -1      2059 1.91627E+01-5.56179E-02 1.70013E-03-8.97224E-01 3.52291E-13 3.53061E-13
 -1      2060 1.98718E+01-1.32242E-02 6.52984E-03-1.06849E+00 3.26441E-13 3.52755E-13
 -1      2061 1.98379E+01-1.61590E-01 1.50751E-02-5.97109E-01 2.17140E-13-9.19659E-14
 -1      2062 1.95643E+01-1.65706E-01-4.62141E-03-7.01657E-01 2.29714E-13 2.54926E-14
 -1      2063 2.01208E+01-2.13718E-01 4.20211E-03-8.50022E-01 3.52410E-13-7.88614E-14
 -1      2064 1.99602E+01-9.86433E-02 1.31972E-02-3.50980E-01 1.16579E-13-1.99687E-13
 -1      2065 1.97970E+01-1.36605E-01-5.56086E-03-4.36182E-01 1.16344E-13-9.77781E-14
 -1      2066 2.01691E+01-2.15329E-01-1.04903E-03-5.21796E-01 1.79277E-13-1.23249E-13
 -1      2067 1.99904E+01-7.47320E-02 9.06643E-03-2.25134E-01-1.53143E-13 1.03118E-13
 -1      2068 1.99072E+01-9.34917E-02-4.84377E-03-2.85551E-01 6.71780E-14-2.29763E-14
 -1      2069 2.01297E+01-1.62962E-01-4.38646E-03-3.19267E-01-2.70790E-14 5.13771E-14
 -1      2070 2.00857E+01-1.03340E-01 1.51668E-02-2.26328E-01-1.24930E-13 1.92839E-13
 -1      2071 2.09968E+01 7.31124E-01 3.61210E-02 1.87310E+00-1.12334E-13-2.43897E-13
 -1      2072 2.09174E+01 1.73828E-01 4.42303E-03 1.34000E+00-2.50512E-13-5.58303E-14
 -1      2073 2.07760E+01 1.07554E-01 3.63114E-02 7.55510E-01-2.69528E-13 7.57710E-14
 -1      2074 2.06006E+01-1.46450E-01 7.64706E-04 3.75591E-01-2.70849E-13 1.50669E-13
 -1      2075 2.12548E+01-2.20653E-01-1.43485E-02 1.24811E+00-2.82286E-13-8.16517E-14
 -1      2076 2.04236E+01-9.80315E-02 2.79659E-02 6.65144E-02-2.84608E-13-7.91034E-16
 -1      2077 2.02436E+01-1.46196E-01 4.71761E-03-1.07013E-01-1.38304E-13 1.44424E-14
 -1      2078 2.03029E+01-1.64761E-01-1.09710E-03-1.43059E-01-1.52990E-13 6.38309E-14
 -1      2079 2.08170E+01-2.52718E-01 1.92187E-03 3.06349E-01-2.44387E-13 9.91420E-14
 -1      2080 2.08142E+01 1.88948E+00 1.11899E-02 3.05806E+00-2.45639E-13-1.51185E-13
 -1      2081 2.09724E+01 1.03224E+00 1.67388E-02 2.56458E+00-1.69130E-13-1.47771E-13
 -1      2082 2.14283E+01 1.53420E-01-2.28110E-02 2.66434E+00-1.04643E-13-3.33253E-13
 -1      2083 2.00602E+01 3.54759E+00-2.88164E-02 3.70597E+00-2.28359E-13 3.19896E-13
 -1      2084 2.05218E+01 2.52566E+00 3.02678E-02 3.55093E+00-3.28963E-13 1.53725E-13
 -1      2085 2.09321E+01 1.07001E+00-2.31217E-02 4.01395E+00-2.11203E-13 9.25024E-14
 -1      2086 1.89289E+01 5.31415E+00-5.80365E-02 3.16018E+00-5.65849E-14 3.18485E-13
 -1      2087 1.95280E+01 4.43391E+00 3.44474E-02 3.58983E+00-2.20268E-13 5.54244E-13
 -1      2088 1.96438E+01 2.56190E+00 1.70823E-03 4.49931E+00-1.79396E-13 4.74903E-13
 -1      2089 1.80487E+01 6.54044E+00-4.73370E-02 1.22055E+00-8.28096E-14 2.80102E-13
 -1      2090 1.84138E+01 6.10060E+00 1.29009E-02 2.21470E+00-3.67033E-14 2.95139E-13
 -1      2091 1.80594E+01 4.22360E+00 6.33006E-02 3.35613E+00 7.25756E-14 3.49158E-13
 -1      2092 1.81164E+01 6.50781E+00-3.35532E-03-1.29632E+00-1.56132E-13-4.85154E-13
 -1      2093 1.79460E+01 6.69810E+00-3.13354E-02-2.09332E-01-7.72351E-14 1.20057E-13
 -1      2094 1.71299E+01 5.16597E+00 1.06120E-01 6.47582E-01-1.86406E-13 1.90278E-13
 -1      2095 1.90808E+01 5.18265E+00 3.06169E-02-3.18643E+00 6.85250E-14-7.79134E-14
 -1      2096 1.85146E+01 5.92617E+00-5.79748E-02-2.51043E+00 5.89459E-14-4.24938E-13
 -1      2097 1.75661E+01 4.73919E+00 8.65213E-02-2.38419E+00-1.25588E-13-2.98192E-13
 -1      2098 2.02052E+01 3.27404E+00 3.21900E-02-3.65817E+00-7.44786E-14 2.53093E-13
 -1      2099 1.96557E+01 4.27148E+00-4.54136E-02-3.61522E+00-3.33518E-14 1.13862E-13
 -1      2100 1.90427E+01 3.24661E+00 2.52395E-02-4.21837E+00 1.15405E-13-5.57124E-14
 -1      2101 2.08693E+01 1.59586E+00 2.05266E-02-2.94309E+00 1.20954E-13 4.08971E-13
 -1      2102 2.06018E+01 2.52726E+00-3.72012E-03-3.34928E+00 4.76043E-14 3.57912E-13
 -1      2103 2.05404E+01 1.61680E+00-1.64958E-02-4.27568E+00 1.18252E-13 3.80078E-13
 -1      2104 2.09624E+01 5.28526E-01 9.14242E-03-1.74918E+00 1.40313E-13 2.39208E-13
 -1      2105 2.09769E+01 1.19310E+00 3.11777E-02-2.28722E+00 1.32198E-13 2.46234E-13
 -1      2106 2.13365E+01 4.90079E-01-1.88010E-02-3.14883E+00 1.54932E-13 3.51724E-13
 -1      2107 2.06866E+01 4.60877E-02 2.26452E-03-6.65184E-01-3.94493E-14-1.88108E-13
 -1      2108 2.08606E+01 3.94297E-01 3.87610E-02-1.11946E+00 1.08720E-13 6.61624E-14
 -1      2109 2.13476E+01-4.96211E-02-1.37391E-02-1.71506E+00 2.51666E-14 2.07473E-14
 -1      2110 1.30676E+01-5.99999E+00-1.24902E-01 8.10664E+00 2.42473E-13 4.50744E-13
 -1      2111 8.67432E+00-7.79857E+00-4.12884E-01 6.67479E+00 3.11196E-13 2.43500E-13
 -1      2112 9.03478E-01-7.48282E+00-3.70370E-01 1.08453E+00 6.67799E-14 1.34059E-13
 -1      2113 8.35698E-01-8.14164E+00-4.66141E-01-1.07663E+00-1.89154E-13-1.14242E-13
 -1      2114 4.90788E+00-7.39788E+00-3.27340E-01 5.57834E+00 2.34590E-13-8.85958E-14
 -1      2115 2.40406E+00-8.10149E+00-4.45672E-01 3.72224E+00 1.71752E-13 6.76126E-14
 -1      2116 2.32116E+01-3.29981E+00 8.60587E-02 8.13070E+00 2.08944E-13 6.61415E-13
 -1      2117 1.81137E+01-5.79730E+00-2.48685E-01 7.48245E+00 9.83658E-14 6.05932E-13
 -1      2118 3.18841E+01-1.05182E-01 1.78965E-01 6.45388E+00 3.73812E-13 2.96874E-13
 -1      2119 2.65667E+01-2.20399E+00-1.17512E-01 6.68719E+00 2.18825E-13 4.04343E-13
 -1      2120 2.71296E+01-4.69231E+00 9.08106E-02 6.32916E+00 2.58793E-13 4.25049E-13
 -1      2121 1.95226E+01 4.01605E+00-2.56668E-02-1.70041E+00 3.05242E-14-2.19224E-13
 -1      2122 1.96512E+01 3.94252E+00-2.43484E-02-1.95555E+00 1.70558E-14-2.20525E-13
 -1      2123 1.99732E+01 3.25312E+00-8.05569E-03-1.90865E+00 6.79491E-15-2.03920E-13
 -1      2124 1.96932E+01 3.58315E+00-9.29208E-03-1.51716E+00 4.03579E-14-2.07310E-13
 -1      2125 4.21871E+01 7.01751E+00 2.85232E-01 2.12052E+00 1.90126E-13 4.16889E-14
 -1      2126 4.07142E+01 6.12308E+00 3.15317E-01 3.55245E+00 2.30260E-13 1.66589E-13
 -1      2127 4.10404E+01 7.90248E+00 1.94045E-01 7.13650E-01 3.68039E-14-1.20542E-13
 -1      2128 4.15676E+01 7.96736E+00 2.90902E-01 1.51117E+00 1.48770E-14 5.19029E-15
 -1      2129 4.03885E+01 5.76553E+00 2.79618E-01-1.28739E+00 1.54710E-13-8.64309E-14
 -1      2130 4.18138E+01 6.86478E+00 2.66693E-01 1.44326E-01 1.04028E-13-1.03251E-13
 -1      2131 3.46323E+01 2.11400E+00 3.52287E-02-2.95379E+00 1.67651E-13-1.01918E-13
 -1      2132 3.88160E+01 3.77557E+00 3.13804E-01-2.24145E+00 2.18325E-13-5.68434E-14
 -1      2133 2.69899E+01-1.94268E+00-1.35044E-01-4.88936E+00-7.21645E-16-1.68421E-13
 -1      2134 3.20247E+01-7.91271E-02 1.68666E-01-4.58299E+00 1.19738E-13-1.27787E-13
 -1      2135 1.81807E+01-5.04820E+00-3.06882E-01-5.91711E+00-1.55431E-13-3.90243E-13
 -1      2136 2.32713E+01-2.97320E+00 3.95571E-02-6.47513E+00-1.28397E-13-3.97571E-13
 -1      2137 9.83422E+00-7.49840E+00-3.85063E-01-5.66135E+00-1.15796E-13-1.48957E-13
 -1      2138 1.40607E+01-5.51364E+00-1.11460E-01-6.60387E+00-5.27356E-14-3.47999E-13
 -1      2139 3.58221E+00-8.40037E+00-3.65036E-01-4.09345E+00-2.57516E-13-2.77556E-16
 -1      2140 6.50302E+00-7.21584E+00-1.83397E-01-5.48654E+00-2.55018E-13 8.65974E-15
 -1      2141-1.25834E-01-9.11797E+00-4.50809E-01-9.40061E-01-4.23966E-13-3.19855E-13
 -1      2142 8.58210E-01-8.57213E+00-3.72839E-01-2.43671E+00-2.68230E-13-1.15408E-13
 -1      2143 1.05080E+00-8.66709E+00-3.91661E-01 2.43251E+00-3.47666E-13-2.57516E-13
 -1      2144 5.31679E-02-8.87064E+00-4.13993E-01 9.71911E-01-3.58116E-13-2.19491E-13
 -1      2145 6.36545E+00-7.31440E+00-2.49309E-01 5.33155E+00-3.34843E-13-4.56940E-13
 -1      2146 2.99944E+00-9.00245E+00-5.28614E-01 3.65843E+00-3.31069E-13-3.77864E-13
 -1      2147 3.65207E+00-6.43940E+00-1.67445E-01 4.05271E+00-1.12743E-13-2.38143E-13
 -1      2148 1.53518E+01-5.55505E+00-9.09933E-02 6.61055E+00-4.96048E-13-3.55133E-13
 -1      2149 1.10613E+01-7.29169E+00-2.70255E-01 5.94605E+00-4.24993E-13-2.31141E-13
 -1      2150 2.50185E+01-3.04848E+00 5.20746E-02 5.96989E+00-5.18696E-13-2.76335E-13
 -1      2151 1.95986E+01-5.05741E+00-2.59928E-01 5.67751E+00-4.36151E-13-4.21330E-13
 -1      2152 3.41737E+01 8.63663E-01 2.57742E-01 3.93631E+00-4.42063E-13-2.65010E-13
 -1      2153 2.90292E+01-1.37326E+00-1.01563E-01 3.96317E+00-5.86420E-13-3.61378E-13
 -1      2154 3.94005E+01 4.31406E+00 2.47918E-01 1.29797E+00-4.59577E-13-2.03448E-13
 -1      2155 3.60668E+01 2.70942E+00 8.91262E-02 2.56834E+00-5.37285E-13-2.51577E-13
 -1      2156 3.41898E+01 7.23735E-01 2.25074E-01 3.07602E-01-5.63563E-13-1.89349E-13
 -1      2157 4.30821E+01 7.22862E+00 4.20175E-01-5.40024E-01-1.82299E-13-1.48076E-13
 -1      2158 4.04621E+01 6.52870E+00 1.81787E-01 3.08081E-01-2.71116E-13-2.43916E-13
 -1      2159 4.27249E+01 7.79781E+00 3.23409E-01-2.05087E+00-3.34011E-13 1.19293E-13
 -1      2160 4.35328E+01 7.67464E+00 3.81037E-01-8.60511E-01-2.74558E-13 3.41394E-14
 -1      2161 3.82426E+01 8.62510E+00 3.67597E-01-1.32569E+00-3.43281E-13-3.12250E-15
 -1      2162 3.97083E+01 5.54193E+00 2.24953E-01-3.60605E+00-4.00791E-13 2.94542E-13
 -1      2163 4.21115E+01 6.69505E+00 3.75553E-01-2.50196E+00-2.94487E-13 1.94011E-13
 -1      2164 3.37609E+01 1.55783E+00 1.95410E-02-4.78212E+00-1.38972E-13 6.04405E-13
 -1      2165 3.84809E+01 3.69978E+00 3.94204E-01-4.67855E+00-2.21059E-13 5.00266E-13
 -1      2166 2.55069E+01-3.10914E+00-1.45387E-01-6.70112E+00-9.92539E-14 6.07181E-13
 -1      2167 3.08049E+01-8.49837E-01 1.73702E-01-6.65092E+00-1.26787E-13 5.24025E-13
 -1      2168 1.63677E+01-6.24980E+00-2.99335E-01-7.47004E+00-1.70974E-14 4.03677E-13
 -1      2169 2.13629E+01-4.01187E+00 1.29675E-02-8.22546E+00-1.41220E-13 6.90559E-13
 -1      2170 6.96684E+00-8.39633E+00-5.37101E-01-6.01275E+00-1.88738E-15 2.81580E-13
 -1      2171 1.11766E+01-6.37697E+00-2.14300E-01-7.65217E+00 2.00950E-14 3.94559E-13
 -1      2172 1.66101E+00-8.68772E+00-5.16302E-01-2.91132E+00-1.59844E-13 3.69704E-14
 -1      2173 3.57128E+00-7.79480E+00-4.11302E-01-4.69321E+00-1.87184E-13 1.41442E-13
 -1      2174 2.95346E+00-5.10353E+00-2.19787E-01-2.46384E+00-2.40905E-13 1.17351E-13
 -1      2175 3.93292E+01 4.34153E+00 4.17612E-01 4.33512E+00 3.50761E-13 1.92735E-13
 -1      2176 3.48946E+01 2.43115E+00 7.02876E-02 4.47777E+00 4.33452E-13 1.81410E-13
 -1      2177 2.07376E+01 1.10871E+00-2.05715E-02-1.61572E+00-6.12219E-14-1.65829E-13
 -1      2178 3.35174E+01-3.89312E-01 1.75238E-01 3.39157E+00 4.30836E-13 2.30649E-13
 -1      2179 3.72333E+01 4.95588E+00 3.24953E-01 1.16178E+00 3.54772E-13 1.94456E-13
 -1      2180 2.06274E+01 1.32945E+00-1.88403E-02-1.67705E+00-5.76067E-14-1.78309E-13
 -1      2181 9.18034E+00-6.07403E+00-1.25633E-01 7.37755E+00 1.74805E-13 1.75859E-13
 -1      2182 3.45461E+00-5.10798E+00-1.77310E-01 2.90858E+00-2.67009E-14 5.65659E-14
 -1      2183 2.06651E+01-4.50295E-02 8.19775E-03-4.40300E-01-3.19356E-14-2.28123E-13
 -1      2184 1.84010E+01-6.43666E+00-2.96559E-02 8.29235E+00 2.76557E-13 5.78322E-13
 -1      2185 7.21751E+00-6.34007E+00-2.03710E-01-6.52888E+00-2.86549E-13 1.66644E-13
 -1      2186 1.62867E+01-6.61469E+00-7.02170E-02-8.30504E+00 1.01585E-14 4.80529E-13
 -1      2187 2.58630E+01-5.15218E+00 7.90635E-02-6.79762E+00-1.14353E-14 5.50282E-13
 -1      2188 3.28788E+01-1.24752E+00 1.68148E-01-3.62225E+00 5.63438E-15 3.90299E-13
 -1      2189 3.84231E+01 7.81846E+00 3.36267E-01-8.93993E-01-2.53630E-13 1.01391E-13
 -1      2190 3.70950E+01 5.47602E+00 2.64076E-01-1.17586E+00-4.03066E-13-4.77951E-14
 -1      2191 2.85803E+01-3.75838E+00 9.45361E-02 3.42678E+00-4.76230E-13-2.85050E-13
 -1      2192 1.01614E+01-7.07573E+00-1.24351E-01 6.11806E+00-2.39864E-13-2.72005E-13
 -1      2193 9.51884E+00-5.96212E+00 1.21547E-01 6.37337E+00-1.55431E-14-1.71779E-13
 -1      2194 1.38182E+01-6.82842E+00-1.57823E-01 6.88847E+00-1.48881E-13 3.28904E-14
 -1      2195 1.05598E+00-6.40775E+00-2.25712E-01 8.49555E-02-2.28838E-13-2.49356E-13
 -1      2196 3.80019E+00-6.38330E+00-1.46127E-01-4.27695E+00-3.00121E-13-7.53841E-14
 -1      2197 1.03949E+01-6.98327E+00-1.50094E-01-6.52492E+00-2.51632E-13-1.81632E-13
 -1      2198 1.87625E+01-6.41527E+00-5.22161E-02-6.41110E+00-1.47327E-13-3.04312E-13
 -1      2199 2.70535E+01-4.23380E+00 9.62847E-02-4.29394E+00-9.78662E-14-1.08136E-13
 -1      2200 3.31972E+01-2.71572E-01 1.84386E-01-1.21749E+00 4.87770E-14-3.88578E-15
 -1      2201 3.69328E+01 4.68411E+00 2.93732E-01 6.36723E-01 2.16743E-13-9.13714E-14
 -1      2202 3.76537E+01 8.15565E+00 2.90268E-01 8.69472E-01 2.24376E-13 6.45317E-14
 -1      2203 3.74897E+01 8.04528E+00 2.32371E-01 1.11025E+00 1.47382E-13-9.45355E-14
 -1      2204 2.00378E+01-6.43160E+00-1.01211E-02 6.04764E+00-2.64511E-13-2.24376E-13
 -1      2205 3.66965E+01 4.07947E+00 2.93060E-01-1.25171E+00-2.36366E-13 9.20930E-14
 -1      2206 2.01492E+01 5.06467E-01 3.73508E-03 6.77517E-01 7.31915E-14 2.21209E-13
 -1      2207 2.04171E+01 6.99989E-01 2.07869E-02 9.69131E-01 6.59889E-14 2.29852E-13
 -1      2208 1.95590E+01 3.51630E+00-1.11259E-02-5.91358E-01 8.76229E-14-1.41458E-13
 -1      2209 1.95946E+01 3.47042E+00-1.05182E-02-7.75691E-01 8.08755E-14-1.58893E-13
 -1      2210 1.96414E+01 3.38235E+00-1.28004E-02-9.40147E-01 6.79229E-14-1.68017E-13
 -1      2211 1.97024E+01 3.30177E+00-1.28762E-02-1.12936E+00 5.69604E-14-1.78219E-13
 -1      2212 1.97860E+01 3.03355E+00 1.90991E-04-7.92060E-01 7.24795E-14-1.60351E-13
 -1      2213 1.95115E+01 3.59880E+00-9.61743E-03 9.94331E-02 1.26425E-13-9.76016E-14
 -1      2214 1.95108E+01 3.59963E+00-9.62521E-03-8.00291E-02 1.12213E-13-1.03628E-13
 -1      2215 1.95378E+01 3.55938E+00-9.71707E-03 4.45445E-01 1.45031E-13-6.98296E-14
 -1      2216 1.95202E+01 3.58195E+00-1.01375E-02 2.64626E-01 1.33657E-13-7.90097E-14
 -1      2217 1.96777E+01 3.22154E+00-9.01023E-04 1.69551E-01 1.17478E-13-8.74084E-14
 -1      2218 1.95998E+01 3.46284E+00-1.06048E-02 7.89400E-01 1.48877E-13-5.21302E-14
 -1      2219 1.95634E+01 3.50985E+00-1.12057E-02 6.07967E-01 1.46605E-13-7.40033E-14
 -1      2220 1.97146E+01 3.15799E+00-5.00399E-04 4.87963E-01 1.41082E-13-6.53067E-14
 -1      2221 1.97109E+01 3.28909E+00-1.29455E-02 1.14273E+00 1.70192E-13 7.59028E-15
 -1      2222 1.96480E+01 3.37242E+00-1.28730E-02 9.53467E-01 1.57258E-13-2.29764E-14
 -1      2223 1.97919E+01 3.02432E+00 2.71474E-04 8.03627E-01 1.44975E-13-3.31818E-14
 -1      2224 1.98905E+01 3.00350E+00-1.81636E-02 1.48975E+00 1.64148E-13 5.02359E-14
 -1      2225 1.97908E+01 3.14478E+00-1.51773E-02 1.29935E+00 1.58797E-13 2.76498E-14
 -1      2226 1.99215E+01 2.79918E+00 1.96332E-03 1.10985E+00 1.61581E-13 1.10459E-14
 -1      2227 2.01695E+01 2.54392E+00-2.83936E-02 1.79406E+00 1.49594E-13 1.26952E-13
 -1      2228 2.00180E+01 2.78330E+00-1.70951E-02 1.61960E+00 1.54287E-13 8.18286E-14
 -1      2229 2.01167E+01 2.44852E+00 5.84482E-03 1.37556E+00 1.45359E-13 6.65232E-14
 -1      2230 1.98722E+01 2.68279E-01 4.72688E-03 2.84956E-01 8.29306E-14 1.94777E-13
 -1      2231 2.00329E+01 3.68029E-01 2.01656E-02 4.42128E-01 7.76627E-14 2.12257E-13
 -1      2232 2.02116E+01 6.34668E-01-2.22836E-03 7.04374E-01 8.05597E-14 1.37026E-13
 -1      2233 2.04027E+01 8.54495E-01 1.31800E-02-1.00010E+00-2.75049E-14-1.55747E-13
 -1      2234 2.01904E+01 6.27245E-01-4.51952E-03-6.90835E-01-2.56019E-14-1.48536E-13
 -1      2235 3.32314E+01-8.13637E-02-1.38026E-01 1.40067E+00 2.93598E-13 1.81632E-13
 -1      2236 3.10553E+01-2.65146E+00-2.98080E-02 2.88911E+00 2.63012E-13 1.12133E-13
 -1      2237 2.01256E+01 4.69505E-01 1.61869E-02-4.74750E-01-3.13061E-14-1.25294E-13
 -1      2238 1.99843E+01 3.44550E-01-5.35905E-05-3.03125E-01-3.18638E-14-1.14079E-13
 -1      2239 2.02441E+01 7.45659E-01-2.21652E-03-6.92645E-01-2.18055E-14-1.39691E-13
 -1      2240 1.99210E+01 2.59482E-01 1.08248E-02-1.65650E-01-3.52426E-14-9.17738E-14
 -1      2241 1.98423E+01 1.87935E-01 6.74005E-04-6.84873E-02-1.36243E-14-1.08067E-13
 -1      2242 2.00809E+01 4.16367E-01-3.76448E-03-3.09898E-01-1.42321E-14-1.17489E-13
 -1      2243 1.97979E+01 1.38392E-01 6.38076E-03 1.34724E-02 7.26971E-15-1.33761E-13
 -1      2244 1.97628E+01 9.60041E-02 7.05919E-04 6.66827E-02 3.43336E-14-1.39547E-13
 -1      2245 1.99602E+01 2.27057E-01-3.64988E-03-7.11331E-02-1.68096E-14-1.11435E-13
 -1      2246 1.97368E+01 6.60527E-02 3.57588E-03 1.12256E-01 3.06370E-14-1.67603E-13
 -1      2247 1.97294E+01 4.04635E-02 6.08460E-04 1.38682E-01 7.21531E-15-1.67330E-13
 -1      2248 1.98843E+01 1.14520E-01-2.92715E-03 6.93124E-02-6.96584E-15-1.84599E-13
 -1      2249 1.97176E+01 2.21554E-02 1.85461E-03 1.60750E-01-1.13579E-14-1.65890E-13
 -1      2250 1.97266E+01 6.84451E-03 4.85378E-04 1.70700E-01-5.46975E-15-1.54453E-13
 -1      2251 1.98445E+01 4.62417E-02-2.11636E-03 1.45183E-01 6.46124E-15-1.70656E-13
 -1      2252 1.97244E+01-4.12858E-03 7.93201E-04 1.77865E-01-5.67404E-15-1.64959E-13
 -1      2253 1.97423E+01-1.28818E-02 3.66871E-04 1.77830E-01-2.39902E-14-1.72449E-13
 -1      2254 1.98301E+01 5.00110E-03-1.42841E-03 1.79357E-01-1.24882E-14-1.85528E-13
 -1      2255 1.97463E+01-1.90696E-02 1.43454E-04 1.75884E-01-7.92087E-14-1.42722E-13
 -1      2256 1.97681E+01-2.35462E-02 2.67662E-04 1.70090E-01-9.10179E-14-1.49003E-13
 -1      2257 1.98322E+01-1.89963E-02-9.08615E-04 1.87278E-01-3.11794E-14-1.60621E-13
 -1      2258 1.97754E+01-2.65653E-02-2.39545E-04 1.62955E-01-5.28881E-14-9.50340E-14
 -1      2259 1.97982E+01-2.82390E-02 1.93698E-04 1.54197E-01-1.35591E-14-1.01092E-13
 -1      2260 1.98442E+01-3.17245E-02-5.39608E-04 1.79422E-01-4.70445E-14-5.30284E-14
 -1      2261 1.98071E+01-2.91599E-02-4.46564E-04 1.44525E-01 2.22599E-14-1.08691E-13
 -1      2262 1.98289E+01-2.90098E-02 1.45547E-04 1.34660E-01 3.01029E-14-4.63754E-14
 -1      2263 1.98613E+01-3.70294E-02-2.90070E-04 1.62907E-01 5.86438E-15-5.91833E-14
 -1      2264 1.98382E+01-2.85527E-02-5.37930E-04 1.24236E-01 6.82423E-15-1.41554E-14
 -1      2265 1.98582E+01-2.72305E-02 1.21889E-04 1.14489E-01 2.27523E-14 3.37279E-14
 -1      2266 1.98805E+01-3.74632E-02-1.30839E-04 1.42555E-01 5.53095E-14-6.82688E-15
 -1      2267 1.98673E+01-2.58747E-02-5.54973E-04 1.04502E-01-2.18245E-14 1.00784E-14
 -1      2268 1.98850E+01-2.38009E-02 1.21599E-04 9.56822E-02-5.75937E-14-9.36847E-15
 -1      2269 1.98999E+01-3.47272E-02-3.85347E-05 1.21612E-01 4.54470E-16 1.52986E-14
 -1      2270 1.98936E+01-2.18508E-02-5.26255E-04 8.69288E-02-1.09590E-13-3.72697E-14
 -1      2271 1.99093E+01-1.92763E-02 1.44600E-04 7.95753E-02-1.34309E-13-6.51291E-14
 -1      2272 1.99185E+01-2.99269E-02 4.39601E-06 1.02257E-01-9.09822E-14-1.86830E-14
 -1      2273 1.99174E+01-1.69047E-02-4.71387E-04 7.26054E-02-1.39720E-13-2.25575E-15
 -1      2274 1.99313E+01-1.39521E-02 1.92144E-04 6.71039E-02-1.03686E-13-1.31033E-15
 -1      2275 1.99360E+01-2.37309E-02 1.06273E-05 8.59724E-02-1.08605E-13 1.69094E-15
 -1      2276 1.99390E+01-1.12311E-02-4.03633E-04 6.23334E-02-9.93695E-14-8.05842E-14
 -1      2277 1.99518E+01-7.92439E-03 2.66845E-04 5.89996E-02-7.34598E-14-1.21030E-13
 -1      2278 1.99525E+01-1.64785E-02-1.09756E-05 7.38253E-02-1.43850E-13-3.05756E-14
 -1      2279 1.99595E+01-4.84825E-03-3.31771E-04 5.67955E-02-1.76621E-14-1.68389E-13
 -1      2280 1.99721E+01-1.13409E-03 3.72597E-04 5.59402E-02 4.35143E-14-1.66678E-13
 -1      2281 1.99686E+01-8.25645E-03-5.44373E-05 6.66775E-02-6.82221E-14-1.64123E-13
 -1      2282 1.99800E+01 2.36388E-03-2.61459E-04 5.66867E-02 7.55832E-14-2.14237E-13
 -1      2283 1.99934E+01 6.59888E-03 5.14382E-04 5.86669E-02 7.81670E-14-1.93089E-13
 -1      2284 1.99850E+01 1.04504E-03-1.15892E-04 6.53476E-02 8.60899E-15-2.14933E-13
 -1      2285 2.00023E+01 1.06320E-02-1.96254E-04 6.28146E-02 7.93899E-14-2.03263E-13
 -1      2286 2.00175E+01 1.55469E-02 6.97947E-04 6.80709E-02 7.22416E-14-1.95420E-13
 -1      2287 2.00027E+01 1.16876E-02-1.92863E-04 7.07341E-02 5.62207E-14-1.74847E-13
 -1      2288 2.00280E+01 2.02616E-02-1.38391E-04 7.61730E-02 1.04288E-13-2.59130E-13
 -1      2289 2.00464E+01 2.60460E-02 9.29258E-04 8.52555E-02 7.29490E-14-2.65763E-13
 -1      2290 2.00230E+01 2.40460E-02-2.83581E-04 8.39060E-02 5.44601E-14-1.64873E-13
 -1      2291 2.00593E+01 3.16064E-02-8.93572E-05 9.79891E-02 4.85140E-14-2.04241E-13
 -1      2292 2.00826E+01 3.84619E-02 1.21360E-03 1.11570E-01 7.45438E-14-6.32860E-14
 -1      2293 2.00475E+01 3.85679E-02-3.86328E-04 1.06162E-01 1.05016E-13-2.00622E-13
 -1      2294 2.00986E+01 4.50292E-02-5.02494E-05 1.29741E-01 4.34732E-14-2.30500E-14
 -1      2295 2.01286E+01 5.31415E-02 1.55409E-03 1.48608E-01 6.51555E-14 1.72495E-14
 -1      2296 2.00777E+01 5.57233E-02-4.98810E-04 1.39059E-01 1.10983E-13-2.89928E-14
 -1      2297 2.01487E+01 6.08412E-02-2.18489E-05 1.73130E-01 4.94261E-14-7.88841E-15
 -1      2298 2.01874E+01 7.03360E-02 1.94935E-03 1.98156E-01 9.29104E-14-2.45067E-14
 -1      2299 2.01156E+01 7.59308E-02-6.17596E-04 1.84389E-01 3.90054E-14-3.85672E-14
 -1      2300 2.02128E+01 7.92068E-02-4.23582E-06 2.29999E-01 8.53727E-14-1.32328E-13
 -1      2301 2.02624E+01 9.00766E-02 2.38974E-03 2.62063E-01 4.77735E-14-1.61719E-13
 -1      2302 2.01633E+01 9.94413E-02-7.37845E-04 2.44104E-01 2.18809E-14-4.58597E-14
 -1      2303 2.02941E+01 9.99844E-02 4.40084E-06 3.02145E-01 2.67957E-14-1.92796E-13
 -1      2304 2.03572E+01 1.11968E-01 2.85171E-03 3.41993E-01-5.11821E-14-1.26989E-13
 -1      2305 2.02230E+01 1.26148E-01-8.53675E-04 3.20145E-01 9.19132E-15-1.48566E-13
 -1      2306 2.03965E+01 1.22465E-01 1.03589E-05 3.90994E-01-6.95396E-15-1.46484E-13
 -1      2307 2.04753E+01 1.34849E-01 3.28931E-03 4.38983E-01 7.95153E-14-7.67492E-14
 -1      2308 2.02972E+01 1.55274E-01-9.59976E-04 4.14134E-01-3.33491E-14-2.02539E-13
 -1      2309 2.05236E+01 1.44951E-01 2.93713E-05 4.97033E-01 4.51661E-14-1.40332E-13
 -1      2310 2.06205E+01 1.56256E-01 3.62224E-03 5.52723E-01 2.18929E-14-1.76733E-13
 -1      2311 2.03884E+01 1.84872E-01-1.05695E-03 5.26854E-01 1.67687E-14-1.37965E-13
 -1      2312 2.06793E+01 1.64086E-01 9.51920E-05 6.18903E-01 1.27407E-14-1.31911E-13
 -1      2313 2.07960E+01 1.71593E-01 3.72018E-03 6.80387E-01-5.49956E-14-1.18382E-13
 -1      2314 2.04994E+01 2.11036E-01-1.15927E-03 6.57435E-01 2.10045E-14-6.34366E-14
 -1      2315 2.08677E+01 1.73868E-01 2.73035E-04 7.51967E-01-5.61315E-14-7.30980E-14
 -1      2316 2.10048E+01 1.72950E-01 3.38452E-03 8.14866E-01-4.73764E-14 6.37213E-16
 -1      2317 2.06334E+01 2.26723E-01-1.31216E-03 8.02088E-01-5.37175E-14-2.54604E-14
 -1      2318 2.10928E+01 1.64301E-01 6.77377E-04 8.86168E-01-4.06740E-14 1.22200E-14
 -1      2319 2.12497E+01 1.47614E-01 2.33143E-03 9.42206E-01-2.81643E-14 3.58548E-14
 -1      2320 2.07949E+01 2.20129E-01-1.61516E-03 9.52236E-01 3.64783E-15 1.79556E-13
 -1      2321 2.13598E+01 1.19887E-01 1.48688E-03 1.00299E+00-6.08211E-14 4.72932E-14
 -1      2322 2.15334E+01 7.67481E-02 1.88021E-04 1.03818E+00 6.14184E-15 1.84280E-13
 -1      2323 2.09911E+01 1.72812E-01-2.24823E-03 1.09185E+00 5.28511E-15 2.11561E-13
 -1      2324 2.16749E+01 1.87956E-02 2.93319E-03 1.07152E+00 3.03602E-14 5.69997E-14
 -1      2325 2.18593E+01-6.43783E-02-3.48103E-03 1.06437E+00-5.77250E-14 1.20239E-13
 -1      2326 2.12340E+01 5.83616E-02-3.47486E-03 1.19390E+00-7.97061E-14 2.25686E-13
 -1      2327 2.20461E+01-1.65148E-01 5.18256E-03 1.04426E+00-1.15941E-13 1.28978E-13
 -1      2328 2.22307E+01-3.01264E-01-9.01752E-03 9.65109E-01-1.38720E-13 1.48987E-13
 -1      2329 2.15428E+01-1.56012E-01-5.56615E-03 1.21597E+00-1.04232E-13 1.27275E-13
 -1      2330 2.24797E+01-4.53002E-01 8.11845E-03 8.55049E-01-1.60565E-13 1.65427E-13
 -1      2331 2.26469E+01-6.44345E-01-1.63382E-02 6.69276E-01-1.46366E-13 6.72463E-14
 -1      2332 2.19451E+01-5.00050E-01-8.48701E-03 1.09623E+00-1.38827E-13 1.87716E-13
 -1      2333 2.29693E+01-8.37390E-01 1.05478E-02 4.24862E-01-1.16479E-13 2.22987E-13
 -1      2334 2.30907E+01-1.05524E+00-2.40954E-02 1.04394E-01-3.24463E-14 2.28028E-13
 -1      2335 2.24691E+01-9.74936E-01-1.13131E-02 7.53450E-01-7.18106E-14 3.81462E-13
 -1      2336 2.34689E+01-1.23895E+00 9.57288E-03-3.11635E-01 3.83417E-14 1.80000E-13
 -1      2337 2.35033E+01-1.39495E+00-2.74105E-02-7.62420E-01 6.69421E-14 2.22517E-13
 -1      2338 2.31195E+01-1.50282E+00-1.14614E-02 1.00463E-01-1.27794E-14 5.20746E-13
 -1      2339 2.38562E+01-1.45442E+00 2.07369E-03-1.33680E+00-2.91078E-14 1.66601E-13
 -1      2340 2.37562E+01-1.39567E+00-1.94319E-02-1.83714E+00-1.69744E-13 1.84953E-13
 -1      2341 2.38249E+01-1.85937E+00-3.79589E-03-9.04077E-01 4.07395E-14 8.31941E-14
 -1      2342 2.39256E+01-1.17667E+00-1.88774E-02-2.43514E+00-1.62653E-13 1.98515E-13
 -1      2343 2.36736E+01-7.54626E-01 8.02535E-04-2.79755E+00-8.32660E-14 1.47697E-13
 -1      2344 2.43825E+01-1.66253E+00 1.24920E-02-2.14148E+00-2.06832E-13 1.52915E-13
 -1      2345 2.35149E+01-1.83582E-01-4.55550E-02-3.11093E+00-6.28438E-14 1.95957E-13
 -1      2346 2.31600E+01 5.37756E-01 1.79311E-02-3.08560E+00-1.34859E-13 2.62560E-13
 -1      2347 2.44918E+01-6.00571E-01 1.08159E-02-3.17213E+00-9.98654E-14 2.83027E-13
 -1      2348 2.27577E+01 1.24698E+00-5.34993E-02-2.79026E+00-2.32413E-13 2.76382E-13
 -1      2349 2.24335E+01 1.86965E+00 1.16111E-02-2.26569E+00-1.68577E-13 2.95910E-13
 -1      2350 2.40472E+01 1.16132E+00-1.12636E-02-3.28233E+00-9.58400E-14 3.81252E-13
 -1      2351 2.21580E+01 2.20210E+00-3.11473E-02-1.39685E+00-1.18430E-13 3.04857E-13
 -1      2352 2.19527E+01 2.25050E+00-4.51733E-02-6.49587E-01 5.60246E-14 1.84375E-13
 -1      2353 2.34706E+01 2.64075E+00-3.04597E-02-2.05214E+00-1.83749E-13 4.59669E-13
 -1      2354 2.20995E+01 2.01090E+00 2.01133E-02 3.29844E-01 2.23252E-13 7.43312E-14
 -1      2355 2.21215E+01 1.42144E+00-5.02287E-02 9.01160E-01 3.49019E-13 4.66840E-14
 -1      2356 2.32437E+01 2.91238E+00-2.13566E-02-1.05414E-01 2.25653E-14 2.03873E-13
 -1      2357 2.23340E+01 7.76014E-01 1.80361E-02 1.25097E+00 1.39675E-13-8.46380E-14
 -1      2358 2.24017E+01 1.21782E-01-4.59219E-02 1.38399E+00 1.12779E-13-6.66533E-14
 -1      2359 2.35127E+01 1.29998E+00-3.03595E-02 1.18907E+00 9.88211E-14-5.46577E-14
 -1      2360 2.24127E+01-3.91795E-01 2.31492E-03 1.20330E+00 1.09353E-13-4.34323E-14
 -1      2361 2.24099E+01-7.41555E-01-1.73603E-02 9.81543E-01-1.40786E-14-6.40816E-14
 -1      2362 2.36332E+01-1.41709E-01 1.11374E-02 1.33244E+00 1.75207E-14-1.52075E-13
 -1      2363 2.20668E+01-8.64190E-01-1.77992E-02 5.49873E-01-1.80932E-15-1.31307E-13
 -1      2364 2.19273E+01-8.28005E-01 1.31065E-03 2.55807E-01 5.66562E-14-1.04885E-13
 -1      2365 2.32202E+01-1.04154E+00 7.48973E-03 5.93661E-01-1.30881E-14-7.60520E-14
 -1      2366 1.96249E+01 7.25248E-02 2.06676E-03-6.64830E-02 1.22277E-14 1.27535E-13
 -1      2367 1.96522E+01 1.04264E-01 6.90764E-03-2.03547E-02 4.99479E-14 1.67704E-13
 -1      2368 1.96014E+01 3.06548E-02 1.33369E-03-1.32103E-01 2.27446E-14 9.31861E-14
 -1      2369 1.95983E+01 4.95850E-02 3.68028E-03-1.09622E-01-5.25686E-15 9.21424E-14
 -1      2370 1.97691E+01 8.97746E-02-3.17181E-03-7.18535E-02 3.63335E-14 4.41992E-14
 -1      2371 1.96134E+01 5.57107E-03 8.64188E-04-1.60452E-01 1.03236E-13 9.55154E-14
 -1      2372 1.95933E+01 1.68464E-02 1.81412E-03-1.52260E-01 6.28534E-14 9.86207E-14
 -1      2373 1.97349E+01 3.57652E-02-2.27917E-03-1.44111E-01 5.29201E-14 1.60561E-14
 -1      2374 1.96454E+01-9.08859E-03 5.42965E-04-1.65994E-01 4.46524E-14 1.39973E-13
 -1      2375 1.96171E+01-2.62928E-03 7.14435E-04-1.66370E-01 9.10540E-14 1.34665E-13
 -1      2376 1.97315E+01 3.57827E-03-1.50943E-03-1.75758E-01 6.91002E-14 8.25648E-14
 -1      2377 1.96871E+01-1.70318E-02 3.19115E-04-1.58071E-01-4.84737E-14 1.84900E-13
 -1      2378 1.96559E+01-1.36879E-02 6.16666E-05-1.63356E-01 4.15317E-15 1.53701E-13
 -1      2379 1.97466E+01-1.50046E-02-9.32090E-04-1.82267E-01 1.08687E-14 1.19488E-13
 -1      2380 1.97316E+01-2.05803E-02 1.68588E-04-1.42834E-01 4.31555E-14 1.43437E-13
 -1      2381 1.97009E+01-1.92699E-02-3.13456E-04-1.50633E-01-8.15892E-15 1.55730E-13
 -1      2382 1.97717E+01-2.48245E-02-5.28079E-04-1.73844E-01-8.05847E-16 7.76038E-14
 -1      2383 1.97750E+01-2.12555E-02 7.52027E-05-1.24364E-01 6.30903E-14 1.33912E-13
 -1      2384 1.97465E+01-2.12655E-02-5.09019E-04-1.33097E-01 5.99318E-14 1.39043E-13
 -1      2385 1.98012E+01-2.89259E-02-2.59028E-04-1.57301E-01 6.29160E-14 3.65491E-14
 -1      2386 1.98149E+01-2.00722E-02 2.68500E-05-1.05358E-01 1.02432E-13 6.51871E-14
 -1      2387 1.97896E+01-2.09284E-02-5.87437E-04-1.13990E-01 9.16327E-14 1.16561E-13
 -1      2388 1.98314E+01-2.93019E-02-9.02334E-05-1.37193E-01 8.62802E-14 3.21938E-14
 -1      2389 1.98506E+01-1.76975E-02 1.50106E-05-8.75865E-02 6.75607E-14 1.84167E-14
 -1      2390 1.98286E+01-1.90921E-02-5.90456E-04-9.54395E-02 9.67216E-14 5.93609E-14
 -1      2391 1.98602E+01-2.72744E-02 5.44969E-06-1.16559E-01 1.14628E-13 4.45151E-14
 -1      2392 1.98818E+01-1.45466E-02 3.44026E-05-7.22138E-02 9.33475E-14-3.35862E-14
 -1      2393 1.98629E+01-1.62938E-02-5.46413E-04-7.88420E-02 6.08303E-14-8.76799E-15
 -1      2394 1.98867E+01-2.37031E-02 4.78580E-05-9.74099E-02 7.86243E-14-1.59675E-13
 -1      2395 1.99093E+01-1.08472E-02 8.26340E-05-6.00356E-02 7.16696E-14-5.77019E-14
 -1      2396 1.98930E+01-1.28519E-02-4.74249E-04-6.51274E-02 5.67476E-14-6.46025E-15
 -1      2397 1.99106E+01-1.91129E-02 5.09131E-05-8.10961E-02 4.23745E-14-1.06704E-13
 -1      2398 1.99340E+01-6.68356E-03 1.59851E-04-5.16543E-02 1.10020E-13-6.20097E-15
 -1      2399 1.99195E+01-8.92060E-03-3.86236E-04-5.49608E-02 1.12188E-13-2.24996E-14
 -1      2400 1.99324E+01-1.37788E-02 2.42165E-05-6.85652E-02 5.76966E-14-8.09060E-14
 -1      2401 1.99574E+01-2.02895E-03 2.68315E-04-4.76141E-02 7.17908E-14 9.51593E-14
 -1      2402 1.99438E+01-4.52756E-03-2.89943E-04-4.88934E-02 1.02193E-13 1.03010E-13
 -1      2403 1.99526E+01-7.78515E-03-2.60445E-05-6.05619E-02 5.36687E-14 2.17301E-14
 -1      2404 1.99813E+01 3.22910E-03 4.11982E-04-4.85039E-02 5.40100E-14 1.36957E-13
 -1      2405 1.99673E+01 3.97877E-04-1.89578E-04-4.74788E-02 6.11960E-14 1.59038E-13
 -1      2406 1.99725E+01-1.06899E-03-9.62345E-05-5.77786E-02 5.65915E-15 2.06367E-13
 -1      2407 2.00078E+01 9.26656E-03 5.95997E-04-5.50348E-02-6.04479E-14 1.77293E-13
 -1      2408 1.99921E+01 6.00100E-03-8.70403E-05-5.13605E-02 5.15565E-15 1.88989E-13
 -1      2409 1.99935E+01 6.54493E-03-1.84447E-04-6.09700E-02-1.54412E-14 2.63426E-13
 -1      2410 2.00392E+01 1.63007E-02 8.25992E-04-6.80923E-02-4.79927E-14 7.79957E-14
 -1      2411 2.00203E+01 1.24800E-02 1.72236E-05-6.13355E-02-5.76577E-14 1.08958E-13
 -1      2412 2.00170E+01 1.53127E-02-2.89818E-04-7.10358E-02-1.53921E-14 2.37697E-13
 -1      2413 2.00784E+01 2.45629E-02 1.10702E-03-8.87628E-02-3.09681E-14 1.46646E-13
 -1      2414 2.00545E+01 2.00619E-02 1.23508E-04-7.83929E-02-7.75446E-14 9.21427E-14
 -1      2415 2.00453E+01 2.55381E-02-4.11865E-04-8.90734E-02-6.37466E-14 1.18907E-13
 -1      2416 2.01286E+01 3.42613E-02 1.44184E-03-1.18327E-01 5.60996E-14 2.30642E-13
 -1      2417 2.00977E+01 2.89719E-02 2.32232E-04-1.03723E-01 7.18437E-14 2.09917E-13
 -1      2418 2.00803E+01 3.75310E-02-5.49818E-04-1.16397E-01-1.66761E-14 8.07156E-14
 -1      2419 2.01935E+01 4.55221E-02 1.82832E-03-1.58202E-01-1.63209E-13 2.90850E-13
 -1      2420 2.01533E+01 3.93867E-02 3.43378E-04-1.38686E-01-3.72873E-14 2.45294E-13
 -1      2421 2.01248E+01 5.15473E-02-7.01952E-04-1.54513E-01-2.01976E-14 2.08666E-13
 -1      2422 2.02772E+01 5.82971E-02 2.25521E-03-2.09817E-01-2.41032E-13 2.21633E-13
 -1      2423 2.02250E+01 5.13622E-02 4.56022E-04-1.84722E-01-2.44367E-13 2.74450E-13
 -1      2424 2.01815E+01 6.76958E-02-8.65022E-04-2.05033E-01-1.65608E-13 1.88841E-13
 -1      2425 2.03840E+01 7.22163E-02 2.69594E-03-2.74369E-01-4.01906E-14 7.85545E-14
 -1      2426 2.03171E+01 6.47181E-02 5.68032E-04-2.43173E-01-1.16097E-13 1.23777E-13
 -1      2427 2.02535E+01 8.57907E-02-1.03399E-03-2.69491E-01-1.14813E-13 9.67896E-14
 -1      2428 2.05185E+01 8.63537E-02 3.09934E-03-3.52411E-01 1.19656E-13 1.50842E-13
 -1      2429 2.04340E+01 7.88539E-02 6.76168E-04-3.14955E-01 4.16336E-14 1.12545E-13
 -1      2430 2.03443E+01 1.05118E-01-1.20248E-03-3.49032E-01 5.34159E-14 1.53257E-13
 -1      2431 2.06847E+01 9.88699E-02 3.37693E-03-4.43174E-01-1.39333E-13 1.63705E-13
 -1      2432 2.05804E+01 9.24614E-02 7.76994E-04-4.00034E-01-2.16988E-14 7.66427E-14
 -1      2433 2.04572E+01 1.24071E-01-1.36462E-03-4.43877E-01 5.59140E-14 1.31031E-13
 -1      2434 2.08863E+01 1.06487E-01 3.38691E-03-5.43516E-01-7.56453E-14 1.55099E-13
 -1      2435 2.07603E+01 1.03092E-01 8.69244E-04-4.96569E-01-1.19760E-13 1.88371E-13
 -1      2436 2.05957E+01 1.39599E-01-1.51916E-03-5.52498E-01-1.47431E-13-3.06327E-14
 -1      2437 2.11250E+01 1.03785E-01 2.91805E-03-6.46352E-01-2.01385E-14 3.06351E-13
 -1      2438 2.09774E+01 1.06545E-01 9.58366E-04-5.99622E-01-5.75677E-14 1.99467E-13
 -1      2439 2.07631E+01 1.46429E-01-1.67657E-03-6.70360E-01-1.28168E-13 7.52119E-14
 -1      2440 2.14003E+01 8.24155E-02 1.68168E-03-7.38478E-01-6.44569E-14 2.25149E-13
 -1      2441 2.12335E+01 9.61011E-02 1.06353E-03-6.99278E-01-5.36420E-15 3.44555E-13
 -1      2442 2.09626E+01 1.36073E-01-1.86793E-03-7.88112E-01-7.78749E-14 1.53713E-13
 -1      2443 2.17078E+01 3.05926E-02-6.69493E-04-7.97861E-01-1.01632E-13 2.76856E-13
 -1      2444 2.15282E+01 6.17938E-02 1.22347E-03-7.78156E-01-1.44240E-13 2.03621E-13
 -1      2445 2.11971E+01 9.58335E-02-2.15069E-03-8.89149E-01-7.83455E-14 5.67683E-14
 -1      2446 2.20377E+01-6.61703E-02-4.46152E-03-7.90984E-01-4.89071E-14 2.95472E-13
 -1      2447 2.18574E+01-9.68119E-03 1.49206E-03-8.08510E-01 9.82889E-15 2.99814E-13
 -1      2448 2.14699E+01 8.50165E-03-2.59460E-03-9.46669E-01-7.39660E-14 1.65675E-13
 -1      2449 2.23726E+01-2.21070E-01-9.80338E-03-6.71886E-01 4.83151E-14 4.42068E-13
 -1      2450 2.22112E+01-1.33013E-01 1.88974E-03-7.49935E-01-7.43077E-14 3.86367E-13
 -1      2451 2.17842E+01-1.45604E-01-3.20968E-03-9.20882E-01-3.40326E-14 3.92653E-13
 -1      2452 2.26843E+01-4.35467E-01-1.61334E-02-3.86492E-01 2.07809E-13 5.45394E-13
 -1      2453 2.25699E+01-3.17650E-01 2.27146E-03-5.50157E-01 1.18488E-13 4.22776E-13
 -1      2454 2.21410E+01-3.81105E-01-3.76206E-03-7.58212E-01 1.06114E-13 5.31621E-13
 -1      2455 2.29274E+01-6.79060E-01-2.16294E-02 1.11051E-01 1.72032E-13 6.29741E-13
 -1      2456 2.28964E+01-5.52808E-01 2.15018E-03-1.54331E-01 2.89766E-13 6.46655E-13
 -1      2457 2.25329E+01-6.89800E-01-3.37239E-03-3.96678E-01 1.47717E-13 4.75741E-13
 -1      2458 2.30337E+01-8.66242E-01-2.31709E-02 8.22016E-01-7.86524E-14 6.51856E-13
 -1      2459 2.31252E+01-7.84091E-01 2.04405E-04 4.68091E-01 9.64680E-14 6.23808E-13
 -1      2460 2.29279E+01-1.01074E+00-4.62418E-04 2.13616E-01 1.19267E-13 6.15262E-13
 -1      2461 2.29158E+01-8.47994E-01-1.64835E-02 1.64957E+00-6.48362E-14 3.67702E-13
 -1      2462 2.31573E+01-8.94018E-01-5.33919E-03 1.27443E+00-1.01197E-13 5.01173E-13
 -1      2463 2.32479E+01-1.20453E+00 5.52662E-03 1.06493E+00 8.82090E-14 5.91619E-13
 -1      2464 2.24927E+01-4.69421E-01-5.08795E-04 2.34242E+00 2.64055E-14 8.11885E-14
 -1      2465 2.28749E+01-7.13906E-01-1.52359E-02 2.08207E+00-6.57027E-16 1.38266E-13
 -1      2466 2.33543E+01-1.05137E+00 1.33127E-02 2.02205E+00 1.00400E-13 2.12526E-13
 -1      2467 2.17898E+01 2.60545E-01 1.78076E-02 2.53664E+00-1.04440E-13-6.18429E-15
 -1      2468 2.22415E+01-1.43399E-01-2.12513E-02 2.54940E+00-1.04345E-13 2.08340E-15
 -1      2469 2.31001E+01-4.02545E-01 1.21605E-02 2.74467E+00-3.22099E-14-9.44212E-14
 -1      2470 2.10010E+01 1.04611E+00 1.92795E-02 1.97068E+00 1.09161E-13 3.15113E-14
 -1      2471 2.13985E+01 6.75288E-01-2.05971E-02 2.32955E+00-1.75823E-14-8.46771E-14
 -1      2472 2.25039E+01 6.53088E-01 2.46857E-03 2.80302E+00 8.32234E-15-2.76799E-13
 -1      2473 2.04730E+01 1.39669E+00 3.62120E-03 7.85213E-01-2.80644E-14 1.05410E-13
 -1      2474 2.07014E+01 1.30479E+00-3.04050E-03 1.35775E+00 2.88138E-14 1.11423E-13
 -1      2475 2.18353E+01 1.59409E+00-2.02606E-02 1.93875E+00-3.09267E-14-1.22965E-13
 -1      2476 2.04191E+01 1.08255E+00-1.39192E-02-4.40184E-01 1.54404E-13-2.69229E-15
 -1      2477 2.04431E+01 1.32036E+00 1.96541E-02 6.62555E-02 4.74395E-14 1.13142E-13
 -1      2478 2.15014E+01 1.84220E+00-2.34635E-02 4.87921E-01 9.39006E-15-1.45148E-13
 -1      2479 2.06968E+01 3.66227E-01-1.99188E-02-1.12552E+00 1.55855E-13 9.43299E-14
 -1      2480 2.05812E+01 7.44161E-01 2.46973E-02-8.98421E-01 8.72878E-14 2.25011E-14
 -1      2481 2.16107E+01 1.25945E+00-5.78162E-03-7.71860E-01 1.28709E-13-1.72032E-13
 -1      2482 2.09456E+01-2.40478E-01-1.16694E-02-1.12281E+00 3.89251E-13 1.38998E-13
 -1      2483 2.08099E+01 2.37503E-02 1.03176E-02-1.17256E+00 3.30872E-13 1.94743E-13
 -1      2484 2.18520E+01 2.94188E-01 9.84648E-03-1.26578E+00 1.60549E-13-2.95382E-14
 -1      2485 2.09370E+01-4.49517E-01 2.94951E-03-7.22788E-01 4.02428E-13-7.70117E-14
 -1      2486 2.08632E+01-3.99263E-01-7.40499E-03-9.00434E-01 4.91466E-13 1.33618E-13
 -1      2487 2.18466E+01-4.12764E-01 1.44715E-02-1.02978E+00 4.14787E-13 5.13963E-14
 -1      2488 2.06614E+01-3.25522E-01 9.90285E-03-3.21273E-01-5.65433E-15 1.00228E-13
 -1      2489 2.06721E+01-4.10817E-01-1.42824E-02-4.68658E-01 1.57329E-13 1.03667E-13
 -1      2490 2.14852E+01-5.71894E-01 1.52726E-02-5.03893E-01 1.99890E-13 1.85978E-13
 -1      2491 2.03422E+01-2.02835E-01-5.67206E-03-1.88732E-01-1.20784E-13-6.60791E-14
 -1      2492 2.13172E+01 1.86832E-01-4.25700E-03 4.69623E+00-1.00782E-13 2.41170E-14
 -1      2493 2.19867E+01-3.52010E-01 4.01611E-02 4.10941E+00 2.01727E-14-2.67874E-13
 -1      2494 1.90267E+01 1.47288E+00-4.48815E-02 5.15751E+00-1.99167E-13 6.10151E-13
 -1      2495 2.03456E+01 8.02343E-01 8.78531E-02 5.22719E+00-2.38325E-13 3.41291E-13
 -1      2496 2.10690E+01-8.90051E-01-5.93957E-03 5.51362E+00-8.64916E-14 7.22478E-14
 -1      2497 2.20962E+01-5.54860E-01 3.98885E-02 1.51753E+00-1.57169E-13-1.58741E-13
 -1      2498 2.17547E+01-6.89173E-01-1.62654E-02 8.58440E-01-2.00446E-13 1.69829E-14
 -1      2499 2.22696E+01-4.44375E-01 2.64621E-02 3.14344E+00-1.53343E-14-2.98980E-13
 -1      2500 2.22808E+01-7.47283E-01 2.79312E-03 2.36955E+00-1.40117E-13-1.65805E-13
 -1      2501 2.28032E+01-1.26397E+00-1.31154E-02 1.94622E+00-3.23683E-14-1.21421E-13
 -1      2502 2.27683E+01-1.42800E+00-8.80734E-03 3.84291E+00 9.21303E-14-2.90832E-13
 -1      2503 1.62402E+01 3.09060E+00-4.27326E-02 3.49321E+00-1.20974E-13 3.32068E-13
 -1      2504 1.75745E+01 2.53460E+00 1.08771E-01 4.57164E+00-5.24719E-14 3.84984E-13
 -1      2505 1.77833E+01 5.93985E-01 5.06613E-02 5.64032E+00-2.89782E-13 5.42774E-13
 -1      2506 1.50509E+01 3.88523E+00 1.85251E-02-3.47086E-02-2.21230E-13 1.03764E-13
 -1      2507 1.53446E+01 3.79537E+00 6.09752E-02 1.65016E+00-1.75461E-13 3.07927E-13
 -1      2508 1.45504E+01 2.27738E+00 1.41320E-01 3.07281E+00-1.84561E-13 2.43860E-13
 -1      2509 1.65219E+01 3.13985E+00 9.20691E-02-3.62182E+00 1.21562E-13-2.54310E-14
 -1      2510 1.54923E+01 3.59374E+00-1.24342E-02-2.20768E+00-1.98813E-13 3.71925E-15
 -1      2511 1.38719E+01 2.65358E+00 1.61614E-01-1.33844E+00-9.68357E-14 2.99760E-15
 -1      2512 1.93630E+01 1.43725E+00 9.65256E-02-5.18289E+00 1.19303E-13 8.79938E-14
 -1      2513 1.79079E+01 2.13572E+00-4.60429E-02-4.72734E+00 1.74433E-13-1.78517E-13
 -1      2514 1.65071E+01 1.32248E+00 1.14139E-01-4.90547E+00 1.07709E-13 6.28941E-14
 -1      2515 2.15203E+01-3.59282E-02 3.70549E-02-4.61553E+00 1.07619E-13 4.39945E-13
 -1      2516 2.05907E+01 6.25916E-01-2.16730E-02-4.98496E+00 1.90026E-13 2.16428E-13
 -1      2517 1.98582E+01-4.13751E-01 1.56864E-02-5.80936E+00 1.44346E-13 1.17205E-13
 -1      2518 2.22552E+01-6.39584E-01 7.80493E-03-2.96820E+00 5.58963E-14 2.74859E-13
 -1      2519 2.20710E+01-2.23027E-01 2.88198E-02-3.68111E+00 5.21924E-14 3.08068E-13
 -1      2520 2.23644E+01-1.33744E+00 1.66854E-02-4.49726E+00 7.09450E-14 2.76624E-13
 -1      2521 2.19514E+01-6.63199E-01-2.98537E-03-1.35278E+00-1.78207E-13-1.37944E-13
 -1      2522 2.22035E+01-4.89647E-01 4.06705E-02-2.02317E+00 2.53948E-14 3.24116E-14
 -1      2523 2.29449E+01-1.33005E+00 1.32534E-02-2.54901E+00 1.98548E-14 1.41335E-13
 -1      2524 6.53642E+00-2.96891E+00 7.33472E-02 4.79418E+00-1.53266E-13 2.41362E-13
 -1      2525 5.09840E+00-2.21717E+00 1.48006E-01 1.58691E+00-2.81580E-13 1.99396E-13
 -1      2526 2.19052E+01-6.11853E+00-5.21669E-02 8.06449E+00 3.23852E-13 6.27109E-13
 -1      2527 1.73280E+01-5.92351E+00 1.03960E-01 8.34121E+00 3.90576E-13 5.81230E-13
 -1      2528 1.97059E+01 1.43322E-01 3.26029E-03 5.95613E-02 6.47505E-14 1.92264E-13
 -1      2529 1.97844E+01 1.98183E-01 1.23799E-02 1.45773E-01 7.67622E-14 2.01972E-13
 -1      2530 1.98501E+01 1.80922E-01-3.85850E-03 6.49651E-02 7.01712E-14 9.52047E-14
 -1      2531 3.43666E+01 4.91896E+00-1.57104E-01-5.74497E-02 3.90743E-13 1.15685E-13
 -1      2532 3.35903E+01 3.01060E+00-8.80090E-02-2.13988E-02 3.83998E-13 2.17937E-13
 -1      2533 2.09112E+01-2.49957E-01-1.31390E-02-4.30776E-01-2.47562E-14-1.53603E-13
 -1      2534 7.44957E+00-4.25674E+00 5.18583E-02-6.00545E+00-3.93963E-13 1.52045E-13
 -1      2535 1.07527E+01-5.10349E+00-2.14054E-02-7.90075E+00-2.29594E-13 2.83357E-13
 -1      2536 2.88564E+01-4.73251E+00-7.90225E-02 5.00347E+00 3.16441E-13 2.45748E-13
 -1      2537 2.60378E+01-5.68637E+00 5.20032E-02 6.06026E+00 2.39558E-13 4.40814E-13
 -1      2538 4.82658E+00-2.36528E+00 1.01193E-01-1.60560E+00-2.78493E-13 3.60822E-14
 -1      2539 5.77589E+00-3.01295E+00 8.52804E-02-4.02933E+00-3.39478E-13 1.52989E-13
 -1      2540 2.98717E+01-3.76691E+00-1.21791E-01 1.53907E+00-2.50217E-13 4.95992E-14
 -1      2541 2.65832E+01-5.43057E+00 5.90655E-03 3.18425E+00-1.81966E-13 4.11338E-14
 -1      2542 2.85619E+00-3.97258E+00 8.37704E-02 1.19051E+00-4.32640E-14-1.24900E-13
 -1      2543 2.75356E+00-4.15098E+00 7.36369E-02-1.29407E+00-9.92262E-14-2.35090E-13
 -1      2544 1.95182E+01 3.58499E+00-1.00977E-02-2.45232E-01 1.07801E-13-1.14031E-13
 -1      2545 1.95343E+01 3.56431E+00-9.67327E-03-4.25941E-01 9.30756E-14-1.27823E-13
 -1      2546 1.97106E+01 3.16377E+00-5.92343E-04-4.73270E-01 8.65165E-14-1.26143E-13
 -1      2547 1.96762E+01 3.22366E+00-9.22008E-04-1.51972E-01 9.97451E-14-1.06621E-13
 -1      2548 3.44579E+01 6.77711E+00-5.04302E-02 1.94415E+00 1.80134E-13 3.63876E-14
 -1      2549 3.33902E+01 7.79880E+00-1.70362E-01 1.64681E+00 1.15352E-13-9.60343E-15
 -1      2550 2.29506E+01-6.49452E+00-7.45162E-02 5.36201E+00-6.72240E-14-2.11942E-13
 -1      2551 1.91634E+01-6.81999E+00 6.33594E-02 5.97193E+00-6.24500E-14-7.49470E-14
 -1      2552 3.27256E+01 7.61165E+00-2.49116E-01 3.20601E-01 2.02338E-13 1.03431E-13
 -1      2553 3.39623E+01 6.72710E+00-1.07028E-01-1.66309E-02 3.42892E-13 1.40776E-13
 -1      2554 3.13757E+01 5.34164E+00-7.10149E-02-8.05577E-01 3.79113E-13 2.19255E-13
 -1      2555 3.34797E+01 2.89168E+00-9.61019E-02 1.65370E+00 1.71779E-13 7.16094E-15
 -1      2556 3.45475E+01 4.91923E+00-1.30023E-01 1.89200E+00 1.73028E-13-1.33227E-14
 -1      2557 3.06532E+01-2.40113E+00-4.30791E-02-2.63329E-01-9.23948E-14-4.64073E-14
 -1      2558 3.24886E+01-1.90024E-01-1.38498E-01 8.18879E-01 6.11594E-14-4.16889E-14
 -1      2559 2.53118E+01-5.67309E+00-2.17091E-03-4.14726E+00-2.08472E-13-1.82410E-13
 -1      2560 2.84523E+01-4.50565E+00-1.22717E-01-2.80969E+00-1.57985E-13 3.97737E-14
 -1      2561 1.78468E+01-6.78260E+00 6.55696E-03-6.39272E+00-1.89793E-13-2.85293E-13
 -1      2562 2.18577E+01-6.36079E+00-3.57013E-02-5.88885E+00-2.62290E-13-1.79495E-13
 -1      2563 1.04814E+01-5.73947E+00 9.63960E-02-6.52852E+00-2.79415E-13-1.87655E-13
 -1      2564 1.40854E+01-6.38369E+00 3.06315E-02-7.05125E+00-2.07723E-13-2.79776E-13
 -1      2565 1.75025E+01-6.39779E+00 7.82208E-02-6.49839E+00-3.27516E-13-2.34479E-13
 -1      2566 3.97234E+00-4.45697E+00 8.00710E-02-3.16237E+00-2.79568E-13-9.00946E-14
 -1      2567 6.56722E+00-4.53647E+00 8.23864E-02-5.10895E+00-2.22294E-13-2.23710E-14
 -1      2568 5.28827E+00-2.79546E+00 1.61765E-01-2.21195E+00-1.26892E-13-9.22595E-14
 -1      2569 6.60447E+00-4.66604E+00 9.31957E-02 5.15611E+00 6.24223E-14-3.41838E-13
 -1      2570 4.50158E+00-4.22403E+00 1.10146E-01 3.34721E+00 5.08760E-14-1.76414E-13
 -1      2571 3.32267E+01 1.83076E+00-8.42195E-02-1.01242E-01-1.94816E-13 2.55906E-14
 -1      2572 3.38415E+01 3.92450E+00-1.63924E-01 1.92906E-01-1.85463E-13 8.25728E-14
 -1      2573 3.28746E+01 6.69891E-01-1.58379E-01-1.44983E+00-3.51275E-13 1.28703E-13
 -1      2574 3.15565E+01-1.30087E+00-5.47876E-02-6.75380E-01-2.39371E-13 1.17517E-13
 -1      2575 3.37524E+01 5.74107E+00-1.84947E-01-2.36333E+00-3.60711E-13 9.24261E-14
 -1      2576 3.32143E+01 3.46371E+00-1.30993E-01-2.25581E+00-3.97848E-13 3.94684E-14
 -1      2577 3.42975E+01 7.92578E+00-1.51925E-01-1.18807E+00-2.65510E-13 1.30050E-13
 -1      2578 3.38261E+01 7.49364E+00-1.57798E-01-1.82570E+00-3.22631E-13 7.62862E-14
 -1      2579 3.40597E+01 6.19209E+00-1.53160E-01 1.02245E-01-2.40696E-13 4.10505E-14
 -1      2580 3.44217E+01 7.55940E+00-1.48482E-01-3.70224E-01-2.72782E-13-5.22637E-14
 -1      2581 3.16672E+01 4.46415E+00-6.47335E-02 9.75404E-01-2.32842E-13 1.25733E-14
 -1      2582 3.06318E+01-3.28194E+00 5.41093E-03-3.15070E+00 1.17163E-13 2.87104E-13
 -1      2583 3.28609E+01-9.69857E-01-1.42125E-01-1.74663E+00 1.47798E-15 2.06390E-13
 -1      2584 2.44194E+01-6.03999E+00 6.33718E-02-6.78015E+00-1.15130E-13 3.96683E-13
 -1      2585 2.77393E+01-5.28393E+00-1.17728E-01-5.61878E+00-4.85723E-15 2.26458E-13
 -1      2586 1.53629E+01-5.95560E+00 6.08498E-02-8.28296E+00-3.59157E-14 5.16448E-13
 -1      2587 1.99746E+01-6.11785E+00-4.99503E-02-8.41427E+00-7.84928E-14 6.35412E-13
 -1      2588 2.05478E+01 1.95543E+00-1.36787E-02-1.90135E+00-4.47368E-14-1.80122E-13
 -1      2589 2.04114E+01 1.21669E+00-6.34953E-03-1.28724E+00-3.61482E-14-1.73362E-13
 -1      2590 2.03745E+01 1.37614E+00 3.97007E-03-1.23139E+00-3.40834E-14-1.65281E-13
 -1      2591 2.02877E+01 2.36499E+00-7.74086E-03-1.82578E+00-2.33888E-14-1.75308E-13
 -1      2592 2.04915E+01 8.74933E-01-7.31262E-03 1.22637E+00 7.65880E-14 2.56540E-13
 -1      2593 2.08420E+01 1.25693E+00-6.05104E-03 1.72708E+00 7.58005E-14 2.82508E-13
 -1      2594 2.06477E+01 1.71563E+00-1.57915E-02 1.92120E+00 9.22812E-14 2.29986E-13
 -1      2595 2.04500E+01 1.05801E+00-9.39569E-03 1.24108E+00 8.70267E-14 1.67358E-13
 -1      2596 1.24508E+01-5.03110E+00-1.42653E-02 8.32116E+00 2.23765E-13 5.89889E-13
 -1      2597 8.93968E+00-4.21602E+00 1.08699E-01 6.72636E+00 3.38063E-14 2.01394E-13
 -1      2598 2.94778E+01 6.74452E+00-1.69720E-01 1.75270E+00 8.02414E-14 1.54772E-13
 -1      2599 3.14883E+01 7.33935E+00-1.68358E-01 1.03044E+00 1.21791E-13 9.93962E-14
 -1      2600 2.91999E+01 6.58859E+00-1.43866E-01 4.27330E-01 3.00704E-13 3.99373E-13
 -1      2601 1.99112E+01 2.81355E+00 1.14697E-03-1.09869E+00 4.63555E-14-1.76987E-13
 -1      2602 1.97813E+01 3.16175E+00-1.47309E-02-1.28629E+00 4.88108E-14-1.97946E-13
 -1      2603 1.98779E+01 3.02588E+00-1.71497E-02-1.47583E+00 3.19127E-14-2.01592E-13
 -1      2604 1.99956E+01 3.40217E-01-3.57245E-03 3.04131E-01 7.32613E-14 1.09294E-13
 -1      2605 2.04231E+01 2.11579E+00-1.27805E-02 1.87417E+00 1.26241E-13 1.69887E-13
 -1      2606 1.65942E+01-4.87985E+00 1.17772E-01 8.23622E+00 1.80689E-13 5.63494E-13
 -1      2607 1.99861E+01 2.83947E+00-1.50501E-02-1.58598E+00 2.28727E-14-1.95968E-13
 -1      2608 2.01317E+01 2.61388E+00-2.20109E-02-1.75249E+00-1.00755E-15-1.90840E-13
 -1      2609 2.02799E+01 2.05032E+00 1.28460E-03-1.48516E+00-1.83941E-14-1.71213E-13
 -1      2610 2.00821E+01 2.49312E+00 2.56411E-03-1.34130E+00 1.89756E-14-1.78028E-13
 -1      2611 1.50807E+01-4.60032E+00 1.49394E-01-8.10942E+00-1.46244E-13 3.90743E-13
 -1      2612 2.31459E+01-5.89763E+00 9.92725E-02-7.30082E+00-1.25178E-13 5.05262E-13
 -1      2613 2.99976E+01-3.99832E+00-1.60104E-03 2.84416E+00 2.32897E-13 1.00642E-13
 -1      2614 3.15587E+01 7.22724E+00-8.58947E-02-5.65984E-01-2.08999E-13-9.52710E-15
 -1      2615 3.13965E+01 6.07143E+00-6.41309E-02-2.62554E+00-2.92655E-13 2.10360E-13
 -1      2616 2.08606E+01-3.87489E-01-6.28737E-03-9.83788E-02-5.83210E-14 1.54870E-13
 -1      2617 2.47755E+01-5.79145E+00 8.65215E-02 6.62766E+00 3.17302E-13 3.59372E-13
 -1      2618 2.12152E+01-4.04782E-01 1.86108E-02 2.10945E-01 2.19044E-14 2.21438E-13
 -1      2619 3.13960E+01 1.72263E+00-5.59607E-02-2.90695E+00-2.73170E-13 2.54852E-13
 -1      2620 7.26205E+00-8.13144E-01 1.85521E-01 1.43099E-01-4.27203E-13 1.81966E-13
 -1      2621 9.74592E+00-2.26227E+00 1.35008E-01 5.68500E+00-7.34413E-14 4.14974E-13
 -1      2622 3.17047E+01-2.51439E-01-5.41434E-02-6.81800E-02-1.05360E-13 2.03726E-13
 -1      2623 9.51093E+00-4.60279E+00 1.37676E-01-5.86343E+00-1.66728E-13-2.11747E-13
 -1      2624 1.25200E+01-4.55802E+00 7.98848E-02-6.17676E+00-1.33865E-13-2.12719E-13
 -1      2625 9.03615E+00-3.12415E+00 1.68524E-01-5.01684E+00-8.15598E-14-1.08663E-13
 -1      2626 2.04370E+01 1.80808E+00 1.25432E-02 1.56189E+00 1.15028E-13 1.43809E-13
 -1      2627 3.19930E+01 5.41194E+00-7.22710E-02 2.64602E+00 2.17742E-13 3.15831E-13
 -1      2628 2.13298E+01-5.27796E-01 6.67957E-03-1.46244E-01-2.04611E-14-7.58092E-14
 -1      2629 2.17305E+01-5.23574E-01 2.51036E-02-7.19143E-01-1.34090E-13-7.95457E-14
 -1      2630 2.24202E+01-1.07696E+00-1.95283E-02-9.76619E-01-1.63124E-13-3.74431E-14
 -1      2631 2.15223E+01-7.27418E-01-3.00788E-02 1.23345E-02 5.80021E-14-6.18125E-14
 -1      2632 8.98553E+00-2.28523E+00 1.60369E-01-5.24202E+00-4.01859E-13 1.18683E-13
 -1      2633 2.18601E+01-8.01776E-01-7.03644E-03 3.72950E-01-8.26010E-15 1.04601E-13
 -1      2634 2.55543E+01-6.21934E+00 4.51570E-02 3.47843E+00 1.28175E-13 1.10065E-13
 -1      2635 2.43401E+01-6.33335E+00 6.61076E-02-4.44327E+00-3.34677E-13-5.59136E-14
 -1      2636 2.94043E+01-3.82410E+00 1.27849E-02-6.26708E-01-1.47993E-13-4.00513E-14
 -1      2637 5.56827E+00-2.74617E+00 1.73189E-01 2.23170E+00 2.25986E-13-1.98286E-13
 -1      2638 1.76325E+01-6.47101E+00 1.11496E-01 6.38657E+00-3.91909E-14 4.96825E-15
 -1      2639 3.01026E+01-3.10829E+00 1.90636E-03-4.31882E-01-5.62397E-14 4.18082E-13
 -1      2640 3.20560E+01 7.41507E-01-5.39154E-02-1.12911E-01 3.28723E-13 4.49918E-14
 -1      2641 3.15056E+01 7.88484E-01-7.48030E-02 2.34992E+00-3.30708E-14 2.11775E-13
 -1      2642 9.72353E+00-4.69557E+00 1.14061E-01 5.64282E+00 1.58568E-13-1.48853E-13
 -1      2643 2.93768E+01-4.56044E+00 4.20131E-02-3.53818E+00 2.72143E-14 2.10720E-13
 -1      2644 2.24872E+01-1.00946E+00 1.33928E-02-1.11617E-01 4.42255E-14-8.62687E-14
 -1      2645 1.98442E+01 2.76509E+00-6.29545E-03 5.16104E-01 1.42263E-13-4.81893E-14
 -1      2646 1.98193E+01 2.81485E+00-5.70020E-03 3.65263E-01 1.31073E-13-5.93067E-14
 -1      2647 1.98023E+01 2.85239E+00-5.61325E-03 2.29783E-01 1.18507E-13-7.36609E-14
 -1      2648 1.97937E+01 2.86929E+00-5.43691E-03 7.51941E-02 1.11090E-13-8.04198E-14
 -1      2649 1.99488E+01 2.50106E+00 3.64491E-03 2.65122E-01 1.15057E-13-5.51203E-14
 -1      2650 2.00434E+01 2.32405E+00-1.07111E-02 1.04567E+00 1.53886E-13 2.43722E-14
 -1      2651 1.99790E+01 2.47301E+00-6.31499E-03 9.10137E-01 1.63053E-13 3.84762E-15
 -1      2652 2.02169E+01 1.90851E+00-1.19647E-02 1.22694E+00 1.41890E-13 5.52666E-14
 -1      2653 2.01243E+01 2.14636E+00-4.82370E-03 1.13365E+00 1.50079E-13 3.19016E-14
 -1      2654 2.01890E+01 1.88653E+00 6.33920E-03 9.26183E-01 1.49255E-13 2.37882E-14
 -1      2655 2.02134E+01 7.26839E-01-3.49544E-03 6.42430E-01 9.84816E-14 8.02611E-14
 -1      2656 2.03554E+01 9.51690E-01 9.16216E-03 9.06153E-01 9.45312E-14 1.00669E-13
 -1      2657 3.03955E+01 3.93370E+00-1.17174E-01 3.23670E+00 2.21351E-13 3.46390E-13
 -1      2658 2.97974E+01 5.46094E+00-2.27633E-01 2.73545E+00 1.02973E-13 2.27082E-13
 -1      2659 2.03385E+01 1.50029E+00-1.90677E-03 1.26663E+00 1.12526E-13 1.17256E-13
 -1      2660 2.94383E+01 2.99895E+00-1.00564E-01 1.44639E+00-3.09974E-13 2.13024E-14
 -1      2661 2.92136E+01 4.64950E+00-2.42351E-01 8.64942E-01-2.41807E-13-7.96446E-14
 -1      2662 2.16023E+01-4.98488E+00 1.62895E-01-7.38286E+00 1.09773E-14 4.22693E-13
 -1      2663 2.46208E+01-5.59911E+00-1.16020E-01-6.30374E+00-6.41154E-14 2.01780E-13
 -1      2664 2.02173E+01 6.27906E-01 8.57262E-03-4.36348E-01-1.92129E-14-1.27499E-13
 -1      2665 2.01328E+01 4.75445E-01-3.38845E-03-2.77921E-01-2.16281E-14-1.21834E-13
 -1      2666 2.01066E+01 3.62456E-01 6.59567E-03-1.58261E-01-2.48675E-14-1.16815E-13
 -1      2667 2.00474E+01 2.67689E-01-1.77425E-03-6.06299E-02-2.49513E-14-1.43523E-13
 -1      2668 2.01955E+01 5.28651E-01-1.67595E-03-2.61563E-01-3.44949E-14-1.31593E-13
 -1      2669 2.00212E+01 1.97408E-01 4.52406E-03 1.46219E-02-8.13504E-15-1.43355E-13
 -1      2670 1.99854E+01 1.37843E-01-8.36471E-04 7.11502E-02 6.66085E-15-1.53119E-13
 -1      2671 2.01265E+01 2.98518E-01-2.08006E-03-5.52534E-02-2.12942E-14-1.31602E-13
 -1      2672 1.99643E+01 9.36840E-02 2.90047E-03 1.14467E-01 2.13317E-17-1.41374E-13
 -1      2673 1.99462E+01 5.63832E-02-2.98555E-04 1.43846E-01-4.25579E-15-1.49591E-13
 -1      2674 2.00698E+01 1.52296E-01-1.89554E-03 7.19359E-02 1.26514E-14-1.35041E-13
 -1      2675 1.99311E+01 2.89081E-02 1.73638E-03 1.65259E-01 2.04792E-15-1.41086E-13
 -1      2676 1.99251E+01 6.13412E-03-2.91103E-07 1.77085E-01 1.22806E-14-1.28785E-13
 -1      2677 2.00286E+01 5.98905E-02-1.51936E-03 1.42825E-01 7.76235E-15-1.32230E-13
 -1      2678 1.99153E+01-1.03511E-02 9.31628E-04 1.84093E-01 1.44633E-15-1.07954E-13
 -1      2679 1.99170E+01-2.34635E-02 1.57448E-04 1.84949E-01-9.82925E-15-8.01393E-14
 -1      2680 2.00012E+01 2.85657E-03-1.13896E-03 1.75443E-01 2.78771E-14-9.23752E-14
 -1      2681 1.99112E+01-3.25951E-02 3.92983E-04 1.82969E-01 5.65645E-15-4.88700E-14
 -1      2682 1.99175E+01-3.92389E-02 2.36080E-04 1.77369E-01 5.46659E-15 2.13198E-14
 -1      2683 1.99844E+01-3.05329E-02-8.18869E-04 1.83207E-01 3.93389E-14 1.42886E-14
 -1      2684 1.99145E+01-4.34351E-02 4.64673E-05 1.70235E-01-3.01614E-14 4.28214E-14
 -1      2685 1.99232E+01-4.57634E-02 2.71804E-04 1.61272E-01 1.76584E-14 4.67536E-14
 -1      2686 1.99755E+01-4.80170E-02-5.71026E-04 1.75785E-01 2.76891E-14 7.89754E-14
 -1      2687 1.99222E+01-4.66663E-02-1.64639E-04 1.51655E-01 2.54740E-14 1.32261E-14
 -1      2688 1.99318E+01-4.61425E-02 2.86318E-04 1.41432E-01 1.88317E-14-3.29926E-14
 -1      2689 1.99721E+01-5.48287E-02-3.89008E-04 1.60010E-01-1.66605E-14 5.65340E-14
 -1      2690 1.99322E+01-4.48664E-02-2.83087E-04 1.31166E-01 1.06084E-14-7.44811E-14
 -1      2691 1.99418E+01-4.24706E-02 2.93556E-04 1.21104E-01-3.10114E-14-4.20334E-14
 -1      2692 1.99722E+01-5.45347E-02-2.61343E-04 1.40638E-01-3.18092E-14-8.97695E-14
 -1      2693 1.99431E+01-3.97507E-02-3.40756E-04 1.11442E-01-5.31107E-14-6.00793E-14
 -1      2694 1.99525E+01-3.61092E-02 3.03233E-04 1.02506E-01-7.91693E-14-5.77845E-14
 -1      2695 1.99748E+01-4.95330E-02-1.76671E-04 1.20942E-01-2.96357E-14-9.03604E-14
 -1      2696 1.99543E+01-3.23990E-02-3.61148E-04 9.43118E-02-9.24964E-14-3.27536E-14
 -1      2697 1.99633E+01-2.78728E-02 3.22689E-04 8.71753E-02-9.78275E-14 1.26241E-15
 -1      2698 1.99789E+01-4.13674E-02-1.25388E-04 1.03176E-01-7.73449E-14-8.69790E-14
 -1      2699 1.99656E+01-2.34128E-02-3.61508E-04 8.10748E-02-1.70387E-13-8.47680E-15
 -1      2700 1.99743E+01-1.81606E-02 3.57895E-04 7.62480E-02-1.76747E-13-4.92878E-14
 -1      2701 1.99840E+01-3.09413E-02-9.97469E-05 8.89316E-02-1.72260E-13-6.07677E-14
 -1      2702 1.99769E+01-1.30271E-02-3.54550E-04 7.27422E-02-1.31550E-13-1.14538E-13
 -1      2703 1.99857E+01-7.05141E-03 4.14106E-04 7.06671E-02-7.14215E-14-1.45284E-13
 -1      2704 1.99901E+01-1.86705E-02-9.35828E-05 7.94141E-02-1.72819E-13-3.06574E-14
 -1      2705 1.99887E+01-1.19416E-03-3.49742E-04 7.02213E-02-1.96808E-14-1.33059E-13
 -1      2706 1.99980E+01 5.62328E-03 4.96130E-04 7.13451E-02 2.13805E-14-1.53737E-13
 -1      2707 1.99969E+01-4.59550E-03-1.02023E-04 7.56509E-02-7.74720E-14-1.60683E-14
 -1      2708 2.00015E+01 1.23520E-02-3.54267E-04 7.44554E-02 7.73241E-14-1.18083E-13
 -1      2709 2.00119E+01 2.02210E-02 6.08373E-04 7.92858E-02 8.60384E-14-9.57553E-14
 -1      2710 2.00047E+01 1.15319E-02-1.21039E-04 7.86525E-02 6.07101E-14-7.13899E-15
 -1      2711 2.00159E+01 2.80402E-02-3.73712E-04 8.65283E-02 3.75264E-14-2.59651E-14
 -1      2712 2.00281E+01 3.72347E-02 7.54665E-04 9.56715E-02 4.93510E-14-2.06152E-14
 -1      2713 2.00137E+01 3.01765E-02-1.46977E-04 8.95318E-02 9.13145E-14-2.97758E-14
 -1      2714 2.00328E+01 4.64076E-02-4.12505E-04 1.07734E-01 1.16085E-13-1.72417E-14
 -1      2715 2.00477E+01 5.72348E-02 9.37829E-04 1.21917E-01 1.18627E-13-5.12818E-14
 -1      2716 2.00242E+01 5.19517E-02-1.76132E-04 1.09587E-01 7.02831E-14 2.93451E-14
 -1      2717 2.00532E+01 6.80366E-02-4.74040E-04 1.39611E-01 1.30368E-13-6.50726E-14
 -1      2718 2.00717E+01 8.07965E-02 1.15896E-03 1.59684E-01 1.05732E-13-4.41105E-14
 -1      2719 2.00365E+01 7.75427E-02-2.04382E-04 1.40344E-01 1.15621E-13-2.68225E-14
 -1      2720 2.00781E+01 9.34679E-02-5.60385E-04 1.83941E-01 3.91294E-14-6.53359E-14
 -1      2721 2.01012E+01 1.08394E-01 1.41630E-03 2.10849E-01-1.56495E-15-5.62422E-14
 -1      2722 2.00510E+01 1.07607E-01-2.26995E-04 1.83567E-01 8.83004E-14-5.45017E-14
 -1      2723 2.01087E+01 1.23071E-01-6.71371E-04 2.42682E-01-1.86117E-14-1.69695E-14
 -1      2724 2.01375E+01 1.40236E-01 1.70378E-03 2.77409E-01 5.71369E-15-4.02273E-14
 -1      2725 2.00680E+01 1.42630E-01-2.38805E-04 2.41203E-01-9.58244E-15 4.42155E-14
 -1      2726 2.01461E+01 1.56838E-01-8.02699E-04 3.17836E-01-3.00143E-14-8.96221E-14
 -1      2727 2.01818E+01 1.76006E-01 2.00900E-03 3.61283E-01-5.17355E-14-1.48666E-13
 -1      2728 2.00879E+01 1.82697E-01-2.35226E-04 3.15272E-01-5.59247E-14-2.90963E-15
 -1      2729 2.01917E+01 1.94061E-01-9.42445E-04 4.11200E-01 1.15228E-14-1.41839E-13
 -1      2730 2.02354E+01 2.14451E-01 2.31102E-03 4.63989E-01 2.20953E-14-7.01322E-14
 -1      2731 2.01108E+01 2.27143E-01-2.14851E-04 4.07659E-01-2.32227E-14-1.06089E-14
 -1      2732 2.02469E+01 2.32810E-01-1.06504E-03 5.23970E-01 3.90961E-14-5.94350E-14
 -1      2733 2.02998E+01 2.52729E-01 2.57797E-03 5.86125E-01 4.64654E-14-2.14048E-14
 -1      2734 2.01372E+01 2.74000E-01-1.84999E-04 5.19783E-01 9.04271E-14 1.74454E-14
 -1      2735 2.03136E+01 2.69136E-01-1.12137E-03 6.56115E-01 5.34169E-14-6.82383E-14
 -1      2736 2.03769E+01 2.85418E-01 2.76492E-03 7.26579E-01 3.32616E-14 3.79644E-15
 -1      2737 2.01676E+01 3.19141E-01-1.72245E-04 6.52115E-01 5.73323E-14-7.45617E-15
 -1      2738 2.03946E+01 2.95864E-01-1.02335E-03 8.05452E-01 7.22810E-16 2.48459E-14
 -1      2739 2.04700E+01 3.03063E-01 2.81210E-03 8.81370E-01-2.53991E-15 8.36191E-14
 -1      2740 2.02038E+01 3.55001E-01-2.40720E-04 8.03475E-01-2.20273E-14 1.34377E-13
 -1      2741 2.04950E+01 3.00895E-01-6.21488E-04 9.66292E-01 7.48980E-14 1.29156E-13
 -1      2742 2.05848E+01 2.90219E-01 2.64122E-03 1.04200E+00 1.24710E-13 2.08256E-13
 -1      2743 2.02496E+01 3.68755E-01-5.21169E-04 9.70063E-01 1.09158E-13 4.98846E-14
 -1      2744 2.06241E+01 2.65053E-01 3.24730E-04 1.12750E+00 1.12836E-14 1.34727E-13
 -1      2745 2.07325E+01 2.23188E-01 2.14030E-03 1.19312E+00-4.06273E-14 9.22430E-14
 -1      2746 2.03135E+01 3.39936E-01-1.25217E-03 1.14411E+00-7.78793E-15 5.87478E-14
 -1      2747 2.07990E+01 1.59961E-01 2.17574E-03 1.26967E+00-1.12776E-13 1.84653E-13
 -1      2748 2.09328E+01 6.83886E-02 1.11981E-03 1.30939E+00-1.28138E-13 1.00398E-13
 -1      2749 2.04122E+01 2.37838E-01-2.82691E-03 1.31191E+00-1.37806E-15-2.83235E-14
 -1      2750 2.10491E+01-5.24211E-02 5.41394E-03 1.36103E+00-1.01052E-13 1.49978E-13
 -1      2751 2.12189E+01-2.16012E-01-8.24930E-04 1.35103E+00-8.53124E-14 1.12422E-13
 -1      2752 2.05765E+01 2.00123E-02-5.80551E-03 1.45059E+00-1.68463E-13 1.95012E-13
 -1      2753 2.14200E+01-4.14680E-01 1.04326E-02 1.35143E+00-1.55434E-13 1.50173E-13
 -1      2754 2.16385E+01-6.69064E-01-4.32955E-03 1.25819E+00-1.47075E-13 1.74185E-13
 -1      2755 2.08581E+01-3.64442E-01-1.08277E-02 1.52238E+00-1.14252E-13 1.23832E-13
 -1      2756 2.19713E+01-9.54441E-01 1.74412E-02 1.16501E+00 2.09834E-14 1.87323E-13
 -1      2757 2.22458E+01-1.29647E+00-1.04287E-02 9.46613E-01 3.73022E-14 2.97305E-13
 -1      2758 2.13335E+01-9.58678E-01-1.79846E-02 1.46468E+00-3.71820E-14 1.68190E-13
 -1      2759 2.27557E+01-1.64075E+00 2.41886E-02 6.95654E-01-9.74003E-14 2.94941E-13
 -1      2760 2.30700E+01-2.00588E+00-2.00916E-02 3.11029E-01-4.80531E-14 2.87020E-13
 -1      2761 2.20960E+01-1.75463E+00-2.57587E-02 1.17681E+00-3.04669E-14 2.63580E-14
 -1      2762 2.37568E+01-2.29576E+00 2.42218E-02-1.77106E-01 3.81526E-14 1.61997E-13
 -1      2763 2.40543E+01-2.49179E+00-2.42563E-02-7.36581E-01-6.49981E-14 4.49272E-14
 -1      2764 2.32131E+01-2.60422E+00-3.10528E-02 5.08918E-01-8.88116E-14 1.44515E-13
 -1      2765 2.47815E+01-2.50043E+00 6.61469E-03-1.46559E+00-5.21441E-14-3.62019E-14
 -1      2766 2.49737E+01-2.22152E+00-1.46388E-02-2.09990E+00-1.36763E-13 1.35994E-13
 -1      2767 2.45929E+01-3.05679E+00-2.62552E-02-6.77496E-01-9.55889E-14 1.36965E-14
 -1      2768 2.54271E+01-1.61607E+00-4.66718E-02-2.89980E+00-1.92742E-13 2.54262E-13
 -1      2769 2.53874E+01-6.23942E-01-1.29794E-02-3.29162E+00-3.74492E-14 1.79832E-13
 -1      2770 2.59330E+01-2.41763E+00 2.40419E-03-2.30628E+00-1.10365E-13 1.29625E-13
 -1      2771 2.53493E+01 6.19233E-01-1.05216E-01-3.61491E+00-6.20684E-15 2.78388E-13
 -1      2772 2.51146E+01 2.00904E+00-1.81876E-02-3.38252E+00-1.30319E-13 2.56271E-13
 -1      2773 2.65784E+01-1.67624E-01-3.81308E-02-3.53726E+00 2.99413E-14 2.58397E-13
 -1      2774 2.47638E+01 3.17645E+00-1.31369E-01-2.68537E+00-1.61732E-13 3.02381E-13
 -1      2775 2.45541E+01 3.98714E+00-4.77008E-02-1.78857E+00-1.06901E-13 3.50572E-13
 -1      2776 2.63949E+01 3.12831E+00-7.30680E-02-3.32955E+00-9.18154E-14 1.35565E-13
 -1      2777 2.51341E+01 3.64645E+00-7.98746E-02 1.15756E-01-1.43302E-13 2.21774E-13
 -1      2778 2.52177E+01 2.89638E+00-8.19194E-02 1.04061E+00-6.32203E-14 3.40006E-14
 -1      2779 2.54071E+01 1.68703E+00-7.82902E-02 1.47115E+00-9.22873E-14 9.10643E-15
 -1      2780 2.49102E+01-1.47767E-01-1.13271E-02 1.32653E+00 4.40342E-14-1.63809E-13
 -1      2781 2.48634E+01-1.05661E+00-5.12775E-02 1.04746E+00 3.44863E-14-1.37289E-13
 -1      2782 2.43010E+01-1.52927E+00-3.00947E-02 3.55963E-01-1.32186E-15 2.44993E-14
 -1      2783 2.39652E+01-1.67356E+00-3.67637E-03-9.91165E-02-1.76074E-16 6.68667E-14
 -1      2784 2.57160E+01-1.67952E+00-1.64426E-02 3.62335E-01 6.73732E-14 8.21565E-15
 -1      2785 1.98552E+01 4.90914E-02 4.02183E-05-1.43956E-01 7.25003E-14 2.50096E-14
 -1      2786 1.98693E+01 8.10179E-02 3.16394E-03-1.15709E-01 4.33941E-14 2.05606E-14
 -1      2787 9.77196E+00-7.06707E-01 1.38350E-01-4.38916E+00-2.90934E-13 1.39971E-13
 -1      2788 1.15399E+01-2.00964E+00 1.09593E-01-6.52610E+00-2.94542E-13 1.22180E-13
 -1      2789 1.98922E+01 1.18640E-01-2.56897E-04-7.12515E-02 5.66587E-14 2.03236E-14
 -1      2790 1.99279E+01 1.70253E-01 5.19426E-03-1.57878E-02 7.94382E-14 4.69836E-14
 -1      2791 1.99917E+01 1.35257E-01-2.33402E-03-7.28214E-02 6.86536E-14 1.26133E-14
 -1      2792 1.98433E+01-1.85270E-02 2.36978E-04-1.84160E-01 6.28813E-15 9.81898E-14
 -1      2793 1.98349E+01-7.41321E-03 8.80334E-04-1.83791E-01 2.64893E-14 1.12454E-13
 -1      2794 1.98542E+01-3.19505E-02 2.46829E-04-1.76293E-01 4.07970E-14 3.63170E-14
 -1      2795 1.98415E+01-2.62907E-02 2.96920E-04-1.82127E-01 3.98030E-14 8.45100E-14
 -1      2796 1.99201E+01-2.52178E-02-8.50052E-04-1.87010E-01 4.00025E-14 6.19963E-14
 -1      2797 1.98701E+01-3.76493E-02 2.39778E-04-1.60010E-01 5.19390E-14 4.21004E-14
 -1      2798 1.98556E+01-3.56036E-02-6.53335E-05-1.69055E-01 3.89798E-14 2.96764E-14
 -1      2799 1.99199E+01-4.05664E-02-5.50195E-04-1.79206E-01 5.37049E-14 7.37810E-14
 -1      2800 1.98880E+01-3.82409E-02 2.29914E-04-1.40008E-01 8.49878E-14 6.94668E-14
 -1      2801 1.98733E+01-3.85690E-02-2.75710E-04-1.50250E-01 6.87178E-14 5.35949E-14
 -1      2802 1.99251E+01-4.67276E-02-3.39674E-04-1.62869E-01 5.30768E-14 8.06105E-14
 -1      2803 1.99062E+01-3.54872E-02 2.25360E-04-1.19462E-01 1.23724E-13 6.05855E-14
 -1      2804 1.98922E+01-3.73595E-02-3.83563E-04-1.29553E-01 1.27755E-13 1.00303E-13
 -1      2805 1.99333E+01-4.68084E-02-1.99652E-04-1.42820E-01 1.19387E-13 6.77551E-14
 -1      2806 1.99237E+01-3.05376E-02 2.31646E-04-1.00510E-01 6.31704E-14-8.57038E-15
 -1      2807 1.99108E+01-3.34220E-02-4.24681E-04-1.09546E-01 1.04403E-13 4.99945E-14
 -1      2808 1.99430E+01-4.28920E-02-1.13171E-04-1.22340E-01 1.19079E-13 1.57963E-13
 -1      2809 1.99403E+01-2.40889E-02 2.53149E-04-8.46110E-02-6.62514E-15 6.42097E-15
 -1      2810 1.99285E+01-2.76734E-02-4.24714E-04-9.19729E-02 5.80670E-15-2.61765E-15
 -1      2811 1.99533E+01-3.63249E-02-6.73418E-05-1.03668E-01 2.21669E-14 1.20899E-13
 -1      2812 1.99562E+01-1.64986E-02 2.93959E-04-7.28203E-02 8.07281E-14 2.86975E-15
 -1      2813 1.99451E+01-2.06372E-02-4.01760E-04-7.80511E-02 2.31251E-14-2.61653E-15
 -1      2814 1.99638E+01-2.79078E-02-5.22605E-05-8.83586E-02 3.38976E-14 6.01835E-14
 -1      2815 1.99717E+01-7.86334E-03 3.58252E-04-6.59898E-02-3.91163E-15 1.29344E-13
 -1      2816 1.99611E+01-1.25382E-02-3.68748E-04-6.87035E-02 3.84124E-14 4.72791E-14
 -1      2817 1.99745E+01-1.80306E-02-6.05151E-05-7.75645E-02 2.58895E-14 1.37969E-13
 -1      2818 1.99878E+01 1.92106E-03 4.50345E-04-6.49268E-02-1.57866E-14 1.87436E-13
 -1      2819 1.99769E+01-3.37022E-03-3.34816E-04-6.47387E-02 1.16154E-14 1.54693E-13
 -1      2820 1.99855E+01-6.76789E-03-8.69295E-05-7.22431E-02-5.89436E-15 1.81901E-13
 -1      2821 2.00054E+01 1.31089E-02 5.74566E-04-7.05116E-02-2.17059E-14 1.95377E-13
 -1      2822 1.99934E+01 7.04822E-03-3.06357E-04-6.69865E-02-1.47330E-14 1.83142E-13
 -1      2823 1.99974E+01 6.04697E-03-1.27675E-04-7.33200E-02-2.87797E-14 9.59361E-14
 -1      2824 2.00257E+01 2.60578E-02 7.34972E-04-8.37800E-02 9.06455E-15 1.31327E-13
 -1      2825 2.00118E+01 1.90261E-02-2.87872E-04-7.63969E-02-1.41679E-14 1.50042E-13
 -1      2826 2.00106E+01 2.07570E-02-1.79791E-04-8.18064E-02 1.24808E-14 8.54896E-14
 -1      2827 2.00502E+01 4.11782E-02 9.34742E-04-1.05972E-01-1.05330E-13 1.31531E-13
 -1      2828 2.00333E+01 3.29526E-02-2.82472E-04-9.41054E-02-1.88861E-14 1.60021E-13
 -1      2829 2.00261E+01 3.78206E-02-2.40700E-04-9.88796E-02-2.31038E-14 1.67481E-13
 -1      2830 2.00806E+01 5.88687E-02 1.17519E-03-1.38544E-01 2.06288E-14 6.97643E-14
 -1      2831 2.00595E+01 4.92407E-02-2.92087E-04-1.21464E-01-2.61057E-14 8.47723E-14
 -1      2832 2.00446E+01 5.77425E-02-3.07778E-04-1.25926E-01-3.03306E-14 1.44463E-13
 -1      2833 2.01188E+01 7.94235E-02 1.45423E-03-1.83125E-01 1.72997E-14 1.78094E-13
 -1      2834 2.00920E+01 6.82515E-02-3.17301E-04-1.60026E-01 3.01036E-14 1.45447E-13
 -1      2835 2.00671E+01 8.09831E-02-3.78062E-04-1.64538E-01-4.68240E-15 1.28940E-13
 -1      2836 2.01667E+01 1.02892E-01 1.76420E-03-2.41411E-01-1.66094E-13 1.26561E-13
 -1      2837 2.01328E+01 9.01815E-02-3.56656E-04-2.11481E-01-8.79380E-14 2.02722E-13
 -1      2838 2.00949E+01 1.07827E-01-4.48270E-04-2.16460E-01-5.00438E-14 2.52819E-13
 -1      2839 2.02266E+01 1.28860E-01 2.08872E-03-3.14956E-01-7.16136E-14 1.75465E-14
 -1      2840 2.01840E+01 1.14889E-01-4.05134E-04-2.77494E-01-1.00566E-13 1.11074E-13
 -1      2841 2.01291E+01 1.38185E-01-5.15432E-04-2.83449E-01-1.00793E-13 1.96523E-13
 -1      2842 2.03008E+01 1.56115E-01 2.39857E-03-4.04812E-01 7.92443E-14 1.23031E-13
 -1      2843 2.02480E+01 1.41625E-01-4.51352E-04-3.59442E-01 1.19943E-14 4.87684E-14
 -1      2844 2.01711E+01 1.71287E-01-5.78735E-04-3.67043E-01-4.10223E-14 2.02730E-14
 -1      2845 2.03919E+01 1.82134E-01 2.64624E-03-5.10968E-01 6.87952E-14 1.60334E-13
 -1      2846 2.03272E+01 1.68622E-01-4.72759E-04-4.57964E-01 1.51376E-13 1.75196E-13
 -1      2847 2.02224E+01 2.05219E-01-6.43516E-04-4.68165E-01 4.86461E-14 8.70827E-14
 -1      2848 2.05026E+01 2.02334E-01 2.75935E-03-6.31487E-01-1.39464E-13 7.76318E-14
 -1      2849 2.04245E+01 1.92474E-01-4.28000E-04-5.72277E-01-5.17250E-14 7.97438E-14
 -1      2850 2.02850E+01 2.36222E-01-7.28786E-04-5.86537E-01 5.17010E-14 1.49327E-13
 -1      2851 2.06360E+01 2.09028E-01 2.63297E-03-7.61241E-01-1.24743E-13-9.11173E-14
 -1      2852 2.05434E+01 2.07249E-01-2.45702E-04-6.99135E-01-1.50757E-13-3.01687E-14
 -1      2853 2.03616E+01 2.57693E-01-8.79852E-04-7.19805E-01-1.30167E-13-9.59845E-15
 -1      2854 2.07966E+01 1.90139E-01 2.12182E-03-8.90136E-01-2.90645E-14 1.77408E-14
 -1      2855 2.06885E+01 2.03315E-01 1.89707E-04-8.31339E-01-6.13761E-14-1.48315E-14
 -1      2856 2.04566E+01 2.58841E-01-1.18680E-03-8.62303E-01-1.12990E-13-1.42476E-13
 -1      2857 2.09910E+01 1.27954E-01 1.03164E-03-1.00075E+00-1.22283E-13 2.26766E-14
 -1      2858 2.08666E+01 1.66015E-01 1.05219E-03-9.55649E-01-5.88415E-14 9.46502E-14
 -1      2859 2.05776E+01 2.23105E-01-1.80548E-03-1.00332E+00-8.38357E-14 1.08892E-14
 -1      2860 2.12294E+01-1.16465E-03-8.89182E-04-1.06548E+00-1.38862E-13 6.26939E-14
 -1      2861 2.10881E+01 7.47252E-02 2.57232E-03-1.05005E+00-1.15641E-13 2.11584E-14
 -1      2862 2.07374E+01 1.26845E-01-2.97048E-03-1.12477E+00-9.86750E-14 6.75455E-15
 -1      2863 2.15266E+01-2.24007E-01-3.94820E-03-1.04353E+00-6.26077E-14 1.93489E-13
 -1      2864 2.13685E+01-9.63041E-02 4.99857E-03-1.08042E+00-1.09104E-13 1.71812E-13
 -1      2865 2.09572E+01-6.03862E-02-4.96610E-03-1.19807E+00-1.68173E-13-8.69193E-14
 -1      2866 2.19008E+01-5.60520E-01-8.47310E-03-8.79242E-01 1.50970E-13 2.69724E-13
 -1      2867 2.17283E+01-3.72317E-01 8.42891E-03-9.97374E-01-2.58507E-14 2.36012E-13
 -1      2868 2.12688E+01-3.70866E-01-7.96400E-03-1.18019E+00-7.70307E-14-5.54380E-16
 -1      2869 2.23646E+01-9.99635E-01-1.42748E-02-5.04792E-01 1.06091E-13 3.36332E-13
 -1      2870 2.21875E+01-7.62405E-01 1.24127E-02-7.35002E-01 2.25249E-13 3.40440E-13
 -1      2871 2.17134E+01-8.23530E-01-1.16559E-02-1.00947E+00 6.96455E-14 1.28528E-13
 -1      2872 2.29030E+01-1.45515E+00-1.94531E-02 1.42581E-01 1.04228E-13 3.55193E-13
 -1      2873 2.27460E+01-1.22566E+00 1.54935E-02-2.18685E-01 1.40789E-13 4.16048E-13
 -1      2874 2.23279E+01-1.38817E+00-1.40349E-02-6.04434E-01 1.18929E-13 6.48316E-14
 -1      2875 2.34348E+01-1.72370E+00-2.23761E-02 1.06734E+00 1.23486E-13 2.94321E-13
 -1      2876 2.33442E+01-1.62146E+00 1.31965E-02 5.98239E-01 1.20091E-13 4.15133E-13
 -1      2877 2.31048E+01-1.92027E+00-1.02315E-02 1.17804E-01 8.41421E-14 9.49182E-14
 -1      2878 2.37962E+01-1.47650E+00-1.75681E-02 2.14656E+00 2.25116E-13 2.30341E-13
 -1      2879 2.38375E+01-1.68699E+00-7.17076E-04 1.66889E+00 2.10681E-13 3.73682E-13
 -1      2880 2.39382E+01-2.15025E+00-6.02918E-03 1.17753E+00 1.32823E-13 1.85609E-13
 -1      2881 2.37652E+01-4.15343E-01 3.40907E-03 2.95917E+00-3.44291E-14 5.02029E-14
 -1      2882 2.39555E+01-1.03679E+00-2.57349E-02 2.71175E+00 1.29327E-13 2.18082E-13
 -1      2883 2.45467E+01-1.62443E+00-6.87396E-03 2.43330E+00 2.22138E-13 3.29922E-13
 -1      2884 2.33187E+01 1.21863E+00 1.60164E-02 2.97338E+00 1.47868E-13-1.81383E-13
 -1      2885 2.35982E+01 3.36249E-01-5.37077E-02 3.14473E+00-8.44030E-14-2.28392E-13
 -1      2886 2.46347E+01-2.45524E-02-1.70242E-02 3.32542E+00 1.74211E-13-6.96665E-15
 -1      2887 2.27148E+01 2.52925E+00-1.43491E-02 1.85476E+00-1.42778E-13-1.08497E-13
 -1      2888 2.29468E+01 1.96770E+00-6.29612E-02 2.47680E+00-2.47857E-14-1.12146E-13
 -1      2889 2.42210E+01 1.95095E+00-2.10725E-03 3.03924E+00-1.90022E-14-1.87293E-13
 -1      2890 2.24999E+01 2.53820E+00-5.42132E-02 1.34429E-01 1.41304E-13-2.59980E-13
 -1      2891 2.25921E+01 2.73224E+00-2.19185E-02 8.71364E-01 2.36616E-15-1.95544E-13
 -1      2892 2.37750E+01 3.30185E+00-1.50259E-02 1.47593E+00 2.05287E-14-2.27723E-13
 -1      2893 2.27818E+01 1.31048E+00-5.77112E-02-1.12993E+00 1.10684E-13-3.35227E-13
 -1      2894 2.27270E+01 2.05823E+00 1.62531E-02-6.91724E-01 1.35735E-13-2.30890E-13
 -1      2895 2.37948E+01 2.94747E+00-1.55520E-02-3.96893E-01 7.68968E-14-3.76026E-13
 -1      2896 2.29806E+01-1.43594E-01-4.40680E-02-1.29550E+00 2.38637E-13-3.84001E-13
 -1      2897 2.29526E+01 5.51059E-01 6.99357E-03-1.29890E+00 1.92952E-13-3.20731E-13
 -1      2898 2.41152E+01 1.14427E+00-7.91169E-03-1.32615E+00 1.56965E-13-3.87003E-13
 -1      2899 2.27051E+01-9.06608E-01-2.13505E-02-7.11261E-01 3.06628E-13-1.54719E-13
 -1      2900 2.28392E+01-6.16764E-01-6.08032E-03-9.67864E-01 2.93053E-13-2.13546E-13
 -1      2901 2.40431E+01-4.96687E-01 1.14635E-02-1.06790E+00 1.88049E-13-4.51961E-13
 -1      2902 2.22391E+01-9.70150E-01-6.48896E-03 1.09897E-03 6.24584E-14 1.00977E-13
 -1      2903 2.25128E+01-1.02370E+00-1.75354E-02-2.73995E-01 2.27702E-13-3.31899E-14
 -1      2904 2.36547E+01-1.23501E+00 2.73957E-02-2.13069E-01 1.42455E-13-4.16125E-14
 -1      2905 2.30015E+01-1.18885E+00 3.20682E-02 6.66181E-01-7.35330E-14-3.73980E-14
 -1      2906 2.59060E+01-5.37028E+00-5.53506E-02 5.51109E+00 1.16337E-13 1.43892E-13
 -1      2907 2.30893E+01-5.33771E+00 1.56659E-01 7.10847E+00 2.45429E-13 1.37224E-13
 -1      2908 1.20146E+01 1.53762E+00 2.13408E-02 2.56282E+00-2.63723E-13 2.40308E-13
 -1      2909 1.38826E+01 1.16031E+00 2.30380E-01 4.54236E+00-1.94858E-13 2.88117E-13
 -1      2910 2.66634E+01-5.82920E+00-1.05751E-01 2.07791E+00 6.59472E-14 5.68039E-13
 -1      2911 2.39647E+01-6.32662E+00 5.38506E-02 3.76694E+00 2.24473E-13 1.56018E-13
 -1      2912 2.09702E+01-1.83646E+00-1.34230E-02 6.14105E+00-1.04854E-13 4.14495E-14
 -1      2913 2.26537E+01-2.27048E+00 6.58529E-02 5.50974E+00 9.01085E-14-2.22577E-13
 -1      2914 1.60551E+01-2.44684E-01-3.89969E-02 6.07471E+00-7.10057E-14 7.30846E-13
 -1      2915 1.88720E+01-9.23280E-01 1.89459E-01 6.59307E+00-3.03160E-13 6.63351E-13
 -1      2916 1.55628E+01 5.21970E-02 1.24398E-01-5.82919E+00-2.45637E-14-3.04756E-14
 -1      2917 1.33489E+01 8.19828E-01 6.51990E-02-4.62856E+00-1.16594E-13 1.75568E-13
 -1      2918 2.23700E+01-2.96481E+00 2.91510E-02-6.12466E+00 1.53239E-13 1.65944E-13
 -1      2919 2.04280E+01-2.28265E+00 6.01580E-02-6.44416E+00 1.18357E-13 1.56979E-13
 -1      2920 2.42964E+01-2.76864E+00-1.19778E-02-3.55841E+00-1.40547E-14 1.52933E-13
 -1      2921 2.38189E+01-2.66559E+00 6.08583E-02-4.54002E+00 9.56665E-14 9.41842E-14
 -1      2922 2.48378E+01-4.28785E+00 4.65886E-02-4.97711E+00 9.05144E-14 9.50316E-14
 -1      2923 2.34208E+01-1.67735E+00-1.73413E-02-1.54378E+00-4.10793E-14-1.29712E-13
 -1      2924 2.37032E+01-1.88107E+00 1.99093E-02-2.50243E+00 9.55486E-15 1.93217E-13
 -1      2925 2.51161E+01-2.90204E+00 1.78997E-02-2.31802E+00 1.42907E-14 1.55756E-13
 -1      2926 2.31313E+01-1.43201E+00 7.26645E-03-8.32738E-01-2.18315E-14-3.88821E-14
 -1      2927 1.44982E+01-3.25366E+00 1.36209E-01-7.56439E+00-3.28126E-13 2.34174E-13
 -1      2928 1.81217E+01-4.42141E+00 3.46938E-03-8.18918E+00-6.21725E-14 3.07643E-13
 -1      2929 2.04556E+01-3.95206E+00 5.64947E-02-7.32332E+00-3.25712E-14 2.64726E-13
 -1      2930 1.52429E+01-1.76052E+00 2.01929E-01-6.71191E+00-2.62290E-13 1.74680E-13
 -1      2931 1.98809E+01-6.17883E+00 2.12315E-02 5.58521E+00 9.94205E-14 6.63358E-15
 -1      2932 1.56329E+01-5.58163E+00 1.35554E-01 6.30661E+00-3.53051E-14 9.54653E-14
 -1      2933 1.11986E+01-1.58930E+00 4.19162E-02 5.98659E+00-1.24942E-13 4.54969E-13
 -1      2934 9.84976E+00 1.94102E-02 3.11068E-01 3.74285E+00-4.05960E-13 3.89133E-13
 -1      2935 2.94234E+01 6.28320E+00-1.72900E-01 1.81033E-01-1.78774E-13 1.54807E-14
 -1      2936 2.92525E+01 6.72762E+00-1.82617E-01-9.99028E-01-2.07667E-13 1.18688E-13
 -1      2937 1.99616E+01 2.31048E-01-7.98515E-04 6.23098E-02 7.91759E-14 5.83410E-14
 -1      2938 2.00273E+01 3.14949E-01 7.84241E-03 1.60009E-01 7.22964E-14 6.15251E-14
 -1      2939 2.00563E+01 2.65750E-01-2.72245E-03 6.03342E-02 8.31229E-14 1.82957E-14
 -1      2940 1.98416E+01 6.51191E-03 1.83673E-04-1.76726E-01 2.84765E-14 8.82908E-14
 -1      2941 1.98416E+01 2.58564E-02 1.78426E-03-1.65719E-01 5.47098E-14 4.38167E-14
 -1      2942 1.99511E+01 5.37976E-02-1.76955E-03-1.45989E-01 3.18194E-14 2.75529E-14
 -1      2943 1.99290E+01 3.92228E-03-1.25607E-03-1.79288E-01 1.35033E-15 5.99261E-14
 -1      2944 2.03217E+01 1.06055E+00 5.88184E-03-8.56073E-01-1.02167E-14-1.17033E-13
 -1      2945 2.02281E+01 8.15395E-01-5.71979E-03-6.13966E-01-2.13805E-15-1.21239E-13
 -1      2946 2.02611E+01 8.93096E-01 8.12264E-05-5.71168E-01-1.47774E-14-1.16973E-13
 -1      2947 2.30195E+01-6.39826E+00 8.35725E-02-4.58831E+00-3.23422E-13-1.68657E-13
 -1      2948 2.56578E+01-6.15380E+00-9.25761E-02-3.24349E+00-2.17812E-13-1.80925E-13
 -1      2949 1.92094E+01-4.68602E+00-1.96595E-02 8.10481E+00 2.49523E-13 4.16667E-13
 -1      2950 1.56481E+01-3.35059E+00 1.94376E-01 7.81204E+00 2.13024E-14 6.21808E-13
 -1      2951 2.00703E+01 4.15652E-01-1.59522E-03 2.87405E-01 8.49943E-14 6.08668E-14
 -1      2952 2.01717E+01 5.54083E-01 1.04800E-02 4.50361E-01 8.75188E-14 6.76373E-14
 -1      2953 2.02542E+01 8.22024E-01 8.55665E-04 6.17070E-01 1.04382E-13 4.35112E-14
 -1      2954 2.01464E+01 4.77970E-01-1.81064E-03 2.80064E-01 8.54643E-14 3.79652E-14
 -1      2955 1.99230E+01 2.59597E+00-7.88942E-03 7.94296E-01 1.60037E-13-1.68370E-14
 -1      2956 1.98791E+01 2.68815E+00-6.11625E-03 6.45318E-01 1.49496E-13-4.60747E-14
 -1      2957 1.99976E+01 2.38846E+00 4.33007E-03 5.16618E-01 1.39715E-13-5.03090E-14
 -1      2958 2.00792E+01 2.19067E+00 5.57793E-03 7.45564E-01 1.45123E-13-5.23442E-15
 -1      2959 1.98740E+01 2.69694E+00-6.09107E-03-6.35180E-01 6.34602E-14-1.47099E-13
 -1      2960 1.99171E+01 2.60724E+00-7.74832E-03-7.84491E-01 4.87377E-14-1.58809E-13
 -1      2961 2.94976E+01-2.51264E+00-1.70290E-01-1.73979E+00 4.55608E-14 4.79547E-13
 -1      2962 2.86787E+01-4.27896E+00 5.02864E-02-1.11551E-01-3.87954E-14 5.17059E-13
 -1      2963 2.89164E+01 5.20782E+00-2.31055E-01-7.62529E-01 3.32123E-13 1.90473E-13
 -1      2964 2.98543E+01 3.73658E+00-1.14437E-01-1.33777E+00 3.63543E-13 1.54932E-13
 -1      2965 1.24595E+01-4.42329E+00 6.94124E-02 6.14079E+00 7.42739E-14-8.72080E-14
 -1      2966 9.95668E+00-2.85316E+00 1.76221E-01 4.83455E+00 1.81279E-13-2.90934E-13
 -1      2967 1.54747E+01-4.16321E+00 1.56707E-01 5.52681E+00 1.21292E-13 4.24383E-14
 -1      2968 7.56659E+00-1.91736E+00 1.13572E-01 3.07448E+00 2.49412E-13-1.50407E-13
 -1      2969 6.40997E+00-1.52783E+00 1.80996E-01 8.03454E-01 2.03512E-13 9.43690E-15
 -1      2970 2.78933E+01-5.09472E+00 3.33075E-02-1.31606E+00-2.19116E-13-2.49717E-13
 -1      2971 2.91063E+01-3.43670E+00-1.35934E-01 7.64559E-01-8.04808E-14-8.47100E-14
 -1      2972 1.66831E+01-5.57818E+00 1.17519E-01-6.29467E+00-2.81969E-13-2.10290E-13
 -1      2973 1.99616E+01-6.31365E+00 1.39520E-02-5.89297E+00-3.07532E-13-6.42542E-14
 -1      2974 6.26784E+00-1.55993E+00 1.74473E-01-8.11436E-01 1.25343E-13 3.35287E-14
 -1      2975 7.20729E+00-1.87229E+00 1.50178E-01-2.79730E+00-3.77892E-14 2.94764E-14
 -1      2976 8.36465E+00-8.58604E-01 1.87469E-01 1.04908E-01 1.02125E-13 1.30201E-13
 -1      2977 3.02623E+01 1.44810E+00-2.06772E-01-1.06471E+00 2.35770E-13 1.01127E-13
 -1      2978 3.04680E+01-9.59278E-01-3.97580E-02-1.64716E-01 1.48173E-13 2.12330E-14
 -1      2979 2.78449E+01-4.99705E+00 1.19034E-01-3.90637E+00-5.78981E-14 1.83714E-13
 -1      2980 2.94824E+01-3.95200E+00-1.78400E-01-2.08048E+00 6.64642E-14 2.78041E-13
 -1      2981 8.25778E+00 1.68166E-03 1.00264E-01 1.18882E+00-4.87305E-13 4.86278E-14
 -1      2982 8.38450E+00-3.85339E-02 1.97093E-01-2.00541E+00-3.43087E-13-3.88856E-14
 -1      2983 1.08826E+01 3.09042E-01 2.28800E-01-3.34335E+00-2.33411E-13 5.10425E-14
 -1      2984 1.02303E+01 7.28028E-01 1.89911E-01 1.70269E+00-5.18155E-13 1.44079E-13
 -1      2985 3.00704E+01 2.00243E+00-1.56234E-01-3.41183E+00-1.83964E-13 2.70894E-13
 -1      2986 3.01985E+01-2.93469E-01-5.04823E-02-2.94281E+00-1.71391E-14 4.75148E-13
 -1      2987 2.89635E+01-1.90029E+00-6.03973E-02-2.47303E+00 6.46705E-14 5.75429E-13
 -1      2988 2.96401E+01-7.52666E-01-9.14025E-02 2.46594E+00-1.44051E-14 2.40447E-13
 -1      2989 3.03475E+01 1.65577E+00-1.60530E-01 3.03278E+00 1.27773E-13 4.32931E-13
 -1      2990 2.89215E+01 2.07967E+00-8.04568E-02 3.47408E+00 1.09801E-13 5.07830E-13
 -1      2991 3.04355E+01-1.82437E+00-6.17678E-03-1.63133E-01 7.08322E-14 2.27790E-13
 -1      2992 3.01487E+01 3.38237E-01-2.03195E-01 8.95152E-01-1.09121E-13 1.77719E-13
 -1      2993 2.34817E+01-1.62942E+00-1.77578E-02-6.20173E-01 4.02022E-15 1.01171E-13
 -1      2994 2.99924E+01-3.02452E+00-1.43286E-01 1.30696E+00 1.26662E-13-1.12549E-14
 -1      2995 2.85070E+01-4.37356E+00 2.77280E-05 2.96289E+00 1.12590E-13-9.76996E-14
 -1      2996 2.91853E+01-1.92295E+00-4.24655E-02 5.06273E-02-1.37737E-14-6.10761E-14
 -1      2997 2.03158E+01 1.68892E+00-6.79821E-03-1.29467E+00-1.92337E-14-1.57184E-13
 -1      2998 2.02983E+01 1.30259E+00-3.05087E-03-1.01989E+00-1.78306E-14-1.40079E-13
 -1      2999 2.02806E+01 1.37375E+00 6.22863E-04-9.23207E-01-2.66649E-15-1.16086E-13
 -1      3000 2.02231E+01 1.95303E+00-4.20405E-04-1.26554E+00-4.44783E-15-1.61665E-13
 -1      3001 1.99718E+01 2.48775E+00-6.01401E-03-9.01958E-01 4.68801E-14-1.64521E-13
 -1      3002 2.00366E+01 2.34362E+00-8.97105E-03-1.03460E+00 3.50132E-14-1.63672E-13
 -1      3003 2.00731E+01 2.20483E+00 6.05389E-03-7.39452E-01 3.10039E-14-1.47966E-13
 -1      3004 1.99321E+01 2.53863E+00 3.42127E-03 4.59537E-03 9.64366E-14-7.06946E-14
 -1      3005 1.97931E+01 2.87014E+00-5.48741E-03-6.18641E-02 9.18922E-14-9.33836E-14
 -1      3006 1.98006E+01 2.85548E+00-5.55024E-03-2.16542E-01 9.19980E-14-1.10843E-13
 -1      3007 2.83743E+01 5.44306E+00-1.25118E-01 2.33462E+00 7.29694E-14 3.72896E-13
 -1      3008 2.02907E+01 1.58774E+00-1.19202E-03 1.16546E+00 1.19591E-13 7.47674E-14
 -1      3009 2.85468E+01 1.12357E+00-9.83676E-02 1.23486E+00-1.71557E-13 1.12382E-13
 -1      3010 2.61857E+01-4.69941E+00 8.03454E-02-4.56313E+00 3.08364E-14 1.35066E-13
 -1      3011 2.46477E+01-2.10932E+00-5.15756E-03-8.79756E-01 8.98361E-14 1.94634E-13
 -1      3012 2.74410E+01-4.91704E+00 2.93163E-03 3.89378E+00 5.37001E-14-1.52371E-13
 -1      3013 2.57740E+01-4.53114E+00 6.74147E-02 4.68355E+00 1.27225E-14-2.29367E-13
 -1      3014 2.76968E+01-3.84339E+00-2.91115E-02 2.20608E+00 1.43891E-14-2.44790E-13
 -1      3015 2.35598E+01-1.72675E+00-8.04357E-03 1.50114E+00 1.66497E-14-9.62780E-14
 -1      3016 2.39775E+01-1.89493E+00-1.77681E-02 1.07141E+00 6.62270E-14-1.21676E-13
 -1      3017 2.38802E+01-1.89747E+00 1.82618E-02 2.36226E+00 1.39850E-13-1.44547E-13
 -1      3018 1.14166E+01 1.84755E+00 1.43399E-01 3.49646E-02-2.84175E-13-5.13478E-14
 -1      3019 1.41787E+01-6.44734E-01 1.47627E-01 5.93209E+00-7.56617E-14 5.65881E-13
 -1      3020 2.36890E+01-5.61010E+00 3.29351E-02 3.02278E+00 2.45259E-13 3.18068E-13
 -1      3021 2.21875E+01-6.13370E+00 4.82390E-02 4.55084E+00 2.29899E-13 3.00992E-14
 -1      3022 2.01252E+01-5.27590E+00 7.16923E-02 4.85143E+00 1.07830E-13 1.70343E-13
 -1      3023 2.01440E+01-2.56760E+00 9.46094E-02 6.82587E+00-9.70057E-15 1.70204E-13
 -1      3024 1.19355E+01 1.54217E+00 1.02930E-01-2.33326E+00-1.03521E-13-1.33227E-15
 -1      3025 1.51873E+01-4.71983E+00 1.22741E-01-6.15990E+00-1.12188E-13-1.91722E-13
 -1      3026 1.76056E+01-4.74435E+00 6.97778E-02-5.52656E+00-5.77871E-14-1.21889E-13
 -1      3027 1.38071E+01-3.50710E+00 1.17628E-01-5.61475E+00 1.42719E-13-1.42386E-13
 -1      3028 2.65754E+01-5.48790E+00 3.59070E-02-1.74482E+00-1.70128E-13-2.91496E-13
 -1      3029 2.75658E+01 4.92884E+00-6.82380E-02 6.30462E-01-2.26485E-13 1.15255E-13
 -1      3030 8.97107E+00-1.97286E+00 2.00818E-01-3.70248E+00 3.55688E-14-3.95239E-14
 -1      3031 1.10100E+01-2.20153E+00 1.03318E-01-4.39073E+00 1.24754E-13-1.74583E-13
 -1      3032 9.32793E+00-1.01157E+00 8.48059E-02-2.48783E+00 2.71869E-13-2.15800E-14
 -1      3033 2.71361E+01-5.05045E+00-2.30184E-02 5.86471E-01 1.32144E-13 4.28393E-13
 -1      3034 2.16547E+01-4.28041E+00 1.21826E-01 7.11180E+00 1.47132E-13 2.53172E-13
 -1      3035 2.85738E+01 2.56687E+00-1.75248E-01-3.57067E+00-1.26038E-13 3.18981E-13
 -1      3036 2.77849E+01 9.08268E-01-6.85724E-02-3.60584E+00 4.93078E-14 4.15931E-13
 -1      3037 1.98163E+01 2.82001E+00-5.70153E-03-3.51700E-01 8.83378E-14-1.06591E-13
 -1      3038 1.98405E+01 2.77171E+00-6.20494E-03-5.05296E-01 7.58256E-14-1.16316E-13
 -1      3039 1.99933E+01 2.39614E+00 4.22795E-03-5.07639E-01 5.34654E-14-1.17799E-13
 -1      3040 1.99468E+01 2.50457E+00 3.59607E-03-2.55685E-01 7.82253E-14-1.09535E-13
 -1      3041 2.68696E+01 5.25158E+00-1.31809E-01-1.56440E+00-1.63022E-13 2.58703E-13
 -1      3042 2.83334E+01 5.81217E+00-2.32737E-01-2.06700E+00-1.96620E-13 2.08736E-13
 -1      3043 2.34588E+01-2.20817E+00 2.59546E-02 4.37695E+00 1.74923E-13-2.66734E-13
 -1      3044 2.38858E+01-2.25924E+00 1.67121E-02 3.39155E+00 1.10001E-13-1.09238E-13
 -1      3045 2.46376E+01-2.79262E+00-1.54423E-02 2.95943E+00 1.71585E-13-1.37538E-13
 -1      3046 2.37514E+01-3.23557E+00 3.50897E-02 5.07795E+00 1.08902E-13-1.40409E-13
 -1      3047 2.20700E+01-6.03408E+00 7.64301E-02-4.65356E+00-2.24765E-13-2.46954E-13
 -1      3048 2.86507E+01 1.81020E+00-1.04361E-01-1.30058E+00 2.69090E-13 1.82909E-14
 -1      3049 1.03780E+01-1.77973E+00 1.73337E-01 3.60326E+00 1.69510E-13-2.55893E-13
 -1      3050 2.79083E+01-3.62771E+00-2.79468E-02 9.92429E-01 8.25008E-14-1.26024E-13
 -1      3051 2.91386E+01-2.51581E+00-8.73168E-02 1.81467E+00 1.57764E-14 3.28904E-15
 -1      3052 2.83319E+01-1.27024E+00-7.13632E-02 2.82340E+00 2.42542E-13 4.15806E-13
 -1      3053 2.02797E+01 1.36640E+00 2.07423E-03 9.19255E-01 1.20999E-13 3.89850E-14
 -1      3054 2.88678E+01-2.98217E+00-6.73177E-02-8.10858E-01 7.91450E-14 1.07928E-13
 -1      3055 2.84290E+01 4.62809E+00-1.37697E-01-3.05821E+00-1.96149E-13 3.23262E-13
 -1      3056 2.77724E+01-1.18088E+00-5.20991E-02 9.74377E-01-7.45654E-14 1.15533E-13
 -1      3057 2.69320E+01 9.99884E-01-6.65695E-02 1.46550E+00-1.75679E-13 5.28258E-14
 -1      3058 2.02400E+01 1.47941E+00-6.70290E-03 8.02336E-01 1.34047E-13 1.45141E-14
 -1      3059 2.02005E+01 1.66963E+00-3.71617E-04 7.45954E-01 1.40855E-13 6.42780E-15
 -1      3060 2.00845E+01 2.25089E+00-6.06001E-03-1.11738E+00 2.08086E-14-1.54448E-13
 -1      3061 2.01630E+01 2.06777E+00-8.24911E-03-1.19975E+00 4.46518E-15-1.53740E-13
 -1      3062 2.02343E+01 1.76627E+00 5.80683E-03-1.03817E+00-2.90133E-15-1.41282E-13
 -1      3063 2.01667E+01 1.98044E+00 8.01618E-03-9.15045E-01 2.06071E-14-1.42275E-13
 -1      3064 2.02933E+01 1.15475E+00 5.66227E-03-6.66475E-01-1.50144E-14-1.15073E-13
 -1      3065 2.02564E+01 9.09476E-01-4.84954E-03-4.80362E-01-2.55870E-14-1.38971E-13
 -1      3066 2.51579E+01 4.35368E+00-1.81924E-01-7.84517E-01-1.58276E-13 3.05898E-13
 -1      3067 2.02209E+01 4.22662E-01 4.11827E-03-1.20098E-01-3.22995E-14-9.79861E-14
 -1      3068 2.01815E+01 3.14776E-01-2.30640E-03-3.53684E-02-5.79476E-15-9.50864E-14
 -1      3069 2.01672E+01 2.31134E-01 3.18300E-03 2.59984E-02-7.37144E-15-1.04430E-13
 -1      3070 2.01369E+01 1.60481E-01-1.31338E-03 7.68150E-02-1.74439E-14-1.26290E-13
 -1      3071 2.02372E+01 3.31300E-01-8.55413E-04-2.64334E-02-2.20844E-14-6.24753E-14
 -1      3072 2.01201E+01 1.06373E-01 2.24044E-03 1.12543E-01 3.97843E-15-1.06511E-13
 -1      3073 2.00988E+01 6.11027E-02-6.34986E-04 1.39561E-01 3.66722E-14-8.99403E-14
 -1      3074 2.01964E+01 1.66739E-01-1.01567E-03 7.60028E-02-1.61413E-15-6.47679E-14
 -1      3075 2.00826E+01 2.70284E-02 1.47113E-03 1.57058E-01 5.59017E-14-1.11023E-13
 -1      3076 2.00688E+01-8.45235E-04-2.00256E-04 1.68097E-01 5.01146E-14-5.82744E-14
 -1      3077 2.01574E+01 6.01152E-02-9.70341E-04 1.33572E-01 4.04555E-14-8.89137E-14
 -1      3078 2.00544E+01-2.12207E-02 8.88109E-04 1.73347E-01 6.62010E-14-4.67961E-14
 -1      3079 2.00463E+01-3.71541E-02 6.70934E-05 1.74179E-01 5.60423E-14-1.96154E-14
 -1      3080 2.01233E+01-6.32275E-03-8.42953E-04 1.59682E-01 7.96469E-14-7.10242E-14
 -1      3081 2.00341E+01-4.81558E-02 4.69045E-04 1.71731E-01 2.62270E-14 1.60673E-14
 -1      3082 2.00301E+01-5.59347E-02 2.24407E-04 1.66505E-01 2.26092E-14 4.44742E-14
 -1      3083 2.00950E+01-4.49636E-02-6.97761E-04 1.65012E-01 7.91015E-14-5.56542E-14
 -1      3084 2.00201E+01-6.05618E-02 1.80218E-04 1.59686E-01-3.78347E-14 4.46259E-14
 -1      3085 2.00188E+01-6.28264E-02 3.11368E-04 1.51333E-01-4.89644E-14-2.01823E-14
 -1      3086 2.00723E+01-6.44952E-02-5.61915E-04 1.57609E-01-2.32707E-14-3.00502E-14
 -1      3087 2.00109E+01-6.31612E-02-1.15863E-05 1.42514E-01-7.00715E-14-1.75548E-14
 -1      3088 2.00115E+01-6.17347E-02 3.55678E-04 1.33072E-01-5.83621E-14-5.76672E-14
 -1      3089 2.00545E+01-7.10202E-02-4.45039E-04 1.43330E-01-6.41042E-14-1.68637E-14
 -1      3090 2.00053E+01-5.91962E-02-1.35151E-04 1.23911E-01-4.64105E-14-7.38451E-14
 -1      3091 2.00071E+01-5.52973E-02 3.77168E-04 1.14789E-01-5.83198E-14-9.08494E-14
 -1      3092 2.00410E+01-6.87754E-02-3.48583E-04 1.26336E-01-4.83862E-14-1.07102E-14
 -1      3093 2.00024E+01-5.08091E-02-2.13821E-04 1.06441E-01-8.98441E-14-9.17027E-14
 -1      3094 2.00051E+01-4.52008E-02 3.90146E-04 9.86221E-02-1.05882E-13-9.63525E-14
 -1      3095 2.00310E+01-6.06109E-02-2.70995E-04 1.09545E-01-7.35997E-14-1.16236E-13
 -1      3096 2.00015E+01-3.93126E-02-2.65945E-04 9.19097E-02-1.43184E-13-9.25351E-14
 -1      3097 2.00048E+01-3.24118E-02 4.04839E-04 8.61115E-02-1.97540E-13-9.76472E-14
 -1      3098 2.00239E+01-4.83276E-02-2.09512E-04 9.50194E-02-1.39246E-13-1.32066E-13
 -1      3099 2.00021E+01-2.53873E-02-3.05982E-04 8.16570E-02-1.75299E-13-1.80116E-14
 -1      3100 2.00060E+01-1.73446E-02 4.28936E-04 7.84505E-02-1.27966E-13 3.14610E-14
 -1      3101 2.00189E+01-3.29270E-02-1.60462E-04 8.42710E-02-1.16047E-13-7.05861E-15
 -1      3102 2.00039E+01-9.22665E-03-3.45430E-04 7.67803E-02-1.20364E-13 1.00156E-13
 -1      3103 2.00083E+01 1.25993E-05 4.68267E-04 7.66838E-02-6.21621E-14 9.53243E-14
 -1      3104 2.00155E+01-1.47980E-02-1.20023E-04 7.84976E-02-1.15232E-13 1.37751E-13
 -1      3105 2.00065E+01 9.35053E-03-3.93517E-04 7.83077E-02-3.46721E-14 5.47427E-14
 -1      3106 2.00115E+01 1.99974E-02 5.27194E-04 8.18568E-02 2.90955E-14-8.66663E-15
 -1      3107 2.00132E+01 6.14258E-03-8.41861E-05 7.87703E-02-6.49612E-14 1.39950E-13
 -1      3108 2.00097E+01 3.08081E-02-4.57807E-04 8.73273E-02 1.27743E-13-1.64899E-14
 -1      3109 2.00156E+01 4.31865E-02 6.08750E-04 9.51256E-02 1.26977E-13 1.13288E-14
 -1      3110 2.00114E+01 3.03351E-02-4.85839E-05 8.61739E-02 6.40609E-14 2.66490E-14
 -1      3111 2.00134E+01 5.58082E-02-5.44609E-04 1.05079E-01 6.78872E-14 2.15523E-14
 -1      3112 2.00202E+01 7.03108E-02 7.14598E-04 1.17829E-01 7.13341E-14 2.00972E-14
 -1      3113 2.00094E+01 5.84748E-02-8.38217E-06 1.01907E-01 1.09957E-13-1.52108E-14
 -1      3114 2.00172E+01 8.51224E-02-6.59085E-04 1.33008E-01 5.10627E-14 4.67777E-14
 -1      3115 2.00253E+01 1.02159E-01 8.44832E-04 1.51523E-01 1.05083E-13 2.69210E-14
 -1      3116 2.00066E+01 9.14083E-02 4.18125E-05 1.27344E-01 6.98833E-14 1.05271E-14
 -1      3117 2.00209E+01 1.19523E-01-8.05027E-04 1.72780E-01 1.56241E-13 2.53189E-15
 -1      3118 2.00304E+01 1.39451E-01 9.97664E-04 1.97975E-01 9.37271E-14-2.16459E-14
 -1      3119 2.00021E+01 1.30013E-01 1.07919E-04 1.64061E-01 1.09128E-13 2.40511E-14
 -1      3120 2.00241E+01 1.59633E-01-9.84177E-04 2.26257E-01 1.50652E-14 5.83614E-14
 -1      3121 2.00351E+01 1.82655E-01 1.16917E-03 2.59105E-01 1.98430E-14 1.39850E-13
 -1      3122 1.99949E+01 1.75033E-01 1.96034E-04 2.13819E-01 1.02575E-13-1.65557E-14
 -1      3123 2.00261E+01 2.05700E-01-1.19490E-03 2.95408E-01-2.03834E-14 1.18692E-13
 -1      3124 2.00388E+01 2.31709E-01 1.35341E-03 3.36862E-01-7.55699E-14 1.16543E-13
 -1      3125 1.99837E+01 2.26852E-01 3.11432E-04 2.78501E-01 2.75607E-14 8.16767E-14
 -1      3126 2.00264E+01 2.57260E-01-1.42986E-03 3.82160E-01-9.35561E-14 8.58419E-14
 -1      3127 2.00409E+01 2.85607E-01 1.54344E-03 4.33028E-01-1.87506E-14 8.95711E-14
 -1      3128 1.99671E+01 2.85142E-01 4.56340E-04 3.59998E-01-5.60470E-14 9.90226E-14
 -1      3129 2.00243E+01 3.12617E-01-1.67228E-03 4.88172E-01 2.77674E-14 1.95845E-15
 -1      3130 2.00407E+01 3.41750E-01 1.73420E-03 5.48925E-01 6.17757E-14 2.35377E-14
 -1      3131 1.99435E+01 3.48349E-01 6.25493E-04 4.60039E-01-7.04656E-14-3.95274E-14
 -1      3132 2.00194E+01 3.68053E-01-1.88969E-03 6.14507E-01 7.25284E-14-1.58066E-14
 -1      3133 2.00382E+01 3.94987E-01 1.92830E-03 6.85014E-01 7.97359E-15-9.05404E-14
 -1      3134 1.99113E+01 4.12916E-01 7.97899E-04 5.79976E-01 2.43917E-14-1.87251E-13
 -1      3135 2.00122E+01 4.16661E-01-2.02407E-03 7.61221E-01 1.17980E-14 1.69429E-14
 -1      3136 2.00347E+01 4.36199E-01 2.14575E-03 8.40389E-01 1.57011E-14 6.73717E-14
 -1      3137 1.98698E+01 4.72140E-01 9.22408E-04 7.20555E-01 6.72666E-14-2.15190E-13
 -1      3138 2.00055E+01 4.46660E-01-1.97561E-03 9.26835E-01-2.28164E-14 7.74976E-14
 -1      3139 2.00346E+01 4.50327E-01 2.43709E-03 1.01215E+00 6.83392E-14 7.02878E-14
 -1      3140 1.98200E+01 5.14533E-01 8.93680E-04 8.81703E-01 6.43667E-15 5.16046E-15
 -1      3141 2.00067E+01 4.39126E-01-1.57546E-03 1.10770E+00-2.39708E-14 4.41719E-14
 -1      3142 2.00483E+01 4.13801E-01 2.89376E-03 1.19459E+00-7.42736E-14 8.96483E-15
 -1      3143 1.97664E+01 5.21575E-01 5.14192E-04 1.06239E+00 4.39491E-15 3.90908E-14
 -1      3144 2.00312E+01 3.65232E-01-5.35239E-04 1.29709E+00 9.64034E-15-2.62146E-14
 -1      3145 2.00971E+01 2.91662E-01 3.62797E-03 1.37803E+00 3.61229E-14 1.83434E-14
 -1      3146 1.97209E+01 4.64832E-01-5.63617E-04 1.26056E+00-4.30690E-14-4.76065E-14
 -1      3147 2.01097E+01 1.83567E-01 1.64658E-03 1.48353E+00-7.04629E-14 2.32136E-14
 -1      3148 2.02201E+01 3.54374E-02 4.67897E-03 1.54637E+00-2.18896E-13 4.84888E-14
 -1      3149 1.97084E+01 3.02638E-01-2.92244E-03 1.47273E+00-4.94293E-14-8.37530E-14
 -1      3150 2.02964E+01-1.60375E-01 5.85516E-03 1.64660E+00-1.48039E-13 6.45571E-14
 -1      3151 2.04827E+01-4.14916E-01 5.56031E-03 1.67148E+00-1.90098E-14 1.16165E-13
 -1      3152 1.97757E+01-2.25494E-02-7.44430E-03 1.69181E+00-1.10989E-13-2.21669E-14
 -1      3153 2.06798E+01-7.27565E-01 1.31135E-02 1.74667E+00-8.82827E-14 2.01625E-13
 -1      3154 2.09833E+01-1.11502E+00 5.35510E-03 1.69958E+00-4.11975E-14 1.57969E-13
 -1      3155 2.00044E+01-5.82158E-01-1.54761E-02 1.89916E+00-1.77330E-14 1.23363E-14
 -1      3156 2.13875E+01-1.55771E+00 2.57642E-02 1.70541E+00-4.06272E-15 6.21829E-14
 -1      3157 2.18497E+01-2.07432E+00 2.71927E-03 1.52965E+00-3.24237E-14 7.54621E-14
 -1      3158 2.05263E+01-1.44431E+00-2.77447E-02 2.04500E+00-1.11377E-13 1.89146E-14
 -1      3159 2.25576E+01-2.60485E+00 3.93511E-02 1.37323E+00-7.06171E-14 1.36568E-14
 -1      3160 2.31823E+01-3.14764E+00-9.75924E-03 9.88629E-01-1.19173E-13-7.26450E-14
 -1      3161 2.15220E+01-2.59637E+00-3.85547E-02 2.00306E+00-8.52313E-14 4.75184E-14
 -1      3162 2.42805E+01-3.57351E+00 4.81861E-02 4.89824E-01-7.14810E-14-6.68042E-15
 -1      3163 2.49203E+01-3.82845E+00-9.55303E-03-1.37208E-01-3.99368E-14 2.97583E-14
 -1      3164 2.31990E+01-3.87612E+00-5.25217E-02 1.54692E+00-8.82744E-14 1.14603E-13
 -1      3165 2.76389E+01-1.02765E+00-1.31349E-01-3.18981E+00 4.94882E-14 4.23342E-13
 -1      3166 2.79363E+01-2.40838E+00-7.06766E-02-2.35943E-01 7.66383E-14 2.19769E-13
 -1      3167 2.65728E+01-2.20390E+00-5.00355E-02-4.71364E-02 3.15355E-14 1.81341E-13
 -1      3168 2.59736E+01-2.65916E+00-2.31161E-02-7.00770E-01 1.52895E-13 2.93782E-13
 -1      3169 2.76311E+01-3.64939E+00 5.54889E-02-1.68021E+00 9.67095E-14 2.51341E-13
 -1      3170 2.56781E+01-3.01228E+00-1.33182E-02-1.75428E+00 5.34815E-14 2.48108E-13
 -1      3171 1.99824E+01-4.83993E-02 2.31818E-04-1.72913E-01 2.55407E-14 7.22295E-14
 -1      3172 1.99821E+01-4.11181E-02 4.45689E-04-1.78414E-01 6.64688E-14 6.03705E-14
 -1      3173 1.99916E+01-3.09568E-02 1.03863E-04-1.80761E-01 4.79189E-14 2.01946E-14
 -1      3174 1.99956E+01-1.62919E-02 9.14522E-04-1.80005E-01 6.36012E-15 2.72909E-14
 -1      3175 2.00483E+01-3.85175E-02-7.42652E-04-1.74674E-01 2.65890E-14 4.17072E-14
 -1      3176 1.99778E+01-5.47634E-02 3.33277E-04-1.37918E-01 8.79493E-14 8.64418E-14
 -1      3177 1.99734E+01-5.57611E-02-6.96659E-05-1.47820E-01 8.86363E-14 4.19563E-14
 -1      3178 1.99796E+01-4.96247E-02 3.49360E-04-1.18533E-01 6.13360E-14 1.64841E-13
 -1      3179 1.99744E+01-5.28182E-02-1.92100E-04-1.28174E-01 8.62938E-14 1.21683E-13
 -1      3180 2.00121E+01-6.25150E-02-3.08267E-04-1.33649E-01 2.44650E-14 3.29138E-14
 -1      3181 1.99829E+01-4.12761E-02 3.61237E-04-1.01131E-01 3.96947E-14 9.96476E-14
 -1      3182 1.99774E+01-4.59646E-02-2.62996E-04-1.09528E-01 7.11796E-14 1.60040E-13
 -1      3183 2.00074E+01-5.58175E-02-2.29524E-04-1.15416E-01 7.61696E-14 9.68204E-14
 -1      3184 1.99875E+01-3.06211E-02 3.78095E-04-8.72609E-02 3.46359E-14 8.96734E-14
 -1      3185 1.99817E+01-3.64088E-02-3.02497E-04-9.37111E-02 2.68042E-14 8.41689E-14
 -1      3186 2.00051E+01-4.54392E-02-1.74447E-04-9.93451E-02 4.85725E-14 4.32215E-14
 -1      3187 1.99930E+01-1.80792E-02 4.07066E-04-7.80985E-02-2.83678E-14 1.76097E-13
 -1      3188 1.99870E+01-2.48055E-02-3.26196E-04-8.20555E-02-1.38988E-14 1.40473E-13
 -1      3189 2.00045E+01-3.23457E-02-1.37173E-04-8.69944E-02-1.10903E-14 1.27371E-13
 -1      3190 1.99995E+01-3.69345E-03 4.53846E-04-7.46470E-02 1.21632E-14 8.68830E-14
 -1      3191 1.99931E+01-1.13795E-02-3.46186E-04-7.56250E-02 5.04656E-14 1.45465E-13
 -1      3192 2.00053E+01-1.69532E-02-1.13519E-04-7.95704E-02 3.76091E-14 1.62469E-13
 -1      3193 2.00070E+01 1.27749E-02 5.22852E-04-7.78946E-02-6.65751E-14 1.16053E-13
 -1      3194 1.99999E+01 3.97282E-03-3.71578E-04-7.53981E-02-4.74131E-14 9.07862E-14
 -1      3195 2.00072E+01 7.48915E-04-9.92288E-05-7.81308E-02-1.66239E-14 1.24783E-13
 -1      3196 2.00158E+01 3.17667E-02 6.17490E-04-8.89254E-02-8.48725E-16 1.31864E-13
 -1      3197 2.00077E+01 2.15972E-02-4.09533E-04-8.23985E-02-5.34004E-14 1.67395E-13
 -1      3198 2.00099E+01 2.10858E-02-9.03692E-05-8.37318E-02-6.94859E-14 1.96699E-13
 -1      3199 2.00262E+01 5.38470E-02 7.40006E-04-1.08993E-01-1.87292E-14 1.56818E-13
 -1      3200 2.00166E+01 4.20041E-02-4.65599E-04-9.77882E-02 5.01288E-14 2.19677E-13
 -1      3201 2.00131E+01 4.46017E-02-8.30988E-05-9.75325E-02-3.86888E-14 1.82265E-13
 -1      3202 2.00385E+01 7.96140E-02 8.91107E-04-1.39553E-01-4.87264E-14 1.08757E-13
 -1      3203 2.00270E+01 6.57863E-02-5.43814E-04-1.22922E-01-2.77529E-14 1.51050E-13
 -1      3204 2.00168E+01 7.19626E-02-7.35158E-05-1.20862E-01 1.84315E-14 1.53791E-13
 -1      3205 2.00532E+01 1.09580E-01 1.06939E-03-1.82254E-01-3.08332E-14 1.79250E-13
 -1      3206 2.00391E+01 9.35166E-02-6.46439E-04-1.59360E-01-4.95164E-14 1.47225E-13
 -1      3207 2.00207E+01 1.03840E-01-5.76915E-05-1.55243E-01-9.88115E-14 1.01296E-13
 -1      3208 2.00706E+01 1.43999E-01 1.27061E-03-2.38870E-01-1.03601E-13 2.48697E-13
 -1      3209 2.00534E+01 1.25606E-01-7.73169E-04-2.08835E-01-5.06189E-14 2.22707E-13
 -1      3210 2.00244E+01 1.40754E-01-3.20398E-05-2.02378E-01-8.42484E-14 1.64412E-13
 -1      3211 2.00911E+01 1.82616E-01 1.48693E-03-3.11154E-01-2.06069E-14 1.37780E-13
 -1      3212 2.00702E+01 1.62096E-01-9.19594E-04-2.73148E-01-5.44277E-14 1.52956E-13
 -1      3213 2.00277E+01 1.82855E-01 5.67325E-06-2.64064E-01-2.75070E-14 1.27725E-13
 -1      3214 2.01153E+01 2.24279E-01 1.70642E-03-4.00597E-01-6.49878E-14 1.09537E-13
 -1      3215 2.00900E+01 2.02349E-01-1.07455E-03-3.53991E-01-4.10281E-14 1.14276E-13
 -1      3216 2.00302E+01 2.29591E-01 5.41584E-05-3.42056E-01-1.42528E-15 1.24784E-13
 -1      3217 2.01440E+01 2.66378E-01 1.91320E-03-5.08057E-01 2.44685E-14 1.09360E-13
 -1      3218 2.01135E+01 2.44585E-01-1.21579E-03-4.52651E-01-2.32144E-14 6.08532E-14
 -1      3219 2.00317E+01 2.79226E-01 1.04412E-04-4.37839E-01-2.17432E-14 3.79707E-14
 -1      3220 2.01785E+01 3.04010E-01 2.08870E-03-6.33218E-01-3.01913E-14 8.62429E-14
 -1      3221 2.01418E+01 2.85189E-01-1.30320E-03-5.69577E-01 7.57941E-14 9.01137E-14
 -1      3222 2.00323E+01 3.28125E-01 1.32181E-04-5.52295E-01 1.82390E-14 6.86109E-14
 -1      3223 2.02217E+01 3.28807E-01 2.21385E-03-7.73828E-01-9.51339E-14-2.48446E-14
 -1      3224 2.01772E+01 3.17728E-01-1.26826E-03-7.03760E-01-6.67382E-15 4.67694E-14
 -1      3225 2.00332E+01 3.69738E-01 8.51906E-05-6.85265E-01 1.33609E-14 3.01057E-14
 -1      3226 2.02788E+01 3.27389E-01 2.26984E-03-9.24670E-01-1.04943E-13-6.47098E-15
 -1      3227 2.02239E+01 3.31590E-01-9.98714E-04-8.51876E-01-1.36247E-13-4.63128E-14
 -1      3228 2.00375E+01 3.93183E-01-1.37180E-04-8.34977E-01-7.42596E-14 9.30891E-14
 -1      3229 2.03601E+01 2.79550E-01 2.23404E-03-1.07614E+00-1.09220E-13-8.75167E-14
 -1      3230 2.02901E+01 3.10280E-01-3.17977E-04-1.00709E+00-1.09204E-13-7.99037E-14
 -1      3231 2.00519E+01 3.81429E-01-7.13221E-04-9.97280E-01-1.19354E-13-1.21825E-13
 -1      3232 2.04838E+01 1.56727E-01 2.05239E-03-1.21226E+00-1.10696E-13-1.09681E-13
 -1      3233 2.03908E+01 2.29660E-01 1.04420E-03-1.15736E+00-8.21386E-14-6.14828E-14
 -1      3234 2.00902E+01 3.09243E-01-1.93098E-03-1.16456E+00-1.33350E-13-2.74515E-13
 -1      3235 2.06801E+01-7.79146E-02 1.55567E-03-1.30777E+00-1.40975E-13-1.86804E-13
 -1      3236 2.05516E+01 5.69978E-02 3.47029E-03-1.28290E+00-1.40635E-13-1.48247E-13
 -1      3237 2.01769E+01 1.41605E-01-4.21694E-03-1.32397E+00-9.76617E-14-3.33278E-13
 -1      3238 2.09950E+01-4.64432E-01 3.24989E-04-1.32348E+00-4.80753E-14-1.59727E-13
 -1      3239 2.08137E+01-2.47037E-01 7.48515E-03-1.35200E+00-1.17168E-13-1.84884E-13
 -1      3240 2.03537E+01-1.65897E-01-8.12816E-03-1.45399E+00-1.28768E-13-2.06366E-13
 -1      3241 2.14882E+01-1.02997E+00-2.76022E-03-1.19959E+00 6.94366E-14-9.90543E-14
 -1      3242 2.12359E+01-7.18635E-01 1.35882E-02-1.31433E+00 2.23130E-14-8.51873E-14
 -1      3243 2.06848E+01-6.59807E-01-1.40701E-02-1.51742E+00-8.09674E-14-2.23064E-13
 -1      3244 2.22178E+01-1.74640E+00-8.86357E-03-8.45604E-01 8.69391E-14-1.02309E-13
 -1      3245 2.18895E+01-1.36549E+00 2.16837E-02-1.08967E+00 9.98509E-14-1.68073E-13
 -1      3246 2.12599E+01-1.36979E+00-2.25343E-02-1.44766E+00 8.72171E-14-2.33292E-13
 -1      3247 2.32107E+01-2.44404E+00-1.23288E-02-1.40482E-01 6.95641E-14-2.31243E-14
 -1      3248 2.28253E+01-2.10935E+00 2.95639E-02-5.59774E-01 1.03266E-13-7.57591E-14
 -1      3249 2.21814E+01-2.25114E+00-3.11831E-02-1.13007E+00 6.57946E-14-2.16193E-13
 -1      3250 2.43251E+01-2.77020E+00-2.87776E-02 9.45277E-01 1.92468E-14 3.25295E-14
 -1      3251 2.39649E+01-2.66482E+00 2.70216E-02 3.73501E-01-2.48907E-14-7.33168E-14
 -1      3252 2.35052E+01-2.95075E+00 4.57968E-04-3.55544E-01 1.64374E-14-1.76682E-14
 -1      3253 2.53437E+01-2.02175E+00-1.15864E-02 2.35291E+00 1.24279E-13 2.29308E-13
 -1      3254 2.51544E+01-2.53553E+00 2.57443E-02 1.74891E+00 9.82010E-14 1.91644E-13
 -1      3255 2.50180E+01-3.29119E+00-3.74583E-02 8.32773E-01-8.23976E-14 3.03976E-14
 -1      3256 2.62822E+01-5.89246E-01-3.40050E-02 3.06335E+00 3.31284E-13 6.69152E-14
 -1      3257 2.62630E+01-1.77033E+00-2.60906E-02 2.71525E+00 2.21486E-13 2.14270E-13
 -1      3258 2.59287E+01 3.62964E+00-1.11758E-01 2.96370E+00-1.67921E-14 7.04957E-14
 -1      3259 2.61435E+01 2.28842E+00-1.47248E-01 3.36733E+00 1.98452E-14 1.15758E-13
 -1      3260 2.54786E+01 4.83317E+00-1.25315E-01 8.70298E-01 1.52850E-13 3.47925E-14
 -1      3261 2.55412E+01 4.59728E+00-1.47224E-01 1.85819E+00 1.14922E-13 7.17807E-14
 -1      3262 2.57300E+01 2.87546E+00-1.12882E-01-1.20935E+00 8.41618E-14-8.57092E-14
 -1      3263 2.55677E+01 3.93951E+00-8.33246E-02-3.98217E-01 1.30534E-13-9.23311E-14
 -1      3264 2.50017E+01-1.41232E+00-4.76382E-02-5.67265E-01 1.26035E-13-3.33896E-13
 -1      3265 2.52740E+01-6.53396E-01-1.91036E-02-9.69054E-01 1.40190E-13-3.50927E-13
 -1      3266 2.45023E+01-1.94112E+00-1.87577E-02 5.16480E-01 3.88209E-15-8.25902E-15
 -1      3267 2.47398E+01-1.72021E+00-1.26665E-02 1.82270E-02 5.53967E-14-2.52152E-13
 -1      3268 2.60996E+01-1.99285E+00 1.25108E-02 7.47910E-02 9.58955E-15-1.39833E-13
 -1      3269 2.52270E+01-2.41365E+00 9.98450E-03 1.30307E+00 6.31318E-14-1.82080E-13
 -1      3270 9.62232E+00-3.21307E-01 8.71199E-02 8.14823E-01-1.12601E-14-3.71647E-14
 -1      3271 9.64446E+00-2.64555E-01 1.57882E-01-7.72469E-01 6.21508E-14 3.86080E-14
 -1      3272 2.09002E+01-5.31455E+00 6.21150E-02-4.56847E+00-1.31742E-13-4.00589E-13
 -1      3273 2.32996E+01-5.74619E+00-3.33746E-02-3.53327E+00-4.68098E-14-3.23411E-13
 -1      3274 1.78181E+01-4.40343E+00 4.46678E-02 5.25998E+00 7.11514E-14 2.22024E-13
 -1      3275 1.52727E+01-3.08825E+00 1.09119E-01 4.97336E+00 1.09746E-13 4.65183E-14
 -1      3276 1.79475E+01-1.28163E+00 1.17200E-01-6.85916E+00 5.56707E-14-2.90046E-14
 -1      3277 2.01241E+01 2.93581E-01-1.93019E-03 4.38139E-02 9.13491E-14-7.59954E-15
 -1      3278 2.01686E+01 3.94583E-01 4.15405E-03 1.34282E-01 8.96787E-14-6.44935E-15
 -1      3279 1.99784E+01-5.51541E-02 2.99981E-04-1.57100E-01 8.75669E-14 4.22161E-14
 -1      3280 1.99754E+01-5.28434E-02 1.31564E-04-1.65842E-01 4.30866E-14 8.43928E-14
 -1      3281 2.00315E+01-5.71580E-02-5.59435E-04-1.67042E-01 3.96876E-14 5.15642E-14
 -1      3282 2.00198E+01-6.38448E-02-4.15915E-04-1.51885E-01 7.37347E-14 4.49289E-14
 -1      3283 2.00726E+01 1.50106E-01-1.14129E-03-7.66094E-02 5.34799E-14 1.18389E-14
 -1      3284 2.01051E+01 2.15506E-01 3.65833E-03-2.32611E-02 5.71836E-14-7.08662E-16
 -1      3285 2.01895E+01 3.15343E-01-1.51783E-03 3.60357E-02 7.60365E-14-2.55258E-14
 -1      3286 1.51610E+01-2.56371E+00 2.19082E-01 7.47128E+00-6.71685E-15 6.52547E-13
 -1      3287 2.73726E+01-2.53466E+00-3.73193E-02-2.30252E+00 6.95277E-15 4.30281E-13
 -1      3288 2.02702E+01 7.13741E-01 4.57800E-03-3.45553E-01-2.82770E-14-1.31178E-13
 -1      3289 2.02266E+01 5.50851E-01-3.53357E-03-2.15014E-01-2.56357E-14-1.36294E-13
 -1      3290 2.02720E+01 5.79111E-01-3.16247E-04-1.89067E-01-9.26200E-15-8.77340E-14
 -1      3291 1.75841E+01-2.70890E+00-3.96010E-02 7.45887E+00 1.22249E-13 8.06161E-13
 -1      3292 2.85597E+01 5.88324E+00-1.37726E-01-1.95277E-01 2.37282E-13 2.17049E-13
 -1      3293 2.73257E+01 4.72801E+00-6.25742E-02-7.12414E-01 1.75138E-13 9.78176E-14
 -1      3294 2.62138E+01-4.35996E+00-4.55864E-02-7.30626E-02 8.42442E-14 3.40250E-13
 -1      3295 2.50362E+01-5.22503E+00 4.62511E-02 1.67499E+00 1.80918E-13 3.84149E-13
 -1      3296 1.22241E+01-1.92473E+00 2.59741E-02 4.23265E+00 1.01322E-13-3.01634E-13
 -1      3297 1.03054E+01-8.15607E-01 1.07743E-01 2.48939E+00 4.97623E-14-1.58859E-13
 -1      3298 2.51531E+01-5.52957E+00 5.41654E-02-2.25291E+00-6.97081E-14-2.35770E-13
 -1      3299 2.64890E+01-4.92755E+00-6.68333E-02-6.78819E-01-1.07549E-13-2.93963E-13
 -1      3300 2.40496E+01-5.15923E+00 3.61743E-02-2.40831E+00 5.29576E-14-2.60498E-13
 -1      3301 2.02910E+01 9.88919E-01-6.18789E-04 6.89803E-01 1.04591E-13 2.02705E-14
 -1      3302 2.02678E+01 1.30838E+00 3.50491E-03 7.71194E-01 1.24767E-13 2.17292E-14
 -1      3303 2.02742E+01 1.12803E+00 1.50203E-03 5.94495E-01 1.13308E-13 1.31262E-14
 -1      3304 2.02326E+01 7.76079E-01-3.65538E-03 4.84541E-01 1.02867E-13 2.88207E-14
 -1      3305 2.00441E+01 2.16057E+00-4.29431E-03 2.92554E-01 1.19369E-13-3.45125E-14
 -1      3306 2.00309E+01 2.19938E+00-3.31833E-03 1.70823E-01 9.52762E-14-3.99063E-14
 -1      3307 2.75654E+01-1.08771E+00-1.18827E-01-6.99068E-01 1.00291E-13-1.90133E-13
 -1      3308 2.76039E+01-2.41368E+00-1.73370E-02 3.33494E-01-5.54626E-14-1.45411E-13
 -1      3309 2.72560E+01 5.70128E+00-1.51877E-01 5.19321E-01 1.43455E-13 3.53877E-13
 -1      3310 2.68097E+01-3.52455E+00-1.52801E-02-1.39878E+00-3.23509E-14 2.76602E-13
 -1      3311 2.00237E+01 2.21815E+00-3.67338E-03 6.59288E-02 9.67467E-14-5.47459E-14
 -1      3312 2.00232E+01 2.21899E+00-3.68379E-03-5.81482E-02 8.56784E-14-7.21324E-14
 -1      3313 2.01378E+01 1.92225E+00 4.94736E-03 1.01463E-01 8.94503E-14-4.38339E-14
 -1      3314 2.02505E+01 1.46093E+00 5.85990E-03 5.85356E-01 1.44266E-13-5.05550E-15
 -1      3315 2.01582E+01 1.80121E+00-6.97519E-03 6.85439E-01 1.44313E-13-4.13005E-15
 -1      3316 2.01231E+01 1.93074E+00-2.45775E-03 5.89815E-01 1.44817E-13-1.50444E-14
 -1      3317 1.98574E+01-4.36554E+00 6.89092E-02 4.26515E+00 7.46521E-14 1.27367E-13
 -1      3318 2.50572E+01 1.49576E+00-4.49828E-02-1.27659E+00 1.41963E-13-3.03438E-13
 -1      3319 2.70152E+01 2.21909E+00-9.35324E-02-1.47852E+00 1.87725E-13-1.07914E-13
 -1      3320 2.72091E+01-3.01675E+00-4.09372E-02 1.06576E+00-6.01166E-14-2.08656E-13
 -1      3321 2.62411E+01-3.20676E+00 1.74822E-03 1.92301E+00 2.94170E-14-2.58615E-13
 -1      3322 2.01195E+01 1.93997E+00-2.51582E-03-5.83145E-01 3.07318E-14-1.23568E-13
 -1      3323 2.01567E+01 1.81082E+00-6.63710E-03-6.82763E-01 2.07636E-14-1.42420E-13
 -1      3324 2.02383E+01 1.48346E+00-5.28541E-03-8.77530E-01-2.02345E-15-1.26501E-13
 -1      3325 2.00343E+01 5.89348E-02-5.11964E-04-1.43601E-01 2.50207E-15 1.71754E-14
 -1      3326 2.00542E+01 1.00551E-01 2.50613E-03-1.15561E-01 3.82756E-14 1.78667E-14
 -1      3327 2.01425E+01 1.60011E-01-1.39089E-03-7.65915E-02 2.83466E-14 4.14379E-15
 -1      3328 2.00717E+01-2.22234E-03-9.59364E-04-1.68483E-01-8.91692E-15-1.25060E-14
 -1      3329 2.00081E+01 2.31600E-03-1.23528E-04-1.74071E-01-1.19855E-14 1.29826E-14
 -1      3330 2.00186E+01 2.78727E-02 1.58626E-03-1.62736E-01-1.09001E-14-7.61504E-15
 -1      3331 2.66673E+01-2.92705E+00-5.22794E-02 1.85108E+00 1.03188E-13 4.28884E-14
 -1      3332 2.65562E+01 6.85616E-01-6.27790E-02 3.54010E+00 2.33751E-13 2.82076E-13
 -1      3333 2.51178E+01 3.03897E-01-9.63386E-02-1.43833E+00 1.61444E-13-3.12530E-13
 -1      3334 1.95937E+01-4.76921E+00 6.47344E-02-4.90104E+00-3.89758E-14-3.60455E-13
 -1      3335 2.09915E+01-4.59783E+00-1.90061E-02-3.82825E+00 4.76702E-14-4.47045E-13
 -1      3336 1.79707E+01-3.80085E+00 5.51754E-02-4.82283E+00 5.88279E-14-2.15786E-13
 -1      3337 2.34005E+01-4.79003E+00 5.16915E-02 2.44423E+00 1.56198E-13 2.78401E-13
 -1      3338 1.49266E+01-2.07563E+00 1.06297E-01 4.10525E+00 1.59810E-13-1.61676E-14
 -1      3339 2.68702E+01-4.35771E+00-1.07177E-01-2.99032E+00 1.03251E-14 6.20875E-14
 -1      3340 1.06726E+01-4.67358E-01 7.73114E-02-1.63134E+00 1.46472E-13-3.24740E-15
 -1      3341 2.01766E+01 4.86623E-01-2.52534E-03 2.20944E-01 7.78325E-14 1.92468E-14
 -1      3342 2.02308E+01 6.34931E-01 3.63006E-03 3.60321E-01 8.55061E-14 2.01877E-14
 -1      3343 2.02606E+01 7.94709E-01 1.63083E-03 4.21235E-01 8.98139E-14 2.22837E-14
 -1      3344 2.02295E+01 5.24306E-01-8.40651E-04 2.00118E-01 9.11083E-14-8.29764E-15
 -1      3345 2.76928E+01 3.61277E-01-5.02059E-02-1.33753E+00 2.49196E-13-2.07979E-13
 -1      3346 2.02837E+01 9.48253E-01 9.94840E-04-4.24978E-01-1.78567E-14-1.32315E-13
 -1      3347 1.23578E+01-1.47606E+00 3.80313E-02-3.83754E+00 2.11317E-13-1.87669E-13
 -1      3348 1.29603E+01-2.43830E+00 1.43708E-01-4.82383E+00 1.18801E-13-3.21410E-13
 -1      3349 1.50063E+01-2.75374E+00 5.66676E-02-4.75560E+00 1.90709E-13-2.14245E-13
 -1      3350 2.00622E+01 2.11127E+00-2.91119E-03-3.83213E-01 6.02373E-14-9.72963E-14
 -1      3351 2.00864E+01 2.03332E+00-5.20901E-03-4.98363E-01 4.31288E-14-1.05275E-13
 -1      3352 2.01951E+01 1.70167E+00 4.05142E-03-4.51599E-01 2.84626E-14-1.11642E-13
 -1      3353 2.02325E+01 1.50345E+00-2.73470E-03-7.69616E-01-5.99152E-15-1.19239E-13
 -1      3354 2.64753E+01-3.55964E+00 8.29998E-03-2.21111E+00 7.25487E-14 2.37123E-13
 -1      3355 2.48146E+01-3.94044E+00 1.99227E-02 4.81034E+00-6.15827E-14-3.27682E-13
 -1      3356 2.55422E+01-3.71035E+00-2.11242E-02 3.62507E+00 5.37209E-14-3.91357E-13
 -1      3357 2.00899E+01 2.02462E+00-5.42439E-03 5.04631E-01 1.31460E-13-3.22723E-14
 -1      3358 2.00646E+01 2.10497E+00-3.06305E-03 3.91277E-01 1.26091E-13-5.33309E-14
 -1      3359 2.01604E+01 1.84738E+00 5.26179E-03 2.91094E-01 1.02243E-13-3.12340E-14
 -1      3360 2.02014E+01 1.69564E+00 5.77657E-03 4.59608E-01 1.22023E-13-1.18912E-14
 -1      3361 2.64184E+01-4.85755E-01-1.45545E-02-1.06737E+00 1.09985E-13-2.36148E-13
 -1      3362 2.33727E+01-4.31829E+00-4.88065E-02 6.28850E+00 6.29843E-14-1.73347E-13
 -1      3363 2.08959E+01-3.15919E+00 1.75892E-01 6.96410E+00 8.46059E-14 9.15622E-14
 -1      3364 2.69232E+01-4.37362E+00-1.94490E-02 2.54046E-01-8.33673E-14-2.34882E-13
 -1      3365 2.69356E+01-3.46638E+00 3.50495E-03 1.32515E+00 6.13416E-14-1.35614E-13
 -1      3366 2.60478E+01-3.46601E+00 5.99823E-02 1.07428E+00-8.12284E-14-9.04277E-14
 -1      3367 2.56340E+01-4.47766E+00 7.72752E-03-4.35184E-01-1.21151E-13-3.49622E-13
 -1      3368 1.15275E+01-2.64216E-01 1.14163E-01 1.56490E+00 9.42649E-15-1.11341E-13
 -1      3369 2.02994E+01 4.38515E-01 2.48845E-03-7.23659E-02 1.00530E-14-6.40658E-14
 -1      3370 2.02746E+01 3.25966E-01-2.14899E-03-5.59017E-03-9.33417E-16-4.61289E-14
 -1      3371 2.02044E+01 1.59565E+00-2.53174E-03-7.10379E-01 1.08041E-14-1.26029E-13
 -1      3372 2.48115E+01 4.21917E+00-1.86372E-01 3.18185E-01 6.63775E-14-8.98465E-14
 -1      3373 2.31823E+01-4.51087E+00 1.14271E-01-2.56401E+00 6.75085E-14-2.92447E-13
 -1      3374 2.43293E+01-4.75843E+00-5.15527E-02-1.57945E+00-6.76022E-15-2.68988E-13
 -1      3375 2.03121E+01 7.34749E-01 1.51318E-03-2.42187E-01-6.35966E-15-1.03831E-13
 -1      3376 2.02952E+01 5.72503E-01-2.85215E-03-1.41363E-01 1.48909E-14-8.92278E-14
 -1      3377 2.03308E+01 5.76758E-01 4.35438E-04-1.15107E-01 2.25177E-14-6.77250E-14
 -1      3378 2.02664E+01 2.36230E-01 2.15472E-03 3.94572E-02 1.22693E-14-4.05233E-14
 -1      3379 2.02418E+01 1.60687E-01-1.29627E-03 8.00824E-02 1.90582E-14-2.34163E-14
 -1      3380 2.03147E+01 3.27570E-01-9.08705E-05 2.15902E-03 2.86948E-14-1.51139E-14
 -1      3381 2.02269E+01 1.01684E-01 1.61792E-03 1.06000E-01 1.45856E-14-2.21979E-14
 -1      3382 2.02054E+01 5.28016E-02-6.61579E-04 1.27640E-01 6.27838E-14-1.61302E-14
 -1      3383 2.02832E+01 1.57934E-01-4.40483E-04 7.63174E-02 3.49271E-14 1.59490E-14
 -1      3384 2.01879E+01 1.55412E-02 1.13352E-03 1.39764E-01 5.85202E-14-2.51112E-14
 -1      3385 2.01701E+01-1.44590E-02-2.26173E-04 1.48361E-01 6.14613E-14-4.67657E-14
 -1      3386 2.02454E+01 4.69491E-02-5.91710E-04 1.17416E-01 4.24677E-14 1.03816E-14
 -1      3387 2.01524E+01-3.64447E-02 7.38334E-04 1.51162E-01 8.56041E-14-7.50154E-14
 -1      3388 2.01382E+01-5.32059E-02 5.69080E-05 1.51347E-01 7.89899E-14-6.43962E-14
 -1      3389 2.02070E+01-2.20147E-02-6.29188E-04 1.35047E-01 6.00336E-14-4.18367E-14
 -1      3390 2.01216E+01-6.45691E-02 4.36864E-04 1.48333E-01 3.74876E-14-7.68370E-14
 -1      3391 2.01107E+01-7.21678E-02 2.30205E-04 1.43550E-01-2.09964E-14-5.50438E-14
 -1      3392 2.01710E+01-6.12523E-02-6.02878E-04 1.37140E-01 6.03158E-14-8.74935E-14
 -1      3393 2.00958E+01-7.62363E-02 2.15928E-04 1.37342E-01-7.40332E-14-1.93999E-14
 -1      3394 2.00877E+01-7.75813E-02 3.27873E-04 1.30082E-01-6.03599E-14 1.91374E-14
 -1      3395 2.01389E+01-7.97727E-02-5.45615E-04 1.29836E-01-2.35860E-14-1.19429E-14
 -1      3396 2.00748E+01-7.66982E-02 5.74448E-05 1.22570E-01-9.12747E-14-3.48822E-14
 -1      3397 2.00689E+01-7.38086E-02 3.77238E-04 1.14596E-01-7.40113E-14-6.67230E-14
 -1      3398 2.01114E+01-8.40570E-02-4.74107E-04 1.17685E-01-9.62108E-14-3.83088E-14
 -1      3399 2.00580E+01-6.95613E-02-5.66948E-05 1.07118E-01-5.47538E-14-8.67959E-14
 -1      3400 2.00539E+01-6.37689E-02 3.99280E-04 9.96752E-02-6.49642E-14-1.08550E-13
 -1      3401 2.00883E+01-7.86346E-02-3.96570E-04 1.03956E-01-1.07871E-13-1.03740E-13
 -1      3402 2.00447E+01-5.71688E-02-1.42229E-04 9.31830E-02-1.04309E-13-7.66753E-14
 -1      3403 2.00421E+01-4.92821E-02 4.08000E-04 8.71680E-02-1.34825E-13-2.28764E-14
 -1      3404 2.00691E+01-6.65207E-02-3.19370E-04 9.09831E-02-4.98034E-14-2.91135E-14
 -1      3405 2.00343E+01-4.09015E-02-2.12644E-04 8.23637E-02-9.83765E-14 2.94903E-14
 -1      3406 2.00327E+01-3.13267E-02 4.13718E-04 7.84550E-02-5.74815E-14 1.10898E-13
 -1      3407 2.00534E+01-4.95599E-02-2.43117E-04 8.04643E-02-8.99810E-14 4.23749E-14
 -1      3408 2.00258E+01-2.13975E-02-2.79581E-04 7.58924E-02-9.42215E-14 8.65452E-14
 -1      3409 2.00250E+01-1.02282E-02 4.23837E-04 7.46564E-02-1.21784E-13 1.24380E-13
 -1      3410 2.00400E+01-2.87037E-02-1.67052E-04 7.36845E-02-5.63125E-14 4.32355E-14
 -1      3411 2.00185E+01 1.28039E-03-3.52715E-04 7.48277E-02-1.06930E-13 1.48562E-13
 -1      3412 2.00182E+01 1.41893E-02 4.43438E-04 7.67994E-02-4.17937E-14 1.00490E-13
 -1      3413 2.00282E+01-4.20818E-03-8.89485E-05 7.17091E-02-9.26840E-14 9.97814E-14
 -1      3414 2.00115E+01 2.75059E-02-4.40192E-04 8.02000E-02 4.09986E-14 9.51582E-14
 -1      3415 2.00114E+01 4.24760E-02 4.75569E-04 8.59410E-02 1.08811E-13 8.06975E-14
 -1      3416 2.00168E+01 2.42017E-02-5.01633E-06 7.55332E-02-1.54908E-15 1.86673E-13
 -1      3417 2.00038E+01 5.79693E-02-5.49083E-04 9.31154E-02 8.61758E-14 4.98427E-14
 -1      3418 2.00035E+01 7.54396E-02 5.21527E-04 1.03254E-01 4.47518E-14-6.22547E-14
 -1      3419 2.00046E+01 5.71896E-02 8.97018E-05 8.61890E-02 7.61920E-14 1.16081E-13
 -1      3420 1.99942E+01 9.35616E-02-6.85496E-04 1.14824E-01 1.31761E-13-7.46282E-14
 -1      3421 1.99935E+01 1.14027E-01 5.80990E-04 1.30075E-01 1.53526E-13 4.93084E-14
 -1      3422 1.99900E+01 9.56758E-02 2.01136E-04 1.04818E-01 1.03201E-13-5.20842E-14
 -1      3423 1.99814E+01 1.35246E-01-8.54488E-04 1.46753E-01 6.54342E-14 2.69710E-14
 -1      3424 1.99798E+01 1.59179E-01 6.52121E-04 1.67919E-01 8.46104E-14-6.82658E-14
 -1      3425 1.99714E+01 1.40695E-01 3.35996E-04 1.32710E-01 8.79279E-14-3.43542E-14
 -1      3426 1.99638E+01 1.83895E-01-1.05974E-03 1.90505E-01 1.51068E-13-6.05232E-14
 -1      3427 1.99607E+01 2.11643E-01 7.31844E-04 2.18458E-01 1.30440E-13-5.84077E-15
 -1      3428 1.99467E+01 1.93229E-01 5.01425E-04 1.71309E-01 1.31702E-13-3.60616E-14
 -1      3429 1.99396E+01 2.40066E-01-1.30300E-03 2.47818E-01 2.85935E-14-1.87732E-14
 -1      3430 1.99343E+01 2.71707E-01 8.16693E-04 2.83451E-01-4.33477E-14-4.76932E-14
 -1      3431 1.99135E+01 2.53974E-01 7.04301E-04 2.22189E-01 4.88927E-14-1.04634E-14
 -1      3432 1.99065E+01 3.03681E-01-1.58330E-03 3.20484E-01-1.10824E-13-9.53908E-14
 -1      3433 1.98982E+01 3.38809E-01 9.04845E-04 3.64645E-01-1.19893E-13-1.36168E-13
 -1      3434 1.98691E+01 3.23034E-01 9.49887E-04 2.86995E-01-1.08040E-13-1.06086E-13
 -1      3435 1.98621E+01 3.73557E-01-1.89588E-03 4.10245E-01-1.38199E-13-2.11516E-13
 -1      3436 1.98501E+01 4.10975E-01 1.00043E-03 4.63643E-01-1.05971E-13-2.25181E-13
 -1      3437 1.98104E+01 3.99465E-01 1.23936E-03 3.67375E-01-2.01021E-13-2.79182E-13
 -1      3438 1.98039E+01 4.46729E-01-2.23074E-03 5.18668E-01 1.26607E-14-1.58298E-13
 -1      3439 1.97875E+01 4.84005E-01 1.12160E-03 5.81780E-01 2.36116E-14-2.19247E-13
 -1      3440 1.97341E+01 4.80649E-01 1.56546E-03 4.64924E-01-2.09579E-14-2.10623E-13
 -1      3441 1.97297E+01 5.17466E-01-2.57051E-03 6.47071E-01 9.77320E-14-2.12904E-13
 -1      3442 1.97089E+01 5.50306E-01 1.31431E-03 7.20056E-01 1.53462E-13-1.04397E-13
 -1      3443 1.96367E+01 5.61398E-01 1.90490E-03 5.81199E-01 1.20379E-13-1.75027E-13
 -1      3444 1.96388E+01 5.75887E-01-2.88606E-03 7.96567E-01 1.04615E-13-2.49201E-14
 -1      3445 1.96150E+01 5.97262E-01 1.67296E-03 8.79240E-01 5.93616E-14 5.65793E-14
 -1      3446 1.95158E+01 6.32713E-01 2.20544E-03 7.17927E-01 1.09425E-13-9.51520E-14
 -1      3447 1.95329E+01 6.06054E-01-3.12701E-03 9.68335E-01-4.86392E-14 6.12074E-14
 -1      3448 1.95102E+01 6.05044E-01 2.36819E-03 1.06025E+00-9.07762E-15-2.79314E-14
 -1      3449 1.93705E+01 6.80094E-01 2.36314E-03 8.77558E-01 4.22559E-14-2.48862E-15
 -1      3450 1.94194E+01 5.83480E-01-3.19751E-03 1.16426E+00-4.66119E-14-4.48918E-14
 -1      3451 1.94073E+01 5.43804E-01 3.68196E-03 1.26484E+00-7.55476E-14-3.23376E-14
 -1      3452 1.92036E+01 6.81281E-01 2.18420E-03 1.06435E+00-3.05613E-14-4.80460E-14
 -1      3453 1.93161E+01 4.72076E-01-2.87581E-03 1.38794E+00-1.05316E-13-1.48475E-13
 -1      3454 1.93329E+01 3.70256E-01 6.01276E-03 1.49649E+00-1.75764E-13-1.92153E-13
 -1      3455 1.90254E+01 6.03343E-01 1.32121E-03 1.28617E+00-1.71321E-13-1.25938E-13
 -1      3456 1.92593E+01 2.20529E-01-1.58598E-03 1.64529E+00-7.67548E-14-1.58198E-13
 -1      3457 1.93380E+01 2.40377E-02 9.91199E-03 1.75965E+00 1.02021E-14-1.04555E-13
 -1      3458 1.88590E+01 3.98466E-01-8.83985E-04 1.55694E+00-1.01657E-13-2.71578E-13
 -1      3459 1.93188E+01-2.40228E-01 2.27702E-03 1.94208E+00 4.01487E-14-2.14736E-13
 -1      3460 1.95125E+01-5.75615E-01 1.45129E-02 2.05431E+00-3.20499E-14-2.11603E-13
 -1      3461 1.87520E+01-1.80018E-03-5.65571E-03 1.89765E+00-3.57325E-14-3.23534E-13
 -1      3462 1.96203E+01-9.89362E-01 1.25551E-02 2.26690E+00-3.72332E-14-1.03331E-13
 -1      3463 2.00125E+01-1.50302E+00 2.44070E-02 2.35417E+00-1.73906E-15-3.92283E-14
 -1      3464 1.87962E+01-6.92762E-01-1.59445E-02 2.32918E+00 5.26972E-14-3.37895E-13
 -1      3465 2.03735E+01-2.13893E+00 2.71209E-02 2.55828E+00-1.23507E-13 5.77273E-14
 -1      3466 2.10718E+01-2.79743E+00 3.99349E-02 2.51029E+00-1.33333E-13 9.99504E-15
 -1      3467 1.91760E+01-1.80080E+00-3.99961E-02 2.85249E+00 3.43042E-15-1.10614E-13
 -1      3468 2.15415E+01-3.44243E+00 4.60997E-02 2.71011E+00-7.11109E-14 1.71849E-13
 -1      3469 2.26086E+01-4.17811E+00 3.02951E-02 2.41712E+00 6.88945E-14 2.39144E-13
 -1      3470 2.11295E+01-4.59705E+00-1.55436E-02 3.75886E+00 1.60233E-13 2.12920E-13
 -1      3471 1.99333E+01-3.08534E+00-6.41349E-03 3.38993E+00-1.05645E-15 1.54298E-13
 -1      3472 2.56925E+01-3.22919E+00 6.98632E-03 2.49091E+00 1.53182E-13-2.81266E-13
 -1      3473 2.00268E+01-4.76961E-02 4.07796E-04-9.28881E-02 2.14656E-14 3.31411E-14
 -1      3474 2.00272E+01-5.45452E-02-1.71028E-04-9.97372E-02 3.99789E-14 8.71820E-14
 -1      3475 2.02526E+01 1.39170E+00 2.86364E-03-5.53122E-01-4.62380E-15-1.27894E-13
 -1      3476 2.00344E+01-6.01830E-02 3.97079E-04-1.07089E-01 4.32161E-14 2.28472E-14
 -1      3477 2.00360E+01-6.51137E-02-8.71102E-05-1.15339E-01 2.94472E-14-2.06588E-14
 -1      3478 2.00534E+01-6.41273E-02-2.98006E-04-9.98427E-02-2.20357E-14-2.73547E-14
 -1      3479 2.00449E+01-6.85792E-02 3.75697E-04-1.23628E-01 5.21358E-14-3.01739E-14
 -1      3480 2.00480E+01-7.08026E-02 3.26245E-05-1.32336E-01 3.84365E-14-9.55240E-15
 -1      3481 2.00687E+01-7.44628E-02-3.71516E-04-1.14603E-01 4.65548E-14-3.38671E-14
 -1      3482 2.00214E+01-3.21113E-02 4.17696E-04-8.24840E-02-4.35304E-14 1.12256E-13
 -1      3483 2.00208E+01-4.04588E-02-2.34237E-04-8.72352E-02-3.27584E-14 1.03485E-13
 -1      3484 2.00414E+01-4.92728E-02-2.29277E-04-8.75222E-02-1.70299E-14 3.38112E-14
 -1      3485 2.00176E+01-1.38028E-02 4.34651E-04-7.70334E-02 2.08718E-14 2.26563E-13
 -1      3486 2.00164E+01-2.35248E-02-2.90418E-04-7.91145E-02 1.58377E-14 2.07940E-13
 -1      3487 2.00317E+01-3.08973E-02-1.66805E-04-7.90246E-02-6.29754E-14 1.40251E-13
 -1      3488 2.00150E+01 7.31290E-03 4.63916E-04-7.75804E-02-1.77041E-14 2.27566E-13
 -1      3489 2.00131E+01-3.87744E-03-3.49382E-04-7.64607E-02 1.06113E-14 2.39824E-13
 -1      3490 2.00236E+01-9.32315E-03-1.06991E-04-7.54839E-02 5.64229E-15 2.49428E-13
 -1      3491 2.00129E+01 3.16574E-02 5.09146E-04-8.51848E-02-8.26764E-14 8.28648E-14
 -1      3492 2.00105E+01 1.87455E-02-4.19693E-04-8.03125E-02-2.31788E-14 1.50800E-13
 -1      3493 2.00163E+01 1.56156E-02-4.62662E-05-7.79417E-02 1.54709E-14 1.96371E-13
 -1      3494 2.00107E+01 5.98810E-02 5.72514E-04-1.01016E-01-4.80807E-14 1.32046E-13
 -1      3495 2.00080E+01 4.48906E-02-5.08334E-04-9.17755E-02-9.26026E-14 8.27293E-14
 -1      3496 2.00089E+01 4.44424E-02 1.94862E-05-8.74668E-02-5.64260E-14 1.52625E-13
 -1      3497 2.00078E+01 9.27470E-02 6.54740E-04-1.26410E-01-4.28726E-14 1.42540E-13
 -1      3498 2.00047E+01 7.52779E-02-6.20863E-04-1.12099E-01 8.08253E-15 1.23752E-13
 -1      3499 2.00003E+01 7.79111E-02 9.48844E-05-1.05240E-01-5.71105E-14 4.39757E-14
 -1      3500 2.00033E+01 1.30991E-01 7.55098E-04-1.62885E-01-1.89677E-14 2.25783E-14
 -1      3501 2.00001E+01 1.10676E-01-7.61288E-04-1.42713E-01-4.50102E-14 6.12979E-14
 -1      3502 1.99892E+01 1.16867E-01 1.84771E-04-1.32600E-01 7.39349E-15 1.36284E-14
 -1      3503 1.99964E+01 1.75138E-01 8.71505E-04-2.12119E-01-5.97583E-14 3.56044E-14
 -1      3504 1.99931E+01 1.51742E-01-9.31564E-04-1.85232E-01-8.18031E-14 3.02766E-14
 -1      3505 1.99744E+01 1.62078E-01 2.93701E-04-1.71061E-01 4.33488E-15-4.65816E-14
 -1      3506 1.99860E+01 2.25235E-01 1.00095E-03-2.75870E-01-2.83283E-14-1.10671E-14
 -1      3507 1.99828E+01 1.98802E-01-1.13065E-03-2.41400E-01-2.82460E-14 1.10832E-14
 -1      3508 1.99543E+01 2.14008E-01 4.24979E-04-2.22282E-01-4.11738E-14-6.76793E-14
 -1      3509 1.99710E+01 2.80479E-01 1.14075E-03-3.55848E-01-4.47337E-14-1.35557E-14
 -1      3510 1.99682E+01 2.51539E-01-1.35295E-03-3.13004E-01-1.99969E-14 6.39978E-15
 -1      3511 1.99272E+01 2.72498E-01 5.78880E-04-2.88003E-01-5.58113E-14-8.92731E-14
 -1      3512 1.99506E+01 3.38664E-01 1.29128E-03-4.53518E-01-1.08063E-14-5.57700E-14
 -1      3513 1.99480E+01 3.08534E-01-1.58599E-03-4.01713E-01-3.53331E-14 7.35360E-14
 -1      3514 1.98912E+01 3.36320E-01 7.49493E-04-3.69944E-01-7.08560E-14-1.09324E-13
 -1      3515 1.99242E+01 3.95405E-01 1.46125E-03-5.69853E-01-5.14177E-14 1.30639E-13
 -1      3516 1.99218E+01 3.66615E-01-1.80691E-03-5.08875E-01-4.60771E-14 4.23918E-14
 -1      3517 1.98447E+01 4.02540E-01 9.19284E-04-4.69677E-01-1.21032E-13-3.10264E-14
 -1      3518 1.98926E+01 4.43045E-01 1.67639E-03-7.05034E-01-3.92584E-14 1.69976E-13
 -1      3519 1.98894E+01 4.19926E-01-1.97684E-03-6.35262E-01 9.17579E-15 2.31971E-13
 -1      3520 1.97866E+01 4.65622E-01 1.04999E-03-5.88506E-01-3.53888E-14 2.08529E-13
 -1      3521 1.98592E+01 4.69158E-01 1.99069E-03-8.58140E-01 5.82450E-15 3.74849E-14
 -1      3522 1.98527E+01 4.58649E-01-2.03153E-03-7.80798E-01 1.08270E-14 1.26521E-13
 -1      3523 1.97172E+01 5.16206E-01 1.06737E-03-7.27395E-01 2.21182E-15 8.24144E-14
 -1      3524 1.98320E+01 4.54645E-01 2.49333E-03-1.02679E+00-4.94803E-16-2.15440E-13
 -1      3525 1.98173E+01 4.67303E-01-1.86456E-03-9.44270E-01 1.34222E-14-5.76746E-14
 -1      3526 1.96396E+01 5.39459E-01 8.35518E-04-8.87020E-01 7.57941E-14-9.14096E-14
 -1      3527 1.98270E+01 3.71536E-01 3.31185E-03-1.20661E+00-1.28257E-13-2.69094E-13
 -1      3528 1.97946E+01 4.22656E-01-1.29938E-03-1.12295E+00-6.42466E-14-1.97341E-13
 -1      3529 1.95622E+01 5.12963E-01 1.14571E-04-1.06794E+00 4.60859E-14-1.51989E-13
 -1      3530 1.98737E+01 1.81138E-01 4.58612E-03-1.39011E+00-7.19029E-14-2.66357E-13
 -1      3531 1.98071E+01 2.91636E-01-1.82855E-05-1.31187E+00-1.42088E-13-2.87485E-13
 -1      3532 1.95024E+01 4.04302E-01-1.47973E-03-1.27067E+00-6.28373E-14-2.44908E-13
 -1      3533 2.00217E+01-1.66423E-01 6.25448E-03-1.56392E+00-1.42107E-13-1.91996E-13
 -1      3534 1.98946E+01 3.01008E-02 2.52704E-03-1.50203E+00-5.17975E-14-1.95151E-13
 -1      3535 1.94925E+01 1.69004E-01-4.52629E-03-1.49521E+00-8.59341E-14-1.52670E-13
 -1      3536 2.03500E+01-7.26563E-01 8.26128E-03-1.70025E+00-4.19867E-14-2.27498E-13
 -1      3537 2.01240E+01-4.15653E-01 7.49240E-03-1.67470E+00-1.34575E-13-2.86470E-13
 -1      3538 1.95900E+01-2.51715E-01-9.96060E-03-1.73801E+00-1.33532E-13-1.92692E-13
 -1      3539 2.09642E+01-1.54741E+00 5.98618E-03-1.74497E+00 7.66769E-14-2.28681E-13
 -1      3540 2.05966E+01-1.09592E+00 1.67815E-02-1.79003E+00 9.53206E-14-2.09222E-13
 -1      3541 1.98885E+01-9.20885E-01-1.80542E-02-1.97882E+00-1.80163E-14-3.05736E-13
 -1      3542 2.19752E+01-2.59213E+00-2.21527E-03-1.58331E+00 4.99991E-14-1.16846E-13
 -1      3543 2.14631E+01-2.01653E+00 3.77686E-02-1.74718E+00 2.77898E-14-1.78596E-13
 -1      3544 2.05314E+01-1.92118E+00-3.85440E-02-2.15952E+00 1.92880E-15-1.63133E-13
 -1      3545 2.40257E+01-3.76450E+00 2.32029E-02-7.45191E-01-9.68206E-14-1.40556E-15
 -1      3546 2.32017E+01-3.40939E+00 2.22728E-02-1.25798E+00 6.82831E-16-8.44377E-16
 -1      3547 2.48713E+01-3.83371E+00-7.49906E-03-5.90207E-02-9.28736E-14-3.28435E-14
 -1      3548 2.02345E+01 3.20662E-01-1.95328E-03 1.57641E-02 6.52619E-14-2.36792E-14
 -1      3549 2.02633E+01 4.30201E-01 2.56186E-03 8.97733E-02 8.01419E-14-2.06484E-14
 -1      3550 2.00300E+01 2.20187E+00-3.21826E-03-1.62798E-01 7.82238E-14-9.63974E-14
 -1      3551 2.00420E+01 2.16504E+00-4.23604E-03-2.84760E-01 6.78288E-14-1.02331E-13
 -1      3552 2.01565E+01 1.85149E+00 4.49190E-03-2.83448E-01 6.20222E-14-9.30510E-14
 -1      3553 2.00995E+01-4.61548E-02 5.91105E-05-1.62957E-01 5.68801E-15 3.00819E-14
 -1      3554 2.01110E+01-2.97651E-02 8.04303E-04-1.62605E-01 9.36404E-15-4.21121E-16
 -1      3555 1.66608E+01-2.33128E+00-1.68430E-02 4.09222E+00 2.20279E-13 1.60864E-13
 -1      3556 1.42761E+01-1.02511E+00 5.59816E-02 3.34880E+00 2.96504E-13-8.06716E-14
 -1      3557 1.18133E+01-2.59204E-02 2.20938E-02-1.22292E+00 7.88675E-14-4.24244E-14
 -1      3558 1.20148E+01-5.05659E-01 1.40127E-01-2.73644E+00 2.25937E-13-6.33521E-15
 -1      3559 2.02887E+01 1.13623E+00-9.96002E-04-4.56541E-01-1.43270E-14-1.20315E-13
 -1      3560 2.02929E+01 9.12742E-01-2.60856E-03-3.20771E-01-1.72698E-14-1.10552E-13
 -1      3561 2.03197E+01 9.15743E-01 1.79032E-03-2.67414E-01-6.44365E-15-9.66143E-14
 -1      3562 2.02608E+01 1.35136E+00 2.22322E-03-4.39774E-01-1.41690E-15-1.18185E-13
 -1      3563 1.26995E+01-3.05982E-01 1.59863E-02 2.34000E+00 1.86478E-13-6.66550E-14
 -1      3564 1.20640E+01 1.64994E-01 1.63483E-02 7.63976E-01 8.85932E-14 3.30014E-14
 -1      3565 2.02761E+01 1.14483E+00-4.08294E-03 4.91325E-01 1.28777E-13-1.23031E-14
 -1      3566 2.02653E+01 1.28769E+00 2.92167E-04 4.54488E-01 1.33904E-13-1.21853E-14
 -1      3567 2.01970E+01 1.60130E-01-1.30666E-03-8.11258E-02 3.06930E-14-1.76374E-14
 -1      3568 2.02239E+01 2.33165E-01 2.57088E-03-3.62369E-02 4.38190E-14-1.14436E-14
 -1      3569 2.02809E+01 3.27817E-01-5.39528E-04 7.01826E-03 5.37225E-14-1.40421E-14
 -1      3570 1.90369E+01-3.54106E+00 4.56854E-02 4.08519E+00 9.28667E-14 2.87909E-13
 -1      3571 1.47225E+01-4.15320E-01 6.44508E-02 2.53129E+00 2.84036E-13 1.00208E-13
 -1      3572 2.18040E+01-4.14272E+00 2.66134E-02-3.00398E+00 3.12389E-14-3.34221E-13
 -1      3573 2.01028E+01 5.99506E-02-1.19300E-03-1.39726E-01 1.59055E-14-4.86969E-15
 -1      3574 2.01273E+01-8.51550E-03-2.18895E-04-1.58866E-01-1.91284E-15-1.93490E-15
 -1      3575 2.01434E+01 2.04990E-02 1.27815E-03-1.49319E-01 1.86323E-15 2.30159E-14
 -1      3576 2.01718E+01-1.52421E-02-7.09455E-04-1.47624E-01-1.21178E-14-1.46138E-14
 -1      3577 2.21026E+01-3.34440E+00-3.89097E-02-2.01685E+00-9.72980E-14-6.78051E-14
 -1      3578 2.01365E+01 1.92359E+00 4.72418E-03-9.47404E-02 8.01303E-14-8.11838E-14
 -1      3579 2.02457E+01 1.42892E+00-3.21297E-03-3.87551E-01 3.00598E-14-1.06722E-13
 -1      3580 2.02949E+01 1.19647E+00 1.29079E-03-3.03523E-01 2.21788E-14-8.02338E-14
 -1      3581 2.02304E+01 1.52390E+00-1.91242E-04-3.19010E-01 4.63799E-14-8.34066E-14
 -1      3582 1.68900E+01-2.98478E+00 7.28524E-02-4.61751E+00 5.04666E-14-7.75977E-14
 -1      3583 1.85591E+01-3.06849E+00 2.72486E-02-3.99168E+00 5.17746E-14-2.67241E-13
 -1      3584 1.57181E+01-2.01506E+00 8.22708E-03-4.05675E+00 1.35879E-13-2.83523E-14
 -1      3585 2.02796E+01 8.79989E-01-1.32367E-03 4.44892E-01 9.26994E-14-9.71221E-15
 -1      3586 2.02806E+01 1.06024E+00 2.16397E-03 4.82805E-01 1.09921E-13-8.89187E-15
 -1      3587 2.02992E+01 9.16520E-01 3.12469E-03 3.53365E-01 1.12027E-13-5.34618E-14
 -1      3588 2.02648E+01 7.27290E-01-1.59127E-03 3.15903E-01 8.35162E-14-1.35769E-14
 -1      3589 2.00768E+01-6.50514E-02 2.29900E-04-1.54964E-01 2.23033E-14 4.13772E-14
 -1      3590 2.00848E+01-5.73641E-02 4.54981E-04-1.60061E-01 8.31703E-15 2.53401E-14
 -1      3591 2.01391E+01-5.42072E-02-6.38618E-04-1.50853E-01 5.29265E-15-6.39851E-15
 -1      3592 1.24417E+01 4.02185E-01 8.56746E-02-1.96044E-01 4.73675E-14-1.04361E-13
 -1      3593 1.31465E+01 2.12213E-01-5.27064E-03-1.24422E+00 8.92871E-14-2.84044E-14
 -1      3594 1.34262E+01 4.33018E-01 2.49522E-02 5.06497E-01 1.76035E-13 5.28848E-14
 -1      3595 2.02548E+01 5.07974E-01-1.43289E-03 1.45236E-01 8.36439E-14-3.33111E-14
 -1      3596 2.02724E+01 6.24717E-01 9.98374E-04 2.38673E-01 8.68050E-14-2.96892E-14
 -1      3597 2.02876E+01 7.06052E-01-2.24731E-03 2.59284E-01 9.04058E-14-6.75390E-14
 -1      3598 2.02939E+01 5.18500E-01-6.77039E-04 1.19705E-01 6.94706E-14-3.54317E-14
 -1      3599 1.34385E+01-8.98509E-01 4.97540E-02-3.12624E+00 1.40441E-13-1.41012E-13
 -1      3600 2.02020E+01 1.63931E+00-3.32042E-03 1.30541E-01 7.87671E-14-3.23927E-14
 -1      3601 2.01979E+01 1.65910E+00-2.68991E-03 3.99509E-02 7.69061E-14-5.20306E-14
 -1      3602 2.00588E+01-7.11332E-02 3.27901E-04-1.40518E-01 6.97578E-14 3.54967E-14
 -1      3603 2.00640E+01-6.93729E-02 2.05905E-04-1.48365E-01 8.28176E-14 4.35361E-14
 -1      3604 2.01111E+01-7.31678E-02-5.38978E-04-1.43236E-01 6.58114E-14 7.09747E-15
 -1      3605 2.00877E+01-7.84482E-02-4.48944E-04-1.29929E-01 8.01146E-14-3.06600E-14
 -1      3606 2.02212E+01 1.54713E+00-4.29504E-03 2.85008E-01 8.64755E-14-3.00853E-15
 -1      3607 2.02106E+01 1.60639E+00-2.05644E-03 2.01555E-01 6.78555E-14-1.79290E-14
 -1      3608 2.02852E+01 1.38568E+00 5.05733E-03 1.34068E-01 6.05444E-14-2.56909E-14
 -1      3609 2.00552E+01-4.85411E-02 3.98117E-04-7.84097E-02-8.76087E-14 8.74653E-14
 -1      3610 2.00603E+01-5.77815E-02-1.12751E-04-8.32807E-02-4.45622E-14 1.84336E-14
 -1      3611 2.03540E+01 7.04452E-01 6.28470E-04-1.46285E-01 2.86918E-14-2.22297E-14
 -1      3612 2.03496E+01 5.47420E-01-2.31741E-03-7.53149E-02 4.13986E-14 6.18058E-15
 -1      3613 2.03569E+01 4.16049E-01 1.52763E-03-2.93743E-02 3.55825E-14 1.90841E-14
 -1      3614 2.03407E+01 3.05080E-01-1.73785E-03 1.85051E-02 4.58272E-14 2.42720E-14
 -1      3615 2.03771E+01 5.33438E-01 9.48782E-04-5.42560E-02 4.61660E-14 5.09443E-14
 -1      3616 2.03337E+01 2.15523E-01 1.33722E-03 4.74579E-02 4.80809E-14-8.12543E-15
 -1      3617 2.03130E+01 1.40641E-01-1.04892E-03 7.65896E-02 2.73078E-14-1.93851E-15
 -1      3618 2.03683E+01 2.93721E-01 3.01334E-04 2.15071E-02 2.61612E-14 3.28716E-14
 -1      3619 2.02978E+01 8.15097E-02 1.07549E-03 9.26724E-02 3.18275E-14 2.04500E-14
 -1      3620 2.02763E+01 3.31297E-02-5.19855E-04 1.07899E-01 4.24571E-14 7.55504E-15
 -1      3621 2.03396E+01 1.30177E-01-1.21569E-04 6.85906E-02 3.86863E-14 6.67969E-15
 -1      3622 2.02572E+01-3.89998E-03 8.00253E-04 1.14639E-01 5.55282E-14 1.17960E-14
 -1      3623 2.02369E+01-3.31152E-02-1.45354E-04 1.20249E-01 6.95881E-14-2.37059E-15
 -1      3624 2.03009E+01 2.33827E-02-3.78043E-04 9.36987E-02 4.48999E-14 3.23238E-14
 -1      3625 2.02166E+01-5.43752E-02 5.60974E-04 1.20749E-01 7.80267E-14-1.80799E-14
 -1      3626 2.01986E+01-6.99968E-02 1.01952E-04 1.20171E-01 4.64707E-14-1.04734E-14
 -1      3627 2.02588E+01-4.18940E-02-5.03851E-04 1.03249E-01 4.72083E-14 1.54352E-14
 -1      3628 2.01789E+01-8.01811E-02 3.65600E-04 1.16888E-01 1.29046E-14 3.71741E-15
 -1      3629 2.01634E+01-8.63312E-02 2.51442E-04 1.12736E-01-3.21684E-14 1.12077E-14
 -1      3630 2.02175E+01-7.74994E-02-5.48739E-04 1.02631E-01 4.43296E-14 1.30837E-14
 -1      3631 2.01453E+01-8.88749E-02 2.11071E-04 1.07513E-01-9.19179E-14 1.94255E-15
 -1      3632 2.01324E+01-8.85264E-02 3.31435E-04 1.01698E-01-1.18384E-13-4.89673E-15
 -1      3633 2.01793E+01-9.22604E-02-5.30767E-04 9.60695E-02-6.99779E-14 5.70310E-15
 -1      3634 2.01163E+01-8.58445E-02 8.92460E-05 9.58579E-02-1.19846E-13 1.04304E-15
 -1      3635 2.01057E+01-8.10349E-02 3.69155E-04 8.97484E-02-1.16669E-13 3.25947E-14
 -1      3636 2.01454E+01-9.26527E-02-4.78441E-04 8.66882E-02-1.23577E-13 7.78588E-14
 -1      3637 2.00917E+01-7.47279E-02-9.48525E-06 8.42499E-02-5.28455E-14 3.07097E-14
 -1      3638 2.00831E+01-6.67742E-02 3.79938E-04 7.88430E-02-1.40497E-14 6.97742E-14
 -1      3639 2.01159E+01-8.31299E-02-4.07994E-04 7.67484E-02-5.64521E-14 7.52849E-14
 -1      3640 2.00708E+01-5.78426E-02-9.40090E-05 7.43875E-02-5.98571E-14 7.16002E-14
 -1      3641 2.00638E+01-4.75116E-02 3.75793E-04 7.04163E-02-8.38421E-14 8.50481E-14
 -1      3642 2.00904E+01-6.65783E-02-3.23959E-04 6.79231E-02-6.46077E-15 8.90845E-14
 -1      3643 2.00528E+01-3.64748E-02-1.74504E-04 6.75292E-02-7.27941E-14 9.09047E-14
 -1      3644 2.00470E+01-2.40968E-02 3.65743E-04 6.55703E-02-8.72099E-14 7.30555E-14
 -1      3645 2.00683E+01-4.47088E-02-2.29313E-04 6.14431E-02-7.78857E-14 7.00990E-14
 -1      3646 2.00366E+01-1.11011E-02-2.59592E-04 6.46862E-02-8.47143E-14 9.32499E-14
 -1      3647 2.00314E+01 3.33041E-03 3.55782E-04 6.52431E-02-4.76683E-14 1.46517E-13
 -1      3648 2.00483E+01-1.82874E-02-1.25707E-04 5.82682E-02-8.54249E-14 1.68433E-13
 -1      3649 2.00209E+01 1.84216E-02-3.56492E-04 6.67701E-02-2.55640E-15 1.08548E-13
 -1      3650 2.00157E+01 3.51641E-02 3.49214E-04 7.03337E-02 4.32301E-14 1.74351E-13
 -1      3651 2.00291E+01 1.26523E-02-1.10110E-05 5.92351E-02 2.36207E-15 8.43568E-14
 -1      3652 2.00042E+01 5.26941E-02-4.71936E-04 7.46963E-02 4.66949E-14 1.56497E-13
 -1      3653 1.99982E+01 7.21816E-02 3.47236E-04 8.17877E-02 3.18620E-14 1.07013E-13
 -1      3654 2.00091E+01 4.86180E-02 1.18889E-04 6.51568E-02 6.88799E-15 1.41534E-13
 -1      3655 1.99847E+01 9.26300E-02-6.12115E-04 8.94568E-02 4.75189E-14 7.92187E-14
 -1      3656 1.99772E+01 1.15400E-01 3.49286E-04 1.00653E-01 1.01459E-13 4.25443E-14
 -1      3657 1.99862E+01 9.04960E-02 2.69596E-04 7.68913E-02 4.40904E-14 9.59632E-14
 -1      3658 1.99603E+01 1.39308E-01-7.82601E-04 1.12162E-01 1.22216E-13 3.39060E-14
 -1      3659 1.99505E+01 1.65921E-01 3.53312E-04 1.28105E-01 5.90410E-14 4.15499E-14
 -1      3660 1.99582E+01 1.39391E-01 4.47888E-04 9.53845E-02 9.72785E-14 3.21519E-14
 -1      3661 1.99287E+01 1.93801E-01-9.88233E-04 1.44057E-01 1.14738E-13 7.69021E-14
 -1      3662 1.99153E+01 2.24735E-01 3.56166E-04 1.65447E-01 1.71838E-13 8.96672E-14
 -1      3663 1.99225E+01 1.96449E-01 6.61386E-04 1.21688E-01 1.11188E-13 9.94957E-14
 -1      3664 1.98870E+01 2.56958E-01-1.23305E-03 1.86503E-01 6.88934E-14 5.41454E-14
 -1      3665 1.98689E+01 2.92478E-01 3.54401E-04 2.14077E-01 9.06627E-15 1.59243E-14
 -1      3666 1.98759E+01 2.62637E-01 9.18123E-04 1.56951E-01 1.05812E-13 3.89207E-14
 -1      3667 1.98321E+01 3.29113E-01-1.52041E-03 2.40944E-01-5.69430E-14-4.73156E-14
 -1      3668 1.98077E+01 3.69081E-01 3.45961E-04 2.75443E-01-1.68244E-13-9.87113E-14
 -1      3669 1.98149E+01 3.38463E-01 1.22597E-03 2.02398E-01-4.54571E-14 5.17227E-15
 -1      3670 1.97601E+01 4.09679E-01-1.85373E-03 3.08861E-01-1.70182E-13-5.64051E-14
 -1      3671 1.97278E+01 4.53308E-01 3.33558E-04 3.50992E-01-1.07412E-13-1.94551E-14
 -1      3672 1.97353E+01 4.23596E-01 1.59184E-03 2.59298E-01-1.44441E-13 3.78886E-14
 -1      3673 1.96670E+01 4.96601E-01-2.23821E-03 3.91743E-01-6.89535E-14-5.05624E-14
 -1      3674 1.96252E+01 5.42111E-01 3.31039E-04 4.42171E-01-1.37021E-14 1.84489E-14
 -1      3675 1.96325E+01 5.16367E-01 2.02068E-03 3.28960E-01-6.77394E-14 1.54980E-13
 -1      3676 1.95484E+01 5.85607E-01-2.68441E-03 4.91147E-01 7.97243E-14-8.65940E-14
 -1      3677 1.94955E+01 6.29771E-01 3.74714E-04 5.50546E-01 1.23352E-13-1.20394E-13
 -1      3678 1.95013E+01 6.13118E-01 2.51422E-03 4.12816E-01-9.95123E-15 3.71369E-14
 -1      3679 1.94000E+01 6.69201E-01-3.21385E-03 6.08947E-01 1.22667E-13-1.13795E-13
 -1      3680 1.93352E+01 7.06751E-01 5.42051E-04 6.78197E-01 1.27313E-13-7.99459E-14
 -1      3681 1.93364E+01 7.07366E-01 3.06939E-03 5.12700E-01 1.29135E-13-8.28568E-14
 -1      3682 1.92181E+01 7.35346E-01-3.86630E-03 7.47967E-01 8.27331E-14-6.42871E-14
 -1      3683 1.91420E+01 7.58189E-01 9.77695E-04 8.28591E-01 9.23324E-14 4.41404E-15
 -1      3684 1.91322E+01 7.88747E-01 3.67484E-03 6.31508E-01 1.49031E-13-1.02220E-13
 -1      3685 1.90008E+01 7.65731E-01-4.70742E-03 9.13224E-01-4.98419E-14 4.73175E-14
 -1      3686 1.89172E+01 7.61951E-01 1.92563E-03 1.00818E+00-8.83728E-14 3.43765E-15
 -1      3687 1.88836E+01 8.41670E-01 4.29852E-03 7.74519E-01 1.66650E-14-1.83499E-14
 -1      3688 1.87499E+01 7.33574E-01-5.83215E-03 1.11406E+00-9.23716E-14 1.14275E-14
 -1      3689 1.86678E+01 6.86232E-01 3.81133E-03 1.22896E+00-2.18400E-13-9.92323E-15
 -1      3690 1.85867E+01 8.43609E-01 4.85811E-03 9.51671E-01-7.82379E-14 3.24025E-15
 -1      3691 1.84742E+01 6.00958E-01-7.23592E-03 1.36781E+00-1.65818E-13 5.48879E-14
 -1      3692 1.84124E+01 4.85496E-01 7.22700E-03 1.51268E+00-3.22407E-14 2.06013E-14
 -1      3693 1.82399E+01 7.63120E-01 5.22136E-03 1.18147E+00-1.30340E-13 2.59600E-13
 -1      3694 1.81974E+01 3.14239E-01-8.26114E-03 1.70375E+00-7.69743E-14-5.72737E-14
 -1      3695 1.81883E+01 9.40732E-02 1.23039E-02 1.89406E+00-6.97161E-14-8.21915E-14
 -1      3696 1.78464E+01 5.53094E-01 4.32415E-03 1.49587E+00-1.39223E-13 3.17559E-13
 -1      3697 1.79765E+01-2.03019E-01-5.68959E-03 2.16509E+00 3.52776E-14-1.49096E-13
 -1      3698 1.81118E+01-5.84559E-01 2.05623E-02 2.40664E+00 5.88670E-14-4.78697E-14
 -1      3699 1.74293E+01 1.40919E-01 1.00655E-03 1.95079E+00-2.28463E-15 2.08620E-13
 -1      3700 1.76881E+01-1.18293E+00 1.30468E-02 2.95548E+00 1.41307E-13-4.63529E-14
 -1      3701 1.79230E+01-1.86046E+00 2.63216E-02 3.34344E+00 6.77809E-14 8.60961E-14
 -1      3702 1.81894E+01-2.49821E+00 3.73440E-02 3.65168E+00 1.95750E-13 2.64204E-13
 -1      3703 2.01602E+01 5.62778E-02-6.57741E-04-1.35000E-01 2.41661E-15 4.19882E-15
 -1      3704 2.01815E+01 1.03445E-01 1.87786E-03-1.11146E-01 1.20081E-14 8.56497E-15
 -1      3705 2.02082E+01 5.24941E-02-7.37416E-04-1.26614E-01 7.49797E-16-9.53496E-15
 -1      3706 2.00713E+01-6.56738E-02 3.96409E-04-8.86365E-02-6.06426E-14-6.83412E-15
 -1      3707 2.00779E+01-7.26779E-02-2.77316E-05-9.49708E-02-3.39480E-14-2.44946E-14
 -1      3708 2.00820E+01-6.67894E-02-3.16650E-04-7.86574E-02-8.31607E-14 2.08895E-14
 -1      3709 2.02501E+01 1.38130E+00-5.25454E-03 4.12830E-01 1.20408E-13 7.00259E-15
 -1      3710 2.02369E+01 1.48283E+00-1.01901E-03 3.44838E-01 1.05339E-13 8.19489E-15
 -1      3711 2.02969E+01 1.28518E+00 5.12878E-03 2.51037E-01 8.00894E-14 2.54046E-14
 -1      3712 2.00907E+01-7.80765E-02 3.81493E-04-1.01384E-01 2.44126E-14-6.83403E-15
 -1      3713 2.00993E+01-8.20264E-02 8.36160E-05-1.08381E-01 8.63856E-14 1.73573E-14
 -1      3714 2.01048E+01-8.14196E-02-4.02292E-04-8.93338E-02 1.07345E-14 6.54914E-14
 -1      3715 2.00295E+01-3.02285E-03 3.95641E-04-7.02255E-02 1.93516E-15 1.16119E-13
 -1      3716 2.00327E+01-1.59731E-02-2.69204E-04-7.03776E-02-1.58594E-14 1.23634E-13
 -1      3717 2.00178E+01 2.53979E-02 4.02381E-04-7.42769E-02-1.74660E-14 1.60671E-13
 -1      3718 2.00208E+01 1.04231E-02-3.56479E-04-7.12838E-02 8.79160E-15 1.53939E-13
 -1      3719 2.00295E+01 4.90294E-03-4.68182E-05-6.56578E-02-9.68045E-15 6.20201E-14
 -1      3720 2.00052E+01 5.83178E-02 4.18334E-04-8.50952E-02-3.65074E-14 1.33384E-13
 -1      3721 2.00085E+01 4.09579E-02-4.60143E-04-7.84102E-02-4.58688E-15 2.01474E-13
 -1      3722 2.00133E+01 3.74173E-02 6.05550E-05-7.09910E-02-2.16519E-14 1.81316E-13
 -1      3723 1.99904E+01 9.65923E-02 4.44358E-04-1.03808E-01 2.17610E-15 2.59743E-14
 -1      3724 1.99944E+01 7.63916E-02-5.86428E-04-9.28228E-02-2.80814E-14 4.84672E-14
 -1      3725 1.99953E+01 7.51422E-02 1.83181E-04-8.27381E-02 1.57128E-14 7.07720E-14
 -1      3726 1.99716E+01 1.41142E-01 4.80086E-04-1.31695E-01 4.73714E-14 1.07585E-14
 -1      3727 1.99770E+01 1.17632E-01-7.40538E-04-1.15726E-01 2.88942E-14 3.24867E-14
 -1      3728 1.99735E+01 1.19023E-01 3.26385E-04-1.01974E-01 2.85541E-14-1.42205E-14
 -1      3729 1.99470E+01 1.92763E-01 5.24371E-04-1.70195E-01-2.85727E-14 2.31319E-14
 -1      3730 1.99545E+01 1.65563E-01-9.26429E-04-1.48485E-01 9.10434E-15 4.89905E-14
 -1      3731 1.99459E+01 1.70030E-01 4.95683E-04-1.29918E-01 2.84863E-14 1.06523E-13
 -1      3732 1.99144E+01 2.51870E-01 5.76099E-04-2.20880E-01-1.92417E-14 2.88776E-14
 -1      3733 1.99248E+01 2.20828E-01-1.14640E-03-1.92624E-01-6.64639E-14 4.36854E-14
 -1      3734 1.99099E+01 2.28941E-01 6.96026E-04-1.67936E-01-1.88986E-14 9.20471E-14
 -1      3735 1.98713E+01 3.18153E-01 6.35792E-04-2.85405E-01-7.89174E-14-1.84820E-14
 -1      3736 1.98856E+01 2.83529E-01-1.40060E-03-2.49787E-01 8.70177E-15 2.31454E-14
 -1      3737 1.98629E+01 2.96046E-01 9.30647E-04-2.17534E-01-5.21384E-14 2.48805E-14
 -1      3738 1.98154E+01 3.90089E-01 7.08709E-04-3.65435E-01-1.17208E-13-8.41917E-14
 -1      3739 1.98343E+01 3.52820E-01-1.68650E-03-3.21683E-01-1.14749E-13-4.00445E-14
 -1      3740 1.98018E+01 3.70758E-01 1.19926E-03-2.80327E-01-8.41067E-14 3.89993E-14
 -1      3741 1.97442E+01 4.64283E-01 8.10470E-04-4.62588E-01-1.43649E-13-8.56088E-14
 -1      3742 1.97686E+01 4.26336E-01-1.99855E-03-4.10029E-01-1.53861E-13-1.06331E-13
 -1      3743 1.97232E+01 4.51079E-01 1.49531E-03-3.58029E-01-1.15643E-13-8.59122E-14
 -1      3744 1.96562E+01 5.34567E-01 9.76761E-04-5.78431E-01-4.76562E-14 4.77361E-14
 -1      3745 1.96861E+01 4.99420E-01-2.32797E-03-5.16520E-01-6.71299E-14-3.79331E-14
 -1      3746 1.96242E+01 5.32895E-01 1.80163E-03-4.52493E-01-7.90621E-14-1.32003E-13
 -1      3747 1.95510E+01 5.90803E-01 1.27898E-03-7.14616E-01 4.45187E-14-2.79654E-14
 -1      3748 1.95857E+01 5.64074E-01-2.66237E-03-6.42907E-01 2.27931E-14 2.75527E-14
 -1      3749 1.95021E+01 6.09039E-01 2.08366E-03-5.65883E-01-1.73120E-16-7.68013E-14
 -1      3750 1.94315E+01 6.17308E-01 1.84566E-03-8.73277E-01 1.03594E-13-6.67941E-14
 -1      3751 1.94680E+01 6.07584E-01-2.98244E-03-7.91293E-01 6.33381E-14-4.96615E-14
 -1      3752 1.93554E+01 6.68093E-01 2.27733E-03-7.01123E-01 1.02670E-13-7.81430E-14
 -1      3753 1.93059E+01 5.90814E-01 2.86974E-03-1.05777E+00 1.82060E-14 3.31444E-14
 -1      3754 1.93375E+01 6.10734E-01-3.24845E-03-9.64753E-01 1.09008E-13 6.48882E-14
 -1      3755 1.91852E+01 6.92804E-01 2.26239E-03-8.62779E-01 2.57092E-14 6.78386E-14
 -1      3756 1.91918E+01 4.78018E-01 4.63517E-03-1.27348E+00-7.06131E-14-1.10526E-13
 -1      3757 1.92058E+01 5.45509E-01-3.37008E-03-1.16823E+00-3.31723E-14-4.53845E-14
 -1      3758 1.89972E+01 6.57911E-01 1.79644E-03-1.05853E+00 4.31587E-14 1.57717E-13
 -1      3759 1.91232E+01 2.33561E-01 7.70126E-03-1.52808E+00-1.39756E-13-2.91039E-14
 -1      3760 1.90963E+01 3.72709E-01-3.06585E-03-1.40923E+00-9.02552E-14-6.38083E-14
 -1      3761 1.88056E+01 5.27469E-01 5.15515E-04-1.30082E+00-7.31421E-14 1.54596E-13
 -1      3762 1.91599E+01-2.02883E-01 1.27762E-02-1.83118E+00-5.81277E-14-1.23261E-13
 -1      3763 1.90524E+01 4.02576E-02-1.74592E-03-1.69911E+00-1.07201E-13-4.35345E-14
 -1      3764 1.86385E+01 2.54034E-01-1.82502E-03-1.60896E+00-6.25438E-14 1.40400E-13
 -1      3765 1.94054E+01-9.10976E-01 1.89896E-02-2.17887E+00 1.61798E-14-1.81661E-13
 -1      3766 1.91590E+01-5.26524E-01 2.00090E-03-2.04774E+00-4.38699E-14-1.71877E-13
 -1      3767 1.85522E+01-2.31913E-01-5.60175E-03-2.01495E+00 6.36004E-15-3.73182E-16
 -1      3768 2.00268E+01-1.98967E+00 1.42430E-02-2.53768E+00-1.63952E-13-7.34920E-14
 -1      3769 1.95555E+01-1.36552E+00 2.35538E-02-2.43961E+00-5.42266E-14-1.65196E-13
 -1      3770 1.86811E+01-1.01383E+00 5.21295E-04-2.54032E+00-4.81577E-14-1.53278E-13
 -1      3771 2.01983E+01 1.65994E+00-2.45874E-03-3.45533E-02 8.98043E-14-7.38165E-14
 -1      3772 2.02011E+01 1.64123E+00-3.29249E-03-1.25030E-01 8.30350E-14-9.43727E-14
 -1      3773 2.02794E+01 1.42020E+00 4.87058E-03 2.33159E-03 6.76742E-14-6.30073E-14
 -1      3774 2.02082E+01 1.61992E+00-1.67418E-03-1.82716E-01 7.59113E-14-9.02891E-14
 -1      3775 2.02186E+01 1.56462E+00-3.40363E-03-2.66298E-01 6.72641E-14-8.46264E-14
 -1      3776 2.02886E+01 1.32775E+00 3.67981E-03-2.13228E-01 7.07167E-14-6.88360E-14
 -1      3777 2.02833E+01 1.39556E+00 4.91574E-03-1.16327E-01 8.18276E-14-8.62872E-14
 -1      3778 2.05869E+01-3.07706E+00 5.00767E-02-3.05326E+00-2.66150E-14-1.82995E-13
 -1      3779 1.41373E+01-4.57037E-01-1.21427E-02-2.61637E+00 1.68325E-13-3.31332E-14
 -1      3780 1.48882E+01-1.11394E+00 8.12212E-02-3.53518E+00 1.62675E-13-7.80938E-14
 -1      3781 1.63712E+01-1.43695E+00 1.50651E-02-3.42436E+00 8.49931E-14 4.49640E-14
 -1      3782 2.00416E+01-2.75788E-02 3.95680E-04-7.19267E-02-3.19632E-14 1.08901E-13
 -1      3783 2.00455E+01-3.86976E-02-1.91012E-04-7.47069E-02-8.77697E-14 8.45138E-14
 -1      3784 2.00455E+01-2.31410E-02-1.43512E-04-6.57739E-02-5.53695E-14-3.33300E-15
 -1      3785 1.58667E+01-5.64571E-01 1.09684E-02 2.72215E+00 1.63849E-13 2.96568E-14
 -1      3786 1.45329E+01 1.38253E-01 1.54904E-02 1.88061E+00 1.38487E-13 1.43479E-14
 -1      3787 2.03210E+01 1.02249E+00-1.41527E-03-2.60422E-01 1.81387E-14-6.98126E-14
 -1      3788 2.03367E+01 8.37793E-01-1.21685E-03-1.84423E-01 2.33208E-14-4.08674E-14
 -1      3789 2.03601E+01 8.11697E-01 8.38987E-04-1.40291E-01 4.36885E-14 1.74626E-14
 -1      3790 2.03193E+01 1.10831E+00 4.43799E-04-2.20721E-01 5.54506E-14-3.62285E-14
 -1      3791 2.03058E+01 1.11449E+00 4.19679E-03 3.34993E-01 9.90927E-14 5.58470E-15
 -1      3792 2.46559E+01-4.36960E+00-7.24046E-02-7.23138E-01-7.34291E-14-2.20714E-13
 -1      3793 1.91292E+01-2.60173E+00-4.16216E-03-3.43336E+00-2.76272E-14-2.50168E-13
 -1      3794 2.03125E+01 3.12933E-01-1.85058E-03-1.10091E-02 4.10779E-14-9.30172E-15
 -1      3795 2.03326E+01 4.23555E-01 1.97691E-03 4.42442E-02 4.69267E-14-2.78927E-15
 -1      3796 2.02462E+01 1.61249E-01-6.73810E-04-7.87271E-02 9.07241E-15-2.03157E-14
 -1      3797 1.67252E+01-6.65101E-01-7.90879E-04 2.74378E+00 1.55238E-13 1.20550E-13
 -1      3798 2.02090E+01-2.51811E-02-1.78486E-04-1.34298E-01 1.22091E-14 3.79715E-16
 -1      3799 2.02282E+01 4.32249E-03 9.43789E-04-1.27549E-01 1.34820E-14-1.18538E-14
 -1      3800 1.53505E+01 3.76099E-01 2.44740E-02 1.50613E+00 1.33539E-14 2.77885E-14
 -1      3801 1.42220E+01 4.87845E-01 3.15799E-02 1.20885E+00 1.31127E-13 2.38250E-13
 -1      3802 1.42033E+01 5.90801E-01-1.61286E-02 3.16687E-01 8.54525E-15 1.65415E-13
 -1      3803 2.03560E+01 5.48546E-01 1.23837E-05 7.71600E-02 4.65852E-14 3.64087E-14
 -1      3804 2.03284E+01 5.57852E-01-1.61611E-03 1.02281E-01 6.07586E-14 2.30913E-15
 -1      3805 2.03184E+01 1.19503E+00-2.41505E-03 3.18021E-02 7.70696E-14-5.83461E-14
 -1      3806 2.03180E+01 1.19525E+00-2.45870E-03-2.83522E-02 7.98834E-14-7.64550E-14
 -1      3807 2.00626E+01-4.70893E-02-2.32793E-04-7.04260E-02-7.14540E-14 8.00493E-14
 -1      3808 2.03243E+01 8.41420E-01-2.55373E-03 2.40838E-01 7.73874E-14-3.66683E-15
 -1      3809 2.03303E+01 9.38505E-01 4.83714E-06 2.17006E-01 5.58745E-14 5.54799E-14
 -1      3810 2.01140E+01-8.39345E-02 3.45889E-04-1.15019E-01 6.86811E-14-3.42090E-16
 -1      3811 2.01249E+01-8.35465E-02 2.27475E-04-1.21585E-01 5.61687E-14 3.01974E-15
 -1      3812 2.01316E+01-8.92384E-02-4.92610E-04-1.01089E-01 4.83189E-14 4.47295E-14
 -1      3813 2.03285E+01 6.59490E-01 2.64619E-03 1.59092E-01 7.04570E-14-3.97057E-15
 -1      3814 2.01735E+01-6.28576E-02 8.07861E-05-1.35276E-01 1.69234E-14-3.21362E-14
 -1      3815 2.01898E+01-4.67307E-02 6.34192E-04-1.35656E-01 1.75853E-14-4.35797E-14
 -1      3816 2.02374E+01-3.35132E-02-5.42214E-04-1.18859E-01 4.45262E-14-5.30137E-14
 -1      3817 1.41421E+01 4.57483E-01-1.53717E-02-9.90682E-01 6.98807E-14-8.84570E-14
 -1      3818 1.40684E+01 1.80832E-01 6.84938E-02-1.84497E+00 6.41553E-14-9.26620E-14
 -1      3819 1.50817E+01-1.19815E-01 9.24929E-04-2.21378E+00 3.95736E-14-3.34351E-14
 -1      3820 2.03011E+01 7.96407E-01-6.00953E-05 2.72724E-01 9.05821E-14-6.03135E-14
 -1      3821 2.03208E+01 1.14549E+00-3.29618E-03 1.34551E-01 5.37235E-14-1.78289E-14
 -1      3822 2.03192E+01 1.18085E+00-1.95159E-03 7.79554E-02 5.03286E-14-4.23302E-14
 -1      3823 2.03727E+01 9.95789E-01 4.58661E-03 4.12574E-02 5.83256E-14-6.37603E-14
 -1      3824 2.02828E+01 1.48763E-01-1.15424E-03-8.07065E-02-3.70392E-15 1.83200E-14
 -1      3825 2.03050E+01 2.23704E-01 1.70055E-03-4.68347E-02 2.40504E-14-1.22731E-14
 -1      3826 2.03455E+01 3.06996E-01 1.02030E-04-1.62831E-02 2.87570E-14 3.91938E-14
 -1      3827 2.02778E+01 3.32255E-02-4.43993E-04-1.06163E-01 1.30587E-14 1.07917E-15
 -1      3828 2.02465E+01 4.13711E-02-5.79859E-04-1.18662E-01-1.23588E-14 2.42494E-14
 -1      3829 2.02679E+01 8.98514E-02 1.31071E-03-1.00840E-01-1.89559E-14-7.02126E-15
 -1      3830 2.03972E+01 3.62913E-01 7.06097E-04-6.85711E-04 2.94242E-14-6.71839E-16
 -1      3831 2.03848E+01 2.59490E-01-1.22472E-03 2.98741E-02 1.75647E-14-1.56480E-14
 -1      3832 2.03758E+01 1.75232E-01 7.29345E-04 4.50735E-02 3.16041E-14-3.11906E-14
 -1      3833 2.03567E+01 1.05477E-01-6.92075E-04 6.33396E-02 3.60356E-14-2.71681E-14
 -1      3834 2.04004E+01 2.38413E-01 3.13713E-04 2.63609E-02 1.96379E-14-5.09688E-14
 -1      3835 2.03395E+01 5.02581E-02 6.26433E-04 7.09870E-02 3.37465E-14-2.03370E-14
 -1      3836 2.03177E+01 5.87452E-03-2.85961E-04 8.01801E-02 2.80104E-14-2.76524E-14
 -1      3837 2.03697E+01 8.93544E-02-1.47847E-04 5.04947E-02 2.58420E-14-6.64426E-14
 -1      3838 2.02965E+01-2.79970E-02 5.16786E-04 8.25907E-02 4.27436E-14-2.02579E-14
 -1      3839 2.02746E+01-5.39881E-02-6.38078E-06 8.55308E-02 6.34370E-14 1.81846E-14
 -1      3840 2.03283E+01-6.26065E-03-3.90547E-04 6.24663E-02 5.20815E-14 1.14062E-14
 -1      3841 2.02522E+01-7.24800E-02 4.05850E-04 8.45004E-02 5.53796E-14-1.95360E-14
 -1      3842 2.02316E+01-8.53398E-02 1.71311E-04 8.35231E-02 2.69439E-14-7.72193E-15
 -1      3843 2.02831E+01-6.28255E-02-5.05106E-04 6.59828E-02 2.89320E-14 4.34443E-14
 -1      3844 2.02100E+01-9.30981E-02 3.00864E-04 8.05744E-02-1.51018E-14-1.94251E-14
 -1      3845 2.01916E+01-9.68161E-02 2.74764E-04 7.73725E-02-8.79893E-14-4.58272E-15
 -1      3846 2.02384E+01-9.13675E-02-5.26100E-04 6.41355E-02-9.02160E-15-1.34435E-14
 -1      3847 2.01717E+01-9.71212E-02 2.01646E-04 7.35565E-02-1.03831E-13 6.72135E-14
 -1      3848 2.01557E+01-9.45486E-02 3.26867E-04 6.94305E-02-7.93267E-14 1.15987E-13
 -1      3849 2.01968E+01-1.00515E-01-5.37612E-04 5.92704E-02-3.81054E-14 8.33036E-14
 -1      3850 2.01378E+01-8.96731E-02 1.13751E-04 6.54867E-02-8.78027E-14 6.66272E-14
 -1      3851 2.01241E+01-8.26796E-02 3.40884E-04 6.14066E-02-4.76350E-14 7.35685E-14
 -1      3852 2.01594E+01-9.60267E-02-4.89300E-04 5.32374E-02-8.64871E-14 1.31676E-13
 -1      3853 2.01081E+01-7.41446E-02 3.22980E-05 5.79654E-02-2.12937E-14 6.12553E-14
 -1      3854 2.00964E+01-6.39555E-02 3.29217E-04 5.46281E-02-9.07194E-15 6.84547E-14
 -1      3855 2.01262E+01-8.19236E-02-4.11646E-04 4.72670E-02-5.11823E-14 9.19631E-15
 -1      3856 2.00821E+01-5.26611E-02-4.87202E-05 5.20918E-02-5.43099E-14 6.39077E-14
 -1      3857 2.00719E+01-3.99179E-02 3.03930E-04 5.00215E-02-8.81679E-14 5.84449E-14
 -1      3858 2.00970E+01-6.08730E-02-3.09639E-04 4.24235E-02-3.53386E-14 3.01094E-14
 -1      3859 2.00586E+01-2.62596E-02-1.35836E-04 4.87114E-02-5.28285E-14 7.29936E-14
 -1      3860 2.00492E+01-1.11596E-02 2.71239E-04 4.83403E-02-5.67675E-14 1.21990E-13
 -1      3861 2.00707E+01-3.42928E-02-1.93646E-04 3.93884E-02-4.87237E-14 1.90656E-14
 -1      3862 2.00362E+01 4.84137E-03-2.33236E-04 4.85455E-02-4.99666E-14 1.49540E-13
 -1      3863 2.00268E+01 2.24309E-02 2.34317E-04 5.02662E-02 3.69808E-14 9.93737E-14
 -1      3864 2.00458E+01-2.64023E-03-6.34868E-05 3.87590E-02-3.70775E-14 1.42244E-13
 -1      3865 2.00130E+01 4.10330E-02-3.46308E-04 5.22706E-02 3.58973E-14 1.09919E-13
 -1      3866 2.00027E+01 6.14863E-02 1.94133E-04 5.64752E-02 1.81431E-14 1.00314E-13
 -1      3867 2.00205E+01 3.43218E-02 8.39745E-05 4.10804E-02-2.81613E-16 1.20282E-13
 -1      3868 1.99870E+01 8.31439E-02-4.80489E-04 6.05817E-02-1.57531E-14 5.30242E-14
 -1      3869 1.99748E+01 1.06993E-01 1.49791E-04 6.76868E-02 2.67473E-14 7.44818E-15
 -1      3870 1.99926E+01 7.73383E-02 2.53848E-04 4.68957E-02-2.40720E-14 4.76648E-14
 -1      3871 1.99557E+01 1.32274E-01-6.41089E-04 7.42334E-02 9.66681E-14 1.17283E-14
 -1      3872 1.99404E+01 1.60122E-01 9.88319E-05 8.46932E-02 1.28217E-13 1.11378E-14
 -1      3873 1.99597E+01 1.27484E-01 4.52880E-04 5.67814E-02 4.83642E-14-1.90679E-14
 -1      3874 1.99162E+01 1.89615E-01-8.33191E-04 9.40590E-02 1.25059E-13 4.27610E-14
 -1      3875 1.98964E+01 2.22036E-01 3.75600E-05 1.08365E-01 1.09954E-13 8.14224E-14
 -1      3876 1.99188E+01 1.85980E-01 6.89126E-04 7.13651E-02 1.47681E-13-7.30222E-14
 -1      3877 1.98653E+01 2.56240E-01-1.06170E-03 1.20969E-01 7.93136E-14 4.94335E-14
 -1      3878 1.98392E+01 2.93652E-01-3.84731E-05 1.39641E-01 3.42666E-14-5.36629E-14
 -1      3879 1.98664E+01 2.53979E-01 9.71665E-04 9.13253E-02 5.90269E-14-5.13628E-14
 -1      3880 1.97991E+01 3.32838E-01-1.33173E-03 1.55932E-01-3.36713E-14-7.08139E-14
 -1      3881 1.97648E+01 3.75343E-01-1.33597E-04 1.79500E-01-1.28792E-13-6.88051E-14
 -1      3882 1.97985E+01 3.32308E-01 1.31045E-03 1.17378E-01-4.78775E-14-1.14863E-13
 -1      3883 1.97130E+01 4.19362E-01-1.64979E-03 1.99953E-01-1.18005E-13 4.17659E-14
 -1      3884 1.96683E+01 4.66537E-01-2.50397E-04 2.28943E-01-5.24601E-14 1.36014E-13
 -1      3885 1.97106E+01 4.21141E-01 1.71645E-03 1.50258E-01-5.84544E-14 1.32137E-17
 -1      3886 1.96021E+01 5.14587E-01-2.02649E-03 2.54062E-01-7.54407E-14 8.45590E-14
 -1      3887 1.95446E+01 5.65221E-01-3.86742E-04 2.89005E-01-4.89800E-14 1.03703E-13
 -1      3888 1.95973E+01 5.19592E-01 2.20243E-03 1.90708E-01-5.91539E-14 1.18803E-13
 -1      3889 1.94606E+01 6.15541E-01-2.48202E-03 3.19366E-01-5.61099E-14 1.66589E-13
 -1      3890 1.93875E+01 6.67315E-01-5.30469E-04 3.60871E-01 8.76136E-15 1.69348E-13
 -1      3891 1.94525E+01 6.25219E-01 2.78519E-03 2.39524E-01-3.66062E-14 1.20859E-13
 -1      3892 1.92819E+01 7.16813E-01-3.05612E-03 3.97256E-01 8.32801E-14 1.00826E-13
 -1      3893 1.91907E+01 7.65926E-01-6.49722E-04 4.46215E-01 1.24303E-13 9.29001E-14
 -1      3894 1.92695E+01 7.33455E-01 3.49059E-03 2.97707E-01-1.66748E-14 2.10684E-13
 -1      3895 1.90589E+01 8.09743E-01-3.82448E-03 4.89905E-01 1.09963E-13-1.11388E-13
 -1      3896 1.89469E+01 8.50492E-01-6.74967E-04 5.47940E-01 1.03819E-13-1.28141E-13
 -1      3897 1.90402E+01 8.37008E-01 4.36397E-03 3.66860E-01-7.10947E-15 5.87886E-14
 -1      3898 1.87832E+01 8.81490E-01-4.92247E-03 6.01344E-01 1.40792E-13-1.07641E-13
 -1      3899 1.86484E+01 9.05788E-01-4.73081E-04 6.71658E-01 1.84181E-14-9.10975E-14
 -1      3900 1.87549E+01 9.25278E-01 5.48649E-03 4.50053E-01 1.06713E-13-1.71401E-13
 -1      3901 1.84448E+01 9.13916E-01-6.57402E-03 7.39453E-01-4.14464E-14 1.07882E-14
 -1      3902 1.82864E+01 9.10583E-01 9.36633E-05 8.28302E-01-4.49322E-14 1.83795E-14
 -1      3903 1.84013E+01 9.83745E-01 6.97361E-03 5.53525E-01 9.82409E-14-1.80304E-14
 -1      3904 1.80321E+01 8.82487E-01-9.04402E-03 9.18764E-01-8.12027E-14 1.11475E-13
 -1      3905 1.78524E+01 8.37720E-01 2.00528E-03 1.03759E+00-8.96512E-14 1.70667E-13
 -1      3906 1.79628E+01 9.92705E-01 8.89398E-03 6.89399E-01 4.87051E-14 1.68215E-14
 -1      3907 1.75296E+01 7.55141E-01-1.21811E-02 1.16950E+00-1.64052E-13 2.13580E-13
 -1      3908 1.73412E+01 6.48093E-01 7.91708E-03 1.33675E+00-1.41567E-13 2.38235E-13
 -1      3909 1.74114E+01 9.28396E-01 1.08080E-02 8.78276E-01-1.30146E-13 5.77384E-14
 -1      3910 2.00915E+01-6.54324E-02 3.62575E-04-6.58225E-02-7.92204E-14 8.71630E-14
 -1      3911 2.01018E+01-7.46589E-02 1.47219E-05-7.00788E-02-6.46933E-14 8.67848E-14
 -1      3912 2.01170E+01-8.22050E-02 3.61663E-04-7.44630E-02-4.15566E-14 7.96213E-14
 -1      3913 2.01295E+01-8.82830E-02 1.27980E-04-7.94642E-02 1.22559E-14 8.55175E-14
 -1      3914 2.01227E+01-8.27750E-02-4.14216E-04-6.07887E-02-4.97355E-14 7.73910E-14
 -1      3915 2.03738E+01 5.10901E-01-2.04762E-03 4.28640E-02 3.72880E-14 6.10632E-14
 -1      3916 2.03766E+01 6.62857E-01 1.24999E-03 1.00337E-01 3.98405E-14 5.14989E-14
 -1      3917 2.00091E+01 4.96310E-02 2.75825E-04-6.39545E-02-1.97875E-14 2.34233E-14
 -1      3918 2.00171E+01 3.08543E-02-3.52740E-04-5.98259E-02-5.44520E-14 3.94455E-14
 -1      3919 2.00295E+01 1.38274E-02 2.99460E-04-5.78415E-02-3.60410E-14 9.98539E-14
 -1      3920 2.00370E+01-2.36249E-03-2.45220E-04-5.64964E-02 1.08115E-14 1.09560E-13
 -1      3921 2.00248E+01 2.47098E-02 3.90723E-05-5.01480E-02-7.16181E-15 1.00291E-13
 -1      3922 1.99576E+01 1.39639E-01 2.33535E-04-9.44847E-02 5.09858E-14 1.71839E-15
 -1      3923 1.99692E+01 1.14226E-01-6.33396E-04-8.32894E-02 2.84315E-14 7.04574E-15
 -1      3924 1.99217E+01 1.95888E-01 2.13336E-04-1.20964E-01 8.00352E-15 2.13082E-14
 -1      3925 1.99368E+01 1.66388E-01-8.17357E-04-1.05367E-01 3.09807E-14-1.96364E-14
 -1      3926 1.99367E+01 1.64959E-01 5.71595E-04-8.51800E-02 2.76353E-14 3.47367E-14
 -1      3927 1.98753E+01 2.60737E-01 1.92344E-04-1.56518E-01 8.05917E-15 5.48122E-15
 -1      3928 1.98950E+01 2.26806E-01-1.03676E-03-1.35861E-01 3.07039E-14 6.60710E-14
 -1      3929 1.98920E+01 2.27555E-01 8.16360E-04-1.09363E-01 1.07882E-15 1.60369E-14
 -1      3930 1.98149E+01 3.34386E-01 1.70849E-04-2.02511E-01-6.24843E-14-4.23712E-15
 -1      3931 1.98408E+01 2.96005E-01-1.29575E-03-1.76083E-01-6.03605E-14-6.21936E-14
 -1      3932 1.98343E+01 2.99471E-01 1.10627E-03-1.41536E-01 3.10502E-14 3.82766E-14
 -1      3933 1.97369E+01 4.16062E-01 1.52715E-04-2.60434E-01-1.51318E-13 1.99601E-15
 -1      3934 1.97706E+01 3.73756E-01-1.59845E-03-2.27486E-01-1.08286E-13 4.02009E-15
 -1      3935 1.97596E+01 3.80741E-01 1.44729E-03-1.82950E-01-1.19827E-13-3.23914E-14
 -1      3936 1.96375E+01 5.03478E-01 1.49223E-04-3.31930E-01-5.49275E-14-7.77046E-14
 -1      3937 1.96805E+01 4.58598E-01-1.95035E-03-2.91670E-01-1.19804E-13-7.94734E-16
 -1      3938 1.96637E+01 4.70296E-01 1.84385E-03-2.35027E-01-1.14168E-13 2.57777E-14
 -1      3939 1.95127E+01 5.92140E-01 1.85539E-04-4.18906E-01-4.03924E-14-1.10469E-13
 -1      3940 1.95665E+01 5.47229E-01-2.36135E-03-3.70445E-01-6.08738E-14-7.78494E-14
 -1      3941 1.95419E+01 5.65415E-01 2.29831E-03-2.99448E-01-4.33407E-14-3.27263E-14
 -1      3942 1.93591E+01 6.74482E-01 3.11416E-04-5.23820E-01 7.76831E-15-3.80849E-14
 -1      3943 1.94247E+01 6.33717E-01-2.85137E-03-4.66021E-01-2.81899E-14-3.08426E-14
 -1      3944 1.93894E+01 6.61057E-01 2.81090E-03-3.78351E-01-9.12767E-14-4.72684E-14
 -1      3945 1.91741E+01 7.38807E-01 6.19675E-04-6.50299E-01 1.24812E-13 1.21405E-15
 -1      3946 1.92513E+01 7.08533E-01-3.46020E-03-5.81451E-01 1.10273E-13 2.43540E-14
 -1      3947 1.92012E+01 7.49070E-01 3.38028E-03-4.74774E-01 1.05011E-14 9.67916E-14
 -1      3948 1.89570E+01 7.67997E-01 1.28313E-03-8.04332E-01-8.15486E-14 1.57146E-13
 -1      3949 1.90439E+01 7.57378E-01-4.26128E-03-7.21528E-01 2.05605E-16 6.04753E-14
 -1      3950 1.89723E+01 8.17312E-01 4.00350E-03-5.93525E-01 1.11658E-14 2.46393E-13
 -1      3951 1.87108E+01 7.37638E-01 2.53579E-03-9.96373E-01-4.32980E-14 2.83416E-13
 -1      3952 1.88018E+01 7.59700E-01-5.36804E-03-8.94523E-01-5.41746E-14 1.78414E-13
 -1      3953 1.86982E+01 8.48629E-01 4.65501E-03-7.42862E-01-5.77628E-14 1.69215E-13
 -1      3954 1.84450E+01 6.13147E-01 4.66327E-03-1.24398E+00-6.31263E-14 2.60317E-13
 -1      3955 1.85287E+01 6.86279E-01-6.90412E-03-1.11474E+00-2.58939E-14 3.02765E-13
 -1      3956 1.83750E+01 8.18759E-01 5.12103E-03-9.37699E-01-8.22977E-14 1.82878E-13
 -1      3957 1.81805E+01 3.49991E-01 8.50141E-03-1.57206E+00 1.80108E-14 1.43577E-13
 -1      3958 1.82373E+01 4.95827E-01-8.88250E-03-1.40357E+00-3.90422E-14 2.21302E-13
 -1      3959 1.80029E+01 6.91835E-01 5.05045E-03-1.20171E+00 3.34576E-14 2.29893E-13
 -1      3960 1.79461E+01-1.26754E-01 9.37475E-03-2.03119E+00 1.88516E-15 1.53165E-13
 -1      3961 1.79464E+01 1.37251E-01-1.20278E-02-1.79765E+00 4.21534E-14 1.59638E-13
 -1      3962 1.75887E+01 4.32924E-01 8.40369E-03-1.57169E+00 3.75307E-14 1.98680E-13
 -1      3963 2.03732E+01 1.00125E+00 4.93453E-03-3.07918E-02 7.13907E-14-6.31147E-14
 -1      3964 2.03183E+01 1.18750E+00-1.94809E-03-6.56849E-02 7.68958E-14-7.36109E-14
 -1      3965 2.03198E+01 1.16483E+00-2.47513E-03-1.11441E-01 7.95093E-14-8.71413E-14
 -1      3966 2.00691E+01-4.34617E-02 3.47044E-04-5.95774E-02-7.92123E-14 9.48662E-14
 -1      3967 2.00780E+01-5.51623E-02-6.67544E-05-6.24531E-02-6.19498E-14 1.30618E-13
 -1      3968 2.00950E+01-6.36291E-02-3.17205E-04-5.41404E-02-8.25064E-14 1.51504E-13
 -1      3969 1.64235E+01-5.66605E-02-1.66381E-02 2.18945E+00 1.64849E-13 9.21450E-14
 -1      3970 1.99859E+01 9.12250E-02 2.53992E-04-7.58470E-02 1.75546E-14 1.16472E-14
 -1      3971 1.99952E+01 6.93970E-02-4.80253E-04-6.84533E-02 3.87805E-14 3.56571E-14
 -1      3972 2.00003E+01 6.45987E-02 1.89843E-04-5.64870E-02-7.17543E-15 1.07251E-14
 -1      3973 1.99718E+01 1.10983E-01 3.65115E-04-6.78795E-02 1.75402E-14 8.95949E-14
 -1      3974 2.03936E+01 6.34254E-01 1.38738E-03-7.14784E-02 4.76987E-14 8.30821E-15
 -1      3975 2.03925E+01 4.86282E-01-1.69605E-03-2.51423E-02 5.56412E-14 1.04619E-14
 -1      3976 2.04106E+01 4.56792E-01 4.94819E-04-1.35492E-02 3.06020E-14-4.76395E-14
 -1      3977 2.01417E+01-8.03532E-02 2.54083E-04-1.27363E-01 7.39300E-14-4.15848E-14
 -1      3978 2.01552E+01-7.35873E-02 4.04651E-04-1.31942E-01 4.09970E-14-2.93710E-14
 -1      3979 2.01985E+01-7.07968E-02-5.83306E-04-1.19093E-01 3.03782E-14-1.02785E-13
 -1      3980 2.01630E+01-8.71895E-02-5.37487E-04-1.11879E-01 4.44716E-14-2.31335E-14
 -1      3981 2.00489E+01-1.70363E-02 3.24084E-04-5.66487E-02-2.47997E-14 1.05389E-13
 -1      3982 2.00568E+01-3.09476E-02-1.51800E-04-5.76388E-02-7.32808E-14 1.15632E-13
 -1      3983 2.00703E+01-3.90440E-02-2.10951E-04-4.96660E-02-7.58039E-14 2.60518E-13
 -1      3984 2.00475E+01-9.63234E-03-9.30276E-05-4.81062E-02-3.74484E-14 1.23341E-13
 -1      3985 1.67988E+01 2.39349E-01 1.88202E-02 1.85659E+00 6.61580E-14 1.72784E-13
 -1      3986 1.60491E+01 2.95994E-01 8.17549E-03 1.80067E+00-3.56497E-15 4.98039E-14
 -1      3987 1.56393E+01 5.72287E-01-1.32980E-02 1.21953E+00-6.69159E-14 6.89041E-14
 -1      3988 1.69749E+01 4.46515E-01-1.48366E-02 1.59336E+00-1.39788E-13 2.30960E-13
 -1      3989 2.03009E+01 1.71047E-02-3.99888E-04-9.43146E-02 4.14840E-14-7.19659E-14
 -1      3990 2.03226E+01 6.31573E-02 8.44102E-04-8.27582E-02 8.58420E-15-3.73868E-14
 -1      3991 2.02807E+01-1.79988E-02 6.50608E-04-9.83496E-02 3.56108E-14-3.54434E-14
 -1      3992 2.03178E+01 5.78317E-03-3.97789E-04-7.80423E-02 2.38317E-14-4.99118E-14
 -1      3993 2.02595E+01-4.52812E-02-3.35961E-05-1.02244E-01 4.98851E-14-4.26807E-14
 -1      3994 1.57261E+01 7.56885E-02-2.47796E-02-1.95883E+00 5.85469E-16-1.82731E-14
 -1      3995 1.61901E+01-3.53212E-01 4.40662E-02-2.60553E+00 1.35759E-14 8.71289E-14
 -1      3996 2.03178E+01 1.16343E+00-1.47047E-03-1.46482E-01 7.61106E-14-7.28256E-14
 -1      3997 2.03200E+01 1.12098E+00-2.07602E-03-1.88360E-01 6.99420E-14-4.13996E-14
 -1      3998 2.03532E+01 9.68358E-01 2.40802E-03-1.51136E-01 4.87142E-14-5.19626E-15
 -1      3999 2.03680E+01 9.87373E-01 4.20452E-03-9.19890E-02 7.24696E-14-7.90506E-14
 -1      4000 1.67442E+01 7.11068E-01 8.22241E-03 1.23554E+00-1.39877E-13 1.08571E-13
 -1      4001 2.01537E+01-9.49778E-02-6.98572E-04-6.88428E-02-2.41731E-14-2.56817E-14
 -1      4002 2.01464E+01-9.20877E-02 3.27191E-04-8.41813E-02 2.12400E-14 1.86214E-14
 -1      4003 2.01616E+01-9.37077E-02 3.58876E-04-8.88480E-02-7.60081E-15-1.29361E-14
 -1      4004 2.03819E+01 3.84372E-01 1.57210E-03 1.02807E-02 5.71496E-14 5.73622E-14
 -1      4005 2.03963E+01 4.86005E-01-2.70229E-04 2.72431E-02 4.48865E-14 7.30581E-14
 -1      4006 2.03662E+01 2.78083E-01-1.46966E-03-2.78536E-02 3.36643E-14 4.05848E-14
 -1      4007 1.50609E+01 7.61543E-01-1.39477E-03 3.24507E-01-2.30350E-14 1.41789E-13
 -1      4008 1.45214E+01 7.47239E-01 4.48197E-02-2.75893E-01 6.13491E-14-4.51835E-14
 -1      4009 1.49671E+01 6.07776E-01-1.54724E-02-8.45502E-01-2.68999E-14-4.99071E-14
 -1      4010 1.76090E+01-3.79818E-01-1.91648E-02-2.28175E+00 6.07121E-15 1.21903E-13
 -1      4011 1.70926E+01 7.21080E-02 2.21722E-02-2.02511E+00 3.41132E-14 1.94599E-13
 -1      4012 2.03906E+01 8.25219E-01-2.06598E-03-8.43131E-03 6.53823E-14-5.86755E-14
 -1      4013 2.03901E+01 8.16586E-01-2.20809E-03-3.65565E-02 5.75619E-14-6.03046E-14
 -1      4014 1.77286E+01-8.16556E-01 4.19628E-03-2.60071E+00-1.66169E-14 1.02980E-13
 -1      4015 2.03159E+01 1.41574E-01-2.25874E-04-7.45795E-02-9.06490E-15 7.95822E-15
 -1      4016 2.03901E+01 8.24424E-01-1.82079E-03 1.46651E-02 5.18443E-14-9.31194E-14
 -1      4017 2.04206E+01 6.74699E-01 3.32224E-03 6.26814E-03 3.79528E-14-1.01806E-13
 -1      4018 2.03889E+01 8.10026E-01-2.12832E-03 4.75541E-02 2.39026E-14-7.24937E-14
 -1      4019 1.71656E+01-1.17726E+00-1.75603E-02-2.99161E+00 1.21084E-14 1.36627E-14
 -1      4020 2.03240E+01 1.03448E+00-3.55673E-03 2.19822E-01 5.81781E-14 3.13573E-14
 -1      4021 2.03244E+01 1.10509E+00-9.21869E-04 1.74456E-01 4.84901E-14 5.07380E-15
 -1      4022 1.82010E+01-1.78364E+00 5.14452E-02-3.29677E+00-4.16984E-15-8.17783E-14
 -1      4023 2.03690E+01 9.38023E-01 3.93282E-03 1.13687E-01 3.92901E-14-4.66135E-15
 -1      4024 2.03642E+01 8.21565E-01-1.83396E-03-1.14213E-01 4.74363E-14 5.90606E-15
 -1      4025 2.03597E+01 7.91190E-01 9.60821E-04 1.39125E-01 4.42414E-14 5.81802E-14
 -1      4026 2.03835E+01 7.75632E-01-4.33062E-04-7.92879E-02 6.16462E-14-4.94412E-14
 -1      4027 2.03749E+01 7.54125E-01-5.13317E-04 1.02636E-01 4.15633E-14 2.65530E-14
 -1      4028 1.55525E+01 5.58420E-01 3.94652E-02-1.38849E+00-1.25269E-15-3.18857E-14
 -1      4029 1.63330E+01 2.49609E-01-7.27900E-03-1.76335E+00 4.23801E-14-3.06341E-15
 -1      4030 1.66441E+01 4.01520E-01-2.45686E-02-1.55367E+00 2.69637E-14 3.08157E-14
 -1      4031 1.55947E+01 7.19304E-01-1.29461E-02-7.61803E-01-1.77887E-14-3.12771E-15
 -1      4032 2.03941E+01 1.23018E-01 2.22038E-04 2.93919E-02 4.30471E-14-5.30648E-14
 -1      4033 2.03756E+01 6.24498E-02 2.42991E-05 3.98026E-02 4.38634E-14-4.22723E-14
 -1      4034 2.03550E+01 1.37083E-02 2.92401E-04 4.04518E-02 6.09341E-14-3.53560E-14
 -1      4035 2.03330E+01-2.37476E-02 2.04303E-04 4.57461E-02 7.69891E-14-1.09321E-14
 -1      4036 2.03748E+01 4.27366E-02-8.40221E-04 2.15789E-02 6.76530E-14-2.91910E-14
 -1      4037 2.03095E+01-5.27690E-02 2.89205E-04 4.46514E-02 2.10646E-14 1.04478E-14
 -1      4038 2.02862E+01-7.34322E-02 1.34585E-04 4.61871E-02-1.00661E-14-1.74444E-14
 -1      4039 2.03308E+01-3.67842E-02-7.61702E-04 2.50724E-02 4.47827E-14-8.07331E-14
 -1      4040 2.02630E+01-8.79283E-02 3.39888E-04 4.49614E-02-1.47593E-14-7.74988E-15
 -1      4041 2.02410E+01-9.70718E-02 2.50531E-04 4.41755E-02-1.88198E-14-9.00006E-15
 -1      4042 2.02828E+01-8.08997E-02-6.14515E-04 2.57619E-02-2.03679E-14-6.03760E-14
 -1      4043 2.02185E+01-1.01481E-01 2.40202E-04 4.22632E-02-1.44546E-14-1.03239E-14
 -1      4044 2.01990E+01-1.02184E-01 4.43457E-04 4.06408E-02-6.14048E-14 1.30715E-14
 -1      4045 2.02368E+01-1.00943E-01-7.16719E-04 2.40535E-02-3.71938E-14 1.61024E-14
 -1      4046 2.01782E+01-1.00038E-01 2.08994E-04 3.80111E-02-1.13647E-13 1.79360E-14
 -1      4047 2.01606E+01-9.48735E-02 3.73474E-04 3.59971E-02-1.30032E-13-1.99252E-14
 -1      4048 2.01950E+01-1.04231E-01-8.56200E-04 2.14505E-02-7.94215E-14-1.10491E-13
 -1      4049 2.01421E+01-8.76987E-02 1.86128E-04 3.38872E-02-1.18947E-13-8.64971E-15
 -1      4050 2.01266E+01-7.84994E-02 3.43616E-04 3.20293E-02-4.85653E-14-1.96455E-14
 -1      4051 2.01561E+01-9.41856E-02-8.72858E-04 1.93763E-02-1.01019E-13-3.71856E-14
 -1      4052 2.01101E+01-6.78983E-02 1.00836E-04 3.03020E-02 5.09474E-15-5.23770E-14
 -1      4053 2.00964E+01-5.56005E-02 2.94262E-04 2.89682E-02-3.94273E-14-3.69520E-14
 -1      4054 2.01221E+01-7.55921E-02-6.99032E-04 1.74616E-02-3.65711E-14-4.52103E-14
 -1      4055 2.00813E+01-4.22019E-02 1.12056E-05 2.78017E-02-1.70915E-14 2.72330E-14
 -1      4056 2.00687E+01-2.72547E-02 2.38230E-04 2.73087E-02-1.18157E-15 8.13192E-14
 -1      4057 2.00916E+01-5.03833E-02-4.78621E-04 1.60337E-02 1.40497E-14-8.52912E-14
 -1      4058 2.00542E+01-1.13006E-02-9.03279E-05 2.68330E-02-7.84262E-15 1.53165E-13
 -1      4059 2.00419E+01 6.26065E-03 1.76634E-04 2.74539E-02 9.72705E-15 1.90132E-13
 -1      4060 2.00633E+01-1.95616E-02-2.28750E-04 1.54220E-02 4.03893E-14 2.39569E-14
 -1      4061 2.00271E+01 2.48815E-02-2.07675E-04 2.77876E-02-3.04332E-14 2.06486E-13
 -1      4062 2.00142E+01 4.53276E-02 1.08807E-04 2.97725E-02-1.22807E-14 1.69645E-13
 -1      4063 2.00354E+01 1.67449E-02 5.33954E-05 1.58635E-02 8.81025E-15 1.07134E-13
 -1      4064 1.99977E+01 6.69842E-02-3.45123E-04 3.10415E-02-5.04917E-14 1.92780E-13
 -1      4065 1.99830E+01 9.07993E-02 3.21461E-05 3.46360E-02-6.23354E-14 1.28021E-13
 -1      4066 2.00058E+01 5.90520E-02 3.77686E-04 1.75714E-02-1.85233E-14 2.13572E-13
 -1      4067 1.99636E+01 1.16028E-01-5.07492E-04 3.69835E-02-2.70382E-14 8.22812E-14
 -1      4068 1.99457E+01 1.43817E-01-5.76640E-05 4.24383E-02 3.57454E-14 2.55307E-14
 -1      4069 1.99720E+01 1.08320E-01 7.58312E-04 2.07568E-02-3.87171E-14 1.51323E-13
 -1      4070 1.99217E+01 1.73227E-01-6.99957E-04 4.60289E-02 1.16668E-13-4.60494E-14
 -1      4071 1.98990E+01 2.05619E-01-1.66501E-04 5.36011E-02 1.37129E-13-8.48240E-14
 -1      4072 1.99310E+01 1.65761E-01 1.21294E-03 2.56361E-02 1.00048E-14 1.09382E-13
 -1      4073 1.98684E+01 2.39786E-01-9.27933E-04 5.86201E-02 9.91119E-14-1.30220E-13
 -1      4074 1.98391E+01 2.77310E-01-3.01711E-04 6.85661E-02-1.53943E-14-1.28457E-13
 -1      4075 1.98793E+01 2.32630E-01 1.76240E-03 3.24283E-02 7.62018E-14-9.82635E-14
 -1      4076 1.97998E+01 3.16646E-01-1.19724E-03 7.52148E-02-4.71155E-14-1.18736E-13
 -1      4077 1.97616E+01 3.59591E-01-4.72017E-04 8.77765E-02-6.22608E-14-9.45916E-14
 -1      4078 1.98130E+01 3.09984E-01 2.43101E-03 4.13427E-02 1.69337E-15-1.40741E-13
 -1      4079 1.97111E+01 4.04181E-01-1.51496E-03 9.62654E-02-2.54180E-14-1.08491E-13
 -1      4080 1.96616E+01 4.52411E-01-6.87399E-04 1.11657E-01-5.08328E-15 1.65886E-14
 -1      4081 1.97273E+01 3.98386E-01 3.24776E-03 5.25606E-02-5.63215E-14-1.05040E-13
 -1      4082 1.95970E+01 5.01811E-01-1.89156E-03 1.22199E-01-3.47309E-14 5.88881E-14
 -1      4083 1.95332E+01 5.54548E-01-9.58956E-04 1.40601E-01-3.14040E-14 7.75800E-14
 -1      4084 1.96170E+01 4.97554E-01 4.24950E-03 6.62127E-02 4.35903E-14 8.56100E-15
 -1      4085 1.94512E+01 6.07542E-01-2.34552E-03 1.53420E-01-3.55049E-14 6.95245E-14
 -1      4086 1.93699E+01 6.63113E-01-1.29894E-03 1.75007E-01-1.35789E-14 1.77913E-13
 -1      4087 1.94760E+01 6.05944E-01 5.48774E-03 8.23647E-02 1.95232E-14 2.73125E-14
 -1      4088 1.92665E+01 7.17441E-01-2.91237E-03 1.90365E-01-4.78716E-14 1.14267E-13
 -1      4089 1.91640E+01 7.73015E-01-1.72157E-03 2.15403E-01-1.18459E-13 1.46005E-14
 -1      4090 1.92972E+01 7.20300E-01 7.04189E-03 1.01029E-01-5.70904E-14-8.87100E-15
 -1      4091 1.90345E+01 8.25091E-01-3.66093E-03 2.33689E-01-1.02307E-13 2.01112E-14
 -1      4092 1.89062E+01 8.76448E-01-2.24653E-03 2.62775E-01-5.05124E-15-4.28916E-15
 -1      4093 1.90724E+01 8.35238E-01 9.04290E-03 1.22235E-01-4.19890E-14-1.51048E-13
 -1      4094 1.87443E+01 9.21131E-01-4.72149E-03 2.84688E-01 4.73121E-14 3.44883E-14
 -1      4095 1.85848E+01 9.62501E-01-2.90748E-03 3.19256E-01 1.08790E-13 2.69628E-14
 -1      4096 1.87912E+01 9.42948E-01 1.17066E-02 1.46187E-01-1.03834E-14 1.14158E-13
 -1      4097 1.83815E+01 9.93029E-01-6.32422E-03 3.46215E-01 8.79587E-14-9.32684E-14
 -1      4098 1.81834E+01 1.01700E+00-3.73584E-03 3.89548E-01 7.19021E-14-5.15015E-14
 -1      4099 1.84397E+01 1.03312E+00 1.53295E-02 1.73528E-01-1.90915E-14 1.90592E-14
 -1      4100 1.79245E+01 1.02543E+00-8.76084E-03 4.24951E-01 2.09943E-14-1.66066E-13
 -1      4101 1.76796E+01 1.02255E+00-4.28499E-03 4.83851E-01-4.99441E-14-2.01722E-13
 -1      4102 1.79961E+01 1.09273E+00 1.97885E-02 2.05567E-01-4.28750E-14-2.77302E-13
 -1      4103 1.73447E+01 9.99915E-01-1.13889E-02 5.36301E-01-2.82856E-14-1.31329E-13
 -1      4104 1.70551E+01 9.65688E-01 2.59774E-03 6.23001E-01-7.99077E-14-4.82556E-14
 -1      4105 1.74161E+01 1.09896E+00 1.95045E-02 2.43507E-01 5.20635E-14-3.38559E-13
 -1      4106 2.03387E+01 1.19859E-01-8.70316E-04-7.16902E-02 1.93751E-15-3.05602E-14
 -1      4107 2.03586E+01 1.91777E-01 1.09088E-03-4.90538E-02 1.31816E-14-1.90338E-14
 -1      4108 2.03872E+01 2.61633E-01 4.34028E-04-2.74314E-02 5.98128E-14 3.75267E-14
 -1      4109 2.03578E+01 1.06004E-01-1.54011E-04-6.09516E-02 1.74592E-14-4.46872E-14
 -1      4110 2.04190E+01 5.33772E-01-3.68575E-04-2.24860E-02 5.11793E-14-8.05252E-14
 -1      4111 2.04203E+01 4.00983E-01-1.07970E-03 1.91615E-03 1.97629E-14-8.06167E-14
 -1      4112 1.62361E+01 7.44476E-01 9.23862E-03 1.01103E+00-6.45085E-14 9.03166E-14
 -1      4113 1.56082E+01 8.08699E-01 2.16410E-02 7.33482E-01-3.24027E-14 1.43322E-13
 -1      4114 1.56289E+01 8.51493E-01-1.94594E-02 1.91334E-01 3.58690E-14 1.13261E-13
 -1      4115 1.65669E+01 8.64448E-01-1.50901E-02 7.83369E-01-1.09659E-13 7.95507E-14
 -1      4116 1.98644E+01 2.52543E-01-1.89814E-04-9.12388E-02-1.28294E-14 1.43751E-13
 -1      4117 1.98896E+01 2.17602E-01-8.53129E-04-7.85364E-02-3.98749E-14 1.10037E-13
 -1      4118 1.99172E+01 1.85553E-01-8.77055E-05-7.08117E-02 1.95487E-14 4.20224E-14
 -1      4119 1.99367E+01 1.55356E-01-6.39459E-04-6.13742E-02 4.62064E-14 6.43867E-14
 -1      4120 1.98962E+01 2.12954E-01 1.41709E-03-5.29635E-02-2.96300E-14 1.33099E-13
 -1      4121 1.97088E+01 4.15866E-01-4.32525E-04-1.52619E-01-8.45271E-14 3.66422E-14
 -1      4122 1.97509E+01 3.71034E-01-1.43307E-03-1.31893E-01-1.06628E-14 9.41362E-14
 -1      4123 1.95967E+01 5.10812E-01-5.68708E-04-1.95858E-01-8.32742E-14 1.67638E-14
 -1      4124 1.96504E+01 4.61887E-01-1.82415E-03-1.70255E-01-1.44921E-13 2.01372E-15
 -1      4125 1.96583E+01 4.63767E-01 3.54321E-03-1.14825E-01-7.16588E-14 1.20812E-13
 -1      4126 1.94547E+01 6.11175E-01-7.03329E-04-2.49401E-01 1.13080E-15-4.17898E-14
 -1      4127 1.95225E+01 5.59859E-01-2.30906E-03-2.18195E-01-2.31586E-14-1.18072E-14
 -1      4128 1.95307E+01 5.66319E-01 4.57849E-03-1.47763E-01-2.86664E-14-1.04977E-13
 -1      4129 1.92772E+01 7.11597E-01-8.16803E-04-3.15299E-01-1.14964E-13-6.55042E-15
 -1      4130 1.93613E+01 6.60819E-01-2.92409E-03-2.77502E-01-4.40102E-14 1.68935E-14
 -1      4131 1.93693E+01 6.74231E-01 5.85370E-03-1.88997E-01-2.62402E-14-9.75480E-14
 -1      4132 1.90579E+01 8.03685E-01-8.76663E-04-3.96602E-01 3.56416E-14 1.16747E-13
 -1      4133 1.91606E+01 7.57931E-01-3.73342E-03-3.50680E-01-3.51895E-14 4.48327E-14
 -1      4134 1.91673E+01 7.81906E-01 7.45398E-03-2.40576E-01-6.23005E-14-9.33434E-14
 -1      4135 1.87899E+01 8.75333E-01-8.37713E-04-4.98236E-01 2.32194E-14 1.05295E-13
 -1      4136 1.89133E+01 8.40953E-01-4.85397E-03-4.41570E-01 7.52807E-14 1.47497E-13
 -1      4137 1.89168E+01 8.80963E-01 9.52021E-03-3.05633E-01 2.05995E-14-1.08081E-13
 -1      4138 1.84649E+01 9.10133E-01-6.43814E-04-6.28657E-01-1.58464E-14 1.62651E-13
 -1      4139 1.86107E+01 8.95605E-01-6.50057E-03-5.56474E-01 2.12115E-14 1.29143E-13
 -1      4140 1.86079E+01 9.59900E-01 1.22760E-02-3.89173E-01 1.80529E-14-6.38708E-14
 -1      4141 1.80736E+01 8.87114E-01 2.92103E-04-8.03118E-01-1.55691E-15 1.49482E-13
 -1      4142 1.82414E+01 9.03481E-01-8.99488E-03-7.06498E-01-7.68634E-14 2.16719E-13
 -1      4143 1.82270E+01 1.00407E+00 1.59550E-02-4.99310E-01-6.86185E-14 2.22301E-13
 -1      4144 1.75968E+01 7.67522E-01-1.27447E-03-1.05497E+00 8.74948E-14 1.09165E-13
 -1      4145 1.77892E+01 8.38658E-01-1.31499E-02-9.15300E-01 7.17800E-14 1.98776E-13
 -1      4146 1.77463E+01 9.95604E-01 1.90154E-02-6.50864E-01 3.72436E-14 1.54560E-13
 -1      4147 1.70545E+01 5.50843E-01-1.82557E-04-1.38128E+00 6.81737E-14-4.62227E-14
 -1      4148 1.72766E+01 6.88373E-01-1.54803E-02-1.17104E+00 9.55364E-14-2.25651E-14
 -1      4149 1.71820E+01 8.77376E-01 5.98759E-03-8.66524E-01 2.13010E-13-1.21434E-13
 -1      4150 1.65190E+01 7.52591E-01 2.36320E-02-1.09729E+00 5.51873E-14-2.79470E-13
 -1      4151 2.04205E+01 2.90580E-01 6.16712E-04 9.01892E-03 1.78225E-14-6.23868E-14
 -1      4152 2.04082E+01 1.98418E-01-3.27419E-04 2.61724E-02 4.28068E-14-5.72505E-14
 -1      4153 2.04275E+01 3.60577E-01-2.68126E-04 2.10668E-03 3.19427E-14-8.45274E-14
 -1      4154 1.97964E+01 3.29348E-01-3.04892E-04-1.18157E-01 1.15564E-14 8.24863E-14
 -1      4155 1.98290E+01 2.89391E-01-1.11414E-03-1.01708E-01 5.41557E-14 1.08019E-13
 -1      4156 1.98359E+01 2.86182E-01 1.99506E-03-6.84123E-02-6.90766E-15 1.48870E-13
 -1      4157 1.97582E+01 3.69876E-01 2.69435E-03-8.87394E-02-1.21093E-14 1.51015E-13
 -1      4158 2.03878E+01 7.75501E-01-1.69883E-03-5.49312E-02 6.95556E-14-6.27720E-14
 -1      4159 2.00200E+01 3.53824E-02 1.57580E-04-3.99154E-02 1.97441E-15 2.14104E-15
 -1      4160 2.00314E+01 1.61859E-02-1.98778E-04-3.78143E-02-2.87944E-15 5.57732E-14
 -1      4161 2.00972E+01-5.94152E-02 3.36197E-04-4.07093E-02-1.39875E-13 1.49763E-13
 -1      4162 2.01101E+01-7.08552E-02 9.30520E-05-4.28343E-02-1.21535E-13 9.61479E-14
 -1      4163 2.01265E+01-8.06112E-02 3.73893E-04-4.54029E-02-7.23790E-14 7.50978E-14
 -1      4164 2.01413E+01-8.88712E-02 2.00272E-04-4.82315E-02-3.18961E-14 6.72666E-14
 -1      4165 2.01246E+01-7.90763E-02-8.27172E-04-3.14259E-02-1.13752E-13 1.01938E-13
 -1      4166 2.03815E+01 7.92561E-01-9.22735E-04 7.67230E-02 2.40399E-14 2.77351E-15
 -1      4167 2.04103E+01 6.51633E-01 2.75578E-03 4.68743E-02 2.03917E-14-2.10635E-14
 -1      4168 2.03276E+01-1.19353E-02-1.32307E-04-6.27032E-02 1.72347E-14-4.60770E-14
 -1      4169 2.03506E+01 2.88610E-02 7.68263E-04-5.56963E-02 2.31756E-14-3.51375E-14
 -1      4170 2.02186E+01-7.91523E-02 1.74629E-04-1.01110E-01 2.50522E-14-6.08513E-14
 -1      4171 2.02377E+01-6.49657E-02 4.19964E-04-1.01968E-01 5.26198E-14-6.10333E-14
 -1      4172 2.02734E+01-5.41351E-02-6.03494E-04-8.35870E-02 2.95554E-14-8.77888E-15
 -1      4173 2.04103E+01 1.70751E-01-5.12235E-04 1.43469E-02 4.42388E-14-7.45784E-14
 -1      4174 2.03684E+01 7.98190E-02-5.21233E-04-5.27043E-02 2.55532E-14 2.85735E-16
 -1      4175 2.03886E+01 1.44957E-01 8.99410E-04-3.87601E-02 4.37137E-14 2.18178E-14
 -1      4176 2.03743E+01 6.14958E-02-8.76373E-04-3.73388E-02 5.35625E-14-8.90470E-15
 -1      4177 2.01599E+01-9.52597E-02 4.11148E-04-5.12787E-02-6.17650E-14 5.09032E-14
 -1      4178 2.01781E+01-9.94766E-02 5.40051E-04-5.47468E-02-5.91106E-14-1.65539E-14
 -1      4179 2.01587E+01-9.58621E-02-9.10198E-04-3.50912E-02-6.06438E-14 1.14658E-13
 -1      4180 2.04153E+01 6.34683E-01 2.04126E-03-2.77328E-02 5.08156E-14-7.18078E-14
 -1      4181 2.04226E+01 5.74781E-01 1.80833E-04-1.19523E-02 3.75914E-14-8.96789E-14
 -1      4182 1.99918E+01 7.80631E-02 8.39945E-05-4.58938E-02-2.09502E-14 4.10428E-14
 -1      4183 2.00047E+01 5.57646E-02-3.19894E-04-4.17173E-02 7.84591E-15 3.07310E-16
 -1      4184 2.00122E+01 4.84349E-02 1.89850E-04-2.91108E-02 1.33359E-14-3.78245E-14
 -1      4185 2.00823E+01-4.68949E-02 1.21152E-06-3.89194E-02-5.31785E-14 1.68050E-13
 -1      4186 2.00945E+01-5.54668E-02-6.19070E-04-2.84492E-02-1.02730E-13 8.74789E-14
 -1      4187 2.00707E+01-3.28577E-02 2.85006E-04-3.78623E-02-1.51126E-14 1.50568E-13
 -1      4188 1.66358E+01 9.93738E-01 1.11655E-02 4.16140E-01-2.01224E-14-7.62736E-15
 -1      4189 1.99433E+01 1.49632E-01 9.36834E-04-4.16609E-02 3.18024E-14-3.22412E-14
 -1      4190 1.99585E+01 1.27737E-01 2.86716E-06-5.59619E-02 3.46722E-14 7.76583E-14
 -1      4191 1.99740E+01 1.01783E-01-4.64340E-04-4.93524E-02-3.40456E-15 7.65913E-14
 -1      4192 2.01905E+01-9.84629E-02-9.81195E-04-7.70591E-02-8.04660E-15-5.51321E-14
 -1      4193 2.01807E+01-9.26548E-02 3.23572E-04-9.39363E-02 1.06583E-14 3.27681E-15
 -1      4194 2.01980E+01-8.78444E-02 4.36369E-04-9.74047E-02 1.76735E-14-3.92980E-14
 -1      4195 2.00455E+01-1.34479E-03 2.24694E-04-3.74209E-02-9.48662E-16 8.76639E-14
 -1      4196 2.00567E+01-1.78617E-02-9.40045E-05-3.70626E-02 4.21385E-15 9.72112E-14
 -1      4197 2.00401E+01 8.23265E-03-1.09977E-04-2.68815E-02 3.12407E-14-6.08795E-14
 -1      4198 2.04226E+01 5.66577E-01-6.91743E-04 1.19309E-02 2.27057E-14-1.12821E-13
 -1      4199 2.04229E+01 5.71528E-01-1.37198E-03-8.53647E-04 3.47359E-14-9.48087E-14
 -1      4200 2.04340E+01 4.83050E-01 1.65304E-03-1.40666E-03 2.56432E-14-1.04820E-13
 -1      4201 2.04116E+01 5.01565E-01-1.01004E-03 1.43525E-02 5.11120E-14 1.19067E-15
 -1      4202 2.03828E+01 5.17326E-02 2.58464E-04-9.43288E-03 5.78023E-14-3.90356E-14
 -1      4203 2.03619E+01 4.60088E-03 8.77619E-04-6.98591E-03 6.98627E-14-3.24434E-14
 -1      4204 2.03983E+01 2.22044E-01-1.51657E-03-3.12812E-02 5.26152E-14 7.35908E-15
 -1      4205 2.04128E+01 3.18541E-01 6.61428E-04-7.66190E-03 6.20266E-14 2.38128E-14
 -1      4206 2.04082E+01 1.99013E-01-2.31212E-04-2.30133E-02 5.33391E-14-1.52964E-14
 -1      4207 2.03006E+01-7.33277E-02 3.95719E-04 5.29874E-03 3.81170E-14-5.79549E-14
 -1      4208 2.02764E+01-8.89990E-02 4.40507E-04 5.62250E-03-1.05838E-14-4.03600E-14
 -1      4209 2.02527E+01-9.88116E-02 2.89760E-04 4.39190E-03-5.84405E-14 4.59892E-15
 -1      4210 2.02316E+01-1.03603E-01 6.77759E-04 4.22834E-03-3.28453E-14-1.67267E-15
 -1      4211 2.02630E+01-9.49015E-02-8.92501E-04-1.59945E-02 4.77078E-15-3.62258E-15
 -1      4212 2.02007E+01-1.03282E-01 2.92215E-04-7.83462E-03-4.23142E-14-1.35975E-14
 -1      4213 2.01812E+01-9.98792E-02 6.07419E-04-7.53408E-03-9.01626E-14 2.64076E-14
 -1      4214 2.01629E+01-9.40472E-02 5.73550E-04-6.62412E-03-8.73582E-14 4.47461E-14
 -1      4215 2.01445E+01-8.64566E-02 5.32691E-04-6.79989E-03-4.62013E-14 7.81604E-14
 -1      4216 2.01281E+01-7.64552E-02 5.32928E-04-5.87111E-03-9.30473E-14 4.53852E-14
 -1      4217 2.01115E+01-6.53743E-02 4.13660E-04-6.10950E-03-8.33878E-14 4.33106E-15
 -1      4218 2.00966E+01-5.23679E-02 3.87699E-04-5.47474E-03-5.49199E-14-2.40947E-14
 -1      4219 2.00814E+01-3.83674E-02 2.69793E-04-5.56793E-03-4.09675E-14-5.77366E-14
 -1      4220 2.00674E+01-2.27625E-02 2.09170E-04-5.45304E-03 4.30666E-14-3.91022E-14
 -1      4221 2.00528E+01-6.02703E-03 1.13155E-04-5.31043E-03 6.43972E-14-2.94549E-14
 -1      4222 2.00387E+01 1.21659E-02 4.11430E-06-5.88647E-03 3.94797E-14-4.94473E-14
 -1      4223 2.00238E+01 3.17993E-02-6.01160E-05-5.44040E-03 2.50102E-14 4.14616E-15
 -1      4224 2.00084E+01 5.28623E-02-2.31049E-04-6.86813E-03-2.55948E-15 3.84397E-14
 -1      4225 1.99920E+01 7.58094E-02-2.58415E-04-6.06217E-03-1.95177E-14 8.30450E-14
 -1      4226 1.99741E+01 1.00220E-01-5.04070E-04-8.51019E-03-1.57242E-14 5.26103E-14
 -1      4227 1.99547E+01 1.27055E-01-4.92827E-04-7.29682E-03-1.65348E-14 3.30706E-14
 -1      4228 1.99327E+01 1.55389E-01-8.25312E-04-1.09530E-02-1.42033E-14 1.30602E-13
 -1      4229 1.99087E+01 1.86749E-01-7.76829E-04-9.29593E-03 3.01983E-14 9.23146E-14
 -1      4230 1.98809E+01 2.19572E-01-1.20716E-03-1.43762E-02 4.07690E-15 1.01011E-13
 -1      4231 1.98502E+01 2.56039E-01-1.12652E-03-1.22567E-02 2.52925E-14 4.31183E-14
 -1      4232 1.98145E+01 2.93781E-01-1.66389E-03-1.90140E-02 7.07154E-15 1.93879E-14
 -1      4233 1.97751E+01 3.35750E-01-1.56137E-03-1.64405E-02-6.19369E-14-4.01687E-14
 -1      4234 1.97291E+01 3.78545E-01-2.21233E-03-2.51764E-02-5.88930E-14 1.68884E-14
 -1      4235 1.96783E+01 4.26048E-01-2.10585E-03-2.21982E-02-3.82756E-14 5.43850E-14
 -1      4236 1.96193E+01 4.73544E-01-2.87368E-03-3.32843E-02-9.52529E-15 5.73885E-14
 -1      4237 1.95542E+01 5.26049E-01-2.79269E-03-3.00059E-02 7.48768E-14 1.23245E-14
 -1      4238 1.94792E+01 5.77171E-01-3.67791E-03-4.39248E-02 7.92281E-14-1.10274E-13
 -1      4239 1.93963E+01 6.33349E-01-3.66909E-03-4.05181E-02-1.62180E-14-4.05085E-14
 -1      4240 1.93019E+01 6.86037E-01-4.67237E-03-5.79420E-02-7.67491E-14-4.76315E-14
 -1      4241 1.91971E+01 7.43514E-01-4.80790E-03-5.46506E-02-5.35280E-14-1.39908E-13
 -1      4242 1.90793E+01 7.94453E-01-5.93677E-03-7.65860E-02-1.08190E-15-1.71335E-13
 -1      4243 1.89476E+01 8.49595E-01-6.32566E-03-7.37159E-02 1.69927E-14-4.95645E-14
 -1      4244 1.88014E+01 8.93977E-01-7.60281E-03-1.01750E-01 6.25029E-14-3.89042E-14
 -1      4245 1.86364E+01 9.41765E-01-8.40094E-03-9.96585E-02 4.39711E-14-5.99587E-14
 -1      4246 1.84553E+01 9.73185E-01-9.84325E-03-1.36316E-01-1.23365E-13 3.15441E-14
 -1      4247 1.82481E+01 1.00727E+00-1.12120E-02-1.35491E-01-1.33773E-13-4.03942E-14
 -1      4248 1.80238E+01 1.01823E+00-1.25433E-02-1.84403E-01-7.71092E-14-1.01238E-14
 -1      4249 1.77625E+01 1.03134E+00-1.42189E-02-1.85855E-01-3.99884E-14-9.23052E-14
 -1      4250 1.74843E+01 1.01939E+00-1.23169E-02-2.49439E-01 8.78206E-14-1.08283E-13
 -1      4251 1.71762E+01 1.01139E+00-6.90899E-03-2.62904E-01 1.94761E-13-1.08411E-13
 -1      4252 2.04162E+01 1.82811E-01-2.96277E-04-8.05137E-03 3.87048E-14-6.79465E-14
 -1      4253 2.04025E+01 1.09747E-01 9.18628E-04-4.03348E-03 4.09314E-14-6.09408E-14
 -1      4254 1.57983E+01 9.36689E-01 2.22909E-02-2.46477E-01 1.58304E-14 1.14352E-13
 -1      4255 1.61121E+01 7.98433E-01-1.13621E-02-7.49006E-01 5.36234E-14-2.58669E-14
 -1      4256 1.65402E+01 8.87554E-01-5.08453E-03-6.32965E-01 1.28688E-13-8.59088E-14
 -1      4257 1.61837E+01 9.43583E-01 2.09155E-03 1.17378E-01 3.63856E-14 1.28297E-13
 -1      4258 2.04300E+01 3.60467E-01-8.00424E-04 1.70551E-03 3.98136E-14-8.17709E-14
 -1      4259 1.66333E+01 9.99327E-01-1.32945E-02-1.38357E-02 1.09636E-13-1.06630E-13
 -1      4260 2.03063E+01-4.27513E-02 6.83337E-04-6.24137E-02 1.20968E-14-4.55728E-14
 -1      4261 2.03315E+01-2.53021E-02-9.82255E-04-4.39802E-02 4.40834E-14-3.65876E-14
 -1      4262 2.02840E+01-6.50459E-02 3.94902E-04-6.40224E-02 2.74484E-14-1.89466E-14
 -1      4263 2.03388E+01-3.10894E-02 3.20511E-04-1.00519E-02 4.84049E-14-4.88537E-14
 -1      4264 1.99809E+01 9.51914E-02 5.33737E-04-3.38857E-02-2.73028E-14-3.04185E-14
 -1      4265 2.03144E+01-5.87655E-02 4.77002E-04-8.71246E-03 3.41827E-14-7.09729E-14
 -1      4266 2.02991E+01-7.06703E-02-8.64072E-04-3.14586E-02 3.55974E-14-8.12322E-14
 -1      4267 2.02077E+01-1.03585E-01-8.90140E-04-2.61409E-02-3.81972E-14 2.06657E-14
 -1      4268 1.68621E+01 9.74190E-01 3.98802E-03-5.35012E-01 2.08327E-13-5.16795E-14
 -1      4269 2.02308E+01-8.65030E-02-8.76509E-04-8.24382E-02 1.69355E-14-3.28346E-14
 -1      4270 2.00668E+01-2.62713E-02-3.77441E-04-2.67914E-02 8.39729E-15-5.12736E-15
 -1      4271 2.02099E+01-1.01029E-01 2.23590E-04-4.50084E-02-2.26699E-14 2.36231E-15
 -1      4272 2.02306E+01-9.76862E-02 6.34567E-04-4.69211E-02 1.08524E-15 1.73780E-14
 -1      4273 2.04223E+01 4.59999E-01-3.17922E-04 6.36688E-03 4.39570E-14-6.50562E-14
 -1      4274 2.02751E+01-7.77247E-02 5.24288E-04-4.96143E-02 3.28606E-14-4.11846E-14
 -1      4275 2.02540E+01-8.98392E-02 3.90455E-04-4.88305E-02 3.50625E-14-2.14352E-14
 -1      4276 2.04289E+01 2.73187E-01 1.58229E-03-1.24812E-03 5.30312E-14-6.76548E-14
 -1      4277 2.04281E+01 3.76328E-01-1.18400E-05-1.49388E-03 5.04206E-14-7.66055E-14
 -3
    1PSTEP                         3           1           1          
  100CL  101 1.000000000        4277                     0    1           1
 -4  TOSTRAIN    6    1
 -5  EXX         1    4    1    1
 -5  EYY         1    4    2    2
 -5  EZZ         1    4    3    3
 -5  EXY         1    4    1    2
 -5  EYZ         1    4    2    3
 -5  EZX         1    4    3    1
 -1         1 1.13010E-04 1.11841E-05-4.90319E-05 1.05313E-04-3.06541E-18-5.44388E-18
 -1         2 4.44845E-05-1.35609E-04 2.41999E-05-1.16177E-06 2.47616E-18-1.10765E-18
 -1         3 9.52396E-05-2.85497E-05-2.83858E-05 1.62835E-07-1.25092E-18-4.43340E-19
 -1         4 9.51840E-05-2.86133E-05-2.83101E-05-7.04939E-08 6.38961E-19 3.36001E-19
 -1         5 1.43349E-04-2.14784E-05-4.25292E-05 3.85311E-05-1.00797E-19 5.73473E-18
 -1         6 1.45410E-04 2.57585E-10-4.41884E-05-5.35261E-05-3.93870E-19 1.63573E-18
 -1         7 9.06119E-05-5.11362E-07-3.90693E-05-2.92504E-05-7.09390E-20-1.36536E-18
 -1         8 8.51268E-05 8.64483E-08-3.63402E-05-2.02683E-05-2.32934E-20-1.86178E-18
 -1         9 8.28144E-05 7.68632E-08-3.53515E-05-1.56387E-05 1.49819E-20-1.95773E-18
 -1        10 8.17756E-05 3.86822E-08-3.48820E-05-1.20761E-05 1.31886E-20-1.86132E-18
 -1        11 8.12521E-05 1.95042E-08-3.46524E-05-9.01077E-06 3.30343E-20-1.68489E-18
 -1        12 8.09813E-05 9.24774E-09-3.45377E-05-6.28218E-06 2.90473E-20-1.55612E-18
 -1        13 8.08391E-05 4.63701E-09-3.44796E-05-3.68424E-06 3.41791E-20-1.33029E-18
 -1        14 8.07796E-05 2.78192E-09-3.44559E-05-1.18322E-06 3.92789E-20-1.12637E-18
 -1        15 8.07817E-05 2.77177E-09-3.44566E-05 1.28841E-06 6.46489E-20-9.55858E-19
 -1        16 8.08457E-05 4.55828E-09-3.44819E-05 3.79454E-06 4.91147E-20-7.27017E-19
 -1        17 8.09933E-05 8.43459E-09-3.45415E-05 6.40470E-06 7.64910E-20-4.65542E-19
 -1        18 8.12694E-05 1.81881E-08-3.46578E-05 9.15318E-06 6.08375E-20-1.68126E-19
 -1        19 8.17974E-05 3.81936E-08-3.48901E-05 1.22550E-05 9.18237E-20 3.41202E-19
 -1        20 8.28376E-05 8.14942E-08-3.53641E-05 1.58678E-05 7.18522E-20 9.71960E-19
 -1        21 8.50930E-05 1.69376E-07-3.63784E-05 2.04800E-05 9.41265E-20 2.03987E-18
 -1        22 9.16486E-05-9.98473E-08-3.87408E-05 2.79980E-05 1.60936E-20 3.56572E-18
 -1        23 1.12983E-04-3.81293E-05-3.53993E-05-4.40220E-06-2.72850E-19 3.52789E-19
 -1        24 9.28166E-05-2.77006E-05-2.90028E-05 3.91285E-07-6.03312E-20-5.93122E-19
 -1        25 8.91348E-05-2.68568E-05-2.69339E-05 3.76110E-07-2.47327E-20-1.47948E-18
 -1        26 8.80352E-05-2.64943E-05-2.63974E-05 2.04234E-07 9.31645E-20-1.77966E-18
 -1        27 8.80650E-05-2.64736E-05-2.63907E-05 1.39993E-07-5.08724E-20-2.11772E-18
 -1        28 8.86021E-05-2.66110E-05-2.65613E-05 1.01037E-07-1.70460E-19-2.35578E-18
 -1        29 8.93605E-05-2.68247E-05-2.67949E-05 7.53854E-08 6.23840E-20-2.38800E-18
 -1        30 9.01884E-05-2.70654E-05-2.70459E-05 5.70972E-08 4.95906E-20-2.05733E-18
 -1        31 9.10008E-05-2.73046E-05-2.72910E-05 4.33457E-08-7.76036E-20-2.53274E-18
 -1        32 9.17504E-05-2.75269E-05-2.75169E-05 3.26908E-08-1.50803E-19-2.97317E-18
 -1        33 9.24136E-05-2.77242E-05-2.77168E-05 2.43194E-08 1.25170E-19-3.79974E-18
 -1        34 9.29814E-05-2.78937E-05-2.78881E-05 1.77137E-08-5.30548E-21-3.54280E-18
 -1        35 9.34547E-05-2.80352E-05-2.80311E-05 1.25059E-08-1.47143E-19-4.14462E-18
 -1        36 9.38403E-05-2.81508E-05-2.81476E-05 8.41355E-09 1.87364E-19-3.92651E-18
 -1        37 9.41485E-05-2.82433E-05-2.82409E-05 5.21131E-09-1.58353E-19-3.27172E-18
 -1        38 9.43917E-05-2.83165E-05-2.83147E-05 2.71795E-09-4.08423E-20-3.42864E-18
 -1        39 9.45837E-05-2.83745E-05-2.83730E-05 7.91594E-10-1.00541E-19-3.14415E-18
 -1        40 9.47392E-05-2.84216E-05-2.84204E-05-6.71461E-10-3.40516E-19-3.33851E-18
 -1        41 9.48742E-05-2.84626E-05-2.84616E-05-1.73564E-09 3.59296E-19-4.13074E-18
 -1        42 9.50058E-05-2.85028E-05-2.85019E-05-2.42291E-09-1.02148E-19-3.25569E-18
 -1        43 9.51536E-05-2.85478E-05-2.85472E-05-2.70737E-09 1.26643E-19-1.25561E-18
 -1        44 9.53402E-05-2.86047E-05-2.86043E-05-2.50723E-09-2.33375E-19-1.03131E-18
 -1        45 9.55923E-05-2.86813E-05-2.86813E-05-1.67324E-09 7.63932E-21-1.87869E-18
 -1        46 9.59420E-05-2.87874E-05-2.87880E-05 2.67301E-11-7.16054E-20-2.83018E-18
 -1        47 9.64279E-05-2.89343E-05-2.89359E-05 2.92763E-09 3.76572E-19-2.18500E-19
 -1        48 9.70960E-05-2.91361E-05-2.91391E-05 7.49055E-09 4.33000E-20 1.14695E-18
 -1        49 9.80002E-05-2.94085E-05-2.94138E-05 1.43253E-08 1.96350E-19-6.13421E-19
 -1        50 9.92013E-05-2.97698E-05-2.97781E-05 2.41999E-08-3.18374E-19-1.22579E-18
 -1        51 1.00764E-04-3.02390E-05-3.02514E-05 3.80075E-08 1.83253E-19-1.15797E-18
 -1        52 1.02750E-04-3.08338E-05-3.08514E-05 5.66262E-08-5.72943E-19-7.52903E-19
 -1        53 1.05200E-04-3.15665E-05-3.15893E-05 8.05406E-08 1.03661E-19-2.38277E-18
 -1        54 1.08113E-04-3.24352E-05-3.24616E-05 1.08994E-07-2.80283E-19-3.58460E-18
 -1        55 1.11393E-04-3.34113E-05-3.34353E-05 1.38326E-07 4.47158E-19-4.20934E-18
 -1        56 1.14788E-04-3.44193E-05-3.44274E-05 1.59181E-07-2.88912E-19-2.84205E-18
 -1        57 1.17802E-04-3.53121E-05-3.52810E-05 1.52891E-07 1.56673E-19-3.27913E-18
 -1        58 1.19618E-04-3.58486E-05-3.57473E-05 8.92438E-08 7.31741E-20-3.41102E-18
 -1        59 1.19109E-04-3.56964E-05-3.55016E-05-6.76906E-08-2.53731E-19-4.06096E-18
 -1        60 1.15081E-04-3.44991E-05-3.42289E-05-3.34553E-07-1.03894E-19-4.29668E-18
 -1        61 1.06861E-04-3.20509E-05-3.17981E-05-6.62669E-07 7.42385E-19-3.11449E-18
 -1        62 9.51622E-05-2.85538E-05-2.84766E-05-9.00606E-07-5.87625E-19-5.16055E-18
 -1        63 8.26285E-05-2.47937E-05-2.50113E-05-8.47067E-07 1.91069E-19-7.68968E-18
 -1        64 7.31519E-05-2.19456E-05-2.24045E-05-4.26895E-07 6.99332E-20-7.14223E-18
 -1        65 6.97767E-05-2.09360E-05-2.14056E-05 1.68231E-07-9.50232E-20-6.56655E-18
 -1        66 7.27197E-05-2.18338E-05-2.20705E-05 6.08220E-07 3.57468E-19-4.25163E-18
 -1        67 7.92936E-05-2.38158E-05-2.37649E-05 6.82816E-07 5.96248E-19-1.59727E-18
 -1        68 8.59611E-05-2.58105E-05-2.56077E-05 4.78380E-07-2.03759E-19-6.87103E-19
 -1        69 9.05701E-05-2.71770E-05-2.69999E-05 2.24565E-07 6.12883E-19 6.22781E-19
 -1        70 9.30626E-05-2.79083E-05-2.78245E-05 1.25462E-07-1.31317E-19 2.60136E-18
 -1        71 9.45599E-05-2.83708E-05-2.82372E-05 1.58070E-07-5.16706E-19 1.96120E-18
 -1        72 1.02186E-04-3.05896E-05-3.41524E-05-1.92927E-06 6.16746E-20 5.94787E-18
 -1        73 9.25734E-05-2.75169E-05-2.89112E-05-3.33301E-07-1.98457E-20 5.70367E-18
 -1        74 8.91227E-05-2.67063E-05-2.69772E-05-1.25970E-07 5.28320E-21 5.55157E-18
 -1        75 8.80651E-05-2.64451E-05-2.64416E-05-9.56413E-08 4.09413E-21 5.25722E-18
 -1        76 8.80997E-05-2.64536E-05-2.64174E-05-7.66770E-08 1.17768E-19 4.80665E-18
 -1        77 8.86362E-05-2.66054E-05-2.65785E-05-6.26413E-08-7.83423E-20 4.57339E-18
 -1        78 8.93919E-05-2.68260E-05-2.68073E-05-5.18838E-08-7.01859E-20 4.95585E-18
 -1        79 9.02164E-05-2.70700E-05-2.70554E-05-4.30358E-08 1.90149E-20 4.65425E-18
 -1        80 9.10251E-05-2.73107E-05-2.72983E-05-3.54340E-08-1.43973E-19 4.26107E-18
 -1        81 9.17711E-05-2.75333E-05-2.75226E-05-2.88115E-08 2.30204E-19 3.86951E-18
 -1        82 9.24308E-05-2.77305E-05-2.77211E-05-2.30507E-08-5.42169E-21 3.37724E-18
 -1        83 9.29955E-05-2.78994E-05-2.78914E-05-1.80753E-08 6.51750E-20 3.13385E-18
 -1        84 9.34661E-05-2.80403E-05-2.80335E-05-1.38117E-08-6.60353E-20 3.44903E-18
 -1        85 9.38492E-05-2.81551E-05-2.81494E-05-1.01785E-08-1.61352E-19 4.12880E-18
 -1        86 9.41553E-05-2.82469E-05-2.82422E-05-7.08666E-09 8.03900E-20 2.82993E-18
 -1        87 9.43968E-05-2.83193E-05-2.83156E-05-4.44345E-09-1.36967E-19 3.02177E-18
 -1        88 9.45873E-05-2.83766E-05-2.83736E-05-2.15821E-09 4.46515E-20 3.21516E-18
 -1        89 9.47418E-05-2.84231E-05-2.84209E-05-1.47667E-10 3.13602E-19 1.93513E-18
 -1        90 9.48759E-05-2.84635E-05-2.84620E-05 1.65812E-09-1.48358E-19 1.69175E-18
 -1        91 9.50070E-05-2.85031E-05-2.85023E-05 3.30898E-09 1.60391E-19 1.35476E-18
 -1        92 9.51544E-05-2.85477E-05-2.85477E-05 4.82643E-09 4.89004E-20 5.73002E-19
 -1        93 9.53407E-05-2.86040E-05-2.86050E-05 6.19279E-09-2.43131E-19 1.01966E-18
 -1        94 9.55922E-05-2.86798E-05-2.86821E-05 7.33628E-09 1.25413E-19 7.29867E-19
 -1        95 9.59405E-05-2.87848E-05-2.87886E-05 8.10991E-09 7.44140E-20 2.69602E-19
 -1        96 9.64230E-05-2.89299E-05-2.89359E-05 8.26194E-09 6.06980E-20 7.11801E-19
 -1        97 9.70835E-05-2.91283E-05-2.91372E-05 7.39523E-09-2.32039E-19 3.06062E-18
 -1        98 9.79724E-05-2.93950E-05-2.94075E-05 4.91419E-09-4.92879E-20 3.56732E-18
 -1        99 9.91444E-05-2.97461E-05-2.97631E-05-3.77604E-11-3.06694E-20 1.38196E-18
 -1       100 1.00655E-04-3.01979E-05-3.02203E-05-8.63432E-09 1.29684E-19 1.46588E-18
 -1       101 1.02549E-04-3.07640E-05-3.07920E-05-2.23701E-08 9.88729E-21 1.43189E-18
 -1       102 1.04849E-04-3.14502E-05-3.14830E-05-4.29032E-08-2.01079E-19 1.90943E-18
 -1       103 1.07523E-04-3.22470E-05-3.22807E-05-7.15130E-08 9.44052E-20 2.87161E-18
 -1       104 1.10442E-04-3.31167E-05-3.31422E-05-1.07783E-07-2.31322E-19 4.23966E-18
 -1       105 1.13326E-04-3.39763E-05-3.39764E-05-1.46982E-07 8.30154E-20 5.23699E-18
 -1       106 1.15671E-04-3.46784E-05-3.46263E-05-1.75971E-07-3.23711E-19 4.08675E-18
 -1       107 1.16708E-04-3.49981E-05-3.48616E-05-1.69190E-07-1.68651E-19 1.41770E-18
 -1       108 1.15462E-04-3.46467E-05-3.44060E-05-8.99426E-08 7.83218E-19-9.68132E-19
 -1       109 1.11000E-04-3.33413E-05-3.30207E-05 9.33048E-08-2.57485E-19 3.52498E-19
 -1       110 1.02951E-04-3.09544E-05-3.06551E-05 3.67841E-07-6.43170E-19 9.73532E-19
 -1       111 9.21740E-05-2.77174E-05-2.76024E-05 6.35145E-07 4.69164E-19 1.06176E-18
 -1       112 8.10581E-05-2.43330E-05-2.45326E-05 7.31056E-07-7.70901E-19 3.03865E-18
 -1       113 7.28442E-05-2.17988E-05-2.22776E-05 5.39913E-07 6.36286E-19 2.96822E-18
 -1       114 6.99625E-05-2.08954E-05-2.14294E-05 1.29247E-07-1.59733E-18 2.28594E-18
 -1       115 7.25263E-05-2.16837E-05-2.20186E-05-2.74103E-07 1.43522E-19 5.01060E-18
 -1       116 7.83669E-05-2.34900E-05-2.35312E-05-4.66247E-07 3.27655E-19 9.98175E-19
 -1       117 8.46133E-05-2.54080E-05-2.52549E-05-4.21261E-07 3.60714E-19-3.33977E-18
 -1       118 8.94313E-05-2.68609E-05-2.66832E-05-2.74173E-07-5.75821E-20-3.24645E-18
 -1       119 9.25784E-05-2.77850E-05-2.76636E-05-1.83609E-07 4.54088E-19-3.27350E-18
 -1       120 9.45732E-05-2.84088E-05-2.82257E-05-2.08133E-07 4.67460E-19-3.77164E-18
 -1       121 9.54146E-05-2.92741E-05-2.82939E-05-3.12677E-07-4.79472E-18 1.44613E-19
 -1       122 9.58738E-05-3.08281E-05-2.80037E-05-3.33674E-07-6.62798E-18-1.57552E-19
 -1       123 9.57607E-05-3.04440E-05-2.83344E-05-1.39860E-07-3.29429E-18 9.05265E-19
 -1       124 9.42805E-05-2.54472E-05-2.99943E-05 2.79936E-07-5.17496E-18-1.21345E-18
 -1       125 9.09102E-05-1.40900E-05-3.33938E-05 8.62708E-07-8.22548E-18-1.30180E-18
 -1       126 8.57913E-05 3.08611E-06-3.82554E-05 1.36884E-06-5.14530E-18 1.71941E-19
 -1       127 8.01231E-05 2.19784E-05-4.33820E-05 1.39452E-06-9.52436E-19 8.72080E-19
 -1       128 7.60576E-05 3.55403E-05-4.69590E-05 7.54075E-07 2.24143E-18 4.90439E-19
 -1       129 7.52827E-05 3.80660E-05-4.76196E-05-3.71919E-07 3.66794E-18-1.65809E-18
 -1       130 7.82254E-05 2.83335E-05-4.50822E-05-1.22567E-06-4.63375E-18 1.81461E-18
 -1       131 8.35052E-05 1.07343E-05-4.03744E-05-1.44386E-06-6.59600E-18 6.35959E-19
 -1       132 8.89479E-05-7.49137E-06-3.53050E-05-1.06126E-06-4.99802E-18 2.18074E-18
 -1       133 9.29606E-05-2.09944E-05-3.13481E-05-4.65159E-07-2.84187E-18 7.08374E-19
 -1       134 9.50530E-05-2.80844E-05-2.90972E-05 1.82868E-08 1.01058E-18 6.53122E-19
 -1       135 9.56323E-05-2.99321E-05-2.83244E-05 2.52838E-07-5.42233E-19-6.58652E-19
 -1       136 9.53155E-05-2.91234E-05-2.83493E-05 4.12705E-07-3.30686E-18-1.15302E-19
 -1       137 3.02044E-05-1.03178E-04 1.81694E-05-2.84631E-05 1.22481E-18-6.38186E-19
 -1       138 8.72045E-06-3.68205E-05 3.21906E-06-1.90718E-05-2.04940E-18 1.33196E-19
 -1       139 1.71275E-05 2.17867E-05-1.94694E-05 3.56311E-05 8.13999E-19 2.73168E-19
 -1       140 8.25811E-05 2.86736E-05-4.39469E-05 1.00790E-04 1.99984E-18 2.46656E-18
 -1       141 1.90375E-04-1.55608E-05-6.57770E-05 1.29556E-04 5.39984E-19 8.10611E-19
 -1       142 2.90284E-04-7.38862E-05-8.00355E-05 9.44504E-05 3.86988E-20-1.64367E-18
 -1       143 3.33156E-04-1.02256E-04-8.51519E-05 9.29405E-06 3.78571E-19-1.83377E-18
 -1       144 2.94059E-04-8.03443E-05-7.94921E-05-7.49738E-05 3.69703E-19-4.95620E-18
 -1       145 1.97583E-04-2.66571E-05-6.50231E-05-1.16053E-04 2.79563E-18-5.56797E-18
 -1       146 9.29607E-05 1.85937E-05-4.46385E-05-9.78560E-05 5.60016E-18-5.14700E-18
 -1       147 2.52407E-05 2.38989E-05-2.30334E-05-4.49195E-05 2.40430E-18-4.68494E-18
 -1       148 5.08292E-06-1.39242E-05-2.82117E-06 7.22419E-06-2.16417E-19 1.52466E-18
 -1       149 1.91089E-05-7.55052E-05 1.38633E-05 3.03865E-05-4.56974E-19-1.63160E-19
 -1       150 3.77248E-05-1.18590E-04 2.24720E-05 1.51990E-05-1.00310E-18 1.26289E-18
 -1       151 3.79135E-05-1.18841E-04 2.24387E-05-1.60878E-05-4.28705E-18-1.36687E-18
 -1       152 1.81863E-05-7.44238E-05 1.37902E-05-3.15894E-05-9.10730E-18-3.74124E-18
 -1       153 5.77969E-06-1.15043E-05-3.94779E-06-3.98670E-06-9.56808E-18-5.43943E-18
 -1       154 3.31399E-05 2.42348E-05-2.59136E-05 5.26654E-05-5.23382E-18-6.11050E-18
 -1       155 2.24544E-04-4.13103E-05-6.90709E-05 1.10809E-04-1.18500E-18-1.15154E-18
 -1       156 3.11348E-04-9.04939E-05-8.17906E-05 5.90064E-05 1.26074E-18 1.55981E-18
 -1       157 3.34053E-04-1.02502E-04-8.52279E-05-2.72109E-05-7.05949E-19 8.52433E-19
 -1       158 2.77952E-04-6.57569E-05-7.84627E-05-1.05222E-04-1.48263E-18 5.78947E-18
 -1       159 1.72110E-04-5.88978E-06-6.27809E-05-1.29556E-04-2.79161E-18 4.90644E-18
 -1       160 6.60096E-05 3.15909E-05-3.93348E-05-8.99156E-05-1.66993E-18 3.24414E-18
 -1       161 1.29298E-05 1.46871E-05-1.56305E-05-2.50519E-05-7.32683E-20-1.09775E-18
 -1       162 1.05470E-05-4.57849E-05 5.57537E-06 2.36095E-05 5.31047E-18-1.34615E-18
 -1       163 3.28512E-05-1.09043E-04 1.92446E-05 2.84723E-05 8.69606E-18-2.26025E-18
 -1       164 9.48747E-05-1.23497E-05-3.55709E-05-2.23459E-05-4.61805E-19-1.34681E-18
 -1       165 8.92470E-05-8.45215E-06-3.47889E-05-1.73828E-05-1.90238E-19-1.59217E-18
 -1       166 8.65564E-05-6.51011E-06-3.44164E-05-1.35913E-05 6.45234E-20-1.64588E-18
 -1       167 8.51901E-05-5.51384E-06-3.42301E-05-1.03649E-05 2.15507E-19-1.58043E-18
 -1       168 8.44445E-05-4.94359E-06-3.41409E-05-7.54500E-06 3.38568E-19-1.41330E-18
 -1       169 8.40163E-05-4.59825E-06-3.40980E-05-4.90209E-06 4.26101E-19-1.21500E-18
 -1       170 8.37974E-05-4.41377E-06-3.40796E-05-2.39434E-06 5.45214E-19-1.03786E-18
 -1       171 8.37328E-05-4.35794E-06-3.40748E-05 5.11907E-08 6.53054E-19-8.66468E-19
 -1       172 8.38074E-05-4.42218E-06-3.40805E-05 2.49878E-06 6.86543E-19-6.83893E-19
 -1       173 8.40384E-05-4.61751E-06-3.40995E-05 5.01304E-06 7.44260E-19-5.37992E-19
 -1       174 8.44725E-05-4.97085E-06-3.41418E-05 7.62173E-06 8.08466E-19-2.29890E-19
 -1       175 8.52501E-05-5.57370E-06-3.42320E-05 1.05104E-05 8.79940E-19 1.55139E-19
 -1       176 8.66483E-05-6.60849E-06-3.44190E-05 1.37810E-05 9.12016E-19 6.13834E-19
 -1       177 8.93956E-05-8.60088E-06-3.47933E-05 1.76207E-05 7.61727E-19 1.37391E-18
 -1       178 9.57856E-05-1.36154E-05-3.54272E-05 2.18920E-05 5.26841E-19 2.45298E-18
 -1       179 1.05612E-04-2.61044E-05-3.52650E-05 1.86617E-05 2.33430E-19 3.59888E-18
 -1       180 1.03407E-04-2.73046E-05-3.26129E-05-1.21267E-05-4.84768E-19-7.60080E-19
 -1       181 9.71172E-05-2.82919E-05-2.95317E-05-4.72910E-06-4.04074E-19-8.24064E-19
 -1       182 9.35187E-05-2.76404E-05-2.81854E-05-1.76654E-06-2.16797E-19-8.54041E-19
 -1       183 9.19849E-05-2.74096E-05-2.76397E-05-4.19053E-07-2.54169E-19-1.12389E-18
 -1       184 9.14105E-05-2.73349E-05-2.74427E-05 2.45171E-07-1.46883E-19-1.09625E-18
 -1       185 9.13702E-05-2.73743E-05-2.74182E-05 5.70945E-07-6.52083E-20-8.63790E-19
 -1       186 9.16151E-05-2.74775E-05-2.74836E-05 7.09324E-07 1.78339E-19-8.66665E-19
 -1       187 9.19995E-05-2.76100E-05-2.75938E-05 7.39436E-07-1.61709E-19-9.31770E-19
 -1       188 9.24364E-05-2.77505E-05-2.77220E-05 7.07169E-07-4.17575E-19-7.40280E-19
 -1       189 9.28737E-05-2.78861E-05-2.78519E-05 6.40974E-07-3.17566E-19-8.39299E-19
 -1       190 9.32817E-05-2.80096E-05-2.79742E-05 5.59081E-07-2.21113E-19-1.43347E-18
 -1       191 9.36451E-05-2.81177E-05-2.80838E-05 4.73256E-07-2.27503E-19-1.73840E-18
 -1       192 9.39584E-05-2.82094E-05-2.81788E-05 3.91025E-07-1.72407E-20-1.55134E-18
 -1       193 9.42221E-05-2.82855E-05-2.82592E-05 3.17109E-07-1.63611E-20-1.67784E-18
 -1       194 9.44410E-05-2.83477E-05-2.83262E-05 2.54448E-07-2.45881E-19-1.60658E-18
 -1       195 9.46224E-05-2.83983E-05-2.83822E-05 2.04949E-07 2.11820E-21-1.86451E-18
 -1       196 9.47759E-05-2.84403E-05-2.84298E-05 1.70056E-07-1.07668E-19-1.89017E-18
 -1       197 9.49125E-05-2.84769E-05-2.84724E-05 1.51199E-07 8.78699E-20-1.59881E-18
 -1       198 9.50447E-05-2.85117E-05-2.85139E-05 1.50143E-07 5.62794E-19-1.35723E-18
 -1       199 9.51870E-05-2.85488E-05-2.85587E-05 1.69271E-07 7.40635E-19-1.16881E-18
 -1       200 9.53561E-05-2.85930E-05-2.86119E-05 2.11807E-07 1.99668E-19-1.09193E-18
 -1       201 9.55715E-05-2.86499E-05-2.86795E-05 2.81966E-07-7.10656E-19-6.55403E-19
 -1       202 9.58559E-05-2.87258E-05-2.87684E-05 3.85037E-07 1.80693E-19-5.50500E-19
 -1       203 9.62364E-05-2.88287E-05-2.88868E-05 5.27323E-07 7.12687E-19-1.48497E-19
 -1       204 9.67440E-05-2.89677E-05-2.90443E-05 7.15869E-07 6.21003E-19-4.13798E-19
 -1       205 9.74145E-05-2.91535E-05-2.92514E-05 9.57821E-07-6.32224E-19-3.78135E-19
 -1       206 9.82869E-05-2.93983E-05-2.95199E-05 1.25912E-06-5.34611E-19-1.26397E-18
 -1       207 9.94020E-05-2.97156E-05-2.98615E-05 1.62209E-06 3.47043E-19-9.79767E-19
 -1       208 1.00797E-04-3.01192E-05-3.02865E-05 2.04125E-06 2.14909E-19-4.44499E-19
 -1       209 1.02499E-04-3.06223E-05-3.08010E-05 2.49618E-06-1.49658E-18-2.11816E-19
 -1       210 1.04510E-04-3.12347E-05-3.14021E-05 2.94047E-06-9.17405E-19 1.14005E-19
 -1       211 1.06787E-04-3.19580E-05-3.20712E-05 3.28571E-06-1.69041E-19 1.57949E-19
 -1       212 1.09213E-04-3.27778E-05-3.27643E-05 3.38231E-06 3.53689E-19-1.20171E-18
 -1       213 1.11558E-04-3.36497E-05-3.34018E-05 3.00492E-06 4.01687E-20-7.28028E-19
 -1       214 1.13444E-04-3.44758E-05-3.38616E-05 1.86409E-06-3.06709E-19-1.52535E-18
 -1       215 1.14325E-04-3.50721E-05-3.39860E-05-3.14745E-07-4.72780E-19-1.67099E-18
 -1       216 1.13535E-04-3.51374E-05-3.36162E-05-3.59302E-06-1.57823E-19-2.37659E-18
 -1       217 1.10477E-04-3.42831E-05-3.26633E-05-7.50101E-06 6.82106E-19-1.10477E-18
 -1       218 1.05005E-04-3.22158E-05-3.11941E-05-1.07875E-05-8.90218E-19-1.70032E-18
 -1       219 9.79146E-05-2.91247E-05-2.94768E-05-1.16692E-05-1.17016E-18-1.01787E-18
 -1       220 9.11193E-05-2.59848E-05-2.79130E-05-8.94356E-06-8.79482E-19-2.90658E-18
 -1       221 8.69082E-05-2.42003E-05-2.68752E-05-3.35722E-06 7.61661E-19-3.45413E-18
 -1       222 8.63957E-05-2.44546E-05-2.65421E-05 2.45388E-06 6.74285E-19-2.09302E-18
 -1       223 8.87687E-05-2.61873E-05-2.68104E-05 5.74566E-06 1.75071E-18-1.71080E-18
 -1       224 9.19376E-05-2.79980E-05-2.73910E-05 5.77627E-06 1.22371E-18-1.05957E-18
 -1       225 9.42329E-05-2.89589E-05-2.79705E-05 3.85319E-06 4.07454E-19-4.22418E-19
 -1       226 9.51227E-05-2.89673E-05-2.83527E-05 1.89226E-06 1.01394E-18-5.27924E-19
 -1       227 9.51201E-05-2.86208E-05-2.84938E-05 9.85015E-07 3.81135E-19 3.58292E-19
 -1       228 9.95103E-05-2.85574E-05-3.05900E-05 7.20966E-06 1.78843E-19 3.26559E-18
 -1       229 9.44277E-05-2.77941E-05-2.85279E-05 2.74207E-06 2.11851E-19 2.96578E-18
 -1       230 9.21096E-05-2.74049E-05-2.76856E-05 9.27942E-07 1.98798E-19 2.63663E-18
 -1       231 9.11631E-05-2.72429E-05-2.73674E-05 6.56185E-08 4.45940E-19 2.51287E-18
 -1       232 9.09536E-05-2.72365E-05-2.72938E-05-3.62401E-07 8.06418E-21 2.45220E-18
 -1       233 9.11392E-05-2.73231E-05-2.73430E-05-5.63086E-07-1.24334E-19 2.53345E-18
 -1       234 9.15245E-05-2.74567E-05-2.74541E-05-6.35783E-07 2.63764E-19 2.46576E-18
 -1       235 9.19944E-05-2.76081E-05-2.75922E-05-6.34399E-07 3.37598E-19 2.08220E-18
 -1       236 9.24805E-05-2.77594E-05-2.77366E-05-5.91100E-07 2.31731E-19 1.32713E-18
 -1       237 9.29430E-05-2.79005E-05-2.78750E-05-5.26144E-07-3.74027E-20 2.00980E-18
 -1       238 9.33606E-05-2.80260E-05-2.80004E-05-4.52565E-07 3.44554E-19 2.40345E-18
 -1       239 9.37238E-05-2.81340E-05-2.81100E-05-3.78741E-07-1.70291E-19 1.90310E-18
 -1       240 9.40312E-05-2.82244E-05-2.82031E-05-3.09978E-07 1.09174E-20 1.22656E-18
 -1       241 9.42862E-05-2.82986E-05-2.82806E-05-2.49566E-07 4.85588E-19 1.47398E-18
 -1       242 9.44957E-05-2.83590E-05-2.83445E-05-1.99554E-07-1.91865E-19 1.40119E-18
 -1       243 9.46689E-05-2.84082E-05-2.83976E-05-1.61315E-07 3.36295E-19 1.04104E-18
 -1       244 9.48165E-05-2.84495E-05-2.84431E-05-1.35984E-07 7.21827E-19 9.95765E-19
 -1       245 9.49509E-05-2.84866E-05-2.84846E-05-1.24802E-07 9.80578E-20 6.29006E-19
 -1       246 9.50859E-05-2.85234E-05-2.85265E-05-1.29383E-07 2.02592E-19 1.18229E-19
 -1       247 9.52374E-05-2.85647E-05-2.85736E-05-1.51917E-07-5.89191E-19 6.02275E-20
 -1       248 9.54238E-05-2.86157E-05-2.86314E-05-1.95325E-07-1.99699E-19 7.00543E-19
 -1       249 9.56664E-05-2.86826E-05-2.87065E-05-2.63324E-07 2.87011E-19 2.97749E-19
 -1       250 9.59903E-05-2.87728E-05-2.88065E-05-3.60409E-07 4.58289E-19-6.65341E-19
 -1       251 9.64246E-05-2.88948E-05-2.89401E-05-4.91662E-07-6.54766E-19 5.61806E-19
 -1       252 9.70024E-05-2.90586E-05-2.91174E-05-6.62306E-07-1.44478E-18 1.73764E-18
 -1       253 9.77605E-05-2.92754E-05-2.93493E-05-8.76818E-07 3.69289E-19 2.22715E-18
 -1       254 9.87370E-05-2.95573E-05-2.96470E-05-1.13733E-06 8.39552E-19 1.86061E-18
 -1       255 9.99683E-05-2.99166E-05-3.00210E-05-1.44090E-06-1.09298E-18 2.22920E-18
 -1       256 1.01481E-04-3.03642E-05-3.04783E-05-1.77501E-06-2.02734E-20 2.83958E-18
 -1       257 1.03282E-04-3.09066E-05-3.10188E-05-2.11069E-06-2.21380E-19 1.70225E-18
 -1       258 1.05339E-04-3.15416E-05-3.16298E-05-2.39258E-06-3.74107E-19 2.30196E-18
 -1       259 1.07555E-04-3.22513E-05-3.22770E-05-2.52669E-06-1.73758E-19 3.01196E-18
 -1       260 1.09734E-04-3.29911E-05-3.28954E-05-2.36945E-06-1.92044E-19 3.45821E-18
 -1       261 1.11551E-04-3.36750E-05-3.33806E-05-1.72879E-06 6.98963E-19 3.43983E-18
 -1       262 1.12529E-04-3.41583E-05-3.35891E-05-3.99431E-07 1.72105E-18 1.37736E-18
 -1       263 1.12074E-04-3.42261E-05-3.33583E-05 1.73667E-06 7.76455E-19 1.61397E-19
 -1       264 1.09614E-04-3.36132E-05-3.25592E-05 4.52929E-06-1.42048E-18 1.27620E-18
 -1       265 1.04873E-04-3.20944E-05-3.11766E-05 7.35175E-06-2.65869E-19 1.41709E-18
 -1       266 9.82653E-05-2.96904E-05-2.93856E-05 9.07751E-06-3.63345E-19 3.08970E-18
 -1       267 9.11432E-05-2.68906E-05-2.75552E-05 8.54261E-06-8.88356E-19 3.86600E-18
 -1       268 8.54991E-05-2.46211E-05-2.61263E-05 5.43087E-06 1.18113E-18 1.80118E-18
 -1       269 8.29872E-05-2.37483E-05-2.54189E-05 8.93053E-07-1.52029E-18 2.19012E-18
 -1       270 8.38573E-05-2.44075E-05-2.54847E-05-3.02652E-06 4.78273E-19 1.47396E-18
 -1       271 8.68537E-05-2.59138E-05-2.61002E-05-4.82434E-06 2.68622E-18 1.13158E-18
 -1       272 9.01824E-05-2.73331E-05-2.69121E-05-4.48596E-06 1.36494E-18 7.73553E-19
 -1       273 9.26497E-05-2.81488E-05-2.76279E-05-3.13796E-06 5.68622E-19-6.91851E-19
 -1       274 9.40167E-05-2.84163E-05-2.81058E-05-1.96950E-06 8.58761E-19-1.53943E-18
 -1       275 9.47879E-05-2.86363E-05-2.83246E-05-1.25612E-06-9.85632E-19-1.78834E-18
 -1       276 9.55382E-05-2.92186E-05-2.84025E-05-1.24727E-06 6.65186E-20 1.37381E-19
 -1       277 9.63502E-05-2.92446E-05-2.87336E-05 6.66759E-07-1.59773E-18 9.48432E-19
 -1       278 9.64660E-05-2.73526E-05-2.96036E-05 5.01603E-06-2.21198E-18-4.53891E-20
 -1       279 9.52453E-05-2.23313E-05-3.12421E-05 1.09632E-05-1.49945E-18-9.23689E-19
 -1       280 9.20877E-05-1.36954E-05-3.36048E-05 1.64111E-05-2.07497E-18 8.62782E-20
 -1       281 8.70790E-05-2.53537E-06-3.62453E-05 1.80459E-05-1.69735E-18 2.95281E-18
 -1       282 8.18698E-05 7.73728E-06-3.84077E-05 1.32400E-05-7.10158E-19 1.62911E-18
 -1       283 7.89788E-05 1.31084E-05-3.94588E-05 2.42135E-06-3.20169E-19 1.65480E-18
 -1       284 8.02870E-05 1.07612E-05-3.90164E-05-9.38186E-06 2.65029E-20-4.35293E-18
 -1       285 8.49543E-05 1.90580E-06-3.72386E-05-1.68170E-05-6.39616E-19 6.21709E-19
 -1       286 9.02777E-05-9.30757E-06-3.47179E-05-1.73951E-05-6.70943E-19 1.32057E-18
 -1       287 9.41338E-05-1.89641E-05-3.22152E-05-1.29649E-05 4.99008E-19 1.61441E-18
 -1       288 9.59549E-05-2.52108E-05-3.03022E-05-6.98838E-06 5.59525E-19 2.33879E-18
 -1       289 9.61203E-05-2.80658E-05-2.91575E-05-2.07140E-06-6.05278E-19-8.57452E-19
 -1       290 9.61269E-05-2.88190E-05-2.88245E-05 1.27928E-07-1.55217E-19-2.15747E-18
 -1       291 1.51075E-05-5.36347E-05 1.28479E-05 1.15438E-05 2.03351E-18 1.65807E-19
 -1       292 3.41586E-05-5.11750E-05 4.27132E-06 2.92303E-05 2.19254E-18 7.99387E-21
 -1       293 6.93108E-05-4.51155E-05-1.18808E-05 4.47535E-05 5.99699E-19 2.62866E-18
 -1       294 1.08353E-04-3.38048E-05-3.18128E-05 5.30965E-05 1.31375E-18 3.15414E-18
 -1       295 1.58705E-04-3.47853E-05-5.14306E-05 4.89830E-05 2.64867E-18 1.40332E-18
 -1       296 1.99491E-04-3.42915E-05-6.74728E-05 4.35534E-05 1.35618E-18 1.97782E-19
 -1       297 2.16397E-04-3.37312E-05-7.49310E-05 1.86233E-05-2.59510E-19-5.85512E-19
 -1       298 2.12518E-04-3.30329E-05-7.40325E-05-2.54878E-06 6.32098E-19-8.26916E-19
 -1       299 1.98332E-04-3.70782E-05-6.63412E-05-2.73818E-05 1.56071E-18-9.82558E-19
 -1       300 1.59467E-04-3.61641E-05-5.12801E-05-4.10175E-05 1.37579E-18-1.74764E-18
 -1       301 1.12198E-04-3.44008E-05-3.31924E-05-4.56017E-05 2.85874E-19-2.19487E-18
 -1       302 7.01689E-05-3.85255E-05-1.49137E-05-3.77132E-05-3.22720E-19-2.99437E-18
 -1       303 3.93201E-05-4.73521E-05 1.03487E-06-2.70349E-05-7.26966E-19 2.37522E-19
 -1       304 1.85773E-05-5.35047E-05 1.18657E-05-1.36652E-05-1.27817E-18-4.13670E-19
 -1       305 1.19160E-05-5.64737E-05 1.56587E-05-3.38747E-07-3.19085E-18-2.22399E-18
 -1       306 1.87681E-05-5.55254E-05 1.22929E-05 1.18350E-05-3.28744E-18-2.87843E-18
 -1       307 4.42545E-05-4.81306E-05-2.26553E-07 3.09043E-05-3.26383E-18-2.88257E-18
 -1       308 7.72507E-05-4.06678E-05-1.67957E-05 3.85425E-05-4.49880E-18-3.34610E-18
 -1       309 1.24865E-04-3.96665E-05-3.62085E-05 4.15800E-05-4.20001E-18-2.46868E-18
 -1       310 1.69762E-04-3.60505E-05-5.52773E-05 4.09098E-05-3.01501E-18-1.64684E-18
 -1       311 2.03082E-04-3.64532E-05-6.85946E-05 1.86560E-05-2.06178E-18-1.09670E-18
 -1       312 2.27729E-04-3.98556E-05-7.64922E-05-3.32741E-08-7.89435E-19 7.40095E-20
 -1       313 2.19064E-04-3.57298E-05-7.47739E-05-2.42260E-05-2.28911E-18 1.98100E-18
 -1       314 1.94151E-04-3.38518E-05-6.54876E-05-4.61957E-05-1.65886E-18 4.40584E-18
 -1       315 1.51453E-04-3.56914E-05-4.81935E-05-4.99341E-05-1.35123E-18 4.38170E-18
 -1       316 1.03430E-04-3.80790E-05-2.81970E-05-5.12508E-05-1.01178E-18 4.88103E-18
 -1       317 6.37101E-05-4.59173E-05-9.33292E-06-4.31415E-05 5.38289E-19 2.31240E-18
 -1       318 3.03271E-05-5.32308E-05 6.23310E-06-2.49931E-05 2.82909E-19 1.08140E-18
 -1       319 1.59140E-05-5.92310E-05 1.42365E-05-8.43798E-06 3.72271E-19-1.43858E-18
 -1       320 9.16338E-05-1.44455E-05-3.31586E-05-1.29787E-05-9.41786E-20-1.24102E-18
 -1       321 9.57157E-05-1.91129E-05-3.28923E-05-1.46336E-05-3.88801E-19-1.17769E-18
 -1       322 8.80008E-05-1.03737E-05-3.33240E-05-8.15182E-06 3.37601E-19-1.21783E-18
 -1       323 8.71861E-05-9.45266E-06-3.33628E-05-5.71623E-06 4.67189E-19-1.08826E-18
 -1       324 8.67255E-05-8.92252E-06-3.33891E-05-3.36579E-06 5.83446E-19-8.85063E-19
 -1       325 8.65200E-05-8.68252E-06-3.34024E-05-1.07211E-06 7.41978E-19-6.93598E-19
 -1       326 8.65286E-05-8.69205E-06-3.34021E-05 1.20305E-06 8.46935E-19-5.66374E-19
 -1       327 8.67530E-05-8.95315E-06-3.33879E-05 3.49883E-06 9.23077E-19-4.60058E-19
 -1       328 8.72259E-05-9.49745E-06-3.33609E-05 5.81312E-06 9.34089E-19-2.65694E-19
 -1       329 8.80663E-05-1.04493E-05-3.33198E-05 8.25186E-06 1.03220E-18 1.46613E-19
 -1       330 8.94829E-05-1.20328E-05-3.32595E-05 1.07604E-05 1.03478E-18 4.54030E-19
 -1       331 9.19051E-05-1.47228E-05-3.31593E-05 1.31656E-05 9.87520E-19 9.37315E-19
 -1       332 9.58107E-05-1.94591E-05-3.28299E-05 1.43728E-05 6.21083E-19 1.66026E-18
 -1       333 9.87993E-05-2.44468E-05-3.19535E-05 1.18955E-05 4.07026E-19 2.32513E-18
 -1       334 9.63993E-05-2.68151E-05-2.97923E-05 5.73857E-06 3.56244E-19 1.95434E-18
 -1       335 9.64438E-05-2.60301E-05-3.01328E-05-6.34190E-06-2.35750E-19-9.71708E-19
 -1       336 9.49273E-05-2.70318E-05-2.90727E-05-2.83143E-06-2.33816E-19-8.17053E-19
 -1       337 9.39509E-05-2.74279E-05-2.84953E-05-9.18571E-07-2.56210E-19-6.33493E-19
 -1       338 9.34327E-05-2.76413E-05-2.81896E-05 1.41102E-07 4.92373E-20-8.56089E-19
 -1       339 9.32411E-05-2.77948E-05-2.80456E-05 7.05046E-07 2.39480E-19-7.52706E-19
 -1       340 9.32580E-05-2.79247E-05-2.79990E-05 9.71673E-07-4.20096E-20-8.39340E-19
 -1       341 9.33966E-05-2.80396E-05-2.80101E-05 1.05792E-06-8.96458E-20-7.74179E-19
 -1       342 9.35972E-05-2.81407E-05-2.80532E-05 1.03649E-06-3.86696E-19-8.30877E-19
 -1       343 9.38207E-05-2.82279E-05-2.81119E-05 9.54284E-07-5.89898E-19-1.08702E-18
 -1       344 9.40430E-05-2.83010E-05-2.81759E-05 8.42101E-07-1.54613E-19-9.68962E-19
 -1       345 9.42501E-05-2.83607E-05-2.82391E-05 7.20239E-07-2.01138E-19-4.71398E-19
 -1       346 9.44354E-05-2.84083E-05-2.82980E-05 6.01986E-07 6.31979E-20-2.52812E-19
 -1       347 9.45972E-05-2.84454E-05-2.83514E-05 4.96000E-07-3.19658E-19-3.02365E-19
 -1       348 9.47373E-05-2.84736E-05-2.83992E-05 4.08008E-07-7.56026E-19-4.53693E-19
 -1       349 9.48599E-05-2.84947E-05-2.84425E-05 3.42068E-07-3.03856E-19-6.71153E-19
 -1       350 9.49710E-05-2.85107E-05-2.84831E-05 3.01531E-07-1.61392E-19-9.50511E-19
 -1       351 9.50781E-05-2.85236E-05-2.85234E-05 2.89776E-07 5.25115E-19-1.09831E-18
 -1       352 9.51904E-05-2.85353E-05-2.85663E-05 3.10788E-07 3.05128E-19-1.05478E-18
 -1       353 9.53185E-05-2.85482E-05-2.86154E-05 3.69594E-07 6.17621E-19-1.49497E-18
 -1       354 9.54746E-05-2.85650E-05-2.86748E-05 4.72565E-07 6.27686E-20-1.31866E-18
 -1       355 9.56732E-05-2.85889E-05-2.87493E-05 6.27577E-07-1.00884E-19 9.32000E-20
 -1       356 9.59309E-05-2.86238E-05-2.88444E-05 8.43968E-07 3.90436E-19-5.37765E-20
 -1       357 9.62667E-05-2.86747E-05-2.89660E-05 1.13218E-06 9.08429E-19-1.40703E-19
 -1       358 9.67021E-05-2.87481E-05-2.91206E-05 1.50291E-06 2.59689E-19-9.77666E-19
 -1       359 9.72608E-05-2.88523E-05-2.93149E-05 1.96547E-06-6.82847E-19-5.61650E-19
 -1       360 9.79679E-05-2.89989E-05-2.95546E-05 2.52485E-06 4.60667E-19 1.55532E-19
 -1       361 9.88493E-05-2.92036E-05-2.98442E-05 3.17670E-06 2.81008E-19-7.36030E-19
 -1       362 9.99292E-05-2.94893E-05-3.01846E-05 3.89921E-06-2.13252E-19-4.19088E-19
 -1       363 1.01229E-04-2.98888E-05-3.05709E-05 4.64062E-06-8.83188E-19 2.57978E-19
 -1       364 1.02763E-04-3.04492E-05-3.09898E-05 5.30100E-06-5.55604E-19-6.14979E-20
 -1       365 1.04534E-04-3.12341E-05-3.14161E-05 5.70878E-06-5.68395E-20 6.42061E-19
 -1       366 1.06528E-04-3.23174E-05-3.18115E-05 5.59675E-06-6.05759E-19 1.06935E-18
 -1       367 1.08685E-04-3.37524E-05-3.21281E-05 4.59317E-06-8.30244E-19 9.45599E-19
 -1       368 1.10854E-04-3.54930E-05-3.23198E-05 2.26399E-06-7.36252E-19-1.00868E-19
 -1       369 1.12696E-04-3.72425E-05-3.23654E-05-1.73045E-06-2.63771E-19-8.61902E-20
 -1       370 1.13569E-04-3.82726E-05-3.22954E-05-7.28302E-06 3.24346E-19 9.87844E-19
 -1       371 1.12566E-04-3.74531E-05-3.22085E-05-1.33107E-05-7.39427E-19 9.37228E-19
 -1       372 1.09014E-04-3.38787E-05-3.22100E-05-1.74333E-05-3.33718E-19 1.12682E-18
 -1       373 1.03551E-04-2.82388E-05-3.22874E-05-1.67509E-05-1.63190E-18 1.49883E-18
 -1       374 9.86345E-05-2.34514E-05-3.22314E-05-1.02020E-05-7.58048E-19 1.44263E-18
 -1       375 9.69816E-05-2.26900E-05-3.18457E-05-8.26320E-07 1.42451E-18 3.43407E-19
 -1       376 9.88036E-05-2.62125E-05-3.11217E-05 6.41945E-06 1.98125E-18 1.05723E-18
 -1       377 1.01407E-04-3.06425E-05-3.03329E-05 8.26962E-06 1.02272E-18 6.69470E-20
 -1       378 1.02338E-04-3.29695E-05-2.97389E-05 5.86392E-06 1.06355E-19-1.04386E-18
 -1       379 1.00943E-04-3.24277E-05-2.93808E-05 2.30135E-06 4.84007E-19-1.04148E-18
 -1       380 9.84297E-05-3.04941E-05-2.91108E-05 3.90554E-07 1.05681E-20-1.31531E-18
 -1       381 9.43804E-05-2.73441E-05-2.86917E-05 2.46599E-06 4.82766E-19 1.86308E-18
 -1       382 9.31751E-05-2.74641E-05-2.81400E-05 7.40700E-07 4.90073E-19 1.67438E-18
 -1       383 9.26222E-05-2.75422E-05-2.78815E-05-1.80491E-07 2.67211E-19 1.60016E-18
 -1       384 9.24810E-05-2.76351E-05-2.77870E-05-6.55860E-07-1.36100E-19 1.24947E-18
 -1       385 9.25837E-05-2.77446E-05-2.77866E-05-8.73121E-07 2.56558E-19 1.15628E-18
 -1       386 9.28187E-05-2.78610E-05-2.78387E-05-9.37005E-07 6.44238E-19 1.07776E-18
 -1       387 9.31140E-05-2.79750E-05-2.79170E-05-9.10648E-07 3.68685E-19 1.00425E-18
 -1       388 9.34243E-05-2.80805E-05-2.80051E-05-8.34013E-07-3.25765E-19 1.62660E-18
 -1       389 9.37226E-05-2.81739E-05-2.80931E-05-7.33022E-07 2.28136E-19 1.46801E-18
 -1       390 9.39942E-05-2.82538E-05-2.81753E-05-6.24595E-07 2.89292E-19 1.39662E-18
 -1       391 9.42326E-05-2.83203E-05-2.82489E-05-5.19703E-07 5.36839E-19 5.47951E-19
 -1       392 9.44370E-05-2.83744E-05-2.83132E-05-4.25389E-07 1.67770E-19 6.40850E-19
 -1       393 9.46104E-05-2.84179E-05-2.83688E-05-3.46205E-07 4.62324E-19 4.23745E-19
 -1       394 9.47583E-05-2.84528E-05-2.84170E-05-2.85272E-07 6.48241E-19-3.45554E-20
 -1       395 9.48883E-05-2.84814E-05-2.84603E-05-2.45073E-07 8.58716E-19 2.85625E-19
 -1       396 9.50095E-05-2.85063E-05-2.85014E-05-2.28070E-07 4.47918E-19 2.51724E-19
 -1       397 9.51327E-05-2.85304E-05-2.85436E-05-2.37180E-07 3.47418E-19-4.55878E-20
 -1       398 9.52703E-05-2.85568E-05-2.85910E-05-2.76127E-07-4.88699E-19 5.14113E-20
 -1       399 9.54366E-05-2.85894E-05-2.86480E-05-3.49684E-07-5.11816E-19-6.09746E-20
 -1       400 9.56483E-05-2.86324E-05-2.87200E-05-4.63782E-07 5.51183E-19 8.93141E-19
 -1       401 9.59248E-05-2.86912E-05-2.88129E-05-6.25439E-07 5.00924E-19 6.72892E-19
 -1       402 9.62881E-05-2.87720E-05-2.89335E-05-8.42413E-07-1.53417E-18 1.38281E-18
 -1       403 9.67633E-05-2.88825E-05-2.90893E-05-1.12244E-06-1.38126E-18 1.46661E-18
 -1       404 9.73775E-05-2.90318E-05-2.92881E-05-1.47176E-06-7.19258E-20 6.69137E-19
 -1       405 9.81591E-05-2.92310E-05-2.95373E-05-1.89261E-06 7.68943E-19 1.27877E-18
 -1       406 9.91350E-05-2.94932E-05-2.98429E-05-2.37905E-06-8.30069E-19 2.13744E-18
 -1       407 1.00327E-04-2.98343E-05-3.02079E-05-2.91029E-06-3.11894E-19 1.74578E-18
 -1       408 1.01746E-04-3.02726E-05-3.06289E-05-3.44080E-06 4.45255E-19 3.00922E-18
 -1       409 1.03382E-04-3.08289E-05-3.10934E-05-3.88658E-06-7.57604E-19 2.14753E-18
 -1       410 1.05191E-04-3.15237E-05-3.15742E-05-4.10857E-06-8.59448E-20 2.27743E-18
 -1       411 1.07079E-04-3.23684E-05-3.20261E-05-3.89831E-06-7.92697E-19 1.60262E-18
 -1       412 1.08877E-04-3.33445E-05-3.23838E-05-2.97950E-06 6.74748E-19 2.08205E-18
 -1       413 1.10309E-04-3.43600E-05-3.25679E-05-1.05340E-06 2.28571E-18 3.79871E-18
 -1       414 1.10971E-04-3.51823E-05-3.25023E-05 2.06927E-06 8.22196E-19 3.63014E-18
 -1       415 1.10343E-04-3.53839E-05-3.21454E-05 6.22297E-06-1.52066E-18 3.59682E-18
 -1       416 1.07916E-04-3.43935E-05-3.15245E-05 1.05783E-05-9.10726E-19 2.87849E-18
 -1       417 1.03566E-04-3.18419E-05-3.07417E-05 1.35227E-05-7.07972E-19 2.08753E-18
 -1       418 9.80585E-05-2.81648E-05-2.99508E-05 1.32280E-05-4.22993E-19 1.67730E-18
 -1       419 9.31577E-05-2.48399E-05-2.92725E-05 8.95227E-06 9.64658E-19 1.54877E-18
 -1       420 9.07532E-05-2.36162E-05-2.87582E-05 2.21634E-06-7.61807E-19 2.71188E-18
 -1       421 9.13320E-05-2.49229E-05-2.84395E-05-3.84153E-06 6.37214E-19 7.18291E-19
 -1       422 9.36195E-05-2.74958E-05-2.83218E-05-6.73801E-06 2.45442E-18 1.76417E-18
 -1       423 9.57119E-05-2.95143E-05-2.83658E-05-6.30804E-06 2.26398E-18 1.55057E-18
 -1       424 9.65323E-05-3.00929E-05-2.84768E-05-4.23380E-06 1.87669E-18-9.65280E-19
 -1       425 9.62089E-05-2.96115E-05-2.85441E-05-2.36704E-06 1.96608E-19-4.11366E-19
 -1       426 9.59196E-05-2.93085E-05-2.85403E-05-1.59631E-06-7.13839E-19 1.50460E-18
 -1       427 1.02470E-04-3.11124E-05-3.05442E-05 1.18305E-05-1.12480E-18-1.39560E-18
 -1       428 1.00682E-04-3.13515E-05-2.96958E-05 3.99045E-06-1.53407E-18 6.92598E-19
 -1       429 9.80637E-05-3.02840E-05-2.90318E-05 1.23909E-08-1.51320E-18-2.29232E-19
 -1       430 1.01271E-04-2.81077E-05-3.13185E-05 2.11878E-05-5.98183E-19-1.88562E-18
 -1       431 9.51427E-05-2.10131E-05-3.17378E-05 2.79927E-05-1.45892E-18 1.74691E-18
 -1       432 8.47562E-05-1.07477E-05-3.16774E-05 2.66271E-05-1.86020E-19 3.33478E-18
 -1       433 7.49376E-05-1.56931E-06-3.13863E-05 1.37303E-05-4.56964E-19 2.10653E-18
 -1       434 7.29414E-05 2.74852E-07-3.13177E-05-5.97893E-06-1.91406E-18-6.87089E-19
 -1       435 8.04464E-05-6.59428E-06-3.15959E-05-2.26321E-05 1.27470E-18-1.43928E-18
 -1       436 9.16108E-05-1.72639E-05-3.18373E-05-2.83055E-05 5.83480E-19 1.16739E-18
 -1       437 9.95747E-05-2.57496E-05-3.16030E-05-2.39153E-05 7.13797E-19 2.88666E-18
 -1       438 1.02279E-04-3.00206E-05-3.09167E-05-1.49832E-05 8.49178E-19 1.43323E-18
 -1       439 1.01168E-04-3.09607E-05-3.00483E-05-6.33708E-06-3.84747E-19-1.15538E-18
 -1       440 7.20122E-05-4.90006E-05-9.93565E-06 5.36270E-05 2.24686E-18 3.11539E-18
 -1       441 1.66142E-05-2.26046E-05 2.53583E-06-1.16582E-06-1.23751E-18 3.25684E-19
 -1       442 3.32495E-05-3.27202E-05-3.44287E-07 3.67280E-05 1.61783E-19-4.43634E-19
 -1       443 1.20558E-04-6.22439E-05-2.49277E-05 4.77195E-05 1.22195E-18 4.21891E-18
 -1       444 1.48858E-04-5.93573E-05-3.83861E-05 3.10096E-05 1.94532E-18 1.48093E-18
 -1       445 8.93625E-05-1.18961E-05-3.32661E-05-1.06443E-05 1.66928E-19-1.30280E-18
 -1       446 1.70195E-04-2.20459E-05-6.32659E-05 5.01292E-06 2.22897E-18 9.05478E-19
 -1       447 1.58615E-04-9.81602E-06-6.40248E-05 6.03156E-06 3.91753E-19-2.60539E-19
 -1       448 1.69775E-04-2.25607E-05-6.28542E-05 7.08116E-06 1.03380E-18-6.76038E-19
 -1       449 1.64016E-04-4.01878E-05-5.29861E-05 8.57833E-07 1.18415E-18-2.60780E-19
 -1       450 1.48641E-04-5.74171E-05-3.91551E-05-1.61986E-05-2.46222E-19 1.99688E-19
 -1       451 1.18024E-04-6.00040E-05-2.49546E-05-3.54027E-05-1.24355E-18-1.84378E-18
 -1       452 7.83311E-05-5.34932E-05-1.08727E-05-4.31655E-05-7.55977E-19-1.82817E-18
 -1       453 4.17983E-05-3.91339E-05-1.04930E-06-3.78678E-05-1.91366E-18-3.83918E-19
 -1       454 1.46930E-05-3.09864E-05 6.67518E-06-1.40494E-05-1.87613E-18-1.60545E-18
 -1       455 1.58308E-05-2.98512E-05 5.82783E-06 1.48224E-05-1.07658E-18-7.93352E-19
 -1       456 3.75055E-05-3.85307E-05 2.99010E-07 3.49069E-05-7.48142E-19-2.26137E-18
 -1       457 8.38872E-05-5.49567E-05-1.25571E-05 4.18539E-05-1.57686E-18-5.35884E-19
 -1       458 1.23847E-04-6.19530E-05-2.66201E-05 3.20776E-05-2.06782E-18-1.58798E-18
 -1       459 1.55145E-04-5.43463E-05-4.31317E-05 8.96532E-06-2.90227E-18-1.63541E-18
 -1       460 1.64817E-04-3.77804E-05-5.44782E-05-4.69836E-06-3.44028E-18-8.84408E-19
 -1       461 1.65928E-04-1.68556E-05-6.37927E-05-1.00484E-05-2.00800E-18-4.76615E-19
 -1       462 1.68640E-04-1.29366E-05-6.65251E-05-6.30040E-06-2.01086E-18 3.36590E-19
 -1       463 1.68060E-04-2.43947E-05-6.15091E-05-4.11900E-06-1.73472E-18 3.14990E-19
 -1       464 1.65321E-04-4.37187E-05-5.19950E-05-1.18510E-05-5.95385E-19 1.69174E-18
 -1       465 1.46582E-04-6.14209E-05-3.64961E-05-3.26474E-05 3.58507E-19 2.30806E-18
 -1       466 1.11372E-04-6.05236E-05-2.17993E-05-5.04018E-05-2.65968E-19 3.56204E-18
 -1       467 6.20416E-05-4.71870E-05-6.73803E-06-5.05346E-05-5.43160E-19 2.32129E-18
 -1       468 2.67847E-05-3.09054E-05 1.50569E-06-2.95037E-05-2.10318E-18 8.51586E-19
 -1       469 1.66088E-04-3.95387E-05-5.40746E-05 9.71533E-06 2.85021E-18 1.63647E-18
 -1       470 6.92972E-05-4.72976E-05-9.10709E-06 4.33146E-05-4.49986E-20 2.07047E-19
 -1       471 9.58256E-05-2.51499E-05-3.02753E-05 6.01427E-06 4.89224E-19 8.82186E-19
 -1       472 8.95350E-05-1.33989E-05-3.26489E-05-3.92313E-06 5.06758E-19-9.01419E-19
 -1       473 9.02426E-05-1.43617E-05-3.25416E-05-5.88246E-06 3.63866E-19-1.03132E-18
 -1       474 8.90361E-05-1.27185E-05-3.27253E-05 5.45739E-08 6.59489E-19-5.97090E-19
 -1       475 8.91718E-05-1.29022E-05-3.27050E-05 2.04479E-06 8.15272E-19-4.36495E-19
 -1       476 8.95674E-05-1.34399E-05-3.26452E-05 3.99674E-06 9.05535E-19-3.78237E-19
 -1       477 9.02928E-05-1.44272E-05-3.25349E-05 5.95001E-06 1.04477E-18-3.58111E-20
 -1       478 9.14426E-05-1.60066E-05-3.23528E-05 7.77719E-06 9.59611E-19 2.07712E-19
 -1       479 9.32335E-05-1.84786E-05-3.20580E-05 9.29185E-06 8.57834E-19 5.82168E-19
 -1       480 9.51183E-05-2.65790E-05-2.93560E-05 2.87055E-06 5.06327E-19 7.11144E-19
 -1       481 9.54816E-05-2.44318E-05-3.04406E-05-5.82530E-06-1.51742E-19-9.40033E-19
 -1       482 1.53643E-04-5.52383E-05-4.25157E-05 6.27212E-06 1.37738E-18 2.69251E-19
 -1       483 9.52795E-05-2.62307E-05-2.95857E-05-2.89134E-06-9.68322E-20-8.09025E-19
 -1       484 9.49220E-05-2.71627E-05-2.90360E-05-1.02723E-06-1.33559E-19-6.11844E-19
 -1       485 9.46459E-05-2.76946E-05-2.86918E-05 9.53921E-08-4.37693E-20-8.93332E-19
 -1       486 9.44894E-05-2.80213E-05-2.84858E-05 7.29736E-07 4.61324E-20-1.13917E-18
 -1       487 9.44339E-05-2.82331E-05-2.83717E-05 1.04655E-06-6.36547E-20-1.12534E-18
 -1       488 9.44491E-05-2.83744E-05-2.83179E-05 1.16072E-06-3.25708E-20-1.11239E-18
 -1       489 9.45077E-05-2.84688E-05-2.83027E-05 1.14996E-06-3.83552E-19-7.65182E-19
 -1       490 9.45891E-05-2.85305E-05-2.83112E-05 1.06709E-06-2.14220E-19-1.16930E-19
 -1       491 9.46791E-05-2.85687E-05-2.83334E-05 9.47953E-07 3.85533E-19-8.89763E-20
 -1       492 9.47688E-05-2.85898E-05-2.83628E-05 8.16771E-07 2.71146E-19 5.41094E-20
 -1       493 9.48535E-05-2.85982E-05-2.83954E-05 6.89778E-07-2.89798E-19 6.13468E-20
 -1       494 9.49313E-05-2.85972E-05-2.84291E-05 5.77895E-07-7.36487E-19-1.18500E-19
 -1       495 9.50024E-05-2.85891E-05-2.84630E-05 4.88706E-07-7.72181E-19 2.81699E-19
 -1       496 9.50687E-05-2.85753E-05-2.84973E-05 4.27945E-07-8.23173E-19-6.83113E-19
 -1       497 9.51332E-05-2.85565E-05-2.85329E-05 4.00631E-07-9.73450E-20-1.16526E-18
 -1       498 9.52000E-05-2.85332E-05-2.85714E-05 4.11945E-07 3.41812E-19-1.48195E-18
 -1       499 9.52740E-05-2.85056E-05-2.86149E-05 4.67878E-07 2.78445E-19-9.21173E-19
 -1       500 9.53612E-05-2.84734E-05-2.86659E-05 5.75705E-07 6.15217E-19-1.26938E-18
 -1       501 9.54684E-05-2.84367E-05-2.87274E-05 7.44252E-07 7.02365E-19-7.94074E-19
 -1       502 9.56034E-05-2.83960E-05-2.88027E-05 9.83939E-07 4.19831E-19-1.55544E-19
 -1       503 9.57754E-05-2.83522E-05-2.88949E-05 1.30651E-06 3.51319E-20-1.40927E-19
 -1       504 9.59943E-05-2.83079E-05-2.90075E-05 1.72431E-06 1.98024E-19-6.42447E-19
 -1       505 9.62718E-05-2.82681E-05-2.91433E-05 2.24886E-06-1.57231E-19-1.30906E-18
 -1       506 9.66212E-05-2.82421E-05-2.93039E-05 2.88844E-06 9.44882E-20-9.56061E-19
 -1       507 9.70585E-05-2.82464E-05-2.94892E-05 3.64407E-06 7.46617E-20-8.34955E-19
 -1       508 9.76051E-05-2.83097E-05-2.96962E-05 4.50327E-06-7.78970E-20-2.73162E-19
 -1       509 9.82913E-05-2.84797E-05-2.99175E-05 5.43062E-06-3.30892E-19 3.84057E-19
 -1       510 9.91648E-05-2.88338E-05-3.01405E-05 6.35392E-06 3.76576E-19 1.29766E-18
 -1       511 1.00302E-04-2.94906E-05-3.03474E-05 7.14501E-06-4.48480E-19 1.74660E-18
 -1       512 1.01821E-04-3.06165E-05-3.05177E-05 7.59472E-06-3.00701E-19 5.09029E-19
 -1       513 1.03888E-04-3.24112E-05-3.06373E-05 7.38434E-06-8.29096E-19 1.04582E-18
 -1       514 1.06682E-04-3.50337E-05-3.07153E-05 6.06561E-06-7.42641E-19 1.28405E-18
 -1       515 1.10283E-04-3.84151E-05-3.08145E-05 3.08375E-06-2.76982E-19 3.35293E-18
 -1       516 1.14381E-04-4.18976E-05-3.10834E-05-2.06516E-06 5.62552E-19 2.15659E-18
 -1       517 1.17892E-04-4.38264E-05-3.17538E-05-9.31575E-06-6.05652E-19 6.01405E-20
 -1       518 1.18860E-04-4.17045E-05-3.30925E-05-1.71289E-05-1.29786E-18 1.85132E-18
 -1       519 1.15662E-04-3.40170E-05-3.50705E-05-2.15510E-05-8.13946E-21 1.65785E-18
 -1       520 1.09724E-04-2.36851E-05-3.70017E-05-1.81005E-05-1.32246E-18 2.64235E-18
 -1       521 1.05376E-04-1.76683E-05-3.78136E-05-7.01893E-06-6.34719E-19 2.45166E-18
 -1       522 1.08028E-04-2.24656E-05-3.67663E-05 5.02613E-06 1.16933E-18 3.49375E-19
 -1       523 1.11767E-04-3.13789E-05-3.45122E-05 9.25048E-06 1.88364E-19-9.27423E-19
 -1       524 1.13374E-04-3.78166E-05-3.24240E-05 6.53553E-06-1.72154E-19-3.48810E-19
 -1       525 1.10420E-04-3.82626E-05-3.09371E-05 8.86284E-07-5.47394E-20-5.45877E-19
 -1       526 9.41493E-05-2.76883E-05-2.84798E-05-1.24013E-07 3.78977E-19 5.11718E-19
 -1       527 9.39733E-05-2.79351E-05-2.83008E-05-7.33295E-07 1.01748E-19 5.82146E-20
 -1       528 9.39434E-05-2.81067E-05-2.82154E-05-1.03058E-06 5.40740E-19 1.96797E-19
 -1       529 9.40068E-05-2.82330E-05-2.81890E-05-1.13275E-06 2.71635E-19 7.47099E-19
 -1       530 9.41227E-05-2.83278E-05-2.81983E-05-1.11625E-06-8.74599E-20 7.08741E-19
 -1       531 9.42625E-05-2.83990E-05-2.82278E-05-1.03190E-06 1.57487E-19 2.25449E-19
 -1       532 9.44075E-05-2.84515E-05-2.82675E-05-9.13736E-07 4.79588E-19 1.72753E-19
 -1       533 9.45466E-05-2.84890E-05-2.83109E-05-7.84505E-07 6.60930E-19 2.74671E-19
 -1       534 9.46740E-05-2.85146E-05-2.83545E-05-6.59297E-07 6.86701E-19-3.16354E-19
 -1       535 9.47878E-05-2.85307E-05-2.83963E-05-5.48128E-07 3.48086E-19-9.32731E-19
 -1       536 9.48891E-05-2.85392E-05-2.84360E-05-4.57815E-07 9.85531E-20-4.67230E-19
 -1       537 9.49806E-05-2.85419E-05-2.84740E-05-3.93377E-07 5.48874E-19-5.01863E-19
 -1       538 9.50668E-05-2.85399E-05-2.85116E-05-3.59092E-07 1.99377E-19 8.49920E-19
 -1       539 9.51534E-05-2.85345E-05-2.85509E-05-3.59313E-07 4.51864E-20 1.50729E-18
 -1       540 9.52472E-05-2.85269E-05-2.85942E-05-3.99074E-07-2.49356E-19 1.86015E-18
 -1       541 9.53565E-05-2.85182E-05-2.86446E-05-4.84508E-07-3.49844E-20 1.03877E-18
 -1       542 9.54907E-05-2.85098E-05-2.87055E-05-6.23080E-07-6.43040E-19 3.85967E-19
 -1       543 9.56607E-05-2.85037E-05-2.87808E-05-8.23585E-07 2.58656E-19 1.04611E-18
 -1       544 9.58790E-05-2.85029E-05-2.88744E-05-1.09583E-06-4.72897E-19 1.49228E-18
 -1       545 9.61598E-05-2.85114E-05-2.89908E-05-1.44987E-06-1.31043E-18 9.58350E-19
 -1       546 9.65189E-05-2.85358E-05-2.91340E-05-1.89450E-06-2.16452E-19 3.33982E-19
 -1       547 9.69740E-05-2.85860E-05-2.93072E-05-2.43480E-06 9.21950E-19 1.14759E-18
 -1       548 9.75444E-05-2.86772E-05-2.95123E-05-3.06802E-06-5.89976E-19 1.61461E-19
 -1       549 9.82516E-05-2.88331E-05-2.97485E-05-3.77732E-06-8.91990E-19 2.68065E-19
 -1       550 9.91201E-05-2.90897E-05-3.00110E-05-4.52243E-06-6.84045E-19 4.61285E-19
 -1       551 1.00179E-04-2.95008E-05-3.02895E-05-5.22652E-06-1.05390E-19 9.33147E-19
 -1       552 1.01465E-04-3.01423E-05-3.05672E-05-5.75914E-06-8.86876E-19 4.81393E-19
 -1       553 1.03022E-04-3.11110E-05-3.08218E-05-5.91713E-06-2.93015E-19 1.85127E-18
 -1       554 1.04892E-04-3.25062E-05-3.10291E-05-5.41002E-06-9.62067E-20 2.94399E-18
 -1       555 1.07084E-04-3.43709E-05-3.11738E-05-3.86639E-06 1.25171E-18 3.08030E-18
 -1       556 1.09484E-04-3.65630E-05-3.12662E-05-8.99440E-07 1.02467E-18 3.67326E-18
 -1       557 1.11707E-04-3.85617E-05-3.13642E-05 3.69590E-06 3.84914E-19 3.99384E-18
 -1       558 1.12977E-04-3.93313E-05-3.15785E-05 9.58119E-06 4.72194E-19 2.58901E-18
 -1       559 1.12149E-04-3.74584E-05-3.20312E-05 1.53434E-05 7.88916E-19 1.35346E-19
 -1       560 1.08721E-04-3.24408E-05-3.27029E-05 1.82520E-05-9.92768E-19-1.56112E-18
 -1       561 1.03603E-04-2.57055E-05-3.34124E-05 1.57621E-05 5.96202E-19-1.42835E-18
 -1       562 9.98762E-05-2.13768E-05-3.36731E-05 7.80046E-06-5.52305E-19-5.65587E-19
 -1       563 9.98091E-05-2.23803E-05-3.31994E-05-1.57615E-06 8.20686E-19-9.39116E-19
 -1       564 1.02415E-04-2.73969E-05-3.21657E-05-7.40051E-06 3.83785E-19-9.00866E-19
 -1       565 1.04605E-04-3.22773E-05-3.10112E-05-7.78167E-06 2.08058E-18-3.74407E-20
 -1       566 1.04295E-04-3.40708E-05-3.01106E-05-4.81859E-06 2.75689E-18 2.29428E-19
 -1       567 1.01734E-04-3.28516E-05-2.95237E-05-1.52403E-06 5.18437E-19 2.04124E-18
 -1       568 1.08518E-04-3.83498E-05-2.99994E-05 3.00247E-05 6.13096E-19-1.84108E-18
 -1       569 9.45998E-05-2.97580E-05-2.76230E-05 3.74773E-05-2.19265E-18 2.97571E-18
 -1       570 1.08865E-04-3.72612E-05-3.06688E-05 6.70201E-06-7.29871E-19-4.23040E-19
 -1       571 1.12056E-04-3.98111E-05-3.09342E-05 1.75344E-05 1.28586E-19-9.52619E-19
 -1       572 7.28834E-05-1.52813E-05-2.44058E-05 3.04293E-05-1.03239E-18 2.42900E-18
 -1       573 5.91494E-05-5.87297E-06-2.25063E-05 6.27973E-06-1.04954E-18 6.04967E-19
 -1       574 6.57759E-05-1.03435E-05-2.34408E-05-2.23478E-05 2.80434E-19 8.43195E-19
 -1       575 8.62629E-05-2.42695E-05-2.62844E-05-3.70046E-05 1.06603E-18-5.57096E-19
 -1       576 1.04512E-04-3.63876E-05-2.91142E-05-3.38853E-05 1.09316E-18 1.46144E-18
 -1       577 1.11608E-04-3.99354E-05-3.06606E-05-2.19081E-05-1.00499E-19 1.78701E-18
 -1       578 1.10024E-04-3.81764E-05-3.08014E-05-1.01053E-05-5.41816E-19-8.16304E-19
 -1       579 3.76155E-05-1.47166E-05-9.02893E-06 2.10846E-05-2.47593E-18 2.12574E-18
 -1       580 1.08113E-04-5.80304E-05-2.11321E-05 5.12492E-05 2.62522E-18 2.66418E-18
 -1       581 9.45264E-05-2.72952E-05-2.88047E-05 9.79682E-07 4.35436E-19 6.29371E-19
 -1       582 1.46688E-04-2.85952E-05-5.11756E-05-7.15574E-06 2.58795E-18 1.00469E-18
 -1       583 5.64555E-05-3.23571E-05-9.84872E-06-4.58587E-05-2.34056E-18 1.07054E-18
 -1       584 1.41593E-04-6.68405E-05-3.20266E-05 2.93790E-05 1.27849E-18 1.00021E-18
 -1       585 3.57115E-05-1.50078E-05-8.15752E-06-1.93419E-05-2.32057E-18 7.26331E-19
 -1       586 1.43272E-04-6.59690E-05-3.32169E-05 9.14342E-06-2.32087E-19 2.86377E-18
 -1       587 2.33600E-05-1.75173E-05-1.80301E-06-7.69605E-07 7.04152E-19-7.23366E-19
 -1       588 8.91519E-05-1.28770E-05-3.27073E-05-1.93627E-06 6.08331E-19-7.17599E-19
 -1       589 1.38991E-04-1.11485E-05-5.54575E-05 1.46572E-05 6.99755E-19 8.98702E-19
 -1       590 1.15745E-04-6.47748E-05-2.16272E-05 3.33137E-05 1.02957E-18-8.64344E-19
 -1       591 1.35136E-04-1.09477E-05-5.39759E-05-2.43412E-06 2.24813E-18 1.75847E-18
 -1       592 1.48035E-04-2.87297E-05-5.16401E-05 1.80689E-05 1.18262E-18 1.88052E-18
 -1       593 1.48820E-04-5.31668E-05-4.13793E-05 1.01683E-05-6.30603E-19 6.65980E-20
 -1       594 1.38282E-04-6.64898E-05-3.08462E-05-1.77070E-05-1.62154E-18-4.86620E-19
 -1       595 1.10010E-04-6.26844E-05-2.01028E-05-3.66905E-05-2.27746E-18-7.03256E-19
 -1       596 7.42878E-05-4.71341E-05-1.12212E-05-4.27820E-05-2.01949E-18-1.71381E-18
 -1       597 3.50526E-05-2.37568E-05-4.17741E-06-2.56318E-05-1.37227E-18 1.29173E-19
 -1       598 3.79569E-05-2.47637E-05-4.97791E-06 2.72415E-05 1.44869E-18-1.81276E-18
 -1       599 1.46528E-04-3.39549E-05-4.87907E-05 7.71404E-06-1.39284E-18 6.57298E-19
 -1       600 1.49442E-04-4.87449E-05-4.35552E-05-1.42875E-05-4.43739E-19 2.60389E-18
 -1       601 1.42135E-04-2.41883E-05-5.11676E-05-2.10867E-05-1.96559E-18 1.40830E-18
 -1       602 1.37732E-04-8.82793E-06-5.59746E-05-1.03224E-05-1.54944E-18 8.52618E-19
 -1       603 1.40449E-04-1.37506E-05-5.49956E-05 3.38113E-06-1.48443E-18-7.47268E-19
 -1       604 1.53574E-04-5.83319E-05-4.10762E-05-8.67854E-06 5.53218E-19 2.00567E-18
 -1       605 1.35875E-04-6.69781E-05-2.94664E-05-3.55397E-05-7.83929E-19 1.15220E-18
 -1       606 9.91610E-05-5.42787E-05-1.88761E-05-5.27460E-05-1.71736E-19 3.62175E-18
 -1       607 9.45973E-05-2.07556E-05-3.16651E-05-9.43126E-06-2.11560E-19-1.02536E-18
 -1       608 9.61655E-05-2.31918E-05-3.12780E-05 9.57950E-06 5.60421E-19 1.18230E-18
 -1       609 6.30080E-05-3.47236E-05-1.16214E-05 4.83420E-05 1.02597E-19 3.05165E-18
 -1       610 1.23512E-04-9.29635E-06-4.95672E-05 7.28434E-06 1.05122E-18 2.48552E-18
 -1       611 9.13525E-05-1.58947E-05-3.23629E-05-7.69793E-06 2.13541E-19-1.13566E-18
 -1       612 9.27625E-05-1.79261E-05-3.20943E-05-8.88456E-06 3.57532E-20-1.09993E-18
 -1       613 5.91629E-05-3.22306E-05-1.10059E-05-3.46869E-05 1.05217E-19-1.48855E-18
 -1       614 1.06565E-04-3.58286E-05-3.03169E-05-2.13461E-06-1.85004E-19-1.08071E-19
 -1       615 9.15478E-05-1.68476E-05-3.20200E-05 2.43908E-06 8.34924E-19-3.24341E-19
 -1       616 9.12883E-05-1.64451E-05-3.20810E-05 8.39890E-07 6.58061E-19-3.80040E-19
 -1       617 9.28875E-05-1.89966E-05-3.16732E-05 5.26152E-06 9.19887E-19 7.76900E-20
 -1       618 9.39844E-05-2.09293E-05-3.13173E-05 6.13832E-06 9.01060E-19 1.87035E-19
 -1       619 9.52750E-05-2.40957E-05-3.04952E-05 5.14432E-06 6.54068E-19 3.03364E-19
 -1       620 1.30176E-04-2.09558E-05-4.73870E-05 2.09605E-05 2.70098E-19 2.24398E-18
 -1       621 1.25686E-04-2.26241E-05-4.45888E-05 9.10952E-06-1.64838E-18 3.80080E-19
 -1       622 1.17929E-04-5.60686E-05-2.63122E-05-4.11170E-05 5.18278E-19 1.70046E-18
 -1       623 9.54196E-05-2.57091E-05-2.98745E-05-2.43200E-06-1.93617E-19-7.90733E-19
 -1       624 9.54757E-05-2.69463E-05-2.93691E-05-8.63510E-07-2.39594E-19-8.44876E-19
 -1       625 9.54201E-05-2.77072E-05-2.90196E-05 1.37192E-07 8.83910E-20-7.89017E-19
 -1       626 9.53435E-05-2.81796E-05-2.87845E-05 7.24084E-07-4.05352E-20-9.04244E-19
 -1       627 9.52786E-05-2.84712E-05-2.86318E-05 1.02450E-06 2.31277E-19-7.20902E-19
 -1       628 9.52331E-05-2.86455E-05-2.85376E-05 1.13494E-06 1.45279E-19-2.17552E-19
 -1       629 9.52053E-05-2.87422E-05-2.84843E-05 1.12562E-06 2.50611E-19 2.76984E-19
 -1       630 9.51910E-05-2.87871E-05-2.84589E-05 1.04656E-06-2.12660E-21 7.02580E-19
 -1       631 9.51864E-05-2.87975E-05-2.84525E-05 9.32756E-07-1.68519E-19-7.19801E-20
 -1       632 9.51881E-05-2.87850E-05-2.84586E-05 8.08390E-07-1.55185E-19-6.70918E-19
 -1       633 9.51940E-05-2.87573E-05-2.84729E-05 6.90048E-07-3.58732E-19-6.20855E-19
 -1       634 9.52024E-05-2.87190E-05-2.84930E-05 5.89234E-07-6.06882E-19-3.54565E-19
 -1       635 9.52128E-05-2.86728E-05-2.85172E-05 5.14301E-07-1.41005E-18-2.82980E-19
 -1       636 9.52247E-05-2.86194E-05-2.85452E-05 4.71923E-07-7.95219E-19-1.54413E-19
 -1       637 9.52382E-05-2.85583E-05-2.85771E-05 4.68227E-07-4.31443E-20-9.20727E-20
 -1       638 9.52536E-05-2.84880E-05-2.86138E-05 5.09659E-07 6.88661E-19-3.31256E-19
 -1       639 9.52714E-05-2.84063E-05-2.86564E-05 6.03597E-07 3.28703E-19 2.43712E-19
 -1       640 9.52921E-05-2.83104E-05-2.87064E-05 7.58751E-07 5.87627E-19 2.20044E-19
 -1       641 9.53165E-05-2.81976E-05-2.87651E-05 9.85329E-07 9.25171E-19-2.66820E-19
 -1       642 9.53452E-05-2.80654E-05-2.88340E-05 1.29491E-06 5.80511E-20-1.91856E-19
 -1       643 9.53792E-05-2.79126E-05-2.89140E-05 1.69998E-06-7.09676E-20 3.13992E-19
 -1       644 9.54199E-05-2.77405E-05-2.90051E-05 2.21295E-06-5.78694E-19-6.88113E-20
 -1       645 9.54701E-05-2.75548E-05-2.91061E-05 2.84457E-06 4.19706E-19 4.77879E-20
 -1       646 9.55359E-05-2.73696E-05-2.92136E-05 3.60143E-06 5.69823E-19 4.08619E-19
 -1       647 9.56298E-05-2.72121E-05-2.93213E-05 4.48237E-06 6.52237E-20 1.34072E-19
 -1       648 9.57779E-05-2.71318E-05-2.94191E-05 5.47343E-06 4.48367E-20 7.39121E-19
 -1       649 9.60305E-05-2.72125E-05-2.94928E-05 6.54086E-06 7.84589E-19 6.61541E-19
 -1       650 9.64814E-05-2.75890E-05-2.95248E-05 7.62128E-06-2.19464E-19-1.26556E-19
 -1       651 9.72933E-05-2.84662E-05-2.94971E-05 8.60683E-06-4.35074E-19 6.17895E-19
 -1       652 9.87314E-05-3.01300E-05-2.94011E-05 9.31947E-06-1.10886E-18 9.43776E-19
 -1       653 1.01183E-04-3.29238E-05-2.92561E-05 9.46377E-06-7.89226E-19 1.18015E-18
 -1       654 1.05119E-04-3.71268E-05-2.91426E-05 8.55282E-06 4.14981E-19 5.81686E-19
 -1       655 1.10916E-04-4.26549E-05-2.92619E-05 5.80764E-06-6.01192E-19 7.00440E-19
 -1       656 1.18292E-04-4.83238E-05-3.00023E-05 1.35058E-07-5.99957E-19 1.58944E-19
 -1       657 1.25361E-04-5.12182E-05-3.18009E-05-8.80247E-06-4.99240E-19-5.72227E-20
 -1       658 1.28030E-04-4.56182E-05-3.54884E-05-1.92098E-05-4.51191E-19 1.36565E-18
 -1       659 1.24413E-04-3.08757E-05-4.03585E-05-2.37854E-05 6.49833E-20 1.59107E-18
 -1       660 1.17298E-04-1.50240E-05-4.43571E-05-1.60273E-05-7.08331E-19 1.36959E-18
 -1       661 1.26684E-04-4.26318E-05-3.61671E-05 6.93975E-06-8.35254E-20-2.92266E-19
 -1       662 1.22710E-04-4.61883E-05-3.28715E-05-1.98559E-06 6.52765E-19 9.69069E-19
 -1       663 9.49848E-05-2.81161E-05-2.86578E-05-7.39554E-07 3.68871E-19 1.19638E-19
 -1       664 5.94202E-05-1.99752E-05-1.63227E-05-3.49684E-05-1.49152E-18 8.73609E-19
 -1       665 9.50952E-05-2.77092E-05-2.88791E-05-1.30870E-07 4.94328E-19 6.82032E-20
 -1       666 9.49016E-05-2.85294E-05-2.84453E-05-1.15920E-06 3.53135E-20 4.73817E-19
 -1       667 9.49095E-05-2.86241E-05-2.84082E-05-1.14827E-06 4.70709E-19 3.36495E-19
 -1       668 9.49352E-05-2.86757E-05-2.83971E-05-1.06616E-06 1.57467E-19 5.25730E-19
 -1       669 9.49704E-05-2.86979E-05-2.84027E-05-9.48485E-07 5.45820E-19 3.23433E-19
 -1       670 9.50095E-05-2.87001E-05-2.84185E-05-8.19607E-07 8.91387E-19 7.64558E-19
 -1       671 9.50491E-05-2.86884E-05-2.84404E-05-6.96073E-07 5.12721E-19 1.08487E-18
 -1       672 9.50876E-05-2.86670E-05-2.84661E-05-5.89217E-07 3.38743E-22 6.17932E-19
 -1       673 9.51248E-05-2.86383E-05-2.84943E-05-5.07117E-07 3.01683E-19 4.95235E-19
 -1       674 9.51613E-05-2.86033E-05-2.85249E-05-4.56065E-07-2.08573E-20 1.09210E-18
 -1       675 9.51986E-05-2.85624E-05-2.85584E-05-4.41710E-07-8.14940E-20 8.01231E-19
 -1       676 9.52387E-05-2.85150E-05-2.85959E-05-4.69920E-07-2.01121E-19 7.26943E-19
 -1       677 9.52844E-05-2.84601E-05-2.86389E-05-5.47391E-07 2.08604E-19 6.70402E-19
 -1       678 9.53389E-05-2.83964E-05-2.86895E-05-6.82028E-07-4.32288E-19 1.07031E-18
 -1       679 9.54058E-05-2.83230E-05-2.87496E-05-8.83084E-07-1.59604E-20 6.19214E-19
 -1       680 9.54897E-05-2.82394E-05-2.88213E-05-1.16100E-06 1.32320E-19 1.21516E-18
 -1       681 9.55958E-05-2.81465E-05-2.89065E-05-1.52685E-06-8.12933E-19 1.48947E-18
 -1       682 9.57307E-05-2.80477E-05-2.90065E-05-1.99123E-06-3.89219E-19 6.12958E-19
 -1       683 9.59027E-05-2.79509E-05-2.91216E-05-2.56234E-06 1.58963E-20 2.94167E-19
 -1       684 9.61237E-05-2.78709E-05-2.92504E-05-3.24311E-06 7.35698E-19 9.22217E-19
 -1       685 9.64112E-05-2.78343E-05-2.93893E-05-4.02671E-06-4.04166E-19 7.80373E-19
 -1       686 9.67936E-05-2.78852E-05-2.95313E-05-4.89018E-06-1.02355E-18-1.00025E-18
 -1       687 9.73171E-05-2.80947E-05-2.96660E-05-5.78543E-06-3.79594E-19-3.17099E-19
 -1       688 9.80576E-05-2.85708E-05-2.97796E-05-6.62674E-06-5.74562E-19 3.50683E-19
 -1       689 9.91347E-05-2.94670E-05-2.98578E-05-7.27418E-06-9.98598E-19-3.37927E-19
 -1       690 1.00724E-04-3.09789E-05-2.98920E-05-7.51156E-06-7.91176E-19-2.95360E-19
 -1       691 1.03050E-04-3.33075E-05-2.98928E-05-7.01973E-06-1.51484E-20 2.22731E-19
 -1       692 1.06329E-04-3.65458E-05-2.99122E-05-5.35039E-06 7.13121E-19 5.40987E-19
 -1       693 1.10572E-04-4.04118E-05-3.00727E-05-1.94681E-06 7.77679E-19 5.89426E-19
 -1       694 1.15232E-04-4.38505E-05-3.05968E-05 3.61116E-06 4.22176E-19 6.82960E-19
 -1       695 1.18986E-04-4.48902E-05-3.17787E-05 1.11725E-05 1.55113E-18 1.76106E-18
 -1       696 1.19430E-04-4.04009E-05-3.38840E-05 1.88491E-05 1.07705E-18 1.99728E-18
 -1       697 1.14829E-04-3.01986E-05-3.64264E-05 2.16560E-05 9.84888E-19-1.38335E-18
 -1       698 1.08952E-04-1.97313E-05-3.84305E-05 1.54120E-05-4.66239E-19-9.51784E-19
 -1       699 1.06758E-04-1.66357E-05-3.89099E-05 3.15996E-06 5.55766E-19-2.15451E-18
 -1       700 1.11041E-04-2.40885E-05-3.73744E-05-7.00181E-06 4.13580E-19-2.18081E-18
 -1       701 1.14878E-04-3.39028E-05-3.48081E-05-8.72861E-06 1.16626E-18-2.86973E-18
 -1       702 1.14884E-04-3.92588E-05-3.24356E-05-4.20327E-06 1.26358E-18-2.13342E-18
 -1       703 1.13307E-04-4.00816E-05-3.13776E-05 1.60942E-06 3.34746E-19 2.04041E-20
 -1       704 1.23690E-04-5.89324E-05-2.75968E-05 3.84988E-05 5.98998E-19-1.70234E-21
 -1       705 5.26569E-05-1.38549E-05-1.59821E-05 2.61215E-05-2.19339E-18 2.21631E-18
 -1       706 1.29671E-04-6.50691E-05-2.77386E-05 1.46840E-05 1.33021E-18 3.01639E-18
 -1       707 1.13030E-04-4.82997E-05-2.75085E-05 3.86823E-05 1.15964E-19-1.65072E-18
 -1       708 8.46833E-05-3.35476E-05-2.15949E-05 4.48994E-05-6.20981E-20 5.37281E-18
 -1       709 1.29063E-04-5.58056E-05-3.14202E-05-2.09588E-05-3.10491E-20 5.15213E-19
 -1       710 1.18186E-04-4.44758E-05-3.15803E-05-8.72339E-06 1.29131E-19 4.14894E-19
 -1       711 8.85682E-05-4.02000E-05-2.03787E-05-4.82356E-05-1.28421E-18 9.06749E-19
 -1       712 9.36573E-05-5.14033E-05-1.77619E-05 3.56337E-05 4.83047E-19 1.12471E-18
 -1       713 1.23112E-04-1.08883E-05-4.86387E-05-2.00750E-06-1.28177E-18 1.09682E-18
 -1       714 9.52350E-05-2.70427E-05-2.92231E-05 9.22273E-07 4.79625E-19 1.92112E-19
 -1       715 9.49227E-05-2.83710E-05-2.85222E-05-1.04750E-06 1.06488E-20 2.20549E-19
 -1       716 9.50373E-05-2.36745E-05-3.05855E-05-4.72146E-06-2.52745E-21-6.46334E-19
 -1       717 1.26305E-04-6.49633E-05-2.61985E-05-2.13543E-05-1.00514E-18-1.58181E-18
 -1       718 9.17281E-05-4.20293E-05-2.10604E-05 4.81192E-05 1.05678E-18 3.97992E-18
 -1       719 9.53381E-05-2.59392E-05-2.97383E-05 2.60063E-06 5.99509E-19 2.24746E-19
 -1       720 9.20736E-05-1.76750E-05-3.18910E-05 3.94751E-06 9.38462E-19-1.88037E-19
 -1       721 9.20322E-05-1.76172E-05-3.18979E-05-3.89599E-06 2.44108E-19-8.29568E-19
 -1       722 1.40765E-04-5.84735E-05-3.54477E-05-8.63524E-06 3.80344E-19 3.18458E-18
 -1       723 1.27032E-04-2.09881E-05-4.58863E-05-8.45979E-06 1.57209E-18 4.67006E-19
 -1       724 6.39020E-05-3.17060E-05-1.33245E-05 3.26481E-05 8.93779E-19-1.53030E-18
 -1       725 4.07032E-05-1.59601E-05-1.00591E-05 1.08900E-05 8.00215E-19-1.22290E-19
 -1       726 1.39939E-04-6.20023E-05-3.35263E-05-8.39953E-08-6.56454E-19-1.48334E-18
 -1       727 9.96921E-05-5.45973E-05-1.90621E-05-3.52616E-05-1.33207E-18-1.20979E-18
 -1       728 3.95987E-05-1.57070E-05-9.67693E-06-9.46265E-06 1.03692E-18 8.29404E-19
 -1       729 1.39150E-04-4.25027E-05-4.17926E-05-6.77153E-06 1.06790E-18-3.25658E-19
 -1       730 1.41363E-04-6.17942E-05-3.41565E-05-1.51227E-05 1.89993E-19 1.08349E-18
 -1       731 4.30649E-05-9.51321E-06-1.37919E-05-5.75362E-06-2.18376E-18-6.51157E-19
 -1       732 1.38964E-04-4.11855E-05-4.22416E-05-2.12322E-05 1.92885E-19 3.07984E-18
 -1       733 1.37207E-04-4.01991E-05-4.18861E-05 2.08816E-05 1.12145E-18 3.51212E-18
 -1       734 1.41401E-04-4.79670E-05-4.04244E-05 4.75209E-06 1.85858E-19 8.76944E-19
 -1       735 1.42137E-04-5.76691E-05-3.64017E-05 8.15363E-06-3.67986E-19-7.93961E-19
 -1       736 9.41977E-05-2.12086E-05-3.12785E-05-6.73683E-06-2.54478E-20-8.65347E-19
 -1       737 9.28535E-05-1.89354E-05-3.16816E-05-5.22223E-06 2.05756E-19-9.51438E-19
 -1       738 9.12814E-05-1.64357E-05-3.20821E-05-7.82919E-07 5.10788E-19-5.91181E-19
 -1       739 1.33541E-04-5.82539E-05-3.22165E-05 1.96648E-05-9.25417E-20-2.68157E-18
 -1       740 1.20863E-04-4.66575E-05-3.18090E-05 1.17734E-05 1.17090E-18-1.10097E-18
 -1       741 1.12532E-04-5.67981E-05-2.37377E-05 2.38707E-05 1.19933E-18 1.07506E-18
 -1       742 8.21031E-05-4.11356E-05-1.72411E-05-3.37607E-05 7.08517E-19-5.41466E-19
 -1       743 5.27534E-05-2.07752E-05-1.33153E-05-2.05640E-05 1.86440E-18-4.15020E-19
 -1       744 9.15249E-05-1.68158E-05-3.20238E-05-2.37883E-06 4.38557E-19-6.36339E-19
 -1       745 1.21362E-04-4.99002E-05-3.06181E-05 2.46095E-05 9.79261E-19-9.84391E-19
 -1       746 1.36389E-04-5.25936E-05-3.60801E-05 1.35367E-05 1.49992E-18 6.35129E-19
 -1       747 9.46414E-05-2.27431E-05-3.08145E-05 3.89163E-06 8.07444E-19 4.16566E-20
 -1       748 9.34664E-05-1.99309E-05-3.15152E-05-6.09342E-06 3.02200E-20-8.55238E-19
 -1       749 9.49197E-05-2.34360E-05-3.06375E-05-3.50979E-06-1.00702E-19-7.62485E-19
 -1       750 9.58658E-05-2.68856E-05-2.95630E-05-5.80424E-07-3.89218E-20-4.23023E-19
 -1       751 9.59588E-05-2.77752E-05-2.92216E-05 2.20401E-07-1.41758E-19-4.50750E-19
 -1       752 9.59477E-05-2.83376E-05-2.89758E-05 6.96953E-07 7.53233E-20-3.71904E-19
 -1       753 9.58875E-05-2.86798E-05-2.88033E-05 9.40473E-07 4.53710E-19-4.34664E-19
 -1       754 9.58074E-05-2.88735E-05-2.86860E-05 1.02587E-06 5.78215E-19-5.31178E-19
 -1       755 9.57229E-05-2.89674E-05-2.86095E-05 1.01066E-06 3.04540E-19-2.35959E-19
 -1       756 9.56422E-05-2.89950E-05-2.85631E-05 9.37242E-07-4.16608E-19-2.29452E-19
 -1       757 9.55688E-05-2.89791E-05-2.85385E-05 8.36006E-07-3.93090E-19 8.65364E-20
 -1       758 9.55042E-05-2.89352E-05-2.85296E-05 7.28322E-07-3.08312E-19-4.18972E-19
 -1       759 9.54481E-05-2.88730E-05-2.85322E-05 6.29166E-07-6.43047E-19-8.27442E-19
 -1       760 9.53991E-05-2.87979E-05-2.85434E-05 5.49253E-07-9.50960E-19-5.39698E-19
 -1       761 9.53554E-05-2.87122E-05-2.85614E-05 4.96699E-07-6.23178E-19 5.52939E-19
 -1       762 9.53143E-05-2.86157E-05-2.85851E-05 4.78318E-07-6.59212E-19 1.12642E-18
 -1       763 9.52727E-05-2.85062E-05-2.86142E-05 5.00631E-07-1.01694E-19 3.71298E-19
 -1       764 9.52270E-05-2.83801E-05-2.86487E-05 5.70599E-07 9.28447E-19 1.50803E-19
 -1       765 9.51728E-05-2.82326E-05-2.86886E-05 6.96131E-07 3.97313E-19-2.25361E-19
 -1       766 9.51052E-05-2.80585E-05-2.87343E-05 8.86351E-07 4.91924E-19 5.25357E-19
 -1       767 9.50183E-05-2.78523E-05-2.87854E-05 1.15164E-06 8.54351E-19-2.45875E-19
 -1       768 9.49059E-05-2.76093E-05-2.88414E-05 1.50338E-06 4.68523E-19 4.31200E-19
 -1       769 9.47611E-05-2.73271E-05-2.89002E-05 1.95345E-06-2.56112E-19 5.20035E-19
 -1       770 9.45775E-05-2.70071E-05-2.89587E-05 2.51328E-06-5.02228E-19 3.80205E-19
 -1       771 9.43508E-05-2.66581E-05-2.90111E-05 3.19272E-06-9.95949E-20-5.72493E-19
 -1       772 9.40817E-05-2.63009E-05-2.90487E-05 3.99855E-06 1.21630E-19-1.50101E-18
 -1       773 9.37818E-05-2.59763E-05-2.90593E-05 4.93309E-06 5.09454E-19-5.61134E-19
 -1       774 9.34836E-05-2.57556E-05-2.90260E-05 5.99305E-06-3.84369E-20 5.63831E-19
 -1       775 9.32566E-05-2.57570E-05-2.89281E-05 7.16902E-06-2.94406E-19-9.75746E-20
 -1       776 9.32340E-05-2.61668E-05-2.87427E-05 8.44496E-06 2.15283E-20-2.98354E-19
 -1       777 9.36522E-05-2.72657E-05-2.84508E-05 9.79340E-06-8.86021E-19-5.25422E-19
 -1       778 9.49084E-05-2.94532E-05-2.80513E-05 1.11516E-05 8.05461E-20 7.83896E-20
 -1       779 9.76240E-05-3.32410E-05-2.75924E-05 1.23358E-05-7.70577E-19 4.06486E-19
 -1       780 1.02659E-04-3.91304E-05-2.72178E-05 1.28967E-05-4.55418E-19 5.17729E-19
 -1       781 1.10879E-04-4.71255E-05-2.73011E-05 1.17365E-05-8.64718E-19-1.59116E-20
 -1       782 1.22782E-04-5.61116E-05-2.85017E-05 6.81522E-06 3.49201E-19 1.32438E-18
 -1       783 1.32429E-04-5.35805E-05-3.38002E-05-6.85151E-06 8.93219E-19 1.80341E-18
 -1       784 9.55038E-05-2.88705E-05-2.85572E-05-1.07083E-06 1.75051E-19 3.62098E-19
 -1       785 9.55642E-05-2.87756E-05-2.86237E-05-1.08478E-06 5.58312E-20-4.37936E-20
 -1       786 9.54072E-05-2.89011E-05-2.85027E-05-8.85460E-07 2.70003E-19 3.03469E-19
 -1       787 9.53710E-05-2.88710E-05-2.85000E-05-7.69314E-07 2.78027E-19 3.10825E-19
 -1       788 9.53415E-05-2.88242E-05-2.85075E-05-6.60820E-07 5.45954E-19 7.24163E-19
 -1       789 9.53176E-05-2.87656E-05-2.85223E-05-5.71133E-07 1.62346E-19 4.72418E-19
 -1       790 9.52978E-05-2.86979E-05-2.85428E-05-5.08516E-07-9.08711E-20 1.03195E-18
 -1       791 9.52808E-05-2.86214E-05-2.85683E-05-4.79756E-07 3.43258E-19 8.21596E-19
 -1       792 9.52647E-05-2.85347E-05-2.85986E-05-4.91234E-07-3.09160E-19 1.02624E-18
 -1       793 9.52481E-05-2.84353E-05-2.86340E-05-5.49699E-07-6.01500E-19 8.01358E-19
 -1       794 9.52288E-05-2.83201E-05-2.86751E-05-6.62789E-07 1.93296E-19 1.26495E-18
 -1       795 9.52049E-05-2.81852E-05-2.87227E-05-8.39329E-07-4.23586E-19 8.80617E-19
 -1       796 9.51742E-05-2.80275E-05-2.87771E-05-1.08936E-06-5.25470E-19 7.61545E-19
 -1       797 9.51345E-05-2.78444E-05-2.88385E-05-1.42384E-06-3.62083E-19 1.13724E-18
 -1       798 9.50843E-05-2.76360E-05-2.89063E-05-1.85401E-06 3.85187E-20 6.01971E-19
 -1       799 9.50234E-05-2.74065E-05-2.89785E-05-2.39024E-06-2.95972E-19 8.84878E-19
 -1       800 9.49549E-05-2.71677E-05-2.90515E-05-3.04035E-06 2.31263E-20 8.10343E-20
 -1       801 9.48881E-05-2.69429E-05-2.91191E-05-3.80722E-06 1.29633E-19 5.60306E-19
 -1       802 9.48440E-05-2.67742E-05-2.91725E-05-4.68571E-06-1.13103E-19 4.48826E-19
 -1       803 9.48643E-05-2.67320E-05-2.91993E-05-5.65862E-06-5.50811E-19 1.32928E-19
 -1       804 9.50256E-05-2.69276E-05-2.91845E-05-6.69126E-06-6.71310E-19-1.38454E-18
 -1       805 9.54594E-05-2.75283E-05-2.91131E-05-7.72328E-06-8.95063E-19-1.83277E-18
 -1       806 9.63793E-05-2.87699E-05-2.89753E-05-8.65448E-06-5.08042E-19-1.60125E-18
 -1       807 9.81082E-05-3.09558E-05-2.87796E-05-9.31524E-06-9.77525E-19-1.73967E-18
 -1       808 1.01085E-04-3.44100E-05-2.85755E-05-9.40853E-06 2.18900E-19-1.11730E-18
 -1       809 1.05808E-04-3.93261E-05-2.84941E-05-8.38053E-06 3.24955E-19-1.60398E-18
 -1       810 1.12556E-04-4.53385E-05-2.87992E-05-5.30660E-06 6.56083E-19-6.74594E-19
 -1       811 1.20176E-04-5.02571E-05-2.99873E-05 7.74925E-07-6.24176E-19-4.72744E-19
 -1       812 1.27690E-04-5.16153E-05-3.26138E-05 9.97491E-06-1.07674E-19 5.76711E-19
 -1       813 1.27708E-04-4.51854E-05-3.54706E-05-3.20800E-06 2.73420E-19-1.24928E-18
 -1       814 1.26063E-04-4.83519E-05-3.33209E-05 4.56904E-06-1.38514E-19-9.01701E-19
 -1       815 5.15713E-05-1.48111E-05-1.54608E-05-2.97479E-07-1.93661E-19-4.45182E-19
 -1       816 1.13796E-04-5.62317E-05-2.45552E-05-2.15587E-05 2.56449E-19-2.42078E-18
 -1       817 8.86243E-05-4.12848E-05-2.00860E-05 2.91022E-05 5.24062E-19 1.38888E-18
 -1       818 9.56867E-05-2.69066E-05-2.94770E-05 6.85479E-07 5.94569E-19-1.52996E-19
 -1       819 9.54513E-05-2.89055E-05-2.85197E-05-9.93531E-07 3.83964E-19 3.70719E-19
 -1       820 9.57296E-05-2.77503E-05-2.91340E-05-1.99529E-07 2.89701E-19-9.04685E-20
 -1       821 9.55678E-05-2.55037E-05-3.00270E-05-1.80276E-06-1.38798E-19-7.30608E-19
 -1       822 1.19954E-04-1.35704E-05-4.60180E-05-3.68577E-07 5.28787E-19 7.95510E-19
 -1       823 5.92567E-05-2.15719E-05-1.59025E-05 1.99620E-05 7.51669E-19-1.44328E-18
 -1       824 1.27976E-04-6.02417E-05-2.90675E-05-7.96837E-06-3.09245E-19-1.92908E-18
 -1       825 9.52124E-05-2.44773E-05-3.03143E-05 3.41975E-06 6.49000E-19 9.60711E-20
 -1       826 9.31975E-05-1.97745E-05-3.14681E-05 1.23261E-06 5.63833E-19-1.48987E-19
 -1       827 9.30871E-05-1.95761E-05-3.15059E-05 1.98954E-08 5.51669E-19-3.75962E-19
 -1       828 9.40195E-05-2.13498E-05-3.11449E-05 3.30598E-06 8.92357E-19-5.93706E-20
 -1       829 1.23949E-04-3.39203E-05-3.87996E-05-9.42203E-06 1.17040E-18-1.63638E-18
 -1       830 9.39836E-05-2.12927E-05-3.11558E-05-3.26381E-06 8.38713E-20-8.16731E-19
 -1       831 9.56915E-05-2.82718E-05-2.88942E-05-7.22501E-07 1.20721E-19 4.53752E-20
 -1       832 9.56296E-05-2.85910E-05-2.87309E-05-9.89637E-07-1.94270E-20-7.96640E-20
 -1       833 9.97746E-05-4.69497E-05-2.25758E-05-2.55898E-05 5.25445E-19-2.62734E-18
 -1       834 9.55122E-05-2.58960E-05-2.98356E-05 1.81939E-06 4.98480E-19 6.76896E-20
 -1       835 6.94898E-05-2.83760E-05-1.74111E-05-2.56905E-05 1.11907E-18-1.62571E-18
 -1       836 9.34867E-05-2.03221E-05-3.13582E-05-2.31564E-06 2.98462E-19-5.59284E-19
 -1       837 9.35156E-05-2.03621E-05-3.13527E-05 2.36146E-06 6.96814E-19-1.62679E-19
 -1       838 1.29462E-04-5.63328E-05-3.12702E-05 3.08680E-06-7.29428E-19-1.65711E-18
 -1       839 9.61936E-05-2.69947E-05-2.96569E-05-2.89620E-07 1.47235E-19-2.23311E-19
 -1       840 1.18355E-04-5.41794E-05-2.75081E-05-1.08902E-05-2.82380E-19-9.76672E-19
 -1       841 9.57821E-05-2.55819E-05-3.00857E-05-1.16994E-06 5.88626E-20-5.41790E-19
 -1       842 9.63614E-05-2.79262E-05-2.93295E-05 2.91931E-07 2.94650E-19-2.22695E-20
 -1       843 9.63824E-05-2.85195E-05-2.90841E-05 6.35521E-07 1.73388E-19 1.68671E-19
 -1       844 9.63193E-05-2.88753E-05-2.89046E-05 8.05981E-07 2.95277E-19-1.00140E-19
 -1       845 9.62121E-05-2.90667E-05-2.87766E-05 8.58031E-07 5.32357E-19-4.40325E-19
 -1       846 9.60862E-05-2.91464E-05-2.86885E-05 8.35113E-07 1.50819E-19-4.04357E-19
 -1       847 9.59571E-05-2.91517E-05-2.86309E-05 7.69965E-07-4.32814E-19 6.01326E-20
 -1       848 9.58334E-05-2.91087E-05-2.85963E-05 6.86345E-07-7.63614E-19-5.36865E-19
 -1       849 9.57190E-05-2.90343E-05-2.85792E-05 6.01169E-07-5.08161E-19-3.83922E-19
 -1       850 9.56145E-05-2.89389E-05-2.85753E-05 5.26597E-07-4.95388E-19 7.91760E-20
 -1       851 9.55181E-05-2.88278E-05-2.85815E-05 4.71587E-07-3.81203E-19 5.19695E-19
 -1       852 9.54262E-05-2.87024E-05-2.85959E-05 4.43196E-07-6.00652E-19 1.83187E-19
 -1       853 9.53339E-05-2.85610E-05-2.86170E-05 4.47638E-07-4.24850E-19 9.35384E-19
 -1       854 9.52347E-05-2.83995E-05-2.86437E-05 4.91072E-07 5.18732E-19 1.05814E-18
 -1       855 9.51208E-05-2.82120E-05-2.86752E-05 5.80155E-07 2.24281E-19 1.98961E-19
 -1       856 9.49833E-05-2.79915E-05-2.87108E-05 7.22384E-07 1.04116E-18-2.00109E-19
 -1       857 9.48117E-05-2.77303E-05-2.87492E-05 9.26233E-07 2.10449E-19-2.65556E-19
 -1       858 9.45940E-05-2.74210E-05-2.87885E-05 1.20109E-06 1.00420E-18 3.12857E-20
 -1       859 9.43175E-05-2.70575E-05-2.88257E-05 1.55702E-06-1.81235E-19-4.46364E-19
 -1       860 9.39681E-05-2.66371E-05-2.88562E-05 2.00429E-06-1.21925E-18-1.42458E-18
 -1       861 9.35327E-05-2.61627E-05-2.88729E-05 2.55299E-06-8.51585E-19-1.77801E-18
 -1       862 9.30001E-05-2.56467E-05-2.88658E-05 3.21275E-06 3.02038E-19-9.62439E-19
 -1       863 9.23653E-05-2.51167E-05-2.88208E-05 3.99332E-06 1.00906E-18-8.90594E-19
 -1       864 9.16351E-05-2.46233E-05-2.87193E-05 4.90661E-06 6.08559E-19-3.29509E-19
 -1       865 9.08384E-05-2.42516E-05-2.85371E-05 5.97159E-06-1.72035E-20 1.02251E-19
 -1       866 9.00423E-05-2.41367E-05-2.82451E-05 7.22301E-06-5.11359E-19-2.52408E-19
 -1       867 8.93786E-05-2.44860E-05-2.78108E-05 8.72549E-06-1.47314E-18-1.59068E-18
 -1       868 8.90907E-05-2.56139E-05-2.72038E-05 1.05878E-05 4.37519E-20-1.74155E-18
 -1       869 8.96087E-05-2.79865E-05-2.64077E-05 1.29712E-05 8.81866E-20-2.60589E-18
 -1       870 9.18227E-05-3.23402E-05-2.54978E-05 1.59011E-05 5.49342E-19-1.26026E-18
 -1       871 9.67798E-05-3.95232E-05-2.45166E-05 1.93107E-05-6.60414E-19-8.32078E-20
 -1       872 1.02818E-04-4.72424E-05-2.37266E-05 2.24787E-05 6.84806E-19 1.85563E-18
 -1       873 9.55464E-05-2.89124E-05-2.85574E-05-5.75808E-07-4.74762E-21 6.41411E-20
 -1       874 9.56302E-05-2.89932E-05-2.85587E-05-6.61660E-07-3.01713E-20-4.43238E-19
 -1       875 9.57233E-05-2.90542E-05-2.85725E-05-7.57564E-07 5.34090E-19-2.51293E-19
 -1       876 9.54707E-05-2.88174E-05-2.85657E-05-5.09803E-07-5.82006E-19 4.98387E-19
 -1       877 9.54001E-05-2.87099E-05-2.85815E-05-4.71179E-07-3.07531E-20 1.42781E-18
 -1       878 9.53309E-05-2.85890E-05-2.86037E-05-4.66497E-07 1.10814E-19 1.48458E-18
 -1       879 9.52582E-05-2.84517E-05-2.86314E-05-5.02157E-07-1.43517E-19 8.96150E-19
 -1       880 9.51763E-05-2.82933E-05-2.86641E-05-5.85034E-07-4.99190E-19 5.58071E-19
 -1       881 9.50787E-05-2.81084E-05-2.87015E-05-7.22892E-07-6.62796E-20 3.56791E-19
 -1       882 9.49580E-05-2.78910E-05-2.87430E-05-9.24569E-07 2.15718E-19-2.23491E-19
 -1       883 9.48062E-05-2.76358E-05-2.87873E-05-1.19994E-06-3.72969E-19-3.18108E-19
 -1       884 9.46150E-05-2.73393E-05-2.88324E-05-1.55963E-06-2.68122E-20-4.88764E-19
 -1       885 9.43766E-05-2.70016E-05-2.88750E-05-2.01451E-06-5.21917E-19-7.76942E-19
 -1       886 9.40852E-05-2.66291E-05-2.89097E-05-2.57493E-06-5.79287E-19-3.93334E-19
 -1       887 9.37394E-05-2.62386E-05-2.89288E-05-3.24993E-06-6.68420E-19 4.94252E-19
 -1       888 9.33468E-05-2.58630E-05-2.89216E-05-4.04655E-06-1.24607E-19 1.36708E-18
 -1       889 9.29313E-05-2.55593E-05-2.88736E-05-4.96973E-06 3.26734E-19 3.11739E-20
 -1       890 9.25441E-05-2.54206E-05-2.87671E-05-6.02304E-06 8.32446E-19-8.86317E-19
 -1       891 9.22828E-05-2.55909E-05-2.85820E-05-7.20996E-06-2.85141E-19-1.12157E-18
 -1       892 9.23176E-05-2.62839E-05-2.82998E-05-8.53351E-06-4.83286E-19-1.45915E-18
 -1       893 9.29305E-05-2.78031E-05-2.79113E-05-9.99065E-06-8.13851E-19-8.51972E-19
 -1       894 9.45797E-05-3.05636E-05-2.74331E-05-1.15324E-05-5.67437E-19-1.87686E-18
 -1       895 9.78889E-05-3.50173E-05-2.69412E-05-1.29906E-05 4.29822E-19-1.55144E-18
 -1       896 1.03931E-04-4.17083E-05-2.66582E-05-1.35748E-05-4.78855E-19-4.49792E-19
 -1       897 9.60521E-05-2.69518E-05-2.96148E-05 3.96961E-07 4.03122E-19-1.44252E-19
 -1       898 9.31830E-05-1.97569E-05-3.14703E-05-1.18906E-06 4.41045E-19-5.98627E-19
 -1       899 9.60417E-05-2.89845E-05-2.87388E-05-9.41697E-07-1.98085E-20-4.60111E-20
 -1       900 7.86864E-05-2.90062E-05-2.11988E-05 2.12184E-05 1.72995E-18 7.63872E-19
 -1       901 6.17929E-05-1.91203E-05-1.81294E-05-1.36170E-05 8.28574E-19-2.42959E-19
 -1       902 9.50996E-05-2.37503E-05-3.05777E-05-2.15075E-06-8.08047E-20-6.60455E-19
 -1       903 6.29566E-05-1.77785E-05-1.92736E-05 9.41607E-06 1.43047E-18 9.84014E-19
 -1       904 9.52536E-05-2.42383E-05-3.04333E-05 2.25318E-06 7.14820E-19-2.38826E-19
 -1       905 9.61896E-05-2.78647E-05-2.92821E-05-2.77552E-07 2.36393E-19-1.97202E-19
 -1       906 9.61369E-05-2.87924E-05-2.88620E-05-8.76895E-07-3.01668E-20 4.87324E-20
 -1       907 9.47982E-05-2.29183E-05-3.08052E-05-1.60594E-06 3.61253E-19-3.87617E-19
 -1       908 8.62977E-05-3.56008E-05-2.15985E-05-2.37763E-05 4.10433E-19-1.66230E-19
 -1       909 9.54396E-05-2.50832E-05-3.01519E-05 2.10109E-06 5.72942E-19-3.12093E-19
 -1       910 9.59340E-05-2.90705E-05-2.86558E-05-9.20478E-07 9.59619E-20 7.55826E-20
 -1       911 6.37821E-05-1.66390E-05-2.01491E-05-2.22864E-06 5.60734E-19-3.41427E-19
 -1       912 9.57756E-05-2.61160E-05-2.98557E-05 1.12194E-06 4.86382E-19-3.59037E-19
 -1       913 9.45369E-05-2.22697E-05-3.09717E-05 4.31109E-07 3.81192E-19-2.54715E-19
 -1       914 9.58255E-05-2.90854E-05-2.86029E-05-8.50108E-07 5.84992E-19 1.83564E-20
 -1       915 9.46822E-05-2.26088E-05-3.08888E-05 1.22155E-06 3.68970E-19-3.70030E-21
 -1       916 9.56658E-05-2.89498E-05-2.85925E-05-4.57499E-07-4.82945E-19 4.78830E-19
 -1       917 9.60564E-05-2.58964E-05-3.00695E-05-6.36569E-07 2.70037E-19 2.44094E-19
 -1       918 9.64863E-05-2.72474E-05-2.96739E-05-5.99613E-08 2.69692E-19 3.58165E-19
 -1       919 9.66667E-05-2.81501E-05-2.93643E-05 3.11306E-07 1.77819E-19 1.37894E-20
 -1       920 9.66859E-05-2.87221E-05-2.91273E-05 5.26209E-07 2.64640E-19 1.49519E-19
 -1       921 9.66063E-05-2.90561E-05-2.89501E-05 6.25804E-07 2.60613E-19 5.95996E-20
 -1       922 9.64724E-05-2.92235E-05-2.88210E-05 6.47259E-07 4.23855E-19 8.61065E-20
 -1       923 9.63138E-05-2.92771E-05-2.87300E-05 6.20399E-07 3.13343E-20 6.28522E-20
 -1       924 9.61493E-05-2.92552E-05-2.86689E-05 5.67664E-07-8.42907E-19 1.94828E-19
 -1       925 9.59896E-05-2.91841E-05-2.86309E-05 5.05371E-07-6.56001E-19 5.51012E-19
 -1       926 9.58389E-05-2.90804E-05-2.86108E-05 4.45466E-07-4.50734E-20 5.50146E-19
 -1       927 9.56977E-05-2.89540E-05-2.86044E-05 3.96729E-07-2.48161E-19 5.07001E-19
 -1       928 9.55632E-05-2.88092E-05-2.86089E-05 3.65721E-07-5.56186E-19 6.85151E-19
 -1       929 9.54296E-05-2.86456E-05-2.86217E-05 3.57847E-07-4.29121E-19 1.01755E-18
 -1       930 9.52893E-05-2.84599E-05-2.86412E-05 3.78108E-07 2.50495E-19 6.54975E-19
 -1       931 9.51327E-05-2.82460E-05-2.86657E-05 4.31605E-07 7.46249E-20 7.59450E-19
 -1       932 9.49482E-05-2.79960E-05-2.86938E-05 5.23882E-07 4.39382E-19 4.29884E-19
 -1       933 9.47224E-05-2.77009E-05-2.87236E-05 6.61114E-07 6.84529E-19 4.55728E-19
 -1       934 9.44400E-05-2.73511E-05-2.87524E-05 8.50135E-07 9.52899E-19 8.34040E-19
 -1       935 9.40836E-05-2.69380E-05-2.87767E-05 1.09833E-06 1.71248E-19 1.23916E-19
 -1       936 9.36347E-05-2.64553E-05-2.87912E-05 1.41345E-06-9.40599E-19-2.71596E-19
 -1       937 9.30732E-05-2.59008E-05-2.87883E-05 1.80345E-06-5.83535E-19 8.70176E-19
 -1       938 9.23793E-05-2.52792E-05-2.87573E-05 2.27660E-06-4.24444E-19 8.10436E-19
 -1       939 9.15344E-05-2.46059E-05-2.86838E-05 2.84247E-06 5.87727E-19-1.70387E-19
 -1       940 9.05237E-05-2.39119E-05-2.85481E-05 3.51451E-06 1.06718E-18-5.49293E-19
 -1       941 8.93393E-05-2.32492E-05-2.83246E-05 4.31581E-06 7.85493E-19-5.47930E-19
 -1       942 8.79855E-05-2.26996E-05-2.79800E-05 5.28982E-06-6.82369E-19 1.74574E-19
 -1       943 8.64859E-05-2.23842E-05-2.74726E-05 6.51794E-06-8.16196E-19 6.71718E-19
 -1       944 8.48969E-05-2.24791E-05-2.67510E-05 8.15247E-06-7.82138E-19 2.07155E-18
 -1       945 8.33490E-05-2.32598E-05-2.57540E-05 1.04340E-05-7.96914E-19 1.65114E-18
 -1       946 8.21550E-05-2.51382E-05-2.44266E-05 1.38115E-05 8.63701E-19 9.06805E-19
 -1       947 9.61980E-05-2.84431E-05-2.90379E-05-6.76725E-07-7.23756E-20-2.86225E-20
 -1       948 9.57912E-05-2.90627E-05-2.85979E-05-5.17624E-07-3.75350E-19 2.27143E-19
 -1       949 9.49414E-05-2.32750E-05-3.07145E-05 1.86527E-06 5.55992E-19 2.18341E-19
 -1       950 9.59270E-05-2.91542E-05-2.86169E-05-5.89263E-07 3.82656E-19 4.57761E-19
 -1       951 9.54323E-05-2.86731E-05-2.86111E-05-4.00384E-07-5.84042E-21 2.31108E-19
 -1       952 9.53133E-05-2.85073E-05-2.86312E-05-4.15343E-07-3.36475E-19 6.42512E-19
 -1       953 9.51827E-05-2.83174E-05-2.86566E-05-4.66908E-07 1.58276E-19 9.56450E-19
 -1       954 9.50308E-05-2.80967E-05-2.86860E-05-5.61336E-07 7.88283E-20 2.27898E-20
 -1       955 9.48467E-05-2.78376E-05-2.87182E-05-7.05697E-07 3.77784E-19 1.46957E-19
 -1       956 9.46180E-05-2.75324E-05-2.87510E-05-9.08003E-07 2.75538E-20 7.84617E-19
 -1       957 9.43313E-05-2.71744E-05-2.87816E-05-1.17717E-06-4.14110E-19 1.65872E-19
 -1       958 9.39727E-05-2.67596E-05-2.88057E-05-1.52289E-06-2.15027E-19 2.93065E-19
 -1       959 9.35286E-05-2.62888E-05-2.88171E-05-1.95547E-06-7.87795E-19-5.96910E-20
 -1       960 9.29876E-05-2.57711E-05-2.88071E-05-2.48582E-06-6.72573E-19-7.66666E-19
 -1       961 9.23432E-05-2.52277E-05-2.87638E-05-3.12602E-06-2.33109E-19-6.45716E-19
 -1       962 9.15978E-05-2.46980E-05-2.86714E-05-3.89103E-06 4.45852E-19-3.92573E-19
 -1       963 9.07695E-05-2.42472E-05-2.85096E-05-4.80254E-06 6.34403E-19-5.22005E-19
 -1       964 8.99023E-05-2.39775E-05-2.82536E-05-5.89631E-06 1.36289E-19 1.11715E-18
 -1       965 8.90842E-05-2.40436E-05-2.78748E-05-7.23263E-06-2.62726E-20 1.13578E-18
 -1       966 8.84737E-05-2.46717E-05-2.73438E-05-8.90571E-06-7.21452E-19 9.74665E-19
 -1       967 8.83282E-05-2.61743E-05-2.66374E-05-1.10690E-05 5.55949E-20 3.68875E-19
 -1       968 8.91577E-05-2.90936E-05-2.57437E-05-1.39648E-05-9.93444E-21-4.53816E-19
 -1       969 9.17783E-05-3.39493E-05-2.47484E-05-1.76402E-05-6.73939E-19-6.08922E-19
 -1       970 9.45344E-05-2.22662E-05-3.09721E-05-4.00699E-07 5.19625E-19-5.22073E-19
 -1       971 9.46290E-05-2.24918E-05-3.09155E-05-1.03524E-06 4.95619E-19-5.28394E-19
 -1       972 7.45560E-05-2.52698E-05-2.10694E-05-1.83949E-05 6.09536E-19 2.98083E-19
 -1       973 9.55477E-05-2.88197E-05-2.85977E-05-4.16316E-07-4.72094E-19 8.53718E-20
 -1       974 7.46484E-05-2.22358E-05-2.24521E-05 1.31781E-05 3.83087E-19-3.95773E-19
 -1       975 9.55320E-05-2.45572E-05-3.04160E-05-1.10598E-06 2.81726E-19-4.14952E-20
 -1       976 9.63647E-05-2.71483E-05-2.96644E-05 1.38350E-07 2.80974E-19 2.28916E-19
 -1       977 9.64873E-05-2.89807E-05-2.89314E-05-7.16144E-07 2.39103E-19-1.82354E-19
 -1       978 7.03029E-05-1.81809E-05-2.23108E-05 5.66906E-06-3.54696E-19 1.31551E-18
 -1       979 9.59510E-05-2.57855E-05-3.00700E-05 8.29095E-07 3.28317E-19 3.18485E-19
 -1       980 9.55668E-05-2.43481E-05-3.05214E-05 9.58279E-09 5.17455E-19-4.34263E-19
 -1       981 9.60717E-05-2.92133E-05-2.86535E-05-6.61694E-07 1.83763E-19 1.86448E-19
 -1       982 9.63652E-05-2.91583E-05-2.88030E-05-7.48989E-07 2.78313E-19-5.58959E-19
 -1       983 7.01649E-05-1.93543E-05-2.17526E-05-9.54209E-06-7.44039E-21-5.64519E-19
 -1       984 9.56032E-05-2.44812E-05-3.04801E-05 4.96095E-07 1.90714E-19-2.38727E-19
 -1       985 9.65387E-05-2.80582E-05-2.93488E-05-3.20973E-07 3.07799E-20 1.44453E-19
 -1       986 9.65593E-05-2.86379E-05-2.91091E-05-5.88404E-07-1.28423E-19 9.21417E-20
 -1       987 9.67336E-05-2.75990E-05-2.96293E-05 6.06999E-08 2.67318E-20-3.16144E-19
 -1       988 9.68825E-05-2.84191E-05-2.93416E-05 2.56528E-07 2.00084E-19-3.89324E-19
 -1       989 9.68723E-05-2.89276E-05-2.91193E-05 3.63034E-07 1.69337E-19-2.93580E-19
 -1       990 9.67649E-05-2.92111E-05-2.89517E-05 4.06625E-07 3.75035E-19 3.04116E-19
 -1       991 9.66041E-05-2.93367E-05-2.88288E-05 4.07884E-07 8.27668E-20 2.28412E-21
 -1       992 9.64208E-05-2.93563E-05-2.87419E-05 3.84459E-07-1.17517E-19-2.87281E-20
 -1       993 9.62323E-05-2.93046E-05-2.86833E-05 3.49043E-07-4.43842E-19 8.98504E-19
 -1       994 9.60492E-05-2.92064E-05-2.86469E-05 3.10164E-07-5.98392E-19 3.25735E-19
 -1       995 9.58746E-05-2.90762E-05-2.86279E-05 2.75734E-07-3.10450E-20 5.54915E-20
 -1       996 9.57081E-05-2.89227E-05-2.86223E-05 2.50524E-07-4.54386E-19 1.75542E-19
 -1       997 9.55449E-05-2.87481E-05-2.86272E-05 2.38461E-07-2.10762E-19 5.14861E-19
 -1       998 9.53772E-05-2.85504E-05-2.86401E-05 2.43016E-07-1.37443E-19 1.13505E-18
 -1       999 9.51949E-05-2.83242E-05-2.86589E-05 2.67497E-07 6.86881E-20 5.71493E-19
 -1      1000 9.49853E-05-2.80616E-05-2.86816E-05 3.15337E-07-2.06495E-19-2.15170E-20
 -1      1001 9.47337E-05-2.77531E-05-2.87060E-05 3.90251E-07 7.72391E-19-3.40680E-19
 -1      1002 9.44229E-05-2.73882E-05-2.87293E-05 4.96292E-07 9.45248E-19-3.14507E-19
 -1      1003 9.40337E-05-2.69565E-05-2.87475E-05 6.37798E-07-1.02904E-19-4.42177E-19
 -1      1004 9.35445E-05-2.64491E-05-2.87554E-05 8.19282E-07-4.85041E-19-7.65695E-19
 -1      1005 9.29321E-05-2.58602E-05-2.87454E-05 1.04531E-06-2.73965E-19 7.23801E-19
 -1      1006 9.21715E-05-2.51889E-05-2.87071E-05 1.32054E-06-4.20133E-19 4.53678E-19
 -1      1007 9.12366E-05-2.44421E-05-2.86266E-05 1.65022E-06-1.11379E-19 1.60255E-18
 -1      1008 9.01001E-05-2.36368E-05-2.84848E-05 2.04168E-06-2.41874E-19 1.09091E-18
 -1      1009 8.87327E-05-2.28025E-05-2.82564E-05 2.50786E-06 3.46722E-19-6.30554E-19
 -1      1010 8.70996E-05-2.19832E-05-2.79079E-05 3.07469E-06 8.72470E-19-8.52929E-19
 -1      1011 8.51556E-05-2.12383E-05-2.73943E-05 3.79530E-06 4.54518E-19 1.37252E-19
 -1      1012 8.28438E-05-2.06472E-05-2.66563E-05 4.76117E-06-2.65494E-19 2.07866E-19
 -1      1013 8.00421E-05-2.02831E-05-2.56110E-05 6.15752E-06-1.00904E-18 5.84125E-19
 -1      1014 9.58637E-05-2.90807E-05-2.86212E-05-3.53473E-07-4.82183E-19 5.86297E-19
 -1      1015 9.60282E-05-2.91994E-05-2.86409E-05-3.99782E-07-1.70471E-19 3.46956E-19
 -1      1016 9.62250E-05-2.61646E-05-3.00255E-05 4.02520E-07 1.61546E-19 3.22781E-19
 -1      1017 9.52386E-05-2.83849E-05-2.86516E-05-3.24067E-07-1.39858E-19-5.47418E-20
 -1      1018 9.54029E-05-2.85934E-05-2.86326E-05-2.99056E-07-6.30403E-20 9.42392E-19
 -1      1019 9.48308E-05-2.78622E-05-2.87009E-05-4.65550E-07 3.03118E-19 5.05272E-19
 -1      1020 9.45591E-05-2.75302E-05-2.87268E-05-5.92613E-07 1.52927E-20-7.78286E-20
 -1      1021 9.42204E-05-2.71389E-05-2.87493E-05-7.65538E-07 2.79162E-19 3.92303E-19
 -1      1022 9.37966E-05-2.66810E-05-2.87640E-05-9.91607E-07-2.89126E-19-1.08058E-19
 -1      1023 9.32687E-05-2.61525E-05-2.87642E-05-1.27904E-06-1.01216E-18-1.40027E-19
 -1      1024 9.26174E-05-2.55552E-05-2.87412E-05-1.63727E-06-3.71932E-19 9.90941E-20
 -1      1025 9.18253E-05-2.48999E-05-2.86825E-05-2.07776E-06-2.95018E-19-3.78808E-19
 -1      1026 9.08776E-05-2.42100E-05-2.85721E-05-2.61576E-06-5.49358E-19 2.14106E-19
 -1      1027 8.97647E-05-2.35254E-05-2.83886E-05-3.27406E-06 6.23547E-19 1.29749E-18
 -1      1028 8.84843E-05-2.29079E-05-2.81046E-05-4.09021E-06-4.46103E-19 1.32035E-18
 -1      1029 8.70430E-05-2.24460E-05-2.76854E-05-5.13097E-06-5.99018E-19 1.28027E-18
 -1      1030 8.54728E-05-2.22745E-05-2.70870E-05-6.51462E-06-5.55372E-20 1.48817E-18
 -1      1031 8.38298E-05-2.25815E-05-2.62537E-05-8.41394E-06 1.82203E-19 1.12881E-18
 -1      1032 8.22161E-05-2.36031E-05-2.51204E-05-1.11644E-05 1.95630E-19 1.45812E-18
 -1      1033 9.55888E-05-2.44290E-05-3.04957E-05-3.86831E-07 4.50384E-19-4.33863E-19
 -1      1034 9.57075E-05-2.89386E-05-2.86152E-05-3.18031E-07-6.01339E-19 1.32388E-18
 -1      1035 9.50523E-05-2.81440E-05-2.86751E-05-3.77915E-07 1.24671E-20 4.09308E-19
 -1      1036 9.63505E-05-2.63681E-05-2.99933E-05-2.48110E-07 3.58091E-19-2.95326E-19
 -1      1037 9.62213E-05-2.92238E-05-2.87132E-05-7.21636E-07 2.69298E-19-4.98199E-19
 -1      1038 9.55561E-05-2.87765E-05-2.86198E-05-2.98445E-07-3.12297E-19 1.27561E-18
 -1      1039 7.71508E-05-2.07974E-05-2.41418E-05 9.22481E-06-6.44842E-19 6.88027E-19
 -1      1040 9.67994E-05-2.88449E-05-2.91234E-05-4.48057E-07 1.19046E-19-3.88936E-19
 -1      1041 9.67038E-05-2.91490E-05-2.89520E-05-5.11986E-07 9.19515E-20-1.59307E-19
 -1      1042 7.98027E-05-2.45580E-05-2.36637E-05-1.41356E-05 1.78907E-19 9.93144E-19
 -1      1043 9.55464E-05-2.44304E-05-3.04765E-05-7.55115E-07 3.94286E-19-2.87482E-19
 -1      1044 9.62052E-05-2.92894E-05-2.86785E-05-4.52062E-07-1.97002E-19-4.29545E-19
 -1      1045 9.66408E-05-2.74646E-05-2.96475E-05-2.42007E-08 4.27320E-19 4.48732E-19
 -1      1046 7.12764E-05-1.77152E-05-2.29482E-05-1.32499E-06-8.86414E-20 1.61347E-19
 -1      1047 9.62685E-05-2.59866E-05-3.01214E-05-8.13512E-08 2.87525E-19-4.42759E-19
 -1      1048 9.62875E-05-2.60276E-05-3.01110E-05 1.47949E-07 1.55760E-19-6.45277E-19
 -1      1049 9.56891E-05-2.48720E-05-3.03507E-05 8.90800E-07 2.55930E-19 1.48702E-19
 -1      1050 7.55692E-05-1.99313E-05-2.38424E-05-7.77499E-06 1.34539E-19-7.01172E-19
 -1      1051 9.70014E-05-2.86885E-05-2.92766E-05 1.22286E-07 3.01512E-19-3.30912E-19
 -1      1052 9.69475E-05-2.91073E-05-2.90741E-05 1.51817E-07 4.85094E-19-3.43464E-19
 -1      1053 9.68025E-05-2.93199E-05-2.89212E-05 1.60723E-07 5.68668E-20-4.23480E-19
 -1      1054 9.66202E-05-2.93988E-05-2.88091E-05 1.56211E-07-3.12385E-19-9.66122E-20
 -1      1055 9.64243E-05-2.93836E-05-2.87317E-05 1.41839E-07-1.84872E-19-4.15246E-19
 -1      1056 9.62244E-05-2.93026E-05-2.86808E-05 1.27228E-07-8.01060E-19-5.11584E-19
 -1      1057 9.60296E-05-2.91801E-05-2.86497E-05 1.14650E-07-4.48340E-19-1.03129E-21
 -1      1058 9.58432E-05-2.90288E-05-2.86346E-05 1.03562E-07-2.36907E-20-6.12820E-19
 -1      1059 9.56620E-05-2.88538E-05-2.86321E-05 9.67797E-08 2.19394E-19-1.71183E-19
 -1      1060 9.54797E-05-2.86552E-05-2.86390E-05 9.58768E-08 2.40290E-19 4.98370E-19
 -1      1061 9.52864E-05-2.84292E-05-2.86531E-05 1.02179E-07-2.70388E-20 9.71234E-19
 -1      1062 9.50699E-05-2.81687E-05-2.86719E-05 1.16956E-07-2.93657E-19 1.38526E-18
 -1      1063 9.48153E-05-2.78644E-05-2.86932E-05 1.41495E-07-3.04834E-19 9.29139E-19
 -1      1064 9.45051E-05-2.75056E-05-2.87140E-05 1.77114E-07 4.97448E-19 3.18501E-20
 -1      1065 9.41198E-05-2.70813E-05-2.87306E-05 2.25111E-07 3.39128E-19-7.70061E-19
 -1      1066 9.36371E-05-2.65812E-05-2.87381E-05 2.86662E-07-3.54773E-19-8.85909E-19
 -1      1067 9.30328E-05-2.59970E-05-2.87294E-05 3.62685E-07-2.16250E-20-3.25712E-19
 -1      1068 9.22804E-05-2.53246E-05-2.86951E-05 4.53703E-07 4.35061E-19 3.81685E-20
 -1      1069 9.13515E-05-2.45656E-05-2.86223E-05 5.59801E-07-2.45317E-19 4.51817E-19
 -1      1070 9.02150E-05-2.37296E-05-2.84934E-05 6.80820E-07-3.65746E-19-9.11643E-19
 -1      1071 8.88351E-05-2.28349E-05-2.82854E-05 8.17006E-07-1.03415E-19 3.96783E-20
 -1      1072 8.71667E-05-2.19086E-05-2.79672E-05 9.70316E-07-7.69692E-21 6.66681E-19
 -1      1073 8.51436E-05-2.09822E-05-2.74972E-05 1.14626E-06-2.02552E-19-1.07952E-18
 -1      1074 8.26574E-05-2.00846E-05-2.68178E-05 1.35676E-06-2.44876E-19-2.29502E-18
 -1      1075 7.97007E-05-1.93190E-05-2.58724E-05 1.65676E-06 4.73967E-19-1.41143E-18
 -1      1076 9.67963E-05-2.83100E-05-2.93514E-05-2.97748E-07 2.11784E-19-9.62967E-20
 -1      1077 9.65995E-05-2.69033E-05-2.98692E-05-4.23033E-08 2.03552E-19-6.40140E-19
 -1      1078 7.54675E-05-1.86907E-05-2.43313E-05 3.46866E-06-7.27615E-20 8.12702E-19
 -1      1079 9.42468E-05-2.72111E-05-2.87296E-05-3.70031E-07-3.01429E-19 1.17823E-18
 -1      1080 9.46009E-05-2.76097E-05-2.87105E-05-2.87878E-07 1.58885E-19 3.70232E-19
 -1      1081 9.32514E-05-2.61942E-05-2.87389E-05-6.22978E-07-1.36421E-19 1.07554E-18
 -1      1082 9.25644E-05-2.55648E-05-2.87143E-05-8.04826E-07-4.64811E-19 2.18296E-19
 -1      1083 9.17186E-05-2.48565E-05-2.86554E-05-1.03333E-06 5.23465E-20-8.99995E-19
 -1      1084 9.06889E-05-2.40807E-05-2.85467E-05-1.31897E-06-5.80839E-19-5.13839E-19
 -1      1085 8.94490E-05-2.32599E-05-2.83672E-05-1.67718E-06 8.90398E-21-4.24601E-19
 -1      1086 8.79700E-05-2.24290E-05-2.80896E-05-2.13209E-06 5.30831E-19-6.65137E-19
 -1      1087 8.62146E-05-2.16349E-05-2.76779E-05-2.72268E-06-4.50124E-19 4.42105E-19
 -1      1088 8.41214E-05-2.09268E-05-2.70841E-05-3.51095E-06-3.43981E-19 1.20299E-18
 -1      1089 8.15889E-05-2.03600E-05-2.62481E-05-4.68744E-06 1.12215E-18 3.92665E-19
 -1      1090 7.90902E-05-2.01693E-05-2.52381E-05-5.98645E-06 8.65089E-19-1.67010E-18
 -1      1091 9.69212E-05-2.79973E-05-2.95388E-05 5.55561E-08 2.57874E-19-4.50273E-19
 -1      1092 9.38044E-05-2.67418E-05-2.87412E-05-4.80068E-07-3.91268E-20 6.46529E-19
 -1      1093 9.53270E-05-2.84815E-05-2.86481E-05-1.69845E-07 1.78153E-19-5.90684E-19
 -1      1094 9.58627E-05-2.90528E-05-2.86329E-05-1.82875E-07-9.82794E-19 5.75065E-19
 -1      1095 9.60461E-05-2.91963E-05-2.86499E-05-2.04184E-07-3.48009E-19 6.84039E-19
 -1      1096 9.69298E-05-2.90391E-05-2.90960E-05-2.53594E-07 3.51940E-19-1.61624E-19
 -1      1097 9.65542E-05-2.92900E-05-2.88276E-05-5.20104E-07 1.90115E-19-1.03128E-19
 -1      1098 9.69648E-05-2.85811E-05-2.93072E-05-1.91422E-07 2.77151E-19 9.46217E-22
 -1      1099 9.62380E-05-2.93096E-05-2.86834E-05-2.28051E-07-4.52971E-19 4.07381E-19
 -1      1100 9.51237E-05-2.82347E-05-2.86668E-05-1.91087E-07-1.17656E-19-1.79680E-19
 -1      1101 9.56863E-05-2.88858E-05-2.86288E-05-1.68204E-07-2.87011E-19 2.57622E-19
 -1      1102 9.48871E-05-2.79474E-05-2.86884E-05-2.29417E-07 2.52829E-20-2.04425E-19
 -1      1103 9.63869E-05-2.93292E-05-2.87391E-05-4.95667E-07 8.55271E-20-1.61578E-19
 -1      1104 9.55107E-05-2.86964E-05-2.86347E-05-1.63032E-07 2.95870E-19 5.81030E-23
 -1      1105 9.66152E-05-2.69209E-05-2.98716E-05 2.45150E-08 1.92618E-19-6.69713E-19
 -1      1106 9.68514E-05-2.78388E-05-2.95758E-05-6.95924E-08 3.86392E-19-2.27366E-19
 -1      1107 9.67393E-05-2.93852E-05-2.88660E-05-1.01076E-07 2.64319E-19-2.69950E-19
 -1      1108 9.65389E-05-2.94074E-05-2.87704E-05-9.37594E-08-1.88040E-19 1.95393E-19
 -1      1109 7.59682E-05-1.85476E-05-2.46178E-05-1.78250E-06 5.95584E-19 4.79906E-19
 -1      1110 9.68092E-05-2.92870E-05-2.89379E-05-2.77065E-07 1.78756E-19-3.35949E-19
 -1      1111 1.16860E-04 2.57585E-10-4.18571E-05-4.14645E-05-1.44419E-19 1.06303E-19
 -1      1112 8.86535E-05 7.19297E-11-3.72525E-05-2.41650E-05-4.10811E-20-1.53906E-18
 -1      1113 8.40783E-05 4.14392E-11-3.57677E-05-1.78757E-05-1.51407E-20-1.87548E-18
 -1      1114 8.23351E-05 3.20347E-11-3.50729E-05-1.38351E-05 1.85288E-22-1.89890E-18
 -1      1115 8.15326E-05 2.73344E-11-3.47381E-05-1.05303E-05 7.38507E-21-1.73392E-18
 -1      1116 8.11274E-05 2.46008E-11-3.45724E-05-7.63805E-06 6.74318E-21-1.61877E-18
 -1      1117 8.09176E-05 2.29454E-11-3.44888E-05-4.97803E-06 1.20305E-20-1.42521E-18
 -1      1118 8.08153E-05 2.20507E-11-3.44494E-05-2.43128E-06 1.19577E-20-1.19981E-18
 -1      1119 8.07862E-05 2.17800E-11-3.44383E-05 5.24726E-08 2.11014E-20-1.02346E-18
 -1      1120 8.08197E-05 2.20947E-11-3.44509E-05 2.53874E-06 2.35647E-20-8.41488E-19
 -1      1121 8.09267E-05 2.30456E-11-3.44918E-05 5.09381E-06 3.08042E-20-5.62926E-19
 -1      1122 8.11433E-05 2.47633E-11-3.45768E-05 7.77021E-06 3.43115E-20-3.05203E-19
 -1      1123 8.15530E-05 2.76383E-11-3.47446E-05 1.06905E-05 3.65812E-20 1.09876E-19
 -1      1124 8.23589E-05 3.25000E-11-3.50830E-05 1.40398E-05 3.77459E-20 6.62320E-19
 -1      1125 8.40759E-05 4.19282E-11-3.57876E-05 1.81267E-05 4.10282E-20 1.53433E-18
 -1      1126 8.83519E-05 6.67520E-11-3.73227E-05 2.40085E-05 2.42463E-20 2.81617E-18
 -1      1127 1.06624E-04 1.63936E-10-4.06357E-05 3.61916E-05-1.50348E-20 4.64566E-18
 -1      1128 1.30227E-04-2.57583E-05-4.02757E-05-2.61055E-05-4.40034E-19 9.85946E-19
 -1      1129 9.74650E-05-2.88650E-05-3.15801E-05-6.80320E-07-1.40449E-19 4.09752E-20
 -1      1130 9.01684E-05-2.70293E-05-2.78958E-05 3.87143E-07-4.94191E-20-1.12465E-18
 -1      1131 8.82589E-05-2.65753E-05-2.66465E-05 2.50955E-07 2.37632E-20-1.74904E-18
 -1      1132 8.79018E-05-2.64490E-05-2.63906E-05 1.65948E-07-2.06067E-20-1.97009E-18
 -1      1133 8.82620E-05-2.65259E-05-2.64759E-05 1.18131E-07-6.44068E-20-2.22510E-18
 -1      1134 8.89492E-05-2.67106E-05-2.66789E-05 8.75608E-08-2.72147E-20-2.54506E-18
 -1      1135 8.97644E-05-2.69426E-05-2.69216E-05 6.63560E-08 1.07732E-20-2.13194E-18
 -1      1136 9.05972E-05-2.71852E-05-2.71698E-05 5.06652E-08-1.83440E-20-2.35206E-18
 -1      1137 9.13852E-05-2.74174E-05-2.74054E-05 3.85813E-08-2.16373E-20-2.88927E-18
 -1      1138 9.20950E-05-2.76279E-05-2.76182E-05 2.90833E-08-6.71624E-20-3.51280E-18
 -1      1139 9.27118E-05-2.78115E-05-2.78038E-05 2.15591E-08 7.21800E-20-3.71832E-18
 -1      1140 9.32321E-05-2.79670E-05-2.79608E-05 1.55938E-08-1.68574E-20-3.85242E-18
 -1      1141 9.36604E-05-2.80954E-05-2.80904E-05 1.08781E-08-6.56193E-20-4.46592E-18
 -1      1142 9.40056E-05-2.81991E-05-2.81952E-05 7.16733E-09 1.28154E-19-3.43911E-18
 -1      1143 9.42792E-05-2.82816E-05-2.82785E-05 4.26385E-09-1.57978E-19-3.65798E-18
 -1      1144 9.44946E-05-2.83468E-05-2.83444E-05 2.01001E-09-5.57759E-20-3.13295E-18
 -1      1145 9.46659E-05-2.83988E-05-2.83971E-05 2.85928E-10-8.21673E-20-3.08208E-18
 -1      1146 9.48084E-05-2.84424E-05-2.84412E-05-9.89883E-10-4.95201E-20-3.82587E-18
 -1      1147 9.49387E-05-2.84824E-05-2.84818E-05-1.85793E-09 4.40208E-20-3.74258E-18
 -1      1148 9.50749E-05-2.85244E-05-2.85243E-05-2.31316E-09 1.74985E-19-2.16008E-18
 -1      1149 9.52381E-05-2.85746E-05-2.85752E-05-2.29811E-09-6.71269E-20-1.08116E-18
 -1      1150 9.54526E-05-2.86404E-05-2.86420E-05-1.69310E-09 3.81688E-20-1.47618E-18
 -1      1151 9.57477E-05-2.87307E-05-2.87334E-05-3.03089E-10-2.97847E-19-2.34671E-18
 -1      1152 9.61586E-05-2.88559E-05-2.88603E-05 2.15930E-09 2.36992E-19-1.97666E-18
 -1      1153 9.67275E-05-2.90288E-05-2.90353E-05 6.09374E-09 2.01713E-19 9.56577E-19
 -1      1154 9.75045E-05-2.92642E-05-2.92736E-05 1.20323E-08 1.56357E-19 3.01476E-19
 -1      1155 9.85473E-05-2.95793E-05-2.95923E-05 2.06503E-08-1.01398E-19-1.06973E-18
 -1      1156 9.99195E-05-2.99929E-05-3.00103E-05 3.27468E-08-8.84322E-20-1.41226E-18
 -1      1157 1.01686E-04-3.05239E-05-3.05461E-05 4.91458E-08-6.07341E-20-1.14122E-18
 -1      1158 1.03901E-04-3.11878E-05-3.12145E-05 7.04238E-08-2.73924E-19-9.79157E-19
 -1      1159 1.06591E-04-3.19911E-05-3.20199E-05 9.62865E-08 2.69256E-20-3.57548E-18
 -1      1160 1.09716E-04-3.29203E-05-3.29445E-05 1.24326E-07-6.20303E-20-4.32630E-18
 -1      1161 1.13113E-04-3.39254E-05-3.39317E-05 1.47854E-07 1.50657E-19-2.86512E-18
 -1      1162 1.16420E-04-3.48964E-05-3.48626E-05 1.52852E-07 9.42887E-20-3.61863E-18
 -1      1163 1.18985E-04-3.56380E-05-3.55354E-05 1.15287E-07 1.52843E-19-2.97714E-18
 -1      1164 1.19818E-04-3.58570E-05-3.56621E-05 2.95156E-09 6.65186E-20-4.11451E-18
 -1      1165 1.17695E-04-3.51947E-05-3.49172E-05-2.09449E-07-3.32679E-19-4.47390E-18
 -1      1166 1.11571E-04-3.33541E-05-3.30671E-05-5.06004E-07 3.02285E-19-3.48363E-18
 -1      1167 1.01355E-04-3.03283E-05-3.01685E-05-7.88143E-07 7.11508E-20-4.31966E-18
 -1      1168 8.87334E-05-2.66310E-05-2.67284E-05-8.80449E-07 4.92636E-20-7.42011E-18
 -1      1169 7.71880E-05-2.32740E-05-2.36418E-05-6.42311E-07-1.06872E-20-6.92291E-18
 -1      1170 7.05072E-05-2.13215E-05-2.18155E-05-1.31866E-07 1.49309E-19-7.36098E-18
 -1      1171 7.04822E-05-2.12792E-05-2.16675E-05 3.89922E-07 1.13562E-19-5.47411E-18
 -1      1172 7.57246E-05-2.27582E-05-2.28939E-05 6.49157E-07 1.78406E-19-2.35772E-18
 -1      1173 8.27849E-05-2.48006E-05-2.47039E-05 5.85423E-07 4.77746E-20-5.22937E-19
 -1      1174 8.85914E-05-2.65191E-05-2.63360E-05 3.57694E-07 1.94526E-19-1.32767E-18
 -1      1175 9.20552E-05-2.75818E-05-2.74348E-05 1.76740E-07 4.02058E-19 2.12656E-18
 -1      1176 9.39426E-05-2.82076E-05-2.80339E-05 1.58853E-07-5.59194E-19 1.22858E-18
 -1      1177 9.49332E-05-2.84885E-05-2.82902E-05 7.52991E-08 2.65848E-19 1.39280E-18
 -1      1178 1.31060E-04-3.77399E-05-3.86611E-05 1.21745E-05-5.85247E-20 5.88307E-18
 -1      1179 9.65663E-05-2.81917E-05-3.13326E-05 8.01364E-07-1.32349E-20 5.85289E-18
 -1      1180 9.03830E-05-2.69320E-05-2.78768E-05 1.20135E-07-2.63242E-20 5.69383E-18
 -1      1181 8.83457E-05-2.65027E-05-2.66831E-05 8.99985E-09 2.83227E-20 5.38843E-18
 -1      1182 8.79421E-05-2.64115E-05-2.64178E-05-2.52950E-08 2.46831E-21 5.20216E-18
 -1      1183 8.82838E-05-2.65086E-05-2.64917E-05-3.43447E-08 1.97820E-20 4.56403E-18
 -1      1184 8.89623E-05-2.67038E-05-2.66891E-05-3.55492E-08-5.46382E-20 4.98804E-18
 -1      1185 8.97726E-05-2.69413E-05-2.69290E-05-3.38552E-08-5.50857E-20 4.82692E-18
 -1      1186 9.06024E-05-2.71868E-05-2.71754E-05-3.08313E-08-1.93195E-20 4.49304E-18
 -1      1187 9.13886E-05-2.74205E-05-2.74096E-05-2.71800E-08 1.35662E-20 4.17914E-18
 -1      1188 9.20973E-05-2.76316E-05-2.76215E-05-2.33151E-08 1.45147E-19 3.62535E-18
 -1      1189 9.27132E-05-2.78155E-05-2.78062E-05-1.94973E-08 4.43245E-21 3.33292E-18
 -1      1190 9.32331E-05-2.79708E-05-2.79626E-05-1.58831E-08 6.79232E-20 3.15137E-18
 -1      1191 9.36612E-05-2.80988E-05-2.80918E-05-1.25532E-08-2.23307E-19 4.03645E-18
 -1      1192 9.40063E-05-2.82022E-05-2.81962E-05-9.53273E-09 4.15043E-20 3.43922E-18
 -1      1193 9.42799E-05-2.82842E-05-2.82792E-05-6.80704E-09-1.32829E-19 2.75287E-18
 -1      1194 9.44954E-05-2.83490E-05-2.83449E-05-4.33486E-09 5.64471E-20 3.14615E-18
 -1      1195 9.46671E-05-2.84007E-05-2.83975E-05-2.05855E-09 1.61238E-19 2.53481E-18
 -1      1196 9.48101E-05-2.84440E-05-2.84417E-05 8.70201E-11 1.22942E-19 1.76595E-18
 -1      1197 9.49409E-05-2.84837E-05-2.84823E-05 2.16608E-09-2.16701E-20 1.84903E-18
 -1      1198 9.50780E-05-2.85255E-05-2.85250E-05 4.23330E-09 1.70372E-19 1.00407E-18
 -1      1199 9.52419E-05-2.85756E-05-2.85761E-05 6.32354E-09-1.53122E-19 6.99041E-19
 -1      1200 9.54571E-05-2.86412E-05-2.86431E-05 8.43836E-09 8.72942E-20 1.02437E-18
 -1      1201 9.57522E-05-2.87310E-05-2.87345E-05 1.05271E-08-1.12212E-19 6.02483E-19
 -1      1202 9.61615E-05-2.88553E-05-2.88610E-05 1.24593E-08 1.04589E-19 2.36681E-20
 -1      1203 9.67255E-05-2.90262E-05-2.90346E-05 1.39843E-08-5.44095E-20 1.76083E-18
 -1      1204 9.74911E-05-2.92576E-05-2.92695E-05 1.46734E-08-1.70578E-19 3.64894E-18
 -1      1205 9.85110E-05-2.95651E-05-2.95815E-05 1.38391E-08 1.51694E-19 2.17635E-18
 -1      1206 9.98407E-05-2.99649E-05-2.99867E-05 1.04330E-08 7.23564E-20 1.76612E-18
 -1      1207 1.01532E-04-3.04719E-05-3.04997E-05 2.93763E-09-6.31619E-20 1.55323E-18
 -1      1208 1.03622E-04-3.10961E-05-3.11298E-05-1.06895E-08 1.77075E-20 1.64381E-18
 -1      1209 1.06108E-04-3.18359E-05-3.18733E-05-3.28753E-08 2.08239E-20 2.10688E-18
 -1      1210 1.08921E-04-3.26683E-05-3.27033E-05-6.57849E-08 4.98790E-22 3.11642E-18
 -1      1211 1.11866E-04-3.35344E-05-3.35540E-05-1.09640E-07-2.73829E-19 5.01318E-18
 -1      1212 1.14561E-04-3.43208E-05-3.43031E-05-1.59364E-07-1.40780E-19 5.09919E-18
 -1      1213 1.16381E-04-3.48443E-05-3.47583E-05-1.99624E-07-2.56955E-20 2.74185E-18
 -1      1214 1.16443E-04-3.48509E-05-3.46661E-05-2.00759E-07 2.92451E-19 6.58171E-20
 -1      1215 1.13748E-04-3.40553E-05-3.37647E-05-1.22620E-07 3.62437E-20-4.09673E-19
 -1      1216 1.07562E-04-3.22456E-05-3.18997E-05 6.29497E-08-1.83555E-19 9.25225E-19
 -1      1217 9.80343E-05-2.94537E-05-2.91810E-05 3.29913E-07-1.02997E-19 1.21401E-18
 -1      1218 8.67613E-05-2.61194E-05-2.60864E-05 5.70264E-07-2.36968E-19 1.47754E-18
 -1      1219 7.66697E-05-2.30802E-05-2.33792E-05 6.35863E-07-2.97024E-19 3.78968E-18
 -1      1220 7.08139E-05-2.12589E-05-2.17945E-05 4.52759E-07 1.07203E-20 2.34287E-18
 -1      1221 7.06253E-05-2.11410E-05-2.16603E-05 1.06877E-07-6.85289E-19 3.47297E-18
 -1      1222 7.50418E-05-2.24565E-05-2.27318E-05-2.11026E-07-1.21235E-19 3.69073E-18
 -1      1223 8.13562E-05-2.43897E-05-2.43774E-05-3.54780E-07 6.16261E-19-1.53271E-18
 -1      1224 8.70442E-05-2.61420E-05-2.59694E-05-3.23148E-07 1.89380E-19-3.33482E-18
 -1      1225 9.10457E-05-2.73550E-05-2.71760E-05-2.32885E-07 2.92537E-19-2.94810E-18
 -1      1226 9.36282E-05-2.80918E-05-2.79477E-05-2.12285E-07 5.87433E-19-3.93378E-18
 -1      1227 9.50071E-05-2.85315E-05-2.83182E-05-5.87003E-08-1.03154E-19-2.21115E-18
 -1      1228 9.52698E-05-2.88035E-05-2.83668E-05-9.76447E-08-2.28704E-18 2.15306E-19
 -1      1229 9.56817E-05-3.01855E-05-2.81318E-05-2.87738E-07-8.04589E-18-2.82429E-19
 -1      1230 9.59110E-05-3.11606E-05-2.81260E-05-2.26649E-07-4.38647E-18 7.21163E-19
 -1      1231 9.51555E-05-2.88134E-05-2.90886E-05 7.83101E-08-3.26116E-18-5.65706E-19
 -1      1232 9.27155E-05-2.07312E-05-3.16058E-05 5.74095E-07-7.64733E-18-1.65959E-18
 -1      1233 8.83861E-05-6.09946E-06-3.57654E-05 1.11547E-06-6.66043E-18-4.68952E-19
 -1      1234 8.28726E-05 1.28181E-05-4.08397E-05 1.38664E-06-2.10361E-18 7.16391E-19
 -1      1235 7.79083E-05 3.00690E-05-4.52781E-05 1.06584E-06-5.95464E-19 3.57329E-19
 -1      1236 7.54381E-05 3.87142E-05-4.74557E-05 1.99002E-07 5.03132E-18-2.42371E-19
 -1      1237 7.65734E-05 3.47942E-05-4.64858E-05-8.10978E-07-2.30816E-20 5.12455E-20
 -1      1238 8.07327E-05 2.02144E-05-4.27829E-05-1.34093E-06-8.38817E-18 1.12658E-18
 -1      1239 8.62168E-05 1.29774E-06-3.78042E-05-1.25240E-06-5.71853E-18 2.60231E-19
 -1      1240 9.10477E-05-1.51225E-05-3.32439E-05-7.64948E-07-4.30684E-18 1.51740E-18
 -1      1241 9.41427E-05-2.54555E-05-3.01408E-05-2.25827E-07-1.24334E-18 7.46203E-19
 -1      1242 9.55158E-05-2.97272E-05-2.86558E-05 1.05960E-07 1.02082E-18 2.63083E-19
 -1      1243 9.54108E-05-2.96938E-05-2.83050E-05 3.58026E-07-2.44560E-18-7.35271E-19
 -1      1244 9.53062E-05-2.88792E-05-2.83580E-05 1.41619E-07-1.56023E-18 2.81450E-19
 -1      1245 4.08462E-05-1.28819E-04 2.15992E-05-1.73489E-05 2.36280E-18 1.06938E-20
 -1      1246 2.00945E-05-7.52572E-05 1.09171E-05-2.92133E-05-8.13152E-19-7.40307E-19
 -1      1247 9.99456E-06-6.68264E-06-7.96429E-06 4.39116E-06-5.74288E-19 4.21822E-19
 -1      1248 4.64595E-05 2.96916E-05-3.17286E-05 6.93977E-05 1.14349E-18 9.24960E-19
 -1      1249 1.37161E-04 9.78939E-06-5.50444E-05 1.20010E-04 1.58903E-18 1.84653E-18
 -1      1250 2.47663E-04-4.59668E-05-7.31491E-05 1.18710E-04-1.05879E-20-2.60039E-19
 -1      1251 3.23852E-04-9.24240E-05-8.29641E-05 5.47967E-05-9.34383E-20-1.58099E-18
 -1      1252 3.25016E-04-9.48786E-05-8.26592E-05-3.51822E-05 6.48218E-19-2.90363E-18
 -1      1253 2.53472E-04-5.49112E-05-7.24829E-05-1.01541E-04 1.55176E-18-5.25584E-18
 -1      1254 1.46192E-04-1.42337E-06-5.49438E-05-1.11645E-04 3.80233E-18-5.45997E-18
 -1      1255 5.66125E-05 2.48340E-05-3.38223E-05-7.26059E-05 4.95514E-18-6.39171E-18
 -1      1256 1.22471E-05 6.70580E-06-1.28646E-05-1.64852E-05 3.45589E-19-5.31937E-19
 -1      1257 1.12785E-05-4.72073E-05 5.73397E-06 2.33588E-05-4.91279E-20 5.95888E-19
 -1      1258 3.06239E-05-1.03884E-04 1.84087E-05 2.61523E-05-1.01813E-18 6.38451E-19
 -1      1259 4.11536E-05-1.26984E-04 2.27419E-05-4.45970E-07-2.41849E-18-4.32834E-19
 -1      1260 3.07429E-05-1.03941E-04 1.83594E-05-2.75647E-05-6.23501E-18-1.76988E-18
 -1      1261 1.08350E-05-4.51204E-05 5.19483E-06-2.23905E-05-1.05693E-17-5.24695E-18
 -1      1262 1.59264E-05 8.66345E-06-1.48560E-05 2.18343E-05-7.02360E-18-5.51757E-18
 -1      1263 7.05561E-05 2.16211E-05-3.75112E-05 8.07269E-05-4.74762E-18-5.71408E-18
 -1      1264 1.71375E-04-1.36217E-05-5.92249E-05 1.14263E-04-2.16586E-18-4.12844E-18
 -1      1265 2.75329E-04-6.71602E-05-7.57070E-05 8.93247E-05 1.79783E-19 9.35971E-19
 -1      1266 3.34706E-04-1.01340E-04-8.37836E-05 1.73548E-05 6.24369E-19 3.90482E-19
 -1      1267 3.16352E-04-8.76390E-05-8.22040E-05-6.96347E-05-1.09744E-18 3.17553E-18
 -1      1268 2.31165E-04-3.63088E-05-7.08698E-05-1.24051E-04-2.36365E-18 5.68020E-18
 -1      1269 1.18552E-04 1.67182E-05-5.12340E-05-1.14364E-04-2.57498E-18 4.88060E-18
 -1      1270 3.59356E-05 2.71669E-05-2.74524E-05-5.72798E-05-4.98055E-19 9.30042E-19
 -1      1271 9.26332E-06-1.52805E-05-4.84404E-06 3.27524E-06 1.58226E-18-9.99499E-19
 -1      1272 2.26784E-05-8.27442E-05 1.26561E-05 3.08618E-05 8.21622E-18-2.00662E-18
 -1      1273 4.26029E-05-1.31963E-04 2.20136E-05 1.59768E-05 5.60101E-18-2.09164E-18
 -1      1274 1.04450E-04-2.20211E-05-3.78941E-05-1.72743E-05-1.92065E-19-5.03985E-19
 -1      1275 9.03227E-05-6.68228E-06-3.60183E-05-2.04689E-05-2.06305E-19-1.69412E-18
 -1      1276 9.26607E-05-6.74131E-06-3.72236E-05-2.57576E-05-3.57236E-19-1.49967E-18
 -1      1277 8.59015E-05-4.09324E-06-3.51304E-05-1.64305E-05-6.67303E-20-1.88835E-18
 -1      1278 8.71563E-05-4.08852E-06-3.56003E-05-1.88501E-05-1.28696E-19-1.84402E-18
 -1      1279 9.21366E-05-1.04640E-05-3.50945E-05-1.90303E-05-2.86403E-19-1.44446E-18
 -1      1280 8.40996E-05-3.19215E-06-3.46866E-05-1.28171E-05 5.24631E-20-1.85602E-18
 -1      1281 8.47071E-05-3.16098E-06-3.49111E-05-1.46330E-05 2.95403E-20-1.89481E-18
 -1      1282 8.78679E-05-7.39156E-06-3.45743E-05-1.54152E-05-7.35463E-20-1.61720E-18
 -1      1283 8.31839E-05-2.72736E-06-3.44691E-05-9.68350E-06 1.49448E-19-1.72095E-18
 -1      1284 8.35006E-05-2.71088E-06-3.45789E-05-1.12308E-05 1.15316E-19-1.80847E-18
 -1      1285 8.58678E-05-5.98514E-06-3.43044E-05-1.19544E-05 1.34142E-19-1.60645E-18
 -1      1286 8.26896E-05-2.45647E-06-3.43624E-05-6.91358E-06 2.15305E-19-1.56627E-18
 -1      1287 8.28597E-05-2.44799E-06-3.44170E-05-8.28416E-06 2.08813E-19-1.63014E-18
 -1      1288 8.48173E-05-5.21562E-06-3.41718E-05-8.94199E-06 2.65796E-19-1.47863E-18
 -1      1289 8.24135E-05-2.29109E-06-3.43092E-05-4.29406E-06 2.52694E-19-1.34914E-18
 -1      1290 8.25049E-05-2.28713E-06-3.43366E-05-5.59507E-06 2.42576E-19-1.46876E-18
 -1      1291 8.42303E-05-4.76029E-06-3.41081E-05-6.21571E-06 3.61068E-19-1.32082E-18
 -1      1292 8.22805E-05-2.20167E-06-3.42867E-05-1.78959E-06 3.27838E-19-1.16182E-18
 -1      1293 8.23197E-05-2.20010E-06-3.42978E-05-3.04040E-06 3.08519E-19-1.26581E-18
 -1      1294 8.39070E-05-4.49663E-06-3.40788E-05-3.64403E-06 4.52249E-19-1.11050E-18
 -1      1295 8.22543E-05-2.17412E-06-3.42840E-05 6.69696E-07 3.82432E-19-9.80679E-19
 -1      1296 8.22530E-05-2.17417E-06-3.42836E-05-5.65935E-07 3.57102E-19-1.08218E-18
 -1      1297 8.37652E-05-4.37690E-06-3.40677E-05-1.17031E-06 5.77787E-19-9.54686E-19
 -1      1298 8.23283E-05-2.20440E-06-3.42994E-05 3.14777E-06 3.94287E-19-7.84035E-19
 -1      1299 8.22862E-05-2.20603E-06-3.42875E-05 1.89437E-06 4.02682E-19-9.02911E-19
 -1      1300 8.37702E-05-4.38110E-06-3.40681E-05 1.27350E-06 6.41119E-19-7.64090E-19
 -1      1301 8.25224E-05-2.29750E-06-3.43393E-05 5.71160E-06 4.51746E-19-5.64905E-19
 -1      1302 8.24274E-05-2.30086E-06-3.43112E-05 4.40464E-06 4.30481E-19-6.92741E-19
 -1      1303 8.39227E-05-4.51012E-06-3.40799E-05 3.75144E-06 6.86136E-19-6.02955E-19
 -1      1304 8.28832E-05-2.46334E-06-3.44200E-05 8.39291E-06 4.83338E-19-2.41987E-19
 -1      1305 8.27098E-05-2.47201E-06-3.43648E-05 7.01333E-06 4.79589E-19-4.19083E-19
 -1      1306 8.42562E-05-4.78340E-06-3.41093E-05 6.30952E-06 7.32897E-19-3.93659E-19
 -1      1307 8.35429E-05-2.74084E-06-3.45841E-05 1.13929E-05 5.26510E-19 2.03036E-19
 -1      1308 8.32208E-05-2.75792E-06-3.44730E-05 9.82802E-06 4.87282E-19-5.42630E-20
 -1      1309 8.48604E-05-5.25687E-06-3.41729E-05 9.05219E-06 7.99030E-19-9.79382E-22
 -1      1310 8.47658E-05-3.20331E-06-3.49193E-05 1.48415E-05 5.52636E-19 7.68206E-19
 -1      1311 8.41525E-05-3.24002E-06-3.46923E-05 1.30012E-05 5.38991E-19 4.37162E-19
 -1      1312 8.59455E-05-6.06241E-06-3.43063E-05 1.21205E-05 8.45882E-19 3.73992E-19
 -1      1313 8.72582E-05-4.09079E-06-3.56217E-05 1.90892E-05 4.69786E-19 1.66754E-18
 -1      1314 8.59739E-05-4.15461E-06-3.51381E-05 1.66909E-05 4.61739E-19 1.12933E-18
 -1      1315 8.79926E-05-7.51743E-06-3.45762E-05 1.56482E-05 8.25619E-19 1.02179E-18
 -1      1316 9.34732E-05-6.79345E-06-3.71190E-05 2.50949E-05 2.92862E-19 2.97997E-18
 -1      1317 9.01386E-05-6.43885E-06-3.60410E-05 2.11471E-05 3.31190E-19 2.22727E-18
 -1      1318 9.23670E-05-1.06993E-05-3.50797E-05 1.96744E-05 5.86438E-19 1.93579E-18
 -1      1319 1.23635E-04-2.49255E-05-3.90175E-05 2.83662E-05 5.18808E-20 4.66080E-18
 -1      1320 1.00089E-04-1.44258E-05-3.73568E-05 2.40493E-05 9.73029E-20 3.59396E-18
 -1      1321 1.01688E-04-1.93447E-05-3.54049E-05 2.13969E-05 3.69055E-19 3.04635E-18
 -1      1322 1.02614E-04-2.78082E-05-3.47607E-05 7.32804E-06 1.74039E-19 4.74444E-18
 -1      1323 1.05158E-04-3.02341E-05-3.35284E-05-7.95914E-06-3.36801E-19-2.59616E-19
 -1      1324 9.82722E-05-2.78465E-05-3.07654E-05-4.98816E-06-2.58980E-19-6.64709E-19
 -1      1325 9.55143E-05-2.78525E-05-2.92580E-05-2.48883E-06-2.34946E-19-7.42620E-19
 -1      1326 9.32831E-05-2.75620E-05-2.82189E-05-2.04201E-06-2.16258E-19-1.10334E-18
 -1      1327 9.94952E-05-2.80547E-05-3.09858E-05-7.88598E-06-4.84820E-19-7.94887E-19
 -1      1328 9.15942E-05-2.72044E-05-2.75848E-05-8.37022E-07-1.38761E-19-1.14609E-18
 -1      1329 9.08788E-05-2.71094E-05-2.72828E-05-7.26864E-07-6.93905E-20-1.31229E-18
 -1      1330 9.47296E-05-2.77734E-05-2.88197E-05-3.11848E-06-3.18008E-19-8.52658E-19
 -1      1331 9.01294E-05-2.69268E-05-2.70399E-05-1.72799E-07-6.85501E-20-1.41007E-18
 -1      1332 9.00579E-05-2.69539E-05-2.70054E-05-1.14755E-07-1.96535E-19-1.65156E-18
 -1      1333 9.25318E-05-2.75035E-05-2.78993E-05-1.05110E-06-2.20652E-19-9.79872E-19
 -1      1334 8.97994E-05-2.68867E-05-2.69315E-05 1.55425E-07-2.50354E-20-1.56038E-18
 -1      1335 9.00149E-05-2.69771E-05-2.69935E-05 1.84096E-07-1.52658E-19-1.68066E-18
 -1      1336 9.15749E-05-2.73602E-05-2.75330E-05-6.79719E-08-2.01736E-19-1.15791E-18
 -1      1337 9.00196E-05-2.69805E-05-2.70002E-05 3.15087E-07-1.34940E-19-1.60213E-18
 -1      1338 9.03628E-05-2.71004E-05-2.70996E-05 3.26783E-07 1.95314E-20-1.64340E-18
 -1      1339 9.13234E-05-2.73487E-05-2.74256E-05 4.19098E-07-1.60865E-19-9.92081E-19
 -1      1340 9.05054E-05-2.71424E-05-2.71469E-05 3.81119E-07 1.14583E-19-1.55761E-18
 -1      1341 9.08937E-05-2.72708E-05-2.72591E-05 3.82742E-07 8.85067E-20-1.40328E-18
 -1      1342 9.14576E-05-2.74228E-05-2.74481E-05 6.46923E-07 7.67185E-20-9.26326E-19
 -1      1343 9.11021E-05-2.73312E-05-2.73257E-05 3.92958E-07-3.48688E-20-1.43217E-18
 -1      1344 9.14896E-05-2.74560E-05-2.74379E-05 3.88676E-07-1.31133E-19-1.59113E-18
 -1      1345 9.17912E-05-2.75421E-05-2.75373E-05 7.28668E-07-1.46188E-20-9.33446E-19
 -1      1346 9.17209E-05-2.75227E-05-2.75109E-05 3.73605E-07-2.18904E-19-1.62787E-18
 -1      1347 9.20821E-05-2.76370E-05-2.76159E-05 3.66092E-07-2.47259E-19-1.80793E-18
 -1      1348 9.22131E-05-2.76793E-05-2.76573E-05 7.25986E-07-2.97667E-19-9.42749E-19
 -1      1349 9.23108E-05-2.77028E-05-2.76877E-05 3.37389E-07-3.05826E-19-1.89610E-18
 -1      1350 9.26326E-05-2.78033E-05-2.77816E-05 3.28399E-07-1.75572E-19-2.30394E-18
 -1      1351 9.26569E-05-2.78177E-05-2.77869E-05 6.75676E-07-3.77327E-19-8.86997E-19
 -1      1352 9.28444E-05-2.78641E-05-2.78480E-05 2.93513E-07-5.86037E-21-2.57128E-18
 -1      1353 9.31213E-05-2.79498E-05-2.79291E-05 2.84191E-07-6.39721E-20-2.61032E-18
 -1      1354 9.30832E-05-2.79475E-05-2.79133E-05 6.00892E-07-2.46325E-19-1.09248E-18
 -1      1355 9.33090E-05-2.80036E-05-2.79878E-05 2.47919E-07-1.55515E-19-2.58057E-18
 -1      1356 9.35409E-05-2.80747E-05-2.80559E-05 2.38999E-07-2.53080E-19-2.86327E-18
 -1      1357 9.34707E-05-2.80634E-05-2.80294E-05 5.16526E-07-1.96797E-19-1.71185E-18
 -1      1358 9.37020E-05-2.81208E-05-2.81062E-05 2.04397E-07-9.76096E-20-2.76898E-18
 -1      1359 9.38917E-05-2.81785E-05-2.81621E-05 1.96331E-07 7.27017E-20-2.72301E-18
 -1      1360 9.38095E-05-2.81634E-05-2.81318E-05 4.32152E-07-1.78271E-19-1.72657E-18
 -1      1361 9.40268E-05-2.82170E-05-2.82043E-05 1.65308E-07 1.42559E-19-2.62476E-18
 -1      1362 9.41791E-05-2.82630E-05-2.82493E-05 1.58365E-07-5.42302E-20-2.46224E-18
 -1      1363 9.40976E-05-2.82474E-05-2.82195E-05 3.53843E-07 1.89983E-21-1.62761E-18
 -1      1364 9.42908E-05-2.82948E-05-2.82841E-05 1.32103E-07-1.79799E-19-2.55392E-18
 -1      1365 9.44116E-05-2.83308E-05-2.83200E-05 1.26441E-07-1.54553E-19-2.62796E-18
 -1      1366 9.43380E-05-2.83166E-05-2.82931E-05 2.85393E-07-1.16187E-19-1.92682E-18
 -1      1367 9.45038E-05-2.83570E-05-2.83487E-05 1.05703E-07 6.33124E-20-2.56274E-18
 -1      1368 9.45998E-05-2.83853E-05-2.83773E-05 1.01425E-07-1.07689E-19-2.58588E-18
 -1      1369 9.45368E-05-2.83730E-05-2.83545E-05 2.29196E-07-1.00482E-19-1.61766E-18
 -1      1370 9.46774E-05-2.84073E-05-2.84015E-05 8.67877E-08-1.03380E-19-2.47710E-18
 -1      1371 9.47558E-05-2.84300E-05-2.84250E-05 8.39903E-08-2.81241E-19-2.58198E-18
 -1      1372 9.47027E-05-2.84193E-05-2.84062E-05 1.86903E-07-1.00957E-19-1.88094E-18
 -1      1373 9.48245E-05-2.84494E-05-2.84464E-05 7.60302E-08-2.05370E-19-2.48503E-18
 -1      1374 9.48930E-05-2.84689E-05-2.84671E-05 7.48329E-08 1.77031E-19-2.82576E-18
 -1      1375 9.48458E-05-2.84586E-05-2.84512E-05 1.59934E-07-8.09000E-20-1.78880E-18
 -1      1376 9.49593E-05-2.84876E-05-2.84877E-05 7.42723E-08 5.93270E-19-2.80980E-18
 -1      1377 9.50266E-05-2.85065E-05-2.85081E-05 7.48498E-08 2.08084E-19-2.42440E-18
 -1      1378 9.49781E-05-2.84943E-05-2.84931E-05 1.49872E-07 3.14152E-19-1.69763E-18
 -1      1379 9.50978E-05-2.85265E-05-2.85302E-05 8.26722E-08 4.06232E-19-2.34410E-18
 -1      1380 9.51734E-05-2.85478E-05-2.85532E-05 8.52773E-08 4.37832E-19-1.52314E-18
 -1      1381 9.51129E-05-2.85302E-05-2.85361E-05 1.58781E-07 7.00700E-19-1.04863E-18
 -1      1382 9.52581E-05-2.85715E-05-2.85795E-05 1.02820E-07 2.20791E-19-1.19997E-18
 -1      1383 9.53533E-05-2.85985E-05-2.86083E-05 1.07803E-07-9.90888E-20-9.15673E-19
 -1      1384 9.52657E-05-2.85708E-05-2.85849E-05 1.89457E-07 5.70810E-19-1.38751E-18
 -1      1385 9.54613E-05-2.86288E-05-2.86419E-05 1.36821E-07-3.20059E-19-7.98602E-19
 -1      1386 9.55893E-05-2.86654E-05-2.86805E-05 1.44643E-07-1.80370E-19-1.27561E-18
 -1      1387 9.54545E-05-2.86212E-05-2.86451E-05 2.45616E-07-3.36671E-19-8.16293E-19
 -1      1388 9.57324E-05-2.87057E-05-2.87251E-05 1.87345E-07-3.91562E-20-1.24757E-18
 -1      1389 9.59090E-05-2.87567E-05-2.87782E-05 1.98586E-07 7.54554E-21-1.52835E-18
 -1      1390 9.57005E-05-2.86876E-05-2.87230E-05 3.32013E-07-3.34082E-19-5.95325E-19
 -1      1391 9.61009E-05-2.88109E-05-2.88379E-05 2.57610E-07 3.15009E-19-1.21089E-18
 -1      1392 9.63451E-05-2.88821E-05-2.89111E-05 2.72960E-07 6.01837E-19-3.13414E-19
 -1      1393 9.60283E-05-2.87770E-05-2.88264E-05 4.54452E-07 4.10414E-19-1.01216E-20
 -1      1394 9.66019E-05-2.89547E-05-2.89911E-05 3.51263E-07 5.26754E-19-2.67985E-19
 -1      1395 9.69363E-05-2.90530E-05-2.90910E-05 3.71494E-07 1.22856E-19 2.92946E-19
 -1      1396 9.64670E-05-2.88979E-05-2.89640E-05 6.19632E-07 7.98912E-19-6.69614E-19
 -1      1397 9.72763E-05-2.91494E-05-2.91969E-05 4.72086E-07-2.69781E-19 1.42812E-19
 -1      1398 9.77271E-05-2.92830E-05-2.93312E-05 4.97981E-07-2.28014E-19-5.98323E-19
 -1      1399 9.70502E-05-2.90603E-05-2.91459E-05 8.34694E-07-8.79078E-20-2.75608E-19
 -1      1400 9.81706E-05-2.94090E-05-2.94693E-05 6.23380E-07-1.59868E-19-1.00633E-18
 -1      1401 9.87673E-05-2.95873E-05-2.96466E-05 6.55588E-07-4.50844E-19-1.12748E-18
 -1      1402 9.78154E-05-2.92757E-05-2.93834E-05 1.10626E-06-6.93111E-19-7.98112E-19
 -1      1403 9.93353E-05-2.97493E-05-2.98235E-05 8.06814E-07 1.62510E-19-1.10227E-18
 -1      1404 1.00109E-04-2.99822E-05-3.00527E-05 8.45566E-07 3.27501E-19-1.17960E-18
 -1      1405 9.88032E-05-2.95569E-05-2.96881E-05 1.43862E-06 2.71663E-20-1.28458E-18
 -1      1406 1.00821E-04-3.01862E-05-3.02741E-05 1.02037E-06 9.38751E-20-9.85463E-19
 -1      1407 1.01800E-04-3.04837E-05-3.05634E-05 1.06498E-06-2.45211E-19-1.00415E-18
 -1      1408 1.00053E-04-2.99177E-05-3.00711E-05 1.83042E-06 2.08407E-19-5.35466E-19
 -1      1409 1.02670E-04-3.07349E-05-3.08331E-05 1.25483E-06-9.89235E-19-3.66712E-19
 -1      1410 1.03872E-04-3.11044E-05-3.11872E-05 1.30283E-06-5.79950E-19-1.09897E-18
 -1      1411 1.01600E-04-3.03718E-05-3.05407E-05 2.26911E-06-7.44921E-19-6.06323E-19
 -1      1412 1.04902E-04-3.14051E-05-3.15048E-05 1.48826E-06-4.48481E-19-1.02814E-18
 -1      1413 1.06324E-04-3.18481E-05-3.19213E-05 1.53398E-06-5.02073E-19-1.29122E-18
 -1      1414 1.03461E-04-3.09307E-05-3.10988E-05 2.72188E-06-1.17087E-18-3.03390E-19
 -1      1415 1.07490E-04-3.21954E-05-3.22775E-05 1.67775E-06-3.14128E-19-1.61992E-18
 -1      1416 1.09081E-04-3.27007E-05-3.27400E-05 1.71024E-06 1.08453E-19-2.09167E-18
 -1      1417 1.05619E-04-3.16002E-05-3.17349E-05 3.12215E-06-5.77249E-19-4.10315E-20
 -1      1418 1.10322E-04-3.30820E-05-3.31124E-05 1.74923E-06 6.64960E-19-2.76343E-18
 -1      1419 1.11955E-04-3.36157E-05-3.35811E-05 1.74966E-06-3.52958E-21-2.13851E-18
 -1      1420 1.07999E-04-3.23738E-05-3.24179E-05 3.35184E-06 1.75876E-19-4.07334E-19
 -1      1421 1.13150E-04-3.40031E-05-3.39269E-05 1.58872E-06-1.20533E-19-1.87309E-18
 -1      1422 1.14580E-04-3.44940E-05-3.43278E-05 1.52852E-06 2.50728E-19-2.09519E-18
 -1      1423 1.10435E-04-3.32216E-05-3.30863E-05 3.22383E-06 2.22826E-20-9.28596E-19
 -1      1424 1.15528E-04-3.48361E-05-3.45798E-05 1.04559E-06-3.04224E-19-1.93127E-18
 -1      1425 1.16362E-04-3.51613E-05-3.47976E-05 8.88448E-07-2.74935E-19-2.37199E-18
 -1      1426 1.12623E-04-3.40709E-05-3.36393E-05 2.47920E-06-1.84197E-20-1.03144E-18
 -1      1427 1.16777E-04-3.53743E-05-3.48657E-05-3.14064E-08-2.93920E-19-2.70674E-18
 -1      1428 1.16484E-04-3.53537E-05-3.47521E-05-3.17032E-07-3.39713E-19-2.72198E-18
 -1      1429 1.14097E-04-3.47782E-05-3.39367E-05 8.29814E-07-4.57841E-19-2.15605E-18
 -1      1430 1.16022E-04-3.53172E-05-3.45412E-05-1.69678E-06-2.77800E-20-3.47448E-18
 -1      1431 1.14055E-04-3.47419E-05-3.39550E-05-2.10630E-06 1.19908E-20-3.51450E-18
 -1      1432 1.14229E-04-3.50983E-05-3.38189E-05-1.90592E-06-2.01329E-19-2.37958E-18
 -1      1433 1.12417E-04-3.43176E-05-3.34051E-05-3.74335E-06 2.89884E-19-2.57413E-18
 -1      1434 1.08491E-04-3.30424E-05-3.22915E-05-4.19087E-06 8.37014E-19-2.00037E-18
 -1      1435 1.12343E-04-3.46860E-05-3.31594E-05-5.54248E-06 2.19673E-19-1.62549E-18
 -1      1436 1.05620E-04-3.21435E-05-3.14311E-05-5.55525E-06 7.89858E-20-2.34475E-18
 -1      1437 1.00099E-04-3.02443E-05-2.99160E-05-5.84920E-06-8.54133E-19-3.20591E-18
 -1      1438 1.08014E-04-3.32102E-05-3.19447E-05-9.22742E-06 1.40038E-19-1.45193E-18
 -1      1439 9.64232E-05-2.89686E-05-2.88983E-05-6.19853E-06-9.00212E-19-3.07552E-18
 -1      1440 9.05461E-05-2.68760E-05-2.73204E-05-6.11578E-06-4.84483E-19-4.64428E-18
 -1      1441 1.01533E-04-3.06381E-05-3.03404E-05-1.14097E-05-1.06258E-18-1.48147E-18
 -1      1442 8.70494E-05-2.56014E-05-2.63941E-05-4.96211E-06-4.51270E-19-5.25801E-18
 -1      1443 8.25997E-05-2.40121E-05-2.52016E-05-4.43618E-06-3.64634E-19-5.20586E-18
 -1      1444 9.43117E-05-2.75655E-05-2.86847E-05-1.05143E-05-1.14122E-18-1.99844E-18
 -1      1445 8.04377E-05-2.32588E-05-2.46090E-05-2.10039E-06 1.64880E-19-5.16738E-18
 -1      1446 7.87979E-05-2.27381E-05-2.41356E-05-1.36287E-06 2.67345E-19-5.05543E-18
 -1      1447 8.85898E-05-2.51504E-05-2.73714E-05-6.24894E-06-1.54716E-19-3.31451E-18
 -1      1448 7.85336E-05-2.27628E-05-2.39910E-05 1.06349E-06 1.61995E-19-4.00764E-18
 -1      1449 7.98093E-05-2.33501E-05-2.42631E-05 1.63206E-06 4.27924E-19-3.25229E-18
 -1      1450 8.62043E-05-2.43879E-05-2.66841E-05-3.78278E-07 9.94403E-19-2.72269E-18
 -1      1451 8.10334E-05-2.39509E-05-2.44936E-05 3.02333E-06 1.06119E-18-3.12312E-18
 -1      1452 8.40164E-05-2.51284E-05-2.52320E-05 3.17506E-06 1.18473E-18-1.72096E-18
 -1      1453 8.73150E-05-2.53299E-05-2.66624E-05 4.28925E-06 1.25861E-18-2.31695E-18
 -1      1454 8.56793E-05-2.57979E-05-2.56390E-05 3.20793E-06 9.71798E-19-1.65796E-18
 -1      1455 8.87654E-05-2.69152E-05-2.64536E-05 3.02021E-06 3.09617E-19-7.95046E-19
 -1      1456 9.03252E-05-2.70587E-05-2.70991E-05 5.92061E-06 1.43946E-18-1.15238E-18
 -1      1457 9.00148E-05-2.73065E-05-2.68354E-05 2.22968E-06-5.12058E-20-6.27916E-19
 -1      1458 9.22001E-05-2.80051E-05-2.74558E-05 1.94645E-06 3.03678E-19 1.00268E-19
 -1      1459 9.32125E-05-2.84359E-05-2.76875E-05 4.86951E-06 5.59432E-19-1.10934E-18
 -1      1460 9.27559E-05-2.80636E-05-2.77038E-05 1.12948E-06 1.07503E-18 4.92708E-19
 -1      1461 9.39684E-05-2.83799E-05-2.80710E-05 9.63867E-07 6.18801E-19 1.11769E-18
 -1      1462 9.48357E-05-2.89477E-05-2.81710E-05 2.83274E-06 8.33904E-19-4.30567E-19
 -1      1463 9.40520E-05-2.82880E-05-2.81756E-05 5.90511E-07-6.36797E-20 1.27715E-18
 -1      1464 9.47953E-05-2.85168E-05-2.83546E-05 5.59351E-07-3.47929E-19 1.57133E-18
 -1      1465 9.52270E-05-2.87768E-05-2.84288E-05 1.36746E-06 7.40532E-19-6.69920E-19
 -1      1466 9.49669E-05-2.86828E-05-2.83345E-05 2.80289E-07-1.75749E-18 1.28192E-18
 -1      1467 9.52788E-05-2.88349E-05-2.84374E-05 7.00427E-07-1.16163E-18 3.22227E-19
 -1      1468 9.65891E-05-2.83672E-05-2.97759E-05 2.99488E-06 9.18766E-20 4.44518E-18
 -1      1469 1.02547E-04-2.94017E-05-3.21590E-05 4.46194E-06 1.18267E-19 4.56445E-18
 -1      1470 1.02336E-04-2.67212E-05-3.27087E-05 1.27815E-05 2.11123E-19 3.45071E-18
 -1      1471 9.20442E-05-2.74333E-05-2.77658E-05 1.15116E-06 1.43585E-19 4.22373E-18
 -1      1472 9.39899E-05-2.75882E-05-2.86797E-05 1.47312E-06 8.48356E-20 4.27905E-18
 -1      1473 9.64982E-05-2.80337E-05-2.95372E-05 4.86610E-06 1.72027E-19 3.13277E-18
 -1      1474 9.02131E-05-2.70090E-05-2.70674E-05 3.30879E-07 1.34195E-19 3.89132E-18
 -1      1475 9.08271E-05-2.70262E-05-2.73398E-05 4.93798E-07 1.29014E-19 4.04474E-18
 -1      1476 9.30548E-05-2.75826E-05-2.81025E-05 1.85019E-06 2.43535E-19 2.84746E-18
 -1      1477 8.96973E-05-2.68913E-05-2.68922E-05-5.60769E-08 2.96329E-19 3.68823E-18
 -1      1478 8.97337E-05-2.68286E-05-2.69201E-05 3.31075E-08 1.68404E-19 3.85106E-18
 -1      1479 9.15028E-05-2.73118E-05-2.75192E-05 5.16095E-07 2.50583E-19 2.58255E-18
 -1      1480 8.98308E-05-2.69442E-05-2.69345E-05-2.43362E-07-7.45869E-20 3.44990E-18
 -1      1481 8.96013E-05-2.68364E-05-2.68691E-05-1.93075E-07 2.08061E-20 3.49770E-18
 -1      1482 9.09724E-05-2.72312E-05-2.73234E-05-1.33852E-07 2.54484E-19 2.48123E-18
 -1      1483 9.02847E-05-2.70870E-05-2.70731E-05-3.26404E-07-9.50571E-20 3.69643E-18
 -1      1484 8.99369E-05-2.69595E-05-2.69713E-05-2.98709E-07-9.97696E-20 3.49174E-18
 -1      1485 9.09910E-05-2.72746E-05-2.73128E-05-4.52483E-07-8.58754E-20 2.57328E-18
 -1      1486 9.08797E-05-2.72694E-05-2.72526E-05-3.50699E-07 1.24704E-19 3.54212E-18
 -1      1487 9.04915E-05-2.71389E-05-2.71390E-05-3.36992E-07 7.20121E-20 3.60132E-18
 -1      1488 9.12960E-05-2.73868E-05-2.73946E-05-5.92366E-07 4.77507E-20 2.53799E-18
 -1      1489 9.15129E-05-2.74616E-05-2.74433E-05-3.41190E-07 1.25823E-19 3.14015E-18
 -1      1490 9.11280E-05-2.73379E-05-2.73304E-05-3.36287E-07 1.65050E-19 3.35981E-18
 -1      1491 9.17366E-05-2.75306E-05-2.75204E-05-6.30294E-07 2.74196E-19 2.31969E-18
 -1      1492 9.21253E-05-2.76463E-05-2.76279E-05-3.12924E-07 2.40667E-19 2.60068E-18
 -1      1493 9.17679E-05-2.75348E-05-2.75227E-05-3.13475E-07 6.97189E-20 2.74639E-18
 -1      1494 9.22233E-05-2.76828E-05-2.76626E-05-6.09559E-07 3.26007E-19 1.67847E-18
 -1      1495 9.26844E-05-2.78141E-05-2.77966E-05-2.75431E-07-5.30292E-20 2.66634E-18
 -1      1496 9.23669E-05-2.77171E-05-2.77028E-05-2.79199E-07 8.58671E-20 2.77174E-18
 -1      1497 9.27035E-05-2.78295E-05-2.78046E-05-5.56565E-07 1.23589E-19 1.55154E-18
 -1      1498 9.31745E-05-2.79606E-05-2.79447E-05-2.34836E-07 2.19067E-19 2.70411E-18
 -1      1499 9.29017E-05-2.78787E-05-2.78640E-05-2.40310E-07 1.47180E-19 2.86428E-18
 -1      1500 9.31476E-05-2.79632E-05-2.79369E-05-4.88089E-07 7.14676E-20 2.41097E-18
 -1      1501 9.35910E-05-2.80847E-05-2.80708E-05-1.95052E-07-7.12918E-20 2.61105E-18
 -1      1502 9.33631E-05-2.80173E-05-2.80032E-05-2.01213E-07 1.35443E-20 2.44199E-18
 -1      1503 9.35407E-05-2.80802E-05-2.80548E-05-4.14929E-07 1.67879E-19 2.22437E-18
 -1      1504 9.39363E-05-2.81873E-05-2.81755E-05-1.58527E-07-1.48633E-19 2.79323E-18
 -1      1505 9.37502E-05-2.81330E-05-2.81201E-05-1.64686E-07-1.44784E-19 2.59655E-18
 -1      1506 9.38776E-05-2.81795E-05-2.81563E-05-3.43988E-07-1.20929E-19 1.66935E-18
 -1      1507 9.42172E-05-2.82704E-05-2.82608E-05-1.26751E-07 3.35074E-19 2.26755E-18
 -1      1508 9.40680E-05-2.82274E-05-2.82163E-05-1.32446E-07 2.54193E-19 2.57884E-18
 -1      1509 9.41597E-05-2.82619E-05-2.82417E-05-2.79609E-07 2.39650E-19 1.09582E-18
 -1      1510 9.44432E-05-2.83370E-05-2.83297E-05-1.00631E-07-2.28455E-19 2.08513E-18
 -1      1511 9.43250E-05-2.83034E-05-2.82943E-05-1.05542E-07-6.59268E-20 2.06900E-18
 -1      1512 9.43924E-05-2.83291E-05-2.83125E-05-2.24488E-07 1.45652E-19 1.63784E-18
 -1      1513 9.46259E-05-2.83906E-05-2.83854E-05-8.07714E-08 1.04527E-19 2.07283E-18
 -1      1514 9.45320E-05-2.83641E-05-2.83571E-05-8.46551E-08 7.28938E-20 2.09316E-18
 -1      1515 9.45836E-05-2.83839E-05-2.83711E-05-1.80353E-07 1.02805E-19 1.20617E-18
 -1      1516 9.47778E-05-2.84349E-05-2.84319E-05-6.76885E-08 4.92591E-19 1.50754E-18
 -1      1517 9.47010E-05-2.84133E-05-2.84086E-05-7.03255E-08 3.61349E-19 2.01088E-18
 -1      1518 9.47436E-05-2.84291E-05-2.84204E-05-1.48465E-07 4.80657E-19 7.64424E-19
 -1      1519 9.49130E-05-2.84741E-05-2.84734E-05-6.19799E-08-1.09631E-19 9.34384E-19
 -1      1520 9.48455E-05-2.84549E-05-2.84528E-05-6.31316E-08 1.85702E-19 1.22137E-18
 -1      1521 9.48838E-05-2.84683E-05-2.84638E-05-1.30010E-07 4.31998E-19 1.09985E-18
 -1      1522 9.50473E-05-2.85128E-05-2.85147E-05-6.44599E-08 2.52055E-19 7.44489E-19
 -1      1523 9.49806E-05-2.84934E-05-2.84942E-05-6.38298E-08 5.62860E-20 1.00150E-18
 -1      1524 9.50173E-05-2.85052E-05-2.85055E-05-1.26406E-07 1.35082E-19 3.92020E-19
 -1      1525 9.51982E-05-2.85564E-05-2.85610E-05-7.62636E-08-3.10472E-19 2.63613E-19
 -1      1526 9.51226E-05-2.85336E-05-2.85378E-05-7.34640E-08-1.62993E-19 4.97695E-19
 -1      1527 9.51590E-05-2.85441E-05-2.85499E-05-1.39539E-07-8.80068E-20 1.36234E-19
 -1      1528 9.53863E-05-2.86108E-05-2.86187E-05-9.89216E-08-2.73102E-19 8.18676E-19
 -1      1529 9.52906E-05-2.85812E-05-2.85893E-05-9.34454E-08-1.47750E-19 6.05942E-19
 -1      1530 9.53259E-05-2.85902E-05-2.86022E-05-1.71943E-07-4.82012E-19 4.30323E-19
 -1      1531 9.56355E-05-2.86831E-05-2.86949E-05-1.34401E-07 1.75069E-19 5.17723E-19
 -1      1532 9.55067E-05-2.86425E-05-2.86555E-05-1.25598E-07 2.70974E-20 6.84086E-19
 -1      1533 9.55377E-05-2.86490E-05-2.86685E-05-2.26910E-07 1.58062E-19 6.56789E-19
 -1      1534 9.59742E-05-2.87818E-05-2.87982E-05-1.85091E-07 2.65500E-19 1.25176E-19
 -1      1535 9.57966E-05-2.87253E-05-2.87441E-05-1.72157E-07 2.28748E-19 4.33802E-19
 -1      1536 9.58176E-05-2.87274E-05-2.87557E-05-3.08521E-07 3.36709E-19 1.45584E-19
 -1      1537 9.64357E-05-2.89169E-05-2.89387E-05-2.53712E-07-3.40039E-19 4.77683E-19
 -1      1538 9.61908E-05-2.88385E-05-2.88644E-05-2.35693E-07-7.01267E-20 2.87682E-19
 -1      1539 9.61925E-05-2.88332E-05-2.88722E-05-4.21542E-07 1.30824E-19-2.81681E-19
 -1      1540 9.70585E-05-2.90999E-05-2.91279E-05-3.43081E-07-8.50669E-19 2.33288E-18
 -1      1541 9.67248E-05-2.89926E-05-2.90270E-05-3.18912E-07-7.38901E-19 1.47079E-18
 -1      1542 9.66934E-05-2.89758E-05-2.90272E-05-5.71117E-07-1.36661E-18 1.32367E-18
 -1      1543 9.78861E-05-2.93439E-05-2.93788E-05-4.55649E-07 1.05938E-19 3.14412E-18
 -1      1544 9.74389E-05-2.92000E-05-2.92440E-05-4.24253E-07-4.34898E-20 2.86637E-18
 -1      1545 9.73553E-05-2.91657E-05-2.92312E-05-7.62123E-07-5.16722E-19 1.88850E-18
 -1      1546 9.89647E-05-2.96632E-05-2.97051E-05-5.92653E-07 4.22952E-19 1.59558E-18
 -1      1547 9.83777E-05-2.94741E-05-2.95288E-05-5.53146E-07 5.92172E-19 2.53189E-18
 -1      1548 9.82158E-05-2.94146E-05-2.94954E-05-9.97950E-07 8.55202E-19 2.15661E-18
 -1      1549 1.00339E-04-3.00720E-05-3.01200E-05-7.52647E-07-2.99511E-19 1.84376E-18
 -1      1550 9.95864E-05-2.98293E-05-2.98947E-05-7.04731E-07-4.61016E-19 1.84058E-18
 -1      1551 9.93125E-05-2.97346E-05-2.98306E-05-1.27839E-06-3.40967E-19 2.02930E-18
 -1      1552 1.02046E-04-3.05823E-05-3.06335E-05-9.29084E-07 4.42525E-20 2.27342E-18
 -1      1553 1.01106E-04-3.02792E-05-3.03534E-05-8.73736E-07-4.61244E-20 2.26427E-18
 -1      1554 1.00678E-04-3.01373E-05-3.02455E-05-1.59609E-06-7.46254E-19 2.89629E-18
 -1      1555 1.04096E-04-3.11996E-05-3.12478E-05-1.10653E-06-3.65000E-19 2.20279E-18
 -1      1556 1.02962E-04-3.08340E-05-3.09114E-05-1.04715E-06 4.46926E-21 1.56567E-18
 -1      1557 1.02331E-04-3.06315E-05-3.07439E-05-1.93097E-06 1.89671E-19 1.79466E-18
 -1      1558 1.06456E-04-3.19172E-05-3.19501E-05-1.25521E-06-2.38238E-19 2.79103E-18
 -1      1559 1.05146E-04-3.14957E-05-3.15647E-05-1.19940E-06-2.91302E-19 1.77651E-18
 -1      1560 1.04261E-04-3.12193E-05-3.13194E-05-2.24192E-06-3.12905E-19 1.82821E-18
 -1      1561 1.09008E-04-3.27048E-05-3.27022E-05-1.32414E-06-2.11362E-19 3.62594E-18
 -1      1562 1.07591E-04-3.22503E-05-3.22897E-05-1.28611E-06-6.74833E-20 2.93837E-18
 -1      1563 1.06408E-04-3.18908E-05-3.19490E-05-2.45575E-06-3.09760E-19 3.01308E-18
 -1      1564 1.11510E-04-3.34954E-05-3.34263E-05-1.23499E-06 5.71094E-20 4.17015E-18
 -1      1565 1.10130E-04-3.30566E-05-3.30319E-05-1.23809E-06-2.12504E-19 3.90179E-18
 -1      1566 1.08632E-04-3.26151E-05-3.25837E-05-2.45545E-06-2.04699E-19 3.20985E-18
 -1      1567 1.13544E-04-3.41676E-05-3.39929E-05-8.82526E-07 1.19597E-19 3.74181E-18
 -1      1568 1.12450E-04-3.38295E-05-3.36928E-05-9.60208E-07 3.37354E-19 4.12807E-18
 -1      1569 1.10679E-04-3.33274E-05-3.31395E-05-2.07447E-06-2.02295E-20 3.55168E-18
 -1      1570 1.14488E-04-3.45318E-05-3.42167E-05-1.54464E-07 8.55642E-19 1.38228E-18
 -1      1571 1.14055E-04-3.44223E-05-3.41200E-05-3.45401E-07 8.45021E-19 2.60058E-18
 -1      1572 1.12151E-04-3.39136E-05-3.34927E-05-1.11320E-06 1.51032E-18 2.73355E-18
 -1      1573 1.13570E-04-3.43362E-05-3.38805E-05 1.01212E-06 8.98358E-19-3.32725E-19
 -1      1574 1.14259E-04-3.46150E-05-3.41151E-05 6.80551E-07 3.44067E-19 4.80158E-19
 -1      1575 1.12506E-04-3.41961E-05-3.34901E-05 5.95778E-07 1.05874E-18 4.06364E-19
 -1      1576 1.10065E-04-3.33187E-05-3.28011E-05 2.52899E-06-8.01717E-19 7.04546E-19
 -1      1577 1.12301E-04-3.41322E-05-3.34726E-05 2.07295E-06-3.62835E-19 3.61630E-19
 -1      1578 1.11141E-04-3.39372E-05-3.29837E-05 3.04886E-06-3.16129E-19 1.15726E-18
 -1      1579 1.03693E-04-3.13346E-05-3.09429E-05 4.04278E-06-4.31219E-19 1.34001E-18
 -1      1580 1.07610E-04-3.27242E-05-3.20652E-05 3.55998E-06-2.43985E-20 9.43065E-19
 -1      1581 1.07588E-04-3.28922E-05-3.18976E-05 5.87356E-06-4.98797E-19 1.24485E-18
 -1      1582 9.51170E-05-2.85525E-05-2.85334E-05 4.92978E-06 1.20083E-19 1.97380E-18
 -1      1583 1.00263E-04-3.03395E-05-2.99594E-05 4.60396E-06-5.09755E-19 1.44080E-18
 -1      1584 1.01869E-04-3.09487E-05-3.03075E-05 8.19998E-06-4.12115E-19 1.89794E-18
 -1      1585 8.61855E-05-2.55865E-05-2.60834E-05 4.56248E-06-9.63311E-19 3.10427E-18
 -1      1586 9.14076E-05-2.73316E-05-2.74983E-05 4.58284E-06-2.87879E-19 2.24453E-18
 -1      1587 9.48513E-05-2.83457E-05-2.84851E-05 8.85956E-06-6.27426E-19 3.95946E-18
 -1      1588 7.94303E-05-2.33506E-05-2.42270E-05 2.79876E-06 6.37869E-19 2.45571E-18
 -1      1589 8.32195E-05-2.44996E-05-2.52520E-05 3.21521E-06-1.88200E-20 2.77292E-18
 -1      1590 8.82536E-05-2.57747E-05-2.68400E-05 7.07006E-06 8.76017E-20 2.61249E-18
 -1      1591 7.67953E-05-2.25677E-05-2.34272E-05 3.01503E-07-1.55066E-18 2.23012E-18
 -1      1592 7.80649E-05-2.27692E-05-2.38020E-05 9.37035E-07-2.40663E-19 2.22416E-18
 -1      1593 8.40019E-05-2.41478E-05-2.57597E-05 3.22168E-06-1.08658E-20 2.00253E-18
 -1      1594 7.84347E-05-2.32714E-05-2.37362E-05-1.80178E-06 4.14834E-19 3.14149E-18
 -1      1595 7.71863E-05-2.26170E-05-2.34579E-05-1.24662E-06-7.61827E-19 2.15779E-18
 -1      1596 8.31272E-05-2.40071E-05-2.54340E-05-1.06004E-06-7.85967E-19 1.86873E-18
 -1      1597 8.27049E-05-2.48136E-05-2.47920E-05-2.71335E-06 1.36132E-18 7.92929E-19
 -1      1598 7.99706E-05-2.37555E-05-2.41006E-05-2.44631E-06 1.35694E-18 2.52675E-18
 -1      1599 8.51218E-05-2.51002E-05-2.57762E-05-3.95202E-06 1.73206E-18 1.18845E-18
 -1      1600 8.73730E-05-2.63662E-05-2.60609E-05-2.46587E-06 8.44929E-19-1.43456E-18
 -1      1601 8.44731E-05-2.53862E-05-2.52798E-05-2.47674E-06 1.15328E-18 4.44375E-19
 -1      1602 8.83880E-05-2.66020E-05-2.64939E-05-4.67309E-06 2.15876E-18 1.17313E-18
 -1      1603 9.09760E-05-2.74499E-05-2.71375E-05-1.70423E-06 4.33939E-20-2.08783E-18
 -1      1604 8.87371E-05-2.67798E-05-2.64937E-05-1.83104E-06 3.14388E-19-1.63975E-18
 -1      1605 9.13595E-05-2.77507E-05-2.72605E-05-3.79930E-06 7.01846E-19 2.76808E-19
 -1      1606 9.32614E-05-2.80780E-05-2.78726E-05-1.06279E-06 4.91001E-19-2.07548E-18
 -1      1607 9.17909E-05-2.76651E-05-2.74352E-05-1.16061E-06 1.05499E-19-2.01364E-18
 -1      1608 9.33085E-05-2.82952E-05-2.78621E-05-2.51422E-06 4.53745E-19-1.44242E-18
 -1      1609 9.46429E-05-2.85117E-05-2.82729E-05-6.95519E-07-3.61157E-19-2.99071E-18
 -1      1610 9.37177E-05-2.82156E-05-2.80282E-05-7.22804E-07 1.38748E-19-2.71273E-18
 -1      1611 9.43979E-05-2.85132E-05-2.82132E-05-1.58697E-06 5.20647E-19-1.69050E-18
 -1      1612 9.50111E-05-2.87822E-05-2.82964E-05-3.08069E-07-1.30716E-18-1.50016E-18
 -1      1613 9.57854E-05-2.98941E-05-2.82313E-05-6.92162E-07-3.08039E-18-3.44213E-19
 -1      1614 9.54448E-05-2.92824E-05-2.83220E-05-6.94601E-07-2.80913E-18-2.99717E-19
 -1      1615 9.60579E-05-2.95339E-05-2.85431E-05 4.45680E-07-2.55787E-18 1.17933E-18
 -1      1616 9.59825E-05-2.98681E-05-2.83530E-05 1.14454E-07-3.47778E-18 6.82510E-19
 -1      1617 9.59548E-05-2.94640E-05-2.85573E-05-4.25394E-07-8.47006E-19 2.73605E-19
 -1      1618 9.52781E-05-2.59856E-05-2.97708E-05 2.87376E-06-3.76559E-18-1.08242E-18
 -1      1619 9.59390E-05-2.85065E-05-2.89731E-05 2.27860E-06-3.03162E-18 4.19652E-19
 -1      1620 9.64223E-05-2.86981E-05-2.91490E-05 2.73320E-06-1.79522E-18 1.02005E-18
 -1      1621 9.28858E-05-1.78800E-05-3.22419E-05 6.10054E-06-4.93238E-18-1.03108E-18
 -1      1622 9.46132E-05-2.33506E-05-3.06581E-05 5.37195E-06-3.89190E-18-8.93554E-19
 -1      1623 9.58115E-05-2.53327E-05-3.03956E-05 7.94512E-06-2.16265E-18-1.66065E-18
 -1      1624 8.86911E-05-5.28831E-06-3.58138E-05 8.90996E-06-3.42138E-18-1.58706E-19
 -1      1625 9.14758E-05-1.33921E-05-3.35815E-05 8.37310E-06-4.70114E-18-6.11822E-19
 -1      1626 9.35917E-05-1.84233E-05-3.24016E-05 1.37916E-05-1.77199E-18-2.19990E-19
 -1      1627 8.34257E-05 9.26143E-06-3.96972E-05 9.47288E-06-9.30783E-19 1.95943E-18
 -1      1628 8.66262E-05 4.59738E-07-3.73635E-05 9.57217E-06-3.18664E-18 1.33614E-18
 -1      1629 8.95161E-05-8.18442E-06-3.49234E-05 1.75313E-05-1.73274E-18 1.57735E-18
 -1      1630 7.90018E-05 2.07702E-05-4.26141E-05 6.51694E-06 3.79894E-19 9.62441E-19
 -1      1631 8.13628E-05 1.45016E-05-4.09945E-05 7.43682E-06-1.41169E-18 1.35967E-18
 -1      1632 8.44712E-05 3.06362E-06-3.73493E-05 1.60222E-05-1.58419E-18 2.32749E-18
 -1      1633 7.74197E-05 2.46797E-05-4.35556E-05 5.49960E-07 1.94450E-18-2.70283E-19
 -1      1634 7.78755E-05 2.35155E-05-4.32573E-05 2.00675E-06 6.54280E-19 1.00749E-18
 -1      1635 8.05274E-05 1.13526E-05-3.89850E-05 8.07271E-06-6.46736E-19 2.23230E-18
 -1      1636 7.96396E-05 1.90037E-05-4.21367E-05-5.54966E-06-1.55282E-18-1.18852E-18
 -1      1637 7.79316E-05 2.34762E-05-4.32797E-05-4.37053E-06 1.33376E-18-2.86869E-18
 -1      1638 7.97870E-05 1.29235E-05-3.92894E-05-3.59315E-06 6.13053E-19-1.25101E-18
 -1      1639 8.44987E-05 6.32052E-06-3.89194E-05-9.07707E-06-3.55627E-18 1.15456E-18
 -1      1640 8.14752E-05 1.44880E-05-4.10561E-05-8.66896E-06-3.23122E-18 7.01621E-19
 -1      1641 8.26624E-05 6.99934E-06-3.81639E-05-1.34676E-05-8.58203E-19-2.15337E-18
 -1      1642 8.96617E-05-7.98674E-06-3.51053E-05-8.99279E-06-2.34988E-18 1.69557E-18
 -1      1643 8.66506E-05 5.64603E-07-3.74239E-05-9.34625E-06-3.10851E-18 3.79242E-19
 -1      1644 8.75604E-05-3.58219E-06-3.59855E-05-1.74619E-05-1.44229E-18 1.31587E-18
 -1      1645 9.34293E-05-1.94361E-05-3.18357E-05-6.45370E-06-1.34800E-18 5.68730E-19
 -1      1646 9.13216E-05-1.29870E-05-3.36681E-05-7.15521E-06-1.93928E-18 2.35363E-18
 -1      1647 9.21236E-05-1.44462E-05-3.34503E-05-1.53531E-05 3.60545E-19 2.33483E-18
 -1      1648 9.53407E-05-2.62083E-05-2.97152E-05-3.29507E-06 1.19015E-19 1.57215E-18
 -1      1649 9.43333E-05-2.27055E-05-3.07816E-05-3.94347E-06-1.20755E-18 1.87920E-18
 -1      1650 9.49906E-05-2.25664E-05-3.12328E-05-9.96758E-06 1.19015E-19 1.34194E-18
 -1      1651 9.57930E-05-2.87309E-05-2.87382E-05-9.29877E-07-6.23999E-19-6.58555E-19
 -1      1652 9.55408E-05-2.77117E-05-2.91263E-05-1.22508E-06 2.60052E-19-8.80385E-20
 -1      1653 9.60790E-05-2.70913E-05-2.97074E-05-4.41199E-06-3.63430E-20 7.88879E-19
 -1      1654 9.56334E-05-2.89251E-05-2.85481E-05 2.56845E-07-1.67290E-18-1.17968E-18
 -1      1655 9.58631E-05-2.91668E-05-2.86012E-05 1.07164E-07-3.79034E-19-1.38752E-18
 -1      1656 9.62347E-05-2.86351E-05-2.90020E-05-8.80132E-07-2.47837E-19-1.15320E-18
 -1      1657 9.55641E-05-2.88029E-05-2.86585E-05 5.68947E-07 3.79041E-19-1.16480E-18
 -1      1658 2.42804E-05-7.69650E-05 1.56673E-05-5.74694E-06 2.00069E-18-4.11658E-19
 -1      1659 2.85938E-05-9.02991E-05 1.85157E-05 2.92694E-06 2.24972E-18-8.15269E-19
 -1      1660 2.41627E-05-4.43791E-05 3.96999E-06 5.77379E-06 2.04982E-19 3.90059E-19
 -1      1661 2.95458E-05-7.20118E-05 1.10596E-05 3.78665E-07 1.40607E-18-7.01423E-19
 -1      1662 4.57899E-05-1.32301E-05-1.53289E-05 3.82725E-05 9.45289E-19 1.46283E-18
 -1      1663 3.73604E-05-3.78776E-05-4.61901E-06 1.56210E-05-7.69106E-19 1.26250E-18
 -1      1664 9.34222E-05-1.05570E-06-3.76219E-05 7.39890E-05 1.55176E-18 2.49790E-18
 -1      1665 6.14705E-05-5.31443E-06-2.59207E-05 4.69233E-05 1.16552E-18 1.38490E-18
 -1      1666 1.70322E-04-2.31366E-05-5.83221E-05 8.64809E-05 1.70338E-18 8.81761E-19
 -1      1667 1.22659E-04-6.97028E-06-4.80260E-05 7.59919E-05 2.44284E-18 2.20313E-18
 -1      1668 2.39014E-04-5.13576E-05-7.36300E-05 6.95640E-05 9.32716E-19-1.15196E-18
 -1      1669 1.94825E-04-2.80336E-05-6.68220E-05 8.52657E-05 9.42959E-19 2.47334E-19
 -1      1670 2.69134E-04-6.68255E-05-8.00269E-05 1.70656E-05-9.86793E-20-1.61296E-18
 -1      1671 2.51305E-04-5.55289E-05-7.76137E-05 5.32032E-05-2.72956E-19-1.01517E-18
 -1      1672 2.50619E-04-5.81041E-05-7.68835E-05-3.53102E-05 5.27278E-19-2.69441E-18
 -1      1673 2.66973E-04-6.62539E-05-7.95474E-05 3.11260E-08 7.24425E-19-1.25784E-18
 -1      1674 1.97959E-04-3.50147E-05-6.58883E-05-6.99706E-05 2.38037E-18-3.31698E-18
 -1      1675 2.40003E-04-5.61252E-05-7.27706E-05-5.16235E-05 8.12622E-19-2.98664E-18
 -1      1676 1.27400E-04-1.19366E-05-4.82291E-05-7.02227E-05 2.94344E-18-3.06033E-18
 -1      1677 1.74166E-04-2.90939E-05-5.79122E-05-7.65748E-05 2.24506E-18-3.69645E-18
 -1      1678 6.84937E-05-5.85074E-06-2.83473E-05-4.76512E-05 1.55176E-18-3.72949E-18
 -1      1679 1.00833E-04-6.72709E-06-3.86538E-05-6.90925E-05 3.41015E-18-3.19331E-18
 -1      1680 3.61846E-05-2.42063E-05-9.09630E-06-1.76525E-05-6.86097E-20-7.67412E-19
 -1      1681 4.88895E-05-7.65341E-06-1.87379E-05-3.93932E-05 7.44542E-19-3.52705E-18
 -1      1682 2.69305E-05-5.73778E-05 7.26983E-06 7.97338E-07-7.11508E-19 1.40607E-19
 -1      1683 2.49297E-05-3.15570E-05-6.67609E-07-9.71118E-06-1.43996E-19 8.03834E-19
 -1      1684 2.65539E-05-8.19718E-05 1.70997E-05 1.69139E-06-1.39040E-18 3.19543E-19
 -1      1685 2.09070E-05-6.39337E-05 1.30054E-05 6.38933E-06-1.17568E-18-4.52739E-19
 -1      1686 2.50348E-05-8.51084E-05 1.90876E-05-5.89633E-06-3.75807E-18-2.10318E-18
 -1      1687 2.49855E-05-8.49288E-05 1.91032E-05 5.27954E-06-2.01064E-18-6.85673E-19
 -1      1688 2.02978E-05-6.43397E-05 1.31700E-05-8.51657E-06-6.06221E-18-3.27558E-18
 -1      1689 2.66236E-05-8.33021E-05 1.73150E-05-3.45171E-06-3.66596E-18-2.14490E-18
 -1      1690 2.79346E-05-3.12531E-05-1.74847E-06 1.30925E-05-6.42051E-18-3.86332E-18
 -1      1691 2.86704E-05-5.68392E-05 6.61740E-06 1.25554E-06-6.09610E-18-3.60381E-18
 -1      1692 5.59239E-05-8.34789E-06-2.10865E-05 4.33208E-05-4.87129E-18-4.49351E-18
 -1      1693 4.00000E-05-2.38911E-05-1.06219E-05 1.99398E-05-6.82793E-18-4.26312E-18
 -1      1694 1.17348E-04-1.34261E-05-4.22983E-05 7.01160E-05-3.71255E-18-3.83621E-18
 -1      1695 8.01764E-05-9.51734E-06-3.13729E-05 4.97830E-05-4.70950E-18-4.33511E-18
 -1      1696 1.92063E-04-3.56805E-05-6.20005E-05 7.51570E-05-2.54872E-18-1.43996E-18
 -1      1697 1.41748E-04-1.49384E-05-5.24047E-05 7.39202E-05-2.82401E-18-3.72356E-18
 -1      1698 2.51317E-04-6.10392E-05-7.50490E-05 3.96709E-05-3.70365E-19 7.36072E-19
 -1      1699 2.14180E-04-4.24512E-05-6.90493E-05 6.20797E-05-1.65198E-18-6.20875E-19
 -1      1700 2.76894E-04-7.07603E-05-8.08678E-05-1.05375E-05-5.93770E-19 4.60865E-19
 -1      1701 2.66739E-04-6.61739E-05-7.92246E-05 2.64853E-05 2.04558E-19 4.44692E-19
 -1      1702 2.47406E-04-5.32722E-05-7.67557E-05-6.13520E-05-1.78015E-18 3.48893E-18
 -1      1703 2.71620E-04-6.78250E-05-7.99639E-05-2.81556E-05-1.97867E-18 1.72943E-18
 -1      1704 1.83427E-04-2.32373E-05-6.43511E-05-8.71425E-05-1.73557E-18 4.68663E-18
 -1      1705 2.30324E-04-4.68316E-05-7.18360E-05-7.60807E-05-1.19749E-18 5.32530E-18
 -1      1706 1.10340E-04-5.26403E-06-4.41118E-05-7.16080E-05-1.35525E-18 4.10049E-18
 -1      1707 1.57982E-04-1.87840E-05-5.51974E-05-8.67445E-05-2.19974E-18 4.38085E-18
 -1      1708 5.73852E-05-1.10782E-05-2.21936E-05-4.09959E-05-1.55007E-19 1.82874E-18
 -1      1709 8.38319E-05-2.73980E-06-3.34499E-05-6.73890E-05-1.09945E-18 3.94463E-18
 -1      1710 3.55116E-05-4.27005E-05-2.14333E-06-1.26216E-05 2.85620E-18 8.21622E-19
 -1      1711 4.10821E-05-1.74364E-05-1.21495E-05-3.27356E-05 6.26804E-20 4.38763E-19
 -1      1712 2.91645E-05-7.64347E-05 1.25862E-05 2.14042E-06 3.89212E-18-5.09967E-19
 -1      1713 2.29640E-05-4.98229E-05 6.07911E-06-1.27907E-06 3.26701E-18-2.90956E-19
 -1      1714 2.92779E-05-9.35077E-05 1.92102E-05-2.35150E-06 1.81064E-18-1.69110E-18
 -1      1715 2.55431E-05-8.26223E-05 1.68542E-05 7.77760E-06 4.58499E-18-1.50581E-18
 -1      1716 1.35657E-04-3.36304E-05-4.18347E-05 5.30401E-05 2.09344E-18 2.41235E-18
 -1      1717 8.86866E-05-4.03508E-05-2.16590E-05 4.79105E-05 9.30042E-19 3.01290E-18
 -1      1718 9.51953E-05-2.89829E-05-2.83133E-05-7.97561E-07-2.82839E-18-1.24946E-18
 -1      1719 9.51333E-05-2.89554E-05-2.83599E-05-1.28795E-06-9.91121E-19-2.54087E-19
 -1      1720 2.41104E-05-5.61040E-05 8.85016E-06 1.98632E-05 2.28191E-18-4.57398E-19
 -1      1721 5.10355E-05-4.97228E-05-3.70107E-06 3.69459E-05 1.19601E-18 1.46452E-18
 -1      1722 1.45349E-05-6.01799E-05 1.38351E-05 1.48305E-06 1.37632E-18-1.56786E-18
 -1      1723 1.81153E-04-3.30651E-05-5.95272E-05 4.68486E-05 1.85955E-18 5.73441E-19
 -1      1724 2.13793E-04-3.39523E-05-7.15269E-05 3.22887E-05 5.18808E-19-2.85450E-19
 -1      1725 2.19183E-04-3.20704E-05-7.47349E-05 7.98091E-06 2.47757E-19-8.74191E-19
 -1      1726 2.10935E-04-3.49146E-05-7.04669E-05-1.56444E-05 9.74088E-19-5.39136E-19
 -1      1727 1.81985E-04-3.57569E-05-5.89614E-05-3.53424E-05 2.06613E-18-1.66865E-18
 -1      1728 1.37565E-04-3.46601E-05-4.23336E-05-4.44876E-05 9.64771E-19-1.58226E-18
 -1      1729 9.11128E-05-3.63079E-05-2.40162E-05-4.18511E-05-4.73491E-19-3.40973E-18
 -1      1730 5.42033E-05-4.43737E-05-6.78028E-06-3.15257E-05 1.94818E-20-1.33196E-18
 -1      1731 2.81735E-05-5.27636E-05 6.62787E-06-1.98736E-05-1.27987E-18-1.55536E-19
 -1      1732 1.48211E-05-5.83677E-05 1.39906E-05-6.65774E-06-2.14448E-18-1.39422E-18
 -1      1733 1.48289E-05-5.93808E-05 1.42225E-05 5.36967E-06-2.99447E-18-2.25099E-18
 -1      1734 3.00274E-05-5.27590E-05 6.18755E-06 2.12081E-05-3.45124E-18-3.18918E-18
 -1      1735 6.00198E-05-4.62519E-05-8.22421E-06 3.33898E-05-4.32410E-18-2.53178E-18
 -1      1736 1.01560E-04-4.00610E-05-2.65492E-05 4.09047E-05-4.15554E-18-2.84561E-18
 -1      1737 1.48193E-04-3.70091E-05-4.57196E-05 4.13252E-05-3.37966E-18-2.31918E-18
 -1      1738 1.91060E-04-3.60322E-05-6.22262E-05 3.13549E-05-3.04201E-18-1.16213E-18
 -1      1739 2.19551E-04-3.70760E-05-7.27266E-05 9.94214E-06-1.18246E-18-7.82235E-19
 -1      1740 2.28915E-04-3.73636E-05-7.59072E-05-1.24772E-05-1.80460E-18 1.42302E-18
 -1      1741 2.11586E-04-3.42312E-05-7.04206E-05-3.64195E-05-1.79380E-18 3.39364E-18
 -1      1742 1.74817E-04-3.34416E-05-5.69178E-05-4.87064E-05-1.49988E-18 4.56805E-18
 -1      1743 1.28991E-04-3.64926E-05-3.83078E-05-5.17684E-05-1.25446E-18 4.98818E-18
 -1      1744 8.35594E-05-4.29257E-05-1.86043E-05-4.66163E-05-6.66615E-19 2.84772E-18
 -1      1745 4.63104E-05-5.08277E-05-1.49011E-06-3.40866E-05 1.37812E-18 1.99643E-18
 -1      1746 2.24414E-05-5.97161E-05 1.04726E-05-1.65027E-05-4.74338E-20-1.63054E-20
 -1      1747 1.06060E-04-2.31735E-05-3.56063E-05-1.68517E-05-4.07926E-19-5.42948E-19
 -1      1748 8.91297E-05-1.05602E-05-3.37961E-05-1.33383E-05 7.01449E-21-1.36041E-18
 -1      1749 9.04596E-05-1.16289E-05-3.39365E-05-1.51118E-05-1.64357E-19-1.32330E-18
 -1      1750 9.24986E-05-1.38755E-05-3.38555E-05-1.60002E-05-2.68868E-19-1.22878E-18
 -1      1751 9.42147E-05-1.58265E-05-3.40994E-05-1.76609E-05-3.96411E-19-1.14741E-18
 -1      1752 9.34481E-05-1.63674E-05-3.30456E-05-1.37485E-05-2.53577E-19-1.22203E-18
 -1      1753 8.62075E-05-7.67206E-06-3.37295E-05-7.86293E-06 3.32661E-19-1.21249E-18
 -1      1754 8.66098E-05-7.97042E-06-3.37634E-05-9.25199E-06 2.63288E-19-1.28345E-18
 -1      1755 8.55905E-05-7.03523E-06-3.37260E-05-5.32003E-06 4.54986E-19-1.06598E-18
 -1      1756 8.58250E-05-7.21383E-06-3.37413E-05-6.62461E-06 3.90550E-19-1.18701E-18
 -1      1757 8.75896E-05-9.86626E-06-3.33429E-05-6.92867E-06 3.89865E-19-1.17580E-18
 -1      1758 8.52552E-05-6.67654E-06-3.37289E-05-2.88860E-06 5.57348E-19-8.75647E-19
 -1      1759 8.53762E-05-6.77123E-06-3.37350E-05-4.12823E-06 5.10317E-19-9.91240E-19
 -1      1760 8.69543E-05-9.15429E-06-3.33755E-05-4.53732E-06 5.35426E-19-9.89725E-19
 -1      1761 8.51242E-05-6.52834E-06-3.37323E-05-5.17446E-07 7.31890E-19-6.99742E-19
 -1      1762 8.51599E-05-6.55688E-06-3.37338E-05-1.72697E-06 6.46433E-19-8.01770E-19
 -1      1763 8.66219E-05-8.77522E-06-3.33953E-05-2.21716E-06 6.31450E-19-7.87284E-19
 -1      1764 8.51697E-05-6.56584E-06-3.37339E-05 1.84494E-06 7.83431E-19-5.28628E-19
 -1      1765 8.51278E-05-6.53289E-06-3.37322E-05 6.34434E-07 7.62848E-19-6.36810E-19
 -1      1766 8.65236E-05-8.66163E-06-3.34017E-05 6.53964E-08 7.82674E-19-6.36300E-19
 -1      1767 8.54014E-05-6.79620E-06-3.37351E-05 4.25061E-06 8.42350E-19-4.13537E-19
 -1      1768 8.52731E-05-6.69545E-06-3.37289E-05 3.00789E-06 8.20613E-19-4.98863E-19
 -1      1769 8.66395E-05-8.79477E-06-3.33945E-05 2.34910E-06 8.69842E-19-5.17292E-19
 -1      1770 8.58593E-05-7.24963E-06-3.37408E-05 6.71163E-06 8.74787E-19-2.11904E-19
 -1      1771 8.56208E-05-7.06731E-06-3.37258E-05 5.42450E-06 8.19098E-19-3.54457E-19
 -1      1772 8.69884E-05-9.19195E-06-3.33739E-05 4.65221E-06 8.96344E-19-3.48779E-19
 -1      1773 8.66741E-05-8.03970E-06-3.37620E-05 9.37301E-06 9.93414E-19 1.95321E-19
 -1      1774 8.62525E-05-7.72298E-06-3.37280E-05 7.95231E-06 9.09933E-19 7.31889E-21
 -1      1775 8.76417E-05-9.92479E-06-3.33399E-05 7.02717E-06 9.61998E-19-6.43083E-20
 -1      1776 8.80885E-05-9.38794E-06-3.38179E-05 1.22516E-05 9.83260E-19 5.73388E-19
 -1      1777 8.73474E-05-8.82981E-06-3.37456E-05 1.06587E-05 9.55112E-19 3.35875E-19
 -1      1778 8.87646E-05-1.11601E-05-3.32898E-05 9.50104E-06 9.99476E-19 3.08611E-19
 -1      1779 9.06349E-05-1.18409E-05-3.39287E-05 1.53000E-05 9.01468E-19 1.17094E-18
 -1      1780 8.92533E-05-1.07413E-05-3.37885E-05 1.35102E-05 9.24861E-19 8.10081E-19
 -1      1781 9.06642E-05-1.32233E-05-3.32076E-05 1.19727E-05 9.92825E-19 7.27694E-19
 -1      1782 9.58821E-05-1.70364E-05-3.39949E-05 1.76880E-05 5.93019E-19 2.06888E-18
 -1      1783 9.28613E-05-1.43446E-05-3.38284E-05 1.61910E-05 6.75280E-19 1.54004E-18
 -1      1784 9.39742E-05-1.68884E-05-3.30255E-05 1.38916E-05 7.96803E-19 1.27010E-18
 -1      1785 1.01932E-04-2.50968E-05-3.33614E-05 1.44205E-05 3.43842E-19 2.94577E-18
 -1      1786 9.80833E-05-1.96187E-05-3.36273E-05 1.69620E-05 4.72122E-19 2.40007E-18
 -1      1787 9.73359E-05-2.18564E-05-3.24296E-05 1.32458E-05 5.17484E-19 2.02007E-18
 -1      1788 9.87603E-05-2.61379E-05-3.13448E-05 9.43290E-06 2.90479E-19 2.81619E-18
 -1      1789 1.00164E-04-1.95666E-05-3.42201E-05-1.88676E-05-4.54632E-19-8.79644E-19
 -1      1790 9.53203E-05-2.72884E-05-2.91880E-05 4.06487E-06 2.92134E-19 2.48112E-18
 -1      1791 9.77501E-05-2.73935E-05-3.01969E-05 6.39892E-06 2.59033E-19 2.57156E-18
 -1      1792 9.75842E-05-2.56173E-05-3.08350E-05 8.75750E-06 3.51572E-19 2.12713E-18
 -1      1793 9.98234E-05-2.25448E-05-3.28381E-05-1.44671E-05-4.40960E-19-9.68000E-19
 -1      1794 9.69662E-05-2.69799E-05-2.98792E-05-5.70243E-06-3.07049E-19-9.12047E-19
 -1      1795 9.51600E-05-2.70367E-05-2.91686E-05-3.89526E-06-1.81609E-19-9.13472E-19
 -1      1796 9.43413E-05-2.72385E-05-2.86613E-05-2.41977E-06-2.19236E-19-8.41243E-19
 -1      1797 9.35700E-05-2.73189E-05-2.83565E-05-1.56670E-06-2.30247E-19-9.41960E-19
 -1      1798 9.55127E-05-2.65483E-05-2.95770E-05-4.47032E-06-2.16708E-19-8.83493E-19
 -1      1799 9.30451E-05-2.73694E-05-2.80878E-05-7.40116E-07-2.33189E-19-8.70012E-19
 -1      1800 9.27439E-05-2.74329E-05-2.79659E-05-3.02073E-07-1.77943E-19-9.17820E-19
 -1      1801 9.43032E-05-2.72235E-05-2.87690E-05-1.82756E-06-2.81093E-19-7.20345E-19
 -1      1802 9.24681E-05-2.74604E-05-2.78298E-05 1.52756E-07-8.17180E-20-9.63649E-19
 -1      1803 9.24368E-05-2.75367E-05-2.77998E-05 3.76323E-07 1.17030E-20-8.35815E-19
 -1      1804 9.36019E-05-2.75296E-05-2.83332E-05-3.62044E-07-1.13746E-19-7.55762E-19
 -1      1805 9.23329E-05-2.75680E-05-2.77414E-05 6.15237E-07 8.15435E-21-7.28131E-19
 -1      1806 9.24473E-05-2.76531E-05-2.77604E-05 7.18435E-07 2.07528E-19-7.48863E-19
 -1      1807 9.32803E-05-2.77145E-05-2.81119E-05 4.38880E-07 1.22096E-19-8.64178E-19
 -1      1808 9.24518E-05-2.76909E-05-2.77481E-05 8.28361E-07 7.25478E-20-8.40701E-19
 -1      1809 9.26384E-05-2.77774E-05-2.77925E-05 8.61067E-07-4.49316E-20-8.53831E-19
 -1      1810 9.32154E-05-2.78574E-05-2.80188E-05 8.47985E-07 7.76036E-20-8.58147E-19
 -1      1811 9.27057E-05-2.78186E-05-2.78069E-05 8.93105E-07-1.71100E-19-8.20784E-19
 -1      1812 9.29203E-05-2.79009E-05-2.78626E-05 8.84454E-07-2.71333E-19-7.27158E-19
 -1      1813 9.33080E-05-2.79805E-05-2.80025E-05 1.02067E-06-6.17651E-20-6.90550E-19
 -1      1814 9.30197E-05-2.79419E-05-2.78911E-05 8.70304E-07-4.30770E-19-6.59548E-19
 -1      1815 9.32357E-05-2.80165E-05-2.79496E-05 8.38449E-07-2.74139E-19-7.44408E-19
 -1      1816 9.34873E-05-2.80891E-05-2.80306E-05 1.05067E-06-2.42713E-19-9.09930E-19
 -1      1817 9.33473E-05-2.80550E-05-2.79844E-05 7.98517E-07-4.01290E-19-8.85303E-19
 -1      1818 9.35495E-05-2.81201E-05-2.80406E-05 7.55158E-07-4.15280E-19-1.09790E-18
 -1      1819 9.37055E-05-2.81836E-05-2.80821E-05 9.97263E-07-5.57280E-19-9.86764E-19
 -1      1820 9.36608E-05-2.81545E-05-2.80768E-05 7.02814E-07-3.29350E-19-1.05726E-18
 -1      1821 9.38413E-05-2.82095E-05-2.81279E-05 6.55560E-07-1.04287E-19-1.31966E-18
 -1      1822 9.39322E-05-2.82639E-05-2.81438E-05 8.99009E-07-3.47107E-19-9.68700E-19
 -1      1823 9.39453E-05-2.82392E-05-2.81626E-05 5.99583E-07-1.84611E-19-1.13708E-18
 -1      1824 9.41012E-05-2.82846E-05-2.82074E-05 5.53356E-07-1.86094E-19-9.54802E-19
 -1      1825 9.41489E-05-2.83305E-05-2.82076E-05 7.81285E-07-1.23395E-19-8.77483E-19
 -1      1826 9.41943E-05-2.83094E-05-2.82391E-05 4.99471E-07 5.51986E-20-1.15988E-18
 -1      1827 9.43257E-05-2.83460E-05-2.82774E-05 4.57416E-07 1.15491E-20-8.89508E-19
 -1      1828 9.43461E-05-2.83843E-05-2.82688E-05 6.60766E-07-9.88173E-20-3.76158E-19
 -1      1829 9.44072E-05-2.83663E-05-2.83057E-05 4.09331E-07-1.62767E-19-1.03713E-18
 -1      1830 9.45165E-05-2.83953E-05-2.83380E-05 3.73447E-07-1.79929E-19-7.29644E-19
 -1      1831 9.45198E-05-2.84267E-05-2.83249E-05 5.48343E-07-1.69193E-19-4.01480E-19
 -1      1832 9.45871E-05-2.84118E-05-2.83629E-05 3.33602E-07-4.68760E-19-9.59108E-19
 -1      1833 9.46778E-05-2.84345E-05-2.83901E-05 3.05214E-07-2.72136E-19-9.85517E-19
 -1      1834 9.46703E-05-2.84593E-05-2.83755E-05 4.51146E-07-4.92981E-19-5.62313E-19
 -1      1835 9.47397E-05-2.84479E-05-2.84124E-05 2.75332E-07-1.13457E-19-1.36838E-18
 -1      1836 9.48166E-05-2.84659E-05-2.84358E-05 2.55443E-07-4.95689E-20-1.26830E-18
 -1      1837 9.48008E-05-2.84840E-05-2.84210E-05 3.74023E-07-5.12286E-19-5.00934E-19
 -1      1838 9.48728E-05-2.84771E-05-2.84564E-05 2.36952E-07-2.49486E-20-1.49779E-18
 -1      1839 9.49413E-05-2.84921E-05-2.84777E-05 2.26521E-07 1.03670E-19-1.17808E-18
 -1      1840 9.49165E-05-2.85026E-05-2.84629E-05 3.20642E-07-2.43133E-19-8.87393E-19
 -1      1841 9.49956E-05-2.85021E-05-2.84979E-05 2.20880E-07 3.88157E-19-1.39045E-18
 -1      1842 9.50621E-05-2.85157E-05-2.85188E-05 2.21033E-07 4.83718E-19-1.23030E-18
 -1      1843 9.50242E-05-2.85171E-05-2.85032E-05 2.94339E-07 1.44017E-19-9.81284E-19
 -1      1844 9.51190E-05-2.85257E-05-2.85402E-05 2.29986E-07 3.33712E-19-8.17734E-19
 -1      1845 9.51906E-05-2.85399E-05-2.85628E-05 2.42187E-07 3.83339E-19-7.48804E-19
 -1      1846 9.51322E-05-2.85293E-05-2.85446E-05 2.98775E-07 3.72347E-19-1.01554E-18
 -1      1847 9.52555E-05-2.85512E-05-2.85872E-05 2.67959E-07 6.00465E-19-1.14508E-18
 -1      1848 9.53406E-05-2.85681E-05-2.86141E-05 2.94138E-07 4.93082E-19-1.45458E-18
 -1      1849 9.52504E-05-2.85416E-05-2.85904E-05 3.38440E-07 4.04231E-19-1.31787E-18
 -1      1850 9.54197E-05-2.85822E-05-2.86438E-05 3.39571E-07 8.58535E-20-1.07477E-18
 -1      1851 9.55279E-05-2.86046E-05-2.86777E-05 3.82216E-07-4.34081E-19-9.98531E-19
 -1      1852 9.53902E-05-2.85565E-05-2.86445E-05 4.19023E-07 4.20898E-19-1.44789E-18
 -1      1853 9.56285E-05-2.86232E-05-2.87151E-05 4.50842E-07-7.09337E-19-2.43779E-19
 -1      1854 9.57712E-05-2.86540E-05-2.87594E-05 5.13033E-07 6.98265E-20-3.60751E-19
 -1      1855 9.55649E-05-2.85768E-05-2.87113E-05 5.47646E-07-1.33648E-19-4.82010E-19
 -1      1856 9.59017E-05-2.86793E-05-2.88075E-05 6.09060E-07 2.63867E-19-3.47964E-19
 -1      1857 9.60924E-05-2.87224E-05-2.88662E-05 6.94421E-07 5.35499E-19-2.70092E-19
 -1      1858 9.57900E-05-2.86062E-05-2.87958E-05 7.32920E-07 1.87146E-19 2.02236E-19
 -1      1859 9.62622E-05-2.87570E-05-2.89281E-05 8.22586E-07 7.38245E-19-1.74932E-19
 -1      1860 9.65164E-05-2.88169E-05-2.90056E-05 9.35110E-07 8.26816E-19 6.55425E-20
 -1      1861 9.60833E-05-2.86492E-05-2.89039E-05 9.84759E-07 7.01099E-19-3.12081E-19
 -1      1862 9.67363E-05-2.88639E-05-2.90849E-05 1.10030E-06 4.73319E-19-3.61589E-19
 -1      1863 9.70717E-05-2.89461E-05-2.91862E-05 1.24395E-06-1.68725E-19-4.96770E-19
 -1      1864 9.64652E-05-2.87114E-05-2.90418E-05 1.31379E-06 5.49939E-19-5.58871E-19
 -1      1865 9.73536E-05-2.90093E-05-2.92866E-05 1.45049E-06-7.86833E-19-5.44398E-19
 -1      1866 9.77897E-05-2.91205E-05-2.94170E-05 1.62841E-06-8.05465E-19-6.71948E-19
 -1      1867 9.69585E-05-2.88003E-05-2.92159E-05 1.73010E-06-2.53189E-19-8.73685E-19
 -1      1868 9.81460E-05-2.92049E-05-2.95420E-05 1.87873E-06-8.68664E-20-5.47643E-19
 -1      1869 9.87029E-05-2.93530E-05-2.97068E-05 2.09182E-06 3.12987E-19-1.54095E-19
 -1      1870 9.75878E-05-2.89258E-05-2.94327E-05 2.24102E-06-1.94088E-19-1.07448E-19
 -1      1871 9.91462E-05-2.94648E-05-2.98590E-05 2.38421E-06 2.08718E-19-6.25815E-19
 -1      1872 9.98424E-05-2.96590E-05-3.00628E-05 2.62872E-06 4.17888E-19-9.12577E-20
 -1      1873 9.83792E-05-2.91017E-05-2.96973E-05 2.84712E-06 4.72106E-19-2.36213E-19
 -1      1874 1.00384E-04-2.98064E-05-3.02434E-05 2.95363E-06 6.65434E-20-2.51492E-19
 -1      1875 1.01233E-04-3.00572E-05-3.04884E-05 3.21717E-06-8.10402E-19 1.33001E-19
 -1      1876 9.93584E-05-2.93472E-05-3.00123E-05 3.53580E-06-3.78865E-20-8.90304E-19
 -1      1877 1.01883E-04-3.02516E-05-3.06955E-05 3.55141E-06-1.37780E-18 5.43348E-19
 -1      1878 1.02886E-04-3.05703E-05-3.09795E-05 3.80677E-06-1.00969E-18 1.61206E-19
 -1      1879 1.00549E-04-2.96902E-05-3.03761E-05 4.27094E-06-4.04462E-19 4.04085E-19
 -1      1880 1.03649E-04-3.08271E-05-3.12070E-05 4.10510E-06-7.66307E-19 1.55748E-19
 -1      1881 1.04785E-04-3.12242E-05-3.15203E-05 4.30165E-06-3.41849E-19 1.37239E-19
 -1      1882 1.01970E-04-3.01706E-05-3.07795E-05 4.97766E-06-7.95765E-19 5.24809E-20
 -1      1883 1.05662E-04-3.15640E-05-3.17553E-05 4.48566E-06-4.10823E-19 5.01041E-19
 -1      1884 1.06872E-04-3.20450E-05-3.20765E-05 4.53922E-06-2.10654E-19 2.76699E-19
 -1      1885 1.03632E-04-3.08435E-05-3.12033E-05 5.52145E-06-3.79438E-19 6.14612E-20
 -1      1886 1.07852E-04-3.24912E-05-3.22985E-05 4.48585E-06-1.54327E-19 4.38604E-19
 -1      1887 1.09025E-04-3.30474E-05-3.25901E-05 4.27148E-06-3.61142E-19 3.62398E-19
 -1      1888 1.05530E-04-3.17777E-05-3.16159E-05 5.68402E-06-2.33214E-19 1.32202E-18
 -1      1889 1.10075E-04-3.36157E-05-3.27712E-05 3.80857E-06-4.78861E-19 2.99439E-21
 -1      1890 1.11022E-04-3.42043E-05-3.29781E-05 3.16771E-06-5.36212E-20-3.20797E-19
 -1      1891 1.07627E-04-3.30366E-05-3.19736E-05 5.14590E-06-9.29852E-19 8.27053E-19
 -1      1892 1.12068E-04-3.48753E-05-3.30877E-05 2.09389E-06-3.25214E-19-1.14794E-18
 -1      1893 1.12517E-04-3.53862E-05-3.31417E-05 8.77046E-07-5.13613E-19-4.51642E-19
 -1      1894 1.09820E-04-3.46240E-05-3.22288E-05 3.50085E-06-5.15013E-19 3.60164E-19
 -1      1895 1.13397E-04-3.60511E-05-3.31571E-05-9.62813E-07-4.45116E-19-4.50936E-19
 -1      1896 1.13013E-04-3.62663E-05-3.29946E-05-2.79145E-06-5.46191E-19-6.87065E-19
 -1      1897 1.11865E-04-3.63686E-05-3.23471E-05 3.51503E-07-6.12451E-19-1.02123E-19
 -1      1898 1.13423E-04-3.66600E-05-3.29155E-05-5.33815E-06 8.41739E-21-2.44130E-19
 -1      1899 1.11898E-04-3.62536E-05-3.25094E-05-7.52849E-06 3.73383E-19 1.93494E-20
 -1      1900 1.13269E-04-3.77572E-05-3.23329E-05-4.44157E-06 1.72788E-19 1.57936E-19
 -1      1901 1.11414E-04-3.59636E-05-3.23716E-05-1.02657E-05-2.98579E-20 7.40393E-20
 -1      1902 1.08668E-04-3.46373E-05-3.17639E-05-1.21412E-05-5.79655E-19-5.50439E-20
 -1      1903 1.13242E-04-3.78530E-05-3.22517E-05-1.03132E-05-5.26881E-19 1.13679E-18
 -1      1904 1.06974E-04-3.33252E-05-3.16206E-05-1.39668E-05-6.16137E-19-2.35634E-19
 -1      1905 1.03406E-04-3.11454E-05-3.09290E-05-1.45271E-05-5.25031E-19 5.55945E-19
 -1      1906 1.10954E-04-3.56421E-05-3.22095E-05-1.55424E-05-3.51489E-19 3.05647E-19
 -1      1907 1.00804E-04-2.90597E-05-3.08047E-05-1.41483E-05-1.35904E-18 3.00816E-19
 -1      1908 9.73824E-05-2.67684E-05-3.01789E-05-1.26815E-05-1.17595E-18-8.97326E-20
 -1      1909 1.06346E-04-3.10388E-05-3.22542E-05-1.74032E-05-1.09212E-18 1.70500E-18
 -1      1910 9.50407E-05-2.49853E-05-3.00311E-05-9.68443E-06-1.02866E-18-4.06470E-19
 -1      1911 9.29322E-05-2.37522E-05-2.95909E-05-6.56444E-06 2.19554E-19-6.64243E-19
 -1      1912 1.01006E-04-2.58649E-05-3.22717E-05-1.37671E-05-1.34879E-18 1.09024E-18
 -1      1913 9.21065E-05-2.34153E-05-2.93716E-05-2.31350E-06 1.31073E-18-1.51387E-18
 -1      1914 9.18499E-05-2.37921E-05-2.91776E-05 9.52151E-07 1.29092E-18-8.25063E-19
 -1      1915 9.76490E-05-2.31339E-05-3.20483E-05-5.52898E-06 5.59373E-19 7.00099E-19
 -1      1916 9.26773E-05-2.50303E-05-2.88896E-05 4.26504E-06 1.25599E-18-8.19504E-20
 -1      1917 9.38952E-05-2.65508E-05-2.89145E-05 6.05266E-06 1.83087E-18 4.52554E-19
 -1      1918 9.77629E-05-2.44385E-05-3.14950E-05 3.06619E-06 1.85554E-18 6.79274E-19
 -1      1919 9.50651E-05-2.80961E-05-2.86404E-05 6.95182E-06 1.03540E-18-3.04396E-19
 -1      1920 9.66769E-05-2.95551E-05-2.88058E-05 6.92117E-06 1.09660E-18 1.44406E-19
 -1      1921 1.00130E-04-2.84238E-05-3.07276E-05 7.63367E-06 1.18276E-18 4.00862E-19
 -1      1922 9.70798E-05-3.03373E-05-2.86163E-05 5.87811E-06 7.08444E-19-1.05280E-18
 -1      1923 9.82332E-05-3.10085E-05-2.88128E-05 4.78115E-06 6.03931E-19-8.70627E-19
 -1      1924 1.01973E-04-3.17798E-05-3.00313E-05 7.20676E-06 5.75494E-19-7.59408E-19
 -1      1925 9.75774E-05-3.07543E-05-2.87042E-05 3.16494E-06 7.30586E-19-1.01484E-18
 -1      1926 9.79811E-05-3.06072E-05-2.88438E-05 2.05794E-06 6.24521E-19-8.69512E-19
 -1      1927 1.01780E-04-3.27314E-05-2.95555E-05 4.05536E-06 5.31280E-19-1.26547E-18
 -1      1928 9.67432E-05-2.98513E-05-2.87412E-05 1.19752E-06 4.93728E-19-1.04634E-18
 -1      1929 9.67421E-05-2.94638E-05-2.87816E-05 6.20215E-07 5.48030E-19-7.95890E-19
 -1      1930 9.73456E-05-2.96700E-05-2.89759E-05 1.45769E-07-1.41957E-19-1.75901E-18
 -1      1931 9.97481E-05-3.13703E-05-2.92466E-05 1.24732E-06 1.68560E-19-1.31257E-18
 -1      1932 9.32217E-05-2.73656E-05-2.81961E-05 1.60329E-06 3.76275E-19 2.23888E-18
 -1      1933 9.44156E-05-2.74707E-05-2.86325E-05 2.67433E-06 3.80133E-19 2.41747E-18
 -1      1934 9.52385E-05-2.70496E-05-2.92292E-05 4.05161E-06 4.31431E-19 1.94116E-18
 -1      1935 9.21705E-05-2.73523E-05-2.77546E-05 3.46556E-07 4.97407E-19 2.04472E-18
 -1      1936 9.26643E-05-2.73844E-05-2.79269E-05 8.94678E-07 2.98513E-19 2.11201E-18
 -1      1937 9.36347E-05-2.73709E-05-2.84057E-05 1.58295E-06 4.50026E-19 1.77377E-18
 -1      1938 9.17958E-05-2.73903E-05-2.75867E-05-3.06412E-07 1.63206E-19 2.01560E-18
 -1      1939 9.19104E-05-2.73634E-05-2.76335E-05-1.40871E-08 3.65936E-19 2.04801E-18
 -1      1940 9.28042E-05-2.74863E-05-2.80034E-05 2.70410E-07 4.14403E-19 1.70210E-18
 -1      1941 9.18196E-05-2.74810E-05-2.75636E-05-6.31313E-07-1.21842E-19 1.96460E-18
 -1      1942 9.17316E-05-2.74189E-05-2.75472E-05-4.78850E-07-5.02620E-20 1.96042E-18
 -1      1943 9.24905E-05-2.75795E-05-2.78291E-05-4.22299E-07 2.98827E-20 1.40311E-18
 -1      1944 9.20633E-05-2.76029E-05-2.76188E-05-7.67934E-07 2.25929E-19 1.81457E-18
 -1      1945 9.18726E-05-2.75242E-05-2.75703E-05-6.97182E-07 7.92915E-20 1.91846E-18
 -1      1946 9.24936E-05-2.76847E-05-2.77834E-05-7.66036E-07 9.20387E-20 1.26918E-18
 -1      1947 9.24147E-05-2.77368E-05-2.77140E-05-7.93715E-07 3.60950E-19 1.60339E-18
 -1      1948 9.21801E-05-2.76536E-05-2.76509E-05-7.72118E-07 4.12546E-19 1.84752E-18
 -1      1949 9.26771E-05-2.77999E-05-2.78105E-05-9.05313E-07 4.59005E-19 1.10337E-18
 -1      1950 9.28042E-05-2.78694E-05-2.78255E-05-7.55268E-07 2.65955E-19 1.14077E-18
 -1      1951 9.25606E-05-2.77891E-05-2.77583E-05-7.62980E-07 4.52397E-19 1.40364E-18
 -1      1952 9.29520E-05-2.79163E-05-2.78766E-05-9.23412E-07 5.28836E-19 1.00235E-18
 -1      1953 9.31894E-05-2.79924E-05-2.79388E-05-6.82094E-07-1.31477E-19 1.80698E-18
 -1      1954 9.29571E-05-2.79192E-05-2.78738E-05-7.06379E-07-6.66339E-20 1.49249E-18
 -1      1955 9.32613E-05-2.80269E-05-2.79603E-05-8.71585E-07-3.92654E-20 1.40671E-18
 -1      1956 9.35463E-05-2.81016E-05-2.80458E-05-5.93288E-07 1.86946E-19 1.95210E-18
 -1      1957 9.33362E-05-2.80375E-05-2.79863E-05-6.25778E-07 1.19593E-19 1.88103E-18
 -1      1958 9.35698E-05-2.81267E-05-2.80488E-05-7.82625E-07 4.66286E-20 1.54834E-18
 -1      1959 9.38628E-05-2.81952E-05-2.81418E-05-5.01249E-07-3.50414E-20 1.69615E-18
 -1      1960 9.36798E-05-2.81408E-05-2.80896E-05-5.36416E-07 3.24506E-19 1.85545E-18
 -1      1961 9.38575E-05-2.82137E-05-2.81341E-05-6.77874E-07 1.93905E-19 1.40124E-18
 -1      1962 9.41348E-05-2.82733E-05-2.82253E-05-4.13937E-07 4.81480E-19 7.25598E-19
 -1      1963 9.39799E-05-2.82284E-05-2.81808E-05-4.48153E-07 1.38285E-19 1.12761E-18
 -1      1964 9.41140E-05-2.82870E-05-2.82122E-05-5.71227E-07 3.97268E-19 9.70513E-19
 -1      1965 9.43639E-05-2.83373E-05-2.82964E-05-3.36405E-07 3.10212E-19 8.91051E-19
 -1      1966 9.42352E-05-2.83008E-05-2.82591E-05-3.67296E-07 1.48184E-19 7.21255E-19
 -1      1967 9.43362E-05-2.83475E-05-2.82812E-05-4.71654E-07 3.10605E-19 6.56761E-19
 -1      1968 9.45548E-05-2.83889E-05-2.83563E-05-2.71874E-07 6.08435E-20 9.12227E-19
 -1      1969 9.44490E-05-2.83596E-05-2.83253E-05-2.97860E-07 4.39166E-19 1.05925E-18
 -1      1970 9.45253E-05-2.83963E-05-2.83411E-05-3.84928E-07 4.59673E-19 5.47432E-19
 -1      1971 9.47150E-05-2.84307E-05-2.84071E-05-2.22545E-07 5.62298E-19 5.42236E-19
 -1      1972 9.46274E-05-2.84071E-05-2.83811E-05-2.42489E-07 1.34978E-19 6.64361E-19
 -1      1973 9.46856E-05-2.84355E-05-2.83930E-05-3.14865E-07 4.16755E-19-5.91031E-21
 -1      1974 9.48537E-05-2.84654E-05-2.84516E-05-1.90207E-07 7.52175E-19 5.27035E-19
 -1      1975 9.47789E-05-2.84459E-05-2.84291E-05-2.03149E-07 6.43632E-19 6.39751E-19
 -1      1976 9.48240E-05-2.84672E-05-2.84387E-05-2.64248E-07 7.91878E-19 2.28424E-19
 -1      1977 9.49815E-05-2.84961E-05-2.84930E-05-1.76709E-07 2.35085E-19 6.37897E-19
 -1      1978 9.49133E-05-2.84788E-05-2.84722E-05-1.81649E-07 4.76247E-19 6.95038E-19
 -1      1979 9.49486E-05-2.84939E-05-2.84808E-05-2.35534E-07 6.04350E-19 2.27756E-19
 -1      1980 9.51108E-05-2.85264E-05-2.85352E-05-1.84333E-07 1.12816E-19-6.81744E-20
 -1      1981 9.50422E-05-2.85093E-05-2.85140E-05-1.80064E-07 2.79037E-19 2.71538E-19
 -1      1982 9.50696E-05-2.85183E-05-2.85224E-05-2.31394E-07 5.01525E-19 2.39857E-20
 -1      1983 9.52558E-05-2.85600E-05-2.85826E-05-2.16067E-07-4.60436E-19 6.39628E-20
 -1      1984 9.51788E-05-2.85407E-05-2.85586E-05-2.01038E-07-1.83147E-19 3.14998E-20
 -1      1985 9.51984E-05-2.85435E-05-2.85670E-05-2.55134E-07-1.35471E-19 5.48264E-20
 -1      1986 9.54328E-05-2.86016E-05-2.86401E-05-2.75800E-07-4.06498E-19 6.45971E-20
 -1      1987 9.53383E-05-2.85775E-05-2.86106E-05-2.48017E-07-7.34355E-19-1.27065E-19
 -1      1988 9.53484E-05-2.85729E-05-2.86190E-05-3.10984E-07-5.42227E-19-3.23660E-19
 -1      1989 9.56611E-05-2.86565E-05-2.87138E-05-3.68403E-07 5.77495E-19 2.00716E-19
 -1      1990 9.55381E-05-2.86244E-05-2.86755E-05-3.25375E-07 3.35964E-19 5.96975E-19
 -1      1991 9.55351E-05-2.86106E-05-2.86833E-05-4.04285E-07 1.19164E-20 7.03611E-19
 -1      1992 9.59627E-05-2.87309E-05-2.88103E-05-4.99680E-07 6.08633E-19-4.66089E-19
 -1      1993 9.57987E-05-2.86870E-05-2.87596E-05-4.38426E-07 5.26966E-19 2.26595E-19
 -1      1994 9.57765E-05-2.86614E-05-2.87655E-05-5.41500E-07 5.58689E-19 6.18426E-19
 -1      1995 9.63633E-05-2.88324E-05-2.89376E-05-6.76088E-07-1.07427E-18 7.12489E-19
 -1      1996 9.61437E-05-2.87723E-05-2.88702E-05-5.93240E-07-6.23007E-19-3.63025E-19
 -1      1997 9.60932E-05-2.87312E-05-2.88719E-05-7.30020E-07-5.16904E-19 9.17860E-19
 -1      1998 9.68921E-05-2.89697E-05-2.91042E-05-9.04112E-07-1.35866E-18 1.43841E-18
 -1      1999 9.66003E-05-2.88883E-05-2.90153E-05-7.96184E-07-1.30030E-18 1.34946E-18
 -1      2000 9.65088E-05-2.88268E-05-2.90098E-05-9.77613E-07-1.57638E-18 1.83263E-18
 -1      2001 9.75809E-05-2.91533E-05-2.93195E-05-1.18906E-06 2.54057E-19 1.28795E-18
 -1      2002 9.71985E-05-2.90445E-05-2.92039E-05-1.05299E-06-5.27496E-19 1.20219E-18
 -1      2003 9.70495E-05-2.89567E-05-2.91867E-05-1.29133E-06-4.78810E-19 9.47929E-19
 -1      2004 9.84629E-05-2.93948E-05-2.95929E-05-1.53297E-06 9.40906E-19 1.77456E-18
 -1      2005 9.79710E-05-2.92519E-05-2.94453E-05-1.36709E-06 7.19216E-19 1.78527E-18
 -1      2006 9.77434E-05-2.91310E-05-2.94103E-05-1.67555E-06 2.80510E-19 1.10422E-18
 -1      2007 9.95693E-05-2.97071E-05-2.99325E-05-1.93103E-06-1.08401E-18 2.03652E-18
 -1      2008 9.89501E-05-2.95230E-05-2.97482E-05-1.73679E-06-2.05033E-19 1.97607E-18
 -1      2009 9.86185E-05-2.93619E-05-2.96873E-05-2.12865E-06-1.31926E-19 1.70165E-18
 -1      2010 1.00924E-04-3.01036E-05-3.03432E-05-2.36597E-06-3.80122E-19 2.25745E-18
 -1      2011 1.00165E-04-2.98716E-05-3.01193E-05-2.15067E-06-1.04266E-18 2.00058E-18
 -1      2012 9.97000E-05-2.96639E-05-3.00224E-05-2.63768E-06-6.72938E-19 1.94078E-18
 -1      2013 1.02534E-04-3.05970E-05-3.08232E-05-2.79945E-06 1.50454E-19 2.03035E-18
 -1      2014 1.01633E-04-3.03121E-05-3.05604E-05-2.58054E-06 3.94013E-19 2.68291E-18
 -1      2015 1.01005E-04-3.00543E-05-3.04154E-05-3.17017E-06 3.60489E-19 2.56791E-18
 -1      2016 1.04377E-04-3.11966E-05-3.13596E-05-3.16010E-06-4.16127E-19 2.09917E-18
 -1      2017 1.03351E-04-3.08574E-05-3.10652E-05-2.97129E-06-5.02577E-19 1.92446E-18
 -1      2018 1.02536E-04-3.05526E-05-3.08586E-05-3.66234E-06-3.95686E-19 2.48768E-18
 -1      2019 1.06379E-04-3.19033E-05-3.19217E-05-3.32896E-06 2.82999E-21 2.43296E-18
 -1      2020 1.05280E-04-3.15165E-05-3.16133E-05-3.22787E-06-2.98281E-19 2.47836E-18
 -1      2021 1.04269E-04-3.11794E-05-3.13324E-05-4.00397E-06-5.30019E-19 2.33658E-18
 -1      2022 1.08394E-04-3.26991E-05-3.24545E-05-3.12706E-06-4.99710E-19 2.65170E-18
 -1      2023 1.07322E-04-3.22858E-05-3.21642E-05-3.20209E-06-4.58333E-19 2.09461E-18
 -1      2024 1.06135E-04-3.19503E-05-3.18008E-05-4.02264E-06-2.49192E-19 1.51055E-18
 -1      2025 1.10172E-04-3.35295E-05-3.28734E-05-2.31749E-06 5.40890E-19 2.57481E-18
 -1      2026 1.09290E-04-3.31356E-05-3.26515E-05-2.68768E-06 6.51818E-20 3.18281E-18
 -1      2027 1.08007E-04-3.28613E-05-3.22088E-05-3.47646E-06-1.31859E-19 2.34920E-18
 -1      2028 1.11340E-04-3.42717E-05-3.30680E-05-6.48040E-07 1.94860E-18 2.74240E-18
 -1      2029 1.10885E-04-3.39815E-05-3.29813E-05-1.44229E-06 1.60988E-18 3.39799E-18
 -1      2030 1.09662E-04-3.38561E-05-3.24838E-05-2.07552E-06 1.39059E-18 2.40566E-18
 -1      2031 1.11410E-04-3.46971E-05-3.29206E-05 2.02872E-06 6.81954E-19 1.76931E-18
 -1      2032 1.11669E-04-3.46443E-05-3.30414E-05 7.32127E-07 1.03966E-18 2.23093E-18
 -1      2033 1.10756E-04-3.47708E-05-3.25473E-05 4.32561E-07 1.53227E-18 4.07499E-18
 -1      2034 1.09853E-04-3.44572E-05-3.23480E-05 5.53858E-06-1.70171E-18 2.18915E-18
 -1      2035 1.11097E-04-3.48146E-05-3.27284E-05 3.82172E-06-4.13643E-19 1.88687E-18
 -1      2036 1.10817E-04-3.52752E-05-3.23393E-05 4.07562E-06-9.93146E-20 3.75223E-18
 -1      2037 1.06297E-04-3.31623E-05-3.13570E-05 9.12469E-06-4.68621E-19 2.36072E-18
 -1      2038 1.08646E-04-3.40775E-05-3.19937E-05 7.36137E-06-1.15934E-18 2.40047E-18
 -1      2039 1.09311E-04-3.48683E-05-3.18511E-05 8.37723E-06-1.35332E-18 3.31040E-18
 -1      2040 1.00877E-04-3.06604E-05-3.00836E-05 1.13965E-05-6.64104E-19 3.01658E-18
 -1      2041 1.04130E-04-3.21131E-05-3.08895E-05 1.02693E-05-7.60550E-19 2.04328E-18
 -1      2042 1.05899E-04-3.30967E-05-3.11467E-05 1.21189E-05-7.80739E-19 2.35367E-18
 -1      2043 9.46234E-05-2.74421E-05-2.87829E-05 1.08689E-05-3.55013E-19 3.14916E-18
 -1      2044 9.81294E-05-2.90947E-05-2.95920E-05 1.10803E-05-4.83636E-19 3.26039E-18
 -1      2045 1.00887E-04-2.99923E-05-3.03525E-05 1.35334E-05-8.40674E-19 2.11221E-18
 -1      2046 8.93677E-05-2.47102E-05-2.77289E-05 7.07579E-06 1.05228E-18 1.58878E-18
 -1      2047 9.21770E-05-2.59590E-05-2.83581E-05 8.80751E-06 2.58160E-19 2.15149E-18
 -1      2048 9.55753E-05-2.65356E-05-2.96103E-05 1.12546E-05 8.12497E-19 8.86989E-19
 -1      2049 8.68843E-05-2.37335E-05-2.71077E-05 1.41021E-06-1.44407E-18 2.70155E-18
 -1      2050 8.81833E-05-2.40706E-05-2.74298E-05 3.96120E-06 1.17870E-19 2.43694E-18
 -1      2051 9.18450E-05-2.42871E-05-2.90073E-05 5.63007E-06-7.08464E-20 2.29116E-18
 -1      2052 8.75873E-05-2.47512E-05-2.69659E-05-3.54133E-06 4.46711E-19 8.89385E-19
 -1      2053 8.72178E-05-2.41802E-05-2.69608E-05-1.35340E-06-6.77507E-19 1.63931E-18
 -1      2054 9.09238E-05-2.43014E-05-2.85884E-05-9.11684E-07-1.68665E-19 1.80626E-18
 -1      2055 9.02433E-05-2.67752E-05-2.72017E-05-5.83348E-06 2.93835E-18 1.58342E-18
 -1      2056 8.87871E-05-2.57944E-05-2.69594E-05-4.82964E-06 1.95048E-18 1.76961E-18
 -1      2057 9.24021E-05-2.61903E-05-2.83725E-05-5.44446E-06 1.69630E-18 1.25568E-18
 -1      2058 9.29969E-05-2.84588E-05-2.76234E-05-5.41312E-06 1.94583E-18 1.25600E-18
 -1      2059 9.13282E-05-2.76426E-05-2.72878E-05-5.55424E-06 2.18085E-18 2.18558E-18
 -1      2060 9.46372E-05-2.84606E-05-2.83383E-05-6.61448E-06 2.02082E-18 2.18371E-18
 -1      2061 9.46753E-05-2.91308E-05-2.80372E-05-3.69639E-06 1.34419E-18-5.69312E-19
 -1      2062 9.34067E-05-2.87315E-05-2.77343E-05-4.34359E-06 1.42204E-18 1.57813E-19
 -1      2063 9.61127E-05-2.97677E-05-2.84187E-05-5.26204E-06 2.18159E-18-4.88192E-19
 -1      2064 9.51709E-05-2.90032E-05-2.83109E-05-2.17273E-06 7.21679E-19-1.23616E-18
 -1      2065 9.44744E-05-2.89239E-05-2.81127E-05-2.70017E-06 7.20229E-19-6.05298E-19
 -1      2066 9.63525E-05-2.98369E-05-2.85104E-05-3.23017E-06 1.10981E-18-7.62972E-19
 -1      2067 9.52860E-05-2.89265E-05-2.84077E-05-1.39368E-06-9.48028E-19 6.38349E-19
 -1      2068 9.49367E-05-2.88772E-05-2.83284E-05-1.76770E-06 4.15867E-19-1.42234E-19
 -1      2069 9.60949E-05-2.95265E-05-2.85448E-05-1.97641E-06-1.67620E-19 3.18048E-19
 -1      2070 9.57723E-05-2.92077E-05-2.84741E-05-1.40108E-06-7.73374E-19 1.19377E-18
 -1      2071 9.88885E-05-2.65654E-05-3.08678E-05 1.15954E-05-6.95401E-19-1.50981E-18
 -1      2072 9.93522E-05-2.90606E-05-3.01093E-05 8.29522E-06-1.55079E-18-3.45603E-19
 -1      2073 9.87277E-05-2.92197E-05-2.96607E-05 4.67697E-06-1.66850E-18 4.69071E-19
 -1      2074 9.83063E-05-3.01279E-05-2.92166E-05 2.32509E-06-1.67668E-18 9.32729E-19
 -1      2075 1.01549E-04-3.13942E-05-3.01171E-05 7.72637E-06-1.74748E-18-5.05467E-19
 -1      2076 9.73551E-05-2.96833E-05-2.89033E-05 4.11756E-07-1.76186E-18-4.89691E-21
 -1      2077 9.66003E-05-2.96224E-05-2.86881E-05-6.62460E-07-8.56172E-19 8.94083E-20
 -1      2078 9.69176E-05-2.97872E-05-2.87740E-05-8.85603E-07-9.47072E-19 3.95144E-19
 -1      2079 9.94867E-05-3.09447E-05-2.93683E-05 1.89644E-06-1.51287E-18 6.13748E-19
 -1      2080 9.64000E-05-2.07530E-05-3.23806E-05 1.89309E-05-1.52062E-18-9.35918E-19
 -1      2081 9.83702E-05-2.50691E-05-3.13555E-05 1.58760E-05-1.04701E-18-9.14756E-19
 -1      2082 1.01853E-04-2.98486E-05-3.09396E-05 1.64935E-05-6.47792E-19-2.06300E-18
 -1      2083 9.04978E-05-1.17229E-05-3.38626E-05 2.29417E-05-1.41363E-18 1.98031E-18
 -1      2084 9.40717E-05-1.73332E-05-3.27809E-05 2.19820E-05-2.03645E-18 9.51635E-19
 -1      2085 9.81810E-05-2.47746E-05-3.15417E-05 2.48482E-05-1.30745E-18 5.72637E-19
 -1      2086 8.26291E-05-1.65297E-06-3.49094E-05 1.95630E-05-3.50301E-19 1.97158E-18
 -1      2087 8.66072E-05-6.83252E-06-3.40673E-05 2.22227E-05-1.36351E-18 3.43103E-18
 -1      2088 8.98795E-05-1.58655E-05-3.17143E-05 2.78529E-05-1.11055E-18 2.93989E-18
 -1      2089 7.66703E-05 5.42875E-06-3.53528E-05 7.55579E-06-5.12632E-19 1.73393E-18
 -1      2090 7.89512E-05 2.72658E-06-3.49592E-05 1.37100E-05-2.27217E-19 1.82700E-18
 -1      2091 7.98729E-05-5.77715E-06-3.15314E-05 2.07761E-05 4.49280E-19 2.16142E-18
 -1      2092 7.69766E-05 5.11378E-06-3.51935E-05-8.02483E-06-9.66518E-19-3.00342E-18
 -1      2093 7.59334E-05 6.30328E-06-3.53551E-05-1.29586E-06-4.78137E-19 7.43166E-19
 -1      2094 7.40393E-05-2.30122E-08-3.13459E-05 4.00884E-06-1.15395E-18 1.17788E-18
 -1      2095 8.34134E-05-2.62272E-06-3.45163E-05-1.97255E-05 4.24178E-19-4.82279E-19
 -1      2096 7.97815E-05 1.85331E-06-3.51914E-05-1.55408E-05 3.64899E-19-2.63054E-18
 -1      2097 7.67543E-05-2.65049E-06-3.14527E-05-1.47593E-05-7.77447E-19-1.84600E-18
 -1      2098 9.14920E-05-1.33199E-05-3.33885E-05-2.26458E-05-4.61024E-19 1.56677E-18
 -1      2099 8.75614E-05-7.67433E-06-3.43979E-05-2.23799E-05-2.06451E-19 7.04870E-19
 -1      2100 8.60052E-05-1.17798E-05-3.17216E-05-2.61137E-05 7.14411E-19-3.44928E-19
 -1      2101 9.70684E-05-2.22432E-05-3.19953E-05-1.82191E-05 7.48771E-19 2.53173E-18
 -1      2102 9.44987E-05-1.73912E-05-3.30592E-05-2.07336E-05 2.94701E-19 2.21565E-18
 -1      2103 9.55252E-05-2.16208E-05-3.17317E-05-2.64685E-05 7.32028E-19 2.35288E-18
 -1      2104 9.90527E-05-2.74425E-05-3.06578E-05-1.08283E-05 8.68604E-19 1.48081E-18
 -1      2105 9.81408E-05-2.43300E-05-3.15229E-05-1.41590E-05 8.18366E-19 1.52430E-18
 -1      2106 1.00929E-04-2.81201E-05-3.12703E-05-1.94928E-05 9.59113E-19 2.17734E-18
 -1      2107 9.84384E-05-2.93360E-05-2.96073E-05-4.11781E-06-2.44210E-19-1.16449E-18
 -1      2108 9.87174E-05-2.79786E-05-3.01795E-05-6.92998E-06 6.73026E-19 4.09567E-19
 -1      2109 1.01746E-04-3.07132E-05-3.04911E-05-1.06170E-05 1.55794E-19 1.28438E-19
 -1      2110 7.09764E-05-4.70609E-05-1.06913E-05 5.01840E-05 1.50179E-18 2.79039E-18
 -1      2111 5.30369E-05-4.89381E-05-3.21718E-06 4.13201E-05 1.92615E-18 1.50751E-18
 -1      2112 1.55211E-05-3.63940E-05 7.63539E-06 6.71376E-06 4.13458E-19 8.30516E-19
 -1      2113 1.62763E-05-3.92976E-05 8.21733E-06-6.66484E-06-1.17081E-18-7.06849E-19
 -1      2114 3.44069E-05-4.17716E-05 1.99837E-06 3.45326E-05 1.45224E-18-5.48877E-19
 -1      2115 2.36581E-05-4.13762E-05 6.01695E-06 2.30424E-05 1.06324E-18 4.18434E-19
 -1      2116 1.15123E-04-4.89958E-05-2.80356E-05 5.03329E-05 1.29384E-18 4.09456E-18
 -1      2117 9.48930E-05-5.31277E-05-1.87791E-05 4.63199E-05 6.10287E-19 3.75087E-18
 -1      2118 1.51723E-04-4.63052E-05-4.45462E-05 3.99526E-05 2.31409E-18 1.83806E-18
 -1      2119 1.29824E-04-4.82797E-05-3.53634E-05 4.13969E-05 1.35483E-18 2.50425E-18
 -1      2120 1.35762E-04-6.12306E-05-3.16208E-05 3.91805E-05 1.60259E-18 2.63173E-18
 -1      2121 8.72644E-05-8.72879E-06-3.37489E-05-1.05264E-05 1.88961E-19-1.35707E-18
 -1      2122 8.79797E-05-9.26443E-06-3.38213E-05-1.21058E-05 1.05588E-19-1.36510E-18
 -1      2123 9.04746E-05-1.30306E-05-3.32188E-05-1.18155E-05 4.20605E-20-1.26240E-18
 -1      2124 8.86718E-05-1.10573E-05-3.32962E-05-9.39196E-06 2.49832E-19-1.28333E-18
 -1      2125 1.90459E-04-2.72581E-05-6.89341E-05 1.31270E-05 1.17695E-18 2.58133E-19
 -1      2126 1.84679E-04-2.94560E-05-6.54088E-05 2.19914E-05 1.42471E-18 1.03084E-18
 -1      2127 1.83864E-04-2.12755E-05-6.89943E-05 4.41783E-06 2.27005E-19-7.46448E-19
 -1      2128 1.86143E-04-2.18581E-05-6.93790E-05 9.35486E-06 9.10560E-20 3.21873E-20
 -1      2129 1.83690E-04-3.06424E-05-6.46028E-05-7.96957E-06 9.57571E-19-5.34901E-19
 -1      2130 1.88926E-04-2.74256E-05-6.82709E-05 8.93449E-07 6.44169E-19-6.39298E-19
 -1      2131 1.61846E-04-3.94584E-05-5.23270E-05-1.82854E-05 1.03777E-18-6.32310E-19
 -1      2132 1.78996E-04-3.79209E-05-5.93509E-05-1.38756E-05 1.35155E-18-3.51095E-19
 -1      2133 1.31492E-04-4.76150E-05-3.64249E-05-3.02675E-05-4.23516E-21-1.04185E-18
 -1      2134 1.52371E-04-4.63674E-05-4.48334E-05-2.83709E-05 7.41154E-19-7.91129E-19
 -1      2135 9.42248E-05-4.95731E-05-2.02220E-05-3.66298E-05-9.62653E-19-2.41574E-18
 -1      2136 1.15006E-04-4.74593E-05-2.88089E-05-4.00841E-05-7.93670E-19-2.46105E-18
 -1      2137 5.80917E-05-4.92055E-05-5.17052E-06-3.50464E-05-7.16166E-19-9.22128E-19
 -1      2138 7.49915E-05-4.61829E-05-1.27408E-05-4.08811E-05-3.26108E-19-2.15400E-18
 -1      2139 2.95802E-05-4.45977E-05 5.14482E-06-2.53404E-05-1.59412E-18-1.90582E-21
 -1      2140 4.15371E-05-4.33892E-05 1.44999E-07-3.39643E-05-1.57845E-18 5.37866E-20
 -1      2141 1.30705E-05-4.25951E-05 1.10587E-05-5.81942E-06-2.62464E-18-1.97952E-18
 -1      2142 1.68652E-05-4.15131E-05 9.24447E-06-1.50844E-05-1.66040E-18-7.14049E-19
 -1      2143 1.79449E-05-4.22135E-05 9.01536E-06 1.50584E-05-2.15189E-18-1.59412E-18
 -1      2144 1.35169E-05-4.17257E-05 1.06250E-05 6.01659E-06-2.21679E-18-1.35864E-18
 -1      2145 4.11169E-05-4.35678E-05 1.68459E-07 3.30048E-05-2.07311E-18-2.82930E-18
 -1      2146 2.78988E-05-4.63985E-05 6.05852E-06 2.26475E-05-2.04897E-18-2.33866E-18
 -1      2147 2.68291E-05-3.56419E-05 3.18456E-06 2.50882E-05-6.97955E-19-1.47426E-18
 -1      2148 8.11698E-05-4.82539E-05-1.44287E-05 4.09224E-05-3.07049E-18-2.19847E-18
 -1      2149 6.34758E-05-5.01381E-05-6.67213E-06 3.68089E-05-2.63173E-18-1.43083E-18
 -1      2150 1.23416E-04-5.03316E-05-3.11378E-05 3.69565E-05-3.21153E-18-1.71016E-18
 -1      2151 1.00923E-04-5.17095E-05-2.20108E-05 3.51465E-05-2.70034E-18-2.60844E-18
 -1      2152 1.61130E-04-4.50751E-05-4.88260E-05 2.43676E-05-2.73634E-18-1.64155E-18
 -1      2153 1.40341E-04-4.78645E-05-3.99921E-05 2.45339E-05-3.62996E-18-2.23701E-18
 -1      2154 1.81104E-04-3.60974E-05-6.12688E-05 8.03502E-06-2.84476E-18-1.25911E-18
 -1      2155 1.67749E-04-3.87493E-05-5.49702E-05 1.58993E-05-3.32590E-18-1.55727E-18
 -1      2156 1.61453E-04-4.57178E-05-4.88047E-05 1.90420E-06-3.48866E-18-1.17229E-18
 -1      2157 1.94226E-04-2.77242E-05-6.98717E-05-3.34301E-06-1.12825E-18-9.16913E-19
 -1      2158 1.83090E-04-2.69736E-05-6.62641E-05 1.90717E-06-1.67882E-18-1.51068E-18
 -1      2159 1.91850E-04-2.43651E-05-7.06353E-05-1.26958E-05-2.06761E-18 7.38401E-19
 -1      2160 1.95791E-04-2.61882E-05-7.13391E-05-5.32697E-06-1.69915E-18 2.11335E-19
 -1      2161 1.69261E-04-1.40856E-05-6.52035E-05-8.20666E-06-2.12478E-18-1.94818E-20
 -1      2162 1.80849E-04-3.06574E-05-6.35720E-05-2.23231E-05-2.48096E-18 1.82324E-18
 -1      2163 1.90430E-04-2.88146E-05-6.79353E-05-1.54883E-05-1.82281E-18 1.20109E-18
 -1      2164 1.58513E-04-4.08395E-05-5.03622E-05-2.96036E-05-8.60109E-19 3.74219E-18
 -1      2165 1.77394E-04-3.79178E-05-5.83809E-05-2.89625E-05-1.36849E-18 3.09760E-18
 -1      2166 1.26111E-04-5.10362E-05-3.26891E-05-4.14831E-05-6.14946E-19 3.75913E-18
 -1      2167 1.47656E-04-4.83020E-05-4.19658E-05-4.11724E-05-7.84353E-19 3.24456E-18
 -1      2168 8.72974E-05-5.27158E-05-1.58796E-05-4.62431E-05-1.06303E-19 2.49917E-18
 -1      2169 1.07441E-04-4.96412E-05-2.47255E-05-5.09195E-05-8.75409E-19 4.27455E-18
 -1      2170 4.59375E-05-4.91678E-05-5.15509E-07-3.72218E-05-1.18585E-20 1.74298E-18
 -1      2171 6.26382E-05-4.60270E-05-7.87715E-06-4.73706E-05 1.24514E-19 2.44263E-18
 -1      2172 2.10582E-05-4.30054E-05 7.57958E-06-1.80225E-05-9.89758E-19 2.28699E-19
 -1      2173 2.87291E-05-4.16324E-05 4.07502E-06-2.90532E-05-1.15874E-18 8.74562E-19
 -1      2174 2.16688E-05-2.82078E-05 2.02493E-06-1.52524E-05-1.49152E-18 7.26331E-19
 -1      2175 1.80483E-04-3.61072E-05-6.03981E-05 2.68365E-05 2.17137E-18 1.19178E-18
 -1      2176 1.62591E-04-3.83729E-05-5.29877E-05 2.77196E-05 2.68335E-18 1.12317E-18
 -1      2177 9.71961E-05-2.43162E-05-3.13070E-05-1.00020E-05-3.78994E-19-1.02655E-18
 -1      2178 1.59913E-04-4.99863E-05-4.64914E-05 2.09955E-05 2.66725E-18 1.42767E-18
 -1      2179 1.69757E-04-3.00552E-05-5.87228E-05 7.19196E-06 2.19614E-18 1.20406E-18
 -1      2180 9.63534E-05-2.31101E-05-3.14566E-05-1.03818E-05-3.56614E-19-1.10383E-18
 -1      2181 5.25726E-05-4.18592E-05-5.03584E-06 4.56706E-05 1.08166E-18 1.08844E-18
 -1      2182 2.40010E-05-2.90056E-05 1.51762E-06 1.80055E-05-1.65277E-19 3.50248E-19
 -1      2183 9.84579E-05-2.97477E-05-2.94182E-05-2.72567E-06-1.97695E-19-1.41218E-18
 -1      2184 9.68613E-05-5.68955E-05-1.72331E-05 5.13336E-05 1.71185E-18 3.57998E-18
 -1      2185 4.37174E-05-4.02105E-05-2.22353E-06-4.04168E-05-1.77369E-18 1.03147E-18
 -1      2186 8.71055E-05-5.46649E-05-1.41515E-05-5.14121E-05 6.31040E-20 2.97466E-18
 -1      2187 1.30404E-04-6.15942E-05-2.92103E-05-4.20805E-05-7.11508E-20 3.40740E-18
 -1      2188 1.58108E-04-5.31505E-05-4.43869E-05-2.24235E-05 3.49401E-20 2.41658E-18
 -1      2189 1.71317E-04-1.81397E-05-6.44580E-05-5.53424E-06-1.57040E-18 6.28075E-19
 -1      2190 1.68443E-04-2.72938E-05-5.95583E-05-7.27912E-06-2.49451E-18-2.95614E-19
 -1      2191 1.41331E-04-5.88611E-05-3.50097E-05 2.12134E-05-2.94831E-18-1.76479E-18
 -1      2192 5.86735E-05-4.80326E-05-5.00026E-06 3.78737E-05-1.48485E-18-1.68380E-18
 -1      2193 5.36715E-05-4.21630E-05-4.50224E-06 3.94542E-05-9.61382E-20-1.06366E-18
 -1      2194 7.57813E-05-5.20311E-05-1.07369E-05 4.26429E-05-9.21572E-19 2.03394E-19
 -1      2195 1.45049E-05-3.16992E-05 6.57057E-06 5.25915E-07-1.41648E-18-1.54329E-18
 -1      2196 2.74239E-05-3.56168E-05 2.99432E-06-2.64763E-05-1.85776E-18-4.67139E-19
 -1      2197 5.96903E-05-4.78892E-05-5.58856E-06-4.03924E-05-1.55685E-18-1.12433E-18
 -1      2198 9.85845E-05-5.72779E-05-1.78876E-05-3.96878E-05-9.12254E-19-1.88370E-18
 -1      2199 1.34737E-04-5.89463E-05-3.21410E-05-2.65816E-05-6.05840E-19-6.69580E-19
 -1      2200 1.58207E-04-4.89812E-05-4.61586E-05-7.53684E-06 3.01967E-19-2.32934E-20
 -1      2201 1.68759E-04-3.08755E-05-5.80541E-05 3.94162E-06 1.34170E-18-5.64971E-19
 -1      2202 1.67238E-04-1.53693E-05-6.40597E-05 5.38245E-06 1.38956E-18 3.99588E-19
 -1      2203 1.66697E-04-1.55778E-05-6.39434E-05 6.87300E-06 9.11831E-19-5.85300E-19
 -1      2204 1.04621E-04-5.92377E-05-1.94857E-05 3.74378E-05-1.63689E-18-1.38935E-18
 -1      2205 1.68499E-04-3.34162E-05-5.68559E-05-7.74869E-06-1.46283E-18 5.70053E-19
 -1      2206 9.52199E-05-2.63782E-05-2.94904E-05 4.19415E-06 4.53096E-19 1.36939E-18
 -1      2207 9.61944E-05-2.58636E-05-3.00682E-05 5.99938E-06 4.08495E-19 1.42289E-18
 -1      2208 8.81307E-05-1.11812E-05-3.30177E-05-3.66079E-06 5.42428E-19-8.75700E-19
 -1      2209 8.83649E-05-1.14515E-05-3.30001E-05-4.80190E-06 5.00658E-19-9.83624E-19
 -1      2210 8.87168E-05-1.19344E-05-3.29520E-05-5.81996E-06 4.20475E-19-1.04012E-18
 -1      2211 8.91224E-05-1.24051E-05-3.29244E-05-6.99126E-06 3.52612E-19-1.10325E-18
 -1      2212 8.98850E-05-1.38205E-05-3.25984E-05-4.90323E-06 4.48683E-19-9.92653E-19
 -1      2213 8.77846E-05-1.07227E-05-3.30606E-05 6.15538E-07 7.82631E-19-6.04199E-19
 -1      2214 8.77802E-05-1.07178E-05-3.30608E-05-4.95418E-07 6.94653E-19-6.41508E-19
 -1      2215 8.79660E-05-1.09477E-05-3.30422E-05 2.75752E-06 8.97811E-19-4.32265E-19
 -1      2216 8.78509E-05-1.08147E-05-3.30514E-05 1.63816E-06 8.27401E-19-4.89109E-19
 -1      2217 8.91023E-05-1.27690E-05-3.27174E-05 1.04960E-06 7.27244E-19-5.41095E-19
 -1      2218 8.84008E-05-1.14949E-05-3.29972E-05 4.88676E-06 9.21622E-19-3.22706E-19
 -1      2219 8.81610E-05-1.12182E-05-3.30152E-05 3.76361E-06 9.07556E-19-4.58112E-19
 -1      2220 8.93685E-05-1.31250E-05-3.26776E-05 3.02072E-06 8.73363E-19-4.04273E-19
 -1      2221 8.91811E-05-1.24776E-05-3.29187E-05 7.07404E-06 1.05357E-18 4.69905E-20
 -1      2222 8.87627E-05-1.19911E-05-3.29476E-05 5.90242E-06 9.73499E-19-1.42235E-19
 -1      2223 8.99264E-05-1.38730E-05-3.25933E-05 4.97484E-06 8.97465E-19-2.05409E-19
 -1      2224 9.04520E-05-1.40867E-05-3.27922E-05 9.22225E-06 1.01616E-18 3.10980E-19
 -1      2225 8.97708E-05-1.32757E-05-3.28373E-05 8.04358E-06 9.83031E-19 1.71173E-19
 -1      2226 9.08627E-05-1.51327E-05-3.24488E-05 6.87050E-06 1.00026E-18 6.83781E-20
 -1      2227 9.24515E-05-1.66591E-05-3.25829E-05 1.11061E-05 9.26059E-19 7.85901E-19
 -1      2228 9.13719E-05-1.53189E-05-3.26546E-05 1.00261E-05 9.55111E-19 5.06539E-19
 -1      2229 9.22874E-05-1.70868E-05-3.22081E-05 8.51539E-06 8.99839E-19 4.11804E-19
 -1      2230 9.42396E-05-2.71181E-05-2.87496E-05 1.76401E-06 5.13385E-19 1.20576E-18
 -1      2231 9.48400E-05-2.68947E-05-2.90481E-05 2.73698E-06 4.80771E-19 1.31398E-18
 -1      2232 9.53423E-05-2.58483E-05-2.97910E-05 4.36041E-06 4.98704E-19 8.48257E-19
 -1      2233 9.59161E-05-2.50965E-05-3.03046E-05-6.19110E-06-1.70270E-19-9.64148E-19
 -1      2234 9.52552E-05-2.58501E-05-2.97610E-05-4.27660E-06-1.58491E-19-9.19510E-19
 -1      2235 1.58558E-04-4.76637E-05-4.80144E-05 8.67080E-06 1.81763E-18 1.12465E-18
 -1      2236 1.51713E-04-5.69481E-05-4.07188E-05 1.78849E-05 1.62810E-18 6.94567E-19
 -1      2237 9.51423E-05-2.65382E-05-2.93445E-05-2.93893E-06-1.93800E-19-7.75629E-19
 -1      2238 9.46710E-05-2.69082E-05-2.90414E-05-1.87649E-06-1.97248E-19-7.06203E-19
 -1      2239 9.53382E-05-2.53662E-05-2.99959E-05-4.28780E-06-1.34983E-19-8.64750E-19
 -1      2240 9.44757E-05-2.72384E-05-2.87777E-05-1.02545E-06-2.18171E-19-5.68125E-19
 -1      2241 9.42176E-05-2.74521E-05-2.86114E-05-4.23969E-07-8.43418E-20-6.68988E-19
 -1      2242 9.50337E-05-2.66989E-05-2.92997E-05-1.91841E-06-8.81030E-20-7.27314E-19
 -1      2243 9.40687E-05-2.76328E-05-2.84500E-05 8.34005E-08 4.50026E-20-8.28045E-19
 -1      2244 9.39703E-05-2.77764E-05-2.83663E-05 4.12797E-07 2.12541E-19-8.63860E-19
 -1      2245 9.47293E-05-2.74281E-05-2.88563E-05-4.40348E-07-1.04060E-19-6.89836E-19
 -1      2246 9.38854E-05-2.78860E-05-2.82728E-05 6.94921E-07 1.89658E-19-1.03755E-18
 -1      2247 9.38908E-05-2.79930E-05-2.82397E-05 8.58510E-07 4.46665E-20-1.03585E-18
 -1      2248 9.45278E-05-2.78566E-05-2.85837E-05 4.29077E-07-4.31218E-20-1.14275E-18
 -1      2249 9.38589E-05-2.80651E-05-2.81908E-05 9.95119E-07-7.03107E-20-1.02694E-18
 -1      2250 9.39256E-05-2.81489E-05-2.81883E-05 1.05671E-06-3.38603E-20-9.56137E-19
 -1      2251 9.44344E-05-2.81260E-05-2.84254E-05 8.98752E-07 3.99985E-20-1.05644E-18
 -1      2252 9.39307E-05-2.81986E-05-2.81681E-05 1.10107E-06-3.51249E-20-1.02117E-18
 -1      2253 9.40290E-05-2.82652E-05-2.81832E-05 1.10085E-06-1.48511E-19-1.06754E-18
 -1      2254 9.44238E-05-2.83028E-05-2.83426E-05 1.11030E-06-7.73080E-20-1.14851E-18
 -1      2255 9.40568E-05-2.82999E-05-2.81810E-05 1.08881E-06-4.90339E-19-8.83519E-19
 -1      2256 9.41671E-05-2.83527E-05-2.82052E-05 1.05294E-06-5.63444E-19-9.22399E-19
 -1      2257 9.44676E-05-2.84209E-05-2.83089E-05 1.15934E-06-1.93015E-19-9.94320E-19
 -1      2258 9.42070E-05-2.83768E-05-2.82138E-05 1.00877E-06-3.27402E-19-5.88306E-19
 -1      2259 9.43170E-05-2.84178E-05-2.82418E-05 9.54553E-07-8.39375E-20-6.25806E-19
 -1      2260 9.45423E-05-2.84992E-05-2.83061E-05 1.11071E-06-2.91228E-19-3.28271E-19
 -1      2261 9.43616E-05-2.84340E-05-2.82563E-05 8.94681E-07 1.37799E-19-6.72851E-19
 -1      2262 9.44644E-05-2.84653E-05-2.82848E-05 8.33611E-07 1.86352E-19-2.87086E-19
 -1      2263 9.46311E-05-2.85492E-05-2.83218E-05 1.00847E-06 3.63034E-20-3.66373E-19
 -1      2264 9.45092E-05-2.84755E-05-2.83021E-05 7.69080E-07 4.22454E-20-8.76287E-20
 -1      2265 9.46014E-05-2.84986E-05-2.83293E-05 7.08744E-07 1.40848E-19 2.08792E-19
 -1      2266 9.47229E-05-2.85790E-05-2.83478E-05 8.82482E-07 3.42392E-19-4.22617E-20
 -1      2267 9.46439E-05-2.85043E-05-2.83475E-05 6.46920E-07-1.35104E-19 6.23901E-20
 -1      2268 9.47244E-05-2.85207E-05-2.83726E-05 5.92319E-07-3.56532E-19-5.79953E-20
 -1      2269 9.48112E-05-2.85938E-05-2.83790E-05 7.52837E-07 2.81340E-21 9.47056E-20
 -1      2270 9.47636E-05-2.85228E-05-2.83908E-05 5.38131E-07-6.78414E-19-2.30717E-19
 -1      2271 9.48335E-05-2.85338E-05-2.84136E-05 4.92609E-07-8.31434E-19-4.03180E-19
 -1      2272 9.48929E-05-2.85976E-05-2.84123E-05 6.33019E-07-5.63223E-19-1.15657E-19
 -1      2273 9.48694E-05-2.85332E-05-2.84315E-05 4.49462E-07-8.64932E-19-1.39641E-20
 -1      2274 9.49306E-05-2.85400E-05-2.84524E-05 4.15405E-07-6.41864E-19-8.11153E-21
 -1      2275 9.49673E-05-2.85930E-05-2.84461E-05 5.32210E-07-6.72314E-19 1.04677E-20
 -1      2276 9.49642E-05-2.85372E-05-2.84701E-05 3.85874E-07-6.15145E-19-4.98855E-19
 -1      2277 9.50197E-05-2.85407E-05-2.84900E-05 3.65235E-07-4.54751E-19-7.49233E-19
 -1      2278 9.50357E-05-2.85821E-05-2.84801E-05 4.57014E-07-8.90498E-19-1.89277E-19
 -1      2279 9.50525E-05-2.85361E-05-2.85082E-05 3.51591E-07-1.09337E-19-1.04241E-18
 -1      2280 9.51061E-05-2.85374E-05-2.85281E-05 3.46297E-07 2.69374E-19-1.03182E-18
 -1      2281 9.51004E-05-2.85658E-05-2.85150E-05 4.12766E-07-4.22327E-19-1.01600E-18
 -1      2282 9.51401E-05-2.85313E-05-2.85475E-05 3.50918E-07 4.67896E-19-1.32623E-18
 -1      2283 9.51963E-05-2.85313E-05-2.85689E-05 3.63176E-07 4.83891E-19-1.19531E-18
 -1      2284 9.51652E-05-2.85448E-05-2.85520E-05 4.04533E-07 5.32938E-20-1.33054E-18
 -1      2285 9.52340E-05-2.85238E-05-2.85908E-05 3.88852E-07 4.91461E-19-1.25830E-18
 -1      2286 9.52982E-05-2.85234E-05-2.86153E-05 4.21391E-07 4.47210E-19-1.20974E-18
 -1      2287 9.52345E-05-2.85193E-05-2.85929E-05 4.37878E-07 3.48033E-19-1.08239E-18
 -1      2288 9.53425E-05-2.85147E-05-2.86410E-05 4.71547E-07 6.45591E-19-1.60414E-18
 -1      2289 9.54207E-05-2.85151E-05-2.86706E-05 5.27772E-07 4.51589E-19-1.64520E-18
 -1      2290 9.53138E-05-2.84894E-05-2.86400E-05 5.19418E-07 3.37134E-19-1.02064E-18
 -1      2291 9.54752E-05-2.85054E-05-2.87017E-05 6.06599E-07 3.00325E-19-1.26435E-18
 -1      2292 9.55747E-05-2.85080E-05-2.87386E-05 6.90672E-07 4.61462E-19-3.91771E-19
 -1      2293 9.54095E-05-2.84550E-05-2.86962E-05 6.57196E-07 6.50099E-19-1.24195E-18
 -1      2294 9.56433E-05-2.84978E-05-2.87768E-05 8.03156E-07 2.69120E-19-1.42691E-19
 -1      2295 9.57722E-05-2.85043E-05-2.88236E-05 9.19956E-07 4.03344E-19 1.06783E-19
 -1      2296 9.55290E-05-2.84163E-05-2.87644E-05 8.60840E-07 6.87037E-19-1.79479E-19
 -1      2297 9.58594E-05-2.84941E-05-2.88709E-05 1.07176E-06 3.05971E-19-4.88329E-20
 -1      2298 9.60272E-05-2.85070E-05-2.89303E-05 1.22668E-06 5.75159E-19-1.51708E-19
 -1      2299 9.56808E-05-2.83741E-05-2.88479E-05 1.14145E-06 2.41462E-19-2.38749E-19
 -1      2300 9.61381E-05-2.84982E-05-2.89885E-05 1.42380E-06 5.28497E-19-8.19176E-19
 -1      2301 9.63556E-05-2.85208E-05-2.90636E-05 1.62230E-06 2.95740E-19-1.00112E-18
 -1      2302 9.58745E-05-2.83301E-05-2.89502E-05 1.51112E-06 1.35453E-19-2.83893E-19
 -1      2303 9.64959E-05-2.85155E-05-2.91344E-05 1.87042E-06 1.65878E-19-1.19350E-18
 -1      2304 9.67749E-05-2.85526E-05-2.92280E-05 2.11710E-06-3.16842E-19-7.86124E-19
 -1      2305 9.61211E-05-2.82881E-05-2.90743E-05 1.98185E-06 5.68989E-20-9.19695E-19
 -1      2306 9.69511E-05-2.85547E-05-2.93127E-05 2.42044E-06-4.30485E-20-9.06804E-19
 -1      2307 9.73042E-05-2.86130E-05-2.94274E-05 2.71752E-06 4.92238E-19-4.75114E-19
 -1      2308 9.64330E-05-2.82553E-05-2.92224E-05 2.56368E-06-2.06446E-19-1.25382E-18
 -1      2309 9.75242E-05-2.86292E-05-2.95263E-05 3.07687E-06 2.79600E-19-8.68720E-19
 -1      2310 9.79642E-05-2.87189E-05-2.96638E-05 3.42162E-06 1.35527E-19-1.09406E-18
 -1      2311 9.68252E-05-2.82445E-05-2.93955E-05 3.26148E-06 1.03806E-19-8.54072E-19
 -1      2312 9.82385E-05-2.87607E-05-2.97759E-05 3.83130E-06 7.88717E-20-8.16595E-19
 -1      2313 9.87779E-05-2.88967E-05-2.99359E-05 4.21192E-06-3.40449E-19-7.32838E-19
 -1      2314 9.73164E-05-2.82783E-05-2.95919E-05 4.06984E-06 1.30028E-19-3.92703E-19
 -1      2315 9.91211E-05-2.89834E-05-3.00581E-05 4.65504E-06-3.47481E-19-4.52511E-19
 -1      2316 9.97710E-05-2.91881E-05-3.02378E-05 5.04441E-06-2.93282E-19 3.94467E-21
 -1      2317 9.79323E-05-2.83948E-05-2.98064E-05 4.96531E-06-3.32537E-19-1.57612E-19
 -1      2318 1.00206E-04-2.93512E-05-3.03641E-05 5.48580E-06-2.51791E-19 7.56473E-20
 -1      2319 1.00975E-04-2.96571E-05-3.05565E-05 5.83271E-06-1.74350E-19 2.21958E-19
 -1      2320 9.87113E-05-2.86565E-05-3.00292E-05 5.89479E-06 2.25818E-20 1.11154E-18
 -1      2321 1.01540E-04-2.99452E-05-3.06781E-05 6.20897E-06-3.76512E-19 2.92767E-19
 -1      2322 1.02430E-04-3.03968E-05-3.08708E-05 6.42683E-06 3.80209E-20 1.14078E-18
 -1      2323 9.97141E-05-2.91612E-05-3.02449E-05 6.75910E-06 3.27177E-20 1.30967E-18
 -1      2324 1.03183E-04-3.08788E-05-3.09770E-05 6.63319E-06 1.87944E-19 3.52855E-19
 -1      2325 1.04189E-04-3.15291E-05-3.11521E-05 6.58894E-06-3.57345E-19 7.44337E-19
 -1      2326 1.01036E-04-3.00514E-05-3.04342E-05 7.39081E-06-4.93419E-19 1.39711E-18
 -1      2327 1.05210E-04-3.22882E-05-3.12338E-05 6.46449E-06-7.17731E-19 7.98434E-19
 -1      2328 1.06304E-04-3.31798E-05-3.13707E-05 5.97448E-06-8.58741E-19 9.22297E-19
 -1      2329 1.02816E-04-3.15105E-05-3.05791E-05 7.52742E-06-6.45248E-19 7.87892E-19
 -1      2330 1.07682E-04-3.42827E-05-3.14281E-05 5.29316E-06-9.93973E-19 1.02407E-18
 -1      2331 1.08786E-04-3.53977E-05-3.15101E-05 4.14314E-06-9.06077E-19 4.16287E-19
 -1      2332 1.05227E-04-3.37192E-05-3.06762E-05 6.78617E-06-8.59409E-19 1.16205E-18
 -1      2333 1.10559E-04-3.68160E-05-3.15668E-05 2.63010E-06-7.21058E-19 1.38039E-18
 -1      2334 1.11498E-04-3.79773E-05-3.15940E-05 6.46249E-07-2.00863E-19 1.41161E-18
 -1      2335 1.08405E-04-3.67251E-05-3.07598E-05 4.66421E-06-4.44540E-19 2.36143E-18
 -1      2336 1.13513E-04-3.94405E-05-3.17115E-05-1.92917E-06 2.37351E-19 1.11429E-18
 -1      2337 1.13953E-04-4.01796E-05-3.17139E-05-4.71974E-06 4.14411E-19 1.37749E-18
 -1      2338 1.12256E-04-4.01678E-05-3.09356E-05 6.21912E-07-7.91066E-20 3.22366E-18
 -1      2339 1.15676E-04-4.10090E-05-3.19926E-05-8.27544E-06-1.80193E-19 1.03134E-18
 -1      2340 1.15146E-04-4.05557E-05-3.20362E-05-1.13728E-05-1.05081E-18 1.14494E-18
 -1      2341 1.16113E-04-4.28842E-05-3.13974E-05-5.59667E-06 2.52201E-19 5.15011E-19
 -1      2342 1.15639E-04-3.97556E-05-3.25883E-05-1.50747E-05-1.00691E-18 1.22890E-18
 -1      2343 1.13808E-04-3.74140E-05-3.27375E-05-1.73182E-05-5.15457E-19 9.14316E-19
 -1      2344 1.18464E-04-4.27668E-05-3.23976E-05-1.32568E-05-1.28039E-18 9.46617E-19
 -1      2345 1.12303E-04-3.44019E-05-3.35474E-05-1.92581E-05-3.89040E-19 1.21307E-18
 -1      2346 1.09492E-04-3.05506E-05-3.37686E-05-1.91013E-05-8.34857E-19 1.62537E-18
 -1      2347 1.17470E-04-3.78636E-05-3.40789E-05-1.96370E-05-6.18215E-19 1.75207E-18
 -1      2348 1.06665E-04-2.64966E-05-3.45472E-05-1.72730E-05-1.43876E-18 1.71093E-18
 -1      2349 1.04139E-04-2.31614E-05-3.46635E-05-1.40257E-05-1.04357E-18 1.83183E-18
 -1      2350 1.12868E-04-2.88070E-05-3.60658E-05-2.03192E-05-5.93267E-19 2.36015E-18
 -1      2351 1.02413E-04-2.11235E-05-3.49484E-05-8.64715E-06-7.33160E-19 1.88720E-18
 -1      2352 1.01386E-04-2.05798E-05-3.47911E-05-4.02125E-06 3.46834E-19 1.14136E-18
 -1      2353 1.08036E-04-2.09109E-05-3.74470E-05-1.27037E-05-1.13746E-18 2.84557E-18
 -1      2354 1.02334E-04-2.20238E-05-3.43477E-05 2.04189E-06 1.38204E-18 4.60151E-19
 -1      2355 1.03382E-04-2.47617E-05-3.38720E-05 5.57861E-06 2.16061E-18 2.88984E-19
 -1      2356 1.06554E-04-1.93064E-05-3.74676E-05-6.52562E-07 1.39760E-19 1.26208E-18
 -1      2357 1.05218E-04-2.82361E-05-3.29284E-05 7.74409E-06 8.64662E-19-5.23946E-19
 -1      2358 1.06566E-04-3.13569E-05-3.23951E-05 8.56758E-06 6.98154E-19-4.12608E-19
 -1      2359 1.10152E-04-2.73559E-05-3.55913E-05 7.36093E-06 6.11763E-19-3.38376E-19
 -1      2360 1.07284E-04-3.38871E-05-3.14474E-05 7.44897E-06 6.76945E-19-2.68859E-19
 -1      2361 1.07798E-04-3.55206E-05-3.10375E-05 6.07622E-06-8.71509E-20-3.96695E-19
 -1      2362 1.12726E-04-3.44525E-05-3.35063E-05 8.24845E-06 1.08460E-19-9.41418E-19
 -1      2363 1.06340E-04-3.56138E-05-3.03742E-05 3.40398E-06-1.11984E-20-8.12851E-19
 -1      2364 1.05596E-04-3.52694E-05-3.01355E-05 1.58357E-06 3.50729E-19-6.49289E-19
 -1      2365 1.12049E-04-3.81421E-05-3.16481E-05 3.67505E-06-8.10174E-20-4.70796E-19
 -1      2366 9.33454E-05-2.76932E-05-2.81294E-05-4.11561E-07 7.56953E-20 7.89505E-19
 -1      2367 9.34233E-05-2.75880E-05-2.81907E-05-1.26005E-07 3.09199E-19 1.03816E-18
 -1      2368 9.32942E-05-2.78579E-05-2.80394E-05-8.17778E-07 1.40799E-19 5.76866E-19
 -1      2369 9.32490E-05-2.77667E-05-2.80508E-05-6.78611E-07-3.25423E-20 5.70406E-19
 -1      2370 9.40149E-05-2.78096E-05-2.83850E-05-4.44807E-07 2.24922E-19 2.73616E-19
 -1      2371 9.33878E-05-2.79938E-05-2.80230E-05-9.93273E-07 6.39079E-19 5.91286E-19
 -1      2372 9.32750E-05-2.79129E-05-2.80059E-05-9.42560E-07 3.89093E-19 6.10509E-19
 -1      2373 9.39280E-05-2.80192E-05-2.82547E-05-8.92115E-07 3.27601E-19 9.93953E-20
 -1      2374 9.35618E-05-2.81089E-05-2.80493E-05-1.02758E-06 2.76419E-19 8.66502E-19
 -1      2375 9.34175E-05-2.80380E-05-2.80173E-05-1.02991E-06 5.63668E-19 8.33639E-19
 -1      2376 9.39563E-05-2.81686E-05-2.82001E-05-1.08803E-06 4.27763E-19 5.11116E-19
 -1      2377 9.37717E-05-2.82059E-05-2.80985E-05-9.78534E-07-3.00075E-19 1.14462E-18
 -1      2378 9.36189E-05-2.81451E-05-2.80600E-05-1.01125E-06 2.57102E-20 9.51482E-19
 -1      2379 9.40540E-05-2.82795E-05-2.81924E-05-1.12832E-06 6.72825E-20 7.39690E-19
 -1      2380 9.39892E-05-2.82862E-05-2.81578E-05-8.84211E-07 2.67153E-19 8.87941E-19
 -1      2381 9.38416E-05-2.82354E-05-2.81181E-05-9.32488E-07-5.05072E-20 9.64046E-19
 -1      2382 9.41872E-05-2.83628E-05-2.82124E-05-1.07618E-06-4.98873E-21 4.80405E-19
 -1      2383 9.41968E-05-2.83513E-05-2.82192E-05-7.69873E-07 3.90559E-19 8.28982E-19
 -1      2384 9.40620E-05-2.83098E-05-2.81813E-05-8.23937E-07 3.71006E-19 8.60745E-19
 -1      2385 9.43330E-05-2.84248E-05-2.82473E-05-9.73767E-07 3.89480E-19 2.26257E-19
 -1      2386 9.43855E-05-2.84027E-05-2.82783E-05-6.52218E-07 6.34101E-19 4.03539E-19
 -1      2387 9.42669E-05-2.83697E-05-2.82438E-05-7.05651E-07 5.67250E-19 7.21565E-19
 -1      2388 9.44771E-05-2.84699E-05-2.82891E-05-8.49293E-07 5.34116E-19 1.99295E-19
 -1      2389 9.45518E-05-2.84422E-05-2.83326E-05-5.42202E-07 4.18233E-19 1.14008E-19
 -1      2390 9.44499E-05-2.84166E-05-2.83021E-05-5.90816E-07 5.98753E-19 3.67472E-19
 -1      2391 9.46114E-05-2.85016E-05-2.83327E-05-7.21554E-07 7.09604E-19 2.75569E-19
 -1      2392 9.46960E-05-2.84719E-05-2.83816E-05-4.47038E-07 5.77865E-19-2.07915E-19
 -1      2393 9.46095E-05-2.84524E-05-2.83550E-05-4.88069E-07 3.76569E-19-5.42781E-20
 -1      2394 9.47324E-05-2.85225E-05-2.83755E-05-6.03014E-07 4.86722E-19-9.88467E-19
 -1      2395 9.48214E-05-2.84936E-05-2.84259E-05-3.71649E-07 4.43669E-19-3.57202E-19
 -1      2396 9.47475E-05-2.84791E-05-2.84024E-05-4.03169E-07 3.51295E-19-3.99920E-20
 -1      2397 9.48398E-05-2.85349E-05-2.84162E-05-5.02023E-07 2.62319E-19-6.60548E-19
 -1      2398 9.49331E-05-2.85092E-05-2.84668E-05-3.19765E-07 6.81078E-19-3.83870E-20
 -1      2399 9.48680E-05-2.84983E-05-2.84455E-05-3.40233E-07 6.94499E-19-1.39283E-19
 -1      2400 9.49357E-05-2.85405E-05-2.84550E-05-4.24451E-07 3.57169E-19-5.00847E-19
 -1      2401 9.50379E-05-2.85207E-05-2.85064E-05-2.94754E-07 4.44419E-19 5.89081E-19
 -1      2402 9.49771E-05-2.85122E-05-2.84860E-05-3.02674E-07 6.32623E-19 6.37684E-19
 -1      2403 9.50237E-05-2.85408E-05-2.84928E-05-3.74907E-07 3.32235E-19 1.34520E-19
 -1      2404 9.51440E-05-2.85300E-05-2.85474E-05-3.00262E-07 3.34347E-19 8.47827E-19
 -1      2405 9.50822E-05-2.85226E-05-2.85262E-05-2.93916E-07 3.78833E-19 9.84520E-19
 -1      2406 9.51090E-05-2.85371E-05-2.85311E-05-3.57677E-07 3.50328E-20 1.27751E-18
 -1      2407 9.52610E-05-2.85392E-05-2.85929E-05-3.40692E-07-3.74202E-19 1.09753E-18
 -1      2408 9.51921E-05-2.85315E-05-2.85691E-05-3.17946E-07 3.19159E-20 1.16993E-18
 -1      2409 9.51978E-05-2.85306E-05-2.85723E-05-3.77433E-07-9.55881E-20 1.63073E-18
 -1      2410 9.54002E-05-2.85510E-05-2.86467E-05-4.21524E-07-2.97098E-19 4.82831E-19
 -1      2411 9.53170E-05-2.85411E-05-2.86182E-05-3.79696E-07-3.56928E-19 6.74504E-19
 -1      2412 9.52978E-05-2.85225E-05-2.86190E-05-4.39745E-07-9.52846E-20 1.47146E-18
 -1      2413 9.55747E-05-2.85680E-05-2.87132E-05-5.49484E-07-1.91707E-19 9.07806E-19
 -1      2414 9.54689E-05-2.85540E-05-2.86774E-05-4.85290E-07-4.80038E-19 5.70407E-19
 -1      2415 9.54177E-05-2.85139E-05-2.86745E-05-5.51407E-07-3.94622E-19 7.36091E-19
 -1      2416 9.57995E-05-2.85941E-05-2.87972E-05-7.32497E-07 3.47284E-19 1.42778E-18
 -1      2417 9.56617E-05-2.85734E-05-2.87513E-05-6.42094E-07 4.44747E-19 1.29949E-18
 -1      2418 9.55678E-05-2.85067E-05-2.87424E-05-7.20554E-07-1.03233E-19 4.99668E-19
 -1      2419 9.60920E-05-2.86337E-05-2.89042E-05-9.79344E-07-1.01034E-18 1.80050E-18
 -1      2420 9.59111E-05-2.86033E-05-2.88450E-05-8.58531E-07-2.30826E-19 1.51849E-18
 -1      2421 9.57597E-05-2.85032E-05-2.88267E-05-9.56511E-07-1.25033E-19 1.29174E-18
 -1      2422 9.64716E-05-2.86931E-05-2.90400E-05-1.29887E-06-1.49210E-18 1.37201E-18
 -1      2423 9.62354E-05-2.86489E-05-2.89640E-05-1.14352E-06-1.51275E-18 1.69898E-18
 -1      2424 9.60068E-05-2.85071E-05-2.89315E-05-1.26925E-06-1.02519E-18 1.16901E-18
 -1      2425 9.69598E-05-2.87800E-05-2.92104E-05-1.69848E-06-2.48799E-19 4.86290E-19
 -1      2426 9.66548E-05-2.87170E-05-2.91142E-05-1.50535E-06-7.18695E-19 7.66238E-19
 -1      2427 9.63244E-05-2.85236E-05-2.90611E-05-1.66828E-06-7.10749E-19 5.99174E-19
 -1      2428 9.75792E-05-2.89053E-05-2.94207E-05-2.18159E-06 7.40729E-19 9.33785E-19
 -1      2429 9.71913E-05-2.88170E-05-2.93009E-05-1.94972E-06 2.57733E-19 6.96704E-19
 -1      2430 9.67292E-05-2.85610E-05-2.92192E-05-2.16068E-06 3.30670E-19 9.48734E-19
 -1      2431 9.83527E-05-2.90836E-05-2.96748E-05-2.74346E-06-8.62536E-19 1.01341E-18
 -1      2432 9.78686E-05-2.89614E-05-2.95289E-05-2.47640E-06-1.34328E-19 4.74455E-19
 -1      2433 9.72401E-05-2.86319E-05-2.94084E-05-2.74781E-06 3.46134E-19 8.11147E-19
 -1      2434 9.93015E-05-2.93353E-05-2.99735E-05-3.36462E-06-4.68280E-19 9.60138E-19
 -1      2435 9.87102E-05-2.91680E-05-2.98008E-05-3.07400E-06-7.41374E-19 1.16611E-18
 -1      2436 9.78777E-05-2.87555E-05-2.96291E-05-3.42022E-06-9.12670E-19-1.89631E-19
 -1      2437 1.00443E-04-2.96886E-05-3.03130E-05-4.00123E-06-1.24666E-19 1.89646E-18
 -1      2438 9.97387E-05-2.94617E-05-3.01153E-05-3.71194E-06-3.56373E-19 1.23479E-18
 -1      2439 9.86653E-05-2.89619E-05-2.98788E-05-4.14985E-06-7.93418E-19 4.65598E-19
 -1      2440 1.01786E-04-3.01819E-05-3.06817E-05-4.57153E-06-3.99019E-19 1.39378E-18
 -1      2441 1.00973E-04-2.98774E-05-3.04657E-05-4.32887E-06-3.32055E-20 2.13296E-18
 -1      2442 9.96300E-05-2.92959E-05-3.01498E-05-4.87879E-06-4.82082E-19 9.51559E-19
 -1      2443 1.03328E-04-3.08645E-05-3.10581E-05-4.93914E-06-6.29150E-19 1.71387E-18
 -1      2444 1.02425E-04-3.04620E-05-3.08370E-05-4.81715E-06-8.92913E-19 1.26051E-18
 -1      2445 1.00805E-04-2.98222E-05-3.04287E-05-5.50426E-06-4.84995E-19 3.51422E-19
 -1      2446 1.05042E-04-3.17911E-05-3.14091E-05-4.89657E-06-3.02756E-19 1.82911E-18
 -1      2447 1.04095E-04-3.12731E-05-3.12039E-05-5.00506E-06 6.08453E-20 1.85599E-18
 -1      2448 1.02229E-04-3.06271E-05-3.06958E-05-5.86033E-06-4.57884E-19 1.02561E-18
 -1      2449 1.06866E-04-3.29996E-05-3.16918E-05-4.15929E-06 2.99092E-19 2.73661E-18
 -1      2450 1.05955E-04-3.23664E-05-3.15312E-05-4.64246E-06-4.60000E-19 2.39180E-18
 -1      2451 1.03947E-04-3.18090E-05-3.09275E-05-5.70070E-06-2.10678E-19 2.43071E-18
 -1      2452 1.08665E-04-3.44567E-05-3.18608E-05-2.39257E-06 1.28644E-18 3.37625E-18
 -1      2453 1.07926E-04-3.37585E-05-3.17781E-05-3.40574E-06 7.33491E-19 2.61719E-18
 -1      2454 1.05983E-04-3.34394E-05-3.11034E-05-4.69370E-06 6.56901E-19 3.29099E-18
 -1      2455 1.10179E-04-3.59562E-05-3.18864E-05 6.87460E-07 1.06495E-18 3.89840E-18
 -1      2456 1.09817E-04-3.53446E-05-3.19091E-05-9.55384E-07 1.79378E-18 4.00310E-18
 -1      2457 1.08290E-04-3.54698E-05-3.12205E-05-2.45562E-06 9.14438E-19 2.94506E-18
 -1      2458 1.10955E-04-3.69972E-05-3.17782E-05 5.08867E-06-4.86905E-19 4.03530E-18
 -1      2459 1.11240E-04-3.67700E-05-3.19149E-05 2.89771E-06 5.97191E-19 3.86167E-18
 -1      2460 1.10625E-04-3.75665E-05-3.13124E-05 1.32239E-06 7.38315E-19 3.80877E-18
 -1      2461 1.10358E-04-3.67514E-05-3.16039E-05 1.02116E-05-4.01368E-19 2.27625E-18
 -1      2462 1.11558E-04-3.73315E-05-3.18301E-05 7.88930E-06-6.26460E-19 3.10250E-18
 -1      2463 1.12417E-04-3.89550E-05-3.14642E-05 6.59240E-06 5.46055E-19 3.66241E-18
 -1      2464 1.07780E-04-3.43671E-05-3.14643E-05 1.45007E-05 1.63460E-19 5.02595E-19
 -1      2465 1.09970E-04-3.60562E-05-3.17311E-05 1.28890E-05-4.06973E-21 8.55937E-19
 -1      2466 1.12694E-04-3.83888E-05-3.17979E-05 1.25175E-05 6.21532E-19 1.31564E-18
 -1      2467 1.03363E-04-2.99130E-05-3.14156E-05 1.57030E-05-6.46534E-19-3.82885E-20
 -1      2468 1.06147E-04-3.24261E-05-3.16699E-05 1.57820E-05-6.45945E-19 1.28974E-20
 -1      2469 1.10558E-04-3.49344E-05-3.23672E-05 1.69908E-05-1.99396E-19-5.84511E-19
 -1      2470 9.84826E-05-2.50475E-05-3.14040E-05 1.21994E-05 6.75760E-19 1.95072E-19
 -1      2471 1.00962E-04-2.73242E-05-3.16320E-05 1.44210E-05-1.08850E-19-5.24194E-19
 -1      2472 1.06225E-04-2.90420E-05-3.30697E-05 1.73521E-05 5.15234E-20-1.71351E-18
 -1      2473 9.54901E-05-2.26014E-05-3.12252E-05 4.86084E-06-1.73748E-19 6.52536E-19
 -1      2474 9.67187E-05-2.33559E-05-3.14520E-05 8.40511E-06 1.78367E-19 6.89766E-19
 -1      2475 1.01729E-04-2.35735E-05-3.35670E-05 1.20018E-05-1.91469E-19-7.61212E-19
 -1      2476 9.57074E-05-2.39953E-05-3.07830E-05-2.72495E-06 9.55844E-19-1.66627E-20
 -1      2477 9.54337E-05-2.29451E-05-3.09970E-05 4.10153E-07 2.93682E-19 7.00402E-19
 -1      2478 9.97893E-05-2.19103E-05-3.34597E-05 3.02047E-06 5.81343E-20-8.98540E-19
 -1      2479 9.80615E-05-2.77945E-05-3.01849E-05-6.96753E-06 9.64817E-19 5.83950E-19
 -1      2480 9.69072E-05-2.58933E-05-3.03471E-05-5.56165E-06 5.40361E-19 1.39291E-19
 -1      2481 1.01117E-04-2.48668E-05-3.26992E-05-4.77818E-06 7.96767E-19-1.06496E-18
 -1      2482 1.00101E-04-3.10507E-05-2.96343E-05-6.95075E-06 2.40965E-18 8.60456E-19
 -1      2483 9.90460E-05-2.96300E-05-2.97132E-05-7.25869E-06 2.04826E-18 1.20555E-18
 -1      2484 1.03623E-04-2.98303E-05-3.15905E-05-7.83576E-06 9.93871E-19-1.82856E-19
 -1      2485 1.00338E-04-3.20547E-05-2.92537E-05-4.47440E-06 2.49122E-18-4.76739E-19
 -1      2486 9.99297E-05-3.16953E-05-2.92695E-05-5.57412E-06 3.04241E-18 8.27161E-19
 -1      2487 1.04600E-04-3.31956E-05-3.05508E-05-6.37482E-06 2.56773E-18 3.18168E-19
 -1      2488 9.88383E-05-3.10805E-05-2.90040E-05-1.98883E-06-3.49997E-20 6.20457E-19
 -1      2489 9.90461E-05-3.14675E-05-2.90128E-05-2.90122E-06 9.73949E-19 6.41749E-19
 -1      2490 1.03106E-04-3.34383E-05-2.98035E-05-3.11934E-06 1.23742E-18 1.15129E-18
 -1      2491 9.71653E-05-3.00180E-05-2.87975E-05-1.16834E-06-7.47705E-19-4.09057E-19
 -1      2492 1.01250E-04-2.95574E-05-3.07404E-05 2.90719E-05-6.23898E-19 1.49290E-19
 -1      2493 1.05144E-04-3.31432E-05-3.07154E-05 2.54392E-05 1.24878E-19-1.65828E-18
 -1      2494 8.85631E-05-2.01031E-05-2.94988E-05 3.19275E-05-1.23294E-18 3.77716E-18
 -1      2495 9.56120E-05-2.53699E-05-2.97930E-05 3.23588E-05-1.47535E-18 2.11275E-18
 -1      2496 1.01608E-04-3.43284E-05-2.88553E-05 3.41319E-05-5.35444E-19 4.47260E-19
 -1      2497 1.05956E-04-3.42652E-05-3.05834E-05 9.39421E-06-9.72951E-19-9.82657E-19
 -1      2498 1.04602E-04-3.43367E-05-3.01710E-05 5.31415E-06-1.24086E-18 1.05131E-19
 -1      2499 1.06643E-04-3.39676E-05-3.10529E-05 1.94594E-05-9.49272E-20-1.85083E-18
 -1      2500 1.07162E-04-3.53922E-05-3.07488E-05 1.46686E-05-8.67392E-19-1.02641E-18
 -1      2501 1.10411E-04-3.85762E-05-3.08328E-05 1.20480E-05-2.00376E-19-7.51649E-19
 -1      2502 1.10473E-04-3.93136E-05-3.05281E-05 2.37894E-05 5.70331E-19-1.80040E-18
 -1      2503 7.29801E-05-8.42205E-06-2.78189E-05 2.16246E-05-7.48890E-19 2.05570E-18
 -1      2504 7.99119E-05-1.31923E-05-2.82093E-05 2.83006E-05-3.24831E-19 2.38326E-18
 -1      2505 8.37613E-05-2.26485E-05-2.60120E-05 3.49163E-05-1.79394E-18 3.36002E-18
 -1      2506 6.60942E-05-3.02666E-06-2.69634E-05-2.14863E-07-1.36951E-18 6.42263E-19
 -1      2507 6.75605E-05-3.93479E-06-2.70525E-05 1.02153E-05-1.08620E-18 1.90625E-18
 -1      2508 6.58322E-05-1.01435E-05-2.33667E-05 1.90222E-05-1.14252E-18 1.50968E-18
 -1      2509 7.40588E-05-8.78260E-06-2.76498E-05-2.24208E-05 7.52536E-19-1.57389E-19
 -1      2510 6.86566E-05-5.00105E-06-2.73250E-05-1.36666E-05-1.23073E-18 2.30816E-20
 -1      2511 6.20350E-05-7.41183E-06-2.28383E-05-8.28557E-06-5.99448E-19 1.86347E-20
 -1      2512 9.00134E-05-2.09552E-05-2.92549E-05-3.20846E-05 7.38540E-19 5.44708E-19
 -1      2513 8.22903E-05-1.53468E-05-2.88530E-05-2.92645E-05 1.07983E-18-1.10506E-18
 -1      2514 7.65530E-05-1.74471E-05-2.49273E-05-3.03672E-05 6.66774E-19 3.89318E-19
 -1      2515 1.02476E-04-3.09673E-05-3.05155E-05-2.85723E-05 6.66205E-19 2.72347E-18
 -1      2516 9.71877E-05-2.64038E-05-3.04126E-05-3.08593E-05 1.17634E-18 1.33978E-18
 -1      2517 9.51317E-05-3.03616E-05-2.77031E-05-3.59627E-05 8.93554E-19 7.25510E-19
 -1      2518 1.06880E-04-3.48499E-05-3.08423E-05-1.83746E-05 3.46020E-19 1.70150E-18
 -1      2519 1.05377E-04-3.26332E-05-3.10741E-05-2.27878E-05 3.23090E-19 1.90709E-18
 -1      2520 1.08384E-04-3.83417E-05-2.99590E-05-2.78402E-05 4.39160E-19 1.71242E-18
 -1      2521 1.05482E-04-3.45130E-05-3.04260E-05-8.37435E-06-1.10318E-18-8.53942E-19
 -1      2522 1.06372E-04-3.41090E-05-3.08261E-05-1.25244E-05 1.57212E-19 2.00641E-19
 -1      2523 1.11142E-04-3.91309E-05-3.08152E-05-1.57796E-05 1.22916E-19 8.74932E-19
 -1      2524 3.52623E-05-2.35802E-05-4.74718E-06 2.96782E-05-9.48465E-19 1.49417E-18
 -1      2525 2.72340E-05-1.80528E-05-3.41125E-06 9.82375E-06-1.74309E-18 1.23413E-18
 -1      2526 1.13126E-04-6.03544E-05-2.28008E-05 4.99231E-05 2.00514E-18 3.88206E-18
 -1      2527 9.08279E-05-5.31100E-05-1.57971E-05 5.16360E-05 2.41722E-18 3.59820E-18
 -1      2528 9.36281E-05-2.74734E-05-2.83405E-05 3.68713E-07 4.00835E-19 1.19020E-18
 -1      2529 9.39104E-05-2.73373E-05-2.84875E-05 9.02405E-07 4.75194E-19 1.25030E-18
 -1      2530 9.42711E-05-2.74902E-05-2.86341E-05 4.02165E-07 4.34394E-19 5.89360E-19
 -1      2531 1.56848E-04-2.54471E-05-5.68703E-05-3.55641E-07 2.41870E-18 7.15743E-19
 -1      2532 1.55778E-04-3.35242E-05-5.27060E-05-1.32469E-07 2.37720E-18 1.34954E-18
 -1      2533 9.99531E-05-3.10447E-05-2.95787E-05-2.66671E-06-1.53260E-19-9.50881E-19
 -1      2534 4.14811E-05-3.09865E-05-4.31425E-06-3.71766E-05-2.43882E-18 9.41054E-19
 -1      2535 5.85244E-05-3.96327E-05-8.17217E-06-4.89094E-05-1.42132E-18 1.75442E-18
 -1      2536 1.44285E-04-6.36464E-05-3.48391E-05 3.09739E-05 1.95898E-18 1.52169E-18
 -1      2537 1.32039E-04-6.43491E-05-2.88258E-05 3.75159E-05 1.48273E-18 2.72893E-18
 -1      2538 2.62181E-05-1.83029E-05-3.03427E-06-9.93942E-06-1.72406E-18 2.22770E-19
 -1      2539 3.16866E-05-2.27205E-05-3.54097E-06-2.49435E-05-2.10181E-18 9.47830E-19
 -1      2540 1.47802E-04-6.04376E-05-3.78726E-05 9.52756E-06-1.54896E-18 3.07049E-19
 -1      2541 1.34336E-04-6.38444E-05-3.01900E-05 1.97120E-05-1.12666E-18 2.54533E-19
 -1      2542 1.91564E-05-2.31170E-05 1.99375E-06 7.36984E-06-2.67768E-19-7.72918E-19
 -1      2543 1.89370E-05-2.38054E-05 2.34696E-06-8.01090E-06-6.14258E-19-1.45520E-18
 -1      2544 8.78368E-05-1.07973E-05-3.30526E-05-1.51810E-06 6.67337E-19-7.05909E-19
 -1      2545 8.79423E-05-1.09194E-05-3.30440E-05-2.63678E-06 5.76182E-19-7.91274E-19
 -1      2546 8.93414E-05-1.30917E-05-3.26806E-05-2.92977E-06 5.35578E-19-7.80892E-19
 -1      2547 8.90925E-05-1.27569E-05-3.27185E-05-9.40782E-07 6.17470E-19-6.60031E-19
 -1      2548 1.54476E-04-1.68816E-05-5.91474E-05 1.20352E-05 1.11512E-18 2.25311E-19
 -1      2549 1.48103E-04-1.03198E-05-5.96527E-05 1.01945E-05 7.13202E-19-5.94511E-20
 -1      2550 1.18673E-04-6.36064E-05-2.38635E-05 3.31934E-05-4.16105E-19-1.31184E-18
 -1      2551 1.00907E-04-5.99429E-05-1.73317E-05 3.69691E-05-3.86247E-19-4.63962E-19
 -1      2552 1.45318E-04-1.01491E-05-5.88110E-05 1.98467E-06 1.25234E-18 6.40304E-19
 -1      2553 1.52268E-04-1.63308E-05-5.86373E-05-1.02953E-07 2.12266E-18 8.71385E-19
 -1      2554 1.41878E-04-1.92845E-05-5.27914E-05-4.98690E-06 2.34713E-18 1.35737E-18
 -1      2555 1.55433E-04-3.39209E-05-5.24167E-05 1.02372E-05 1.06303E-18 4.38340E-20
 -1      2556 1.57670E-04-2.57429E-05-5.70002E-05 1.17124E-05 1.07128E-18-8.23740E-20
 -1      2557 1.49459E-04-5.51627E-05-4.05653E-05-1.63013E-06-5.71880E-19-2.86932E-19
 -1      2558 1.55177E-04-4.71193E-05-4.68003E-05 5.06925E-06 3.78624E-19-2.57922E-19
 -1      2559 1.28640E-04-6.31713E-05-2.80656E-05-2.56735E-05-1.29067E-18-1.12909E-18
 -1      2560 1.42099E-04-6.19264E-05-3.47939E-05-1.73933E-05-9.77900E-19 2.46063E-19
 -1      2561 9.46650E-05-5.78030E-05-1.57748E-05-3.95740E-05-1.17441E-18-1.76604E-18
 -1      2562 1.13222E-04-6.14638E-05-2.23085E-05-3.64548E-05-1.62355E-18-1.11120E-18
 -1      2563 5.79730E-05-4.24419E-05-6.31516E-06-4.04146E-05-1.72985E-18-1.16171E-18
 -1      2564 7.61491E-05-5.05643E-05-1.08566E-05-4.36506E-05-1.28580E-18-1.73208E-18
 -1      2565 9.23733E-05-5.55810E-05-1.54914E-05-4.02281E-05-2.02737E-18-1.45155E-18
 -1      2566 2.51686E-05-2.70128E-05 1.07362E-06-1.95766E-05-1.73059E-18-5.58195E-19
 -1      2567 3.76354E-05-3.11017E-05-2.50876E-06-3.16268E-05-1.37601E-18-1.38913E-19
 -1      2568 2.89447E-05-2.10975E-05-2.79085E-06-1.36931E-05-7.85623E-19-5.71112E-19
 -1      2569 3.79825E-05-3.17873E-05-2.32539E-06 3.19188E-05 3.86459E-19-2.11652E-18
 -1      2570 2.73131E-05-2.67026E-05 1.28005E-07 2.07208E-05 3.14884E-19-1.09246E-18
 -1      2571 1.55727E-04-3.86284E-05-5.04831E-05-6.26734E-07-1.20575E-18 1.58819E-19
 -1      2572 1.55778E-04-2.94227E-05-5.47320E-05 1.19418E-06-1.14815E-18 5.10549E-19
 -1      2573 1.55815E-04-4.35475E-05-4.86749E-05-8.97514E-06-2.17433E-18 7.96634E-19
 -1      2574 1.52206E-04-5.11971E-05-4.34832E-05-4.18092E-06-1.48173E-18 7.27601E-19
 -1      2575 1.52789E-04-2.06151E-05-5.73000E-05-1.46301E-05-2.23299E-18 5.72383E-19
 -1      2576 1.53402E-04-3.07680E-05-5.30209E-05-1.39646E-05-2.46232E-18 2.44581E-19
 -1      2577 1.52216E-04-1.10376E-05-6.10424E-05-7.35472E-06-1.64324E-18 8.05078E-19
 -1      2578 1.50597E-04-1.24136E-05-5.97796E-05-1.13020E-05-1.99773E-18 4.72221E-19
 -1      2579 1.53562E-04-1.89517E-05-5.82318E-05 6.32943E-07-1.49014E-18 2.54533E-19
 -1      2580 1.53326E-04-1.29646E-05-6.06800E-05-2.29186E-06-1.68898E-18-3.23672E-19
 -1      2581 1.44511E-04-2.38885E-05-5.19245E-05 6.03821E-06-1.44144E-18 7.73976E-20
 -1      2582 1.50546E-04-5.93957E-05-3.90454E-05-1.95043E-05 7.25272E-19 1.77750E-18
 -1      2583 1.58069E-04-5.13594E-05-4.62354E-05-1.08125E-05 9.10560E-21 1.27754E-18
 -1      2584 1.24821E-04-6.37373E-05-2.59546E-05-4.19724E-05-7.12355E-19 2.45618E-18
 -1      2585 1.39808E-04-6.46209E-05-3.26397E-05-3.47829E-05-3.00697E-20 1.40184E-18
 -1      2586 8.15777E-05-5.03939E-05-1.31492E-05-5.12755E-05-2.21923E-19 3.19734E-18
 -1      2587 1.03928E-04-5.75964E-05-2.00332E-05-5.20883E-05-4.85773E-19 3.93349E-18
 -1      2588 9.50729E-05-2.00230E-05-3.22127E-05-1.17703E-05-2.76953E-19-1.11507E-18
 -1      2589 9.54682E-05-2.33563E-05-3.09275E-05-7.96866E-06-2.23782E-19-1.07320E-18
 -1      2590 9.50500E-05-2.25591E-05-3.10535E-05-7.62288E-06-2.10987E-19-1.02317E-18
 -1      2591 9.32405E-05-1.77095E-05-3.23978E-05-1.13024E-05-1.44796E-19-1.08523E-18
 -1      2592 9.63392E-05-2.50968E-05-3.05583E-05 7.59180E-06 4.74100E-19 1.58811E-18
 -1      2593 9.74605E-05-2.37802E-05-3.15987E-05 1.06914E-05 4.69256E-19 1.74888E-18
 -1      2594 9.58941E-05-2.13045E-05-3.20228E-05 1.18931E-05 5.71277E-19 1.42370E-18
 -1      2595 9.58827E-05-2.41627E-05-3.07704E-05 7.68287E-06 5.38726E-19 1.03603E-18
 -1      2596 6.64972E-05-4.17241E-05-1.06675E-05 5.15120E-05 1.38490E-18 3.65177E-18
 -1      2597 4.84375E-05-3.30025E-05-6.23047E-06 4.16394E-05 2.09217E-19 1.24683E-18
 -1      2598 1.30978E-04-9.75191E-06-5.25543E-05 1.08501E-05 4.96573E-19 9.58047E-19
 -1      2599 1.39700E-04-9.79348E-06-5.62698E-05 6.37893E-06 7.53859E-19 6.15303E-19
 -1      2600 1.29840E-04-1.01343E-05-5.18115E-05 2.64537E-06 1.86157E-18 2.47230E-18
 -1      2601 9.07942E-05-1.50483E-05-3.24585E-05-6.80140E-06 2.86961E-19-1.09563E-18
 -1      2602 8.97011E-05-1.31821E-05-3.28460E-05-7.96275E-06 3.02162E-19-1.22538E-18
 -1      2603 9.03584E-05-1.39635E-05-3.28013E-05-9.13608E-06 1.97556E-19-1.24796E-18
 -1      2604 9.47364E-05-2.69400E-05-2.90682E-05 1.88272E-06 4.53525E-19 6.76577E-19
 -1      2605 9.42488E-05-1.90825E-05-3.22593E-05 1.16020E-05 7.81494E-19 1.05168E-18
 -1      2606 8.58231E-05-4.71117E-05-1.61740E-05 5.09861E-05 1.11851E-18 3.48829E-18
 -1      2607 9.11370E-05-1.50088E-05-3.26796E-05-9.81798E-06 1.41590E-19-1.21315E-18
 -1      2608 9.21626E-05-1.62811E-05-3.25985E-05-1.08487E-05-6.23860E-21-1.18141E-18
 -1      2609 9.36402E-05-1.92097E-05-3.18942E-05-9.19385E-06-1.13870E-19-1.05989E-18
 -1      2610 9.20638E-05-1.68204E-05-3.22381E-05-8.30330E-06 1.17468E-19-1.10208E-18
 -1      2611 7.81712E-05-4.36635E-05-1.42605E-05-5.02012E-05-9.05055E-19 2.41891E-18
 -1      2612 1.18502E-04-6.12914E-05-2.41677E-05-4.51955E-05-7.75247E-19 3.12780E-18
 -1      2613 1.48560E-04-6.18910E-05-3.71494E-05 1.76067E-05 1.44176E-18 6.22993E-19
 -1      2614 1.40077E-04-1.05457E-05-5.58175E-05-3.50371E-06-1.29405E-18-5.90276E-20
 -1      2615 1.40925E-04-1.58490E-05-5.38310E-05-1.62533E-05-1.81159E-18 1.30242E-18
 -1      2616 9.98988E-05-3.16371E-05-2.92773E-05-6.09012E-07-3.61038E-19 9.58716E-19
 -1      2617 1.26129E-04-6.30956E-05-2.67081E-05 4.10284E-05 1.96427E-18 2.22473E-18
 -1      2618 1.01576E-04-3.22615E-05-2.96405E-05 1.30585E-06 1.35605E-19 1.37082E-18
 -1      2619 1.47124E-04-3.65685E-05-4.75788E-05-1.79954E-05-1.69089E-18 1.57739E-18
 -1      2620 3.54778E-05-1.45115E-05-8.32929E-06 8.85850E-07-2.64457E-18 1.12613E-18
 -1      2621 4.94481E-05-2.48884E-05-1.00480E-05 3.51928E-05-4.54751E-19 2.56926E-18
 -1      2622 1.51411E-04-4.64125E-05-4.51911E-05-4.22066E-07-6.52374E-19 1.26144E-18
 -1      2623 5.16689E-05-3.57018E-05-6.35603E-06-3.62974E-05-1.03232E-18-1.31100E-18
 -1      2624 6.60165E-05-3.97047E-05-1.09939E-05-3.82371E-05-8.28822E-19-1.31682E-18
 -1      2625 4.72516E-05-2.80265E-05-7.64322E-06-3.10566E-05-5.04726E-19-6.72756E-19
 -1      2626 9.47183E-05-2.06038E-05-3.17190E-05 9.66884E-06 7.12083E-19 8.90251E-19
 -1      2627 1.44719E-04-1.98299E-05-5.37797E-05 1.63801E-05 1.34826E-18 1.95495E-18
 -1      2628 1.02315E-04-3.29941E-05-2.96854E-05-9.05317E-07-1.26660E-19-4.69296E-19
 -1      2629 1.04191E-04-3.35727E-05-3.01761E-05-4.45184E-06-8.30081E-19-4.92437E-19
 -1      2630 1.08330E-04-3.71294E-05-3.05834E-05-6.04574E-06-1.00982E-18-2.31796E-19
 -1      2631 1.03569E-04-3.41670E-05-2.98502E-05 7.63563E-08 3.59062E-19-3.82657E-19
 -1      2632 4.58237E-05-2.39476E-05-8.80820E-06-3.24506E-05-2.48784E-18 7.34801E-19
 -1      2633 1.05251E-04-3.50367E-05-3.01168E-05 2.30874E-06-5.11347E-20 6.47534E-19
 -1      2634 1.30507E-04-6.61865E-05-2.74063E-05 2.15331E-05 7.93140E-19 6.81544E-19
 -1      2635 1.24858E-04-6.50248E-05-2.54091E-05-2.75059E-05-2.07205E-18-3.46013E-19
 -1      2636 1.45465E-04-6.02343E-05-3.64822E-05-3.87962E-06-9.16119E-19-2.47969E-19
 -1      2637 3.01913E-05-2.12791E-05-3.20687E-06 1.38153E-05 1.39903E-18-1.22777E-18
 -1      2638 9.30494E-05-5.61629E-05-1.54141E-05 3.95359E-05-2.42040E-19 3.07579E-20
 -1      2639 1.47783E-04-5.78078E-05-3.85542E-05-2.67355E-06-3.48131E-19 2.58832E-18
 -1      2640 1.51665E-04-4.21863E-05-4.71103E-05-6.98972E-07 2.03500E-18 2.78886E-19
 -1      2641 1.49007E-04-4.11464E-05-4.64906E-05 1.45471E-05-2.04664E-19 1.31078E-18
 -1      2642 5.28475E-05-3.64136E-05-6.63965E-06 3.49317E-05 9.81711E-19-9.21572E-19
 -1      2643 1.46344E-04-6.37433E-05-3.52519E-05-2.19030E-05 1.68560E-19 1.30464E-18
 -1      2644 1.08505E-04-3.69507E-05-3.06188E-05-6.90963E-07 2.73787E-19-5.34048E-19
 -1      2645 9.05552E-05-1.51728E-05-3.23290E-05 3.19493E-06 8.80673E-19-2.98314E-19
 -1      2646 9.03646E-05-1.49011E-05-3.23617E-05 2.26115E-06 8.11403E-19-3.67137E-19
 -1      2647 9.02300E-05-1.46982E-05-3.23906E-05 1.42246E-06 7.33613E-19-4.55995E-19
 -1      2648 9.01647E-05-1.46057E-05-3.24016E-05 4.65487E-07 6.87700E-19-4.97837E-19
 -1      2649 9.14162E-05-1.65937E-05-3.20539E-05 1.64123E-06 7.12255E-19-3.41221E-19
 -1      2650 9.21400E-05-1.75512E-05-3.20045E-05 6.47319E-06 9.52626E-19 1.50873E-19
 -1      2651 9.16143E-05-1.67562E-05-3.21044E-05 5.63418E-06 1.00938E-18 2.38145E-20
 -1      2652 9.35617E-05-1.97761E-05-3.16647E-05 7.59537E-06 8.78370E-19 3.42122E-19
 -1      2653 9.27705E-05-1.85213E-05-3.18381E-05 7.01786E-06 9.29060E-19 1.97481E-19
 -1      2654 9.34339E-05-1.98670E-05-3.15063E-05 5.73351E-06 9.23961E-19 1.47260E-19
 -1      2655 9.52208E-05-2.54101E-05-2.99312E-05 3.97695E-06 6.09645E-19 4.96855E-19
 -1      2656 9.55576E-05-2.45603E-05-3.03950E-05 5.60952E-06 5.85194E-19 6.23192E-19
 -1      2657 1.39288E-04-2.45228E-05-4.95997E-05 2.00367E-05 1.37050E-18 2.14405E-18
 -1      2658 1.34416E-04-1.62381E-05-5.14531E-05 1.69338E-05 6.37392E-19 1.40565E-18
 -1      2659 9.47095E-05-2.19080E-05-3.12073E-05 7.84105E-06 6.96592E-19 7.25877E-19
 -1      2660 1.36042E-04-2.76303E-05-4.68178E-05 8.95382E-06-1.91906E-18 1.31925E-19
 -1      2661 1.32817E-04-1.92470E-05-4.95299E-05 5.35440E-06-1.49692E-18-4.93079E-19
 -1      2662 1.09757E-04-5.48307E-05-2.29635E-05-4.57034E-05 6.79744E-20 2.61668E-18
 -1      2663 1.25406E-04-6.16693E-05-2.77264E-05-3.90231E-05-3.96941E-19 1.24906E-18
 -1      2664 9.53637E-05-2.59041E-05-2.97381E-05-2.70120E-06-1.18938E-19-7.89282E-19
 -1      2665 9.51959E-05-2.64922E-05-2.94564E-05-1.72046E-06-1.33889E-19-7.54211E-19
 -1      2666 9.52185E-05-2.70072E-05-2.92101E-05-9.79711E-07-1.53941E-19-7.23143E-19
 -1      2667 9.50839E-05-2.73619E-05-2.90300E-05-3.75328E-07-1.54460E-19-8.88474E-19
 -1      2668 9.54164E-05-2.63310E-05-2.96140E-05-1.61920E-06-2.13540E-19-8.14622E-19
 -1      2669 9.50507E-05-2.76682E-05-2.88622E-05 9.05166E-08-5.03600E-20-8.87434E-19
 -1      2670 9.49726E-05-2.78929E-05-2.87514E-05 4.40453E-07 4.12339E-20-9.47879E-19
 -1      2671 9.54168E-05-2.73276E-05-2.91885E-05-3.42045E-07-1.31821E-19-8.14681E-19
 -1      2672 9.49303E-05-2.80785E-05-2.86405E-05 7.08603E-07 1.32349E-22-8.75171E-19
 -1      2673 9.49016E-05-2.82256E-05-2.85765E-05 8.90476E-07-2.63453E-20-9.26040E-19
 -1      2674 9.53557E-05-2.79432E-05-2.88978E-05 4.45317E-07 7.83187E-20-8.35968E-19
 -1      2675 9.48664E-05-2.83379E-05-2.85061E-05 1.02303E-06 1.26774E-20-8.73391E-19
 -1      2676 9.48728E-05-2.84352E-05-2.84732E-05 1.09624E-06 7.60230E-20-7.97242E-19
 -1      2677 9.52910E-05-2.83249E-05-2.87051E-05 8.84152E-07 4.80525E-20-8.18567E-19
 -1      2678 9.48481E-05-2.85010E-05-2.84312E-05 1.13963E-06 8.95340E-21-6.68286E-19
 -1      2679 9.48763E-05-2.85648E-05-2.84186E-05 1.14492E-06-6.08477E-20-4.96100E-19
 -1      2680 9.52411E-05-2.85578E-05-2.85826E-05 1.08607E-06 1.72572E-19-5.71846E-19
 -1      2681 9.48611E-05-2.86003E-05-2.83961E-05 1.13266E-06 3.50160E-20-3.02528E-19
 -1      2682 9.49008E-05-2.86407E-05-2.83964E-05 1.09800E-06 3.38407E-20 1.31980E-19
 -1      2683 9.52088E-05-2.86934E-05-2.85095E-05 1.13414E-06 2.43527E-19 8.84530E-20
 -1      2684 9.48930E-05-2.86562E-05-2.83870E-05 1.05384E-06-1.86713E-19 2.65085E-19
 -1      2685 9.49372E-05-2.86800E-05-2.83950E-05 9.98353E-07 1.09314E-19 2.89427E-19
 -1      2686 9.51910E-05-2.87643E-05-2.84706E-05 1.08819E-06 1.71409E-19 4.88895E-19
 -1      2687 9.49345E-05-2.86823E-05-2.83944E-05 9.38815E-07 1.57696E-19 8.18759E-20
 -1      2688 9.49788E-05-2.86941E-05-2.84067E-05 8.75529E-07 1.16577E-19-2.04240E-19
 -1      2689 9.51839E-05-2.87920E-05-2.84550E-05 9.90540E-07-1.03136E-19 3.49972E-19
 -1      2690 9.49795E-05-2.86877E-05-2.84118E-05 8.11978E-07 6.56711E-20-4.61073E-19
 -1      2691 9.50214E-05-2.86910E-05-2.84263E-05 7.49690E-07-1.91975E-19-2.60207E-19
 -1      2692 9.51841E-05-2.87911E-05-2.84551E-05 8.70619E-07-1.96914E-19-5.55716E-19
 -1      2693 9.50243E-05-2.86789E-05-2.84350E-05 6.89879E-07-3.28781E-19-3.71920E-19
 -1      2694 9.50629E-05-2.86759E-05-2.84505E-05 6.34559E-07-4.90096E-19-3.57714E-19
 -1      2695 9.51889E-05-2.87710E-05-2.84655E-05 7.48691E-07-1.83459E-19-5.59374E-19
 -1      2696 9.50673E-05-2.86599E-05-2.84616E-05 5.83835E-07-5.72597E-19-2.02761E-19
 -1      2697 9.51026E-05-2.86522E-05-2.84776E-05 5.39657E-07-6.05599E-19 7.81492E-21
 -1      2698 9.51967E-05-2.87380E-05-2.84827E-05 6.38708E-07-4.78802E-19-5.38441E-19
 -1      2699 9.51080E-05-2.86332E-05-2.84905E-05 5.01892E-07-1.05477E-18-5.24754E-20
 -1      2700 9.51410E-05-2.86217E-05-2.85070E-05 4.72012E-07-1.09415E-18-3.05115E-19
 -1      2701 9.52064E-05-2.86958E-05-2.85049E-05 5.50529E-07-1.06637E-18-3.76181E-19
 -1      2702 9.51473E-05-2.86000E-05-2.85215E-05 4.50309E-07-8.14356E-19-7.09047E-19
 -1      2703 9.51794E-05-2.85851E-05-2.85389E-05 4.37463E-07-4.42133E-19-8.99380E-19
 -1      2704 9.52176E-05-2.86460E-05-2.85310E-05 4.91611E-07-1.06983E-18-1.89784E-19
 -1      2705 9.51865E-05-2.85605E-05-2.85553E-05 4.34703E-07-1.21834E-19-8.23700E-19
 -1      2706 9.52198E-05-2.85425E-05-2.85742E-05 4.41660E-07 1.32355E-19-9.51707E-19
 -1      2707 9.52301E-05-2.85888E-05-2.85609E-05 4.68315E-07-4.79588E-19-9.94702E-20
 -1      2708 9.52279E-05-2.85142E-05-2.85929E-05 4.60915E-07 4.78673E-19-7.30989E-19
 -1      2709 9.52649E-05-2.84930E-05-2.86144E-05 4.90817E-07 5.32618E-19-5.92771E-19
 -1      2710 9.52443E-05-2.85231E-05-2.85952E-05 4.86897E-07 3.75824E-19-4.41937E-20
 -1      2711 9.52743E-05-2.84601E-05-2.86360E-05 5.35651E-07 2.32306E-19-1.60736E-19
 -1      2712 9.53178E-05-2.84354E-05-2.86612E-05 5.92252E-07 3.05506E-19-1.27618E-19
 -1      2713 9.52605E-05-2.84471E-05-2.86348E-05 5.54245E-07 5.65280E-19-1.84327E-19
 -1      2714 9.53287E-05-2.83967E-05-2.86866E-05 6.66923E-07 7.18620E-19-1.06735E-19
 -1      2715 9.53822E-05-2.83684E-05-2.87169E-05 7.54723E-07 7.34356E-19-3.17459E-19
 -1      2716 9.52793E-05-2.83583E-05-2.86810E-05 6.78393E-07 4.35086E-19 1.81660E-19
 -1      2717 9.53950E-05-2.83228E-05-2.87469E-05 8.64261E-07 8.07038E-19-4.02830E-19
 -1      2718 9.54623E-05-2.82907E-05-2.87837E-05 9.88517E-07 6.54533E-19-2.73065E-19
 -1      2719 9.53014E-05-2.82540E-05-2.87353E-05 8.68799E-07 7.15749E-19-1.66044E-19
 -1      2720 9.54774E-05-2.82372E-05-2.88192E-05 1.13868E-06 2.42230E-19-4.04460E-19
 -1      2721 9.55631E-05-2.82019E-05-2.88641E-05 1.30526E-06-9.68773E-21-3.48166E-19
 -1      2722 9.53275E-05-2.81315E-05-2.87991E-05 1.13637E-06 5.46622E-19-3.37391E-19
 -1      2723 9.55809E-05-2.81397E-05-2.89057E-05 1.50232E-06-1.15215E-19-1.05050E-19
 -1      2724 9.56899E-05-2.81025E-05-2.89600E-05 1.71729E-06 3.53704E-20-2.49026E-19
 -1      2725 9.53586E-05-2.79891E-05-2.88735E-05 1.49316E-06-5.93199E-20 2.73715E-19
 -1      2726 9.57111E-05-2.80322E-05-2.90081E-05 1.96755E-06-1.85803E-19-5.54803E-19
 -1      2727 9.58493E-05-2.79958E-05-2.90729E-05 2.23651E-06-3.20268E-19-9.20315E-19
 -1      2728 9.53959E-05-2.78267E-05-2.89591E-05 1.95169E-06-3.46200E-19-1.80120E-20
 -1      2729 9.58753E-05-2.79199E-05-2.91271E-05 2.54552E-06 7.13319E-20-8.78049E-19
 -1      2730 9.60492E-05-2.78898E-05-2.92030E-05 2.87231E-06 1.36781E-19-4.34152E-19
 -1      2731 9.54416E-05-2.76478E-05-2.90553E-05 2.52360E-06-1.43759E-19-6.56739E-20
 -1      2732 9.60829E-05-2.78141E-05-2.92619E-05 3.24362E-06 2.42024E-19-3.67931E-19
 -1      2733 9.63009E-05-2.77999E-05-2.93484E-05 3.62839E-06 2.87643E-19-1.32505E-19
 -1      2734 9.55002E-05-2.74624E-05-2.91597E-05 3.21770E-06 5.59786E-19 1.07996E-19
 -1      2735 9.63486E-05-2.77362E-05-2.94093E-05 4.06166E-06 3.30676E-19-4.22427E-19
 -1      2736 9.66213E-05-2.77547E-05-2.95045E-05 4.49787E-06 2.05906E-19 2.35018E-20
 -1      2737 9.55806E-05-2.72909E-05-2.92676E-05 4.03690E-06 3.54914E-19-4.61571E-20
 -1      2738 9.66960E-05-2.77248E-05-2.95627E-05 4.98613E-06 4.47422E-21 1.53808E-19
 -1      2739 9.70392E-05-2.78037E-05-2.96624E-05 5.45610E-06-1.57237E-20 5.17642E-19
 -1      2740 9.57018E-05-2.71717E-05-2.93709E-05 4.97389E-06-1.36359E-19 8.31856E-19
 -1      2741 9.71662E-05-2.78448E-05-2.97114E-05 5.98181E-06 4.63655E-19 7.99536E-19
 -1      2742 9.76047E-05-2.80287E-05-2.98089E-05 6.45045E-06 7.72014E-19 1.28921E-18
 -1      2743 9.59007E-05-2.71713E-05-2.94573E-05 6.00515E-06 6.75740E-19 3.08809E-19
 -1      2744 9.78308E-05-2.82013E-05-2.98401E-05 6.97974E-06 6.98507E-20 8.34026E-19
 -1      2745 9.84042E-05-2.85581E-05-2.99265E-05 7.38600E-06-2.51502E-19 5.71028E-19
 -1      2746 9.62471E-05-2.73987E-05-2.95109E-05 7.08259E-06-4.82111E-20 3.63677E-19
 -1      2747 9.88111E-05-2.89542E-05-2.99310E-05 7.85986E-06-6.98135E-19 1.14309E-18
 -1      2748 9.95808E-05-2.95800E-05-2.99964E-05 8.10574E-06-7.93238E-19 6.21513E-19
 -1      2749 9.68652E-05-2.80237E-05-2.95135E-05 8.12135E-06-8.53061E-21-1.75336E-19
 -1      2750 1.00301E-04-3.03275E-05-2.99694E-05 8.42545E-06-6.25560E-19 9.28436E-19
 -1      2751 1.01352E-04-3.13401E-05-3.00080E-05 8.36354E-06-5.28124E-19 6.95945E-19
 -1      2752 9.79631E-05-2.92914E-05-2.94512E-05 8.97982E-06-1.04286E-18 1.20722E-18
 -1      2753 1.02577E-04-3.25896E-05-2.99579E-05 8.36601E-06-9.62212E-19 9.29643E-19
 -1      2754 1.04003E-04-3.40920E-05-2.99770E-05 7.78878E-06-9.10463E-19 1.07829E-18
 -1      2755 9.98602E-05-3.15172E-05-2.93282E-05 9.42427E-06-7.07271E-19 7.66580E-19
 -1      2756 1.05964E-04-3.59575E-05-2.99410E-05 7.21199E-06 1.29899E-19 1.15962E-18
 -1      2757 1.07799E-04-3.79385E-05-2.99773E-05 5.85999E-06 2.30919E-19 1.84046E-18
 -1      2758 1.02983E-04-3.50158E-05-2.91925E-05 9.06709E-06-2.30174E-19 1.04118E-18
 -1      2759 1.10670E-04-4.03558E-05-3.00491E-05 4.30643E-06-6.02948E-19 1.82582E-18
 -1      2760 1.12751E-04-4.24803E-05-3.01873E-05 1.92542E-06-2.97471E-19 1.77679E-18
 -1      2761 1.07762E-04-3.98843E-05-2.91817E-05 7.28504E-06-1.88601E-19 1.63175E-19
 -1      2762 1.16373E-04-4.49051E-05-3.05433E-05-1.09637E-06 2.36187E-19 1.00284E-18
 -1      2763 1.18139E-04-4.61942E-05-3.09191E-05-4.55979E-06-4.02374E-19 2.78118E-19
 -1      2764 1.14303E-04-4.55183E-05-2.95891E-05 3.15045E-06-5.49779E-19 8.94616E-19
 -1      2765 1.21570E-04-4.73185E-05-3.17987E-05-9.07272E-06-3.22792E-19-2.24110E-19
 -1      2766 1.22117E-04-4.62345E-05-3.25728E-05-1.29994E-05-8.46616E-19 8.41871E-19
 -1      2767 1.21513E-04-4.96513E-05-3.08909E-05-4.19402E-06-5.91729E-19 8.47910E-20
 -1      2768 1.23457E-04-4.39533E-05-3.42380E-05-1.79511E-05-1.19317E-18 1.57403E-18
 -1      2769 1.21802E-04-3.92203E-05-3.54381E-05-2.03767E-05-2.31822E-19 1.11324E-18
 -1      2770 1.26941E-04-4.85632E-05-3.35820E-05-1.42770E-05-6.83251E-19 8.02471E-19
 -1      2771 1.19977E-04-3.31143E-05-3.75990E-05-2.23780E-05-3.84871E-20 1.72337E-18
 -1      2772 1.16749E-04-2.62851E-05-3.88346E-05-2.09394E-05-8.06799E-19 1.58647E-18
 -1      2773 1.26858E-04-3.87129E-05-3.79112E-05-2.18973E-05 1.85394E-19 1.59962E-18
 -1      2774 1.13573E-04-2.00632E-05-4.05402E-05-1.66237E-05-1.00109E-18 1.87190E-18
 -1      2775 1.11296E-04-1.60227E-05-4.10003E-05-1.10721E-05-6.61692E-19 2.17020E-18
 -1      2776 1.21325E-04-2.27058E-05-4.25239E-05-2.06115E-05-5.68412E-19 8.39198E-19
 -1      2777 1.14591E-04-1.84276E-05-4.14954E-05 7.16585E-07-8.86949E-19 1.37286E-18
 -1      2778 1.16063E-04-2.21159E-05-4.05530E-05 6.44184E-06-3.91382E-19 2.10441E-19
 -1      2779 1.18688E-04-2.81506E-05-3.90788E-05 9.10709E-06-5.71324E-19 5.63872E-20
 -1      2780 1.18847E-04-3.62734E-05-3.54288E-05 8.21184E-06 2.72612E-19-1.01405E-18
 -1      2781 1.19980E-04-4.04773E-05-3.42538E-05 6.48430E-06 2.13466E-19-8.49878E-19
 -1      2782 1.17947E-04-4.19550E-05-3.26744E-05 2.20358E-06-8.18578E-21 1.51664E-19
 -1      2783 1.16516E-04-4.22000E-05-3.18627E-05-6.13579E-07-1.08526E-21 4.13934E-19
 -1      2784 1.24880E-04-4.47113E-05-3.44161E-05 2.24302E-06 4.17071E-19 5.08484E-20
 -1      2785 9.44786E-05-2.81309E-05-2.84346E-05-8.91159E-07 4.48811E-19 1.54821E-19
 -1      2786 9.44953E-05-2.80034E-05-2.84853E-05-7.16295E-07 2.68630E-19 1.27280E-19
 -1      2787 4.73451E-05-1.75229E-05-1.22916E-05-2.71710E-05-1.80100E-18 8.66515E-19
 -1      2788 5.76665E-05-2.62119E-05-1.30928E-05-4.03997E-05-1.82366E-18 7.56400E-19
 -1      2789 9.45558E-05-2.78522E-05-2.85882E-05-4.41081E-07 3.50744E-19 1.25812E-19
 -1      2790 9.46442E-05-2.76652E-05-2.86869E-05-9.77339E-08 4.91760E-19 2.90850E-19
 -1      2791 9.50086E-05-2.79121E-05-2.87639E-05-4.50799E-07 4.24998E-19 7.80821E-20
 -1      2792 9.45179E-05-2.84361E-05-2.83199E-05-1.14004E-06 3.89265E-20 6.07842E-19
 -1      2793 9.44614E-05-2.83722E-05-2.83208E-05-1.13775E-06 1.63982E-19 6.96143E-19
 -1      2794 9.45892E-05-2.85157E-05-2.83163E-05-1.09134E-06 2.52553E-19 2.24820E-19
 -1      2795 9.45205E-05-2.84706E-05-2.83060E-05-1.12745E-06 2.46399E-19 5.23157E-19
 -1      2796 9.48950E-05-2.85762E-05-2.84253E-05-1.15768E-06 2.47634E-19 3.83787E-19
 -1      2797 9.46729E-05-2.85655E-05-2.83309E-05-9.90537E-07 3.21527E-19 2.60621E-19
 -1      2798 9.46013E-05-2.85345E-05-2.83145E-05-1.04653E-06 2.41303E-19 1.83711E-19
 -1      2799 9.49156E-05-2.86494E-05-2.84017E-05-1.10937E-06 3.32459E-19 4.56740E-19
 -1      2800 9.47590E-05-2.85938E-05-2.83557E-05-8.66715E-07 5.26115E-19 4.30033E-19
 -1      2801 9.46901E-05-2.85737E-05-2.83366E-05-9.30118E-07 4.25396E-19 3.31778E-19
 -1      2802 9.49487E-05-2.86865E-05-2.83993E-05-1.00824E-06 3.28571E-19 4.99018E-19
 -1      2803 9.48417E-05-2.86067E-05-2.83856E-05-7.39528E-07 7.65910E-19 3.75053E-19
 -1      2804 9.47785E-05-2.85947E-05-2.83658E-05-8.01992E-07 7.90865E-19 6.20921E-19
 -1      2805 9.49876E-05-2.86988E-05-2.84102E-05-8.84121E-07 7.39063E-19 4.19436E-19
 -1      2806 9.49182E-05-2.86082E-05-2.84177E-05-6.22203E-07 3.91055E-19-5.30547E-20
 -1      2807 9.48616E-05-2.86025E-05-2.83982E-05-6.78140E-07 6.46306E-19 3.09490E-19
 -1      2808 9.50280E-05-2.86941E-05-2.84292E-05-7.57345E-07 7.37159E-19 9.77869E-19
 -1      2809 9.49881E-05-2.86013E-05-2.84506E-05-5.23782E-07-4.10129E-20 3.97488E-20
 -1      2810 9.49377E-05-2.86004E-05-2.84317E-05-5.69356E-07 3.59463E-20-1.62045E-20
 -1      2811 9.50677E-05-2.86776E-05-2.84531E-05-6.41753E-07 1.37224E-19 7.48420E-19
 -1      2812 9.50526E-05-2.85878E-05-2.84839E-05-4.50792E-07 4.99746E-19 1.77651E-20
 -1      2813 9.50070E-05-2.85908E-05-2.84655E-05-4.83173E-07 1.43155E-19-1.61976E-20
 -1      2814 9.51057E-05-2.86525E-05-2.84801E-05-5.46982E-07 2.09842E-19 3.72564E-19
 -1      2815 9.51142E-05-2.85690E-05-2.85181E-05-4.08508E-07-2.42149E-20 8.00701E-19
 -1      2816 9.50712E-05-2.85750E-05-2.84997E-05-4.25307E-07 2.37791E-19 2.92680E-19
 -1      2817 9.51424E-05-2.86207E-05-2.85095E-05-4.80161E-07 1.60268E-19 8.54091E-19
 -1      2818 9.51766E-05-2.85455E-05-2.85546E-05-4.01928E-07-9.77267E-20 1.16032E-18
 -1      2819 9.51333E-05-2.85540E-05-2.85352E-05-4.00763E-07 7.19049E-20 9.57624E-19
 -1      2820 9.51789E-05-2.85828E-05-2.85415E-05-4.47219E-07-3.64889E-20 1.12605E-18
 -1      2821 9.52441E-05-2.85175E-05-2.85951E-05-4.36500E-07-1.34370E-19 1.20948E-18
 -1      2822 9.51972E-05-2.85280E-05-2.85736E-05-4.14678E-07-9.12042E-20 1.13374E-18
 -1      2823 9.52170E-05-2.85387E-05-2.85769E-05-4.53886E-07-1.78160E-19 5.93890E-19
 -1      2824 9.53222E-05-2.84851E-05-2.86419E-05-5.18638E-07 5.61139E-20 8.12979E-19
 -1      2825 9.52676E-05-2.84973E-05-2.86169E-05-4.72933E-07-8.77059E-20 9.28830E-19
 -1      2826 9.52593E-05-2.84875E-05-2.86171E-05-5.06420E-07 7.72622E-20 5.29221E-19
 -1      2827 9.54172E-05-2.84484E-05-2.86976E-05-6.56020E-07-6.52041E-19 8.14239E-19
 -1      2828 9.53501E-05-2.84617E-05-2.86675E-05-5.82557E-07-1.16914E-19 9.90608E-19
 -1      2829 9.53085E-05-2.84282E-05-2.86638E-05-6.12112E-07-1.43024E-19 1.03679E-18
 -1      2830 9.55363E-05-2.84080E-05-2.87651E-05-8.57653E-07 1.27702E-19 4.31874E-19
 -1      2831 9.54514E-05-2.84215E-05-2.87281E-05-7.51918E-07-1.61607E-19 5.24781E-19
 -1      2832 9.53682E-05-2.83597E-05-2.87190E-05-7.79541E-07-1.87761E-19 8.94296E-19
 -1      2833 9.56882E-05-2.83650E-05-2.88476E-05-1.13363E-06 1.07094E-19 1.10248E-18
 -1      2834 9.55792E-05-2.83774E-05-2.88019E-05-9.90639E-07 1.86356E-19 9.00386E-19
 -1      2835 9.54427E-05-2.82812E-05-2.87848E-05-1.01857E-06-2.89862E-20 7.98203E-19
 -1      2836 9.58824E-05-2.83221E-05-2.89481E-05-1.49445E-06-1.02820E-18 7.83474E-19
 -1      2837 9.57423E-05-2.83312E-05-2.88917E-05-1.30917E-06-5.44378E-19 1.25495E-18
 -1      2838 9.55368E-05-2.81929E-05-2.88632E-05-1.33999E-06-3.09795E-19 1.56507E-18
 -1      2839 9.61300E-05-2.82845E-05-2.90693E-05-1.94973E-06-4.43322E-19 1.08621E-19
 -1      2840 9.59509E-05-2.82867E-05-2.90004E-05-1.71782E-06-6.22552E-19 6.87600E-19
 -1      2841 9.56564E-05-2.80972E-05-2.89558E-05-1.75469E-06-6.23958E-19 1.21657E-18
 -1      2842 9.64442E-05-2.82612E-05-2.92128E-05-2.50598E-06 4.90560E-19 7.61622E-19
 -1      2843 9.62172E-05-2.82506E-05-2.91301E-05-2.22512E-06 7.42504E-20 3.01900E-19
 -1      2844 9.58091E-05-2.79994E-05-2.90634E-05-2.27217E-06-2.53948E-19 1.25499E-19
 -1      2845 9.68404E-05-2.82678E-05-2.93789E-05-3.16314E-06 4.25875E-19 9.92546E-19
 -1      2846 9.65558E-05-2.82352E-05-2.92819E-05-2.83502E-06 9.37086E-19 1.08454E-18
 -1      2847 9.60051E-05-2.79110E-05-2.91854E-05-2.89817E-06 3.01143E-19 5.39083E-19
 -1      2848 9.73382E-05-2.83298E-05-2.95653E-05-3.90921E-06-8.63348E-19 4.80578E-19
 -1      2849 9.69851E-05-2.82607E-05-2.94548E-05-3.54267E-06-3.20202E-19 4.93652E-19
 -1      2850 9.62589E-05-2.78527E-05-2.93195E-05-3.63094E-06 3.20054E-19 9.24403E-19
 -1      2851 9.79643E-05-2.84884E-05-2.97661E-05-4.71244E-06-7.72216E-19-5.64059E-19
 -1      2852 9.75299E-05-2.83604E-05-2.96449E-05-4.32798E-06-9.33259E-19-1.86759E-19
 -1      2853 9.65931E-05-2.78596E-05-2.94603E-05-4.45593E-06-8.05796E-19-5.94190E-20
 -1      2854 9.87570E-05-2.88071E-05-2.99710E-05-5.51036E-06-1.79923E-19 1.09824E-19
 -1      2855 9.82260E-05-2.85871E-05-2.98446E-05-5.14639E-06-3.79947E-19-9.18143E-20
 -1      2856 9.70444E-05-2.79895E-05-2.95992E-05-5.33806E-06-6.99463E-19-8.81994E-19
 -1      2857 9.97731E-05-2.93794E-05-3.01651E-05-6.19514E-06-7.56990E-19 1.40379E-19
 -1      2858 9.91261E-05-2.90204E-05-3.00416E-05-5.91593E-06-3.64257E-19 5.85930E-19
 -1      2859 9.76724E-05-2.83316E-05-2.97239E-05-6.21105E-06-5.18983E-19 6.74097E-20
 -1      2860 1.01095E-04-3.03320E-05-3.03303E-05-6.59581E-06-8.59624E-19 3.88105E-19
 -1      2861 1.00309E-04-2.97737E-05-3.02204E-05-6.50028E-06-7.15874E-19 1.30981E-19
 -1      2862 9.85726E-05-2.90166E-05-2.98202E-05-6.96288E-06-6.10845E-19 4.18139E-20
 -1      2863 1.02833E-04-3.18134E-05-3.04511E-05-6.45993E-06-3.87572E-19 1.19779E-18
 -1      2864 1.01885E-04-3.09921E-05-3.03650E-05-6.68834E-06-6.75407E-19 1.06360E-18
 -1      2865 9.98896E-05-3.02193E-05-2.98763E-05-7.41661E-06-1.04107E-18-5.38072E-19
 -1      2866 1.05102E-04-3.39439E-05-3.05265E-05-5.44293E-06 9.34573E-19 1.66972E-18
 -1      2867 1.03988E-04-3.28254E-05-3.04684E-05-6.17422E-06-1.60028E-19 1.46103E-18
 -1      2868 1.01821E-04-3.21387E-05-2.98922E-05-7.30591E-06-4.76857E-19-3.43197E-21
 -1      2869 1.07946E-04-3.66892E-05-3.05893E-05-3.12490E-06 6.56755E-19 2.08205E-18
 -1      2870 1.06726E-04-3.53447E-05-3.05482E-05-4.55001E-06 1.39440E-18 2.10749E-18
 -1      2871 1.04590E-04-3.49240E-05-2.98981E-05-6.24911E-06 4.31139E-19 7.95651E-19
 -1      2872 1.11168E-04-3.96200E-05-3.07324E-05 8.82643E-07 6.45221E-19 2.19882E-18
 -1      2873 1.10043E-04-3.83529E-05-3.06696E-05-1.35376E-06 8.71551E-19 2.57554E-18
 -1      2874 1.08326E-04-3.84872E-05-2.99807E-05-3.74174E-06 7.36225E-19 4.01338E-19
 -1      2875 1.14089E-04-4.16545E-05-3.11224E-05 6.60733E-06 7.64441E-19 1.82199E-18
 -1      2876 1.13460E-04-4.10890E-05-3.09696E-05 3.70338E-06 7.43417E-19 2.56987E-18
 -1      2877 1.12781E-04-4.21363E-05-3.03123E-05 7.29261E-07 5.20879E-19 5.87589E-19
 -1      2878 1.15450E-04-4.10004E-05-3.19689E-05 1.32883E-05 1.39357E-18 1.42592E-18
 -1      2879 1.15923E-04-4.20858E-05-3.16470E-05 1.03312E-05 1.30422E-18 2.31327E-18
 -1      2880 1.17072E-04-4.44281E-05-3.11543E-05 7.28950E-06 8.22246E-19 1.14901E-18
 -1      2881 1.13756E-04-3.59330E-05-3.33407E-05 1.83187E-05-2.13121E-19 3.10783E-19
 -1      2882 1.15592E-04-3.91225E-05-3.28636E-05 1.67870E-05 8.00592E-19 1.35004E-18
 -1      2883 1.19220E-04-4.27923E-05-3.27789E-05 1.50633E-05 1.37514E-18 2.04237E-18
 -1      2884 1.09278E-04-2.75323E-05-3.49771E-05 1.84066E-05 9.15391E-19-1.12284E-18
 -1      2885 1.11969E-04-3.20338E-05-3.44479E-05 1.94674E-05-5.22490E-19-1.41385E-18
 -1      2886 1.17367E-04-3.52850E-05-3.52384E-05 2.05859E-05 1.07846E-18-4.31060E-20
 -1      2887 1.04573E-04-2.03852E-05-3.61313E-05 1.14819E-05-8.83879E-19-6.71647E-19
 -1      2888 1.06549E-04-2.33212E-05-3.58919E-05 1.53326E-05-1.53419E-19-6.94230E-19
 -1      2889 1.12554E-04-2.53082E-05-3.73986E-05 1.88143E-05-1.17592E-19-1.15943E-18
 -1      2890 1.03594E-04-1.99786E-05-3.60269E-05 8.32178E-07 8.74747E-19-1.60942E-18
 -1      2891 1.03710E-04-1.92325E-05-3.62820E-05 5.39416E-06 1.46643E-20-1.21052E-18
 -1      2892 1.08519E-04-1.82197E-05-3.87528E-05 9.13668E-06 1.27055E-19-1.40971E-18
 -1      2893 1.06695E-04-2.62227E-05-3.46924E-05-6.99480E-06 6.85190E-19-2.07521E-18
 -1      2894 1.05260E-04-2.26893E-05-3.53301E-05-4.28210E-06 8.40230E-19-1.42932E-18
 -1      2895 1.09120E-04-1.99348E-05-3.82773E-05-2.45696E-06 4.76006E-19-2.32777E-18
 -1      2896 1.09700E-04-3.34503E-05-3.28342E-05-8.01977E-06 1.47729E-18-2.37715E-18
 -1      2897 1.08501E-04-3.01753E-05-3.35433E-05-8.04078E-06 1.19446E-18-1.98548E-18
 -1      2898 1.13211E-04-2.89901E-05-3.61227E-05-8.20948E-06 9.71706E-19-2.39574E-18
 -1      2899 1.09445E-04-3.67225E-05-3.12424E-05-4.40305E-06 1.89817E-18-9.57784E-19
 -1      2900 1.09648E-04-3.55557E-05-3.17753E-05-5.99154E-06 1.81414E-18-1.32195E-18
 -1      2901 1.15184E-04-3.67288E-05-3.35832E-05-6.61082E-06 1.16411E-18-2.79786E-18
 -1      2902 1.07296E-04-3.63806E-05-3.04151E-05 6.80317E-09 3.86647E-19 6.25095E-19
 -1      2903 1.08691E-04-3.70108E-05-3.07822E-05-1.69616E-06 1.40958E-18-2.05459E-19
 -1      2904 1.14366E-04-3.97125E-05-3.18976E-05-1.31900E-06 8.81864E-19-2.57604E-19
 -1      2905 1.11184E-04-3.85663E-05-3.10082E-05 4.12398E-06-4.55207E-19-2.31501E-19
 -1      2906 1.31113E-04-6.25022E-05-2.96002E-05 3.41163E-05 7.20137E-19 8.90787E-19
 -1      2907 1.17350E-04-5.86261E-05-2.46134E-05 4.40048E-05 1.51926E-18 8.49428E-19
 -1      2908 5.49852E-05-9.87216E-06-1.92587E-05 1.58651E-05-1.63255E-18 1.48750E-18
 -1      2909 6.41209E-05-1.46361E-05-2.03928E-05 2.81193E-05-1.20633E-18 1.78364E-18
 -1      2910 1.35447E-04-6.56976E-05-3.02667E-05 1.28632E-05 4.08270E-19 3.51640E-18
 -1      2911 1.23079E-04-6.44390E-05-2.49409E-05 2.33192E-05 1.38966E-18 9.65829E-19
 -1      2912 1.02501E-04-3.86832E-05-2.73978E-05 3.80160E-05-6.49079E-19 2.56572E-19
 -1      2913 1.11024E-04-4.32684E-05-2.88054E-05 3.41079E-05 5.57851E-19-1.37788E-18
 -1      2914 7.68582E-05-2.40453E-05-2.27720E-05 3.76053E-05-4.39610E-19 4.52421E-18
 -1      2915 9.09149E-05-3.16272E-05-2.47388E-05 4.08142E-05-1.87671E-18 4.10647E-18
 -1      2916 7.38562E-05-2.21617E-05-2.17147E-05-3.60854E-05-1.52095E-19-1.88730E-19
 -1      2917 6.23017E-05-1.52590E-05-1.99305E-05-2.86530E-05-7.21725E-19 1.08696E-18
 -1      2918 1.10718E-04-4.61169E-05-2.75829E-05-3.79145E-05 9.48624E-19 1.02724E-18
 -1      2919 1.00451E-04-4.01385E-05-2.56354E-05-3.98924E-05 7.32710E-19 9.71653E-19
 -1      2920 1.19669E-04-4.78760E-05-3.08110E-05-2.20283E-05-8.70326E-20 9.46731E-19
 -1      2921 1.17145E-04-4.68073E-05-2.99293E-05-2.81049E-05 5.92248E-19 5.83047E-19
 -1      2922 1.24334E-04-5.59675E-05-2.91352E-05-3.08107E-05 5.60339E-19 5.88291E-19
 -1      2923 1.13948E-04-4.14209E-05-3.11446E-05-9.55676E-06-2.54308E-19-8.02981E-19
 -1      2924 1.15531E-04-4.28476E-05-3.10796E-05-1.54912E-05 5.91335E-20 1.19612E-18
 -1      2925 1.23721E-04-4.97250E-05-3.16492E-05-1.43496E-05 8.84620E-20 9.64201E-19
 -1      2926 1.12185E-04-3.98742E-05-3.09645E-05-5.15504E-06-1.35148E-19-2.40676E-19
 -1      2927 7.34925E-05-3.63999E-05-1.54150E-05-4.68272E-05-2.03140E-18 1.44949E-18
 -1      2928 9.26051E-05-4.69474E-05-1.95553E-05-5.06949E-05-3.84976E-19 1.90445E-18
 -1      2929 1.02973E-04-4.81223E-05-2.33075E-05-4.53348E-05-2.01594E-19 1.63869E-18
 -1      2930 7.48116E-05-3.04474E-05-1.82989E-05-4.15499E-05-1.62387E-18 1.08134E-18
 -1      2931 1.03467E-04-5.78546E-05-1.94732E-05 3.45751E-05 6.15475E-19 4.10811E-20
 -1      2932 8.22226E-05-4.91056E-05-1.37135E-05 3.90409E-05-2.18429E-19 5.91070E-19
 -1      2933 5.55371E-05-2.36259E-05-1.35279E-05 3.70599E-05-7.73553E-19 2.81681E-18
 -1      2934 4.64315E-05-1.44230E-05-1.26175E-05 2.31700E-05-2.51309E-18 2.40896E-18
 -1      2935 1.31382E-04-1.18664E-05-5.18327E-05 1.12068E-06-1.10686E-18 9.57677E-20
 -1      2936 1.29948E-04-9.49215E-06-5.22698E-05-6.18446E-06-1.28580E-18 7.34751E-19
 -1      2937 9.47264E-05-2.74152E-05-2.88505E-05 3.85728E-07 4.90137E-19 3.61159E-19
 -1      2938 9.49070E-05-2.71219E-05-2.90230E-05 9.90529E-07 4.47549E-19 3.80871E-19
 -1      2939 9.51306E-05-2.73825E-05-2.90445E-05 3.73497E-07 5.14570E-19 1.13260E-19
 -1      2940 9.44741E-05-2.83143E-05-2.83535E-05-1.09402E-06 1.76283E-19 5.46562E-19
 -1      2941 9.44441E-05-2.82245E-05-2.83735E-05-1.02588E-06 3.38679E-19 2.71246E-19
 -1      2942 9.49308E-05-2.82428E-05-2.85868E-05-9.03739E-07 1.96977E-19 1.70566E-19
 -1      2943 9.48962E-05-2.84495E-05-2.84816E-05-1.10988E-06 8.35918E-21 3.70971E-19
 -1      2944 9.52465E-05-2.39891E-05-3.05181E-05-5.29950E-06-6.32462E-20-7.24491E-19
 -1      2945 9.51674E-05-2.50062E-05-3.00893E-05-3.80074E-06-1.32349E-20-7.50524E-19
 -1      2946 9.52053E-05-2.46917E-05-3.02199E-05-3.53580E-06-9.14775E-20-7.24121E-19
 -1      2947 1.18637E-04-6.34722E-05-2.33466E-05-2.84038E-05-2.00217E-18-1.04405E-18
 -1      2948 1.31103E-04-6.58255E-05-2.83037E-05-2.00788E-05-1.34837E-18-1.11994E-18
 -1      2949 9.81956E-05-4.97283E-05-2.08412E-05 5.01726E-05 1.54478E-18 2.57932E-18
 -1      2950 7.90235E-05-3.85872E-05-1.66422E-05 4.83603E-05 1.31714E-19 3.84945E-18
 -1      2951 9.49815E-05-2.66903E-05-2.92733E-05 1.77918E-06 5.26154E-19 3.76796E-19
 -1      2952 9.52491E-05-2.61932E-05-2.95583E-05 2.78795E-06 5.41782E-19 4.18708E-19
 -1      2953 9.52732E-05-2.50214E-05-3.01049E-05 3.81996E-06 6.46175E-19 2.69355E-19
 -1      2954 9.52548E-05-2.65019E-05-2.94720E-05 1.73373E-06 5.29065E-19 2.35023E-19
 -1      2955 9.11740E-05-1.60883E-05-3.22075E-05 4.91707E-06 9.90707E-19-1.04228E-19
 -1      2956 9.08307E-05-1.55892E-05-3.22680E-05 3.99482E-06 9.25450E-19-2.85222E-19
 -1      2957 9.18086E-05-1.72006E-05-3.19595E-05 3.19811E-06 8.64902E-19-3.11438E-19
 -1      2958 9.24779E-05-1.82608E-05-3.17876E-05 4.61539E-06 8.98380E-19-3.24040E-20
 -1      2959 9.07942E-05-1.55402E-05-3.22733E-05-3.93207E-06 3.92849E-19-9.10615E-19
 -1      2960 9.11296E-05-1.60264E-05-3.22145E-05-4.85637E-06 3.01710E-19-9.83106E-19
 -1      2961 1.44297E-04-5.38610E-05-3.93608E-05-1.07701E-05 2.82088E-19 2.96864E-18
 -1      2962 1.42606E-04-6.14174E-05-3.46173E-05-6.90551E-07-2.40154E-19 3.20073E-18
 -1      2963 1.30587E-04-1.61799E-05-4.98491E-05-4.72042E-06 2.05638E-18 1.17902E-18
 -1      2964 1.36989E-04-2.46923E-05-4.85319E-05-8.28143E-06 2.25057E-18 9.59053E-19
 -1      2965 6.55508E-05-3.89617E-05-1.11498E-05 3.80144E-05 4.60045E-19-5.39772E-19
 -1      2966 5.12370E-05-2.80621E-05-9.30874E-06 2.99281E-05 1.12227E-18-1.80079E-18
 -1      2967 7.94128E-05-4.21554E-05-1.54131E-05 3.42136E-05 7.51001E-19 2.62898E-19
 -1      2968 3.86082E-05-2.01019E-05-7.52951E-06 1.90325E-05 1.54393E-18-9.31101E-19
 -1      2969 3.24477E-05-1.66911E-05-6.11261E-06 4.97376E-06 1.25984E-18 5.86570E-20
 -1      2970 1.40056E-04-6.41558E-05-3.24108E-05-8.14705E-06-1.35636E-18-1.54573E-18
 -1      2971 1.43705E-04-5.77515E-05-3.73182E-05 4.73298E-06-4.98221E-19-5.24419E-19
 -1      2972 8.72443E-05-5.05637E-05-1.53045E-05-3.89670E-05-1.74552E-18-1.30178E-18
 -1      2973 1.04055E-04-5.86015E-05-1.94306E-05-3.64803E-05-1.90371E-18-3.97735E-19
 -1      2974 3.18261E-05-1.66315E-05-5.89477E-06-5.02318E-06 7.75895E-19 2.06888E-19
 -1      2975 3.67806E-05-1.94263E-05-6.90630E-06-1.73166E-05-2.33993E-19 1.82324E-19
 -1      2976 4.07904E-05-1.63059E-05-9.83021E-06 6.49429E-07 6.32201E-19 8.05952E-19
 -1      2977 1.42333E-04-3.60407E-05-4.62851E-05-6.59106E-06 1.45944E-18 6.25957E-19
 -1      2978 1.46513E-04-4.80369E-05-4.23446E-05-1.01967E-06 9.17443E-19 1.31290E-19
 -1      2979 1.39564E-04-6.37440E-05-3.20730E-05-2.41823E-05-3.58401E-19 1.13725E-18
 -1      2980 1.46293E-04-6.06819E-05-3.73215E-05-1.28792E-05 4.11473E-19 1.72117E-18
 -1      2981 3.91771E-05-1.19320E-05-1.13218E-05 7.35936E-06-3.01658E-18 3.01120E-19
 -1      2982 3.96997E-05-1.24429E-05-1.09843E-05-1.24145E-05-2.12388E-18-2.40557E-19
 -1      2983 5.10533E-05-1.44017E-05-1.48985E-05-2.06970E-05-1.44499E-18 3.15943E-19
 -1      2984 4.74045E-05-1.14192E-05-1.47504E-05 1.05405E-05-3.20758E-18 8.91926E-19
 -1      2985 1.40555E-04-3.31991E-05-4.65623E-05-2.11208E-05-1.13862E-18 1.67713E-18
 -1      2986 1.44294E-04-4.44660E-05-4.29618E-05-1.82174E-05-1.06197E-19 2.94153E-18
 -1      2987 1.40722E-04-5.03391E-05-3.89493E-05-1.53093E-05 4.00355E-19 3.56199E-18
 -1      2988 1.42349E-04-4.57966E-05-4.17030E-05 1.52653E-05-8.91502E-20 1.48866E-18
 -1      2989 1.42376E-04-3.52397E-05-4.64834E-05 1.87743E-05 7.91129E-19 2.68022E-18
 -1      2990 1.34865E-04-3.12982E-05-4.46705E-05 2.15062E-05 6.79744E-19 3.14366E-18
 -1      2991 1.47546E-04-5.21580E-05-4.09025E-05-1.00987E-06 4.38498E-19 1.41042E-18
 -1      2992 1.43372E-04-4.11687E-05-4.45204E-05 5.54142E-06-6.75509E-19 1.10008E-18
 -1      2993 1.14171E-04-4.12790E-05-3.13021E-05-3.83916E-06 2.48849E-20 6.26301E-19
 -1      2994 1.47346E-04-5.70440E-05-3.92078E-05 8.09069E-06 7.84101E-19-6.96685E-20
 -1      2995 1.41996E-04-6.15508E-05-3.44762E-05 1.83417E-05 6.96976E-19-6.04729E-19
 -1      2996 1.41785E-04-5.07895E-05-3.91484E-05 3.13407E-07-8.52856E-20-3.78094E-19
 -1      2997 9.43390E-05-2.09704E-05-3.14677E-05-8.01462E-06-1.19064E-19-9.73041E-19
 -1      2998 9.48021E-05-2.27904E-05-3.08729E-05-6.31358E-06-1.10381E-19-8.67158E-19
 -1      2999 9.46110E-05-2.24315E-05-3.09318E-05-5.71509E-06-1.65072E-20-7.18628E-19
 -1      3000 9.35111E-05-1.95894E-05-3.16822E-05-7.83431E-06-2.75319E-20-1.00078E-18
 -1      3001 9.15583E-05-1.66761E-05-3.21137E-05-5.58355E-06 2.90209E-19-1.01846E-18
 -1      3002 9.20774E-05-1.74509E-05-3.20145E-05-6.40464E-06 2.16749E-19-1.01321E-18
 -1      3003 9.24276E-05-1.81853E-05-3.17967E-05-4.57756E-06 1.91929E-19-9.15978E-19
 -1      3004 9.12831E-05-1.63906E-05-3.20847E-05 2.84475E-08 5.96989E-19-4.37634E-19
 -1      3005 9.01605E-05-1.46007E-05-3.24022E-05-3.82968E-07 5.68857E-19-5.78087E-19
 -1      3006 9.02174E-05-1.46812E-05-3.23923E-05-1.34050E-06 5.69511E-19-6.86168E-19
 -1      3007 1.27519E-04-1.44367E-05-4.89063E-05 1.44524E-05 4.51680E-19 2.30832E-18
 -1      3008 9.43560E-05-2.14244E-05-3.12606E-05 7.21476E-06 7.40327E-19 4.62844E-19
 -1      3009 1.34472E-04-3.52902E-05-4.28546E-05 7.64438E-06-1.06202E-18 6.95626E-19
 -1      3010 1.31292E-04-5.99010E-05-3.03120E-05-2.82479E-05 1.90794E-19 8.36127E-19
 -1      3011 1.20391E-04-4.52480E-05-3.22222E-05-5.44611E-06 5.56157E-19 1.20486E-18
 -1      3012 1.37692E-04-6.26201E-05-3.21631E-05 2.41043E-05 3.32355E-19-9.43171E-19
 -1      3013 1.29110E-04-5.84931E-05-3.00258E-05 2.89934E-05 7.87211E-20-1.41991E-18
 -1      3014 1.37422E-04-5.78271E-05-3.42149E-05 1.36567E-05 8.90708E-20-1.51534E-18
 -1      3015 1.14668E-04-4.18680E-05-3.12284E-05 9.29277E-06 1.03065E-19-5.96003E-19
 -1      3016 1.16911E-04-4.32516E-05-3.16311E-05 6.63252E-06 4.09971E-19-7.53226E-19
 -1      3017 1.16400E-04-4.31762E-05-3.13169E-05 1.46235E-05 8.65734E-19-8.94804E-19
 -1      3018 5.15206E-05-7.71643E-06-1.82659E-05 2.16447E-07-1.75916E-18-3.18061E-19
 -1      3019 6.82278E-05-2.35363E-05-1.86312E-05 3.67224E-05-4.68409E-19 3.50312E-18
 -1      3020 1.20772E-04-6.06033E-05-2.56702E-05 1.87124E-05 1.51823E-18 1.96901E-18
 -1      3021 1.14348E-04-6.09735E-05-2.27043E-05 2.81719E-05 1.42312E-18 1.86324E-19
 -1      3022 1.03269E-04-5.39761E-05-2.08719E-05 3.00327E-05 6.67594E-19 1.05450E-18
 -1      3023 9.94567E-05-4.11390E-05-2.46586E-05 4.22554E-05-6.01393E-20 1.05360E-18
 -1      3024 5.44855E-05-9.85409E-06-1.87637E-05-1.44440E-05-6.40833E-19-8.15269E-21
 -1      3025 7.88876E-05-4.43468E-05-1.43690E-05-3.81327E-05-6.94673E-19-1.18690E-18
 -1      3026 9.05141E-05-4.78426E-05-1.80409E-05-3.42121E-05-3.57713E-19-7.54442E-19
 -1      3027 7.05900E-05-3.65929E-05-1.41541E-05-3.47580E-05 8.83561E-19-8.81444E-19
 -1      3028 1.34338E-04-6.41490E-05-2.99540E-05-1.08012E-05-1.05313E-18-1.80439E-18
 -1      3029 1.24322E-04-1.58115E-05-4.67459E-05 3.90286E-06-1.40173E-18 7.13519E-19
 -1      3030 4.52509E-05-2.24972E-05-9.04117E-06-2.29201E-05 2.20229E-19-2.44898E-19
 -1      3031 5.54259E-05-2.63596E-05-1.20915E-05-2.71807E-05 7.72309E-19-1.08092E-18
 -1      3032 4.57427E-05-1.82638E-05-1.14767E-05-1.54009E-05 1.68300E-18-1.33619E-19
 -1      3033 1.36467E-04-6.27827E-05-3.16605E-05 3.63053E-06 8.18022E-19 2.65195E-18
 -1      3034 1.09058E-04-5.14922E-05-2.42403E-05 4.40255E-05 9.10984E-19 1.56725E-18
 -1      3035 1.32649E-04-2.83462E-05-4.53212E-05-2.21042E-05-7.80435E-19 1.97465E-18
 -1      3036 1.31109E-04-3.52696E-05-4.13167E-05-2.23219E-05 3.05249E-19 2.57477E-18
 -1      3037 9.03429E-05-1.48723E-05-3.23647E-05-2.17719E-06 5.46853E-19-6.59854E-19
 -1      3038 9.05280E-05-1.51361E-05-3.23327E-05-3.12802E-06 4.69397E-19-7.20054E-19
 -1      3039 9.17772E-05-1.71577E-05-3.19648E-05-3.14253E-06 3.30977E-19-7.29232E-19
 -1      3040 9.14016E-05-1.65740E-05-3.20562E-05-1.58281E-06 4.84252E-19-6.78076E-19
 -1      3041 1.20636E-04-1.31893E-05-4.65150E-05-9.68440E-06-1.00924E-18 1.60145E-18
 -1      3042 1.26951E-04-1.24669E-05-4.98877E-05-1.27957E-05-1.21729E-18 1.29215E-18
 -1      3043 1.14826E-04-4.40647E-05-3.02344E-05 2.70954E-05 1.08286E-18-1.65121E-18
 -1      3044 1.16946E-04-4.49048E-05-3.08156E-05 2.09953E-05 6.80962E-19-6.76235E-19
 -1      3045 1.21334E-04-4.84728E-05-3.12807E-05 1.83203E-05 1.06220E-18-8.51414E-19
 -1      3046 1.17674E-04-4.93882E-05-2.91413E-05 3.14349E-05 6.74185E-19-8.69201E-19
 -1      3047 1.13606E-04-6.03715E-05-2.25446E-05-2.88078E-05-1.39136E-18-1.52879E-18
 -1      3048 1.33995E-04-3.21605E-05-4.40126E-05-8.05119E-06 1.66574E-18 1.13185E-19
 -1      3049 5.17140E-05-2.35483E-05-1.14579E-05 2.23059E-05 1.04937E-18-1.58395E-18
 -1      3050 1.38119E-04-5.71039E-05-3.48197E-05 6.14361E-06 5.10724E-19-7.80117E-19
 -1      3051 1.42474E-04-5.34819E-05-3.84484E-05 1.12337E-05 9.76603E-20 2.03288E-20
 -1      3052 1.36831E-04-4.64210E-05-3.89994E-05 1.74782E-05 1.50142E-18 2.57392E-18
 -1      3053 9.46152E-05-2.24673E-05-3.09132E-05 5.69062E-06 7.49041E-19 2.41334E-19
 -1      3054 1.41822E-04-5.53443E-05-3.73000E-05-5.01959E-06 4.89975E-19 6.68203E-19
 -1      3055 1.28962E-04-1.83777E-05-4.78802E-05-1.89318E-05-1.21422E-18 2.00122E-18
 -1      3056 1.34011E-04-4.52236E-05-3.82359E-05 6.03186E-06-4.61580E-19 7.15161E-19
 -1      3057 1.26914E-04-3.36179E-05-4.02197E-05 9.07213E-06-1.08748E-18 3.27061E-19
 -1      3058 9.42769E-05-2.18599E-05-3.10596E-05 4.96684E-06 8.29816E-19 8.98488E-20
 -1      3059 9.38084E-05-2.09068E-05-3.12449E-05 4.61781E-06 8.71960E-19 3.97932E-20
 -1      3060 9.24338E-05-1.79650E-05-3.19366E-05-6.91714E-06 1.28815E-19-9.56108E-19
 -1      3061 9.30723E-05-1.89460E-05-3.17976E-05-7.42701E-06 2.76411E-20-9.51721E-19
 -1      3062 9.38221E-05-2.05036E-05-3.14017E-05-6.42677E-06-1.79610E-20-8.74601E-19
 -1      3063 9.31911E-05-1.93903E-05-3.16006E-05-5.66457E-06 1.27568E-19-8.80748E-19
 -1      3064 9.49768E-05-2.34996E-05-3.06130E-05-4.12579E-06-9.29470E-20-7.12354E-19
 -1      3065 9.51667E-05-2.46000E-05-3.02601E-05-2.97367E-06-1.58396E-19-8.60295E-19
 -1      3066 1.13840E-04-1.49481E-05-4.30257E-05-4.85653E-06-9.79911E-19 1.89365E-18
 -1      3067 9.56804E-05-2.68802E-05-2.94712E-05-7.43466E-07-1.99950E-19-6.06581E-19
 -1      3068 9.56558E-05-2.73284E-05-2.92913E-05-2.18947E-07-3.58721E-20-5.88630E-19
 -1      3069 9.56997E-05-2.77142E-05-2.91254E-05 1.60943E-07-4.56329E-20-6.46472E-19
 -1      3070 9.56625E-05-2.80009E-05-2.90025E-05 4.75522E-07-1.07986E-19-7.81798E-19
 -1      3071 9.58956E-05-2.73315E-05-2.93877E-05-1.63635E-07-1.36713E-19-3.86752E-19
 -1      3072 9.56548E-05-2.82396E-05-2.88843E-05 6.96696E-07 2.46283E-20-6.59352E-19
 -1      3073 9.56224E-05-2.84208E-05-2.88030E-05 8.63949E-07 2.27018E-19-5.56773E-19
 -1      3074 9.59368E-05-2.80566E-05-2.90951E-05 4.70493E-07-9.99234E-21-4.00944E-19
 -1      3075 9.55906E-05-2.85628E-05-2.87210E-05 9.72262E-07 3.46058E-19-6.87284E-19
 -1      3076 9.55674E-05-2.86735E-05-2.86695E-05 1.04060E-06 3.10233E-19-3.60746E-19
 -1      3077 9.59032E-05-2.85087E-05-2.88868E-05 8.26876E-07 2.50439E-19-5.50418E-19
 -1      3078 9.55261E-05-2.87514E-05-2.86146E-05 1.07310E-06 4.09816E-19-2.89690E-19
 -1      3079 9.55116E-05-2.88146E-05-2.85842E-05 1.07825E-06 3.46929E-19-1.21429E-19
 -1      3080 9.58356E-05-2.87765E-05-2.87426E-05 9.88508E-07 4.93052E-19-4.39673E-19
 -1      3081 9.54685E-05-2.88501E-05-2.85491E-05 1.06310E-06 1.62358E-19 9.94643E-20
 -1      3082 9.54609E-05-2.88811E-05-2.85334E-05 1.03075E-06 1.39962E-19 2.75316E-19
 -1      3083 9.57557E-05-2.89203E-05-2.86462E-05 1.02151E-06 4.89676E-19-3.44526E-19
 -1      3084 9.54199E-05-2.88887E-05-2.85127E-05 9.88533E-07-2.34215E-19 2.76255E-19
 -1      3085 9.54171E-05-2.88979E-05-2.85071E-05 9.36823E-07-3.03113E-19-1.24938E-19
 -1      3086 9.56752E-05-2.89810E-05-2.85852E-05 9.75677E-07-1.44057E-19-1.86025E-19
 -1      3087 9.53800E-05-2.88877E-05-2.84968E-05 8.82230E-07-4.33776E-19-1.08672E-19
 -1      3088 9.53805E-05-2.88823E-05-2.84979E-05 8.23779E-07-3.61289E-19-3.56988E-19
 -1      3089 9.55998E-05-2.89869E-05-2.85500E-05 8.87281E-07-3.96836E-19-1.04394E-19
 -1      3090 9.53480E-05-2.88607E-05-2.84950E-05 7.67070E-07-2.87303E-19-4.57136E-19
 -1      3091 9.53505E-05-2.88455E-05-2.85008E-05 7.10597E-07-3.61027E-19-5.62401E-19
 -1      3092 9.55322E-05-2.89570E-05-2.85334E-05 7.82077E-07-2.99534E-19-6.63011E-20
 -1      3093 9.53224E-05-2.88165E-05-2.85033E-05 6.58920E-07-5.56178E-19-5.67683E-19
 -1      3094 9.53263E-05-2.87945E-05-2.85123E-05 6.10518E-07-6.55460E-19-5.96468E-19
 -1      3095 9.54728E-05-2.89040E-05-2.85305E-05 6.78133E-07-4.55617E-19-7.19556E-19
 -1      3096 9.53019E-05-2.87604E-05-2.85187E-05 5.68965E-07-8.86380E-19-5.72837E-19
 -1      3097 9.53068E-05-2.87332E-05-2.85301E-05 5.33071E-07-1.22287E-18-6.04483E-19
 -1      3098 9.54211E-05-2.88353E-05-2.85375E-05 5.88215E-07-8.61997E-19-8.17552E-19
 -1      3099 9.52850E-05-2.86949E-05-2.85397E-05 5.05496E-07-1.08518E-18-1.11500E-19
 -1      3100 9.52907E-05-2.86632E-05-2.85531E-05 4.85646E-07-7.92170E-19 1.94758E-19
 -1      3101 9.53753E-05-2.87550E-05-2.85521E-05 5.21678E-07-7.18384E-19-4.36961E-20
 -1      3102 9.52703E-05-2.86204E-05-2.85655E-05 4.75307E-07-7.45108E-19 6.20012E-19
 -1      3103 9.52769E-05-2.85839E-05-2.85810E-05 4.74709E-07-3.84813E-19 5.90103E-19
 -1      3104 9.53333E-05-2.86639E-05-2.85730E-05 4.85937E-07-7.13341E-19 8.52745E-19
 -1      3105 9.52563E-05-2.85356E-05-2.85959E-05 4.84762E-07-2.14637E-19 3.38884E-19
 -1      3106 9.52637E-05-2.84934E-05-2.86140E-05 5.06733E-07 1.80115E-19-5.36506E-20
 -1      3107 9.52923E-05-2.85609E-05-2.85995E-05 4.87626E-07-4.02141E-19 8.66359E-19
 -1      3108 9.52411E-05-2.84380E-05-2.86315E-05 5.40598E-07 7.90791E-19-1.02080E-19
 -1      3109 9.52498E-05-2.83889E-05-2.86525E-05 5.88873E-07 7.86050E-19 7.01305E-20
 -1      3110 9.52489E-05-2.84431E-05-2.86312E-05 5.33457E-07 3.96567E-19 1.64970E-19
 -1      3111 9.52229E-05-2.83240E-05-2.86729E-05 6.50488E-07 4.20254E-19 1.33419E-19
 -1      3112 9.52330E-05-2.82665E-05-2.86974E-05 7.29417E-07 4.41592E-19 1.24411E-19
 -1      3113 9.51993E-05-2.83064E-05-2.86684E-05 6.30851E-07 6.80688E-19-9.41623E-20
 -1      3114 9.51995E-05-2.81898E-05-2.87208E-05 8.23380E-07 3.16103E-19 2.89576E-19
 -1      3115 9.52113E-05-2.81223E-05-2.87494E-05 9.38001E-07 6.50515E-19 1.66654E-19
 -1      3116 9.51388E-05-2.81456E-05-2.87112E-05 7.88318E-07 4.32611E-19 6.51677E-20
 -1      3117 9.51682E-05-2.80310E-05-2.87759E-05 1.06959E-06 9.67208E-19 1.56737E-20
 -1      3118 9.51820E-05-2.79522E-05-2.88093E-05 1.22556E-06 5.80215E-19-1.33998E-19
 -1      3119 9.50622E-05-2.79555E-05-2.87596E-05 1.01561E-06 6.75551E-19 1.48888E-19
 -1      3120 9.51262E-05-2.78443E-05-2.88386E-05 1.40064E-06 9.32606E-20 3.61285E-19
 -1      3121 9.51425E-05-2.77534E-05-2.88769E-05 1.60398E-06 1.22838E-19 8.65740E-19
 -1      3122 9.49634E-05-2.77309E-05-2.88132E-05 1.32364E-06 6.34986E-19-1.02488E-19
 -1      3123 9.50704E-05-2.76275E-05-2.89083E-05 1.82871E-06-1.26183E-19 7.34757E-19
 -1      3124 9.50900E-05-2.75254E-05-2.89514E-05 2.08533E-06-4.67814E-19 7.21459E-19
 -1      3125 9.48360E-05-2.74684E-05-2.88708E-05 1.72406E-06 1.70614E-19 5.05618E-19
 -1      3126 9.49985E-05-2.73821E-05-2.89835E-05 2.36575E-06-5.79157E-19 5.31402E-19
 -1      3127 9.50226E-05-2.72720E-05-2.90305E-05 2.68065E-06-1.16075E-19 5.54488E-19
 -1      3128 9.46735E-05-2.71673E-05-2.89296E-05 2.22856E-06-3.46958E-19 6.12997E-19
 -1      3129 9.49096E-05-2.71151E-05-2.90607E-05 3.02201E-06 1.71893E-19 1.21238E-20
 -1      3130 9.49414E-05-2.70047E-05-2.91096E-05 3.39811E-06 3.82421E-19 1.45710E-19
 -1      3131 9.44704E-05-2.68328E-05-2.89853E-05 2.84786E-06-4.36215E-19-2.44694E-19
 -1      3132 9.48072E-05-2.68438E-05-2.91339E-05 3.80409E-06 4.48986E-19-9.78505E-20
 -1      3133 9.48531E-05-2.67479E-05-2.91811E-05 4.24056E-06 4.93606E-20-5.60488E-19
 -1      3134 9.42248E-05-2.64796E-05-2.90308E-05 3.59033E-06 1.50996E-19-1.15917E-18
 -1      3135 9.47038E-05-2.66018E-05-2.91937E-05 4.71232E-06 7.30352E-20 1.04885E-19
 -1      3136 9.47772E-05-2.65469E-05-2.92339E-05 5.20241E-06 9.71975E-20 4.17063E-19
 -1      3137 9.39424E-05-2.61385E-05-2.90556E-05 4.46058E-06 4.16413E-19-1.33213E-18
 -1      3138 9.46292E-05-2.64496E-05-2.92268E-05 5.73755E-06-1.41244E-19 4.79747E-19
 -1      3139 9.47559E-05-2.64799E-05-2.92525E-05 6.26567E-06 4.23052E-19 4.35115E-19
 -1      3140 9.36444E-05-2.58653E-05-2.90450E-05 5.45816E-06 3.98459E-20 3.19459E-20
 -1      3141 9.46447E-05-2.64876E-05-2.92158E-05 6.85718E-06-1.48391E-19 2.73445E-19
 -1      3142 9.48726E-05-2.66740E-05-2.92177E-05 7.39506E-06-4.59790E-19 5.54966E-20
 -1      3143 9.33797E-05-2.57547E-05-2.89803E-05 6.57672E-06 2.72068E-20 2.41991E-19
 -1      3144 9.48659E-05-2.68761E-05-2.91404E-05 8.02962E-06 5.96782E-20-1.62281E-19
 -1      3145 9.52784E-05-2.73264E-05-2.91095E-05 8.53065E-06 2.23618E-19 1.13554E-19
 -1      3146 9.32459E-05-2.59585E-05-2.88395E-05 7.80347E-06-2.66618E-19-2.94707E-19
 -1      3147 9.54960E-05-2.78564E-05-2.89826E-05 9.18377E-06-4.36198E-19 1.43703E-19
 -1      3148 9.62287E-05-2.87237E-05-2.89141E-05 9.57279E-06-1.35507E-18 3.00168E-19
 -1      3149 9.34214E-05-2.67096E-05-2.86011E-05 9.11687E-06-3.05991E-19-5.18471E-19
 -1      3150 9.68705E-05-2.97670E-05-2.87379E-05 1.01933E-05-9.16434E-19 3.99638E-19
 -1      3151 9.81215E-05-3.12447E-05-2.86418E-05 1.03472E-05-1.17679E-19 7.19117E-19
 -1      3152 9.42126E-05-2.83477E-05-2.82542E-05 1.04731E-05-6.87072E-19-1.37224E-19
 -1      3153 9.94961E-05-3.30260E-05-2.84408E-05 1.08127E-05-5.46512E-19 1.24815E-18
 -1      3154 1.01506E-04-3.52934E-05-2.83578E-05 1.05212E-05-2.55031E-19 9.77902E-19
 -1      3155 9.61129E-05-3.13278E-05-2.78198E-05 1.17567E-05-1.09774E-19 7.63670E-20
 -1      3156 1.04034E-04-3.80080E-05-2.82056E-05 1.05573E-05-2.51496E-20 3.84944E-19
 -1      3157 1.07006E-04-4.10954E-05-2.82376E-05 9.46924E-06-2.00714E-19 4.67153E-19
 -1      3158 9.98474E-05-3.61614E-05-2.73922E-05 1.26595E-05-6.89474E-19 1.17089E-19
 -1      3159 1.11082E-04-4.46854E-05-2.83166E-05 8.50097E-06-4.37145E-19 8.45494E-20
 -1      3160 1.14902E-04-4.80924E-05-2.86674E-05 6.12008E-06-7.37729E-19-4.49698E-19
 -1      3161 1.06250E-04-4.30543E-05-2.72202E-05 1.23999E-05-5.27625E-19 2.94172E-19
 -1      3162 1.20658E-04-5.17720E-05-2.93520E-05 3.03224E-06-4.42502E-19-4.13458E-20
 -1      3163 1.24151E-04-5.38174E-05-3.01767E-05-8.49386E-07-2.47228E-19 1.84223E-19
 -1      3164 1.16084E-04-5.15241E-05-2.78542E-05 9.57617E-06-5.46455E-19 7.09456E-19
 -1      3165 1.33270E-04-4.41901E-05-3.86416E-05-1.97464E-05 3.06388E-19 2.62061E-18
 -1      3166 1.36572E-04-5.12766E-05-3.68051E-05-1.46060E-06 4.74471E-19 1.36044E-18
 -1      3167 1.29757E-04-4.83844E-05-3.50510E-05-2.91797E-07 1.95201E-19 1.12261E-18
 -1      3168 1.27515E-04-4.97347E-05-3.34164E-05-4.33810E-06 9.46506E-19 1.81863E-18
 -1      3169 1.36711E-04-5.69304E-05-3.39954E-05-1.04013E-05 5.98693E-19 1.55589E-18
 -1      3170 1.26599E-04-5.10082E-05-3.24432E-05-1.08598E-05 3.31110E-19 1.53592E-18
 -1      3171 9.52233E-05-2.87771E-05-2.84761E-05-1.07042E-06 1.58109E-19 4.47135E-19
 -1      3172 9.52112E-05-2.87424E-05-2.84851E-05-1.10447E-06 4.11473E-19 3.73722E-19
 -1      3173 9.52424E-05-2.87070E-05-2.85148E-05-1.11900E-06 2.96641E-19 1.25014E-19
 -1      3174 9.52392E-05-2.86441E-05-2.85375E-05-1.11431E-06 3.93723E-20 1.68944E-19
 -1      3175 9.55242E-05-2.88228E-05-2.85889E-05-1.08132E-06 1.64599E-19 2.58187E-19
 -1      3176 9.52100E-05-2.88009E-05-2.84599E-05-8.53779E-07 5.44448E-19 5.35116E-19
 -1      3177 9.51910E-05-2.87988E-05-2.84540E-05-9.15077E-07 5.48701E-19 2.59729E-19
 -1      3178 9.52111E-05-2.87790E-05-2.84697E-05-7.33779E-07 3.79699E-19 1.02044E-18
 -1      3179 9.51917E-05-2.87860E-05-2.84603E-05-7.93457E-07 5.34200E-19 7.53274E-19
 -1      3180 9.53852E-05-2.88859E-05-2.85008E-05-8.27352E-07 1.51450E-19 2.03752E-19
 -1      3181 9.52153E-05-2.87441E-05-2.84864E-05-6.26047E-07 2.45729E-19 6.16866E-19
 -1      3182 9.51964E-05-2.87576E-05-2.84747E-05-6.78028E-07 4.40635E-19 9.90725E-19
 -1      3183 9.53534E-05-2.88475E-05-2.85034E-05-7.14481E-07 4.71526E-19 5.99364E-19
 -1      3184 9.52218E-05-2.86999E-05-2.85080E-05-5.40187E-07 2.14413E-19 5.55121E-19
 -1      3185 9.52034E-05-2.87182E-05-2.84947E-05-5.80116E-07 1.65931E-19 5.21045E-19
 -1      3186 9.53274E-05-2.87948E-05-2.85146E-05-6.14994E-07 3.00687E-19 2.67562E-19
 -1      3187 9.52301E-05-2.86481E-05-2.85337E-05-4.83467E-07-1.75610E-19 1.09012E-18
 -1      3188 9.52120E-05-2.86705E-05-2.85190E-05-5.07963E-07-8.60400E-20 8.69594E-19
 -1      3189 9.53060E-05-2.87317E-05-2.85323E-05-5.38537E-07-6.86545E-20 7.88486E-19
 -1      3190 9.52402E-05-2.85889E-05-2.85632E-05-4.62101E-07 7.52959E-20 5.37847E-19
 -1      3191 9.52218E-05-2.86152E-05-2.85469E-05-4.68155E-07 3.12406E-19 9.00495E-19
 -1      3192 9.52878E-05-2.86596E-05-2.85554E-05-4.92579E-07 2.32818E-19 1.00576E-18
 -1      3193 9.52524E-05-2.85213E-05-2.85972E-05-4.82205E-07-4.12131E-19 7.18425E-19
 -1      3194 9.52325E-05-2.85518E-05-2.85787E-05-4.66750E-07-2.93510E-19 5.62010E-19
 -1      3195 9.52714E-05-2.85780E-05-2.85832E-05-4.83667E-07-1.02910E-19 7.72469E-19
 -1      3196 9.52671E-05-2.84436E-05-2.86365E-05-5.50491E-07-5.25399E-21 8.16302E-19
 -1      3197 9.52444E-05-2.84790E-05-2.86152E-05-5.10086E-07-3.30574E-19 1.03626E-18
 -1      3198 9.52551E-05-2.84850E-05-2.86161E-05-5.18340E-07-4.30151E-19 1.21766E-18
 -1      3199 9.52849E-05-2.83535E-05-2.86823E-05-6.74716E-07-1.15943E-19 9.70780E-19
 -1      3200 9.52579E-05-2.83945E-05-2.86574E-05-6.05356E-07 3.10321E-19 1.35991E-18
 -1      3201 9.52371E-05-2.83777E-05-2.86543E-05-6.03772E-07-2.39502E-19 1.12830E-18
 -1      3202 9.53065E-05-2.82486E-05-2.87360E-05-8.63897E-07-3.01640E-19 6.73255E-19
 -1      3203 9.52733E-05-2.82959E-05-2.87065E-05-7.60945E-07-1.71804E-19 9.35071E-19
 -1      3204 9.52155E-05-2.82527E-05-2.86986E-05-7.48191E-07 1.14100E-19 9.52040E-19
 -1      3205 9.53333E-05-2.81271E-05-2.87988E-05-1.12824E-06-1.90872E-19 1.10964E-18
 -1      3206 9.52917E-05-2.81811E-05-2.87640E-05-9.86516E-07-3.06530E-19 9.11395E-19
 -1      3207 9.51883E-05-2.81064E-05-2.87496E-05-9.61031E-07-6.11690E-19 6.27068E-19
 -1      3208 9.53666E-05-2.79883E-05-2.88719E-05-1.47872E-06-6.41342E-19 1.53955E-18
 -1      3209 9.53139E-05-2.80485E-05-2.88308E-05-1.29279E-06-3.13355E-19 1.37866E-18
 -1      3210 9.51533E-05-2.79360E-05-2.88075E-05-1.25281E-06-5.21538E-19 1.01779E-18
 -1      3211 9.54089E-05-2.78341E-05-2.89554E-05-1.92619E-06-1.27567E-19 8.52921E-19
 -1      3212 9.53420E-05-2.78985E-05-2.89076E-05-1.69092E-06-3.36933E-19 9.46872E-19
 -1      3213 9.51088E-05-2.77403E-05-2.88722E-05-1.63468E-06-1.70282E-19 7.90675E-19
 -1      3214 9.54644E-05-2.76706E-05-2.90484E-05-2.47989E-06-4.02305E-19 6.78087E-19
 -1      3215 9.53790E-05-2.77349E-05-2.89942E-05-2.19137E-06-2.53984E-19 7.07422E-19
 -1      3216 9.50538E-05-2.75214E-05-2.89423E-05-2.11749E-06-8.82333E-21 7.72474E-19
 -1      3217 9.55405E-05-2.75114E-05-2.91486E-05-3.14512E-06 1.51472E-19 6.76993E-19
 -1      3218 9.54307E-05-2.75671E-05-2.90887E-05-2.80213E-06-1.43708E-19 3.76710E-19
 -1      3219 9.49900E-05-2.72872E-05-2.90151E-05-2.71043E-06-1.34601E-19 2.35057E-19
 -1      3220 9.56510E-05-2.73818E-05-2.92508E-05-3.91992E-06-1.86899E-19 5.33885E-19
 -1      3221 9.55077E-05-2.74141E-05-2.91876E-05-3.52595E-06 4.69202E-19 5.57847E-19
 -1      3222 9.49231E-05-2.70553E-05-2.90857E-05-3.41897E-06 1.12908E-19 4.24734E-19
 -1      3223 9.58208E-05-2.73255E-05-2.93473E-05-4.79036E-06-5.88924E-19-1.53800E-19
 -1      3224 9.56296E-05-2.73097E-05-2.92844E-05-4.35661E-06-4.13140E-20 2.89525E-19
 -1      3225 9.48679E-05-2.68583E-05-2.91467E-05-4.24212E-06 8.27105E-20 1.86369E-19
 -1      3226 9.60948E-05-2.74140E-05-2.94266E-05-5.72415E-06-6.49647E-19-4.00584E-20
 -1      3227 9.58318E-05-2.73108E-05-2.93697E-05-5.27352E-06-8.43432E-19-2.86698E-19
 -1      3228 9.48550E-05-2.67524E-05-2.91873E-05-5.16890E-06-4.59702E-19 5.76266E-19
 -1      3229 9.65503E-05-2.77579E-05-2.94746E-05-6.66181E-06-6.76123E-19-5.41770E-19
 -1      3230 9.61767E-05-2.75079E-05-2.94306E-05-6.23438E-06-6.76027E-19-4.94642E-19
 -1      3231 9.49415E-05-2.68283E-05-2.91939E-05-6.17364E-06-7.38860E-19-7.54153E-19
 -1      3232 9.73151E-05-2.85192E-05-2.94767E-05-7.50444E-06-6.85262E-19-6.78976E-19
 -1      3233 9.67695E-05-2.80376E-05-2.94528E-05-7.16463E-06-5.08477E-19-3.80608E-19
 -1      3234 9.52287E-05-2.72250E-05-2.91513E-05-7.20919E-06-8.25503E-19-1.69938E-18
 -1      3235 9.85860E-05-2.99163E-05-2.94244E-05-8.09572E-06-8.72700E-19-1.15640E-18
 -1      3236 9.77786E-05-2.90930E-05-2.94244E-05-7.94176E-06-8.70601E-19-9.17721E-19
 -1      3237 9.58844E-05-2.81439E-05-2.90466E-05-8.19601E-06-6.04572E-19-2.06315E-18
 -1      3238 1.00639E-04-3.22049E-05-2.93278E-05-8.19300E-06-2.97609E-19-9.88785E-19
 -1      3239 9.94551E-05-3.09209E-05-2.93453E-05-8.36953E-06-7.25323E-19-1.14452E-18
 -1      3240 9.71708E-05-2.98550E-05-2.88784E-05-9.00090E-06-7.97132E-19-1.27750E-18
 -1      3241 1.03800E-04-3.55981E-05-2.92392E-05-7.42602E-06 4.29846E-19-6.13193E-19
 -1      3242 1.02131E-04-3.37785E-05-2.92457E-05-8.13633E-06 1.38128E-19-5.27350E-19
 -1      3243 9.94618E-05-3.26716E-05-2.86742E-05-9.39355E-06-5.01228E-19-1.38087E-18
 -1      3244 1.08307E-04-4.00433E-05-2.92870E-05-5.23469E-06 5.38198E-19-6.33346E-19
 -1      3245 1.06156E-04-3.78040E-05-2.92168E-05-6.74555E-06 6.18124E-19-1.04045E-18
 -1      3246 1.03227E-04-3.68619E-05-2.85217E-05-8.96173E-06 5.39916E-19-1.44419E-18
 -1      3247 1.14036E-04-4.47789E-05-2.97254E-05-8.69650E-07 4.30643E-19-1.43152E-19
 -1      3248 1.11663E-04-4.26943E-05-2.94534E-05-3.46527E-06 6.39269E-19-4.68983E-19
 -1      3249 1.08886E-04-4.23629E-05-2.86203E-05-6.99565E-06 4.07305E-19-1.33834E-18
 -1      3250 1.19832E-04-4.79005E-05-3.09298E-05 5.85172E-06 1.19149E-19 2.01375E-19
 -1      3251 1.17887E-04-4.69638E-05-3.03000E-05 2.31215E-06-1.54074E-19-4.53862E-19
 -1      3252 1.16144E-04-4.76308E-05-2.93614E-05-2.20099E-06 1.01763E-19-1.09373E-19
 -1      3253 1.23589E-04-4.58161E-05-3.33722E-05 1.45656E-05 7.69364E-19 1.41953E-18
 -1      3254 1.23368E-04-4.80456E-05-3.21901E-05 1.08266E-05 6.07905E-19 1.18637E-18
 -1      3255 1.23889E-04-5.13589E-05-3.12167E-05 5.15526E-06-5.10086E-19 1.88154E-19
 -1      3256 1.26044E-04-4.03033E-05-3.68661E-05 1.89636E-05 2.05077E-18 4.14252E-19
 -1      3257 1.27628E-04-4.59114E-05-3.51137E-05 1.68087E-05 1.37108E-18 1.32647E-18
 -1      3258 1.18444E-04-1.95973E-05-4.27584E-05 1.83467E-05-1.03867E-19 4.36381E-19
 -1      3259 1.21434E-04-2.62403E-05-4.13183E-05 2.08454E-05 1.22820E-19 7.16537E-19
 -1      3260 1.14601E-04-1.32039E-05-4.38993E-05 5.38756E-06 9.46295E-19 2.15378E-19
 -1      3261 1.15268E-04-1.43854E-05-4.37561E-05 1.15031E-05 7.11508E-19 4.44348E-19
 -1      3262 1.18577E-04-2.29032E-05-4.14025E-05-7.48647E-06 5.21031E-19-5.30587E-19
 -1      3263 1.16242E-04-1.76467E-05-4.25499E-05-2.46516E-06 8.08069E-19-5.71550E-19
 -1      3264 1.21142E-04-4.23741E-05-3.39260E-05-3.51164E-06 7.80230E-19-2.06700E-18
 -1      3265 1.21313E-04-3.91898E-05-3.52632E-05-5.99891E-06 8.67812E-19-2.17242E-18
 -1      3266 1.19478E-04-4.42200E-05-3.23196E-05 3.19726E-06 2.40296E-20-5.11264E-20
 -1      3267 1.20284E-04-4.35159E-05-3.29454E-05 1.12834E-07 3.42923E-19-1.56094E-18
 -1      3268 1.27113E-04-4.67928E-05-3.43786E-05 4.62992E-07 5.93585E-20-8.65628E-19
 -1      3269 1.23562E-04-4.75464E-05-3.25429E-05 8.06664E-06 3.90815E-19-1.12715E-18
 -1      3270 4.61551E-05-1.54007E-05-1.28723E-05 5.04414E-06-6.97148E-20-2.30075E-19
 -1      3271 4.60784E-05-1.52631E-05-1.26480E-05-4.78195E-06 3.84745E-19 2.38969E-19
 -1      3272 1.07028E-04-5.52535E-05-2.19694E-05-2.82810E-05-8.15507E-19-2.47985E-18
 -1      3273 1.19207E-04-6.06003E-05-2.52352E-05-2.18726E-05-2.89738E-19-2.00209E-18
 -1      3274 9.10748E-05-4.64869E-05-1.89511E-05 3.25618E-05 4.40510E-19 1.37447E-18
 -1      3275 7.69830E-05-3.66800E-05-1.68867E-05 3.07875E-05 6.79320E-19 2.87991E-19
 -1      3276 8.71278E-05-3.19097E-05-2.32503E-05-4.24615E-05 3.44584E-19-1.79624E-19
 -1      3277 9.54125E-05-2.73480E-05-2.91773E-05 2.71229E-07 5.65494E-19-4.70449E-20
 -1      3278 9.54713E-05-2.69392E-05-2.93562E-05 8.31272E-07 5.55154E-19-3.99246E-20
 -1      3279 9.52134E-05-2.88036E-05-2.84603E-05-9.72525E-07 5.42081E-19 2.61338E-19
 -1      3280 9.51964E-05-2.87882E-05-2.84602E-05-1.02664E-06 2.66727E-19 5.22432E-19
 -1      3281 9.54703E-05-2.88877E-05-2.85374E-05-1.03407E-06 2.45685E-19 3.19207E-19
 -1      3282 9.54240E-05-2.89031E-05-2.85104E-05-9.40243E-07 4.56453E-19 2.78131E-19
 -1      3283 9.53711E-05-2.79587E-05-2.88950E-05-4.74249E-07 3.31066E-19 7.32887E-20
 -1      3284 9.54254E-05-2.77006E-05-2.90120E-05-1.43997E-07 3.53994E-19-4.38654E-21
 -1      3285 9.56923E-05-2.73384E-05-2.92999E-05 2.23078E-07 4.70702E-19-1.58017E-19
 -1      3286 7.55445E-05-3.41796E-05-1.69528E-05 4.62508E-05-4.17164E-20 4.03961E-18
 -1      3287 1.34020E-04-5.11202E-05-3.56605E-05-1.42537E-05 4.30928E-20 2.66363E-18
 -1      3288 9.54987E-05-2.55653E-05-2.99553E-05-2.13914E-06-1.75048E-19-8.12053E-19
 -1      3289 9.55351E-05-2.62669E-05-2.96988E-05-1.33104E-06-1.58697E-19-8.43724E-19
 -1      3290 9.57065E-05-2.62019E-05-2.97888E-05-1.17041E-06-5.73362E-20-5.43116E-19
 -1      3291 8.76601E-05-3.79631E-05-2.14388E-05 4.61739E-05 7.56771E-19 4.99051E-18
 -1      3292 1.27791E-04-1.25874E-05-4.98601E-05-1.20886E-06 1.46897E-18 1.34371E-18
 -1      3293 1.23457E-04-1.64329E-05-4.60889E-05-4.41018E-06 1.08420E-18 6.05629E-19
 -1      3294 1.31121E-04-5.81449E-05-3.14368E-05-4.52292E-07 5.21514E-19 2.10631E-18
 -1      3295 1.26618E-04-6.07132E-05-2.80814E-05 1.03690E-05 1.11995E-18 2.37807E-18
 -1      3296 6.09223E-05-2.66654E-05-1.45897E-05 2.62021E-05 6.27281E-19-1.86718E-18
 -1      3297 5.00846E-05-1.87598E-05-1.30438E-05 1.54105E-05 3.08029E-19-9.83299E-19
 -1      3298 1.27599E-04-6.23417E-05-2.77757E-05-1.39466E-05-4.31563E-19-1.45957E-18
 -1      3299 1.33273E-04-6.12104E-05-3.11203E-05-4.20222E-06-6.65808E-19-1.81974E-18
 -1      3300 1.21841E-04-5.89760E-05-2.68140E-05-1.49086E-05 3.27828E-19-1.61263E-18
 -1      3301 9.52120E-05-2.42771E-05-3.04029E-05 4.27021E-06 6.47468E-19 1.25484E-19
 -1      3302 9.46391E-05-2.27286E-05-3.08064E-05 4.77406E-06 7.72368E-19 1.34514E-19
 -1      3303 9.49301E-05-2.35937E-05-3.05674E-05 3.68021E-06 7.01428E-19 8.12573E-20
 -1      3304 9.52423E-05-2.52029E-05-3.00298E-05 2.99954E-06 6.36795E-19 1.78414E-19
 -1      3305 9.23677E-05-1.83399E-05-3.17414E-05 1.81105E-06 7.38952E-19-2.13649E-19
 -1      3306 9.22478E-05-1.81375E-05-3.17733E-05 1.05748E-06 5.89805E-19-2.47039E-19
 -1      3307 1.32987E-04-4.43890E-05-3.83911E-05-4.32756E-06 6.20822E-19-1.17703E-18
 -1      3308 1.34920E-04-5.09031E-05-3.60686E-05 2.06449E-06-3.43366E-19-9.00158E-19
 -1      3309 1.21863E-04-1.15711E-05-4.78050E-05 3.21484E-06 8.88008E-19 2.19064E-18
 -1      3310 1.32722E-04-5.50613E-05-3.33373E-05-8.65912E-06-2.00254E-19 1.71229E-18
 -1      3311 9.21876E-05-1.80375E-05-3.17916E-05 4.08131E-07 5.98908E-19-3.38902E-19
 -1      3312 9.21841E-05-1.80328E-05-3.17922E-05-3.59965E-07 5.30390E-19-4.46533E-19
 -1      3313 9.31409E-05-1.96217E-05-3.14907E-05 6.28104E-07 5.53740E-19-2.71352E-19
 -1      3314 9.43355E-05-2.19808E-05-3.09884E-05 3.62363E-06 8.93075E-19-3.12963E-20
 -1      3315 9.34280E-05-2.02102E-05-3.14037E-05 4.24320E-06 8.93368E-19-2.55677E-20
 -1      3316 9.30696E-05-1.95498E-05-3.15172E-05 3.65124E-06 8.96484E-19-9.31310E-20
 -1      3317 1.00697E-04-4.92544E-05-2.18030E-05 2.64033E-05 4.62109E-19 7.88442E-19
 -1      3318 1.17247E-04-2.86091E-05-3.81470E-05-7.90268E-06 8.78797E-19-1.87845E-18
 -1      3319 1.25607E-04-2.78924E-05-4.22086E-05-9.15273E-06 1.16213E-18-6.68044E-19
 -1      3320 1.33935E-04-5.31771E-05-3.47554E-05 6.59754E-06-3.72160E-19-1.29165E-18
 -1      3321 1.29536E-04-5.27600E-05-3.28979E-05 1.19044E-05 1.82096E-19-1.60097E-18
 -1      3322 9.30392E-05-1.95005E-05-3.15254E-05-3.60994E-06 1.90244E-19-7.64949E-19
 -1      3323 9.34071E-05-2.01629E-05-3.14138E-05-4.22663E-06 1.28536E-19-8.81645E-19
 -1      3324 9.42612E-05-2.18402E-05-3.10563E-05-5.43233E-06-1.25268E-20-7.83099E-19
 -1      3325 9.53178E-05-2.83390E-05-2.87070E-05-8.88961E-07 1.54886E-20 1.06324E-19
 -1      3326 9.53492E-05-2.81737E-05-2.87806E-05-7.15376E-07 2.36944E-19 1.10603E-19
 -1      3327 9.56902E-05-2.80111E-05-2.90102E-05-4.74138E-07 1.75479E-19 2.56521E-20
 -1      3328 9.55839E-05-2.86830E-05-2.86752E-05-1.04299E-06-5.51998E-20-7.74184E-20
 -1      3329 9.52734E-05-2.85718E-05-2.85869E-05-1.07758E-06-7.41960E-20 8.03682E-20
 -1      3330 9.52847E-05-2.84676E-05-2.86303E-05-1.00741E-06-6.74767E-20-4.71408E-20
 -1      3331 1.31243E-04-5.19597E-05-3.41636E-05 1.14590E-05 6.38769E-19 2.65518E-19
 -1      3332 1.25568E-04-3.45829E-05-3.92159E-05 2.19149E-05 1.44700E-18 1.74616E-18
 -1      3333 1.19312E-04-3.42978E-05-3.67754E-05-8.90394E-06 9.99419E-19-1.93472E-18
 -1      3334 1.00024E-04-5.07939E-05-2.08695E-05-3.03398E-05-2.41299E-19-2.23138E-18
 -1      3335 1.06555E-04-5.18551E-05-2.35100E-05-2.36987E-05 2.95085E-19-2.76743E-18
 -1      3336 9.09256E-05-4.38505E-05-1.99799E-05-2.98556E-05 3.64171E-19-1.33588E-18
 -1      3337 1.18200E-04-5.63128E-05-2.63403E-05 1.51310E-05 9.66948E-19 1.72344E-18
 -1      3338 7.38922E-05-3.13595E-05-1.78523E-05 2.54134E-05 9.89334E-19-1.00162E-19
 -1      3339 1.34332E-04-5.89839E-05-3.26711E-05-1.85115E-05 6.39245E-20 3.84354E-19
 -1      3340 5.13793E-05-1.75826E-05-1.42108E-05-1.00988E-05 9.06736E-19-2.01170E-20
 -1      3341 9.53875E-05-2.65029E-05-2.95309E-05 1.36775E-06 4.81820E-19 1.19148E-19
 -1      3342 9.54248E-05-2.58828E-05-2.97909E-05 2.23056E-06 5.29324E-19 1.24972E-19
 -1      3343 9.53417E-05-2.51618E-05-3.00713E-05 2.60765E-06 5.55991E-19 1.37947E-19
 -1      3344 9.55831E-05-2.64014E-05-2.96523E-05 1.23883E-06 5.64003E-19-5.13664E-20
 -1      3345 1.31426E-04-3.77690E-05-4.03163E-05-8.27997E-06 1.54276E-18-1.28749E-18
 -1      3346 9.52331E-05-2.44627E-05-3.03267E-05-2.63081E-06-1.10541E-19-8.19092E-19
 -1      3347 6.09011E-05-2.47372E-05-1.53643E-05-2.37562E-05 1.30816E-18-1.16181E-18
 -1      3348 6.49936E-05-3.03309E-05-1.43471E-05-2.98618E-05 7.35436E-19-1.98968E-18
 -1      3349 7.53117E-05-3.46316E-05-1.72339E-05-2.94394E-05 1.18058E-18-1.32629E-18
 -1      3350 9.25222E-05-1.86024E-05-3.16902E-05-2.37227E-06 3.72897E-19-6.02310E-19
 -1      3351 9.27522E-05-1.90049E-05-3.16244E-05-3.08511E-06 2.66987E-19-6.51702E-19
 -1      3352 9.37305E-05-2.07528E-05-3.12618E-05-2.79561E-06 1.76197E-19-6.91119E-19
 -1      3353 9.42013E-05-2.17403E-05-3.10644E-05-4.76429E-06-3.70908E-20-7.38147E-19
 -1      3354 1.31146E-04-5.47844E-05-3.26972E-05-1.36878E-05 4.49116E-19 1.46788E-18
 -1      3355 1.23766E-04-5.42419E-05-2.97254E-05 2.97783E-05-3.81218E-19-2.02850E-18
 -1      3356 1.26960E-04-5.41270E-05-3.12890E-05 2.24409E-05 3.32566E-19-2.42272E-18
 -1      3357 9.27818E-05-1.90511E-05-3.16180E-05 3.12390E-06 8.13800E-19-1.99781E-19
 -1      3358 9.25431E-05-1.86357E-05-3.16854E-05 2.42219E-06 7.80565E-19-3.30144E-19
 -1      3359 9.33551E-05-2.00110E-05-3.14146E-05 1.80201E-06 6.32932E-19-1.93353E-19
 -1      3360 9.37664E-05-2.07929E-05-3.12539E-05 2.84519E-06 7.55378E-19-7.36131E-20
 -1      3361 1.26517E-04-4.00330E-05-3.71160E-05-6.60751E-06 6.80935E-19-1.46187E-18
 -1      3362 1.17537E-04-5.38832E-05-2.74531E-05 3.89288E-05 3.89847E-19-1.07308E-18
 -1      3363 1.03766E-04-4.51463E-05-2.45006E-05 4.31111E-05 5.23784E-19 5.66797E-19
 -1      3364 1.34481E-04-5.92606E-05-3.23062E-05 1.57266E-06-5.16083E-19-1.45406E-18
 -1      3365 1.33212E-04-5.49910E-05-3.35108E-05 8.20333E-06 3.79722E-19-8.39463E-19
 -1      3366 1.28903E-04-5.38016E-05-3.19740E-05 6.65033E-06-5.02827E-19-5.59783E-19
 -1      3367 1.28452E-04-5.79533E-05-3.01866E-05-2.69400E-06-7.49990E-19-2.16433E-18
 -1      3368 5.51070E-05-1.78890E-05-1.55467E-05 9.68748E-06 5.83493E-20-6.89220E-19
 -1      3369 9.60338E-05-2.69145E-05-2.96137E-05-4.47979E-07 6.22331E-20-3.96597E-19
 -1      3370 9.60830E-05-2.74084E-05-2.94396E-05-3.46058E-08-5.77858E-21-2.85560E-19
 -1      3371 9.39355E-05-2.12614E-05-3.11550E-05-4.39759E-06 6.68821E-20-7.80183E-19
 -1      3372 1.12389E-04-1.50874E-05-4.23598E-05 1.96972E-06 4.10811E-19-5.56223E-19
 -1      3373 1.16673E-04-5.47612E-05-2.61294E-05-1.58724E-05 4.17908E-19-1.81038E-18
 -1      3374 1.22725E-04-5.73417E-05-2.82039E-05-9.77755E-06-4.18884E-20-1.66516E-18
 -1      3375 9.56723E-05-2.55206E-05-3.00597E-05-1.49926E-06-3.93692E-20-6.42761E-19
 -1      3376 9.58299E-05-2.62628E-05-2.98246E-05-8.75106E-07 9.21815E-20-5.52363E-19
 -1      3377 9.59889E-05-2.62982E-05-2.98659E-05-7.12566E-07 1.39395E-19-4.19250E-19
 -1      3378 9.61660E-05-2.78301E-05-2.92792E-05 2.44259E-07 7.59527E-20-2.50858E-19
 -1      3379 9.61616E-05-2.81498E-05-2.91525E-05 4.95748E-07 1.17979E-19-1.44958E-19
 -1      3380 9.62687E-05-2.74610E-05-2.94893E-05 1.33654E-08 1.77634E-19-9.35620E-20
 -1      3381 9.61712E-05-2.84137E-05-2.90332E-05 6.56188E-07 9.02920E-20-1.37415E-19
 -1      3382 9.61415E-05-2.86124E-05-2.89434E-05 7.90152E-07 3.88662E-19-9.98536E-20
 -1      3383 9.63615E-05-2.82233E-05-2.92037E-05 4.72441E-07 2.16216E-19 9.87318E-20
 -1      3384 9.61090E-05-2.87675E-05-2.88567E-05 8.65204E-07 3.62268E-19-1.55450E-19
 -1      3385 9.60690E-05-2.88829E-05-2.87948E-05 9.18428E-07 3.80475E-19-2.89502E-19
 -1      3386 9.63403E-05-2.86976E-05-2.89919E-05 7.26864E-07 2.62895E-19 6.42670E-20
 -1      3387 9.60146E-05-2.89637E-05-2.87335E-05 9.35766E-07 5.29930E-19-4.64381E-19
 -1      3388 9.59722E-05-2.90223E-05-2.86926E-05 9.36907E-07 4.88985E-19-3.98643E-19
 -1      3389 9.62560E-05-2.89710E-05-2.88386E-05 8.36004E-07 3.71637E-19-2.58989E-19
 -1      3390 9.59087E-05-2.90532E-05-2.86508E-05 9.18249E-07 2.32066E-19-4.75657E-19
 -1      3391 9.58680E-05-2.90736E-05-2.86254E-05 8.88641E-07-1.29978E-19-3.40747E-19
 -1      3392 9.61406E-05-2.91065E-05-2.87310E-05 8.48960E-07 3.73383E-19-5.41626E-19
 -1      3393 9.58031E-05-2.90717E-05-2.85984E-05 8.50211E-07-4.58301E-19-1.20095E-19
 -1      3394 9.57660E-05-2.90666E-05-2.85843E-05 8.05270E-07-3.73657E-19 1.18470E-19
 -1      3395 9.60144E-05-2.91490E-05-2.86585E-05 8.03748E-07-1.46009E-19-7.39322E-20
 -1      3396 9.57039E-05-2.90436E-05-2.85685E-05 7.58767E-07-5.65034E-19-2.15937E-19
 -1      3397 9.56712E-05-2.90219E-05-2.85627E-05 7.09406E-07-4.58165E-19-4.13047E-19
 -1      3398 9.58892E-05-2.91301E-05-2.86127E-05 7.28528E-07-5.95591E-19-2.37149E-19
 -1      3399 9.56138E-05-2.89855E-05-2.85552E-05 6.63109E-07-3.38952E-19-5.37308E-19
 -1      3400 9.55854E-05-2.89527E-05-2.85555E-05 6.17037E-07-4.02159E-19-6.71978E-19
 -1      3401 9.57713E-05-2.90714E-05-2.85871E-05 6.43535E-07-6.67772E-19-6.42197E-19
 -1      3402 9.55330E-05-2.89074E-05-2.85544E-05 5.76847E-07-6.45724E-19-4.74656E-19
 -1      3403 9.55082E-05-2.88668E-05-2.85592E-05 5.39612E-07-8.34630E-19-1.41616E-19
 -1      3404 9.56629E-05-2.89865E-05-2.85767E-05 5.63229E-07-3.08307E-19-1.80226E-19
 -1      3405 9.54600E-05-2.88148E-05-2.85629E-05 5.09871E-07-6.08997E-19 1.82559E-19
 -1      3406 9.54378E-05-2.87678E-05-2.85714E-05 4.85674E-07-3.55838E-19 6.86509E-19
 -1      3407 9.55633E-05-2.88833E-05-2.85780E-05 4.98112E-07-5.57025E-19 2.62321E-19
 -1      3408 9.53918E-05-2.87098E-05-2.85790E-05 4.69810E-07-5.83276E-19 5.35756E-19
 -1      3409 9.53710E-05-2.86564E-05-2.85905E-05 4.62159E-07-7.53904E-19 7.69971E-19
 -1      3410 9.54700E-05-2.87651E-05-2.85884E-05 4.56142E-07-3.48601E-19 2.67648E-19
 -1      3411 9.53248E-05-2.85912E-05-2.86014E-05 4.63219E-07-6.61945E-19 9.19669E-19
 -1      3412 9.53037E-05-2.85304E-05-2.86155E-05 4.75425E-07-2.58723E-19 6.22082E-19
 -1      3413 9.53787E-05-2.86317E-05-2.86062E-05 4.43914E-07-5.73758E-19 6.17694E-19
 -1      3414 9.52541E-05-2.84562E-05-2.86292E-05 4.96476E-07 2.53801E-19 5.89075E-19
 -1      3415 9.52309E-05-2.83861E-05-2.86461E-05 5.32016E-07 6.73593E-19 4.99556E-19
 -1      3416 9.52838E-05-2.84802E-05-2.86301E-05 4.67587E-07-9.58952E-21 1.15559E-18
 -1      3417 9.51740E-05-2.83000E-05-2.86622E-05 5.76428E-07 5.33469E-19 3.08550E-19
 -1      3418 9.51465E-05-2.82180E-05-2.86818E-05 6.39190E-07 2.77035E-19-3.85386E-19
 -1      3419 9.51781E-05-2.83058E-05-2.86593E-05 5.33551E-07 4.71665E-19 7.18594E-19
 -1      3420 9.50778E-05-2.81166E-05-2.87001E-05 7.10814E-07 8.15664E-19-4.61984E-19
 -1      3421 9.50434E-05-2.80200E-05-2.87223E-05 8.05224E-07 9.50398E-19 3.05242E-19
 -1      3422 9.50535E-05-2.81018E-05-2.86929E-05 6.48874E-07 6.38865E-19-3.22426E-19
 -1      3423 9.49576E-05-2.78996E-05-2.87422E-05 9.08470E-07 4.05069E-19 1.66963E-19
 -1      3424 9.49135E-05-2.77855E-05-2.87669E-05 1.03950E-06 5.23778E-19-4.22598E-19
 -1      3425 9.49002E-05-2.78610E-05-2.87299E-05 8.21539E-07 5.44316E-19-2.12669E-19
 -1      3426 9.48047E-05-2.76426E-05-2.87875E-05 1.17932E-06 9.35183E-19-3.74667E-19
 -1      3427 9.47477E-05-2.75085E-05-2.88142E-05 1.35236E-06 8.07483E-19-3.61572E-20
 -1      3428 9.47073E-05-2.75758E-05-2.87689E-05 1.06049E-06 8.15295E-19-2.23239E-19
 -1      3429 9.46094E-05-2.73401E-05-2.88343E-05 1.53411E-06 1.77008E-19-1.16215E-19
 -1      3430 9.45359E-05-2.71849E-05-2.88618E-05 1.75470E-06-2.68343E-19-2.95243E-19
 -1      3431 9.44623E-05-2.72395E-05-2.88073E-05 1.37546E-06 3.02669E-19-6.47734E-20
 -1      3432 9.43612E-05-2.69895E-05-2.88792E-05 1.98395E-06-6.86053E-19-5.90515E-19
 -1      3433 9.42682E-05-2.68140E-05-2.89058E-05 2.25732E-06-7.42195E-19-8.42943E-19
 -1      3434 9.41521E-05-2.68476E-05-2.88414E-05 1.77664E-06-6.68822E-19-6.56721E-19
 -1      3435 9.40503E-05-2.65928E-05-2.89171E-05 2.53961E-06-8.55517E-19-1.30938E-18
 -1      3436 9.39355E-05-2.64016E-05-2.89396E-05 2.87017E-06-6.56014E-19-1.39398E-18
 -1      3437 9.37630E-05-2.64002E-05-2.88654E-05 2.27423E-06-1.24442E-18-1.72827E-18
 -1      3438 9.36691E-05-2.61608E-05-2.89400E-05 3.21080E-06 7.83757E-20-9.79941E-19
 -1      3439 9.35330E-05-2.59646E-05-2.89539E-05 3.60149E-06 1.46167E-19-1.35724E-18
 -1      3440 9.32829E-05-2.59050E-05-2.88707E-05 2.87810E-06-1.29740E-19-1.30386E-18
 -1      3441 9.32156E-05-2.57176E-05-2.89368E-05 4.00568E-06 6.05007E-19-1.31798E-18
 -1      3442 9.30641E-05-2.55370E-05-2.89355E-05 4.45749E-06 9.50003E-19-6.46266E-19
 -1      3443 9.27036E-05-2.53819E-05-2.88454E-05 3.59790E-06 7.45205E-19-1.08350E-18
 -1      3444 9.26995E-05-2.53090E-05-2.88919E-05 4.93113E-06 6.47616E-19-1.54268E-19
 -1      3445 9.25490E-05-2.51797E-05-2.88667E-05 5.44292E-06 3.67477E-19 3.50253E-19
 -1      3446 9.20254E-05-2.48700E-05-2.87731E-05 4.44431E-06 6.77393E-19-5.89036E-19
 -1      3447 9.21524E-05-2.50137E-05-2.87848E-05 5.99446E-06-3.01100E-19 3.78903E-19
 -1      3448 9.20382E-05-2.49940E-05-2.87248E-05 6.56343E-06-5.61947E-20-1.72909E-19
 -1      3449 9.12653E-05-2.44369E-05-2.86324E-05 5.43250E-06 2.61584E-19-1.54055E-20
 -1      3450 9.16443E-05-2.49589E-05-2.85908E-05 7.20733E-06-2.88550E-19-2.77902E-19
 -1      3451 9.16338E-05-2.51405E-05-2.84841E-05 7.82997E-06-4.67676E-19-2.00185E-19
 -1      3452 9.04693E-05-2.41926E-05-2.83966E-05 6.58881E-06-1.89189E-19-2.97427E-19
 -1      3453 9.13109E-05-2.53423E-05-2.82825E-05 8.59199E-06-6.51954E-19-9.19130E-19
 -1      3454 9.15241E-05-2.58640E-05-2.81188E-05 9.26399E-06-1.08807E-18-1.18952E-18
 -1      3455 8.97331E-05-2.43079E-05-2.80347E-05 7.96201E-06-1.06056E-18-7.79617E-19
 -1      3456 9.13980E-05-2.64608E-05-2.78358E-05 1.01851E-05-4.75149E-19-9.79320E-19
 -1      3457 9.20374E-05-2.75255E-05-2.76129E-05 1.08930E-05 6.31548E-20-6.47246E-19
 -1      3458 8.92368E-05-2.50427E-05-2.75149E-05 9.63821E-06-6.29305E-19-1.68120E-18
 -1      3459 9.23340E-05-2.87454E-05-2.72442E-05 1.20224E-05 2.48539E-19-1.32932E-18
 -1      3460 9.37183E-05-3.06368E-05-2.69836E-05 1.27172E-05-1.98403E-19-1.30992E-18
 -1      3461 8.93057E-05-2.67890E-05-2.68129E-05 1.17474E-05-2.21202E-19-2.00283E-18
 -1      3462 9.48255E-05-3.27582E-05-2.65559E-05 1.40332E-05-2.30486E-19-6.39669E-19
 -1      3463 9.74100E-05-3.57814E-05-2.63259E-05 1.45734E-05-1.07682E-20-2.42843E-19
 -1      3464 9.05183E-05-3.01278E-05-2.59380E-05 1.44188E-05 3.26221E-19-2.09173E-18
 -1      3465 1.00034E-04-3.93291E-05-2.59202E-05 1.58370E-05-7.64566E-19 3.57357E-19
 -1      3466 1.04281E-04-4.34807E-05-2.59160E-05 1.55399E-05-8.25387E-19 6.18698E-20
 -1      3467 9.39439E-05-3.59124E-05-2.50121E-05 1.76582E-05 2.12255E-20-6.84753E-19
 -1      3468 1.07430E-04-4.72319E-05-2.56362E-05 1.67769E-05-4.40206E-19 1.06382E-18
 -1      3469 1.13586E-04-5.22371E-05-2.61850E-05 1.49631E-05 4.26508E-19 1.48040E-18
 -1      3470 1.07206E-04-5.20535E-05-2.36918E-05 2.32691E-05 9.91929E-19 1.31806E-18
 -1      3471 9.93372E-05-4.31590E-05-2.40990E-05 2.09853E-05-6.53804E-21 9.55188E-19
 -1      3472 1.26948E-04-5.20906E-05-3.20571E-05 1.54199E-05 9.48268E-19-1.74118E-18
 -1      3473 9.54333E-05-2.88374E-05-2.85396E-05-5.75022E-07 1.32882E-19 2.05159E-19
 -1      3474 9.54456E-05-2.88697E-05-2.85331E-05-6.17421E-07 2.47488E-19 5.39698E-19
 -1      3475 9.44488E-05-2.23093E-05-3.09068E-05-3.42409E-06-2.86238E-20-7.91728E-19
 -1      3476 9.54875E-05-2.89078E-05-2.85328E-05-6.62930E-07 2.67528E-19 1.41435E-19
 -1      3477 9.55026E-05-2.89328E-05-2.85302E-05-7.14001E-07 1.82292E-19-1.27888E-19
 -1      3478 9.55846E-05-2.89527E-05-2.85576E-05-6.18074E-07-1.36412E-19-1.69339E-19
 -1      3479 9.55493E-05-2.89627E-05-2.85358E-05-7.65319E-07 3.22745E-19-1.86791E-19
 -1      3480 9.55679E-05-2.89772E-05-2.85387E-05-8.19220E-07 2.37940E-19-5.91339E-20
 -1      3481 9.56720E-05-2.90236E-05-2.85649E-05-7.09449E-07 2.88196E-19-2.09653E-19
 -1      3482 9.53852E-05-2.87555E-05-2.85541E-05-5.10615E-07-2.69474E-19 6.94919E-19
 -1      3483 9.53954E-05-2.87935E-05-2.85445E-05-5.40027E-07-2.02790E-19 6.40621E-19
 -1      3484 9.55057E-05-2.88648E-05-2.85612E-05-5.41804E-07-1.05423E-19 2.09308E-19
 -1      3485 9.53412E-05-2.86630E-05-2.85748E-05-4.76873E-07 1.29206E-19 1.40253E-18
 -1      3486 9.53500E-05-2.87064E-05-2.85626E-05-4.89756E-07 9.80429E-20 1.28725E-18
 -1      3487 9.54333E-05-2.87636E-05-2.85733E-05-4.89200E-07-3.89848E-19 8.68223E-19
 -1      3488 9.52983E-05-2.85587E-05-2.86011E-05-4.80260E-07-1.09597E-19 1.40874E-18
 -1      3489 9.53066E-05-2.86081E-05-2.85863E-05-4.73328E-07 6.56889E-20 1.48462E-18
 -1      3490 9.53640E-05-2.86494E-05-2.85924E-05-4.67281E-07 3.49285E-20 1.54408E-18
 -1      3491 9.52534E-05-2.84398E-05-2.86326E-05-5.27334E-07-5.11806E-19 5.12973E-19
 -1      3492 9.52621E-05-2.84966E-05-2.86153E-05-4.97172E-07-1.43488E-19 9.33526E-19
 -1      3493 9.52936E-05-2.85203E-05-2.86173E-05-4.82496E-07 9.57724E-20 1.21563E-18
 -1      3494 9.52027E-05-2.83024E-05-2.86695E-05-6.25337E-07-2.97643E-19 8.17429E-19
 -1      3495 9.52126E-05-2.83683E-05-2.86494E-05-5.68134E-07-5.73254E-19 5.12134E-19
 -1      3496 9.52169E-05-2.83725E-05-2.86475E-05-5.41461E-07-3.49304E-19 9.44822E-19
 -1      3497 9.51417E-05-2.81418E-05-2.87119E-05-7.82535E-07-2.65402E-19 8.82389E-19
 -1      3498 9.51540E-05-2.82188E-05-2.86887E-05-6.93945E-07 5.00347E-20 7.66081E-19
 -1      3499 9.51279E-05-2.82009E-05-2.86826E-05-6.51483E-07-3.53541E-19 2.72230E-19
 -1      3500 9.50656E-05-2.79535E-05-2.87597E-05-1.00833E-06-1.17419E-19 1.39771E-19
 -1      3501 9.50815E-05-2.80434E-05-2.87333E-05-8.83464E-07-2.78635E-19 3.79463E-19
 -1      3502 9.50196E-05-2.79998E-05-2.87221E-05-8.20858E-07 4.57692E-20 8.43663E-20
 -1      3503 9.49694E-05-2.77335E-05-2.88123E-05-1.31312E-06-3.69932E-19 2.20408E-19
 -1      3504 9.49899E-05-2.78377E-05-2.87828E-05-1.14667E-06-5.06400E-19 1.87427E-19
 -1      3505 9.48845E-05-2.77635E-05-2.87651E-05-1.05895E-06 2.68349E-20-2.88362E-19
 -1      3506 9.48481E-05-2.74803E-05-2.88684E-05-1.70777E-06-1.75365E-19-6.85104E-20
 -1      3507 9.48740E-05-2.75986E-05-2.88363E-05-1.49438E-06-1.74856E-19 6.86099E-20
 -1      3508 9.47144E-05-2.74877E-05-2.88099E-05-1.37603E-06-2.54886E-19-4.18967E-19
 -1      3509 9.46978E-05-2.71960E-05-2.89253E-05-2.20287E-06-2.76923E-19-8.39162E-20
 -1      3510 9.47291E-05-2.73262E-05-2.88917E-05-1.93764E-06-1.23791E-19 3.96177E-20
 -1      3511 9.45013E-05-2.71706E-05-2.88539E-05-1.78288E-06-3.45499E-19-5.52643E-19
 -1      3512 9.45170E-05-2.68900E-05-2.89785E-05-2.80749E-06-6.68961E-20-3.45243E-19
 -1      3513 9.45522E-05-2.70257E-05-2.89455E-05-2.48679E-06-2.18729E-19 4.55223E-19
 -1      3514 9.42384E-05-2.68155E-05-2.88929E-05-2.29013E-06-4.38632E-19-6.76768E-19
 -1      3515 9.43100E-05-2.65823E-05-2.90210E-05-3.52766E-06-3.18300E-19 8.08717E-19
 -1      3516 9.43443E-05-2.67113E-05-2.89920E-05-3.15018E-06-2.85239E-19 2.62425E-19
 -1      3517 9.39220E-05-2.64340E-05-2.89202E-05-2.90753E-06-7.49246E-19-1.92068E-19
 -1      3518 9.40914E-05-2.63107E-05-2.90430E-05-4.36450E-06-2.43028E-19 1.05223E-18
 -1      3519 9.41142E-05-2.64109E-05-2.90227E-05-3.93257E-06 5.68025E-20 1.43601E-18
 -1      3520 9.35550E-05-2.60508E-05-2.89267E-05-3.64313E-06-2.19073E-19 1.29089E-18
 -1      3521 9.38946E-05-2.61391E-05-2.90311E-05-5.31230E-06 3.60564E-20 2.32049E-19
 -1      3522 9.38845E-05-2.61741E-05-2.90259E-05-4.83351E-06 6.70243E-20 7.83226E-19
 -1      3523 9.31523E-05-2.57108E-05-2.88997E-05-4.50292E-06 1.36921E-20 5.10184E-19
 -1      3524 9.37849E-05-2.61700E-05-2.89690E-05-6.35632E-06-3.06326E-21-1.33368E-18
 -1      3525 9.37030E-05-2.60825E-05-2.89868E-05-5.84548E-06 8.30901E-20-3.57033E-19
 -1      3526 9.27501E-05-2.54889E-05-2.88233E-05-5.49107E-06 4.69202E-19-5.65869E-19
 -1      3527 9.38787E-05-2.65598E-05-2.88392E-05-7.46952E-06-7.93972E-19-1.66582E-18
 -1      3528 9.36580E-05-2.62635E-05-2.88880E-05-6.95162E-06-3.97717E-19-1.22164E-18
 -1      3529 9.24204E-05-2.55035E-05-2.86783E-05-6.61103E-06 2.85294E-19-9.40885E-19
 -1      3530 9.43712E-05-2.75350E-05-2.86279E-05-8.60547E-06-4.45113E-19-1.64887E-18
 -1      3531 9.39031E-05-2.69071E-05-2.87126E-05-8.12108E-06-8.79595E-19-1.77967E-18
 -1      3532 9.22930E-05-2.59332E-05-2.84451E-05-7.86604E-06-3.88993E-19-1.51610E-18
 -1      3533 9.55701E-05-2.94038E-05-2.83349E-05-9.68141E-06-8.79710E-19-1.18855E-18
 -1      3534 9.46898E-05-2.82812E-05-2.84519E-05-9.29830E-06-3.20651E-19-1.20808E-18
 -1      3535 9.25865E-05-2.70352E-05-2.81094E-05-9.25609E-06-5.31973E-19-9.45099E-19
 -1      3536 9.79308E-05-3.25430E-05-2.79941E-05-1.05254E-05-2.59918E-19-1.40832E-18
 -1      3537 9.64115E-05-3.07385E-05-2.81191E-05-1.03672E-05-8.33082E-19-1.77339E-18
 -1      3538 9.36597E-05-2.91702E-05-2.76736E-05-1.07591E-05-8.26628E-19-1.19285E-18
 -1      3539 1.02031E-04-3.73260E-05-2.77097E-05-1.08022E-05 4.74663E-19-1.41565E-18
 -1      3540 9.96209E-05-3.46664E-05-2.77783E-05-1.10811E-05 5.90078E-19-1.29519E-18
 -1      3541 9.60484E-05-3.27715E-05-2.71825E-05-1.22498E-05-1.11531E-19-1.89265E-18
 -1      3542 1.08350E-04-4.37334E-05-2.77006E-05-9.80146E-06 3.09524E-19-7.23326E-19
 -1      3543 1.05032E-04-4.03180E-05-2.76010E-05-1.08159E-05 1.72037E-19-1.10560E-18
 -1      3544 1.00568E-04-3.84239E-05-2.67695E-05-1.33685E-05 1.19362E-20-1.00988E-18
 -1      3545 1.19753E-04-5.22817E-05-2.88340E-05-4.61309E-06-5.99365E-19-8.70194E-21
 -1      3546 1.15323E-04-4.94123E-05-2.81686E-05-7.78749E-06 4.23186E-21-5.22034E-21
 -1      3547 1.23922E-04-5.37755E-05-3.00894E-05-3.65367E-07-5.74950E-19-2.03341E-19
 -1      3548 9.58997E-05-2.73767E-05-2.93739E-05 9.75874E-08 4.04002E-19-1.46586E-19
 -1      3549 9.58735E-05-2.69026E-05-2.95499E-05 5.55739E-07 4.96116E-19-1.27824E-19
 -1      3550 9.22399E-05-1.81246E-05-3.17751E-05-1.00780E-06 4.84243E-19-5.96745E-19
 -1      3551 9.23515E-05-1.83157E-05-3.17446E-05-1.76280E-06 4.19892E-19-6.33480E-19
 -1      3552 9.33322E-05-1.99849E-05-3.14187E-05-1.75468E-06 3.83947E-19-5.76030E-19
 -1      3553 9.57777E-05-2.89334E-05-2.86473E-05-1.00878E-06 3.52113E-20 1.86221E-19
 -1      3554 9.58083E-05-2.88730E-05-2.86837E-05-1.00660E-06 5.79678E-20-2.60691E-21
 -1      3555 8.26917E-05-3.48785E-05-2.05510E-05 2.53328E-05 1.36363E-18 9.95820E-19
 -1      3556 6.93661E-05-2.53559E-05-1.86635E-05 2.07306E-05 1.83551E-18-4.99405E-19
 -1      3557 5.62594E-05-1.70312E-05-1.67339E-05-7.57046E-06 4.88235E-19-2.62580E-19
 -1      3558 5.77358E-05-1.97722E-05-1.57744E-05-1.69399E-05 1.39866E-18-3.91753E-20
 -1      3559 9.49912E-05-2.35718E-05-3.06118E-05-2.82621E-06-8.86911E-20-7.44810E-19
 -1      3560 9.53327E-05-2.46397E-05-3.03062E-05-1.98573E-06-1.06908E-19-6.84369E-19
 -1      3561 9.54498E-05-2.46700E-05-3.03279E-05-1.65542E-06-3.98894E-20-5.98089E-19
 -1      3562 9.45463E-05-2.25121E-05-3.08639E-05-2.72241E-06-8.77153E-21-7.31623E-19
 -1      3563 6.08881E-05-1.96220E-05-1.76289E-05 1.44857E-05 1.15440E-18-4.12664E-19
 -1      3564 5.71884E-05-1.64719E-05-1.73921E-05 4.72938E-06 5.48431E-19 2.04294E-19
 -1      3565 9.49232E-05-2.35084E-05-3.06208E-05 3.04154E-06 7.97193E-19-7.61618E-20
 -1      3566 9.46615E-05-2.28190E-05-3.07886E-05 2.81350E-06 8.28928E-19-7.54337E-20
 -1      3567 9.59493E-05-2.80885E-05-2.90878E-05-5.02207E-07 1.90004E-19-1.09183E-19
 -1      3568 9.59676E-05-2.77847E-05-2.92122E-05-2.24324E-07 2.71260E-19-7.08413E-20
 -1      3569 9.61082E-05-2.74109E-05-2.94436E-05 4.34463E-08 3.32568E-19-8.69274E-20
 -1      3570 9.56452E-05-4.41230E-05-2.19193E-05 2.52893E-05 5.74897E-19 1.78229E-18
 -1      3571 7.06082E-05-2.31019E-05-2.01319E-05 1.56699E-05 1.75833E-18 6.20359E-19
 -1      3572 1.09709E-04-5.09138E-05-2.51037E-05-1.85961E-05 1.93415E-19-2.06898E-18
 -1      3573 9.56439E-05-2.84312E-05-2.88097E-05-8.64969E-07 9.84626E-20-3.01456E-20
 -1      3574 9.58568E-05-2.87935E-05-2.87422E-05-9.83458E-07-1.18413E-20-1.19780E-20
 -1      3575 9.58896E-05-2.86804E-05-2.87994E-05-9.24357E-07 1.15342E-20 1.42480E-19
 -1      3576 9.60788E-05-2.88884E-05-2.87984E-05-9.13864E-07-7.50147E-20-9.04662E-20
 -1      3577 1.10084E-04-4.74452E-05-2.69827E-05-1.24852E-05-6.02313E-19-4.19745E-19
 -1      3578 9.31335E-05-1.96133E-05-3.14920E-05-5.86488E-07 4.96045E-19-5.02567E-19
 -1      3579 9.43712E-05-2.21134E-05-3.09790E-05-2.39913E-06 1.86085E-19-6.60658E-19
 -1      3580 9.49311E-05-2.32970E-05-3.06958E-05-1.87895E-06 1.37297E-19-4.96686E-19
 -1      3581 9.41585E-05-2.16436E-05-3.10785E-05-1.97483E-06 2.87114E-19-5.16327E-19
 -1      3582 8.45885E-05-3.84459E-05-1.95177E-05-2.85846E-05 3.12423E-19-4.80321E-19
 -1      3583 9.27214E-05-4.11638E-05-2.19997E-05-2.47104E-05 3.20523E-19-1.65439E-18
 -1      3584 7.77151E-05-3.20617E-05-1.95366E-05-2.51132E-05 8.41143E-19-1.75521E-19
 -1      3585 9.53143E-05-2.47785E-05-3.02343E-05 2.75409E-06 5.73853E-19-6.01232E-20
 -1      3586 9.50563E-05-2.39265E-05-3.04766E-05 2.98879E-06 6.80465E-19-5.50449E-20
 -1      3587 9.53490E-05-2.46389E-05-3.02933E-05 2.18749E-06 6.93500E-19-3.30954E-19
 -1      3588 9.54623E-05-2.54842E-05-2.99963E-05 1.95559E-06 5.17005E-19-8.40475E-20
 -1      3589 9.56965E-05-2.89913E-05-2.85871E-05-9.59300E-07 1.38068E-19 2.56145E-19
 -1      3590 9.57231E-05-2.89664E-05-2.86084E-05-9.90851E-07 5.14864E-20 1.56868E-19
 -1      3591 9.59790E-05-2.90274E-05-2.86958E-05-9.33854E-07 3.27640E-20-3.96099E-20
 -1      3592 5.85492E-05-1.59811E-05-1.79404E-05-1.21360E-06 2.93232E-19-6.46035E-19
 -1      3593 6.23068E-05-1.77627E-05-1.91090E-05-7.70233E-06 5.52725E-19-1.75852E-19
 -1      3594 6.32801E-05-1.71540E-05-1.96801E-05 3.13546E-06 1.08973E-18 3.27378E-19
 -1      3595 9.57278E-05-2.65144E-05-2.96679E-05 8.99080E-07 5.17795E-19-2.06212E-19
 -1      3596 9.56412E-05-2.59871E-05-2.98482E-05 1.47750E-06 5.37364E-19-1.83790E-19
 -1      3597 9.56024E-05-2.56170E-05-3.00017E-05 1.60509E-06 5.59655E-19-4.18099E-19
 -1      3598 9.58977E-05-2.65212E-05-2.97352E-05 7.41031E-07 4.30056E-19-2.19339E-19
 -1      3599 6.52054E-05-2.35476E-05-1.76774E-05-1.93529E-05 8.69403E-19-8.72973E-19
 -1      3600 9.38630E-05-2.10491E-05-3.12177E-05 8.08109E-07 4.87606E-19-2.00526E-19
 -1      3601 9.38141E-05-2.09498E-05-3.12371E-05 2.47315E-07 4.76085E-19-3.22094E-19
 -1      3602 9.56193E-05-2.89946E-05-2.85523E-05-8.69872E-07 4.31834E-19 2.19741E-19
 -1      3603 9.56418E-05-2.89935E-05-2.85628E-05-9.18449E-07 5.12680E-19 2.69509E-19
 -1      3604 9.58725E-05-2.90778E-05-2.86282E-05-8.86702E-07 4.07404E-19 4.39367E-20
 -1      3605 9.57686E-05-2.90697E-05-2.85868E-05-8.04323E-07 4.95948E-19-1.89800E-19
 -1      3606 9.40872E-05-2.15139E-05-3.11180E-05 1.76433E-06 5.35324E-19-1.86242E-20
 -1      3607 9.39490E-05-2.12198E-05-3.11769E-05 1.24772E-06 4.20058E-19-1.10989E-19
 -1      3608 9.46092E-05-2.23875E-05-3.09343E-05 8.29944E-07 3.74799E-19-1.59039E-19
 -1      3609 9.55697E-05-2.88820E-05-2.85790E-05-4.85393E-07-5.42339E-19 5.41452E-19
 -1      3610 9.56079E-05-2.89325E-05-2.85756E-05-5.15547E-07-2.75862E-19 1.14112E-19
 -1      3611 9.59167E-05-2.57235E-05-3.00805E-05-9.05573E-07 1.77616E-19-1.37612E-19
 -1      3612 9.61240E-05-2.64607E-05-2.98639E-05-4.66235E-07 2.56277E-19 3.82604E-20
 -1      3613 9.63411E-05-2.71023E-05-2.96684E-05-1.81841E-07 2.20273E-19 1.18139E-19
 -1      3614 9.64270E-05-2.76029E-05-2.95022E-05 1.14556E-07 2.83692E-19 1.50255E-19
 -1      3615 9.62703E-05-2.65713E-05-2.98676E-05-3.35870E-07 2.85790E-19 3.15369E-19
 -1      3616 9.65174E-05-2.80238E-05-2.93497E-05 2.93787E-07 2.97644E-19-5.03003E-20
 -1      3617 9.65291E-05-2.83473E-05-2.92245E-05 4.74126E-07 1.69048E-19-1.20003E-20
 -1      3618 9.65720E-05-2.76994E-05-2.95158E-05 1.33139E-07 1.61950E-19 2.03491E-19
 -1      3619 9.65384E-05-2.86103E-05-2.91082E-05 5.73686E-07 1.97027E-19 1.26595E-19
 -1      3620 9.65074E-05-2.88077E-05-2.90160E-05 6.67948E-07 2.62830E-19 4.67694E-20
 -1      3621 9.66692E-05-2.84364E-05-2.92431E-05 4.24609E-07 2.39486E-19 4.13506E-20
 -1      3622 9.64672E-05-2.89586E-05-2.89295E-05 7.09673E-07 3.43746E-19 7.30232E-20
 -1      3623 9.64139E-05-2.90674E-05-2.88633E-05 7.44397E-07 4.30784E-19-1.46751E-20
 -1      3624 9.66379E-05-2.88893E-05-2.90364E-05 5.80039E-07 2.77952E-19 2.00100E-19
 -1      3625 9.63465E-05-2.91406E-05-2.88005E-05 7.47497E-07 4.83023E-19-1.11923E-19
 -1      3626 9.62835E-05-2.91886E-05-2.87546E-05 7.43913E-07 2.87676E-19-6.48351E-20
 -1      3627 9.65310E-05-2.91399E-05-2.88837E-05 6.39159E-07 2.92242E-19 9.55513E-20
 -1      3628 9.62039E-05-2.92093E-05-2.87107E-05 7.23592E-07 7.98859E-20 2.30126E-20
 -1      3629 9.61391E-05-2.92163E-05-2.86803E-05 6.97891E-07-1.99137E-19 6.93809E-20
 -1      3630 9.63852E-05-2.92504E-05-2.87740E-05 6.35336E-07 2.74421E-19 8.09944E-20
 -1      3631 9.60566E-05-2.92025E-05-2.86510E-05 6.65558E-07-5.69016E-19 1.20253E-20
 -1      3632 9.59945E-05-2.91826E-05-2.86325E-05 6.29557E-07-7.32852E-19-3.03131E-20
 -1      3633 9.62245E-05-2.92662E-05-2.86983E-05 5.94716E-07-4.33197E-19 3.53048E-20
 -1      3634 9.59144E-05-2.91465E-05-2.86145E-05 5.93406E-07-7.41905E-19 6.45691E-21
 -1      3635 9.58568E-05-2.91089E-05-2.86050E-05 5.55585E-07-7.22236E-19 2.01777E-19
 -1      3636 9.60634E-05-2.92196E-05-2.86490E-05 5.36641E-07-7.64999E-19 4.81983E-19
 -1      3637 9.57813E-05-2.90582E-05-2.85956E-05 5.21547E-07-3.27139E-19 1.90108E-19
 -1      3638 9.57287E-05-2.90087E-05-2.85930E-05 4.88076E-07-8.69742E-20 4.31935E-19
 -1      3639 9.59092E-05-2.91322E-05-2.86202E-05 4.75109E-07-3.49465E-19 4.66050E-19
 -1      3640 9.56579E-05-2.89479E-05-2.85904E-05 4.60494E-07-3.70544E-19 4.43239E-19
 -1      3641 9.56094E-05-2.88894E-05-2.85930E-05 4.35911E-07-5.19022E-19 5.26488E-19
 -1      3642 9.57644E-05-2.90172E-05-2.86071E-05 4.20476E-07-3.99952E-20 5.51475E-19
 -1      3643 9.55419E-05-2.88203E-05-2.85956E-05 4.18038E-07-4.50630E-19 5.62743E-19
 -1      3644 9.54957E-05-2.87538E-05-2.86024E-05 4.05911E-07-5.39871E-19 4.52248E-19
 -1      3645 9.56276E-05-2.88816E-05-2.86062E-05 3.80362E-07-4.82149E-19 4.33946E-19
 -1      3646 9.54287E-05-2.86762E-05-2.86091E-05 4.00439E-07-5.24422E-19 5.77262E-19
 -1      3647 9.53822E-05-2.86009E-05-2.86193E-05 4.03886E-07-2.95089E-19 9.07011E-19
 -1      3648 9.54946E-05-2.87274E-05-2.86150E-05 3.60708E-07-5.28821E-19 1.04268E-18
 -1      3649 9.53119E-05-2.85131E-05-2.86293E-05 4.13339E-07-1.58254E-20 6.71963E-19
 -1      3650 9.52619E-05-2.84268E-05-2.86424E-05 4.35399E-07 2.67615E-19 1.07931E-18
 -1      3651 9.53588E-05-2.85528E-05-2.86312E-05 3.66693E-07 1.46224E-20 5.22209E-19
 -1      3652 9.51835E-05-2.83258E-05-2.86549E-05 4.62406E-07 2.89064E-19 9.68789E-19
 -1      3653 9.51260E-05-2.82257E-05-2.86704E-05 5.06305E-07 1.97241E-19 6.62462E-19
 -1      3654 9.52117E-05-2.83530E-05-2.86533E-05 4.03351E-07 4.26399E-20 8.76162E-19
 -1      3655 9.50336E-05-2.81076E-05-2.86848E-05 5.53780E-07 2.94165E-19 4.90401E-19
 -1      3656 9.49643E-05-2.79899E-05-2.87021E-05 6.23089E-07 6.28080E-19 2.63369E-19
 -1      3657 9.50426E-05-2.81211E-05-2.86797E-05 4.75994E-07 2.72940E-19 5.94058E-19
 -1      3658 9.48512E-05-2.78502E-05-2.87175E-05 6.94339E-07 7.56575E-19 2.09894E-19
 -1      3659 9.47646E-05-2.77111E-05-2.87360E-05 7.93032E-07 3.65492E-19 2.57214E-19
 -1      3660 9.48393E-05-2.78486E-05-2.87087E-05 5.90476E-07 6.02200E-19 1.99036E-19
 -1      3661 9.46231E-05-2.75453E-05-2.87511E-05 8.91781E-07 7.10283E-19 4.76061E-19
 -1      3662 9.45134E-05-2.73808E-05-2.87698E-05 1.02420E-06 1.06376E-18 5.55083E-19
 -1      3663 9.45873E-05-2.75261E-05-2.87382E-05 7.53305E-07 6.88308E-19 6.15925E-19
 -1      3664 9.43349E-05-2.71847E-05-2.87830E-05 1.15454E-06 4.26483E-19 3.35186E-19
 -1      3665 9.41955E-05-2.69919E-05-2.88003E-05 1.32524E-06 5.61245E-20 9.85790E-20
 -1      3666 9.42706E-05-2.71448E-05-2.87649E-05 9.71600E-07 6.55026E-19 2.40938E-19
 -1      3667 9.39706E-05-2.67622E-05-2.88090E-05 1.49156E-06-3.52504E-19-2.92906E-19
 -1      3668 9.37946E-05-2.65397E-05-2.88223E-05 1.70512E-06-1.04151E-18-6.11070E-19
 -1      3669 9.38712E-05-2.66970E-05-2.87846E-05 1.25294E-06-2.81401E-19 3.20189E-20
 -1      3670 9.35133E-05-2.62753E-05-2.88228E-05 1.91200E-06-1.05351E-18-3.49174E-19
 -1      3671 9.32940E-05-2.60245E-05-2.88286E-05 2.17281E-06-6.64932E-19-1.20436E-19
 -1      3672 9.33701E-05-2.61784E-05-2.87908E-05 1.60518E-06-8.94158E-19 2.34548E-19
 -1      3673 9.29463E-05-2.57278E-05-2.88159E-05 2.42508E-06-4.26855E-19-3.13005E-19
 -1      3674 9.26782E-05-2.54549E-05-2.88088E-05 2.73725E-06-8.48226E-20 1.14208E-19
 -1      3675 9.27473E-05-2.55904E-05-2.87744E-05 2.03642E-06-4.19339E-19 9.59398E-19
 -1      3676 9.22550E-05-2.51339E-05-2.87757E-05 3.04043E-06 4.93532E-19-5.36058E-19
 -1      3677 9.19354E-05-2.48523E-05-2.87486E-05 3.40814E-06 7.63605E-19-7.45296E-19
 -1      3678 9.19839E-05-2.49430E-05-2.87229E-05 2.55553E-06-6.16029E-20 2.29895E-19
 -1      3679 9.14295E-05-2.45230E-05-2.86856E-05 3.76967E-06 7.59364E-19-7.04447E-19
 -1      3680 9.10617E-05-2.42569E-05-2.86287E-05 4.19836E-06 7.88127E-19-4.94903E-19
 -1      3681 9.10631E-05-2.42594E-05-2.86193E-05 3.17386E-06 7.99407E-19-5.12923E-19
 -1      3682 9.04696E-05-2.39472E-05-2.85233E-05 4.63027E-06 5.12157E-19-3.97968E-19
 -1      3683 9.00681E-05-2.37367E-05-2.84242E-05 5.12937E-06 5.71581E-19 2.73249E-20
 -1      3684 8.99737E-05-2.35810E-05-2.84410E-05 3.90934E-06 9.22573E-19-6.32793E-19
 -1      3685 8.93926E-05-2.34909E-05-2.82603E-05 5.65329E-06-3.08545E-19 2.92917E-19
 -1      3686 8.89907E-05-2.33990E-05-2.81039E-05 6.24111E-06-5.47070E-19 2.12816E-20
 -1      3687 8.87135E-05-2.29748E-05-2.81585E-05 4.79464E-06 1.03164E-19-1.13595E-19
 -1      3688 8.82454E-05-2.32840E-05-2.78612E-05 6.89657E-06-5.71824E-19 7.07423E-20
 -1      3689 8.79086E-05-2.34060E-05-2.76305E-05 7.60787E-06-1.35200E-18-6.14291E-20
 -1      3690 8.72962E-05-2.25422E-05-2.77345E-05 5.89130E-06-4.84329E-19 2.00587E-20
 -1      3691 8.71243E-05-2.35197E-05-2.72847E-05 8.46741E-06-1.02649E-18 3.39783E-19
 -1      3692 8.69743E-05-2.40019E-05-2.69626E-05 9.36419E-06-1.99585E-19 1.27531E-19
 -1      3693 8.57592E-05-2.24306E-05-2.71224E-05 7.31383E-06-8.06865E-19 1.60705E-18
 -1      3694 8.62172E-05-2.44881E-05-2.64846E-05 1.05470E-05-4.76507E-19-3.54552E-19
 -1      3695 8.64591E-05-2.55529E-05-2.60591E-05 1.17251E-05-4.31576E-19-5.08802E-19
 -1      3696 8.41868E-05-2.28673E-05-2.62645E-05 9.26013E-06-8.61854E-19 1.96584E-18
 -1      3697 8.59004E-05-2.66393E-05-2.54177E-05 1.34029E-05 2.18382E-19-9.22969E-19
 -1      3698 8.70523E-05-2.86870E-05-2.49410E-05 1.48982E-05 3.64409E-19-2.96336E-19
 -1      3699 8.27940E-05-2.42294E-05-2.50955E-05 1.20763E-05-1.41448E-20 1.29146E-18
 -1      3700 8.59003E-05-3.09204E-05-2.35167E-05 1.82958E-05 8.74753E-19-2.86951E-19
 -1      3701 8.79677E-05-3.45012E-05-2.28211E-05 2.06975E-05 4.19572E-19 5.32982E-19
 -1      3702 9.01319E-05-3.79345E-05-2.22382E-05 2.26056E-05 1.21177E-18 1.63554E-18
 -1      3703 9.59214E-05-2.85313E-05-2.88838E-05-8.35712E-07 1.49600E-20 2.59926E-20
 -1      3704 9.59521E-05-2.83408E-05-2.89696E-05-6.88050E-07 7.43355E-20 5.30209E-20
 -1      3705 9.61555E-05-2.86178E-05-2.89473E-05-7.83799E-07 4.64154E-21-5.90260E-20
 -1      3706 9.56708E-05-2.89866E-05-2.85776E-05-5.48702E-07-3.75407E-19-4.23064E-20
 -1      3707 9.57130E-05-2.90288E-05-2.85791E-05-5.87915E-07-2.10154E-19-1.51633E-19
 -1      3708 9.57246E-05-2.90062E-05-2.85947E-05-4.86927E-07-5.14804E-19 1.29316E-19
 -1      3709 9.44631E-05-2.23435E-05-3.09270E-05 2.55561E-06 7.45383E-19 4.33488E-20
 -1      3710 9.42491E-05-2.18473E-05-3.10330E-05 2.13471E-06 6.52100E-19 5.07296E-20
 -1      3711 9.48087E-05-2.28830E-05-3.08071E-05 1.55404E-06 4.95792E-19 1.57266E-19
 -1      3712 9.57809E-05-2.90733E-05-2.85876E-05-6.27613E-07 1.51126E-19-4.23059E-20
 -1      3713 9.58278E-05-2.91039E-05-2.85956E-05-6.70930E-07 5.34768E-19 1.07450E-19
 -1      3714 9.58540E-05-2.91083E-05-2.86067E-05-5.53019E-07 6.64520E-20 4.05423E-19
 -1      3715 9.53822E-05-2.86285E-05-2.86073E-05-4.34729E-07 1.19796E-20 7.18830E-19
 -1      3716 9.54172E-05-2.86939E-05-2.85967E-05-4.35671E-07-9.81771E-20 7.65353E-19
 -1      3717 9.52859E-05-2.84765E-05-2.86312E-05-4.59810E-07-1.08123E-19 9.94632E-19
 -1      3718 9.53227E-05-2.85510E-05-2.86177E-05-4.41281E-07 5.44242E-20 9.52954E-19
 -1      3719 9.53719E-05-2.85902E-05-2.86209E-05-4.06453E-07-5.99266E-20 3.83934E-19
 -1      3720 9.51791E-05-2.83018E-05-2.86602E-05-5.26780E-07-2.25998E-19 8.25713E-19
 -1      3721 9.52205E-05-2.83878E-05-2.86442E-05-4.85396E-07-2.83950E-20 1.24722E-18
 -1      3722 9.52481E-05-2.84124E-05-2.86437E-05-4.39468E-07-1.34036E-19 1.12243E-18
 -1      3723 9.50538E-05-2.80984E-05-2.86936E-05-6.42621E-07 1.34711E-20 1.60793E-19
 -1      3724 9.51031E-05-2.81988E-05-2.86754E-05-5.74618E-07-1.73837E-19 3.00035E-19
 -1      3725 9.51081E-05-2.82071E-05-2.86712E-05-5.12188E-07 9.72700E-20 4.38112E-19
 -1      3726 9.49007E-05-2.78595E-05-2.87303E-05-8.15257E-07 2.93252E-19 6.66005E-20
 -1      3727 9.49617E-05-2.79774E-05-2.87102E-05-7.16398E-07 1.78869E-19 2.01108E-19
 -1      3728 9.49415E-05-2.79673E-05-2.87021E-05-6.31269E-07 1.76764E-19-8.80315E-20
 -1      3729 9.47096E-05-2.75786E-05-2.87686E-05-1.05359E-06-1.76879E-19 1.43198E-19
 -1      3730 9.47863E-05-2.77167E-05-2.87474E-05-9.19194E-07 5.63602E-20 3.03275E-19
 -1      3731 9.47368E-05-2.76852E-05-2.87347E-05-8.04251E-07 1.76344E-19 6.59427E-19
 -1      3732 9.44697E-05-2.72505E-05-2.88062E-05-1.36735E-06-1.19116E-19 1.78766E-19
 -1      3733 9.45661E-05-2.74108E-05-2.87849E-05-1.19243E-06-4.11443E-19 2.70433E-19
 -1      3734 9.44812E-05-2.73536E-05-2.87665E-05-1.03960E-06-1.16991E-19 5.69815E-19
 -1      3735 9.41699E-05-2.68735E-05-2.88391E-05-1.76679E-06-4.88536E-19-1.14413E-19
 -1      3736 9.42901E-05-2.70558E-05-2.88197E-05-1.54630E-06 5.38680E-20 1.43281E-19
 -1      3737 9.41611E-05-2.69672E-05-2.87941E-05-1.34664E-06-3.22761E-19 1.54022E-19
 -1      3738 9.38007E-05-2.64511E-05-2.88616E-05-2.26221E-06-7.25574E-19-5.21186E-19
 -1      3739 9.39476E-05-2.66523E-05-2.88468E-05-1.99137E-06-7.10353E-19-2.47895E-19
 -1      3740 9.37627E-05-2.65244E-05-2.88122E-05-1.73536E-06-5.20661E-19 2.41424E-19
 -1      3741 9.33557E-05-2.59963E-05-2.88654E-05-2.86364E-06-8.89254E-19-5.29959E-19
 -1      3742 9.35300E-05-2.62078E-05-2.88594E-05-2.53828E-06-9.52475E-19-6.58239E-19
 -1      3743 9.32737E-05-2.60302E-05-2.88133E-05-2.21637E-06-7.15885E-19-5.31838E-19
 -1      3744 9.28357E-05-2.55361E-05-2.88392E-05-3.58076E-06-2.95015E-19 2.95509E-19
 -1      3745 9.30334E-05-2.57415E-05-2.88476E-05-3.19750E-06-4.15566E-19-2.34824E-19
 -1      3746 9.26849E-05-2.54996E-05-2.87873E-05-2.80115E-06-4.89432E-19-8.17161E-19
 -1      3747 9.22541E-05-2.51185E-05-2.87679E-05-4.42381E-06 2.75592E-19-1.73119E-19
 -1      3748 9.24632E-05-2.52897E-05-2.87981E-05-3.97990E-06 1.41100E-19 1.70564E-19
 -1      3749 9.19940E-05-2.49629E-05-2.87202E-05-3.50309E-06-1.07182E-21-4.75437E-19
 -1      3750 9.16464E-05-2.48223E-05-2.86323E-05-5.40600E-06 6.41298E-19-4.13488E-19
 -1      3751 9.18410E-05-2.49139E-05-2.86936E-05-4.89848E-06 3.92093E-19-3.07428E-19
 -1      3752 9.12108E-05-2.44724E-05-2.85941E-05-4.34028E-06 6.35575E-19-4.83742E-19
 -1      3753 9.10846E-05-2.47705E-05-2.84102E-05-6.54809E-06 1.12703E-19 2.05179E-19
 -1      3754 9.12156E-05-2.47121E-05-2.85130E-05-5.97228E-06 6.74808E-19 4.01688E-19
 -1      3755 9.03650E-05-2.41116E-05-2.83863E-05-5.34101E-06 1.59152E-19 4.19953E-19
 -1      3756 9.07002E-05-2.51472E-05-2.80777E-05-7.88345E-06-4.37129E-19-6.84208E-19
 -1      3757 9.06815E-05-2.48343E-05-2.82321E-05-7.23188E-06-2.05352E-19-2.80952E-19
 -1      3758 8.95203E-05-2.40085E-05-2.80701E-05-6.55281E-06 2.67173E-19 9.76346E-19
 -1      3759 9.07180E-05-2.62176E-05-2.76158E-05-9.45955E-06-8.65159E-19-1.80167E-19
 -1      3760 9.04067E-05-2.55013E-05-2.78275E-05-8.72381E-06-5.58722E-19-3.95004E-19
 -1      3761 8.87963E-05-2.43542E-05-2.76163E-05-8.05271E-06-4.52784E-19 9.57024E-19
 -1      3762 9.15093E-05-2.83557E-05-2.70206E-05-1.13359E-05-3.59838E-19-7.63042E-19
 -1      3763 9.06709E-05-2.70236E-05-2.72836E-05-1.05183E-05-6.63624E-19-2.69499E-19
 -1      3764 8.83946E-05-2.54142E-05-2.69981E-05-9.96021E-06-3.87175E-19 8.69141E-19
 -1      3765 9.36812E-05-3.20872E-05-2.63302E-05-1.34882E-05 1.00160E-19-1.12457E-18
 -1      3766 9.19824E-05-2.98801E-05-2.66082E-05-1.26765E-05-2.71577E-19-1.06400E-18
 -1      3767 8.86830E-05-2.75995E-05-2.61985E-05-1.24735E-05 3.93717E-20-2.31032E-21
 -1      3768 9.81879E-05-3.81047E-05-2.56995E-05-1.57095E-05-1.01494E-18-4.54943E-19
 -1      3769 9.50386E-05-3.44725E-05-2.58735E-05-1.51024E-05-3.35690E-19-1.02265E-18
 -1      3770 9.04054E-05-3.15159E-05-2.52365E-05-1.57258E-05-2.98116E-19-9.48867E-19
 -1      3771 9.38145E-05-2.09467E-05-3.12377E-05-2.13902E-07 5.55931E-19-4.56959E-19
 -1      3772 9.38558E-05-2.10386E-05-3.12190E-05-7.73993E-07 5.14026E-19-5.84212E-19
 -1      3773 9.45329E-05-2.22147E-05-3.09763E-05 1.44337E-08 4.18935E-19-3.90045E-19
 -1      3774 9.39177E-05-2.11525E-05-3.11910E-05-1.13110E-06 4.69927E-19-5.58933E-19
 -1      3775 9.40487E-05-2.14283E-05-3.11351E-05-1.64851E-06 4.16397E-19-5.23878E-19
 -1      3776 9.47101E-05-2.26663E-05-3.08629E-05-1.31999E-06 4.37770E-19-4.26127E-19
 -1      3777 9.45866E-05-2.23377E-05-3.09464E-05-7.20117E-07 5.06552E-19-5.34159E-19
 -1      3778 1.02357E-04-4.41341E-05-2.47756E-05-1.89011E-05-1.64755E-19-1.13283E-18
 -1      3779 6.79908E-05-2.23552E-05-1.96011E-05-1.61966E-05 1.04201E-18-2.05114E-19
 -1      3780 7.23716E-05-2.66894E-05-1.92908E-05-2.18845E-05 1.00704E-18-4.83418E-19
 -1      3781 7.99894E-05-3.02516E-05-2.12629E-05-2.11984E-05 5.26148E-19 2.78350E-19
 -1      3782 9.54749E-05-2.87627E-05-2.85895E-05-4.45261E-07-1.97867E-19 6.74147E-19
 -1      3783 9.55105E-05-2.88205E-05-2.85821E-05-4.62472E-07-5.43336E-19 5.23181E-19
 -1      3784 9.54880E-05-2.87464E-05-2.86041E-05-4.07172E-07-3.42764E-19-2.06329E-20
 -1      3785 7.63465E-05-2.53708E-05-2.18079E-05 1.68514E-05 1.01431E-18 1.83594E-19
 -1      3786 6.89847E-05-2.01251E-05-2.08850E-05 1.16419E-05 8.57302E-19 8.88061E-20
 -1      3787 9.53079E-05-2.41590E-05-3.04974E-05-1.61214E-06 1.12287E-19-4.32173E-19
 -1      3788 9.56462E-05-2.50612E-05-3.02550E-05-1.14167E-06 1.44367E-19-2.52989E-19
 -1      3789 9.57921E-05-2.52218E-05-3.02414E-05-8.68469E-07 2.70453E-19 1.08102E-19
 -1      3790 9.51746E-05-2.37505E-05-3.06087E-05-1.36637E-06 3.43266E-19-2.24272E-19
 -1      3791 9.50961E-05-2.37072E-05-3.05804E-05 2.07376E-06 6.13432E-19 3.45722E-20
 -1      3792 1.23755E-04-5.59269E-05-2.93252E-05-4.47657E-06-4.54579E-19-1.36632E-18
 -1      3793 9.48143E-05-3.97107E-05-2.36305E-05-2.12541E-05-1.71021E-19-1.54864E-18
 -1      3794 9.62817E-05-2.75250E-05-2.94737E-05-6.81518E-08 2.54292E-19-5.75822E-20
 -1      3795 9.62140E-05-2.70325E-05-2.96422E-05 2.73893E-07 2.90499E-19-1.72670E-20
 -1      3796 9.61810E-05-2.81543E-05-2.91567E-05-4.87358E-07 5.61624E-20-1.25764E-19
 -1      3797 8.05950E-05-2.70591E-05-2.29467E-05 1.69853E-05 9.61001E-19 7.46260E-19
 -1      3798 9.62696E-05-2.89897E-05-2.88349E-05-8.31368E-07 7.55802E-20 2.35064E-21
 -1      3799 9.63170E-05-2.88781E-05-2.88990E-05-7.89589E-07 8.34600E-20-7.33808E-20
 -1      3800 7.25252E-05-2.01732E-05-2.23500E-05 9.32368E-06 8.26585E-20 1.72027E-19
 -1      3801 6.69817E-05-1.80391E-05-2.08636E-05 7.48333E-06 8.11745E-19 1.47486E-18
 -1      3802 6.68136E-05-1.74540E-05-2.12112E-05 1.96044E-06 5.29032E-20 1.02400E-18
 -1      3803 9.61497E-05-2.64679E-05-2.98636E-05 4.77657E-07 2.88384E-19 2.25387E-19
 -1      3804 9.60074E-05-2.63819E-05-2.98452E-05 6.33167E-07 3.76125E-19 1.42950E-20
 -1      3805 9.50503E-05-2.33321E-05-3.07449E-05 1.96870E-07 4.77098E-19-3.61190E-19
 -1      3806 9.50485E-05-2.33306E-05-3.07450E-05-1.75514E-07 4.94517E-19-4.73293E-19
 -1      3807 9.56038E-05-2.88848E-05-2.85947E-05-4.35970E-07-4.42334E-19 4.95543E-19
 -1      3808 9.55839E-05-2.50243E-05-3.02489E-05 1.49090E-06 4.79065E-19-2.26993E-20
 -1      3809 9.54704E-05-2.45743E-05-3.03840E-05 1.34337E-06 3.45890E-19 3.43447E-19
 -1      3810 9.59005E-05-2.91345E-05-2.86128E-05-7.12021E-07 4.25169E-19-2.11775E-21
 -1      3811 9.59520E-05-2.91481E-05-2.86295E-05-7.52667E-07 3.47711E-19 1.86936E-20
 -1      3812 9.59931E-05-2.91837E-05-2.86343E-05-6.25791E-07 2.99117E-19 2.76897E-19
 -1      3813 9.58565E-05-2.59041E-05-2.99702E-05 9.84857E-07 4.36163E-19-2.45792E-20
 -1      3814 9.61540E-05-2.91187E-05-2.87291E-05-8.37423E-07 1.04764E-19-1.98939E-19
 -1      3815 9.62079E-05-2.90661E-05-2.87728E-05-8.39776E-07 1.08861E-19-2.69779E-19
 -1      3816 9.64173E-05-2.90694E-05-2.88653E-05-7.35793E-07 2.75638E-19-3.28180E-19
 -1      3817 6.67118E-05-1.80026E-05-2.09298E-05-6.13279E-06 4.32596E-19-5.47580E-19
 -1      3818 6.66360E-05-1.93344E-05-2.00298E-05-1.14213E-05 3.97167E-19-5.73633E-19
 -1      3819 7.19873E-05-2.21171E-05-2.13697E-05-1.37043E-05 2.44986E-19-2.06987E-19
 -1      3820 9.55344E-05-2.52091E-05-3.01396E-05 1.68829E-06 5.60746E-19-3.73369E-19
 -1      3821 9.51339E-05-2.35703E-05-3.06818E-05 8.32933E-07 3.32574E-19-1.10369E-19
 -1      3822 9.50739E-05-2.34015E-05-3.07236E-05 4.82581E-07 3.11558E-19-2.62044E-19
 -1      3823 9.55839E-05-2.43686E-05-3.05046E-05 2.55403E-07 3.61063E-19-3.94707E-19
 -1      3824 9.63737E-05-2.82653E-05-2.91934E-05-4.99612E-07-2.29290E-20 1.13410E-19
 -1      3825 9.63683E-05-2.79443E-05-2.93186E-05-2.89929E-07 1.48883E-19-7.59762E-20
 -1      3826 9.64448E-05-2.76033E-05-2.95031E-05-1.00800E-07 1.78020E-19 2.42628E-19
 -1      3827 9.65143E-05-2.88095E-05-2.90179E-05-6.57200E-07 8.08398E-20 6.68062E-21
 -1      3828 9.63536E-05-2.87257E-05-2.89854E-05-7.34574E-07-7.65070E-20 1.50115E-19
 -1      3829 9.63836E-05-2.85282E-05-2.90763E-05-6.24246E-07-1.17346E-19-4.34648E-20
 -1      3830 9.66100E-05-2.74117E-05-2.96539E-05-4.24487E-09 1.82150E-19-4.15906E-21
 -1      3831 9.67013E-05-2.78837E-05-2.94976E-05 1.84935E-07 1.08734E-19-9.68688E-20
 -1      3832 9.67762E-05-2.82749E-05-2.93551E-05 2.79026E-07 1.95644E-19-1.93085E-19
 -1      3833 9.67870E-05-2.85778E-05-2.92350E-05 3.92102E-07 2.23078E-19-1.68183E-19
 -1      3834 9.68039E-05-2.80086E-05-2.94826E-05 1.63186E-07 1.21568E-19-3.15521E-19
 -1      3835 9.67820E-05-2.88180E-05-2.91252E-05 4.39443E-07 2.08907E-19-1.25896E-19
 -1      3836 9.67430E-05-2.89969E-05-2.90350E-05 4.96353E-07 1.73398E-19-1.71182E-19
 -1      3837 9.68710E-05-2.86738E-05-2.92279E-05 3.12586E-07 1.59975E-19-4.11311E-19
 -1      3838 9.66892E-05-2.91291E-05-2.89525E-05 5.11276E-07 2.64603E-19-1.25406E-19
 -1      3839 9.66227E-05-2.92207E-05-2.88866E-05 5.29477E-07 3.92705E-19 1.12572E-19
 -1      3840 9.68110E-05-2.90697E-05-2.90334E-05 3.86696E-07 3.22409E-19 7.06099E-20
 -1      3841 9.65421E-05-2.92775E-05-2.88263E-05 5.23097E-07 3.42826E-19-1.20937E-19
 -1      3842 9.64628E-05-2.93090E-05-2.87796E-05 5.17048E-07 1.66796E-19-4.78024E-20
 -1      3843 9.66767E-05-2.92743E-05-2.88885E-05 4.08465E-07 1.79103E-19 2.68941E-19
 -1      3844 9.63709E-05-2.93152E-05-2.87371E-05 4.98794E-07-9.34870E-20-1.20251E-19
 -1      3845 9.62885E-05-2.93066E-05-2.87055E-05 4.78972E-07-5.44696E-19-2.83692E-20
 -1      3846 9.65047E-05-2.93463E-05-2.87840E-05 3.97029E-07-5.58480E-20-8.32217E-20
 -1      3847 9.61941E-05-2.92795E-05-2.86770E-05 4.55350E-07-6.42761E-19 4.16084E-19
 -1      3848 9.61140E-05-2.92445E-05-2.86572E-05 4.29808E-07-4.91070E-19 7.18015E-19
 -1      3849 9.63195E-05-2.93304E-05-2.87115E-05 3.66912E-07-2.35890E-19 5.15689E-19
 -1      3850 9.60221E-05-2.91954E-05-2.86396E-05 4.05394E-07-5.43540E-19 4.12454E-19
 -1      3851 9.59465E-05-2.91429E-05-2.86289E-05 3.80136E-07-2.94883E-19 4.55424E-19
 -1      3852 9.61348E-05-2.92557E-05-2.86642E-05 3.29565E-07-5.35396E-19 8.15138E-19
 -1      3853 9.58590E-05-2.90790E-05-2.86199E-05 3.58833E-07-1.31818E-19 3.79199E-19
 -1      3854 9.57881E-05-2.90142E-05-2.86162E-05 3.38174E-07-5.61597E-20 4.23767E-19
 -1      3855 9.59569E-05-2.91413E-05-2.86367E-05 2.92605E-07-3.16843E-19 5.69296E-20
 -1      3856 9.57046E-05-2.89395E-05-2.86138E-05 3.22473E-07-3.36204E-19 3.95619E-19
 -1      3857 9.56369E-05-2.88646E-05-2.86156E-05 3.09657E-07-5.45801E-19 3.61801E-19
 -1      3858 9.57875E-05-2.89995E-05-2.86246E-05 2.62622E-07-2.18762E-19 1.86392E-19
 -1      3859 9.55551E-05-2.87801E-05-2.86183E-05 3.01547E-07-3.27033E-19 4.51865E-19
 -1      3860 9.54879E-05-2.86952E-05-2.86245E-05 2.99249E-07-3.51418E-19 7.55174E-19
 -1      3861 9.56240E-05-2.88354E-05-2.86243E-05 2.43833E-07-3.01623E-19 1.18025E-19
 -1      3862 9.54038E-05-2.85997E-05-2.86311E-05 3.00520E-07-3.09317E-19 9.25725E-19
 -1      3863 9.53333E-05-2.85032E-05-2.86406E-05 3.11172E-07 2.28929E-19 6.15171E-19
 -1      3864 9.54599E-05-2.86493E-05-2.86333E-05 2.39937E-07-2.29527E-19 8.80561E-19
 -1      3865 9.52418E-05-2.83941E-05-2.86502E-05 3.23580E-07 2.22221E-19 6.80450E-19
 -1      3866 9.51630E-05-2.82828E-05-2.86623E-05 3.49608E-07 1.12314E-19 6.20993E-19
 -1      3867 9.52864E-05-2.84373E-05-2.86493E-05 2.54307E-07-1.74330E-21 7.44604E-19
 -1      3868 9.50579E-05-2.81562E-05-2.86739E-05 3.75029E-07-9.75191E-20 3.28245E-19
 -1      3869 9.49651E-05-2.80262E-05-2.86876E-05 4.19014E-07 1.65578E-19 4.61078E-20
 -1      3870 9.50921E-05-2.81930E-05-2.86702E-05 2.90307E-07-1.49017E-19 2.95068E-19
 -1      3871 9.48389E-05-2.78773E-05-2.87001E-05 4.59540E-07 5.98422E-19 7.26037E-20
 -1      3872 9.47253E-05-2.77239E-05-2.87145E-05 5.24291E-07 7.93723E-19 6.89481E-20
 -1      3873 9.48636E-05-2.79075E-05-2.86939E-05 3.51504E-07 2.99398E-19-1.18040E-19
 -1      3874 9.45694E-05-2.75476E-05-2.87266E-05 5.82270E-07 7.74173E-19 2.64711E-19
 -1      3875 9.44274E-05-2.73661E-05-2.87404E-05 6.70834E-07 6.80669E-19 5.04044E-19
 -1      3876 9.45848E-05-2.75708E-05-2.87178E-05 4.41784E-07 9.14217E-19-4.52042E-19
 -1      3877 9.42321E-05-2.71573E-05-2.87501E-05 7.48854E-07 4.90989E-19 3.06017E-19
 -1      3878 9.40530E-05-2.69433E-05-2.87614E-05 8.64446E-07 2.12127E-19-3.32199E-19
 -1      3879 9.42378E-05-2.71726E-05-2.87388E-05 5.65347E-07 3.65404E-19-3.17960E-19
 -1      3880 9.38076E-05-2.66975E-05-2.87662E-05 9.65294E-07-2.08442E-19-4.38371E-19
 -1      3881 9.35820E-05-2.64479E-05-2.87722E-05 1.11119E-06-7.97284E-19-4.25936E-19
 -1      3882 9.38022E-05-2.67031E-05-2.87521E-05 7.26626E-07-2.96384E-19-7.11059E-19
 -1      3883 9.32748E-05-2.61621E-05-2.87684E-05 1.23781E-06-7.30508E-19 2.58551E-19
 -1      3884 9.29926E-05-2.58757E-05-2.87653E-05 1.41727E-06-3.24753E-19 8.41994E-19
 -1      3885 9.32559E-05-2.61550E-05-2.87514E-05 9.30166E-07-3.61861E-19 8.17358E-23
 -1      3886 9.26111E-05-2.55497E-05-2.87478E-05 1.57276E-06-4.67014E-19 5.23461E-19
 -1      3887 9.22624E-05-2.52287E-05-2.87301E-05 1.78908E-06-3.03210E-19 6.41970E-19
 -1      3888 9.25749E-05-2.55250E-05-2.87279E-05 1.18057E-06-3.66191E-19 7.35448E-19
 -1      3889 9.17936E-05-2.48661E-05-2.86920E-05 1.97703E-06-3.47347E-19 1.03127E-18
 -1      3890 9.13689E-05-2.45180E-05-2.86523E-05 2.23397E-06 5.42368E-20 1.04835E-18
 -1      3891 9.17339E-05-2.48161E-05-2.86692E-05 1.48277E-06-2.26610E-19 7.48174E-19
 -1      3892 9.07991E-05-2.41279E-05-2.85842E-05 2.45920E-06 5.15543E-19 6.24164E-19
 -1      3893 9.02908E-05-2.37670E-05-2.85125E-05 2.76228E-06 7.69495E-19 5.75095E-19
 -1      3894 9.07068E-05-2.40402E-05-2.85590E-05 1.84295E-06-1.03225E-19 1.30423E-18
 -1      3895 8.96055E-05-2.33657E-05-2.84020E-05 3.03275E-06 6.80723E-19-6.89545E-19
 -1      3896 8.90093E-05-2.30161E-05-2.82852E-05 3.39201E-06 6.42690E-19-7.93254E-19
 -1      3897 8.94657E-05-2.32208E-05-2.83752E-05 2.27104E-06-4.40105E-20 3.63930E-19
 -1      3898 8.81914E-05-2.26285E-05-2.81158E-05 3.72261E-06 8.71568E-19-6.66351E-19
 -1      3899 8.75086E-05-2.23266E-05-2.79368E-05 4.15788E-06 1.14018E-19-5.63937E-19
 -1      3900 8.79796E-05-2.23945E-05-2.80885E-05 2.78604E-06 6.60604E-19-1.06106E-18
 -1      3901 8.65361E-05-2.19883E-05-2.76866E-05 4.57757E-06-2.56573E-19 6.67842E-20
 -1      3902 8.57774E-05-2.17875E-05-2.74239E-05 5.12759E-06-2.78151E-19 1.13778E-19
 -1      3903 8.62101E-05-2.16131E-05-2.76598E-05 3.42658E-06 6.08158E-19-1.11616E-19
 -1      3904 8.46192E-05-2.15449E-05-2.70639E-05 5.68758E-06-5.02683E-19 6.90081E-19
 -1      3905 8.38117E-05-2.15171E-05-2.66906E-05 6.42318E-06-5.54985E-19 1.05651E-18
 -1      3906 8.41063E-05-2.09467E-05-2.70369E-05 4.26771E-06 3.01509E-19 1.04133E-19
 -1      3907 8.24131E-05-2.14290E-05-2.61791E-05 7.23973E-06-1.01556E-18 1.32216E-18
 -1      3908 8.16401E-05-2.16983E-05-2.56613E-05 8.27515E-06-8.76369E-19 1.47478E-18
 -1      3909 8.15698E-05-2.04680E-05-2.61483E-05 5.43695E-06-8.05669E-19 3.57427E-19
 -1      3910 9.57666E-05-2.90142E-05-2.86069E-05-4.07472E-07-4.90412E-19 5.39581E-19
 -1      3911 9.58297E-05-2.90724E-05-2.86102E-05-4.33821E-07-4.00482E-19 5.37239E-19
 -1      3912 9.59121E-05-2.91305E-05-2.86194E-05-4.60961E-07-2.57255E-19 4.92894E-19
 -1      3913 9.59805E-05-2.91769E-05-2.86296E-05-4.91921E-07 7.58699E-20 5.29394E-19
 -1      3914 9.59410E-05-2.91402E-05-2.86304E-05-3.76311E-07-3.07886E-19 4.79087E-19
 -1      3915 9.62914E-05-2.66697E-05-2.98451E-05 2.65349E-07 2.30831E-19 3.78011E-19
 -1      3916 9.60828E-05-2.59548E-05-3.00504E-05 6.21131E-07 2.46632E-19 3.18803E-19
 -1      3917 9.52102E-05-2.83485E-05-2.86540E-05-3.95909E-07-1.22494E-19 1.45001E-19
 -1      3918 9.52760E-05-2.84484E-05-2.86416E-05-3.70351E-07-3.37084E-19 2.44187E-19
 -1      3919 9.53583E-05-2.85481E-05-2.86319E-05-3.58066E-07-2.23111E-19 6.18143E-19
 -1      3920 9.54182E-05-2.86352E-05-2.86221E-05-3.49740E-07 6.69286E-20 6.78228E-19
 -1      3921 9.53206E-05-2.84892E-05-2.86419E-05-3.10440E-07-4.43350E-20 6.20850E-19
 -1      3922 9.48366E-05-2.78463E-05-2.87093E-05-5.84905E-07 3.15626E-19 1.06377E-20
 -1      3923 9.49293E-05-2.79826E-05-2.86937E-05-5.15601E-07 1.76004E-19 4.36164E-20
 -1      3924 9.45853E-05-2.75271E-05-2.87385E-05-7.48824E-07 4.95456E-20 1.31908E-19
 -1      3925 9.47005E-05-2.76876E-05-2.87227E-05-6.52275E-07 1.91785E-19-1.21559E-19
 -1      3926 9.47002E-05-2.76963E-05-2.87140E-05-5.27305E-07 1.71076E-19 2.15037E-19
 -1      3927 9.42713E-05-2.71519E-05-2.87648E-05-9.68920E-07 4.98901E-20 3.39314E-20
 -1      3928 9.44156E-05-2.73399E-05-2.87504E-05-8.41041E-07 1.90072E-19 4.09011E-19
 -1      3929 9.43976E-05-2.73347E-05-2.87383E-05-6.77010E-07 6.67845E-21 9.92761E-20
 -1      3930 9.38785E-05-2.67149E-05-2.87838E-05-1.25364E-06-3.86808E-19-2.62297E-20
 -1      3931 9.40590E-05-2.69326E-05-2.87730E-05-1.09004E-06-3.73660E-19-3.85008E-19
 -1      3932 9.40194E-05-2.69102E-05-2.87572E-05-8.76176E-07 1.92215E-19 2.36950E-19
 -1      3933 9.33906E-05-2.62145E-05-2.87892E-05-1.61221E-06-9.36728E-19 1.23566E-20
 -1      3934 9.36140E-05-2.64616E-05-2.87852E-05-1.40825E-06-6.70344E-19 2.48862E-20
 -1      3935 9.35473E-05-2.64170E-05-2.87650E-05-1.13255E-06-7.41789E-19-2.00518E-19
 -1      3936 9.27924E-05-2.56562E-05-2.87721E-05-2.05480E-06-3.40027E-19-4.81029E-19
 -1      3937 9.30644E-05-2.59284E-05-2.87795E-05-1.80558E-06-7.41643E-19-4.91955E-21
 -1      3938 9.29622E-05-2.58541E-05-2.87541E-05-1.45493E-06-7.06753E-19 1.59576E-19
 -1      3939 9.20716E-05-2.50559E-05-2.87204E-05-2.59323E-06-2.50048E-19-6.83855E-19
 -1      3940 9.23956E-05-2.53430E-05-2.87452E-05-2.29323E-06-3.76838E-19-4.81925E-19
 -1      3941 9.22458E-05-2.52279E-05-2.87138E-05-1.85372E-06-2.68299E-19-2.02591E-19
 -1      3942 9.12223E-05-2.44445E-05-2.86180E-05-3.24269E-06 4.80895E-20-2.35764E-19
 -1      3943 9.15971E-05-2.47277E-05-2.86684E-05-2.88489E-06-1.74509E-19-1.90930E-19
 -1      3944 9.13821E-05-2.45553E-05-2.86301E-05-2.34217E-06-5.65046E-19-2.92613E-19
 -1      3945 9.02489E-05-2.38743E-05-2.84441E-05-4.02566E-06 7.72648E-19 7.51561E-21
 -1      3946 9.06656E-05-2.41229E-05-2.85305E-05-3.59946E-06 6.82643E-19 1.50763E-19
 -1      3947 9.03591E-05-2.38680E-05-2.84842E-05-2.93908E-06 6.50069E-20 5.99186E-19
 -1      3948 8.91725E-05-2.34261E-05-2.81725E-05-4.97920E-06-5.04825E-19 9.72805E-19
 -1      3949 8.96092E-05-2.35929E-05-2.83078E-05-4.46660E-06 1.27272E-21 3.74371E-19
 -1      3950 8.91711E-05-2.32171E-05-2.82518E-05-3.67420E-06 6.91213E-20 1.52529E-18
 -1      3951 8.80414E-05-2.32207E-05-2.77713E-05-6.16802E-06-2.68035E-19 1.75448E-18
 -1      3952 8.84546E-05-2.32344E-05-2.79705E-05-5.53752E-06-3.35367E-19 1.10447E-18
 -1      3953 8.78203E-05-2.26773E-05-2.79019E-05-4.59867E-06-3.57580E-19 1.04752E-18
 -1      3954 8.69507E-05-2.34369E-05-2.72037E-05-7.70082E-06-3.90782E-19 1.61149E-18
 -1      3955 8.72614E-05-2.31917E-05-2.74828E-05-6.90078E-06-1.60295E-19 1.87426E-18
 -1      3956 8.63228E-05-2.23584E-05-2.73952E-05-5.80480E-06-5.09462E-19 1.13210E-18
 -1      3957 8.60614E-05-2.43176E-05-2.64316E-05-9.73177E-06 1.11496E-19 8.88808E-19
 -1      3958 8.61485E-05-2.36795E-05-2.68039E-05-8.68875E-06-2.41689E-19 1.36996E-18
 -1      3959 8.47323E-05-2.24311E-05-2.66827E-05-7.43916E-06 2.07119E-19 1.42315E-18
 -1      3960 8.56251E-05-2.62542E-05-2.54115E-05-1.25740E-05 1.16701E-20 9.48164E-19
 -1      3961 8.52802E-05-2.49670E-05-2.58911E-05-1.11283E-05 2.60949E-19 9.88236E-19
 -1      3962 8.31252E-05-2.30772E-05-2.57051E-05-9.72951E-06 2.32336E-19 1.22993E-18
 -1      3963 9.55777E-05-2.43437E-05-3.05114E-05-1.90616E-07 4.41943E-19-3.90710E-19
 -1      3964 9.50602E-05-2.33686E-05-3.07319E-05-4.06621E-07 4.76021E-19-4.55687E-19
 -1      3965 9.51004E-05-2.34779E-05-3.07041E-05-6.89874E-07 4.92200E-19-5.39446E-19
 -1      3966 9.56289E-05-2.88777E-05-2.86065E-05-3.68813E-07-4.90362E-19 5.87267E-19
 -1      3967 9.56884E-05-2.89454E-05-2.86044E-05-3.86614E-07-3.83499E-19 8.08588E-19
 -1      3968 9.57817E-05-2.90096E-05-2.86177E-05-3.35155E-07-5.10754E-19 9.37883E-19
 -1      3969 7.83119E-05-2.37082E-05-2.34604E-05 1.35537E-05 1.02049E-18 5.70437E-19
 -1      3970 9.50403E-05-2.81173E-05-2.86804E-05-4.69529E-07 1.08672E-19 7.21018E-20
 -1      3971 9.51168E-05-2.82334E-05-2.86660E-05-4.23758E-07 2.40070E-19 2.20735E-19
 -1      3972 9.51469E-05-2.82645E-05-2.86632E-05-3.49681E-07-4.44193E-20 6.63935E-20
 -1      3973 9.49448E-05-2.80032E-05-2.86880E-05-4.20207E-07 1.08582E-19 5.54635E-19
 -1      3974 9.62041E-05-2.61154E-05-3.00331E-05-4.42485E-07 2.95277E-19 5.14319E-20
 -1      3975 9.64149E-05-2.68141E-05-2.98349E-05-1.55643E-07 3.44445E-19 6.47643E-20
 -1      3976 9.65400E-05-2.69835E-05-2.98082E-05-8.38758E-08 1.89441E-19-2.94911E-19
 -1      3977 9.60271E-05-2.91568E-05-2.86578E-05-7.88438E-07 4.57662E-19-2.57429E-19
 -1      3978 9.60816E-05-2.91441E-05-2.86861E-05-8.16782E-07 2.53791E-19-1.81821E-19
 -1      3979 9.62851E-05-2.91912E-05-2.87566E-05-7.37245E-07 1.88055E-19-6.36286E-19
 -1      3980 9.61394E-05-2.92186E-05-2.86822E-05-6.92587E-07 2.75300E-19-1.43207E-19
 -1      3981 9.54950E-05-2.87229E-05-2.86155E-05-3.50682E-07-1.53522E-19 6.52408E-19
 -1      3982 9.55531E-05-2.87997E-05-2.86091E-05-3.56812E-07-4.53643E-19 7.15818E-19
 -1      3983 9.56291E-05-2.88575E-05-2.86171E-05-3.07456E-07-4.69262E-19 1.61273E-18
 -1      3984 9.54780E-05-2.86850E-05-2.86259E-05-2.97801E-07-2.31823E-19 7.63541E-19
 -1      3985 7.96256E-05-2.28854E-05-2.42506E-05 1.14932E-05 4.09544E-19 1.06962E-18
 -1      3986 7.59898E-05-2.15295E-05-2.33112E-05 1.11470E-05-2.20700E-20 3.08320E-19
 -1      3987 7.36742E-05-1.95977E-05-2.32227E-05 7.54949E-06-4.14242E-19 4.26554E-19
 -1      3988 8.02161E-05-2.21024E-05-2.49584E-05 9.86368E-06-8.65352E-19 1.42975E-18
 -1      3989 9.66471E-05-2.89193E-05-2.90276E-05-5.83853E-07 2.56806E-19-4.45503E-19
 -1      3990 9.66827E-05-2.87327E-05-2.91184E-05-5.12313E-07 5.31405E-20-2.31442E-19
 -1      3991 9.65993E-05-2.90590E-05-2.89436E-05-6.08831E-07 2.20448E-19-2.19411E-19
 -1      3992 9.67436E-05-2.89973E-05-2.90356E-05-4.83119E-07 1.47530E-19-3.08978E-19
 -1      3993 9.65385E-05-2.91577E-05-2.88776E-05-6.32938E-07 3.08812E-19-2.64214E-19
 -1      3994 7.48133E-05-2.20700E-05-2.26919E-05-1.21261E-05 3.61974E-21-1.13124E-19
 -1      3995 7.75376E-05-2.48737E-05-2.24144E-05-1.61295E-05 8.40382E-20 5.39350E-19
 -1      3996 9.50913E-05-2.34831E-05-3.06944E-05-9.06794E-07 4.71161E-19-4.50826E-19
 -1      3997 9.51634E-05-2.36876E-05-3.06398E-05-1.16604E-06 4.32975E-19-2.56283E-19
 -1      3998 9.55331E-05-2.44682E-05-3.04479E-05-9.35603E-07 3.01564E-19-3.21673E-20
 -1      3999 9.55741E-05-2.44014E-05-3.04877E-05-5.69455E-07 4.48621E-19-4.89361E-19
 -1      4000 7.87068E-05-2.05460E-05-2.48970E-05 7.64859E-06-8.65903E-19 6.72109E-19
 -1      4001 9.61065E-05-2.92422E-05-2.86586E-05-4.26170E-07-1.49643E-19-1.58982E-19
 -1      4002 9.60663E-05-2.92195E-05-2.86475E-05-5.21122E-07 1.31486E-19 1.15275E-19
 -1      4003 9.61411E-05-2.92491E-05-2.86667E-05-5.50011E-07-4.70527E-20-8.00806E-20
 -1      4004 9.65051E-05-2.72888E-05-2.96585E-05 6.36425E-08 3.53783E-19 3.55099E-19
 -1      4005 9.64315E-05-2.68229E-05-2.98332E-05 1.68648E-07 2.77869E-19 4.52264E-19
 -1      4006 9.65866E-05-2.77682E-05-2.94988E-05-1.72427E-07 2.08398E-19 2.51239E-19
 -1      4007 7.06329E-05-1.78872E-05-2.26102E-05 2.00885E-06-1.42596E-19 8.77735E-19
 -1      4008 6.80181E-05-1.72506E-05-2.15989E-05-1.70791E-06 3.79785E-19-2.79718E-19
 -1      4009 7.04258E-05-1.84653E-05-2.23235E-05-5.23406E-06-1.66515E-19-3.08955E-19
 -1      4010 8.44223E-05-2.69370E-05-2.47044E-05-1.41251E-05 3.75838E-20 7.54642E-19
 -1      4011 8.12586E-05-2.41063E-05-2.44154E-05-1.25364E-05 2.11177E-19 1.20466E-18
 -1      4012 9.59220E-05-2.51968E-05-3.03181E-05-5.21938E-08 4.04748E-19-3.63229E-19
 -1      4013 9.59324E-05-2.52371E-05-3.03058E-05-2.26302E-07 3.56336E-19-3.73314E-19
 -1      4014 8.55825E-05-2.92210E-05-2.41401E-05-1.60996E-05-1.02868E-19 6.37489E-19
 -1      4015 9.65405E-05-2.83482E-05-2.92260E-05-4.61683E-07-5.61162E-20 4.92652E-20
 -1      4016 9.59206E-05-2.52003E-05-3.03152E-05 9.07842E-08 3.20941E-19-5.76454E-19
 -1      4017 9.62725E-05-2.59642E-05-3.01204E-05 3.88028E-08 2.34946E-19-6.30229E-19
 -1      4018 9.59360E-05-2.52667E-05-3.02944E-05 2.94382E-07 1.47968E-19-4.48771E-19
 -1      4019 8.34477E-05-3.01031E-05-2.29241E-05-1.85195E-05 7.49624E-20 8.45776E-20
 -1      4020 9.53081E-05-2.41031E-05-3.05290E-05 1.36080E-06 3.60150E-19 1.94117E-19
 -1      4021 9.52056E-05-2.37713E-05-3.06180E-05 1.07996E-06 3.00178E-19 3.14089E-20
 -1      4022 8.91461E-05-3.45684E-05-2.32084E-05-2.04086E-05-2.58014E-20-5.06246E-19
 -1      4023 9.56497E-05-2.46374E-05-3.04199E-05 7.03776E-07 2.43224E-19-2.88560E-20
 -1      4024 9.58013E-05-2.51769E-05-3.02741E-05-7.07033E-07 2.93654E-19 3.65612E-20
 -1      4025 9.58195E-05-2.53192E-05-3.02111E-05 8.61248E-07 2.73875E-19 3.60163E-19
 -1      4026 9.59571E-05-2.54252E-05-3.02295E-05-4.90830E-07 3.81619E-19-3.06065E-19
 -1      4027 9.59466E-05-2.55151E-05-3.01867E-05 6.35368E-07 2.57297E-19 1.64376E-19
 -1      4028 7.32054E-05-1.96151E-05-2.28277E-05-8.59544E-06-7.75813E-21-1.97388E-19
 -1      4029 7.74302E-05-2.21339E-05-2.37242E-05-1.09160E-05 2.62351E-19-1.89635E-20
 -1      4030 7.87194E-05-2.18303E-05-2.44680E-05-9.61795E-06 1.66918E-19 1.90762E-19
 -1      4031 7.32515E-05-1.88344E-05-2.33674E-05-4.71593E-06-1.10121E-19-1.93585E-20
 -1      4032 9.69387E-05-2.85489E-05-2.93091E-05 1.81950E-07 2.66482E-19-3.28497E-19
 -1      4033 9.69374E-05-2.88107E-05-2.91971E-05 2.46397E-07 2.71535E-19-2.61686E-19
 -1      4034 9.69085E-05-2.90137E-05-2.90967E-05 2.50416E-07 3.77211E-19-2.18871E-19
 -1      4035 9.68572E-05-2.91605E-05-2.90122E-05 2.83190E-07 4.76599E-19-6.76745E-20
 -1      4036 9.69629E-05-2.89021E-05-2.91719E-05 1.33584E-07 4.18804E-19-1.80706E-19
 -1      4037 9.67870E-05-2.92653E-05-2.89368E-05 2.76414E-07 1.30400E-19 6.46772E-20
 -1      4038 9.67057E-05-2.93302E-05-2.88747E-05 2.85920E-07-6.23139E-20-1.07989E-19
 -1      4039 9.68670E-05-2.92181E-05-2.89951E-05 1.55210E-07 2.77226E-19-4.99776E-19
 -1      4040 9.66158E-05-2.93664E-05-2.88200E-05 2.78332E-07-9.13670E-20-4.79754E-20
 -1      4041 9.65242E-05-2.93784E-05-2.87759E-05 2.73468E-07-1.16504E-19-5.57146E-20
 -1      4042 9.67014E-05-2.93598E-05-2.88628E-05 1.59478E-07-1.26087E-19-3.73756E-19
 -1      4043 9.64232E-05-2.93671E-05-2.87374E-05 2.61629E-07-8.94807E-20-6.39097E-20
 -1      4044 9.63311E-05-2.93429E-05-2.87076E-05 2.51586E-07-3.80125E-19 8.09187E-20
 -1      4045 9.65111E-05-2.93894E-05-2.87690E-05 1.48903E-07-2.30247E-19 9.96818E-20
 -1      4046 9.62293E-05-2.93027E-05-2.86821E-05 2.35307E-07-7.03529E-19 1.11033E-19
 -1      4047 9.61377E-05-2.92531E-05-2.86635E-05 2.22839E-07-8.04959E-19-1.23346E-19
 -1      4048 9.63166E-05-2.93451E-05-2.87051E-05 1.32789E-07-4.91657E-19-6.83992E-19
 -1      4049 9.60400E-05-2.91924E-05-2.86483E-05 2.09778E-07-7.36337E-19-5.35459E-20
 -1      4050 9.59526E-05-2.91266E-05-2.86385E-05 1.98276E-07-3.00642E-19-1.21615E-19
 -1      4051 9.61172E-05-2.92417E-05-2.86640E-05 1.19948E-07-6.25354E-19-2.30197E-19
 -1      4052 9.58593E-05-2.90522E-05-2.86313E-05 1.87584E-07 3.15388E-20-3.24238E-19
 -1      4053 9.57760E-05-2.89743E-05-2.86283E-05 1.79327E-07-2.44074E-19-2.28751E-19
 -1      4054 9.59286E-05-2.91048E-05-2.86412E-05 1.08096E-07-2.26393E-19-2.79873E-19
 -1      4055 9.56854E-05-2.88885E-05-2.86272E-05 1.72106E-07-1.05805E-19 1.68585E-19
 -1      4056 9.56037E-05-2.87996E-05-2.86295E-05 1.69054E-07-7.31450E-21 5.03405E-19
 -1      4057 9.57470E-05-2.89415E-05-2.86326E-05 9.92561E-08 8.69742E-20-5.27993E-19
 -1      4058 9.55124E-05-2.87025E-05-2.86331E-05 1.66109E-07-4.85495E-20 9.48165E-19
 -1      4059 9.54286E-05-2.86018E-05-2.86394E-05 1.69953E-07 6.02151E-20 1.17701E-18
 -1      4060 9.55678E-05-2.87547E-05-2.86350E-05 9.54696E-08 2.50029E-19 1.48305E-19
 -1      4061 9.53318E-05-2.84913E-05-2.86466E-05 1.72018E-07-1.88396E-19 1.27824E-18
 -1      4062 9.52407E-05-2.83760E-05-2.86559E-05 1.84306E-07-7.60232E-20 1.05018E-18
 -1      4063 9.53827E-05-2.85423E-05-2.86457E-05 9.82029E-08 5.45396E-20 6.63210E-19
 -1      4064 9.51321E-05-2.82487E-05-2.86655E-05 1.92162E-07-3.12568E-19 1.19340E-18
 -1      4065 9.50275E-05-2.81148E-05-2.86767E-05 2.14413E-07-3.85886E-19 7.92513E-19
 -1      4066 9.51809E-05-2.82991E-05-2.86623E-05 1.08776E-07-1.14668E-19 1.32211E-18
 -1      4067 9.48998E-05-2.79662E-05-2.86876E-05 2.28945E-07-1.67379E-19 5.09360E-19
 -1      4068 9.47742E-05-2.78090E-05-2.86996E-05 2.62713E-07 2.21281E-19 1.58047E-19
 -1      4069 9.49490E-05-2.80167E-05-2.86826E-05 1.28495E-07-2.39677E-19 9.36760E-19
 -1      4070 9.46187E-05-2.76337E-05-2.87103E-05 2.84941E-07 7.22233E-19-2.85067E-19
 -1      4071 9.44636E-05-2.74478E-05-2.87217E-05 3.31817E-07 8.48897E-19-5.25101E-19
 -1      4072 9.46710E-05-2.76853E-05-2.87039E-05 1.58700E-07 6.19344E-20 6.77125E-19
 -1      4073 9.42704E-05-2.72403E-05-2.87305E-05 3.62887E-07 6.13550E-19-8.06124E-19
 -1      4074 9.40762E-05-2.70206E-05-2.87392E-05 4.24457E-07-9.52983E-20-7.95212E-19
 -1      4075 9.43286E-05-2.72938E-05-2.87230E-05 2.00746E-07 4.71725E-19-6.08298E-19
 -1      4076 9.38342E-05-2.67759E-05-2.87435E-05 4.65615E-07-2.91667E-19-7.35033E-19
 -1      4077 9.35900E-05-2.65179E-05-2.87469E-05 5.43379E-07-3.85424E-19-5.85567E-19
 -1      4078 9.39011E-05-2.68316E-05-2.87355E-05 2.55931E-07 1.04825E-20-8.71254E-19
 -1      4079 9.32873E-05-2.62319E-05-2.87434E-05 5.95928E-07-1.57350E-19-6.71610E-19
 -1      4080 9.29814E-05-2.59327E-05-2.87376E-05 6.91208E-07-3.14680E-20 1.02692E-19
 -1      4081 9.33657E-05-2.62894E-05-2.87355E-05 3.25375E-07-3.48656E-19-6.50246E-19
 -1      4082 9.26048E-05-2.56034E-05-2.87216E-05 7.56473E-07-2.15000E-19 3.64545E-19
 -1      4083 9.22245E-05-2.52625E-05-2.87014E-05 8.70387E-07-1.94406E-19 4.80257E-19
 -1      4084 9.26973E-05-2.56610E-05-2.87148E-05 4.09888E-07 2.69845E-19 5.29966E-20
 -1      4085 9.17601E-05-2.48910E-05-2.86665E-05 9.49744E-07-2.19792E-19 4.30390E-19
 -1      4086 9.12922E-05-2.45118E-05-2.86248E-05 1.08338E-06-8.40597E-20 1.10137E-18
 -1      4087 9.18692E-05-2.49452E-05-2.86623E-05 5.09876E-07 1.20858E-19 1.69078E-19
 -1      4088 9.07246E-05-2.41031E-05-2.85624E-05 1.17845E-06-2.96348E-19 7.07370E-19
 -1      4089 9.01551E-05-2.36936E-05-2.84896E-05 1.33345E-06-7.33317E-19 9.03834E-20
 -1      4090 9.08523E-05-2.41475E-05-2.85629E-05 6.25419E-07-3.53417E-19-5.49155E-20
 -1      4091 8.94669E-05-2.32579E-05-2.83882E-05 1.44664E-06-6.33330E-19 1.24497E-19
 -1      4092 8.87806E-05-2.28321E-05-2.82716E-05 1.62670E-06-3.12687E-20-2.65514E-20
 -1      4093 8.96147E-05-2.32818E-05-2.83964E-05 7.56692E-07-2.59932E-19-9.35057E-19
 -1      4094 8.79496E-05-2.23845E-05-2.81160E-05 1.76235E-06 2.92884E-19 2.13499E-19
 -1      4095 8.71281E-05-2.19622E-05-2.79385E-05 1.97634E-06 6.73465E-19 1.66912E-19
 -1      4096 8.81180E-05-2.23710E-05-2.81359E-05 9.04967E-07-6.42786E-20 7.06694E-19
 -1      4097 8.61215E-05-2.15216E-05-2.77081E-05 2.14324E-06 5.44505E-19-5.77376E-19
 -1      4098 8.51403E-05-2.11282E-05-2.74470E-05 2.41149E-06 4.45108E-19-3.18820E-19
 -1      4099 8.63103E-05-2.14447E-05-2.77453E-05 1.07422E-06-1.18184E-19 1.17984E-19
 -1      4100 8.39025E-05-2.07109E-05-2.71131E-05 2.63065E-06 1.29966E-19-1.02803E-18
 -1      4101 8.27337E-05-2.03811E-05-2.67377E-05 2.99527E-06-3.09177E-19-1.24875E-18
 -1      4102 8.41062E-05-2.05334E-05-2.71755E-05 1.27256E-06-2.65417E-19-1.71664E-18
 -1      4103 8.11815E-05-2.00003E-05-2.62608E-05 3.31996E-06-1.75103E-19-8.12987E-19
 -1      4104 7.98317E-05-1.97697E-05-2.57317E-05 3.85667E-06-4.94666E-19-2.98725E-19
 -1      4105 8.13358E-05-1.96748E-05-2.63571E-05 1.50742E-06 3.22299E-19-2.09584E-18
 -1      4106 9.66810E-05-2.84833E-05-2.92307E-05-4.43796E-07 1.19941E-20-1.89182E-19
 -1      4107 9.66704E-05-2.81721E-05-2.93526E-05-3.03666E-07 8.16005E-20-1.17828E-19
 -1      4108 9.67077E-05-2.78794E-05-2.94963E-05-1.69813E-07 3.70270E-19 2.32308E-19
 -1      4109 9.67909E-05-2.85776E-05-2.92348E-05-3.77319E-07 1.08081E-19-2.76635E-19
 -1      4110 9.64713E-05-2.66277E-05-2.99343E-05-1.39199E-07 3.16824E-19-4.98489E-19
 -1      4111 9.66681E-05-2.72608E-05-2.97498E-05 1.18619E-08 1.22341E-19-4.99056E-19
 -1      4112 7.62380E-05-1.96625E-05-2.42140E-05 6.25874E-06-3.99337E-19 5.59107E-19
 -1      4113 7.31386E-05-1.84774E-05-2.33497E-05 4.54060E-06-2.00586E-19 8.87231E-19
 -1      4114 7.32347E-05-1.82445E-05-2.36361E-05 1.18445E-06 2.22048E-19 7.01137E-19
 -1      4115 7.76764E-05-1.95290E-05-2.49737E-05 4.84942E-06-6.78841E-19 4.92459E-19
 -1      4116 9.42320E-05-2.71749E-05-2.87394E-05-5.64812E-07-7.94202E-20 8.89886E-19
 -1      4117 9.44027E-05-2.73763E-05-2.87286E-05-4.86178E-07-2.46844E-19 6.81184E-19
 -1      4118 9.45787E-05-2.75694E-05-2.87186E-05-4.38358E-07 1.21016E-19 2.60138E-19
 -1      4119 9.47157E-05-2.77403E-05-2.87060E-05-3.79936E-07 2.86040E-19 3.98584E-19
 -1      4120 9.44376E-05-2.74111E-05-2.87206E-05-3.27869E-07-1.83424E-19 8.23949E-19
 -1      4121 9.32578E-05-2.61745E-05-2.87515E-05-9.44782E-07-5.23263E-19 2.26832E-19
 -1      4122 9.35237E-05-2.64466E-05-2.87524E-05-8.16478E-07-6.60075E-20 5.82748E-19
 -1      4123 9.25885E-05-2.55620E-05-2.87277E-05-1.21245E-06-5.15507E-19 1.03775E-19
 -1      4124 9.29161E-05-2.58699E-05-2.87405E-05-1.05396E-06-8.97132E-19 1.24658E-20
 -1      4125 9.29432E-05-2.58799E-05-2.87289E-05-7.10820E-07-4.43602E-19 7.47884E-19
 -1      4126 9.17695E-05-2.48811E-05-2.86689E-05-1.54391E-06 7.00043E-21-2.58699E-19
 -1      4127 9.21676E-05-2.52199E-05-2.87000E-05-1.35073E-06-1.43363E-19-7.30922E-20
 -1      4128 9.21875E-05-2.52107E-05-2.86882E-05-9.14723E-07-1.77459E-19-6.49856E-19
 -1      4129 9.07810E-05-2.41492E-05-2.85594E-05-1.95185E-06-7.11683E-19-4.05503E-20
 -1      4130 9.12569E-05-2.45081E-05-2.86170E-05-1.71787E-06-2.72444E-19 1.04579E-19
 -1      4131 9.12631E-05-2.44681E-05-2.86057E-05-1.16998E-06-1.62439E-19-6.03869E-19
 -1      4132 8.96052E-05-2.33973E-05-2.83779E-05-2.45516E-06 2.20638E-19 7.22722E-19
 -1      4133 9.01636E-05-2.37578E-05-2.84729E-05-2.17088E-06-2.17839E-19 2.77536E-19
 -1      4134 9.01453E-05-2.36692E-05-2.84634E-05-1.48928E-06-3.85669E-19-5.77839E-19
 -1      4135 8.82265E-05-2.26733E-05-2.80972E-05-3.08432E-06 1.43739E-19 6.51825E-19
 -1      4136 8.88687E-05-2.30075E-05-2.82434E-05-2.73353E-06 4.66023E-19 9.13078E-19
 -1      4137 8.88078E-05-2.28425E-05-2.82372E-05-1.89201E-06 1.27522E-19-6.69073E-19
 -1      4138 8.66289E-05-2.20436E-05-2.76817E-05-3.89169E-06-9.80966E-20 1.00689E-18
 -1      4139 8.73523E-05-2.23127E-05-2.78971E-05-3.44484E-06 1.31309E-19 7.99456E-19
 -1      4140 8.72203E-05-2.20293E-05-2.78956E-05-2.40916E-06 1.11756E-19-3.95391E-19
 -1      4141 8.47968E-05-2.15954E-05-2.70853E-05-4.97168E-06-9.63831E-21 9.25365E-19
 -1      4142 8.55859E-05-2.17440E-05-2.73926E-05-4.37356E-06-4.75821E-19 1.34159E-18
 -1      4143 8.53378E-05-2.12800E-05-2.73969E-05-3.09097E-06-4.24780E-19 1.37615E-18
 -1      4144 8.26995E-05-2.14816E-05-2.62408E-05-6.53079E-06 5.41637E-19 6.75784E-19
 -1      4145 8.35311E-05-2.14007E-05-2.66738E-05-5.66614E-06 4.44354E-19 1.23052E-18
 -1      4146 8.30569E-05-2.06381E-05-2.66837E-05-4.02916E-06 2.30557E-19 9.56797E-19
 -1      4147 8.04252E-05-2.17402E-05-2.51513E-05-8.55081E-06 4.22028E-19-2.86138E-19
 -1      4148 8.13083E-05-2.13808E-05-2.57380E-05-7.24929E-06 5.91421E-19-1.39688E-19
 -1      4149 8.05571E-05-2.03763E-05-2.57706E-05-5.36419E-06 1.31863E-18-7.51730E-19
 -1      4150 7.75528E-05-2.00485E-05-2.45611E-05-6.79273E-06 3.41634E-19-1.73005E-18
 -1      4151 9.68245E-05-2.77893E-05-2.95843E-05 5.58314E-08 1.10330E-19-3.86204E-19
 -1      4152 9.68988E-05-2.82092E-05-2.94396E-05 1.62020E-07 2.64995E-19-3.54408E-19
 -1      4153 9.67592E-05-2.74648E-05-2.96986E-05 1.30413E-08 1.97740E-19-5.23265E-19
 -1      4154 9.37986E-05-2.67118E-05-2.87525E-05-7.31450E-07 7.15398E-20 5.10630E-19
 -1      4155 9.40121E-05-2.69475E-05-2.87459E-05-6.29623E-07 3.35250E-19 6.68686E-19
 -1      4156 9.40451E-05-2.69771E-05-2.87364E-05-4.23504E-07-4.27615E-20 9.21579E-19
 -1      4157 9.35545E-05-2.64686E-05-2.87416E-05-5.49339E-07-7.49623E-20 9.34856E-19
 -1      4158 9.59795E-05-2.54302E-05-3.02414E-05-3.40050E-07 4.30582E-19-3.88588E-19
 -1      4159 9.52823E-05-2.84317E-05-2.86497E-05-2.47095E-07 1.22225E-20 1.32541E-20
 -1      4160 9.53650E-05-2.85390E-05-2.86404E-05-2.34089E-07-1.78251E-20 3.45263E-19
 -1      4161 9.57851E-05-2.89936E-05-2.86237E-05-2.52010E-07-8.65890E-19 9.27106E-19
 -1      4162 9.58635E-05-2.90663E-05-2.86271E-05-2.65165E-07-7.52359E-19 5.95202E-19
 -1      4163 9.59550E-05-2.91365E-05-2.86352E-05-2.81065E-07-4.48060E-19 4.64891E-19
 -1      4164 9.60378E-05-2.91968E-05-2.86454E-05-2.98576E-07-1.97452E-19 4.16412E-19
 -1      4165 9.59456E-05-2.91248E-05-2.86404E-05-1.94541E-07-7.04180E-19 6.31045E-19
 -1      4166 9.59240E-05-2.53411E-05-3.02531E-05 4.74952E-07 1.48818E-19 1.71695E-20
 -1      4167 9.62569E-05-2.60584E-05-3.00753E-05 2.90174E-07 1.26234E-19-1.30393E-19
 -1      4168 9.68154E-05-2.90961E-05-2.90230E-05-3.88163E-07 1.06691E-19-2.85238E-19
 -1      4169 9.68653E-05-2.89360E-05-2.91099E-05-3.44787E-07 1.43468E-19-2.17518E-19
 -1      4170 9.63920E-05-2.92609E-05-2.87699E-05-6.25916E-07 1.55085E-19-3.76699E-19
 -1      4171 9.64624E-05-2.92210E-05-2.88163E-05-6.31230E-07 3.25742E-19-3.77825E-19
 -1      4172 9.66182E-05-2.92189E-05-2.88875E-05-5.17443E-07 1.82962E-19-5.43456E-20
 -1      4173 9.69487E-05-2.83437E-05-2.94039E-05 8.88140E-08 2.73859E-19-4.61676E-19
 -1      4174 9.68789E-05-2.87168E-05-2.92142E-05-3.26264E-07 1.58186E-19 1.76877E-21
 -1      4175 9.68803E-05-2.84376E-05-2.93294E-05-2.39944E-07 2.70609E-19 1.35063E-19
 -1      4176 9.69337E-05-2.88120E-05-2.91981E-05-2.31145E-07 3.31577E-19-5.51243E-20
 -1      4177 9.61351E-05-2.92541E-05-2.86618E-05-3.17440E-07-3.82355E-19 3.15115E-19
 -1      4178 9.62276E-05-2.93004E-05-2.86812E-05-3.38909E-07-3.65923E-19-1.02477E-19
 -1      4179 9.61321E-05-2.92534E-05-2.86656E-05-2.17231E-07-3.75414E-19 7.09790E-19
 -1      4180 9.63062E-05-2.61454E-05-3.00617E-05-1.71679E-07 3.14573E-19-4.44524E-19
 -1      4181 9.64290E-05-2.64383E-05-2.99954E-05-7.39907E-08 2.32709E-19-5.55155E-19
 -1      4182 9.50873E-05-2.81881E-05-2.86708E-05-2.84104E-07-1.29692E-19 2.54074E-19
 -1      4183 9.51812E-05-2.83121E-05-2.86593E-05-2.58250E-07 4.85699E-20 1.90242E-21
 -1      4184 9.52270E-05-2.83586E-05-2.86572E-05-1.80210E-07 8.25554E-20-2.34152E-19
 -1      4185 9.56971E-05-2.89123E-05-2.86220E-05-2.40929E-07-3.29200E-19 1.04031E-18
 -1      4186 9.57680E-05-2.89696E-05-2.86301E-05-1.76114E-07-6.35950E-19 5.41536E-19
 -1      4187 9.56211E-05-2.88292E-05-2.86241E-05-2.34386E-07-9.35541E-20 9.32088E-19
 -1      4188 7.77823E-05-1.90492E-05-2.51318E-05 2.57611E-06-1.24569E-19-4.72171E-20
 -1      4189 9.47529E-05-2.77792E-05-2.86997E-05-2.57901E-07 1.96872E-19-1.99588E-19
 -1      4190 9.48580E-05-2.79039E-05-2.86946E-05-3.46431E-07 2.14637E-19 4.80742E-19
 -1      4191 9.49696E-05-2.80490E-05-2.86819E-05-3.05515E-07-2.10758E-20 4.74136E-19
 -1      4192 9.62874E-05-2.93111E-05-2.87076E-05-4.77032E-07-4.98122E-20-3.41294E-19
 -1      4193 9.62303E-05-2.92712E-05-2.86956E-05-5.81510E-07 6.59798E-20 2.02850E-20
 -1      4194 9.63056E-05-2.92732E-05-2.87267E-05-6.02981E-07 1.09407E-19-2.43273E-19
 -1      4195 9.54565E-05-2.86432E-05-2.86335E-05-2.31653E-07-5.87267E-21 5.42681E-19
 -1      4196 9.55335E-05-2.87373E-05-2.86273E-05-2.29435E-07 2.60858E-20 6.01784E-19
 -1      4197 9.54175E-05-2.85894E-05-2.86410E-05-1.66409E-07 1.93395E-19-3.76873E-19
 -1      4198 9.64423E-05-2.64762E-05-2.99879E-05 7.38582E-08 1.40559E-19-6.98418E-19
 -1      4199 9.64374E-05-2.64520E-05-2.99986E-05-5.28448E-09 2.15032E-19-5.86911E-19
 -1      4200 9.66122E-05-2.68935E-05-2.98736E-05-8.70788E-09 1.58744E-19-6.48884E-19
 -1      4201 9.64831E-05-2.67696E-05-2.98808E-05 8.88486E-08 3.16408E-19 7.37080E-21
 -1      4202 9.69867E-05-2.88723E-05-2.91910E-05-5.83940E-08 3.57824E-19-2.41649E-19
 -1      4203 9.69537E-05-2.90678E-05-2.90909E-05-4.32461E-08 4.32484E-19-2.00840E-19
 -1      4204 9.68196E-05-2.80809E-05-2.94648E-05-1.93646E-07 3.25713E-19 4.55562E-20
 -1      4205 9.67479E-05-2.76452E-05-2.96131E-05-4.74308E-08 3.83974E-19 1.47413E-19
 -1      4206 9.68979E-05-2.82066E-05-2.94400E-05-1.42463E-07 3.30194E-19-9.46920E-20
 -1      4207 9.67736E-05-2.93506E-05-2.88942E-05 3.28017E-08 2.35963E-19-3.58768E-19
 -1      4208 9.66808E-05-2.93907E-05-2.88371E-05 3.48060E-08-6.55188E-20-2.49848E-19
 -1      4209 9.65824E-05-2.94034E-05-2.87899E-05 2.71880E-08-3.61775E-19 2.84695E-20
 -1      4210 9.64881E-05-2.93966E-05-2.87511E-05 2.61754E-08-2.03328E-19-1.03548E-20
 -1      4211 9.66273E-05-2.93978E-05-2.88158E-05-9.90134E-08 2.95333E-20-2.24255E-20
 -1      4212 9.63408E-05-2.93503E-05-2.87092E-05-4.85000E-08-2.61945E-19-8.41749E-20
 -1      4213 9.62425E-05-2.93067E-05-2.86846E-05-4.66395E-08-5.58150E-19 1.63475E-19
 -1      4214 9.61473E-05-2.92528E-05-2.86670E-05-4.10065E-08-5.40789E-19 2.77000E-19
 -1      4215 9.60490E-05-2.91903E-05-2.86518E-05-4.20945E-08-2.86008E-19 4.83850E-19
 -1      4216 9.59565E-05-2.91192E-05-2.86427E-05-3.63450E-08-5.76007E-19 2.80956E-19
 -1      4217 9.58618E-05-2.90426E-05-2.86353E-05-3.78207E-08-5.16210E-19 2.68114E-20
 -1      4218 9.57724E-05-2.89594E-05-2.86328E-05-3.38913E-08-3.39981E-19-1.49157E-19
 -1      4219 9.56802E-05-2.88708E-05-2.86316E-05-3.44682E-08-2.53608E-19-3.57417E-19
 -1      4220 9.55910E-05-2.87763E-05-2.86341E-05-3.37569E-08 2.66603E-19-2.42061E-19
 -1      4221 9.54979E-05-2.86757E-05-2.86377E-05-3.28741E-08 3.98649E-19-1.82340E-19
 -1      4222 9.54048E-05-2.85687E-05-2.86440E-05-3.64400E-08 2.44398E-19-3.06102E-19
 -1      4223 9.53059E-05-2.84538E-05-2.86511E-05-3.36786E-08 1.54825E-19 2.56667E-20
 -1      4224 9.52030E-05-2.83314E-05-2.86601E-05-4.25170E-08-1.58444E-20 2.37960E-19
 -1      4225 9.50919E-05-2.81986E-05-2.86695E-05-3.75277E-08-1.20824E-19 5.14088E-19
 -1      4226 9.49723E-05-2.80565E-05-2.86800E-05-5.26821E-08-9.73405E-20 3.25683E-19
 -1      4227 9.48414E-05-2.79009E-05-2.86905E-05-4.51708E-08-1.02358E-19 2.04723E-19
 -1      4228 9.46970E-05-2.77342E-05-2.87013E-05-6.78042E-08-8.79252E-20 8.08489E-19
 -1      4229 9.45375E-05-2.75506E-05-2.87114E-05-5.75463E-08 1.86942E-19 5.71471E-19
 -1      4230 9.43589E-05-2.73539E-05-2.87207E-05-8.89958E-08 2.52378E-20 6.25309E-19
 -1      4231 9.41608E-05-2.71366E-05-2.87286E-05-7.58747E-08 1.56573E-19 2.66923E-19
 -1      4232 9.39376E-05-2.69051E-05-2.87341E-05-1.17706E-07 4.37764E-20 1.20021E-19
 -1      4233 9.36896E-05-2.66491E-05-2.87372E-05-1.01774E-07-3.83419E-19-2.48663E-19
 -1      4234 9.34104E-05-2.63786E-05-2.87357E-05-1.55854E-07-3.64576E-19 1.04547E-19
 -1      4235 9.31004E-05-2.60800E-05-2.87305E-05-1.37418E-07-2.36944E-19 3.36669E-19
 -1      4236 9.27529E-05-2.57685E-05-2.87178E-05-2.06046E-07-5.89662E-20 3.55263E-19
 -1      4237 9.23675E-05-2.54255E-05-2.86993E-05-1.85751E-07 4.63523E-19 7.62944E-20
 -1      4238 9.19389E-05-2.50738E-05-2.86695E-05-2.71915E-07 4.90460E-19-6.82651E-19
 -1      4239 9.14637E-05-2.46878E-05-2.86312E-05-2.50826E-07-1.00397E-19-2.50768E-19
 -1      4240 9.09404E-05-2.43006E-05-2.85764E-05-3.58689E-07-4.75114E-19-2.94861E-19
 -1      4241 9.03596E-05-2.38770E-05-2.85095E-05-3.38313E-07-3.31364E-19-8.66095E-19
 -1      4242 8.97271E-05-2.34645E-05-2.84193E-05-4.74104E-07-6.69810E-21-1.06064E-18
 -1      4243 8.90222E-05-2.30133E-05-2.83119E-05-4.56337E-07 1.05194E-19-3.06828E-19
 -1      4244 8.82640E-05-2.25912E-05-2.81724E-05-6.29882E-07 3.86923E-19-2.40836E-19
 -1      4245 8.74114E-05-2.21268E-05-2.80088E-05-6.16933E-07 2.72201E-19-3.71172E-19
 -1      4246 8.65063E-05-2.17165E-05-2.78019E-05-8.43858E-07-7.63688E-19 1.95273E-19
 -1      4247 8.54727E-05-2.12562E-05-2.75611E-05-8.38756E-07-8.28119E-19-2.50062E-19
 -1      4248 8.43907E-05-2.08816E-05-2.72626E-05-1.14154E-06-4.77342E-19-6.26713E-20
 -1      4249 8.31302E-05-2.04435E-05-2.69160E-05-1.15053E-06-2.47549E-19-5.71413E-19
 -1      4250 8.18199E-05-2.01057E-05-2.64925E-05-1.54414E-06 5.43650E-19-6.70322E-19
 -1      4251 8.03564E-05-1.97114E-05-2.60152E-05-1.62750E-06 1.20566E-18-6.71112E-19
 -1      4252 9.69595E-05-2.82951E-05-2.94286E-05-4.98418E-08 2.39601E-19-4.20621E-19
 -1      4253 9.69964E-05-2.86251E-05-2.92988E-05-2.49691E-08 2.53385E-19-3.77252E-19
 -1      4254 7.38599E-05-1.81404E-05-2.38009E-05-1.52581E-06 9.79961E-20 7.07894E-19
 -1      4255 7.55998E-05-1.91990E-05-2.42120E-05-4.63671E-06 3.31954E-19-1.60126E-19
 -1      4256 7.75023E-05-1.93952E-05-2.49210E-05-3.91836E-06 7.96639E-19-5.31813E-19
 -1      4257 7.57141E-05-1.86292E-05-2.44575E-05 7.26625E-07 2.25244E-19 7.94220E-19
 -1      4258 9.67721E-05-2.74681E-05-2.97045E-05 1.05579E-08 2.46465E-19-5.06201E-19
 -1      4259 7.77973E-05-1.89841E-05-2.52527E-05-8.56494E-08 6.78696E-19-6.60091E-19
 -1      4260 9.67569E-05-2.92136E-05-2.89447E-05-3.86371E-07 7.48850E-20-2.82117E-19
 -1      4261 9.68544E-05-2.91641E-05-2.90136E-05-2.72258E-07 2.72897E-19-2.26495E-19
 -1      4262 9.66826E-05-2.92874E-05-2.88823E-05-3.96329E-07 1.69919E-19-1.17288E-19
 -1      4263 9.68952E-05-2.92039E-05-2.90094E-05-6.22260E-08 2.99649E-19-3.02428E-19
 -1      4264 9.50104E-05-2.80916E-05-2.86776E-05-2.09769E-07-1.69017E-19-1.88305E-19
 -1      4265 9.68184E-05-2.93011E-05-2.89343E-05-5.39343E-08 2.11607E-19-4.39356E-19
 -1      4266 9.67645E-05-2.93340E-05-2.89019E-05-1.94744E-07 2.20365E-19-5.02866E-19
 -1      4267 9.63762E-05-2.93601E-05-2.87243E-05-1.61825E-07-2.36459E-19 1.27931E-19
 -1      4268 7.88983E-05-1.94554E-05-2.54614E-05-3.31198E-06 1.28964E-18-3.19920E-19
 -1      4269 9.64619E-05-2.93118E-05-2.87817E-05-5.10332E-07 1.04839E-19-2.03262E-19
 -1      4270 9.55945E-05-2.87915E-05-2.86312E-05-1.65852E-07 5.19832E-20-3.17409E-20
 -1      4271 9.63815E-05-2.93527E-05-2.87259E-05-2.78623E-07-1.40338E-19 1.46238E-20
 -1      4272 9.64750E-05-2.93670E-05-2.87583E-05-2.90464E-07 6.71808E-21 1.07578E-19
 -1      4273 9.65925E-05-2.69838E-05-2.98334E-05 3.94140E-08 2.72115E-19-4.02729E-19
 -1      4274 9.66585E-05-2.93353E-05-2.88509E-05-3.07136E-07 2.03423E-19-2.54952E-19
 -1      4275 9.65753E-05-2.93626E-05-2.88041E-05-3.02284E-07 2.17054E-19-1.32694E-19
 -1      4276 9.68878E-05-2.78855E-05-2.95668E-05-7.72644E-09 3.28288E-19-4.18816E-19
 -1      4277 9.67390E-05-2.73909E-05-2.97207E-05-9.24783E-09 3.12127E-19-4.74225E-19
 -3
    1PSTEP                         4           1           1          
  100CL  101 1.000000000        4277                     0    1           1
 -4  ERROR       1    1
 -5  STR(%)      1    1    0    0
 -1         1 1.40824E+01
 -1         2 2.52873E+01
 -1         3 1.58386E-01
 -1         4 1.60692E-01
 -1         5 1.40389E+01
 -1         6 1.31430E+01
 -1         7 1.31430E+01
 -1         8 3.66386E+00
 -1         9 1.82702E+00
 -1        10 1.29030E+00
 -1        11 1.04384E+00
 -1        12 9.00010E-01
 -1        13 8.08859E-01
 -1        14 7.53821E-01
 -1        15 7.55789E-01
 -1        16 8.13168E-01
 -1        17 9.00886E-01
 -1        18 1.05269E+00
 -1        19 1.30789E+00
 -1        20 1.83592E+00
 -1        21 3.50550E+00
 -1        22 8.64111E+00
 -1        23 1.31430E+01
 -1        24 4.31776E+00
 -1        25 3.34073E+00
 -1        26 2.11095E+00
 -1        27 1.36211E+00
 -1        28 1.01375E+00
 -1        29 7.74790E-01
 -1        30 5.94931E-01
 -1        31 4.54618E-01
 -1        32 3.47060E-01
 -1        33 2.68136E-01
 -1        34 2.04702E-01
 -1        35 1.54704E-01
 -1        36 1.16177E-01
 -1        37 8.73330E-02
 -1        38 6.66071E-02
 -1        39 5.26659E-02
 -1        40 4.44126E-02
 -1        41 4.40080E-02
 -1        42 5.25156E-02
 -1        43 6.44658E-02
 -1        44 7.93123E-02
 -1        45 9.63044E-02
 -1        46 1.31166E-01
 -1        47 1.77095E-01
 -1        48 2.34576E-01
 -1        49 3.03961E-01
 -1        50 3.84179E-01
 -1        51 4.71680E-01
 -1        52 5.58966E-01
 -1        53 7.25564E-01
 -1        54 9.18976E-01
 -1        55 1.15849E+00
 -1        56 1.40255E+00
 -1        57 1.56281E+00
 -1        58 1.56913E+00
 -1        59 1.76310E+00
 -1        60 1.76310E+00
 -1        61 2.53856E+00
 -1        62 4.06436E+00
 -1        63 5.89157E+00
 -1        64 6.31739E+00
 -1        65 6.31739E+00
 -1        66 5.93681E+00
 -1        67 4.87762E+00
 -1        68 3.10157E+00
 -1        69 1.77473E+00
 -1        70 9.37707E-01
 -1        71 4.37867E-01
 -1        72 1.40389E+01
 -1        73 3.39457E+00
 -1        74 2.41289E+00
 -1        75 1.66566E+00
 -1        76 1.14452E+00
 -1        77 9.05875E-01
 -1        78 7.31141E-01
 -1        79 5.87611E-01
 -1        80 4.67959E-01
 -1        81 3.68329E-01
 -1        82 2.93985E-01
 -1        83 2.32047E-01
 -1        84 1.80881E-01
 -1        85 1.39705E-01
 -1        86 1.07548E-01
 -1        87 8.34178E-02
 -1        88 6.63982E-02
 -1        89 5.57074E-02
 -1        90 5.33267E-02
 -1        91 6.30024E-02
 -1        92 7.80511E-02
 -1        93 9.83763E-02
 -1        94 1.23755E-01
 -1        95 1.53633E-01
 -1        96 1.86834E-01
 -1        97 2.29195E-01
 -1        98 2.94334E-01
 -1        99 3.67906E-01
 -1       100 4.45483E-01
 -1       101 5.18703E-01
 -1       102 5.73715E-01
 -1       103 5.91060E-01
 -1       104 7.54317E-01
 -1       105 9.69555E-01
 -1       106 1.14309E+00
 -1       107 1.38432E+00
 -1       108 1.74934E+00
 -1       109 1.82269E+00
 -1       110 2.37694E+00
 -1       111 2.79179E+00
 -1       112 4.18557E+00
 -1       113 4.81903E+00
 -1       114 4.93987E+00
 -1       115 4.93987E+00
 -1       116 4.47554E+00
 -1       117 3.19881E+00
 -1       118 2.01545E+00
 -1       119 1.15686E+00
 -1       120 5.43494E-01
 -1       121 3.08283E-01
 -1       122 4.84696E-01
 -1       123 8.34073E-01
 -1       124 1.11646E+00
 -1       125 1.12013E+00
 -1       126 1.12013E+00
 -1       127 8.80970E-01
 -1       128 1.86299E+00
 -1       129 1.86299E+00
 -1       130 1.39035E+00
 -1       131 9.70956E-01
 -1       132 1.15293E+00
 -1       133 1.15293E+00
 -1       134 9.35286E-01
 -1       135 5.08527E-01
 -1       136 3.49349E-01
 -1       137 2.52873E+01
 -1       138 4.57797E+01
 -1       139 4.57797E+01
 -1       140 1.82446E+01
 -1       141 1.23038E+01
 -1       142 1.29011E+01
 -1       143 1.33201E+01
 -1       144 1.33201E+01
 -1       145 1.27114E+01
 -1       146 1.49152E+01
 -1       147 3.97822E+01
 -1       148 3.97822E+01
 -1       149 2.47008E+01
 -1       150 2.40234E+01
 -1       151 2.35437E+01
 -1       152 2.53072E+01
 -1       153 3.67516E+01
 -1       154 3.67516E+01
 -1       155 1.28778E+01
 -1       156 1.28778E+01
 -1       157 1.24105E+01
 -1       158 1.24105E+01
 -1       159 1.22044E+01
 -1       160 2.09146E+01
 -1       161 4.74690E+01
 -1       162 4.74690E+01
 -1       163 2.41407E+01
 -1       164 6.07804E+00
 -1       165 2.30099E+00
 -1       166 1.50605E+00
 -1       167 1.15837E+00
 -1       168 9.72114E-01
 -1       169 8.64401E-01
 -1       170 7.96001E-01
 -1       171 7.55789E-01
 -1       172 7.99444E-01
 -1       173 8.67255E-01
 -1       174 9.81075E-01
 -1       175 1.17261E+00
 -1       176 1.52771E+00
 -1       177 2.26094E+00
 -1       178 3.93112E+00
 -1       179 1.40389E+01
 -1       180 4.31776E+00
 -1       181 3.34073E+00
 -1       182 2.11095E+00
 -1       183 1.44686E+00
 -1       184 1.02513E+00
 -1       185 7.74790E-01
 -1       186 5.94931E-01
 -1       187 4.67466E-01
 -1       188 3.67333E-01
 -1       189 2.89368E-01
 -1       190 2.32623E-01
 -1       191 1.84513E-01
 -1       192 1.44872E-01
 -1       193 1.13082E-01
 -1       194 8.83036E-02
 -1       195 6.96206E-02
 -1       196 5.61130E-02
 -1       197 4.68893E-02
 -1       198 4.40080E-02
 -1       199 5.25156E-02
 -1       200 6.44658E-02
 -1       201 7.97068E-02
 -1       202 1.06526E-01
 -1       203 1.41214E-01
 -1       204 1.84515E-01
 -1       205 2.36676E-01
 -1       206 3.05686E-01
 -1       207 4.14503E-01
 -1       208 5.43640E-01
 -1       209 6.87709E-01
 -1       210 8.34028E-01
 -1       211 9.67339E-01
 -1       212 1.15849E+00
 -1       213 1.40255E+00
 -1       214 1.56281E+00
 -1       215 1.56913E+00
 -1       216 1.76310E+00
 -1       217 1.76266E+00
 -1       218 2.53856E+00
 -1       219 4.06436E+00
 -1       220 5.89157E+00
 -1       221 6.31739E+00
 -1       222 5.93681E+00
 -1       223 4.87762E+00
 -1       224 3.44612E+00
 -1       225 2.24890E+00
 -1       226 1.44007E+00
 -1       227 8.59415E-01
 -1       228 3.39457E+00
 -1       229 2.41289E+00
 -1       230 1.66566E+00
 -1       231 1.14452E+00
 -1       232 9.05875E-01
 -1       233 7.31141E-01
 -1       234 5.87611E-01
 -1       235 4.67959E-01
 -1       236 3.68329E-01
 -1       237 2.93985E-01
 -1       238 2.32047E-01
 -1       239 1.83829E-01
 -1       240 1.44636E-01
 -1       241 1.13207E-01
 -1       242 8.88891E-02
 -1       243 7.09745E-02
 -1       244 5.87796E-02
 -1       245 5.20814E-02
 -1       246 5.81069E-02
 -1       247 6.85204E-02
 -1       248 8.29986E-02
 -1       249 1.01076E-01
 -1       250 1.23755E-01
 -1       251 1.58279E-01
 -1       252 2.04456E-01
 -1       253 2.58333E-01
 -1       254 3.18019E-01
 -1       255 3.79673E-01
 -1       256 4.45483E-01
 -1       257 5.18703E-01
 -1       258 5.73715E-01
 -1       259 6.63227E-01
 -1       260 8.07570E-01
 -1       261 9.69555E-01
 -1       262 1.14309E+00
 -1       263 1.38432E+00
 -1       264 1.74934E+00
 -1       265 1.82269E+00
 -1       266 2.37694E+00
 -1       267 3.02694E+00
 -1       268 4.18557E+00
 -1       269 4.81903E+00
 -1       270 4.93987E+00
 -1       271 4.47554E+00
 -1       272 3.19881E+00
 -1       273 2.01545E+00
 -1       274 1.18753E+00
 -1       275 6.14535E-01
 -1       276 7.34414E-01
 -1       277 1.21210E+00
 -1       278 1.80792E+00
 -1       279 1.97388E+00
 -1       280 1.97388E+00
 -1       281 1.83964E+00
 -1       282 3.51802E+00
 -1       283 3.96092E+00
 -1       284 3.96092E+00
 -1       285 2.17503E+00
 -1       286 2.00922E+00
 -1       287 2.00922E+00
 -1       288 1.91713E+00
 -1       289 1.42344E+00
 -1       290 1.14787E+00
 -1       291 3.26808E+01
 -1       292 2.69481E+01
 -1       293 4.57797E+01
 -1       294 1.85589E+01
 -1       295 1.14990E+01
 -1       296 1.23038E+01
 -1       297 1.29011E+01
 -1       298 1.33201E+01
 -1       299 1.27114E+01
 -1       300 1.13501E+01
 -1       301 1.49152E+01
 -1       302 3.97822E+01
 -1       303 3.57293E+01
 -1       304 2.46236E+01
 -1       305 2.49905E+01
 -1       306 2.49905E+01
 -1       307 3.37195E+01
 -1       308 3.67516E+01
 -1       309 1.40824E+01
 -1       310 1.17492E+01
 -1       311 1.28778E+01
 -1       312 1.19724E+01
 -1       313 1.24105E+01
 -1       314 1.22044E+01
 -1       315 1.15804E+01
 -1       316 2.25416E+01
 -1       317 4.74690E+01
 -1       318 2.90844E+01
 -1       319 3.26808E+01
 -1       320 1.07071E+00
 -1       321 2.47952E+00
 -1       322 7.88986E-01
 -1       323 6.95135E-01
 -1       324 6.31941E-01
 -1       325 5.87632E-01
 -1       326 5.90850E-01
 -1       327 6.34562E-01
 -1       328 7.01312E-01
 -1       329 7.96524E-01
 -1       330 9.31973E-01
 -1       331 1.16034E+00
 -1       332 1.32928E+00
 -1       333 2.20053E+00
 -1       334 1.91399E+00
 -1       335 1.72923E+00
 -1       336 1.26709E+00
 -1       337 9.06538E-01
 -1       338 6.55470E-01
 -1       339 5.38093E-01
 -1       340 4.40890E-01
 -1       341 3.55233E-01
 -1       342 2.89801E-01
 -1       343 2.34526E-01
 -1       344 1.87082E-01
 -1       345 1.51721E-01
 -1       346 1.22539E-01
 -1       347 9.81520E-02
 -1       348 7.83222E-02
 -1       349 6.25618E-02
 -1       350 5.02301E-02
 -1       351 4.14054E-02
 -1       352 4.20695E-02
 -1       353 4.60903E-02
 -1       354 5.98189E-02
 -1       355 7.97068E-02
 -1       356 1.06526E-01
 -1       357 1.50926E-01
 -1       358 2.12178E-01
 -1       359 2.89730E-01
 -1       360 3.84910E-01
 -1       361 4.97186E-01
 -1       362 6.22675E-01
 -1       363 7.52063E-01
 -1       364 8.68128E-01
 -1       365 9.79906E-01
 -1       366 1.10930E+00
 -1       367 1.17936E+00
 -1       368 1.09401E+00
 -1       369 9.25501E-01
 -1       370 1.01737E+00
 -1       371 1.75980E+00
 -1       372 2.68087E+00
 -1       373 3.50621E+00
 -1       374 3.95133E+00
 -1       375 3.70371E+00
 -1       376 3.60973E+00
 -1       377 3.04077E+00
 -1       378 2.59037E+00
 -1       379 2.23396E+00
 -1       380 1.90015E+00
 -1       381 1.13022E+00
 -1       382 8.90848E-01
 -1       383 7.03280E-01
 -1       384 5.44451E-01
 -1       385 4.37197E-01
 -1       386 3.70577E-01
 -1       387 3.06701E-01
 -1       388 2.51170E-01
 -1       389 2.05792E-01
 -1       390 1.66080E-01
 -1       391 1.32532E-01
 -1       392 1.05030E-01
 -1       393 8.33978E-02
 -1       394 6.72798E-02
 -1       395 5.59188E-02
 -1       396 4.88908E-02
 -1       397 4.72653E-02
 -1       398 5.18840E-02
 -1       399 6.03920E-02
 -1       400 7.81125E-02
 -1       401 1.02157E-01
 -1       402 1.32300E-01
 -1       403 1.82443E-01
 -1       404 2.52818E-01
 -1       405 3.39397E-01
 -1       406 4.41393E-01
 -1       407 5.54772E-01
 -1       408 6.70383E-01
 -1       409 7.71794E-01
 -1       410 8.70793E-01
 -1       411 9.21447E-01
 -1       412 9.21447E-01
 -1       413 8.66694E-01
 -1       414 7.38681E-01
 -1       415 8.30327E-01
 -1       416 1.45167E+00
 -1       417 2.36180E+00
 -1       418 2.92187E+00
 -1       419 2.95505E+00
 -1       420 2.95505E+00
 -1       421 2.80281E+00
 -1       422 2.80552E+00
 -1       423 2.39373E+00
 -1       424 1.88495E+00
 -1       425 1.22384E+00
 -1       426 5.62516E-01
 -1       427 2.32899E+00
 -1       428 2.02741E+00
 -1       429 1.22384E+00
 -1       430 2.84107E+00
 -1       431 3.22041E+00
 -1       432 4.17011E+00
 -1       433 6.94973E+00
 -1       434 6.94973E+00
 -1       435 5.60014E+00
 -1       436 3.80308E+00
 -1       437 2.85278E+00
 -1       438 2.26348E+00
 -1       439 2.09101E+00
 -1       440 2.69481E+01
 -1       441 3.26808E+01
 -1       442 2.84569E+01
 -1       443 1.50515E+01
 -1       444 7.69453E+00
 -1       445 9.13043E-01
 -1       446 9.99926E+00
 -1       447 1.14296E+01
 -1       448 9.47536E+00
 -1       449 8.23815E+00
 -1       450 7.60530E+00
 -1       451 1.40934E+01
 -1       452 2.41167E+01
 -1       453 2.01442E+01
 -1       454 3.27651E+01
 -1       455 3.27651E+01
 -1       456 2.07809E+01
 -1       457 2.21513E+01
 -1       458 1.31081E+01
 -1       459 7.78608E+00
 -1       460 8.88333E+00
 -1       461 1.12360E+01
 -1       462 1.11966E+01
 -1       463 1.05251E+01
 -1       464 8.00454E+00
 -1       465 8.97920E+00
 -1       466 1.62496E+01
 -1       467 2.90844E+01
 -1       468 2.76774E+01
 -1       469 8.43013E+00
 -1       470 1.96402E+01
 -1       471 1.04747E+00
 -1       472 4.86644E-01
 -1       473 5.11162E-01
 -1       474 4.31623E-01
 -1       475 4.57561E-01
 -1       476 4.87181E-01
 -1       477 5.11277E-01
 -1       478 5.11277E-01
 -1       479 6.09461E-01
 -1       480 8.90848E-01
 -1       481 8.03348E-01
 -1       482 4.04700E+00
 -1       483 7.01781E-01
 -1       484 5.88336E-01
 -1       485 4.76015E-01
 -1       486 3.77315E-01
 -1       487 3.22439E-01
 -1       488 2.72344E-01
 -1       489 2.24976E-01
 -1       490 1.86487E-01
 -1       491 1.52884E-01
 -1       492 1.23658E-01
 -1       493 9.90594E-02
 -1       494 7.96078E-02
 -1       495 6.39084E-02
 -1       496 5.05866E-02
 -1       497 4.06350E-02
 -1       498 3.54313E-02
 -1       499 3.69500E-02
 -1       500 4.60903E-02
 -1       501 6.23567E-02
 -1       502 9.38587E-02
 -1       503 1.34776E-01
 -1       504 1.87272E-01
 -1       505 2.53444E-01
 -1       506 3.35003E-01
 -1       507 4.32734E-01
 -1       508 5.45656E-01
 -1       509 6.69784E-01
 -1       510 7.96500E-01
 -1       511 9.12609E-01
 -1       512 1.00855E+00
 -1       513 1.13308E+00
 -1       514 1.27384E+00
 -1       515 1.35085E+00
 -1       516 1.58705E+00
 -1       517 1.93646E+00
 -1       518 2.32837E+00
 -1       519 2.71517E+00
 -1       520 3.70404E+00
 -1       521 5.41445E+00
 -1       522 3.86209E+00
 -1       523 3.64469E+00
 -1       524 3.04798E+00
 -1       525 2.84847E+00
 -1       526 5.44451E-01
 -1       527 4.37197E-01
 -1       528 3.70577E-01
 -1       529 3.06701E-01
 -1       530 2.51170E-01
 -1       531 2.06513E-01
 -1       532 1.67358E-01
 -1       533 1.33977E-01
 -1       534 1.08625E-01
 -1       535 8.77852E-02
 -1       536 7.03949E-02
 -1       537 5.60913E-02
 -1       538 4.43154E-02
 -1       539 3.86357E-02
 -1       540 3.71933E-02
 -1       541 4.62535E-02
 -1       542 5.96830E-02
 -1       543 8.30864E-02
 -1       544 1.21204E-01
 -1       545 1.70264E-01
 -1       546 2.32041E-01
 -1       547 3.07715E-01
 -1       548 3.97233E-01
 -1       549 4.98340E-01
 -1       550 6.05261E-01
 -1       551 7.07096E-01
 -1       552 8.00003E-01
 -1       553 8.70793E-01
 -1       554 9.22912E-01
 -1       555 9.52541E-01
 -1       556 8.91123E-01
 -1       557 1.07791E+00
 -1       558 1.30269E+00
 -1       559 1.93890E+00
 -1       560 2.46897E+00
 -1       561 2.97801E+00
 -1       562 3.24996E+00
 -1       563 3.13301E+00
 -1       564 2.80281E+00
 -1       565 2.57680E+00
 -1       566 2.50576E+00
 -1       567 2.68996E+00
 -1       568 4.12655E+00
 -1       569 7.13411E+00
 -1       570 2.69338E+00
 -1       571 2.69338E+00
 -1       572 8.09046E+00
 -1       573 1.06011E+01
 -1       574 1.09156E+01
 -1       575 8.38978E+00
 -1       576 6.35838E+00
 -1       577 3.88512E+00
 -1       578 2.30410E+00
 -1       579 2.84569E+01
 -1       580 1.26689E+01
 -1       581 7.03280E-01
 -1       582 6.77639E+00
 -1       583 2.21987E+01
 -1       584 8.09583E+00
 -1       585 2.76774E+01
 -1       586 7.58117E+00
 -1       587 3.27651E+01
 -1       588 4.57541E-01
 -1       589 7.80260E+00
 -1       590 1.37220E+01
 -1       591 9.08375E+00
 -1       592 6.01619E+00
 -1       593 4.97016E+00
 -1       594 7.59637E+00
 -1       595 1.12571E+01
 -1       596 1.71276E+01
 -1       597 2.25609E+01
 -1       598 2.21921E+01
 -1       599 6.19151E+00
 -1       600 4.11908E+00
 -1       601 6.85324E+00
 -1       602 8.78564E+00
 -1       603 8.43196E+00
 -1       604 5.37584E+00
 -1       605 9.06848E+00
 -1       606 1.35827E+01
 -1       607 8.77479E-01
 -1       608 1.32791E+00
 -1       609 1.87959E+01
 -1       610 7.70226E+00
 -1       611 5.11162E-01
 -1       612 4.63133E-01
 -1       613 1.53277E+01
 -1       614 2.30410E+00
 -1       615 3.58604E-01
 -1       616 3.42846E-01
 -1       617 3.62003E-01
 -1       618 3.38154E-01
 -1       619 5.43882E-01
 -1       620 6.17507E+00
 -1       621 5.41445E+00
 -1       622 7.32655E+00
 -1       623 3.96874E-01
 -1       624 3.83764E-01
 -1       625 3.42910E-01
 -1       626 2.93292E-01
 -1       627 2.43660E-01
 -1       628 2.12439E-01
 -1       629 1.80021E-01
 -1       630 1.49117E-01
 -1       631 1.21261E-01
 -1       632 9.82687E-02
 -1       633 7.96078E-02
 -1       634 6.39084E-02
 -1       635 5.05866E-02
 -1       636 3.97495E-02
 -1       637 3.09908E-02
 -1       638 2.56119E-02
 -1       639 3.09224E-02
 -1       640 4.89290E-02
 -1       641 7.49750E-02
 -1       642 1.08190E-01
 -1       643 1.50446E-01
 -1       644 2.03748E-01
 -1       645 2.70159E-01
 -1       646 3.51667E-01
 -1       647 4.49997E-01
 -1       648 5.66314E-01
 -1       649 7.05494E-01
 -1       650 8.59054E-01
 -1       651 1.01479E+00
 -1       652 1.17439E+00
 -1       653 1.39919E+00
 -1       654 1.75664E+00
 -1       655 2.11165E+00
 -1       656 2.47814E+00
 -1       657 4.35854E+00
 -1       658 2.90260E+00
 -1       659 3.73931E+00
 -1       660 6.45648E+00
 -1       661 3.64469E+00
 -1       662 3.04798E+00
 -1       663 3.27358E-01
 -1       664 1.47187E+01
 -1       665 3.96006E-01
 -1       666 2.33037E-01
 -1       667 1.95866E-01
 -1       668 1.61847E-01
 -1       669 1.34015E-01
 -1       670 1.09323E-01
 -1       671 8.81429E-02
 -1       672 7.03949E-02
 -1       673 5.60913E-02
 -1       674 4.43154E-02
 -1       675 3.56974E-02
 -1       676 2.89017E-02
 -1       677 3.43552E-02
 -1       678 4.49743E-02
 -1       679 7.02751E-02
 -1       680 1.02641E-01
 -1       681 1.43841E-01
 -1       682 1.95642E-01
 -1       683 2.59630E-01
 -1       684 3.36911E-01
 -1       685 4.27642E-01
 -1       686 5.30351E-01
 -1       687 6.40983E-01
 -1       688 7.54179E-01
 -1       689 8.54692E-01
 -1       690 9.67200E-01
 -1       691 1.12686E+00
 -1       692 1.28336E+00
 -1       693 1.38236E+00
 -1       694 1.84447E+00
 -1       695 2.25468E+00
 -1       696 2.69957E+00
 -1       697 4.94401E+00
 -1       698 6.17507E+00
 -1       699 5.74403E+00
 -1       700 3.65953E+00
 -1       701 2.65865E+00
 -1       702 2.95409E+00
 -1       703 2.95645E+00
 -1       704 7.83527E+00
 -1       705 1.27415E+01
 -1       706 5.54696E+00
 -1       707 7.55068E+00
 -1       708 1.27415E+01
 -1       709 3.91793E+00
 -1       710 2.93793E+00
 -1       711 1.12719E+01
 -1       712 9.83636E+00
 -1       713 5.95757E+00
 -1       714 4.63673E-01
 -1       715 2.72846E-01
 -1       716 4.03336E-01
 -1       717 6.65406E+00
 -1       718 1.02415E+01
 -1       719 5.14887E-01
 -1       720 3.62003E-01
 -1       721 3.60670E-01
 -1       722 4.54636E+00
 -1       723 5.74403E+00
 -1       724 1.34751E+01
 -1       725 1.51782E+01
 -1       726 4.87552E+00
 -1       727 9.45559E+00
 -1       728 1.47575E+01
 -1       729 3.27862E+00
 -1       730 5.78172E+00
 -1       731 1.16852E+01
 -1       732 3.69276E+00
 -1       733 4.94401E+00
 -1       734 3.08997E+00
 -1       735 3.62170E+00
 -1       736 3.70099E-01
 -1       737 3.60670E-01
 -1       738 3.42413E-01
 -1       739 4.27463E+00
 -1       740 2.95645E+00
 -1       741 6.15000E+00
 -1       742 9.48530E+00
 -1       743 9.70140E+00
 -1       744 3.57719E-01
 -1       745 3.02064E+00
 -1       746 3.82501E+00
 -1       747 2.40856E-01
 -1       748 2.67345E-01
 -1       749 2.55877E-01
 -1       750 2.55108E-01
 -1       751 2.48303E-01
 -1       752 2.26557E-01
 -1       753 1.98268E-01
 -1       754 1.71658E-01
 -1       755 1.50513E-01
 -1       756 1.28277E-01
 -1       757 1.06829E-01
 -1       758 8.71793E-02
 -1       759 6.97182E-02
 -1       760 5.44092E-02
 -1       761 4.09196E-02
 -1       762 2.87054E-02
 -1       763 1.72412E-02
 -1       764 1.82502E-02
 -1       765 3.30500E-02
 -1       766 5.45603E-02
 -1       767 8.20428E-02
 -1       768 1.18484E-01
 -1       769 1.66155E-01
 -1       770 2.26506E-01
 -1       771 3.01588E-01
 -1       772 3.92980E-01
 -1       773 5.01133E-01
 -1       774 6.24224E-01
 -1       775 7.60644E-01
 -1       776 9.51466E-01
 -1       777 1.20348E+00
 -1       778 1.55465E+00
 -1       779 1.96058E+00
 -1       780 2.46891E+00
 -1       781 3.20385E+00
 -1       782 4.56517E+00
 -1       783 3.07732E+00
 -1       784 1.62967E-01
 -1       785 1.88596E-01
 -1       786 1.13180E-01
 -1       787 9.16335E-02
 -1       788 7.28565E-02
 -1       789 5.66837E-02
 -1       790 4.33100E-02
 -1       791 3.30425E-02
 -1       792 2.35340E-02
 -1       793 2.07644E-02
 -1       794 3.12677E-02
 -1       795 5.16854E-02
 -1       796 7.72453E-02
 -1       797 1.09471E-01
 -1       798 1.50039E-01
 -1       799 2.00771E-01
 -1       800 2.63612E-01
 -1       801 3.42112E-01
 -1       802 4.40248E-01
 -1       803 5.56987E-01
 -1       804 6.91839E-01
 -1       805 8.40589E-01
 -1       806 1.00474E+00
 -1       807 1.18424E+00
 -1       808 1.47807E+00
 -1       809 1.89510E+00
 -1       810 2.75877E+00
 -1       811 2.25468E+00
 -1       812 3.32456E+00
 -1       813 2.95409E+00
 -1       814 3.62170E+00
 -1       815 9.50716E+00
 -1       816 5.41485E+00
 -1       817 8.66621E+00
 -1       818 3.05136E-01
 -1       819 1.37242E-01
 -1       820 2.86342E-01
 -1       821 2.32692E-01
 -1       822 5.74403E+00
 -1       823 1.03442E+01
 -1       824 4.08174E+00
 -1       825 2.82244E-01
 -1       826 2.88631E-01
 -1       827 2.81681E-01
 -1       828 2.80489E-01
 -1       829 3.62123E+00
 -1       830 2.81969E-01
 -1       831 2.53758E-01
 -1       832 2.17055E-01
 -1       833 5.56042E+00
 -1       834 2.69601E-01
 -1       835 7.55465E+00
 -1       836 2.88764E-01
 -1       837 2.88631E-01
 -1       838 3.32456E+00
 -1       839 1.74639E-01
 -1       840 4.94490E+00
 -1       841 1.41712E-01
 -1       842 1.82384E-01
 -1       843 1.75169E-01
 -1       844 1.59495E-01
 -1       845 1.39878E-01
 -1       846 1.23287E-01
 -1       847 1.06870E-01
 -1       848 9.02249E-02
 -1       849 7.44098E-02
 -1       850 5.99300E-02
 -1       851 4.68831E-02
 -1       852 3.50960E-02
 -1       853 2.52807E-02
 -1       854 2.69643E-02
 -1       855 3.21854E-02
 -1       856 5.14079E-02
 -1       857 7.75098E-02
 -1       858 1.11505E-01
 -1       859 1.55093E-01
 -1       860 2.10505E-01
 -1       861 2.80237E-01
 -1       862 3.67047E-01
 -1       863 4.73953E-01
 -1       864 6.04136E-01
 -1       865 7.60644E-01
 -1       866 9.45546E-01
 -1       867 1.15657E+00
 -1       868 1.52667E+00
 -1       869 2.15605E+00
 -1       870 3.50665E+00
 -1       871 5.35642E+00
 -1       872 5.35642E+00
 -1       873 6.42832E-02
 -1       874 8.00800E-02
 -1       875 9.75374E-02
 -1       876 5.02018E-02
 -1       877 3.75952E-02
 -1       878 2.59890E-02
 -1       879 2.23303E-02
 -1       880 2.53474E-02
 -1       881 4.35924E-02
 -1       882 6.67519E-02
 -1       883 9.80873E-02
 -1       884 1.38056E-01
 -1       885 1.88477E-01
 -1       886 2.51133E-01
 -1       887 3.27564E-01
 -1       888 4.18710E-01
 -1       889 5.24276E-01
 -1       890 6.41542E-01
 -1       891 7.81191E-01
 -1       892 9.69833E-01
 -1       893 1.27064E+00
 -1       894 1.66842E+00
 -1       895 2.10552E+00
 -1       896 3.04507E+00
 -1       897 2.07631E-01
 -1       898 2.88764E-01
 -1       899 1.52033E-01
 -1       900 7.20124E+00
 -1       901 6.18727E+00
 -1       902 1.47548E-01
 -1       903 6.78212E+00
 -1       904 1.66088E-01
 -1       905 2.09354E-01
 -1       906 1.75730E-01
 -1       907 1.90078E-01
 -1       908 5.53568E+00
 -1       909 1.17514E-01
 -1       910 1.34950E-01
 -1       911 5.58603E+00
 -1       912 1.51269E-01
 -1       913 2.17291E-01
 -1       914 1.16172E-01
 -1       915 2.17291E-01
 -1       916 5.36786E-02
 -1       917 9.67920E-02
 -1       918 1.23407E-01
 -1       919 1.35959E-01
 -1       920 1.35332E-01
 -1       921 1.26541E-01
 -1       922 1.13293E-01
 -1       923 9.81327E-02
 -1       924 8.56133E-02
 -1       925 7.27330E-02
 -1       926 6.03225E-02
 -1       927 4.88059E-02
 -1       928 3.83764E-02
 -1       929 3.14052E-02
 -1       930 3.24717E-02
 -1       931 3.62070E-02
 -1       932 4.41754E-02
 -1       933 6.61312E-02
 -1       934 9.44903E-02
 -1       935 1.30962E-01
 -1       936 1.77566E-01
 -1       937 2.36745E-01
 -1       938 3.11568E-01
 -1       939 4.06127E-01
 -1       940 5.26255E-01
 -1       941 6.80692E-01
 -1       942 8.82924E-01
 -1       943 1.15463E+00
 -1       944 1.52667E+00
 -1       945 1.99200E+00
 -1       946 3.32281E+00
 -1       947 1.96410E-01
 -1       948 6.64940E-02
 -1       949 2.05084E-01
 -1       950 8.05228E-02
 -1       951 3.15018E-02
 -1       952 2.94087E-02
 -1       953 3.21712E-02
 -1       954 3.93649E-02
 -1       955 6.03485E-02
 -1       956 8.79304E-02
 -1       957 1.23274E-01
 -1       958 1.68234E-01
 -1       959 2.24902E-01
 -1       960 2.95641E-01
 -1       961 3.83164E-01
 -1       962 4.90670E-01
 -1       963 6.21977E-01
 -1       964 7.81191E-01
 -1       965 9.69833E-01
 -1       966 1.21263E+00
 -1       967 1.63581E+00
 -1       968 2.93866E+00
 -1       969 4.84710E+00
 -1       970 2.16219E-01
 -1       971 2.16219E-01
 -1       972 4.84710E+00
 -1       973 4.20642E-02
 -1       974 4.25878E+00
 -1       975 1.12749E-01
 -1       976 1.45462E-01
 -1       977 1.40592E-01
 -1       978 4.15436E+00
 -1       979 1.23124E-01
 -1       980 1.53144E-01
 -1       981 9.50904E-02
 -1       982 1.24718E-01
 -1       983 3.66834E+00
 -1       984 1.53115E-01
 -1       985 1.55401E-01
 -1       986 1.52165E-01
 -1       987 8.96910E-02
 -1       988 1.01687E-01
 -1       989 1.03185E-01
 -1       990 9.78344E-02
 -1       991 8.84988E-02
 -1       992 7.72660E-02
 -1       993 6.55870E-02
 -1       994 5.52887E-02
 -1       995 4.59929E-02
 -1       996 3.75744E-02
 -1       997 3.52903E-02
 -1       998 3.54301E-02
 -1       999 3.83178E-02
 -1      1000 4.43430E-02
 -1      1001 5.56729E-02
 -1      1002 7.28750E-02
 -1      1003 9.98054E-02
 -1      1004 1.35126E-01
 -1      1005 1.80209E-01
 -1      1006 2.37570E-01
 -1      1007 3.10741E-01
 -1      1008 4.05124E-01
 -1      1009 5.29724E-01
 -1      1010 7.00378E-01
 -1      1011 9.42946E-01
 -1      1012 1.31997E+00
 -1      1013 1.81694E+00
 -1      1014 5.24553E-02
 -1      1015 6.11856E-02
 -1      1016 9.47398E-02
 -1      1017 3.54422E-02
 -1      1018 3.36006E-02
 -1      1019 4.93811E-02
 -1      1020 7.11672E-02
 -1      1021 9.95768E-02
 -1      1022 1.36095E-01
 -1      1023 1.82723E-01
 -1      1024 2.41964E-01
 -1      1025 3.17103E-01
 -1      1026 4.12765E-01
 -1      1027 5.35977E-01
 -1      1028 6.98365E-01
 -1      1029 9.18633E-01
 -1      1030 1.21263E+00
 -1      1031 1.62182E+00
 -1      1032 2.27985E+00
 -1      1033 1.53144E-01
 -1      1034 4.25559E-02
 -1      1035 4.01824E-02
 -1      1036 9.67920E-02
 -1      1037 1.09014E-01
 -1      1038 3.42726E-02
 -1      1039 2.31278E+00
 -1      1040 1.17179E-01
 -1      1041 1.10321E-01
 -1      1042 3.84884E+00
 -1      1043 1.41174E-01
 -1      1044 9.86604E-02
 -1      1045 1.04951E-01
 -1      1046 2.96586E+00
 -1      1047 9.82416E-02
 -1      1048 9.82416E-02
 -1      1049 1.42436E-01
 -1      1050 2.58245E+00
 -1      1051 8.14441E-02
 -1      1052 8.30759E-02
 -1      1053 7.19957E-02
 -1      1054 6.49561E-02
 -1      1055 8.51839E-02
 -1      1056 5.74267E-02
 -1      1057 4.98801E-02
 -1      1058 4.20918E-02
 -1      1059 3.75209E-02
 -1      1060 3.54301E-02
 -1      1061 3.83178E-02
 -1      1062 4.43430E-02
 -1      1063 5.56729E-02
 -1      1064 7.21948E-02
 -1      1065 9.43754E-02
 -1      1066 1.23260E-01
 -1      1067 1.60101E-01
 -1      1068 2.06473E-01
 -1      1069 2.64503E-01
 -1      1070 3.37362E-01
 -1      1071 4.30232E-01
 -1      1072 5.52314E-01
 -1      1073 7.21915E-01
 -1      1074 9.83024E-01
 -1      1075 1.80110E+00
 -1      1076 1.16492E-01
 -1      1077 5.34102E-02
 -1      1078 2.22368E+00
 -1      1079 8.35727E-02
 -1      1080 6.38546E-02
 -1      1081 1.42717E-01
 -1      1082 1.84550E-01
 -1      1083 2.36606E-01
 -1      1084 3.04085E-01
 -1      1085 3.99798E-01
 -1      1086 5.28947E-01
 -1      1087 7.10661E-01
 -1      1088 1.00477E+00
 -1      1089 1.80110E+00
 -1      1090 1.76267E+00
 -1      1091 6.69867E-02
 -1      1092 1.09492E-01
 -1      1093 3.54422E-02
 -1      1094 4.98801E-02
 -1      1095 5.74267E-02
 -1      1096 8.84573E-02
 -1      1097 1.11603E-01
 -1      1098 8.69204E-02
 -1      1099 8.51839E-02
 -1      1100 4.01824E-02
 -1      1101 4.20918E-02
 -1      1102 4.93811E-02
 -1      1103 1.11603E-01
 -1      1104 3.54034E-02
 -1      1105 5.34102E-02
 -1      1106 7.62387E-02
 -1      1107 1.11603E-01
 -1      1108 9.86604E-02
 -1      1109 1.83210E+00
 -1      1110 8.54376E-02
 -1      1111 1.31430E+01
 -1      1112 8.40344E+00
 -1      1113 2.74544E+00
 -1      1114 1.55866E+00
 -1      1115 1.16707E+00
 -1      1116 9.71924E-01
 -1      1117 8.54435E-01
 -1      1118 7.81340E-01
 -1      1119 7.54805E-01
 -1      1120 7.84478E-01
 -1      1121 8.57027E-01
 -1      1122 9.76790E-01
 -1      1123 1.18029E+00
 -1      1124 1.57190E+00
 -1      1125 2.67071E+00
 -1      1126 6.07331E+00
 -1      1127 1.13400E+01
 -1      1128 1.31430E+01
 -1      1129 8.73039E+00
 -1      1130 3.82925E+00
 -1      1131 2.72584E+00
 -1      1132 1.73653E+00
 -1      1133 1.18793E+00
 -1      1134 8.94272E-01
 -1      1135 6.84861E-01
 -1      1136 5.24774E-01
 -1      1137 4.00839E-01
 -1      1138 3.07598E-01
 -1      1139 2.36419E-01
 -1      1140 1.79703E-01
 -1      1141 1.35441E-01
 -1      1142 1.01755E-01
 -1      1143 7.69700E-02
 -1      1144 5.96365E-02
 -1      1145 4.85393E-02
 -1      1146 4.42103E-02
 -1      1147 4.82618E-02
 -1      1148 5.84907E-02
 -1      1149 7.18891E-02
 -1      1150 8.78084E-02
 -1      1151 1.13735E-01
 -1      1152 1.54130E-01
 -1      1153 2.05835E-01
 -1      1154 2.69269E-01
 -1      1155 3.44070E-01
 -1      1156 4.27929E-01
 -1      1157 5.15323E-01
 -1      1158 6.42265E-01
 -1      1159 8.22270E-01
 -1      1160 1.03873E+00
 -1      1161 1.28052E+00
 -1      1162 1.48268E+00
 -1      1163 1.56597E+00
 -1      1164 1.66612E+00
 -1      1165 1.76310E+00
 -1      1166 2.15083E+00
 -1      1167 3.30146E+00
 -1      1168 4.97797E+00
 -1      1169 6.10448E+00
 -1      1170 6.31739E+00
 -1      1171 6.12710E+00
 -1      1172 5.40722E+00
 -1      1173 3.98960E+00
 -1      1174 2.43815E+00
 -1      1175 1.35622E+00
 -1      1176 6.87787E-01
 -1      1177 2.99280E-01
 -1      1178 1.40389E+01
 -1      1179 8.71675E+00
 -1      1180 2.90373E+00
 -1      1181 2.03928E+00
 -1      1182 1.40509E+00
 -1      1183 1.02520E+00
 -1      1184 8.18508E-01
 -1      1185 6.59376E-01
 -1      1186 5.27785E-01
 -1      1187 4.18144E-01
 -1      1188 3.31157E-01
 -1      1189 2.63016E-01
 -1      1190 2.06464E-01
 -1      1191 1.60293E-01
 -1      1192 1.23627E-01
 -1      1193 9.54831E-02
 -1      1194 7.49080E-02
 -1      1195 6.10528E-02
 -1      1196 5.45171E-02
 -1      1197 5.81646E-02
 -1      1198 7.05267E-02
 -1      1199 8.82137E-02
 -1      1200 1.11066E-01
 -1      1201 1.38694E-01
 -1      1202 1.70233E-01
 -1      1203 2.08015E-01
 -1      1204 2.61765E-01
 -1      1205 3.31120E-01
 -1      1206 4.06694E-01
 -1      1207 4.82093E-01
 -1      1208 5.46209E-01
 -1      1209 5.82388E-01
 -1      1210 6.72689E-01
 -1      1211 8.61936E-01
 -1      1212 1.05632E+00
 -1      1213 1.26371E+00
 -1      1214 1.56683E+00
 -1      1215 1.78602E+00
 -1      1216 2.09982E+00
 -1      1217 2.58437E+00
 -1      1218 3.48868E+00
 -1      1219 4.50230E+00
 -1      1220 4.87945E+00
 -1      1221 4.93987E+00
 -1      1222 4.70771E+00
 -1      1223 3.83717E+00
 -1      1224 2.60713E+00
 -1      1225 1.58615E+00
 -1      1226 8.50175E-01
 -1      1227 3.50940E-01
 -1      1228 2.33335E-01
 -1      1229 3.96490E-01
 -1      1230 6.59385E-01
 -1      1231 9.75267E-01
 -1      1232 1.11829E+00
 -1      1233 1.12013E+00
 -1      1234 1.00055E+00
 -1      1235 1.37198E+00
 -1      1236 1.86299E+00
 -1      1237 1.62667E+00
 -1      1238 1.18065E+00
 -1      1239 1.06194E+00
 -1      1240 1.15293E+00
 -1      1241 1.04411E+00
 -1      1242 7.21906E-01
 -1      1243 4.28938E-01
 -1      1244 2.55021E-01
 -1      1245 2.52873E+01
 -1      1246 3.55335E+01
 -1      1247 4.57797E+01
 -1      1248 3.20121E+01
 -1      1249 1.52742E+01
 -1      1250 1.26024E+01
 -1      1251 1.31106E+01
 -1      1252 1.33201E+01
 -1      1253 1.30158E+01
 -1      1254 1.38133E+01
 -1      1255 2.73487E+01
 -1      1256 3.97822E+01
 -1      1257 3.22415E+01
 -1      1258 2.43621E+01
 -1      1259 2.37836E+01
 -1      1260 2.44255E+01
 -1      1261 3.10294E+01
 -1      1262 3.67516E+01
 -1      1263 2.54170E+01
 -1      1264 1.34801E+01
 -1      1265 1.28778E+01
 -1      1266 1.26442E+01
 -1      1267 1.24105E+01
 -1      1268 1.23075E+01
 -1      1269 1.65595E+01
 -1      1270 3.41918E+01
 -1      1271 4.74690E+01
 -1      1272 3.58048E+01
 -1      1273 2.47140E+01
 -1      1274 1.31430E+01
 -1      1275 4.87095E+00
 -1      1276 9.61053E+00
 -1      1277 2.06401E+00
 -1      1278 2.98243E+00
 -1      1279 4.18951E+00
 -1      1280 1.39818E+00
 -1      1281 1.66654E+00
 -1      1282 1.90352E+00
 -1      1283 1.10111E+00
 -1      1284 1.22434E+00
 -1      1285 1.33221E+00
 -1      1286 9.36062E-01
 -1      1287 1.00798E+00
 -1      1288 1.06524E+00
 -1      1289 8.36630E-01
 -1      1290 8.82206E-01
 -1      1291 9.18257E-01
 -1      1292 7.74911E-01
 -1      1293 8.02430E-01
 -1      1294 8.30201E-01
 -1      1295 7.55789E-01
 -1      1296 7.54805E-01
 -1      1297 7.75895E-01
 -1      1298 8.06306E-01
 -1      1299 7.77616E-01
 -1      1300 7.77616E-01
 -1      1301 8.84070E-01
 -1      1302 8.40212E-01
 -1      1303 8.33349E-01
 -1      1304 1.01688E+00
 -1      1305 9.40980E-01
 -1      1306 9.24165E-01
 -1      1307 1.24025E+00
 -1      1308 1.11265E+00
 -1      1309 1.07684E+00
 -1      1310 1.68181E+00
 -1      1311 1.41780E+00
 -1      1312 1.35016E+00
 -1      1313 2.88322E+00
 -1      1314 2.04843E+00
 -1      1315 1.89433E+00
 -1      1316 6.28611E+00
 -1      1317 3.71831E+00
 -1      1318 3.09603E+00
 -1      1319 1.40389E+01
 -1      1320 1.13400E+01
 -1      1321 8.98502E+00
 -1      1322 1.40389E+01
 -1      1323 8.73039E+00
 -1      1324 4.31776E+00
 -1      1325 3.82925E+00
 -1      1326 3.34073E+00
 -1      1327 3.82925E+00
 -1      1328 2.72584E+00
 -1      1329 2.11095E+00
 -1      1330 2.72584E+00
 -1      1331 1.77890E+00
 -1      1332 1.40448E+00
 -1      1333 1.77890E+00
 -1      1334 1.19362E+00
 -1      1335 1.01944E+00
 -1      1336 1.23599E+00
 -1      1337 8.94272E-01
 -1      1338 7.74790E-01
 -1      1339 8.99959E-01
 -1      1340 6.84861E-01
 -1      1341 5.94931E-01
 -1      1342 6.84861E-01
 -1      1343 5.31199E-01
 -1      1344 4.61042E-01
 -1      1345 5.31199E-01
 -1      1346 4.10975E-01
 -1      1347 3.57196E-01
 -1      1348 4.17400E-01
 -1      1349 3.18214E-01
 -1      1350 2.78752E-01
 -1      1351 3.28351E-01
 -1      1352 2.50380E-01
 -1      1353 2.18663E-01
 -1      1354 2.60996E-01
 -1      1355 1.94607E-01
 -1      1356 1.69608E-01
 -1      1357 2.08568E-01
 -1      1358 1.49788E-01
 -1      1359 1.30525E-01
 -1      1360 1.64693E-01
 -1      1361 1.14630E-01
 -1      1362 1.00208E-01
 -1      1363 1.28977E-01
 -1      1364 8.78183E-02
 -1      1365 7.74553E-02
 -1      1366 1.00693E-01
 -1      1367 6.81138E-02
 -1      1368 6.11433E-02
 -1      1369 7.89621E-02
 -1      1370 5.43895E-02
 -1      1371 5.02628E-02
 -1      1372 6.28668E-02
 -1      1373 4.56510E-02
 -1      1374 4.54487E-02
 -1      1375 5.15012E-02
 -1      1376 4.40080E-02
 -1      1377 4.82618E-02
 -1      1378 4.54487E-02
 -1      1379 5.25156E-02
 -1      1380 5.84907E-02
 -1      1381 4.82618E-02
 -1      1382 6.44658E-02
 -1      1383 7.18891E-02
 -1      1384 5.84907E-02
 -1      1385 7.95096E-02
 -1      1386 8.80056E-02
 -1      1387 7.20863E-02
 -1      1388 1.01415E-01
 -1      1389 1.18846E-01
 -1      1390 9.31164E-02
 -1      1391 1.36190E-01
 -1      1392 1.59154E-01
 -1      1393 1.23870E-01
 -1      1394 1.80805E-01
 -1      1395 2.09545E-01
 -1      1396 1.62864E-01
 -1      1397 2.35626E-01
 -1      1398 2.70319E-01
 -1      1399 2.10596E-01
 -1      1400 3.04823E-01
 -1      1401 3.44932E-01
 -1      1402 2.71181E-01
 -1      1403 3.99341E-01
 -1      1404 4.43091E-01
 -1      1405 3.60094E-01
 -1      1406 5.07660E-01
 -1      1407 5.51303E-01
 -1      1408 4.79071E-01
 -1      1409 6.23337E-01
 -1      1410 7.06637E-01
 -1      1411 6.15674E-01
 -1      1412 7.79796E-01
 -1      1413 8.76502E-01
 -1      1414 7.60868E-01
 -1      1415 9.43157E-01
 -1      1416 1.06292E+00
 -1      1417 9.00683E-01
 -1      1418 1.15849E+00
 -1      1419 1.28052E+00
 -1      1420 1.06292E+00
 -1      1421 1.40255E+00
 -1      1422 1.48268E+00
 -1      1423 1.28052E+00
 -1      1424 1.56281E+00
 -1      1425 1.56597E+00
 -1      1426 1.48268E+00
 -1      1427 1.56913E+00
 -1      1428 1.66612E+00
 -1      1429 1.56597E+00
 -1      1430 1.76310E+00
 -1      1431 1.76310E+00
 -1      1432 1.66612E+00
 -1      1433 1.76288E+00
 -1      1434 2.15061E+00
 -1      1435 1.76288E+00
 -1      1436 2.53856E+00
 -1      1437 3.30146E+00
 -1      1438 2.15061E+00
 -1      1439 4.06436E+00
 -1      1440 4.97797E+00
 -1      1441 3.30146E+00
 -1      1442 5.89157E+00
 -1      1443 6.10448E+00
 -1      1444 4.97797E+00
 -1      1445 6.31739E+00
 -1      1446 6.31739E+00
 -1      1447 6.10448E+00
 -1      1448 6.12710E+00
 -1      1449 5.93681E+00
 -1      1450 6.12710E+00
 -1      1451 5.40722E+00
 -1      1452 4.87762E+00
 -1      1453 5.40722E+00
 -1      1454 4.16187E+00
 -1      1455 3.27384E+00
 -1      1456 4.16187E+00
 -1      1457 2.67524E+00
 -1      1458 2.01182E+00
 -1      1459 2.84751E+00
 -1      1460 1.60740E+00
 -1      1461 1.18889E+00
 -1      1462 1.84449E+00
 -1      1463 8.98561E-01
 -1      1464 6.48641E-01
 -1      1465 1.14974E+00
 -1      1466 3.93608E-01
 -1      1467 6.04382E-01
 -1      1468 3.39457E+00
 -1      1469 8.71675E+00
 -1      1470 8.71675E+00
 -1      1471 2.41289E+00
 -1      1472 2.90373E+00
 -1      1473 2.90373E+00
 -1      1474 1.66566E+00
 -1      1475 2.03928E+00
 -1      1476 2.03928E+00
 -1      1477 1.14452E+00
 -1      1478 1.40509E+00
 -1      1479 1.40509E+00
 -1      1480 9.05875E-01
 -1      1481 1.02520E+00
 -1      1482 1.02520E+00
 -1      1483 7.31141E-01
 -1      1484 8.18508E-01
 -1      1485 8.18508E-01
 -1      1486 5.87611E-01
 -1      1487 6.59376E-01
 -1      1488 6.59376E-01
 -1      1489 4.67959E-01
 -1      1490 5.27785E-01
 -1      1491 5.27785E-01
 -1      1492 3.68329E-01
 -1      1493 4.18144E-01
 -1      1494 4.18144E-01
 -1      1495 2.93985E-01
 -1      1496 3.31157E-01
 -1      1497 3.31157E-01
 -1      1498 2.32047E-01
 -1      1499 2.63016E-01
 -1      1500 2.63016E-01
 -1      1501 1.82355E-01
 -1      1502 2.07938E-01
 -1      1503 2.07938E-01
 -1      1504 1.42171E-01
 -1      1505 1.62758E-01
 -1      1506 1.64232E-01
 -1      1507 1.10378E-01
 -1      1508 1.26456E-01
 -1      1509 1.28921E-01
 -1      1510 8.61535E-02
 -1      1511 9.82188E-02
 -1      1512 1.01048E-01
 -1      1513 6.86864E-02
 -1      1514 7.71961E-02
 -1      1515 7.99318E-02
 -1      1516 5.72435E-02
 -1      1517 6.25889E-02
 -1      1518 6.48771E-02
 -1      1519 5.27041E-02
 -1      1520 5.38944E-02
 -1      1521 5.54305E-02
 -1      1522 6.05546E-02
 -1      1523 5.57168E-02
 -1      1524 5.50941E-02
 -1      1525 7.32858E-02
 -1      1526 6.57614E-02
 -1      1527 6.33136E-02
 -1      1528 9.06874E-02
 -1      1529 8.05249E-02
 -1      1530 7.57595E-02
 -1      1531 1.12415E-01
 -1      1532 9.97262E-02
 -1      1533 9.20374E-02
 -1      1534 1.38694E-01
 -1      1535 1.23755E-01
 -1      1536 1.12415E-01
 -1      1537 1.72556E-01
 -1      1538 1.55956E-01
 -1      1539 1.41017E-01
 -1      1540 2.16826E-01
 -1      1541 1.95645E-01
 -1      1542 1.81368E-01
 -1      1543 2.76334E-01
 -1      1544 2.43764E-01
 -1      1545 2.31395E-01
 -1      1546 3.42963E-01
 -1      1547 3.06177E-01
 -1      1548 2.88176E-01
 -1      1549 4.12578E-01
 -1      1550 3.73789E-01
 -1      1551 3.48846E-01
 -1      1552 4.82093E-01
 -1      1553 4.45483E-01
 -1      1554 4.12578E-01
 -1      1555 5.46209E-01
 -1      1556 5.18703E-01
 -1      1557 4.82093E-01
 -1      1558 5.82388E-01
 -1      1559 5.73715E-01
 -1      1560 5.46209E-01
 -1      1561 7.08772E-01
 -1      1562 6.27144E-01
 -1      1563 6.18471E-01
 -1      1564 8.88563E-01
 -1      1565 7.80943E-01
 -1      1566 7.35399E-01
 -1      1567 1.05632E+00
 -1      1568 9.69555E-01
 -1      1569 8.88563E-01
 -1      1570 1.26371E+00
 -1      1571 1.14309E+00
 -1      1572 1.05632E+00
 -1      1573 1.56683E+00
 -1      1574 1.38432E+00
 -1      1575 1.26371E+00
 -1      1576 1.78602E+00
 -1      1577 1.74934E+00
 -1      1578 1.56683E+00
 -1      1579 2.09982E+00
 -1      1580 1.82269E+00
 -1      1581 1.78602E+00
 -1      1582 2.58437E+00
 -1      1583 2.37694E+00
 -1      1584 2.09982E+00
 -1      1585 3.60625E+00
 -1      1586 2.90937E+00
 -1      1587 2.70194E+00
 -1      1588 4.50230E+00
 -1      1589 4.18557E+00
 -1      1590 3.60625E+00
 -1      1591 4.87945E+00
 -1      1592 4.81903E+00
 -1      1593 4.50230E+00
 -1      1594 4.93987E+00
 -1      1595 4.93987E+00
 -1      1596 4.87945E+00
 -1      1597 4.47554E+00
 -1      1598 4.70771E+00
 -1      1599 4.70771E+00
 -1      1600 3.19881E+00
 -1      1601 3.83717E+00
 -1      1602 3.83717E+00
 -1      1603 2.01545E+00
 -1      1604 2.60713E+00
 -1      1605 2.60713E+00
 -1      1606 1.17219E+00
 -1      1607 1.60149E+00
 -1      1608 1.60149E+00
 -1      1609 5.79015E-01
 -1      1610 8.85695E-01
 -1      1611 9.01034E-01
 -1      1612 4.25889E-01
 -1      1613 6.09555E-01
 -1      1614 5.21349E-01
 -1      1615 1.02309E+00
 -1      1616 8.48398E-01
 -1      1617 9.73257E-01
 -1      1618 1.46219E+00
 -1      1619 1.32099E+00
 -1      1620 1.51001E+00
 -1      1621 1.54701E+00
 -1      1622 1.54517E+00
 -1      1623 1.89090E+00
 -1      1624 1.54701E+00
 -1      1625 1.54701E+00
 -1      1626 1.97388E+00
 -1      1627 1.36030E+00
 -1      1628 1.47988E+00
 -1      1629 1.90676E+00
 -1      1630 2.69050E+00
 -1      1631 2.19949E+00
 -1      1632 2.67883E+00
 -1      1633 2.91195E+00
 -1      1634 2.91195E+00
 -1      1635 3.73947E+00
 -1      1636 2.67564E+00
 -1      1637 2.91195E+00
 -1      1638 3.96092E+00
 -1      1639 1.57300E+00
 -1      1640 1.78269E+00
 -1      1641 3.06798E+00
 -1      1642 1.58108E+00
 -1      1643 1.49009E+00
 -1      1644 2.09213E+00
 -1      1645 1.58108E+00
 -1      1646 1.58108E+00
 -1      1647 2.00922E+00
 -1      1648 1.42621E+00
 -1      1649 1.53503E+00
 -1      1650 1.96318E+00
 -1      1651 9.65982E-01
 -1      1652 1.17936E+00
 -1      1653 1.67028E+00
 -1      1654 7.48609E-01
 -1      1655 8.28198E-01
 -1      1656 1.28565E+00
 -1      1657 1.00364E+00
 -1      1658 2.89841E+01
 -1      1659 2.89841E+01
 -1      1660 3.63639E+01
 -1      1661 2.61177E+01
 -1      1662 4.57797E+01
 -1      1663 4.57797E+01
 -1      1664 1.84017E+01
 -1      1665 3.21693E+01
 -1      1666 1.19014E+01
 -1      1667 1.48718E+01
 -1      1668 1.26024E+01
 -1      1669 1.23038E+01
 -1      1670 1.31106E+01
 -1      1671 1.29011E+01
 -1      1672 1.33201E+01
 -1      1673 1.33201E+01
 -1      1674 1.27114E+01
 -1      1675 1.30158E+01
 -1      1676 1.31326E+01
 -1      1677 1.20307E+01
 -1      1678 2.73487E+01
 -1      1679 1.49152E+01
 -1      1680 3.97822E+01
 -1      1681 3.97822E+01
 -1      1682 3.02150E+01
 -1      1683 3.77558E+01
 -1      1684 2.43235E+01
 -1      1685 2.46622E+01
 -1      1686 2.42671E+01
 -1      1687 2.45070E+01
 -1      1688 2.51489E+01
 -1      1689 2.42671E+01
 -1      1690 3.52355E+01
 -1      1691 2.95134E+01
 -1      1692 3.67516E+01
 -1      1693 3.67516E+01
 -1      1694 1.40824E+01
 -1      1695 2.54170E+01
 -1      1696 1.23135E+01
 -1      1697 1.29158E+01
 -1      1698 1.28778E+01
 -1      1699 1.28778E+01
 -1      1700 1.21915E+01
 -1      1701 1.24251E+01
 -1      1702 1.24105E+01
 -1      1703 1.24105E+01
 -1      1704 1.22044E+01
 -1      1705 1.23075E+01
 -1      1706 1.62475E+01
 -1      1707 1.18924E+01
 -1      1708 3.50053E+01
 -1      1709 2.17281E+01
 -1      1710 4.74690E+01
 -1      1711 4.74690E+01
 -1      1712 2.66125E+01
 -1      1713 3.82767E+01
 -1      1714 2.89841E+01
 -1      1715 2.84107E+01
 -1      1716 1.50289E+01
 -1      1717 3.21693E+01
 -1      1718 4.61409E-01
 -1      1719 6.74474E-01
 -1      1720 2.98144E+01
 -1      1721 3.63639E+01
 -1      1722 3.26808E+01
 -1      1723 1.19014E+01
 -1      1724 1.26024E+01
 -1      1725 1.31106E+01
 -1      1726 1.30158E+01
 -1      1727 1.20307E+01
 -1      1728 1.31326E+01
 -1      1729 2.73487E+01
 -1      1730 3.77558E+01
 -1      1731 3.01764E+01
 -1      1732 2.48070E+01
 -1      1733 2.49905E+01
 -1      1734 2.93550E+01
 -1      1735 3.52355E+01
 -1      1736 2.54170E+01
 -1      1737 1.29158E+01
 -1      1738 1.23135E+01
 -1      1739 1.24251E+01
 -1      1740 1.21915E+01
 -1      1741 1.23075E+01
 -1      1742 1.18924E+01
 -1      1743 1.70610E+01
 -1      1744 3.50053E+01
 -1      1745 3.82767E+01
 -1      1746 3.08826E+01
 -1      1747 9.61053E+00
 -1      1748 1.28838E+00
 -1      1749 1.68585E+00
 -1      1750 2.39026E+00
 -1      1751 4.27878E+00
 -1      1752 1.77511E+00
 -1      1753 8.80550E-01
 -1      1754 9.73680E-01
 -1      1755 7.79768E-01
 -1      1756 8.33624E-01
 -1      1757 7.42061E-01
 -1      1758 7.13971E-01
 -1      1759 7.48171E-01
 -1      1760 6.63538E-01
 -1      1761 6.71710E-01
 -1      1762 6.91817E-01
 -1      1763 6.09787E-01
 -1      1764 6.95147E-01
 -1      1765 6.73319E-01
 -1      1766 5.89241E-01
 -1      1767 7.50909E-01
 -1      1768 7.17003E-01
 -1      1769 6.12706E-01
 -1      1770 8.41194E-01
 -1      1771 7.84284E-01
 -1      1772 6.67937E-01
 -1      1773 9.84565E-01
 -1      1774 8.88799E-01
 -1      1775 7.48918E-01
 -1      1776 1.22984E+00
 -1      1777 1.05229E+00
 -1      1778 8.64249E-01
 -1      1779 1.71064E+00
 -1      1780 1.34403E+00
 -1      1781 1.04616E+00
 -1      1782 2.63020E+00
 -1      1783 1.79511E+00
 -1      1784 1.24481E+00
 -1      1785 8.11972E+00
 -1      1786 3.06582E+00
 -1      1787 1.76490E+00
 -1      1788 2.79755E+00
 -1      1789 5.19790E+00
 -1      1790 2.16344E+00
 -1      1791 2.65428E+00
 -1      1792 2.05726E+00
 -1      1793 3.39864E+00
 -1      1794 2.53498E+00
 -1      1795 1.92009E+00
 -1      1796 1.68902E+00
 -1      1797 1.35697E+00
 -1      1798 1.49816E+00
 -1      1799 1.17670E+00
 -1      1800 9.65833E-01
 -1      1801 1.08682E+00
 -1      1802 8.40299E-01
 -1      1803 7.15130E-01
 -1      1804 7.81004E-01
 -1      1805 6.56442E-01
 -1      1806 5.66512E-01
 -1      1807 5.96781E-01
 -1      1808 5.17910E-01
 -1      1809 4.54178E-01
 -1      1810 4.89491E-01
 -1      1811 4.11350E-01
 -1      1812 3.61283E-01
 -1      1813 3.98061E-01
 -1      1814 3.28567E-01
 -1      1815 2.89585E-01
 -1      1816 3.22517E-01
 -1      1817 2.61947E-01
 -1      1818 2.33574E-01
 -1      1819 2.62163E-01
 -1      1820 2.09853E-01
 -1      1821 1.85797E-01
 -1      1822 2.10804E-01
 -1      1823 1.68117E-01
 -1      1824 1.48297E-01
 -1      1825 1.69402E-01
 -1      1826 1.33706E-01
 -1      1827 1.17811E-01
 -1      1828 1.37130E-01
 -1      1829 1.05617E-01
 -1      1830 9.32278E-02
 -1      1831 1.10346E-01
 -1      1832 8.33129E-02
 -1      1833 7.39714E-02
 -1      1834 8.82371E-02
 -1      1835 6.60912E-02
 -1      1836 5.93374E-02
 -1      1837 7.04420E-02
 -1      1838 5.31716E-02
 -1      1839 4.85597E-02
 -1      1840 5.63959E-02
 -1      1841 4.41474E-02
 -1      1842 4.27067E-02
 -1      1843 4.58178E-02
 -1      1844 4.30387E-02
 -1      1845 4.72926E-02
 -1      1846 4.17375E-02
 -1      1847 4.93030E-02
 -1      1848 5.52781E-02
 -1      1849 4.40799E-02
 -1      1850 6.21424E-02
 -1      1851 6.97628E-02
 -1      1852 5.29546E-02
 -1      1853 7.97068E-02
 -1      1854 9.31164E-02
 -1      1855 6.97628E-02
 -1      1856 1.06526E-01
 -1      1857 1.23870E-01
 -1      1858 9.31164E-02
 -1      1859 1.46070E-01
 -1      1860 1.67721E-01
 -1      1861 1.28726E-01
 -1      1862 1.98346E-01
 -1      1863 2.24427E-01
 -1      1864 1.81552E-01
 -1      1865 2.63203E-01
 -1      1866 2.97708E-01
 -1      1867 2.50954E-01
 -1      1868 3.45298E-01
 -1      1869 3.99706E-01
 -1      1870 3.37320E-01
 -1      1871 4.55844E-01
 -1      1872 5.20413E-01
 -1      1873 4.41048E-01
 -1      1874 5.83157E-01
 -1      1875 6.55192E-01
 -1      1876 5.59930E-01
 -1      1877 7.19886E-01
 -1      1878 7.93045E-01
 -1      1879 6.87369E-01
 -1      1880 8.51078E-01
 -1      1881 9.17733E-01
 -1      1882 8.10095E-01
 -1      1883 9.73622E-01
 -1      1884 1.06920E+00
 -1      1885 9.24017E-01
 -1      1886 1.13389E+00
 -1      1887 1.25592E+00
 -1      1888 1.04460E+00
 -1      1889 1.29096E+00
 -1      1890 1.37108E+00
 -1      1891 1.14433E+00
 -1      1892 1.32841E+00
 -1      1893 1.33157E+00
 -1      1894 1.13668E+00
 -1      1895 1.24732E+00
 -1      1896 1.34430E+00
 -1      1897 1.00976E+00
 -1      1898 1.39024E+00
 -1      1899 1.39002E+00
 -1      1900 9.71437E-01
 -1      1901 1.76123E+00
 -1      1902 2.14918E+00
 -1      1903 1.38859E+00
 -1      1904 2.60972E+00
 -1      1905 3.37262E+00
 -1      1906 2.22034E+00
 -1      1907 3.78528E+00
 -1      1908 4.69889E+00
 -1      1909 3.09354E+00
 -1      1910 4.92145E+00
 -1      1911 5.13436E+00
 -1      1912 3.72877E+00
 -1      1913 5.01055E+00
 -1      1914 4.82026E+00
 -1      1915 3.82752E+00
 -1      1916 4.77327E+00
 -1      1917 4.24368E+00
 -1      1918 3.65672E+00
 -1      1919 3.95920E+00
 -1      1920 3.24344E+00
 -1      1921 3.32525E+00
 -1      1922 3.01824E+00
 -1      1923 2.41964E+00
 -1      1924 2.81557E+00
 -1      1925 2.24143E+00
 -1      1926 1.83702E+00
 -1      1927 2.41216E+00
 -1      1928 1.67011E+00
 -1      1929 1.37978E+00
 -1      1930 1.52401E+00
 -1      1931 2.06705E+00
 -1      1932 1.39794E+00
 -1      1933 1.77156E+00
 -1      1934 1.52211E+00
 -1      1935 1.01768E+00
 -1      1936 1.27825E+00
 -1      1937 1.01054E+00
 -1      1938 8.04577E-01
 -1      1939 9.23898E-01
 -1      1940 7.97064E-01
 -1      1941 6.37796E-01
 -1      1942 7.25163E-01
 -1      1943 6.23865E-01
 -1      1944 5.12404E-01
 -1      1945 5.84169E-01
 -1      1946 4.90824E-01
 -1      1947 4.19268E-01
 -1      1948 4.79094E-01
 -1      1949 4.03887E-01
 -1      1950 3.37515E-01
 -1      1951 3.87330E-01
 -1      1952 3.38639E-01
 -1      1953 2.72578E-01
 -1      1954 3.09749E-01
 -1      1955 2.78936E-01
 -1      1956 2.18920E-01
 -1      1957 2.49889E-01
 -1      1958 2.28481E-01
 -1      1959 1.74954E-01
 -1      1960 1.99064E-01
 -1      1961 1.85936E-01
 -1      1962 1.38584E-01
 -1      1963 1.58181E-01
 -1      1964 1.49306E-01
 -1      1965 1.09118E-01
 -1      1966 1.24833E-01
 -1      1967 1.18781E-01
 -1      1968 8.61435E-02
 -1      1969 9.83022E-02
 -1      1970 9.42138E-02
 -1      1971 6.91272E-02
 -1      1972 7.80845E-02
 -1      1973 7.53388E-02
 -1      1974 5.73492E-02
 -1      1975 6.34466E-02
 -1      1976 6.15993E-02
 -1      1977 5.04861E-02
 -1      1978 5.38352E-02
 -1      1979 5.24048E-02
 -1      1980 5.26861E-02
 -1      1981 4.96734E-02
 -1      1982 4.80780E-02
 -1      1983 6.02022E-02
 -1      1984 5.49954E-02
 -1      1985 4.95746E-02
 -1      1986 7.16953E-02
 -1      1987 6.44562E-02
 -1      1988 5.61380E-02
 -1      1989 8.95943E-02
 -1      1990 8.05556E-02
 -1      1991 6.92522E-02
 -1      1992 1.12956E-01
 -1      1993 1.01616E-01
 -1      1994 9.01345E-02
 -1      1995 1.45289E-01
 -1      1996 1.28027E-01
 -1      1997 1.17228E-01
 -1      1998 1.93449E-01
 -1      1999 1.70361E-01
 -1      2000 1.57371E-01
 -1      2001 2.55575E-01
 -1      2002 2.28637E-01
 -1      2003 2.17630E-01
 -1      2004 3.28708E-01
 -1      2005 2.98865E-01
 -1      2006 2.96107E-01
 -1      2007 4.10533E-01
 -1      2008 3.79706E-01
 -1      2009 3.90395E-01
 -1      2010 5.00127E-01
 -1      2011 4.67222E-01
 -1      2012 4.98082E-01
 -1      2013 5.94543E-01
 -1      2014 5.57933E-01
 -1      2015 6.12577E-01
 -1      2016 6.72755E-01
 -1      2017 6.45248E-01
 -1      2018 7.21088E-01
 -1      2019 7.67010E-01
 -1      2020 7.22254E-01
 -1      2021 8.21294E-01
 -1      2022 8.64509E-01
 -1      2023 7.92337E-01
 -1      2024 8.96120E-01
 -1      2025 9.45501E-01
 -1      2026 8.64509E-01
 -1      2027 9.21447E-01
 -1      2028 1.00489E+00
 -1      2029 9.18125E-01
 -1      2030 8.94071E-01
 -1      2031 1.06150E+00
 -1      2032 9.40886E-01
 -1      2033 8.02687E-01
 -1      2034 1.28983E+00
 -1      2035 1.10732E+00
 -1      2036 7.84504E-01
 -1      2037 1.63718E+00
 -1      2038 1.60050E+00
 -1      2039 1.14100E+00
 -1      2040 2.36937E+00
 -1      2041 2.09225E+00
 -1      2042 1.90673E+00
 -1      2043 2.97441E+00
 -1      2044 2.64941E+00
 -1      2045 2.64184E+00
 -1      2046 3.57031E+00
 -1      2047 2.99099E+00
 -1      2048 2.93846E+00
 -1      2049 3.88704E+00
 -1      2050 3.57031E+00
 -1      2051 2.95505E+00
 -1      2052 3.87134E+00
 -1      2053 3.81092E+00
 -1      2054 2.87893E+00
 -1      2055 3.64053E+00
 -1      2056 3.87269E+00
 -1      2057 2.80416E+00
 -1      2058 2.79627E+00
 -1      2059 3.43464E+00
 -1      2060 2.59962E+00
 -1      2061 1.95020E+00
 -1      2062 2.54188E+00
 -1      2063 2.13934E+00
 -1      2064 1.20569E+00
 -1      2065 1.61964E+00
 -1      2066 1.55440E+00
 -1      2067 5.88526E-01
 -1      2068 8.75025E-01
 -1      2069 8.93178E-01
 -1      2070 6.48465E-01
 -1      2071 2.15143E+00
 -1      2072 2.06845E+00
 -1      2073 1.91766E+00
 -1      2074 1.61975E+00
 -1      2075 2.17820E+00
 -1      2076 1.21797E+00
 -1      2077 9.79126E-01
 -1      2078 8.93178E-01
 -1      2079 1.62562E+00
 -1      2080 2.40748E+00
 -1      2081 2.40748E+00
 -1      2082 2.58503E+00
 -1      2083 2.53002E+00
 -1      2084 2.59714E+00
 -1      2085 3.03074E+00
 -1      2086 3.84406E+00
 -1      2087 3.00487E+00
 -1      2088 3.69526E+00
 -1      2089 5.45533E+00
 -1      2090 5.23387E+00
 -1      2091 5.55992E+00
 -1      2092 5.45533E+00
 -1      2093 5.45533E+00
 -1      2094 6.94973E+00
 -1      2095 3.88759E+00
 -1      2096 4.78053E+00
 -1      2097 6.27493E+00
 -1      2098 2.90615E+00
 -1      2099 2.98906E+00
 -1      2100 4.70161E+00
 -1      2101 2.43100E+00
 -1      2102 2.43100E+00
 -1      2103 3.32793E+00
 -1      2104 2.09031E+00
 -1      2105 2.13635E+00
 -1      2106 2.55813E+00
 -1      2107 1.75722E+00
 -1      2108 2.00407E+00
 -1      2109 2.17725E+00
 -1      2110 3.63639E+01
 -1      2111 2.69481E+01
 -1      2112 3.26808E+01
 -1      2113 3.26808E+01
 -1      2114 2.77025E+01
 -1      2115 3.05689E+01
 -1      2116 1.68052E+01
 -1      2117 3.04156E+01
 -1      2118 9.59675E+00
 -1      2119 1.31267E+01
 -1      2120 1.13730E+01
 -1      2121 1.03571E+00
 -1      2122 1.20955E+00
 -1      2123 9.91875E-01
 -1      2124 8.51015E-01
 -1      2125 1.14502E+01
 -1      2126 1.11515E+01
 -1      2127 1.23749E+01
 -1      2128 1.21654E+01
 -1      2129 1.10934E+01
 -1      2130 1.13978E+01
 -1      2131 9.79411E+00
 -1      2132 1.04748E+01
 -1      2133 1.12602E+01
 -1      2134 9.47768E+00
 -1      2135 2.69378E+01
 -1      2136 1.45043E+01
 -1      2137 2.99230E+01
 -1      2138 3.19495E+01
 -1      2139 2.23839E+01
 -1      2140 2.79367E+01
 -1      2141 2.88778E+01
 -1      2142 2.86944E+01
 -1      2143 2.88778E+01
 -1      2144 2.88778E+01
 -1      2145 2.72502E+01
 -1      2146 2.28857E+01
 -1      2147 2.67730E+01
 -1      2148 2.94514E+01
 -1      2149 2.79354E+01
 -1      2150 1.35952E+01
 -1      2151 2.49298E+01
 -1      2152 9.76762E+00
 -1      2153 1.09342E+01
 -1      2154 1.08806E+01
 -1      2155 1.03162E+01
 -1      2156 8.33471E+00
 -1      2157 1.16042E+01
 -1      2158 1.20569E+01
 -1      2159 1.18036E+01
 -1      2160 1.15845E+01
 -1      2161 1.12163E+01
 -1      2162 1.13647E+01
 -1      2163 1.14678E+01
 -1      2164 9.79249E+00
 -1      2165 1.01045E+01
 -1      2166 1.57604E+01
 -1      2167 1.02798E+01
 -1      2168 3.18593E+01
 -1      2169 1.93956E+01
 -1      2170 2.90844E+01
 -1      2171 3.82767E+01
 -1      2172 3.01791E+01
 -1      2173 2.83809E+01
 -1      2174 3.01791E+01
 -1      2175 1.03669E+01
 -1      2176 9.96455E+00
 -1      2177 2.91013E+00
 -1      2178 8.06233E+00
 -1      2179 9.21470E+00
 -1      2180 2.10438E+00
 -1      2181 2.77025E+01
 -1      2182 3.05689E+01
 -1      2183 1.61944E+00
 -1      2184 2.09998E+01
 -1      2185 2.83809E+01
 -1      2186 2.26670E+01
 -1      2187 1.26144E+01
 -1      2188 8.49187E+00
 -1      2189 1.08608E+01
 -1      2190 1.00596E+01
 -1      2191 1.04471E+01
 -1      2192 2.66798E+01
 -1      2193 2.02105E+01
 -1      2194 2.08957E+01
 -1      2195 3.27651E+01
 -1      2196 2.64547E+01
 -1      2197 2.21304E+01
 -1      2198 1.91050E+01
 -1      2199 1.08493E+01
 -1      2200 7.92173E+00
 -1      2201 8.85675E+00
 -1      2202 1.07145E+01
 -1      2203 1.04525E+01
 -1      2204 1.76297E+01
 -1      2205 9.26480E+00
 -1      2206 1.08884E+00
 -1      2207 1.48073E+00
 -1      2208 5.59293E-01
 -1      2209 5.90890E-01
 -1      2210 6.03149E-01
 -1      2211 6.50074E-01
 -1      2212 4.98903E-01
 -1      2213 5.11236E-01
 -1      2214 5.09628E-01
 -1      2215 5.46062E-01
 -1      2216 5.24205E-01
 -1      2217 4.44592E-01
 -1      2218 5.94247E-01
 -1      2219 5.60872E-01
 -1      2220 4.72371E-01
 -1      2221 6.53900E-01
 -1      2222 6.06294E-01
 -1      2223 4.99229E-01
 -1      2224 7.21625E-01
 -1      2225 6.53900E-01
 -1      2226 5.11277E-01
 -1      2227 8.84901E-01
 -1      2228 7.70717E-01
 -1      2229 5.60369E-01
 -1      2230 8.90848E-01
 -1      2231 1.01054E+00
 -1      2232 9.69157E-01
 -1      2233 1.26629E+00
 -1      2234 1.03522E+00
 -1      2235 6.23856E+00
 -1      2236 5.87076E+00
 -1      2237 9.84437E-01
 -1      2238 8.04159E-01
 -1      2239 7.52565E-01
 -1      2240 7.47437E-01
 -1      2241 6.21903E-01
 -1      2242 6.45059E-01
 -1      2243 5.65743E-01
 -1      2244 5.07054E-01
 -1      2245 5.32176E-01
 -1      2246 4.57704E-01
 -1      2247 4.09102E-01
 -1      2248 4.26665E-01
 -1      2249 3.81664E-01
 -1      2250 3.38836E-01
 -1      2251 3.49877E-01
 -1      2252 3.13788E-01
 -1      2253 2.81072E-01
 -1      2254 2.97391E-01
 -1      2255 2.57389E-01
 -1      2256 2.29751E-01
 -1      2257 2.48660E-01
 -1      2258 2.10506E-01
 -1      2259 1.86784E-01
 -1      2260 2.05732E-01
 -1      2261 1.69983E-01
 -1      2262 1.52303E-01
 -1      2263 1.69685E-01
 -1      2264 1.37690E-01
 -1      2265 1.23099E-01
 -1      2266 1.38271E-01
 -1      2267 1.10799E-01
 -1      2268 9.86057E-02
 -1      2269 1.11359E-01
 -1      2270 8.88799E-02
 -1      2271 7.89650E-02
 -1      2272 8.93336E-02
 -1      2273 7.11153E-02
 -1      2274 6.32351E-02
 -1      2275 7.17581E-02
 -1      2276 5.65742E-02
 -1      2277 5.04083E-02
 -1      2278 5.72475E-02
 -1      2279 4.54326E-02
 -1      2280 4.10202E-02
 -1      2281 4.56108E-02
 -1      2282 3.84183E-02
 -1      2283 3.87504E-02
 -1      2284 3.80331E-02
 -1      2285 3.95098E-02
 -1      2286 4.15202E-02
 -1      2287 3.61906E-02
 -1      2288 4.60903E-02
 -1      2289 5.29546E-02
 -1      2290 4.15202E-02
 -1      2291 6.10878E-02
 -1      2292 7.10318E-02
 -1      2293 5.42235E-02
 -1      2294 8.67828E-02
 -1      2295 1.00192E-01
 -1      2296 7.81077E-02
 -1      2297 1.20651E-01
 -1      2298 1.42851E-01
 -1      2299 1.14317E-01
 -1      2300 1.69099E-01
 -1      2301 1.99725E-01
 -1      2302 1.61024E-01
 -1      2303 2.32811E-01
 -1      2304 2.71587E-01
 -1      2305 2.20358E-01
 -1      2306 3.12367E-01
 -1      2307 3.59956E-01
 -1      2308 2.94223E-01
 -1      2309 4.08822E-01
 -1      2310 4.64960E-01
 -1      2311 3.83869E-01
 -1      2312 5.21421E-01
 -1      2313 5.84166E-01
 -1      2314 4.89195E-01
 -1      2315 6.46230E-01
 -1      2316 7.10924E-01
 -1      2317 6.07720E-01
 -1      2318 7.74281E-01
 -1      2319 8.32314E-01
 -1      2320 7.33142E-01
 -1      2321 8.90369E-01
 -1      2322 9.46258E-01
 -1      2323 8.54555E-01
 -1      2324 9.94229E-01
 -1      2325 1.05892E+00
 -1      2326 9.60581E-01
 -1      2327 1.12119E+00
 -1      2328 1.15622E+00
 -1      2329 1.07082E+00
 -1      2330 1.22660E+00
 -1      2331 1.18392E+00
 -1      2332 1.20346E+00
 -1      2333 1.22243E+00
 -1      2334 1.13818E+00
 -1      2335 1.31234E+00
 -1      2336 1.25627E+00
 -1      2337 1.30221E+00
 -1      2338 1.46895E+00
 -1      2339 1.47692E+00
 -1      2340 1.84813E+00
 -1      2341 1.76175E+00
 -1      2342 2.04408E+00
 -1      2343 2.50462E+00
 -1      2344 2.13241E+00
 -1      2345 2.69802E+00
 -1      2346 3.11069E+00
 -1      2347 2.52177E+00
 -1      2348 3.60512E+00
 -1      2349 3.82768E+00
 -1      2350 3.20960E+00
 -1      2351 4.68289E+00
 -1      2352 4.55908E+00
 -1      2353 4.55925E+00
 -1      2354 3.78290E+00
 -1      2355 3.73591E+00
 -1      2356 4.63827E+00
 -1      2357 3.62721E+00
 -1      2358 3.34273E+00
 -1      2359 3.75339E+00
 -1      2360 3.04437E+00
 -1      2361 2.81917E+00
 -1      2362 3.34634E+00
 -1      2363 2.71942E+00
 -1      2364 2.54122E+00
 -1      2365 2.94823E+00
 -1      2366 5.44451E-01
 -1      2367 6.23865E-01
 -1      2368 4.37197E-01
 -1      2369 4.90824E-01
 -1      2370 4.90824E-01
 -1      2371 3.70577E-01
 -1      2372 4.03887E-01
 -1      2373 4.03887E-01
 -1      2374 3.06701E-01
 -1      2375 3.38639E-01
 -1      2376 3.38639E-01
 -1      2377 2.51170E-01
 -1      2378 2.78936E-01
 -1      2379 2.78936E-01
 -1      2380 2.06153E-01
 -1      2381 2.28842E-01
 -1      2382 2.28842E-01
 -1      2383 1.66719E-01
 -1      2384 1.86575E-01
 -1      2385 1.86935E-01
 -1      2386 1.33255E-01
 -1      2387 1.50029E-01
 -1      2388 1.50667E-01
 -1      2389 1.06827E-01
 -1      2390 1.20579E-01
 -1      2391 1.21301E-01
 -1      2392 8.55915E-02
 -1      2393 9.64075E-02
 -1      2394 9.82051E-02
 -1      2395 6.88374E-02
 -1      2396 7.68964E-02
 -1      2397 7.90901E-02
 -1      2398 5.60051E-02
 -1      2399 6.16856E-02
 -1      2400 6.32431E-02
 -1      2401 4.66031E-02
 -1      2402 5.01171E-02
 -1      2403 5.02033E-02
 -1      2404 4.29505E-02
 -1      2405 4.37632E-02
 -1      2406 4.14756E-02
 -1      2407 4.45386E-02
 -1      2408 4.22293E-02
 -1      2409 3.79145E-02
 -1      2410 5.33227E-02
 -1      2411 4.90687E-02
 -1      2412 4.17234E-02
 -1      2413 6.88977E-02
 -1      2414 6.00375E-02
 -1      2415 5.29682E-02
 -1      2416 9.26215E-02
 -1      2417 8.05994E-02
 -1      2418 7.13847E-02
 -1      2419 1.26752E-01
 -1      2420 1.11680E-01
 -1      2421 1.02145E-01
 -1      2422 1.76353E-01
 -1      2423 1.51282E-01
 -1      2424 1.45734E-01
 -1      2425 2.42429E-01
 -1      2426 2.07242E-01
 -1      2427 2.01152E-01
 -1      2428 3.23556E-01
 -1      2429 2.80267E-01
 -1      2430 2.69878E-01
 -1      2431 4.19313E-01
 -1      2432 3.68315E-01
 -1      2433 3.52474E-01
 -1      2434 5.26556E-01
 -1      2435 4.69866E-01
 -1      2436 4.47786E-01
 -1      2437 6.37822E-01
 -1      2438 5.80016E-01
 -1      2439 5.51800E-01
 -1      2440 7.39445E-01
 -1      2441 6.88739E-01
 -1      2442 6.56178E-01
 -1      2443 8.35398E-01
 -1      2444 7.85898E-01
 -1      2445 7.53549E-01
 -1      2446 8.96120E-01
 -1      2447 8.70793E-01
 -1      2448 8.35398E-01
 -1      2449 9.22179E-01
 -1      2450 9.22179E-01
 -1      2451 8.96852E-01
 -1      2452 9.09618E-01
 -1      2453 9.36994E-01
 -1      2454 9.37727E-01
 -1      2455 8.14902E-01
 -1      2456 8.78908E-01
 -1      2457 9.21832E-01
 -1      2458 9.54116E-01
 -1      2459 9.08293E-01
 -1      2460 9.84514E-01
 -1      2461 1.37718E+00
 -1      2462 1.06651E+00
 -1      2463 1.19030E+00
 -1      2464 2.15035E+00
 -1      2465 1.69528E+00
 -1      2466 1.62080E+00
 -1      2467 2.69542E+00
 -1      2468 2.41539E+00
 -1      2469 2.20394E+00
 -1      2470 2.96653E+00
 -1      2471 2.94994E+00
 -1      2472 2.72349E+00
 -1      2473 3.10250E+00
 -1      2474 3.10250E+00
 -1      2475 3.11399E+00
 -1      2476 2.96791E+00
 -1      2477 3.04403E+00
 -1      2478 3.19148E+00
 -1      2479 2.80416E+00
 -1      2480 2.80281E+00
 -1      2481 2.96791E+00
 -1      2482 2.48527E+00
 -1      2483 2.69116E+00
 -1      2484 2.68981E+00
 -1      2485 2.19536E+00
 -1      2486 2.44975E+00
 -1      2487 2.54128E+00
 -1      2488 1.95690E+00
 -1      2489 2.28746E+00
 -1      2490 2.59786E+00
 -1      2491 1.22384E+00
 -1      2492 3.67348E+00
 -1      2493 3.48381E+00
 -1      2494 5.65211E+00
 -1      2495 5.17726E+00
 -1      2496 5.63033E+00
 -1      2497 2.51118E+00
 -1      2498 2.36039E+00
 -1      2499 2.76723E+00
 -1      2500 2.51118E+00
 -1      2501 2.69338E+00
 -1      2502 3.40997E+00
 -1      2503 7.52009E+00
 -1      2504 6.13028E+00
 -1      2505 7.61228E+00
 -1      2506 8.77542E+00
 -1      2507 8.77542E+00
 -1      2508 9.34579E+00
 -1      2509 8.25786E+00
 -1      2510 8.93265E+00
 -1      2511 1.07583E+01
 -1      2512 6.09643E+00
 -1      2513 6.99496E+00
 -1      2514 9.65268E+00
 -1      2515 4.60558E+00
 -1      2516 5.08073E+00
 -1      2517 7.37408E+00
 -1      2518 3.07430E+00
 -1      2519 3.36895E+00
 -1      2520 5.12175E+00
 -1      2521 2.19756E+00
 -1      2522 2.28379E+00
 -1      2523 3.09461E+00
 -1      2524 2.84569E+01
 -1      2525 3.05689E+01
 -1      2526 1.38602E+01
 -1      2527 1.98085E+01
 -1      2528 7.03280E-01
 -1      2529 7.97064E-01
 -1      2530 6.23865E-01
 -1      2531 8.38783E+00
 -1      2532 7.60326E+00
 -1      2533 1.99558E+00
 -1      2534 2.49381E+01
 -1      2535 2.56416E+01
 -1      2536 7.89518E+00
 -1      2537 1.15737E+01
 -1      2538 3.01791E+01
 -1      2539 2.76774E+01
 -1      2540 7.68362E+00
 -1      2541 1.03446E+01
 -1      2542 3.27651E+01
 -1      2543 3.27651E+01
 -1      2544 5.22586E-01
 -1      2545 5.44741E-01
 -1      2546 4.72092E-01
 -1      2547 4.44582E-01
 -1      2548 8.63898E+00
 -1      2549 9.61613E+00
 -1      2550 1.34150E+01
 -1      2551 1.79367E+01
 -1      2552 1.02567E+01
 -1      2553 9.54151E+00
 -1      2554 7.93007E+00
 -1      2555 7.12717E+00
 -1      2556 7.74577E+00
 -1      2557 6.28773E+00
 -1      2558 6.60415E+00
 -1      2559 1.08449E+01
 -1      2560 7.60084E+00
 -1      2561 1.76869E+01
 -1      2562 1.26752E+01
 -1      2563 1.86359E+01
 -1      2564 2.06221E+01
 -1      2565 1.41923E+01
 -1      2566 2.76630E+01
 -1      2567 2.13525E+01
 -1      2568 2.76630E+01
 -1      2569 2.14865E+01
 -1      2570 2.74786E+01
 -1      2571 7.09803E+00
 -1      2572 8.35829E+00
 -1      2573 6.50120E+00
 -1      2574 5.95258E+00
 -1      2575 9.04460E+00
 -1      2576 7.86829E+00
 -1      2577 9.99113E+00
 -1      2578 1.00108E+01
 -1      2579 9.47851E+00
 -1      2580 9.81429E+00
 -1      2581 7.31174E+00
 -1      2582 7.17752E+00
 -1      2583 6.69019E+00
 -1      2584 1.26591E+01
 -1      2585 9.02384E+00
 -1      2586 2.13336E+01
 -1      2587 1.49162E+01
 -1      2588 1.67850E+00
 -1      2589 1.30336E+00
 -1      2590 8.40414E-01
 -1      2591 9.74093E-01
 -1      2592 1.62095E+00
 -1      2593 1.76422E+00
 -1      2594 1.32859E+00
 -1      2595 1.18769E+00
 -1      2596 2.28720E+01
 -1      2597 2.36264E+01
 -1      2598 7.75243E+00
 -1      2599 9.56596E+00
 -1      2600 8.39301E+00
 -1      2601 5.11162E-01
 -1      2602 6.50074E-01
 -1      2603 7.12103E-01
 -1      2604 7.97064E-01
 -1      2605 1.24413E+00
 -1      2606 1.57324E+01
 -1      2607 6.88088E-01
 -1      2608 7.66920E-01
 -1      2609 6.70306E-01
 -1      2610 4.87148E-01
 -1      2611 1.78907E+01
 -1      2612 1.13256E+01
 -1      2613 6.07141E+00
 -1      2614 8.60880E+00
 -1      2615 7.81944E+00
 -1      2616 1.95690E+00
 -1      2617 1.03824E+01
 -1      2618 2.35868E+00
 -1      2619 5.48616E+00
 -1      2620 2.80672E+01
 -1      2621 2.36264E+01
 -1      2622 5.78368E+00
 -1      2623 1.77359E+01
 -1      2624 1.62276E+01
 -1      2625 1.89443E+01
 -1      2626 9.68686E-01
 -1      2627 6.90940E+00
 -1      2628 2.10212E+00
 -1      2629 2.19756E+00
 -1      2630 2.30410E+00
 -1      2631 2.26903E+00
 -1      2632 2.49381E+01
 -1      2633 2.69167E+00
 -1      2634 1.06516E+01
 -1      2635 9.42672E+00
 -1      2636 6.28326E+00
 -1      2637 2.74786E+01
 -1      2638 1.66811E+01
 -1      2639 5.85012E+00
 -1      2640 5.41169E+00
 -1      2641 5.49317E+00
 -1      2642 2.09161E+01
 -1      2643 7.22216E+00
 -1      2644 2.57629E+00
 -1      2645 4.22893E-01
 -1      2646 4.08082E-01
 -1      2647 4.00203E-01
 -1      2648 3.87235E-01
 -1      2649 3.50725E-01
 -1      2650 4.36640E-01
 -1      2651 4.36640E-01
 -1      2652 4.73807E-01
 -1      2653 4.24715E-01
 -1      2654 3.50079E-01
 -1      2655 7.17365E-01
 -1      2656 7.95674E-01
 -1      2657 6.09563E+00
 -1      2658 6.98883E+00
 -1      2659 8.28464E-01
 -1      2660 5.80298E+00
 -1      2661 6.92321E+00
 -1      2662 1.04546E+01
 -1      2663 8.19752E+00
 -1      2664 5.49327E-01
 -1      2665 4.92605E-01
 -1      2666 4.86050E-01
 -1      2667 4.29890E-01
 -1      2668 3.90319E-01
 -1      2669 4.09463E-01
 -1      2670 3.60113E-01
 -1      2671 3.63337E-01
 -1      2672 3.35303E-01
 -1      2673 3.07865E-01
 -1      2674 3.18101E-01
 -1      2675 2.83050E-01
 -1      2676 2.58002E-01
 -1      2677 2.68476E-01
 -1      2678 2.42391E-01
 -1      2679 2.18708E-01
 -1      2680 2.28050E-01
 -1      2681 2.02499E-01
 -1      2682 1.83254E-01
 -1      2683 1.96230E-01
 -1      2684 1.67802E-01
 -1      2685 1.51000E-01
 -1      2686 1.64569E-01
 -1      2687 1.37072E-01
 -1      2688 1.22460E-01
 -1      2689 1.35189E-01
 -1      2690 1.10964E-01
 -1      2691 9.86640E-02
 -1      2692 1.09765E-01
 -1      2693 8.93336E-02
 -1      2694 7.96078E-02
 -1      2695 8.89382E-02
 -1      2696 7.17581E-02
 -1      2697 6.39084E-02
 -1      2698 7.17581E-02
 -1      2699 5.72475E-02
 -1      2700 5.05866E-02
 -1      2701 5.72475E-02
 -1      2702 4.51680E-02
 -1      2703 4.01923E-02
 -1      2704 4.51680E-02
 -1      2705 3.58129E-02
 -1      2706 3.32110E-02
 -1      2707 3.53702E-02
 -1      2708 3.05216E-02
 -1      2709 3.12810E-02
 -1      2710 2.83014E-02
 -1      2711 3.39362E-02
 -1      2712 3.85064E-02
 -1      2713 2.82672E-02
 -1      2714 4.75097E-02
 -1      2715 5.56429E-02
 -1      2716 3.99257E-02
 -1      2717 6.86659E-02
 -1      2718 8.44169E-02
 -1      2719 6.19520E-02
 -1      2720 1.01024E-01
 -1      2721 1.21483E-01
 -1      2722 9.15824E-02
 -1      2723 1.42611E-01
 -1      2724 1.68859E-01
 -1      2725 1.29318E-01
 -1      2726 1.95510E-01
 -1      2727 2.28596E-01
 -1      2728 1.77097E-01
 -1      2729 2.61802E-01
 -1      2730 3.02581E-01
 -1      2731 2.36954E-01
 -1      2732 3.43335E-01
 -1      2733 3.92201E-01
 -1      2734 3.10913E-01
 -1      2735 4.41366E-01
 -1      2736 4.97827E-01
 -1      2737 4.00832E-01
 -1      2738 5.55985E-01
 -1      2739 6.18049E-01
 -1      2740 5.08156E-01
 -1      2741 6.87639E-01
 -1      2742 7.50997E-01
 -1      2743 6.35904E-01
 -1      2744 8.27777E-01
 -1      2745 8.85832E-01
 -1      2746 7.82274E-01
 -1      2747 9.63701E-01
 -1      2748 1.01167E+00
 -1      2749 9.36923E-01
 -1      2750 1.09147E+00
 -1      2751 1.15373E+00
 -1      2752 1.09459E+00
 -1      2753 1.26614E+00
 -1      2754 1.33651E+00
 -1      2755 1.28679E+00
 -1      2756 1.51524E+00
 -1      2757 1.55374E+00
 -1      2758 1.57791E+00
 -1      2759 1.73125E+00
 -1      2760 1.84935E+00
 -1      2761 1.93414E+00
 -1      2762 2.03260E+00
 -1      2763 2.20730E+00
 -1      2764 2.29490E+00
 -1      2765 3.14750E+00
 -1      2766 3.34345E+00
 -1      2767 3.41834E+00
 -1      2768 2.61548E+00
 -1      2769 2.80888E+00
 -1      2770 3.63057E+00
 -1      2771 3.22724E+00
 -1      2772 3.72168E+00
 -1      2773 3.32096E+00
 -1      2774 5.08026E+00
 -1      2775 5.93546E+00
 -1      2776 5.09790E+00
 -1      2777 5.41445E+00
 -1      2778 4.63827E+00
 -1      2779 4.52957E+00
 -1      2780 3.64469E+00
 -1      2781 3.34634E+00
 -1      2782 3.04798E+00
 -1      2783 2.94823E+00
 -1      2784 3.34634E+00
 -1      2785 3.48967E-01
 -1      2786 3.82278E-01
 -1      2787 2.11980E+01
 -1      2788 1.84587E+01
 -1      2789 4.16601E-01
 -1      2790 4.70228E-01
 -1      2791 3.61682E-01
 -1      2792 2.42103E-01
 -1      2793 2.69869E-01
 -1      2794 2.01190E-01
 -1      2795 2.23518E-01
 -1      2796 2.14451E-01
 -1      2797 1.64602E-01
 -1      2798 1.84180E-01
 -1      2799 1.78856E-01
 -1      2800 1.33996E-01
 -1      2801 1.50686E-01
 -1      2802 1.47931E-01
 -1      2803 1.08974E-01
 -1      2804 1.21650E-01
 -1      2805 1.21669E-01
 -1      2806 8.79641E-02
 -1      2807 9.83839E-02
 -1      2808 9.87329E-02
 -1      2809 7.03949E-02
 -1      2810 7.90901E-02
 -1      2811 7.92689E-02
 -1      2812 5.60913E-02
 -1      2813 6.32431E-02
 -1      2814 6.32431E-02
 -1      2815 4.43154E-02
 -1      2816 5.02033E-02
 -1      2817 5.02033E-02
 -1      2818 3.71666E-02
 -1      2819 4.00064E-02
 -1      2820 4.00064E-02
 -1      2821 3.30475E-02
 -1      2822 3.37687E-02
 -1      2823 3.22995E-02
 -1      2824 4.03043E-02
 -1      2825 3.57742E-02
 -1      2826 3.16284E-02
 -1      2827 5.23286E-02
 -1      2828 4.56139E-02
 -1      2829 3.96648E-02
 -1      2830 7.66807E-02
 -1      2831 6.49790E-02
 -1      2832 5.76247E-02
 -1      2833 1.11923E-01
 -1      2834 9.28639E-02
 -1      2835 8.64582E-02
 -1      2836 1.57052E-01
 -1      2837 1.32523E-01
 -1      2838 1.23241E-01
 -1      2839 2.13841E-01
 -1      2840 1.82953E-01
 -1      2841 1.69741E-01
 -1      2842 2.83673E-01
 -1      2843 2.45835E-01
 -1      2844 2.27636E-01
 -1      2845 3.67072E-01
 -1      2846 3.22313E-01
 -1      2847 2.98271E-01
 -1      2848 4.62991E-01
 -1      2849 4.12437E-01
 -1      2850 3.82277E-01
 -1      2851 5.67806E-01
 -1      2852 5.14345E-01
 -1      2853 4.78996E-01
 -1      2854 6.74039E-01
 -1      2855 6.23122E-01
 -1      2856 5.85667E-01
 -1      2857 7.77091E-01
 -1      2858 7.30637E-01
 -1      2859 6.97581E-01
 -1      2860 8.62743E-01
 -1      2861 8.27347E-01
 -1      2862 8.04435E-01
 -1      2863 9.45056E-01
 -1      2864 9.18997E-01
 -1      2865 9.10946E-01
 -1      2866 1.03970E+00
 -1      2867 1.02488E+00
 -1      2868 1.04703E+00
 -1      2869 1.08724E+00
 -1      2870 1.11795E+00
 -1      2871 1.20511E+00
 -1      2872 1.23013E+00
 -1      2873 1.13674E+00
 -1      2874 1.33286E+00
 -1      2875 1.57358E+00
 -1      2876 1.46119E+00
 -1      2877 1.61341E+00
 -1      2878 2.09679E+00
 -1      2879 1.77868E+00
 -1      2880 2.04957E+00
 -1      2881 2.58427E+00
 -1      2882 2.31924E+00
 -1      2883 2.47713E+00
 -1      2884 3.96101E+00
 -1      2885 3.70649E+00
 -1      2886 3.82179E+00
 -1      2887 4.71251E+00
 -1      2888 4.57654E+00
 -1      2889 5.55954E+00
 -1      2890 4.43852E+00
 -1      2891 4.49699E+00
 -1      2892 5.95955E+00
 -1      2893 3.23117E+00
 -1      2894 3.39627E+00
 -1      2895 4.70178E+00
 -1      2896 2.61773E+00
 -1      2897 2.73073E+00
 -1      2898 3.15909E+00
 -1      2899 2.72993E+00
 -1      2900 2.76545E+00
 -1      2901 2.80637E+00
 -1      2902 2.82320E+00
 -1      2903 2.73111E+00
 -1      2904 2.95527E+00
 -1      2905 2.82492E+00
 -1      2906 7.96555E+00
 -1      2907 1.02521E+01
 -1      2908 1.16713E+01
 -1      2909 1.04160E+01
 -1      2910 6.56407E+00
 -1      2911 9.63447E+00
 -1      2912 7.34240E+00
 -1      2913 5.83862E+00
 -1      2914 1.04160E+01
 -1      2915 9.93783E+00
 -1      2916 1.15542E+01
 -1      2917 1.28171E+01
 -1      2918 6.84247E+00
 -1      2919 7.85817E+00
 -1      2920 3.90153E+00
 -1      2921 5.13815E+00
 -1      2922 5.62224E+00
 -1      2923 2.62102E+00
 -1      2924 3.41153E+00
 -1      2925 3.42793E+00
 -1      2926 2.62102E+00
 -1      2927 1.67353E+01
 -1      2928 1.24273E+01
 -1      2929 9.29921E+00
 -1      2930 1.29953E+01
 -1      2931 1.17792E+01
 -1      2932 1.47383E+01
 -1      2933 1.57687E+01
 -1      2934 2.05992E+01
 -1      2935 7.19476E+00
 -1      2936 7.37161E+00
 -1      2937 5.04062E-01
 -1      2938 5.83477E-01
 -1      2939 4.29839E-01
 -1      2940 2.89773E-01
 -1      2941 3.21711E-01
 -1      2942 3.00102E-01
 -1      2943 2.52941E-01
 -1      2944 6.03342E-01
 -1      2945 5.52558E-01
 -1      2946 4.00105E-01
 -1      2947 8.95557E+00
 -1      2948 7.12522E+00
 -1      2949 1.14552E+01
 -1      2950 1.45187E+01
 -1      2951 6.09083E-01
 -1      2952 7.02867E-01
 -1      2953 5.29384E-01
 -1      2954 4.89280E-01
 -1      2955 4.36640E-01
 -1      2956 4.24592E-01
 -1      2957 3.60304E-01
 -1      2958 3.62003E-01
 -1      2959 4.23657E-01
 -1      2960 4.35916E-01
 -1      2961 4.33272E+00
 -1      2962 6.06376E+00
 -1      2963 7.41389E+00
 -1      2964 6.26021E+00
 -1      2965 1.65576E+01
 -1      2966 1.78336E+01
 -1      2967 1.16557E+01
 -1      2968 1.86851E+01
 -1      2969 2.39717E+01
 -1      2970 6.23595E+00
 -1      2971 4.92284E+00
 -1      2972 1.32916E+01
 -1      2973 1.03563E+01
 -1      2974 2.37613E+01
 -1      2975 1.86592E+01
 -1      2976 1.49678E+01
 -1      2977 5.02751E+00
 -1      2978 3.66281E+00
 -1      2979 7.42510E+00
 -1      2980 5.57878E+00
 -1      2981 2.00710E+01
 -1      2982 1.96813E+01
 -1      2983 1.32019E+01
 -1      2984 1.22134E+01
 -1      2985 5.27300E+00
 -1      2986 3.90592E+00
 -1      2987 4.11956E+00
 -1      2988 4.95708E+00
 -1      2989 5.48010E+00
 -1      2990 5.55954E+00
 -1      2991 4.23290E+00
 -1      2992 4.64074E+00
 -1      2993 2.89320E+00
 -1      2994 3.83435E+00
 -1      2995 5.85876E+00
 -1      2996 3.45016E+00
 -1      2997 6.23789E-01
 -1      2998 5.86724E-01
 -1      2999 3.86717E-01
 -1      3000 4.16616E-01
 -1      3001 4.35916E-01
 -1      3002 4.35916E-01
 -1      3003 3.60670E-01
 -1      3004 3.42630E-01
 -1      3005 3.87018E-01
 -1      3006 3.99977E-01
 -1      3007 6.93866E+00
 -1      3008 5.76671E-01
 -1      3009 4.25221E+00
 -1      3010 6.55414E+00
 -1      3011 2.99295E+00
 -1      3012 6.18523E+00
 -1      3013 6.05495E+00
 -1      3014 3.94816E+00
 -1      3015 2.82492E+00
 -1      3016 2.95645E+00
 -1      3017 2.82492E+00
 -1      3018 1.11431E+01
 -1      3019 1.27415E+01
 -1      3020 5.84848E+00
 -1      3021 9.93599E+00
 -1      3022 7.99318E+00
 -1      3023 1.01461E+01
 -1      3024 1.13004E+01
 -1      3025 1.33064E+01
 -1      3026 9.47044E+00
 -1      3027 1.24065E+01
 -1      3028 5.76479E+00
 -1      3029 5.68601E+00
 -1      3030 1.61311E+01
 -1      3031 1.25145E+01
 -1      3032 1.22294E+01
 -1      3033 5.04666E+00
 -1      3034 9.03837E+00
 -1      3035 5.29628E+00
 -1      3036 3.71604E+00
 -1      3037 4.07630E-01
 -1      3038 4.22182E-01
 -1      3039 3.59195E-01
 -1      3040 3.50066E-01
 -1      3041 6.20702E+00
 -1      3042 7.62106E+00
 -1      3043 3.57360E+00
 -1      3044 2.85701E+00
 -1      3045 2.98854E+00
 -1      3046 5.28566E+00
 -1      3047 8.05483E+00
 -1      3048 4.51133E+00
 -1      3049 1.43266E+01
 -1      3050 4.35027E+00
 -1      3051 4.39758E+00
 -1      3052 4.38451E+00
 -1      3053 4.41018E-01
 -1      3054 4.43584E+00
 -1      3055 6.65486E+00
 -1      3056 3.36733E+00
 -1      3057 4.52957E+00
 -1      3058 2.89505E-01
 -1      3059 3.01430E-01
 -1      3060 3.89254E-01
 -1      3061 3.65239E-01
 -1      3062 3.18722E-01
 -1      3063 3.14008E-01
 -1      3064 3.29606E-01
 -1      3065 3.26375E-01
 -1      3066 5.68601E+00
 -1      3067 3.19436E-01
 -1      3068 2.99009E-01
 -1      3069 2.95607E-01
 -1      3070 2.70798E-01
 -1      3071 2.51706E-01
 -1      3072 2.59924E-01
 -1      3073 2.35108E-01
 -1      3074 2.37430E-01
 -1      3075 2.20964E-01
 -1      3076 2.05354E-01
 -1      3077 2.12412E-01
 -1      3078 1.92049E-01
 -1      3079 1.75840E-01
 -1      3080 1.84963E-01
 -1      3081 1.65267E-01
 -1      3082 1.49815E-01
 -1      3083 1.61086E-01
 -1      3084 1.38697E-01
 -1      3085 1.24769E-01
 -1      3086 1.39395E-01
 -1      3087 1.14045E-01
 -1      3088 1.02549E-01
 -1      3089 1.17553E-01
 -1      3090 9.27240E-02
 -1      3091 8.33935E-02
 -1      3092 9.70042E-02
 -1      3093 7.46630E-02
 -1      3094 6.68133E-02
 -1      3095 7.84487E-02
 -1      3096 5.91588E-02
 -1      3097 5.24979E-02
 -1      3098 6.20637E-02
 -1      3099 4.57531E-02
 -1      3100 4.03345E-02
 -1      3101 4.76644E-02
 -1      3102 3.42275E-02
 -1      3103 2.98481E-02
 -1      3104 3.48125E-02
 -1      3105 2.41160E-02
 -1      3106 2.14266E-02
 -1      3107 2.29733E-02
 -1      3108 2.19310E-02
 -1      3109 2.45863E-02
 -1      3110 1.77457E-02
 -1      3111 3.19862E-02
 -1      3112 4.09895E-02
 -1      3113 2.56501E-02
 -1      3114 5.17447E-02
 -1      3115 6.47677E-02
 -1      3116 4.38051E-02
 -1      3117 7.85089E-02
 -1      3118 9.51163E-02
 -1      3119 6.83015E-02
 -1      3120 1.13337E-01
 -1      3121 1.34465E-01
 -1      3122 1.00263E-01
 -1      3123 1.58301E-01
 -1      3124 1.84952E-01
 -1      3125 1.42320E-01
 -1      3126 2.15127E-01
 -1      3127 2.48333E-01
 -1      3128 1.96331E-01
 -1      3129 2.85874E-01
 -1      3130 3.26628E-01
 -1      3131 2.64047E-01
 -1      3132 3.72324E-01
 -1      3133 4.21489E-01
 -1      3134 3.47284E-01
 -1      3135 4.75565E-01
 -1      3136 5.33724E-01
 -1      3137 4.47057E-01
 -1      3138 5.95269E-01
 -1      3139 6.64859E-01
 -1      3140 5.62679E-01
 -1      3141 7.33069E-01
 -1      3142 8.09849E-01
 -1      3143 6.92434E-01
 -1      3144 9.05260E-01
 -1      3145 9.83129E-01
 -1      3146 8.56055E-01
 -1      3147 1.10913E+00
 -1      3148 1.18893E+00
 -1      3149 1.07747E+00
 -1      3150 1.36452E+00
 -1      3151 1.47692E+00
 -1      3152 1.37906E+00
 -1      3153 1.67989E+00
 -1      3154 1.85861E+00
 -1      3155 1.75762E+00
 -1      3156 2.11277E+00
 -1      3157 2.29028E+00
 -1      3158 2.21474E+00
 -1      3159 2.65775E+00
 -1      3160 2.84100E+00
 -1      3161 2.83638E+00
 -1      3162 3.52166E+00
 -1      3163 4.46186E+00
 -1      3164 3.88451E+00
 -1      3165 3.29768E+00
 -1      3166 3.08364E+00
 -1      3167 3.36101E+00
 -1      3168 3.06265E+00
 -1      3169 4.42952E+00
 -1      3170 3.48295E+00
 -1      3171 1.62407E-01
 -1      3172 1.79416E-01
 -1      3173 1.92231E-01
 -1      3174 2.10816E-01
 -1      3175 1.75781E-01
 -1      3176 1.11252E-01
 -1      3177 1.23598E-01
 -1      3178 8.98882E-02
 -1      3179 1.00478E-01
 -1      3180 1.02407E-01
 -1      3181 7.16257E-02
 -1      3182 8.04997E-02
 -1      3183 8.22450E-02
 -1      3184 5.63875E-02
 -1      3185 6.35393E-02
 -1      3186 6.47701E-02
 -1      3187 4.38127E-02
 -1      3188 4.97006E-02
 -1      3189 4.99969E-02
 -1      3190 3.43699E-02
 -1      3191 3.86789E-02
 -1      3192 3.81762E-02
 -1      3193 2.62178E-02
 -1      3194 2.96157E-02
 -1      3195 2.82882E-02
 -1      3196 2.75598E-02
 -1      3197 2.48330E-02
 -1      3198 2.21492E-02
 -1      3199 3.81210E-02
 -1      3200 3.28114E-02
 -1      3201 2.60161E-02
 -1      3202 6.09803E-02
 -1      3203 4.83299E-02
 -1      3204 4.14766E-02
 -1      3205 8.99433E-02
 -1      3206 7.37602E-02
 -1      3207 6.44654E-02
 -1      3208 1.26656E-01
 -1      3209 1.06056E-01
 -1      3210 9.33580E-02
 -1      3211 1.72841E-01
 -1      3212 1.46940E-01
 -1      3213 1.29755E-01
 -1      3214 2.30201E-01
 -1      3215 1.98206E-01
 -1      3216 1.75405E-01
 -1      3217 3.00262E-01
 -1      3218 2.61621E-01
 -1      3219 2.32192E-01
 -1      3220 3.84877E-01
 -1      3221 3.39512E-01
 -1      3222 3.02862E-01
 -1      3223 4.85299E-01
 -1      3224 4.33945E-01
 -1      3225 3.91180E-01
 -1      3226 5.98985E-01
 -1      3227 5.43669E-01
 -1      3228 4.98618E-01
 -1      3229 7.23009E-01
 -1      3230 6.66411E-01
 -1      3231 6.24413E-01
 -1      3232 8.47641E-01
 -1      3233 7.97384E-01
 -1      3234 7.66214E-01
 -1      3235 9.85968E-01
 -1      3236 9.29714E-01
 -1      3237 9.22663E-01
 -1      3238 1.15555E+00
 -1      3239 1.07572E+00
 -1      3240 1.09449E+00
 -1      3241 1.38071E+00
 -1      3242 1.30246E+00
 -1      3243 1.33115E+00
 -1      3244 1.63873E+00
 -1      3245 1.58923E+00
 -1      3246 1.68658E+00
 -1      3247 2.30162E+00
 -1      3248 2.07056E+00
 -1      3249 2.32693E+00
 -1      3250 2.25468E+00
 -1      3251 2.04957E+00
 -1      3252 2.50672E+00
 -1      3253 3.01207E+00
 -1      3254 2.78962E+00
 -1      3255 2.78962E+00
 -1      3256 4.38451E+00
 -1      3257 3.26229E+00
 -1      3258 6.17507E+00
 -1      3259 5.55954E+00
 -1      3260 6.72315E+00
 -1      3261 6.93866E+00
 -1      3262 4.70178E+00
 -1      3263 5.74403E+00
 -1      3264 2.95409E+00
 -1      3265 2.80637E+00
 -1      3266 3.28907E+00
 -1      3267 3.28789E+00
 -1      3268 3.28789E+00
 -1      3269 3.28907E+00
 -1      3270 1.23427E+01
 -1      3271 1.21323E+01
 -1      3272 7.43522E+00
 -1      3273 6.03446E+00
 -1      3274 9.25129E+00
 -1      3275 1.10707E+01
 -1      3276 9.83082E+00
 -1      3277 3.50571E-01
 -1      3278 3.84405E-01
 -1      3279 1.35629E-01
 -1      3280 1.49545E-01
 -1      3281 1.50104E-01
 -1      3282 1.25211E-01
 -1      3283 3.06850E-01
 -1      3284 3.41174E-01
 -1      3285 2.95739E-01
 -1      3286 1.57687E+01
 -1      3287 3.72448E+00
 -1      3288 3.14783E-01
 -1      3289 3.08228E-01
 -1      3290 2.43900E-01
 -1      3291 1.14915E+01
 -1      3292 7.41389E+00
 -1      3293 5.74403E+00
 -1      3294 4.55577E+00
 -1      3295 5.05607E+00
 -1      3296 1.19096E+01
 -1      3297 1.27612E+01
 -1      3298 5.36790E+00
 -1      3299 4.47863E+00
 -1      3300 4.74830E+00
 -1      3301 4.13063E-01
 -1      3302 3.10199E-01
 -1      3303 2.61550E-01
 -1      3304 3.98565E-01
 -1      3305 3.23618E-01
 -1      3306 3.15739E-01
 -1      3307 3.11636E+00
 -1      3308 3.28789E+00
 -1      3309 6.72315E+00
 -1      3310 4.45245E+00
 -1      3311 3.12263E-01
 -1      3312 3.12047E-01
 -1      3313 2.85156E-01
 -1      3314 2.60673E-01
 -1      3315 3.21246E-01
 -1      3316 3.21246E-01
 -1      3317 7.40811E+00
 -1      3318 3.64038E+00
 -1      3319 4.68263E+00
 -1      3320 3.62170E+00
 -1      3321 3.94816E+00
 -1      3322 3.21320E-01
 -1      3323 3.21320E-01
 -1      3324 3.35340E-01
 -1      3325 2.63302E-01
 -1      3326 2.90558E-01
 -1      3327 2.70050E-01
 -1      3328 2.02826E-01
 -1      3329 2.25046E-01
 -1      3330 2.44950E-01
 -1      3331 3.57479E+00
 -1      3332 4.94401E+00
 -1      3333 3.13994E+00
 -1      3334 7.50800E+00
 -1      3335 5.48763E+00
 -1      3336 7.52286E+00
 -1      3337 5.35759E+00
 -1      3338 9.50520E+00
 -1      3339 4.84982E+00
 -1      3340 9.60428E+00
 -1      3341 3.66637E-01
 -1      3342 3.92244E-01
 -1      3343 2.75923E-01
 -1      3344 2.87369E-01
 -1      3345 3.44993E+00
 -1      3346 2.44284E-01
 -1      3347 8.62802E+00
 -1      3348 1.14412E+01
 -1      3349 8.51997E+00
 -1      3350 3.23241E-01
 -1      3351 3.24717E-01
 -1      3352 2.85366E-01
 -1      3353 2.61611E-01
 -1      3354 3.49762E+00
 -1      3355 5.91266E+00
 -1      3356 3.64763E+00
 -1      3357 3.25317E-01
 -1      3358 3.23618E-01
 -1      3359 2.88631E-01
 -1      3360 2.84560E-01
 -1      3361 3.28766E+00
 -1      3362 7.69298E+00
 -1      3363 8.89608E+00
 -1      3364 4.10004E+00
 -1      3365 3.57479E+00
 -1      3366 3.32456E+00
 -1      3367 3.70315E+00
 -1      3368 9.92567E+00
 -1      3369 2.14874E-01
 -1      3370 2.11471E-01
 -1      3371 3.08274E-01
 -1      3372 5.74403E+00
 -1      3373 5.17987E+00
 -1      3374 4.51332E+00
 -1      3375 1.87202E-01
 -1      3376 1.98410E-01
 -1      3377 1.58176E-01
 -1      3378 2.15343E-01
 -1      3379 2.04470E-01
 -1      3380 1.78512E-01
 -1      3381 2.00863E-01
 -1      3382 1.86718E-01
 -1      3383 1.78776E-01
 -1      3384 1.78881E-01
 -1      3385 1.65576E-01
 -1      3386 1.67332E-01
 -1      3387 1.55768E-01
 -1      3388 1.45196E-01
 -1      3389 1.49686E-01
 -1      3390 1.36900E-01
 -1      3391 1.25782E-01
 -1      3392 1.31582E-01
 -1      3393 1.17573E-01
 -1      3394 1.06850E-01
 -1      3395 1.15079E-01
 -1      3396 9.85270E-02
 -1      3397 8.87021E-02
 -1      3398 9.85475E-02
 -1      3399 8.07945E-02
 -1      3400 7.20640E-02
 -1      3401 8.23173E-02
 -1      3402 6.48241E-02
 -1      3403 5.71696E-02
 -1      3404 6.71699E-02
 -1      3405 5.06462E-02
 -1      3406 4.39013E-02
 -1      3407 5.34066E-02
 -1      3408 3.80078E-02
 -1      3409 3.19007E-02
 -1      3410 4.09896E-02
 -1      3411 2.69931E-02
 -1      3412 2.12610E-02
 -1      3413 3.01884E-02
 -1      3414 2.21028E-02
 -1      3415 2.26072E-02
 -1      3416 2.61225E-02
 -1      3417 2.52178E-02
 -1      3418 3.26177E-02
 -1      3419 2.95748E-02
 -1      3420 4.22289E-02
 -1      3421 5.29841E-02
 -1      3422 4.17967E-02
 -1      3423 6.60351E-02
 -1      3424 7.97763E-02
 -1      3425 6.44588E-02
 -1      3426 9.67740E-02
 -1      3427 1.14995E-01
 -1      3428 9.45076E-02
 -1      3429 1.36788E-01
 -1      3430 1.60624E-01
 -1      3431 1.33299E-01
 -1      3432 1.88330E-01
 -1      3433 2.18506E-01
 -1      3434 1.82799E-01
 -1      3435 2.53371E-01
 -1      3436 2.90912E-01
 -1      3437 2.45371E-01
 -1      3438 3.34317E-01
 -1      3439 3.80013E-01
 -1      3440 3.23642E-01
 -1      3441 4.33466E-01
 -1      3442 4.87543E-01
 -1      3443 4.20500E-01
 -1      3444 5.52635E-01
 -1      3445 6.14180E-01
 -1      3446 5.39044E-01
 -1      3447 6.92434E-01
 -1      3448 7.60644E-01
 -1      3449 6.82390E-01
 -1      3450 8.53095E-01
 -1      3451 9.48506E-01
 -1      3452 8.53095E-01
 -1      3453 1.05402E+00
 -1      3454 1.18002E+00
 -1      3455 1.05106E+00
 -1      3456 1.36507E+00
 -1      3457 1.54066E+00
 -1      3458 1.34162E+00
 -1      3459 1.85535E+00
 -1      3460 2.05832E+00
 -1      3461 1.84136E+00
 -1      3462 2.73361E+00
 -1      3463 2.98778E+00
 -1      3464 2.83135E+00
 -1      3465 3.91266E+00
 -1      3466 4.28013E+00
 -1      3467 4.43153E+00
 -1      3468 4.28013E+00
 -1      3469 4.96079E+00
 -1      3470 5.75321E+00
 -1      3471 5.35642E+00
 -1      3472 3.61554E+00
 -1      3473 6.04835E-02
 -1      3474 6.85699E-02
 -1      3475 2.68923E-01
 -1      3476 7.64682E-02
 -1      3477 8.58567E-02
 -1      3478 7.21816E-02
 -1      3479 9.45855E-02
 -1      3480 1.05359E-01
 -1      3481 8.88087E-02
 -1      3482 4.67559E-02
 -1      3483 5.34428E-02
 -1      3484 5.72425E-02
 -1      3485 3.53188E-02
 -1      3486 4.04526E-02
 -1      3487 4.38985E-02
 -1      3488 2.47615E-02
 -1      3489 2.95157E-02
 -1      3490 3.17921E-02
 -1      3491 2.15473E-02
 -1      3492 2.29321E-02
 -1      3493 2.41596E-02
 -1      3494 2.83075E-02
 -1      3495 2.30559E-02
 -1      3496 2.38388E-02
 -1      3497 4.76389E-02
 -1      3498 3.74301E-02
 -1      3499 3.44699E-02
 -1      3500 7.19986E-02
 -1      3501 5.92187E-02
 -1      3502 5.51722E-02
 -1      3503 1.03779E-01
 -1      3504 8.76663E-02
 -1      3505 8.24196E-02
 -1      3506 1.44048E-01
 -1      3507 1.23763E-01
 -1      3508 1.18072E-01
 -1      3509 1.94624E-01
 -1      3510 1.69258E-01
 -1      3511 1.63267E-01
 -1      3512 2.57373E-01
 -1      3513 2.25952E-01
 -1      3514 2.19805E-01
 -1      3515 3.34838E-01
 -1      3516 2.95588E-01
 -1      3517 2.89348E-01
 -1      3518 4.29479E-01
 -1      3519 3.80411E-01
 -1      3520 3.73137E-01
 -1      3521 5.40631E-01
 -1      3522 4.82262E-01
 -1      3523 4.71493E-01
 -1      3524 6.66691E-01
 -1      3525 5.99265E-01
 -1      3526 5.82909E-01
 -1      3527 8.10890E-01
 -1      3528 7.36515E-01
 -1      3529 7.11366E-01
 -1      3530 9.87285E-01
 -1      3531 9.05211E-01
 -1      3532 8.75512E-01
 -1      3533 1.22744E+00
 -1      3534 1.13769E+00
 -1      3535 1.12024E+00
 -1      3536 1.57324E+00
 -1      3537 1.42633E+00
 -1      3538 1.46953E+00
 -1      3539 2.00031E+00
 -1      3540 1.79179E+00
 -1      3541 1.88697E+00
 -1      3542 2.90192E+00
 -1      3543 2.47008E+00
 -1      3544 2.57530E+00
 -1      3545 3.59979E+00
 -1      3546 3.85183E+00
 -1      3547 4.13473E+00
 -1      3548 2.46987E-01
 -1      3549 2.56384E-01
 -1      3550 3.15588E-01
 -1      3551 3.23241E-01
 -1      3552 2.88764E-01
 -1      3553 1.57500E-01
 -1      3554 1.70315E-01
 -1      3555 7.93373E+00
 -1      3556 8.77271E+00
 -1      3557 7.84722E+00
 -1      3558 7.94433E+00
 -1      3559 2.01713E-01
 -1      3560 1.90120E-01
 -1      3561 1.44630E-01
 -1      3562 2.14759E-01
 -1      3563 8.56315E+00
 -1      3564 8.14464E+00
 -1      3565 2.03472E-01
 -1      3566 2.23289E-01
 -1      3567 2.31556E-01
 -1      3568 2.47848E-01
 -1      3569 2.08493E-01
 -1      3570 7.01131E+00
 -1      3571 6.99168E+00
 -1      3572 5.25266E+00
 -1      3573 2.35407E-01
 -1      3574 1.82163E-01
 -1      3575 1.96393E-01
 -1      3576 1.63882E-01
 -1      3577 3.99499E+00
 -1      3578 2.85222E-01
 -1      3579 2.36024E-01
 -1      3580 1.68813E-01
 -1      3581 2.39421E-01
 -1      3582 7.51049E+00
 -1      3583 5.54805E+00
 -1      3584 6.54516E+00
 -1      3585 1.99879E-01
 -1      3586 1.79185E-01
 -1      3587 1.41801E-01
 -1      3588 1.93557E-01
 -1      3589 1.36096E-01
 -1      3590 1.48958E-01
 -1      3591 1.43491E-01
 -1      3592 7.54660E+00
 -1      3593 5.88665E+00
 -1      3594 6.18408E+00
 -1      3595 2.28203E-01
 -1      3596 2.10435E-01
 -1      3597 1.34391E-01
 -1      3598 1.79450E-01
 -1      3599 6.87096E+00
 -1      3600 2.52961E-01
 -1      3601 2.49486E-01
 -1      3602 1.14676E-01
 -1      3603 1.26707E-01
 -1      3604 1.25561E-01
 -1      3605 1.06855E-01
 -1      3606 2.52961E-01
 -1      3607 2.52961E-01
 -1      3608 2.17291E-01
 -1      3609 5.19402E-02
 -1      3610 5.89809E-02
 -1      3611 1.19252E-01
 -1      3612 1.35716E-01
 -1      3613 1.49023E-01
 -1      3614 1.52895E-01
 -1      3615 1.10099E-01
 -1      3616 1.59171E-01
 -1      3617 1.55564E-01
 -1      3618 1.29683E-01
 -1      3619 1.55250E-01
 -1      3620 1.47413E-01
 -1      3621 1.35645E-01
 -1      3622 1.43018E-01
 -1      3623 1.33210E-01
 -1      3624 1.30937E-01
 -1      3625 1.26585E-01
 -1      3626 1.18290E-01
 -1      3627 1.19917E-01
 -1      3628 1.10710E-01
 -1      3629 1.02501E-01
 -1      3630 1.05713E-01
 -1      3631 9.62418E-02
 -1      3632 8.79191E-02
 -1      3633 9.18730E-02
 -1      3634 8.14789E-02
 -1      3635 7.35714E-02
 -1      3636 7.91732E-02
 -1      3637 6.73661E-02
 -1      3638 6.01263E-02
 -1      3639 6.65277E-02
 -1      3640 5.43680E-02
 -1      3641 4.78445E-02
 -1      3642 5.45642E-02
 -1      3643 4.26297E-02
 -1      3644 3.67362E-02
 -1      3645 4.35912E-02
 -1      3646 3.32506E-02
 -1      3647 2.83430E-02
 -1      3648 3.48908E-02
 -1      3649 2.88762E-02
 -1      3650 2.97180E-02
 -1      3651 3.19385E-02
 -1      3652 3.15856E-02
 -1      3653 3.41962E-02
 -1      3654 3.43393E-02
 -1      3655 3.81804E-02
 -1      3656 4.77916E-02
 -1      3657 4.01912E-02
 -1      3658 5.87695E-02
 -1      3659 7.18205E-02
 -1      3660 5.51533E-02
 -1      3661 8.60000E-02
 -1      3662 1.02998E-01
 -1      3663 8.03108E-02
 -1      3664 1.21233E-01
 -1      3665 1.43027E-01
 -1      3666 1.12726E-01
 -1      3667 1.66330E-01
 -1      3668 1.94036E-01
 -1      3669 1.54264E-01
 -1      3670 2.23625E-01
 -1      3671 2.58491E-01
 -1      3672 2.07156E-01
 -1      3673 2.95902E-01
 -1      3674 3.39308E-01
 -1      3675 2.74157E-01
 -1      3676 3.86587E-01
 -1      3677 4.40040E-01
 -1      3678 3.58848E-01
 -1      3679 5.00104E-01
 -1      3680 5.65196E-01
 -1      3681 4.66191E-01
 -1      3682 6.42414E-01
 -1      3683 7.20668E-01
 -1      3684 6.03474E-01
 -1      3685 8.21784E-01
 -1      3686 9.14235E-01
 -1      3687 7.81808E-01
 -1      3688 1.05009E+00
 -1      3689 1.15560E+00
 -1      3690 1.01877E+00
 -1      3691 1.34162E+00
 -1      3692 1.52667E+00
 -1      3693 1.34065E+00
 -1      3694 1.75934E+00
 -1      3695 2.07403E+00
 -1      3696 1.75934E+00
 -1      3697 2.73943E+00
 -1      3698 3.41473E+00
 -1      3699 2.65741E+00
 -1      3700 5.35394E+00
 -1      3701 6.27883E+00
 -1      3702 6.27883E+00
 -1      3703 2.06733E-01
 -1      3704 2.25084E-01
 -1      3705 1.86070E-01
 -1      3706 6.53886E-02
 -1      3707 7.32870E-02
 -1      3708 6.00863E-02
 -1      3709 2.42787E-01
 -1      3710 2.46858E-01
 -1      3711 2.11188E-01
 -1      3712 8.03014E-02
 -1      3713 8.90301E-02
 -1      3714 7.35084E-02
 -1      3715 2.87454E-02
 -1      3716 3.45485E-02
 -1      3717 2.58695E-02
 -1      3718 2.76988E-02
 -1      3719 3.04552E-02
 -1      3720 2.87593E-02
 -1      3721 2.72508E-02
 -1      3722 3.07900E-02
 -1      3723 4.14786E-02
 -1      3724 3.23561E-02
 -1      3725 3.57681E-02
 -1      3726 6.35502E-02
 -1      3727 5.19704E-02
 -1      3728 4.98567E-02
 -1      3729 9.30088E-02
 -1      3730 7.73412E-02
 -1      3731 7.41394E-02
 -1      3732 1.30665E-01
 -1      3733 1.10681E-01
 -1      3734 1.05602E-01
 -1      3735 1.78356E-01
 -1      3736 1.53145E-01
 -1      3737 1.45754E-01
 -1      3738 2.38018E-01
 -1      3739 2.06690E-01
 -1      3740 1.96568E-01
 -1      3741 3.11602E-01
 -1      3742 2.73387E-01
 -1      3743 2.60272E-01
 -1      3744 4.00937E-01
 -1      3745 3.55364E-01
 -1      3746 3.39403E-01
 -1      3747 5.07473E-01
 -1      3748 4.54690E-01
 -1      3749 4.36917E-01
 -1      3750 6.31760E-01
 -1      3751 5.73126E-01
 -1      3752 5.56324E-01
 -1      3753 7.81191E-01
 -1      3754 7.11366E-01
 -1      3755 7.01584E-01
 -1      3756 9.69833E-01
 -1      3757 8.75512E-01
 -1      3758 8.75512E-01
 -1      3759 1.24163E+00
 -1      3760 1.09123E+00
 -1      3761 1.09123E+00
 -1      3762 1.65211E+00
 -1      3763 1.45322E+00
 -1      3764 1.42422E+00
 -1      3765 2.52209E+00
 -1      3766 2.30354E+00
 -1      3767 2.28723E+00
 -1      3768 3.94609E+00
 -1      3769 3.47631E+00
 -1      3770 3.89288E+00
 -1      3771 2.48950E-01
 -1      3772 2.52491E-01
 -1      3773 2.16755E-01
 -1      3774 2.52491E-01
 -1      3775 2.52491E-01
 -1      3776 2.03148E-01
 -1      3777 2.16219E-01
 -1      3778 4.30274E+00
 -1      3779 5.51718E+00
 -1      3780 6.20088E+00
 -1      3781 5.19139E+00
 -1      3782 3.98297E-02
 -1      3783 4.61330E-02
 -1      3784 3.67830E-02
 -1      3785 5.73001E+00
 -1      3786 5.52045E+00
 -1      3787 1.30149E-01
 -1      3788 1.27231E-01
 -1      3789 1.04771E-01
 -1      3790 1.51414E-01
 -1      3791 1.85586E-01
 -1      3792 4.13473E+00
 -1      3793 5.20376E+00
 -1      3794 1.77408E-01
 -1      3795 1.76547E-01
 -1      3796 2.02882E-01
 -1      3797 5.26203E+00
 -1      3798 1.46313E-01
 -1      3799 1.58161E-01
 -1      3800 4.20657E+00
 -1      3801 5.46824E+00
 -1      3802 4.87020E+00
 -1      3803 1.34293E-01
 -1      3804 1.65378E-01
 -1      3805 1.85218E-01
 -1      3806 1.84681E-01
 -1      3807 4.78714E-02
 -1      3808 1.44606E-01
 -1      3809 1.64104E-01
 -1      3810 9.63139E-02
 -1      3811 1.05631E-01
 -1      3812 8.78066E-02
 -1      3813 1.37196E-01
 -1      3814 1.29834E-01
 -1      3815 1.38376E-01
 -1      3816 1.32655E-01
 -1      3817 4.62718E+00
 -1      3818 4.92780E+00
 -1      3819 4.25772E+00
 -1      3820 1.58678E-01
 -1      3821 1.85203E-01
 -1      3822 1.85203E-01
 -1      3823 1.53130E-01
 -1      3824 1.75906E-01
 -1      3825 1.82378E-01
 -1      3826 1.50431E-01
 -1      3827 1.46379E-01
 -1      3828 1.63948E-01
 -1      3829 1.74288E-01
 -1      3830 1.06549E-01
 -1      3831 1.12825E-01
 -1      3832 1.18823E-01
 -1      3833 1.18509E-01
 -1      3834 9.56889E-02
 -1      3835 1.19258E-01
 -1      3836 1.14863E-01
 -1      3837 1.02436E-01
 -1      3838 1.12188E-01
 -1      3839 1.05564E-01
 -1      3840 1.00510E-01
 -1      3841 1.00896E-01
 -1      3842 9.33158E-02
 -1      3843 9.31666E-02
 -1      3844 8.76993E-02
 -1      3845 8.14397E-02
 -1      3846 8.28824E-02
 -1      3847 7.56002E-02
 -1      3848 6.91600E-02
 -1      3849 7.14265E-02
 -1      3850 6.40108E-02
 -1      3851 5.78056E-02
 -1      3852 6.04378E-02
 -1      3853 5.31577E-02
 -1      3854 4.73994E-02
 -1      3855 5.06408E-02
 -1      3856 4.31902E-02
 -1      3857 3.79754E-02
 -1      3858 4.17836E-02
 -1      3859 3.68333E-02
 -1      3860 3.33477E-02
 -1      3861 3.64323E-02
 -1      3862 3.34176E-02
 -1      3863 3.39509E-02
 -1      3864 3.53602E-02
 -1      3865 3.53948E-02
 -1      3866 3.72624E-02
 -1      3867 3.68740E-02
 -1      3868 4.02750E-02
 -1      3869 4.42592E-02
 -1      3870 4.13304E-02
 -1      3871 4.99242E-02
 -1      3872 6.09021E-02
 -1      3873 5.00079E-02
 -1      3874 6.95031E-02
 -1      3875 8.36826E-02
 -1      3876 6.42740E-02
 -1      3877 9.71478E-02
 -1      3878 1.15383E-01
 -1      3879 8.63402E-02
 -1      3880 1.33044E-01
 -1      3881 1.56346E-01
 -1      3882 1.17466E-01
 -1      3883 1.78887E-01
 -1      3884 2.08477E-01
 -1      3885 1.57668E-01
 -1      3886 2.37158E-01
 -1      3887 2.74569E-01
 -1      3888 2.08889E-01
 -1      3889 3.11154E-01
 -1      3890 3.58434E-01
 -1      3891 2.74155E-01
 -1      3892 4.05625E-01
 -1      3893 4.65689E-01
 -1      3894 3.57932E-01
 -1      3895 5.27990E-01
 -1      3896 6.05208E-01
 -1      3897 4.67424E-01
 -1      3898 6.90535E-01
 -1      3899 7.91651E-01
 -1      3900 6.15051E-01
 -1      3901 9.12935E-01
 -1      3902 1.04879E+00
 -1      3903 8.21662E-01
 -1      3904 1.23730E+00
 -1      3905 1.42332E+00
 -1      3906 1.13146E+00
 -1      3907 1.67180E+00
 -1      3908 1.90447E+00
 -1      3909 1.56845E+00
 -1      3910 5.30669E-02
 -1      3911 5.94746E-02
 -1      3912 6.38398E-02
 -1      3913 7.08542E-02
 -1      3914 5.68204E-02
 -1      3915 1.20101E-01
 -1      3916 1.08932E-01
 -1      3917 3.38067E-02
 -1      3918 3.24254E-02
 -1      3919 3.15046E-02
 -1      3920 3.25512E-02
 -1      3921 3.45214E-02
 -1      3922 5.48648E-02
 -1      3923 4.43730E-02
 -1      3924 7.95488E-02
 -1      3925 6.57579E-02
 -1      3926 6.02741E-02
 -1      3927 1.11425E-01
 -1      3928 9.37536E-02
 -1      3929 8.53720E-02
 -1      3930 1.52165E-01
 -1      3931 1.29684E-01
 -1      3932 1.17836E-01
 -1      3933 2.03813E-01
 -1      3934 1.75479E-01
 -1      3935 1.59409E-01
 -1      3936 2.68802E-01
 -1      3937 2.33433E-01
 -1      3938 2.12344E-01
 -1      3939 3.50134E-01
 -1      3940 3.06372E-01
 -1      3941 2.79533E-01
 -1      3942 4.51718E-01
 -1      3943 3.97965E-01
 -1      3944 3.64934E-01
 -1      3945 5.78977E-01
 -1      3946 5.13324E-01
 -1      3947 4.74371E-01
 -1      3948 7.39778E-01
 -1      3949 6.60171E-01
 -1      3950 6.17171E-01
 -1      3951 9.44233E-01
 -1      3952 8.49912E-01
 -1      3953 8.08499E-01
 -1      3954 1.21263E+00
 -1      3955 1.09123E+00
 -1      3956 1.06563E+00
 -1      3957 1.62881E+00
 -1      3958 1.41722E+00
 -1      3959 1.41722E+00
 -1      3960 2.60925E+00
 -1      3961 1.95783E+00
 -1      3962 1.95083E+00
 -1      3963 1.53144E-01
 -1      3964 1.84681E-01
 -1      3965 1.84681E-01
 -1      3966 4.23101E-02
 -1      3967 4.81173E-02
 -1      3968 4.75056E-02
 -1      3969 3.79080E+00
 -1      3970 3.97736E-02
 -1      3971 3.61768E-02
 -1      3972 3.78123E-02
 -1      3973 4.47817E-02
 -1      3974 9.67920E-02
 -1      3975 1.10099E-01
 -1      3976 9.32415E-02
 -1      3977 1.12593E-01
 -1      3978 1.21982E-01
 -1      3979 1.16866E-01
 -1      3980 1.02052E-01
 -1      3981 3.28872E-02
 -1      3982 3.81684E-02
 -1      3983 3.84143E-02
 -1      3984 3.39366E-02
 -1      3985 2.81779E+00
 -1      3986 3.28578E+00
 -1      3987 3.23357E+00
 -1      3988 2.15239E+00
 -1      3989 1.28885E-01
 -1      3990 1.34672E-01
 -1      3991 1.25457E-01
 -1      3992 1.13750E-01
 -1      3993 1.17519E-01
 -1      3994 3.75859E+00
 -1      3995 4.34797E+00
 -1      3996 1.78696E-01
 -1      3997 1.65626E-01
 -1      3998 1.26962E-01
 -1      3999 1.47159E-01
 -1      4000 2.06486E+00
 -1      4001 7.99230E-02
 -1      4002 8.95916E-02
 -1      4003 9.68754E-02
 -1      4004 1.25206E-01
 -1      4005 9.98453E-02
 -1      4006 1.30176E-01
 -1      4007 3.56011E+00
 -1      4008 4.27595E+00
 -1      4009 3.31710E+00
 -1      4010 3.39375E+00
 -1      4011 3.06434E+00
 -1      4012 1.25693E-01
 -1      4013 1.25693E-01
 -1      4014 4.34797E+00
 -1      4015 1.53783E-01
 -1      4016 1.25693E-01
 -1      4017 9.82416E-02
 -1      4018 1.25679E-01
 -1      4019 4.84710E+00
 -1      4020 1.73760E-01
 -1      4021 1.79864E-01
 -1      4022 5.19139E+00
 -1      4023 1.47776E-01
 -1      4024 1.18983E-01
 -1      4025 1.32780E-01
 -1      4026 1.18983E-01
 -1      4027 1.18588E-01
 -1      4028 3.12539E+00
 -1      4029 3.21564E+00
 -1      4030 2.43115E+00
 -1      4031 2.77415E+00
 -1      4032 9.15655E-02
 -1      4033 9.23146E-02
 -1      4034 9.31305E-02
 -1      4035 9.04551E-02
 -1      4036 8.22600E-02
 -1      4037 8.49150E-02
 -1      4038 8.02473E-02
 -1      4039 7.75358E-02
 -1      4040 7.67275E-02
 -1      4041 7.11110E-02
 -1      4042 6.84759E-02
 -1      4043 8.12249E-02
 -1      4044 7.53854E-02
 -1      4045 7.50700E-02
 -1      4046 6.15069E-02
 -1      4047 5.63577E-02
 -1      4048 7.13053E-02
 -1      4049 5.25844E-02
 -1      4050 4.79365E-02
 -1      4051 5.36534E-02
 -1      4052 4.40423E-02
 -1      4053 3.98331E-02
 -1      4054 4.59859E-02
 -1      4055 3.75476E-02
 -1      4056 3.64056E-02
 -1      4057 3.98063E-02
 -1      4058 3.53602E-02
 -1      4059 3.54301E-02
 -1      4060 3.64755E-02
 -1      4061 3.68740E-02
 -1      4062 3.83178E-02
 -1      4063 3.68740E-02
 -1      4064 4.13304E-02
 -1      4065 4.43430E-02
 -1      4066 4.13304E-02
 -1      4067 5.00079E-02
 -1      4068 5.56729E-02
 -1      4069 5.00079E-02
 -1      4070 6.39338E-02
 -1      4071 7.25349E-02
 -1      4072 6.39338E-02
 -1      4073 8.36252E-02
 -1      4074 9.70904E-02
 -1      4075 8.32851E-02
 -1      4076 1.11533E-01
 -1      4077 1.29193E-01
 -1      4078 1.08818E-01
 -1      4079 1.47614E-01
 -1      4080 1.70155E-01
 -1      4081 1.41681E-01
 -1      4082 1.93341E-01
 -1      4083 2.22021E-01
 -1      4084 1.83287E-01
 -1      4085 2.51037E-01
 -1      4086 2.87622E-01
 -1      4087 2.35488E-01
 -1      4088 3.24051E-01
 -1      4089 3.71243E-01
 -1      4090 3.00933E-01
 -1      4091 4.17678E-01
 -1      4092 4.79978E-01
 -1      4093 3.83797E-01
 -1      4094 5.41019E-01
 -1      4095 6.26346E-01
 -1      4096 4.91273E-01
 -1      4097 7.11147E-01
 -1      4098 8.32430E-01
 -1      4099 6.37114E-01
 -1      4100 9.62985E-01
 -1      4101 1.15150E+00
 -1      4102 8.52470E-01
 -1      4103 1.56053E+00
 -1      4104 1.80902E+00
 -1      4105 1.39206E+00
 -1      4106 1.34329E-01
 -1      4107 1.35947E-01
 -1      4108 1.10721E-01
 -1      4109 1.16835E-01
 -1      4110 7.51011E-02
 -1      4111 7.15506E-02
 -1      4112 2.26823E+00
 -1      4113 3.18902E+00
 -1      4114 2.59477E+00
 -1      4115 2.02031E+00
 -1      4116 9.15748E-02
 -1      4117 7.73700E-02
 -1      4118 6.75109E-02
 -1      4119 5.66178E-02
 -1      4120 7.37137E-02
 -1      4121 1.62720E-01
 -1      4122 1.39406E-01
 -1      4123 2.13257E-01
 -1      4124 1.83637E-01
 -1      4125 1.63633E-01
 -1      4126 2.76854E-01
 -1      4127 2.39285E-01
 -1      4128 2.10578E-01
 -1      4129 3.58425E-01
 -1      4130 3.10594E-01
 -1      4131 2.70346E-01
 -1      4132 4.67888E-01
 -1      4133 4.06282E-01
 -1      4134 3.51942E-01
 -1      4135 6.13656E-01
 -1      4136 5.32462E-01
 -1      4137 4.64373E-01
 -1      4138 8.14647E-01
 -1      4139 7.04513E-01
 -1      4140 6.19804E-01
 -1      4141 1.10870E+00
 -1      4142 9.61703E-01
 -1      4143 8.57718E-01
 -1      4144 1.71146E+00
 -1      4145 1.50686E+00
 -1      4146 1.40294E+00
 -1      4147 2.02126E+00
 -1      4148 1.69224E+00
 -1      4149 1.78188E+00
 -1      4150 2.17256E+00
 -1      4151 7.83388E-02
 -1      4152 8.43368E-02
 -1      4153 6.01984E-02
 -1      4154 1.22793E-01
 -1      4155 1.04535E-01
 -1      4156 9.65325E-02
 -1      4157 1.26105E-01
 -1      4158 1.24968E-01
 -1      4159 3.54422E-02
 -1      4160 3.45214E-02
 -1      4161 4.62180E-02
 -1      4162 5.11677E-02
 -1      4163 5.49410E-02
 -1      4164 5.93061E-02
 -1      4165 5.36534E-02
 -1      4166 1.23928E-01
 -1      4167 9.64907E-02
 -1      4168 9.93890E-02
 -1      4169 1.02818E-01
 -1      4170 1.10309E-01
 -1      4171 1.18161E-01
 -1      4172 1.10962E-01
 -1      4173 7.42154E-02
 -1      4174 1.02049E-01
 -1      4175 1.01706E-01
 -1      4176 8.76888E-02
 -1      4177 7.31847E-02
 -1      4178 9.19221E-02
 -1      4179 7.13053E-02
 -1      4180 9.75168E-02
 -1      4181 7.58259E-02
 -1      4182 4.01824E-02
 -1      4183 3.78123E-02
 -1      4184 3.78123E-02
 -1      4185 4.23239E-02
 -1      4186 4.59859E-02
 -1      4187 3.81822E-02
 -1      4188 2.01239E+00
 -1      4189 5.66178E-02
 -1      4190 4.93811E-02
 -1      4191 4.47817E-02
 -1      4192 1.05132E-01
 -1      4193 1.03347E-01
 -1      4194 1.10309E-01
 -1      4195 3.45020E-02
 -1      4196 3.48380E-02
 -1      4197 3.54228E-02
 -1      4198 7.58259E-02
 -1      4199 7.58259E-02
 -1      4200 5.34102E-02
 -1      4201 1.01596E-01
 -1      4202 8.49507E-02
 -1      4203 8.57666E-02
 -1      4204 9.63654E-02
 -1      4205 9.05948E-02
 -1      4206 8.15795E-02
 -1      4207 9.17995E-02
 -1      4208 8.82797E-02
 -1      4209 8.18082E-02
 -1      4210 9.19221E-02
 -1      4211 1.05132E-01
 -1      4212 8.51839E-02
 -1      4213 7.13053E-02
 -1      4214 5.74267E-02
 -1      4215 5.36534E-02
 -1      4216 4.98801E-02
 -1      4217 4.59859E-02
 -1      4218 4.20918E-02
 -1      4219 3.98063E-02
 -1      4220 3.64621E-02
 -1      4221 3.54167E-02
 -1      4222 3.54361E-02
 -1      4223 3.68800E-02
 -1      4224 3.92501E-02
 -1      4225 4.22627E-02
 -1      4226 4.68620E-02
 -1      4227 5.25270E-02
 -1      4228 5.97638E-02
 -1      4229 6.80247E-02
 -1      4230 7.78838E-02
 -1      4231 8.89740E-02
 -1      4232 1.01934E-01
 -1      4233 1.16376E-01
 -1      4234 1.32989E-01
 -1      4235 1.51409E-01
 -1      4236 1.72326E-01
 -1      4237 1.95511E-01
 -1      4238 2.21539E-01
 -1      4239 2.50554E-01
 -1      4240 2.84294E-01
 -1      4241 3.20724E-01
 -1      4242 3.68580E-01
 -1      4243 4.15015E-01
 -1      4244 4.79590E-01
 -1      4245 5.40631E-01
 -1      4246 6.31487E-01
 -1      4247 7.16288E-01
 -1      4248 8.63345E-01
 -1      4249 9.93899E-01
 -1      4250 1.39206E+00
 -1      4251 1.80110E+00
 -1      4252 7.69535E-02
 -1      4253 8.41823E-02
 -1      4254 2.39898E+00
 -1      4255 2.20728E+00
 -1      4256 1.79739E+00
 -1      4257 2.02789E+00
 -1      4258 6.01984E-02
 -1      4259 1.81660E+00
 -1      4260 9.78792E-02
 -1      4261 8.69474E-02
 -1      4262 9.85205E-02
 -1      4263 8.42567E-02
 -1      4264 4.47817E-02
 -1      4265 7.87166E-02
 -1      4266 9.85205E-02
 -1      4267 9.19221E-02
 -1      4268 1.81660E+00
 -1      4269 1.11603E-01
 -1      4270 3.87476E-02
 -1      4271 9.86604E-02
 -1      4272 1.05132E-01
 -1      4273 8.72402E-02
 -1      4274 1.11603E-01
 -1      4275 1.11603E-01
 -1      4276 7.16127E-02
 -1      4277 6.48244E-02
 -3
 9999
