    1C
    1UUSER                                                              
    1UDATE              27.october.2022                                 
    1UTIME              00:09:00                                        
    1UHOST                                                              
    1UPGM               CalculiX                                        
    1UVERSION           Version 2.17                             
    1UCOMPILETIME       Thu Jul 23 21:43:50 CEST 2020                    
    1UDIR                                                               
    1UDBN                                                               
    1UMAT    1SOLIDMATERIAL                                             
    2C                          4237                                     1
 -1         1 1.11818E+02 4.10903E+01 0.00000E+00
 -1         2 1.18258E+02 3.41128E+01 0.00000E+00
 -1         3 1.50000E+02 0.00000E+00 0.00000E+00
 -1         4 1.50000E+02 5.00000E+01 0.00000E+00
 -1         5 0.00000E+00 0.00000E+00 0.00000E+00
 -1         6 0.00000E+00 5.00000E+01 0.00000E+00
 -1         7 0.00000E+00 4.70500E+01 0.00000E+00
 -1         8 0.00000E+00 4.41000E+01 0.00000E+00
 -1         9 0.00000E+00 4.11500E+01 0.00000E+00
 -1        10 0.00000E+00 3.82000E+01 0.00000E+00
 -1        11 0.00000E+00 3.52500E+01 0.00000E+00
 -1        12 0.00000E+00 3.23500E+01 0.00000E+00
 -1        13 0.00000E+00 2.94000E+01 0.00000E+00
 -1        14 0.00000E+00 2.64500E+01 0.00000E+00
 -1        15 0.00000E+00 2.35000E+01 0.00000E+00
 -1        16 0.00000E+00 2.05500E+01 0.00000E+00
 -1        17 0.00000E+00 1.76000E+01 0.00000E+00
 -1        18 0.00000E+00 1.47000E+01 0.00000E+00
 -1        19 0.00000E+00 1.17500E+01 0.00000E+00
 -1        20 0.00000E+00 8.80000E+00 0.00000E+00
 -1        21 0.00000E+00 5.85000E+00 0.00000E+00
 -1        22 0.00000E+00 2.90000E+00 0.00000E+00
 -1        23 3.15000E+00 5.00000E+01 0.00000E+00
 -1        24 6.15000E+00 5.00000E+01 0.00000E+00
 -1        25 9.15000E+00 5.00000E+01 0.00000E+00
 -1        26 1.21500E+01 5.00000E+01 0.00000E+00
 -1        27 1.51500E+01 5.00000E+01 0.00000E+00
 -1        28 1.81500E+01 5.00000E+01 0.00000E+00
 -1        29 2.11500E+01 5.00000E+01 0.00000E+00
 -1        30 2.41500E+01 5.00000E+01 0.00000E+00
 -1        31 2.73000E+01 5.00000E+01 0.00000E+00
 -1        32 3.03000E+01 5.00000E+01 0.00000E+00
 -1        33 3.33000E+01 5.00000E+01 0.00000E+00
 -1        34 3.63000E+01 5.00000E+01 0.00000E+00
 -1        35 3.93000E+01 5.00000E+01 0.00000E+00
 -1        36 4.23000E+01 5.00000E+01 0.00000E+00
 -1        37 4.53000E+01 5.00000E+01 0.00000E+00
 -1        38 4.83000E+01 5.00000E+01 0.00000E+00
 -1        39 5.13000E+01 5.00000E+01 0.00000E+00
 -1        40 5.44500E+01 5.00000E+01 0.00000E+00
 -1        41 5.74500E+01 5.00000E+01 0.00000E+00
 -1        42 6.04500E+01 5.00000E+01 0.00000E+00
 -1        43 6.34500E+01 5.00000E+01 0.00000E+00
 -1        44 6.64500E+01 5.00000E+01 0.00000E+00
 -1        45 6.94500E+01 5.00000E+01 0.00000E+00
 -1        46 7.24500E+01 5.00000E+01 0.00000E+00
 -1        47 7.54500E+01 5.00000E+01 0.00000E+00
 -1        48 7.84500E+01 5.00000E+01 0.00000E+00
 -1        49 8.16000E+01 5.00000E+01 0.00000E+00
 -1        50 8.46000E+01 5.00000E+01 0.00000E+00
 -1        51 8.76000E+01 5.00000E+01 0.00000E+00
 -1        52 9.06000E+01 5.00000E+01 0.00000E+00
 -1        53 9.36000E+01 5.00000E+01 0.00000E+00
 -1        54 9.66000E+01 5.00000E+01 0.00000E+00
 -1        55 9.96000E+01 5.00000E+01 0.00000E+00
 -1        56 1.02600E+02 5.00000E+01 0.00000E+00
 -1        57 1.05450E+02 5.00000E+01 0.00000E+00
 -1        58 1.08150E+02 5.00000E+01 0.00000E+00
 -1        59 1.10850E+02 5.00000E+01 0.00000E+00
 -1        60 1.13850E+02 5.00000E+01 0.00000E+00
 -1        61 1.16850E+02 5.00000E+01 0.00000E+00
 -1        62 1.19850E+02 5.00000E+01 0.00000E+00
 -1        63 1.22850E+02 5.00000E+01 0.00000E+00
 -1        64 1.26000E+02 5.00000E+01 0.00000E+00
 -1        65 1.29000E+02 5.00000E+01 0.00000E+00
 -1        66 1.32000E+02 5.00000E+01 0.00000E+00
 -1        67 1.35000E+02 5.00000E+01 0.00000E+00
 -1        68 1.38000E+02 5.00000E+01 0.00000E+00
 -1        69 1.41000E+02 5.00000E+01 0.00000E+00
 -1        70 1.44000E+02 5.00000E+01 0.00000E+00
 -1        71 1.47000E+02 5.00000E+01 0.00000E+00
 -1        72 3.15000E+00 0.00000E+00 0.00000E+00
 -1        73 6.15000E+00 0.00000E+00 0.00000E+00
 -1        74 9.15000E+00 0.00000E+00 0.00000E+00
 -1        75 1.21500E+01 0.00000E+00 0.00000E+00
 -1        76 1.51500E+01 0.00000E+00 0.00000E+00
 -1        77 1.81500E+01 0.00000E+00 0.00000E+00
 -1        78 2.11500E+01 0.00000E+00 0.00000E+00
 -1        79 2.41500E+01 0.00000E+00 0.00000E+00
 -1        80 2.71500E+01 0.00000E+00 0.00000E+00
 -1        81 3.01500E+01 0.00000E+00 0.00000E+00
 -1        82 3.31500E+01 0.00000E+00 0.00000E+00
 -1        83 3.61500E+01 0.00000E+00 0.00000E+00
 -1        84 3.91500E+01 0.00000E+00 0.00000E+00
 -1        85 4.21500E+01 0.00000E+00 0.00000E+00
 -1        86 4.51500E+01 0.00000E+00 0.00000E+00
 -1        87 4.81500E+01 0.00000E+00 0.00000E+00
 -1        88 5.11500E+01 0.00000E+00 0.00000E+00
 -1        89 5.41500E+01 0.00000E+00 0.00000E+00
 -1        90 5.71500E+01 0.00000E+00 0.00000E+00
 -1        91 6.01500E+01 0.00000E+00 0.00000E+00
 -1        92 6.31500E+01 0.00000E+00 0.00000E+00
 -1        93 6.61500E+01 0.00000E+00 0.00000E+00
 -1        94 6.91500E+01 0.00000E+00 0.00000E+00
 -1        95 7.21500E+01 0.00000E+00 0.00000E+00
 -1        96 7.51500E+01 0.00000E+00 0.00000E+00
 -1        97 7.81500E+01 0.00000E+00 0.00000E+00
 -1        98 8.11500E+01 0.00000E+00 0.00000E+00
 -1        99 8.41500E+01 0.00000E+00 0.00000E+00
 -1       100 8.71500E+01 0.00000E+00 0.00000E+00
 -1       101 9.01500E+01 0.00000E+00 0.00000E+00
 -1       102 9.31500E+01 0.00000E+00 0.00000E+00
 -1       103 9.61500E+01 0.00000E+00 0.00000E+00
 -1       104 9.91500E+01 0.00000E+00 0.00000E+00
 -1       105 1.02150E+02 0.00000E+00 0.00000E+00
 -1       106 1.05150E+02 0.00000E+00 0.00000E+00
 -1       107 1.08150E+02 0.00000E+00 0.00000E+00
 -1       108 1.11150E+02 0.00000E+00 0.00000E+00
 -1       109 1.14150E+02 0.00000E+00 0.00000E+00
 -1       110 1.17150E+02 0.00000E+00 0.00000E+00
 -1       111 1.20150E+02 0.00000E+00 0.00000E+00
 -1       112 1.23150E+02 0.00000E+00 0.00000E+00
 -1       113 1.26150E+02 0.00000E+00 0.00000E+00
 -1       114 1.29150E+02 0.00000E+00 0.00000E+00
 -1       115 1.32150E+02 0.00000E+00 0.00000E+00
 -1       116 1.35150E+02 0.00000E+00 0.00000E+00
 -1       117 1.38150E+02 0.00000E+00 0.00000E+00
 -1       118 1.41150E+02 0.00000E+00 0.00000E+00
 -1       119 1.44150E+02 0.00000E+00 0.00000E+00
 -1       120 1.47150E+02 0.00000E+00 0.00000E+00
 -1       121 1.50000E+02 2.95000E+00 0.00000E+00
 -1       122 1.50000E+02 5.90000E+00 0.00000E+00
 -1       123 1.50000E+02 8.85000E+00 0.00000E+00
 -1       124 1.50000E+02 1.18000E+01 0.00000E+00
 -1       125 1.50000E+02 1.47500E+01 0.00000E+00
 -1       126 1.50000E+02 1.76500E+01 0.00000E+00
 -1       127 1.50000E+02 2.06000E+01 0.00000E+00
 -1       128 1.50000E+02 2.35500E+01 0.00000E+00
 -1       129 1.50000E+02 2.65000E+01 0.00000E+00
 -1       130 1.50000E+02 2.94500E+01 0.00000E+00
 -1       131 1.50000E+02 3.24000E+01 0.00000E+00
 -1       132 1.50000E+02 3.53000E+01 0.00000E+00
 -1       133 1.50000E+02 3.82500E+01 0.00000E+00
 -1       134 1.50000E+02 4.12000E+01 0.00000E+00
 -1       135 1.50000E+02 4.41500E+01 0.00000E+00
 -1       136 1.50000E+02 4.71000E+01 0.00000E+00
 -1       137 1.18065E+02 3.24788E+01 0.00000E+00
 -1       138 1.17569E+02 3.10841E+01 0.00000E+00
 -1       139 1.16728E+02 2.97448E+01 0.00000E+00
 -1       140 1.15733E+02 2.87302E+01 0.00000E+00
 -1       141 1.14460E+02 2.78883E+01 0.00000E+00
 -1       142 1.13076E+02 2.73529E+01 0.00000E+00
 -1       143 1.11657E+02 2.71241E+01 0.00000E+00
 -1       144 1.10086E+02 2.72116E+01 0.00000E+00
 -1       145 1.08693E+02 2.75995E+01 0.00000E+00
 -1       146 1.07330E+02 2.83186E+01 0.00000E+00
 -1       147 1.06232E+02 2.92403E+01 0.00000E+00
 -1       148 1.05293E+02 3.04489E+01 0.00000E+00
 -1       149 1.04637E+02 3.18400E+01 0.00000E+00
 -1       150 1.04297E+02 3.33747E+01 0.00000E+00
 -1       151 1.04296E+02 3.48422E+01 0.00000E+00
 -1       152 1.04625E+02 3.63491E+01 0.00000E+00
 -1       153 1.05338E+02 3.78478E+01 0.00000E+00
 -1       154 1.06271E+02 3.90254E+01 0.00000E+00
 -1       155 1.07440E+02 3.99797E+01 0.00000E+00
 -1       156 1.08758E+02 4.06513E+01 0.00000E+00
 -1       157 1.10281E+02 4.10442E+01 0.00000E+00
 -1       158 1.13270E+02 4.08173E+01 0.00000E+00
 -1       159 1.14621E+02 4.02521E+01 0.00000E+00
 -1       160 1.15849E+02 3.93967E+01 0.00000E+00
 -1       161 1.16867E+02 3.83006E+01 0.00000E+00
 -1       162 1.17604E+02 3.70664E+01 0.00000E+00
 -1       163 1.18089E+02 3.56395E+01 0.00000E+00
 -1       164 2.59800E+00 4.55750E+01 0.00000E+00
 -1       165 2.59800E+00 4.26250E+01 0.00000E+00
 -1       166 2.59800E+00 3.96750E+01 0.00000E+00
 -1       167 2.59800E+00 3.67250E+01 0.00000E+00
 -1       168 2.59800E+00 3.38250E+01 0.00000E+00
 -1       169 2.59800E+00 3.08750E+01 0.00000E+00
 -1       170 2.59800E+00 2.79250E+01 0.00000E+00
 -1       171 2.59800E+00 2.49750E+01 0.00000E+00
 -1       172 2.59800E+00 2.20250E+01 0.00000E+00
 -1       173 2.59800E+00 1.90750E+01 0.00000E+00
 -1       174 2.59800E+00 1.61750E+01 0.00000E+00
 -1       175 2.59800E+00 1.32250E+01 0.00000E+00
 -1       176 2.59800E+00 1.02750E+01 0.00000E+00
 -1       177 2.59800E+00 7.32500E+00 0.00000E+00
 -1       178 2.59800E+00 4.37500E+00 0.00000E+00
 -1       179 2.87400E+00 2.18750E+00 0.00000E+00
 -1       180 4.65000E+00 4.74020E+01 0.00000E+00
 -1       181 7.65000E+00 4.74020E+01 0.00000E+00
 -1       182 1.06500E+01 4.74020E+01 0.00000E+00
 -1       183 1.36500E+01 4.74020E+01 0.00000E+00
 -1       184 1.66500E+01 4.74020E+01 0.00000E+00
 -1       185 1.96500E+01 4.74020E+01 0.00000E+00
 -1       186 2.26500E+01 4.74020E+01 0.00000E+00
 -1       187 2.58000E+01 4.74020E+01 0.00000E+00
 -1       188 2.88000E+01 4.74020E+01 0.00000E+00
 -1       189 3.18000E+01 4.74020E+01 0.00000E+00
 -1       190 3.48000E+01 4.74020E+01 0.00000E+00
 -1       191 3.78000E+01 4.74020E+01 0.00000E+00
 -1       192 4.08000E+01 4.74020E+01 0.00000E+00
 -1       193 4.38000E+01 4.74020E+01 0.00000E+00
 -1       194 4.68000E+01 4.74020E+01 0.00000E+00
 -1       195 4.98000E+01 4.74020E+01 0.00000E+00
 -1       196 5.29500E+01 4.74020E+01 0.00000E+00
 -1       197 5.59500E+01 4.74020E+01 0.00000E+00
 -1       198 5.89500E+01 4.74020E+01 0.00000E+00
 -1       199 6.19500E+01 4.74020E+01 0.00000E+00
 -1       200 6.49500E+01 4.74020E+01 0.00000E+00
 -1       201 6.79500E+01 4.74020E+01 0.00000E+00
 -1       202 7.09500E+01 4.74020E+01 0.00000E+00
 -1       203 7.39500E+01 4.74020E+01 0.00000E+00
 -1       204 7.69500E+01 4.74020E+01 0.00000E+00
 -1       205 8.01000E+01 4.74020E+01 0.00000E+00
 -1       206 8.31000E+01 4.74020E+01 0.00000E+00
 -1       207 8.61000E+01 4.74020E+01 0.00000E+00
 -1       208 8.91000E+01 4.74020E+01 0.00000E+00
 -1       209 9.21000E+01 4.74020E+01 0.00000E+00
 -1       210 9.51000E+01 4.74020E+01 0.00000E+00
 -1       211 9.81000E+01 4.74020E+01 0.00000E+00
 -1       212 1.01100E+02 4.74020E+01 0.00000E+00
 -1       213 1.03950E+02 4.74020E+01 0.00000E+00
 -1       214 1.06650E+02 4.74020E+01 0.00000E+00
 -1       215 1.09350E+02 4.74020E+01 0.00000E+00
 -1       216 1.12350E+02 4.74020E+01 0.00000E+00
 -1       217 1.15350E+02 4.74020E+01 0.00000E+00
 -1       218 1.18350E+02 4.74020E+01 0.00000E+00
 -1       219 1.21350E+02 4.74020E+01 0.00000E+00
 -1       220 1.24500E+02 4.74020E+01 0.00000E+00
 -1       221 1.27500E+02 4.74020E+01 0.00000E+00
 -1       222 1.30500E+02 4.74020E+01 0.00000E+00
 -1       223 1.33500E+02 4.74020E+01 0.00000E+00
 -1       224 1.36500E+02 4.74020E+01 0.00000E+00
 -1       225 1.39500E+02 4.74020E+01 0.00000E+00
 -1       226 1.42500E+02 4.74020E+01 0.00000E+00
 -1       227 1.45500E+02 4.74020E+01 0.00000E+00
 -1       228 1.47750E+02 4.72510E+01 0.00000E+00
 -1       229 5.87400E+00 2.18750E+00 0.00000E+00
 -1       230 8.87400E+00 2.18750E+00 0.00000E+00
 -1       231 1.18740E+01 2.18750E+00 0.00000E+00
 -1       232 1.48740E+01 2.18750E+00 0.00000E+00
 -1       233 1.78740E+01 2.18750E+00 0.00000E+00
 -1       234 2.08740E+01 2.18750E+00 0.00000E+00
 -1       235 2.38740E+01 2.18750E+00 0.00000E+00
 -1       236 2.68740E+01 2.18750E+00 0.00000E+00
 -1       237 2.98740E+01 2.18750E+00 0.00000E+00
 -1       238 3.28740E+01 2.18750E+00 0.00000E+00
 -1       239 3.58740E+01 2.18750E+00 0.00000E+00
 -1       240 3.88740E+01 2.18750E+00 0.00000E+00
 -1       241 4.18740E+01 2.18750E+00 0.00000E+00
 -1       242 4.48740E+01 2.18750E+00 0.00000E+00
 -1       243 4.78740E+01 2.18750E+00 0.00000E+00
 -1       244 5.08740E+01 2.18750E+00 0.00000E+00
 -1       245 5.38740E+01 2.18750E+00 0.00000E+00
 -1       246 5.68740E+01 2.18750E+00 0.00000E+00
 -1       247 5.98740E+01 2.18750E+00 0.00000E+00
 -1       248 6.28740E+01 2.18750E+00 0.00000E+00
 -1       249 6.58740E+01 2.18750E+00 0.00000E+00
 -1       250 6.88740E+01 2.18750E+00 0.00000E+00
 -1       251 7.18740E+01 2.18750E+00 0.00000E+00
 -1       252 7.48740E+01 2.18750E+00 0.00000E+00
 -1       253 7.78740E+01 2.18750E+00 0.00000E+00
 -1       254 8.08740E+01 2.18750E+00 0.00000E+00
 -1       255 8.38740E+01 2.18750E+00 0.00000E+00
 -1       256 8.68740E+01 2.18750E+00 0.00000E+00
 -1       257 8.98740E+01 2.18750E+00 0.00000E+00
 -1       258 9.28740E+01 2.18750E+00 0.00000E+00
 -1       259 9.58740E+01 2.18750E+00 0.00000E+00
 -1       260 9.88740E+01 2.18750E+00 0.00000E+00
 -1       261 1.01874E+02 2.18750E+00 0.00000E+00
 -1       262 1.04874E+02 2.18750E+00 0.00000E+00
 -1       263 1.07874E+02 2.18750E+00 0.00000E+00
 -1       264 1.10874E+02 2.18750E+00 0.00000E+00
 -1       265 1.13874E+02 2.18750E+00 0.00000E+00
 -1       266 1.16874E+02 2.18750E+00 0.00000E+00
 -1       267 1.19874E+02 2.18750E+00 0.00000E+00
 -1       268 1.22874E+02 2.18750E+00 0.00000E+00
 -1       269 1.25874E+02 2.18750E+00 0.00000E+00
 -1       270 1.28874E+02 2.18750E+00 0.00000E+00
 -1       271 1.31874E+02 2.18750E+00 0.00000E+00
 -1       272 1.34874E+02 2.18750E+00 0.00000E+00
 -1       273 1.37874E+02 2.18750E+00 0.00000E+00
 -1       274 1.40874E+02 2.18750E+00 0.00000E+00
 -1       275 1.43874E+02 2.18750E+00 0.00000E+00
 -1       276 1.46874E+02 2.18750E+00 0.00000E+00
 -1       277 1.47402E+02 4.42500E+00 0.00000E+00
 -1       278 1.47402E+02 7.37500E+00 0.00000E+00
 -1       279 1.47402E+02 1.03250E+01 0.00000E+00
 -1       280 1.47402E+02 1.32750E+01 0.00000E+00
 -1       281 1.47402E+02 1.61750E+01 0.00000E+00
 -1       282 1.47402E+02 1.91250E+01 0.00000E+00
 -1       283 1.47402E+02 2.20750E+01 0.00000E+00
 -1       284 1.47402E+02 2.50250E+01 0.00000E+00
 -1       285 1.47402E+02 2.79750E+01 0.00000E+00
 -1       286 1.47402E+02 3.09250E+01 0.00000E+00
 -1       287 1.47402E+02 3.38250E+01 0.00000E+00
 -1       288 1.47402E+02 3.67750E+01 0.00000E+00
 -1       289 1.47402E+02 3.97250E+01 0.00000E+00
 -1       290 1.47402E+02 4.26750E+01 0.00000E+00
 -1       291 1.47576E+02 4.49630E+01 0.00000E+00
 -1       292 1.19615E+02 3.31238E+01 0.00000E+00
 -1       293 1.19038E+02 3.13473E+01 0.00000E+00
 -1       294 1.18246E+02 2.97252E+01 0.00000E+00
 -1       295 1.17156E+02 2.83301E+01 0.00000E+00
 -1       296 1.15812E+02 2.72282E+01 0.00000E+00
 -1       297 1.14205E+02 2.64898E+01 0.00000E+00
 -1       298 1.12572E+02 2.59589E+01 0.00000E+00
 -1       299 1.10794E+02 2.57900E+01 0.00000E+00
 -1       300 1.09042E+02 2.61569E+01 0.00000E+00
 -1       301 1.07368E+02 2.67385E+01 0.00000E+00
 -1       302 1.06002E+02 2.78509E+01 0.00000E+00
 -1       303 1.04805E+02 2.91009E+01 0.00000E+00
 -1       304 1.03869E+02 3.06272E+01 0.00000E+00
 -1       305 1.03120E+02 3.23086E+01 0.00000E+00
 -1       306 1.03084E+02 3.41077E+01 0.00000E+00
 -1       307 1.03194E+02 3.58720E+01 0.00000E+00
 -1       308 1.03584E+02 3.77632E+01 0.00000E+00
 -1       309 1.04658E+02 3.93460E+01 0.00000E+00
 -1       310 1.06036E+02 4.05064E+01 0.00000E+00
 -1       311 1.07549E+02 4.13958E+01 0.00000E+00
 -1       312 1.09217E+02 4.20217E+01 0.00000E+00
 -1       313 1.11008E+02 4.24466E+01 0.00000E+00
 -1       314 1.12768E+02 4.21453E+01 0.00000E+00
 -1       315 1.14414E+02 4.16531E+01 0.00000E+00
 -1       316 1.15928E+02 4.08193E+01 0.00000E+00
 -1       317 1.17247E+02 3.96736E+01 0.00000E+00
 -1       318 1.18277E+02 3.83052E+01 0.00000E+00
 -1       319 1.19074E+02 3.67702E+01 0.00000E+00
 -1       320 1.19545E+02 3.50276E+01 0.00000E+00
 -1       321 5.19600E+00 4.11500E+01 0.00000E+00
 -1       322 5.19600E+00 4.41000E+01 0.00000E+00
 -1       323 5.19600E+00 3.52750E+01 0.00000E+00
 -1       324 5.19600E+00 3.23250E+01 0.00000E+00
 -1       325 5.19600E+00 2.93750E+01 0.00000E+00
 -1       326 5.19600E+00 2.64250E+01 0.00000E+00
 -1       327 5.19600E+00 2.34750E+01 0.00000E+00
 -1       328 5.19600E+00 2.05250E+01 0.00000E+00
 -1       329 5.19600E+00 1.76250E+01 0.00000E+00
 -1       330 5.19600E+00 1.46750E+01 0.00000E+00
 -1       331 5.19600E+00 1.17250E+01 0.00000E+00
 -1       332 5.19600E+00 8.77500E+00 0.00000E+00
 -1       333 5.19600E+00 5.82500E+00 0.00000E+00
 -1       334 5.53500E+00 4.00625E+00 0.00000E+00
 -1       335 8.53500E+00 4.00625E+00 0.00000E+00
 -1       336 9.15000E+00 4.48040E+01 0.00000E+00
 -1       337 1.21500E+01 4.48040E+01 0.00000E+00
 -1       338 1.51500E+01 4.48040E+01 0.00000E+00
 -1       339 1.81500E+01 4.48040E+01 0.00000E+00
 -1       340 2.11500E+01 4.48040E+01 0.00000E+00
 -1       341 2.43000E+01 4.48040E+01 0.00000E+00
 -1       342 2.73000E+01 4.48040E+01 0.00000E+00
 -1       343 3.03000E+01 4.48040E+01 0.00000E+00
 -1       344 3.33000E+01 4.48040E+01 0.00000E+00
 -1       345 3.63000E+01 4.48040E+01 0.00000E+00
 -1       346 3.93000E+01 4.48040E+01 0.00000E+00
 -1       347 4.23000E+01 4.48040E+01 0.00000E+00
 -1       348 4.53000E+01 4.48040E+01 0.00000E+00
 -1       349 4.83000E+01 4.48040E+01 0.00000E+00
 -1       350 5.14500E+01 4.48040E+01 0.00000E+00
 -1       351 5.44500E+01 4.48040E+01 0.00000E+00
 -1       352 5.74500E+01 4.48040E+01 0.00000E+00
 -1       353 6.04500E+01 4.48040E+01 0.00000E+00
 -1       354 6.34500E+01 4.48040E+01 0.00000E+00
 -1       355 6.64500E+01 4.48040E+01 0.00000E+00
 -1       356 6.94500E+01 4.48040E+01 0.00000E+00
 -1       357 7.24500E+01 4.48040E+01 0.00000E+00
 -1       358 7.54500E+01 4.48040E+01 0.00000E+00
 -1       359 7.86000E+01 4.48040E+01 0.00000E+00
 -1       360 8.16000E+01 4.48040E+01 0.00000E+00
 -1       361 8.46000E+01 4.48040E+01 0.00000E+00
 -1       362 8.76000E+01 4.48040E+01 0.00000E+00
 -1       363 9.06000E+01 4.48040E+01 0.00000E+00
 -1       364 9.36000E+01 4.48040E+01 0.00000E+00
 -1       365 9.66000E+01 4.48040E+01 0.00000E+00
 -1       366 9.96000E+01 4.48040E+01 0.00000E+00
 -1       367 1.02450E+02 4.48040E+01 0.00000E+00
 -1       368 1.05150E+02 4.48040E+01 0.00000E+00
 -1       369 1.08000E+02 4.55193E+01 0.00000E+00
 -1       370 1.10850E+02 4.51842E+01 0.00000E+00
 -1       371 1.13850E+02 4.51842E+01 0.00000E+00
 -1       372 1.16850E+02 4.50166E+01 0.00000E+00
 -1       373 1.19850E+02 4.50166E+01 0.00000E+00
 -1       374 1.23000E+02 4.50166E+01 0.00000E+00
 -1       375 1.26000E+02 4.50166E+01 0.00000E+00
 -1       376 1.29000E+02 4.50166E+01 0.00000E+00
 -1       377 1.32000E+02 4.50166E+01 0.00000E+00
 -1       378 1.35000E+02 4.50166E+01 0.00000E+00
 -1       379 1.38000E+02 4.50166E+01 0.00000E+00
 -1       380 1.41000E+02 4.50166E+01 0.00000E+00
 -1       381 1.44000E+02 4.50166E+01 0.00000E+00
 -1       382 1.33740E+01 4.78550E+00 0.00000E+00
 -1       383 1.63740E+01 4.78550E+00 0.00000E+00
 -1       384 1.93740E+01 4.78550E+00 0.00000E+00
 -1       385 2.23740E+01 4.78550E+00 0.00000E+00
 -1       386 2.53740E+01 4.78550E+00 0.00000E+00
 -1       387 2.83740E+01 4.78550E+00 0.00000E+00
 -1       388 3.13740E+01 4.78550E+00 0.00000E+00
 -1       389 3.43740E+01 4.78550E+00 0.00000E+00
 -1       390 3.73740E+01 4.78550E+00 0.00000E+00
 -1       391 4.03740E+01 4.78550E+00 0.00000E+00
 -1       392 4.33740E+01 4.78550E+00 0.00000E+00
 -1       393 4.63740E+01 4.78550E+00 0.00000E+00
 -1       394 4.93740E+01 4.78550E+00 0.00000E+00
 -1       395 5.23740E+01 4.78550E+00 0.00000E+00
 -1       396 5.53740E+01 4.78550E+00 0.00000E+00
 -1       397 5.83740E+01 4.78550E+00 0.00000E+00
 -1       398 6.13740E+01 4.78550E+00 0.00000E+00
 -1       399 6.43740E+01 4.78550E+00 0.00000E+00
 -1       400 6.73740E+01 4.78550E+00 0.00000E+00
 -1       401 7.03740E+01 4.78550E+00 0.00000E+00
 -1       402 7.33740E+01 4.78550E+00 0.00000E+00
 -1       403 7.63740E+01 4.78550E+00 0.00000E+00
 -1       404 7.93740E+01 4.78550E+00 0.00000E+00
 -1       405 8.23740E+01 4.78550E+00 0.00000E+00
 -1       406 8.53740E+01 4.78550E+00 0.00000E+00
 -1       407 8.83740E+01 4.78550E+00 0.00000E+00
 -1       408 9.13740E+01 4.78550E+00 0.00000E+00
 -1       409 9.43740E+01 4.78550E+00 0.00000E+00
 -1       410 9.73740E+01 4.78550E+00 0.00000E+00
 -1       411 1.00374E+02 4.78550E+00 0.00000E+00
 -1       412 1.03374E+02 4.78550E+00 0.00000E+00
 -1       413 1.06374E+02 4.78550E+00 0.00000E+00
 -1       414 1.09374E+02 4.78550E+00 0.00000E+00
 -1       415 1.12374E+02 4.78550E+00 0.00000E+00
 -1       416 1.15374E+02 4.78550E+00 0.00000E+00
 -1       417 1.18374E+02 4.78550E+00 0.00000E+00
 -1       418 1.21374E+02 4.78550E+00 0.00000E+00
 -1       419 1.24374E+02 4.78550E+00 0.00000E+00
 -1       420 1.27374E+02 4.78550E+00 0.00000E+00
 -1       421 1.30374E+02 4.78550E+00 0.00000E+00
 -1       422 1.33374E+02 4.78550E+00 0.00000E+00
 -1       423 1.36374E+02 4.78550E+00 0.00000E+00
 -1       424 1.39374E+02 4.78550E+00 0.00000E+00
 -1       425 1.42374E+02 4.78550E+00 0.00000E+00
 -1       426 1.44888E+02 4.60525E+00 0.00000E+00
 -1       427 1.44804E+02 1.18000E+01 0.00000E+00
 -1       428 1.44804E+02 8.85000E+00 0.00000E+00
 -1       429 1.44804E+02 1.47000E+01 0.00000E+00
 -1       430 1.44804E+02 1.76500E+01 0.00000E+00
 -1       431 1.44804E+02 2.06000E+01 0.00000E+00
 -1       432 1.44804E+02 2.35500E+01 0.00000E+00
 -1       433 1.44804E+02 2.65000E+01 0.00000E+00
 -1       434 1.44804E+02 2.94500E+01 0.00000E+00
 -1       435 1.44804E+02 3.23500E+01 0.00000E+00
 -1       436 1.44804E+02 3.53000E+01 0.00000E+00
 -1       437 1.44804E+02 3.82500E+01 0.00000E+00
 -1       438 1.44804E+02 4.12000E+01 0.00000E+00
 -1       439 1.09545E+01 4.39587E+00 0.00000E+00
 -1       440 1.19957E+02 2.98941E+01 0.00000E+00
 -1       441 1.17465E+02 2.65823E+01 0.00000E+00
 -1       442 1.21127E+02 3.41322E+01 0.00000E+00
 -1       443 1.18723E+02 2.82296E+01 0.00000E+00
 -1       444 5.19600E+00 3.82125E+01 0.00000E+00
 -1       445 1.15620E+02 2.55290E+01 0.00000E+00
 -1       446 1.13867E+02 2.47526E+01 0.00000E+00
 -1       447 1.11846E+02 2.41670E+01 0.00000E+00
 -1       448 1.09601E+02 2.44588E+01 0.00000E+00
 -1       449 1.07724E+02 2.50650E+01 0.00000E+00
 -1       450 1.05761E+02 2.61596E+01 0.00000E+00
 -1       451 1.04407E+02 2.75217E+01 0.00000E+00
 -1       452 1.03018E+02 2.90547E+01 0.00000E+00
 -1       453 1.02234E+02 3.09064E+01 0.00000E+00
 -1       454 1.01722E+02 3.31808E+01 0.00000E+00
 -1       455 1.01595E+02 3.50860E+01 0.00000E+00
 -1       456 1.01709E+02 3.71637E+01 0.00000E+00
 -1       457 1.02840E+02 3.94234E+01 0.00000E+00
 -1       458 1.04458E+02 4.09818E+01 0.00000E+00
 -1       459 1.06093E+02 4.21408E+01 0.00000E+00
 -1       460 1.07898E+02 4.30008E+01 0.00000E+00
 -1       461 1.09813E+02 4.34954E+01 0.00000E+00
 -1       462 1.12149E+02 4.38213E+01 0.00000E+00
 -1       463 1.13987E+02 4.32213E+01 0.00000E+00
 -1       464 1.15836E+02 4.24450E+01 0.00000E+00
 -1       465 1.17437E+02 4.12249E+01 0.00000E+00
 -1       466 1.18998E+02 3.99200E+01 0.00000E+00
 -1       467 1.19974E+02 3.82126E+01 0.00000E+00
 -1       468 1.20804E+02 3.63029E+01 0.00000E+00
 -1       469 1.20639E+02 3.18094E+01 0.00000E+00
 -1       470 7.79400E+00 3.08500E+01 0.00000E+00
 -1       471 7.79400E+00 3.38000E+01 0.00000E+00
 -1       472 7.79400E+00 2.49500E+01 0.00000E+00
 -1       473 7.79400E+00 2.20000E+01 0.00000E+00
 -1       474 7.79400E+00 1.91000E+01 0.00000E+00
 -1       475 7.79400E+00 1.61500E+01 0.00000E+00
 -1       476 7.79400E+00 1.32000E+01 0.00000E+00
 -1       477 7.79400E+00 1.02500E+01 0.00000E+00
 -1       478 7.79400E+00 7.30000E+00 0.00000E+00
 -1       479 8.16450E+00 5.65312E+00 0.00000E+00
 -1       480 1.06500E+01 4.22060E+01 0.00000E+00
 -1       481 1.20516E+02 2.81897E+01 0.00000E+00
 -1       482 1.21808E+02 3.78742E+01 0.00000E+00
 -1       483 1.36500E+01 4.22060E+01 0.00000E+00
 -1       484 1.66500E+01 4.22060E+01 0.00000E+00
 -1       485 1.96500E+01 4.22060E+01 0.00000E+00
 -1       486 2.28000E+01 4.22060E+01 0.00000E+00
 -1       487 2.58000E+01 4.22060E+01 0.00000E+00
 -1       488 2.88000E+01 4.22060E+01 0.00000E+00
 -1       489 3.18000E+01 4.22060E+01 0.00000E+00
 -1       490 3.48000E+01 4.22060E+01 0.00000E+00
 -1       491 3.78000E+01 4.22060E+01 0.00000E+00
 -1       492 4.08000E+01 4.22060E+01 0.00000E+00
 -1       493 4.38000E+01 4.22060E+01 0.00000E+00
 -1       494 4.68000E+01 4.22060E+01 0.00000E+00
 -1       495 4.99500E+01 4.22060E+01 0.00000E+00
 -1       496 5.29500E+01 4.22060E+01 0.00000E+00
 -1       497 5.59500E+01 4.22060E+01 0.00000E+00
 -1       498 5.89500E+01 4.22060E+01 0.00000E+00
 -1       499 6.19500E+01 4.22060E+01 0.00000E+00
 -1       500 6.49500E+01 4.22060E+01 0.00000E+00
 -1       501 6.79500E+01 4.22060E+01 0.00000E+00
 -1       502 7.09500E+01 4.22060E+01 0.00000E+00
 -1       503 7.39500E+01 4.22060E+01 0.00000E+00
 -1       504 7.71000E+01 4.22060E+01 0.00000E+00
 -1       505 8.01000E+01 4.22060E+01 0.00000E+00
 -1       506 8.31000E+01 4.22060E+01 0.00000E+00
 -1       507 8.61000E+01 4.22060E+01 0.00000E+00
 -1       508 8.91000E+01 4.22060E+01 0.00000E+00
 -1       509 9.21000E+01 4.22060E+01 0.00000E+00
 -1       510 9.51000E+01 4.22060E+01 0.00000E+00
 -1       511 9.81000E+01 4.22060E+01 0.00000E+00
 -1       512 1.00950E+02 4.22060E+01 0.00000E+00
 -1       513 1.03800E+02 4.29213E+01 0.00000E+00
 -1       514 1.21914E+02 3.02768E+01 0.00000E+00
 -1       515 1.21425E+02 4.27988E+01 0.00000E+00
 -1       516 1.24425E+02 4.27988E+01 0.00000E+00
 -1       517 1.27425E+02 4.27988E+01 0.00000E+00
 -1       518 1.30425E+02 4.27988E+01 0.00000E+00
 -1       519 1.33425E+02 4.27988E+01 0.00000E+00
 -1       520 1.36425E+02 4.27988E+01 0.00000E+00
 -1       521 1.39425E+02 4.27988E+01 0.00000E+00
 -1       522 1.42115E+02 4.19994E+01 0.00000E+00
 -1       523 2.08740E+01 7.38350E+00 0.00000E+00
 -1       524 1.78740E+01 7.38350E+00 0.00000E+00
 -1       525 1.48740E+01 7.38350E+00 0.00000E+00
 -1       526 2.38740E+01 7.38350E+00 0.00000E+00
 -1       527 2.68740E+01 7.38350E+00 0.00000E+00
 -1       528 2.98740E+01 7.38350E+00 0.00000E+00
 -1       529 3.28740E+01 7.38350E+00 0.00000E+00
 -1       530 3.58740E+01 7.38350E+00 0.00000E+00
 -1       531 3.88740E+01 7.38350E+00 0.00000E+00
 -1       532 4.18740E+01 7.38350E+00 0.00000E+00
 -1       533 4.48740E+01 7.38350E+00 0.00000E+00
 -1       534 4.78740E+01 7.38350E+00 0.00000E+00
 -1       535 5.08740E+01 7.38350E+00 0.00000E+00
 -1       536 5.38740E+01 7.38350E+00 0.00000E+00
 -1       537 5.68740E+01 7.38350E+00 0.00000E+00
 -1       538 5.98740E+01 7.38350E+00 0.00000E+00
 -1       539 6.28740E+01 7.38350E+00 0.00000E+00
 -1       540 6.58740E+01 7.38350E+00 0.00000E+00
 -1       541 6.88740E+01 7.38350E+00 0.00000E+00
 -1       542 7.18740E+01 7.38350E+00 0.00000E+00
 -1       543 7.48740E+01 7.38350E+00 0.00000E+00
 -1       544 7.78740E+01 7.38350E+00 0.00000E+00
 -1       545 8.08740E+01 7.38350E+00 0.00000E+00
 -1       546 8.38740E+01 7.38350E+00 0.00000E+00
 -1       547 8.68740E+01 7.38350E+00 0.00000E+00
 -1       548 8.98740E+01 7.38350E+00 0.00000E+00
 -1       549 9.28740E+01 7.38350E+00 0.00000E+00
 -1       550 9.58740E+01 7.38350E+00 0.00000E+00
 -1       551 9.88740E+01 7.38350E+00 0.00000E+00
 -1       552 1.01874E+02 7.38350E+00 0.00000E+00
 -1       553 1.04874E+02 7.38350E+00 0.00000E+00
 -1       554 1.07874E+02 7.38350E+00 0.00000E+00
 -1       555 1.10874E+02 7.38350E+00 0.00000E+00
 -1       556 1.13874E+02 7.38350E+00 0.00000E+00
 -1       557 1.16874E+02 7.38350E+00 0.00000E+00
 -1       558 1.19874E+02 7.38350E+00 0.00000E+00
 -1       559 1.22874E+02 7.38350E+00 0.00000E+00
 -1       560 1.25874E+02 7.38350E+00 0.00000E+00
 -1       561 1.28874E+02 7.38350E+00 0.00000E+00
 -1       562 1.31874E+02 7.38350E+00 0.00000E+00
 -1       563 1.34874E+02 7.38350E+00 0.00000E+00
 -1       564 1.37874E+02 7.38350E+00 0.00000E+00
 -1       565 1.40874E+02 7.38350E+00 0.00000E+00
 -1       566 1.42206E+02 1.61750E+01 0.00000E+00
 -1       567 1.42206E+02 1.32750E+01 0.00000E+00
 -1       568 1.42206E+02 1.03250E+01 0.00000E+00
 -1       569 1.22402E+02 3.25996E+01 0.00000E+00
 -1       570 1.42206E+02 1.91250E+01 0.00000E+00
 -1       571 1.42206E+02 2.20750E+01 0.00000E+00
 -1       572 1.42206E+02 2.50250E+01 0.00000E+00
 -1       573 1.42206E+02 2.79750E+01 0.00000E+00
 -1       574 1.42206E+02 3.08750E+01 0.00000E+00
 -1       575 1.42206E+02 3.38250E+01 0.00000E+00
 -1       576 1.42206E+02 3.67750E+01 0.00000E+00
 -1       577 1.42160E+02 3.93872E+01 0.00000E+00
 -1       578 1.19293E+02 4.18580E+01 0.00000E+00
 -1       579 7.92300E+00 4.16780E+01 0.00000E+00
 -1       580 1.17393E+02 2.45661E+01 0.00000E+00
 -1       581 1.18350E+02 4.31339E+01 0.00000E+00
 -1       582 7.79400E+00 2.79000E+01 0.00000E+00
 -1       583 1.13334E+02 2.28124E+01 0.00000E+00
 -1       584 1.15370E+02 2.37259E+01 0.00000E+00
 -1       585 1.10524E+02 2.27783E+01 0.00000E+00
 -1       586 1.08084E+02 2.29704E+01 0.00000E+00
 -1       587 1.05908E+02 2.41142E+01 0.00000E+00
 -1       588 1.03867E+02 2.56315E+01 0.00000E+00
 -1       589 1.02479E+02 2.71645E+01 0.00000E+00
 -1       590 1.01201E+02 2.93770E+01 0.00000E+00
 -1       591 1.00305E+02 3.16673E+01 0.00000E+00
 -1       592 1.00198E+02 3.40355E+01 0.00000E+00
 -1       593 9.99393E+01 3.62193E+01 0.00000E+00
 -1       594 1.00741E+02 3.90612E+01 0.00000E+00
 -1       595 1.02575E+02 4.13171E+01 0.00000E+00
 -1       596 1.19457E+02 2.63653E+01 0.00000E+00
 -1       597 1.20975E+02 3.99175E+01 0.00000E+00
 -1       598 1.22330E+02 3.54206E+01 0.00000E+00
 -1       599 7.79400E+00 3.67375E+01 0.00000E+00
 -1       600 1.05840E+01 6.04275E+00 0.00000E+00
 -1       601 1.23605E+02 3.38880E+01 0.00000E+00
 -1       602 1.27290E+01 6.71313E+00 0.00000E+00
 -1       603 1.07080E+02 4.39889E+01 0.00000E+00
 -1       604 9.89710E+01 3.81168E+01 0.00000E+00
 -1       605 1.12012E+02 2.14237E+01 0.00000E+00
 -1       606 1.15510E+02 4.42601E+01 0.00000E+00
 -1       607 1.03920E+01 2.05500E+01 0.00000E+00
 -1       608 1.03920E+01 2.35000E+01 0.00000E+00
 -1       609 1.03920E+01 1.46750E+01 0.00000E+00
 -1       610 1.03920E+01 1.17250E+01 0.00000E+00
 -1       611 1.02135E+01 7.68962E+00 0.00000E+00
 -1       612 1.51500E+01 3.96080E+01 0.00000E+00
 -1       613 1.81500E+01 3.96080E+01 0.00000E+00
 -1       614 2.13000E+01 3.96080E+01 0.00000E+00
 -1       615 2.43000E+01 3.96080E+01 0.00000E+00
 -1       616 2.73000E+01 3.96080E+01 0.00000E+00
 -1       617 3.03000E+01 3.96080E+01 0.00000E+00
 -1       618 3.33000E+01 3.96080E+01 0.00000E+00
 -1       619 3.63000E+01 3.96080E+01 0.00000E+00
 -1       620 3.93000E+01 3.96080E+01 0.00000E+00
 -1       621 4.23000E+01 3.96080E+01 0.00000E+00
 -1       622 4.53000E+01 3.96080E+01 0.00000E+00
 -1       623 4.84500E+01 3.96080E+01 0.00000E+00
 -1       624 5.14500E+01 3.96080E+01 0.00000E+00
 -1       625 5.44500E+01 3.96080E+01 0.00000E+00
 -1       626 5.74500E+01 3.96080E+01 0.00000E+00
 -1       627 6.04500E+01 3.96080E+01 0.00000E+00
 -1       628 6.34500E+01 3.96080E+01 0.00000E+00
 -1       629 6.64500E+01 3.96080E+01 0.00000E+00
 -1       630 6.94500E+01 3.96080E+01 0.00000E+00
 -1       631 7.24500E+01 3.96080E+01 0.00000E+00
 -1       632 7.56000E+01 3.96080E+01 0.00000E+00
 -1       633 7.86000E+01 3.96080E+01 0.00000E+00
 -1       634 8.16000E+01 3.96080E+01 0.00000E+00
 -1       635 8.46000E+01 3.96080E+01 0.00000E+00
 -1       636 8.76000E+01 3.96080E+01 0.00000E+00
 -1       637 9.06000E+01 3.96080E+01 0.00000E+00
 -1       638 9.36000E+01 3.96080E+01 0.00000E+00
 -1       639 9.66000E+01 3.96080E+01 0.00000E+00
 -1       640 9.95250E+01 4.01557E+01 0.00000E+00
 -1       641 1.23135E+02 3.96067E+01 0.00000E+00
 -1       642 1.39206E+02 1.03250E+01 0.00000E+00
 -1       643 1.25925E+02 4.04134E+01 0.00000E+00
 -1       644 1.28925E+02 4.04134E+01 0.00000E+00
 -1       645 1.31925E+02 4.04134E+01 0.00000E+00
 -1       646 1.34925E+02 4.04134E+01 0.00000E+00
 -1       647 1.37925E+02 4.04134E+01 0.00000E+00
 -1       648 1.40043E+02 3.99003E+01 0.00000E+00
 -1       649 1.93740E+01 9.98150E+00 0.00000E+00
 -1       650 2.23740E+01 9.98150E+00 0.00000E+00
 -1       651 1.63740E+01 9.98150E+00 0.00000E+00
 -1       652 2.83740E+01 9.98150E+00 0.00000E+00
 -1       653 3.13740E+01 9.98150E+00 0.00000E+00
 -1       654 3.43740E+01 9.98150E+00 0.00000E+00
 -1       655 3.73740E+01 9.98150E+00 0.00000E+00
 -1       656 4.03740E+01 9.98150E+00 0.00000E+00
 -1       657 4.33740E+01 9.98150E+00 0.00000E+00
 -1       658 4.63740E+01 9.98150E+00 0.00000E+00
 -1       659 4.93740E+01 9.98150E+00 0.00000E+00
 -1       660 5.23740E+01 9.98150E+00 0.00000E+00
 -1       661 5.53740E+01 9.98150E+00 0.00000E+00
 -1       662 5.83740E+01 9.98150E+00 0.00000E+00
 -1       663 6.13740E+01 9.98150E+00 0.00000E+00
 -1       664 6.43740E+01 9.98150E+00 0.00000E+00
 -1       665 6.73740E+01 9.98150E+00 0.00000E+00
 -1       666 7.03740E+01 9.98150E+00 0.00000E+00
 -1       667 7.33740E+01 9.98150E+00 0.00000E+00
 -1       668 7.63740E+01 9.98150E+00 0.00000E+00
 -1       669 7.93740E+01 9.98150E+00 0.00000E+00
 -1       670 8.23740E+01 9.98150E+00 0.00000E+00
 -1       671 8.53740E+01 9.98150E+00 0.00000E+00
 -1       672 8.83740E+01 9.98150E+00 0.00000E+00
 -1       673 9.13740E+01 9.98150E+00 0.00000E+00
 -1       674 9.43740E+01 9.98150E+00 0.00000E+00
 -1       675 9.73740E+01 9.98150E+00 0.00000E+00
 -1       676 1.00374E+02 9.98150E+00 0.00000E+00
 -1       677 1.03374E+02 9.98150E+00 0.00000E+00
 -1       678 1.06374E+02 9.98150E+00 0.00000E+00
 -1       679 1.09374E+02 9.98150E+00 0.00000E+00
 -1       680 1.12374E+02 9.98150E+00 0.00000E+00
 -1       681 1.15374E+02 9.98150E+00 0.00000E+00
 -1       682 1.18374E+02 9.98150E+00 0.00000E+00
 -1       683 1.21374E+02 9.98150E+00 0.00000E+00
 -1       684 1.24374E+02 9.98150E+00 0.00000E+00
 -1       685 1.27374E+02 9.98150E+00 0.00000E+00
 -1       686 1.30374E+02 9.98150E+00 0.00000E+00
 -1       687 1.33374E+02 9.98150E+00 0.00000E+00
 -1       688 1.36290E+02 1.01532E+01 0.00000E+00
 -1       689 1.39608E+02 1.47250E+01 0.00000E+00
 -1       690 1.39608E+02 2.06000E+01 0.00000E+00
 -1       691 1.24000E+02 3.10514E+01 0.00000E+00
 -1       692 1.39608E+02 2.35500E+01 0.00000E+00
 -1       693 1.39608E+02 2.65000E+01 0.00000E+00
 -1       694 1.39608E+02 2.94000E+01 0.00000E+00
 -1       695 1.39608E+02 3.23500E+01 0.00000E+00
 -1       696 1.39608E+02 3.53000E+01 0.00000E+00
 -1       697 1.23665E+02 3.69867E+01 0.00000E+00
 -1       698 9.78035E+00 3.93914E+01 0.00000E+00
 -1       699 1.03564E+02 2.30932E+01 0.00000E+00
 -1       700 1.19882E+02 2.37938E+01 0.00000E+00
 -1       701 1.24652E+01 3.94997E+01 0.00000E+00
 -1       702 1.03920E+01 1.76125E+01 0.00000E+00
 -1       703 1.21615E+02 2.63328E+01 0.00000E+00
 -1       704 2.53740E+01 9.98150E+00 0.00000E+00
 -1       705 1.39608E+02 1.76625E+01 0.00000E+00
 -1       706 1.03920E+01 3.23250E+01 0.00000E+00
 -1       707 1.23013E+02 2.84198E+01 0.00000E+00
 -1       708 9.89995E+01 2.98361E+01 0.00000E+00
 -1       709 1.15054E+02 2.17042E+01 0.00000E+00
 -1       710 1.09143E+02 2.08304E+01 0.00000E+00
 -1       711 1.06120E+02 2.18757E+01 0.00000E+00
 -1       712 1.01778E+02 2.51341E+01 0.00000E+00
 -1       713 1.00427E+02 2.74549E+01 0.00000E+00
 -1       714 9.82031E+01 3.27591E+01 0.00000E+00
 -1       715 9.79445E+01 3.49429E+01 0.00000E+00
 -1       716 1.17076E+02 2.25445E+01 0.00000E+00
 -1       717 1.03920E+01 2.64500E+01 0.00000E+00
 -1       718 9.69762E+01 3.68403E+01 0.00000E+00
 -1       719 1.25204E+02 3.23398E+01 0.00000E+00
 -1       720 1.03920E+01 3.52625E+01 0.00000E+00
 -1       721 1.24940E+02 3.54541E+01 0.00000E+00
 -1       722 1.39825E+02 3.76001E+01 0.00000E+00
 -1       723 1.33741E+01 9.98153E+00 0.00000E+00
 -1       724 1.13732E+02 2.03155E+01 0.00000E+00
 -1       725 1.03920E+01 2.93875E+01 0.00000E+00
 -1       726 1.29900E+01 1.32000E+01 0.00000E+00
 -1       727 1.97250E+01 3.70100E+01 0.00000E+00
 -1       728 2.27250E+01 3.70100E+01 0.00000E+00
 -1       729 2.57250E+01 3.70100E+01 0.00000E+00
 -1       730 2.87250E+01 3.70100E+01 0.00000E+00
 -1       731 3.17250E+01 3.70100E+01 0.00000E+00
 -1       732 3.47250E+01 3.70100E+01 0.00000E+00
 -1       733 3.77250E+01 3.70100E+01 0.00000E+00
 -1       734 4.07250E+01 3.70100E+01 0.00000E+00
 -1       735 4.37250E+01 3.70100E+01 0.00000E+00
 -1       736 4.68750E+01 3.70100E+01 0.00000E+00
 -1       737 4.98750E+01 3.70100E+01 0.00000E+00
 -1       738 5.28750E+01 3.70100E+01 0.00000E+00
 -1       739 5.58750E+01 3.70100E+01 0.00000E+00
 -1       740 5.88750E+01 3.70100E+01 0.00000E+00
 -1       741 6.18750E+01 3.70100E+01 0.00000E+00
 -1       742 6.48750E+01 3.70100E+01 0.00000E+00
 -1       743 6.78750E+01 3.70100E+01 0.00000E+00
 -1       744 7.08750E+01 3.70100E+01 0.00000E+00
 -1       745 7.40250E+01 3.70100E+01 0.00000E+00
 -1       746 7.70250E+01 3.70100E+01 0.00000E+00
 -1       747 8.00250E+01 3.70100E+01 0.00000E+00
 -1       748 8.30250E+01 3.70100E+01 0.00000E+00
 -1       749 8.60250E+01 3.70100E+01 0.00000E+00
 -1       750 8.90250E+01 3.70100E+01 0.00000E+00
 -1       751 9.20250E+01 3.70100E+01 0.00000E+00
 -1       752 1.27425E+02 3.78154E+01 0.00000E+00
 -1       753 1.30425E+02 3.78154E+01 0.00000E+00
 -1       754 1.33425E+02 3.78154E+01 0.00000E+00
 -1       755 1.36425E+02 3.78154E+01 0.00000E+00
 -1       756 2.08740E+01 1.25795E+01 0.00000E+00
 -1       757 1.78740E+01 1.25795E+01 0.00000E+00
 -1       758 3.28740E+01 1.25795E+01 0.00000E+00
 -1       759 2.98740E+01 1.25795E+01 0.00000E+00
 -1       760 3.88740E+01 1.25795E+01 0.00000E+00
 -1       761 4.18740E+01 1.25795E+01 0.00000E+00
 -1       762 4.48740E+01 1.25795E+01 0.00000E+00
 -1       763 4.78740E+01 1.25795E+01 0.00000E+00
 -1       764 5.08740E+01 1.25795E+01 0.00000E+00
 -1       765 5.38740E+01 1.25795E+01 0.00000E+00
 -1       766 5.68740E+01 1.25795E+01 0.00000E+00
 -1       767 5.98740E+01 1.25795E+01 0.00000E+00
 -1       768 6.28740E+01 1.25795E+01 0.00000E+00
 -1       769 6.58740E+01 1.25795E+01 0.00000E+00
 -1       770 6.88740E+01 1.25795E+01 0.00000E+00
 -1       771 7.18740E+01 1.25795E+01 0.00000E+00
 -1       772 7.48740E+01 1.25795E+01 0.00000E+00
 -1       773 7.78740E+01 1.25795E+01 0.00000E+00
 -1       774 8.08740E+01 1.25795E+01 0.00000E+00
 -1       775 8.38740E+01 1.25795E+01 0.00000E+00
 -1       776 8.68740E+01 1.25795E+01 0.00000E+00
 -1       777 8.98740E+01 1.25795E+01 0.00000E+00
 -1       778 9.28740E+01 1.25795E+01 0.00000E+00
 -1       779 9.58740E+01 1.25795E+01 0.00000E+00
 -1       780 9.88740E+01 1.25795E+01 0.00000E+00
 -1       781 1.01874E+02 1.25795E+01 0.00000E+00
 -1       782 1.04874E+02 1.25795E+01 0.00000E+00
 -1       783 1.07874E+02 1.25795E+01 0.00000E+00
 -1       784 1.10874E+02 1.25795E+01 0.00000E+00
 -1       785 1.13874E+02 1.25795E+01 0.00000E+00
 -1       786 1.16874E+02 1.25795E+01 0.00000E+00
 -1       787 1.19874E+02 1.25795E+01 0.00000E+00
 -1       788 1.22874E+02 1.25795E+01 0.00000E+00
 -1       789 1.25874E+02 1.25795E+01 0.00000E+00
 -1       790 1.28874E+02 1.25795E+01 0.00000E+00
 -1       791 1.31874E+02 1.25795E+01 0.00000E+00
 -1       792 1.37010E+02 2.50250E+01 0.00000E+00
 -1       793 1.25897E+02 2.88390E+01 0.00000E+00
 -1       794 1.25545E+02 3.74010E+01 0.00000E+00
 -1       795 1.37010E+02 2.20750E+01 0.00000E+00
 -1       796 1.37010E+02 3.08750E+01 0.00000E+00
 -1       797 1.37010E+02 3.38250E+01 0.00000E+00
 -1       798 1.36692E+02 1.45533E+01 0.00000E+00
 -1       799 1.11027E+02 1.89552E+01 0.00000E+00
 -1       800 1.03816E+02 2.03309E+01 0.00000E+00
 -1       801 1.01002E+02 2.26529E+01 0.00000E+00
 -1       802 1.37010E+02 2.79500E+01 0.00000E+00
 -1       803 3.58740E+01 1.25795E+01 0.00000E+00
 -1       804 1.67250E+01 3.70100E+01 0.00000E+00
 -1       805 1.22719E+02 2.37186E+01 0.00000E+00
 -1       806 1.24117E+02 2.58057E+01 0.00000E+00
 -1       807 9.80986E+01 2.76775E+01 0.00000E+00
 -1       808 1.29900E+01 2.20250E+01 0.00000E+00
 -1       809 9.62998E+01 3.06705E+01 0.00000E+00
 -1       810 1.19313E+02 2.12961E+01 0.00000E+00
 -1       811 1.06907E+02 1.92570E+01 0.00000E+00
 -1       812 9.63706E+01 3.36493E+01 0.00000E+00
 -1       813 9.93302E+01 2.52633E+01 0.00000E+00
 -1       814 1.17291E+02 2.04559E+01 0.00000E+00
 -1       815 9.54023E+01 3.55467E+01 0.00000E+00
 -1       816 1.29900E+01 1.61375E+01 0.00000E+00
 -1       817 9.51000E+01 3.70100E+01 0.00000E+00
 -1       818 1.27101E+02 3.01275E+01 0.00000E+00
 -1       819 2.38740E+01 1.25795E+01 0.00000E+00
 -1       820 1.38125E+02 3.77078E+01 0.00000E+00
 -1       821 1.37010E+02 1.91375E+01 0.00000E+00
 -1       822 1.40402E+01 3.69017E+01 0.00000E+00
 -1       823 2.68740E+01 1.25795E+01 0.00000E+00
 -1       824 1.34283E+02 1.35664E+01 0.00000E+00
 -1       825 1.36851E+02 1.68454E+01 0.00000E+00
 -1       826 1.26539E+02 3.39059E+01 0.00000E+00
 -1       827 1.29900E+01 1.90812E+01 0.00000E+00
 -1       828 1.29900E+01 3.37938E+01 0.00000E+00
 -1       829 1.08790E+02 1.73818E+01 0.00000E+00
 -1       830 1.15969E+02 1.90671E+01 0.00000E+00
 -1       831 1.22150E+02 2.12210E+01 0.00000E+00
 -1       832 1.29900E+01 2.49750E+01 0.00000E+00
 -1       833 1.29900E+01 3.08563E+01 0.00000E+00
 -1       834 1.36717E+02 3.58202E+01 0.00000E+00
 -1       835 1.27248E+02 2.60075E+01 0.00000E+00
 -1       836 1.82250E+01 3.44120E+01 0.00000E+00
 -1       837 2.42250E+01 3.44120E+01 0.00000E+00
 -1       838 2.72250E+01 3.44120E+01 0.00000E+00
 -1       839 3.02250E+01 3.44120E+01 0.00000E+00
 -1       840 3.32250E+01 3.44120E+01 0.00000E+00
 -1       841 3.62250E+01 3.44120E+01 0.00000E+00
 -1       842 3.92250E+01 3.44120E+01 0.00000E+00
 -1       843 4.22250E+01 3.44120E+01 0.00000E+00
 -1       844 4.53750E+01 3.44120E+01 0.00000E+00
 -1       845 4.83750E+01 3.44120E+01 0.00000E+00
 -1       846 5.13750E+01 3.44120E+01 0.00000E+00
 -1       847 5.43750E+01 3.44120E+01 0.00000E+00
 -1       848 5.73750E+01 3.44120E+01 0.00000E+00
 -1       849 6.03750E+01 3.44120E+01 0.00000E+00
 -1       850 6.33750E+01 3.44120E+01 0.00000E+00
 -1       851 6.63750E+01 3.44120E+01 0.00000E+00
 -1       852 6.93750E+01 3.44120E+01 0.00000E+00
 -1       853 7.25250E+01 3.44120E+01 0.00000E+00
 -1       854 7.55250E+01 3.44120E+01 0.00000E+00
 -1       855 7.85250E+01 3.44120E+01 0.00000E+00
 -1       856 8.15250E+01 3.44120E+01 0.00000E+00
 -1       857 8.45250E+01 3.44120E+01 0.00000E+00
 -1       858 8.75250E+01 3.44120E+01 0.00000E+00
 -1       859 9.05250E+01 3.44120E+01 0.00000E+00
 -1       860 1.34412E+02 2.35500E+01 0.00000E+00
 -1       861 9.42855E+01 3.22086E+01 0.00000E+00
 -1       862 9.81572E+01 2.26718E+01 0.00000E+00
 -1       863 2.12250E+01 3.44120E+01 0.00000E+00
 -1       864 1.31925E+02 3.52174E+01 0.00000E+00
 -1       865 1.34321E+02 3.55188E+01 0.00000E+00
 -1       866 4.33740E+01 1.51775E+01 0.00000E+00
 -1       867 4.03740E+01 1.51775E+01 0.00000E+00
 -1       868 4.93740E+01 1.51775E+01 0.00000E+00
 -1       869 5.23740E+01 1.51775E+01 0.00000E+00
 -1       870 5.53740E+01 1.51775E+01 0.00000E+00
 -1       871 5.83740E+01 1.51775E+01 0.00000E+00
 -1       872 6.13740E+01 1.51775E+01 0.00000E+00
 -1       873 6.43740E+01 1.51775E+01 0.00000E+00
 -1       874 6.73740E+01 1.51775E+01 0.00000E+00
 -1       875 7.03740E+01 1.51775E+01 0.00000E+00
 -1       876 7.33740E+01 1.51775E+01 0.00000E+00
 -1       877 7.63740E+01 1.51775E+01 0.00000E+00
 -1       878 7.93740E+01 1.51775E+01 0.00000E+00
 -1       879 8.23740E+01 1.51775E+01 0.00000E+00
 -1       880 8.53740E+01 1.51775E+01 0.00000E+00
 -1       881 8.83740E+01 1.51775E+01 0.00000E+00
 -1       882 9.13740E+01 1.51775E+01 0.00000E+00
 -1       883 9.43740E+01 1.51775E+01 0.00000E+00
 -1       884 9.73740E+01 1.51775E+01 0.00000E+00
 -1       885 1.00374E+02 1.51775E+01 0.00000E+00
 -1       886 1.03374E+02 1.51775E+01 0.00000E+00
 -1       887 1.06374E+02 1.51775E+01 0.00000E+00
 -1       888 1.15374E+02 1.51775E+01 0.00000E+00
 -1       889 1.18374E+02 1.51775E+01 0.00000E+00
 -1       890 1.21374E+02 1.51775E+01 0.00000E+00
 -1       891 1.24374E+02 1.51775E+01 0.00000E+00
 -1       892 1.27374E+02 1.51775E+01 0.00000E+00
 -1       893 1.30374E+02 1.51775E+01 0.00000E+00
 -1       894 1.34412E+02 3.23500E+01 0.00000E+00
 -1       895 9.67388E+01 2.54625E+01 0.00000E+00
 -1       896 1.25849E+02 2.39205E+01 0.00000E+00
 -1       897 1.13263E+02 1.77068E+01 0.00000E+00
 -1       898 1.00756E+02 1.94880E+01 0.00000E+00
 -1       899 1.04509E+02 1.73399E+01 0.00000E+00
 -1       900 1.29900E+01 2.79188E+01 0.00000E+00
 -1       901 4.63740E+01 1.51775E+01 0.00000E+00
 -1       902 1.78740E+01 1.55170E+01 0.00000E+00
 -1       903 3.13740E+01 1.51775E+01 0.00000E+00
 -1       904 1.27144E+02 3.58528E+01 0.00000E+00
 -1       905 9.49401E+01 2.84556E+01 0.00000E+00
 -1       906 1.19281E+02 1.85184E+01 0.00000E+00
 -1       907 2.83740E+01 1.51775E+01 0.00000E+00
 -1       908 1.55880E+01 3.23250E+01 0.00000E+00
 -1       909 1.34412E+02 2.06125E+01 0.00000E+00
 -1       910 1.34412E+02 2.64750E+01 0.00000E+00
 -1       911 9.29258E+01 2.99936E+01 0.00000E+00
 -1       912 1.28451E+02 2.72960E+01 0.00000E+00
 -1       913 1.34442E+02 1.58585E+01 0.00000E+00
 -1       914 3.73740E+01 1.51775E+01 0.00000E+00
 -1       915 1.12450E+02 1.57673E+01 0.00000E+00
 -1       916 1.34412E+02 2.94250E+01 0.00000E+00
 -1       917 3.43740E+01 1.51775E+01 0.00000E+00
 -1       918 2.23740E+01 1.51775E+01 0.00000E+00
 -1       919 1.28435E+02 3.16935E+01 0.00000E+00
 -1       920 1.25280E+02 2.14228E+01 0.00000E+00
 -1       921 1.55880E+01 2.05531E+01 0.00000E+00
 -1       922 1.61565E+01 3.46675E+01 0.00000E+00
 -1       923 1.55880E+01 2.35031E+01 0.00000E+00
 -1       924 1.28925E+02 3.52624E+01 0.00000E+00
 -1       925 9.35625E+01 3.46246E+01 0.00000E+00
 -1       926 1.78740E+01 1.84608E+01 0.00000E+00
 -1       927 1.55880E+01 2.93875E+01 0.00000E+00
 -1       928 1.30392E+02 3.30223E+01 0.00000E+00
 -1       929 2.87250E+01 3.18140E+01 0.00000E+00
 -1       930 3.17250E+01 3.18140E+01 0.00000E+00
 -1       931 3.47250E+01 3.18140E+01 0.00000E+00
 -1       932 3.77250E+01 3.18140E+01 0.00000E+00
 -1       933 4.07250E+01 3.18140E+01 0.00000E+00
 -1       934 4.38750E+01 3.18140E+01 0.00000E+00
 -1       935 4.68750E+01 3.18140E+01 0.00000E+00
 -1       936 4.98750E+01 3.18140E+01 0.00000E+00
 -1       937 5.28750E+01 3.18140E+01 0.00000E+00
 -1       938 5.58750E+01 3.18140E+01 0.00000E+00
 -1       939 5.88750E+01 3.18140E+01 0.00000E+00
 -1       940 6.18750E+01 3.18140E+01 0.00000E+00
 -1       941 6.48750E+01 3.18140E+01 0.00000E+00
 -1       942 6.78750E+01 3.18140E+01 0.00000E+00
 -1       943 7.10250E+01 3.18140E+01 0.00000E+00
 -1       944 7.40250E+01 3.18140E+01 0.00000E+00
 -1       945 7.70250E+01 3.18140E+01 0.00000E+00
 -1       946 8.00250E+01 3.18140E+01 0.00000E+00
 -1       947 8.30250E+01 3.18140E+01 0.00000E+00
 -1       948 8.60250E+01 3.18140E+01 0.00000E+00
 -1       949 8.90250E+01 3.18140E+01 0.00000E+00
 -1       950 4.18740E+01 1.77755E+01 0.00000E+00
 -1       951 2.53740E+01 1.51775E+01 0.00000E+00
 -1       952 9.36513E+01 2.56440E+01 0.00000E+00
 -1       953 5.38740E+01 1.77755E+01 0.00000E+00
 -1       954 5.08740E+01 1.77755E+01 0.00000E+00
 -1       955 5.98740E+01 1.77755E+01 0.00000E+00
 -1       956 6.28740E+01 1.77755E+01 0.00000E+00
 -1       957 6.58740E+01 1.77755E+01 0.00000E+00
 -1       958 6.88740E+01 1.77755E+01 0.00000E+00
 -1       959 7.18740E+01 1.77755E+01 0.00000E+00
 -1       960 7.48740E+01 1.77755E+01 0.00000E+00
 -1       961 7.78740E+01 1.77755E+01 0.00000E+00
 -1       962 8.08740E+01 1.77755E+01 0.00000E+00
 -1       963 8.38740E+01 1.77755E+01 0.00000E+00
 -1       964 8.68740E+01 1.77755E+01 0.00000E+00
 -1       965 8.98740E+01 1.77755E+01 0.00000E+00
 -1       966 9.28740E+01 1.77755E+01 0.00000E+00
 -1       967 9.58740E+01 1.77755E+01 0.00000E+00
 -1       968 1.25874E+02 1.77755E+01 0.00000E+00
 -1       969 1.28874E+02 1.77755E+01 0.00000E+00
 -1       970 1.34427E+02 1.82355E+01 0.00000E+00
 -1       971 1.22874E+02 1.77755E+01 0.00000E+00
 -1       972 5.68740E+01 1.77755E+01 0.00000E+00
 -1       973 1.76565E+01 3.20695E+01 0.00000E+00
 -1       974 2.06565E+01 3.20695E+01 0.00000E+00
 -1       975 1.55880E+01 2.64453E+01 0.00000E+00
 -1       976 2.57250E+01 3.18140E+01 0.00000E+00
 -1       977 2.31908E+01 3.19417E+01 0.00000E+00
 -1       978 9.74436E+01 1.94372E+01 0.00000E+00
 -1       979 9.50696E+01 2.28533E+01 0.00000E+00
 -1       980 1.28707E+02 2.35177E+01 0.00000E+00
 -1       981 2.23740E+01 1.81213E+01 0.00000E+00
 -1       982 1.29910E+02 2.48062E+01 0.00000E+00
 -1       983 1.31424E+02 3.05593E+01 0.00000E+00
 -1       984 3.88740E+01 1.77755E+01 0.00000E+00
 -1       985 4.48740E+01 1.77755E+01 0.00000E+00
 -1       986 4.78740E+01 1.77755E+01 0.00000E+00
 -1       987 9.88740E+01 1.77755E+01 0.00000E+00
 -1       988 1.01874E+02 1.77755E+01 0.00000E+00
 -1       989 9.16370E+01 2.71820E+01 0.00000E+00
 -1       990 1.29786E+02 2.88620E+01 0.00000E+00
 -1       991 2.98740E+01 1.77755E+01 0.00000E+00
 -1       992 1.31814E+02 2.50125E+01 0.00000E+00
 -1       993 1.28138E+02 2.10201E+01 0.00000E+00
 -1       994 3.28740E+01 1.77755E+01 0.00000E+00
 -1       995 1.84851E+01 2.14234E+01 0.00000E+00
 -1       996 1.31814E+02 2.20750E+01 0.00000E+00
 -1       997 1.31650E+02 1.80055E+01 0.00000E+00
 -1       998 1.31619E+02 2.77859E+01 0.00000E+00
 -1       999 3.32250E+01 2.92160E+01 0.00000E+00
 -1      1000 3.62250E+01 2.92160E+01 0.00000E+00
 -1      1001 3.92250E+01 2.92160E+01 0.00000E+00
 -1      1002 4.23750E+01 2.92160E+01 0.00000E+00
 -1      1003 4.53750E+01 2.92160E+01 0.00000E+00
 -1      1004 4.83750E+01 2.92160E+01 0.00000E+00
 -1      1005 5.13750E+01 2.92160E+01 0.00000E+00
 -1      1006 5.43750E+01 2.92160E+01 0.00000E+00
 -1      1007 5.73750E+01 2.92160E+01 0.00000E+00
 -1      1008 6.03750E+01 2.92160E+01 0.00000E+00
 -1      1009 6.33750E+01 2.92160E+01 0.00000E+00
 -1      1010 6.63750E+01 2.92160E+01 0.00000E+00
 -1      1011 6.95250E+01 2.92160E+01 0.00000E+00
 -1      1012 7.25250E+01 2.92160E+01 0.00000E+00
 -1      1013 7.55250E+01 2.92160E+01 0.00000E+00
 -1      1014 7.85250E+01 2.92160E+01 0.00000E+00
 -1      1015 8.15250E+01 2.92160E+01 0.00000E+00
 -1      1016 8.45250E+01 2.92160E+01 0.00000E+00
 -1      1017 8.75250E+01 2.92160E+01 0.00000E+00
 -1      1018 5.83740E+01 2.03735E+01 0.00000E+00
 -1      1019 6.43740E+01 2.03735E+01 0.00000E+00
 -1      1020 6.13740E+01 2.03735E+01 0.00000E+00
 -1      1021 7.03740E+01 2.03735E+01 0.00000E+00
 -1      1022 7.33740E+01 2.03735E+01 0.00000E+00
 -1      1023 7.63740E+01 2.03735E+01 0.00000E+00
 -1      1024 7.93740E+01 2.03735E+01 0.00000E+00
 -1      1025 8.23740E+01 2.03735E+01 0.00000E+00
 -1      1026 8.53740E+01 2.03735E+01 0.00000E+00
 -1      1027 8.83740E+01 2.03735E+01 0.00000E+00
 -1      1028 9.13740E+01 2.03735E+01 0.00000E+00
 -1      1029 5.53740E+01 2.03735E+01 0.00000E+00
 -1      1030 8.95810E+01 2.81990E+01 0.00000E+00
 -1      1031 3.58740E+01 1.77755E+01 0.00000E+00
 -1      1032 2.68740E+01 1.77755E+01 0.00000E+00
 -1      1033 2.21111E+01 2.17527E+01 0.00000E+00
 -1      1034 3.02250E+01 2.92160E+01 0.00000E+00
 -1      1035 1.91565E+01 2.94715E+01 0.00000E+00
 -1      1036 2.72250E+01 2.92160E+01 0.00000E+00
 -1      1037 6.73740E+01 2.03735E+01 0.00000E+00
 -1      1038 5.23740E+01 2.03735E+01 0.00000E+00
 -1      1039 9.20444E+01 2.30715E+01 0.00000E+00
 -1      1040 9.39592E+01 2.04235E+01 0.00000E+00
 -1      1041 1.85516E+01 2.45737E+01 0.00000E+00
 -1      1042 4.03740E+01 2.03735E+01 0.00000E+00
 -1      1043 9.00301E+01 2.46096E+01 0.00000E+00
 -1      1044 4.93740E+01 2.03735E+01 0.00000E+00
 -1      1045 4.33740E+01 2.03735E+01 0.00000E+00
 -1      1046 2.66111E+01 2.14069E+01 0.00000E+00
 -1      1047 1.31282E+02 1.96278E+01 0.00000E+00
 -1      1048 1.88541E+01 2.70226E+01 0.00000E+00
 -1      1049 2.96111E+01 2.14069E+01 0.00000E+00
 -1      1050 2.16908E+01 2.93438E+01 0.00000E+00
 -1      1051 2.46908E+01 2.93438E+01 0.00000E+00
 -1      1052 3.26111E+01 2.14069E+01 0.00000E+00
 -1      1053 3.47250E+01 2.66180E+01 0.00000E+00
 -1      1054 4.63740E+01 2.03735E+01 0.00000E+00
 -1      1055 3.77250E+01 2.66180E+01 0.00000E+00
 -1      1056 4.08750E+01 2.66180E+01 0.00000E+00
 -1      1057 4.38750E+01 2.66180E+01 0.00000E+00
 -1      1058 4.68750E+01 2.66180E+01 0.00000E+00
 -1      1059 4.98750E+01 2.66180E+01 0.00000E+00
 -1      1060 5.28750E+01 2.66180E+01 0.00000E+00
 -1      1061 5.58750E+01 2.66180E+01 0.00000E+00
 -1      1062 5.88750E+01 2.66180E+01 0.00000E+00
 -1      1063 6.18750E+01 2.66180E+01 0.00000E+00
 -1      1064 6.48750E+01 2.66180E+01 0.00000E+00
 -1      1065 6.80250E+01 2.66180E+01 0.00000E+00
 -1      1066 7.10250E+01 2.66180E+01 0.00000E+00
 -1      1067 7.40250E+01 2.66180E+01 0.00000E+00
 -1      1068 7.70250E+01 2.66180E+01 0.00000E+00
 -1      1069 8.00250E+01 2.66180E+01 0.00000E+00
 -1      1070 8.30250E+01 2.66180E+01 0.00000E+00
 -1      1071 8.60250E+01 2.66180E+01 0.00000E+00
 -1      1072 6.28740E+01 2.29715E+01 0.00000E+00
 -1      1073 5.98740E+01 2.29715E+01 0.00000E+00
 -1      1074 7.48740E+01 2.29715E+01 0.00000E+00
 -1      1075 7.18740E+01 2.29715E+01 0.00000E+00
 -1      1076 8.08740E+01 2.29715E+01 0.00000E+00
 -1      1077 8.38740E+01 2.29715E+01 0.00000E+00
 -1      1078 8.68740E+01 2.29715E+01 0.00000E+00
 -1      1079 5.68740E+01 2.29715E+01 0.00000E+00
 -1      1080 3.73740E+01 2.03735E+01 0.00000E+00
 -1      1081 3.17250E+01 2.66180E+01 0.00000E+00
 -1      1082 2.87250E+01 2.66180E+01 0.00000E+00
 -1      1083 8.92021E+01 2.24915E+01 0.00000E+00
 -1      1084 2.19451E+01 2.51993E+01 0.00000E+00
 -1      1085 6.88740E+01 2.29715E+01 0.00000E+00
 -1      1086 3.49926E+01 2.08902E+01 0.00000E+00
 -1      1087 5.38740E+01 2.29715E+01 0.00000E+00
 -1      1088 6.58740E+01 2.29715E+01 0.00000E+00
 -1      1089 7.78740E+01 2.29715E+01 0.00000E+00
 -1      1090 5.08740E+01 2.29715E+01 0.00000E+00
 -1      1091 3.11111E+01 2.40049E+01 0.00000E+00
 -1      1092 2.81111E+01 2.40049E+01 0.00000E+00
 -1      1093 4.18740E+01 2.29715E+01 0.00000E+00
 -1      1094 3.88740E+01 2.29715E+01 0.00000E+00
 -1      1095 2.61908E+01 2.67458E+01 0.00000E+00
 -1      1096 2.50281E+01 2.46021E+01 0.00000E+00
 -1      1097 3.62250E+01 2.40200E+01 0.00000E+00
 -1      1098 4.83750E+01 2.40200E+01 0.00000E+00
 -1      1099 3.34926E+01 2.34882E+01 0.00000E+00
 -1      1100 4.48740E+01 2.29715E+01 0.00000E+00
 -1      1101 0.00000E+00 4.85250E+01 0.00000E+00
 -1      1102 0.00000E+00 4.55750E+01 0.00000E+00
 -1      1103 0.00000E+00 4.26250E+01 0.00000E+00
 -1      1104 0.00000E+00 3.96750E+01 0.00000E+00
 -1      1105 0.00000E+00 3.67250E+01 0.00000E+00
 -1      1106 0.00000E+00 3.38000E+01 0.00000E+00
 -1      1107 0.00000E+00 3.08750E+01 0.00000E+00
 -1      1108 0.00000E+00 2.79250E+01 0.00000E+00
 -1      1109 0.00000E+00 2.49750E+01 0.00000E+00
 -1      1110 0.00000E+00 2.20250E+01 0.00000E+00
 -1      1111 0.00000E+00 1.90750E+01 0.00000E+00
 -1      1112 0.00000E+00 1.61500E+01 0.00000E+00
 -1      1113 0.00000E+00 1.32250E+01 0.00000E+00
 -1      1114 0.00000E+00 1.02750E+01 0.00000E+00
 -1      1115 0.00000E+00 7.32500E+00 0.00000E+00
 -1      1116 0.00000E+00 4.37500E+00 0.00000E+00
 -1      1117 0.00000E+00 1.45000E+00 0.00000E+00
 -1      1118 1.57500E+00 5.00000E+01 0.00000E+00
 -1      1119 4.65000E+00 5.00000E+01 0.00000E+00
 -1      1120 7.65000E+00 5.00000E+01 0.00000E+00
 -1      1121 1.06500E+01 5.00000E+01 0.00000E+00
 -1      1122 1.36500E+01 5.00000E+01 0.00000E+00
 -1      1123 1.66500E+01 5.00000E+01 0.00000E+00
 -1      1124 1.96500E+01 5.00000E+01 0.00000E+00
 -1      1125 2.26500E+01 5.00000E+01 0.00000E+00
 -1      1126 2.57250E+01 5.00000E+01 0.00000E+00
 -1      1127 2.88000E+01 5.00000E+01 0.00000E+00
 -1      1128 3.18000E+01 5.00000E+01 0.00000E+00
 -1      1129 3.48000E+01 5.00000E+01 0.00000E+00
 -1      1130 3.78000E+01 5.00000E+01 0.00000E+00
 -1      1131 4.08000E+01 5.00000E+01 0.00000E+00
 -1      1132 4.38000E+01 5.00000E+01 0.00000E+00
 -1      1133 4.68000E+01 5.00000E+01 0.00000E+00
 -1      1134 4.98000E+01 5.00000E+01 0.00000E+00
 -1      1135 5.28750E+01 5.00000E+01 0.00000E+00
 -1      1136 5.59500E+01 5.00000E+01 0.00000E+00
 -1      1137 5.89500E+01 5.00000E+01 0.00000E+00
 -1      1138 6.19500E+01 5.00000E+01 0.00000E+00
 -1      1139 6.49500E+01 5.00000E+01 0.00000E+00
 -1      1140 6.79500E+01 5.00000E+01 0.00000E+00
 -1      1141 7.09500E+01 5.00000E+01 0.00000E+00
 -1      1142 7.39500E+01 5.00000E+01 0.00000E+00
 -1      1143 7.69500E+01 5.00000E+01 0.00000E+00
 -1      1144 8.00250E+01 5.00000E+01 0.00000E+00
 -1      1145 8.31000E+01 5.00000E+01 0.00000E+00
 -1      1146 8.61000E+01 5.00000E+01 0.00000E+00
 -1      1147 8.91000E+01 5.00000E+01 0.00000E+00
 -1      1148 9.21000E+01 5.00000E+01 0.00000E+00
 -1      1149 9.51000E+01 5.00000E+01 0.00000E+00
 -1      1150 9.81000E+01 5.00000E+01 0.00000E+00
 -1      1151 1.01100E+02 5.00000E+01 0.00000E+00
 -1      1152 1.04025E+02 5.00000E+01 0.00000E+00
 -1      1153 1.06800E+02 5.00000E+01 0.00000E+00
 -1      1154 1.09500E+02 5.00000E+01 0.00000E+00
 -1      1155 1.12350E+02 5.00000E+01 0.00000E+00
 -1      1156 1.15350E+02 5.00000E+01 0.00000E+00
 -1      1157 1.18350E+02 5.00000E+01 0.00000E+00
 -1      1158 1.21350E+02 5.00000E+01 0.00000E+00
 -1      1159 1.24425E+02 5.00000E+01 0.00000E+00
 -1      1160 1.27500E+02 5.00000E+01 0.00000E+00
 -1      1161 1.30500E+02 5.00000E+01 0.00000E+00
 -1      1162 1.33500E+02 5.00000E+01 0.00000E+00
 -1      1163 1.36500E+02 5.00000E+01 0.00000E+00
 -1      1164 1.39500E+02 5.00000E+01 0.00000E+00
 -1      1165 1.42500E+02 5.00000E+01 0.00000E+00
 -1      1166 1.45500E+02 5.00000E+01 0.00000E+00
 -1      1167 1.48500E+02 5.00000E+01 0.00000E+00
 -1      1168 1.57500E+00 0.00000E+00 0.00000E+00
 -1      1169 4.65000E+00 0.00000E+00 0.00000E+00
 -1      1170 7.65000E+00 0.00000E+00 0.00000E+00
 -1      1171 1.06500E+01 0.00000E+00 0.00000E+00
 -1      1172 1.36500E+01 0.00000E+00 0.00000E+00
 -1      1173 1.66500E+01 0.00000E+00 0.00000E+00
 -1      1174 1.96500E+01 0.00000E+00 0.00000E+00
 -1      1175 2.26500E+01 0.00000E+00 0.00000E+00
 -1      1176 2.56500E+01 0.00000E+00 0.00000E+00
 -1      1177 2.86500E+01 0.00000E+00 0.00000E+00
 -1      1178 3.16500E+01 0.00000E+00 0.00000E+00
 -1      1179 3.46500E+01 0.00000E+00 0.00000E+00
 -1      1180 3.76500E+01 0.00000E+00 0.00000E+00
 -1      1181 4.06500E+01 0.00000E+00 0.00000E+00
 -1      1182 4.36500E+01 0.00000E+00 0.00000E+00
 -1      1183 4.66500E+01 0.00000E+00 0.00000E+00
 -1      1184 4.96500E+01 0.00000E+00 0.00000E+00
 -1      1185 5.26500E+01 0.00000E+00 0.00000E+00
 -1      1186 5.56500E+01 0.00000E+00 0.00000E+00
 -1      1187 5.86500E+01 0.00000E+00 0.00000E+00
 -1      1188 6.16500E+01 0.00000E+00 0.00000E+00
 -1      1189 6.46500E+01 0.00000E+00 0.00000E+00
 -1      1190 6.76500E+01 0.00000E+00 0.00000E+00
 -1      1191 7.06500E+01 0.00000E+00 0.00000E+00
 -1      1192 7.36500E+01 0.00000E+00 0.00000E+00
 -1      1193 7.66500E+01 0.00000E+00 0.00000E+00
 -1      1194 7.96500E+01 0.00000E+00 0.00000E+00
 -1      1195 8.26500E+01 0.00000E+00 0.00000E+00
 -1      1196 8.56500E+01 0.00000E+00 0.00000E+00
 -1      1197 8.86500E+01 0.00000E+00 0.00000E+00
 -1      1198 9.16500E+01 0.00000E+00 0.00000E+00
 -1      1199 9.46500E+01 0.00000E+00 0.00000E+00
 -1      1200 9.76500E+01 0.00000E+00 0.00000E+00
 -1      1201 1.00650E+02 0.00000E+00 0.00000E+00
 -1      1202 1.03650E+02 0.00000E+00 0.00000E+00
 -1      1203 1.06650E+02 0.00000E+00 0.00000E+00
 -1      1204 1.09650E+02 0.00000E+00 0.00000E+00
 -1      1205 1.12650E+02 0.00000E+00 0.00000E+00
 -1      1206 1.15650E+02 0.00000E+00 0.00000E+00
 -1      1207 1.18650E+02 0.00000E+00 0.00000E+00
 -1      1208 1.21650E+02 0.00000E+00 0.00000E+00
 -1      1209 1.24650E+02 0.00000E+00 0.00000E+00
 -1      1210 1.27650E+02 0.00000E+00 0.00000E+00
 -1      1211 1.30650E+02 0.00000E+00 0.00000E+00
 -1      1212 1.33650E+02 0.00000E+00 0.00000E+00
 -1      1213 1.36650E+02 0.00000E+00 0.00000E+00
 -1      1214 1.39650E+02 0.00000E+00 0.00000E+00
 -1      1215 1.42650E+02 0.00000E+00 0.00000E+00
 -1      1216 1.45650E+02 0.00000E+00 0.00000E+00
 -1      1217 1.48575E+02 0.00000E+00 0.00000E+00
 -1      1218 1.50000E+02 1.47500E+00 0.00000E+00
 -1      1219 1.50000E+02 4.42500E+00 0.00000E+00
 -1      1220 1.50000E+02 7.37500E+00 0.00000E+00
 -1      1221 1.50000E+02 1.03250E+01 0.00000E+00
 -1      1222 1.50000E+02 1.32750E+01 0.00000E+00
 -1      1223 1.50000E+02 1.62000E+01 0.00000E+00
 -1      1224 1.50000E+02 1.91250E+01 0.00000E+00
 -1      1225 1.50000E+02 2.20750E+01 0.00000E+00
 -1      1226 1.50000E+02 2.50250E+01 0.00000E+00
 -1      1227 1.50000E+02 2.79750E+01 0.00000E+00
 -1      1228 1.50000E+02 3.09250E+01 0.00000E+00
 -1      1229 1.50000E+02 3.38500E+01 0.00000E+00
 -1      1230 1.50000E+02 3.67750E+01 0.00000E+00
 -1      1231 1.50000E+02 3.97250E+01 0.00000E+00
 -1      1232 1.50000E+02 4.26750E+01 0.00000E+00
 -1      1233 1.50000E+02 4.56250E+01 0.00000E+00
 -1      1234 1.50000E+02 4.85500E+01 0.00000E+00
 -1      1235 1.18209E+02 3.32901E+01 0.00000E+00
 -1      1236 1.17854E+02 3.17683E+01 0.00000E+00
 -1      1237 1.17186E+02 3.03906E+01 0.00000E+00
 -1      1238 1.16256E+02 2.92122E+01 0.00000E+00
 -1      1239 1.15120E+02 2.82745E+01 0.00000E+00
 -1      1240 1.13782E+02 2.75838E+01 0.00000E+00
 -1      1241 1.12372E+02 2.72020E+01 0.00000E+00
 -1      1242 1.10869E+02 2.71236E+01 0.00000E+00
 -1      1243 1.09380E+02 2.73695E+01 0.00000E+00
 -1      1244 1.07992E+02 2.79214E+01 0.00000E+00
 -1      1245 1.06757E+02 2.87513E+01 0.00000E+00
 -1      1246 1.05730E+02 2.98189E+01 0.00000E+00
 -1      1247 1.04927E+02 3.11264E+01 0.00000E+00
 -1      1248 1.04424E+02 3.25977E+01 0.00000E+00
 -1      1249 1.04258E+02 3.41084E+01 0.00000E+00
 -1      1250 1.04419E+02 3.56048E+01 0.00000E+00
 -1      1251 1.04937E+02 3.71196E+01 0.00000E+00
 -1      1252 1.05773E+02 3.84617E+01 0.00000E+00
 -1      1253 1.06830E+02 3.95341E+01 0.00000E+00
 -1      1254 1.08081E+02 4.03504E+01 0.00000E+00
 -1      1255 1.09509E+02 4.08906E+01 0.00000E+00
 -1      1256 1.11048E+02 4.11096E+01 0.00000E+00
 -1      1257 1.12552E+02 4.09922E+01 0.00000E+00
 -1      1258 1.13960E+02 4.05701E+01 0.00000E+00
 -1      1259 1.15258E+02 3.98573E+01 0.00000E+00
 -1      1260 1.16388E+02 3.88759E+01 0.00000E+00
 -1      1261 1.17267E+02 3.77025E+01 0.00000E+00
 -1      1262 1.17885E+02 3.63660E+01 0.00000E+00
 -1      1263 1.18216E+02 3.48808E+01 0.00000E+00
 -1      1264 1.57500E+00 4.85250E+01 0.00000E+00
 -1      1265 1.29900E+00 4.48375E+01 0.00000E+00
 -1      1266 1.29900E+00 4.63125E+01 0.00000E+00
 -1      1267 1.29900E+00 4.18875E+01 0.00000E+00
 -1      1268 1.29900E+00 4.33625E+01 0.00000E+00
 -1      1269 2.59800E+00 4.41000E+01 0.00000E+00
 -1      1270 1.29900E+00 3.89375E+01 0.00000E+00
 -1      1271 1.29900E+00 4.04125E+01 0.00000E+00
 -1      1272 2.59800E+00 4.11500E+01 0.00000E+00
 -1      1273 1.29900E+00 3.59875E+01 0.00000E+00
 -1      1274 1.29900E+00 3.74625E+01 0.00000E+00
 -1      1275 2.59800E+00 3.82000E+01 0.00000E+00
 -1      1276 1.29900E+00 3.30875E+01 0.00000E+00
 -1      1277 1.29900E+00 3.45375E+01 0.00000E+00
 -1      1278 2.59800E+00 3.52750E+01 0.00000E+00
 -1      1279 1.29900E+00 3.01375E+01 0.00000E+00
 -1      1280 1.29900E+00 3.16125E+01 0.00000E+00
 -1      1281 2.59800E+00 3.23500E+01 0.00000E+00
 -1      1282 1.29900E+00 2.71875E+01 0.00000E+00
 -1      1283 1.29900E+00 2.86625E+01 0.00000E+00
 -1      1284 2.59800E+00 2.94000E+01 0.00000E+00
 -1      1285 1.29900E+00 2.42375E+01 0.00000E+00
 -1      1286 1.29900E+00 2.57125E+01 0.00000E+00
 -1      1287 2.59800E+00 2.64500E+01 0.00000E+00
 -1      1288 1.29900E+00 2.12875E+01 0.00000E+00
 -1      1289 1.29900E+00 2.27625E+01 0.00000E+00
 -1      1290 2.59800E+00 2.35000E+01 0.00000E+00
 -1      1291 1.29900E+00 1.83375E+01 0.00000E+00
 -1      1292 1.29900E+00 1.98125E+01 0.00000E+00
 -1      1293 2.59800E+00 2.05500E+01 0.00000E+00
 -1      1294 1.29900E+00 1.54375E+01 0.00000E+00
 -1      1295 1.29900E+00 1.68875E+01 0.00000E+00
 -1      1296 2.59800E+00 1.76250E+01 0.00000E+00
 -1      1297 1.29900E+00 1.24875E+01 0.00000E+00
 -1      1298 1.29900E+00 1.39625E+01 0.00000E+00
 -1      1299 2.59800E+00 1.47000E+01 0.00000E+00
 -1      1300 1.29900E+00 9.53750E+00 0.00000E+00
 -1      1301 1.29900E+00 1.10125E+01 0.00000E+00
 -1      1302 2.59800E+00 1.17500E+01 0.00000E+00
 -1      1303 1.29900E+00 6.58750E+00 0.00000E+00
 -1      1304 1.29900E+00 8.06250E+00 0.00000E+00
 -1      1305 2.59800E+00 8.80000E+00 0.00000E+00
 -1      1306 1.29900E+00 3.63750E+00 0.00000E+00
 -1      1307 1.29900E+00 5.11250E+00 0.00000E+00
 -1      1308 2.59800E+00 5.85000E+00 0.00000E+00
 -1      1309 1.43700E+00 1.09375E+00 0.00000E+00
 -1      1310 1.43700E+00 2.54375E+00 0.00000E+00
 -1      1311 2.73600E+00 3.28125E+00 0.00000E+00
 -1      1312 3.01200E+00 1.09375E+00 0.00000E+00
 -1      1313 3.90000E+00 4.87010E+01 0.00000E+00
 -1      1314 5.40000E+00 4.87010E+01 0.00000E+00
 -1      1315 6.90000E+00 4.87010E+01 0.00000E+00
 -1      1316 8.40000E+00 4.87010E+01 0.00000E+00
 -1      1317 6.15000E+00 4.74020E+01 0.00000E+00
 -1      1318 9.90000E+00 4.87010E+01 0.00000E+00
 -1      1319 1.14000E+01 4.87010E+01 0.00000E+00
 -1      1320 9.15000E+00 4.74020E+01 0.00000E+00
 -1      1321 1.29000E+01 4.87010E+01 0.00000E+00
 -1      1322 1.44000E+01 4.87010E+01 0.00000E+00
 -1      1323 1.21500E+01 4.74020E+01 0.00000E+00
 -1      1324 1.59000E+01 4.87010E+01 0.00000E+00
 -1      1325 1.74000E+01 4.87010E+01 0.00000E+00
 -1      1326 1.51500E+01 4.74020E+01 0.00000E+00
 -1      1327 1.89000E+01 4.87010E+01 0.00000E+00
 -1      1328 2.04000E+01 4.87010E+01 0.00000E+00
 -1      1329 1.81500E+01 4.74020E+01 0.00000E+00
 -1      1330 2.19000E+01 4.87010E+01 0.00000E+00
 -1      1331 2.34000E+01 4.87010E+01 0.00000E+00
 -1      1332 2.11500E+01 4.74020E+01 0.00000E+00
 -1      1333 2.49750E+01 4.87010E+01 0.00000E+00
 -1      1334 2.65500E+01 4.87010E+01 0.00000E+00
 -1      1335 2.42250E+01 4.74020E+01 0.00000E+00
 -1      1336 2.80500E+01 4.87010E+01 0.00000E+00
 -1      1337 2.95500E+01 4.87010E+01 0.00000E+00
 -1      1338 2.73000E+01 4.74020E+01 0.00000E+00
 -1      1339 3.10500E+01 4.87010E+01 0.00000E+00
 -1      1340 3.25500E+01 4.87010E+01 0.00000E+00
 -1      1341 3.03000E+01 4.74020E+01 0.00000E+00
 -1      1342 3.40500E+01 4.87010E+01 0.00000E+00
 -1      1343 3.55500E+01 4.87010E+01 0.00000E+00
 -1      1344 3.33000E+01 4.74020E+01 0.00000E+00
 -1      1345 3.70500E+01 4.87010E+01 0.00000E+00
 -1      1346 3.85500E+01 4.87010E+01 0.00000E+00
 -1      1347 3.63000E+01 4.74020E+01 0.00000E+00
 -1      1348 4.00500E+01 4.87010E+01 0.00000E+00
 -1      1349 4.15500E+01 4.87010E+01 0.00000E+00
 -1      1350 3.93000E+01 4.74020E+01 0.00000E+00
 -1      1351 4.30500E+01 4.87010E+01 0.00000E+00
 -1      1352 4.45500E+01 4.87010E+01 0.00000E+00
 -1      1353 4.23000E+01 4.74020E+01 0.00000E+00
 -1      1354 4.60500E+01 4.87010E+01 0.00000E+00
 -1      1355 4.75500E+01 4.87010E+01 0.00000E+00
 -1      1356 4.53000E+01 4.74020E+01 0.00000E+00
 -1      1357 4.90500E+01 4.87010E+01 0.00000E+00
 -1      1358 5.05500E+01 4.87010E+01 0.00000E+00
 -1      1359 4.83000E+01 4.74020E+01 0.00000E+00
 -1      1360 5.21250E+01 4.87010E+01 0.00000E+00
 -1      1361 5.37000E+01 4.87010E+01 0.00000E+00
 -1      1362 5.13750E+01 4.74020E+01 0.00000E+00
 -1      1363 5.52000E+01 4.87010E+01 0.00000E+00
 -1      1364 5.67000E+01 4.87010E+01 0.00000E+00
 -1      1365 5.44500E+01 4.74020E+01 0.00000E+00
 -1      1366 5.82000E+01 4.87010E+01 0.00000E+00
 -1      1367 5.97000E+01 4.87010E+01 0.00000E+00
 -1      1368 5.74500E+01 4.74020E+01 0.00000E+00
 -1      1369 6.12000E+01 4.87010E+01 0.00000E+00
 -1      1370 6.27000E+01 4.87010E+01 0.00000E+00
 -1      1371 6.04500E+01 4.74020E+01 0.00000E+00
 -1      1372 6.42000E+01 4.87010E+01 0.00000E+00
 -1      1373 6.57000E+01 4.87010E+01 0.00000E+00
 -1      1374 6.34500E+01 4.74020E+01 0.00000E+00
 -1      1375 6.72000E+01 4.87010E+01 0.00000E+00
 -1      1376 6.87000E+01 4.87010E+01 0.00000E+00
 -1      1377 6.64500E+01 4.74020E+01 0.00000E+00
 -1      1378 7.02000E+01 4.87010E+01 0.00000E+00
 -1      1379 7.17000E+01 4.87010E+01 0.00000E+00
 -1      1380 6.94500E+01 4.74020E+01 0.00000E+00
 -1      1381 7.32000E+01 4.87010E+01 0.00000E+00
 -1      1382 7.47000E+01 4.87010E+01 0.00000E+00
 -1      1383 7.24500E+01 4.74020E+01 0.00000E+00
 -1      1384 7.62000E+01 4.87010E+01 0.00000E+00
 -1      1385 7.77000E+01 4.87010E+01 0.00000E+00
 -1      1386 7.54500E+01 4.74020E+01 0.00000E+00
 -1      1387 7.92750E+01 4.87010E+01 0.00000E+00
 -1      1388 8.08500E+01 4.87010E+01 0.00000E+00
 -1      1389 7.85250E+01 4.74020E+01 0.00000E+00
 -1      1390 8.23500E+01 4.87010E+01 0.00000E+00
 -1      1391 8.38500E+01 4.87010E+01 0.00000E+00
 -1      1392 8.16000E+01 4.74020E+01 0.00000E+00
 -1      1393 8.53500E+01 4.87010E+01 0.00000E+00
 -1      1394 8.68500E+01 4.87010E+01 0.00000E+00
 -1      1395 8.46000E+01 4.74020E+01 0.00000E+00
 -1      1396 8.83500E+01 4.87010E+01 0.00000E+00
 -1      1397 8.98500E+01 4.87010E+01 0.00000E+00
 -1      1398 8.76000E+01 4.74020E+01 0.00000E+00
 -1      1399 9.13500E+01 4.87010E+01 0.00000E+00
 -1      1400 9.28500E+01 4.87010E+01 0.00000E+00
 -1      1401 9.06000E+01 4.74020E+01 0.00000E+00
 -1      1402 9.43500E+01 4.87010E+01 0.00000E+00
 -1      1403 9.58500E+01 4.87010E+01 0.00000E+00
 -1      1404 9.36000E+01 4.74020E+01 0.00000E+00
 -1      1405 9.73500E+01 4.87010E+01 0.00000E+00
 -1      1406 9.88500E+01 4.87010E+01 0.00000E+00
 -1      1407 9.66000E+01 4.74020E+01 0.00000E+00
 -1      1408 1.00350E+02 4.87010E+01 0.00000E+00
 -1      1409 1.01850E+02 4.87010E+01 0.00000E+00
 -1      1410 9.96000E+01 4.74020E+01 0.00000E+00
 -1      1411 1.03275E+02 4.87010E+01 0.00000E+00
 -1      1412 1.04700E+02 4.87010E+01 0.00000E+00
 -1      1413 1.02525E+02 4.74020E+01 0.00000E+00
 -1      1414 1.06050E+02 4.87010E+01 0.00000E+00
 -1      1415 1.07400E+02 4.87010E+01 0.00000E+00
 -1      1416 1.05300E+02 4.74020E+01 0.00000E+00
 -1      1417 1.08750E+02 4.87010E+01 0.00000E+00
 -1      1418 1.10100E+02 4.87010E+01 0.00000E+00
 -1      1419 1.08000E+02 4.74020E+01 0.00000E+00
 -1      1420 1.11600E+02 4.87010E+01 0.00000E+00
 -1      1421 1.13100E+02 4.87010E+01 0.00000E+00
 -1      1422 1.10850E+02 4.74020E+01 0.00000E+00
 -1      1423 1.14600E+02 4.87010E+01 0.00000E+00
 -1      1424 1.16100E+02 4.87010E+01 0.00000E+00
 -1      1425 1.13850E+02 4.74020E+01 0.00000E+00
 -1      1426 1.17600E+02 4.87010E+01 0.00000E+00
 -1      1427 1.19100E+02 4.87010E+01 0.00000E+00
 -1      1428 1.16850E+02 4.74020E+01 0.00000E+00
 -1      1429 1.20600E+02 4.87010E+01 0.00000E+00
 -1      1430 1.22100E+02 4.87010E+01 0.00000E+00
 -1      1431 1.19850E+02 4.74020E+01 0.00000E+00
 -1      1432 1.23675E+02 4.87010E+01 0.00000E+00
 -1      1433 1.25250E+02 4.87010E+01 0.00000E+00
 -1      1434 1.22925E+02 4.74020E+01 0.00000E+00
 -1      1435 1.26750E+02 4.87010E+01 0.00000E+00
 -1      1436 1.28250E+02 4.87010E+01 0.00000E+00
 -1      1437 1.26000E+02 4.74020E+01 0.00000E+00
 -1      1438 1.29750E+02 4.87010E+01 0.00000E+00
 -1      1439 1.31250E+02 4.87010E+01 0.00000E+00
 -1      1440 1.29000E+02 4.74020E+01 0.00000E+00
 -1      1441 1.32750E+02 4.87010E+01 0.00000E+00
 -1      1442 1.34250E+02 4.87010E+01 0.00000E+00
 -1      1443 1.32000E+02 4.74020E+01 0.00000E+00
 -1      1444 1.35750E+02 4.87010E+01 0.00000E+00
 -1      1445 1.37250E+02 4.87010E+01 0.00000E+00
 -1      1446 1.35000E+02 4.74020E+01 0.00000E+00
 -1      1447 1.38750E+02 4.87010E+01 0.00000E+00
 -1      1448 1.40250E+02 4.87010E+01 0.00000E+00
 -1      1449 1.38000E+02 4.74020E+01 0.00000E+00
 -1      1450 1.41750E+02 4.87010E+01 0.00000E+00
 -1      1451 1.43250E+02 4.87010E+01 0.00000E+00
 -1      1452 1.41000E+02 4.74020E+01 0.00000E+00
 -1      1453 1.44750E+02 4.87010E+01 0.00000E+00
 -1      1454 1.46250E+02 4.87010E+01 0.00000E+00
 -1      1455 1.44000E+02 4.74020E+01 0.00000E+00
 -1      1456 1.47375E+02 4.86255E+01 0.00000E+00
 -1      1457 1.48875E+02 4.86255E+01 0.00000E+00
 -1      1458 1.48875E+02 4.71755E+01 0.00000E+00
 -1      1459 1.46625E+02 4.73265E+01 0.00000E+00
 -1      1460 6.01200E+00 1.09375E+00 0.00000E+00
 -1      1461 4.51200E+00 1.09375E+00 0.00000E+00
 -1      1462 4.37400E+00 2.18750E+00 0.00000E+00
 -1      1463 9.01200E+00 1.09375E+00 0.00000E+00
 -1      1464 7.51200E+00 1.09375E+00 0.00000E+00
 -1      1465 7.37400E+00 2.18750E+00 0.00000E+00
 -1      1466 1.20120E+01 1.09375E+00 0.00000E+00
 -1      1467 1.05120E+01 1.09375E+00 0.00000E+00
 -1      1468 1.03740E+01 2.18750E+00 0.00000E+00
 -1      1469 1.50120E+01 1.09375E+00 0.00000E+00
 -1      1470 1.35120E+01 1.09375E+00 0.00000E+00
 -1      1471 1.33740E+01 2.18750E+00 0.00000E+00
 -1      1472 1.80120E+01 1.09375E+00 0.00000E+00
 -1      1473 1.65120E+01 1.09375E+00 0.00000E+00
 -1      1474 1.63740E+01 2.18750E+00 0.00000E+00
 -1      1475 2.10120E+01 1.09375E+00 0.00000E+00
 -1      1476 1.95120E+01 1.09375E+00 0.00000E+00
 -1      1477 1.93740E+01 2.18750E+00 0.00000E+00
 -1      1478 2.40120E+01 1.09375E+00 0.00000E+00
 -1      1479 2.25120E+01 1.09375E+00 0.00000E+00
 -1      1480 2.23740E+01 2.18750E+00 0.00000E+00
 -1      1481 2.70120E+01 1.09375E+00 0.00000E+00
 -1      1482 2.55120E+01 1.09375E+00 0.00000E+00
 -1      1483 2.53740E+01 2.18750E+00 0.00000E+00
 -1      1484 3.00120E+01 1.09375E+00 0.00000E+00
 -1      1485 2.85120E+01 1.09375E+00 0.00000E+00
 -1      1486 2.83740E+01 2.18750E+00 0.00000E+00
 -1      1487 3.30120E+01 1.09375E+00 0.00000E+00
 -1      1488 3.15120E+01 1.09375E+00 0.00000E+00
 -1      1489 3.13740E+01 2.18750E+00 0.00000E+00
 -1      1490 3.60120E+01 1.09375E+00 0.00000E+00
 -1      1491 3.45120E+01 1.09375E+00 0.00000E+00
 -1      1492 3.43740E+01 2.18750E+00 0.00000E+00
 -1      1493 3.90120E+01 1.09375E+00 0.00000E+00
 -1      1494 3.75120E+01 1.09375E+00 0.00000E+00
 -1      1495 3.73740E+01 2.18750E+00 0.00000E+00
 -1      1496 4.20120E+01 1.09375E+00 0.00000E+00
 -1      1497 4.05120E+01 1.09375E+00 0.00000E+00
 -1      1498 4.03740E+01 2.18750E+00 0.00000E+00
 -1      1499 4.50120E+01 1.09375E+00 0.00000E+00
 -1      1500 4.35120E+01 1.09375E+00 0.00000E+00
 -1      1501 4.33740E+01 2.18750E+00 0.00000E+00
 -1      1502 4.80120E+01 1.09375E+00 0.00000E+00
 -1      1503 4.65120E+01 1.09375E+00 0.00000E+00
 -1      1504 4.63740E+01 2.18750E+00 0.00000E+00
 -1      1505 5.10120E+01 1.09375E+00 0.00000E+00
 -1      1506 4.95120E+01 1.09375E+00 0.00000E+00
 -1      1507 4.93740E+01 2.18750E+00 0.00000E+00
 -1      1508 5.40120E+01 1.09375E+00 0.00000E+00
 -1      1509 5.25120E+01 1.09375E+00 0.00000E+00
 -1      1510 5.23740E+01 2.18750E+00 0.00000E+00
 -1      1511 5.70120E+01 1.09375E+00 0.00000E+00
 -1      1512 5.55120E+01 1.09375E+00 0.00000E+00
 -1      1513 5.53740E+01 2.18750E+00 0.00000E+00
 -1      1514 6.00120E+01 1.09375E+00 0.00000E+00
 -1      1515 5.85120E+01 1.09375E+00 0.00000E+00
 -1      1516 5.83740E+01 2.18750E+00 0.00000E+00
 -1      1517 6.30120E+01 1.09375E+00 0.00000E+00
 -1      1518 6.15120E+01 1.09375E+00 0.00000E+00
 -1      1519 6.13740E+01 2.18750E+00 0.00000E+00
 -1      1520 6.60120E+01 1.09375E+00 0.00000E+00
 -1      1521 6.45120E+01 1.09375E+00 0.00000E+00
 -1      1522 6.43740E+01 2.18750E+00 0.00000E+00
 -1      1523 6.90120E+01 1.09375E+00 0.00000E+00
 -1      1524 6.75120E+01 1.09375E+00 0.00000E+00
 -1      1525 6.73740E+01 2.18750E+00 0.00000E+00
 -1      1526 7.20120E+01 1.09375E+00 0.00000E+00
 -1      1527 7.05120E+01 1.09375E+00 0.00000E+00
 -1      1528 7.03740E+01 2.18750E+00 0.00000E+00
 -1      1529 7.50120E+01 1.09375E+00 0.00000E+00
 -1      1530 7.35120E+01 1.09375E+00 0.00000E+00
 -1      1531 7.33740E+01 2.18750E+00 0.00000E+00
 -1      1532 7.80120E+01 1.09375E+00 0.00000E+00
 -1      1533 7.65120E+01 1.09375E+00 0.00000E+00
 -1      1534 7.63740E+01 2.18750E+00 0.00000E+00
 -1      1535 8.10120E+01 1.09375E+00 0.00000E+00
 -1      1536 7.95120E+01 1.09375E+00 0.00000E+00
 -1      1537 7.93740E+01 2.18750E+00 0.00000E+00
 -1      1538 8.40120E+01 1.09375E+00 0.00000E+00
 -1      1539 8.25120E+01 1.09375E+00 0.00000E+00
 -1      1540 8.23740E+01 2.18750E+00 0.00000E+00
 -1      1541 8.70120E+01 1.09375E+00 0.00000E+00
 -1      1542 8.55120E+01 1.09375E+00 0.00000E+00
 -1      1543 8.53740E+01 2.18750E+00 0.00000E+00
 -1      1544 9.00120E+01 1.09375E+00 0.00000E+00
 -1      1545 8.85120E+01 1.09375E+00 0.00000E+00
 -1      1546 8.83740E+01 2.18750E+00 0.00000E+00
 -1      1547 9.30120E+01 1.09375E+00 0.00000E+00
 -1      1548 9.15120E+01 1.09375E+00 0.00000E+00
 -1      1549 9.13740E+01 2.18750E+00 0.00000E+00
 -1      1550 9.60120E+01 1.09375E+00 0.00000E+00
 -1      1551 9.45120E+01 1.09375E+00 0.00000E+00
 -1      1552 9.43740E+01 2.18750E+00 0.00000E+00
 -1      1553 9.90120E+01 1.09375E+00 0.00000E+00
 -1      1554 9.75120E+01 1.09375E+00 0.00000E+00
 -1      1555 9.73740E+01 2.18750E+00 0.00000E+00
 -1      1556 1.02012E+02 1.09375E+00 0.00000E+00
 -1      1557 1.00512E+02 1.09375E+00 0.00000E+00
 -1      1558 1.00374E+02 2.18750E+00 0.00000E+00
 -1      1559 1.05012E+02 1.09375E+00 0.00000E+00
 -1      1560 1.03512E+02 1.09375E+00 0.00000E+00
 -1      1561 1.03374E+02 2.18750E+00 0.00000E+00
 -1      1562 1.08012E+02 1.09375E+00 0.00000E+00
 -1      1563 1.06512E+02 1.09375E+00 0.00000E+00
 -1      1564 1.06374E+02 2.18750E+00 0.00000E+00
 -1      1565 1.11012E+02 1.09375E+00 0.00000E+00
 -1      1566 1.09512E+02 1.09375E+00 0.00000E+00
 -1      1567 1.09374E+02 2.18750E+00 0.00000E+00
 -1      1568 1.14012E+02 1.09375E+00 0.00000E+00
 -1      1569 1.12512E+02 1.09375E+00 0.00000E+00
 -1      1570 1.12374E+02 2.18750E+00 0.00000E+00
 -1      1571 1.17012E+02 1.09375E+00 0.00000E+00
 -1      1572 1.15512E+02 1.09375E+00 0.00000E+00
 -1      1573 1.15374E+02 2.18750E+00 0.00000E+00
 -1      1574 1.20012E+02 1.09375E+00 0.00000E+00
 -1      1575 1.18512E+02 1.09375E+00 0.00000E+00
 -1      1576 1.18374E+02 2.18750E+00 0.00000E+00
 -1      1577 1.23012E+02 1.09375E+00 0.00000E+00
 -1      1578 1.21512E+02 1.09375E+00 0.00000E+00
 -1      1579 1.21374E+02 2.18750E+00 0.00000E+00
 -1      1580 1.26012E+02 1.09375E+00 0.00000E+00
 -1      1581 1.24512E+02 1.09375E+00 0.00000E+00
 -1      1582 1.24374E+02 2.18750E+00 0.00000E+00
 -1      1583 1.29012E+02 1.09375E+00 0.00000E+00
 -1      1584 1.27512E+02 1.09375E+00 0.00000E+00
 -1      1585 1.27374E+02 2.18750E+00 0.00000E+00
 -1      1586 1.32012E+02 1.09375E+00 0.00000E+00
 -1      1587 1.30512E+02 1.09375E+00 0.00000E+00
 -1      1588 1.30374E+02 2.18750E+00 0.00000E+00
 -1      1589 1.35012E+02 1.09375E+00 0.00000E+00
 -1      1590 1.33512E+02 1.09375E+00 0.00000E+00
 -1      1591 1.33374E+02 2.18750E+00 0.00000E+00
 -1      1592 1.38012E+02 1.09375E+00 0.00000E+00
 -1      1593 1.36512E+02 1.09375E+00 0.00000E+00
 -1      1594 1.36374E+02 2.18750E+00 0.00000E+00
 -1      1595 1.41012E+02 1.09375E+00 0.00000E+00
 -1      1596 1.39512E+02 1.09375E+00 0.00000E+00
 -1      1597 1.39374E+02 2.18750E+00 0.00000E+00
 -1      1598 1.44012E+02 1.09375E+00 0.00000E+00
 -1      1599 1.42512E+02 1.09375E+00 0.00000E+00
 -1      1600 1.42374E+02 2.18750E+00 0.00000E+00
 -1      1601 1.47012E+02 1.09375E+00 0.00000E+00
 -1      1602 1.45512E+02 1.09375E+00 0.00000E+00
 -1      1603 1.45374E+02 2.18750E+00 0.00000E+00
 -1      1604 1.48575E+02 1.47500E+00 0.00000E+00
 -1      1605 1.48701E+02 5.16250E+00 0.00000E+00
 -1      1606 1.48701E+02 3.68750E+00 0.00000E+00
 -1      1607 1.48701E+02 8.11250E+00 0.00000E+00
 -1      1608 1.48701E+02 6.63750E+00 0.00000E+00
 -1      1609 1.47402E+02 5.90000E+00 0.00000E+00
 -1      1610 1.48701E+02 1.10625E+01 0.00000E+00
 -1      1611 1.48701E+02 9.58750E+00 0.00000E+00
 -1      1612 1.47402E+02 8.85000E+00 0.00000E+00
 -1      1613 1.48701E+02 1.40125E+01 0.00000E+00
 -1      1614 1.48701E+02 1.25375E+01 0.00000E+00
 -1      1615 1.47402E+02 1.18000E+01 0.00000E+00
 -1      1616 1.48701E+02 1.69125E+01 0.00000E+00
 -1      1617 1.48701E+02 1.54625E+01 0.00000E+00
 -1      1618 1.47402E+02 1.47250E+01 0.00000E+00
 -1      1619 1.48701E+02 1.98625E+01 0.00000E+00
 -1      1620 1.48701E+02 1.83875E+01 0.00000E+00
 -1      1621 1.47402E+02 1.76500E+01 0.00000E+00
 -1      1622 1.48701E+02 2.28125E+01 0.00000E+00
 -1      1623 1.48701E+02 2.13375E+01 0.00000E+00
 -1      1624 1.47402E+02 2.06000E+01 0.00000E+00
 -1      1625 1.48701E+02 2.57625E+01 0.00000E+00
 -1      1626 1.48701E+02 2.42875E+01 0.00000E+00
 -1      1627 1.47402E+02 2.35500E+01 0.00000E+00
 -1      1628 1.48701E+02 2.87125E+01 0.00000E+00
 -1      1629 1.48701E+02 2.72375E+01 0.00000E+00
 -1      1630 1.47402E+02 2.65000E+01 0.00000E+00
 -1      1631 1.48701E+02 3.16625E+01 0.00000E+00
 -1      1632 1.48701E+02 3.01875E+01 0.00000E+00
 -1      1633 1.47402E+02 2.94500E+01 0.00000E+00
 -1      1634 1.48701E+02 3.45625E+01 0.00000E+00
 -1      1635 1.48701E+02 3.31125E+01 0.00000E+00
 -1      1636 1.47402E+02 3.23750E+01 0.00000E+00
 -1      1637 1.48701E+02 3.75125E+01 0.00000E+00
 -1      1638 1.48701E+02 3.60375E+01 0.00000E+00
 -1      1639 1.47402E+02 3.53000E+01 0.00000E+00
 -1      1640 1.48701E+02 4.04625E+01 0.00000E+00
 -1      1641 1.48701E+02 3.89875E+01 0.00000E+00
 -1      1642 1.47402E+02 3.82500E+01 0.00000E+00
 -1      1643 1.48701E+02 4.34125E+01 0.00000E+00
 -1      1644 1.48701E+02 4.19375E+01 0.00000E+00
 -1      1645 1.47402E+02 4.12000E+01 0.00000E+00
 -1      1646 1.48788E+02 4.60315E+01 0.00000E+00
 -1      1647 1.48788E+02 4.45565E+01 0.00000E+00
 -1      1648 1.47489E+02 4.38190E+01 0.00000E+00
 -1      1649 1.47663E+02 4.61070E+01 0.00000E+00
 -1      1650 1.18840E+02 3.28013E+01 0.00000E+00
 -1      1651 1.18936E+02 3.36183E+01 0.00000E+00
 -1      1652 1.18303E+02 3.12157E+01 0.00000E+00
 -1      1653 1.18551E+02 3.19131E+01 0.00000E+00
 -1      1654 1.17487E+02 2.97350E+01 0.00000E+00
 -1      1655 1.17907E+02 3.04047E+01 0.00000E+00
 -1      1656 1.16445E+02 2.85301E+01 0.00000E+00
 -1      1657 1.16942E+02 2.90374E+01 0.00000E+00
 -1      1658 1.15136E+02 2.75582E+01 0.00000E+00
 -1      1659 1.15773E+02 2.79792E+01 0.00000E+00
 -1      1660 1.13641E+02 2.69214E+01 0.00000E+00
 -1      1661 1.14333E+02 2.71890E+01 0.00000E+00
 -1      1662 1.12115E+02 2.65415E+01 0.00000E+00
 -1      1663 1.12824E+02 2.66559E+01 0.00000E+00
 -1      1664 1.10440E+02 2.65008E+01 0.00000E+00
 -1      1665 1.11226E+02 2.64571E+01 0.00000E+00
 -1      1666 1.08868E+02 2.68782E+01 0.00000E+00
 -1      1667 1.09564E+02 2.66843E+01 0.00000E+00
 -1      1668 1.07349E+02 2.75286E+01 0.00000E+00
 -1      1669 1.08031E+02 2.71690E+01 0.00000E+00
 -1      1670 1.06117E+02 2.85456E+01 0.00000E+00
 -1      1671 1.06666E+02 2.80848E+01 0.00000E+00
 -1      1672 1.05049E+02 2.97749E+01 0.00000E+00
 -1      1673 1.05519E+02 2.91706E+01 0.00000E+00
 -1      1674 1.04253E+02 3.12336E+01 0.00000E+00
 -1      1675 1.04581E+02 3.05380E+01 0.00000E+00
 -1      1676 1.03708E+02 3.28416E+01 0.00000E+00
 -1      1677 1.03879E+02 3.20743E+01 0.00000E+00
 -1      1678 1.03690E+02 3.44750E+01 0.00000E+00
 -1      1679 1.03691E+02 3.37412E+01 0.00000E+00
 -1      1680 1.03909E+02 3.61105E+01 0.00000E+00
 -1      1681 1.03745E+02 3.53571E+01 0.00000E+00
 -1      1682 1.04461E+02 3.78055E+01 0.00000E+00
 -1      1683 1.04104E+02 3.70562E+01 0.00000E+00
 -1      1684 1.05464E+02 3.91857E+01 0.00000E+00
 -1      1685 1.04998E+02 3.85969E+01 0.00000E+00
 -1      1686 1.06738E+02 4.02430E+01 0.00000E+00
 -1      1687 1.06153E+02 3.97659E+01 0.00000E+00
 -1      1688 1.08154E+02 4.10236E+01 0.00000E+00
 -1      1689 1.07494E+02 4.06878E+01 0.00000E+00
 -1      1690 1.09749E+02 4.15330E+01 0.00000E+00
 -1      1691 1.08987E+02 4.13365E+01 0.00000E+00
 -1      1692 1.11413E+02 4.17685E+01 0.00000E+00
 -1      1693 1.10644E+02 4.17454E+01 0.00000E+00
 -1      1694 1.13019E+02 4.14813E+01 0.00000E+00
 -1      1695 1.12293E+02 4.16178E+01 0.00000E+00
 -1      1696 1.14517E+02 4.09526E+01 0.00000E+00
 -1      1697 1.13842E+02 4.12352E+01 0.00000E+00
 -1      1698 1.15889E+02 4.01080E+01 0.00000E+00
 -1      1699 1.15274E+02 4.05357E+01 0.00000E+00
 -1      1700 1.17057E+02 3.89871E+01 0.00000E+00
 -1      1701 1.16548E+02 3.95351E+01 0.00000E+00
 -1      1702 1.17940E+02 3.76858E+01 0.00000E+00
 -1      1703 1.17572E+02 3.83029E+01 0.00000E+00
 -1      1704 1.18582E+02 3.62049E+01 0.00000E+00
 -1      1705 1.18339E+02 3.69183E+01 0.00000E+00
 -1      1706 1.18902E+02 3.45702E+01 0.00000E+00
 -1      1707 1.18817E+02 3.53335E+01 0.00000E+00
 -1      1708 1.17701E+02 2.90276E+01 0.00000E+00
 -1      1709 1.19580E+02 3.40757E+01 0.00000E+00
 -1      1710 1.48437E+02 2.56875E+00 0.00000E+00
 -1      1711 1.47138E+02 3.30625E+00 0.00000E+00
 -1      1712 1.19326E+02 3.22356E+01 0.00000E+00
 -1      1713 1.18642E+02 3.05363E+01 0.00000E+00
 -1      1714 1.16484E+02 2.77791E+01 0.00000E+00
 -1      1715 1.15009E+02 2.68590E+01 0.00000E+00
 -1      1716 1.13389E+02 2.62243E+01 0.00000E+00
 -1      1717 1.11683E+02 2.58745E+01 0.00000E+00
 -1      1718 1.09918E+02 2.59735E+01 0.00000E+00
 -1      1719 1.08205E+02 2.64477E+01 0.00000E+00
 -1      1720 1.06685E+02 2.72947E+01 0.00000E+00
 -1      1721 1.05403E+02 2.84759E+01 0.00000E+00
 -1      1722 1.04337E+02 2.98640E+01 0.00000E+00
 -1      1723 1.03494E+02 3.14679E+01 0.00000E+00
 -1      1724 1.03102E+02 3.32082E+01 0.00000E+00
 -1      1725 1.03139E+02 3.49898E+01 0.00000E+00
 -1      1726 1.03389E+02 3.68176E+01 0.00000E+00
 -1      1727 1.04121E+02 3.85546E+01 0.00000E+00
 -1      1728 1.05347E+02 3.99262E+01 0.00000E+00
 -1      1729 1.06792E+02 4.09511E+01 0.00000E+00
 -1      1730 1.08383E+02 4.17088E+01 0.00000E+00
 -1      1731 1.10112E+02 4.22342E+01 0.00000E+00
 -1      1732 1.11888E+02 4.22960E+01 0.00000E+00
 -1      1733 1.13591E+02 4.18992E+01 0.00000E+00
 -1      1734 1.15171E+02 4.12362E+01 0.00000E+00
 -1      1735 1.16587E+02 4.02465E+01 0.00000E+00
 -1      1736 1.17762E+02 3.89894E+01 0.00000E+00
 -1      1737 1.18675E+02 3.75377E+01 0.00000E+00
 -1      1738 1.19310E+02 3.58989E+01 0.00000E+00
 -1      1739 2.87400E+00 4.77875E+01 0.00000E+00
 -1      1740 3.89700E+00 4.04125E+01 0.00000E+00
 -1      1741 3.89700E+00 4.18875E+01 0.00000E+00
 -1      1742 3.89700E+00 4.33625E+01 0.00000E+00
 -1      1743 3.89700E+00 4.48375E+01 0.00000E+00
 -1      1744 5.19600E+00 4.26250E+01 0.00000E+00
 -1      1745 3.89700E+00 3.45500E+01 0.00000E+00
 -1      1746 3.89700E+00 3.60000E+01 0.00000E+00
 -1      1747 3.89700E+00 3.16000E+01 0.00000E+00
 -1      1748 3.89700E+00 3.30750E+01 0.00000E+00
 -1      1749 5.19600E+00 3.38000E+01 0.00000E+00
 -1      1750 3.89700E+00 2.86500E+01 0.00000E+00
 -1      1751 3.89700E+00 3.01250E+01 0.00000E+00
 -1      1752 5.19600E+00 3.08500E+01 0.00000E+00
 -1      1753 3.89700E+00 2.57000E+01 0.00000E+00
 -1      1754 3.89700E+00 2.71750E+01 0.00000E+00
 -1      1755 5.19600E+00 2.79000E+01 0.00000E+00
 -1      1756 3.89700E+00 2.27500E+01 0.00000E+00
 -1      1757 3.89700E+00 2.42250E+01 0.00000E+00
 -1      1758 5.19600E+00 2.49500E+01 0.00000E+00
 -1      1759 3.89700E+00 1.98000E+01 0.00000E+00
 -1      1760 3.89700E+00 2.12750E+01 0.00000E+00
 -1      1761 5.19600E+00 2.20000E+01 0.00000E+00
 -1      1762 3.89700E+00 1.69000E+01 0.00000E+00
 -1      1763 3.89700E+00 1.83500E+01 0.00000E+00
 -1      1764 5.19600E+00 1.90750E+01 0.00000E+00
 -1      1765 3.89700E+00 1.39500E+01 0.00000E+00
 -1      1766 3.89700E+00 1.54250E+01 0.00000E+00
 -1      1767 5.19600E+00 1.61500E+01 0.00000E+00
 -1      1768 3.89700E+00 1.10000E+01 0.00000E+00
 -1      1769 3.89700E+00 1.24750E+01 0.00000E+00
 -1      1770 5.19600E+00 1.32000E+01 0.00000E+00
 -1      1771 3.89700E+00 8.05000E+00 0.00000E+00
 -1      1772 3.89700E+00 9.52500E+00 0.00000E+00
 -1      1773 5.19600E+00 1.02500E+01 0.00000E+00
 -1      1774 3.89700E+00 5.10000E+00 0.00000E+00
 -1      1775 3.89700E+00 6.57500E+00 0.00000E+00
 -1      1776 5.19600E+00 7.30000E+00 0.00000E+00
 -1      1777 4.20450E+00 3.09687E+00 0.00000E+00
 -1      1778 4.06650E+00 4.19063E+00 0.00000E+00
 -1      1779 5.36550E+00 4.91563E+00 0.00000E+00
 -1      1780 5.70450E+00 3.09687E+00 0.00000E+00
 -1      1781 3.62400E+00 4.64885E+01 0.00000E+00
 -1      1782 8.70450E+00 3.09687E+00 0.00000E+00
 -1      1783 7.20450E+00 3.09687E+00 0.00000E+00
 -1      1784 7.03500E+00 4.00625E+00 0.00000E+00
 -1      1785 4.92300E+00 4.57510E+01 0.00000E+00
 -1      1786 8.40000E+00 4.61030E+01 0.00000E+00
 -1      1787 9.90000E+00 4.61030E+01 0.00000E+00
 -1      1788 1.14000E+01 4.61030E+01 0.00000E+00
 -1      1789 1.29000E+01 4.61030E+01 0.00000E+00
 -1      1790 1.06500E+01 4.48040E+01 0.00000E+00
 -1      1791 1.44000E+01 4.61030E+01 0.00000E+00
 -1      1792 1.59000E+01 4.61030E+01 0.00000E+00
 -1      1793 1.36500E+01 4.48040E+01 0.00000E+00
 -1      1794 1.74000E+01 4.61030E+01 0.00000E+00
 -1      1795 1.89000E+01 4.61030E+01 0.00000E+00
 -1      1796 1.66500E+01 4.48040E+01 0.00000E+00
 -1      1797 2.04000E+01 4.61030E+01 0.00000E+00
 -1      1798 2.19000E+01 4.61030E+01 0.00000E+00
 -1      1799 1.96500E+01 4.48040E+01 0.00000E+00
 -1      1800 2.34750E+01 4.61030E+01 0.00000E+00
 -1      1801 2.50500E+01 4.61030E+01 0.00000E+00
 -1      1802 2.27250E+01 4.48040E+01 0.00000E+00
 -1      1803 2.65500E+01 4.61030E+01 0.00000E+00
 -1      1804 2.80500E+01 4.61030E+01 0.00000E+00
 -1      1805 2.58000E+01 4.48040E+01 0.00000E+00
 -1      1806 2.95500E+01 4.61030E+01 0.00000E+00
 -1      1807 3.10500E+01 4.61030E+01 0.00000E+00
 -1      1808 2.88000E+01 4.48040E+01 0.00000E+00
 -1      1809 3.25500E+01 4.61030E+01 0.00000E+00
 -1      1810 3.40500E+01 4.61030E+01 0.00000E+00
 -1      1811 3.18000E+01 4.48040E+01 0.00000E+00
 -1      1812 3.55500E+01 4.61030E+01 0.00000E+00
 -1      1813 3.70500E+01 4.61030E+01 0.00000E+00
 -1      1814 3.48000E+01 4.48040E+01 0.00000E+00
 -1      1815 3.85500E+01 4.61030E+01 0.00000E+00
 -1      1816 4.00500E+01 4.61030E+01 0.00000E+00
 -1      1817 3.78000E+01 4.48040E+01 0.00000E+00
 -1      1818 4.15500E+01 4.61030E+01 0.00000E+00
 -1      1819 4.30500E+01 4.61030E+01 0.00000E+00
 -1      1820 4.08000E+01 4.48040E+01 0.00000E+00
 -1      1821 4.45500E+01 4.61030E+01 0.00000E+00
 -1      1822 4.60500E+01 4.61030E+01 0.00000E+00
 -1      1823 4.38000E+01 4.48040E+01 0.00000E+00
 -1      1824 4.75500E+01 4.61030E+01 0.00000E+00
 -1      1825 4.90500E+01 4.61030E+01 0.00000E+00
 -1      1826 4.68000E+01 4.48040E+01 0.00000E+00
 -1      1827 5.06250E+01 4.61030E+01 0.00000E+00
 -1      1828 5.22000E+01 4.61030E+01 0.00000E+00
 -1      1829 4.98750E+01 4.48040E+01 0.00000E+00
 -1      1830 5.37000E+01 4.61030E+01 0.00000E+00
 -1      1831 5.52000E+01 4.61030E+01 0.00000E+00
 -1      1832 5.29500E+01 4.48040E+01 0.00000E+00
 -1      1833 5.67000E+01 4.61030E+01 0.00000E+00
 -1      1834 5.82000E+01 4.61030E+01 0.00000E+00
 -1      1835 5.59500E+01 4.48040E+01 0.00000E+00
 -1      1836 5.97000E+01 4.61030E+01 0.00000E+00
 -1      1837 6.12000E+01 4.61030E+01 0.00000E+00
 -1      1838 5.89500E+01 4.48040E+01 0.00000E+00
 -1      1839 6.27000E+01 4.61030E+01 0.00000E+00
 -1      1840 6.42000E+01 4.61030E+01 0.00000E+00
 -1      1841 6.19500E+01 4.48040E+01 0.00000E+00
 -1      1842 6.57000E+01 4.61030E+01 0.00000E+00
 -1      1843 6.72000E+01 4.61030E+01 0.00000E+00
 -1      1844 6.49500E+01 4.48040E+01 0.00000E+00
 -1      1845 6.87000E+01 4.61030E+01 0.00000E+00
 -1      1846 7.02000E+01 4.61030E+01 0.00000E+00
 -1      1847 6.79500E+01 4.48040E+01 0.00000E+00
 -1      1848 7.17000E+01 4.61030E+01 0.00000E+00
 -1      1849 7.32000E+01 4.61030E+01 0.00000E+00
 -1      1850 7.09500E+01 4.48040E+01 0.00000E+00
 -1      1851 7.47000E+01 4.61030E+01 0.00000E+00
 -1      1852 7.62000E+01 4.61030E+01 0.00000E+00
 -1      1853 7.39500E+01 4.48040E+01 0.00000E+00
 -1      1854 7.77750E+01 4.61030E+01 0.00000E+00
 -1      1855 7.93500E+01 4.61030E+01 0.00000E+00
 -1      1856 7.70250E+01 4.48040E+01 0.00000E+00
 -1      1857 8.08500E+01 4.61030E+01 0.00000E+00
 -1      1858 8.23500E+01 4.61030E+01 0.00000E+00
 -1      1859 8.01000E+01 4.48040E+01 0.00000E+00
 -1      1860 8.38500E+01 4.61030E+01 0.00000E+00
 -1      1861 8.53500E+01 4.61030E+01 0.00000E+00
 -1      1862 8.31000E+01 4.48040E+01 0.00000E+00
 -1      1863 8.68500E+01 4.61030E+01 0.00000E+00
 -1      1864 8.83500E+01 4.61030E+01 0.00000E+00
 -1      1865 8.61000E+01 4.48040E+01 0.00000E+00
 -1      1866 8.98500E+01 4.61030E+01 0.00000E+00
 -1      1867 9.13500E+01 4.61030E+01 0.00000E+00
 -1      1868 8.91000E+01 4.48040E+01 0.00000E+00
 -1      1869 9.28500E+01 4.61030E+01 0.00000E+00
 -1      1870 9.43500E+01 4.61030E+01 0.00000E+00
 -1      1871 9.21000E+01 4.48040E+01 0.00000E+00
 -1      1872 9.58500E+01 4.61030E+01 0.00000E+00
 -1      1873 9.73500E+01 4.61030E+01 0.00000E+00
 -1      1874 9.51000E+01 4.48040E+01 0.00000E+00
 -1      1875 9.88500E+01 4.61030E+01 0.00000E+00
 -1      1876 1.00350E+02 4.61030E+01 0.00000E+00
 -1      1877 9.81000E+01 4.48040E+01 0.00000E+00
 -1      1878 1.01775E+02 4.61030E+01 0.00000E+00
 -1      1879 1.03200E+02 4.61030E+01 0.00000E+00
 -1      1880 1.01025E+02 4.48040E+01 0.00000E+00
 -1      1881 1.04550E+02 4.61030E+01 0.00000E+00
 -1      1882 1.05900E+02 4.61030E+01 0.00000E+00
 -1      1883 1.03800E+02 4.48040E+01 0.00000E+00
 -1      1884 1.07325E+02 4.64607E+01 0.00000E+00
 -1      1885 1.08675E+02 4.64607E+01 0.00000E+00
 -1      1886 1.10100E+02 4.62931E+01 0.00000E+00
 -1      1887 1.11600E+02 4.62931E+01 0.00000E+00
 -1      1888 1.13100E+02 4.62931E+01 0.00000E+00
 -1      1889 1.14600E+02 4.62931E+01 0.00000E+00
 -1      1890 1.16100E+02 4.62093E+01 0.00000E+00
 -1      1891 1.17600E+02 4.62093E+01 0.00000E+00
 -1      1892 1.19100E+02 4.62093E+01 0.00000E+00
 -1      1893 1.20600E+02 4.62093E+01 0.00000E+00
 -1      1894 1.18350E+02 4.50166E+01 0.00000E+00
 -1      1895 1.22175E+02 4.62093E+01 0.00000E+00
 -1      1896 1.23750E+02 4.62093E+01 0.00000E+00
 -1      1897 1.21425E+02 4.50166E+01 0.00000E+00
 -1      1898 1.25250E+02 4.62093E+01 0.00000E+00
 -1      1899 1.26750E+02 4.62093E+01 0.00000E+00
 -1      1900 1.24500E+02 4.50166E+01 0.00000E+00
 -1      1901 1.28250E+02 4.62093E+01 0.00000E+00
 -1      1902 1.29750E+02 4.62093E+01 0.00000E+00
 -1      1903 1.27500E+02 4.50166E+01 0.00000E+00
 -1      1904 1.31250E+02 4.62093E+01 0.00000E+00
 -1      1905 1.32750E+02 4.62093E+01 0.00000E+00
 -1      1906 1.30500E+02 4.50166E+01 0.00000E+00
 -1      1907 1.34250E+02 4.62093E+01 0.00000E+00
 -1      1908 1.35750E+02 4.62093E+01 0.00000E+00
 -1      1909 1.33500E+02 4.50166E+01 0.00000E+00
 -1      1910 1.37250E+02 4.62093E+01 0.00000E+00
 -1      1911 1.38750E+02 4.62093E+01 0.00000E+00
 -1      1912 1.36500E+02 4.50166E+01 0.00000E+00
 -1      1913 1.40250E+02 4.62093E+01 0.00000E+00
 -1      1914 1.41750E+02 4.62093E+01 0.00000E+00
 -1      1915 1.39500E+02 4.50166E+01 0.00000E+00
 -1      1916 1.43250E+02 4.62093E+01 0.00000E+00
 -1      1917 1.44750E+02 4.62093E+01 0.00000E+00
 -1      1918 1.42500E+02 4.50166E+01 0.00000E+00
 -1      1919 1.46538E+02 4.61825E+01 0.00000E+00
 -1      1920 1.41240E+01 3.48650E+00 0.00000E+00
 -1      1921 1.26240E+01 3.48650E+00 0.00000E+00
 -1      1922 1.71240E+01 3.48650E+00 0.00000E+00
 -1      1923 1.56240E+01 3.48650E+00 0.00000E+00
 -1      1924 1.48740E+01 4.78550E+00 0.00000E+00
 -1      1925 2.01240E+01 3.48650E+00 0.00000E+00
 -1      1926 1.86240E+01 3.48650E+00 0.00000E+00
 -1      1927 1.78740E+01 4.78550E+00 0.00000E+00
 -1      1928 2.31240E+01 3.48650E+00 0.00000E+00
 -1      1929 2.16240E+01 3.48650E+00 0.00000E+00
 -1      1930 2.08740E+01 4.78550E+00 0.00000E+00
 -1      1931 2.61240E+01 3.48650E+00 0.00000E+00
 -1      1932 2.46240E+01 3.48650E+00 0.00000E+00
 -1      1933 2.38740E+01 4.78550E+00 0.00000E+00
 -1      1934 2.91240E+01 3.48650E+00 0.00000E+00
 -1      1935 2.76240E+01 3.48650E+00 0.00000E+00
 -1      1936 2.68740E+01 4.78550E+00 0.00000E+00
 -1      1937 3.21240E+01 3.48650E+00 0.00000E+00
 -1      1938 3.06240E+01 3.48650E+00 0.00000E+00
 -1      1939 2.98740E+01 4.78550E+00 0.00000E+00
 -1      1940 3.51240E+01 3.48650E+00 0.00000E+00
 -1      1941 3.36240E+01 3.48650E+00 0.00000E+00
 -1      1942 3.28740E+01 4.78550E+00 0.00000E+00
 -1      1943 3.81240E+01 3.48650E+00 0.00000E+00
 -1      1944 3.66240E+01 3.48650E+00 0.00000E+00
 -1      1945 3.58740E+01 4.78550E+00 0.00000E+00
 -1      1946 4.11240E+01 3.48650E+00 0.00000E+00
 -1      1947 3.96240E+01 3.48650E+00 0.00000E+00
 -1      1948 3.88740E+01 4.78550E+00 0.00000E+00
 -1      1949 4.41240E+01 3.48650E+00 0.00000E+00
 -1      1950 4.26240E+01 3.48650E+00 0.00000E+00
 -1      1951 4.18740E+01 4.78550E+00 0.00000E+00
 -1      1952 4.71240E+01 3.48650E+00 0.00000E+00
 -1      1953 4.56240E+01 3.48650E+00 0.00000E+00
 -1      1954 4.48740E+01 4.78550E+00 0.00000E+00
 -1      1955 5.01240E+01 3.48650E+00 0.00000E+00
 -1      1956 4.86240E+01 3.48650E+00 0.00000E+00
 -1      1957 4.78740E+01 4.78550E+00 0.00000E+00
 -1      1958 5.31240E+01 3.48650E+00 0.00000E+00
 -1      1959 5.16240E+01 3.48650E+00 0.00000E+00
 -1      1960 5.08740E+01 4.78550E+00 0.00000E+00
 -1      1961 5.61240E+01 3.48650E+00 0.00000E+00
 -1      1962 5.46240E+01 3.48650E+00 0.00000E+00
 -1      1963 5.38740E+01 4.78550E+00 0.00000E+00
 -1      1964 5.91240E+01 3.48650E+00 0.00000E+00
 -1      1965 5.76240E+01 3.48650E+00 0.00000E+00
 -1      1966 5.68740E+01 4.78550E+00 0.00000E+00
 -1      1967 6.21240E+01 3.48650E+00 0.00000E+00
 -1      1968 6.06240E+01 3.48650E+00 0.00000E+00
 -1      1969 5.98740E+01 4.78550E+00 0.00000E+00
 -1      1970 6.51240E+01 3.48650E+00 0.00000E+00
 -1      1971 6.36240E+01 3.48650E+00 0.00000E+00
 -1      1972 6.28740E+01 4.78550E+00 0.00000E+00
 -1      1973 6.81240E+01 3.48650E+00 0.00000E+00
 -1      1974 6.66240E+01 3.48650E+00 0.00000E+00
 -1      1975 6.58740E+01 4.78550E+00 0.00000E+00
 -1      1976 7.11240E+01 3.48650E+00 0.00000E+00
 -1      1977 6.96240E+01 3.48650E+00 0.00000E+00
 -1      1978 6.88740E+01 4.78550E+00 0.00000E+00
 -1      1979 7.41240E+01 3.48650E+00 0.00000E+00
 -1      1980 7.26240E+01 3.48650E+00 0.00000E+00
 -1      1981 7.18740E+01 4.78550E+00 0.00000E+00
 -1      1982 7.71240E+01 3.48650E+00 0.00000E+00
 -1      1983 7.56240E+01 3.48650E+00 0.00000E+00
 -1      1984 7.48740E+01 4.78550E+00 0.00000E+00
 -1      1985 8.01240E+01 3.48650E+00 0.00000E+00
 -1      1986 7.86240E+01 3.48650E+00 0.00000E+00
 -1      1987 7.78740E+01 4.78550E+00 0.00000E+00
 -1      1988 8.31240E+01 3.48650E+00 0.00000E+00
 -1      1989 8.16240E+01 3.48650E+00 0.00000E+00
 -1      1990 8.08740E+01 4.78550E+00 0.00000E+00
 -1      1991 8.61240E+01 3.48650E+00 0.00000E+00
 -1      1992 8.46240E+01 3.48650E+00 0.00000E+00
 -1      1993 8.38740E+01 4.78550E+00 0.00000E+00
 -1      1994 8.91240E+01 3.48650E+00 0.00000E+00
 -1      1995 8.76240E+01 3.48650E+00 0.00000E+00
 -1      1996 8.68740E+01 4.78550E+00 0.00000E+00
 -1      1997 9.21240E+01 3.48650E+00 0.00000E+00
 -1      1998 9.06240E+01 3.48650E+00 0.00000E+00
 -1      1999 8.98740E+01 4.78550E+00 0.00000E+00
 -1      2000 9.51240E+01 3.48650E+00 0.00000E+00
 -1      2001 9.36240E+01 3.48650E+00 0.00000E+00
 -1      2002 9.28740E+01 4.78550E+00 0.00000E+00
 -1      2003 9.81240E+01 3.48650E+00 0.00000E+00
 -1      2004 9.66240E+01 3.48650E+00 0.00000E+00
 -1      2005 9.58740E+01 4.78550E+00 0.00000E+00
 -1      2006 1.01124E+02 3.48650E+00 0.00000E+00
 -1      2007 9.96240E+01 3.48650E+00 0.00000E+00
 -1      2008 9.88740E+01 4.78550E+00 0.00000E+00
 -1      2009 1.04124E+02 3.48650E+00 0.00000E+00
 -1      2010 1.02624E+02 3.48650E+00 0.00000E+00
 -1      2011 1.01874E+02 4.78550E+00 0.00000E+00
 -1      2012 1.07124E+02 3.48650E+00 0.00000E+00
 -1      2013 1.05624E+02 3.48650E+00 0.00000E+00
 -1      2014 1.04874E+02 4.78550E+00 0.00000E+00
 -1      2015 1.10124E+02 3.48650E+00 0.00000E+00
 -1      2016 1.08624E+02 3.48650E+00 0.00000E+00
 -1      2017 1.07874E+02 4.78550E+00 0.00000E+00
 -1      2018 1.13124E+02 3.48650E+00 0.00000E+00
 -1      2019 1.11624E+02 3.48650E+00 0.00000E+00
 -1      2020 1.10874E+02 4.78550E+00 0.00000E+00
 -1      2021 1.16124E+02 3.48650E+00 0.00000E+00
 -1      2022 1.14624E+02 3.48650E+00 0.00000E+00
 -1      2023 1.13874E+02 4.78550E+00 0.00000E+00
 -1      2024 1.19124E+02 3.48650E+00 0.00000E+00
 -1      2025 1.17624E+02 3.48650E+00 0.00000E+00
 -1      2026 1.16874E+02 4.78550E+00 0.00000E+00
 -1      2027 1.22124E+02 3.48650E+00 0.00000E+00
 -1      2028 1.20624E+02 3.48650E+00 0.00000E+00
 -1      2029 1.19874E+02 4.78550E+00 0.00000E+00
 -1      2030 1.25124E+02 3.48650E+00 0.00000E+00
 -1      2031 1.23624E+02 3.48650E+00 0.00000E+00
 -1      2032 1.22874E+02 4.78550E+00 0.00000E+00
 -1      2033 1.28124E+02 3.48650E+00 0.00000E+00
 -1      2034 1.26624E+02 3.48650E+00 0.00000E+00
 -1      2035 1.25874E+02 4.78550E+00 0.00000E+00
 -1      2036 1.31124E+02 3.48650E+00 0.00000E+00
 -1      2037 1.29624E+02 3.48650E+00 0.00000E+00
 -1      2038 1.28874E+02 4.78550E+00 0.00000E+00
 -1      2039 1.34124E+02 3.48650E+00 0.00000E+00
 -1      2040 1.32624E+02 3.48650E+00 0.00000E+00
 -1      2041 1.31874E+02 4.78550E+00 0.00000E+00
 -1      2042 1.37124E+02 3.48650E+00 0.00000E+00
 -1      2043 1.35624E+02 3.48650E+00 0.00000E+00
 -1      2044 1.34874E+02 4.78550E+00 0.00000E+00
 -1      2045 1.40124E+02 3.48650E+00 0.00000E+00
 -1      2046 1.38624E+02 3.48650E+00 0.00000E+00
 -1      2047 1.37874E+02 4.78550E+00 0.00000E+00
 -1      2048 1.43124E+02 3.48650E+00 0.00000E+00
 -1      2049 1.41624E+02 3.48650E+00 0.00000E+00
 -1      2050 1.40874E+02 4.78550E+00 0.00000E+00
 -1      2051 1.45881E+02 3.39637E+00 0.00000E+00
 -1      2052 1.44381E+02 3.39637E+00 0.00000E+00
 -1      2053 1.43631E+02 4.69537E+00 0.00000E+00
 -1      2054 1.46145E+02 4.51512E+00 0.00000E+00
 -1      2055 1.46103E+02 1.25375E+01 0.00000E+00
 -1      2056 1.46103E+02 1.10625E+01 0.00000E+00
 -1      2057 1.46103E+02 9.58750E+00 0.00000E+00
 -1      2058 1.46103E+02 8.11250E+00 0.00000E+00
 -1      2059 1.44804E+02 1.03250E+01 0.00000E+00
 -1      2060 1.46145E+02 5.99013E+00 0.00000E+00
 -1      2061 1.46103E+02 1.54375E+01 0.00000E+00
 -1      2062 1.46103E+02 1.39875E+01 0.00000E+00
 -1      2063 1.44804E+02 1.32500E+01 0.00000E+00
 -1      2064 1.46103E+02 1.83875E+01 0.00000E+00
 -1      2065 1.46103E+02 1.69125E+01 0.00000E+00
 -1      2066 1.44804E+02 1.61750E+01 0.00000E+00
 -1      2067 1.46103E+02 2.13375E+01 0.00000E+00
 -1      2068 1.46103E+02 1.98625E+01 0.00000E+00
 -1      2069 1.44804E+02 1.91250E+01 0.00000E+00
 -1      2070 1.46103E+02 2.42875E+01 0.00000E+00
 -1      2071 1.46103E+02 2.28125E+01 0.00000E+00
 -1      2072 1.44804E+02 2.20750E+01 0.00000E+00
 -1      2073 1.46103E+02 2.72375E+01 0.00000E+00
 -1      2074 1.46103E+02 2.57625E+01 0.00000E+00
 -1      2075 1.44804E+02 2.50250E+01 0.00000E+00
 -1      2076 1.46103E+02 3.01875E+01 0.00000E+00
 -1      2077 1.46103E+02 2.87125E+01 0.00000E+00
 -1      2078 1.44804E+02 2.79750E+01 0.00000E+00
 -1      2079 1.46103E+02 3.30875E+01 0.00000E+00
 -1      2080 1.46103E+02 3.16375E+01 0.00000E+00
 -1      2081 1.44804E+02 3.09000E+01 0.00000E+00
 -1      2082 1.46103E+02 3.60375E+01 0.00000E+00
 -1      2083 1.46103E+02 3.45625E+01 0.00000E+00
 -1      2084 1.44804E+02 3.38250E+01 0.00000E+00
 -1      2085 1.46103E+02 3.89875E+01 0.00000E+00
 -1      2086 1.46103E+02 3.75125E+01 0.00000E+00
 -1      2087 1.44804E+02 3.67750E+01 0.00000E+00
 -1      2088 1.46103E+02 4.19375E+01 0.00000E+00
 -1      2089 1.46103E+02 4.04625E+01 0.00000E+00
 -1      2090 1.44804E+02 3.97250E+01 0.00000E+00
 -1      2091 1.14143E+01 3.29169E+00 0.00000E+00
 -1      2092 9.91425E+00 3.29169E+00 0.00000E+00
 -1      2093 9.74475E+00 4.20106E+00 0.00000E+00
 -1      2094 1.21643E+01 4.59069E+00 0.00000E+00
 -1      2095 1.19102E+02 2.98097E+01 0.00000E+00
 -1      2096 1.19498E+02 3.06207E+01 0.00000E+00
 -1      2097 1.16639E+02 2.69052E+01 0.00000E+00
 -1      2098 1.17311E+02 2.74562E+01 0.00000E+00
 -1      2099 1.20371E+02 3.36280E+01 0.00000E+00
 -1      2100 1.20336E+02 3.45799E+01 0.00000E+00
 -1      2101 1.17939E+02 2.82798E+01 0.00000E+00
 -1      2102 1.18484E+02 2.89774E+01 0.00000E+00
 -1      2103 3.89700E+00 3.74688E+01 0.00000E+00
 -1      2104 3.89700E+00 3.89437E+01 0.00000E+00
 -1      2105 5.19600E+00 3.96813E+01 0.00000E+00
 -1      2106 5.19600E+00 3.67438E+01 0.00000E+00
 -1      2107 1.14913E+02 2.60094E+01 0.00000E+00
 -1      2108 1.15716E+02 2.63786E+01 0.00000E+00
 -1      2109 1.13220E+02 2.53558E+01 0.00000E+00
 -1      2110 1.14036E+02 2.56212E+01 0.00000E+00
 -1      2111 1.11320E+02 2.49785E+01 0.00000E+00
 -1      2112 1.12209E+02 2.50630E+01 0.00000E+00
 -1      2113 1.09321E+02 2.53078E+01 0.00000E+00
 -1      2114 1.10198E+02 2.51244E+01 0.00000E+00
 -1      2115 1.07546E+02 2.59018E+01 0.00000E+00
 -1      2116 1.08383E+02 2.56110E+01 0.00000E+00
 -1      2117 1.05881E+02 2.70052E+01 0.00000E+00
 -1      2118 1.06564E+02 2.64490E+01 0.00000E+00
 -1      2119 1.04606E+02 2.83113E+01 0.00000E+00
 -1      2120 1.05204E+02 2.76863E+01 0.00000E+00
 -1      2121 1.03443E+02 2.98409E+01 0.00000E+00
 -1      2122 1.03912E+02 2.90778E+01 0.00000E+00
 -1      2123 1.02677E+02 3.16075E+01 0.00000E+00
 -1      2124 1.03051E+02 3.07668E+01 0.00000E+00
 -1      2125 1.02403E+02 3.36442E+01 0.00000E+00
 -1      2126 1.02421E+02 3.27447E+01 0.00000E+00
 -1      2127 1.02394E+02 3.54790E+01 0.00000E+00
 -1      2128 1.02339E+02 3.45969E+01 0.00000E+00
 -1      2129 1.02646E+02 3.74635E+01 0.00000E+00
 -1      2130 1.02452E+02 3.65178E+01 0.00000E+00
 -1      2131 1.03749E+02 3.93847E+01 0.00000E+00
 -1      2132 1.03212E+02 3.85933E+01 0.00000E+00
 -1      2133 1.05247E+02 4.07441E+01 0.00000E+00
 -1      2134 1.04558E+02 4.01639E+01 0.00000E+00
 -1      2135 1.06821E+02 4.17683E+01 0.00000E+00
 -1      2136 1.06064E+02 4.13236E+01 0.00000E+00
 -1      2137 1.08557E+02 4.25112E+01 0.00000E+00
 -1      2138 1.07723E+02 4.21983E+01 0.00000E+00
 -1      2139 1.10411E+02 4.29710E+01 0.00000E+00
 -1      2140 1.09515E+02 4.27585E+01 0.00000E+00
 -1      2141 1.12459E+02 4.29833E+01 0.00000E+00
 -1      2142 1.11579E+02 4.31340E+01 0.00000E+00
 -1      2143 1.14200E+02 4.24372E+01 0.00000E+00
 -1      2144 1.13377E+02 4.26833E+01 0.00000E+00
 -1      2145 1.15882E+02 4.16322E+01 0.00000E+00
 -1      2146 1.15125E+02 4.20490E+01 0.00000E+00
 -1      2147 1.17342E+02 4.04493E+01 0.00000E+00
 -1      2148 1.16683E+02 4.10221E+01 0.00000E+00
 -1      2149 1.18637E+02 3.91126E+01 0.00000E+00
 -1      2150 1.18122E+02 3.97968E+01 0.00000E+00
 -1      2151 1.19524E+02 3.74914E+01 0.00000E+00
 -1      2152 1.19125E+02 3.82589E+01 0.00000E+00
 -1      2153 1.20174E+02 3.56652E+01 0.00000E+00
 -1      2154 1.19939E+02 3.65365E+01 0.00000E+00
 -1      2155 1.19839E+02 3.15783E+01 0.00000E+00
 -1      2156 1.20127E+02 3.24666E+01 0.00000E+00
 -1      2157 1.06575E+02 4.51617E+01 0.00000E+00
 -1      2158 1.09425E+02 4.53517E+01 0.00000E+00
 -1      2159 6.42300E+00 4.57510E+01 0.00000E+00
 -1      2160 1.19340E+02 2.90619E+01 0.00000E+00
 -1      2161 1.16542E+02 2.60556E+01 0.00000E+00
 -1      2162 7.17300E+00 4.44520E+01 0.00000E+00
 -1      2163 1.45788E+02 4.49898E+01 0.00000E+00
 -1      2164 1.20298E+02 3.08517E+01 0.00000E+00
 -1      2165 1.44846E+02 6.72762E+00 0.00000E+00
 -1      2166 1.20883E+02 3.29708E+01 0.00000E+00
 -1      2167 1.20965E+02 3.52175E+01 0.00000E+00
 -1      2168 1.45701E+02 4.38458E+01 0.00000E+00
 -1      2169 1.20389E+02 3.72577E+01 0.00000E+00
 -1      2170 1.19486E+02 3.90663E+01 0.00000E+00
 -1      2171 1.18094E+02 2.74060E+01 0.00000E+00
 -1      2172 1.44402E+02 4.31083E+01 0.00000E+00
 -1      2173 1.18218E+02 4.05725E+01 0.00000E+00
 -1      2174 1.16637E+02 4.18350E+01 0.00000E+00
 -1      2175 1.14911E+02 4.28331E+01 0.00000E+00
 -1      2176 1.13068E+02 4.35213E+01 0.00000E+00
 -1      2177 1.10981E+02 4.36583E+01 0.00000E+00
 -1      2178 1.08856E+02 4.32481E+01 0.00000E+00
 -1      2179 1.06995E+02 4.25708E+01 0.00000E+00
 -1      2180 1.05275E+02 4.15613E+01 0.00000E+00
 -1      2181 1.03649E+02 4.02026E+01 0.00000E+00
 -1      2182 1.02275E+02 3.82936E+01 0.00000E+00
 -1      2183 1.01652E+02 3.61249E+01 0.00000E+00
 -1      2184 1.01658E+02 3.41334E+01 0.00000E+00
 -1      2185 1.01978E+02 3.20436E+01 0.00000E+00
 -1      2186 1.02626E+02 2.99806E+01 0.00000E+00
 -1      2187 1.03712E+02 2.82882E+01 0.00000E+00
 -1      2188 1.05084E+02 2.68407E+01 0.00000E+00
 -1      2189 1.06742E+02 2.56123E+01 0.00000E+00
 -1      2190 1.08663E+02 2.47619E+01 0.00000E+00
 -1      2191 1.10723E+02 2.43129E+01 0.00000E+00
 -1      2192 1.14744E+02 2.51408E+01 0.00000E+00
 -1      2193 1.12857E+02 2.44598E+01 0.00000E+00
 -1      2194 6.49500E+00 3.01125E+01 0.00000E+00
 -1      2195 6.49500E+00 3.15875E+01 0.00000E+00
 -1      2196 6.49500E+00 3.30625E+01 0.00000E+00
 -1      2197 6.49500E+00 3.45375E+01 0.00000E+00
 -1      2198 7.79400E+00 3.23250E+01 0.00000E+00
 -1      2199 6.49500E+00 2.42125E+01 0.00000E+00
 -1      2200 6.49500E+00 2.56875E+01 0.00000E+00
 -1      2201 6.49500E+00 2.12625E+01 0.00000E+00
 -1      2202 6.49500E+00 2.27375E+01 0.00000E+00
 -1      2203 7.79400E+00 2.34750E+01 0.00000E+00
 -1      2204 6.49500E+00 1.83625E+01 0.00000E+00
 -1      2205 6.49500E+00 1.98125E+01 0.00000E+00
 -1      2206 7.79400E+00 2.05500E+01 0.00000E+00
 -1      2207 6.49500E+00 1.54125E+01 0.00000E+00
 -1      2208 6.49500E+00 1.68875E+01 0.00000E+00
 -1      2209 7.79400E+00 1.76250E+01 0.00000E+00
 -1      2210 6.49500E+00 1.24625E+01 0.00000E+00
 -1      2211 6.49500E+00 1.39375E+01 0.00000E+00
 -1      2212 7.79400E+00 1.46750E+01 0.00000E+00
 -1      2213 6.49500E+00 9.51250E+00 0.00000E+00
 -1      2214 6.49500E+00 1.09875E+01 0.00000E+00
 -1      2215 7.79400E+00 1.17250E+01 0.00000E+00
 -1      2216 6.49500E+00 6.56250E+00 0.00000E+00
 -1      2217 6.49500E+00 8.03750E+00 0.00000E+00
 -1      2218 7.79400E+00 8.77500E+00 0.00000E+00
 -1      2219 6.84975E+00 4.82969E+00 0.00000E+00
 -1      2220 6.68025E+00 5.73906E+00 0.00000E+00
 -1      2221 7.97925E+00 6.47656E+00 0.00000E+00
 -1      2222 8.34975E+00 4.82969E+00 0.00000E+00
 -1      2223 1.12350E+02 4.51842E+01 0.00000E+00
 -1      2224 9.90000E+00 4.35050E+01 0.00000E+00
 -1      2225 1.14000E+01 4.35050E+01 0.00000E+00
 -1      2226 1.19619E+02 2.82097E+01 0.00000E+00
 -1      2227 1.20237E+02 2.90419E+01 0.00000E+00
 -1      2228 1.21306E+02 3.70885E+01 0.00000E+00
 -1      2229 1.20891E+02 3.80434E+01 0.00000E+00
 -1      2230 1.29000E+01 4.35050E+01 0.00000E+00
 -1      2231 1.44000E+01 4.35050E+01 0.00000E+00
 -1      2232 1.21500E+01 4.22060E+01 0.00000E+00
 -1      2233 1.59000E+01 4.35050E+01 0.00000E+00
 -1      2234 1.74000E+01 4.35050E+01 0.00000E+00
 -1      2235 1.51500E+01 4.22060E+01 0.00000E+00
 -1      2236 1.89000E+01 4.35050E+01 0.00000E+00
 -1      2237 2.04000E+01 4.35050E+01 0.00000E+00
 -1      2238 1.81500E+01 4.22060E+01 0.00000E+00
 -1      2239 2.19750E+01 4.35050E+01 0.00000E+00
 -1      2240 2.35500E+01 4.35050E+01 0.00000E+00
 -1      2241 2.12250E+01 4.22060E+01 0.00000E+00
 -1      2242 2.50500E+01 4.35050E+01 0.00000E+00
 -1      2243 2.65500E+01 4.35050E+01 0.00000E+00
 -1      2244 2.43000E+01 4.22060E+01 0.00000E+00
 -1      2245 2.80500E+01 4.35050E+01 0.00000E+00
 -1      2246 2.95500E+01 4.35050E+01 0.00000E+00
 -1      2247 2.73000E+01 4.22060E+01 0.00000E+00
 -1      2248 3.10500E+01 4.35050E+01 0.00000E+00
 -1      2249 3.25500E+01 4.35050E+01 0.00000E+00
 -1      2250 3.03000E+01 4.22060E+01 0.00000E+00
 -1      2251 3.40500E+01 4.35050E+01 0.00000E+00
 -1      2252 3.55500E+01 4.35050E+01 0.00000E+00
 -1      2253 3.33000E+01 4.22060E+01 0.00000E+00
 -1      2254 3.70500E+01 4.35050E+01 0.00000E+00
 -1      2255 3.85500E+01 4.35050E+01 0.00000E+00
 -1      2256 3.63000E+01 4.22060E+01 0.00000E+00
 -1      2257 4.00500E+01 4.35050E+01 0.00000E+00
 -1      2258 4.15500E+01 4.35050E+01 0.00000E+00
 -1      2259 3.93000E+01 4.22060E+01 0.00000E+00
 -1      2260 4.30500E+01 4.35050E+01 0.00000E+00
 -1      2261 4.45500E+01 4.35050E+01 0.00000E+00
 -1      2262 4.23000E+01 4.22060E+01 0.00000E+00
 -1      2263 4.60500E+01 4.35050E+01 0.00000E+00
 -1      2264 4.75500E+01 4.35050E+01 0.00000E+00
 -1      2265 4.53000E+01 4.22060E+01 0.00000E+00
 -1      2266 4.91250E+01 4.35050E+01 0.00000E+00
 -1      2267 5.07000E+01 4.35050E+01 0.00000E+00
 -1      2268 4.83750E+01 4.22060E+01 0.00000E+00
 -1      2269 5.22000E+01 4.35050E+01 0.00000E+00
 -1      2270 5.37000E+01 4.35050E+01 0.00000E+00
 -1      2271 5.14500E+01 4.22060E+01 0.00000E+00
 -1      2272 5.52000E+01 4.35050E+01 0.00000E+00
 -1      2273 5.67000E+01 4.35050E+01 0.00000E+00
 -1      2274 5.44500E+01 4.22060E+01 0.00000E+00
 -1      2275 5.82000E+01 4.35050E+01 0.00000E+00
 -1      2276 5.97000E+01 4.35050E+01 0.00000E+00
 -1      2277 5.74500E+01 4.22060E+01 0.00000E+00
 -1      2278 6.12000E+01 4.35050E+01 0.00000E+00
 -1      2279 6.27000E+01 4.35050E+01 0.00000E+00
 -1      2280 6.04500E+01 4.22060E+01 0.00000E+00
 -1      2281 6.42000E+01 4.35050E+01 0.00000E+00
 -1      2282 6.57000E+01 4.35050E+01 0.00000E+00
 -1      2283 6.34500E+01 4.22060E+01 0.00000E+00
 -1      2284 6.72000E+01 4.35050E+01 0.00000E+00
 -1      2285 6.87000E+01 4.35050E+01 0.00000E+00
 -1      2286 6.64500E+01 4.22060E+01 0.00000E+00
 -1      2287 7.02000E+01 4.35050E+01 0.00000E+00
 -1      2288 7.17000E+01 4.35050E+01 0.00000E+00
 -1      2289 6.94500E+01 4.22060E+01 0.00000E+00
 -1      2290 7.32000E+01 4.35050E+01 0.00000E+00
 -1      2291 7.47000E+01 4.35050E+01 0.00000E+00
 -1      2292 7.24500E+01 4.22060E+01 0.00000E+00
 -1      2293 7.62750E+01 4.35050E+01 0.00000E+00
 -1      2294 7.78500E+01 4.35050E+01 0.00000E+00
 -1      2295 7.55250E+01 4.22060E+01 0.00000E+00
 -1      2296 7.93500E+01 4.35050E+01 0.00000E+00
 -1      2297 8.08500E+01 4.35050E+01 0.00000E+00
 -1      2298 7.86000E+01 4.22060E+01 0.00000E+00
 -1      2299 8.23500E+01 4.35050E+01 0.00000E+00
 -1      2300 8.38500E+01 4.35050E+01 0.00000E+00
 -1      2301 8.16000E+01 4.22060E+01 0.00000E+00
 -1      2302 8.53500E+01 4.35050E+01 0.00000E+00
 -1      2303 8.68500E+01 4.35050E+01 0.00000E+00
 -1      2304 8.46000E+01 4.22060E+01 0.00000E+00
 -1      2305 8.83500E+01 4.35050E+01 0.00000E+00
 -1      2306 8.98500E+01 4.35050E+01 0.00000E+00
 -1      2307 8.76000E+01 4.22060E+01 0.00000E+00
 -1      2308 9.13500E+01 4.35050E+01 0.00000E+00
 -1      2309 9.28500E+01 4.35050E+01 0.00000E+00
 -1      2310 9.06000E+01 4.22060E+01 0.00000E+00
 -1      2311 9.43500E+01 4.35050E+01 0.00000E+00
 -1      2312 9.58500E+01 4.35050E+01 0.00000E+00
 -1      2313 9.36000E+01 4.22060E+01 0.00000E+00
 -1      2314 9.73500E+01 4.35050E+01 0.00000E+00
 -1      2315 9.88500E+01 4.35050E+01 0.00000E+00
 -1      2316 9.66000E+01 4.22060E+01 0.00000E+00
 -1      2317 1.00275E+02 4.35050E+01 0.00000E+00
 -1      2318 1.01700E+02 4.35050E+01 0.00000E+00
 -1      2319 9.95250E+01 4.22060E+01 0.00000E+00
 -1      2320 1.03125E+02 4.38627E+01 0.00000E+00
 -1      2321 1.04475E+02 4.38627E+01 0.00000E+00
 -1      2322 1.15350E+02 4.51004E+01 0.00000E+00
 -1      2323 1.20936E+02 3.00855E+01 0.00000E+00
 -1      2324 1.21277E+02 3.10431E+01 0.00000E+00
 -1      2325 1.20637E+02 4.39077E+01 0.00000E+00
 -1      2326 1.22213E+02 4.39077E+01 0.00000E+00
 -1      2327 1.23713E+02 4.39077E+01 0.00000E+00
 -1      2328 1.25213E+02 4.39077E+01 0.00000E+00
 -1      2329 1.22925E+02 4.27988E+01 0.00000E+00
 -1      2330 1.26713E+02 4.39077E+01 0.00000E+00
 -1      2331 1.28212E+02 4.39077E+01 0.00000E+00
 -1      2332 1.25925E+02 4.27988E+01 0.00000E+00
 -1      2333 1.29712E+02 4.39077E+01 0.00000E+00
 -1      2334 1.31212E+02 4.39077E+01 0.00000E+00
 -1      2335 1.28925E+02 4.27988E+01 0.00000E+00
 -1      2336 1.32712E+02 4.39077E+01 0.00000E+00
 -1      2337 1.34212E+02 4.39077E+01 0.00000E+00
 -1      2338 1.31925E+02 4.27988E+01 0.00000E+00
 -1      2339 1.35712E+02 4.39077E+01 0.00000E+00
 -1      2340 1.37212E+02 4.39077E+01 0.00000E+00
 -1      2341 1.34925E+02 4.27988E+01 0.00000E+00
 -1      2342 1.38712E+02 4.39077E+01 0.00000E+00
 -1      2343 1.40212E+02 4.39077E+01 0.00000E+00
 -1      2344 1.37925E+02 4.27988E+01 0.00000E+00
 -1      2345 1.41557E+02 4.35080E+01 0.00000E+00
 -1      2346 1.43057E+02 4.35080E+01 0.00000E+00
 -1      2347 1.43459E+02 4.15997E+01 0.00000E+00
 -1      2348 1.40770E+02 4.23991E+01 0.00000E+00
 -1      2349 2.16240E+01 6.08450E+00 0.00000E+00
 -1      2350 2.01240E+01 6.08450E+00 0.00000E+00
 -1      2351 1.86240E+01 6.08450E+00 0.00000E+00
 -1      2352 1.71240E+01 6.08450E+00 0.00000E+00
 -1      2353 1.93740E+01 7.38350E+00 0.00000E+00
 -1      2354 1.56240E+01 6.08450E+00 0.00000E+00
 -1      2355 1.41240E+01 6.08450E+00 0.00000E+00
 -1      2356 1.63740E+01 7.38350E+00 0.00000E+00
 -1      2357 2.46240E+01 6.08450E+00 0.00000E+00
 -1      2358 2.31240E+01 6.08450E+00 0.00000E+00
 -1      2359 2.23740E+01 7.38350E+00 0.00000E+00
 -1      2360 2.76240E+01 6.08450E+00 0.00000E+00
 -1      2361 2.61240E+01 6.08450E+00 0.00000E+00
 -1      2362 2.53740E+01 7.38350E+00 0.00000E+00
 -1      2363 3.06240E+01 6.08450E+00 0.00000E+00
 -1      2364 2.91240E+01 6.08450E+00 0.00000E+00
 -1      2365 2.83740E+01 7.38350E+00 0.00000E+00
 -1      2366 3.36240E+01 6.08450E+00 0.00000E+00
 -1      2367 3.21240E+01 6.08450E+00 0.00000E+00
 -1      2368 3.13740E+01 7.38350E+00 0.00000E+00
 -1      2369 3.66240E+01 6.08450E+00 0.00000E+00
 -1      2370 3.51240E+01 6.08450E+00 0.00000E+00
 -1      2371 3.43740E+01 7.38350E+00 0.00000E+00
 -1      2372 3.96240E+01 6.08450E+00 0.00000E+00
 -1      2373 3.81240E+01 6.08450E+00 0.00000E+00
 -1      2374 3.73740E+01 7.38350E+00 0.00000E+00
 -1      2375 4.26240E+01 6.08450E+00 0.00000E+00
 -1      2376 4.11240E+01 6.08450E+00 0.00000E+00
 -1      2377 4.03740E+01 7.38350E+00 0.00000E+00
 -1      2378 4.56240E+01 6.08450E+00 0.00000E+00
 -1      2379 4.41240E+01 6.08450E+00 0.00000E+00
 -1      2380 4.33740E+01 7.38350E+00 0.00000E+00
 -1      2381 4.86240E+01 6.08450E+00 0.00000E+00
 -1      2382 4.71240E+01 6.08450E+00 0.00000E+00
 -1      2383 4.63740E+01 7.38350E+00 0.00000E+00
 -1      2384 5.16240E+01 6.08450E+00 0.00000E+00
 -1      2385 5.01240E+01 6.08450E+00 0.00000E+00
 -1      2386 4.93740E+01 7.38350E+00 0.00000E+00
 -1      2387 5.46240E+01 6.08450E+00 0.00000E+00
 -1      2388 5.31240E+01 6.08450E+00 0.00000E+00
 -1      2389 5.23740E+01 7.38350E+00 0.00000E+00
 -1      2390 5.76240E+01 6.08450E+00 0.00000E+00
 -1      2391 5.61240E+01 6.08450E+00 0.00000E+00
 -1      2392 5.53740E+01 7.38350E+00 0.00000E+00
 -1      2393 6.06240E+01 6.08450E+00 0.00000E+00
 -1      2394 5.91240E+01 6.08450E+00 0.00000E+00
 -1      2395 5.83740E+01 7.38350E+00 0.00000E+00
 -1      2396 6.36240E+01 6.08450E+00 0.00000E+00
 -1      2397 6.21240E+01 6.08450E+00 0.00000E+00
 -1      2398 6.13740E+01 7.38350E+00 0.00000E+00
 -1      2399 6.66240E+01 6.08450E+00 0.00000E+00
 -1      2400 6.51240E+01 6.08450E+00 0.00000E+00
 -1      2401 6.43740E+01 7.38350E+00 0.00000E+00
 -1      2402 6.96240E+01 6.08450E+00 0.00000E+00
 -1      2403 6.81240E+01 6.08450E+00 0.00000E+00
 -1      2404 6.73740E+01 7.38350E+00 0.00000E+00
 -1      2405 7.26240E+01 6.08450E+00 0.00000E+00
 -1      2406 7.11240E+01 6.08450E+00 0.00000E+00
 -1      2407 7.03740E+01 7.38350E+00 0.00000E+00
 -1      2408 7.56240E+01 6.08450E+00 0.00000E+00
 -1      2409 7.41240E+01 6.08450E+00 0.00000E+00
 -1      2410 7.33740E+01 7.38350E+00 0.00000E+00
 -1      2411 7.86240E+01 6.08450E+00 0.00000E+00
 -1      2412 7.71240E+01 6.08450E+00 0.00000E+00
 -1      2413 7.63740E+01 7.38350E+00 0.00000E+00
 -1      2414 8.16240E+01 6.08450E+00 0.00000E+00
 -1      2415 8.01240E+01 6.08450E+00 0.00000E+00
 -1      2416 7.93740E+01 7.38350E+00 0.00000E+00
 -1      2417 8.46240E+01 6.08450E+00 0.00000E+00
 -1      2418 8.31240E+01 6.08450E+00 0.00000E+00
 -1      2419 8.23740E+01 7.38350E+00 0.00000E+00
 -1      2420 8.76240E+01 6.08450E+00 0.00000E+00
 -1      2421 8.61240E+01 6.08450E+00 0.00000E+00
 -1      2422 8.53740E+01 7.38350E+00 0.00000E+00
 -1      2423 9.06240E+01 6.08450E+00 0.00000E+00
 -1      2424 8.91240E+01 6.08450E+00 0.00000E+00
 -1      2425 8.83740E+01 7.38350E+00 0.00000E+00
 -1      2426 9.36240E+01 6.08450E+00 0.00000E+00
 -1      2427 9.21240E+01 6.08450E+00 0.00000E+00
 -1      2428 9.13740E+01 7.38350E+00 0.00000E+00
 -1      2429 9.66240E+01 6.08450E+00 0.00000E+00
 -1      2430 9.51240E+01 6.08450E+00 0.00000E+00
 -1      2431 9.43740E+01 7.38350E+00 0.00000E+00
 -1      2432 9.96240E+01 6.08450E+00 0.00000E+00
 -1      2433 9.81240E+01 6.08450E+00 0.00000E+00
 -1      2434 9.73740E+01 7.38350E+00 0.00000E+00
 -1      2435 1.02624E+02 6.08450E+00 0.00000E+00
 -1      2436 1.01124E+02 6.08450E+00 0.00000E+00
 -1      2437 1.00374E+02 7.38350E+00 0.00000E+00
 -1      2438 1.05624E+02 6.08450E+00 0.00000E+00
 -1      2439 1.04124E+02 6.08450E+00 0.00000E+00
 -1      2440 1.03374E+02 7.38350E+00 0.00000E+00
 -1      2441 1.08624E+02 6.08450E+00 0.00000E+00
 -1      2442 1.07124E+02 6.08450E+00 0.00000E+00
 -1      2443 1.06374E+02 7.38350E+00 0.00000E+00
 -1      2444 1.11624E+02 6.08450E+00 0.00000E+00
 -1      2445 1.10124E+02 6.08450E+00 0.00000E+00
 -1      2446 1.09374E+02 7.38350E+00 0.00000E+00
 -1      2447 1.14624E+02 6.08450E+00 0.00000E+00
 -1      2448 1.13124E+02 6.08450E+00 0.00000E+00
 -1      2449 1.12374E+02 7.38350E+00 0.00000E+00
 -1      2450 1.17624E+02 6.08450E+00 0.00000E+00
 -1      2451 1.16124E+02 6.08450E+00 0.00000E+00
 -1      2452 1.15374E+02 7.38350E+00 0.00000E+00
 -1      2453 1.20624E+02 6.08450E+00 0.00000E+00
 -1      2454 1.19124E+02 6.08450E+00 0.00000E+00
 -1      2455 1.18374E+02 7.38350E+00 0.00000E+00
 -1      2456 1.23624E+02 6.08450E+00 0.00000E+00
 -1      2457 1.22124E+02 6.08450E+00 0.00000E+00
 -1      2458 1.21374E+02 7.38350E+00 0.00000E+00
 -1      2459 1.26624E+02 6.08450E+00 0.00000E+00
 -1      2460 1.25124E+02 6.08450E+00 0.00000E+00
 -1      2461 1.24374E+02 7.38350E+00 0.00000E+00
 -1      2462 1.29624E+02 6.08450E+00 0.00000E+00
 -1      2463 1.28124E+02 6.08450E+00 0.00000E+00
 -1      2464 1.27374E+02 7.38350E+00 0.00000E+00
 -1      2465 1.32624E+02 6.08450E+00 0.00000E+00
 -1      2466 1.31124E+02 6.08450E+00 0.00000E+00
 -1      2467 1.30374E+02 7.38350E+00 0.00000E+00
 -1      2468 1.35624E+02 6.08450E+00 0.00000E+00
 -1      2469 1.34124E+02 6.08450E+00 0.00000E+00
 -1      2470 1.33374E+02 7.38350E+00 0.00000E+00
 -1      2471 1.38624E+02 6.08450E+00 0.00000E+00
 -1      2472 1.37124E+02 6.08450E+00 0.00000E+00
 -1      2473 1.36374E+02 7.38350E+00 0.00000E+00
 -1      2474 1.41624E+02 6.08450E+00 0.00000E+00
 -1      2475 1.40124E+02 6.08450E+00 0.00000E+00
 -1      2476 1.39374E+02 7.38350E+00 0.00000E+00
 -1      2477 1.43589E+02 6.81775E+00 0.00000E+00
 -1      2478 1.43505E+02 1.69125E+01 0.00000E+00
 -1      2479 1.43505E+02 1.54375E+01 0.00000E+00
 -1      2480 1.43505E+02 1.39875E+01 0.00000E+00
 -1      2481 1.43505E+02 1.25375E+01 0.00000E+00
 -1      2482 1.42206E+02 1.47250E+01 0.00000E+00
 -1      2483 1.43505E+02 1.10625E+01 0.00000E+00
 -1      2484 1.43505E+02 9.58750E+00 0.00000E+00
 -1      2485 1.42206E+02 1.18000E+01 0.00000E+00
 -1      2486 1.21520E+02 3.22045E+01 0.00000E+00
 -1      2487 1.21764E+02 3.33659E+01 0.00000E+00
 -1      2488 1.22158E+02 3.14382E+01 0.00000E+00
 -1      2489 1.43505E+02 1.98625E+01 0.00000E+00
 -1      2490 1.43505E+02 1.83875E+01 0.00000E+00
 -1      2491 1.42206E+02 1.76500E+01 0.00000E+00
 -1      2492 1.43505E+02 2.28125E+01 0.00000E+00
 -1      2493 1.43505E+02 2.13375E+01 0.00000E+00
 -1      2494 1.42206E+02 2.06000E+01 0.00000E+00
 -1      2495 1.43505E+02 2.57625E+01 0.00000E+00
 -1      2496 1.43505E+02 2.42875E+01 0.00000E+00
 -1      2497 1.42206E+02 2.35500E+01 0.00000E+00
 -1      2498 1.43505E+02 2.87125E+01 0.00000E+00
 -1      2499 1.43505E+02 2.72375E+01 0.00000E+00
 -1      2500 1.42206E+02 2.65000E+01 0.00000E+00
 -1      2501 1.43505E+02 3.16125E+01 0.00000E+00
 -1      2502 1.43505E+02 3.01625E+01 0.00000E+00
 -1      2503 1.42206E+02 2.94250E+01 0.00000E+00
 -1      2504 1.43505E+02 3.45625E+01 0.00000E+00
 -1      2505 1.43505E+02 3.30875E+01 0.00000E+00
 -1      2506 1.42206E+02 3.23500E+01 0.00000E+00
 -1      2507 1.43505E+02 3.75125E+01 0.00000E+00
 -1      2508 1.43505E+02 3.60375E+01 0.00000E+00
 -1      2509 1.42206E+02 3.53000E+01 0.00000E+00
 -1      2510 1.43482E+02 4.02936E+01 0.00000E+00
 -1      2511 1.43482E+02 3.88186E+01 0.00000E+00
 -1      2512 1.42183E+02 3.80811E+01 0.00000E+00
 -1      2513 1.42137E+02 4.06933E+01 0.00000E+00
 -1      2514 1.19145E+02 4.08890E+01 0.00000E+00
 -1      2515 1.18365E+02 4.15415E+01 0.00000E+00
 -1      2516 6.55950E+00 4.28890E+01 0.00000E+00
 -1      2517 8.53650E+00 4.32410E+01 0.00000E+00
 -1      2518 9.28650E+00 4.19420E+01 0.00000E+00
 -1      2519 6.55950E+00 4.14140E+01 0.00000E+00
 -1      2520 1.16506E+02 2.50475E+01 0.00000E+00
 -1      2521 1.17429E+02 2.55742E+01 0.00000E+00
 -1      2522 1.17600E+02 4.40753E+01 0.00000E+00
 -1      2523 1.19100E+02 4.40753E+01 0.00000E+00
 -1      2524 6.49500E+00 2.71625E+01 0.00000E+00
 -1      2525 6.49500E+00 2.86375E+01 0.00000E+00
 -1      2526 7.79400E+00 2.93750E+01 0.00000E+00
 -1      2527 7.79400E+00 2.64250E+01 0.00000E+00
 -1      2528 1.12590E+02 2.34897E+01 0.00000E+00
 -1      2529 1.13601E+02 2.37825E+01 0.00000E+00
 -1      2530 1.14619E+02 2.42393E+01 0.00000E+00
 -1      2531 1.15495E+02 2.46274E+01 0.00000E+00
 -1      2532 1.10062E+02 2.36185E+01 0.00000E+00
 -1      2533 1.11185E+02 2.34726E+01 0.00000E+00
 -1      2534 1.07904E+02 2.40177E+01 0.00000E+00
 -1      2535 1.08843E+02 2.37146E+01 0.00000E+00
 -1      2536 1.05834E+02 2.51369E+01 0.00000E+00
 -1      2537 1.06816E+02 2.45896E+01 0.00000E+00
 -1      2538 1.04137E+02 2.65766E+01 0.00000E+00
 -1      2539 1.04814E+02 2.58955E+01 0.00000E+00
 -1      2540 1.02748E+02 2.81096E+01 0.00000E+00
 -1      2541 1.03443E+02 2.73431E+01 0.00000E+00
 -1      2542 1.03173E+02 2.63980E+01 0.00000E+00
 -1      2543 1.01717E+02 3.01417E+01 0.00000E+00
 -1      2544 1.02109E+02 2.92159E+01 0.00000E+00
 -1      2545 1.01013E+02 3.24240E+01 0.00000E+00
 -1      2546 1.01269E+02 3.12869E+01 0.00000E+00
 -1      2547 1.00896E+02 3.45608E+01 0.00000E+00
 -1      2548 1.00960E+02 3.36081E+01 0.00000E+00
 -1      2549 1.00824E+02 3.66915E+01 0.00000E+00
 -1      2550 1.00767E+02 3.56527E+01 0.00000E+00
 -1      2551 1.01790E+02 3.92423E+01 0.00000E+00
 -1      2552 1.01225E+02 3.81124E+01 0.00000E+00
 -1      2553 1.03516E+02 4.11494E+01 0.00000E+00
 -1      2554 1.02708E+02 4.03703E+01 0.00000E+00
 -1      2555 1.04946E+02 4.25311E+01 0.00000E+00
 -1      2556 1.04129E+02 4.19515E+01 0.00000E+00
 -1      2557 1.11500E+02 4.45028E+01 0.00000E+00
 -1      2558 1.10332E+02 4.43398E+01 0.00000E+00
 -1      2559 1.17894E+02 4.21794E+01 0.00000E+00
 -1      2560 1.17093E+02 4.27895E+01 0.00000E+00
 -1      2561 1.18461E+02 2.64738E+01 0.00000E+00
 -1      2562 1.19090E+02 2.72975E+01 0.00000E+00
 -1      2563 1.20475E+02 3.90650E+01 0.00000E+00
 -1      2564 1.19987E+02 3.99188E+01 0.00000E+00
 -1      2565 1.21728E+02 3.47764E+01 0.00000E+00
 -1      2566 1.21567E+02 3.58617E+01 0.00000E+00
 -1      2567 1.13000E+02 4.45028E+01 0.00000E+00
 -1      2568 1.42839E+02 8.11675E+00 0.00000E+00
 -1      2569 1.08907E+02 4.45073E+01 0.00000E+00
 -1      2570 1.13918E+02 4.42027E+01 0.00000E+00
 -1      2571 1.07949E+02 4.42600E+01 0.00000E+00
 -1      2572 7.79400E+00 3.52687E+01 0.00000E+00
 -1      2573 6.49500E+00 3.60062E+01 0.00000E+00
 -1      2574 6.49500E+00 3.74750E+01 0.00000E+00
 -1      2575 1.19986E+02 2.72775E+01 0.00000E+00
 -1      2576 9.55950E+00 5.02450E+00 0.00000E+00
 -1      2577 9.37425E+00 5.84794E+00 0.00000E+00
 -1      2578 1.07692E+01 5.21931E+00 0.00000E+00
 -1      2579 1.22069E+02 3.66474E+01 0.00000E+00
 -1      2580 1.16382E+02 2.41460E+01 0.00000E+00
 -1      2581 1.21215E+02 2.92332E+01 0.00000E+00
 -1      2582 1.21392E+02 3.88958E+01 0.00000E+00
 -1      2583 1.05621E+02 4.34724E+01 0.00000E+00
 -1      2584 1.02375E+02 4.25637E+01 0.00000E+00
 -1      2585 1.18821E+02 4.24960E+01 0.00000E+00
 -1      2586 1.23003E+02 3.32438E+01 0.00000E+00
 -1      2587 1.22366E+02 3.40101E+01 0.00000E+00
 -1      2588 1.22968E+02 3.46543E+01 0.00000E+00
 -1      2589 1.20134E+02 4.08878E+01 0.00000E+00
 -1      2590 6.55950E+00 3.99453E+01 0.00000E+00
 -1      2591 1.30515E+01 5.74931E+00 0.00000E+00
 -1      2592 1.18418E+01 5.55450E+00 0.00000E+00
 -1      2593 1.16565E+01 6.37794E+00 0.00000E+00
 -1      2594 1.38015E+01 7.04831E+00 0.00000E+00
 -1      2595 1.41540E+02 8.85425E+00 0.00000E+00
 -1      2596 1.16343E+02 4.37308E+01 0.00000E+00
 -1      2597 1.06587E+02 4.30649E+01 0.00000E+00
 -1      2598 1.06115E+02 4.43965E+01 0.00000E+00
 -1      2599 1.19887E+02 4.29664E+01 0.00000E+00
 -1      2600 1.18425E+02 2.54657E+01 0.00000E+00
 -1      2601 1.01658E+02 4.01891E+01 0.00000E+00
 -1      2602 1.00340E+02 3.76402E+01 0.00000E+00
 -1      2603 9.94551E+01 3.71680E+01 0.00000E+00
 -1      2604 9.98559E+01 3.85890E+01 0.00000E+00
 -1      2605 1.00069E+02 3.51274E+01 0.00000E+00
 -1      2606 1.00251E+02 3.28514E+01 0.00000E+00
 -1      2607 1.01840E+02 2.82708E+01 0.00000E+00
 -1      2608 1.04887E+02 2.48728E+01 0.00000E+00
 -1      2609 1.06996E+02 2.35423E+01 0.00000E+00
 -1      2610 1.09304E+02 2.28743E+01 0.00000E+00
 -1      2611 1.14352E+02 2.32692E+01 0.00000E+00
 -1      2612 1.11929E+02 2.27953E+01 0.00000E+00
 -1      2613 1.12673E+02 2.21181E+01 0.00000E+00
 -1      2614 1.11268E+02 2.21010E+01 0.00000E+00
 -1      2615 1.00753E+02 3.05222E+01 0.00000E+00
 -1      2616 1.07489E+02 4.34948E+01 0.00000E+00
 -1      2617 1.15673E+02 4.33526E+01 0.00000E+00
 -1      2618 1.14748E+02 4.37407E+01 0.00000E+00
 -1      2619 9.09300E+00 1.98250E+01 0.00000E+00
 -1      2620 9.09300E+00 2.12750E+01 0.00000E+00
 -1      2621 9.09300E+00 2.27500E+01 0.00000E+00
 -1      2622 9.09300E+00 2.42250E+01 0.00000E+00
 -1      2623 1.03920E+01 2.20250E+01 0.00000E+00
 -1      2624 9.09300E+00 1.39375E+01 0.00000E+00
 -1      2625 9.09300E+00 1.54125E+01 0.00000E+00
 -1      2626 9.09300E+00 1.09875E+01 0.00000E+00
 -1      2627 9.09300E+00 1.24625E+01 0.00000E+00
 -1      2628 1.03920E+01 1.32000E+01 0.00000E+00
 -1      2629 9.18900E+00 6.67137E+00 0.00000E+00
 -1      2630 9.00375E+00 7.49481E+00 0.00000E+00
 -1      2631 1.03988E+01 6.86619E+00 0.00000E+00
 -1      2632 1.44000E+01 4.09070E+01 0.00000E+00
 -1      2633 1.59000E+01 4.09070E+01 0.00000E+00
 -1      2634 1.74000E+01 4.09070E+01 0.00000E+00
 -1      2635 1.89000E+01 4.09070E+01 0.00000E+00
 -1      2636 1.66500E+01 3.96080E+01 0.00000E+00
 -1      2637 2.04750E+01 4.09070E+01 0.00000E+00
 -1      2638 2.20500E+01 4.09070E+01 0.00000E+00
 -1      2639 1.97250E+01 3.96080E+01 0.00000E+00
 -1      2640 2.35500E+01 4.09070E+01 0.00000E+00
 -1      2641 2.50500E+01 4.09070E+01 0.00000E+00
 -1      2642 2.28000E+01 3.96080E+01 0.00000E+00
 -1      2643 2.65500E+01 4.09070E+01 0.00000E+00
 -1      2644 2.80500E+01 4.09070E+01 0.00000E+00
 -1      2645 2.58000E+01 3.96080E+01 0.00000E+00
 -1      2646 2.95500E+01 4.09070E+01 0.00000E+00
 -1      2647 3.10500E+01 4.09070E+01 0.00000E+00
 -1      2648 2.88000E+01 3.96080E+01 0.00000E+00
 -1      2649 3.25500E+01 4.09070E+01 0.00000E+00
 -1      2650 3.40500E+01 4.09070E+01 0.00000E+00
 -1      2651 3.18000E+01 3.96080E+01 0.00000E+00
 -1      2652 3.55500E+01 4.09070E+01 0.00000E+00
 -1      2653 3.70500E+01 4.09070E+01 0.00000E+00
 -1      2654 3.48000E+01 3.96080E+01 0.00000E+00
 -1      2655 3.85500E+01 4.09070E+01 0.00000E+00
 -1      2656 4.00500E+01 4.09070E+01 0.00000E+00
 -1      2657 3.78000E+01 3.96080E+01 0.00000E+00
 -1      2658 4.15500E+01 4.09070E+01 0.00000E+00
 -1      2659 4.30500E+01 4.09070E+01 0.00000E+00
 -1      2660 4.08000E+01 3.96080E+01 0.00000E+00
 -1      2661 4.45500E+01 4.09070E+01 0.00000E+00
 -1      2662 4.60500E+01 4.09070E+01 0.00000E+00
 -1      2663 4.38000E+01 3.96080E+01 0.00000E+00
 -1      2664 4.76250E+01 4.09070E+01 0.00000E+00
 -1      2665 4.92000E+01 4.09070E+01 0.00000E+00
 -1      2666 4.68750E+01 3.96080E+01 0.00000E+00
 -1      2667 5.07000E+01 4.09070E+01 0.00000E+00
 -1      2668 5.22000E+01 4.09070E+01 0.00000E+00
 -1      2669 4.99500E+01 3.96080E+01 0.00000E+00
 -1      2670 5.37000E+01 4.09070E+01 0.00000E+00
 -1      2671 5.52000E+01 4.09070E+01 0.00000E+00
 -1      2672 5.29500E+01 3.96080E+01 0.00000E+00
 -1      2673 5.67000E+01 4.09070E+01 0.00000E+00
 -1      2674 5.82000E+01 4.09070E+01 0.00000E+00
 -1      2675 5.59500E+01 3.96080E+01 0.00000E+00
 -1      2676 5.97000E+01 4.09070E+01 0.00000E+00
 -1      2677 6.12000E+01 4.09070E+01 0.00000E+00
 -1      2678 5.89500E+01 3.96080E+01 0.00000E+00
 -1      2679 6.27000E+01 4.09070E+01 0.00000E+00
 -1      2680 6.42000E+01 4.09070E+01 0.00000E+00
 -1      2681 6.19500E+01 3.96080E+01 0.00000E+00
 -1      2682 6.57000E+01 4.09070E+01 0.00000E+00
 -1      2683 6.72000E+01 4.09070E+01 0.00000E+00
 -1      2684 6.49500E+01 3.96080E+01 0.00000E+00
 -1      2685 6.87000E+01 4.09070E+01 0.00000E+00
 -1      2686 7.02000E+01 4.09070E+01 0.00000E+00
 -1      2687 6.79500E+01 3.96080E+01 0.00000E+00
 -1      2688 7.17000E+01 4.09070E+01 0.00000E+00
 -1      2689 7.32000E+01 4.09070E+01 0.00000E+00
 -1      2690 7.09500E+01 3.96080E+01 0.00000E+00
 -1      2691 7.47750E+01 4.09070E+01 0.00000E+00
 -1      2692 7.63500E+01 4.09070E+01 0.00000E+00
 -1      2693 7.40250E+01 3.96080E+01 0.00000E+00
 -1      2694 7.78500E+01 4.09070E+01 0.00000E+00
 -1      2695 7.93500E+01 4.09070E+01 0.00000E+00
 -1      2696 7.71000E+01 3.96080E+01 0.00000E+00
 -1      2697 8.08500E+01 4.09070E+01 0.00000E+00
 -1      2698 8.23500E+01 4.09070E+01 0.00000E+00
 -1      2699 8.01000E+01 3.96080E+01 0.00000E+00
 -1      2700 8.38500E+01 4.09070E+01 0.00000E+00
 -1      2701 8.53500E+01 4.09070E+01 0.00000E+00
 -1      2702 8.31000E+01 3.96080E+01 0.00000E+00
 -1      2703 8.68500E+01 4.09070E+01 0.00000E+00
 -1      2704 8.83500E+01 4.09070E+01 0.00000E+00
 -1      2705 8.61000E+01 3.96080E+01 0.00000E+00
 -1      2706 8.98500E+01 4.09070E+01 0.00000E+00
 -1      2707 9.13500E+01 4.09070E+01 0.00000E+00
 -1      2708 8.91000E+01 3.96080E+01 0.00000E+00
 -1      2709 9.28500E+01 4.09070E+01 0.00000E+00
 -1      2710 9.43500E+01 4.09070E+01 0.00000E+00
 -1      2711 9.21000E+01 3.96080E+01 0.00000E+00
 -1      2712 9.58500E+01 4.09070E+01 0.00000E+00
 -1      2713 9.73500E+01 4.09070E+01 0.00000E+00
 -1      2714 9.51000E+01 3.96080E+01 0.00000E+00
 -1      2715 9.88125E+01 4.11809E+01 0.00000E+00
 -1      2716 1.00238E+02 4.11809E+01 0.00000E+00
 -1      2717 1.14680E+02 4.47222E+01 0.00000E+00
 -1      2718 1.16180E+02 4.46384E+01 0.00000E+00
 -1      2719 1.22472E+02 3.87405E+01 0.00000E+00
 -1      2720 1.22055E+02 3.97621E+01 0.00000E+00
 -1      2721 1.40706E+02 1.03250E+01 0.00000E+00
 -1      2722 1.40040E+02 8.85425E+00 0.00000E+00
 -1      2723 1.38540E+02 8.85425E+00 0.00000E+00
 -1      2724 1.25175E+02 4.16061E+01 0.00000E+00
 -1      2725 1.26675E+02 4.16061E+01 0.00000E+00
 -1      2726 1.28175E+02 4.16061E+01 0.00000E+00
 -1      2727 1.29675E+02 4.16061E+01 0.00000E+00
 -1      2728 1.27425E+02 4.04134E+01 0.00000E+00
 -1      2729 1.31175E+02 4.16061E+01 0.00000E+00
 -1      2730 1.32675E+02 4.16061E+01 0.00000E+00
 -1      2731 1.30425E+02 4.04134E+01 0.00000E+00
 -1      2732 1.34175E+02 4.16061E+01 0.00000E+00
 -1      2733 1.35675E+02 4.16061E+01 0.00000E+00
 -1      2734 1.33425E+02 4.04134E+01 0.00000E+00
 -1      2735 1.37175E+02 4.16061E+01 0.00000E+00
 -1      2736 1.38675E+02 4.16061E+01 0.00000E+00
 -1      2737 1.36425E+02 4.04134E+01 0.00000E+00
 -1      2738 1.39734E+02 4.13495E+01 0.00000E+00
 -1      2739 1.41079E+02 4.09498E+01 0.00000E+00
 -1      2740 1.41101E+02 3.96437E+01 0.00000E+00
 -1      2741 1.38984E+02 4.01568E+01 0.00000E+00
 -1      2742 2.01240E+01 8.68250E+00 0.00000E+00
 -1      2743 1.86240E+01 8.68250E+00 0.00000E+00
 -1      2744 2.31240E+01 8.68250E+00 0.00000E+00
 -1      2745 2.16240E+01 8.68250E+00 0.00000E+00
 -1      2746 2.08740E+01 9.98150E+00 0.00000E+00
 -1      2747 1.71240E+01 8.68250E+00 0.00000E+00
 -1      2748 1.56240E+01 8.68250E+00 0.00000E+00
 -1      2749 1.78740E+01 9.98150E+00 0.00000E+00
 -1      2750 2.91240E+01 8.68250E+00 0.00000E+00
 -1      2751 2.76240E+01 8.68250E+00 0.00000E+00
 -1      2752 3.21240E+01 8.68250E+00 0.00000E+00
 -1      2753 3.06240E+01 8.68250E+00 0.00000E+00
 -1      2754 2.98740E+01 9.98150E+00 0.00000E+00
 -1      2755 3.51240E+01 8.68250E+00 0.00000E+00
 -1      2756 3.36240E+01 8.68250E+00 0.00000E+00
 -1      2757 3.28740E+01 9.98150E+00 0.00000E+00
 -1      2758 3.81240E+01 8.68250E+00 0.00000E+00
 -1      2759 3.66240E+01 8.68250E+00 0.00000E+00
 -1      2760 3.58740E+01 9.98150E+00 0.00000E+00
 -1      2761 4.11240E+01 8.68250E+00 0.00000E+00
 -1      2762 3.96240E+01 8.68250E+00 0.00000E+00
 -1      2763 3.88740E+01 9.98150E+00 0.00000E+00
 -1      2764 4.41240E+01 8.68250E+00 0.00000E+00
 -1      2765 4.26240E+01 8.68250E+00 0.00000E+00
 -1      2766 4.18740E+01 9.98150E+00 0.00000E+00
 -1      2767 4.71240E+01 8.68250E+00 0.00000E+00
 -1      2768 4.56240E+01 8.68250E+00 0.00000E+00
 -1      2769 4.48740E+01 9.98150E+00 0.00000E+00
 -1      2770 5.01240E+01 8.68250E+00 0.00000E+00
 -1      2771 4.86240E+01 8.68250E+00 0.00000E+00
 -1      2772 4.78740E+01 9.98150E+00 0.00000E+00
 -1      2773 5.31240E+01 8.68250E+00 0.00000E+00
 -1      2774 5.16240E+01 8.68250E+00 0.00000E+00
 -1      2775 5.08740E+01 9.98150E+00 0.00000E+00
 -1      2776 5.61240E+01 8.68250E+00 0.00000E+00
 -1      2777 5.46240E+01 8.68250E+00 0.00000E+00
 -1      2778 5.38740E+01 9.98150E+00 0.00000E+00
 -1      2779 5.91240E+01 8.68250E+00 0.00000E+00
 -1      2780 5.76240E+01 8.68250E+00 0.00000E+00
 -1      2781 5.68740E+01 9.98150E+00 0.00000E+00
 -1      2782 6.21240E+01 8.68250E+00 0.00000E+00
 -1      2783 6.06240E+01 8.68250E+00 0.00000E+00
 -1      2784 5.98740E+01 9.98150E+00 0.00000E+00
 -1      2785 6.51240E+01 8.68250E+00 0.00000E+00
 -1      2786 6.36240E+01 8.68250E+00 0.00000E+00
 -1      2787 6.28740E+01 9.98150E+00 0.00000E+00
 -1      2788 6.81240E+01 8.68250E+00 0.00000E+00
 -1      2789 6.66240E+01 8.68250E+00 0.00000E+00
 -1      2790 6.58740E+01 9.98150E+00 0.00000E+00
 -1      2791 7.11240E+01 8.68250E+00 0.00000E+00
 -1      2792 6.96240E+01 8.68250E+00 0.00000E+00
 -1      2793 6.88740E+01 9.98150E+00 0.00000E+00
 -1      2794 7.41240E+01 8.68250E+00 0.00000E+00
 -1      2795 7.26240E+01 8.68250E+00 0.00000E+00
 -1      2796 7.18740E+01 9.98150E+00 0.00000E+00
 -1      2797 7.71240E+01 8.68250E+00 0.00000E+00
 -1      2798 7.56240E+01 8.68250E+00 0.00000E+00
 -1      2799 7.48740E+01 9.98150E+00 0.00000E+00
 -1      2800 8.01240E+01 8.68250E+00 0.00000E+00
 -1      2801 7.86240E+01 8.68250E+00 0.00000E+00
 -1      2802 7.78740E+01 9.98150E+00 0.00000E+00
 -1      2803 8.31240E+01 8.68250E+00 0.00000E+00
 -1      2804 8.16240E+01 8.68250E+00 0.00000E+00
 -1      2805 8.08740E+01 9.98150E+00 0.00000E+00
 -1      2806 8.61240E+01 8.68250E+00 0.00000E+00
 -1      2807 8.46240E+01 8.68250E+00 0.00000E+00
 -1      2808 8.38740E+01 9.98150E+00 0.00000E+00
 -1      2809 8.91240E+01 8.68250E+00 0.00000E+00
 -1      2810 8.76240E+01 8.68250E+00 0.00000E+00
 -1      2811 8.68740E+01 9.98150E+00 0.00000E+00
 -1      2812 9.21240E+01 8.68250E+00 0.00000E+00
 -1      2813 9.06240E+01 8.68250E+00 0.00000E+00
 -1      2814 8.98740E+01 9.98150E+00 0.00000E+00
 -1      2815 9.51240E+01 8.68250E+00 0.00000E+00
 -1      2816 9.36240E+01 8.68250E+00 0.00000E+00
 -1      2817 9.28740E+01 9.98150E+00 0.00000E+00
 -1      2818 9.81240E+01 8.68250E+00 0.00000E+00
 -1      2819 9.66240E+01 8.68250E+00 0.00000E+00
 -1      2820 9.58740E+01 9.98150E+00 0.00000E+00
 -1      2821 1.01124E+02 8.68250E+00 0.00000E+00
 -1      2822 9.96240E+01 8.68250E+00 0.00000E+00
 -1      2823 9.88740E+01 9.98150E+00 0.00000E+00
 -1      2824 1.04124E+02 8.68250E+00 0.00000E+00
 -1      2825 1.02624E+02 8.68250E+00 0.00000E+00
 -1      2826 1.01874E+02 9.98150E+00 0.00000E+00
 -1      2827 1.07124E+02 8.68250E+00 0.00000E+00
 -1      2828 1.05624E+02 8.68250E+00 0.00000E+00
 -1      2829 1.04874E+02 9.98150E+00 0.00000E+00
 -1      2830 1.10124E+02 8.68250E+00 0.00000E+00
 -1      2831 1.08624E+02 8.68250E+00 0.00000E+00
 -1      2832 1.07874E+02 9.98150E+00 0.00000E+00
 -1      2833 1.13124E+02 8.68250E+00 0.00000E+00
 -1      2834 1.11624E+02 8.68250E+00 0.00000E+00
 -1      2835 1.10874E+02 9.98150E+00 0.00000E+00
 -1      2836 1.16124E+02 8.68250E+00 0.00000E+00
 -1      2837 1.14624E+02 8.68250E+00 0.00000E+00
 -1      2838 1.13874E+02 9.98150E+00 0.00000E+00
 -1      2839 1.19124E+02 8.68250E+00 0.00000E+00
 -1      2840 1.17624E+02 8.68250E+00 0.00000E+00
 -1      2841 1.16874E+02 9.98150E+00 0.00000E+00
 -1      2842 1.22124E+02 8.68250E+00 0.00000E+00
 -1      2843 1.20624E+02 8.68250E+00 0.00000E+00
 -1      2844 1.19874E+02 9.98150E+00 0.00000E+00
 -1      2845 1.25124E+02 8.68250E+00 0.00000E+00
 -1      2846 1.23624E+02 8.68250E+00 0.00000E+00
 -1      2847 1.22874E+02 9.98150E+00 0.00000E+00
 -1      2848 1.28124E+02 8.68250E+00 0.00000E+00
 -1      2849 1.26624E+02 8.68250E+00 0.00000E+00
 -1      2850 1.25874E+02 9.98150E+00 0.00000E+00
 -1      2851 1.31124E+02 8.68250E+00 0.00000E+00
 -1      2852 1.29624E+02 8.68250E+00 0.00000E+00
 -1      2853 1.28874E+02 9.98150E+00 0.00000E+00
 -1      2854 1.34124E+02 8.68250E+00 0.00000E+00
 -1      2855 1.32624E+02 8.68250E+00 0.00000E+00
 -1      2856 1.31874E+02 9.98150E+00 0.00000E+00
 -1      2857 1.37082E+02 8.76838E+00 0.00000E+00
 -1      2858 1.35582E+02 8.76838E+00 0.00000E+00
 -1      2859 1.34832E+02 1.00674E+01 0.00000E+00
 -1      2860 1.37748E+02 1.02391E+01 0.00000E+00
 -1      2861 1.40907E+02 1.54500E+01 0.00000E+00
 -1      2862 1.40907E+02 1.40000E+01 0.00000E+00
 -1      2863 1.40907E+02 2.13375E+01 0.00000E+00
 -1      2864 1.40907E+02 1.98625E+01 0.00000E+00
 -1      2865 1.40706E+02 1.18000E+01 0.00000E+00
 -1      2866 1.22957E+02 3.06641E+01 0.00000E+00
 -1      2867 1.23201E+02 3.18255E+01 0.00000E+00
 -1      2868 1.40907E+02 2.42875E+01 0.00000E+00
 -1      2869 1.40907E+02 2.28125E+01 0.00000E+00
 -1      2870 1.39608E+02 2.20750E+01 0.00000E+00
 -1      2871 1.40907E+02 2.72375E+01 0.00000E+00
 -1      2872 1.40907E+02 2.57625E+01 0.00000E+00
 -1      2873 1.39608E+02 2.50250E+01 0.00000E+00
 -1      2874 1.40907E+02 3.01375E+01 0.00000E+00
 -1      2875 1.40907E+02 2.86875E+01 0.00000E+00
 -1      2876 1.39608E+02 2.79500E+01 0.00000E+00
 -1      2877 1.40907E+02 3.30875E+01 0.00000E+00
 -1      2878 1.40907E+02 3.16125E+01 0.00000E+00
 -1      2879 1.39608E+02 3.08750E+01 0.00000E+00
 -1      2880 1.40907E+02 3.60375E+01 0.00000E+00
 -1      2881 1.40907E+02 3.45625E+01 0.00000E+00
 -1      2882 1.39608E+02 3.38250E+01 0.00000E+00
 -1      2883 1.22997E+02 3.62037E+01 0.00000E+00
 -1      2884 1.22737E+02 3.74304E+01 0.00000E+00
 -1      2885 8.85168E+00 4.05347E+01 0.00000E+00
 -1      2886 1.02152E+01 4.07987E+01 0.00000E+00
 -1      2887 1.03188E+02 4.21192E+01 0.00000E+00
 -1      2888 1.03716E+02 2.43623E+01 0.00000E+00
 -1      2889 1.04736E+02 2.36037E+01 0.00000E+00
 -1      2890 1.22280E+02 4.12028E+01 0.00000E+00
 -1      2891 1.23780E+02 4.12028E+01 0.00000E+00
 -1      2892 1.18637E+02 2.41799E+01 0.00000E+00
 -1      2893 1.19670E+02 2.50795E+01 0.00000E+00
 -1      2894 1.15576E+01 4.08528E+01 0.00000E+00
 -1      2895 1.30576E+01 4.08528E+01 0.00000E+00
 -1      2896 1.38076E+01 3.95538E+01 0.00000E+00
 -1      2897 1.11228E+01 3.94455E+01 0.00000E+00
 -1      2898 9.09300E+00 1.68813E+01 0.00000E+00
 -1      2899 9.09300E+00 1.83563E+01 0.00000E+00
 -1      2900 1.03920E+01 1.90812E+01 0.00000E+00
 -1      2901 1.03920E+01 1.61437E+01 0.00000E+00
 -1      2902 1.20536E+02 2.63490E+01 0.00000E+00
 -1      2903 1.21065E+02 2.72612E+01 0.00000E+00
 -1      2904 2.61240E+01 8.68250E+00 0.00000E+00
 -1      2905 2.46240E+01 8.68250E+00 0.00000E+00
 -1      2906 2.38740E+01 9.98150E+00 0.00000E+00
 -1      2907 2.68740E+01 9.98150E+00 0.00000E+00
 -1      2908 1.40907E+02 1.83937E+01 0.00000E+00
 -1      2909 1.40907E+02 1.69188E+01 0.00000E+00
 -1      2910 1.39608E+02 1.61938E+01 0.00000E+00
 -1      2911 1.39608E+02 1.91313E+01 0.00000E+00
 -1      2912 9.09300E+00 3.15875E+01 0.00000E+00
 -1      2913 9.09300E+00 3.30625E+01 0.00000E+00
 -1      2914 1.21764E+02 2.83048E+01 0.00000E+00
 -1      2915 1.22464E+02 2.93483E+01 0.00000E+00
 -1      2916 1.22314E+02 2.73763E+01 0.00000E+00
 -1      2917 9.96521E+01 3.07517E+01 0.00000E+00
 -1      2918 1.00100E+02 2.96066E+01 0.00000E+00
 -1      2919 1.14194E+02 2.22583E+01 0.00000E+00
 -1      2920 1.15212E+02 2.27151E+01 0.00000E+00
 -1      2921 1.08613E+02 2.19004E+01 0.00000E+00
 -1      2922 1.09833E+02 2.18043E+01 0.00000E+00
 -1      2923 1.06014E+02 2.29949E+01 0.00000E+00
 -1      2924 1.07102E+02 2.24231E+01 0.00000E+00
 -1      2925 1.02128E+02 2.61493E+01 0.00000E+00
 -1      2926 1.02822E+02 2.53828E+01 0.00000E+00
 -1      2927 1.00814E+02 2.84160E+01 0.00000E+00
 -1      2928 1.01453E+02 2.73097E+01 0.00000E+00
 -1      2929 9.92005E+01 3.33973E+01 0.00000E+00
 -1      2930 9.92539E+01 3.22132E+01 0.00000E+00
 -1      2931 9.89419E+01 3.55811E+01 0.00000E+00
 -1      2932 9.90712E+01 3.44892E+01 0.00000E+00
 -1      2933 9.80738E+01 3.38510E+01 0.00000E+00
 -1      2934 1.01763E+02 4.17616E+01 0.00000E+00
 -1      2935 1.07540E+02 4.47541E+01 0.00000E+00
 -1      2936 7.48818E+00 3.88019E+01 0.00000E+00
 -1      2937 1.16223E+02 2.31352E+01 0.00000E+00
 -1      2938 1.17234E+02 2.35553E+01 0.00000E+00
 -1      2939 1.16065E+02 2.21243E+01 0.00000E+00
 -1      2940 1.03920E+01 2.49750E+01 0.00000E+00
 -1      2941 9.09300E+00 2.57000E+01 0.00000E+00
 -1      2942 9.09300E+00 2.71750E+01 0.00000E+00
 -1      2943 9.00375E+00 8.96981E+00 0.00000E+00
 -1      2944 9.84577E+01 3.65298E+01 0.00000E+00
 -1      2945 9.74604E+01 3.58916E+01 0.00000E+00
 -1      2946 9.79736E+01 3.74785E+01 0.00000E+00
 -1      2947 9.80625E+01 3.98819E+01 0.00000E+00
 -1      2948 1.21200E+02 4.13582E+01 0.00000E+00
 -1      2949 1.24602E+02 3.16956E+01 0.00000E+00
 -1      2950 1.23803E+02 3.24697E+01 0.00000E+00
 -1      2951 1.24404E+02 3.31139E+01 0.00000E+00
 -1      2952 1.20359E+02 4.23284E+01 0.00000E+00
 -1      2953 1.39407E+02 1.25250E+01 0.00000E+00
 -1      2954 1.24530E+02 4.00101E+01 0.00000E+00
 -1      2955 9.09300E+00 3.45313E+01 0.00000E+00
 -1      2956 9.09300E+00 3.60000E+01 0.00000E+00
 -1      2957 1.03920E+01 3.37938E+01 0.00000E+00
 -1      2958 1.23507E+02 2.97356E+01 0.00000E+00
 -1      2959 1.23400E+02 3.82967E+01 0.00000E+00
 -1      2960 1.23635E+02 3.54374E+01 0.00000E+00
 -1      2961 1.24302E+02 3.62204E+01 0.00000E+00
 -1      2962 1.24273E+02 3.46711E+01 0.00000E+00
 -1      2963 1.40993E+02 3.84937E+01 0.00000E+00
 -1      2964 1.41016E+02 3.71876E+01 0.00000E+00
 -1      2965 1.39717E+02 3.64501E+01 0.00000E+00
 -1      2966 1.39934E+02 3.87502E+01 0.00000E+00
 -1      2967 1.48740E+01 9.98151E+00 0.00000E+00
 -1      2968 1.41240E+01 8.68251E+00 0.00000E+00
 -1      2969 1.30515E+01 8.34733E+00 0.00000E+00
 -1      2970 1.00845E+02 4.06336E+01 0.00000E+00
 -1      2971 9.97133E+01 2.86455E+01 0.00000E+00
 -1      2972 1.01102E+02 2.62945E+01 0.00000E+00
 -1      2973 1.18479E+02 2.31691E+01 0.00000E+00
 -1      2974 1.02671E+02 2.41136E+01 0.00000E+00
 -1      2975 1.00133E+02 3.96085E+01 0.00000E+00
 -1      2976 9.92480E+01 3.91362E+01 0.00000E+00
 -1      2977 1.04842E+02 2.24844E+01 0.00000E+00
 -1      2978 1.03027E+01 9.70731E+00 0.00000E+00
 -1      2979 1.20748E+02 2.50633E+01 0.00000E+00
 -1      2980 1.07631E+02 2.13531E+01 0.00000E+00
 -1      2981 1.13533E+02 2.15639E+01 0.00000E+00
 -1      2982 1.14393E+02 2.10098E+01 0.00000E+00
 -1      2983 1.12872E+02 2.08696E+01 0.00000E+00
 -1      2984 9.09300E+00 2.86437E+01 0.00000E+00
 -1      2985 9.09300E+00 3.01187E+01 0.00000E+00
 -1      2986 1.03920E+01 3.08563E+01 0.00000E+00
 -1      2987 1.03920E+01 2.79188E+01 0.00000E+00
 -1      2988 1.10577E+02 2.11270E+01 0.00000E+00
 -1      2989 9.86013E+01 3.12976E+01 0.00000E+00
 -1      2990 8.78718E+00 3.80644E+01 0.00000E+00
 -1      2991 1.16910E+01 1.24625E+01 0.00000E+00
 -1      2992 1.16910E+01 1.39375E+01 0.00000E+00
 -1      2993 1.14712E+01 7.20138E+00 0.00000E+00
 -1      2994 1.89375E+01 3.83090E+01 0.00000E+00
 -1      2995 2.05125E+01 3.83090E+01 0.00000E+00
 -1      2996 2.20125E+01 3.83090E+01 0.00000E+00
 -1      2997 2.35125E+01 3.83090E+01 0.00000E+00
 -1      2998 2.12250E+01 3.70100E+01 0.00000E+00
 -1      2999 2.50125E+01 3.83090E+01 0.00000E+00
 -1      3000 2.65125E+01 3.83090E+01 0.00000E+00
 -1      3001 2.42250E+01 3.70100E+01 0.00000E+00
 -1      3002 2.80125E+01 3.83090E+01 0.00000E+00
 -1      3003 2.95125E+01 3.83090E+01 0.00000E+00
 -1      3004 2.72250E+01 3.70100E+01 0.00000E+00
 -1      3005 3.10125E+01 3.83090E+01 0.00000E+00
 -1      3006 3.25125E+01 3.83090E+01 0.00000E+00
 -1      3007 3.02250E+01 3.70100E+01 0.00000E+00
 -1      3008 3.40125E+01 3.83090E+01 0.00000E+00
 -1      3009 3.55125E+01 3.83090E+01 0.00000E+00
 -1      3010 3.32250E+01 3.70100E+01 0.00000E+00
 -1      3011 3.70125E+01 3.83090E+01 0.00000E+00
 -1      3012 3.85125E+01 3.83090E+01 0.00000E+00
 -1      3013 3.62250E+01 3.70100E+01 0.00000E+00
 -1      3014 4.00125E+01 3.83090E+01 0.00000E+00
 -1      3015 4.15125E+01 3.83090E+01 0.00000E+00
 -1      3016 3.92250E+01 3.70100E+01 0.00000E+00
 -1      3017 4.30125E+01 3.83090E+01 0.00000E+00
 -1      3018 4.45125E+01 3.83090E+01 0.00000E+00
 -1      3019 4.22250E+01 3.70100E+01 0.00000E+00
 -1      3020 4.60875E+01 3.83090E+01 0.00000E+00
 -1      3021 4.76625E+01 3.83090E+01 0.00000E+00
 -1      3022 4.53000E+01 3.70100E+01 0.00000E+00
 -1      3023 4.91625E+01 3.83090E+01 0.00000E+00
 -1      3024 5.06625E+01 3.83090E+01 0.00000E+00
 -1      3025 4.83750E+01 3.70100E+01 0.00000E+00
 -1      3026 5.21625E+01 3.83090E+01 0.00000E+00
 -1      3027 5.36625E+01 3.83090E+01 0.00000E+00
 -1      3028 5.13750E+01 3.70100E+01 0.00000E+00
 -1      3029 5.51625E+01 3.83090E+01 0.00000E+00
 -1      3030 5.66625E+01 3.83090E+01 0.00000E+00
 -1      3031 5.43750E+01 3.70100E+01 0.00000E+00
 -1      3032 5.81625E+01 3.83090E+01 0.00000E+00
 -1      3033 5.96625E+01 3.83090E+01 0.00000E+00
 -1      3034 5.73750E+01 3.70100E+01 0.00000E+00
 -1      3035 6.11625E+01 3.83090E+01 0.00000E+00
 -1      3036 6.26625E+01 3.83090E+01 0.00000E+00
 -1      3037 6.03750E+01 3.70100E+01 0.00000E+00
 -1      3038 6.41625E+01 3.83090E+01 0.00000E+00
 -1      3039 6.56625E+01 3.83090E+01 0.00000E+00
 -1      3040 6.33750E+01 3.70100E+01 0.00000E+00
 -1      3041 6.71625E+01 3.83090E+01 0.00000E+00
 -1      3042 6.86625E+01 3.83090E+01 0.00000E+00
 -1      3043 6.63750E+01 3.70100E+01 0.00000E+00
 -1      3044 7.01625E+01 3.83090E+01 0.00000E+00
 -1      3045 7.16625E+01 3.83090E+01 0.00000E+00
 -1      3046 6.93750E+01 3.70100E+01 0.00000E+00
 -1      3047 7.32375E+01 3.83090E+01 0.00000E+00
 -1      3048 7.48125E+01 3.83090E+01 0.00000E+00
 -1      3049 7.24500E+01 3.70100E+01 0.00000E+00
 -1      3050 7.63125E+01 3.83090E+01 0.00000E+00
 -1      3051 7.78125E+01 3.83090E+01 0.00000E+00
 -1      3052 7.55250E+01 3.70100E+01 0.00000E+00
 -1      3053 7.93125E+01 3.83090E+01 0.00000E+00
 -1      3054 8.08125E+01 3.83090E+01 0.00000E+00
 -1      3055 7.85250E+01 3.70100E+01 0.00000E+00
 -1      3056 8.23125E+01 3.83090E+01 0.00000E+00
 -1      3057 8.38125E+01 3.83090E+01 0.00000E+00
 -1      3058 8.15250E+01 3.70100E+01 0.00000E+00
 -1      3059 8.53125E+01 3.83090E+01 0.00000E+00
 -1      3060 8.68125E+01 3.83090E+01 0.00000E+00
 -1      3061 8.45250E+01 3.70100E+01 0.00000E+00
 -1      3062 8.83125E+01 3.83090E+01 0.00000E+00
 -1      3063 8.98125E+01 3.83090E+01 0.00000E+00
 -1      3064 8.75250E+01 3.70100E+01 0.00000E+00
 -1      3065 9.13125E+01 3.83090E+01 0.00000E+00
 -1      3066 9.28125E+01 3.83090E+01 0.00000E+00
 -1      3067 9.05250E+01 3.70100E+01 0.00000E+00
 -1      3068 1.26675E+02 3.91144E+01 0.00000E+00
 -1      3069 1.28175E+02 3.91144E+01 0.00000E+00
 -1      3070 1.29675E+02 3.91144E+01 0.00000E+00
 -1      3071 1.31175E+02 3.91144E+01 0.00000E+00
 -1      3072 1.28925E+02 3.78154E+01 0.00000E+00
 -1      3073 1.32675E+02 3.91144E+01 0.00000E+00
 -1      3074 1.34175E+02 3.91144E+01 0.00000E+00
 -1      3075 1.31925E+02 3.78154E+01 0.00000E+00
 -1      3076 1.35675E+02 3.91144E+01 0.00000E+00
 -1      3077 1.37175E+02 3.91144E+01 0.00000E+00
 -1      3078 1.34925E+02 3.78154E+01 0.00000E+00
 -1      3079 2.16240E+01 1.12805E+01 0.00000E+00
 -1      3080 2.01240E+01 1.12805E+01 0.00000E+00
 -1      3081 1.86240E+01 1.12805E+01 0.00000E+00
 -1      3082 1.71240E+01 1.12805E+01 0.00000E+00
 -1      3083 1.93740E+01 1.25795E+01 0.00000E+00
 -1      3084 3.36240E+01 1.12805E+01 0.00000E+00
 -1      3085 3.21240E+01 1.12805E+01 0.00000E+00
 -1      3086 3.06240E+01 1.12805E+01 0.00000E+00
 -1      3087 2.91240E+01 1.12805E+01 0.00000E+00
 -1      3088 3.13740E+01 1.25795E+01 0.00000E+00
 -1      3089 3.96240E+01 1.12805E+01 0.00000E+00
 -1      3090 3.81240E+01 1.12805E+01 0.00000E+00
 -1      3091 4.26240E+01 1.12805E+01 0.00000E+00
 -1      3092 4.11240E+01 1.12805E+01 0.00000E+00
 -1      3093 4.03740E+01 1.25795E+01 0.00000E+00
 -1      3094 4.56240E+01 1.12805E+01 0.00000E+00
 -1      3095 4.41240E+01 1.12805E+01 0.00000E+00
 -1      3096 4.33740E+01 1.25795E+01 0.00000E+00
 -1      3097 4.86240E+01 1.12805E+01 0.00000E+00
 -1      3098 4.71240E+01 1.12805E+01 0.00000E+00
 -1      3099 4.63740E+01 1.25795E+01 0.00000E+00
 -1      3100 5.16240E+01 1.12805E+01 0.00000E+00
 -1      3101 5.01240E+01 1.12805E+01 0.00000E+00
 -1      3102 4.93740E+01 1.25795E+01 0.00000E+00
 -1      3103 5.46240E+01 1.12805E+01 0.00000E+00
 -1      3104 5.31240E+01 1.12805E+01 0.00000E+00
 -1      3105 5.23740E+01 1.25795E+01 0.00000E+00
 -1      3106 5.76240E+01 1.12805E+01 0.00000E+00
 -1      3107 5.61240E+01 1.12805E+01 0.00000E+00
 -1      3108 5.53740E+01 1.25795E+01 0.00000E+00
 -1      3109 6.06240E+01 1.12805E+01 0.00000E+00
 -1      3110 5.91240E+01 1.12805E+01 0.00000E+00
 -1      3111 5.83740E+01 1.25795E+01 0.00000E+00
 -1      3112 6.36240E+01 1.12805E+01 0.00000E+00
 -1      3113 6.21240E+01 1.12805E+01 0.00000E+00
 -1      3114 6.13740E+01 1.25795E+01 0.00000E+00
 -1      3115 6.66240E+01 1.12805E+01 0.00000E+00
 -1      3116 6.51240E+01 1.12805E+01 0.00000E+00
 -1      3117 6.43740E+01 1.25795E+01 0.00000E+00
 -1      3118 6.96240E+01 1.12805E+01 0.00000E+00
 -1      3119 6.81240E+01 1.12805E+01 0.00000E+00
 -1      3120 6.73740E+01 1.25795E+01 0.00000E+00
 -1      3121 7.26240E+01 1.12805E+01 0.00000E+00
 -1      3122 7.11240E+01 1.12805E+01 0.00000E+00
 -1      3123 7.03740E+01 1.25795E+01 0.00000E+00
 -1      3124 7.56240E+01 1.12805E+01 0.00000E+00
 -1      3125 7.41240E+01 1.12805E+01 0.00000E+00
 -1      3126 7.33740E+01 1.25795E+01 0.00000E+00
 -1      3127 7.86240E+01 1.12805E+01 0.00000E+00
 -1      3128 7.71240E+01 1.12805E+01 0.00000E+00
 -1      3129 7.63740E+01 1.25795E+01 0.00000E+00
 -1      3130 8.16240E+01 1.12805E+01 0.00000E+00
 -1      3131 8.01240E+01 1.12805E+01 0.00000E+00
 -1      3132 7.93740E+01 1.25795E+01 0.00000E+00
 -1      3133 8.46240E+01 1.12805E+01 0.00000E+00
 -1      3134 8.31240E+01 1.12805E+01 0.00000E+00
 -1      3135 8.23740E+01 1.25795E+01 0.00000E+00
 -1      3136 8.76240E+01 1.12805E+01 0.00000E+00
 -1      3137 8.61240E+01 1.12805E+01 0.00000E+00
 -1      3138 8.53740E+01 1.25795E+01 0.00000E+00
 -1      3139 9.06240E+01 1.12805E+01 0.00000E+00
 -1      3140 8.91240E+01 1.12805E+01 0.00000E+00
 -1      3141 8.83740E+01 1.25795E+01 0.00000E+00
 -1      3142 9.36240E+01 1.12805E+01 0.00000E+00
 -1      3143 9.21240E+01 1.12805E+01 0.00000E+00
 -1      3144 9.13740E+01 1.25795E+01 0.00000E+00
 -1      3145 9.66240E+01 1.12805E+01 0.00000E+00
 -1      3146 9.51240E+01 1.12805E+01 0.00000E+00
 -1      3147 9.43740E+01 1.25795E+01 0.00000E+00
 -1      3148 9.96240E+01 1.12805E+01 0.00000E+00
 -1      3149 9.81240E+01 1.12805E+01 0.00000E+00
 -1      3150 9.73740E+01 1.25795E+01 0.00000E+00
 -1      3151 1.02624E+02 1.12805E+01 0.00000E+00
 -1      3152 1.01124E+02 1.12805E+01 0.00000E+00
 -1      3153 1.00374E+02 1.25795E+01 0.00000E+00
 -1      3154 1.05624E+02 1.12805E+01 0.00000E+00
 -1      3155 1.04124E+02 1.12805E+01 0.00000E+00
 -1      3156 1.03374E+02 1.25795E+01 0.00000E+00
 -1      3157 1.08624E+02 1.12805E+01 0.00000E+00
 -1      3158 1.07124E+02 1.12805E+01 0.00000E+00
 -1      3159 1.06374E+02 1.25795E+01 0.00000E+00
 -1      3160 1.11624E+02 1.12805E+01 0.00000E+00
 -1      3161 1.10124E+02 1.12805E+01 0.00000E+00
 -1      3162 1.09374E+02 1.25795E+01 0.00000E+00
 -1      3163 1.14624E+02 1.12805E+01 0.00000E+00
 -1      3164 1.13124E+02 1.12805E+01 0.00000E+00
 -1      3165 1.12374E+02 1.25795E+01 0.00000E+00
 -1      3166 1.17624E+02 1.12805E+01 0.00000E+00
 -1      3167 1.16124E+02 1.12805E+01 0.00000E+00
 -1      3168 1.15374E+02 1.25795E+01 0.00000E+00
 -1      3169 1.20624E+02 1.12805E+01 0.00000E+00
 -1      3170 1.19124E+02 1.12805E+01 0.00000E+00
 -1      3171 1.18374E+02 1.25795E+01 0.00000E+00
 -1      3172 1.23624E+02 1.12805E+01 0.00000E+00
 -1      3173 1.22124E+02 1.12805E+01 0.00000E+00
 -1      3174 1.21374E+02 1.25795E+01 0.00000E+00
 -1      3175 1.26624E+02 1.12805E+01 0.00000E+00
 -1      3176 1.25124E+02 1.12805E+01 0.00000E+00
 -1      3177 1.24374E+02 1.25795E+01 0.00000E+00
 -1      3178 1.29624E+02 1.12805E+01 0.00000E+00
 -1      3179 1.28124E+02 1.12805E+01 0.00000E+00
 -1      3180 1.27374E+02 1.25795E+01 0.00000E+00
 -1      3181 1.32624E+02 1.12805E+01 0.00000E+00
 -1      3182 1.31124E+02 1.12805E+01 0.00000E+00
 -1      3183 1.30374E+02 1.25795E+01 0.00000E+00
 -1      3184 1.38309E+02 2.57625E+01 0.00000E+00
 -1      3185 1.38309E+02 2.42875E+01 0.00000E+00
 -1      3186 1.24455E+02 2.86294E+01 0.00000E+00
 -1      3187 1.24949E+02 2.99452E+01 0.00000E+00
 -1      3188 1.24340E+02 3.85039E+01 0.00000E+00
 -1      3189 1.25735E+02 3.89072E+01 0.00000E+00
 -1      3190 1.26485E+02 3.76082E+01 0.00000E+00
 -1      3191 1.24605E+02 3.71939E+01 0.00000E+00
 -1      3192 1.38309E+02 2.28125E+01 0.00000E+00
 -1      3193 1.38309E+02 2.13375E+01 0.00000E+00
 -1      3194 1.37010E+02 2.35500E+01 0.00000E+00
 -1      3195 1.38309E+02 3.16125E+01 0.00000E+00
 -1      3196 1.38309E+02 3.01375E+01 0.00000E+00
 -1      3197 1.38309E+02 3.45625E+01 0.00000E+00
 -1      3198 1.38309E+02 3.30875E+01 0.00000E+00
 -1      3199 1.37010E+02 3.23500E+01 0.00000E+00
 -1      3200 1.17938E+01 8.83558E+00 0.00000E+00
 -1      3201 1.38150E+02 1.46391E+01 0.00000E+00
 -1      3202 1.37949E+02 1.24391E+01 0.00000E+00
 -1      3203 1.36491E+02 1.23532E+01 0.00000E+00
 -1      3204 1.10085E+02 1.98928E+01 0.00000E+00
 -1      3205 1.11519E+02 2.01894E+01 0.00000E+00
 -1      3206 1.03690E+02 2.17120E+01 0.00000E+00
 -1      3207 1.04968E+02 2.11033E+01 0.00000E+00
 -1      3208 1.01390E+02 2.38935E+01 0.00000E+00
 -1      3209 1.02283E+02 2.28731E+01 0.00000E+00
 -1      3210 1.38309E+02 2.86750E+01 0.00000E+00
 -1      3211 1.38309E+02 2.72250E+01 0.00000E+00
 -1      3212 1.37010E+02 2.64875E+01 0.00000E+00
 -1      3213 1.37010E+02 2.94125E+01 0.00000E+00
 -1      3214 3.66240E+01 1.12805E+01 0.00000E+00
 -1      3215 3.51240E+01 1.12805E+01 0.00000E+00
 -1      3216 3.43740E+01 1.25795E+01 0.00000E+00
 -1      3217 3.73740E+01 1.25795E+01 0.00000E+00
 -1      3218 1.59375E+01 3.83090E+01 0.00000E+00
 -1      3219 1.74375E+01 3.83090E+01 0.00000E+00
 -1      3220 1.82250E+01 3.70100E+01 0.00000E+00
 -1      3221 1.21300E+02 2.37562E+01 0.00000E+00
 -1      3222 1.22167E+02 2.50257E+01 0.00000E+00
 -1      3223 1.22866E+02 2.60692E+01 0.00000E+00
 -1      3224 1.23565E+02 2.71128E+01 0.00000E+00
 -1      3225 1.23418E+02 2.47622E+01 0.00000E+00
 -1      3226 9.85490E+01 2.87568E+01 0.00000E+00
 -1      3227 9.92628E+01 2.75662E+01 0.00000E+00
 -1      3228 1.16910E+01 2.12875E+01 0.00000E+00
 -1      3229 1.16910E+01 2.27625E+01 0.00000E+00
 -1      3230 9.72515E+01 3.17148E+01 0.00000E+00
 -1      3231 9.76497E+01 3.02533E+01 0.00000E+00
 -1      3232 9.77855E+01 3.88624E+01 0.00000E+00
 -1      3233 1.18195E+02 2.19203E+01 0.00000E+00
 -1      3234 1.19598E+02 2.25449E+01 0.00000E+00
 -1      3235 1.06513E+02 2.05664E+01 0.00000E+00
 -1      3236 1.08025E+02 2.00437E+01 0.00000E+00
 -1      3237 1.00862E+01 3.73269E+01 0.00000E+00
 -1      3238 9.71575E+01 3.42961E+01 0.00000E+00
 -1      3239 9.72869E+01 3.32042E+01 0.00000E+00
 -1      3240 1.18830E+01 1.08533E+01 0.00000E+00
 -1      3241 9.98787E+01 2.63591E+01 0.00000E+00
 -1      3242 1.00554E+02 2.51987E+01 0.00000E+00
 -1      3243 1.16172E+02 2.10801E+01 0.00000E+00
 -1      3244 1.17183E+02 2.15002E+01 0.00000E+00
 -1      3245 1.18302E+02 2.08760E+01 0.00000E+00
 -1      3246 9.67881E+01 3.82242E+01 0.00000E+00
 -1      3247 1.31820E+01 1.15908E+01 0.00000E+00
 -1      3248 1.46820E+01 1.15907E+01 0.00000E+00
 -1      3249 9.87144E+01 2.64704E+01 0.00000E+00
 -1      3250 9.61893E+01 3.61935E+01 0.00000E+00
 -1      3251 9.66734E+01 3.52448E+01 0.00000E+00
 -1      3252 9.58865E+01 3.45980E+01 0.00000E+00
 -1      3253 1.16910E+01 1.54063E+01 0.00000E+00
 -1      3254 1.16910E+01 1.68750E+01 0.00000E+00
 -1      3255 1.29900E+01 1.46687E+01 0.00000E+00
 -1      3256 9.43500E+01 3.83090E+01 0.00000E+00
 -1      3257 9.58500E+01 3.83090E+01 0.00000E+00
 -1      3258 9.63352E+01 3.21599E+01 0.00000E+00
 -1      3259 1.25551E+02 3.05894E+01 0.00000E+00
 -1      3260 1.26152E+02 3.12336E+01 0.00000E+00
 -1      3261 1.26499E+02 2.94832E+01 0.00000E+00
 -1      3262 2.31240E+01 1.12805E+01 0.00000E+00
 -1      3263 2.23740E+01 1.25795E+01 0.00000E+00
 -1      3264 2.46240E+01 1.12805E+01 0.00000E+00
 -1      3265 1.38025E+02 3.90606E+01 0.00000E+00
 -1      3266 1.39084E+02 3.88040E+01 0.00000E+00
 -1      3267 1.38975E+02 3.76540E+01 0.00000E+00
 -1      3268 1.37275E+02 3.77616E+01 0.00000E+00
 -1      3269 1.38309E+02 1.98687E+01 0.00000E+00
 -1      3270 1.38309E+02 1.84000E+01 0.00000E+00
 -1      3271 1.37010E+02 2.06063E+01 0.00000E+00
 -1      3272 1.54320E+01 1.28897E+01 0.00000E+00
 -1      3273 1.45951E+01 3.82548E+01 0.00000E+00
 -1      3274 1.53826E+01 3.69558E+01 0.00000E+00
 -1      3275 1.32527E+01 3.82007E+01 0.00000E+00
 -1      3276 2.83740E+01 1.25795E+01 0.00000E+00
 -1      3277 2.76240E+01 1.12805E+01 0.00000E+00
 -1      3278 2.61240E+01 1.12805E+01 0.00000E+00
 -1      3279 1.35286E+02 1.18598E+01 0.00000E+00
 -1      3280 1.33829E+02 1.17739E+01 0.00000E+00
 -1      3281 1.33079E+02 1.30729E+01 0.00000E+00
 -1      3282 1.35488E+02 1.40598E+01 0.00000E+00
 -1      3283 1.25007E+02 2.73223E+01 0.00000E+00
 -1      3284 1.12379E+02 1.96353E+01 0.00000E+00
 -1      3285 1.38230E+02 1.72539E+01 0.00000E+00
 -1      3286 1.38230E+02 1.57852E+01 0.00000E+00
 -1      3287 1.36771E+02 1.56993E+01 0.00000E+00
 -1      3288 1.36930E+02 1.79914E+01 0.00000E+00
 -1      3289 1.00166E+02 2.39581E+01 0.00000E+00
 -1      3290 1.02409E+02 2.14919E+01 0.00000E+00
 -1      3291 1.25072E+02 3.38970E+01 0.00000E+00
 -1      3292 1.25739E+02 3.46800E+01 0.00000E+00
 -1      3293 1.25871E+02 3.31229E+01 0.00000E+00
 -1      3294 1.16910E+01 1.83469E+01 0.00000E+00
 -1      3295 1.16910E+01 1.98156E+01 0.00000E+00
 -1      3296 1.29900E+01 2.05531E+01 0.00000E+00
 -1      3297 1.29900E+01 1.76094E+01 0.00000E+00
 -1      3298 1.14286E+01 3.73811E+01 0.00000E+00
 -1      3299 1.25242E+02 3.64276E+01 0.00000E+00
 -1      3300 1.16910E+01 3.30594E+01 0.00000E+00
 -1      3301 1.16910E+01 3.45281E+01 0.00000E+00
 -1      3302 1.08967E+02 1.91061E+01 0.00000E+00
 -1      3303 1.09908E+02 1.81685E+01 0.00000E+00
 -1      3304 1.07848E+02 1.83194E+01 0.00000E+00
 -1      3305 1.15511E+02 2.03857E+01 0.00000E+00
 -1      3306 1.16630E+02 1.97615E+01 0.00000E+00
 -1      3307 1.14851E+02 1.96913E+01 0.00000E+00
 -1      3308 1.38867E+02 3.65039E+01 0.00000E+00
 -1      3309 1.05361E+02 1.97939E+01 0.00000E+00
 -1      3310 1.21016E+02 2.25074E+01 0.00000E+00
 -1      3311 1.22434E+02 2.24698E+01 0.00000E+00
 -1      3312 1.20731E+02 2.12586E+01 0.00000E+00
 -1      3313 9.71992E+01 2.91740E+01 0.00000E+00
 -1      3314 1.29900E+01 2.35000E+01 0.00000E+00
 -1      3315 1.16910E+01 2.42375E+01 0.00000E+00
 -1      3316 1.16910E+01 2.57125E+01 0.00000E+00
 -1      3317 9.35625E+01 3.70100E+01 0.00000E+00
 -1      3318 1.16910E+01 3.01219E+01 0.00000E+00
 -1      3319 1.16910E+01 3.15906E+01 0.00000E+00
 -1      3320 1.29900E+01 3.23250E+01 0.00000E+00
 -1      3321 1.37421E+02 3.67640E+01 0.00000E+00
 -1      3322 1.38163E+02 3.55601E+01 0.00000E+00
 -1      3323 1.36864E+02 3.48226E+01 0.00000E+00
 -1      3324 1.36571E+02 3.68178E+01 0.00000E+00
 -1      3325 1.25683E+02 2.59066E+01 0.00000E+00
 -1      3326 1.26573E+02 2.74232E+01 0.00000E+00
 -1      3327 1.74750E+01 3.57110E+01 0.00000E+00
 -1      3328 1.89750E+01 3.57110E+01 0.00000E+00
 -1      3329 2.34750E+01 3.57110E+01 0.00000E+00
 -1      3330 2.49750E+01 3.57110E+01 0.00000E+00
 -1      3331 2.64750E+01 3.57110E+01 0.00000E+00
 -1      3332 2.79750E+01 3.57110E+01 0.00000E+00
 -1      3333 2.57250E+01 3.44120E+01 0.00000E+00
 -1      3334 2.94750E+01 3.57110E+01 0.00000E+00
 -1      3335 3.09750E+01 3.57110E+01 0.00000E+00
 -1      3336 2.87250E+01 3.44120E+01 0.00000E+00
 -1      3337 3.24750E+01 3.57110E+01 0.00000E+00
 -1      3338 3.39750E+01 3.57110E+01 0.00000E+00
 -1      3339 3.17250E+01 3.44120E+01 0.00000E+00
 -1      3340 3.54750E+01 3.57110E+01 0.00000E+00
 -1      3341 3.69750E+01 3.57110E+01 0.00000E+00
 -1      3342 3.47250E+01 3.44120E+01 0.00000E+00
 -1      3343 3.84750E+01 3.57110E+01 0.00000E+00
 -1      3344 3.99750E+01 3.57110E+01 0.00000E+00
 -1      3345 3.77250E+01 3.44120E+01 0.00000E+00
 -1      3346 4.14750E+01 3.57110E+01 0.00000E+00
 -1      3347 4.29750E+01 3.57110E+01 0.00000E+00
 -1      3348 4.07250E+01 3.44120E+01 0.00000E+00
 -1      3349 4.45500E+01 3.57110E+01 0.00000E+00
 -1      3350 4.61250E+01 3.57110E+01 0.00000E+00
 -1      3351 4.38000E+01 3.44120E+01 0.00000E+00
 -1      3352 4.76250E+01 3.57110E+01 0.00000E+00
 -1      3353 4.91250E+01 3.57110E+01 0.00000E+00
 -1      3354 4.68750E+01 3.44120E+01 0.00000E+00
 -1      3355 5.06250E+01 3.57110E+01 0.00000E+00
 -1      3356 5.21250E+01 3.57110E+01 0.00000E+00
 -1      3357 4.98750E+01 3.44120E+01 0.00000E+00
 -1      3358 5.36250E+01 3.57110E+01 0.00000E+00
 -1      3359 5.51250E+01 3.57110E+01 0.00000E+00
 -1      3360 5.28750E+01 3.44120E+01 0.00000E+00
 -1      3361 5.66250E+01 3.57110E+01 0.00000E+00
 -1      3362 5.81250E+01 3.57110E+01 0.00000E+00
 -1      3363 5.58750E+01 3.44120E+01 0.00000E+00
 -1      3364 5.96250E+01 3.57110E+01 0.00000E+00
 -1      3365 6.11250E+01 3.57110E+01 0.00000E+00
 -1      3366 5.88750E+01 3.44120E+01 0.00000E+00
 -1      3367 6.26250E+01 3.57110E+01 0.00000E+00
 -1      3368 6.41250E+01 3.57110E+01 0.00000E+00
 -1      3369 6.18750E+01 3.44120E+01 0.00000E+00
 -1      3370 6.56250E+01 3.57110E+01 0.00000E+00
 -1      3371 6.71250E+01 3.57110E+01 0.00000E+00
 -1      3372 6.48750E+01 3.44120E+01 0.00000E+00
 -1      3373 6.86250E+01 3.57110E+01 0.00000E+00
 -1      3374 7.01250E+01 3.57110E+01 0.00000E+00
 -1      3375 6.78750E+01 3.44120E+01 0.00000E+00
 -1      3376 7.17000E+01 3.57110E+01 0.00000E+00
 -1      3377 7.32750E+01 3.57110E+01 0.00000E+00
 -1      3378 7.09500E+01 3.44120E+01 0.00000E+00
 -1      3379 7.47750E+01 3.57110E+01 0.00000E+00
 -1      3380 7.62750E+01 3.57110E+01 0.00000E+00
 -1      3381 7.40250E+01 3.44120E+01 0.00000E+00
 -1      3382 7.77750E+01 3.57110E+01 0.00000E+00
 -1      3383 7.92750E+01 3.57110E+01 0.00000E+00
 -1      3384 7.70250E+01 3.44120E+01 0.00000E+00
 -1      3385 8.07750E+01 3.57110E+01 0.00000E+00
 -1      3386 8.22750E+01 3.57110E+01 0.00000E+00
 -1      3387 8.00250E+01 3.44120E+01 0.00000E+00
 -1      3388 8.37750E+01 3.57110E+01 0.00000E+00
 -1      3389 8.52750E+01 3.57110E+01 0.00000E+00
 -1      3390 8.30250E+01 3.44120E+01 0.00000E+00
 -1      3391 8.67750E+01 3.57110E+01 0.00000E+00
 -1      3392 8.82750E+01 3.57110E+01 0.00000E+00
 -1      3393 8.60250E+01 3.44120E+01 0.00000E+00
 -1      3394 8.97750E+01 3.57110E+01 0.00000E+00
 -1      3395 9.12750E+01 3.57110E+01 0.00000E+00
 -1      3396 8.90250E+01 3.44120E+01 0.00000E+00
 -1      3397 1.35711E+02 2.42875E+01 0.00000E+00
 -1      3398 1.35711E+02 2.28125E+01 0.00000E+00
 -1      3399 9.53281E+01 3.29289E+01 0.00000E+00
 -1      3400 9.52927E+01 3.14396E+01 0.00000E+00
 -1      3401 9.87437E+01 2.39676E+01 0.00000E+00
 -1      3402 9.95795E+01 2.26624E+01 0.00000E+00
 -1      3403 2.04750E+01 3.57110E+01 0.00000E+00
 -1      3404 2.19750E+01 3.57110E+01 0.00000E+00
 -1      3405 1.97250E+01 3.44120E+01 0.00000E+00
 -1      3406 1.31175E+02 3.65164E+01 0.00000E+00
 -1      3407 1.32675E+02 3.65164E+01 0.00000E+00
 -1      3408 1.33873E+02 3.66671E+01 0.00000E+00
 -1      3409 1.35373E+02 3.66671E+01 0.00000E+00
 -1      3410 1.35519E+02 3.56695E+01 0.00000E+00
 -1      3411 1.33123E+02 3.53681E+01 0.00000E+00
 -1      3412 4.41240E+01 1.38785E+01 0.00000E+00
 -1      3413 4.26240E+01 1.38785E+01 0.00000E+00
 -1      3414 4.11240E+01 1.38785E+01 0.00000E+00
 -1      3415 3.96240E+01 1.38785E+01 0.00000E+00
 -1      3416 4.18740E+01 1.51775E+01 0.00000E+00
 -1      3417 5.01240E+01 1.38785E+01 0.00000E+00
 -1      3418 4.86240E+01 1.38785E+01 0.00000E+00
 -1      3419 5.31240E+01 1.38785E+01 0.00000E+00
 -1      3420 5.16240E+01 1.38785E+01 0.00000E+00
 -1      3421 5.08740E+01 1.51775E+01 0.00000E+00
 -1      3422 5.61240E+01 1.38785E+01 0.00000E+00
 -1      3423 5.46240E+01 1.38785E+01 0.00000E+00
 -1      3424 5.38740E+01 1.51775E+01 0.00000E+00
 -1      3425 5.91240E+01 1.38785E+01 0.00000E+00
 -1      3426 5.76240E+01 1.38785E+01 0.00000E+00
 -1      3427 5.68740E+01 1.51775E+01 0.00000E+00
 -1      3428 6.21240E+01 1.38785E+01 0.00000E+00
 -1      3429 6.06240E+01 1.38785E+01 0.00000E+00
 -1      3430 5.98740E+01 1.51775E+01 0.00000E+00
 -1      3431 6.51240E+01 1.38785E+01 0.00000E+00
 -1      3432 6.36240E+01 1.38785E+01 0.00000E+00
 -1      3433 6.28740E+01 1.51775E+01 0.00000E+00
 -1      3434 6.81240E+01 1.38785E+01 0.00000E+00
 -1      3435 6.66240E+01 1.38785E+01 0.00000E+00
 -1      3436 6.58740E+01 1.51775E+01 0.00000E+00
 -1      3437 7.11240E+01 1.38785E+01 0.00000E+00
 -1      3438 6.96240E+01 1.38785E+01 0.00000E+00
 -1      3439 6.88740E+01 1.51775E+01 0.00000E+00
 -1      3440 7.41240E+01 1.38785E+01 0.00000E+00
 -1      3441 7.26240E+01 1.38785E+01 0.00000E+00
 -1      3442 7.18740E+01 1.51775E+01 0.00000E+00
 -1      3443 7.71240E+01 1.38785E+01 0.00000E+00
 -1      3444 7.56240E+01 1.38785E+01 0.00000E+00
 -1      3445 7.48740E+01 1.51775E+01 0.00000E+00
 -1      3446 8.01240E+01 1.38785E+01 0.00000E+00
 -1      3447 7.86240E+01 1.38785E+01 0.00000E+00
 -1      3448 7.78740E+01 1.51775E+01 0.00000E+00
 -1      3449 8.31240E+01 1.38785E+01 0.00000E+00
 -1      3450 8.16240E+01 1.38785E+01 0.00000E+00
 -1      3451 8.08740E+01 1.51775E+01 0.00000E+00
 -1      3452 8.61240E+01 1.38785E+01 0.00000E+00
 -1      3453 8.46240E+01 1.38785E+01 0.00000E+00
 -1      3454 8.38740E+01 1.51775E+01 0.00000E+00
 -1      3455 8.91240E+01 1.38785E+01 0.00000E+00
 -1      3456 8.76240E+01 1.38785E+01 0.00000E+00
 -1      3457 8.68740E+01 1.51775E+01 0.00000E+00
 -1      3458 9.21240E+01 1.38785E+01 0.00000E+00
 -1      3459 9.06240E+01 1.38785E+01 0.00000E+00
 -1      3460 8.98740E+01 1.51775E+01 0.00000E+00
 -1      3461 9.51240E+01 1.38785E+01 0.00000E+00
 -1      3462 9.36240E+01 1.38785E+01 0.00000E+00
 -1      3463 9.28740E+01 1.51775E+01 0.00000E+00
 -1      3464 9.81240E+01 1.38785E+01 0.00000E+00
 -1      3465 9.66240E+01 1.38785E+01 0.00000E+00
 -1      3466 9.58740E+01 1.51775E+01 0.00000E+00
 -1      3467 1.01124E+02 1.38785E+01 0.00000E+00
 -1      3468 9.96240E+01 1.38785E+01 0.00000E+00
 -1      3469 9.88740E+01 1.51775E+01 0.00000E+00
 -1      3470 1.04124E+02 1.38785E+01 0.00000E+00
 -1      3471 1.02624E+02 1.38785E+01 0.00000E+00
 -1      3472 1.01874E+02 1.51775E+01 0.00000E+00
 -1      3473 1.07124E+02 1.38785E+01 0.00000E+00
 -1      3474 1.05624E+02 1.38785E+01 0.00000E+00
 -1      3475 1.04874E+02 1.51775E+01 0.00000E+00
 -1      3476 1.09832E+02 1.49806E+01 0.00000E+00
 -1      3477 1.08332E+02 1.49806E+01 0.00000E+00
 -1      3478 1.16124E+02 1.38785E+01 0.00000E+00
 -1      3479 1.14624E+02 1.38785E+01 0.00000E+00
 -1      3480 1.19124E+02 1.38785E+01 0.00000E+00
 -1      3481 1.17624E+02 1.38785E+01 0.00000E+00
 -1      3482 1.16874E+02 1.51775E+01 0.00000E+00
 -1      3483 1.22124E+02 1.38785E+01 0.00000E+00
 -1      3484 1.20624E+02 1.38785E+01 0.00000E+00
 -1      3485 1.19874E+02 1.51775E+01 0.00000E+00
 -1      3486 1.25124E+02 1.38785E+01 0.00000E+00
 -1      3487 1.23624E+02 1.38785E+01 0.00000E+00
 -1      3488 1.22874E+02 1.51775E+01 0.00000E+00
 -1      3489 1.28124E+02 1.38785E+01 0.00000E+00
 -1      3490 1.26624E+02 1.38785E+01 0.00000E+00
 -1      3491 1.25874E+02 1.51775E+01 0.00000E+00
 -1      3492 1.31124E+02 1.38785E+01 0.00000E+00
 -1      3493 1.29624E+02 1.38785E+01 0.00000E+00
 -1      3494 1.28874E+02 1.51775E+01 0.00000E+00
 -1      3495 1.35711E+02 3.30875E+01 0.00000E+00
 -1      3496 1.35711E+02 3.16125E+01 0.00000E+00
 -1      3497 9.74187E+01 2.65700E+01 0.00000E+00
 -1      3498 9.80345E+01 2.53629E+01 0.00000E+00
 -1      3499 9.60381E+01 3.69252E+01 0.00000E+00
 -1      3500 1.24284E+02 2.38195E+01 0.00000E+00
 -1      3501 1.24983E+02 2.48631E+01 0.00000E+00
 -1      3502 1.26549E+02 2.49640E+01 0.00000E+00
 -1      3503 1.12145E+02 1.83310E+01 0.00000E+00
 -1      3504 1.13498E+02 1.90111E+01 0.00000E+00
 -1      3505 1.14616E+02 1.83870E+01 0.00000E+00
 -1      3506 1.00879E+02 2.10705E+01 0.00000E+00
 -1      3507 1.02286E+02 1.99094E+01 0.00000E+00
 -1      3508 1.04162E+02 1.88354E+01 0.00000E+00
 -1      3509 1.05708E+02 1.82984E+01 0.00000E+00
 -1      3510 1.16910E+01 2.71844E+01 0.00000E+00
 -1      3511 1.16910E+01 2.86531E+01 0.00000E+00
 -1      3512 1.29900E+01 2.93875E+01 0.00000E+00
 -1      3513 1.35151E+01 3.53477E+01 0.00000E+00
 -1      3514 1.22161E+01 3.60821E+01 0.00000E+00
 -1      3515 4.71240E+01 1.38785E+01 0.00000E+00
 -1      3516 4.56240E+01 1.38785E+01 0.00000E+00
 -1      3517 4.48740E+01 1.51775E+01 0.00000E+00
 -1      3518 4.78740E+01 1.51775E+01 0.00000E+00
 -1      3519 1.78740E+01 1.40483E+01 0.00000E+00
 -1      3520 1.54320E+01 1.43585E+01 0.00000E+00
 -1      3521 1.54320E+01 1.58272E+01 0.00000E+00
 -1      3522 3.21240E+01 1.38785E+01 0.00000E+00
 -1      3523 3.06240E+01 1.38785E+01 0.00000E+00
 -1      3524 1.26042E+02 3.56535E+01 0.00000E+00
 -1      3525 1.26344E+02 3.66269E+01 0.00000E+00
 -1      3526 1.26841E+02 3.48794E+01 0.00000E+00
 -1      3527 1.93740E+01 1.40483E+01 0.00000E+00
 -1      3528 9.56200E+01 2.95630E+01 0.00000E+00
 -1      3529 9.65193E+01 2.80665E+01 0.00000E+00
 -1      3530 9.58395E+01 2.69590E+01 0.00000E+00
 -1      3531 1.18286E+02 1.94872E+01 0.00000E+00
 -1      3532 1.19297E+02 1.99073E+01 0.00000E+00
 -1      3533 9.52512E+01 3.62784E+01 0.00000E+00
 -1      3534 2.98740E+01 1.51775E+01 0.00000E+00
 -1      3535 2.91240E+01 1.38785E+01 0.00000E+00
 -1      3536 2.76240E+01 1.38785E+01 0.00000E+00
 -1      3537 1.42890E+01 3.15906E+01 0.00000E+00
 -1      3538 1.42890E+01 3.30594E+01 0.00000E+00
 -1      3539 1.34412E+02 2.20812E+01 0.00000E+00
 -1      3540 1.35711E+02 2.13438E+01 0.00000E+00
 -1      3541 1.35711E+02 1.98750E+01 0.00000E+00
 -1      3542 1.35711E+02 2.57500E+01 0.00000E+00
 -1      3543 1.34412E+02 2.50125E+01 0.00000E+00
 -1      3544 1.35711E+02 2.72125E+01 0.00000E+00
 -1      3545 9.36057E+01 3.11011E+01 0.00000E+00
 -1      3546 9.46128E+01 3.03321E+01 0.00000E+00
 -1      3547 9.39330E+01 2.92246E+01 0.00000E+00
 -1      3548 9.94564E+01 2.10799E+01 0.00000E+00
 -1      3549 1.27174E+02 2.80675E+01 0.00000E+00
 -1      3550 1.27776E+02 2.87117E+01 0.00000E+00
 -1      3551 1.27850E+02 2.66517E+01 0.00000E+00
 -1      3552 2.53740E+01 1.25795E+01 0.00000E+00
 -1      3553 2.27250E+01 3.44120E+01 0.00000E+00
 -1      3554 1.35567E+02 1.52059E+01 0.00000E+00
 -1      3555 1.34363E+02 1.47124E+01 0.00000E+00
 -1      3556 1.35646E+02 1.63519E+01 0.00000E+00
 -1      3557 3.88740E+01 1.51775E+01 0.00000E+00
 -1      3558 3.81240E+01 1.38785E+01 0.00000E+00
 -1      3559 3.66240E+01 1.38785E+01 0.00000E+00
 -1      3560 1.11662E+02 1.41734E+01 0.00000E+00
 -1      3561 1.10620E+02 1.65745E+01 0.00000E+00
 -1      3562 1.11738E+02 1.73612E+01 0.00000E+00
 -1      3563 1.13162E+02 1.41734E+01 0.00000E+00
 -1      3564 1.13912E+02 1.54724E+01 0.00000E+00
 -1      3565 1.34412E+02 3.08875E+01 0.00000E+00
 -1      3566 1.35711E+02 3.01500E+01 0.00000E+00
 -1      3567 1.35711E+02 2.86875E+01 0.00000E+00
 -1      3568 1.32329E+02 1.43719E+01 0.00000E+00
 -1      3569 3.51240E+01 1.38785E+01 0.00000E+00
 -1      3570 3.36240E+01 1.38785E+01 0.00000E+00
 -1      3571 3.28740E+01 1.51775E+01 0.00000E+00
 -1      3572 3.58740E+01 1.51775E+01 0.00000E+00
 -1      3573 1.02632E+02 1.84139E+01 0.00000E+00
 -1      3574 1.12857E+02 1.67371E+01 0.00000E+00
 -1      3575 1.29900E+01 2.64469E+01 0.00000E+00
 -1      3576 1.20716E+02 1.98697E+01 0.00000E+00
 -1      3577 2.31240E+01 1.38785E+01 0.00000E+00
 -1      3578 2.16240E+01 1.38785E+01 0.00000E+00
 -1      3579 1.27284E+02 3.68341E+01 0.00000E+00
 -1      3580 9.74480E+01 2.40671E+01 0.00000E+00
 -1      3581 1.26820E+02 3.20167E+01 0.00000E+00
 -1      3582 1.27487E+02 3.27997E+01 0.00000E+00
 -1      3583 1.27768E+02 3.09105E+01 0.00000E+00
 -1      3584 1.06640E+02 1.72173E+01 0.00000E+00
 -1      3585 1.07582E+02 1.62796E+01 0.00000E+00
 -1      3586 1.35666E+02 3.46719E+01 0.00000E+00
 -1      3587 9.48439E+01 3.38777E+01 0.00000E+00
 -1      3588 2.01240E+01 1.53472E+01 0.00000E+00
 -1      3589 1.23715E+02 2.13219E+01 0.00000E+00
 -1      3590 1.24000E+02 2.25707E+01 0.00000E+00
 -1      3591 1.25565E+02 2.26716E+01 0.00000E+00
 -1      3592 1.42890E+01 1.98172E+01 0.00000E+00
 -1      3593 1.42890E+01 2.12891E+01 0.00000E+00
 -1      3594 1.45732E+01 3.42306E+01 0.00000E+00
 -1      3595 1.50983E+01 3.57846E+01 0.00000E+00
 -1      3596 1.64408E+01 3.58387E+01 0.00000E+00
 -1      3597 1.58722E+01 3.34963E+01 0.00000E+00
 -1      3598 1.42890E+01 2.27641E+01 0.00000E+00
 -1      3599 1.42890E+01 2.42391E+01 0.00000E+00
 -1      3600 1.55880E+01 2.20281E+01 0.00000E+00
 -1      3601 1.71908E+01 3.45397E+01 0.00000E+00
 -1      3602 1.17625E+02 1.87928E+01 0.00000E+00
 -1      3603 1.28175E+02 3.65389E+01 0.00000E+00
 -1      3604 1.29675E+02 3.65389E+01 0.00000E+00
 -1      3605 9.27937E+01 3.58173E+01 0.00000E+00
 -1      3606 9.43313E+01 3.58173E+01 0.00000E+00
 -1      3607 1.28034E+02 3.55576E+01 0.00000E+00
 -1      3608 1.34367E+02 3.39344E+01 0.00000E+00
 -1      3609 9.20437E+01 3.45183E+01 0.00000E+00
 -1      3610 1.30425E+02 3.52399E+01 0.00000E+00
 -1      3611 1.78740E+01 1.69889E+01 0.00000E+00
 -1      3612 1.54320E+01 1.72991E+01 0.00000E+00
 -1      3613 1.54320E+01 1.87710E+01 0.00000E+00
 -1      3614 1.42890E+01 3.01219E+01 0.00000E+00
 -1      3615 1.55880E+01 3.08563E+01 0.00000E+00
 -1      3616 1.42890E+01 2.86531E+01 0.00000E+00
 -1      3617 1.29658E+02 3.41424E+01 0.00000E+00
 -1      3618 1.31158E+02 3.41199E+01 0.00000E+00
 -1      3619 2.79750E+01 3.31130E+01 0.00000E+00
 -1      3620 2.94750E+01 3.31130E+01 0.00000E+00
 -1      3621 3.09750E+01 3.31130E+01 0.00000E+00
 -1      3622 3.24750E+01 3.31130E+01 0.00000E+00
 -1      3623 3.02250E+01 3.18140E+01 0.00000E+00
 -1      3624 3.39750E+01 3.31130E+01 0.00000E+00
 -1      3625 3.54750E+01 3.31130E+01 0.00000E+00
 -1      3626 3.32250E+01 3.18140E+01 0.00000E+00
 -1      3627 3.69750E+01 3.31130E+01 0.00000E+00
 -1      3628 3.84750E+01 3.31130E+01 0.00000E+00
 -1      3629 3.62250E+01 3.18140E+01 0.00000E+00
 -1      3630 3.99750E+01 3.31130E+01 0.00000E+00
 -1      3631 4.14750E+01 3.31130E+01 0.00000E+00
 -1      3632 3.92250E+01 3.18140E+01 0.00000E+00
 -1      3633 4.30500E+01 3.31130E+01 0.00000E+00
 -1      3634 4.46250E+01 3.31130E+01 0.00000E+00
 -1      3635 4.23000E+01 3.18140E+01 0.00000E+00
 -1      3636 4.61250E+01 3.31130E+01 0.00000E+00
 -1      3637 4.76250E+01 3.31130E+01 0.00000E+00
 -1      3638 4.53750E+01 3.18140E+01 0.00000E+00
 -1      3639 4.91250E+01 3.31130E+01 0.00000E+00
 -1      3640 5.06250E+01 3.31130E+01 0.00000E+00
 -1      3641 4.83750E+01 3.18140E+01 0.00000E+00
 -1      3642 5.21250E+01 3.31130E+01 0.00000E+00
 -1      3643 5.36250E+01 3.31130E+01 0.00000E+00
 -1      3644 5.13750E+01 3.18140E+01 0.00000E+00
 -1      3645 5.51250E+01 3.31130E+01 0.00000E+00
 -1      3646 5.66250E+01 3.31130E+01 0.00000E+00
 -1      3647 5.43750E+01 3.18140E+01 0.00000E+00
 -1      3648 5.81250E+01 3.31130E+01 0.00000E+00
 -1      3649 5.96250E+01 3.31130E+01 0.00000E+00
 -1      3650 5.73750E+01 3.18140E+01 0.00000E+00
 -1      3651 6.11250E+01 3.31130E+01 0.00000E+00
 -1      3652 6.26250E+01 3.31130E+01 0.00000E+00
 -1      3653 6.03750E+01 3.18140E+01 0.00000E+00
 -1      3654 6.41250E+01 3.31130E+01 0.00000E+00
 -1      3655 6.56250E+01 3.31130E+01 0.00000E+00
 -1      3656 6.33750E+01 3.18140E+01 0.00000E+00
 -1      3657 6.71250E+01 3.31130E+01 0.00000E+00
 -1      3658 6.86250E+01 3.31130E+01 0.00000E+00
 -1      3659 6.63750E+01 3.18140E+01 0.00000E+00
 -1      3660 7.02000E+01 3.31130E+01 0.00000E+00
 -1      3661 7.17750E+01 3.31130E+01 0.00000E+00
 -1      3662 6.94500E+01 3.18140E+01 0.00000E+00
 -1      3663 7.32750E+01 3.31130E+01 0.00000E+00
 -1      3664 7.47750E+01 3.31130E+01 0.00000E+00
 -1      3665 7.25250E+01 3.18140E+01 0.00000E+00
 -1      3666 7.62750E+01 3.31130E+01 0.00000E+00
 -1      3667 7.77750E+01 3.31130E+01 0.00000E+00
 -1      3668 7.55250E+01 3.18140E+01 0.00000E+00
 -1      3669 7.92750E+01 3.31130E+01 0.00000E+00
 -1      3670 8.07750E+01 3.31130E+01 0.00000E+00
 -1      3671 7.85250E+01 3.18140E+01 0.00000E+00
 -1      3672 8.22750E+01 3.31130E+01 0.00000E+00
 -1      3673 8.37750E+01 3.31130E+01 0.00000E+00
 -1      3674 8.15250E+01 3.18140E+01 0.00000E+00
 -1      3675 8.52750E+01 3.31130E+01 0.00000E+00
 -1      3676 8.67750E+01 3.31130E+01 0.00000E+00
 -1      3677 8.45250E+01 3.18140E+01 0.00000E+00
 -1      3678 8.82750E+01 3.31130E+01 0.00000E+00
 -1      3679 8.97750E+01 3.31130E+01 0.00000E+00
 -1      3680 8.75250E+01 3.18140E+01 0.00000E+00
 -1      3681 4.26240E+01 1.64765E+01 0.00000E+00
 -1      3682 4.11240E+01 1.64765E+01 0.00000E+00
 -1      3683 2.61240E+01 1.38785E+01 0.00000E+00
 -1      3684 2.46240E+01 1.38785E+01 0.00000E+00
 -1      3685 2.38740E+01 1.51775E+01 0.00000E+00
 -1      3686 2.68740E+01 1.51775E+01 0.00000E+00
 -1      3687 9.42957E+01 2.70498E+01 0.00000E+00
 -1      3688 9.51951E+01 2.55532E+01 0.00000E+00
 -1      3689 5.46240E+01 1.64765E+01 0.00000E+00
 -1      3690 5.31240E+01 1.64765E+01 0.00000E+00
 -1      3691 5.16240E+01 1.64765E+01 0.00000E+00
 -1      3692 5.01240E+01 1.64765E+01 0.00000E+00
 -1      3693 5.23740E+01 1.77755E+01 0.00000E+00
 -1      3694 6.06240E+01 1.64765E+01 0.00000E+00
 -1      3695 5.91240E+01 1.64765E+01 0.00000E+00
 -1      3696 6.36240E+01 1.64765E+01 0.00000E+00
 -1      3697 6.21240E+01 1.64765E+01 0.00000E+00
 -1      3698 6.13740E+01 1.77755E+01 0.00000E+00
 -1      3699 6.66240E+01 1.64765E+01 0.00000E+00
 -1      3700 6.51240E+01 1.64765E+01 0.00000E+00
 -1      3701 6.43740E+01 1.77755E+01 0.00000E+00
 -1      3702 6.96240E+01 1.64765E+01 0.00000E+00
 -1      3703 6.81240E+01 1.64765E+01 0.00000E+00
 -1      3704 6.73740E+01 1.77755E+01 0.00000E+00
 -1      3705 7.26240E+01 1.64765E+01 0.00000E+00
 -1      3706 7.11240E+01 1.64765E+01 0.00000E+00
 -1      3707 7.03740E+01 1.77755E+01 0.00000E+00
 -1      3708 7.56240E+01 1.64765E+01 0.00000E+00
 -1      3709 7.41240E+01 1.64765E+01 0.00000E+00
 -1      3710 7.33740E+01 1.77755E+01 0.00000E+00
 -1      3711 7.86240E+01 1.64765E+01 0.00000E+00
 -1      3712 7.71240E+01 1.64765E+01 0.00000E+00
 -1      3713 7.63740E+01 1.77755E+01 0.00000E+00
 -1      3714 8.16240E+01 1.64765E+01 0.00000E+00
 -1      3715 8.01240E+01 1.64765E+01 0.00000E+00
 -1      3716 7.93740E+01 1.77755E+01 0.00000E+00
 -1      3717 8.46240E+01 1.64765E+01 0.00000E+00
 -1      3718 8.31240E+01 1.64765E+01 0.00000E+00
 -1      3719 8.23740E+01 1.77755E+01 0.00000E+00
 -1      3720 8.76240E+01 1.64765E+01 0.00000E+00
 -1      3721 8.61240E+01 1.64765E+01 0.00000E+00
 -1      3722 8.53740E+01 1.77755E+01 0.00000E+00
 -1      3723 9.06240E+01 1.64765E+01 0.00000E+00
 -1      3724 8.91240E+01 1.64765E+01 0.00000E+00
 -1      3725 8.83740E+01 1.77755E+01 0.00000E+00
 -1      3726 9.36240E+01 1.64765E+01 0.00000E+00
 -1      3727 9.21240E+01 1.64765E+01 0.00000E+00
 -1      3728 9.13740E+01 1.77755E+01 0.00000E+00
 -1      3729 9.66240E+01 1.64765E+01 0.00000E+00
 -1      3730 9.51240E+01 1.64765E+01 0.00000E+00
 -1      3731 9.43740E+01 1.77755E+01 0.00000E+00
 -1      3732 1.14319E+02 1.64422E+01 0.00000E+00
 -1      3733 1.26624E+02 1.64765E+01 0.00000E+00
 -1      3734 1.25124E+02 1.64765E+01 0.00000E+00
 -1      3735 1.29624E+02 1.64765E+01 0.00000E+00
 -1      3736 1.28124E+02 1.64765E+01 0.00000E+00
 -1      3737 1.27374E+02 1.77755E+01 0.00000E+00
 -1      3738 1.35719E+02 1.86865E+01 0.00000E+00
 -1      3739 1.35639E+02 1.75404E+01 0.00000E+00
 -1      3740 1.34434E+02 1.70470E+01 0.00000E+00
 -1      3741 1.34419E+02 1.94240E+01 0.00000E+00
 -1      3742 1.23624E+02 1.64765E+01 0.00000E+00
 -1      3743 1.22124E+02 1.64765E+01 0.00000E+00
 -1      3744 1.24374E+02 1.77755E+01 0.00000E+00
 -1      3745 1.15672E+02 1.71223E+01 0.00000E+00
 -1      3746 5.76240E+01 1.64765E+01 0.00000E+00
 -1      3747 5.61240E+01 1.64765E+01 0.00000E+00
 -1      3748 5.53740E+01 1.77755E+01 0.00000E+00
 -1      3749 1.05441E+02 1.62587E+01 0.00000E+00
 -1      3750 1.20328E+02 1.68480E+01 0.00000E+00
 -1      3751 1.18828E+02 1.68480E+01 0.00000E+00
 -1      3752 1.33169E+02 3.37837E+01 0.00000E+00
 -1      3753 1.17172E+02 1.71223E+01 0.00000E+00
 -1      3754 1.66222E+01 3.21973E+01 0.00000E+00
 -1      3755 1.69065E+01 3.33685E+01 0.00000E+00
 -1      3756 1.79408E+01 3.32407E+01 0.00000E+00
 -1      3757 1.94408E+01 3.32407E+01 0.00000E+00
 -1      3758 2.09408E+01 3.32407E+01 0.00000E+00
 -1      3759 1.91565E+01 3.20695E+01 0.00000E+00
 -1      3760 1.42890E+01 2.57102E+01 0.00000E+00
 -1      3761 1.42890E+01 2.71820E+01 0.00000E+00
 -1      3762 1.55880E+01 2.79164E+01 0.00000E+00
 -1      3763 1.55880E+01 2.49742E+01 0.00000E+00
 -1      3764 2.49750E+01 3.31130E+01 0.00000E+00
 -1      3765 2.64750E+01 3.31130E+01 0.00000E+00
 -1      3766 2.72250E+01 3.18140E+01 0.00000E+00
 -1      3767 1.32408E+02 1.55180E+01 0.00000E+00
 -1      3768 2.22079E+01 3.31769E+01 0.00000E+00
 -1      3769 2.37079E+01 3.31769E+01 0.00000E+00
 -1      3770 2.44579E+01 3.18779E+01 0.00000E+00
 -1      3771 2.19236E+01 3.20056E+01 0.00000E+00
 -1      3772 1.27732E+02 3.45842E+01 0.00000E+00
 -1      3773 9.78004E+01 2.10545E+01 0.00000E+00
 -1      3774 9.90996E+01 1.94626E+01 0.00000E+00
 -1      3775 9.59042E+01 2.41579E+01 0.00000E+00
 -1      3776 9.66134E+01 2.27625E+01 0.00000E+00
 -1      3777 9.43605E+01 2.42486E+01 0.00000E+00
 -1      3778 1.27278E+02 2.37191E+01 0.00000E+00
 -1      3779 1.27977E+02 2.47626E+01 0.00000E+00
 -1      3780 2.23740E+01 1.66494E+01 0.00000E+00
 -1      3781 2.01240E+01 1.68191E+01 0.00000E+00
 -1      3782 2.01240E+01 1.82910E+01 0.00000E+00
 -1      3783 9.44824E+01 3.50857E+01 0.00000E+00
 -1      3784 1.03941E+02 1.62587E+01 0.00000E+00
 -1      3785 1.21078E+02 1.81470E+01 0.00000E+00
 -1      3786 1.32402E+02 3.26862E+01 0.00000E+00
 -1      3787 1.28680E+02 3.34780E+01 0.00000E+00
 -1      3788 1.29309E+02 2.41620E+01 0.00000E+00
 -1      3789 1.28579E+02 2.54069E+01 0.00000E+00
 -1      3790 1.29181E+02 2.60511E+01 0.00000E+00
 -1      3791 1.29414E+02 3.23579E+01 0.00000E+00
 -1      3792 1.30908E+02 3.17908E+01 0.00000E+00
 -1      3793 1.32918E+02 3.14546E+01 0.00000E+00
 -1      3794 1.32918E+02 2.99921E+01 0.00000E+00
 -1      3795 1.29930E+02 3.11264E+01 0.00000E+00
 -1      3796 9.09754E+01 3.09038E+01 0.00000E+00
 -1      3797 9.17254E+01 3.22028E+01 0.00000E+00
 -1      3798 1.34412E+02 2.79500E+01 0.00000E+00
 -1      3799 4.03740E+01 1.77755E+01 0.00000E+00
 -1      3800 3.96240E+01 1.64765E+01 0.00000E+00
 -1      3801 3.81240E+01 1.64765E+01 0.00000E+00
 -1      3802 4.41240E+01 1.64765E+01 0.00000E+00
 -1      3803 4.33740E+01 1.77755E+01 0.00000E+00
 -1      3804 4.56240E+01 1.64765E+01 0.00000E+00
 -1      3805 9.39240E+01 3.34166E+01 0.00000E+00
 -1      3806 2.38740E+01 1.66494E+01 0.00000E+00
 -1      3807 4.86240E+01 1.64765E+01 0.00000E+00
 -1      3808 4.71240E+01 1.64765E+01 0.00000E+00
 -1      3809 4.93740E+01 1.77755E+01 0.00000E+00
 -1      3810 5.83740E+01 1.77755E+01 0.00000E+00
 -1      3811 9.96240E+01 1.64765E+01 0.00000E+00
 -1      3812 9.81240E+01 1.64765E+01 0.00000E+00
 -1      3813 1.02624E+02 1.64765E+01 0.00000E+00
 -1      3814 1.01124E+02 1.64765E+01 0.00000E+00
 -1      3815 1.22512E+02 1.94983E+01 0.00000E+00
 -1      3816 9.32442E+01 3.23091E+01 0.00000E+00
 -1      3817 9.32885E+01 2.78188E+01 0.00000E+00
 -1      3818 9.26441E+01 2.64130E+01 0.00000E+00
 -1      3819 9.22814E+01 2.85878E+01 0.00000E+00
 -1      3820 9.73740E+01 1.77755E+01 0.00000E+00
 -1      3821 1.28443E+02 2.94947E+01 0.00000E+00
 -1      3822 1.29111E+02 3.02778E+01 0.00000E+00
 -1      3823 1.29119E+02 2.80790E+01 0.00000E+00
 -1      3824 1.66222E+01 3.07285E+01 0.00000E+00
 -1      3825 3.06240E+01 1.64765E+01 0.00000E+00
 -1      3826 2.91240E+01 1.64765E+01 0.00000E+00
 -1      3827 1.33113E+02 2.57437E+01 0.00000E+00
 -1      3828 1.33113E+02 2.42813E+01 0.00000E+00
 -1      3829 1.24077E+02 1.95992E+01 0.00000E+00
 -1      3830 1.67310E+01 1.95069E+01 0.00000E+00
 -1      3831 1.26709E+02 2.12215E+01 0.00000E+00
 -1      3832 1.26994E+02 2.24703E+01 0.00000E+00
 -1      3833 1.28422E+02 2.22689E+01 0.00000E+00
 -1      3834 3.36240E+01 1.64765E+01 0.00000E+00
 -1      3835 3.21240E+01 1.64765E+01 0.00000E+00
 -1      3836 3.13740E+01 1.77755E+01 0.00000E+00
 -1      3837 1.00374E+02 1.77755E+01 0.00000E+00
 -1      3838 1.81796E+01 1.99421E+01 0.00000E+00
 -1      3839 1.70366E+01 2.09882E+01 0.00000E+00
 -1      3840 1.31814E+02 2.35438E+01 0.00000E+00
 -1      3841 1.33113E+02 2.28125E+01 0.00000E+00
 -1      3842 1.33113E+02 2.13438E+01 0.00000E+00
 -1      3843 9.62566E+01 2.11452E+01 0.00000E+00
 -1      3844 1.33046E+02 1.69320E+01 0.00000E+00
 -1      3845 1.31012E+02 1.65915E+01 0.00000E+00
 -1      3846 1.30262E+02 1.78905E+01 0.00000E+00
 -1      3847 1.33039E+02 1.81205E+01 0.00000E+00
 -1      3848 9.81588E+01 1.86064E+01 0.00000E+00
 -1      3849 9.98148E+01 1.86317E+01 0.00000E+00
 -1      3850 1.70366E+01 2.24632E+01 0.00000E+00
 -1      3851 1.33015E+02 2.86054E+01 0.00000E+00
 -1      3852 1.33015E+02 2.71304E+01 0.00000E+00
 -1      3853 1.31716E+02 2.63992E+01 0.00000E+00
 -1      3854 1.31521E+02 2.91726E+01 0.00000E+00
 -1      3855 3.24750E+01 3.05150E+01 0.00000E+00
 -1      3856 3.39750E+01 3.05150E+01 0.00000E+00
 -1      3857 3.54750E+01 3.05150E+01 0.00000E+00
 -1      3858 3.69750E+01 3.05150E+01 0.00000E+00
 -1      3859 3.47250E+01 2.92160E+01 0.00000E+00
 -1      3860 3.84750E+01 3.05150E+01 0.00000E+00
 -1      3861 3.99750E+01 3.05150E+01 0.00000E+00
 -1      3862 3.77250E+01 2.92160E+01 0.00000E+00
 -1      3863 4.15500E+01 3.05150E+01 0.00000E+00
 -1      3864 4.31250E+01 3.05150E+01 0.00000E+00
 -1      3865 4.08000E+01 2.92160E+01 0.00000E+00
 -1      3866 4.46250E+01 3.05150E+01 0.00000E+00
 -1      3867 4.61250E+01 3.05150E+01 0.00000E+00
 -1      3868 4.38750E+01 2.92160E+01 0.00000E+00
 -1      3869 4.76250E+01 3.05150E+01 0.00000E+00
 -1      3870 4.91250E+01 3.05150E+01 0.00000E+00
 -1      3871 4.68750E+01 2.92160E+01 0.00000E+00
 -1      3872 5.06250E+01 3.05150E+01 0.00000E+00
 -1      3873 5.21250E+01 3.05150E+01 0.00000E+00
 -1      3874 4.98750E+01 2.92160E+01 0.00000E+00
 -1      3875 5.36250E+01 3.05150E+01 0.00000E+00
 -1      3876 5.51250E+01 3.05150E+01 0.00000E+00
 -1      3877 5.28750E+01 2.92160E+01 0.00000E+00
 -1      3878 5.66250E+01 3.05150E+01 0.00000E+00
 -1      3879 5.81250E+01 3.05150E+01 0.00000E+00
 -1      3880 5.58750E+01 2.92160E+01 0.00000E+00
 -1      3881 5.96250E+01 3.05150E+01 0.00000E+00
 -1      3882 6.11250E+01 3.05150E+01 0.00000E+00
 -1      3883 5.88750E+01 2.92160E+01 0.00000E+00
 -1      3884 6.26250E+01 3.05150E+01 0.00000E+00
 -1      3885 6.41250E+01 3.05150E+01 0.00000E+00
 -1      3886 6.18750E+01 2.92160E+01 0.00000E+00
 -1      3887 6.56250E+01 3.05150E+01 0.00000E+00
 -1      3888 6.71250E+01 3.05150E+01 0.00000E+00
 -1      3889 6.48750E+01 2.92160E+01 0.00000E+00
 -1      3890 6.87000E+01 3.05150E+01 0.00000E+00
 -1      3891 7.02750E+01 3.05150E+01 0.00000E+00
 -1      3892 6.79500E+01 2.92160E+01 0.00000E+00
 -1      3893 7.17750E+01 3.05150E+01 0.00000E+00
 -1      3894 7.32750E+01 3.05150E+01 0.00000E+00
 -1      3895 7.10250E+01 2.92160E+01 0.00000E+00
 -1      3896 7.47750E+01 3.05150E+01 0.00000E+00
 -1      3897 7.62750E+01 3.05150E+01 0.00000E+00
 -1      3898 7.40250E+01 2.92160E+01 0.00000E+00
 -1      3899 7.77750E+01 3.05150E+01 0.00000E+00
 -1      3900 7.92750E+01 3.05150E+01 0.00000E+00
 -1      3901 7.70250E+01 2.92160E+01 0.00000E+00
 -1      3902 8.07750E+01 3.05150E+01 0.00000E+00
 -1      3903 8.22750E+01 3.05150E+01 0.00000E+00
 -1      3904 8.00250E+01 2.92160E+01 0.00000E+00
 -1      3905 8.37750E+01 3.05150E+01 0.00000E+00
 -1      3906 8.52750E+01 3.05150E+01 0.00000E+00
 -1      3907 8.30250E+01 2.92160E+01 0.00000E+00
 -1      3908 8.67750E+01 3.05150E+01 0.00000E+00
 -1      3909 8.82750E+01 3.05150E+01 0.00000E+00
 -1      3910 8.60250E+01 2.92160E+01 0.00000E+00
 -1      3911 1.25577E+02 1.95992E+01 0.00000E+00
 -1      3912 2.04296E+01 1.97723E+01 0.00000E+00
 -1      3913 5.91240E+01 1.90745E+01 0.00000E+00
 -1      3914 5.76240E+01 1.90745E+01 0.00000E+00
 -1      3915 6.51240E+01 1.90745E+01 0.00000E+00
 -1      3916 6.36240E+01 1.90745E+01 0.00000E+00
 -1      3917 6.21240E+01 1.90745E+01 0.00000E+00
 -1      3918 6.06240E+01 1.90745E+01 0.00000E+00
 -1      3919 6.28740E+01 2.03735E+01 0.00000E+00
 -1      3920 7.11240E+01 1.90745E+01 0.00000E+00
 -1      3921 6.96240E+01 1.90745E+01 0.00000E+00
 -1      3922 7.41240E+01 1.90745E+01 0.00000E+00
 -1      3923 7.26240E+01 1.90745E+01 0.00000E+00
 -1      3924 7.18740E+01 2.03735E+01 0.00000E+00
 -1      3925 7.71240E+01 1.90745E+01 0.00000E+00
 -1      3926 7.56240E+01 1.90745E+01 0.00000E+00
 -1      3927 7.48740E+01 2.03735E+01 0.00000E+00
 -1      3928 8.01240E+01 1.90745E+01 0.00000E+00
 -1      3929 7.86240E+01 1.90745E+01 0.00000E+00
 -1      3930 7.78740E+01 2.03735E+01 0.00000E+00
 -1      3931 8.31240E+01 1.90745E+01 0.00000E+00
 -1      3932 8.16240E+01 1.90745E+01 0.00000E+00
 -1      3933 8.08740E+01 2.03735E+01 0.00000E+00
 -1      3934 8.61240E+01 1.90745E+01 0.00000E+00
 -1      3935 8.46240E+01 1.90745E+01 0.00000E+00
 -1      3936 8.38740E+01 2.03735E+01 0.00000E+00
 -1      3937 8.91240E+01 1.90745E+01 0.00000E+00
 -1      3938 8.76240E+01 1.90745E+01 0.00000E+00
 -1      3939 8.68740E+01 2.03735E+01 0.00000E+00
 -1      3940 9.21240E+01 1.90745E+01 0.00000E+00
 -1      3941 9.06240E+01 1.90745E+01 0.00000E+00
 -1      3942 8.98740E+01 2.03735E+01 0.00000E+00
 -1      3943 5.61240E+01 1.90745E+01 0.00000E+00
 -1      3944 5.46240E+01 1.90745E+01 0.00000E+00
 -1      3945 5.68740E+01 2.03735E+01 0.00000E+00
 -1      3946 8.93030E+01 3.00065E+01 0.00000E+00
 -1      3947 9.12534E+01 2.90963E+01 0.00000E+00
 -1      3948 9.06090E+01 2.76905E+01 0.00000E+00
 -1      3949 8.85530E+01 2.87075E+01 0.00000E+00
 -1      3950 1.28506E+02 1.93978E+01 0.00000E+00
 -1      3951 1.27006E+02 1.93978E+01 0.00000E+00
 -1      3952 3.66240E+01 1.64765E+01 0.00000E+00
 -1      3953 3.51240E+01 1.64765E+01 0.00000E+00
 -1      3954 3.73740E+01 1.77755E+01 0.00000E+00
 -1      3955 2.76240E+01 1.64765E+01 0.00000E+00
 -1      3956 2.61240E+01 1.64765E+01 0.00000E+00
 -1      3957 2.83740E+01 1.77755E+01 0.00000E+00
 -1      3958 2.22426E+01 1.99370E+01 0.00000E+00
 -1      3959 2.02981E+01 2.15880E+01 0.00000E+00
 -1      3960 2.94750E+01 3.05150E+01 0.00000E+00
 -1      3961 3.09750E+01 3.05150E+01 0.00000E+00
 -1      3962 3.17250E+01 2.92160E+01 0.00000E+00
 -1      3963 1.84065E+01 3.07705E+01 0.00000E+00
 -1      3964 1.99065E+01 3.07705E+01 0.00000E+00
 -1      3965 9.66588E+01 1.86064E+01 0.00000E+00
 -1      3966 1.73722E+01 2.94295E+01 0.00000E+00
 -1      3967 2.64750E+01 3.05150E+01 0.00000E+00
 -1      3968 2.79750E+01 3.05150E+01 0.00000E+00
 -1      3969 2.87250E+01 2.92160E+01 0.00000E+00
 -1      3970 6.81240E+01 1.90745E+01 0.00000E+00
 -1      3971 6.66240E+01 1.90745E+01 0.00000E+00
 -1      3972 6.88740E+01 2.03735E+01 0.00000E+00
 -1      3973 5.31240E+01 1.90745E+01 0.00000E+00
 -1      3974 5.16240E+01 1.90745E+01 0.00000E+00
 -1      3975 5.38740E+01 2.03735E+01 0.00000E+00
 -1      3976 9.28478E+01 2.43577E+01 0.00000E+00
 -1      3977 9.35570E+01 2.29624E+01 0.00000E+00
 -1      3978 9.45144E+01 2.16384E+01 0.00000E+00
 -1      3979 9.57014E+01 1.99304E+01 0.00000E+00
 -1      3980 9.49166E+01 1.90995E+01 0.00000E+00
 -1      3981 9.30018E+01 2.17475E+01 0.00000E+00
 -1      3982 2.46240E+01 1.79484E+01 0.00000E+00
 -1      3983 1.85184E+01 2.29986E+01 0.00000E+00
 -1      3984 1.70698E+01 2.40384E+01 0.00000E+00
 -1      3985 1.03191E+02 1.75577E+01 0.00000E+00
 -1      3986 4.11240E+01 1.90745E+01 0.00000E+00
 -1      3987 3.96240E+01 1.90745E+01 0.00000E+00
 -1      3988 4.63740E+01 1.77755E+01 0.00000E+00
 -1      3989 9.08335E+01 2.58958E+01 0.00000E+00
 -1      3990 9.18407E+01 2.51268E+01 0.00000E+00
 -1      3991 9.10373E+01 2.38405E+01 0.00000E+00
 -1      3992 6.58740E+01 2.03735E+01 0.00000E+00
 -1      3993 1.29976E+02 2.15476E+01 0.00000E+00
 -1      3994 1.30260E+02 2.27964E+01 0.00000E+00
 -1      3995 5.01240E+01 1.90745E+01 0.00000E+00
 -1      3996 4.86240E+01 1.90745E+01 0.00000E+00
 -1      3997 5.08740E+01 2.03735E+01 0.00000E+00
 -1      3998 5.98740E+01 2.03735E+01 0.00000E+00
 -1      3999 4.41240E+01 1.90745E+01 0.00000E+00
 -1      4000 4.26240E+01 1.90745E+01 0.00000E+00
 -1      4001 4.18740E+01 2.03735E+01 0.00000E+00
 -1      4002 1.70698E+01 2.55095E+01 0.00000E+00
 -1      4003 2.67426E+01 1.95912E+01 0.00000E+00
 -1      4004 2.44926E+01 1.97641E+01 0.00000E+00
 -1      4005 2.43611E+01 2.15798E+01 0.00000E+00
 -1      4006 9.34166E+01 1.90995E+01 0.00000E+00
 -1      4007 9.26666E+01 2.03985E+01 0.00000E+00
 -1      4008 1.30765E+02 2.62960E+01 0.00000E+00
 -1      4009 1.30862E+02 2.49094E+01 0.00000E+00
 -1      4010 1.31548E+02 2.08514E+01 0.00000E+00
 -1      4011 1.32847E+02 2.01201E+01 0.00000E+00
 -1      4012 1.32855E+02 1.89317E+01 0.00000E+00
 -1      4013 1.29710E+02 2.03239E+01 0.00000E+00
 -1      4014 1.01315E+02 1.86317E+01 0.00000E+00
 -1      4015 1.72210E+01 2.67340E+01 0.00000E+00
 -1      4016 1.72210E+01 2.82051E+01 0.00000E+00
 -1      4017 1.90053E+01 2.82471E+01 0.00000E+00
 -1      4018 1.87028E+01 2.57982E+01 0.00000E+00
 -1      4019 3.43740E+01 1.77755E+01 0.00000E+00
 -1      4020 2.97426E+01 1.95912E+01 0.00000E+00
 -1      4021 2.82426E+01 1.95912E+01 0.00000E+00
 -1      4022 2.81111E+01 2.14069E+01 0.00000E+00
 -1      4023 2.04236E+01 2.94076E+01 0.00000E+00
 -1      4024 2.11736E+01 3.07066E+01 0.00000E+00
 -1      4025 2.24408E+01 3.06427E+01 0.00000E+00
 -1      4026 2.03314E+01 2.31632E+01 0.00000E+00
 -1      4027 1.30035E+02 2.75409E+01 0.00000E+00
 -1      4028 2.52079E+01 3.05789E+01 0.00000E+00
 -1      4029 2.59579E+01 2.92799E+01 0.00000E+00
 -1      4030 2.39408E+01 3.06427E+01 0.00000E+00
 -1      4031 3.27426E+01 1.95912E+01 0.00000E+00
 -1      4032 3.12426E+01 1.95912E+01 0.00000E+00
 -1      4033 3.11111E+01 2.14069E+01 0.00000E+00
 -1      4034 1.30605E+02 2.97106E+01 0.00000E+00
 -1      4035 3.39750E+01 2.79170E+01 0.00000E+00
 -1      4036 3.54750E+01 2.79170E+01 0.00000E+00
 -1      4037 4.71240E+01 1.90745E+01 0.00000E+00
 -1      4038 4.56240E+01 1.90745E+01 0.00000E+00
 -1      4039 4.78740E+01 2.03735E+01 0.00000E+00
 -1      4040 3.69750E+01 2.79170E+01 0.00000E+00
 -1      4041 3.84750E+01 2.79170E+01 0.00000E+00
 -1      4042 3.62250E+01 2.66180E+01 0.00000E+00
 -1      4043 4.00500E+01 2.79170E+01 0.00000E+00
 -1      4044 4.16250E+01 2.79170E+01 0.00000E+00
 -1      4045 3.93000E+01 2.66180E+01 0.00000E+00
 -1      4046 4.31250E+01 2.79170E+01 0.00000E+00
 -1      4047 4.46250E+01 2.79170E+01 0.00000E+00
 -1      4048 4.23750E+01 2.66180E+01 0.00000E+00
 -1      4049 4.61250E+01 2.79170E+01 0.00000E+00
 -1      4050 4.76250E+01 2.79170E+01 0.00000E+00
 -1      4051 4.53750E+01 2.66180E+01 0.00000E+00
 -1      4052 4.91250E+01 2.79170E+01 0.00000E+00
 -1      4053 5.06250E+01 2.79170E+01 0.00000E+00
 -1      4054 4.83750E+01 2.66180E+01 0.00000E+00
 -1      4055 5.21250E+01 2.79170E+01 0.00000E+00
 -1      4056 5.36250E+01 2.79170E+01 0.00000E+00
 -1      4057 5.13750E+01 2.66180E+01 0.00000E+00
 -1      4058 5.51250E+01 2.79170E+01 0.00000E+00
 -1      4059 5.66250E+01 2.79170E+01 0.00000E+00
 -1      4060 5.43750E+01 2.66180E+01 0.00000E+00
 -1      4061 5.81250E+01 2.79170E+01 0.00000E+00
 -1      4062 5.96250E+01 2.79170E+01 0.00000E+00
 -1      4063 5.73750E+01 2.66180E+01 0.00000E+00
 -1      4064 6.11250E+01 2.79170E+01 0.00000E+00
 -1      4065 6.26250E+01 2.79170E+01 0.00000E+00
 -1      4066 6.03750E+01 2.66180E+01 0.00000E+00
 -1      4067 6.41250E+01 2.79170E+01 0.00000E+00
 -1      4068 6.56250E+01 2.79170E+01 0.00000E+00
 -1      4069 6.33750E+01 2.66180E+01 0.00000E+00
 -1      4070 6.72000E+01 2.79170E+01 0.00000E+00
 -1      4071 6.87750E+01 2.79170E+01 0.00000E+00
 -1      4072 6.64500E+01 2.66180E+01 0.00000E+00
 -1      4073 7.02750E+01 2.79170E+01 0.00000E+00
 -1      4074 7.17750E+01 2.79170E+01 0.00000E+00
 -1      4075 6.95250E+01 2.66180E+01 0.00000E+00
 -1      4076 7.32750E+01 2.79170E+01 0.00000E+00
 -1      4077 7.47750E+01 2.79170E+01 0.00000E+00
 -1      4078 7.25250E+01 2.66180E+01 0.00000E+00
 -1      4079 7.62750E+01 2.79170E+01 0.00000E+00
 -1      4080 7.77750E+01 2.79170E+01 0.00000E+00
 -1      4081 7.55250E+01 2.66180E+01 0.00000E+00
 -1      4082 7.92750E+01 2.79170E+01 0.00000E+00
 -1      4083 8.07750E+01 2.79170E+01 0.00000E+00
 -1      4084 7.85250E+01 2.66180E+01 0.00000E+00
 -1      4085 8.22750E+01 2.79170E+01 0.00000E+00
 -1      4086 8.37750E+01 2.79170E+01 0.00000E+00
 -1      4087 8.15250E+01 2.66180E+01 0.00000E+00
 -1      4088 8.52750E+01 2.79170E+01 0.00000E+00
 -1      4089 8.67750E+01 2.79170E+01 0.00000E+00
 -1      4090 8.45250E+01 2.66180E+01 0.00000E+00
 -1      4091 6.36240E+01 2.16725E+01 0.00000E+00
 -1      4092 6.21240E+01 2.16725E+01 0.00000E+00
 -1      4093 6.06240E+01 2.16725E+01 0.00000E+00
 -1      4094 5.91240E+01 2.16725E+01 0.00000E+00
 -1      4095 6.13740E+01 2.29715E+01 0.00000E+00
 -1      4096 7.56240E+01 2.16725E+01 0.00000E+00
 -1      4097 7.41240E+01 2.16725E+01 0.00000E+00
 -1      4098 7.26240E+01 2.16725E+01 0.00000E+00
 -1      4099 7.11240E+01 2.16725E+01 0.00000E+00
 -1      4100 7.33740E+01 2.29715E+01 0.00000E+00
 -1      4101 8.16240E+01 2.16725E+01 0.00000E+00
 -1      4102 8.01240E+01 2.16725E+01 0.00000E+00
 -1      4103 8.46240E+01 2.16725E+01 0.00000E+00
 -1      4104 8.31240E+01 2.16725E+01 0.00000E+00
 -1      4105 8.23740E+01 2.29715E+01 0.00000E+00
 -1      4106 8.76240E+01 2.16725E+01 0.00000E+00
 -1      4107 8.61240E+01 2.16725E+01 0.00000E+00
 -1      4108 8.53740E+01 2.29715E+01 0.00000E+00
 -1      4109 1.30862E+02 2.34406E+01 0.00000E+00
 -1      4110 5.76240E+01 2.16725E+01 0.00000E+00
 -1      4111 5.61240E+01 2.16725E+01 0.00000E+00
 -1      4112 5.83740E+01 2.29715E+01 0.00000E+00
 -1      4113 3.81240E+01 1.90745E+01 0.00000E+00
 -1      4114 3.66240E+01 1.90745E+01 0.00000E+00
 -1      4115 3.88740E+01 2.03735E+01 0.00000E+00
 -1      4116 1.30078E+02 1.87017E+01 0.00000E+00
 -1      4117 9.17092E+01 2.17225E+01 0.00000E+00
 -1      4118 1.30703E+02 2.83240E+01 0.00000E+00
 -1      4119 3.09750E+01 2.79170E+01 0.00000E+00
 -1      4120 3.24750E+01 2.79170E+01 0.00000E+00
 -1      4121 3.32250E+01 2.66180E+01 0.00000E+00
 -1      4122 2.79750E+01 2.79170E+01 0.00000E+00
 -1      4123 2.94750E+01 2.79170E+01 0.00000E+00
 -1      4124 3.02250E+01 2.66180E+01 0.00000E+00
 -1      4125 9.06232E+01 2.27815E+01 0.00000E+00
 -1      4126 9.02880E+01 2.14325E+01 0.00000E+00
 -1      4127 8.87880E+01 2.14325E+01 0.00000E+00
 -1      4128 8.96161E+01 2.35505E+01 0.00000E+00
 -1      4129 1.31466E+02 1.88167E+01 0.00000E+00
 -1      4130 2.20281E+01 2.34760E+01 0.00000E+00
 -1      4131 2.02483E+01 2.48865E+01 0.00000E+00
 -1      4132 6.96240E+01 2.16725E+01 0.00000E+00
 -1      4133 6.81240E+01 2.16725E+01 0.00000E+00
 -1      4134 7.03740E+01 2.29715E+01 0.00000E+00
 -1      4135 3.54333E+01 1.93329E+01 0.00000E+00
 -1      4136 3.39333E+01 1.93329E+01 0.00000E+00
 -1      4137 3.38018E+01 2.11486E+01 0.00000E+00
 -1      4138 3.61833E+01 2.06319E+01 0.00000E+00
 -1      4139 5.46240E+01 2.16725E+01 0.00000E+00
 -1      4140 5.31240E+01 2.16725E+01 0.00000E+00
 -1      4141 5.53740E+01 2.29715E+01 0.00000E+00
 -1      4142 6.66240E+01 2.16725E+01 0.00000E+00
 -1      4143 6.51240E+01 2.16725E+01 0.00000E+00
 -1      4144 6.73740E+01 2.29715E+01 0.00000E+00
 -1      4145 7.86240E+01 2.16725E+01 0.00000E+00
 -1      4146 7.71240E+01 2.16725E+01 0.00000E+00
 -1      4147 7.63740E+01 2.29715E+01 0.00000E+00
 -1      4148 7.93740E+01 2.29715E+01 0.00000E+00
 -1      4149 4.48740E+01 2.03735E+01 0.00000E+00
 -1      4150 8.98056E+01 2.64043E+01 0.00000E+00
 -1      4151 6.43740E+01 2.29715E+01 0.00000E+00
 -1      4152 5.23740E+01 2.29715E+01 0.00000E+00
 -1      4153 5.16240E+01 2.16725E+01 0.00000E+00
 -1      4154 5.01240E+01 2.16725E+01 0.00000E+00
 -1      4155 3.18611E+01 2.27059E+01 0.00000E+00
 -1      4156 3.03611E+01 2.27059E+01 0.00000E+00
 -1      4157 2.96111E+01 2.40049E+01 0.00000E+00
 -1      4158 2.88611E+01 2.27059E+01 0.00000E+00
 -1      4159 2.73611E+01 2.27059E+01 0.00000E+00
 -1      4160 8.80380E+01 2.27315E+01 0.00000E+00
 -1      4161 8.78030E+01 2.74085E+01 0.00000E+00
 -1      4162 2.31908E+01 2.93438E+01 0.00000E+00
 -1      4163 4.26240E+01 2.16725E+01 0.00000E+00
 -1      4164 4.11240E+01 2.16725E+01 0.00000E+00
 -1      4165 3.96240E+01 2.16725E+01 0.00000E+00
 -1      4166 3.81240E+01 2.16725E+01 0.00000E+00
 -1      4167 4.03740E+01 2.29715E+01 0.00000E+00
 -1      4168 2.03996E+01 2.61110E+01 0.00000E+00
 -1      4169 2.02724E+01 2.81832E+01 0.00000E+00
 -1      4170 2.67079E+01 2.79809E+01 0.00000E+00
 -1      4171 2.74579E+01 2.66819E+01 0.00000E+00
 -1      4172 2.54408E+01 2.80448E+01 0.00000E+00
 -1      4173 2.58196E+01 2.30045E+01 0.00000E+00
 -1      4174 2.35696E+01 2.31774E+01 0.00000E+00
 -1      4175 2.34866E+01 2.49007E+01 0.00000E+00
 -1      4176 2.65696E+01 2.43035E+01 0.00000E+00
 -1      4177 2.99181E+01 2.53115E+01 0.00000E+00
 -1      4178 3.14181E+01 2.53115E+01 0.00000E+00
 -1      4179 3.54750E+01 2.53190E+01 0.00000E+00
 -1      4180 3.69750E+01 2.53190E+01 0.00000E+00
 -1      4181 3.82995E+01 2.47948E+01 0.00000E+00
 -1      4182 3.98745E+01 2.47948E+01 0.00000E+00
 -1      4183 4.13745E+01 2.47948E+01 0.00000E+00
 -1      4184 4.28745E+01 2.47948E+01 0.00000E+00
 -1      4185 4.76250E+01 2.53190E+01 0.00000E+00
 -1      4186 4.91250E+01 2.53190E+01 0.00000E+00
 -1      4187 5.03745E+01 2.47948E+01 0.00000E+00
 -1      4188 5.18745E+01 2.47948E+01 0.00000E+00
 -1      4189 5.33745E+01 2.47948E+01 0.00000E+00
 -1      4190 5.48745E+01 2.47948E+01 0.00000E+00
 -1      4191 5.63745E+01 2.47948E+01 0.00000E+00
 -1      4192 5.78745E+01 2.47948E+01 0.00000E+00
 -1      4193 5.93745E+01 2.47948E+01 0.00000E+00
 -1      4194 6.08745E+01 2.47948E+01 0.00000E+00
 -1      4195 6.23745E+01 2.47948E+01 0.00000E+00
 -1      4196 6.38745E+01 2.47948E+01 0.00000E+00
 -1      4197 6.53745E+01 2.47948E+01 0.00000E+00
 -1      4198 6.69495E+01 2.47948E+01 0.00000E+00
 -1      4199 6.84495E+01 2.47948E+01 0.00000E+00
 -1      4200 6.99495E+01 2.47948E+01 0.00000E+00
 -1      4201 7.14495E+01 2.47948E+01 0.00000E+00
 -1      4202 7.29495E+01 2.47948E+01 0.00000E+00
 -1      4203 7.44495E+01 2.47948E+01 0.00000E+00
 -1      4204 7.59495E+01 2.47948E+01 0.00000E+00
 -1      4205 7.74495E+01 2.47948E+01 0.00000E+00
 -1      4206 7.89495E+01 2.47948E+01 0.00000E+00
 -1      4207 8.04495E+01 2.47948E+01 0.00000E+00
 -1      4208 8.19495E+01 2.47948E+01 0.00000E+00
 -1      4209 8.34495E+01 2.47948E+01 0.00000E+00
 -1      4210 8.49495E+01 2.47948E+01 0.00000E+00
 -1      4211 3.30518E+01 2.24476E+01 0.00000E+00
 -1      4212 3.23018E+01 2.37466E+01 0.00000E+00
 -1      4213 3.42426E+01 2.21892E+01 0.00000E+00
 -1      4214 3.26088E+01 2.50531E+01 0.00000E+00
 -1      4215 8.80276E+01 2.56138E+01 0.00000E+00
 -1      4216 4.41240E+01 2.16725E+01 0.00000E+00
 -1      4217 4.33740E+01 2.29715E+01 0.00000E+00
 -1      4218 4.56240E+01 2.16725E+01 0.00000E+00
 -1      4219 8.64495E+01 2.47948E+01 0.00000E+00
 -1      4220 2.18179E+01 2.72715E+01 0.00000E+00
 -1      4221 8.84521E+01 2.37905E+01 0.00000E+00
 -1      4222 3.41088E+01 2.50531E+01 0.00000E+00
 -1      4223 4.88745E+01 2.21968E+01 0.00000E+00
 -1      4224 4.73745E+01 2.21968E+01 0.00000E+00
 -1      4225 2.84181E+01 2.53115E+01 0.00000E+00
 -1      4226 4.43745E+01 2.47948E+01 0.00000E+00
 -1      4227 2.33179E+01 2.72715E+01 0.00000E+00
 -1      4228 3.75495E+01 2.34958E+01 0.00000E+00
 -1      4229 4.58745E+01 2.47948E+01 0.00000E+00
 -1      4230 4.96245E+01 2.34958E+01 0.00000E+00
 -1      4231 4.66245E+01 2.34958E+01 0.00000E+00
 -1      4232 3.67995E+01 2.21968E+01 0.00000E+00
 -1      4233 2.71509E+01 2.53753E+01 0.00000E+00
 -1      4234 2.48594E+01 2.69729E+01 0.00000E+00
 -1      4235 3.48588E+01 2.37541E+01 0.00000E+00
 -1      4236 3.56088E+01 2.24551E+01 0.00000E+00
 -1      4237 2.56094E+01 2.56739E+01 0.00000E+00
 -3
    3C                          2037                                     1
 -1       164    8    0    1
 -2         6         7        23      1101      1264      1118
 -1       165    8    0    1
 -2         7         8       164      1102      1265      1266
 -1       166    8    0    1
 -2         8         9       165      1103      1267      1268
 -1       167    8    0    1
 -2         8       165       164      1268      1269      1265
 -1       168    8    0    1
 -2         9        10       166      1104      1270      1271
 -1       169    8    0    1
 -2         9       166       165      1271      1272      1267
 -1       170    8    0    1
 -2        10        11       167      1105      1273      1274
 -1       171    8    0    1
 -2        10       167       166      1274      1275      1270
 -1       172    8    0    1
 -2        11        12       168      1106      1276      1277
 -1       173    8    0    1
 -2        11       168       167      1277      1278      1273
 -1       174    8    0    1
 -2        12        13       169      1107      1279      1280
 -1       175    8    0    1
 -2        12       169       168      1280      1281      1276
 -1       176    8    0    1
 -2        13        14       170      1108      1282      1283
 -1       177    8    0    1
 -2        13       170       169      1283      1284      1279
 -1       178    8    0    1
 -2        14        15       171      1109      1285      1286
 -1       179    8    0    1
 -2        14       171       170      1286      1287      1282
 -1       180    8    0    1
 -2        15        16       172      1110      1288      1289
 -1       181    8    0    1
 -2        15       172       171      1289      1290      1285
 -1       182    8    0    1
 -2        16        17       173      1111      1291      1292
 -1       183    8    0    1
 -2        16       173       172      1292      1293      1288
 -1       184    8    0    1
 -2        17        18       174      1112      1294      1295
 -1       185    8    0    1
 -2        17       174       173      1295      1296      1291
 -1       186    8    0    1
 -2        18        19       175      1113      1297      1298
 -1       187    8    0    1
 -2        18       175       174      1298      1299      1294
 -1       188    8    0    1
 -2        19        20       176      1114      1300      1301
 -1       189    8    0    1
 -2        19       176       175      1301      1302      1297
 -1       190    8    0    1
 -2        20        21       177      1115      1303      1304
 -1       191    8    0    1
 -2        20       177       176      1304      1305      1300
 -1       192    8    0    1
 -2        21        22       178      1116      1306      1307
 -1       193    8    0    1
 -2        21       178       177      1307      1308      1303
 -1       194    8    0    1
 -2        22         5       179      1117      1309      1310
 -1       195    8    0    1
 -2       178        22       179      1306      1310      1311
 -1       196    8    0    1
 -2         5        72       179      1168      1312      1309
 -1       197    8    0    1
 -2        24        23       180      1119      1313      1314
 -1       198    8    0    1
 -2        25        24       181      1120      1315      1316
 -1       199    8    0    1
 -2        24       180       181      1314      1317      1315
 -1       200    8    0    1
 -2        26        25       182      1121      1318      1319
 -1       201    8    0    1
 -2        25       181       182      1316      1320      1318
 -1       202    8    0    1
 -2        27        26       183      1122      1321      1322
 -1       203    8    0    1
 -2        26       182       183      1319      1323      1321
 -1       204    8    0    1
 -2        28        27       184      1123      1324      1325
 -1       205    8    0    1
 -2        27       183       184      1322      1326      1324
 -1       206    8    0    1
 -2        29        28       185      1124      1327      1328
 -1       207    8    0    1
 -2        28       184       185      1325      1329      1327
 -1       208    8    0    1
 -2        30        29       186      1125      1330      1331
 -1       209    8    0    1
 -2        29       185       186      1328      1332      1330
 -1       210    8    0    1
 -2        31        30       187      1126      1333      1334
 -1       211    8    0    1
 -2        30       186       187      1331      1335      1333
 -1       212    8    0    1
 -2        32        31       188      1127      1336      1337
 -1       213    8    0    1
 -2        31       187       188      1334      1338      1336
 -1       214    8    0    1
 -2        33        32       189      1128      1339      1340
 -1       215    8    0    1
 -2        32       188       189      1337      1341      1339
 -1       216    8    0    1
 -2        34        33       190      1129      1342      1343
 -1       217    8    0    1
 -2        33       189       190      1340      1344      1342
 -1       218    8    0    1
 -2        35        34       191      1130      1345      1346
 -1       219    8    0    1
 -2        34       190       191      1343      1347      1345
 -1       220    8    0    1
 -2        36        35       192      1131      1348      1349
 -1       221    8    0    1
 -2        35       191       192      1346      1350      1348
 -1       222    8    0    1
 -2        37        36       193      1132      1351      1352
 -1       223    8    0    1
 -2        36       192       193      1349      1353      1351
 -1       224    8    0    1
 -2        38        37       194      1133      1354      1355
 -1       225    8    0    1
 -2        37       193       194      1352      1356      1354
 -1       226    8    0    1
 -2        39        38       195      1134      1357      1358
 -1       227    8    0    1
 -2        38       194       195      1355      1359      1357
 -1       228    8    0    1
 -2        40        39       196      1135      1360      1361
 -1       229    8    0    1
 -2        39       195       196      1358      1362      1360
 -1       230    8    0    1
 -2        41        40       197      1136      1363      1364
 -1       231    8    0    1
 -2        40       196       197      1361      1365      1363
 -1       232    8    0    1
 -2        42        41       198      1137      1366      1367
 -1       233    8    0    1
 -2        41       197       198      1364      1368      1366
 -1       234    8    0    1
 -2        43        42       199      1138      1369      1370
 -1       235    8    0    1
 -2        42       198       199      1367      1371      1369
 -1       236    8    0    1
 -2        44        43       200      1139      1372      1373
 -1       237    8    0    1
 -2        43       199       200      1370      1374      1372
 -1       238    8    0    1
 -2        45        44       201      1140      1375      1376
 -1       239    8    0    1
 -2        44       200       201      1373      1377      1375
 -1       240    8    0    1
 -2        46        45       202      1141      1378      1379
 -1       241    8    0    1
 -2        45       201       202      1376      1380      1378
 -1       242    8    0    1
 -2        47        46       203      1142      1381      1382
 -1       243    8    0    1
 -2        46       202       203      1379      1383      1381
 -1       244    8    0    1
 -2        48        47       204      1143      1384      1385
 -1       245    8    0    1
 -2        47       203       204      1382      1386      1384
 -1       246    8    0    1
 -2        49        48       205      1144      1387      1388
 -1       247    8    0    1
 -2        48       204       205      1385      1389      1387
 -1       248    8    0    1
 -2        50        49       206      1145      1390      1391
 -1       249    8    0    1
 -2        49       205       206      1388      1392      1390
 -1       250    8    0    1
 -2        51        50       207      1146      1393      1394
 -1       251    8    0    1
 -2        50       206       207      1391      1395      1393
 -1       252    8    0    1
 -2        52        51       208      1147      1396      1397
 -1       253    8    0    1
 -2        51       207       208      1394      1398      1396
 -1       254    8    0    1
 -2        53        52       209      1148      1399      1400
 -1       255    8    0    1
 -2        52       208       209      1397      1401      1399
 -1       256    8    0    1
 -2        54        53       210      1149      1402      1403
 -1       257    8    0    1
 -2        53       209       210      1400      1404      1402
 -1       258    8    0    1
 -2        55        54       211      1150      1405      1406
 -1       259    8    0    1
 -2        54       210       211      1403      1407      1405
 -1       260    8    0    1
 -2        56        55       212      1151      1408      1409
 -1       261    8    0    1
 -2        55       211       212      1406      1410      1408
 -1       262    8    0    1
 -2        57        56       213      1152      1411      1412
 -1       263    8    0    1
 -2        56       212       213      1409      1413      1411
 -1       264    8    0    1
 -2        58        57       214      1153      1414      1415
 -1       265    8    0    1
 -2        57       213       214      1412      1416      1414
 -1       266    8    0    1
 -2        59        58       215      1154      1417      1418
 -1       267    8    0    1
 -2        58       214       215      1415      1419      1417
 -1       268    8    0    1
 -2        60        59       216      1155      1420      1421
 -1       269    8    0    1
 -2        59       215       216      1418      1422      1420
 -1       270    8    0    1
 -2        61        60       217      1156      1423      1424
 -1       271    8    0    1
 -2        60       216       217      1421      1425      1423
 -1       272    8    0    1
 -2        62        61       218      1157      1426      1427
 -1       273    8    0    1
 -2        61       217       218      1424      1428      1426
 -1       274    8    0    1
 -2        63        62       219      1158      1429      1430
 -1       275    8    0    1
 -2        62       218       219      1427      1431      1429
 -1       276    8    0    1
 -2        64        63       220      1159      1432      1433
 -1       277    8    0    1
 -2        63       219       220      1430      1434      1432
 -1       278    8    0    1
 -2        65        64       221      1160      1435      1436
 -1       279    8    0    1
 -2        64       220       221      1433      1437      1435
 -1       280    8    0    1
 -2        66        65       222      1161      1438      1439
 -1       281    8    0    1
 -2        65       221       222      1436      1440      1438
 -1       282    8    0    1
 -2        67        66       223      1162      1441      1442
 -1       283    8    0    1
 -2        66       222       223      1439      1443      1441
 -1       284    8    0    1
 -2        68        67       224      1163      1444      1445
 -1       285    8    0    1
 -2        67       223       224      1442      1446      1444
 -1       286    8    0    1
 -2        69        68       225      1164      1447      1448
 -1       287    8    0    1
 -2        68       224       225      1445      1449      1447
 -1       288    8    0    1
 -2        70        69       226      1165      1450      1451
 -1       289    8    0    1
 -2        69       225       226      1448      1452      1450
 -1       290    8    0    1
 -2        71        70       227      1166      1453      1454
 -1       291    8    0    1
 -2        70       226       227      1451      1455      1453
 -1       292    8    0    1
 -2         4        71       228      1167      1456      1457
 -1       293    8    0    1
 -2       136         4       228      1234      1457      1458
 -1       294    8    0    1
 -2        71       227       228      1454      1459      1456
 -1       295    8    0    1
 -2        72        73       229      1169      1460      1461
 -1       296    8    0    1
 -2        72       229       179      1461      1462      1312
 -1       297    8    0    1
 -2        73        74       230      1170      1463      1464
 -1       298    8    0    1
 -2        73       230       229      1464      1465      1460
 -1       299    8    0    1
 -2        74        75       231      1171      1466      1467
 -1       300    8    0    1
 -2        74       231       230      1467      1468      1463
 -1       301    8    0    1
 -2        75        76       232      1172      1469      1470
 -1       302    8    0    1
 -2        75       232       231      1470      1471      1466
 -1       303    8    0    1
 -2        76        77       233      1173      1472      1473
 -1       304    8    0    1
 -2        76       233       232      1473      1474      1469
 -1       305    8    0    1
 -2        77        78       234      1174      1475      1476
 -1       306    8    0    1
 -2        77       234       233      1476      1477      1472
 -1       307    8    0    1
 -2        78        79       235      1175      1478      1479
 -1       308    8    0    1
 -2        78       235       234      1479      1480      1475
 -1       309    8    0    1
 -2        79        80       236      1176      1481      1482
 -1       310    8    0    1
 -2        79       236       235      1482      1483      1478
 -1       311    8    0    1
 -2        80        81       237      1177      1484      1485
 -1       312    8    0    1
 -2        80       237       236      1485      1486      1481
 -1       313    8    0    1
 -2        81        82       238      1178      1487      1488
 -1       314    8    0    1
 -2        81       238       237      1488      1489      1484
 -1       315    8    0    1
 -2        82        83       239      1179      1490      1491
 -1       316    8    0    1
 -2        82       239       238      1491      1492      1487
 -1       317    8    0    1
 -2        83        84       240      1180      1493      1494
 -1       318    8    0    1
 -2        83       240       239      1494      1495      1490
 -1       319    8    0    1
 -2        84        85       241      1181      1496      1497
 -1       320    8    0    1
 -2        84       241       240      1497      1498      1493
 -1       321    8    0    1
 -2        85        86       242      1182      1499      1500
 -1       322    8    0    1
 -2        85       242       241      1500      1501      1496
 -1       323    8    0    1
 -2        86        87       243      1183      1502      1503
 -1       324    8    0    1
 -2        86       243       242      1503      1504      1499
 -1       325    8    0    1
 -2        87        88       244      1184      1505      1506
 -1       326    8    0    1
 -2        87       244       243      1506      1507      1502
 -1       327    8    0    1
 -2        88        89       245      1185      1508      1509
 -1       328    8    0    1
 -2        88       245       244      1509      1510      1505
 -1       329    8    0    1
 -2        89        90       246      1186      1511      1512
 -1       330    8    0    1
 -2        89       246       245      1512      1513      1508
 -1       331    8    0    1
 -2        90        91       247      1187      1514      1515
 -1       332    8    0    1
 -2        90       247       246      1515      1516      1511
 -1       333    8    0    1
 -2        91        92       248      1188      1517      1518
 -1       334    8    0    1
 -2        91       248       247      1518      1519      1514
 -1       335    8    0    1
 -2        92        93       249      1189      1520      1521
 -1       336    8    0    1
 -2        92       249       248      1521      1522      1517
 -1       337    8    0    1
 -2        93        94       250      1190      1523      1524
 -1       338    8    0    1
 -2        93       250       249      1524      1525      1520
 -1       339    8    0    1
 -2        94        95       251      1191      1526      1527
 -1       340    8    0    1
 -2        94       251       250      1527      1528      1523
 -1       341    8    0    1
 -2        95        96       252      1192      1529      1530
 -1       342    8    0    1
 -2        95       252       251      1530      1531      1526
 -1       343    8    0    1
 -2        96        97       253      1193      1532      1533
 -1       344    8    0    1
 -2        96       253       252      1533      1534      1529
 -1       345    8    0    1
 -2        97        98       254      1194      1535      1536
 -1       346    8    0    1
 -2        97       254       253      1536      1537      1532
 -1       347    8    0    1
 -2        98        99       255      1195      1538      1539
 -1       348    8    0    1
 -2        98       255       254      1539      1540      1535
 -1       349    8    0    1
 -2        99       100       256      1196      1541      1542
 -1       350    8    0    1
 -2        99       256       255      1542      1543      1538
 -1       351    8    0    1
 -2       100       101       257      1197      1544      1545
 -1       352    8    0    1
 -2       100       257       256      1545      1546      1541
 -1       353    8    0    1
 -2       101       102       258      1198      1547      1548
 -1       354    8    0    1
 -2       101       258       257      1548      1549      1544
 -1       355    8    0    1
 -2       102       103       259      1199      1550      1551
 -1       356    8    0    1
 -2       102       259       258      1551      1552      1547
 -1       357    8    0    1
 -2       103       104       260      1200      1553      1554
 -1       358    8    0    1
 -2       103       260       259      1554      1555      1550
 -1       359    8    0    1
 -2       104       105       261      1201      1556      1557
 -1       360    8    0    1
 -2       104       261       260      1557      1558      1553
 -1       361    8    0    1
 -2       105       106       262      1202      1559      1560
 -1       362    8    0    1
 -2       105       262       261      1560      1561      1556
 -1       363    8    0    1
 -2       106       107       263      1203      1562      1563
 -1       364    8    0    1
 -2       106       263       262      1563      1564      1559
 -1       365    8    0    1
 -2       107       108       264      1204      1565      1566
 -1       366    8    0    1
 -2       107       264       263      1566      1567      1562
 -1       367    8    0    1
 -2       108       109       265      1205      1568      1569
 -1       368    8    0    1
 -2       108       265       264      1569      1570      1565
 -1       369    8    0    1
 -2       109       110       266      1206      1571      1572
 -1       370    8    0    1
 -2       109       266       265      1572      1573      1568
 -1       371    8    0    1
 -2       110       111       267      1207      1574      1575
 -1       372    8    0    1
 -2       110       267       266      1575      1576      1571
 -1       373    8    0    1
 -2       111       112       268      1208      1577      1578
 -1       374    8    0    1
 -2       111       268       267      1578      1579      1574
 -1       375    8    0    1
 -2       112       113       269      1209      1580      1581
 -1       376    8    0    1
 -2       112       269       268      1581      1582      1577
 -1       377    8    0    1
 -2       113       114       270      1210      1583      1584
 -1       378    8    0    1
 -2       113       270       269      1584      1585      1580
 -1       379    8    0    1
 -2       114       115       271      1211      1586      1587
 -1       380    8    0    1
 -2       114       271       270      1587      1588      1583
 -1       381    8    0    1
 -2       115       116       272      1212      1589      1590
 -1       382    8    0    1
 -2       115       272       271      1590      1591      1586
 -1       383    8    0    1
 -2       116       117       273      1213      1592      1593
 -1       384    8    0    1
 -2       116       273       272      1593      1594      1589
 -1       385    8    0    1
 -2       117       118       274      1214      1595      1596
 -1       386    8    0    1
 -2       117       274       273      1596      1597      1592
 -1       387    8    0    1
 -2       118       119       275      1215      1598      1599
 -1       388    8    0    1
 -2       118       275       274      1599      1600      1595
 -1       389    8    0    1
 -2       119       120       276      1216      1601      1602
 -1       390    8    0    1
 -2       119       276       275      1602      1603      1598
 -1       391    8    0    1
 -2       120         3       121      1217      1218      1604
 -1       392    8    0    1
 -2       121       122       277      1219      1605      1606
 -1       393    8    0    1
 -2       122       123       278      1220      1607      1608
 -1       394    8    0    1
 -2       122       278       277      1608      1609      1605
 -1       395    8    0    1
 -2       123       124       279      1221      1610      1611
 -1       396    8    0    1
 -2       123       279       278      1611      1612      1607
 -1       397    8    0    1
 -2       124       125       280      1222      1613      1614
 -1       398    8    0    1
 -2       124       280       279      1614      1615      1610
 -1       399    8    0    1
 -2       125       126       281      1223      1616      1617
 -1       400    8    0    1
 -2       125       281       280      1617      1618      1613
 -1       401    8    0    1
 -2       126       127       282      1224      1619      1620
 -1       402    8    0    1
 -2       126       282       281      1620      1621      1616
 -1       403    8    0    1
 -2       127       128       283      1225      1622      1623
 -1       404    8    0    1
 -2       127       283       282      1623      1624      1619
 -1       405    8    0    1
 -2       128       129       284      1226      1625      1626
 -1       406    8    0    1
 -2       128       284       283      1626      1627      1622
 -1       407    8    0    1
 -2       129       130       285      1227      1628      1629
 -1       408    8    0    1
 -2       129       285       284      1629      1630      1625
 -1       409    8    0    1
 -2       130       131       286      1228      1631      1632
 -1       410    8    0    1
 -2       130       286       285      1632      1633      1628
 -1       411    8    0    1
 -2       131       132       287      1229      1634      1635
 -1       412    8    0    1
 -2       131       287       286      1635      1636      1631
 -1       413    8    0    1
 -2       132       133       288      1230      1637      1638
 -1       414    8    0    1
 -2       132       288       287      1638      1639      1634
 -1       415    8    0    1
 -2       133       134       289      1231      1640      1641
 -1       416    8    0    1
 -2       133       289       288      1641      1642      1637
 -1       417    8    0    1
 -2       134       135       290      1232      1643      1644
 -1       418    8    0    1
 -2       134       290       289      1644      1645      1640
 -1       419    8    0    1
 -2       135       136       291      1233      1646      1647
 -1       420    8    0    1
 -2       290       135       291      1643      1647      1648
 -1       421    8    0    1
 -2       136       228       291      1458      1649      1646
 -1       422    8    0    1
 -2         2       137       292      1235      1650      1651
 -1       423    8    0    1
 -2       137       138       293      1236      1652      1653
 -1       424    8    0    1
 -2       138       139       294      1237      1654      1655
 -1       425    8    0    1
 -2       139       140       295      1238      1656      1657
 -1       426    8    0    1
 -2       140       141       296      1239      1658      1659
 -1       427    8    0    1
 -2       141       142       297      1240      1660      1661
 -1       428    8    0    1
 -2       142       143       298      1241      1662      1663
 -1       429    8    0    1
 -2       143       144       299      1242      1664      1665
 -1       430    8    0    1
 -2       144       145       300      1243      1666      1667
 -1       431    8    0    1
 -2       145       146       301      1244      1668      1669
 -1       432    8    0    1
 -2       146       147       302      1245      1670      1671
 -1       433    8    0    1
 -2       147       148       303      1246      1672      1673
 -1       434    8    0    1
 -2       148       149       304      1247      1674      1675
 -1       435    8    0    1
 -2       149       150       305      1248      1676      1677
 -1       436    8    0    1
 -2       150       151       306      1249      1678      1679
 -1       437    8    0    1
 -2       151       152       307      1250      1680      1681
 -1       438    8    0    1
 -2       152       153       308      1251      1682      1683
 -1       439    8    0    1
 -2       153       154       309      1252      1684      1685
 -1       440    8    0    1
 -2       154       155       310      1253      1686      1687
 -1       441    8    0    1
 -2       155       156       311      1254      1688      1689
 -1       442    8    0    1
 -2       156       157       312      1255      1690      1691
 -1       443    8    0    1
 -2       157         1       313      1256      1692      1693
 -1       444    8    0    1
 -2         1       158       314      1257      1694      1695
 -1       445    8    0    1
 -2       158       159       315      1258      1696      1697
 -1       446    8    0    1
 -2       159       160       316      1259      1698      1699
 -1       447    8    0    1
 -2       160       161       317      1260      1700      1701
 -1       448    8    0    1
 -2       161       162       318      1261      1702      1703
 -1       449    8    0    1
 -2       162       163       319      1262      1704      1705
 -1       450    8    0    1
 -2       163         2       320      1263      1706      1707
 -1       451    8    0    1
 -2       294       139       295      1654      1657      1708
 -1       452    8    0    1
 -2         2       292       320      1651      1709      1706
 -1       453    8    0    1
 -2       120       121       276      1604      1710      1601
 -1       454    8    0    1
 -2       121       277       276      1606      1711      1710
 -1       455    8    0    1
 -2       292       137       293      1650      1653      1712
 -1       456    8    0    1
 -2       293       138       294      1652      1655      1713
 -1       457    8    0    1
 -2       140       296       295      1659      1714      1656
 -1       458    8    0    1
 -2       141       297       296      1661      1715      1658
 -1       459    8    0    1
 -2       142       298       297      1663      1716      1660
 -1       460    8    0    1
 -2       143       299       298      1665      1717      1662
 -1       461    8    0    1
 -2       144       300       299      1667      1718      1664
 -1       462    8    0    1
 -2       145       301       300      1669      1719      1666
 -1       463    8    0    1
 -2       146       302       301      1671      1720      1668
 -1       464    8    0    1
 -2       147       303       302      1673      1721      1670
 -1       465    8    0    1
 -2       148       304       303      1675      1722      1672
 -1       466    8    0    1
 -2       149       305       304      1677      1723      1674
 -1       467    8    0    1
 -2       150       306       305      1679      1724      1676
 -1       468    8    0    1
 -2       151       307       306      1681      1725      1678
 -1       469    8    0    1
 -2       152       308       307      1683      1726      1680
 -1       470    8    0    1
 -2       153       309       308      1685      1727      1682
 -1       471    8    0    1
 -2       154       310       309      1687      1728      1684
 -1       472    8    0    1
 -2       155       311       310      1689      1729      1686
 -1       473    8    0    1
 -2       156       312       311      1691      1730      1688
 -1       474    8    0    1
 -2       157       313       312      1693      1731      1690
 -1       475    8    0    1
 -2         1       314       313      1695      1732      1692
 -1       476    8    0    1
 -2       158       315       314      1697      1733      1694
 -1       477    8    0    1
 -2       159       316       315      1699      1734      1696
 -1       478    8    0    1
 -2       160       317       316      1701      1735      1698
 -1       479    8    0    1
 -2       161       318       317      1703      1736      1700
 -1       480    8    0    1
 -2       162       319       318      1705      1737      1702
 -1       481    8    0    1
 -2       163       320       319      1707      1738      1704
 -1       482    8    0    1
 -2        23         7       164      1264      1266      1739
 -1       483    8    0    1
 -2       165       166       321      1272      1740      1741
 -1       484    8    0    1
 -2       164       165       322      1269      1742      1743
 -1       485    8    0    1
 -2       165       321       322      1741      1744      1742
 -1       486    8    0    1
 -2       167       168       323      1278      1745      1746
 -1       487    8    0    1
 -2       168       169       324      1281      1747      1748
 -1       488    8    0    1
 -2       168       324       323      1748      1749      1745
 -1       489    8    0    1
 -2       169       170       325      1284      1750      1751
 -1       490    8    0    1
 -2       169       325       324      1751      1752      1747
 -1       491    8    0    1
 -2       170       171       326      1287      1753      1754
 -1       492    8    0    1
 -2       170       326       325      1754      1755      1750
 -1       493    8    0    1
 -2       171       172       327      1290      1756      1757
 -1       494    8    0    1
 -2       171       327       326      1757      1758      1753
 -1       495    8    0    1
 -2       172       173       328      1293      1759      1760
 -1       496    8    0    1
 -2       172       328       327      1760      1761      1756
 -1       497    8    0    1
 -2       173       174       329      1296      1762      1763
 -1       498    8    0    1
 -2       173       329       328      1763      1764      1759
 -1       499    8    0    1
 -2       174       175       330      1299      1765      1766
 -1       500    8    0    1
 -2       174       330       329      1766      1767      1762
 -1       501    8    0    1
 -2       175       176       331      1302      1768      1769
 -1       502    8    0    1
 -2       175       331       330      1769      1770      1765
 -1       503    8    0    1
 -2       176       177       332      1305      1771      1772
 -1       504    8    0    1
 -2       176       332       331      1772      1773      1768
 -1       505    8    0    1
 -2       177       178       333      1308      1774      1775
 -1       506    8    0    1
 -2       177       333       332      1775      1776      1771
 -1       507    8    0    1
 -2       178       179       334      1311      1777      1778
 -1       508    8    0    1
 -2       333       178       334      1774      1778      1779
 -1       509    8    0    1
 -2       179       229       334      1462      1780      1777
 -1       510    8    0    1
 -2       180        23       164      1313      1739      1781
 -1       511    8    0    1
 -2       229       230       335      1465      1782      1783
 -1       512    8    0    1
 -2       229       335       334      1783      1784      1780
 -1       513    8    0    1
 -2       180       164       322      1781      1743      1785
 -1       514    8    0    1
 -2       182       181       336      1320      1786      1787
 -1       515    8    0    1
 -2       183       182       337      1323      1788      1789
 -1       516    8    0    1
 -2       182       336       337      1787      1790      1788
 -1       517    8    0    1
 -2       184       183       338      1326      1791      1792
 -1       518    8    0    1
 -2       183       337       338      1789      1793      1791
 -1       519    8    0    1
 -2       185       184       339      1329      1794      1795
 -1       520    8    0    1
 -2       184       338       339      1792      1796      1794
 -1       521    8    0    1
 -2       186       185       340      1332      1797      1798
 -1       522    8    0    1
 -2       185       339       340      1795      1799      1797
 -1       523    8    0    1
 -2       187       186       341      1335      1800      1801
 -1       524    8    0    1
 -2       186       340       341      1798      1802      1800
 -1       525    8    0    1
 -2       188       187       342      1338      1803      1804
 -1       526    8    0    1
 -2       187       341       342      1801      1805      1803
 -1       527    8    0    1
 -2       189       188       343      1341      1806      1807
 -1       528    8    0    1
 -2       188       342       343      1804      1808      1806
 -1       529    8    0    1
 -2       190       189       344      1344      1809      1810
 -1       530    8    0    1
 -2       189       343       344      1807      1811      1809
 -1       531    8    0    1
 -2       191       190       345      1347      1812      1813
 -1       532    8    0    1
 -2       190       344       345      1810      1814      1812
 -1       533    8    0    1
 -2       192       191       346      1350      1815      1816
 -1       534    8    0    1
 -2       191       345       346      1813      1817      1815
 -1       535    8    0    1
 -2       193       192       347      1353      1818      1819
 -1       536    8    0    1
 -2       192       346       347      1816      1820      1818
 -1       537    8    0    1
 -2       194       193       348      1356      1821      1822
 -1       538    8    0    1
 -2       193       347       348      1819      1823      1821
 -1       539    8    0    1
 -2       195       194       349      1359      1824      1825
 -1       540    8    0    1
 -2       194       348       349      1822      1826      1824
 -1       541    8    0    1
 -2       196       195       350      1362      1827      1828
 -1       542    8    0    1
 -2       195       349       350      1825      1829      1827
 -1       543    8    0    1
 -2       197       196       351      1365      1830      1831
 -1       544    8    0    1
 -2       196       350       351      1828      1832      1830
 -1       545    8    0    1
 -2       198       197       352      1368      1833      1834
 -1       546    8    0    1
 -2       197       351       352      1831      1835      1833
 -1       547    8    0    1
 -2       199       198       353      1371      1836      1837
 -1       548    8    0    1
 -2       198       352       353      1834      1838      1836
 -1       549    8    0    1
 -2       200       199       354      1374      1839      1840
 -1       550    8    0    1
 -2       199       353       354      1837      1841      1839
 -1       551    8    0    1
 -2       201       200       355      1377      1842      1843
 -1       552    8    0    1
 -2       200       354       355      1840      1844      1842
 -1       553    8    0    1
 -2       202       201       356      1380      1845      1846
 -1       554    8    0    1
 -2       201       355       356      1843      1847      1845
 -1       555    8    0    1
 -2       203       202       357      1383      1848      1849
 -1       556    8    0    1
 -2       202       356       357      1846      1850      1848
 -1       557    8    0    1
 -2       204       203       358      1386      1851      1852
 -1       558    8    0    1
 -2       203       357       358      1849      1853      1851
 -1       559    8    0    1
 -2       205       204       359      1389      1854      1855
 -1       560    8    0    1
 -2       204       358       359      1852      1856      1854
 -1       561    8    0    1
 -2       206       205       360      1392      1857      1858
 -1       562    8    0    1
 -2       205       359       360      1855      1859      1857
 -1       563    8    0    1
 -2       207       206       361      1395      1860      1861
 -1       564    8    0    1
 -2       206       360       361      1858      1862      1860
 -1       565    8    0    1
 -2       208       207       362      1398      1863      1864
 -1       566    8    0    1
 -2       207       361       362      1861      1865      1863
 -1       567    8    0    1
 -2       209       208       363      1401      1866      1867
 -1       568    8    0    1
 -2       208       362       363      1864      1868      1866
 -1       569    8    0    1
 -2       210       209       364      1404      1869      1870
 -1       570    8    0    1
 -2       209       363       364      1867      1871      1869
 -1       571    8    0    1
 -2       211       210       365      1407      1872      1873
 -1       572    8    0    1
 -2       210       364       365      1870      1874      1872
 -1       573    8    0    1
 -2       212       211       366      1410      1875      1876
 -1       574    8    0    1
 -2       211       365       366      1873      1877      1875
 -1       575    8    0    1
 -2       213       212       367      1413      1878      1879
 -1       576    8    0    1
 -2       212       366       367      1876      1880      1878
 -1       577    8    0    1
 -2       214       213       368      1416      1881      1882
 -1       578    8    0    1
 -2       213       367       368      1879      1883      1881
 -1       579    8    0    1
 -2       215       214       369      1419      1884      1885
 -1       580    8    0    1
 -2       216       215       370      1422      1886      1887
 -1       581    8    0    1
 -2       217       216       371      1425      1888      1889
 -1       582    8    0    1
 -2       218       217       372      1428      1890      1891
 -1       583    8    0    1
 -2       219       218       373      1431      1892      1893
 -1       584    8    0    1
 -2       218       372       373      1891      1894      1892
 -1       585    8    0    1
 -2       220       219       374      1434      1895      1896
 -1       586    8    0    1
 -2       219       373       374      1893      1897      1895
 -1       587    8    0    1
 -2       221       220       375      1437      1898      1899
 -1       588    8    0    1
 -2       220       374       375      1896      1900      1898
 -1       589    8    0    1
 -2       222       221       376      1440      1901      1902
 -1       590    8    0    1
 -2       221       375       376      1899      1903      1901
 -1       591    8    0    1
 -2       223       222       377      1443      1904      1905
 -1       592    8    0    1
 -2       222       376       377      1902      1906      1904
 -1       593    8    0    1
 -2       224       223       378      1446      1907      1908
 -1       594    8    0    1
 -2       223       377       378      1905      1909      1907
 -1       595    8    0    1
 -2       225       224       379      1449      1910      1911
 -1       596    8    0    1
 -2       224       378       379      1908      1912      1910
 -1       597    8    0    1
 -2       226       225       380      1452      1913      1914
 -1       598    8    0    1
 -2       225       379       380      1911      1915      1913
 -1       599    8    0    1
 -2       227       226       381      1455      1916      1917
 -1       600    8    0    1
 -2       226       380       381      1914      1918      1916
 -1       601    8    0    1
 -2       228       227       291      1459      1919      1649
 -1       602    8    0    1
 -2       231       232       382      1471      1920      1921
 -1       603    8    0    1
 -2       232       233       383      1474      1922      1923
 -1       604    8    0    1
 -2       232       383       382      1923      1924      1920
 -1       605    8    0    1
 -2       233       234       384      1477      1925      1926
 -1       606    8    0    1
 -2       233       384       383      1926      1927      1922
 -1       607    8    0    1
 -2       234       235       385      1480      1928      1929
 -1       608    8    0    1
 -2       234       385       384      1929      1930      1925
 -1       609    8    0    1
 -2       235       236       386      1483      1931      1932
 -1       610    8    0    1
 -2       235       386       385      1932      1933      1928
 -1       611    8    0    1
 -2       236       237       387      1486      1934      1935
 -1       612    8    0    1
 -2       236       387       386      1935      1936      1931
 -1       613    8    0    1
 -2       237       238       388      1489      1937      1938
 -1       614    8    0    1
 -2       237       388       387      1938      1939      1934
 -1       615    8    0    1
 -2       238       239       389      1492      1940      1941
 -1       616    8    0    1
 -2       238       389       388      1941      1942      1937
 -1       617    8    0    1
 -2       239       240       390      1495      1943      1944
 -1       618    8    0    1
 -2       239       390       389      1944      1945      1940
 -1       619    8    0    1
 -2       240       241       391      1498      1946      1947
 -1       620    8    0    1
 -2       240       391       390      1947      1948      1943
 -1       621    8    0    1
 -2       241       242       392      1501      1949      1950
 -1       622    8    0    1
 -2       241       392       391      1950      1951      1946
 -1       623    8    0    1
 -2       242       243       393      1504      1952      1953
 -1       624    8    0    1
 -2       242       393       392      1953      1954      1949
 -1       625    8    0    1
 -2       243       244       394      1507      1955      1956
 -1       626    8    0    1
 -2       243       394       393      1956      1957      1952
 -1       627    8    0    1
 -2       244       245       395      1510      1958      1959
 -1       628    8    0    1
 -2       244       395       394      1959      1960      1955
 -1       629    8    0    1
 -2       245       246       396      1513      1961      1962
 -1       630    8    0    1
 -2       245       396       395      1962      1963      1958
 -1       631    8    0    1
 -2       246       247       397      1516      1964      1965
 -1       632    8    0    1
 -2       246       397       396      1965      1966      1961
 -1       633    8    0    1
 -2       247       248       398      1519      1967      1968
 -1       634    8    0    1
 -2       247       398       397      1968      1969      1964
 -1       635    8    0    1
 -2       248       249       399      1522      1970      1971
 -1       636    8    0    1
 -2       248       399       398      1971      1972      1967
 -1       637    8    0    1
 -2       249       250       400      1525      1973      1974
 -1       638    8    0    1
 -2       249       400       399      1974      1975      1970
 -1       639    8    0    1
 -2       250       251       401      1528      1976      1977
 -1       640    8    0    1
 -2       250       401       400      1977      1978      1973
 -1       641    8    0    1
 -2       251       252       402      1531      1979      1980
 -1       642    8    0    1
 -2       251       402       401      1980      1981      1976
 -1       643    8    0    1
 -2       252       253       403      1534      1982      1983
 -1       644    8    0    1
 -2       252       403       402      1983      1984      1979
 -1       645    8    0    1
 -2       253       254       404      1537      1985      1986
 -1       646    8    0    1
 -2       253       404       403      1986      1987      1982
 -1       647    8    0    1
 -2       254       255       405      1540      1988      1989
 -1       648    8    0    1
 -2       254       405       404      1989      1990      1985
 -1       649    8    0    1
 -2       255       256       406      1543      1991      1992
 -1       650    8    0    1
 -2       255       406       405      1992      1993      1988
 -1       651    8    0    1
 -2       256       257       407      1546      1994      1995
 -1       652    8    0    1
 -2       256       407       406      1995      1996      1991
 -1       653    8    0    1
 -2       257       258       408      1549      1997      1998
 -1       654    8    0    1
 -2       257       408       407      1998      1999      1994
 -1       655    8    0    1
 -2       258       259       409      1552      2000      2001
 -1       656    8    0    1
 -2       258       409       408      2001      2002      1997
 -1       657    8    0    1
 -2       259       260       410      1555      2003      2004
 -1       658    8    0    1
 -2       259       410       409      2004      2005      2000
 -1       659    8    0    1
 -2       260       261       411      1558      2006      2007
 -1       660    8    0    1
 -2       260       411       410      2007      2008      2003
 -1       661    8    0    1
 -2       261       262       412      1561      2009      2010
 -1       662    8    0    1
 -2       261       412       411      2010      2011      2006
 -1       663    8    0    1
 -2       262       263       413      1564      2012      2013
 -1       664    8    0    1
 -2       262       413       412      2013      2014      2009
 -1       665    8    0    1
 -2       263       264       414      1567      2015      2016
 -1       666    8    0    1
 -2       263       414       413      2016      2017      2012
 -1       667    8    0    1
 -2       264       265       415      1570      2018      2019
 -1       668    8    0    1
 -2       264       415       414      2019      2020      2015
 -1       669    8    0    1
 -2       265       266       416      1573      2021      2022
 -1       670    8    0    1
 -2       265       416       415      2022      2023      2018
 -1       671    8    0    1
 -2       266       267       417      1576      2024      2025
 -1       672    8    0    1
 -2       266       417       416      2025      2026      2021
 -1       673    8    0    1
 -2       267       268       418      1579      2027      2028
 -1       674    8    0    1
 -2       267       418       417      2028      2029      2024
 -1       675    8    0    1
 -2       268       269       419      1582      2030      2031
 -1       676    8    0    1
 -2       268       419       418      2031      2032      2027
 -1       677    8    0    1
 -2       269       270       420      1585      2033      2034
 -1       678    8    0    1
 -2       269       420       419      2034      2035      2030
 -1       679    8    0    1
 -2       270       271       421      1588      2036      2037
 -1       680    8    0    1
 -2       270       421       420      2037      2038      2033
 -1       681    8    0    1
 -2       271       272       422      1591      2039      2040
 -1       682    8    0    1
 -2       271       422       421      2040      2041      2036
 -1       683    8    0    1
 -2       272       273       423      1594      2042      2043
 -1       684    8    0    1
 -2       272       423       422      2043      2044      2039
 -1       685    8    0    1
 -2       273       274       424      1597      2045      2046
 -1       686    8    0    1
 -2       273       424       423      2046      2047      2042
 -1       687    8    0    1
 -2       274       275       425      1600      2048      2049
 -1       688    8    0    1
 -2       274       425       424      2049      2050      2045
 -1       689    8    0    1
 -2       275       276       426      1603      2051      2052
 -1       690    8    0    1
 -2       425       275       426      2048      2052      2053
 -1       691    8    0    1
 -2       276       277       426      1711      2054      2051
 -1       692    8    0    1
 -2       279       280       427      1615      2055      2056
 -1       693    8    0    1
 -2       278       279       428      1612      2057      2058
 -1       694    8    0    1
 -2       279       427       428      2056      2059      2057
 -1       695    8    0    1
 -2       277       278       426      1609      2060      2054
 -1       696    8    0    1
 -2       280       281       429      1618      2061      2062
 -1       697    8    0    1
 -2       280       429       427      2062      2063      2055
 -1       698    8    0    1
 -2       281       282       430      1621      2064      2065
 -1       699    8    0    1
 -2       281       430       429      2065      2066      2061
 -1       700    8    0    1
 -2       282       283       431      1624      2067      2068
 -1       701    8    0    1
 -2       282       431       430      2068      2069      2064
 -1       702    8    0    1
 -2       283       284       432      1627      2070      2071
 -1       703    8    0    1
 -2       283       432       431      2071      2072      2067
 -1       704    8    0    1
 -2       284       285       433      1630      2073      2074
 -1       705    8    0    1
 -2       284       433       432      2074      2075      2070
 -1       706    8    0    1
 -2       285       286       434      1633      2076      2077
 -1       707    8    0    1
 -2       285       434       433      2077      2078      2073
 -1       708    8    0    1
 -2       286       287       435      1636      2079      2080
 -1       709    8    0    1
 -2       286       435       434      2080      2081      2076
 -1       710    8    0    1
 -2       287       288       436      1639      2082      2083
 -1       711    8    0    1
 -2       287       436       435      2083      2084      2079
 -1       712    8    0    1
 -2       288       289       437      1642      2085      2086
 -1       713    8    0    1
 -2       288       437       436      2086      2087      2082
 -1       714    8    0    1
 -2       289       290       438      1645      2088      2089
 -1       715    8    0    1
 -2       289       438       437      2089      2090      2085
 -1       716    8    0    1
 -2       230       231       439      1468      2091      2092
 -1       717    8    0    1
 -2       335       230       439      1782      2092      2093
 -1       718    8    0    1
 -2       231       382       439      1921      2094      2091
 -1       719    8    0    1
 -2       293       294       440      1713      2095      2096
 -1       720    8    0    1
 -2       295       296       441      1714      2097      2098
 -1       721    8    0    1
 -2       320       292       442      1709      2099      2100
 -1       722    8    0    1
 -2       294       295       443      1708      2101      2102
 -1       723    8    0    1
 -2       166       167       444      1275      2103      2104
 -1       724    8    0    1
 -2       321       166       444      1740      2104      2105
 -1       725    8    0    1
 -2       167       323       444      1746      2106      2103
 -1       726    8    0    1
 -2       296       297       445      1715      2107      2108
 -1       727    8    0    1
 -2       297       298       446      1716      2109      2110
 -1       728    8    0    1
 -2       298       299       447      1717      2111      2112
 -1       729    8    0    1
 -2       299       300       448      1718      2113      2114
 -1       730    8    0    1
 -2       300       301       449      1719      2115      2116
 -1       731    8    0    1
 -2       301       302       450      1720      2117      2118
 -1       732    8    0    1
 -2       302       303       451      1721      2119      2120
 -1       733    8    0    1
 -2       303       304       452      1722      2121      2122
 -1       734    8    0    1
 -2       304       305       453      1723      2123      2124
 -1       735    8    0    1
 -2       305       306       454      1724      2125      2126
 -1       736    8    0    1
 -2       306       307       455      1725      2127      2128
 -1       737    8    0    1
 -2       307       308       456      1726      2129      2130
 -1       738    8    0    1
 -2       308       309       457      1727      2131      2132
 -1       739    8    0    1
 -2       309       310       458      1728      2133      2134
 -1       740    8    0    1
 -2       310       311       459      1729      2135      2136
 -1       741    8    0    1
 -2       311       312       460      1730      2137      2138
 -1       742    8    0    1
 -2       312       313       461      1731      2139      2140
 -1       743    8    0    1
 -2       313       314       462      1732      2141      2142
 -1       744    8    0    1
 -2       314       315       463      1733      2143      2144
 -1       745    8    0    1
 -2       315       316       464      1734      2145      2146
 -1       746    8    0    1
 -2       316       317       465      1735      2147      2148
 -1       747    8    0    1
 -2       317       318       466      1736      2149      2150
 -1       748    8    0    1
 -2       318       319       467      1737      2151      2152
 -1       749    8    0    1
 -2       319       320       468      1738      2153      2154
 -1       750    8    0    1
 -2       292       293       469      1712      2155      2156
 -1       751    8    0    1
 -2       214       368       369      1882      2157      1884
 -1       752    8    0    1
 -2       370       215       369      1886      1885      2158
 -1       753    8    0    1
 -2       180       322       181      1785      2159      1317
 -1       754    8    0    1
 -2       440       294       443      2095      2102      2160
 -1       755    8    0    1
 -2       296       445       441      2108      2161      2097
 -1       756    8    0    1
 -2       336       181       322      1786      2159      2162
 -1       757    8    0    1
 -2       291       227       381      1919      1917      2163
 -1       758    8    0    1
 -2       469       293       440      2155      2096      2164
 -1       759    8    0    1
 -2       426       278       428      2060      2058      2165
 -1       760    8    0    1
 -2       442       292       469      2099      2156      2166
 -1       761    8    0    1
 -2       468       320       442      2153      2100      2167
 -1       762    8    0    1
 -2       290       291       381      1648      2163      2168
 -1       763    8    0    1
 -2       467       319       468      2151      2154      2169
 -1       764    8    0    1
 -2       466       318       467      2149      2152      2170
 -1       765    8    0    1
 -2       295       441       443      2098      2171      2101
 -1       766    8    0    1
 -2       290       381       438      2168      2172      2088
 -1       767    8    0    1
 -2       465       317       466      2147      2150      2173
 -1       768    8    0    1
 -2       464       316       465      2145      2148      2174
 -1       769    8    0    1
 -2       463       315       464      2143      2146      2175
 -1       770    8    0    1
 -2       462       314       463      2141      2144      2176
 -1       771    8    0    1
 -2       461       313       462      2139      2142      2177
 -1       772    8    0    1
 -2       460       312       461      2137      2140      2178
 -1       773    8    0    1
 -2       459       311       460      2135      2138      2179
 -1       774    8    0    1
 -2       458       310       459      2133      2136      2180
 -1       775    8    0    1
 -2       457       309       458      2131      2134      2181
 -1       776    8    0    1
 -2       456       308       457      2129      2132      2182
 -1       777    8    0    1
 -2       455       307       456      2127      2130      2183
 -1       778    8    0    1
 -2       454       306       455      2125      2128      2184
 -1       779    8    0    1
 -2       453       305       454      2123      2126      2185
 -1       780    8    0    1
 -2       452       304       453      2121      2124      2186
 -1       781    8    0    1
 -2       451       303       452      2119      2122      2187
 -1       782    8    0    1
 -2       450       302       451      2117      2120      2188
 -1       783    8    0    1
 -2       449       301       450      2115      2118      2189
 -1       784    8    0    1
 -2       448       300       449      2113      2116      2190
 -1       785    8    0    1
 -2       447       299       448      2111      2114      2191
 -1       786    8    0    1
 -2       445       297       446      2107      2110      2192
 -1       787    8    0    1
 -2       446       298       447      2109      2112      2193
 -1       788    8    0    1
 -2       324       325       470      1752      2194      2195
 -1       789    8    0    1
 -2       323       324       471      1749      2196      2197
 -1       790    8    0    1
 -2       324       470       471      2195      2198      2196
 -1       791    8    0    1
 -2       326       327       472      1758      2199      2200
 -1       792    8    0    1
 -2       327       328       473      1761      2201      2202
 -1       793    8    0    1
 -2       327       473       472      2202      2203      2199
 -1       794    8    0    1
 -2       328       329       474      1764      2204      2205
 -1       795    8    0    1
 -2       328       474       473      2205      2206      2201
 -1       796    8    0    1
 -2       329       330       475      1767      2207      2208
 -1       797    8    0    1
 -2       329       475       474      2208      2209      2204
 -1       798    8    0    1
 -2       330       331       476      1770      2210      2211
 -1       799    8    0    1
 -2       330       476       475      2211      2212      2207
 -1       800    8    0    1
 -2       331       332       477      1773      2213      2214
 -1       801    8    0    1
 -2       331       477       476      2214      2215      2210
 -1       802    8    0    1
 -2       332       333       478      1776      2216      2217
 -1       803    8    0    1
 -2       332       478       477      2217      2218      2213
 -1       804    8    0    1
 -2       333       334       479      1779      2219      2220
 -1       805    8    0    1
 -2       478       333       479      2216      2220      2221
 -1       806    8    0    1
 -2       334       335       479      1784      2222      2219
 -1       807    8    0    1
 -2       371       216       370      1888      1887      2223
 -1       808    8    0    1
 -2       337       336       480      1790      2224      2225
 -1       809    8    0    1
 -2       440       443       481      2160      2226      2227
 -1       810    8    0    1
 -2       467       468       482      2169      2228      2229
 -1       811    8    0    1
 -2       338       337       483      1793      2230      2231
 -1       812    8    0    1
 -2       337       480       483      2225      2232      2230
 -1       813    8    0    1
 -2       339       338       484      1796      2233      2234
 -1       814    8    0    1
 -2       338       483       484      2231      2235      2233
 -1       815    8    0    1
 -2       340       339       485      1799      2236      2237
 -1       816    8    0    1
 -2       339       484       485      2234      2238      2236
 -1       817    8    0    1
 -2       341       340       486      1802      2239      2240
 -1       818    8    0    1
 -2       340       485       486      2237      2241      2239
 -1       819    8    0    1
 -2       342       341       487      1805      2242      2243
 -1       820    8    0    1
 -2       341       486       487      2240      2244      2242
 -1       821    8    0    1
 -2       343       342       488      1808      2245      2246
 -1       822    8    0    1
 -2       342       487       488      2243      2247      2245
 -1       823    8    0    1
 -2       344       343       489      1811      2248      2249
 -1       824    8    0    1
 -2       343       488       489      2246      2250      2248
 -1       825    8    0    1
 -2       345       344       490      1814      2251      2252
 -1       826    8    0    1
 -2       344       489       490      2249      2253      2251
 -1       827    8    0    1
 -2       346       345       491      1817      2254      2255
 -1       828    8    0    1
 -2       345       490       491      2252      2256      2254
 -1       829    8    0    1
 -2       347       346       492      1820      2257      2258
 -1       830    8    0    1
 -2       346       491       492      2255      2259      2257
 -1       831    8    0    1
 -2       348       347       493      1823      2260      2261
 -1       832    8    0    1
 -2       347       492       493      2258      2262      2260
 -1       833    8    0    1
 -2       349       348       494      1826      2263      2264
 -1       834    8    0    1
 -2       348       493       494      2261      2265      2263
 -1       835    8    0    1
 -2       350       349       495      1829      2266      2267
 -1       836    8    0    1
 -2       349       494       495      2264      2268      2266
 -1       837    8    0    1
 -2       351       350       496      1832      2269      2270
 -1       838    8    0    1
 -2       350       495       496      2267      2271      2269
 -1       839    8    0    1
 -2       352       351       497      1835      2272      2273
 -1       840    8    0    1
 -2       351       496       497      2270      2274      2272
 -1       841    8    0    1
 -2       353       352       498      1838      2275      2276
 -1       842    8    0    1
 -2       352       497       498      2273      2277      2275
 -1       843    8    0    1
 -2       354       353       499      1841      2278      2279
 -1       844    8    0    1
 -2       353       498       499      2276      2280      2278
 -1       845    8    0    1
 -2       355       354       500      1844      2281      2282
 -1       846    8    0    1
 -2       354       499       500      2279      2283      2281
 -1       847    8    0    1
 -2       356       355       501      1847      2284      2285
 -1       848    8    0    1
 -2       355       500       501      2282      2286      2284
 -1       849    8    0    1
 -2       357       356       502      1850      2287      2288
 -1       850    8    0    1
 -2       356       501       502      2285      2289      2287
 -1       851    8    0    1
 -2       358       357       503      1853      2290      2291
 -1       852    8    0    1
 -2       357       502       503      2288      2292      2290
 -1       853    8    0    1
 -2       359       358       504      1856      2293      2294
 -1       854    8    0    1
 -2       358       503       504      2291      2295      2293
 -1       855    8    0    1
 -2       360       359       505      1859      2296      2297
 -1       856    8    0    1
 -2       359       504       505      2294      2298      2296
 -1       857    8    0    1
 -2       361       360       506      1862      2299      2300
 -1       858    8    0    1
 -2       360       505       506      2297      2301      2299
 -1       859    8    0    1
 -2       362       361       507      1865      2302      2303
 -1       860    8    0    1
 -2       361       506       507      2300      2304      2302
 -1       861    8    0    1
 -2       363       362       508      1868      2305      2306
 -1       862    8    0    1
 -2       362       507       508      2303      2307      2305
 -1       863    8    0    1
 -2       364       363       509      1871      2308      2309
 -1       864    8    0    1
 -2       363       508       509      2306      2310      2308
 -1       865    8    0    1
 -2       365       364       510      1874      2311      2312
 -1       866    8    0    1
 -2       364       509       510      2309      2313      2311
 -1       867    8    0    1
 -2       366       365       511      1877      2314      2315
 -1       868    8    0    1
 -2       365       510       511      2312      2316      2314
 -1       869    8    0    1
 -2       367       366       512      1880      2317      2318
 -1       870    8    0    1
 -2       366       511       512      2315      2319      2317
 -1       871    8    0    1
 -2       368       367       513      1883      2320      2321
 -1       872    8    0    1
 -2       217       371       372      1889      2322      1890
 -1       873    8    0    1
 -2       469       440       514      2164      2323      2324
 -1       874    8    0    1
 -2       374       373       515      1897      2325      2326
 -1       875    8    0    1
 -2       375       374       516      1900      2327      2328
 -1       876    8    0    1
 -2       374       515       516      2326      2329      2327
 -1       877    8    0    1
 -2       376       375       517      1903      2330      2331
 -1       878    8    0    1
 -2       375       516       517      2328      2332      2330
 -1       879    8    0    1
 -2       377       376       518      1906      2333      2334
 -1       880    8    0    1
 -2       376       517       518      2331      2335      2333
 -1       881    8    0    1
 -2       378       377       519      1909      2336      2337
 -1       882    8    0    1
 -2       377       518       519      2334      2338      2336
 -1       883    8    0    1
 -2       379       378       520      1912      2339      2340
 -1       884    8    0    1
 -2       378       519       520      2337      2341      2339
 -1       885    8    0    1
 -2       380       379       521      1915      2342      2343
 -1       886    8    0    1
 -2       379       520       521      2340      2344      2342
 -1       887    8    0    1
 -2       381       380       522      1918      2345      2346
 -1       888    8    0    1
 -2       438       381       522      2172      2346      2347
 -1       889    8    0    1
 -2       380       521       522      2343      2348      2345
 -1       890    8    0    1
 -2       384       385       523      1930      2349      2350
 -1       891    8    0    1
 -2       383       384       524      1927      2351      2352
 -1       892    8    0    1
 -2       384       523       524      2350      2353      2351
 -1       893    8    0    1
 -2       382       383       525      1924      2354      2355
 -1       894    8    0    1
 -2       383       524       525      2352      2356      2354
 -1       895    8    0    1
 -2       385       386       526      1933      2357      2358
 -1       896    8    0    1
 -2       385       526       523      2358      2359      2349
 -1       897    8    0    1
 -2       386       387       527      1936      2360      2361
 -1       898    8    0    1
 -2       386       527       526      2361      2362      2357
 -1       899    8    0    1
 -2       387       388       528      1939      2363      2364
 -1       900    8    0    1
 -2       387       528       527      2364      2365      2360
 -1       901    8    0    1
 -2       388       389       529      1942      2366      2367
 -1       902    8    0    1
 -2       388       529       528      2367      2368      2363
 -1       903    8    0    1
 -2       389       390       530      1945      2369      2370
 -1       904    8    0    1
 -2       389       530       529      2370      2371      2366
 -1       905    8    0    1
 -2       390       391       531      1948      2372      2373
 -1       906    8    0    1
 -2       390       531       530      2373      2374      2369
 -1       907    8    0    1
 -2       391       392       532      1951      2375      2376
 -1       908    8    0    1
 -2       391       532       531      2376      2377      2372
 -1       909    8    0    1
 -2       392       393       533      1954      2378      2379
 -1       910    8    0    1
 -2       392       533       532      2379      2380      2375
 -1       911    8    0    1
 -2       393       394       534      1957      2381      2382
 -1       912    8    0    1
 -2       393       534       533      2382      2383      2378
 -1       913    8    0    1
 -2       394       395       535      1960      2384      2385
 -1       914    8    0    1
 -2       394       535       534      2385      2386      2381
 -1       915    8    0    1
 -2       395       396       536      1963      2387      2388
 -1       916    8    0    1
 -2       395       536       535      2388      2389      2384
 -1       917    8    0    1
 -2       396       397       537      1966      2390      2391
 -1       918    8    0    1
 -2       396       537       536      2391      2392      2387
 -1       919    8    0    1
 -2       397       398       538      1969      2393      2394
 -1       920    8    0    1
 -2       397       538       537      2394      2395      2390
 -1       921    8    0    1
 -2       398       399       539      1972      2396      2397
 -1       922    8    0    1
 -2       398       539       538      2397      2398      2393
 -1       923    8    0    1
 -2       399       400       540      1975      2399      2400
 -1       924    8    0    1
 -2       399       540       539      2400      2401      2396
 -1       925    8    0    1
 -2       400       401       541      1978      2402      2403
 -1       926    8    0    1
 -2       400       541       540      2403      2404      2399
 -1       927    8    0    1
 -2       401       402       542      1981      2405      2406
 -1       928    8    0    1
 -2       401       542       541      2406      2407      2402
 -1       929    8    0    1
 -2       402       403       543      1984      2408      2409
 -1       930    8    0    1
 -2       402       543       542      2409      2410      2405
 -1       931    8    0    1
 -2       403       404       544      1987      2411      2412
 -1       932    8    0    1
 -2       403       544       543      2412      2413      2408
 -1       933    8    0    1
 -2       404       405       545      1990      2414      2415
 -1       934    8    0    1
 -2       404       545       544      2415      2416      2411
 -1       935    8    0    1
 -2       405       406       546      1993      2417      2418
 -1       936    8    0    1
 -2       405       546       545      2418      2419      2414
 -1       937    8    0    1
 -2       406       407       547      1996      2420      2421
 -1       938    8    0    1
 -2       406       547       546      2421      2422      2417
 -1       939    8    0    1
 -2       407       408       548      1999      2423      2424
 -1       940    8    0    1
 -2       407       548       547      2424      2425      2420
 -1       941    8    0    1
 -2       408       409       549      2002      2426      2427
 -1       942    8    0    1
 -2       408       549       548      2427      2428      2423
 -1       943    8    0    1
 -2       409       410       550      2005      2429      2430
 -1       944    8    0    1
 -2       409       550       549      2430      2431      2426
 -1       945    8    0    1
 -2       410       411       551      2008      2432      2433
 -1       946    8    0    1
 -2       410       551       550      2433      2434      2429
 -1       947    8    0    1
 -2       411       412       552      2011      2435      2436
 -1       948    8    0    1
 -2       411       552       551      2436      2437      2432
 -1       949    8    0    1
 -2       412       413       553      2014      2438      2439
 -1       950    8    0    1
 -2       412       553       552      2439      2440      2435
 -1       951    8    0    1
 -2       413       414       554      2017      2441      2442
 -1       952    8    0    1
 -2       413       554       553      2442      2443      2438
 -1       953    8    0    1
 -2       414       415       555      2020      2444      2445
 -1       954    8    0    1
 -2       414       555       554      2445      2446      2441
 -1       955    8    0    1
 -2       415       416       556      2023      2447      2448
 -1       956    8    0    1
 -2       415       556       555      2448      2449      2444
 -1       957    8    0    1
 -2       416       417       557      2026      2450      2451
 -1       958    8    0    1
 -2       416       557       556      2451      2452      2447
 -1       959    8    0    1
 -2       417       418       558      2029      2453      2454
 -1       960    8    0    1
 -2       417       558       557      2454      2455      2450
 -1       961    8    0    1
 -2       418       419       559      2032      2456      2457
 -1       962    8    0    1
 -2       418       559       558      2457      2458      2453
 -1       963    8    0    1
 -2       419       420       560      2035      2459      2460
 -1       964    8    0    1
 -2       419       560       559      2460      2461      2456
 -1       965    8    0    1
 -2       420       421       561      2038      2462      2463
 -1       966    8    0    1
 -2       420       561       560      2463      2464      2459
 -1       967    8    0    1
 -2       421       422       562      2041      2465      2466
 -1       968    8    0    1
 -2       421       562       561      2466      2467      2462
 -1       969    8    0    1
 -2       422       423       563      2044      2468      2469
 -1       970    8    0    1
 -2       422       563       562      2469      2470      2465
 -1       971    8    0    1
 -2       423       424       564      2047      2471      2472
 -1       972    8    0    1
 -2       423       564       563      2472      2473      2468
 -1       973    8    0    1
 -2       424       425       565      2050      2474      2475
 -1       974    8    0    1
 -2       424       565       564      2475      2476      2471
 -1       975    8    0    1
 -2       425       426       428      2053      2165      2477
 -1       976    8    0    1
 -2       429       430       566      2066      2478      2479
 -1       977    8    0    1
 -2       427       429       567      2063      2480      2481
 -1       978    8    0    1
 -2       429       566       567      2479      2482      2480
 -1       979    8    0    1
 -2       428       427       568      2059      2483      2484
 -1       980    8    0    1
 -2       427       567       568      2481      2485      2483
 -1       981    8    0    1
 -2       442       469       569      2166      2486      2487
 -1       982    8    0    1
 -2       469       514       569      2324      2488      2486
 -1       983    8    0    1
 -2       430       431       570      2069      2489      2490
 -1       984    8    0    1
 -2       430       570       566      2490      2491      2478
 -1       985    8    0    1
 -2       431       432       571      2072      2492      2493
 -1       986    8    0    1
 -2       431       571       570      2493      2494      2489
 -1       987    8    0    1
 -2       432       433       572      2075      2495      2496
 -1       988    8    0    1
 -2       432       572       571      2496      2497      2492
 -1       989    8    0    1
 -2       433       434       573      2078      2498      2499
 -1       990    8    0    1
 -2       433       573       572      2499      2500      2495
 -1       991    8    0    1
 -2       434       435       574      2081      2501      2502
 -1       992    8    0    1
 -2       434       574       573      2502      2503      2498
 -1       993    8    0    1
 -2       435       436       575      2084      2504      2505
 -1       994    8    0    1
 -2       435       575       574      2505      2506      2501
 -1       995    8    0    1
 -2       436       437       576      2087      2507      2508
 -1       996    8    0    1
 -2       436       576       575      2508      2509      2504
 -1       997    8    0    1
 -2       437       438       577      2090      2510      2511
 -1       998    8    0    1
 -2       576       437       577      2507      2511      2512
 -1       999    8    0    1
 -2       438       522       577      2347      2513      2510
 -1      1000    8    0    1
 -2       465       466       578      2173      2514      2515
 -1      1001    8    0    1
 -2       336       322       579      2162      2516      2517
 -1      1002    8    0    1
 -2       480       336       579      2224      2517      2518
 -1      1003    8    0    1
 -2       322       321       579      1744      2519      2516
 -1      1004    8    0    1
 -2       441       445       580      2161      2520      2521
 -1      1005    8    0    1
 -2       373       372       581      1894      2522      2523
 -1      1006    8    0    1
 -2       325       326       582      1755      2524      2525
 -1      1007    8    0    1
 -2       470       325       582      2194      2525      2526
 -1      1008    8    0    1
 -2       326       472       582      2200      2527      2524
 -1      1009    8    0    1
 -2       446       447       583      2193      2528      2529
 -1      1010    8    0    1
 -2       445       446       584      2192      2530      2531
 -1      1011    8    0    1
 -2       447       448       585      2191      2532      2533
 -1      1012    8    0    1
 -2       448       449       586      2190      2534      2535
 -1      1013    8    0    1
 -2       449       450       587      2189      2536      2537
 -1      1014    8    0    1
 -2       450       451       588      2188      2538      2539
 -1      1015    8    0    1
 -2       451       452       589      2187      2540      2541
 -1      1016    8    0    1
 -2       451       589       588      2541      2542      2538
 -1      1017    8    0    1
 -2       452       453       590      2186      2543      2544
 -1      1018    8    0    1
 -2       453       454       591      2185      2545      2546
 -1      1019    8    0    1
 -2       454       455       592      2184      2547      2548
 -1      1020    8    0    1
 -2       455       456       593      2183      2549      2550
 -1      1021    8    0    1
 -2       456       457       594      2182      2551      2552
 -1      1022    8    0    1
 -2       457       458       595      2181      2553      2554
 -1      1023    8    0    1
 -2       458       459       513      2180      2555      2556
 -1      1024    8    0    1
 -2       461       462       370      2177      2557      2558
 -1      1025    8    0    1
 -2       464       465       581      2174      2559      2560
 -1      1026    8    0    1
 -2       443       441       596      2171      2561      2562
 -1      1027    8    0    1
 -2       466       467       597      2170      2563      2564
 -1      1028    8    0    1
 -2       468       442       598      2167      2565      2566
 -1      1029    8    0    1
 -2       371       370       462      2223      2557      2567
 -1      1030    8    0    1
 -2       425       428       565      2477      2568      2474
 -1      1031    8    0    1
 -2       461       370       369      2558      2158      2569
 -1      1032    8    0    1
 -2       371       462       463      2567      2176      2570
 -1      1033    8    0    1
 -2       461       369       460      2569      2571      2178
 -1      1034    8    0    1
 -2       323       471       599      2197      2572      2573
 -1      1035    8    0    1
 -2       323       599       444      2573      2574      2106
 -1      1036    8    0    1
 -2       481       443       596      2226      2562      2575
 -1      1037    8    0    1
 -2       479       335       600      2222      2576      2577
 -1      1038    8    0    1
 -2       335       439       600      2093      2578      2576
 -1      1039    8    0    1
 -2       482       468       598      2228      2566      2579
 -1      1040    8    0    1
 -2       580       445       584      2520      2531      2580
 -1      1041    8    0    1
 -2       440       481       514      2227      2581      2323
 -1      1042    8    0    1
 -2       467       482       597      2229      2582      2563
 -1      1043    8    0    1
 -2       368       513       459      2321      2555      2583
 -1      1044    8    0    1
 -2       513       367       512      2320      2318      2584
 -1      1045    8    0    1
 -2       465       578       581      2515      2585      2559
 -1      1046    8    0    1
 -2       442       569       601      2487      2586      2587
 -1      1047    8    0    1
 -2       442       601       598      2587      2588      2565
 -1      1048    8    0    1
 -2       578       466       597      2514      2564      2589
 -1      1049    8    0    1
 -2       579       321       444      2519      2105      2590
 -1      1050    8    0    1
 -2       439       382       602      2094      2591      2592
 -1      1051    8    0    1
 -2       600       439       602      2578      2592      2593
 -1      1052    8    0    1
 -2       382       525       602      2355      2594      2591
 -1      1053    8    0    1
 -2       428       568       565      2484      2595      2568
 -1      1054    8    0    1
 -2       581       372       464      2522      2596      2560
 -1      1055    8    0    1
 -2       368       459       603      2583      2597      2598
 -1      1056    8    0    1
 -2       373       581       515      2523      2599      2325
 -1      1057    8    0    1
 -2       596       441       580      2561      2521      2600
 -1      1058    8    0    1
 -2       594       457       595      2551      2554      2601
 -1      1059    8    0    1
 -2       593       456       604      2549      2602      2603
 -1      1060    8    0    1
 -2       456       594       604      2552      2604      2602
 -1      1061    8    0    1
 -2       592       455       593      2547      2550      2605
 -1      1062    8    0    1
 -2       591       454       592      2545      2548      2606
 -1      1063    8    0    1
 -2       589       452       590      2540      2544      2607
 -1      1064    8    0    1
 -2       587       450       588      2536      2539      2608
 -1      1065    8    0    1
 -2       586       449       587      2534      2537      2609
 -1      1066    8    0    1
 -2       585       448       586      2532      2535      2610
 -1      1067    8    0    1
 -2       584       446       583      2530      2529      2611
 -1      1068    8    0    1
 -2       583       447       605      2528      2612      2613
 -1      1069    8    0    1
 -2       447       585       605      2533      2614      2612
 -1      1070    8    0    1
 -2       590       453       591      2543      2546      2615
 -1      1071    8    0    1
 -2       459       460       603      2179      2616      2597
 -1      1072    8    0    1
 -2       463       464       606      2175      2617      2618
 -1      1073    8    0    1
 -2       473       474       607      2206      2619      2620
 -1      1074    8    0    1
 -2       472       473       608      2203      2621      2622
 -1      1075    8    0    1
 -2       473       607       608      2620      2623      2621
 -1      1076    8    0    1
 -2       475       476       609      2212      2624      2625
 -1      1077    8    0    1
 -2       476       477       610      2215      2626      2627
 -1      1078    8    0    1
 -2       476       610       609      2627      2628      2624
 -1      1079    8    0    1
 -2       478       479       611      2221      2629      2630
 -1      1080    8    0    1
 -2       479       600       611      2577      2631      2629
 -1      1081    8    0    1
 -2       484       483       612      2235      2632      2633
 -1      1082    8    0    1
 -2       485       484       613      2238      2634      2635
 -1      1083    8    0    1
 -2       484       612       613      2633      2636      2634
 -1      1084    8    0    1
 -2       486       485       614      2241      2637      2638
 -1      1085    8    0    1
 -2       485       613       614      2635      2639      2637
 -1      1086    8    0    1
 -2       487       486       615      2244      2640      2641
 -1      1087    8    0    1
 -2       486       614       615      2638      2642      2640
 -1      1088    8    0    1
 -2       488       487       616      2247      2643      2644
 -1      1089    8    0    1
 -2       487       615       616      2641      2645      2643
 -1      1090    8    0    1
 -2       489       488       617      2250      2646      2647
 -1      1091    8    0    1
 -2       488       616       617      2644      2648      2646
 -1      1092    8    0    1
 -2       490       489       618      2253      2649      2650
 -1      1093    8    0    1
 -2       489       617       618      2647      2651      2649
 -1      1094    8    0    1
 -2       491       490       619      2256      2652      2653
 -1      1095    8    0    1
 -2       490       618       619      2650      2654      2652
 -1      1096    8    0    1
 -2       492       491       620      2259      2655      2656
 -1      1097    8    0    1
 -2       491       619       620      2653      2657      2655
 -1      1098    8    0    1
 -2       493       492       621      2262      2658      2659
 -1      1099    8    0    1
 -2       492       620       621      2656      2660      2658
 -1      1100    8    0    1
 -2       494       493       622      2265      2661      2662
 -1      1101    8    0    1
 -2       493       621       622      2659      2663      2661
 -1      1102    8    0    1
 -2       495       494       623      2268      2664      2665
 -1      1103    8    0    1
 -2       494       622       623      2662      2666      2664
 -1      1104    8    0    1
 -2       496       495       624      2271      2667      2668
 -1      1105    8    0    1
 -2       495       623       624      2665      2669      2667
 -1      1106    8    0    1
 -2       497       496       625      2274      2670      2671
 -1      1107    8    0    1
 -2       496       624       625      2668      2672      2670
 -1      1108    8    0    1
 -2       498       497       626      2277      2673      2674
 -1      1109    8    0    1
 -2       497       625       626      2671      2675      2673
 -1      1110    8    0    1
 -2       499       498       627      2280      2676      2677
 -1      1111    8    0    1
 -2       498       626       627      2674      2678      2676
 -1      1112    8    0    1
 -2       500       499       628      2283      2679      2680
 -1      1113    8    0    1
 -2       499       627       628      2677      2681      2679
 -1      1114    8    0    1
 -2       501       500       629      2286      2682      2683
 -1      1115    8    0    1
 -2       500       628       629      2680      2684      2682
 -1      1116    8    0    1
 -2       502       501       630      2289      2685      2686
 -1      1117    8    0    1
 -2       501       629       630      2683      2687      2685
 -1      1118    8    0    1
 -2       503       502       631      2292      2688      2689
 -1      1119    8    0    1
 -2       502       630       631      2686      2690      2688
 -1      1120    8    0    1
 -2       504       503       632      2295      2691      2692
 -1      1121    8    0    1
 -2       503       631       632      2689      2693      2691
 -1      1122    8    0    1
 -2       505       504       633      2298      2694      2695
 -1      1123    8    0    1
 -2       504       632       633      2692      2696      2694
 -1      1124    8    0    1
 -2       506       505       634      2301      2697      2698
 -1      1125    8    0    1
 -2       505       633       634      2695      2699      2697
 -1      1126    8    0    1
 -2       507       506       635      2304      2700      2701
 -1      1127    8    0    1
 -2       506       634       635      2698      2702      2700
 -1      1128    8    0    1
 -2       508       507       636      2307      2703      2704
 -1      1129    8    0    1
 -2       507       635       636      2701      2705      2703
 -1      1130    8    0    1
 -2       509       508       637      2310      2706      2707
 -1      1131    8    0    1
 -2       508       636       637      2704      2708      2706
 -1      1132    8    0    1
 -2       510       509       638      2313      2709      2710
 -1      1133    8    0    1
 -2       509       637       638      2707      2711      2709
 -1      1134    8    0    1
 -2       511       510       639      2316      2712      2713
 -1      1135    8    0    1
 -2       510       638       639      2710      2714      2712
 -1      1136    8    0    1
 -2       512       511       640      2319      2715      2716
 -1      1137    8    0    1
 -2       372       371       606      2322      2717      2718
 -1      1138    8    0    1
 -2       371       463       606      2570      2618      2717
 -1      1139    8    0    1
 -2       597       482       641      2582      2719      2720
 -1      1140    8    0    1
 -2       565       568       642      2595      2721      2722
 -1      1141    8    0    1
 -2       565       642       564      2722      2723      2476
 -1      1142    8    0    1
 -2       517       516       643      2332      2724      2725
 -1      1143    8    0    1
 -2       518       517       644      2335      2726      2727
 -1      1144    8    0    1
 -2       517       643       644      2725      2728      2726
 -1      1145    8    0    1
 -2       519       518       645      2338      2729      2730
 -1      1146    8    0    1
 -2       518       644       645      2727      2731      2729
 -1      1147    8    0    1
 -2       520       519       646      2341      2732      2733
 -1      1148    8    0    1
 -2       519       645       646      2730      2734      2732
 -1      1149    8    0    1
 -2       521       520       647      2344      2735      2736
 -1      1150    8    0    1
 -2       520       646       647      2733      2737      2735
 -1      1151    8    0    1
 -2       522       521       648      2348      2738      2739
 -1      1152    8    0    1
 -2       577       522       648      2513      2739      2740
 -1      1153    8    0    1
 -2       521       647       648      2736      2741      2738
 -1      1154    8    0    1
 -2       524       523       649      2353      2742      2743
 -1      1155    8    0    1
 -2       523       526       650      2359      2744      2745
 -1      1156    8    0    1
 -2       523       650       649      2745      2746      2742
 -1      1157    8    0    1
 -2       525       524       651      2356      2747      2748
 -1      1158    8    0    1
 -2       524       649       651      2743      2749      2747
 -1      1159    8    0    1
 -2       527       528       652      2365      2750      2751
 -1      1160    8    0    1
 -2       528       529       653      2368      2752      2753
 -1      1161    8    0    1
 -2       528       653       652      2753      2754      2750
 -1      1162    8    0    1
 -2       529       530       654      2371      2755      2756
 -1      1163    8    0    1
 -2       529       654       653      2756      2757      2752
 -1      1164    8    0    1
 -2       530       531       655      2374      2758      2759
 -1      1165    8    0    1
 -2       530       655       654      2759      2760      2755
 -1      1166    8    0    1
 -2       531       532       656      2377      2761      2762
 -1      1167    8    0    1
 -2       531       656       655      2762      2763      2758
 -1      1168    8    0    1
 -2       532       533       657      2380      2764      2765
 -1      1169    8    0    1
 -2       532       657       656      2765      2766      2761
 -1      1170    8    0    1
 -2       533       534       658      2383      2767      2768
 -1      1171    8    0    1
 -2       533       658       657      2768      2769      2764
 -1      1172    8    0    1
 -2       534       535       659      2386      2770      2771
 -1      1173    8    0    1
 -2       534       659       658      2771      2772      2767
 -1      1174    8    0    1
 -2       535       536       660      2389      2773      2774
 -1      1175    8    0    1
 -2       535       660       659      2774      2775      2770
 -1      1176    8    0    1
 -2       536       537       661      2392      2776      2777
 -1      1177    8    0    1
 -2       536       661       660      2777      2778      2773
 -1      1178    8    0    1
 -2       537       538       662      2395      2779      2780
 -1      1179    8    0    1
 -2       537       662       661      2780      2781      2776
 -1      1180    8    0    1
 -2       538       539       663      2398      2782      2783
 -1      1181    8    0    1
 -2       538       663       662      2783      2784      2779
 -1      1182    8    0    1
 -2       539       540       664      2401      2785      2786
 -1      1183    8    0    1
 -2       539       664       663      2786      2787      2782
 -1      1184    8    0    1
 -2       540       541       665      2404      2788      2789
 -1      1185    8    0    1
 -2       540       665       664      2789      2790      2785
 -1      1186    8    0    1
 -2       541       542       666      2407      2791      2792
 -1      1187    8    0    1
 -2       541       666       665      2792      2793      2788
 -1      1188    8    0    1
 -2       542       543       667      2410      2794      2795
 -1      1189    8    0    1
 -2       542       667       666      2795      2796      2791
 -1      1190    8    0    1
 -2       543       544       668      2413      2797      2798
 -1      1191    8    0    1
 -2       543       668       667      2798      2799      2794
 -1      1192    8    0    1
 -2       544       545       669      2416      2800      2801
 -1      1193    8    0    1
 -2       544       669       668      2801      2802      2797
 -1      1194    8    0    1
 -2       545       546       670      2419      2803      2804
 -1      1195    8    0    1
 -2       545       670       669      2804      2805      2800
 -1      1196    8    0    1
 -2       546       547       671      2422      2806      2807
 -1      1197    8    0    1
 -2       546       671       670      2807      2808      2803
 -1      1198    8    0    1
 -2       547       548       672      2425      2809      2810
 -1      1199    8    0    1
 -2       547       672       671      2810      2811      2806
 -1      1200    8    0    1
 -2       548       549       673      2428      2812      2813
 -1      1201    8    0    1
 -2       548       673       672      2813      2814      2809
 -1      1202    8    0    1
 -2       549       550       674      2431      2815      2816
 -1      1203    8    0    1
 -2       549       674       673      2816      2817      2812
 -1      1204    8    0    1
 -2       550       551       675      2434      2818      2819
 -1      1205    8    0    1
 -2       550       675       674      2819      2820      2815
 -1      1206    8    0    1
 -2       551       552       676      2437      2821      2822
 -1      1207    8    0    1
 -2       551       676       675      2822      2823      2818
 -1      1208    8    0    1
 -2       552       553       677      2440      2824      2825
 -1      1209    8    0    1
 -2       552       677       676      2825      2826      2821
 -1      1210    8    0    1
 -2       553       554       678      2443      2827      2828
 -1      1211    8    0    1
 -2       553       678       677      2828      2829      2824
 -1      1212    8    0    1
 -2       554       555       679      2446      2830      2831
 -1      1213    8    0    1
 -2       554       679       678      2831      2832      2827
 -1      1214    8    0    1
 -2       555       556       680      2449      2833      2834
 -1      1215    8    0    1
 -2       555       680       679      2834      2835      2830
 -1      1216    8    0    1
 -2       556       557       681      2452      2836      2837
 -1      1217    8    0    1
 -2       556       681       680      2837      2838      2833
 -1      1218    8    0    1
 -2       557       558       682      2455      2839      2840
 -1      1219    8    0    1
 -2       557       682       681      2840      2841      2836
 -1      1220    8    0    1
 -2       558       559       683      2458      2842      2843
 -1      1221    8    0    1
 -2       558       683       682      2843      2844      2839
 -1      1222    8    0    1
 -2       559       560       684      2461      2845      2846
 -1      1223    8    0    1
 -2       559       684       683      2846      2847      2842
 -1      1224    8    0    1
 -2       560       561       685      2464      2848      2849
 -1      1225    8    0    1
 -2       560       685       684      2849      2850      2845
 -1      1226    8    0    1
 -2       561       562       686      2467      2851      2852
 -1      1227    8    0    1
 -2       561       686       685      2852      2853      2848
 -1      1228    8    0    1
 -2       562       563       687      2470      2854      2855
 -1      1229    8    0    1
 -2       562       687       686      2855      2856      2851
 -1      1230    8    0    1
 -2       563       564       688      2473      2857      2858
 -1      1231    8    0    1
 -2       687       563       688      2854      2858      2859
 -1      1232    8    0    1
 -2       564       642       688      2723      2860      2857
 -1      1233    8    0    1
 -2       567       566       689      2482      2861      2862
 -1      1234    8    0    1
 -2       570       571       690      2494      2863      2864
 -1      1235    8    0    1
 -2       568       567       642      2485      2865      2721
 -1      1236    8    0    1
 -2       569       514       691      2488      2866      2867
 -1      1237    8    0    1
 -2       571       572       692      2497      2868      2869
 -1      1238    8    0    1
 -2       571       692       690      2869      2870      2863
 -1      1239    8    0    1
 -2       572       573       693      2500      2871      2872
 -1      1240    8    0    1
 -2       572       693       692      2872      2873      2868
 -1      1241    8    0    1
 -2       573       574       694      2503      2874      2875
 -1      1242    8    0    1
 -2       573       694       693      2875      2876      2871
 -1      1243    8    0    1
 -2       574       575       695      2506      2877      2878
 -1      1244    8    0    1
 -2       574       695       694      2878      2879      2874
 -1      1245    8    0    1
 -2       575       576       696      2509      2880      2881
 -1      1246    8    0    1
 -2       575       696       695      2881      2882      2877
 -1      1247    8    0    1
 -2       482       598       697      2579      2883      2884
 -1      1248    8    0    1
 -2       480       579       698      2518      2885      2886
 -1      1249    8    0    1
 -2       464       372       606      2596      2718      2617
 -1      1250    8    0    1
 -2       595       458       513      2553      2556      2887
 -1      1251    8    0    1
 -2       587       588       699      2608      2888      2889
 -1      1252    8    0    1
 -2       516       515       641      2329      2890      2891
 -1      1253    8    0    1
 -2       596       580       700      2600      2892      2893
 -1      1254    8    0    1
 -2       483       480       701      2232      2894      2895
 -1      1255    8    0    1
 -2       612       483       701      2632      2895      2896
 -1      1256    8    0    1
 -2       480       698       701      2886      2897      2894
 -1      1257    8    0    1
 -2       474       475       702      2209      2898      2899
 -1      1258    8    0    1
 -2       607       474       702      2619      2899      2900
 -1      1259    8    0    1
 -2       475       609       702      2625      2901      2898
 -1      1260    8    0    1
 -2       481       596       703      2575      2902      2903
 -1      1261    8    0    1
 -2       526       527       704      2362      2904      2905
 -1      1262    8    0    1
 -2       650       526       704      2744      2905      2906
 -1      1263    8    0    1
 -2       527       652       704      2751      2907      2904
 -1      1264    8    0    1
 -2       566       570       705      2491      2908      2909
 -1      1265    8    0    1
 -2       689       566       705      2861      2909      2910
 -1      1266    8    0    1
 -2       570       690       705      2864      2911      2908
 -1      1267    8    0    1
 -2       471       470       706      2198      2912      2913
 -1      1268    8    0    1
 -2       514       481       707      2581      2914      2915
 -1      1269    8    0    1
 -2       481       703       707      2903      2916      2914
 -1      1270    8    0    1
 -2       590       591       708      2615      2917      2918
 -1      1271    8    0    1
 -2       584       583       709      2611      2919      2920
 -1      1272    8    0    1
 -2       585       586       710      2610      2921      2922
 -1      1273    8    0    1
 -2       586       587       711      2609      2923      2924
 -1      1274    8    0    1
 -2       588       589       712      2542      2925      2926
 -1      1275    8    0    1
 -2       589       590       713      2607      2927      2928
 -1      1276    8    0    1
 -2       591       592       714      2606      2929      2930
 -1      1277    8    0    1
 -2       592       593       715      2605      2931      2932
 -1      1278    8    0    1
 -2       592       715       714      2932      2933      2929
 -1      1279    8    0    1
 -2       595       513       512      2887      2584      2934
 -1      1280    8    0    1
 -2       460       369       603      2571      2935      2616
 -1      1281    8    0    1
 -2       579       444       698      2590      2936      2885
 -1      1282    8    0    1
 -2       580       584       716      2580      2937      2938
 -1      1283    8    0    1
 -2       584       709       716      2920      2939      2937
 -1      1284    8    0    1
 -2       369       368       603      2157      2598      2935
 -1      1285    8    0    1
 -2       472       608       717      2622      2940      2941
 -1      1286    8    0    1
 -2       472       717       582      2941      2942      2527
 -1      1287    8    0    1
 -2       478       611       477      2630      2943      2218
 -1      1288    8    0    1
 -2       715       593       718      2931      2944      2945
 -1      1289    8    0    1
 -2       593       604       718      2603      2946      2944
 -1      1290    8    0    1
 -2       511       639       640      2713      2947      2715
 -1      1291    8    0    1
 -2       641       515       597      2890      2948      2720
 -1      1292    8    0    1
 -2       569       691       719      2867      2949      2950
 -1      1293    8    0    1
 -2       569       719       601      2950      2951      2586
 -1      1294    8    0    1
 -2       581       578       515      2585      2952      2599
 -1      1295    8    0    1
 -2       567       689       642      2862      2953      2865
 -1      1296    8    0    1
 -2       643       516       641      2724      2891      2954
 -1      1297    8    0    1
 -2       515       578       597      2952      2589      2948
 -1      1298    8    0    1
 -2       599       471       720      2572      2955      2956
 -1      1299    8    0    1
 -2       471       706       720      2913      2957      2955
 -1      1300    8    0    1
 -2       691       514       707      2866      2915      2958
 -1      1301    8    0    1
 -2       482       697       641      2884      2959      2719
 -1      1302    8    0    1
 -2       697       598       721      2883      2960      2961
 -1      1303    8    0    1
 -2       598       601       721      2588      2962      2960
 -1      1304    8    0    1
 -2       576       577       722      2512      2963      2964
 -1      1305    8    0    1
 -2       696       576       722      2880      2964      2965
 -1      1306    8    0    1
 -2       577       648       722      2740      2966      2963
 -1      1307    8    0    1
 -2       525       651       723      2748      2967      2968
 -1      1308    8    0    1
 -2       602       525       723      2594      2968      2969
 -1      1309    8    0    1
 -2       595       512       594      2934      2970      2601
 -1      1310    8    0    1
 -2       713       590       708      2927      2918      2971
 -1      1311    8    0    1
 -2       712       589       713      2925      2928      2972
 -1      1312    8    0    1
 -2       700       580       716      2892      2938      2973
 -1      1313    8    0    1
 -2       699       588       712      2888      2926      2974
 -1      1314    8    0    1
 -2       604       594       640      2604      2975      2976
 -1      1315    8    0    1
 -2       711       587       699      2923      2889      2977
 -1      1316    8    0    1
 -2       610       477       611      2626      2943      2978
 -1      1317    8    0    1
 -2       596       700       703      2893      2979      2902
 -1      1318    8    0    1
 -2       710       586       711      2921      2924      2980
 -1      1319    8    0    1
 -2       709       583       724      2919      2981      2982
 -1      1320    8    0    1
 -2       583       605       724      2613      2983      2981
 -1      1321    8    0    1
 -2       470       582       725      2526      2984      2985
 -1      1322    8    0    1
 -2       706       470       725      2912      2985      2986
 -1      1323    8    0    1
 -2       582       717       725      2942      2987      2984
 -1      1324    8    0    1
 -2       605       585       710      2614      2922      2988
 -1      1325    8    0    1
 -2       708       591       714      2917      2930      2989
 -1      1326    8    0    1
 -2       698       444       599      2936      2574      2990
 -1      1327    8    0    1
 -2       594       512       640      2970      2716      2975
 -1      1328    8    0    1
 -2       609       610       726      2628      2991      2992
 -1      1329    8    0    1
 -2       611       600       602      2631      2593      2993
 -1      1330    8    0    1
 -2       614       613       727      2639      2994      2995
 -1      1331    8    0    1
 -2       615       614       728      2642      2996      2997
 -1      1332    8    0    1
 -2       614       727       728      2995      2998      2996
 -1      1333    8    0    1
 -2       616       615       729      2645      2999      3000
 -1      1334    8    0    1
 -2       615       728       729      2997      3001      2999
 -1      1335    8    0    1
 -2       617       616       730      2648      3002      3003
 -1      1336    8    0    1
 -2       616       729       730      3000      3004      3002
 -1      1337    8    0    1
 -2       618       617       731      2651      3005      3006
 -1      1338    8    0    1
 -2       617       730       731      3003      3007      3005
 -1      1339    8    0    1
 -2       619       618       732      2654      3008      3009
 -1      1340    8    0    1
 -2       618       731       732      3006      3010      3008
 -1      1341    8    0    1
 -2       620       619       733      2657      3011      3012
 -1      1342    8    0    1
 -2       619       732       733      3009      3013      3011
 -1      1343    8    0    1
 -2       621       620       734      2660      3014      3015
 -1      1344    8    0    1
 -2       620       733       734      3012      3016      3014
 -1      1345    8    0    1
 -2       622       621       735      2663      3017      3018
 -1      1346    8    0    1
 -2       621       734       735      3015      3019      3017
 -1      1347    8    0    1
 -2       623       622       736      2666      3020      3021
 -1      1348    8    0    1
 -2       622       735       736      3018      3022      3020
 -1      1349    8    0    1
 -2       624       623       737      2669      3023      3024
 -1      1350    8    0    1
 -2       623       736       737      3021      3025      3023
 -1      1351    8    0    1
 -2       625       624       738      2672      3026      3027
 -1      1352    8    0    1
 -2       624       737       738      3024      3028      3026
 -1      1353    8    0    1
 -2       626       625       739      2675      3029      3030
 -1      1354    8    0    1
 -2       625       738       739      3027      3031      3029
 -1      1355    8    0    1
 -2       627       626       740      2678      3032      3033
 -1      1356    8    0    1
 -2       626       739       740      3030      3034      3032
 -1      1357    8    0    1
 -2       628       627       741      2681      3035      3036
 -1      1358    8    0    1
 -2       627       740       741      3033      3037      3035
 -1      1359    8    0    1
 -2       629       628       742      2684      3038      3039
 -1      1360    8    0    1
 -2       628       741       742      3036      3040      3038
 -1      1361    8    0    1
 -2       630       629       743      2687      3041      3042
 -1      1362    8    0    1
 -2       629       742       743      3039      3043      3041
 -1      1363    8    0    1
 -2       631       630       744      2690      3044      3045
 -1      1364    8    0    1
 -2       630       743       744      3042      3046      3044
 -1      1365    8    0    1
 -2       632       631       745      2693      3047      3048
 -1      1366    8    0    1
 -2       631       744       745      3045      3049      3047
 -1      1367    8    0    1
 -2       633       632       746      2696      3050      3051
 -1      1368    8    0    1
 -2       632       745       746      3048      3052      3050
 -1      1369    8    0    1
 -2       634       633       747      2699      3053      3054
 -1      1370    8    0    1
 -2       633       746       747      3051      3055      3053
 -1      1371    8    0    1
 -2       635       634       748      2702      3056      3057
 -1      1372    8    0    1
 -2       634       747       748      3054      3058      3056
 -1      1373    8    0    1
 -2       636       635       749      2705      3059      3060
 -1      1374    8    0    1
 -2       635       748       749      3057      3061      3059
 -1      1375    8    0    1
 -2       637       636       750      2708      3062      3063
 -1      1376    8    0    1
 -2       636       749       750      3060      3064      3062
 -1      1377    8    0    1
 -2       638       637       751      2711      3065      3066
 -1      1378    8    0    1
 -2       637       750       751      3063      3067      3065
 -1      1379    8    0    1
 -2       644       643       752      2728      3068      3069
 -1      1380    8    0    1
 -2       645       644       753      2731      3070      3071
 -1      1381    8    0    1
 -2       644       752       753      3069      3072      3070
 -1      1382    8    0    1
 -2       646       645       754      2734      3073      3074
 -1      1383    8    0    1
 -2       645       753       754      3071      3075      3073
 -1      1384    8    0    1
 -2       647       646       755      2737      3076      3077
 -1      1385    8    0    1
 -2       646       754       755      3074      3078      3076
 -1      1386    8    0    1
 -2       649       650       756      2746      3079      3080
 -1      1387    8    0    1
 -2       651       649       757      2749      3081      3082
 -1      1388    8    0    1
 -2       649       756       757      3080      3083      3081
 -1      1389    8    0    1
 -2       653       654       758      2757      3084      3085
 -1      1390    8    0    1
 -2       652       653       759      2754      3086      3087
 -1      1391    8    0    1
 -2       653       758       759      3085      3088      3086
 -1      1392    8    0    1
 -2       655       656       760      2763      3089      3090
 -1      1393    8    0    1
 -2       656       657       761      2766      3091      3092
 -1      1394    8    0    1
 -2       656       761       760      3092      3093      3089
 -1      1395    8    0    1
 -2       657       658       762      2769      3094      3095
 -1      1396    8    0    1
 -2       657       762       761      3095      3096      3091
 -1      1397    8    0    1
 -2       658       659       763      2772      3097      3098
 -1      1398    8    0    1
 -2       658       763       762      3098      3099      3094
 -1      1399    8    0    1
 -2       659       660       764      2775      3100      3101
 -1      1400    8    0    1
 -2       659       764       763      3101      3102      3097
 -1      1401    8    0    1
 -2       660       661       765      2778      3103      3104
 -1      1402    8    0    1
 -2       660       765       764      3104      3105      3100
 -1      1403    8    0    1
 -2       661       662       766      2781      3106      3107
 -1      1404    8    0    1
 -2       661       766       765      3107      3108      3103
 -1      1405    8    0    1
 -2       662       663       767      2784      3109      3110
 -1      1406    8    0    1
 -2       662       767       766      3110      3111      3106
 -1      1407    8    0    1
 -2       663       664       768      2787      3112      3113
 -1      1408    8    0    1
 -2       663       768       767      3113      3114      3109
 -1      1409    8    0    1
 -2       664       665       769      2790      3115      3116
 -1      1410    8    0    1
 -2       664       769       768      3116      3117      3112
 -1      1411    8    0    1
 -2       665       666       770      2793      3118      3119
 -1      1412    8    0    1
 -2       665       770       769      3119      3120      3115
 -1      1413    8    0    1
 -2       666       667       771      2796      3121      3122
 -1      1414    8    0    1
 -2       666       771       770      3122      3123      3118
 -1      1415    8    0    1
 -2       667       668       772      2799      3124      3125
 -1      1416    8    0    1
 -2       667       772       771      3125      3126      3121
 -1      1417    8    0    1
 -2       668       669       773      2802      3127      3128
 -1      1418    8    0    1
 -2       668       773       772      3128      3129      3124
 -1      1419    8    0    1
 -2       669       670       774      2805      3130      3131
 -1      1420    8    0    1
 -2       669       774       773      3131      3132      3127
 -1      1421    8    0    1
 -2       670       671       775      2808      3133      3134
 -1      1422    8    0    1
 -2       670       775       774      3134      3135      3130
 -1      1423    8    0    1
 -2       671       672       776      2811      3136      3137
 -1      1424    8    0    1
 -2       671       776       775      3137      3138      3133
 -1      1425    8    0    1
 -2       672       673       777      2814      3139      3140
 -1      1426    8    0    1
 -2       672       777       776      3140      3141      3136
 -1      1427    8    0    1
 -2       673       674       778      2817      3142      3143
 -1      1428    8    0    1
 -2       673       778       777      3143      3144      3139
 -1      1429    8    0    1
 -2       674       675       779      2820      3145      3146
 -1      1430    8    0    1
 -2       674       779       778      3146      3147      3142
 -1      1431    8    0    1
 -2       675       676       780      2823      3148      3149
 -1      1432    8    0    1
 -2       675       780       779      3149      3150      3145
 -1      1433    8    0    1
 -2       676       677       781      2826      3151      3152
 -1      1434    8    0    1
 -2       676       781       780      3152      3153      3148
 -1      1435    8    0    1
 -2       677       678       782      2829      3154      3155
 -1      1436    8    0    1
 -2       677       782       781      3155      3156      3151
 -1      1437    8    0    1
 -2       678       679       783      2832      3157      3158
 -1      1438    8    0    1
 -2       678       783       782      3158      3159      3154
 -1      1439    8    0    1
 -2       679       680       784      2835      3160      3161
 -1      1440    8    0    1
 -2       679       784       783      3161      3162      3157
 -1      1441    8    0    1
 -2       680       681       785      2838      3163      3164
 -1      1442    8    0    1
 -2       680       785       784      3164      3165      3160
 -1      1443    8    0    1
 -2       681       682       786      2841      3166      3167
 -1      1444    8    0    1
 -2       681       786       785      3167      3168      3163
 -1      1445    8    0    1
 -2       682       683       787      2844      3169      3170
 -1      1446    8    0    1
 -2       682       787       786      3170      3171      3166
 -1      1447    8    0    1
 -2       683       684       788      2847      3172      3173
 -1      1448    8    0    1
 -2       683       788       787      3173      3174      3169
 -1      1449    8    0    1
 -2       684       685       789      2850      3175      3176
 -1      1450    8    0    1
 -2       684       789       788      3176      3177      3172
 -1      1451    8    0    1
 -2       685       686       790      2853      3178      3179
 -1      1452    8    0    1
 -2       685       790       789      3179      3180      3175
 -1      1453    8    0    1
 -2       686       687       791      2856      3181      3182
 -1      1454    8    0    1
 -2       686       791       790      3182      3183      3178
 -1      1455    8    0    1
 -2       692       693       792      2873      3184      3185
 -1      1456    8    0    1
 -2       691       707       793      2958      3186      3187
 -1      1457    8    0    1
 -2       643       641       794      2954      3188      3189
 -1      1458    8    0    1
 -2       752       643       794      3068      3189      3190
 -1      1459    8    0    1
 -2       641       697       794      2959      3191      3188
 -1      1460    8    0    1
 -2       690       692       795      2870      3192      3193
 -1      1461    8    0    1
 -2       692       792       795      3185      3194      3192
 -1      1462    8    0    1
 -2       694       695       796      2879      3195      3196
 -1      1463    8    0    1
 -2       695       696       797      2882      3197      3198
 -1      1464    8    0    1
 -2       695       797       796      3198      3199      3195
 -1      1465    8    0    1
 -2       602       723       611      2969      3200      2993
 -1      1466    8    0    1
 -2       642       689       798      2953      3201      3202
 -1      1467    8    0    1
 -2       642       798       688      3202      3203      2860
 -1      1468    8    0    1
 -2       605       710       799      2988      3204      3205
 -1      1469    8    0    1
 -2       711       699       800      2977      3206      3207
 -1      1470    8    0    1
 -2       699       712       801      2974      3208      3209
 -1      1471    8    0    1
 -2       693       694       802      2876      3210      3211
 -1      1472    8    0    1
 -2       792       693       802      3184      3211      3212
 -1      1473    8    0    1
 -2       694       796       802      3196      3213      3210
 -1      1474    8    0    1
 -2       654       655       803      2760      3214      3215
 -1      1475    8    0    1
 -2       758       654       803      3084      3215      3216
 -1      1476    8    0    1
 -2       655       760       803      3090      3217      3214
 -1      1477    8    0    1
 -2       613       612       804      2636      3218      3219
 -1      1478    8    0    1
 -2       613       804       727      3219      3220      2994
 -1      1479    8    0    1
 -2       703       700       805      2979      3221      3222
 -1      1480    8    0    1
 -2       707       703       806      2916      3223      3224
 -1      1481    8    0    1
 -2       703       805       806      3222      3225      3223
 -1      1482    8    0    1
 -2       713       708       807      2971      3226      3227
 -1      1483    8    0    1
 -2       608       607       808      2623      3228      3229
 -1      1484    8    0    1
 -2       708       714       809      2989      3230      3231
 -1      1485    8    0    1
 -2       604       640       639      2976      2947      3232
 -1      1486    8    0    1
 -2       700       716       810      2973      3233      3234
 -1      1487    8    0    1
 -2       710       711       811      2980      3235      3236
 -1      1488    8    0    1
 -2       698       599       720      2990      2956      3237
 -1      1489    8    0    1
 -2       714       715       812      2933      3238      3239
 -1      1490    8    0    1
 -2       610       611       723      2978      3200      3240
 -1      1491    8    0    1
 -2       712       713       813      2972      3241      3242
 -1      1492    8    0    1
 -2       716       709       814      2939      3243      3244
 -1      1493    8    0    1
 -2       716       814       810      3244      3245      3233
 -1      1494    8    0    1
 -2       604       639       718      3232      3246      2946
 -1      1495    8    0    1
 -2       610       723       726      3240      3247      2991
 -1      1496    8    0    1
 -2       726       723       651      3247      2967      3248
 -1      1497    8    0    1
 -2       713       807       813      3227      3249      3241
 -1      1498    8    0    1
 -2       715       718       815      2945      3250      3251
 -1      1499    8    0    1
 -2       715       815       812      3251      3252      3238
 -1      1500    8    0    1
 -2       702       609       816      2901      3253      3254
 -1      1501    8    0    1
 -2       609       726       816      2992      3255      3253
 -1      1502    8    0    1
 -2       639       638       817      2714      3256      3257
 -1      1503    8    0    1
 -2       714       812       809      3239      3258      3230
 -1      1504    8    0    1
 -2       719       691       818      2949      3259      3260
 -1      1505    8    0    1
 -2       691       793       818      3187      3261      3259
 -1      1506    8    0    1
 -2       756       650       819      3079      3262      3263
 -1      1507    8    0    1
 -2       650       704       819      2906      3264      3262
 -1      1508    8    0    1
 -2       648       647       820      2741      3265      3266
 -1      1509    8    0    1
 -2       722       648       820      2966      3266      3267
 -1      1510    8    0    1
 -2       647       755       820      3077      3268      3265
 -1      1511    8    0    1
 -2       705       690       821      2911      3269      3270
 -1      1512    8    0    1
 -2       690       795       821      3193      3271      3269
 -1      1513    8    0    1
 -2       651       757       726      3082      3272      3248
 -1      1514    8    0    1
 -2       804       612       822      3218      3273      3274
 -1      1515    8    0    1
 -2       612       701       822      2896      3275      3273
 -1      1516    8    0    1
 -2       652       759       823      3087      3276      3277
 -1      1517    8    0    1
 -2       652       823       704      3277      3278      2907
 -1      1518    8    0    1
 -2       687       688       824      2859      3279      3280
 -1      1519    8    0    1
 -2       791       687       824      3181      3280      3281
 -1      1520    8    0    1
 -2       688       798       824      3203      3282      3279
 -1      1521    8    0    1
 -2       793       707       806      3186      3224      3283
 -1      1522    8    0    1
 -2       605       799       724      3205      3284      2983
 -1      1523    8    0    1
 -2       689       705       825      2910      3285      3286
 -1      1524    8    0    1
 -2       798       689       825      3201      3286      3287
 -1      1525    8    0    1
 -2       705       821       825      3270      3288      3285
 -1      1526    8    0    1
 -2       712       813       801      3242      3289      3208
 -1      1527    8    0    1
 -2       800       699       801      3206      3209      3290
 -1      1528    8    0    1
 -2       721       601       826      2962      3291      3292
 -1      1529    8    0    1
 -2       601       719       826      2951      3293      3291
 -1      1530    8    0    1
 -2       607       702       827      2900      3294      3295
 -1      1531    8    0    1
 -2       808       607       827      3228      3295      3296
 -1      1532    8    0    1
 -2       702       816       827      3254      3297      3294
 -1      1533    8    0    1
 -2       701       698       720      2897      3237      3298
 -1      1534    8    0    1
 -2       697       721       794      2961      3299      3191
 -1      1535    8    0    1
 -2       720       706       828      2957      3300      3301
 -1      1536    8    0    1
 -2       799       710       829      3204      3302      3303
 -1      1537    8    0    1
 -2       710       811       829      3236      3304      3302
 -1      1538    8    0    1
 -2       814       709       830      3243      3305      3306
 -1      1539    8    0    1
 -2       709       724       830      2982      3307      3305
 -1      1540    8    0    1
 -2       696       722       820      2965      3267      3308
 -1      1541    8    0    1
 -2       811       711       800      3235      3207      3309
 -1      1542    8    0    1
 -2       805       700       831      3221      3310      3311
 -1      1543    8    0    1
 -2       700       810       831      3234      3312      3310
 -1      1544    8    0    1
 -2       807       708       809      3226      3231      3313
 -1      1545    8    0    1
 -2       608       808       832      3229      3314      3315
 -1      1546    8    0    1
 -2       608       832       717      3315      3316      2940
 -1      1547    8    0    1
 -2       638       751       817      3066      3317      3256
 -1      1548    8    0    1
 -2       706       725       833      2986      3318      3319
 -1      1549    8    0    1
 -2       706       833       828      3319      3320      3300
 -1      1550    8    0    1
 -2       696       820       834      3308      3321      3322
 -1      1551    8    0    1
 -2       797       696       834      3197      3322      3323
 -1      1552    8    0    1
 -2       820       755       834      3268      3324      3321
 -1      1553    8    0    1
 -2       793       806       835      3283      3325      3326
 -1      1554    8    0    1
 -2       727       804       836      3220      3327      3328
 -1      1555    8    0    1
 -2       729       728       837      3001      3329      3330
 -1      1556    8    0    1
 -2       730       729       838      3004      3331      3332
 -1      1557    8    0    1
 -2       729       837       838      3330      3333      3331
 -1      1558    8    0    1
 -2       731       730       839      3007      3334      3335
 -1      1559    8    0    1
 -2       730       838       839      3332      3336      3334
 -1      1560    8    0    1
 -2       732       731       840      3010      3337      3338
 -1      1561    8    0    1
 -2       731       839       840      3335      3339      3337
 -1      1562    8    0    1
 -2       733       732       841      3013      3340      3341
 -1      1563    8    0    1
 -2       732       840       841      3338      3342      3340
 -1      1564    8    0    1
 -2       734       733       842      3016      3343      3344
 -1      1565    8    0    1
 -2       733       841       842      3341      3345      3343
 -1      1566    8    0    1
 -2       735       734       843      3019      3346      3347
 -1      1567    8    0    1
 -2       734       842       843      3344      3348      3346
 -1      1568    8    0    1
 -2       736       735       844      3022      3349      3350
 -1      1569    8    0    1
 -2       735       843       844      3347      3351      3349
 -1      1570    8    0    1
 -2       737       736       845      3025      3352      3353
 -1      1571    8    0    1
 -2       736       844       845      3350      3354      3352
 -1      1572    8    0    1
 -2       738       737       846      3028      3355      3356
 -1      1573    8    0    1
 -2       737       845       846      3353      3357      3355
 -1      1574    8    0    1
 -2       739       738       847      3031      3358      3359
 -1      1575    8    0    1
 -2       738       846       847      3356      3360      3358
 -1      1576    8    0    1
 -2       740       739       848      3034      3361      3362
 -1      1577    8    0    1
 -2       739       847       848      3359      3363      3361
 -1      1578    8    0    1
 -2       741       740       849      3037      3364      3365
 -1      1579    8    0    1
 -2       740       848       849      3362      3366      3364
 -1      1580    8    0    1
 -2       742       741       850      3040      3367      3368
 -1      1581    8    0    1
 -2       741       849       850      3365      3369      3367
 -1      1582    8    0    1
 -2       743       742       851      3043      3370      3371
 -1      1583    8    0    1
 -2       742       850       851      3368      3372      3370
 -1      1584    8    0    1
 -2       744       743       852      3046      3373      3374
 -1      1585    8    0    1
 -2       743       851       852      3371      3375      3373
 -1      1586    8    0    1
 -2       745       744       853      3049      3376      3377
 -1      1587    8    0    1
 -2       744       852       853      3374      3378      3376
 -1      1588    8    0    1
 -2       746       745       854      3052      3379      3380
 -1      1589    8    0    1
 -2       745       853       854      3377      3381      3379
 -1      1590    8    0    1
 -2       747       746       855      3055      3382      3383
 -1      1591    8    0    1
 -2       746       854       855      3380      3384      3382
 -1      1592    8    0    1
 -2       748       747       856      3058      3385      3386
 -1      1593    8    0    1
 -2       747       855       856      3383      3387      3385
 -1      1594    8    0    1
 -2       749       748       857      3061      3388      3389
 -1      1595    8    0    1
 -2       748       856       857      3386      3390      3388
 -1      1596    8    0    1
 -2       750       749       858      3064      3391      3392
 -1      1597    8    0    1
 -2       749       857       858      3389      3393      3391
 -1      1598    8    0    1
 -2       751       750       859      3067      3394      3395
 -1      1599    8    0    1
 -2       750       858       859      3392      3396      3394
 -1      1600    8    0    1
 -2       795       792       860      3194      3397      3398
 -1      1601    8    0    1
 -2       809       812       861      3258      3399      3400
 -1      1602    8    0    1
 -2       801       813       862      3289      3401      3402
 -1      1603    8    0    1
 -2       728       727       863      2998      3403      3404
 -1      1604    8    0    1
 -2       727       836       863      3328      3405      3403
 -1      1605    8    0    1
 -2       754       753       864      3075      3406      3407
 -1      1606    8    0    1
 -2       755       754       865      3078      3408      3409
 -1      1607    8    0    1
 -2       834       755       865      3324      3409      3410
 -1      1608    8    0    1
 -2       754       864       865      3407      3411      3408
 -1      1609    8    0    1
 -2       761       762       866      3096      3412      3413
 -1      1610    8    0    1
 -2       760       761       867      3093      3414      3415
 -1      1611    8    0    1
 -2       761       866       867      3413      3416      3414
 -1      1612    8    0    1
 -2       763       764       868      3102      3417      3418
 -1      1613    8    0    1
 -2       764       765       869      3105      3419      3420
 -1      1614    8    0    1
 -2       764       869       868      3420      3421      3417
 -1      1615    8    0    1
 -2       765       766       870      3108      3422      3423
 -1      1616    8    0    1
 -2       765       870       869      3423      3424      3419
 -1      1617    8    0    1
 -2       766       767       871      3111      3425      3426
 -1      1618    8    0    1
 -2       766       871       870      3426      3427      3422
 -1      1619    8    0    1
 -2       767       768       872      3114      3428      3429
 -1      1620    8    0    1
 -2       767       872       871      3429      3430      3425
 -1      1621    8    0    1
 -2       768       769       873      3117      3431      3432
 -1      1622    8    0    1
 -2       768       873       872      3432      3433      3428
 -1      1623    8    0    1
 -2       769       770       874      3120      3434      3435
 -1      1624    8    0    1
 -2       769       874       873      3435      3436      3431
 -1      1625    8    0    1
 -2       770       771       875      3123      3437      3438
 -1      1626    8    0    1
 -2       770       875       874      3438      3439      3434
 -1      1627    8    0    1
 -2       771       772       876      3126      3440      3441
 -1      1628    8    0    1
 -2       771       876       875      3441      3442      3437
 -1      1629    8    0    1
 -2       772       773       877      3129      3443      3444
 -1      1630    8    0    1
 -2       772       877       876      3444      3445      3440
 -1      1631    8    0    1
 -2       773       774       878      3132      3446      3447
 -1      1632    8    0    1
 -2       773       878       877      3447      3448      3443
 -1      1633    8    0    1
 -2       774       775       879      3135      3449      3450
 -1      1634    8    0    1
 -2       774       879       878      3450      3451      3446
 -1      1635    8    0    1
 -2       775       776       880      3138      3452      3453
 -1      1636    8    0    1
 -2       775       880       879      3453      3454      3449
 -1      1637    8    0    1
 -2       776       777       881      3141      3455      3456
 -1      1638    8    0    1
 -2       776       881       880      3456      3457      3452
 -1      1639    8    0    1
 -2       777       778       882      3144      3458      3459
 -1      1640    8    0    1
 -2       777       882       881      3459      3460      3455
 -1      1641    8    0    1
 -2       778       779       883      3147      3461      3462
 -1      1642    8    0    1
 -2       778       883       882      3462      3463      3458
 -1      1643    8    0    1
 -2       779       780       884      3150      3464      3465
 -1      1644    8    0    1
 -2       779       884       883      3465      3466      3461
 -1      1645    8    0    1
 -2       780       781       885      3153      3467      3468
 -1      1646    8    0    1
 -2       780       885       884      3468      3469      3464
 -1      1647    8    0    1
 -2       781       782       886      3156      3470      3471
 -1      1648    8    0    1
 -2       781       886       885      3471      3472      3467
 -1      1649    8    0    1
 -2       782       783       887      3159      3473      3474
 -1      1650    8    0    1
 -2       782       887       886      3474      3475      3470
 -1      1651    8    0    1
 -2       783       784       829      3162      3476      3477
 -1      1652    8    0    1
 -2       785       786       888      3168      3478      3479
 -1      1653    8    0    1
 -2       786       787       889      3171      3480      3481
 -1      1654    8    0    1
 -2       786       889       888      3481      3482      3478
 -1      1655    8    0    1
 -2       787       788       890      3174      3483      3484
 -1      1656    8    0    1
 -2       787       890       889      3484      3485      3480
 -1      1657    8    0    1
 -2       788       789       891      3177      3486      3487
 -1      1658    8    0    1
 -2       788       891       890      3487      3488      3483
 -1      1659    8    0    1
 -2       789       790       892      3180      3489      3490
 -1      1660    8    0    1
 -2       789       892       891      3490      3491      3486
 -1      1661    8    0    1
 -2       790       791       893      3183      3492      3493
 -1      1662    8    0    1
 -2       790       893       892      3493      3494      3489
 -1      1663    8    0    1
 -2       796       797       894      3199      3495      3496
 -1      1664    8    0    1
 -2       813       807       895      3249      3497      3498
 -1      1665    8    0    1
 -2       639       817       718      3257      3499      3246
 -1      1666    8    0    1
 -2       806       805       896      3225      3500      3501
 -1      1667    8    0    1
 -2       806       896       835      3501      3502      3325
 -1      1668    8    0    1
 -2       724       799       897      3284      3503      3504
 -1      1669    8    0    1
 -2       724       897       830      3504      3505      3307
 -1      1670    8    0    1
 -2       800       801       898      3290      3506      3507
 -1      1671    8    0    1
 -2       811       800       899      3309      3508      3509
 -1      1672    8    0    1
 -2       725       717       900      2987      3510      3511
 -1      1673    8    0    1
 -2       725       900       833      3511      3512      3318
 -1      1674    8    0    1
 -2       720       828       822      3301      3513      3514
 -1      1675    8    0    1
 -2       762       763       901      3099      3515      3516
 -1      1676    8    0    1
 -2       866       762       901      3412      3516      3517
 -1      1677    8    0    1
 -2       763       868       901      3418      3518      3515
 -1      1678    8    0    1
 -2       726       757       902      3272      3519      3520
 -1      1679    8    0    1
 -2       726       902       816      3520      3521      3255
 -1      1680    8    0    1
 -2       759       758       903      3088      3522      3523
 -1      1681    8    0    1
 -2       794       721       904      3299      3524      3525
 -1      1682    8    0    1
 -2       721       826       904      3292      3526      3524
 -1      1683    8    0    1
 -2       757       756       902      3083      3527      3519
 -1      1684    8    0    1
 -2       701       720       822      3298      3514      3275
 -1      1685    8    0    1
 -2       807       809       905      3313      3528      3529
 -1      1686    8    0    1
 -2       807       905       895      3529      3530      3497
 -1      1687    8    0    1
 -2       810       814       906      3245      3531      3532
 -1      1688    8    0    1
 -2       718       817       815      3499      3533      3250
 -1      1689    8    0    1
 -2       759       903       907      3523      3534      3535
 -1      1690    8    0    1
 -2       759       907       823      3535      3536      3276
 -1      1691    8    0    1
 -2       828       833       908      3320      3537      3538
 -1      1692    8    0    1
 -2       795       860       909      3398      3539      3540
 -1      1693    8    0    1
 -2       795       909       821      3540      3541      3271
 -1      1694    8    0    1
 -2       860       792       910      3397      3542      3543
 -1      1695    8    0    1
 -2       792       802       910      3212      3544      3542
 -1      1696    8    0    1
 -2       809       861       911      3400      3545      3546
 -1      1697    8    0    1
 -2       809       911       905      3546      3547      3528
 -1      1698    8    0    1
 -2       801       862       898      3402      3548      3506
 -1      1699    8    0    1
 -2       818       793       912      3261      3549      3550
 -1      1700    8    0    1
 -2       793       835       912      3326      3551      3549
 -1      1701    8    0    1
 -2       819       704       823      3264      3278      3552
 -1      1702    8    0    1
 -2       728       863       837      3404      3553      3329
 -1      1703    8    0    1
 -2       824       798       913      3282      3554      3555
 -1      1704    8    0    1
 -2       798       825       913      3287      3556      3554
 -1      1705    8    0    1
 -2       760       867       914      3415      3557      3558
 -1      1706    8    0    1
 -2       760       914       803      3558      3559      3217
 -1      1707    8    0    1
 -2       829       784       915      3476      3560      3561
 -1      1708    8    0    1
 -2       799       829       915      3303      3561      3562
 -1      1709    8    0    1
 -2       784       785       915      3165      3563      3560
 -1      1710    8    0    1
 -2       785       888       915      3479      3564      3563
 -1      1711    8    0    1
 -2       796       894       916      3496      3565      3566
 -1      1712    8    0    1
 -2       796       916       802      3566      3567      3213
 -1      1713    8    0    1
 -2       893       791       824      3492      3281      3568
 -1      1714    8    0    1
 -2       758       803       917      3216      3569      3570
 -1      1715    8    0    1
 -2       903       758       917      3522      3570      3571
 -1      1716    8    0    1
 -2       803       914       917      3559      3572      3569
 -1      1717    8    0    1
 -2       899       800       898      3508      3507      3573
 -1      1718    8    0    1
 -2       799       915       897      3562      3574      3503
 -1      1719    8    0    1
 -2       900       717       832      3510      3316      3575
 -1      1720    8    0    1
 -2       810       906       831      3532      3576      3312
 -1      1721    8    0    1
 -2       756       819       918      3263      3577      3578
 -1      1722    8    0    1
 -2       752       794       904      3190      3525      3579
 -1      1723    8    0    1
 -2       813       895       862      3498      3580      3401
 -1      1724    8    0    1
 -2       826       719       919      3293      3581      3582
 -1      1725    8    0    1
 -2       719       818       919      3260      3583      3581
 -1      1726    8    0    1
 -2       829       811       887      3304      3584      3585
 -1      1727    8    0    1
 -2       797       834       865      3323      3410      3586
 -1      1728    8    0    1
 -2       861       812       815      3399      3252      3587
 -1      1729    8    0    1
 -2       756       918       902      3578      3588      3527
 -1      1730    8    0    1
 -2       805       831       920      3311      3589      3590
 -1      1731    8    0    1
 -2       805       920       896      3590      3591      3500
 -1      1732    8    0    1
 -2       808       827       921      3296      3592      3593
 -1      1733    8    0    1
 -2       822       828       922      3513      3594      3595
 -1      1734    8    0    1
 -2       804       822       922      3274      3595      3596
 -1      1735    8    0    1
 -2       828       908       922      3538      3597      3594
 -1      1736    8    0    1
 -2       832       808       923      3314      3598      3599
 -1      1737    8    0    1
 -2       808       921       923      3593      3600      3598
 -1      1738    8    0    1
 -2       836       804       922      3327      3596      3601
 -1      1739    8    0    1
 -2       814       830       906      3306      3602      3531
 -1      1740    8    0    1
 -2       753       752       924      3072      3603      3604
 -1      1741    8    0    1
 -2       817       751       925      3317      3605      3606
 -1      1742    8    0    1
 -2       752       904       924      3579      3607      3603
 -1      1743    8    0    1
 -2       797       865       894      3586      3608      3495
 -1      1744    8    0    1
 -2       925       751       859      3605      3395      3609
 -1      1745    8    0    1
 -2       753       924       864      3604      3610      3406
 -1      1746    8    0    1
 -2       816       902       926      3521      3611      3612
 -1      1747    8    0    1
 -2       816       926       827      3612      3613      3297
 -1      1748    8    0    1
 -2       908       833       927      3537      3614      3615
 -1      1749    8    0    1
 -2       833       900       927      3512      3616      3614
 -1      1750    8    0    1
 -2       864       924       928      3610      3617      3618
 -1      1751    8    0    1
 -2       839       838       929      3336      3619      3620
 -1      1752    8    0    1
 -2       840       839       930      3339      3621      3622
 -1      1753    8    0    1
 -2       839       929       930      3620      3623      3621
 -1      1754    8    0    1
 -2       841       840       931      3342      3624      3625
 -1      1755    8    0    1
 -2       840       930       931      3622      3626      3624
 -1      1756    8    0    1
 -2       842       841       932      3345      3627      3628
 -1      1757    8    0    1
 -2       841       931       932      3625      3629      3627
 -1      1758    8    0    1
 -2       843       842       933      3348      3630      3631
 -1      1759    8    0    1
 -2       842       932       933      3628      3632      3630
 -1      1760    8    0    1
 -2       844       843       934      3351      3633      3634
 -1      1761    8    0    1
 -2       843       933       934      3631      3635      3633
 -1      1762    8    0    1
 -2       845       844       935      3354      3636      3637
 -1      1763    8    0    1
 -2       844       934       935      3634      3638      3636
 -1      1764    8    0    1
 -2       846       845       936      3357      3639      3640
 -1      1765    8    0    1
 -2       845       935       936      3637      3641      3639
 -1      1766    8    0    1
 -2       847       846       937      3360      3642      3643
 -1      1767    8    0    1
 -2       846       936       937      3640      3644      3642
 -1      1768    8    0    1
 -2       848       847       938      3363      3645      3646
 -1      1769    8    0    1
 -2       847       937       938      3643      3647      3645
 -1      1770    8    0    1
 -2       849       848       939      3366      3648      3649
 -1      1771    8    0    1
 -2       848       938       939      3646      3650      3648
 -1      1772    8    0    1
 -2       850       849       940      3369      3651      3652
 -1      1773    8    0    1
 -2       849       939       940      3649      3653      3651
 -1      1774    8    0    1
 -2       851       850       941      3372      3654      3655
 -1      1775    8    0    1
 -2       850       940       941      3652      3656      3654
 -1      1776    8    0    1
 -2       852       851       942      3375      3657      3658
 -1      1777    8    0    1
 -2       851       941       942      3655      3659      3657
 -1      1778    8    0    1
 -2       853       852       943      3378      3660      3661
 -1      1779    8    0    1
 -2       852       942       943      3658      3662      3660
 -1      1780    8    0    1
 -2       854       853       944      3381      3663      3664
 -1      1781    8    0    1
 -2       853       943       944      3661      3665      3663
 -1      1782    8    0    1
 -2       855       854       945      3384      3666      3667
 -1      1783    8    0    1
 -2       854       944       945      3664      3668      3666
 -1      1784    8    0    1
 -2       856       855       946      3387      3669      3670
 -1      1785    8    0    1
 -2       855       945       946      3667      3671      3669
 -1      1786    8    0    1
 -2       857       856       947      3390      3672      3673
 -1      1787    8    0    1
 -2       856       946       947      3670      3674      3672
 -1      1788    8    0    1
 -2       858       857       948      3393      3675      3676
 -1      1789    8    0    1
 -2       857       947       948      3673      3677      3675
 -1      1790    8    0    1
 -2       859       858       949      3396      3678      3679
 -1      1791    8    0    1
 -2       858       948       949      3676      3680      3678
 -1      1792    8    0    1
 -2       867       866       950      3416      3681      3682
 -1      1793    8    0    1
 -2       819       823       951      3552      3683      3684
 -1      1794    8    0    1
 -2       918       819       951      3577      3684      3685
 -1      1795    8    0    1
 -2       823       907       951      3536      3686      3683
 -1      1796    8    0    1
 -2       895       905       952      3530      3687      3688
 -1      1797    8    0    1
 -2       869       870       953      3424      3689      3690
 -1      1798    8    0    1
 -2       868       869       954      3421      3691      3692
 -1      1799    8    0    1
 -2       869       953       954      3690      3693      3691
 -1      1800    8    0    1
 -2       871       872       955      3430      3694      3695
 -1      1801    8    0    1
 -2       872       873       956      3433      3696      3697
 -1      1802    8    0    1
 -2       872       956       955      3697      3698      3694
 -1      1803    8    0    1
 -2       873       874       957      3436      3699      3700
 -1      1804    8    0    1
 -2       873       957       956      3700      3701      3696
 -1      1805    8    0    1
 -2       874       875       958      3439      3702      3703
 -1      1806    8    0    1
 -2       874       958       957      3703      3704      3699
 -1      1807    8    0    1
 -2       875       876       959      3442      3705      3706
 -1      1808    8    0    1
 -2       875       959       958      3706      3707      3702
 -1      1809    8    0    1
 -2       876       877       960      3445      3708      3709
 -1      1810    8    0    1
 -2       876       960       959      3709      3710      3705
 -1      1811    8    0    1
 -2       877       878       961      3448      3711      3712
 -1      1812    8    0    1
 -2       877       961       960      3712      3713      3708
 -1      1813    8    0    1
 -2       878       879       962      3451      3714      3715
 -1      1814    8    0    1
 -2       878       962       961      3715      3716      3711
 -1      1815    8    0    1
 -2       879       880       963      3454      3717      3718
 -1      1816    8    0    1
 -2       879       963       962      3718      3719      3714
 -1      1817    8    0    1
 -2       880       881       964      3457      3720      3721
 -1      1818    8    0    1
 -2       880       964       963      3721      3722      3717
 -1      1819    8    0    1
 -2       881       882       965      3460      3723      3724
 -1      1820    8    0    1
 -2       881       965       964      3724      3725      3720
 -1      1821    8    0    1
 -2       882       883       966      3463      3726      3727
 -1      1822    8    0    1
 -2       882       966       965      3727      3728      3723
 -1      1823    8    0    1
 -2       883       884       967      3466      3729      3730
 -1      1824    8    0    1
 -2       883       967       966      3730      3731      3726
 -1      1825    8    0    1
 -2       783       829       887      3477      3585      3473
 -1      1826    8    0    1
 -2       915       888       897      3564      3732      3574
 -1      1827    8    0    1
 -2       891       892       968      3491      3733      3734
 -1      1828    8    0    1
 -2       892       893       969      3494      3735      3736
 -1      1829    8    0    1
 -2       892       969       968      3736      3737      3733
 -1      1830    8    0    1
 -2       825       821       970      3288      3738      3739
 -1      1831    8    0    1
 -2       913       825       970      3556      3739      3740
 -1      1832    8    0    1
 -2       821       909       970      3541      3741      3738
 -1      1833    8    0    1
 -2       890       891       971      3488      3742      3743
 -1      1834    8    0    1
 -2       891       968       971      3734      3744      3742
 -1      1835    8    0    1
 -2       830       897       888      3505      3732      3745
 -1      1836    8    0    1
 -2       870       871       972      3427      3746      3747
 -1      1837    8    0    1
 -2       870       972       953      3747      3748      3689
 -1      1838    8    0    1
 -2       887       811       899      3584      3509      3749
 -1      1839    8    0    1
 -2       889       890       906      3485      3750      3751
 -1      1840    8    0    1
 -2       865       864       894      3411      3752      3608
 -1      1841    8    0    1
 -2       830       888       889      3745      3482      3753
 -1      1842    8    0    1
 -2       922       908       973      3597      3754      3755
 -1      1843    8    0    1
 -2       922       973       836      3755      3756      3601
 -1      1844    8    0    1
 -2       863       836       974      3405      3757      3758
 -1      1845    8    0    1
 -2       836       973       974      3756      3759      3757
 -1      1846    8    0    1
 -2       900       832       975      3575      3760      3761
 -1      1847    8    0    1
 -2       927       900       975      3616      3761      3762
 -1      1848    8    0    1
 -2       832       923       975      3599      3763      3760
 -1      1849    8    0    1
 -2       906       830       889      3602      3753      3751
 -1      1850    8    0    1
 -2       838       837       976      3333      3764      3765
 -1      1851    8    0    1
 -2       838       976       929      3765      3766      3619
 -1      1852    8    0    1
 -2       893       824       913      3568      3555      3767
 -1      1853    8    0    1
 -2       837       863       977      3553      3768      3769
 -1      1854    8    0    1
 -2       976       837       977      3764      3769      3770
 -1      1855    8    0    1
 -2       863       974       977      3758      3771      3768
 -1      1856    8    0    1
 -2       904       826       924      3526      3772      3607
 -1      1857    8    0    1
 -2       898       862       978      3548      3773      3774
 -1      1858    8    0    1
 -2       862       895       979      3580      3775      3776
 -1      1859    8    0    1
 -2       895       952       979      3688      3777      3775
 -1      1860    8    0    1
 -2       835       896       980      3502      3778      3779
 -1      1861    8    0    1
 -2       902       918       981      3588      3780      3781
 -1      1862    8    0    1
 -2       902       981       926      3781      3782      3611
 -1      1863    8    0    1
 -2       817       925       815      3606      3783      3533
 -1      1864    8    0    1
 -2       887       899       886      3749      3784      3475
 -1      1865    8    0    1
 -2       906       890       971      3750      3743      3785
 -1      1866    8    0    1
 -2       894       864       928      3752      3618      3786
 -1      1867    8    0    1
 -2       924       826       919      3772      3582      3787
 -1      1868    8    0    1
 -2       835       980       982      3779      3788      3789
 -1      1869    8    0    1
 -2       835       982       912      3789      3790      3551
 -1      1870    8    0    1
 -2       928       924       919      3617      3787      3791
 -1      1871    8    0    1
 -2       894       928       983      3786      3792      3793
 -1      1872    8    0    1
 -2       916       894       983      3565      3793      3794
 -1      1873    8    0    1
 -2       928       919       983      3791      3795      3792
 -1      1874    8    0    1
 -2       859       949       911      3679      3796      3797
 -1      1875    8    0    1
 -2       910       802       916      3544      3567      3798
 -1      1876    8    0    1
 -2       867       950       984      3682      3799      3800
 -1      1877    8    0    1
 -2       867       984       914      3800      3801      3557
 -1      1878    8    0    1
 -2       950       866       985      3681      3802      3803
 -1      1879    8    0    1
 -2       866       901       985      3517      3804      3802
 -1      1880    8    0    1
 -2       861       815       925      3587      3783      3805
 -1      1881    8    0    1
 -2       918       951       981      3685      3806      3780
 -1      1882    8    0    1
 -2       901       868       986      3518      3807      3808
 -1      1883    8    0    1
 -2       868       954       986      3692      3809      3807
 -1      1884    8    0    1
 -2       871       955       972      3695      3810      3746
 -1      1885    8    0    1
 -2       884       885       987      3469      3811      3812
 -1      1886    8    0    1
 -2       885       886       988      3472      3813      3814
 -1      1887    8    0    1
 -2       906       971       831      3785      3815      3576
 -1      1888    8    0    1
 -2       925       859       911      3609      3797      3816
 -1      1889    8    0    1
 -2       952       905       989      3687      3817      3818
 -1      1890    8    0    1
 -2       905       911       989      3547      3819      3817
 -1      1891    8    0    1
 -2       884       987       967      3812      3820      3729
 -1      1892    8    0    1
 -2       919       818       990      3583      3821      3822
 -1      1893    8    0    1
 -2       818       912       990      3550      3823      3821
 -1      1894    8    0    1
 -2       908       927       973      3615      3824      3754
 -1      1895    8    0    1
 -2       907       903       991      3534      3825      3826
 -1      1896    8    0    1
 -2       860       910       992      3543      3827      3828
 -1      1897    8    0    1
 -2       920       831       971      3589      3815      3829
 -1      1898    8    0    1
 -2       921       827       926      3592      3613      3830
 -1      1899    8    0    1
 -2       896       920       993      3591      3831      3832
 -1      1900    8    0    1
 -2       896       993       980      3832      3833      3778
 -1      1901    8    0    1
 -2       903       917       994      3571      3834      3835
 -1      1902    8    0    1
 -2       903       994       991      3835      3836      3825
 -1      1903    8    0    1
 -2       987       885       988      3811      3814      3837
 -1      1904    8    0    1
 -2       921       926       995      3830      3838      3839
 -1      1905    8    0    1
 -2       860       992       996      3828      3840      3841
 -1      1906    8    0    1
 -2       860       996       909      3841      3842      3539
 -1      1907    8    0    1
 -2       978       862       979      3773      3776      3843
 -1      1908    8    0    1
 -2       893       913       997      3767      3844      3845
 -1      1909    8    0    1
 -2       969       893       997      3735      3845      3846
 -1      1910    8    0    1
 -2       913       970       997      3740      3847      3844
 -1      1911    8    0    1
 -2       898       978       987      3774      3848      3849
 -1      1912    8    0    1
 -2       923       921       995      3600      3839      3850
 -1      1913    8    0    1
 -2       910       916       998      3798      3851      3852
 -1      1914    8    0    1
 -2       992       910       998      3827      3852      3853
 -1      1915    8    0    1
 -2       916       983       998      3794      3854      3851
 -1      1916    8    0    1
 -2       931       930       999      3626      3855      3856
 -1      1917    8    0    1
 -2       932       931      1000      3629      3857      3858
 -1      1918    8    0    1
 -2       931       999      1000      3856      3859      3857
 -1      1919    8    0    1
 -2       933       932      1001      3632      3860      3861
 -1      1920    8    0    1
 -2       932      1000      1001      3858      3862      3860
 -1      1921    8    0    1
 -2       934       933      1002      3635      3863      3864
 -1      1922    8    0    1
 -2       933      1001      1002      3861      3865      3863
 -1      1923    8    0    1
 -2       935       934      1003      3638      3866      3867
 -1      1924    8    0    1
 -2       934      1002      1003      3864      3868      3866
 -1      1925    8    0    1
 -2       936       935      1004      3641      3869      3870
 -1      1926    8    0    1
 -2       935      1003      1004      3867      3871      3869
 -1      1927    8    0    1
 -2       937       936      1005      3644      3872      3873
 -1      1928    8    0    1
 -2       936      1004      1005      3870      3874      3872
 -1      1929    8    0    1
 -2       938       937      1006      3647      3875      3876
 -1      1930    8    0    1
 -2       937      1005      1006      3873      3877      3875
 -1      1931    8    0    1
 -2       939       938      1007      3650      3878      3879
 -1      1932    8    0    1
 -2       938      1006      1007      3876      3880      3878
 -1      1933    8    0    1
 -2       940       939      1008      3653      3881      3882
 -1      1934    8    0    1
 -2       939      1007      1008      3879      3883      3881
 -1      1935    8    0    1
 -2       941       940      1009      3656      3884      3885
 -1      1936    8    0    1
 -2       940      1008      1009      3882      3886      3884
 -1      1937    8    0    1
 -2       942       941      1010      3659      3887      3888
 -1      1938    8    0    1
 -2       941      1009      1010      3885      3889      3887
 -1      1939    8    0    1
 -2       943       942      1011      3662      3890      3891
 -1      1940    8    0    1
 -2       942      1010      1011      3888      3892      3890
 -1      1941    8    0    1
 -2       944       943      1012      3665      3893      3894
 -1      1942    8    0    1
 -2       943      1011      1012      3891      3895      3893
 -1      1943    8    0    1
 -2       945       944      1013      3668      3896      3897
 -1      1944    8    0    1
 -2       944      1012      1013      3894      3898      3896
 -1      1945    8    0    1
 -2       946       945      1014      3671      3899      3900
 -1      1946    8    0    1
 -2       945      1013      1014      3897      3901      3899
 -1      1947    8    0    1
 -2       947       946      1015      3674      3902      3903
 -1      1948    8    0    1
 -2       946      1014      1015      3900      3904      3902
 -1      1949    8    0    1
 -2       948       947      1016      3677      3905      3906
 -1      1950    8    0    1
 -2       947      1015      1016      3903      3907      3905
 -1      1951    8    0    1
 -2       949       948      1017      3680      3908      3909
 -1      1952    8    0    1
 -2       948      1016      1017      3906      3910      3908
 -1      1953    8    0    1
 -2       971       968       920      3744      3911      3829
 -1      1954    8    0    1
 -2       995       926       981      3838      3782      3912
 -1      1955    8    0    1
 -2       972       955      1018      3810      3913      3914
 -1      1956    8    0    1
 -2       956       957      1019      3701      3915      3916
 -1      1957    8    0    1
 -2       955       956      1020      3698      3917      3918
 -1      1958    8    0    1
 -2       956      1019      1020      3916      3919      3917
 -1      1959    8    0    1
 -2       958       959      1021      3707      3920      3921
 -1      1960    8    0    1
 -2       959       960      1022      3710      3922      3923
 -1      1961    8    0    1
 -2       959      1022      1021      3923      3924      3920
 -1      1962    8    0    1
 -2       960       961      1023      3713      3925      3926
 -1      1963    8    0    1
 -2       960      1023      1022      3926      3927      3922
 -1      1964    8    0    1
 -2       961       962      1024      3716      3928      3929
 -1      1965    8    0    1
 -2       961      1024      1023      3929      3930      3925
 -1      1966    8    0    1
 -2       962       963      1025      3719      3931      3932
 -1      1967    8    0    1
 -2       962      1025      1024      3932      3933      3928
 -1      1968    8    0    1
 -2       963       964      1026      3722      3934      3935
 -1      1969    8    0    1
 -2       963      1026      1025      3935      3936      3931
 -1      1970    8    0    1
 -2       964       965      1027      3725      3937      3938
 -1      1971    8    0    1
 -2       964      1027      1026      3938      3939      3934
 -1      1972    8    0    1
 -2       965       966      1028      3728      3940      3941
 -1      1973    8    0    1
 -2       965      1028      1027      3941      3942      3937
 -1      1974    8    0    1
 -2       953       972      1029      3748      3943      3944
 -1      1975    8    0    1
 -2       972      1018      1029      3914      3945      3943
 -1      1976    8    0    1
 -2       911       949      1030      3796      3946      3947
 -1      1977    8    0    1
 -2       989       911      1030      3819      3947      3948
 -1      1978    8    0    1
 -2       949      1017      1030      3909      3949      3946
 -1      1979    8    0    1
 -2       968       969       993      3737      3950      3951
 -1      1980    8    0    1
 -2       917       914      1031      3572      3952      3953
 -1      1981    8    0    1
 -2       914       984      1031      3801      3954      3952
 -1      1982    8    0    1
 -2       951       907      1032      3686      3955      3956
 -1      1983    8    0    1
 -2       907       991      1032      3826      3957      3955
 -1      1984    8    0    1
 -2       995       981      1033      3912      3958      3959
 -1      1985    8    0    1
 -2       930       929      1034      3623      3960      3961
 -1      1986    8    0    1
 -2       930      1034       999      3961      3962      3855
 -1      1987    8    0    1
 -2       974       973      1035      3759      3963      3964
 -1      1988    8    0    1
 -2       987       978       967      3848      3965      3820
 -1      1989    8    0    1
 -2       973       927      1035      3824      3966      3963
 -1      1990    8    0    1
 -2       929       976      1036      3766      3967      3968
 -1      1991    8    0    1
 -2       929      1036      1034      3968      3969      3960
 -1      1992    8    0    1
 -2       957       958      1037      3704      3970      3971
 -1      1993    8    0    1
 -2       958      1021      1037      3921      3972      3970
 -1      1994    8    0    1
 -2       954       953      1038      3693      3973      3974
 -1      1995    8    0    1
 -2       953      1029      1038      3944      3975      3973
 -1      1996    8    0    1
 -2       979       952      1039      3777      3976      3977
 -1      1997    8    0    1
 -2       978       979      1040      3843      3978      3979
 -1      1998    8    0    1
 -2       967       978      1040      3965      3979      3980
 -1      1999    8    0    1
 -2       979      1039      1040      3977      3981      3978
 -1      2000    8    0    1
 -2       981       951      1032      3806      3956      3982
 -1      2001    8    0    1
 -2       923       995      1041      3850      3983      3984
 -1      2002    8    0    1
 -2       886       899       988      3784      3985      3813
 -1      2003    8    0    1
 -2       920       968       993      3911      3951      3831
 -1      2004    8    0    1
 -2       984       950      1042      3799      3986      3987
 -1      2005    8    0    1
 -2       985       901       986      3804      3808      3988
 -1      2006    8    0    1
 -2       952       989      1043      3818      3989      3990
 -1      2007    8    0    1
 -2       952      1043      1039      3990      3991      3976
 -1      2008    8    0    1
 -2      1019       957      1037      3915      3971      3992
 -1      2009    8    0    1
 -2       980       993       996      3833      3993      3994
 -1      2010    8    0    1
 -2       986       954      1044      3809      3995      3996
 -1      2011    8    0    1
 -2       954      1038      1044      3974      3997      3995
 -1      2012    8    0    1
 -2      1018       955      1020      3913      3918      3998
 -1      2013    8    0    1
 -2       950       985      1045      3803      3999      4000
 -1      2014    8    0    1
 -2       950      1045      1042      4000      4001      3986
 -1      2015    8    0    1
 -2       923      1041       975      3984      4002      3763
 -1      2016    8    0    1
 -2       981      1032      1046      3982      4003      4004
 -1      2017    8    0    1
 -2       981      1046      1033      4004      4005      3958
 -1      2018    8    0    1
 -2      1028       966      1040      3940      4006      4007
 -1      2019    8    0    1
 -2       966       967      1040      3731      3980      4006
 -1      2020    8    0    1
 -2       992       998       982      3853      4008      4009
 -1      2021    8    0    1
 -2       909       996      1047      3842      4010      4011
 -1      2022    8    0    1
 -2       970       909      1047      3741      4011      4012
 -1      2023    8    0    1
 -2       996       993      1047      3993      4013      4010
 -1      2024    8    0    1
 -2       898       987       988      3849      3837      4014
 -1      2025    8    0    1
 -2       927       975      1048      3762      4015      4016
 -1      2026    8    0    1
 -2      1035       927      1048      3966      4016      4017
 -1      2027    8    0    1
 -2       975      1041      1048      4002      4018      4015
 -1      2028    8    0    1
 -2       917      1031       994      3953      4019      3834
 -1      2029    8    0    1
 -2      1032       991      1049      3957      4020      4021
 -1      2030    8    0    1
 -2      1032      1049      1046      4021      4022      4003
 -1      2031    8    0    1
 -2       974      1035      1050      3964      4023      4024
 -1      2032    8    0    1
 -2       974      1050       977      4024      4025      3771
 -1      2033    8    0    1
 -2       995      1033      1041      3959      4026      3983
 -1      2034    8    0    1
 -2       912       982       998      3790      4008      4027
 -1      2035    8    0    1
 -2      1036       976      1051      3967      4028      4029
 -1      2036    8    0    1
 -2       976       977      1051      3770      4030      4028
 -1      2037    8    0    1
 -2       899       898       988      3573      4014      3985
 -1      2038    8    0    1
 -2       861       925       911      3805      3816      3545
 -1      2039    8    0    1
 -2       991       994      1052      3836      4031      4032
 -1      2040    8    0    1
 -2       991      1052      1049      4032      4033      4020
 -1      2041    8    0    1
 -2       983       919       990      3795      3822      4034
 -1      2042    8    0    1
 -2      1000       999      1053      3859      4035      4036
 -1      2043    8    0    1
 -2       985       986      1054      3988      4037      4038
 -1      2044    8    0    1
 -2       986      1044      1054      3996      4039      4037
 -1      2045    8    0    1
 -2      1001      1000      1055      3862      4040      4041
 -1      2046    8    0    1
 -2      1000      1053      1055      4036      4042      4040
 -1      2047    8    0    1
 -2      1002      1001      1056      3865      4043      4044
 -1      2048    8    0    1
 -2      1001      1055      1056      4041      4045      4043
 -1      2049    8    0    1
 -2      1003      1002      1057      3868      4046      4047
 -1      2050    8    0    1
 -2      1002      1056      1057      4044      4048      4046
 -1      2051    8    0    1
 -2      1004      1003      1058      3871      4049      4050
 -1      2052    8    0    1
 -2      1003      1057      1058      4047      4051      4049
 -1      2053    8    0    1
 -2      1005      1004      1059      3874      4052      4053
 -1      2054    8    0    1
 -2      1004      1058      1059      4050      4054      4052
 -1      2055    8    0    1
 -2      1006      1005      1060      3877      4055      4056
 -1      2056    8    0    1
 -2      1005      1059      1060      4053      4057      4055
 -1      2057    8    0    1
 -2      1007      1006      1061      3880      4058      4059
 -1      2058    8    0    1
 -2      1006      1060      1061      4056      4060      4058
 -1      2059    8    0    1
 -2      1008      1007      1062      3883      4061      4062
 -1      2060    8    0    1
 -2      1007      1061      1062      4059      4063      4061
 -1      2061    8    0    1
 -2      1009      1008      1063      3886      4064      4065
 -1      2062    8    0    1
 -2      1008      1062      1063      4062      4066      4064
 -1      2063    8    0    1
 -2      1010      1009      1064      3889      4067      4068
 -1      2064    8    0    1
 -2      1009      1063      1064      4065      4069      4067
 -1      2065    8    0    1
 -2      1011      1010      1065      3892      4070      4071
 -1      2066    8    0    1
 -2      1010      1064      1065      4068      4072      4070
 -1      2067    8    0    1
 -2      1012      1011      1066      3895      4073      4074
 -1      2068    8    0    1
 -2      1011      1065      1066      4071      4075      4073
 -1      2069    8    0    1
 -2      1013      1012      1067      3898      4076      4077
 -1      2070    8    0    1
 -2      1012      1066      1067      4074      4078      4076
 -1      2071    8    0    1
 -2      1014      1013      1068      3901      4079      4080
 -1      2072    8    0    1
 -2      1013      1067      1068      4077      4081      4079
 -1      2073    8    0    1
 -2      1015      1014      1069      3904      4082      4083
 -1      2074    8    0    1
 -2      1014      1068      1069      4080      4084      4082
 -1      2075    8    0    1
 -2      1016      1015      1070      3907      4085      4086
 -1      2076    8    0    1
 -2      1015      1069      1070      4083      4087      4085
 -1      2077    8    0    1
 -2      1017      1016      1071      3910      4088      4089
 -1      2078    8    0    1
 -2      1016      1070      1071      4086      4090      4088
 -1      2079    8    0    1
 -2      1020      1019      1072      3919      4091      4092
 -1      2080    8    0    1
 -2      1018      1020      1073      3998      4093      4094
 -1      2081    8    0    1
 -2      1020      1072      1073      4092      4095      4093
 -1      2082    8    0    1
 -2      1022      1023      1074      3927      4096      4097
 -1      2083    8    0    1
 -2      1021      1022      1075      3924      4098      4099
 -1      2084    8    0    1
 -2      1022      1074      1075      4097      4100      4098
 -1      2085    8    0    1
 -2      1024      1025      1076      3933      4101      4102
 -1      2086    8    0    1
 -2      1025      1026      1077      3936      4103      4104
 -1      2087    8    0    1
 -2      1025      1077      1076      4104      4105      4101
 -1      2088    8    0    1
 -2      1026      1027      1078      3939      4106      4107
 -1      2089    8    0    1
 -2      1026      1078      1077      4107      4108      4103
 -1      2090    8    0    1
 -2       992       982       996      4009      4109      3840
 -1      2091    8    0    1
 -2      1029      1018      1079      3945      4110      4111
 -1      2092    8    0    1
 -2      1018      1073      1079      4094      4112      4110
 -1      2093    8    0    1
 -2      1031       984      1080      3954      4113      4114
 -1      2094    8    0    1
 -2       984      1042      1080      3987      4115      4113
 -1      2095    8    0    1
 -2       993       969      1047      3950      4116      4013
 -1      2096    8    0    1
 -2      1028      1040      1039      4007      3981      4117
 -1      2097    8    0    1
 -2       990       912       998      3823      4027      4118
 -1      2098    8    0    1
 -2       980       996       982      3994      4109      3788
 -1      2099    8    0    1
 -2       999      1034      1081      3962      4119      4120
 -1      2100    8    0    1
 -2       999      1081      1053      4120      4121      4035
 -1      2101    8    0    1
 -2      1034      1036      1082      3969      4122      4123
 -1      2102    8    0    1
 -2      1034      1082      1081      4123      4124      4119
 -1      2103    8    0    1
 -2      1028      1039      1083      4117      4125      4126
 -1      2104    8    0    1
 -2      1027      1028      1083      3942      4126      4127
 -1      2105    8    0    1
 -2      1039      1043      1083      3991      4128      4125
 -1      2106    8    0    1
 -2      1047       969       997      4116      3846      4129
 -1      2107    8    0    1
 -2       990       998       983      4118      3854      4034
 -1      2108    8    0    1
 -2      1041      1033      1084      4026      4130      4131
 -1      2109    8    0    1
 -2      1037      1021      1085      3972      4132      4133
 -1      2110    8    0    1
 -2      1021      1075      1085      4099      4134      4132
 -1      2111    8    0    1
 -2       994      1031      1086      4019      4135      4136
 -1      2112    8    0    1
 -2      1052       994      1086      4031      4136      4137
 -1      2113    8    0    1
 -2      1031      1080      1086      4114      4138      4135
 -1      2114    8    0    1
 -2      1038      1029      1087      3975      4139      4140
 -1      2115    8    0    1
 -2      1029      1079      1087      4111      4141      4139
 -1      2116    8    0    1
 -2      1019      1037      1088      3992      4142      4143
 -1      2117    8    0    1
 -2      1037      1085      1088      4133      4144      4142
 -1      2118    8    0    1
 -2      1023      1024      1089      3930      4145      4146
 -1      2119    8    0    1
 -2      1074      1023      1089      4096      4146      4147
 -1      2120    8    0    1
 -2      1024      1076      1089      4102      4148      4145
 -1      2121    8    0    1
 -2       985      1054      1045      4038      4149      3999
 -1      2122    8    0    1
 -2      1043       989      1030      3989      3948      4150
 -1      2123    8    0    1
 -2      1072      1019      1088      4091      4143      4151
 -1      2124    8    0    1
 -2      1038      1087      1090      4140      4152      4153
 -1      2125    8    0    1
 -2      1038      1090      1044      4153      4154      3997
 -1      2126    8    0    1
 -2      1049      1052      1091      4033      4155      4156
 -1      2127    8    0    1
 -2      1049      1091      1092      4156      4157      4158
 -1      2128    8    0    1
 -2      1049      1092      1046      4158      4159      4022
 -1      2129    8    0    1
 -2      1027      1083      1078      4127      4160      4106
 -1      2130    8    0    1
 -2      1017      1071      1030      4089      4161      3949
 -1      2131    8    0    1
 -2       977      1050      1051      4025      4162      4030
 -1      2132    8    0    1
 -2      1042      1045      1093      4001      4163      4164
 -1      2133    8    0    1
 -2      1080      1042      1094      4115      4165      4166
 -1      2134    8    0    1
 -2      1042      1093      1094      4164      4167      4165
 -1      2135    8    0    1
 -2       970      1047       997      4012      4129      3847
 -1      2136    8    0    1
 -2      1048      1041      1084      4018      4131      4168
 -1      2137    8    0    1
 -2      1050      1035      1048      4023      4017      4169
 -1      2138    8    0    1
 -2      1082      1036      1095      4122      4170      4171
 -1      2139    8    0    1
 -2      1036      1051      1095      4029      4172      4170
 -1      2140    8    0    1
 -2      1033      1046      1096      4005      4173      4174
 -1      2141    8    0    1
 -2      1084      1033      1096      4130      4174      4175
 -1      2142    8    0    1
 -2      1046      1092      1096      4159      4176      4173
 -1      2143    8    0    1
 -2      1081      1082      1091      4124      4177      4178
 -1      2144    8    0    1
 -2      1055      1053      1097      4042      4179      4180
 -1      2145    8    0    1
 -2      1056      1055      1094      4045      4181      4182
 -1      2146    8    0    1
 -2      1057      1056      1093      4048      4183      4184
 -1      2147    8    0    1
 -2      1059      1058      1098      4054      4185      4186
 -1      2148    8    0    1
 -2      1060      1059      1090      4057      4187      4188
 -1      2149    8    0    1
 -2      1061      1060      1087      4060      4189      4190
 -1      2150    8    0    1
 -2      1062      1061      1079      4063      4191      4192
 -1      2151    8    0    1
 -2      1063      1062      1073      4066      4193      4194
 -1      2152    8    0    1
 -2      1064      1063      1072      4069      4195      4196
 -1      2153    8    0    1
 -2      1065      1064      1088      4072      4197      4198
 -1      2154    8    0    1
 -2      1066      1065      1085      4075      4199      4200
 -1      2155    8    0    1
 -2      1067      1066      1075      4078      4201      4202
 -1      2156    8    0    1
 -2      1068      1067      1074      4081      4203      4204
 -1      2157    8    0    1
 -2      1069      1068      1089      4084      4205      4206
 -1      2158    8    0    1
 -2      1070      1069      1076      4087      4207      4208
 -1      2159    8    0    1
 -2      1071      1070      1077      4090      4209      4210
 -1      2160    8    0    1
 -2      1091      1052      1099      4155      4211      4212
 -1      2161    8    0    1
 -2      1052      1086      1099      4137      4213      4211
 -1      2162    8    0    1
 -2      1081      1091      1099      4178      4212      4214
 -1      2163    8    0    1
 -2      1073      1062      1079      4193      4192      4112
 -1      2164    8    0    1
 -2      1079      1061      1087      4191      4190      4141
 -1      2165    8    0    1
 -2      1043      1030      1071      4150      4161      4215
 -1      2166    8    0    1
 -2      1093      1045      1100      4163      4216      4217
 -1      2167    8    0    1
 -2      1045      1054      1100      4149      4218      4216
 -1      2168    8    0    1
 -2      1088      1064      1072      4197      4196      4151
 -1      2169    8    0    1
 -2      1077      1078      1071      4108      4219      4210
 -1      2170    8    0    1
 -2      1076      1077      1070      4105      4209      4208
 -1      2171    8    0    1
 -2      1076      1069      1089      4207      4206      4148
 -1      2172    8    0    1
 -2      1087      1060      1090      4189      4188      4152
 -1      2173    8    0    1
 -2      1050      1048      1084      4169      4168      4220
 -1      2174    8    0    1
 -2      1083      1043      1078      4128      4221      4160
 -1      2175    8    0    1
 -2      1053      1081      1099      4121      4214      4222
 -1      2176    8    0    1
 -2      1085      1075      1066      4134      4201      4200
 -1      2177    8    0    1
 -2      1093      1056      1094      4183      4182      4167
 -1      2178    8    0    1
 -2      1088      1085      1065      4144      4199      4198
 -1      2179    8    0    1
 -2      1073      1072      1063      4095      4195      4194
 -1      2180    8    0    1
 -2      1078      1043      1071      4221      4215      4219
 -1      2181    8    0    1
 -2      1074      1067      1075      4203      4202      4100
 -1      2182    8    0    1
 -2      1054      1044      1098      4039      4223      4224
 -1      2183    8    0    1
 -2      1091      1082      1092      4177      4225      4157
 -1      2184    8    0    1
 -2      1057      1093      1100      4184      4217      4226
 -1      2185    8    0    1
 -2      1068      1074      1089      4204      4147      4205
 -1      2186    8    0    1
 -2      1050      1084      1051      4220      4227      4162
 -1      2187    8    0    1
 -2      1055      1097      1094      4180      4228      4181
 -1      2188    8    0    1
 -2      1057      1100      1058      4226      4229      4051
 -1      2189    8    0    1
 -2      1059      1098      1090      4186      4230      4187
 -1      2190    8    0    1
 -2      1098      1044      1090      4223      4154      4230
 -1      2191    8    0    1
 -2      1100      1054      1098      4218      4224      4231
 -1      2192    8    0    1
 -2      1080      1094      1097      4166      4228      4232
 -1      2193    8    0    1
 -2      1098      1058      1100      4185      4229      4231
 -1      2194    8    0    1
 -2      1082      1095      1092      4171      4233      4225
 -1      2195    8    0    1
 -2      1051      1084      1096      4227      4175      4234
 -1      2196    8    0    1
 -2      1053      1099      1097      4222      4235      4179
 -1      2197    8    0    1
 -2      1086      1080      1097      4138      4232      4236
 -1      2198    8    0    1
 -2      1099      1086      1097      4213      4236      4235
 -1      2199    8    0    1
 -2      1092      1095      1096      4233      4237      4176
 -1      2200    8    0    1
 -2      1095      1051      1096      4172      4234      4237
 -3
    1PSTEP                         1           1           1          
  100CL  101 1.000000000        4237                     0    1           1
 -4  DISP        4    1
 -5  D1          1    2    1    0
 -5  D2          1    2    2    0
 -5  D3          1    2    3    0
 -5  ALL         1    2    0    0    1ALL
 -1         1 1.16197E-02-1.84144E-03-6.88736E-14
 -1         2 1.36229E-02-8.79534E-04-7.52012E-14
 -1         3 1.40045E-02-1.18548E-03-1.08194E-13
 -1         4 1.62537E-02-2.32621E-03-1.17703E-13
 -1         5 0.00000E+00 0.00000E+00 0.00000E+00
 -1         6 0.00000E+00 0.00000E+00 0.00000E+00
 -1         7 0.00000E+00 0.00000E+00 0.00000E+00
 -1         8 0.00000E+00 0.00000E+00 0.00000E+00
 -1         9 0.00000E+00 0.00000E+00 0.00000E+00
 -1        10 0.00000E+00 0.00000E+00 0.00000E+00
 -1        11 0.00000E+00 0.00000E+00 0.00000E+00
 -1        12 0.00000E+00 0.00000E+00 0.00000E+00
 -1        13 0.00000E+00 0.00000E+00 0.00000E+00
 -1        14 0.00000E+00 0.00000E+00 0.00000E+00
 -1        15 0.00000E+00 0.00000E+00 0.00000E+00
 -1        16 0.00000E+00 0.00000E+00 0.00000E+00
 -1        17 0.00000E+00 0.00000E+00 0.00000E+00
 -1        18 0.00000E+00 0.00000E+00 0.00000E+00
 -1        19 0.00000E+00 0.00000E+00 0.00000E+00
 -1        20 0.00000E+00 0.00000E+00 0.00000E+00
 -1        21 0.00000E+00 0.00000E+00 0.00000E+00
 -1        22 0.00000E+00 0.00000E+00 0.00000E+00
 -1        23 4.11392E-04-2.60746E-04 8.96161E-18
 -1        24 7.03384E-04-4.01000E-04-1.24100E-16
 -1        25 9.73460E-04-4.98386E-04-3.93179E-16
 -1        26 1.23795E-03-5.67140E-04-7.92620E-16
 -1        27 1.50149E-03-6.16401E-04-1.31760E-15
 -1        28 1.76615E-03-6.51552E-04-1.96385E-15
 -1        29 2.03290E-03-6.76301E-04-2.73102E-15
 -1        30 2.30209E-03-6.93344E-04-3.61397E-15
 -1        31 2.58744E-03-7.05137E-04-4.66444E-15
 -1        32 2.86161E-03-7.12136E-04-5.77790E-15
 -1        33 3.13790E-03-7.16154E-04-7.00011E-15
 -1        34 3.41604E-03-7.18028E-04-8.32687E-15
 -1        35 3.69575E-03-7.18366E-04-9.75470E-15
 -1        36 3.97678E-03-7.17596E-04-1.12834E-14
 -1        37 4.25892E-03-7.16001E-04-1.29116E-14
 -1        38 4.54200E-03-7.13756E-04-1.46424E-14
 -1        39 4.82591E-03-7.10947E-04-1.64676E-14
 -1        40 5.12488E-03-7.07413E-04-1.84812E-14
 -1        41 5.41047E-03-7.03464E-04-2.04952E-14
 -1        42 5.69707E-03-6.98891E-04-2.26053E-14
 -1        43 5.98493E-03-6.93628E-04-2.48092E-14
 -1        44 6.27451E-03-6.87626E-04-2.70944E-14
 -1        45 6.56648E-03-6.80890E-04-2.94590E-14
 -1        46 6.86183E-03-6.73536E-04-3.18990E-14
 -1        47 7.16196E-03-6.65897E-04-3.44163E-14
 -1        48 7.46892E-03-6.58708E-04-3.70105E-14
 -1        49 7.80173E-03-6.53198E-04-3.98168E-14
 -1        50 8.13289E-03-6.52739E-04-4.25593E-14
 -1        51 8.48336E-03-6.61923E-04-4.53682E-14
 -1        52 8.85973E-03-6.89244E-04-4.82410E-14
 -1        53 9.26862E-03-7.48529E-04-5.11764E-14
 -1        54 9.71314E-03-8.60056E-04-5.41648E-14
 -1        55 1.01855E-02-1.04767E-03-5.72108E-14
 -1        56 1.06572E-02-1.32514E-03-6.03095E-14
 -1        57 1.10591E-02-1.64871E-03-6.33051E-14
 -1        58 1.13627E-02-1.93782E-03-6.62042E-14
 -1        59 1.15978E-02-2.11425E-03-6.92025E-14
 -1        60 1.18480E-02-2.11066E-03-7.26486E-14
 -1        61 1.21694E-02-1.94644E-03-7.61916E-14
 -1        62 1.25831E-02-1.74668E-03-7.98121E-14
 -1        63 1.30484E-02-1.60629E-03-8.34918E-14
 -1        64 1.35375E-02-1.55332E-03-8.73784E-14
 -1        65 1.39734E-02-1.57888E-03-9.11201E-14
 -1        66 1.43719E-02-1.65410E-03-9.48976E-14
 -1        67 1.47355E-02-1.75797E-03-9.87012E-14
 -1        68 1.50705E-02-1.87545E-03-1.02514E-13
 -1        69 1.53836E-02-1.99636E-03-1.06319E-13
 -1        70 1.56808E-02-2.11381E-03-1.10122E-13
 -1        71 1.59685E-02-2.22348E-03-1.13926E-13
 -1        72 4.13842E-04 2.61450E-04 8.48388E-17
 -1        73 7.03211E-04 4.03713E-04 8.73155E-17
 -1        74 9.73988E-04 5.00164E-04 1.58903E-18
 -1        75 1.23877E-03 5.68843E-04-1.78548E-16
 -1        76 1.50244E-03 6.18156E-04-4.56402E-16
 -1        77 1.76718E-03 6.53399E-04-8.35405E-16
 -1        78 2.03397E-03 6.78259E-04-1.31884E-15
 -1        79 2.30319E-03 6.95422E-04-1.90739E-15
 -1        80 2.57491E-03 7.06896E-04-2.60191E-15
 -1        81 2.84898E-03 7.14200E-04-3.40244E-15
 -1        82 3.12519E-03 7.18478E-04-4.30848E-15
 -1        83 3.40328E-03 7.20582E-04-5.31619E-15
 -1        84 3.68295E-03 7.21134E-04-6.42572E-15
 -1        85 3.96398E-03 7.20578E-04-7.63435E-15
 -1        86 4.24615E-03 7.19217E-04-8.94367E-15
 -1        87 4.52929E-03 7.17254E-04-1.03557E-14
 -1        88 4.81330E-03 7.14812E-04-1.18681E-14
 -1        89 5.09813E-03 7.11974E-04-1.34729E-14
 -1        90 5.38381E-03 7.08796E-04-1.51707E-14
 -1        91 5.67042E-03 7.05344E-04-1.69667E-14
 -1        92 5.95811E-03 7.01717E-04-1.88717E-14
 -1        93 6.24708E-03 6.98082E-04-2.08788E-14
 -1        94 6.53759E-03 6.94703E-04-2.29857E-14
 -1        95 6.82987E-03 6.91976E-04-2.51783E-14
 -1        96 7.12413E-03 6.90450E-04-2.74562E-14
 -1        97 7.42041E-03 6.90831E-04-2.98194E-14
 -1        98 7.71854E-03 6.93943E-04-3.22809E-14
 -1        99 8.01790E-03 7.00623E-04-3.48262E-14
 -1       100 8.31738E-03 7.11523E-04-3.74589E-14
 -1       101 8.61517E-03 7.26793E-04-4.01754E-14
 -1       102 8.90884E-03 7.45650E-04-4.29649E-14
 -1       103 9.19549E-03 7.65922E-04-4.58268E-14
 -1       104 9.47231E-03 7.83694E-04-4.87636E-14
 -1       105 9.73727E-03 7.93325E-04-5.17731E-14
 -1       106 9.99001E-03 7.88024E-04-5.48528E-14
 -1       107 1.02324E-02 7.61080E-04-5.80149E-14
 -1       108 1.04687E-02 7.07455E-04-6.12573E-14
 -1       109 1.07044E-02 6.25176E-04-6.45786E-14
 -1       110 1.09452E-02 5.15901E-04-6.79783E-14
 -1       111 1.11951E-02 3.84387E-04-7.14439E-14
 -1       112 1.14561E-02 2.37099E-04-7.49754E-14
 -1       113 1.17280E-02 8.05885E-05-7.85698E-14
 -1       114 1.20084E-02-7.97940E-05-8.22128E-14
 -1       115 1.22945E-02-2.40538E-04-8.58934E-14
 -1       116 1.25834E-02-4.00007E-04-8.96048E-14
 -1       117 1.28726E-02-5.58071E-04-9.33398E-14
 -1       118 1.31608E-02-7.15548E-04-9.70916E-14
 -1       119 1.34476E-02-8.73596E-04-1.00854E-13
 -1       120 1.37332E-02-1.03303E-03-1.04620E-13
 -1       121 1.41626E-02-1.26994E-03-1.08773E-13
 -1       122 1.43217E-02-1.35430E-03-1.09365E-13
 -1       123 1.44829E-02-1.43754E-03-1.09939E-13
 -1       124 1.46459E-02-1.51835E-03-1.10512E-13
 -1       125 1.48103E-02-1.59524E-03-1.11092E-13
 -1       126 1.49718E-02-1.66546E-03-1.11672E-13
 -1       127 1.51337E-02-1.73011E-03-1.12263E-13
 -1       128 1.52902E-02-1.78723E-03-1.12861E-13
 -1       129 1.54376E-02-1.83728E-03-1.13465E-13
 -1       130 1.55725E-02-1.88219E-03-1.14041E-13
 -1       131 1.56928E-02-1.92536E-03-1.14604E-13
 -1       132 1.57968E-02-1.97035E-03-1.15165E-13
 -1       133 1.58906E-02-2.02309E-03-1.15722E-13
 -1       134 1.59775E-02-2.08614E-03-1.16230E-13
 -1       135 1.60642E-02-2.16024E-03-1.16721E-13
 -1       136 1.61566E-02-2.24273E-03-1.17195E-13
 -1       137 1.34990E-02-6.72716E-04-7.47190E-14
 -1       138 1.32876E-02-4.90592E-04-7.39264E-14
 -1       139 1.29683E-02-3.08740E-04-7.27579E-14
 -1       140 1.26126E-02-1.62488E-04-7.14663E-14
 -1       141 1.21744E-02-2.98686E-05-6.98953E-14
 -1       142 1.17097E-02 6.81758E-05-6.82599E-14
 -1       143 1.12435E-02 1.29894E-04-6.66459E-14
 -1       144 1.07369E-02 1.56405E-04-6.49294E-14
 -1       145 1.02925E-02 1.42280E-04-6.34717E-14
 -1       146 9.86336E-03 8.76803E-05-6.21098E-14
 -1       147 9.51987E-03 3.62095E-06-6.10693E-14
 -1       148 9.22912E-03-1.17965E-04-6.02546E-14
 -1       149 9.02843E-03-2.68766E-04-5.97585E-14
 -1       150 8.92778E-03-4.45334E-04-5.96146E-14
 -1       151 8.93467E-03-6.29770E-04-5.98182E-14
 -1       152 9.04904E-03-8.37642E-04-6.03774E-14
 -1       153 9.29360E-03-1.07063E-03-6.13377E-14
 -1       154 9.61697E-03-1.28508E-03-6.24991E-14
 -1       155 1.00296E-02-1.49062E-03-6.38890E-14
 -1       156 1.05050E-02-1.66362E-03-6.54193E-14
 -1       157 1.10617E-02-1.79171E-03-6.71541E-14
 -1       158 1.21400E-02-1.81452E-03-7.04686E-14
 -1       159 1.26055E-02-1.72627E-03-7.19268E-14
 -1       160 1.30071E-02-1.59151E-03-7.32090E-14
 -1       161 1.33163E-02-1.42979E-03-7.42154E-14
 -1       162 1.35182E-02-1.25985E-03-7.48840E-14
 -1       163 1.36251E-02-1.07352E-03-7.52374E-14
 -1       164 2.40410E-04-1.25526E-04-3.82520E-17
 -1       165 2.25276E-04-9.46236E-05-5.19807E-17
 -1       166 2.19514E-04-7.27822E-05-5.80048E-17
 -1       167 2.16715E-04-5.51069E-05-6.01055E-17
 -1       168 2.15220E-04-3.99687E-05-5.98683E-17
 -1       169 2.14384E-04-2.59182E-05-5.85096E-17
 -1       170 2.13965E-04-1.26460E-05-5.65513E-17
 -1       171 2.13844E-04 2.72350E-07-5.39018E-17
 -1       172 2.13985E-04 1.32033E-05-5.07203E-17
 -1       173 2.14425E-04 2.65160E-05-4.65834E-17
 -1       174 2.15268E-04 4.03975E-05-4.11251E-17
 -1       175 2.16816E-04 5.59175E-05-3.36035E-17
 -1       176 2.19679E-04 7.38200E-05-2.30901E-17
 -1       177 2.25443E-04 9.60267E-05-7.98244E-18
 -1       178 2.39338E-04 1.27598E-04 1.49823E-17
 -1       179 2.97717E-04 1.85509E-04 4.13454E-17
 -1       180 4.68633E-04-2.63564E-04-1.01220E-16
 -1       181 7.66781E-04-3.82163E-04-3.20222E-16
 -1       182 1.05063E-03-4.65053E-04-6.63281E-16
 -1       183 1.32802E-03-5.23833E-04-1.12866E-15
 -1       184 1.60262E-03-5.65521E-04-1.71391E-15
 -1       185 1.87651E-03-5.94804E-04-2.41756E-15
 -1       186 2.15081E-03-6.14983E-04-3.23696E-15
 -1       187 2.43991E-03-6.29009E-04-4.21889E-15
 -1       188 2.71657E-03-6.37418E-04-5.26683E-15
 -1       189 2.99456E-03-6.42356E-04-6.42184E-15
 -1       190 3.27384E-03-6.44812E-04-7.68279E-15
 -1       191 3.55431E-03-6.45506E-04-9.04706E-15
 -1       192 3.83583E-03-6.44949E-04-1.05118E-14
 -1       193 4.11829E-03-6.43483E-04-1.20756E-14
 -1       194 4.40157E-03-6.41326E-04-1.37402E-14
 -1       195 4.68561E-03-6.38592E-04-1.55043E-14
 -1       196 4.98464E-03-6.35139E-04-1.74545E-14
 -1       197 5.27020E-03-6.31272E-04-1.94052E-14
 -1       198 5.55663E-03-6.26773E-04-2.14503E-14
 -1       199 5.84412E-03-6.21551E-04-2.35892E-14
 -1       200 6.13297E-03-6.15507E-04-2.58157E-14
 -1       201 6.42363E-03-6.08564E-04-2.81219E-14
 -1       202 6.71674E-03-6.00706E-04-3.05041E-14
 -1       203 7.01320E-03-5.92050E-04-3.29637E-14
 -1       204 7.31422E-03-5.82976E-04-3.55014E-14
 -1       205 7.63701E-03-5.73935E-04-3.82489E-14
 -1       206 7.95313E-03-5.67666E-04-4.09427E-14
 -1       207 8.28058E-03-5.67127E-04-4.37044E-14
 -1       208 8.62276E-03-5.78562E-04-4.65333E-14
 -1       209 8.98338E-03-6.12776E-04-4.94186E-14
 -1       210 9.36569E-03-6.87154E-04-5.23615E-14
 -1       211 9.77084E-03-8.26155E-04-5.53613E-14
 -1       212 1.01950E-02-1.05517E-03-5.84153E-14
 -1       213 1.06039E-02-1.36076E-03-6.13659E-14
 -1       214 1.09794E-02-1.68801E-03-6.42211E-14
 -1       215 1.13311E-02-1.95816E-03-6.71500E-14
 -1       216 1.17024E-02-2.06521E-03-7.05218E-14
 -1       217 1.20851E-02-1.94932E-03-7.40072E-14
 -1       218 1.24965E-02-1.73174E-03-7.75834E-14
 -1       219 1.29232E-02-1.54689E-03-8.12297E-14
 -1       220 1.33640E-02-1.45162E-03-8.51030E-14
 -1       221 1.37635E-02-1.45117E-03-8.88202E-14
 -1       222 1.41388E-02-1.51307E-03-9.25693E-14
 -1       223 1.44910E-02-1.61233E-03-9.63504E-14
 -1       224 1.48231E-02-1.73058E-03-1.00149E-13
 -1       225 1.51388E-02-1.85549E-03-1.03955E-13
 -1       226 1.54419E-02-1.97884E-03-1.07756E-13
 -1       227 1.57357E-02-2.09508E-03-1.11558E-13
 -1       228 1.59470E-02-2.17147E-03-1.14383E-13
 -1       229 6.04585E-04 3.31064E-04 1.91226E-17
 -1       230 8.93688E-04 4.32706E-04-8.59840E-17
 -1       231 1.17256E-03 5.04439E-04-2.82340E-16
 -1       232 1.44692E-03 5.55526E-04-5.75376E-16
 -1       233 1.71973E-03 5.91761E-04-9.68318E-16
 -1       234 1.99262E-03 6.17130E-04-1.46455E-15
 -1       235 2.26644E-03 6.34503E-04-2.06413E-15
 -1       236 2.54158E-03 6.46004E-04-2.76830E-15
 -1       237 2.81820E-03 6.53229E-04-3.57616E-15
 -1       238 3.09628E-03 6.57372E-04-4.48874E-15
 -1       239 3.37571E-03 6.59317E-04-5.50387E-15
 -1       240 3.65636E-03 6.59706E-04-6.61957E-15
 -1       241 3.93809E-03 6.58993E-04-7.83366E-15
 -1       242 4.22076E-03 6.57488E-04-9.14924E-15
 -1       243 4.50427E-03 6.55388E-04-1.05639E-14
 -1       244 4.78855E-03 6.52817E-04-1.20770E-14
 -1       245 5.07357E-03 6.49844E-04-1.36859E-14
 -1       246 5.35935E-03 6.46517E-04-1.53894E-14
 -1       247 5.64597E-03 6.42885E-04-1.71890E-14
 -1       248 5.93352E-03 6.39032E-04-1.90936E-14
 -1       249 6.22218E-03 6.35108E-04-2.11015E-14
 -1       250 6.51211E-03 6.31362E-04-2.32056E-14
 -1       251 6.80349E-03 6.28178E-04-2.53967E-14
 -1       252 7.09646E-03 6.26109E-04-2.76736E-14
 -1       253 7.39104E-03 6.25879E-04-3.00381E-14
 -1       254 7.68708E-03 6.28363E-04-3.24936E-14
 -1       255 7.98415E-03 6.34492E-04-3.50356E-14
 -1       256 8.28143E-03 6.45059E-04-3.76599E-14
 -1       257 8.57768E-03 6.60404E-04-4.03671E-14
 -1       258 8.87123E-03 6.79972E-04-4.31522E-14
 -1       259 9.16011E-03 7.01794E-04-4.60103E-14
 -1       260 9.44237E-03 7.22070E-04-4.89423E-14
 -1       261 9.71661E-03 7.35084E-04-5.19467E-14
 -1       262 9.98247E-03 7.33726E-04-5.50233E-14
 -1       263 1.02411E-02 7.10744E-04-5.81805E-14
 -1       264 1.04953E-02 6.60469E-04-6.14140E-14
 -1       265 1.07486E-02 5.80427E-04-6.47268E-14
 -1       266 1.10049E-02 4.72079E-04-6.81179E-14
 -1       267 1.12671E-02 3.40329E-04-7.15760E-14
 -1       268 1.15367E-02 1.92039E-04-7.50989E-14
 -1       269 1.18136E-02 3.42313E-05-7.86882E-14
 -1       270 1.20964E-02-1.27345E-04-8.23270E-14
 -1       271 1.23833E-02-2.88931E-04-8.60016E-14
 -1       272 1.26722E-02-4.48795E-04-8.97064E-14
 -1       273 1.29615E-02-6.06842E-04-9.34328E-14
 -1       274 1.32501E-02-7.64011E-04-9.71786E-14
 -1       275 1.35375E-02-9.21641E-04-1.00938E-13
 -1       276 1.38239E-02-1.08077E-03-1.04701E-13
 -1       277 1.39945E-02-1.17262E-03-1.05803E-13
 -1       278 1.41549E-02-1.25577E-03-1.06384E-13
 -1       279 1.43176E-02-1.33734E-03-1.06962E-13
 -1       280 1.44823E-02-1.41642E-03-1.07548E-13
 -1       281 1.46454E-02-1.49071E-03-1.08123E-13
 -1       282 1.48104E-02-1.56177E-03-1.08711E-13
 -1       283 1.49719E-02-1.62760E-03-1.09302E-13
 -1       284 1.51259E-02-1.68811E-03-1.09888E-13
 -1       285 1.52687E-02-1.74414E-03-1.10462E-13
 -1       286 1.53970E-02-1.79751E-03-1.11027E-13
 -1       287 1.55075E-02-1.84997E-03-1.11578E-13
 -1       288 1.56053E-02-1.90632E-03-1.12118E-13
 -1       289 1.56925E-02-1.96839E-03-1.12640E-13
 -1       290 1.57756E-02-2.03783E-03-1.13149E-13
 -1       291 1.58589E-02-2.10277E-03-1.13765E-13
 -1       292 1.35943E-02-8.72157E-04-7.67287E-14
 -1       293 1.33653E-02-7.37576E-04-7.57517E-14
 -1       294 1.30250E-02-5.73653E-04-7.45617E-14
 -1       295 1.26205E-02-3.77300E-04-7.30727E-14
 -1       296 1.21994E-02-1.68108E-04-7.13518E-14
 -1       297 1.17805E-02 2.74284E-05-6.94060E-14
 -1       298 1.13759E-02 1.65481E-04-6.74890E-14
 -1       299 1.09840E-02 2.31584E-04-6.54956E-14
 -1       300 1.05980E-02 2.04548E-04-6.36412E-14
 -1       301 1.02181E-02 1.09060E-04-6.19315E-14
 -1       302 9.82645E-03-2.50210E-05-6.06456E-14
 -1       303 9.47047E-03-1.69319E-04-5.95747E-14
 -1       304 9.16348E-03-3.05631E-04-5.88197E-14
 -1       305 8.95620E-03-4.25859E-04-5.82856E-14
 -1       306 8.89039E-03-5.22796E-04-5.84999E-14
 -1       307 8.97289E-03-6.28619E-04-5.88675E-14
 -1       308 9.22845E-03-7.61975E-04-5.95467E-14
 -1       309 9.60613E-03-9.82627E-04-6.08868E-14
 -1       310 1.00249E-02-1.25688E-03-6.25015E-14
 -1       311 1.04722E-02-1.53561E-03-6.42448E-14
 -1       312 1.09340E-02-1.77473E-03-6.61482E-14
 -1       313 1.13923E-02-1.91937E-03-6.81991E-14
 -1       314 1.18139E-02-1.90629E-03-7.01315E-14
 -1       315 1.22318E-02-1.78414E-03-7.19417E-14
 -1       316 1.26490E-02-1.59461E-03-7.35704E-14
 -1       317 1.30417E-02-1.39185E-03-7.49375E-14
 -1       318 1.33607E-02-1.21858E-03-7.59422E-14
 -1       319 1.35785E-02-1.07840E-03-7.66538E-14
 -1       320 1.36682E-02-9.70393E-04-7.69468E-14
 -1       321 4.55394E-04-1.64821E-04-1.95800E-16
 -1       322 4.74266E-04-2.12997E-04-1.76423E-16
 -1       323 4.40441E-04-9.40274E-05-2.06625E-16
 -1       324 4.37482E-04-6.49204E-05-2.04643E-16
 -1       325 4.35862E-04-3.79106E-05-2.00164E-16
 -1       326 4.35152E-04-1.20197E-05-1.93364E-16
 -1       327 4.35184E-04 1.35362E-05-1.84762E-16
 -1       328 4.35961E-04 3.94851E-05-1.73794E-16
 -1       329 4.37625E-04 6.61451E-05-1.60106E-16
 -1       330 4.40678E-04 9.54246E-05-1.42183E-16
 -1       331 4.46064E-04 1.28340E-04-1.18934E-16
 -1       332 4.55992E-04 1.67327E-04-8.79390E-17
 -1       333 4.75884E-04 2.16992E-04-4.53434E-17
 -1       334 5.31994E-04 2.69974E-04-1.93937E-17
 -1       335 8.24488E-04 3.73495E-04-1.37023E-16
 -1       336 8.63282E-04-3.57420E-04-5.30764E-16
 -1       337 1.14964E-03-4.26184E-04-9.41267E-16
 -1       338 1.43242E-03-4.75354E-04-1.46882E-15
 -1       339 1.71314E-03-5.10080E-04-2.11142E-15
 -1       340 1.99292E-03-5.34159E-04-2.86909E-15
 -1       341 2.28650E-03-5.51052E-04-3.78493E-15
 -1       342 2.56641E-03-5.61343E-04-4.76908E-15
 -1       343 2.84688E-03-5.67561E-04-5.86028E-15
 -1       344 3.12803E-03-5.70870E-04-7.05654E-15
 -1       345 3.40988E-03-5.72122E-04-8.35673E-15
 -1       346 3.69241E-03-5.71924E-04-9.75658E-15
 -1       347 3.97560E-03-5.70698E-04-1.12574E-14
 -1       348 4.25938E-03-5.68714E-04-1.28570E-14
 -1       349 4.54372E-03-5.66125E-04-1.45560E-14
 -1       350 4.84287E-03-5.62827E-04-1.64435E-14
 -1       351 5.12836E-03-5.59126E-04-1.83328E-14
 -1       352 5.41447E-03-5.54820E-04-2.03154E-14
 -1       353 5.70131E-03-5.49816E-04-2.23901E-14
 -1       354 5.98903E-03-5.44001E-04-2.45550E-14
 -1       355 6.27788E-03-5.37265E-04-2.68036E-14
 -1       356 6.56815E-03-5.29536E-04-2.91295E-14
 -1       357 6.86027E-03-5.20827E-04-3.15323E-14
 -1       358 7.15474E-03-5.11331E-04-3.40145E-14
 -1       359 7.46717E-03-5.01096E-04-3.67038E-14
 -1       360 7.76862E-03-4.92323E-04-3.93453E-14
 -1       361 8.07484E-03-4.86825E-04-4.20575E-14
 -1       362 8.38705E-03-4.88843E-04-4.48403E-14
 -1       363 8.70706E-03-5.05802E-04-4.76835E-14
 -1       364 9.03798E-03-5.50058E-04-5.05803E-14
 -1       365 9.38559E-03-6.40805E-04-5.35323E-14
 -1       366 9.75954E-03-8.04606E-04-5.65401E-14
 -1       367 1.01496E-02-1.05333E-03-5.94452E-14
 -1       368 1.05509E-02-1.37589E-03-6.22479E-14
 -1       369 1.10445E-02-1.77037E-03-6.53894E-14
 -1       370 1.14540E-02-1.98694E-03-6.84753E-14
 -1       371 1.19061E-02-1.95894E-03-7.18946E-14
 -1       372 1.23709E-02-1.73034E-03-7.53972E-14
 -1       373 1.28178E-02-1.50495E-03-7.90116E-14
 -1       374 1.32498E-02-1.37126E-03-8.28675E-14
 -1       375 1.36241E-02-1.34524E-03-8.65631E-14
 -1       376 1.39715E-02-1.39091E-03-9.02876E-14
 -1       377 1.43009E-02-1.48130E-03-9.40464E-14
 -1       378 1.46176E-02-1.59622E-03-9.78328E-14
 -1       379 1.49248E-02-1.72190E-03-1.01630E-13
 -1       380 1.52243E-02-1.84909E-03-1.05428E-13
 -1       381 1.55174E-02-1.97127E-03-1.09230E-13
 -1       382 1.27168E-03 4.61200E-04-5.57239E-16
 -1       383 1.55260E-03 5.04086E-04-9.27850E-16
 -1       384 1.83197E-03 5.34238E-04-1.39871E-15
 -1       385 2.11084E-03 5.55001E-04-1.97152E-15
 -1       386 2.38986E-03 5.68871E-04-2.64731E-15
 -1       387 2.66941E-03 5.77722E-04-3.42582E-15
 -1       388 2.94967E-03 5.82956E-04-4.30623E-15
 -1       389 3.23071E-03 5.85616E-04-5.28955E-15
 -1       390 3.51253E-03 5.86460E-04-6.37449E-15
 -1       391 3.79508E-03 5.86032E-04-7.55861E-15
 -1       392 4.07832E-03 5.84703E-04-8.84080E-15
 -1       393 4.36218E-03 5.82717E-04-1.02223E-14
 -1       394 4.64662E-03 5.80223E-04-1.17016E-14
 -1       395 4.93164E-03 5.77302E-04-1.32758E-14
 -1       396 5.21723E-03 5.74000E-04-1.49462E-14
 -1       397 5.50344E-03 5.70350E-04-1.67127E-14
 -1       398 5.79034E-03 5.66400E-04-1.85803E-14
 -1       399 6.07804E-03 5.62251E-04-2.05479E-14
 -1       400 6.36668E-03 5.58083E-04-2.26158E-14
 -1       401 6.65640E-03 5.54199E-04-2.47727E-14
 -1       402 6.94736E-03 5.51059E-04-2.70158E-14
 -1       403 7.23968E-03 5.49309E-04-2.93461E-14
 -1       404 7.53341E-03 5.49778E-04-3.17599E-14
 -1       405 7.82850E-03 5.53439E-04-3.42652E-14
 -1       406 8.12468E-03 5.61277E-04-3.68516E-14
 -1       407 8.42143E-03 5.74052E-04-3.95184E-14
 -1       408 8.71787E-03 5.91906E-04-4.22659E-14
 -1       409 9.01276E-03 6.13844E-04-4.50894E-14
 -1       410 9.30457E-03 6.37164E-04-4.79871E-14
 -1       411 9.59174E-03 6.57054E-04-5.09570E-14
 -1       412 9.87315E-03 6.66675E-04-5.40002E-14
 -1       413 1.01486E-02 6.58032E-04-5.71192E-14
 -1       414 1.04194E-02 6.23692E-04-6.03162E-14
 -1       415 1.06880E-02 5.58872E-04-6.35918E-14
 -1       416 1.09576E-02 4.62984E-04-6.69422E-14
 -1       417 1.12308E-02 3.39804E-04-7.03660E-14
 -1       418 1.15092E-02 1.96178E-04-7.38557E-14
 -1       419 1.17928E-02 3.99427E-05-7.74125E-14
 -1       420 1.20807E-02-1.21977E-04-8.10300E-14
 -1       421 1.23713E-02-2.84687E-04-8.46885E-14
 -1       422 1.26629E-02-4.45589E-04-8.83746E-14
 -1       423 1.29543E-02-6.04052E-04-9.20870E-14
 -1       424 1.32446E-02-7.60806E-04-9.58201E-14
 -1       425 1.35334E-02-9.17272E-04-9.95692E-14
 -1       426 1.37644E-02-1.04420E-03-1.02685E-13
 -1       427 1.41525E-02-1.24157E-03-1.03996E-13
 -1       428 1.39883E-02-1.15969E-03-1.03413E-13
 -1       429 1.43160E-02-1.32006E-03-1.04574E-13
 -1       430 1.44831E-02-1.39696E-03-1.05157E-13
 -1       431 1.46485E-02-1.46997E-03-1.05739E-13
 -1       432 1.48089E-02-1.53840E-03-1.06317E-13
 -1       433 1.49598E-02-1.60219E-03-1.06891E-13
 -1       434 1.50972E-02-1.66211E-03-1.07453E-13
 -1       435 1.52161E-02-1.71894E-03-1.08002E-13
 -1       436 1.53200E-02-1.77713E-03-1.08542E-13
 -1       437 1.54094E-02-1.83848E-03-1.09066E-13
 -1       438 1.54902E-02-1.90544E-03-1.09582E-13
 -1       439 1.04895E-03 4.24748E-04-3.13375E-16
 -1       440 1.31672E-02-7.59752E-04-7.66517E-14
 -1       441 1.23054E-02-3.42351E-04-7.31826E-14
 -1       442 1.36747E-02-9.60677E-04-7.87513E-14
 -1       443 1.27593E-02-5.65886E-04-7.49143E-14
 -1       444 4.45681E-04-1.26430E-04-2.04301E-16
 -1       445 1.18700E-02-8.64900E-05-7.08818E-14
 -1       446 1.15010E-02 1.06623E-04-6.87659E-14
 -1       447 1.11382E-02 2.39218E-04-6.64132E-14
 -1       448 1.07794E-02 2.59767E-04-6.39965E-14
 -1       449 1.04513E-02 1.82179E-04-6.20700E-14
 -1       450 1.00487E-02 2.01195E-05-6.01565E-14
 -1       451 9.69146E-03-1.37470E-04-5.89449E-14
 -1       452 9.33353E-03-2.90426E-04-5.77389E-14
 -1       453 9.05647E-03-3.94810E-04-5.71988E-14
 -1       454 8.88429E-03-4.71231E-04-5.70027E-14
 -1       455 8.89602E-03-5.18375E-04-5.71487E-14
 -1       456 9.06648E-03-5.83086E-04-5.75691E-14
 -1       457 9.46467E-03-7.66064E-04-5.90473E-14
 -1       458 9.92212E-03-1.04416E-03-6.09405E-14
 -1       459 1.03717E-02-1.35094E-03-6.28261E-14
 -1       460 1.08092E-02-1.65699E-03-6.48804E-14
 -1       461 1.12060E-02-1.88454E-03-6.70475E-14
 -1       462 1.16414E-02-1.97643E-03-6.97150E-14
 -1       463 1.19898E-02-1.88267E-03-7.17206E-14
 -1       464 1.23836E-02-1.68399E-03-7.37545E-14
 -1       465 1.27946E-02-1.45028E-03-7.54493E-14
 -1       466 1.31737E-02-1.24080E-03-7.71104E-14
 -1       467 1.34694E-02-1.10201E-03-7.80128E-14
 -1       468 1.36558E-02-1.01456E-03-7.87120E-14
 -1       469 1.34812E-02-8.77790E-04-7.77808E-14
 -1       470 6.65847E-04-7.51447E-05-4.30506E-16
 -1       471 6.69809E-04-1.15909E-04-4.36544E-16
 -1       472 6.63178E-04 1.10291E-06-4.04855E-16
 -1       473 6.63899E-04 3.87693E-05-3.85783E-16
 -1       474 6.66035E-04 7.68288E-05-3.62669E-16
 -1       475 6.70120E-04 1.17746E-04-3.33125E-16
 -1       476 6.77120E-04 1.62369E-04-2.96340E-16
 -1       477 6.88965E-04 2.12747E-04-2.49404E-16
 -1       478 7.09784E-04 2.71792E-04-1.89017E-16
 -1       479 7.63513E-04 3.20529E-04-1.68089E-16
 -1       480 9.76307E-04-3.28647E-04-7.57596E-16
 -1       481 1.29337E-02-7.17799E-04-7.70599E-14
 -1       482 1.36035E-02-1.06032E-03-8.02135E-14
 -1       483 1.26222E-03-3.83532E-04-1.23022E-15
 -1       484 1.54724E-03-4.23276E-04-1.81498E-15
 -1       485 1.83138E-03-4.51319E-04-2.51217E-15
 -1       486 2.12908E-03-4.71330E-04-3.36388E-15
 -1       487 2.41236E-03-4.83777E-04-4.28566E-15
 -1       488 2.69562E-03-4.91541E-04-5.31426E-15
 -1       489 2.97903E-03-4.95939E-04-6.44664E-15
 -1       490 3.26269E-03-4.97949E-04-7.68267E-15
 -1       491 3.54664E-03-4.98282E-04-9.01977E-15
 -1       492 3.83090E-03-4.97437E-04-1.04572E-14
 -1       493 4.11547E-03-4.95746E-04-1.19922E-14
 -1       494 4.40034E-03-4.93413E-04-1.36258E-14
 -1       495 4.69979E-03-4.90381E-04-1.54469E-14
 -1       496 4.98530E-03-4.86964E-04-1.72772E-14
 -1       497 5.27114E-03-4.82995E-04-1.91991E-14
 -1       498 5.55735E-03-4.78398E-04-2.12118E-14
 -1       499 5.84397E-03-4.73074E-04-2.33137E-14
 -1       500 6.13106E-03-4.66921E-04-2.55019E-14
 -1       501 6.41868E-03-4.59864E-04-2.77722E-14
 -1       502 6.70686E-03-4.51894E-04-3.01218E-14
 -1       503 6.99561E-03-4.43139E-04-3.25478E-14
 -1       504 7.29931E-03-4.33519E-04-3.51785E-14
 -1       505 7.58881E-03-4.24810E-04-3.77642E-14
 -1       506 7.87819E-03-4.18134E-04-4.04294E-14
 -1       507 8.16696E-03-4.16259E-04-4.31643E-14
 -1       508 8.45482E-03-4.23805E-04-4.59637E-14
 -1       509 8.74250E-03-4.48198E-04-4.88187E-14
 -1       510 9.03372E-03-5.01037E-04-5.17241E-14
 -1       511 9.33877E-03-6.00702E-04-5.46847E-14
 -1       512 9.65974E-03-7.66027E-04-5.75427E-14
 -1       513 1.01317E-02-1.08778E-03-6.05611E-14
 -1       514 1.33467E-02-8.87483E-04-7.90893E-14
 -1       515 1.31720E-02-1.29988E-03-8.05669E-14
 -1       516 1.35267E-02-1.25197E-03-8.42549E-14
 -1       517 1.38441E-02-1.28350E-03-8.79591E-14
 -1       518 1.41447E-02-1.36365E-03-9.16936E-14
 -1       519 1.44384E-02-1.47209E-03-9.54601E-14
 -1       520 1.47293E-02-1.59507E-03-9.92435E-14
 -1       521 1.50186E-02-1.72308E-03-1.03042E-13
 -1       522 1.52570E-02-1.81648E-03-1.06305E-13
 -1       523 1.95097E-03 4.73443E-04-1.85692E-15
 -1       524 1.66766E-03 4.49034E-04-1.31011E-15
 -1       525 1.38350E-03 4.14103E-04-8.63228E-16
 -1       526 2.23383E-03 4.90005E-04-2.50496E-15
 -1       527 2.51658E-03 5.00798E-04-3.25455E-15
 -1       528 2.79945E-03 5.07404E-04-4.10579E-15
 -1       529 3.08257E-03 5.11017E-04-5.05833E-15
 -1       530 3.36601E-03 5.12516E-04-6.11226E-15
 -1       531 3.64981E-03 5.12538E-04-7.26563E-15
 -1       532 3.93397E-03 5.11526E-04-8.51826E-15
 -1       533 4.21848E-03 5.09774E-04-9.86669E-15
 -1       534 4.50333E-03 5.07468E-04-1.13129E-14
 -1       535 4.78851E-03 5.04712E-04-1.28550E-14
 -1       536 5.07405E-03 5.01556E-04-1.44916E-14
 -1       537 5.35995E-03 4.98025E-04-1.62253E-14
 -1       538 5.64628E-03 4.94142E-04-1.80573E-14
 -1       539 5.93311E-03 4.89960E-04-1.99891E-14
 -1       540 6.22055E-03 4.85591E-04-2.20202E-14
 -1       541 6.50873E-03 4.81244E-04-2.41438E-14
 -1       542 6.79784E-03 4.77261E-04-2.63534E-14
 -1       543 7.08809E-03 4.74159E-04-2.86498E-14
 -1       544 7.37971E-03 4.72647E-04-3.10288E-14
 -1       545 7.67296E-03 4.73635E-04-3.34933E-14
 -1       546 7.96806E-03 4.78168E-04-3.60461E-14
 -1       547 8.26508E-03 4.87294E-04-3.86743E-14
 -1       548 8.56389E-03 5.01777E-04-4.13827E-14
 -1       549 8.86391E-03 5.21651E-04-4.41706E-14
 -1       550 9.16404E-03 5.45593E-04-4.70341E-14
 -1       551 9.46258E-03 5.70214E-04-4.99701E-14
 -1       552 9.75761E-03 5.89578E-04-5.29786E-14
 -1       553 1.00476E-02 5.95403E-04-5.60589E-14
 -1       554 1.03323E-02 5.78421E-04-5.92190E-14
 -1       555 1.06133E-02 5.30877E-04-6.24571E-14
 -1       556 1.08937E-02 4.49291E-04-6.57707E-14
 -1       557 1.11769E-02 3.35777E-04-6.91593E-14
 -1       558 1.14648E-02 1.97173E-04-7.26165E-14
 -1       559 1.17576E-02 4.24891E-05-7.61417E-14
 -1       560 1.20540E-02-1.19807E-04-7.97317E-14
 -1       561 1.23519E-02-2.83511E-04-8.33736E-14
 -1       562 1.26495E-02-4.45155E-04-8.70458E-14
 -1       563 1.29455E-02-6.03636E-04-9.07449E-14
 -1       564 1.32391E-02-7.59512E-04-9.44660E-14
 -1       565 1.35301E-02-9.14311E-04-9.82075E-14
 -1       566 1.41515E-02-1.23267E-03-1.01604E-13
 -1       567 1.39865E-02-1.15155E-03-1.01032E-13
 -1       568 1.38209E-02-1.06751E-03-1.00450E-13
 -1       569 1.36134E-02-9.65045E-04-8.00648E-14
 -1       570 1.43200E-02-1.31253E-03-1.02183E-13
 -1       571 1.44863E-02-1.38839E-03-1.02757E-13
 -1       572 1.46460E-02-1.45919E-03-1.03325E-13
 -1       573 1.47940E-02-1.52462E-03-1.03886E-13
 -1       574 1.49234E-02-1.58456E-03-1.04429E-13
 -1       575 1.50360E-02-1.64324E-03-1.04966E-13
 -1       576 1.51298E-02-1.70273E-03-1.05499E-13
 -1       577 1.51964E-02-1.75695E-03-1.05905E-13
 -1       578 1.29737E-02-1.34329E-03-7.78034E-14
 -1       579 7.12654E-04-2.51752E-04-4.31214E-16
 -1       580 1.20181E-02-2.32369E-04-7.27909E-14
 -1       581 1.27197E-02-1.49371E-03-7.68798E-14
 -1       582 6.63785E-04-3.65276E-05-4.19790E-16
 -1       583 1.12971E-02 1.79172E-04-6.78678E-14
 -1       584 1.16433E-02 2.16818E-07-7.03224E-14
 -1       585 1.09122E-02 2.81226E-04-6.47473E-14
 -1       586 1.05773E-02 2.48685E-04-6.21418E-14
 -1       587 1.02307E-02 1.18736E-04-6.00105E-14
 -1       588 9.83458E-03-6.49273E-05-5.81177E-14
 -1       589 9.50886E-03-2.10638E-04-5.69220E-14
 -1       590 9.15124E-03-3.48150E-04-5.59444E-14
 -1       591 8.91418E-03-4.20669E-04-5.53725E-14
 -1       592 8.84506E-03-4.61397E-04-5.56044E-14
 -1       593 8.91903E-03-4.87333E-04-5.56634E-14
 -1       594 9.24178E-03-5.99166E-04-5.68762E-14
 -1       595 9.73875E-03-8.51424E-04-5.90626E-14
 -1       596 1.25351E-02-5.30767E-04-7.55056E-14
 -1       597 1.33671E-02-1.15461E-03-7.95302E-14
 -1       598 1.37178E-02-1.00815E-03-8.04415E-14
 -1       599 6.76598E-04-1.60143E-04-4.36947E-16
 -1       600 9.90447E-04 3.72934E-04-3.47890E-16
 -1       601 1.37256E-02-1.01473E-03-8.17528E-14
 -1       602 1.18681E-03 3.98380E-04-5.76606E-16
 -1       603 1.07775E-02-1.59219E-03-6.41637E-14
 -1       604 9.02369E-03-4.96026E-04-5.49762E-14
 -1       605 1.10739E-02 2.56750E-04-6.61766E-14
 -1       606 1.21938E-02-1.80647E-03-7.36811E-14
 -1       607 8.99804E-04 7.41168E-05-6.49945E-16
 -1       608 8.97714E-04 2.51797E-05-6.83711E-16
 -1       609 9.11847E-04 1.78256E-04-5.58822E-16
 -1       610 9.24222E-04 2.36767E-04-4.96785E-16
 -1       611 9.36661E-04 3.23571E-04-3.72234E-16
 -1       612 1.38330E-03-3.37085E-04-1.53010E-15
 -1       613 1.66951E-03-3.67989E-04-2.16869E-15
 -1       614 1.97003E-03-3.90634E-04-2.95670E-15
 -1       615 2.25607E-03-4.05093E-04-3.81782E-15
 -1       616 2.54192E-03-4.14413E-04-4.78405E-15
 -1       617 2.82764E-03-4.19985E-04-5.85409E-15
 -1       618 3.11327E-03-4.22873E-04-7.02625E-15
 -1       619 3.39886E-03-4.23865E-04-8.30080E-15
 -1       620 3.68444E-03-4.23528E-04-9.67512E-15
 -1       621 3.97003E-03-4.22254E-04-1.11466E-14
 -1       622 4.25566E-03-4.20292E-04-1.27159E-14
 -1       623 4.55561E-03-4.17649E-04-1.44689E-14
 -1       624 4.84132E-03-4.14637E-04-1.62383E-14
 -1       625 5.12707E-03-4.11139E-04-1.80991E-14
 -1       626 5.41285E-03-4.07111E-04-2.00507E-14
 -1       627 5.69862E-03-4.02482E-04-2.20916E-14
 -1       628 5.98433E-03-3.97184E-04-2.42177E-14
 -1       629 6.26987E-03-3.91169E-04-2.64306E-14
 -1       630 6.55504E-03-3.84454E-04-2.87256E-14
 -1       631 6.83952E-03-3.77174E-04-3.10997E-14
 -1       632 7.13693E-03-3.69301E-04-3.36735E-14
 -1       633 7.41810E-03-3.62284E-04-3.62060E-14
 -1       634 7.69608E-03-3.56949E-04-3.88159E-14
 -1       635 7.96924E-03-3.55235E-04-4.15024E-14
 -1       636 8.23558E-03-3.60081E-04-4.42581E-14
 -1       637 8.49299E-03-3.75699E-04-4.70720E-14
 -1       638 8.74016E-03-4.07966E-04-4.99348E-14
 -1       639 8.97879E-03-4.65671E-04-5.28475E-14
 -1       640 9.27125E-03-5.82516E-04-5.58176E-14
 -1       641 1.35806E-02-1.12198E-03-8.21339E-14
 -1       642 1.35299E-02-9.15666E-04-9.67028E-14
 -1       643 1.37751E-02-1.18135E-03-8.57063E-14
 -1       644 1.40327E-02-1.25645E-03-8.94196E-14
 -1       645 1.42924E-02-1.35850E-03-9.31645E-14
 -1       646 1.45584E-02-1.47628E-03-9.69336E-14
 -1       647 1.48306E-02-1.60183E-03-1.00721E-13
 -1       648 1.50141E-02-1.67999E-03-1.03310E-13
 -1       649 1.78978E-03 3.90933E-04-1.72222E-15
 -1       650 2.07560E-03 4.09959E-04-2.34302E-15
 -1       651 1.50382E-03 3.63565E-04-1.20108E-15
 -1       652 2.64661E-03 4.30733E-04-3.88809E-15
 -1       653 2.93195E-03 4.35425E-04-4.81132E-15
 -1       654 3.21725E-03 4.37721E-04-5.83495E-15
 -1       655 3.50257E-03 4.38333E-04-6.95723E-15
 -1       656 3.78792E-03 4.37772E-04-8.17860E-15
 -1       657 4.07333E-03 4.36383E-04-9.49588E-15
 -1       658 4.35882E-03 4.34390E-04-1.09103E-14
 -1       659 4.64438E-03 4.31923E-04-1.24218E-14
 -1       660 4.93004E-03 4.29046E-04-1.40278E-14
 -1       661 5.21581E-03 4.25784E-04-1.57284E-14
 -1       662 5.50173E-03 4.22141E-04-1.75255E-14
 -1       663 5.78784E-03 4.18131E-04-1.94207E-14
 -1       664 6.07423E-03 4.13802E-04-2.14161E-14
 -1       665 6.36102E-03 4.09265E-04-2.35066E-14
 -1       666 6.64839E-03 4.04734E-04-2.56832E-14
 -1       667 6.93658E-03 4.00560E-04-2.79464E-14
 -1       668 7.22597E-03 3.97274E-04-3.02930E-14
 -1       669 7.51702E-03 3.95617E-04-3.27220E-14
 -1       670 7.81030E-03 3.96549E-04-3.52366E-14
 -1       671 8.10644E-03 4.01215E-04-3.78323E-14
 -1       672 8.40599E-03 4.10813E-04-4.05043E-14
 -1       673 8.70922E-03 4.26307E-04-4.32559E-14
 -1       674 9.01573E-03 4.47902E-04-4.60821E-14
 -1       675 9.32415E-03 4.74188E-04-4.89823E-14
 -1       676 9.63207E-03 5.01091E-04-5.19554E-14
 -1       677 9.93649E-03 5.21074E-04-5.50004E-14
 -1       678 1.02352E-02 5.23448E-04-5.81248E-14
 -1       679 1.05281E-02 4.96743E-04-6.13259E-14
 -1       680 1.08183E-02 4.32784E-04-6.46011E-14
 -1       681 1.11102E-02 3.30660E-04-6.79554E-14
 -1       682 1.14072E-02 1.96920E-04-7.13811E-14
 -1       683 1.17102E-02 4.25297E-05-7.48759E-14
 -1       684 1.20172E-02-1.21457E-04-7.84388E-14
 -1       685 1.23252E-02-2.86900E-04-8.20571E-14
 -1       686 1.26315E-02-4.49341E-04-8.57176E-14
 -1       687 1.29343E-02-6.07405E-04-8.94025E-14
 -1       688 1.32340E-02-7.62774E-04-9.30429E-14
 -1       689 1.38170E-02-1.06694E-03-9.80652E-14
 -1       690 1.41570E-02-1.23670E-03-9.92140E-14
 -1       691 1.35494E-02-9.80151E-04-8.17670E-14
 -1       692 1.43255E-02-1.31537E-03-9.97764E-14
 -1       693 1.44857E-02-1.38731E-03-1.00333E-13
 -1       694 1.46287E-02-1.45104E-03-1.00868E-13
 -1       695 1.47539E-02-1.51020E-03-1.01409E-13
 -1       696 1.48556E-02-1.56702E-03-1.01939E-13
 -1       697 1.37407E-02-1.05767E-03-8.23453E-14
 -1       698 8.72360E-04-2.47184E-04-6.62102E-16
 -1       699 9.95002E-03 5.82915E-05-5.74242E-14
 -1       700 1.22829E-02-4.16541E-04-7.55962E-14
 -1       701 1.12693E-03-2.97140E-04-1.05197E-15
 -1       702 9.04245E-04 1.24633E-04-6.08979E-16
 -1       703 1.27910E-02-6.87237E-04-7.80863E-14
 -1       704 2.36119E-03 4.22673E-04-3.06495E-15
 -1       705 1.39864E-02-1.15331E-03-9.86421E-14
 -1       706 9.03870E-04-1.22225E-04-7.44854E-16
 -1       707 1.31935E-02-8.62240E-04-8.01241E-14
 -1       708 8.95900E-03-3.55913E-04-5.38180E-14
 -1       709 1.14705E-02 8.01145E-05-6.96440E-14
 -1       710 1.07118E-02 3.01552E-04-6.29483E-14
 -1       711 1.03273E-02 2.09799E-04-5.98918E-14
 -1       712 9.59982E-03-1.14406E-04-5.59123E-14
 -1       713 9.26140E-03-2.64664E-04-5.48949E-14
 -1       714 8.79065E-03-4.02724E-04-5.34503E-14
 -1       715 8.79004E-03-4.20312E-04-5.35091E-14
 -1       716 1.17922E-02-1.12817E-04-7.21020E-14
 -1       717 8.97651E-04-2.31619E-05-7.10606E-16
 -1       718 8.82139E-03-4.21192E-04-5.28315E-14
 -1       719 1.37100E-02-1.03489E-03-8.34562E-14
 -1       720 9.11253E-04-1.75615E-04-7.51135E-16
 -1       721 1.38124E-02-1.06352E-03-8.36565E-14
 -1       722 1.49391E-02-1.62160E-03-1.02625E-13
 -1       723 1.21783E-03 3.25397E-04-7.78159E-16
 -1       724 1.12468E-02 1.90694E-04-6.79235E-14
 -1       725 8.99593E-04-7.18385E-05-7.31003E-16
 -1       726 1.16153E-03 2.43694E-04-8.32061E-16
 -1       727 1.80452E-03-3.09973E-04-2.54754E-15
 -1       728 2.09220E-03-3.25870E-04-3.34517E-15
 -1       729 2.38000E-03-3.36481E-04-4.24785E-15
 -1       730 2.66770E-03-3.43139E-04-5.25316E-15
 -1       731 2.95520E-03-3.46915E-04-6.35980E-15
 -1       732 3.24246E-03-3.48632E-04-7.56862E-15
 -1       733 3.52946E-03-3.48898E-04-8.87748E-15
 -1       734 3.81623E-03-3.48146E-04-1.02841E-14
 -1       735 4.10278E-03-3.46667E-04-1.17877E-14
 -1       736 4.40342E-03-3.44529E-04-1.34712E-14
 -1       737 4.68953E-03-3.42035E-04-1.51738E-14
 -1       738 4.97541E-03-3.39126E-04-1.69706E-14
 -1       739 5.26104E-03-3.35792E-04-1.88583E-14
 -1       740 5.54633E-03-3.32003E-04-2.08372E-14
 -1       741 5.83116E-03-3.27726E-04-2.29013E-14
 -1       742 6.11535E-03-3.22955E-04-2.50519E-14
 -1       743 6.39859E-03-3.17748E-04-2.72891E-14
 -1       744 6.68042E-03-3.12271E-04-2.96085E-14
 -1       745 6.97408E-03-3.06617E-04-3.21262E-14
 -1       746 7.25054E-03-3.01973E-04-3.46045E-14
 -1       747 7.52242E-03-2.99097E-04-3.71612E-14
 -1       748 7.78771E-03-2.99541E-04-3.97911E-14
 -1       749 8.04370E-03-3.05492E-04-4.24961E-14
 -1       750 8.28681E-03-3.19754E-04-4.52680E-14
 -1       751 8.51242E-03-3.45652E-04-4.80905E-14
 -1       752 1.39479E-02-1.16123E-03-8.71205E-14
 -1       753 1.41627E-02-1.25623E-03-9.08426E-14
 -1       754 1.43971E-02-1.36612E-03-9.45916E-14
 -1       755 1.46472E-02-1.48545E-03-9.83635E-14
 -1       756 1.91739E-03 3.29939E-04-2.16470E-15
 -1       757 1.63005E-03 3.09439E-04-1.57086E-15
 -1       758 3.06691E-03 3.62091E-04-5.54246E-15
 -1       759 2.77978E-03 3.58996E-04-4.54786E-15
 -1       760 3.64052E-03 3.63327E-04-7.82434E-15
 -1       761 3.92701E-03 3.62402E-04-9.11053E-15
 -1       762 4.21331E-03 3.60832E-04-1.04940E-14
 -1       763 4.49944E-03 3.58773E-04-1.19750E-14
 -1       764 4.78542E-03 3.56304E-04-1.35519E-14
 -1       765 5.07125E-03 3.53454E-04-1.52207E-14
 -1       766 5.35696E-03 3.50222E-04-1.69849E-14
 -1       767 5.64257E-03 3.46592E-04-1.88459E-14
 -1       768 5.92813E-03 3.42556E-04-2.08041E-14
 -1       769 6.21373E-03 3.38142E-04-2.28593E-14
 -1       770 6.49950E-03 3.33433E-04-2.50049E-14
 -1       771 6.78570E-03 3.28609E-04-2.72361E-14
 -1       772 7.07270E-03 3.23984E-04-2.95496E-14
 -1       773 7.36106E-03 3.20051E-04-3.19462E-14
 -1       774 7.65156E-03 3.17542E-04-3.44268E-14
 -1       775 7.94521E-03 3.17471E-04-3.69885E-14
 -1       776 8.24316E-03 3.21159E-04-3.96281E-14
 -1       777 8.54657E-03 3.30166E-04-4.23433E-14
 -1       778 8.85615E-03 3.46034E-04-4.51325E-14
 -1       779 9.17162E-03 3.69624E-04-4.79979E-14
 -1       780 9.49098E-03 3.99785E-04-5.09329E-14
 -1       781 9.81044E-03 4.31523E-04-5.39440E-14
 -1       782 1.01253E-02 4.54493E-04-5.70298E-14
 -1       783 1.04326E-02 4.53469E-04-6.01951E-14
 -1       784 1.07334E-02 4.13439E-04-6.34341E-14
 -1       785 1.10337E-02 3.26963E-04-6.67521E-14
 -1       786 1.13394E-02 1.98662E-04-7.01472E-14
 -1       787 1.16529E-02 4.23507E-05-7.36104E-14
 -1       788 1.19723E-02-1.26247E-04-7.71451E-14
 -1       789 1.22927E-02-2.95537E-04-8.07424E-14
 -1       790 1.26099E-02-4.59611E-04-8.43878E-14
 -1       791 1.29215E-02-6.17012E-04-8.80616E-14
 -1       792 1.41689E-02-1.24970E-03-9.67974E-14
 -1       793 1.34720E-02-9.77606E-04-8.37109E-14
 -1       794 1.38331E-02-1.10505E-03-8.47292E-14
 -1       795 1.39955E-02-1.16880E-03-9.62428E-14
 -1       796 1.44717E-02-1.38147E-03-9.78675E-14
 -1       797 1.45874E-02-1.43623E-03-9.83966E-14
 -1       798 1.35199E-02-9.22029E-04-9.43987E-14
 -1       799 1.08965E-02 3.06531E-04-6.46953E-14
 -1       800 1.00503E-02 1.91254E-04-5.72502E-14
 -1       801 9.63299E-03 3.58329E-06-5.47501E-14
 -1       802 1.43301E-02-1.32040E-03-9.73348E-14
 -1       803 3.35383E-03 3.63352E-04-6.63468E-15
 -1       804 1.51740E-03-2.87227E-04-1.85643E-15
 -1       805 1.26370E-02-6.09411E-04-7.89738E-14
 -1       806 1.30052E-02-7.91519E-04-8.10242E-14
 -1       807 9.02639E-03-2.70956E-04-5.26172E-14
 -1       808 1.13831E-03 5.90673E-05-1.02379E-15
 -1       809 8.74572E-03-3.31699E-04-5.12967E-14
 -1       810 1.20018E-02-2.44023E-04-7.45074E-14
 -1       811 1.04301E-02 3.02202E-04-6.03064E-14
 -1       812 8.70260E-03-3.75458E-04-5.17917E-14
 -1       813 9.30047E-03-1.60765E-04-5.34763E-14
 -1       814 1.16910E-02-5.33311E-05-7.20083E-14
 -1       815 8.68379E-03-3.75934E-04-5.11230E-14
 -1       816 1.14985E-03 1.79119E-04-9.08087E-16
 -1       817 8.71945E-03-3.87940E-04-5.10340E-14
 -1       818 1.36673E-02-1.04539E-03-8.54073E-14
 -1       819 2.20491E-03 3.44046E-04-2.85858E-15
 -1       820 1.47919E-02-1.55321E-03-1.00493E-13
 -1       821 1.38200E-02-1.08105E-03-9.56816E-14
 -1       822 1.26102E-03-2.57118E-04-1.32900E-15
 -1       823 2.49243E-03 3.53314E-04-3.65285E-15
 -1       824 1.32219E-02-7.72393E-04-9.12220E-14
 -1       825 1.36686E-02-1.00234E-03-9.50397E-14
 -1       826 1.38527E-02-1.08818E-03-8.53600E-14
 -1       827 1.14244E-03 1.17891E-04-9.71262E-16
 -1       828 1.14927E-03-1.76151E-04-1.14126E-15
 -1       829 1.06189E-02 3.52672E-04-6.20093E-14
 -1       830 1.14648E-02 8.11912E-05-7.02575E-14
 -1       831 1.23570E-02-4.42932E-04-7.78605E-14
 -1       832 1.13695E-03 1.20019E-06-1.06637E-15
 -1       833 1.14207E-03-1.15214E-04-1.12546E-15
 -1       834 1.46242E-02-1.46046E-03-9.83807E-14
 -1       835 1.33371E-02-9.25741E-04-8.48723E-14
 -1       836 1.64883E-03-2.32225E-04-2.17721E-15
 -1       837 2.22563E-03-2.59033E-04-3.75494E-15
 -1       838 2.51471E-03-2.66186E-04-4.69898E-15
 -1       839 2.80372E-03-2.70506E-04-5.74388E-15
 -1       840 3.09246E-03-2.72765E-04-6.88957E-15
 -1       841 3.38083E-03-2.73557E-04-8.13516E-15
 -1       842 3.66879E-03-2.73316E-04-9.47965E-15
 -1       843 3.95632E-03-2.72348E-04-1.09198E-14
 -1       844 4.25778E-03-2.70766E-04-1.25365E-14
 -1       845 4.54445E-03-2.68845E-04-1.41763E-14
 -1       846 4.83067E-03-2.66582E-04-1.59108E-14
 -1       847 5.11640E-03-2.63996E-04-1.77349E-14
 -1       848 5.40156E-03-2.61091E-04-1.96517E-14
 -1       849 5.68601E-03-2.57871E-04-2.16587E-14
 -1       850 5.96952E-03-2.54371E-04-2.37494E-14
 -1       851 6.25177E-03-2.50684E-04-2.59281E-14
 -1       852 6.53228E-03-2.47012E-04-2.81919E-14
 -1       853 6.82421E-03-2.43580E-04-3.06580E-14
 -1       854 7.09873E-03-2.41348E-04-3.30848E-14
 -1       855 7.36848E-03-2.41098E-04-3.55894E-14
 -1       856 7.63159E-03-2.44212E-04-3.81683E-14
 -1       857 7.88556E-03-2.52560E-04-4.08250E-14
 -1       858 8.12702E-03-2.68478E-04-4.35489E-14
 -1       859 8.35174E-03-2.94413E-04-4.63312E-14
 -1       860 1.38387E-02-1.10855E-03-9.32796E-14
 -1       861 8.59194E-03-3.19376E-04-4.95808E-14
 -1       862 9.28850E-03-3.90759E-05-5.19190E-14
 -1       863 1.93682E-03-2.48086E-04-2.91416E-15
 -1       864 1.42316E-02-1.27027E-03-9.22607E-14
 -1       865 1.44214E-02-1.36231E-03-9.53143E-14
 -1       866 4.06710E-03 2.86685E-04-1.00653E-14
 -1       867 3.77987E-03 2.87764E-04-8.71207E-15
 -1       868 4.64040E-03 2.83163E-04-1.30620E-14
 -1       869 4.92649E-03 2.80851E-04-1.47022E-14
 -1       870 5.21220E-03 2.78179E-04-1.64342E-14
 -1       871 5.49756E-03 2.75117E-04-1.82613E-14
 -1       872 5.78255E-03 2.71621E-04-2.01841E-14
 -1       873 6.06723E-03 2.67649E-04-2.22052E-14
 -1       874 6.35167E-03 2.63178E-04-2.43172E-14
 -1       875 6.63605E-03 2.58230E-04-2.65171E-14
 -1       876 6.92069E-03 2.52899E-04-2.88016E-14
 -1       877 7.20608E-03 2.47399E-04-3.11660E-14
 -1       878 7.49303E-03 2.42129E-04-3.36148E-14
 -1       879 7.78267E-03 2.37772E-04-3.61447E-14
 -1       880 8.07652E-03 2.35415E-04-3.87508E-14
 -1       881 8.37644E-03 2.36692E-04-4.14318E-14
 -1       882 8.68437E-03 2.43866E-04-4.41867E-14
 -1       883 9.00175E-03 2.59651E-04-4.70158E-14
 -1       884 9.32845E-03 2.86374E-04-4.99135E-14
 -1       885 9.66152E-03 3.23630E-04-5.28873E-14
 -1       886 9.99506E-03 3.64708E-04-5.59356E-14
 -1       887 1.03216E-02 3.93932E-04-5.90629E-14
 -1       888 1.12634E-02 2.06547E-04-6.89085E-14
 -1       889 1.15884E-02 4.59153E-05-7.23458E-14
 -1       890 1.19220E-02-1.32298E-04-7.58546E-14
 -1       891 1.22573E-02-3.09366E-04-7.94274E-14
 -1       892 1.25877E-02-4.76995E-04-8.30554E-14
 -1       893 1.29092E-02-6.34020E-04-8.67213E-14
 -1       894 1.43226E-02-1.31360E-03-9.48681E-14
 -1       895 9.01536E-03-1.70761E-04-5.09575E-14
 -1       896 1.30131E-02-7.81445E-04-8.28008E-14
 -1       897 1.11111E-02 2.52340E-04-6.69664E-14
 -1       898 9.68297E-03 1.53665E-04-5.39959E-14
 -1       899 1.01382E-02 3.13460E-04-5.74768E-14
 -1       900 1.13815E-03-5.65242E-05-1.10029E-15
 -1       901 4.35394E-03 2.85120E-04-1.15149E-14
 -1       902 1.61596E-03 2.33636E-04-1.68981E-15
 -1       903 2.91582E-03 2.85852E-04-5.23391E-15
 -1       904 1.39294E-02-1.12625E-03-8.64369E-14
 -1       905 8.72594E-03-2.56143E-04-4.96650E-14
 -1       906 1.18360E-02-1.24910E-04-7.39932E-14
 -1       907 2.62711E-03 2.82158E-04-4.26763E-15
 -1       908 1.39028E-03-1.64236E-04-1.60313E-15
 -1       909 1.36542E-02-1.01609E-03-9.27282E-14
 -1       910 1.40191E-02-1.19007E-03-9.38135E-14
 -1       911 8.53213E-03-2.60025E-04-4.79704E-14
 -1       912 1.35521E-02-1.01064E-03-8.65716E-14
 -1       913 1.33693E-02-8.57488E-04-9.18607E-14
 -1       914 3.49224E-03 2.88185E-04-7.45639E-15
 -1       915 1.09718E-02 3.13337E-04-6.57321E-14
 -1       916 1.41857E-02-1.25847E-03-9.43437E-14
 -1       917 3.20422E-03 2.87679E-04-6.29661E-15
 -1       918 2.04939E-03 2.66065E-04-2.63716E-15
 -1       919 1.38591E-02-1.11148E-03-8.73182E-14
 -1       920 1.27467E-02-6.36201E-04-8.16658E-14
 -1       921 1.38427E-03 1.00133E-04-1.42120E-15
 -1       922 1.45222E-03-2.24033E-04-1.73128E-15
 -1       923 1.38110E-03 3.40526E-05-1.48341E-15
 -1       924 1.40274E-02-1.17208E-03-8.85385E-14
 -1       925 8.55598E-03-3.36401E-04-4.92312E-14
 -1       926 1.60630E-03 1.59787E-04-1.79119E-15
 -1       927 1.38397E-03-9.71078E-05-1.57433E-15
 -1       928 1.40528E-02-1.18921E-03-8.99684E-14
 -1       929 2.65261E-03-1.94120E-04-5.14791E-15
 -1       930 2.94249E-03-1.96580E-04-6.23136E-15
 -1       931 3.23201E-03-1.97704E-04-7.41355E-15
 -1       932 3.52106E-03-1.97880E-04-8.69462E-15
 -1       933 3.80956E-03-1.97390E-04-1.00723E-14
 -1       934 4.11187E-03-1.96368E-04-1.16220E-14
 -1       935 4.39918E-03-1.95044E-04-1.31969E-14
 -1       936 4.68588E-03-1.93452E-04-1.48694E-14
 -1       937 4.97193E-03-1.91634E-04-1.66313E-14
 -1       938 5.25725E-03-1.89618E-04-1.84848E-14
 -1       939 5.54170E-03-1.87438E-04-2.04319E-14
 -1       940 5.82509E-03-1.85153E-04-2.24648E-14
 -1       941 6.10711E-03-1.82884E-04-2.45851E-14
 -1       942 6.38735E-03-1.80847E-04-2.67927E-14
 -1       943 6.67906E-03-1.79361E-04-2.92029E-14
 -1       944 6.95362E-03-1.79165E-04-3.15804E-14
 -1       945 7.22393E-03-1.81044E-04-3.40325E-14
 -1       946 7.48862E-03-1.86225E-04-3.65619E-14
 -1       947 7.74587E-03-1.96345E-04-3.91683E-14
 -1       948 7.99335E-03-2.13451E-04-4.18456E-14
 -1       949 8.22761E-03-2.39919E-04-4.45862E-14
 -1       950 3.92053E-03 2.11909E-04-9.62352E-15
 -1       951 2.33824E-03 2.75869E-04-3.40261E-15
 -1       952 8.71125E-03-1.53009E-04-4.80161E-14
 -1       953 5.06761E-03 2.05805E-04-1.58721E-14
 -1       954 4.78169E-03 2.07803E-04-1.41703E-14
 -1       955 5.63767E-03 2.00710E-04-1.95584E-14
 -1       956 5.92177E-03 1.97468E-04-2.15445E-14
 -1       957 6.20525E-03 1.93638E-04-2.36237E-14
 -1       958 6.48818E-03 1.89119E-04-2.57909E-14
 -1       959 6.77073E-03 1.83821E-04-2.80449E-14
 -1       960 7.05327E-03 1.77694E-04-3.03806E-14
 -1       961 7.33640E-03 1.70783E-04-3.27975E-14
 -1       962 7.62112E-03 1.63320E-04-3.52959E-14
 -1       963 7.90895E-03 1.55886E-04-3.78717E-14
 -1       964 8.20199E-03 1.49659E-04-4.05210E-14
 -1       965 8.50301E-03 1.46756E-04-4.32426E-14
 -1       966 8.81506E-03 1.50607E-04-4.60365E-14
 -1       967 9.14099E-03 1.66024E-04-4.88986E-14
 -1       968 1.25697E-02-5.02117E-04-8.17198E-14
 -1       969 1.29020E-02-6.59351E-04-8.53728E-14
 -1       970 1.35093E-02-9.37493E-04-9.22958E-14
 -1       971 1.22238E-02-3.27385E-04-7.81117E-14
 -1       972 5.35295E-03 2.03461E-04-1.76679E-14
 -1       973 1.58658E-03-1.70072E-04-2.02944E-15
 -1       974 1.87432E-03-1.83242E-04-2.73847E-15
 -1       975 1.38102E-03-3.12823E-05-1.53446E-15
 -1       976 2.36262E-03-1.89815E-04-4.16475E-15
 -1       977 2.11818E-03-1.87766E-04-3.41543E-15
 -1       978 9.29273E-03 1.07630E-04-5.06999E-14
 -1       979 8.94188E-03-5.48751E-05-4.89437E-14
 -1       980 1.32802E-02-8.85634E-04-8.62179E-14
 -1       981 2.03956E-03 1.85799E-04-2.77502E-15
 -1       982 1.34956E-02-9.79501E-04-8.79256E-14
 -1       983 1.40084E-02-1.18148E-03-9.08171E-14
 -1       984 3.63237E-03 2.12494E-04-8.30071E-15
 -1       985 4.20814E-03 2.10876E-04-1.10436E-14
 -1       986 4.49519E-03 2.09493E-04-1.25595E-14
 -1       987 9.48111E-03 1.97899E-04-5.18347E-14
 -1       988 9.83163E-03 2.48301E-04-5.48435E-14
 -1       989 8.49124E-03-1.76002E-04-4.63478E-14
 -1       990 1.37782E-02-1.09504E-03-8.84895E-14
 -1       991 2.76484E-03 2.09436E-04-4.91131E-15
 -1       992 1.36900E-02-1.05569E-03-9.03152E-14
 -1       993 1.30360E-02-7.58659E-04-8.50727E-14
 -1       994 3.05446E-03 2.11566E-04-5.94517E-15
 -1       995 1.65873E-03 8.88204E-05-2.00407E-15
 -1       996 1.34905E-02-9.57911E-04-8.97839E-14
 -1       997 1.32110E-02-8.02270E-04-8.88241E-14
 -1       998 1.38577E-02-1.12699E-03-9.05701E-14
 -1       999 3.08368E-03-1.21642E-04-6.71268E-15
 -1      1000 3.37359E-03-1.22018E-04-7.92979E-15
 -1      1001 3.66292E-03-1.21881E-04-9.24341E-15
 -1      1002 3.96602E-03-1.21353E-04-1.07252E-14
 -1      1003 4.25398E-03-1.20593E-04-1.22364E-14
 -1      1004 4.54122E-03-1.19654E-04-1.38454E-14
 -1      1005 4.82772E-03-1.18581E-04-1.55461E-14
 -1      1006 5.11339E-03-1.17416E-04-1.73372E-14
 -1      1007 5.39814E-03-1.16206E-04-1.92212E-14
 -1      1008 5.68180E-03-1.15028E-04-2.11962E-14
 -1      1009 5.96413E-03-1.14008E-04-2.32577E-14
 -1      1010 6.24480E-03-1.13354E-04-2.54083E-14
 -1      1011 6.53724E-03-1.13433E-04-2.77615E-14
 -1      1012 6.81301E-03-1.14763E-04-3.00863E-14
 -1      1013 7.08540E-03-1.18075E-04-3.24902E-14
 -1      1014 7.35353E-03-1.24396E-04-3.49675E-14
 -1      1015 7.61640E-03-1.35065E-04-3.75251E-14
 -1      1016 7.87289E-03-1.51717E-04-4.01560E-14
 -1      1017 8.12172E-03-1.76100E-04-4.28536E-14
 -1      1018 5.49357E-03 1.29522E-04-1.89235E-14
 -1      1019 6.06041E-03 1.24369E-04-2.29229E-14
 -1      1020 5.77745E-03 1.27228E-04-2.08775E-14
 -1      1021 6.62343E-03 1.16218E-04-2.72820E-14
 -1      1022 6.90364E-03 1.10465E-04-2.95885E-14
 -1      1023 7.18334E-03 1.03250E-04-3.19754E-14
 -1      1024 7.46318E-03 9.43690E-05-3.44413E-14
 -1      1025 7.74425E-03 8.37916E-05-3.69883E-14
 -1      1026 8.02839E-03 7.19152E-05-3.96091E-14
 -1      1027 8.31829E-03 5.99521E-05-4.22980E-14
 -1      1028 8.61774E-03 5.06320E-05-4.50568E-14
 -1      1029 5.20883E-03 1.31386E-04-1.70629E-14
 -1      1030 8.30090E-03-1.75828E-04-4.45899E-14
 -1      1031 3.34366E-03 2.12465E-04-7.07493E-15
 -1      1032 2.47499E-03 2.05584E-04-3.97541E-15
 -1      1033 2.00689E-03 8.74911E-05-2.85244E-15
 -1      1034 2.79331E-03-1.20539E-04-5.59356E-15
 -1      1035 1.72426E-03-1.11179E-04-2.33344E-15
 -1      1036 2.50273E-03-1.18429E-04-4.57283E-15
 -1      1037 6.34240E-03 1.20770E-04-2.50583E-14
 -1      1038 4.92330E-03 1.32919E-04-1.52983E-14
 -1      1039 8.62889E-03-5.02917E-05-4.61084E-14
 -1      1040 8.88652E-03 4.68348E-05-4.74981E-14
 -1      1041 1.66262E-03 1.13596E-05-2.09933E-15
 -1      1042 3.77401E-03 1.36549E-04-9.16855E-15
 -1      1043 8.40395E-03-8.56817E-05-4.44725E-14
 -1      1044 4.63702E-03 1.34186E-04-1.36250E-14
 -1      1045 4.06236E-03 1.36020E-04-1.05586E-14
 -1      1046 2.44260E-03 1.02437E-04-4.08251E-15
 -1      1047 1.32748E-02-8.46120E-04-8.86742E-14
 -1      1048 1.69225E-03-4.92527E-05-2.21948E-15
 -1      1049 2.73327E-03 1.04598E-04-5.03499E-15
 -1      1050 1.96778E-03-1.14018E-04-2.95697E-15
 -1      1051 2.25759E-03-1.19137E-04-3.79219E-15
 -1      1052 3.02380E-03 1.05837E-04-6.08511E-15
 -1      1053 3.22692E-03-4.60024E-05-7.18639E-15
 -1      1054 4.35003E-03 1.35220E-04-1.20449E-14
 -1      1055 3.51686E-03-4.59998E-05-8.43511E-15
 -1      1056 3.82059E-03-4.58202E-05-9.84958E-15
 -1      1057 4.10911E-03-4.55352E-05-1.12959E-14
 -1      1058 4.39687E-03-4.51804E-05-1.28392E-14
 -1      1059 4.68384E-03-4.47909E-05-1.44778E-14
 -1      1060 4.96997E-03-4.44037E-05-1.62075E-14
 -1      1061 5.25518E-03-4.40679E-05-1.80288E-14
 -1      1062 5.53935E-03-4.38595E-05-1.99418E-14
 -1      1063 5.82231E-03-4.38978E-05-2.19462E-14
 -1      1064 6.10381E-03-4.43691E-05-2.40389E-14
 -1      1065 6.39751E-03-4.56393E-05-2.63324E-14
 -1      1066 6.67506E-03-4.80193E-05-2.86022E-14
 -1      1067 6.95009E-03-5.21382E-05-3.09545E-14
 -1      1068 7.22221E-03-5.87848E-05-3.33850E-14
 -1      1069 7.49103E-03-6.89567E-05-3.58909E-14
 -1      1070 7.75638E-03-8.38114E-05-3.84758E-14
 -1      1071 8.01849E-03-1.04366E-04-4.11313E-14
 -1      1072 5.91711E-03 5.48838E-05-2.22135E-14
 -1      1073 5.63422E-03 5.65613E-05-2.01986E-14
 -1      1074 7.03501E-03 3.85846E-05-3.11440E-14
 -1      1075 6.75775E-03 4.48161E-05-2.87863E-14
 -1      1076 7.58602E-03 1.88127E-05-3.60950E-14
 -1      1077 7.86125E-03 4.29884E-06-3.86891E-14
 -1      1078 8.13869E-03-1.33211E-05-4.13509E-14
 -1      1079 5.35022E-03 5.77890E-05-1.82762E-14
 -1      1080 3.48500E-03 1.36723E-04-7.87602E-15
 -1      1081 2.93643E-03-4.57680E-05-6.03266E-15
 -1      1082 2.64560E-03-4.51962E-05-4.97757E-15
 -1      1083 8.36545E-03-1.33372E-05-4.33879E-14
 -1      1084 1.98872E-03-4.30837E-06-2.92085E-15
 -1      1085 6.47899E-03 4.93246E-05-2.65088E-14
 -1      1086 3.25461E-03 1.21427E-04-6.95390E-15
 -1      1087 5.06524E-03 5.87045E-05-1.64477E-14
 -1      1088 6.19874E-03 5.25611E-05-2.43173E-14
 -1      1089 7.31094E-03 3.00995E-05-3.35813E-14
 -1      1090 4.77936E-03 5.93996E-05-1.47115E-14
 -1      1091 2.87676E-03 3.00456E-05-5.68579E-15
 -1      1092 2.58586E-03 2.95252E-05-4.66772E-15
 -1      1093 3.91691E-03 6.06116E-05-1.00606E-14
 -1      1094 3.62794E-03 6.07385E-05-8.70192E-15
 -1      1095 2.39998E-03-4.79405E-05-4.16827E-15
 -1      1096 2.28687E-03 1.21134E-05-3.74616E-15
 -1      1097 3.37183E-03 3.00127E-05-7.64814E-15
 -1      1098 4.54040E-03 2.97062E-05-1.34283E-14
 -1      1099 3.10766E-03 4.53673E-05-6.53540E-15
 -1      1100 4.20516E-03 6.03361E-05-1.15150E-14
 -1      1101 0.00000E+00 0.00000E+00 0.00000E+00
 -1      1102 0.00000E+00 0.00000E+00 0.00000E+00
 -1      1103 0.00000E+00 0.00000E+00 0.00000E+00
 -1      1104 0.00000E+00 0.00000E+00 0.00000E+00
 -1      1105 0.00000E+00 0.00000E+00 0.00000E+00
 -1      1106 0.00000E+00 0.00000E+00 0.00000E+00
 -1      1107 0.00000E+00 0.00000E+00 0.00000E+00
 -1      1108 0.00000E+00 0.00000E+00 0.00000E+00
 -1      1109 0.00000E+00 0.00000E+00 0.00000E+00
 -1      1110 0.00000E+00 0.00000E+00 0.00000E+00
 -1      1111 0.00000E+00 0.00000E+00 0.00000E+00
 -1      1112 0.00000E+00 0.00000E+00 0.00000E+00
 -1      1113 0.00000E+00 0.00000E+00 0.00000E+00
 -1      1114 0.00000E+00 0.00000E+00 0.00000E+00
 -1      1115 0.00000E+00 0.00000E+00 0.00000E+00
 -1      1116 0.00000E+00 0.00000E+00 0.00000E+00
 -1      1117 0.00000E+00 0.00000E+00 0.00000E+00
 -1      1118 2.11669E-04-1.48334E-04 2.08709E-18
 -1      1119 5.51640E-04-3.37519E-04-7.65176E-17
 -1      1120 8.33463E-04-4.59013E-04-2.73856E-16
 -1      1121 1.10304E-03-5.40697E-04-6.08847E-16
 -1      1122 1.36845E-03-5.97945E-04-1.07218E-15
 -1      1123 1.63327E-03-6.38650E-04-1.65792E-15
 -1      1124 1.89932E-03-6.67456E-04-2.36428E-15
 -1      1125 2.16748E-03-6.87484E-04-3.18914E-15
 -1      1126 2.44481E-03-7.01286E-04-4.15386E-15
 -1      1127 2.72465E-03-7.10102E-04-5.23680E-15
 -1      1128 2.99990E-03-7.15227E-04-6.40587E-15
 -1      1129 3.27711E-03-7.17885E-04-7.68012E-15
 -1      1130 3.55603E-03-7.18780E-04-9.05675E-15
 -1      1131 3.83640E-03-7.18414E-04-1.05349E-14
 -1      1132 4.11798E-03-7.17129E-04-1.21124E-14
 -1      1133 4.40058E-03-7.15144E-04-1.37900E-14
 -1      1134 4.68408E-03-7.12580E-04-1.55676E-14
 -1      1135 4.97552E-03-7.09397E-04-1.74858E-14
 -1      1136 5.26783E-03-7.05643E-04-1.95022E-14
 -1      1137 5.55396E-03-7.01378E-04-2.15655E-14
 -1      1138 5.84124E-03-6.96446E-04-2.37219E-14
 -1      1139 6.13004E-03-6.90772E-04-2.59645E-14
 -1      1140 6.42093E-03-6.84310E-04-2.82875E-14
 -1      1141 6.71473E-03-6.77079E-04-3.06908E-14
 -1      1142 7.01266E-03-6.69238E-04-3.31695E-14
 -1      1143 7.31645E-03-6.61208E-04-3.57264E-14
 -1      1144 7.63649E-03-6.53725E-04-3.84245E-14
 -1      1145 7.96890E-03-6.48962E-04-4.11980E-14
 -1      1146 8.30990E-03-6.50429E-04-4.39727E-14
 -1      1147 8.67322E-03-6.64294E-04-4.68137E-14
 -1      1148 9.06528E-03-7.01595E-04-4.97171E-14
 -1      1149 9.49105E-03-7.80328E-04-5.26804E-14
 -1      1150 9.94913E-03-9.25885E-04-5.56956E-14
 -1      1151 1.04232E-02-1.16343E-03-5.87703E-14
 -1      1152 1.08639E-02-1.48414E-03-6.18178E-14
 -1      1153 1.12184E-02-1.81916E-03-6.47701E-14
 -1      1154 1.14850E-02-2.07565E-03-6.77229E-14
 -1      1155 1.17191E-02-2.16975E-03-7.09452E-14
 -1      1156 1.19989E-02-2.06139E-03-7.44352E-14
 -1      1157 1.23691E-02-1.84623E-03-7.80102E-14
 -1      1158 1.28135E-02-1.65486E-03-8.16582E-14
 -1      1159 1.32932E-02-1.55160E-03-8.54392E-14
 -1      1160 1.37551E-02-1.54311E-03-8.92506E-14
 -1      1161 1.41714E-02-1.60047E-03-9.30127E-14
 -1      1162 1.45518E-02-1.69638E-03-9.68031E-14
 -1      1163 1.49011E-02-1.81195E-03-1.00608E-13
 -1      1164 1.52255E-02-1.93461E-03-1.04419E-13
 -1      1165 1.55310E-02-2.05605E-03-1.08220E-13
 -1      1166 1.58236E-02-2.17076E-03-1.12020E-13
 -1      1167 1.61097E-02-2.27661E-03-1.15816E-13
 -1      1168 2.28429E-04 1.60709E-04 4.22297E-17
 -1      1169 5.53819E-04 3.42159E-04 7.66802E-17
 -1      1170 8.34396E-04 4.61209E-04 3.41253E-17
 -1      1171 1.10393E-03 5.42395E-04-1.00804E-16
 -1      1172 1.36936E-03 5.99619E-04-3.31508E-16
 -1      1173 1.63422E-03 6.40413E-04-6.60510E-16
 -1      1174 1.90034E-03 6.69329E-04-1.09225E-15
 -1      1175 2.16853E-03 6.89476E-04-1.62769E-15
 -1      1176 2.43910E-03 7.03132E-04-2.26926E-15
 -1      1177 2.71205E-03 7.12013E-04-3.01701E-15
 -1      1178 2.98722E-03 7.17418E-04-3.87074E-15
 -1      1179 3.26437E-03 7.20318E-04-4.82607E-15
 -1      1180 3.54325E-03 7.21431E-04-5.88498E-15
 -1      1181 3.82360E-03 7.21274E-04-7.04577E-15
 -1      1182 4.10518E-03 7.20207E-04-8.30489E-15
 -1      1183 4.38783E-03 7.18470E-04-9.66459E-15
 -1      1184 4.67141E-03 7.16215E-04-1.11272E-14
 -1      1185 4.95583E-03 7.13535E-04-1.26863E-14
 -1      1186 5.24109E-03 7.10489E-04-1.43347E-14
 -1      1187 5.52725E-03 7.07128E-04-1.60810E-14
 -1      1188 5.81441E-03 7.03524E-04-1.79331E-14
 -1      1189 6.10276E-03 6.99799E-04-1.98896E-14
 -1      1190 6.39251E-03 6.96159E-04-2.19444E-14
 -1      1191 6.68391E-03 6.92926E-04-2.40949E-14
 -1      1192 6.97716E-03 6.90575E-04-2.63316E-14
 -1      1193 7.27240E-03 6.89746E-04-2.86504E-14
 -1      1194 7.56954E-03 6.91238E-04-3.10605E-14
 -1      1195 7.86820E-03 6.95942E-04-3.35651E-14
 -1      1196 8.16750E-03 7.04700E-04-3.61547E-14
 -1      1197 8.46599E-03 7.18038E-04-3.88299E-14
 -1      1198 8.76160E-03 7.35780E-04-4.15812E-14
 -1      1199 9.05167E-03 7.56560E-04-4.44064E-14
 -1      1200 9.33337E-03 7.77356E-04-4.73055E-14
 -1      1201 9.60430E-03 7.93258E-04-5.02812E-14
 -1      1202 9.86325E-03 7.97734E-04-5.33261E-14
 -1      1203 1.01110E-02 7.83575E-04-5.64435E-14
 -1      1204 1.03505E-02 7.44439E-04-5.96458E-14
 -1      1205 1.05866E-02 6.76521E-04-6.29304E-14
 -1      1206 1.08249E-02 5.79664E-04-6.62872E-14
 -1      1207 1.10704E-02 4.57380E-04-6.97220E-14
 -1      1208 1.13260E-02 3.15756E-04-7.32223E-14
 -1      1209 1.15925E-02 1.61776E-04-7.67827E-14
 -1      1210 1.18685E-02 1.71804E-06-8.03971E-14
 -1      1211 1.21517E-02-1.59852E-04-8.40590E-14
 -1      1212 1.24391E-02-3.20396E-04-8.77499E-14
 -1      1213 1.27281E-02-4.79172E-04-9.14770E-14
 -1      1214 1.30168E-02-6.36719E-04-9.52209E-14
 -1      1215 1.33042E-02-7.94230E-04-9.89742E-14
 -1      1216 1.35903E-02-9.52875E-04-1.02736E-13
 -1      1217 1.38687E-02-1.10896E-03-1.06409E-13
 -1      1218 1.40832E-02-1.22744E-03-1.08484E-13
 -1      1219 1.42417E-02-1.31186E-03-1.09070E-13
 -1      1220 1.44018E-02-1.39561E-03-1.09654E-13
 -1      1221 1.45640E-02-1.47755E-03-1.10225E-13
 -1      1222 1.47282E-02-1.55632E-03-1.10801E-13
 -1      1223 1.48918E-02-1.62980E-03-1.11382E-13
 -1      1224 1.50545E-02-1.69727E-03-1.11965E-13
 -1      1225 1.52149E-02-1.75823E-03-1.12555E-13
 -1      1226 1.53679E-02-1.81196E-03-1.13166E-13
 -1      1227 1.55099E-02-1.85962E-03-1.13757E-13
 -1      1228 1.56378E-02-1.90385E-03-1.14317E-13
 -1      1229 1.57494E-02-1.94811E-03-1.14880E-13
 -1      1230 1.58470E-02-1.99706E-03-1.15446E-13
 -1      1231 1.59354E-02-2.05500E-03-1.15977E-13
 -1      1232 1.60202E-02-2.12364E-03-1.16481E-13
 -1      1233 1.61084E-02-2.20221E-03-1.16958E-13
 -1      1234 1.62032E-02-2.28569E-03-1.17437E-13
 -1      1235 1.36166E-02-7.92390E-04-7.50194E-14
 -1      1236 1.34260E-02-6.18866E-04-7.43737E-14
 -1      1237 1.31326E-02-4.41173E-04-7.34024E-14
 -1      1238 1.27667E-02-2.64894E-04-7.21654E-14
 -1      1239 1.23563E-02-1.00359E-04-7.07318E-14
 -1      1240 1.19065E-02 4.30139E-05-6.91217E-14
 -1      1241 1.14576E-02 1.41655E-04-6.74910E-14
 -1      1242 1.09955E-02 1.90271E-04-6.58150E-14
 -1      1243 1.05423E-02 1.83457E-04-6.42155E-14
 -1      1244 1.01144E-02 1.24754E-04-6.27901E-14
 -1      1245 9.72242E-03 2.84925E-05-6.15809E-14
 -1      1246 9.38306E-03-9.27625E-05-6.06379E-14
 -1      1247 9.10812E-03-2.32679E-04-5.99762E-14
 -1      1248 8.93149E-03-3.82401E-04-5.96498E-14
 -1      1249 8.87327E-03-5.37332E-04-5.96850E-14
 -1      1250 8.93905E-03-7.05633E-04-6.00674E-14
 -1      1251 9.14103E-03-9.07570E-04-6.08297E-14
 -1      1252 9.45813E-03-1.13272E-03-6.19101E-14
 -1      1253 9.85063E-03-1.36466E-03-6.32000E-14
 -1      1254 1.03051E-02-1.58853E-03-6.46767E-14
 -1      1255 1.08113E-02-1.77344E-03-6.63237E-14
 -1      1256 1.13456E-02-1.87805E-03-6.80617E-14
 -1      1257 1.18594E-02-1.88159E-03-6.97252E-14
 -1      1258 1.23373E-02-1.79592E-03-7.12521E-14
 -1      1259 1.27742E-02-1.64941E-03-7.26262E-14
 -1      1260 1.31494E-02-1.47383E-03-7.37705E-14
 -1      1261 1.34327E-02-1.29839E-03-7.45996E-14
 -1      1262 1.36146E-02-1.12992E-03-7.51100E-14
 -1      1263 1.36819E-02-9.63819E-04-7.52700E-14
 -1      1264 1.66701E-04-1.10344E-04-1.55854E-17
 -1      1265 1.12542E-04-5.69774E-05-3.26887E-17
 -1      1266 1.17623E-04-6.75852E-05-2.77420E-17
 -1      1267 1.08422E-04-4.34937E-05-4.04814E-17
 -1      1268 1.10286E-04-4.96085E-05-3.83672E-17
 -1      1269 2.26333E-04-1.07630E-04-9.07342E-17
 -1      1270 1.06842E-04-3.36160E-05-4.37340E-17
 -1      1271 1.07687E-04-3.83377E-05-4.29344E-17
 -1      1272 2.19105E-04-8.24641E-05-1.03528E-16
 -1      1273 1.06063E-04-2.53548E-05-4.50079E-17
 -1      1274 1.06493E-04-2.93879E-05-4.48318E-17
 -1      1275 2.15869E-04-6.32846E-05-1.09111E-16
 -1      1276 1.05659E-04-1.80944E-05-4.47504E-17
 -1      1277 1.05890E-04-2.16622E-05-4.49673E-17
 -1      1278 2.14210E-04-4.71933E-05-1.10629E-16
 -1      1279 1.05439E-04-1.12417E-05-4.40728E-17
 -1      1280 1.05563E-04-1.46272E-05-4.43710E-17
 -1      1281 2.13294E-04-3.27588E-05-1.09830E-16
 -1      1282 1.05340E-04-4.69048E-06-4.28395E-17
 -1      1283 1.05392E-04-7.94437E-06-4.32732E-17
 -1      1284 2.12798E-04-1.91942E-05-1.07648E-16
 -1      1285 1.05329E-04 1.74310E-06-4.10235E-17
 -1      1286 1.05327E-04-1.47101E-06-4.15792E-17
 -1      1287 2.12584E-04-6.16212E-06-1.04205E-16
 -1      1288 1.05401E-04 8.22649E-06-3.87602E-17
 -1      1289 1.05344E-04 4.96592E-06-3.94379E-17
 -1      1290 2.12593E-04 6.70945E-06-9.95704E-17
 -1      1291 1.05578E-04 1.49353E-05-3.58464E-17
 -1      1292 1.05451E-04 1.15346E-05-3.67680E-17
 -1      1293 2.12824E-04 1.97681E-05-9.37293E-17
 -1      1294 1.05911E-04 2.19549E-05-3.18755E-17
 -1      1295 1.05676E-04 1.83634E-05-3.31766E-17
 -1      1296 2.13334E-04 3.32730E-05-8.61128E-17
 -1      1297 1.06535E-04 2.98210E-05-2.66714E-17
 -1      1298 1.06095E-04 2.57445E-05-2.84874E-17
 -1      1299 2.14273E-04 4.78020E-05-7.62330E-17
 -1      1300 1.07733E-04 3.89186E-05-1.96647E-17
 -1      1301 1.06880E-04 3.41235E-05-2.23210E-17
 -1      1302 2.15983E-04 6.42114E-05-6.33987E-17
 -1      1303 1.10268E-04 5.03546E-05-9.77137E-18
 -1      1304 1.08434E-04 4.41723E-05-1.39591E-17
 -1      1305 2.19224E-04 8.37188E-05-4.62683E-17
 -1      1306 1.16931E-04 6.76178E-05 4.58075E-18
 -1      1307 1.12179E-04 5.77739E-05-2.24972E-18
 -1      1308 2.26309E-04 1.09453E-04-2.31071E-17
 -1      1309 1.57580E-04 1.09857E-04 2.55059E-17
 -1      1310 1.35661E-04 8.60888E-05 1.34170E-17
 -1      1311 2.56032E-04 1.52092E-04 4.13352E-18
 -1      1312 3.35087E-04 2.20736E-04 4.03052E-17
 -1      1313 4.21542E-04-2.61742E-04-8.03800E-17
 -1      1314 5.74640E-04-3.36802E-04-1.48753E-16
 -1      1315 7.21829E-04-3.97405E-04-2.53527E-16
 -1      1316 8.64998E-04-4.46700E-04-3.91248E-16
 -1      1317 6.12075E-04-3.30896E-04-2.29864E-16
 -1      1318 1.00502E-03-4.87774E-04-5.60275E-16
 -1      1319 1.14287E-03-5.21763E-04-7.61218E-16
 -1      1320 9.05311E-04-4.31595E-04-5.10198E-16
 -1      1321 1.27936E-03-5.50536E-04-9.93007E-16
 -1      1322 1.41500E-03-5.74571E-04-1.25589E-15
 -1      1323 1.18774E-03-5.01018E-04-9.14308E-16
 -1      1324 1.55025E-03-5.94933E-04-1.54846E-15
 -1      1325 1.68534E-03-6.11954E-04-1.87114E-15
 -1      1326 1.46467E-03-5.49787E-04-1.43970E-15
 -1      1327 1.82052E-03-6.26264E-04-2.22363E-15
 -1      1328 1.95591E-03-6.38154E-04-2.60504E-15
 -1      1329 1.73935E-03-5.84080E-04-2.08381E-15
 -1      1330 2.09162E-03-6.48028E-04-3.01564E-15
 -1      1331 2.22770E-03-6.56132E-04-3.45568E-15
 -1      1332 2.01366E-03-6.07877E-04-2.84493E-15
 -1      1333 2.37104E-03-6.63038E-04-3.94759E-15
 -1      1334 2.51485E-03-6.68532E-04-4.46995E-15
 -1      1335 2.29546E-03-6.24311E-04-3.74341E-15
 -1      1336 2.65228E-03-6.72656E-04-4.99627E-15
 -1      1337 2.79014E-03-6.75863E-04-5.55057E-15
 -1      1338 2.57840E-03-6.34884E-04-4.75950E-15
 -1      1339 2.92844E-03-6.78288E-04-6.13105E-15
 -1      1340 3.06715E-03-6.80057E-04-6.73895E-15
 -1      1341 2.85574E-03-6.41130E-04-5.86072E-15
 -1      1342 3.20626E-03-6.81265E-04-7.37228E-15
 -1      1343 3.34573E-03-6.82009E-04-8.03150E-15
 -1      1344 3.13437E-03-6.44501E-04-7.06848E-15
 -1      1345 3.48555E-03-6.82353E-04-8.71709E-15
 -1      1346 3.62570E-03-6.82369E-04-9.42698E-15
 -1      1347 3.41424E-03-6.45834E-04-8.38115E-15
 -1      1348 3.76615E-03-6.82098E-04-1.01628E-14
 -1      1349 3.90687E-03-6.81593E-04-1.09239E-14
 -1      1350 3.69522E-03-6.45725E-04-9.79535E-15
 -1      1351 4.04786E-03-6.80877E-04-1.17097E-14
 -1      1352 4.18909E-03-6.79987E-04-1.25192E-14
 -1      1353 3.97720E-03-6.44590E-04-1.13096E-14
 -1      1354 4.33055E-03-6.78931E-04-1.33544E-14
 -1      1355 4.47223E-03-6.77735E-04-1.42151E-14
 -1      1356 4.26006E-03-6.42697E-04-1.29230E-14
 -1      1357 4.61411E-03-6.76396E-04-1.50998E-14
 -1      1358 4.75618E-03-6.74931E-04-1.60076E-14
 -1      1359 4.54372E-03-6.40200E-04-1.46356E-14
 -1      1360 4.90558E-03-6.73244E-04-1.69859E-14
 -1      1361 5.05520E-03-6.71415E-04-1.79903E-14
 -1      1362 4.83524E-03-6.37085E-04-1.64911E-14
 -1      1363 5.19791E-03-6.69523E-04-1.89708E-14
 -1      1364 5.34084E-03-6.67489E-04-1.99743E-14
 -1      1365 5.12756E-03-6.33405E-04-1.84431E-14
 -1      1366 5.48401E-03-6.65288E-04-2.10014E-14
 -1      1367 5.62745E-03-6.62927E-04-2.20522E-14
 -1      1368 5.41359E-03-6.29214E-04-2.04425E-14
 -1      1369 5.77120E-03-6.60373E-04-2.31249E-14
 -1      1370 5.91529E-03-6.57639E-04-2.42208E-14
 -1      1371 5.70059E-03-6.24342E-04-2.25340E-14
 -1      1372 6.05979E-03-6.54684E-04-2.53369E-14
 -1      1373 6.20474E-03-6.51533E-04-2.64736E-14
 -1      1374 5.98883E-03-6.18678E-04-2.47148E-14
 -1      1375 6.35025E-03-6.48138E-04-2.76313E-14
 -1      1376 6.49639E-03-6.44544E-04-2.88085E-14
 -1      1377 6.27868E-03-6.12115E-04-2.69796E-14
 -1      1378 6.64328E-03-6.40698E-04-3.00053E-14
 -1      1379 6.79106E-03-6.36679E-04-3.12204E-14
 -1      1380 6.57071E-03-6.04575E-04-2.93243E-14
 -1      1381 6.93988E-03-6.32434E-04-3.24554E-14
 -1      1382 7.08994E-03-6.28094E-04-3.37099E-14
 -1      1383 6.86568E-03-5.96057E-04-3.17462E-14
 -1      1384 7.24145E-03-6.23623E-04-3.49836E-14
 -1      1385 7.39468E-03-6.19233E-04-3.62757E-14
 -1      1386 7.16466E-03-5.86728E-04-3.42457E-14
 -1      1387 7.55775E-03-6.14723E-04-3.76534E-14
 -1      1388 7.72345E-03-6.10725E-04-3.90507E-14
 -1      1389 7.47681E-03-5.76832E-04-3.68871E-14
 -1      1390 7.88413E-03-6.07503E-04-4.04018E-14
 -1      1391 8.04808E-03-6.05450E-04-4.17684E-14
 -1      1392 7.79674E-03-5.67811E-04-3.96086E-14
 -1      1393 8.21581E-03-6.04937E-04-4.31520E-14
 -1      1394 8.38789E-03-6.06877E-04-4.45529E-14
 -1      1395 8.11891E-03-5.62185E-04-4.23353E-14
 -1      1396 8.56487E-03-6.12136E-04-4.59690E-14
 -1      1397 8.74735E-03-6.22139E-04-4.74012E-14
 -1      1398 8.45398E-03-5.64167E-04-4.51286E-14
 -1      1399 8.93586E-03-6.38623E-04-4.88475E-14
 -1      1400 9.13082E-03-6.63750E-04-5.03099E-14
 -1      1401 8.80525E-03-5.81914E-04-4.79845E-14
 -1      1402 9.33250E-03-7.00505E-04-5.17872E-14
 -1      1403 9.54070E-03-7.51936E-04-5.32775E-14
 -1      1404 9.17594E-03-6.29590E-04-5.08989E-14
 -1      1405 9.75504E-03-8.22129E-04-5.47805E-14
 -1      1406 9.97401E-03-9.14462E-04-5.62984E-14
 -1      1407 9.56833E-03-7.29606E-04-5.38702E-14
 -1      1408 1.01961E-02-1.03225E-03-5.78304E-14
 -1      1409 1.04176E-02-1.17637E-03-5.93759E-14
 -1      1410 9.98219E-03-9.11390E-04-5.68967E-14
 -1      1411 1.06251E-02-1.33581E-03-6.08576E-14
 -1      1412 1.08247E-02-1.51095E-03-6.23542E-14
 -1      1413 1.04004E-02-1.18945E-03-5.99007E-14
 -1      1414 1.10047E-02-1.68165E-03-6.37877E-14
 -1      1415 1.11731E-02-1.84317E-03-6.52380E-14
 -1      1416 1.07962E-02-1.53155E-03-6.28083E-14
 -1      1417 1.13296E-02-1.98167E-03-6.67127E-14
 -1      1418 1.14774E-02-2.08076E-03-6.82101E-14
 -1      1419 1.11614E-02-1.86290E-03-6.57040E-14
 -1      1420 1.16342E-02-2.13523E-03-6.98984E-14
 -1      1421 1.17941E-02-2.12739E-03-7.16144E-14
 -1      1422 1.15180E-02-2.07772E-03-6.88555E-14
 -1      1423 1.19617E-02-2.06458E-03-7.33576E-14
 -1      1424 1.21430E-02-1.96511E-03-7.51231E-14
 -1      1425 1.18877E-02-2.05888E-03-7.22816E-14
 -1      1426 1.23384E-02-1.84827E-03-7.69101E-14
 -1      1427 1.25453E-02-1.73349E-03-7.87138E-14
 -1      1428 1.22850E-02-1.85375E-03-7.58107E-14
 -1      1429 1.27610E-02-1.63427E-03-8.05345E-14
 -1      1430 1.29800E-02-1.55834E-03-8.23697E-14
 -1      1431 1.27083E-02-1.62204E-03-7.94163E-14
 -1      1432 1.32104E-02-1.50653E-03-8.43057E-14
 -1      1433 1.34373E-02-1.48215E-03-8.62482E-14
 -1      1434 1.31442E-02-1.46959E-03-8.31726E-14
 -1      1435 1.36482E-02-1.48131E-03-8.81086E-14
 -1      1436 1.38527E-02-1.49865E-03-8.99763E-14
 -1      1437 1.35634E-02-1.42520E-03-8.69653E-14
 -1      1438 1.40502E-02-1.53004E-03-9.18539E-14
 -1      1439 1.42406E-02-1.57241E-03-9.37412E-14
 -1      1440 1.39495E-02-1.46285E-03-9.06987E-14
 -1      1441 1.44241E-02-1.62268E-03-9.56344E-14
 -1      1442 1.46011E-02-1.67858E-03-9.75288E-14
 -1      1443 1.43125E-02-1.55035E-03-9.44633E-14
 -1      1444 1.47720E-02-1.73821E-03-9.94274E-14
 -1      1445 1.49376E-02-1.79997E-03-1.01331E-13
 -1      1446 1.46546E-02-1.66461E-03-9.82528E-14
 -1      1447 1.50983E-02-1.86273E-03-1.03234E-13
 -1      1448 1.52548E-02-1.92536E-03-1.05137E-13
 -1      1449 1.49788E-02-1.79021E-03-1.02052E-13
 -1      1450 1.54076E-02-1.98716E-03-1.07040E-13
 -1      1451 1.55574E-02-2.04728E-03-1.08939E-13
 -1      1452 1.52887E-02-1.91715E-03-1.05857E-13
 -1      1453 1.57046E-02-2.10533E-03-1.10840E-13
 -1      1454 1.58499E-02-2.16082E-03-1.12741E-13
 -1      1455 1.55876E-02-2.03872E-03-1.09659E-13
 -1      1456 1.59554E-02-2.19870E-03-1.14149E-13
 -1      1457 1.60986E-02-2.25012E-03-1.16041E-13
 -1      1458 1.60505E-02-2.20902E-03-1.15789E-13
 -1      1459 1.58401E-02-2.13519E-03-1.12971E-13
 -1      1460 6.43083E-04 3.72034E-04 2.95581E-17
 -1      1461 4.92954E-04 3.03697E-04 4.52248E-17
 -1      1462 4.44881E-04 2.65898E-04 1.82553E-17
 -1      1463 9.28671E-04 4.72022E-04-6.89010E-17
 -1      1464 7.87817E-04 4.26522E-04-8.34836E-18
 -1      1465 7.44753E-04 3.90742E-04-4.53874E-17
 -1      1466 1.20355E-03 5.41406E-04-2.58664E-16
 -1      1467 1.06689E-03 5.09732E-04-1.51585E-16
 -1      1468 1.03079E-03 4.76167E-04-1.97365E-16
 -1      1469 1.47410E-03 5.90592E-04-5.45679E-16
 -1      1470 1.33905E-03 5.68127E-04-3.90001E-16
 -1      1471 1.30869E-03 5.35960E-04-4.43073E-16
 -1      1472 1.74363E-03 6.25478E-04-9.32576E-16
 -1      1473 1.60883E-03 6.09577E-04-7.26172E-16
 -1      1474 1.58293E-03 5.78251E-04-7.86778E-16
 -1      1475 2.01383E-03 6.49918E-04-1.42242E-15
 -1      1476 1.87856E-03 6.38829E-04-1.16465E-15
 -1      1477 1.85610E-03 6.07972E-04-1.23155E-15
 -1      1478 2.28550E-03 6.66657E-04-2.01614E-15
 -1      1479 2.14945E-03 6.59120E-04-1.70618E-15
 -1      1480 2.12960E-03 6.28499E-04-1.77930E-15
 -1      1481 2.55897E-03 6.77731E-04-2.71552E-15
 -1      1482 2.42200E-03 6.72803E-04-2.35258E-15
 -1      1483 2.40416E-03 6.42279E-04-2.43089E-15
 -1      1484 2.83430E-03 6.84675E-04-3.52020E-15
 -1      1485 2.69640E-03 6.81645E-04-3.10483E-15
 -1      1486 2.68007E-03 6.51132E-04-3.18727E-15
 -1      1487 3.11138E-03 6.88638E-04-4.42886E-15
 -1      1488 2.97263E-03 6.86973E-04-3.96180E-15
 -1      1489 2.95743E-03 6.56424E-04-4.04790E-15
 -1      1490 3.39006E-03 6.90475E-04-5.43902E-15
 -1      1491 3.25053E-03 6.89782E-04-4.92096E-15
 -1      1492 3.23617E-03 6.59171E-04-5.01086E-15
 -1      1493 3.67016E-03 6.90807E-04-6.55160E-15
 -1      1494 3.52995E-03 6.90801E-04-5.98242E-15
 -1      1495 3.51620E-03 6.60116E-04-6.07598E-15
 -1      1496 3.95147E-03 6.90071E-04-7.76493E-15
 -1      1497 3.81067E-03 6.90552E-04-7.14572E-15
 -1      1498 3.79738E-03 6.59792E-04-7.24148E-15
 -1      1499 4.23384E-03 6.88564E-04-9.07624E-15
 -1      1500 4.09253E-03 6.89400E-04-8.40839E-15
 -1      1501 4.07956E-03 6.58568E-04-8.50670E-15
 -1      1502 4.51713E-03 6.86480E-04-1.04890E-14
 -1      1503 4.37538E-03 6.87586E-04-9.76985E-15
 -1      1504 4.36264E-03 6.56685E-04-9.87104E-15
 -1      1505 4.80126E-03 6.83934E-04-1.20015E-14
 -1      1506 4.65910E-03 6.85259E-04-1.12332E-14
 -1      1507 4.64653E-03 6.54293E-04-1.13350E-14
 -1      1508 5.08620E-03 6.80993E-04-1.36083E-14
 -1      1509 4.94363E-03 6.82508E-04-1.27937E-14
 -1      1510 4.93118E-03 6.51477E-04-1.28966E-14
 -1      1511 5.37196E-03 6.77705E-04-1.53065E-14
 -1      1512 5.22897E-03 6.79387E-04-1.44460E-14
 -1      1513 5.21659E-03 6.48288E-04-1.45520E-14
 -1      1514 5.65862E-03 6.74118E-04-1.71081E-14
 -1      1515 5.51517E-03 6.75940E-04-1.61945E-14
 -1      1516 5.50280E-03 6.44763E-04-1.63034E-14
 -1      1517 5.94630E-03 6.70317E-04-1.90138E-14
 -1      1518 5.80232E-03 6.72232E-04-1.80474E-14
 -1      1519 5.78990E-03 6.40958E-04-1.81571E-14
 -1      1520 6.23519E-03 6.66454E-04-2.10190E-14
 -1      1521 6.09058E-03 6.68375E-04-2.00039E-14
 -1      1522 6.07803E-03 6.36981E-04-2.01135E-14
 -1      1523 6.52547E-03 6.62780E-04-2.31203E-14
 -1      1524 6.38014E-03 6.64567E-04-2.20582E-14
 -1      1525 6.36734E-03 6.33020E-04-2.21679E-14
 -1      1526 6.81734E-03 6.59686E-04-2.53138E-14
 -1      1527 6.67119E-03 6.61126E-04-2.42057E-14
 -1      1528 6.65800E-03 6.29386E-04-2.43143E-14
 -1      1529 7.11094E-03 6.57728E-04-2.75916E-14
 -1      1530 6.96391E-03 6.58523E-04-2.64423E-14
 -1      1531 6.95017E-03 6.26547E-04-2.65486E-14
 -1      1532 7.40627E-03 6.57641E-04-2.99553E-14
 -1      1533 7.25839E-03 6.57404E-04-2.87627E-14
 -1      1534 7.24392E-03 6.25152E-04-2.88702E-14
 -1      1535 7.70312E-03 6.60308E-04-3.24117E-14
 -1      1536 7.55452E-03 6.58585E-04-3.11722E-14
 -1      1537 7.53916E-03 6.26031E-04-3.12792E-14
 -1      1538 8.00094E-03 6.66667E-04-3.49555E-14
 -1      1539 7.85195E-03 6.62996E-04-3.36720E-14
 -1      1540 7.83561E-03 6.30141E-04-3.37775E-14
 -1      1541 8.29876E-03 6.77517E-04-3.75840E-14
 -1      1542 8.14992E-03 6.71535E-04-3.62600E-14
 -1      1543 8.13263E-03 6.38435E-04-3.63605E-14
 -1      1544 8.59507E-03 6.93189E-04-4.02945E-14
 -1      1545 8.44721E-03 6.84813E-04-3.89291E-14
 -1      1546 8.42921E-03 6.51598E-04-3.90268E-14
 -1      1547 8.88789E-03 7.13092E-04-4.30801E-14
 -1      1548 8.74205E-03 7.02761E-04-4.16779E-14
 -1      1549 8.72392E-03 6.69661E-04-4.17712E-14
 -1      1550 9.17496E-03 7.35193E-04-4.59404E-14
 -1      1551 9.03230E-03 7.24124E-04-4.45016E-14
 -1      1552 9.01497E-03 6.91478E-04-4.45930E-14
 -1      1553 9.45408E-03 7.55588E-04-4.88752E-14
 -1      1554 9.31565E-03 7.45968E-04-4.73984E-14
 -1      1555 9.30044E-03 7.14209E-04-4.74884E-14
 -1      1556 9.72374E-03 7.68446E-04-5.18828E-14
 -1      1557 9.59017E-03 7.63398E-04-5.03696E-14
 -1      1558 9.57869E-03 7.32989E-04-5.04564E-14
 -1      1559 9.98369E-03 7.66560E-04-5.49641E-14
 -1      1560 9.85490E-03 7.69784E-04-5.34136E-14
 -1      1561 9.84885E-03 7.41119E-04-5.34972E-14
 -1      1562 1.02354E-02 7.42653E-04-5.81165E-14
 -1      1563 1.01104E-02 7.57696E-04-5.65301E-14
 -1      1564 1.01113E-02 7.30973E-04-5.66129E-14
 -1      1565 1.04821E-02 6.91126E-04-6.13598E-14
 -1      1566 1.03592E-02 7.20481E-04-5.97275E-14
 -1      1567 1.03680E-02 6.95612E-04-5.98077E-14
 -1      1568 1.07281E-02 6.09657E-04-6.46747E-14
 -1      1569 1.06049E-02 6.54030E-04-6.30080E-14
 -1      1570 1.06220E-02 6.30638E-04-6.30817E-14
 -1      1571 1.09778E-02 4.99893E-04-6.80668E-14
 -1      1572 1.08522E-02 5.57993E-04-6.63617E-14
 -1      1573 1.08771E-02 5.35506E-04-6.64329E-14
 -1      1574 1.12344E-02 3.66906E-04-7.15312E-14
 -1      1575 1.11050E-02 4.35861E-04-6.97910E-14
 -1      1576 1.11365E-02 4.13669E-04-6.98577E-14
 -1      1577 1.14996E-02 2.17662E-04-7.50595E-14
 -1      1578 1.13659E-02 2.93865E-04-7.32869E-14
 -1      1579 1.14026E-02 2.71475E-04-7.33501E-14
 -1      1580 1.17734E-02 5.92169E-05-7.86423E-14
 -1      1581 1.16355E-02 1.39221E-04-7.68440E-14
 -1      1582 1.16758E-02 1.16340E-04-7.69031E-14
 -1      1583 1.20542E-02-1.02714E-04-8.22807E-14
 -1      1584 1.19131E-02-2.15533E-05-8.04552E-14
 -1      1585 1.19556E-02-4.50072E-05-8.05131E-14
 -1      1586 1.23399E-02-2.64446E-04-8.59551E-14
 -1      1587 1.21966E-02-1.83715E-04-8.41154E-14
 -1      1588 1.22403E-02-2.07660E-04-8.41690E-14
 -1      1589 1.26281E-02-4.24340E-04-8.96630E-14
 -1      1590 1.24838E-02-3.44629E-04-8.78059E-14
 -1      1591 1.25280E-02-3.68891E-04-8.78585E-14
 -1      1592 1.29169E-02-5.82387E-04-9.33942E-14
 -1      1593 1.27725E-02-5.03537E-04-9.15245E-14
 -1      1594 1.28170E-02-5.27913E-04-9.15747E-14
 -1      1595 1.32051E-02-7.39597E-04-9.71397E-14
 -1      1596 1.30611E-02-6.61015E-04-9.52658E-14
 -1      1597 1.31058E-02-6.85329E-04-9.53104E-14
 -1      1598 1.34922E-02-8.97347E-04-1.00896E-13
 -1      1599 1.33488E-02-8.18337E-04-9.90164E-14
 -1      1600 1.33937E-02-8.42470E-04-9.90591E-14
 -1      1601 1.37783E-02-1.05663E-03-1.04660E-13
 -1      1602 1.36353E-02-9.76785E-04-1.02778E-13
 -1      1603 1.36806E-02-1.00071E-03-1.02819E-13
 -1      1604 1.39475E-02-1.15109E-03-1.06696E-13
 -1      1605 1.41578E-02-1.26280E-03-1.07584E-13
 -1      1606 1.40782E-02-1.22094E-03-1.07291E-13
 -1      1607 1.43187E-02-1.34562E-03-1.08163E-13
 -1      1608 1.42380E-02-1.30440E-03-1.07876E-13
 -1      1609 1.40742E-02-1.21393E-03-1.06096E-13
 -1      1610 1.44818E-02-1.42639E-03-1.08739E-13
 -1      1611 1.43999E-02-1.38632E-03-1.08449E-13
 -1      1612 1.42358E-02-1.29619E-03-1.06674E-13
 -1      1613 1.46468E-02-1.50401E-03-1.09319E-13
 -1      1614 1.45641E-02-1.46567E-03-1.09030E-13
 -1      1615 1.43998E-02-1.37640E-03-1.07255E-13
 -1      1616 1.48097E-02-1.57604E-03-1.09897E-13
 -1      1617 1.47283E-02-1.54062E-03-1.09605E-13
 -1      1618 1.45642E-02-1.45297E-03-1.07833E-13
 -1      1619 1.49740E-02-1.64394E-03-1.10481E-13
 -1      1620 1.48922E-02-1.61072E-03-1.10192E-13
 -1      1621 1.47291E-02-1.52561E-03-1.08412E-13
 -1      1622 1.51339E-02-1.70583E-03-1.11074E-13
 -1      1623 1.50547E-02-1.67565E-03-1.10773E-13
 -1      1624 1.48934E-02-1.59409E-03-1.08998E-13
 -1      1625 1.52853E-02-1.76194E-03-1.11670E-13
 -1      1626 1.52109E-02-1.73456E-03-1.11375E-13
 -1      1627 1.50523E-02-1.65737E-03-1.09585E-13
 -1      1628 1.54246E-02-1.81358E-03-1.12247E-13
 -1      1629 1.53567E-02-1.78820E-03-1.11962E-13
 -1      1630 1.52018E-02-1.71584E-03-1.10172E-13
 -1      1631 1.55487E-02-1.86316E-03-1.12810E-13
 -1      1632 1.54886E-02-1.83844E-03-1.12529E-13
 -1      1633 1.53379E-02-1.77080E-03-1.10740E-13
 -1      1634 1.56553E-02-1.91303E-03-1.13362E-13
 -1      1635 1.56039E-02-1.88775E-03-1.13085E-13
 -1      1636 1.54572E-02-1.82398E-03-1.11296E-13
 -1      1637 1.57498E-02-1.96827E-03-1.13915E-13
 -1      1638 1.57041E-02-1.93989E-03-1.13644E-13
 -1      1639 1.55605E-02-1.87859E-03-1.11847E-13
 -1      1640 1.58353E-02-2.03080E-03-1.14437E-13
 -1      1641 1.57933E-02-1.99850E-03-1.14180E-13
 -1      1642 1.56513E-02-1.93791E-03-1.12385E-13
 -1      1643 1.59189E-02-2.10184E-03-1.14944E-13
 -1      1644 1.58769E-02-2.06525E-03-1.14692E-13
 -1      1645 1.57343E-02-2.00366E-03-1.12903E-13
 -1      1646 1.60058E-02-2.17426E-03-1.15489E-13
 -1      1647 1.59607E-02-2.13443E-03-1.15247E-13
 -1      1648 1.58161E-02-2.07125E-03-1.13466E-13
 -1      1649 1.59010E-02-2.13813E-03-1.14076E-13
 -1      1650 1.35875E-02-8.20423E-04-7.57253E-14
 -1      1651 1.36614E-02-8.74234E-04-7.59668E-14
 -1      1652 1.33369E-02-6.77749E-04-7.48506E-14
 -1      1653 1.34648E-02-7.42404E-04-7.52467E-14
 -1      1654 1.29723E-02-4.99823E-04-7.36780E-14
 -1      1655 1.31544E-02-5.87682E-04-7.42658E-14
 -1      1656 1.25683E-02-3.04259E-04-7.22945E-14
 -1      1657 1.27532E-02-3.94796E-04-7.29426E-14
 -1      1658 1.21356E-02-9.62296E-05-7.06518E-14
 -1      1659 1.23393E-02-1.92778E-04-7.14412E-14
 -1      1660 1.17132E-02 8.39210E-05-6.88659E-14
 -1      1661 1.19078E-02 7.47621E-06-6.96856E-14
 -1      1662 1.13103E-02 2.01004E-04-6.71062E-14
 -1      1663 1.14893E-02 1.56239E-04-6.79121E-14
 -1      1664 1.09022E-02 2.43106E-04-6.52494E-14
 -1      1665 1.10909E-02 2.35451E-04-6.61085E-14
 -1      1666 1.05111E-02 1.97628E-04-6.35881E-14
 -1      1667 1.06859E-02 2.27043E-04-6.43176E-14
 -1      1668 1.01150E-02 8.59782E-05-6.20487E-14
 -1      1669 1.03009E-02 1.45440E-04-6.27271E-14
 -1      1670 9.72629E-03-5.10224E-05-6.08792E-14
 -1      1671 9.89576E-03 1.47019E-05-6.13989E-14
 -1      1672 9.36972E-03-1.98729E-04-5.99298E-14
 -1      1673 9.53128E-03-1.29757E-04-6.03360E-14
 -1      1674 9.07795E-03-3.34188E-04-5.93027E-14
 -1      1675 9.20181E-03-2.74179E-04-5.95490E-14
 -1      1676 8.89654E-03-4.54473E-04-5.89631E-14
 -1      1677 8.96532E-03-4.04832E-04-5.90328E-14
 -1      1678 8.85993E-03-5.57255E-04-5.91713E-14
 -1      1679 8.85873E-03-5.09306E-04-5.90684E-14
 -1      1680 8.97441E-03-6.78199E-04-5.96350E-14
 -1      1681 8.90163E-03-6.17816E-04-5.93547E-14
 -1      1682 9.26232E-03-8.39651E-04-6.04579E-14
 -1      1683 9.11072E-03-7.51999E-04-5.99770E-14
 -1      1684 9.64920E-03-1.07133E-03-6.17159E-14
 -1      1685 9.46508E-03-9.63010E-04-6.11355E-14
 -1      1686 1.00822E-02-1.34981E-03-6.32242E-14
 -1      1687 9.87244E-03-1.22240E-03-6.25300E-14
 -1      1688 1.05379E-02-1.62121E-03-6.48717E-14
 -1      1689 1.03245E-02-1.50054E-03-6.41037E-14
 -1      1690 1.10135E-02-1.84166E-03-6.66952E-14
 -1      1691 1.07917E-02-1.74924E-03-6.58299E-14
 -1      1692 1.14752E-02-1.94708E-03-6.85795E-14
 -1      1693 1.12708E-02-1.91793E-03-6.77180E-14
 -1      1694 1.19129E-02-1.90382E-03-7.03436E-14
 -1      1695 1.17132E-02-1.93805E-03-6.95449E-14
 -1      1696 1.23424E-02-1.75837E-03-7.19661E-14
 -1      1697 1.21448E-02-1.83613E-03-7.12398E-14
 -1      1698 1.27666E-02-1.55670E-03-7.34171E-14
 -1      1699 1.25724E-02-1.65422E-03-7.27719E-14
 -1      1700 1.31518E-02-1.35323E-03-7.45969E-14
 -1      1701 1.29808E-02-1.44545E-03-7.40932E-14
 -1      1702 1.34507E-02-1.18385E-03-7.54211E-14
 -1      1703 1.33251E-02-1.25688E-03-7.50888E-14
 -1      1704 1.36442E-02-1.04501E-03-7.59463E-14
 -1      1705 1.35688E-02-1.10350E-03-7.57724E-14
 -1      1706 1.36998E-02-9.32950E-04-7.60715E-14
 -1      1707 1.36936E-02-9.81229E-04-7.60893E-14
 -1      1708 1.28086E-02-5.17245E-04-7.38355E-14
 -1      1709 1.36913E-02-9.21889E-04-7.68316E-14
 -1      1710 1.39930E-02-1.17492E-03-1.06739E-13
 -1      1711 1.39088E-02-1.12643E-03-1.05253E-13
 -1      1712 1.35254E-02-8.38053E-04-7.62415E-14
 -1      1713 1.32122E-02-7.01660E-04-7.51687E-14
 -1      1714 1.23734E-02-2.94408E-04-7.22361E-14
 -1      1715 1.19488E-02-6.20955E-05-7.04062E-14
 -1      1716 1.15454E-02 1.29694E-04-6.84804E-14
 -1      1717 1.11712E-02 2.45099E-04-6.65265E-14
 -1      1718 1.08130E-02 2.59831E-04-6.45992E-14
 -1      1719 1.04457E-02 1.77728E-04-6.28123E-14
 -1      1720 1.00659E-02 3.29520E-05-6.13110E-14
 -1      1721 9.67477E-03-1.30477E-04-6.01262E-14
 -1      1722 9.31490E-03-2.83415E-04-5.92108E-14
 -1      1723 9.02710E-03-4.07580E-04-5.85653E-14
 -1      1724 8.86948E-03-4.88790E-04-5.84059E-14
 -1      1725 8.87362E-03-5.62990E-04-5.86959E-14
 -1      1726 9.05658E-03-6.56682E-04-5.92198E-14
 -1      1727 9.40495E-03-8.18277E-04-6.02329E-14
 -1      1728 9.83503E-03-1.07695E-03-6.17160E-14
 -1      1729 1.02877E-02-1.38497E-03-6.34025E-14
 -1      1730 1.07436E-02-1.68326E-03-6.52328E-14
 -1      1731 1.11881E-02-1.90494E-03-6.72116E-14
 -1      1732 1.15873E-02-1.97464E-03-6.92028E-14
 -1      1733 1.19868E-02-1.88505E-03-7.10702E-14
 -1      1734 1.23972E-02-1.69216E-03-7.27816E-14
 -1      1735 1.28156E-02-1.46143E-03-7.42724E-14
 -1      1736 1.31981E-02-1.25444E-03-7.54500E-14
 -1      1737 1.34971E-02-1.09847E-03-7.62991E-14
 -1      1738 1.36751E-02-9.93970E-04-7.67960E-14
 -1      1739 2.85242E-04-1.76233E-04-6.63667E-17
 -1      1740 3.32171E-04-1.16777E-04-1.61898E-16
 -1      1741 3.36322E-04-1.33023E-04-1.55976E-16
 -1      1742 3.42213E-04-1.52010E-04-1.47804E-16
 -1      1743 3.51766E-04-1.74012E-04-1.35092E-16
 -1      1744 4.58332E-04-1.88091E-04-2.27289E-16
 -1      1745 3.24557E-04-6.53836E-05-1.69054E-16
 -1      1746 3.25703E-04-7.66732E-05-1.69122E-16
 -1      1747 3.23075E-04-4.38902E-05-1.67170E-16
 -1      1748 3.23725E-04-5.43794E-05-1.68336E-16
 -1      1749 4.36504E-04-7.92953E-05-2.48797E-16
 -1      1750 3.22294E-04-2.37721E-05-1.63416E-16
 -1      1751 3.22624E-04-3.36854E-05-1.65531E-16
 -1      1752 4.34517E-04-5.13183E-05-2.45287E-16
 -1      1753 3.22002E-04-4.33790E-06-1.57453E-16
 -1      1754 3.22098E-04-1.39900E-05-1.60679E-16
 -1      1755 4.33500E-04-2.49242E-05-2.38931E-16
 -1      1756 3.22124E-04 1.49799E-05-1.50203E-16
 -1      1757 3.22010E-04 5.31753E-06-1.54282E-16
 -1      1758 4.33205E-04 7.56146E-07-2.30230E-16
 -1      1759 3.22688E-04 3.47292E-05-1.40675E-16
 -1      1760 3.22338E-04 2.47831E-05-1.45757E-16
 -1      1761 4.33560E-04 2.64656E-05-2.18968E-16
 -1      1762 3.23812E-04 5.51667E-05-1.28708E-16
 -1      1763 3.23151E-04 4.48042E-05-1.35336E-16
 -1      1764 4.34633E-04 5.27211E-05-2.04657E-16
 -1      1765 3.25863E-04 7.78172E-05-1.13082E-16
 -1      1766 3.24669E-04 6.62370E-05-1.21634E-16
 -1      1767 4.36681E-04 8.06011E-05-1.86781E-16
 -1      1768 3.29553E-04 1.03650E-04-9.27806E-17
 -1      1769 3.27399E-04 9.03056E-05-1.03934E-16
 -1      1770 4.40318E-04 1.11574E-04-1.63633E-16
 -1      1771 3.36632E-04 1.35134E-04-6.55807E-17
 -1      1772 3.32463E-04 1.18606E-04-8.05020E-17
 -1      1773 4.46822E-04 1.47348E-04-1.33655E-16
 -1      1774 3.52259E-04 1.77576E-04-2.89482E-17
 -1      1775 3.42789E-04 1.54738E-04-4.91415E-17
 -1      1776 4.59288E-04 1.91441E-04-9.42443E-17
 -1      1777 4.07676E-04 2.33680E-04 3.11708E-19
 -1      1778 3.78067E-04 2.02665E-04-1.75641E-17
 -1      1779 4.95842E-04 2.44017E-04-5.75034E-17
 -1      1780 5.58526E-04 3.02512E-04-2.41506E-17
 -1      1781 3.40024E-04-1.90910E-04-1.05154E-16
 -1      1782 8.53601E-04 4.07121E-04-1.38114E-16
 -1      1783 7.07168E-04 3.59362E-04-7.01479E-17
 -1      1784 6.73422E-04 3.28802E-04-9.17506E-17
 -1      1785 4.58956E-04-2.36717E-04-1.78053E-16
 -1      1786 8.07235E-04-3.74107E-04-4.58374E-16
 -1      1787 9.52503E-04-4.15289E-04-6.31927E-16
 -1      1788 1.09534E-03-4.49975E-04-8.35296E-16
 -1      1789 1.23701E-03-4.78866E-04-1.06886E-15
 -1      1790 1.00393E-03-3.97904E-04-7.56678E-16
 -1      1791 1.37742E-03-5.03344E-04-1.33173E-15
 -1      1792 1.51711E-03-5.23708E-04-1.62422E-15
 -1      1793 1.28962E-03-4.55861E-04-1.22518E-15
 -1      1794 1.65627E-03-5.40875E-04-1.94583E-15
 -1      1795 1.79511E-03-5.55085E-04-2.29648E-15
 -1      1796 1.57203E-03-4.96788E-04-1.80960E-15
 -1      1797 1.93384E-03-5.66947E-04-2.67584E-15
 -1      1798 2.07249E-03-5.76660E-04-3.08378E-15
 -1      1799 1.85265E-03-5.25303E-04-2.50907E-15
 -1      1800 2.21818E-03-5.85004E-04-3.54220E-15
 -1      1801 2.36398E-03-5.91642E-04-4.03128E-15
 -1      1802 2.13955E-03-5.45135E-04-3.34388E-15
 -1      1803 2.50304E-03-5.96684E-04-4.52562E-15
 -1      1804 2.64228E-03-6.00620E-04-5.04669E-15
 -1      1805 2.42642E-03-5.58051E-04-4.29462E-15
 -1      1806 2.78177E-03-6.03657E-04-5.59469E-15
 -1      1807 2.92147E-03-6.05904E-04-6.16919E-15
 -1      1808 2.70669E-03-5.65852E-04-5.33227E-15
 -1      1809 3.06144E-03-6.07508E-04-6.76938E-15
 -1      1810 3.20162E-03-6.08556E-04-7.39649E-15
 -1      1811 2.98753E-03-5.70263E-04-6.47503E-15
 -1      1812 3.34205E-03-6.09149E-04-8.04952E-15
 -1      1813 3.48270E-03-6.09352E-04-8.72798E-15
 -1      1814 3.26905E-03-5.72275E-04-7.72228E-15
 -1      1815 3.62358E-03-6.09233E-04-9.43199E-15
 -1      1816 3.76466E-03-6.08841E-04-1.01603E-14
 -1      1817 3.55125E-03-5.72601E-04-9.07254E-15
 -1      1818 3.90594E-03-6.08218E-04-1.09141E-14
 -1      1819 4.04741E-03-6.07397E-04-1.16928E-14
 -1      1820 3.83412E-03-5.71743E-04-1.05230E-14
 -1      1821 4.18907E-03-6.06402E-04-1.24963E-14
 -1      1822 4.33090E-03-6.05255E-04-1.33237E-14
 -1      1823 4.11760E-03-5.70036E-04-1.20730E-14
 -1      1824 4.47290E-03-6.03964E-04-1.41770E-14
 -1      1825 4.61506E-03-6.02542E-04-1.50537E-14
 -1      1826 4.40166E-03-5.67681E-04-1.37218E-14
 -1      1827 4.76451E-03-6.00904E-04-1.59992E-14
 -1      1828 4.91414E-03-5.99125E-04-1.69706E-14
 -1      1829 4.69341E-03-5.64699E-04-1.55128E-14
 -1      1830 5.05683E-03-5.97284E-04-1.79197E-14
 -1      1831 5.19970E-03-5.95305E-04-1.88928E-14
 -1      1832 4.98575E-03-5.61165E-04-1.74013E-14
 -1      1833 5.34275E-03-5.93162E-04-1.98879E-14
 -1      1834 5.48602E-03-5.90861E-04-2.09067E-14
 -1      1835 5.27157E-03-5.57143E-04-1.93378E-14
 -1      1836 5.62951E-03-5.88367E-04-2.19481E-14
 -1      1837 5.77327E-03-5.85688E-04-2.30116E-14
 -1      1838 5.55808E-03-5.52466E-04-2.13665E-14
 -1      1839 5.91731E-03-5.82784E-04-2.40980E-14
 -1      1840 6.06169E-03-5.79665E-04-2.52043E-14
 -1      1841 5.84541E-03-5.47020E-04-2.34851E-14
 -1      1842 6.20643E-03-5.76289E-04-2.63326E-14
 -1      1843 6.35162E-03-5.72675E-04-2.74807E-14
 -1      1844 6.13377E-03-5.40676E-04-2.56906E-14
 -1      1845 6.49728E-03-5.68779E-04-2.86487E-14
 -1      1846 6.64355E-03-5.64636E-04-2.98357E-14
 -1      1847 6.42343E-03-5.33318E-04-2.79772E-14
 -1      1848 6.79042E-03-5.60210E-04-3.10427E-14
 -1      1849 6.93812E-03-5.55560E-04-3.22689E-14
 -1      1850 6.71475E-03-5.24876E-04-3.03437E-14
 -1      1851 7.08661E-03-5.50673E-04-3.35135E-14
 -1      1852 7.23621E-03-5.45647E-04-3.47783E-14
 -1      1853 7.00821E-03-5.15391E-04-3.27872E-14
 -1      1854 7.39439E-03-5.40266E-04-3.61275E-14
 -1      1855 7.55420E-03-5.34974E-04-3.74971E-14
 -1      1856 7.31182E-03-5.04865E-04-3.53716E-14
 -1      1857 7.70776E-03-5.30173E-04-3.88199E-14
 -1      1858 7.86329E-03-5.25901E-04-4.01623E-14
 -1      1859 7.61901E-03-4.94285E-04-3.80374E-14
 -1      1860 8.02050E-03-5.22537E-04-4.15233E-14
 -1      1861 8.18022E-03-5.20555E-04-4.28999E-14
 -1      1862 7.92300E-03-4.85459E-04-4.07140E-14
 -1      1863 8.34208E-03-5.20752E-04-4.42920E-14
 -1      1864 8.50709E-03-5.23937E-04-4.57010E-14
 -1      1865 8.23222E-03-4.81100E-04-4.34605E-14
 -1      1866 8.67485E-03-5.31566E-04-4.71248E-14
 -1      1867 8.84639E-03-5.45075E-04-4.85640E-14
 -1      1868 8.54798E-03-4.86690E-04-4.62698E-14
 -1      1869 9.02168E-03-5.66807E-04-5.00157E-14
 -1      1870 9.20137E-03-5.99328E-04-5.14828E-14
 -1      1871 8.87254E-03-5.11832E-04-4.91386E-14
 -1      1872 9.38656E-03-6.45753E-04-5.29655E-14
 -1      1873 9.57664E-03-7.10423E-04-5.44598E-14
 -1      1874 9.21039E-03-5.72433E-04-5.20634E-14
 -1      1875 9.77503E-03-7.96152E-04-5.59682E-14
 -1      1876 9.97815E-03-9.08761E-04-5.74894E-14
 -1      1877 9.57043E-03-6.92920E-04-5.50448E-14
 -1      1878 1.01814E-02-1.04019E-03-5.89489E-14
 -1      1879 1.03865E-02-1.19859E-03-6.04214E-14
 -1      1880 9.95589E-03-8.98572E-04-5.80019E-14
 -1      1881 1.05881E-02-1.36712E-03-6.18297E-14
 -1      1882 1.07871E-02-1.54730E-03-6.32543E-14
 -1      1883 1.03607E-02-1.19697E-03-6.08582E-14
 -1      1884 1.10171E-02-1.74975E-03-6.48360E-14
 -1      1885 1.12051E-02-1.90086E-03-6.63037E-14
 -1      1886 1.13861E-02-2.01418E-03-6.78481E-14
 -1      1887 1.15882E-02-2.07112E-03-6.95305E-14
 -1      1888 1.17840E-02-2.05510E-03-7.12387E-14
 -1      1889 1.19918E-02-1.98025E-03-7.29782E-14
 -1      1890 1.22062E-02-1.86021E-03-7.47271E-14
 -1      1891 1.24249E-02-1.73237E-03-7.65108E-14
 -1      1892 1.26471E-02-1.61219E-03-7.83172E-14
 -1      1893 1.28623E-02-1.51225E-03-8.01359E-14
 -1      1894 1.25837E-02-1.60387E-03-7.72158E-14
 -1      1895 1.30858E-02-1.43806E-03-8.20570E-14
 -1      1896 1.32979E-02-1.39259E-03-8.39913E-14
 -1      1897 1.30330E-02-1.40681E-03-8.09466E-14
 -1      1898 1.34948E-02-1.37641E-03-8.58430E-14
 -1      1899 1.36835E-02-1.38085E-03-8.76994E-14
 -1      1900 1.34388E-02-1.32941E-03-8.47217E-14
 -1      1901 1.38670E-02-1.40298E-03-8.95639E-14
 -1      1902 1.40447E-02-1.43857E-03-9.14360E-14
 -1      1903 1.37988E-02-1.34601E-03-8.84325E-14
 -1      1904 1.42177E-02-1.48434E-03-9.33159E-14
 -1      1905 1.43865E-02-1.53770E-03-9.52051E-14
 -1      1906 1.41359E-02-1.42111E-03-9.21727E-14
 -1      1907 1.45512E-02-1.59610E-03-9.70980E-14
 -1      1908 1.47126E-02-1.65800E-03-9.89921E-14
 -1      1909 1.44582E-02-1.52960E-03-9.59440E-14
 -1      1910 1.48706E-02-1.72169E-03-1.00889E-13
 -1      1911 1.50260E-02-1.78618E-03-1.02791E-13
 -1      1912 1.47699E-02-1.65430E-03-9.97312E-14
 -1      1913 1.51785E-02-1.85036E-03-1.04693E-13
 -1      1914 1.53290E-02-1.91349E-03-1.06594E-13
 -1      1915 1.50734E-02-1.78393E-03-1.03529E-13
 -1      1916 1.54772E-02-1.97490E-03-1.08496E-13
 -1      1917 1.56239E-02-2.03396E-03-1.10398E-13
 -1      1918 1.53700E-02-1.91089E-03-1.07333E-13
 -1      1919 1.57956E-02-2.10024E-03-1.12663E-13
 -1      1920 1.35840E-03 5.12128E-04-5.96826E-16
 -1      1921 1.21836E-03 4.87068E-04-4.42382E-16
 -1      1922 1.63626E-03 5.51005E-04-9.79333E-16
 -1      1923 1.49759E-03 5.33346E-04-7.75543E-16
 -1      1924 1.41112E-03 4.87372E-04-7.57654E-16
 -1      1925 1.91288E-03 5.78136E-04-1.46275E-15
 -1      1926 1.77465E-03 5.65860E-04-1.20815E-15
 -1      1927 1.69177E-03 5.22896E-04-1.17866E-15
 -1      1928 2.18944E-03 5.96669E-04-2.04865E-15
 -1      1929 2.05113E-03 5.88341E-04-1.74279E-15
 -1      1930 1.97117E-03 5.47518E-04-1.70015E-15
 -1      1931 2.46658E-03 6.08918E-04-2.73800E-15
 -1      1932 2.32792E-03 6.03474E-04-2.38054E-15
 -1      1933 2.25028E-03 5.64160E-04-2.32439E-15
 -1      1934 2.74464E-03 6.16606E-04-3.53157E-15
 -1      1935 2.60550E-03 6.13252E-04-3.12215E-15
 -1      1936 2.52966E-03 5.74984E-04-3.05142E-15
 -1      1937 3.02374E-03 6.21018E-04-4.42796E-15
 -1      1938 2.88407E-03 6.19161E-04-3.96691E-15
 -1      1939 2.80961E-03 5.81607E-04-3.88132E-15
 -1      1940 3.30390E-03 6.23106E-04-5.42647E-15
 -1      1941 3.16370E-03 6.22307E-04-4.91462E-15
 -1      1942 3.09029E-03 5.85229E-04-4.81349E-15
 -1      1943 3.58505E-03 6.23559E-04-6.52589E-15
 -1      1944 3.44436E-03 6.23504E-04-5.96349E-15
 -1      1945 3.37173E-03 5.86735E-04-5.84683E-15
 -1      1946 3.86711E-03 6.22865E-04-7.72566E-15
 -1      1947 3.72597E-03 6.23332E-04-7.11313E-15
 -1      1948 3.65392E-03 5.86759E-04-6.98107E-15
 -1      1949 4.15000E-03 6.21356E-04-9.02396E-15
 -1      1950 4.00846E-03 6.22196E-04-8.36274E-15
 -1      1951 3.93681E-03 5.85746E-04-8.21461E-15
 -1      1952 4.43363E-03 6.19243E-04-1.04213E-14
 -1      1953 4.29173E-03 6.20364E-04-9.71040E-15
 -1      1954 4.22036E-03 5.83993E-04-9.54594E-15
 -1      1955 4.71796E-03 6.16655E-04-1.19170E-14
 -1      1956 4.57571E-03 6.18002E-04-1.11571E-14
 -1      1957 4.50451E-03 5.81684E-04-1.09764E-14
 -1      1958 5.00297E-03 6.13660E-04-1.35096E-14
 -1      1959 4.86038E-03 6.15204E-04-1.27015E-14
 -1      1960 4.78924E-03 5.78926E-04-1.25033E-14
 -1      1961 5.28866E-03 6.10296E-04-1.51957E-14
 -1      1962 5.14572E-03 6.12020E-04-1.43414E-14
 -1      1963 5.07455E-03 5.75772E-04-1.41266E-14
 -1      1964 5.57509E-03 6.06597E-04-1.69813E-14
 -1      1965 5.43177E-03 6.08484E-04-1.60760E-14
 -1      1966 5.36046E-03 5.72252E-04-1.58456E-14
 -1      1967 5.86234E-03 6.02624E-04-1.88678E-14
 -1      1968 5.71860E-03 6.04638E-04-1.79116E-14
 -1      1969 5.64703E-03 5.68397E-04-1.76639E-14
 -1      1970 6.15055E-03 5.98493E-04-2.08544E-14
 -1      1971 6.00631E-03 6.00567E-04-1.98483E-14
 -1      1972 5.93434E-03 5.64273E-04-1.95816E-14
 -1      1973 6.43986E-03 5.94416E-04-2.29354E-14
 -1      1974 6.29505E-03 5.96431E-04-2.18832E-14
 -1      1975 6.22252E-03 5.60010E-04-2.15972E-14
 -1      1976 6.73041E-03 5.90740E-04-2.51095E-14
 -1      1977 6.58496E-03 5.92503E-04-2.40117E-14
 -1      1978 6.51169E-03 5.55843E-04-2.37079E-14
 -1      1979 7.02234E-03 5.87976E-04-2.73701E-14
 -1      1980 6.87619E-03 5.89210E-04-2.62284E-14
 -1      1981 6.80202E-03 5.52150E-04-2.59075E-14
 -1      1982 7.31569E-03 5.86831E-04-2.97165E-14
 -1      1983 7.16884E-03 5.87158E-04-2.85329E-14
 -1      1984 7.09363E-03 5.49488E-04-2.81947E-14
 -1      1985 7.61042E-03 5.88193E-04-3.21519E-14
 -1      1986 7.46290E-03 5.87148E-04-3.09234E-14
 -1      1987 7.38660E-03 5.48614E-04-3.05666E-14
 -1      1988 7.90625E-03 5.93069E-04-3.46734E-14
 -1      1989 7.75824E-03 5.90141E-04-3.34015E-14
 -1      1990 7.68094E-03 5.50469E-04-3.30259E-14
 -1      1991 8.20267E-03 6.02425E-04-3.72791E-14
 -1      1992 8.05447E-03 5.97149E-04-3.59662E-14
 -1      1993 7.97648E-03 5.56098E-04-3.55722E-14
 -1      1994 8.49881E-03 6.16897E-04-3.99664E-14
 -1      1995 8.35089E-03 6.09016E-04-3.86135E-14
 -1      1996 8.27284E-03 5.66472E-04-3.81995E-14
 -1      1997 8.79346E-03 6.36354E-04-4.27306E-14
 -1      1998 8.64647E-03 6.26059E-04-4.13381E-14
 -1      1999 8.56934E-03 5.82168E-04-4.09070E-14
 -1      2000 9.08510E-03 6.59348E-04-4.55714E-14
 -1      2001 8.93982E-03 6.47559E-04-4.41413E-14
 -1      2002 8.86497E-03 6.02890E-04-4.36909E-14
 -1      2003 9.37210E-03 6.82578E-04-4.84854E-14
 -1      2004 9.22934E-03 6.71203E-04-4.70186E-14
 -1      2005 9.15836E-03 6.26887E-04-4.65503E-14
 -1      2006 9.65307E-03 7.00617E-04-5.14738E-14
 -1      2007 9.51343E-03 6.92633E-04-4.99711E-14
 -1      2008 9.44796E-03 6.50391E-04-4.94844E-14
 -1      2009 9.92730E-03 7.06228E-04-5.45344E-14
 -1      2010 9.79101E-03 7.05437E-04-5.29933E-14
 -1      2011 9.73240E-03 6.67402E-04-5.24917E-14
 -1      2012 1.01953E-02 6.91489E-04-5.76699E-14
 -1      2013 1.00619E-02 7.01843E-04-5.60942E-14
 -1      2014 1.00109E-02 6.70129E-04-5.55712E-14
 -1      2015 1.04588E-02 6.49623E-04-6.08861E-14
 -1      2016 1.03273E-02 6.74251E-04-5.92672E-14
 -1      2017 1.02841E-02 6.50361E-04-5.87297E-14
 -1      2018 1.07208E-02 5.76924E-04-6.41796E-14
 -1      2019 1.05897E-02 6.17199E-04-6.25231E-14
 -1      2020 1.05537E-02 6.01535E-04-6.19643E-14
 -1      2021 1.09845E-02 4.73925E-04-6.75481E-14
 -1      2022 1.08521E-02 5.29031E-04-6.58550E-14
 -1      2023 1.08227E-02 5.20759E-04-6.52781E-14
 -1      2024 1.12525E-02 3.45189E-04-7.09910E-14
 -1      2025 1.11178E-02 4.12401E-04-6.92611E-14
 -1      2026 1.10940E-02 4.09764E-04-6.86654E-14
 -1      2027 1.15264E-02 1.97835E-04-7.44973E-14
 -1      2028 1.13887E-02 2.73387E-04-7.27350E-14
 -1      2029 1.13699E-02 2.74282E-04-7.21232E-14
 -1      2030 1.18061E-02 3.95314E-05-7.80655E-14
 -1      2031 1.16656E-02 1.19634E-04-7.62752E-14
 -1      2032 1.16510E-02 1.22168E-04-7.56453E-14
 -1      2033 1.20907E-02-1.23227E-04-8.16873E-14
 -1      2034 1.19480E-02-4.16025E-05-7.98693E-14
 -1      2035 1.19369E-02-3.87756E-05-7.92281E-14
 -1      2036 1.23786E-02-2.86047E-04-8.53510E-14
 -1      2037 1.22344E-02-2.04810E-04-8.35149E-14
 -1      2038 1.22262E-02-2.02413E-04-8.28624E-14
 -1      2039 1.26682E-02-4.46781E-04-8.90468E-14
 -1      2040 1.25234E-02-3.66738E-04-8.71962E-14
 -1      2041 1.25173E-02-3.64957E-04-8.65328E-14
 -1      2042 1.29580E-02-6.05141E-04-9.27651E-14
 -1      2043 1.28132E-02-5.26234E-04-9.09033E-14
 -1      2044 1.28088E-02-5.24883E-04-9.02332E-14
 -1      2045 1.32472E-02-7.62076E-04-9.65045E-14
 -1      2046 1.31027E-02-6.83714E-04-9.46337E-14
 -1      2047 1.30996E-02-6.82397E-04-9.39568E-14
 -1      2048 1.35351E-02-9.19086E-04-1.00254E-13
 -1      2049 1.33913E-02-8.40483E-04-9.83790E-14
 -1      2050 1.33891E-02-8.38764E-04-9.76990E-14
 -1      2051 1.37938E-02-1.06208E-03-1.03695E-13
 -1      2052 1.36505E-02-9.82678E-04-1.01813E-13
 -1      2053 1.36488E-02-9.80293E-04-1.01130E-13
 -1      2054 1.38793E-02-1.10788E-03-1.04247E-13
 -1      2055 1.43179E-02-1.32792E-03-1.05775E-13
 -1      2056 1.42352E-02-1.28812E-03-1.05483E-13
 -1      2057 1.41530E-02-1.24768E-03-1.05191E-13
 -1      2058 1.40715E-02-1.20682E-03-1.04902E-13
 -1      2059 1.40702E-02-1.20029E-03-1.03709E-13
 -1      2060 1.39593E-02-1.14954E-03-1.04537E-13
 -1      2061 1.44816E-02-1.40414E-03-1.06347E-13
 -1      2062 1.43996E-02-1.36645E-03-1.06060E-13
 -1      2063 1.42344E-02-1.28044E-03-1.04287E-13
 -1      2064 1.46484E-02-1.47808E-03-1.06932E-13
 -1      2065 1.45651E-02-1.44164E-03-1.06638E-13
 -1      2066 1.44003E-02-1.35817E-03-1.04864E-13
 -1      2067 1.48125E-02-1.54763E-03-1.07515E-13
 -1      2068 1.47310E-02-1.51344E-03-1.07227E-13
 -1      2069 1.45674E-02-1.43321E-03-1.05447E-13
 -1      2070 1.49704E-02-1.61246E-03-1.08099E-13
 -1      2071 1.48925E-02-1.58061E-03-1.07805E-13
 -1      2072 1.47314E-02-1.50406E-03-1.06027E-13
 -1      2073 1.51177E-02-1.67294E-03-1.08673E-13
 -1      2074 1.50456E-02-1.64314E-03-1.08387E-13
 -1      2075 1.48882E-02-1.57031E-03-1.06603E-13
 -1      2076 1.52505E-02-1.73031E-03-1.09237E-13
 -1      2077 1.51861E-02-1.70182E-03-1.08957E-13
 -1      2078 1.50332E-02-1.63225E-03-1.07172E-13
 -1      2079 1.53648E-02-1.78569E-03-1.09783E-13
 -1      2080 1.53097E-02-1.75788E-03-1.09509E-13
 -1      2081 1.51616E-02-1.69064E-03-1.07726E-13
 -1      2082 1.54647E-02-1.84356E-03-1.10331E-13
 -1      2083 1.54167E-02-1.81417E-03-1.10058E-13
 -1      2084 1.52726E-02-1.74808E-03-1.08270E-13
 -1      2085 1.55517E-02-1.90559E-03-1.10856E-13
 -1      2086 1.55095E-02-1.87386E-03-1.10595E-13
 -1      2087 1.53680E-02-1.80772E-03-1.08807E-13
 -1      2088 1.56324E-02-1.97376E-03-1.11374E-13
 -1      2089 1.55924E-02-1.93884E-03-1.11117E-13
 -1      2090 1.54511E-02-1.87173E-03-1.09332E-13
 -1      2091 1.10801E-03 4.68653E-04-3.26657E-16
 -1      2092 9.65636E-04 4.34278E-04-2.17017E-16
 -1      2093 9.33400E-04 4.04830E-04-2.42766E-16
 -1      2094 1.15821E-03 4.47942E-04-4.53440E-16
 -1      2095 1.30910E-02-7.23474E-04-7.56197E-14
 -1      2096 1.32740E-02-7.93593E-04-7.62153E-14
 -1      2097 1.22059E-02-2.76095E-04-7.22906E-14
 -1      2098 1.24100E-02-3.94820E-04-7.31535E-14
 -1      2099 1.36766E-02-9.35209E-04-7.77387E-14
 -1      2100 1.37138E-02-9.51150E-04-7.78473E-14
 -1      2101 1.26595E-02-5.16325E-04-7.40130E-14
 -1      2102 1.28687E-02-6.18326E-04-7.47610E-14
 -1      2103 3.27172E-04-8.89671E-05-1.67807E-16
 -1      2104 3.29254E-04-1.02137E-04-1.65395E-16
 -1      2105 4.46292E-04-1.45105E-04-2.42251E-16
 -1      2106 4.40000E-04-1.09938E-04-2.48242E-16
 -1      2107 1.17834E-02-1.76086E-05-7.01714E-14
 -1      2108 1.19715E-02-1.33875E-04-7.11460E-14
 -1      2109 1.14199E-02 1.71341E-04-6.81621E-14
 -1      2110 1.15844E-02 8.88849E-05-6.91206E-14
 -1      2111 1.10754E-02 2.79155E-04-6.59892E-14
 -1      2112 1.12257E-02 2.43536E-04-6.69874E-14
 -1      2113 1.07342E-02 2.64448E-04-6.38511E-14
 -1      2114 1.08852E-02 2.86532E-04-6.47786E-14
 -1      2115 1.03950E-02 1.52839E-04-6.20278E-14
 -1      2116 1.05572E-02 2.17488E-04-6.28816E-14
 -1      2117 9.99805E-03-2.62698E-05-6.04250E-14
 -1      2118 1.01774E-02 5.85377E-05-6.10660E-14
 -1      2119 9.61971E-03-1.97720E-04-5.92778E-14
 -1      2120 9.79907E-03-1.15619E-04-5.98129E-14
 -1      2121 9.25706E-03-3.48635E-04-5.82946E-14
 -1      2122 9.42145E-03-2.85011E-04-5.86687E-14
 -1      2123 8.98265E-03-4.43993E-04-5.77600E-14
 -1      2124 9.10045E-03-4.04706E-04-5.80241E-14
 -1      2125 8.84636E-03-5.00663E-04-5.77674E-14
 -1      2126 8.88410E-03-4.81100E-04-5.76590E-14
 -1      2127 8.89440E-03-5.43296E-04-5.80228E-14
 -1      2128 8.85011E-03-5.23273E-04-5.78400E-14
 -1      2129 9.12581E-03-6.16783E-04-5.85718E-14
 -1      2130 8.98992E-03-5.75107E-04-5.82332E-14
 -1      2131 9.54855E-03-8.13729E-04-5.99856E-14
 -1      2132 9.34638E-03-7.14085E-04-5.93149E-14
 -1      2133 1.00131E-02-1.10821E-03-6.17451E-14
 -1      2134 9.79602E-03-9.65289E-04-6.09371E-14
 -1      2135 1.04704E-02-1.43643E-03-6.35656E-14
 -1      2136 1.02563E-02-1.27776E-03-6.26927E-14
 -1      2137 1.09052E-02-1.74768E-03-6.55555E-14
 -1      2138 1.07055E-02-1.60649E-03-6.46026E-14
 -1      2139 1.13009E-02-1.95501E-03-6.76631E-14
 -1      2140 1.11173E-02-1.87199E-03-6.66408E-14
 -1      2141 1.16892E-02-1.99040E-03-6.99654E-14
 -1      2142 1.15277E-02-2.00269E-03-6.89946E-14
 -1      2143 1.20495E-02-1.85648E-03-7.18673E-14
 -1      2144 1.18770E-02-1.93666E-03-7.09635E-14
 -1      2145 1.24520E-02-1.62483E-03-7.36881E-14
 -1      2146 1.22621E-02-1.74151E-03-7.28733E-14
 -1      2147 1.28738E-02-1.37817E-03-7.52131E-14
 -1      2148 1.26778E-02-1.49260E-03-7.45271E-14
 -1      2149 1.32514E-02-1.17467E-03-7.65368E-14
 -1      2150 1.30813E-02-1.25885E-03-7.60369E-14
 -1      2151 1.35420E-02-1.04645E-03-7.73363E-14
 -1      2152 1.34182E-02-1.09801E-03-7.69810E-14
 -1      2153 1.37012E-02-9.76264E-04-7.78233E-14
 -1      2154 1.36464E-02-9.99956E-04-7.76815E-14
 -1      2155 1.34461E-02-8.54956E-04-7.67706E-14
 -1      2156 1.35722E-02-8.96085E-04-7.72558E-14
 -1      2157 1.08191E-02-1.59259E-03-6.38352E-14
 -1      2158 1.12558E-02-1.93689E-03-6.69546E-14
 -1      2159 6.07880E-04-2.98122E-04-2.82448E-16
 -1      2160 1.29640E-02-7.07803E-04-7.57958E-14
 -1      2161 1.20489E-02-2.21123E-04-7.20522E-14
 -1      2162 6.63599E-04-2.92406E-04-3.66271E-16
 -1      2163 1.56877E-02-2.04006E-03-1.11502E-13
 -1      2164 1.33519E-02-8.57709E-04-7.72197E-14
 -1      2165 1.38756E-02-1.10178E-03-1.03054E-13
 -1      2166 1.36330E-02-9.38425E-04-7.82637E-14
 -1      2167 1.37199E-02-9.72616E-04-7.87269E-14
 -1      2168 1.56468E-02-2.00664E-03-1.11192E-13
 -1      2169 1.36006E-02-1.01705E-03-7.83593E-14
 -1      2170 1.33313E-02-1.12146E-03-7.75655E-14
 -1      2171 1.25038E-02-4.85360E-04-7.40682E-14
 -1      2172 1.55027E-02-1.93736E-03-1.09412E-13
 -1      2173 1.29686E-02-1.30180E-03-7.62892E-14
 -1      2174 1.25510E-02-1.55075E-03-7.46181E-14
 -1      2175 1.21470E-02-1.80437E-03-7.27622E-14
 -1      2176 1.17882E-02-1.97970E-03-7.07493E-14
 -1      2177 1.14332E-02-1.99748E-03-6.84121E-14
 -1      2178 1.10387E-02-1.81330E-03-6.59970E-14
 -1      2179 1.06299E-02-1.51175E-03-6.38814E-14
 -1      2180 1.01768E-02-1.16947E-03-6.19044E-14
 -1      2181 9.69621E-03-8.54803E-04-6.00100E-14
 -1      2182 9.23330E-03-6.25530E-04-5.83233E-14
 -1      2183 8.93412E-03-5.27394E-04-5.73758E-14
 -1      2184 8.83908E-03-4.97601E-04-5.70934E-14
 -1      2185 8.92443E-03-4.62704E-04-5.71189E-14
 -1      2186 9.18131E-03-3.85408E-04-5.74851E-14
 -1      2187 9.52507E-03-2.54698E-04-5.83568E-14
 -1      2188 9.90645E-03-8.02052E-05-5.95691E-14
 -1      2189 1.02913E-02 1.07780E-04-6.11328E-14
 -1      2190 1.06464E-02 2.50888E-04-6.30570E-14
 -1      2191 1.09682E-02 2.95095E-04-6.52309E-14
 -1      2192 1.16472E-02 2.96331E-05-6.98502E-14
 -1      2193 1.12967E-02 2.12652E-04-6.76178E-14
 -1      2194 5.47792E-04-5.53058E-05-3.46335E-16
 -1      2195 5.48828E-04-7.20248E-05-3.49696E-16
 -1      2196 5.50247E-04-8.93502E-05-3.52162E-16
 -1      2197 5.52106E-04-1.07338E-04-3.53436E-16
 -1      2198 6.65297E-04-9.54991E-05-4.75260E-16
 -1      2199 5.46412E-04 8.85548E-06-3.23783E-16
 -1      2200 5.46391E-04-6.98326E-06-3.30627E-16
 -1      2201 5.47167E-04 4.08696E-05-3.07154E-16
 -1      2202 5.46667E-04 2.47934E-05-3.16058E-16
 -1      2203 6.61351E-04 1.99296E-05-4.34345E-16
 -1      2204 5.48991E-04 7.34951E-05-2.87110E-16
 -1      2205 5.47930E-04 5.70007E-05-2.97817E-16
 -1      2206 6.62678E-04 5.77884E-05-4.11943E-16
 -1      2207 5.52380E-04 1.08971E-04-2.61279E-16
 -1      2208 5.50458E-04 9.08942E-05-2.75021E-16
 -1      2209 6.65536E-04 9.72609E-05-3.83984E-16
 -1      2210 5.58252E-04 1.48313E-04-2.28414E-16
 -1      2211 5.54940E-04 1.28082E-04-2.46005E-16
 -1      2212 6.70625E-04 1.40032E-04-3.48978E-16
 -1      2213 5.68611E-04 1.93897E-04-1.86686E-16
 -1      2214 5.62718E-04 1.70199E-04-2.09156E-16
 -1      2215 6.79257E-04 1.87584E-04-3.05067E-16
 -1      2216 5.88036E-04 2.49511E-04-1.32137E-16
 -1      2217 5.76902E-04 2.20253E-04-1.61302E-16
 -1      2218 6.94246E-04 2.42512E-04-2.49461E-16
 -1      2219 6.42160E-04 3.01309E-04-1.06699E-16
 -1      2220 6.14437E-04 2.73810E-04-1.22041E-16
 -1      2221 7.31537E-04 2.97816E-04-2.06012E-16
 -1      2222 7.88604E-04 3.49703E-04-1.79463E-16
 -1      2223 1.16730E-02-2.04251E-03-7.02024E-14
 -1      2224 9.15180E-04-3.46367E-04-6.78318E-16
 -1      2225 1.05928E-03-3.79685E-04-8.84587E-16
 -1      2226 1.28328E-02-6.84968E-04-7.60021E-14
 -1      2227 1.30428E-02-7.77306E-04-7.68692E-14
 -1      2228 1.36532E-02-1.00933E-03-7.94581E-14
 -1      2229 1.35526E-02-1.03640E-03-7.91128E-14
 -1      2230 1.20253E-03-4.08071E-04-1.11934E-15
 -1      2231 1.34534E-03-4.31936E-04-1.38316E-15
 -1      2232 1.11696E-03-3.60508E-04-1.01555E-15
 -1      2233 1.48751E-03-4.52140E-04-1.67536E-15
 -1      2234 1.62929E-03-4.68964E-04-1.99603E-15
 -1      2235 1.40329E-03-4.07253E-04-1.54347E-15
 -1      2236 1.77071E-03-4.83077E-04-2.34529E-15
 -1      2237 1.91189E-03-4.94693E-04-2.72261E-15
 -1      2238 1.68842E-03-4.40458E-04-2.18400E-15
 -1      2239 2.05996E-03-5.04741E-04-3.14848E-15
 -1      2240 2.20792E-03-5.12791E-04-3.60480E-15
 -1      2241 1.97970E-03-4.63929E-04-2.95625E-15
 -1      2242 2.34882E-03-5.18971E-04-4.06718E-15
 -1      2243 2.48971E-03-5.23848E-04-4.55687E-15
 -1      2244 2.27042E-03-4.79503E-04-3.84356E-15
 -1      2245 2.63067E-03-5.27677E-04-5.07316E-15
 -1      2246 2.77167E-03-5.30572E-04-5.61611E-15
 -1      2247 2.55383E-03-4.89161E-04-4.81807E-15
 -1      2248 2.91278E-03-5.32719E-04-6.18455E-15
 -1      2249 3.05398E-03-5.34204E-04-6.77888E-15
 -1      2250 2.83726E-03-4.94883E-04-5.89778E-15
 -1      2251 3.19530E-03-5.35161E-04-7.39999E-15
 -1      2252 3.33673E-03-5.35656E-04-8.04639E-15
 -1      2253 3.12086E-03-4.97806E-04-7.08147E-15
 -1      2254 3.47828E-03-5.35780E-04-8.71808E-15
 -1      2255 3.61995E-03-5.35582E-04-9.41510E-15
 -1      2256 3.40470E-03-4.98762E-04-8.36799E-15
 -1      2257 3.76174E-03-5.35122E-04-1.01359E-14
 -1      2258 3.90363E-03-5.34436E-04-1.08827E-14
 -1      2259 3.68883E-03-4.98343E-04-9.75404E-15
 -1      2260 4.04566E-03-5.33558E-04-1.16546E-14
 -1      2261 4.18778E-03-5.32512E-04-1.24504E-14
 -1      2262 3.97326E-03-4.96957E-04-1.12403E-14
 -1      2263 4.33002E-03-5.31317E-04-1.32713E-14
 -1      2264 4.47237E-03-5.29985E-04-1.41166E-14
 -1      2265 4.25800E-03-4.94861E-04-1.28251E-14
 -1      2266 4.62195E-03-5.28443E-04-1.50304E-14
 -1      2267 4.77166E-03-5.26763E-04-1.59688E-14
 -1      2268 4.55017E-03-4.92126E-04-1.45510E-14
 -1      2269 4.91435E-03-5.25025E-04-1.68865E-14
 -1      2270 5.05716E-03-5.23156E-04-1.78289E-14
 -1      2271 4.84267E-03-4.88855E-04-1.63774E-14
 -1      2272 5.20009E-03-5.21136E-04-1.87928E-14
 -1      2273 5.34316E-03-5.18966E-04-1.97802E-14
 -1      2274 5.12837E-03-4.85131E-04-1.82519E-14
 -1      2275 5.48635E-03-5.16621E-04-2.07903E-14
 -1      2276 5.62971E-03-5.14100E-04-2.18228E-14
 -1      2277 5.41442E-03-4.80818E-04-2.02185E-14
 -1      2278 5.77323E-03-5.11371E-04-2.28780E-14
 -1      2279 5.91694E-03-5.08437E-04-2.39548E-14
 -1      2280 5.70088E-03-4.75815E-04-2.22753E-14
 -1      2281 6.06083E-03-5.05263E-04-2.50530E-14
 -1      2282 6.20497E-03-5.01854E-04-2.61720E-14
 -1      2283 5.98779E-03-4.70009E-04-2.44199E-14
 -1      2284 6.34933E-03-4.98178E-04-2.73109E-14
 -1      2285 6.49399E-03-4.94247E-04-2.84706E-14
 -1      2286 6.27522E-03-4.63291E-04-2.66490E-14
 -1      2287 6.63890E-03-4.90041E-04-2.96488E-14
 -1      2288 6.78420E-03-4.85581E-04-3.08477E-14
 -1      2289 6.56321E-03-4.55587E-04-2.89593E-14
 -1      2290 6.92978E-03-4.80871E-04-3.20646E-14
 -1      2291 7.07583E-03-4.75953E-04-3.33008E-14
 -1      2292 6.85178E-03-4.46914E-04-3.13474E-14
 -1      2293 7.22952E-03-4.70625E-04-3.46211E-14
 -1      2294 7.38382E-03-4.65215E-04-3.59627E-14
 -1      2295 7.14811E-03-4.37212E-04-3.38752E-14
 -1      2296 7.53110E-03-4.60146E-04-3.72600E-14
 -1      2297 7.67904E-03-4.55290E-04-3.85752E-14
 -1      2298 7.44480E-03-4.27232E-04-3.64857E-14
 -1      2299 7.82728E-03-4.50982E-04-3.99087E-14
 -1      2300 7.97627E-03-4.47436E-04-4.12627E-14
 -1      2301 7.73426E-03-4.18305E-04-3.91098E-14
 -1      2302 8.12553E-03-4.45282E-04-4.26328E-14
 -1      2303 8.27571E-03-4.44913E-04-4.40184E-14
 -1      2304 8.02316E-03-4.12167E-04-4.18072E-14
 -1      2305 8.42622E-03-4.47387E-04-4.54192E-14
 -1      2306 8.57797E-03-4.53467E-04-4.68351E-14
 -1      2307 8.31093E-03-4.12256E-04-4.45724E-14
 -1      2308 8.73051E-03-4.64728E-04-4.82660E-14
 -1      2309 8.88515E-03-4.82759E-04-4.97099E-14
 -1      2310 8.59755E-03-4.24253E-04-4.73976E-14
 -1      2311 9.04211E-03-5.09511E-04-5.11678E-14
 -1      2312 9.20321E-03-5.48360E-04-5.26406E-14
 -1      2313 8.88512E-03-4.57200E-04-5.02772E-14
 -1      2314 9.37038E-03-6.01095E-04-5.41261E-14
 -1      2315 9.54556E-03-6.74604E-04-5.56238E-14
 -1      2316 9.18122E-03-5.25401E-04-5.32106E-14
 -1      2317 9.72422E-03-7.63461E-04-5.70598E-14
 -1      2318 9.91374E-03-8.82195E-04-5.85093E-14
 -1      2319 9.49562E-03-6.48769E-04-5.61234E-14
 -1      2320 1.01621E-02-1.05122E-03-6.00232E-14
 -1      2321 1.03689E-02-1.22058E-03-6.14211E-14
 -1      2322 1.21201E-02-1.87353E-03-7.36591E-14
 -1      2323 1.32673E-02-8.65725E-04-7.78770E-14
 -1      2324 1.34289E-02-9.11877E-04-7.84401E-14
 -1      2325 1.29852E-02-1.37778E-03-7.98036E-14
 -1      2326 1.31985E-02-1.31411E-03-8.17260E-14
 -1      2327 1.33897E-02-1.28613E-03-8.35667E-14
 -1      2328 1.35678E-02-1.27962E-03-8.54165E-14
 -1      2329 1.33521E-02-1.24101E-03-8.24173E-14
 -1      2330 1.37382E-02-1.29379E-03-8.72724E-14
 -1      2331 1.39018E-02-1.32213E-03-8.91330E-14
 -1      2332 1.36893E-02-1.24257E-03-8.61122E-14
 -1      2333 1.40610E-02-1.36249E-03-9.10020E-14
 -1      2334 1.42172E-02-1.41148E-03-9.28783E-14
 -1      2335 1.39968E-02-1.30644E-03-8.98342E-14
 -1      2336 1.43709E-02-1.46689E-03-9.47607E-14
 -1      2337 1.45230E-02-1.52687E-03-9.66507E-14
 -1      2338 1.42923E-02-1.40687E-03-9.35825E-14
 -1      2339 1.46735E-02-1.58968E-03-9.85455E-14
 -1      2340 1.48230E-02-1.65425E-03-1.00439E-13
 -1      2341 1.45837E-02-1.52714E-03-9.73585E-14
 -1      2342 1.49711E-02-1.71935E-03-1.02334E-13
 -1      2343 1.51185E-02-1.78423E-03-1.04235E-13
 -1      2344 1.48735E-02-1.65602E-03-1.01145E-13
 -1      2345 1.52397E-02-1.83095E-03-1.05870E-13
 -1      2346 1.53845E-02-1.89338E-03-1.07774E-13
 -1      2347 1.53741E-02-1.86178E-03-1.07950E-13
 -1      2348 1.51382E-02-1.76892E-03-1.04676E-13
 -1      2349 2.03093E-03 5.16089E-04-1.94515E-15
 -1      2350 1.89022E-03 5.06085E-04-1.65285E-15
 -1      2351 1.74934E-03 4.93877E-04-1.38575E-15
 -1      2352 1.60820E-03 4.79265E-04-1.14377E-15
 -1      2353 1.80864E-03 4.64184E-04-1.60008E-15
 -1      2354 1.46671E-03 4.61649E-04-9.26722E-16
 -1      2355 1.32469E-03 4.40789E-04-7.34289E-16
 -1      2356 1.52446E-03 4.35212E-04-1.10335E-15
 -1      2357 2.31214E-03 5.30952E-04-2.60714E-15
 -1      2358 2.17156E-03 5.24324E-04-2.26352E-15
 -1      2359 2.09201E-03 4.84048E-04-2.19720E-15
 -1      2360 2.59343E-03 5.40465E-04-3.37134E-15
 -1      2361 2.45277E-03 5.36289E-04-2.97607E-15
 -1      2362 2.37500E-03 4.97204E-04-2.89620E-15
 -1      2363 2.87504E-03 5.46125E-04-4.23664E-15
 -1      2364 2.73419E-03 5.43709E-04-3.79109E-15
 -1      2365 2.65792E-03 5.05480E-04-3.69645E-15
 -1      2366 3.15713E-03 5.49049E-04-5.20455E-15
 -1      2367 3.01603E-03 5.47878E-04-4.70793E-15
 -1      2368 2.94099E-03 5.10254E-04-4.59790E-15
 -1      2369 3.43973E-03 5.50050E-04-6.27288E-15
 -1      2370 3.29837E-03 5.49752E-04-5.72631E-15
 -1      2371 3.22432E-03 5.12548E-04-5.60119E-15
 -1      2372 3.72287E-03 5.49713E-04-7.44168E-15
 -1      2373 3.58124E-03 5.50022E-04-6.84473E-15
 -1      2374 3.50797E-03 5.13109E-04-6.70472E-15
 -1      2375 4.00653E-03 5.48437E-04-8.70818E-15
 -1      2376 3.86465E-03 5.49174E-04-8.06213E-15
 -1      2377 3.79197E-03 5.12464E-04-7.90671E-15
 -1      2378 4.29068E-03 5.46486E-04-1.00728E-14
 -1      2379 4.14855E-03 5.47534E-04-9.37819E-15
 -1      2380 4.07631E-03 5.10972E-04-9.20627E-15
 -1      2381 4.57530E-03 5.44019E-04-1.15355E-14
 -1      2382 4.43293E-03 5.45310E-04-1.07925E-14
 -1      2383 4.36100E-03 5.08863E-04-1.06045E-14
 -1      2384 4.86038E-03 5.41123E-04-1.30937E-14
 -1      2385 4.71778E-03 5.42620E-04-1.23023E-14
 -1      2386 4.64602E-03 5.06273E-04-1.20986E-14
 -1      2387 5.14593E-03 5.37838E-04-1.47483E-14
 -1      2388 5.00310E-03 5.39526E-04-1.39094E-14
 -1      2389 4.93139E-03 5.03269E-04-1.36886E-14
 -1      2390 5.43199E-03 5.34187E-04-1.64998E-14
 -1      2391 5.28889E-03 5.36056E-04-1.56114E-14
 -1      2392 5.21711E-03 4.99882E-04-1.53752E-14
 -1      2393 5.71861E-03 5.30201E-04-1.83499E-14
 -1      2394 5.57522E-03 5.32232E-04-1.74123E-14
 -1      2395 5.50324E-03 4.96126E-04-1.71581E-14
 -1      2396 6.00588E-03 5.25948E-04-2.02986E-14
 -1      2397 5.86215E-03 5.28101E-04-1.93117E-14
 -1      2398 5.78982E-03 4.92032E-04-1.90394E-14
 -1      2399 6.29392E-03 5.21573E-04-2.23441E-14
 -1      2400 6.14979E-03 5.23764E-04-2.13101E-14
 -1      2401 6.07695E-03 4.87672E-04-2.10195E-14
 -1      2402 6.58287E-03 5.17330E-04-2.44830E-14
 -1      2403 6.43827E-03 5.19415E-04-2.34020E-14
 -1      2404 6.36475E-03 4.83200E-04-2.30957E-14
 -1      2405 6.87288E-03 5.13625E-04-2.67099E-14
 -1      2406 6.72773E-03 5.15381E-04-2.55865E-14
 -1      2407 6.65338E-03 4.78887E-04-2.52626E-14
 -1      2408 7.16413E-03 5.11054E-04-2.90219E-14
 -1      2409 7.01834E-03 5.12158E-04-2.78548E-14
 -1      2410 6.94301E-03 4.75161E-04-2.75148E-14
 -1      2411 7.45676E-03 5.10414E-04-3.14197E-14
 -1      2412 7.31027E-03 5.10440E-04-3.02101E-14
 -1      2413 7.23389E-03 4.72645E-04-2.98526E-14
 -1      2414 7.75087E-03 5.12689E-04-3.39025E-14
 -1      2415 7.60364E-03 5.11125E-04-3.26507E-14
 -1      2416 7.52626E-03 4.72171E-04-3.22744E-14
 -1      2417 8.04645E-03 5.18960E-04-3.64715E-14
 -1      2418 7.89851E-03 5.15262E-04-3.51761E-14
 -1      2419 7.82035E-03 4.74761E-04-3.47819E-14
 -1      2420 8.34330E-03 5.30208E-04-3.91211E-14
 -1      2421 8.19478E-03 5.23914E-04-3.77859E-14
 -1      2422 8.11635E-03 4.81532E-04-3.73737E-14
 -1      2423 8.64093E-03 5.46969E-04-4.18469E-14
 -1      2424 8.49212E-03 5.37893E-04-4.04747E-14
 -1      2425 8.41427E-03 4.93495E-04-4.00425E-14
 -1      2426 8.93847E-03 5.68822E-04-4.46522E-14
 -1      2427 8.78985E-03 5.57333E-04-4.32400E-14
 -1      2428 8.71378E-03 5.11182E-04-4.27903E-14
 -1      2429 9.23460E-03 5.93742E-04-4.75306E-14
 -1      2430 9.08687E-03 5.81095E-04-4.60823E-14
 -1      2431 9.01408E-03 5.34089E-04-4.56144E-14
 -1      2432 9.52768E-03 6.17514E-04-5.04852E-14
 -1      2433 9.38167E-03 6.06123E-04-4.89987E-14
 -1      2434 9.31376E-03 5.59956E-04-4.85135E-14
 -1      2435 9.81613E-03 6.33514E-04-5.35097E-14
 -1      2436 9.67256E-03 6.26980E-04-5.19888E-14
 -1      2437 9.61091E-03 5.84090E-04-5.14856E-14
 -1      2438 1.00991E-02 6.33296E-04-5.66108E-14
 -1      2439 9.95825E-03 6.35996E-04-5.50505E-14
 -1      2440 9.90361E-03 5.99134E-04-5.45302E-14
 -1      2441 1.03770E-02 6.08238E-04-5.97877E-14
 -1      2442 1.02385E-02 6.24352E-04-5.81889E-14
 -1      2443 1.01908E-02 5.95815E-04-5.76500E-14
 -1      2444 1.06521E-02 5.51987E-04-6.30457E-14
 -1      2445 1.05146E-02 5.84258E-04-6.14078E-14
 -1      2446 1.04731E-02 5.65009E-04-6.08509E-14
 -1      2447 1.09274E-02 4.62587E-04-6.63775E-14
 -1      2448 1.07894E-02 5.11346E-04-6.47025E-14
 -1      2449 1.07532E-02 5.00640E-04-6.41264E-14
 -1      2450 1.12057E-02 3.43199E-04-6.97819E-14
 -1      2451 1.10659E-02 4.06264E-04-6.80696E-14
 -1      2452 1.10344E-02 4.01970E-04-6.74771E-14
 -1      2453 1.14890E-02 2.00885E-04-7.32564E-14
 -1      2454 1.13467E-02 2.74372E-04-7.15114E-14
 -1      2455 1.13198E-02 2.73858E-04-7.08995E-14
 -1      2456 1.17771E-02 4.42726E-05-7.67971E-14
 -1      2457 1.16325E-02 1.23841E-04-7.50186E-14
 -1      2458 1.16103E-02 1.24844E-04-7.43933E-14
 -1      2459 1.20689E-02-1.18817E-04-8.03922E-14
 -1      2460 1.19227E-02-3.68666E-05-7.85877E-14
 -1      2461 1.19052E-02-3.57759E-05-7.79472E-14
 -1      2462 1.23627E-02-2.82764E-04-8.40370E-14
 -1      2463 1.22157E-02-2.00925E-04-8.22103E-14
 -1      2464 1.22027E-02-2.00354E-04-8.15584E-14
 -1      2465 1.26569E-02-4.44519E-04-8.77171E-14
 -1      2466 1.25099E-02-3.64009E-04-8.58731E-14
 -1      2467 1.25008E-02-3.63977E-04-8.52139E-14
 -1      2468 1.29502E-02-6.03239E-04-9.14218E-14
 -1      2469 1.28038E-02-5.24242E-04-8.95661E-14
 -1      2470 1.27978E-02-5.24437E-04-8.88995E-14
 -1      2471 1.32419E-02-7.59640E-04-9.51506E-14
 -1      2472 1.30963E-02-6.81646E-04-9.32841E-14
 -1      2473 1.30926E-02-6.81606E-04-9.26110E-14
 -1      2474 1.35316E-02-9.15288E-04-9.88915E-14
 -1      2475 1.33870E-02-8.37454E-04-9.70185E-14
 -1      2476 1.33849E-02-8.36701E-04-9.63403E-14
 -1      2477 1.37602E-02-1.03853E-03-1.01496E-13
 -1      2478 1.43186E-02-1.31434E-03-1.03379E-13
 -1      2479 1.42345E-02-1.27484E-03-1.03089E-13
 -1      2480 1.41520E-02-1.23529E-03-1.02804E-13
 -1      2481 1.40699E-02-1.19528E-03-1.02518E-13
 -1      2482 1.40693E-02-1.19196E-03-1.01320E-13
 -1      2483 1.39870E-02-1.15409E-03-1.02227E-13
 -1      2484 1.39048E-02-1.11266E-03-1.01937E-13
 -1      2485 1.39035E-02-1.10925E-03-1.00744E-13
 -1      2486 1.35756E-02-9.47943E-04-7.89219E-14
 -1      2487 1.36792E-02-9.67866E-04-7.94080E-14
 -1      2488 1.35148E-02-9.51176E-04-7.95797E-14
 -1      2489 1.44863E-02-1.39082E-03-1.03960E-13
 -1      2490 1.44027E-02-1.35307E-03-1.03670E-13
 -1      2491 1.42368E-02-1.27267E-03-1.01895E-13
 -1      2492 1.46503E-02-1.46306E-03-1.04535E-13
 -1      2493 1.45690E-02-1.42752E-03-1.04249E-13
 -1      2494 1.44052E-02-1.35078E-03-1.02473E-13
 -1      2495 1.48061E-02-1.53049E-03-1.05107E-13
 -1      2496 1.47295E-02-1.49735E-03-1.04821E-13
 -1      2497 1.45693E-02-1.42430E-03-1.03045E-13
 -1      2498 1.49489E-02-1.59332E-03-1.05670E-13
 -1      2499 1.48794E-02-1.56236E-03-1.05388E-13
 -1      2500 1.47243E-02-1.49247E-03-1.03609E-13
 -1      2501 1.50727E-02-1.65188E-03-1.06211E-13
 -1      2502 1.50130E-02-1.62280E-03-1.05943E-13
 -1      2503 1.48637E-02-1.55497E-03-1.04160E-13
 -1      2504 1.51802E-02-1.71049E-03-1.06756E-13
 -1      2505 1.51288E-02-1.68104E-03-1.06485E-13
 -1      2506 1.49849E-02-1.61389E-03-1.04703E-13
 -1      2507 1.52707E-02-1.77108E-03-1.07286E-13
 -1      2508 1.52273E-02-1.74026E-03-1.07020E-13
 -1      2509 1.50873E-02-1.67242E-03-1.05239E-13
 -1      2510 1.53430E-02-1.83171E-03-1.07749E-13
 -1      2511 1.53044E-02-1.79834E-03-1.07486E-13
 -1      2512 1.51657E-02-1.72891E-03-1.05706E-13
 -1      2513 1.52274E-02-1.78548E-03-1.06110E-13
 -1      2514 1.30480E-02-1.25346E-03-7.74705E-14
 -1      2515 1.28562E-02-1.35885E-03-7.66402E-14
 -1      2516 5.88476E-04-2.37980E-04-3.29814E-16
 -1      2517 7.81300E-04-3.04795E-04-5.19523E-16
 -1      2518 8.40721E-04-2.93602E-04-6.20530E-16
 -1      2519 5.78962E-04-2.10209E-04-3.41619E-16
 -1      2520 1.19079E-02-1.64335E-04-7.18580E-14
 -1      2521 1.21136E-02-3.00534E-04-7.30107E-14
 -1      2522 1.25152E-02-1.60665E-03-7.61562E-14
 -1      2523 1.27470E-02-1.48204E-03-7.79646E-14
 -1      2524 5.46605E-04-2.29042E-05-3.36577E-16
 -1      2525 5.47062E-04-3.89465E-05-3.41903E-16
 -1      2526 6.62527E-04-5.58208E-05-4.66166E-16
 -1      2527 6.61298E-04-1.77082E-05-4.52451E-16
 -1      2528 1.12122E-02 2.41070E-04-6.71706E-14
 -1      2529 1.13654E-02 1.68917E-04-6.83496E-14
 -1      2530 1.15456E-02 7.08710E-05-6.95721E-14
 -1      2531 1.17095E-02-3.44654E-05-7.06296E-14
 -1      2532 1.08682E-02 3.02260E-04-6.44028E-14
 -1      2533 1.10179E-02 2.94969E-04-6.56108E-14
 -1      2534 1.05569E-02 2.33851E-04-6.21313E-14
 -1      2535 1.06953E-02 2.79381E-04-6.30939E-14
 -1      2536 1.01910E-02 6.54423E-05-6.01080E-14
 -1      2537 1.03727E-02 1.56759E-04-6.10611E-14
 -1      2538 9.80599E-03-1.28202E-04-5.85529E-14
 -1      2539 9.97511E-03-4.21649E-05-5.91554E-14
 -1      2540 9.44255E-03-2.87967E-04-5.73474E-14
 -1      2541 9.62391E-03-2.12224E-04-5.79483E-14
 -1      2542 9.69300E-03-1.63212E-04-5.75379E-14
 -1      2543 9.09942E-03-4.07208E-04-5.65927E-14
 -1      2544 9.24188E-03-3.63049E-04-5.68567E-14
 -1      2545 8.87205E-03-4.62565E-04-5.62069E-14
 -1      2546 8.96283E-03-4.44223E-04-5.63033E-14
 -1      2547 8.83523E-03-4.82128E-04-5.63949E-14
 -1      2548 8.83136E-03-4.77858E-04-5.63212E-14
 -1      2549 8.96266E-03-5.04159E-04-5.66320E-14
 -1      2550 8.87907E-03-4.90156E-04-5.64241E-14
 -1      2551 9.34569E-03-6.33312E-04-5.79763E-14
 -1      2552 9.14076E-03-5.57140E-04-5.72392E-14
 -1      2553 9.84908E-03-9.04022E-04-6.00200E-14
 -1      2554 9.61517E-03-7.68333E-04-5.90744E-14
 -1      2555 1.02811E-02-1.19282E-03-6.17126E-14
 -1      2556 1.00653E-02-1.03508E-03-6.07736E-14
 -1      2557 1.15344E-02-2.03086E-03-6.91316E-14
 -1      2558 1.13532E-02-1.98268E-03-6.77983E-14
 -1      2559 1.27123E-02-1.44505E-03-7.61837E-14
 -1      2560 1.25229E-02-1.57029E-03-7.53315E-14
 -1      2561 1.23925E-02-4.65799E-04-7.43612E-14
 -1      2562 1.26126E-02-5.82981E-04-7.52329E-14
 -1      2563 1.34169E-02-1.08628E-03-7.87776E-14
 -1      2564 1.32659E-02-1.14739E-03-7.83277E-14
 -1      2565 1.37320E-02-9.81473E-04-7.95964E-14
 -1      2566 1.37193E-02-9.87892E-04-7.95749E-14
 -1      2567 1.17679E-02-2.01184E-03-7.08335E-14
 -1      2568 1.37595E-02-1.03654E-03-1.00812E-13
 -1      2569 1.11367E-02-1.86464E-03-6.62545E-14
 -1      2570 1.19128E-02-1.95127E-03-7.18422E-14
 -1      2571 1.09706E-02-1.73739E-03-6.51758E-14
 -1      2572 6.70209E-04-1.37988E-04-4.78567E-16
 -1      2573 5.54558E-04-1.26251E-04-3.53220E-16
 -1      2574 5.57747E-04-1.46251E-04-3.51336E-16
 -1      2575 1.27206E-02-6.55825E-04-7.62967E-14
 -1      2576 9.02621E-04 3.77952E-04-2.61049E-16
 -1      2577 8.73486E-04 3.51567E-04-2.76350E-16
 -1      2578 1.01625E-03 4.01794E-04-3.58735E-16
 -1      2579 1.37044E-02-1.00830E-03-8.03260E-14
 -1      2580 1.17983E-02-1.09391E-04-7.15753E-14
 -1      2581 1.31563E-02-8.41403E-04-7.80811E-14
 -1      2582 1.35060E-02-1.06763E-03-7.98736E-14
 -1      2583 1.05125E-02-1.35465E-03-6.25632E-14
 -1      2584 9.89854E-03-8.85656E-04-5.90619E-14
 -1      2585 1.28247E-02-1.39310E-03-7.73581E-14
 -1      2586 1.36998E-02-9.98541E-04-8.09097E-14
 -1      2587 1.37241E-02-9.88397E-04-8.02539E-14
 -1      2588 1.37548E-02-1.00452E-03-8.10991E-14
 -1      2589 1.31720E-02-1.20442E-03-7.86755E-14
 -1      2590 5.71733E-04-1.85331E-04-3.49479E-16
 -1      2591 1.22692E-03 4.32515E-04-5.96447E-16
 -1      2592 1.11414E-03 4.15446E-04-4.66248E-16
 -1      2593 1.08605E-03 3.89719E-04-4.82687E-16
 -1      2594 1.28325E-03 4.09742E-04-7.41161E-16
 -1      2595 1.36751E-02-9.90871E-04-9.93323E-14
 -1      2596 1.23289E-02-1.70593E-03-7.45995E-14
 -1      2597 1.06246E-02-1.47543E-03-6.35221E-14
 -1      2598 1.06870E-02-1.48701E-03-6.32274E-14
 -1      2599 1.29404E-02-1.35771E-03-7.87314E-14
 -1      2600 1.22472E-02-3.97369E-04-7.41624E-14
 -1      2601 9.47494E-03-6.76104E-04-5.79828E-14
 -1      2602 9.03652E-03-5.06355E-04-5.62862E-14
 -1      2603 8.94949E-03-4.71337E-04-5.53387E-14
 -1      2604 9.11384E-03-5.14267E-04-5.59404E-14
 -1      2605 8.83933E-03-4.66509E-04-5.56532E-14
 -1      2606 8.83618E-03-4.54185E-04-5.55092E-14
 -1      2607 9.32806E-03-3.16662E-04-5.64522E-14
 -1      2608 1.00665E-02 2.13120E-05-5.90816E-14
 -1      2609 1.04370E-02 2.02422E-04-6.10943E-14
 -1      2610 1.07598E-02 2.99371E-04-6.34639E-14
 -1      2611 1.14423E-02 1.16311E-04-6.91176E-14
 -1      2612 1.10989E-02 2.76397E-04-6.63292E-14
 -1      2613 1.11705E-02 2.45691E-04-6.70501E-14
 -1      2614 1.09988E-02 2.97896E-04-6.54897E-14
 -1      2615 9.00463E-03-4.17093E-04-5.56796E-14
 -1      2616 1.08275E-02-1.63890E-03-6.45571E-14
 -1      2617 1.22408E-02-1.75260E-03-7.37425E-14
 -1      2618 1.20644E-02-1.86577E-03-7.27281E-14
 -1      2619 7.80217E-04 7.73374E-05-5.31706E-16
 -1      2620 7.78958E-04 5.54733E-05-5.47224E-16
 -1      2621 7.78111E-04 3.35596E-05-5.61427E-16
 -1      2622 7.77688E-04 1.18945E-05-5.74275E-16
 -1      2623 8.96527E-04 4.96791E-05-7.04067E-16
 -1      2624 7.91546E-04 1.73140E-04-4.49063E-16
 -1      2625 7.87541E-04 1.47729E-04-4.73295E-16
 -1      2626 8.03387E-04 2.28350E-04-3.92359E-16
 -1      2627 7.96797E-04 1.99946E-04-4.22419E-16
 -1      2628 9.14849E-04 2.07830E-04-5.61102E-16
 -1      2629 8.45774E-04 3.26137E-04-2.89346E-16
 -1      2630 8.19602E-04 3.01557E-04-2.99999E-16
 -1      2631 9.59948E-04 3.50420E-04-3.88944E-16
 -1      2632 1.32013E-03-3.62767E-04-1.41411E-15
 -1      2633 1.46335E-03-3.81741E-04-1.70609E-15
 -1      2634 1.60639E-03-3.97807E-04-2.02564E-15
 -1      2635 1.74933E-03-4.11198E-04-2.37320E-15
 -1      2636 1.52497E-03-3.55406E-04-1.87095E-15
 -1      2637 1.89923E-03-4.22890E-04-2.76725E-15
 -1      2638 2.04901E-03-4.32373E-04-3.19154E-15
 -1      2639 1.81882E-03-3.81806E-04-2.58192E-15
 -1      2640 2.19155E-03-4.39736E-04-3.62315E-15
 -1      2641 2.33401E-03-4.45629E-04-4.08152E-15
 -1      2642 2.11243E-03-3.99789E-04-3.40675E-15
 -1      2643 2.47642E-03-4.50336E-04-4.56667E-15
 -1      2644 2.61879E-03-4.53974E-04-5.07839E-15
 -1      2645 2.39860E-03-4.11275E-04-4.31950E-15
 -1      2646 2.76115E-03-4.56757E-04-5.61549E-15
 -1      2647 2.90348E-03-4.58776E-04-6.17808E-15
 -1      2648 2.68454E-03-4.18381E-04-5.33716E-15
 -1      2649 3.04584E-03-4.60190E-04-6.76720E-15
 -1      2650 3.18820E-03-4.61066E-04-7.38199E-15
 -1      2651 2.97032E-03-4.22335E-04-6.45758E-15
 -1      2652 3.33059E-03-4.61517E-04-8.02245E-15
 -1      2653 3.47300E-03-4.61594E-04-8.68779E-15
 -1      2654 3.25601E-03-4.24056E-04-7.68114E-15
 -1      2655 3.61546E-03-4.61374E-04-9.37725E-15
 -1      2656 3.75793E-03-4.60893E-04-1.00914E-14
 -1      2657 3.54165E-03-4.24215E-04-9.00484E-15
 -1      2658 3.90046E-03-4.60201E-04-1.08310E-14
 -1      2659 4.04302E-03-4.59321E-04-1.15953E-14
 -1      2660 3.82728E-03-4.23282E-04-1.04268E-14
 -1      2661 4.18562E-03-4.58283E-04-1.23834E-14
 -1      2662 4.32826E-03-4.57100E-04-1.31968E-14
 -1      2663 4.11291E-03-4.21571E-04-1.19468E-14
 -1      2664 4.47808E-03-4.55718E-04-1.40771E-14
 -1      2665 4.62795E-03-4.54199E-04-1.49838E-14
 -1      2666 4.40572E-03-4.19206E-04-1.36076E-14
 -1      2667 4.77073E-03-4.52626E-04-1.58706E-14
 -1      2668 4.91356E-03-4.50930E-04-1.67811E-14
 -1      2669 4.69858E-03-4.16321E-04-1.53688E-14
 -1      2670 5.05643E-03-4.49102E-04-1.77156E-14
 -1      2671 5.19936E-03-4.47141E-04-1.86717E-14
 -1      2672 4.98433E-03-4.13028E-04-1.71827E-14
 -1      2673 5.34233E-03-4.45030E-04-1.96514E-14
 -1      2674 5.48535E-03-4.42764E-04-2.06537E-14
 -1      2675 5.27013E-03-4.09228E-04-1.90885E-14
 -1      2676 5.62842E-03-4.40324E-04-2.16770E-14
 -1      2677 5.77156E-03-4.37704E-04-2.27233E-14
 -1      2678 5.55594E-03-4.04855E-04-2.10843E-14
 -1      2679 5.91472E-03-4.34885E-04-2.37921E-14
 -1      2680 6.05795E-03-4.31862E-04-2.48806E-14
 -1      2681 5.84172E-03-3.99827E-04-2.31677E-14
 -1      2682 6.20120E-03-4.28620E-04-2.59908E-14
 -1      2683 6.34450E-03-4.25157E-04-2.71218E-14
 -1      2684 6.12740E-03-3.94071E-04-2.53376E-14
 -1      2685 6.48779E-03-4.21472E-04-2.82721E-14
 -1      2686 6.63111E-03-4.17566E-04-2.94436E-14
 -1      2687 6.41281E-03-3.87548E-04-2.75903E-14
 -1      2688 6.77435E-03-4.13467E-04-3.06342E-14
 -1      2689 6.91758E-03-4.09182E-04-3.18431E-14
 -1      2690 6.69771E-03-3.80304E-04-2.99246E-14
 -1      2691 7.06776E-03-4.04567E-04-3.31339E-14
 -1      2692 7.21783E-03-3.99857E-04-3.44475E-14
 -1      2693 6.98873E-03-3.72332E-04-3.23983E-14
 -1      2694 7.36037E-03-3.95457E-04-3.57172E-14
 -1      2695 7.50264E-03-3.91175E-04-3.70065E-14
 -1      2696 7.27803E-03-3.64288E-04-3.49536E-14
 -1      2697 7.64427E-03-3.87326E-04-3.83155E-14
 -1      2698 7.78542E-03-3.83961E-04-3.96415E-14
 -1      2699 7.55754E-03-3.57245E-04-3.75251E-14
 -1      2700 7.92554E-03-3.81616E-04-4.09880E-14
 -1      2701 8.06490E-03-3.80380E-04-4.23513E-14
 -1      2702 7.83287E-03-3.52464E-04-4.01723E-14
 -1      2703 8.20280E-03-3.81092E-04-4.37298E-14
 -1      2704 8.33969E-03-3.83924E-04-4.51243E-14
 -1      2705 8.10204E-03-3.52250E-04-4.28906E-14
 -1      2706 8.47475E-03-3.90081E-04-4.65337E-14
 -1      2707 8.60891E-03-3.99949E-04-4.79554E-14
 -1      2708 8.36274E-03-3.59981E-04-4.56725E-14
 -1      2709 8.74129E-03-4.15007E-04-4.93918E-14
 -1      2710 8.87398E-03-4.36381E-04-5.08405E-14
 -1      2711 8.61293E-03-3.80287E-04-4.85108E-14
 -1      2712 9.00624E-03-4.65625E-04-5.23023E-14
 -1      2713 9.14230E-03-5.05700E-04-5.37775E-14
 -1      2714 8.85261E-03-4.19366E-04-5.13987E-14
 -1      2715 9.30763E-03-5.67562E-04-5.52673E-14
 -1      2716 9.45567E-03-6.38953E-04-5.66943E-14
 -1      2717 1.20227E-02-1.91104E-03-7.28111E-14
 -1      2718 1.22600E-02-1.77615E-03-7.45597E-14
 -1      2719 1.35994E-02-1.06204E-03-8.11724E-14
 -1      2720 1.34830E-02-1.09984E-03-8.08360E-14
 -1      2721 1.36759E-02-9.91163E-04-9.85801E-14
 -1      2722 1.35300E-02-9.14211E-04-9.74577E-14
 -1      2723 1.33840E-02-8.37591E-04-9.55915E-14
 -1      2724 1.36625E-02-1.19101E-03-8.49851E-14
 -1      2725 1.38080E-02-1.21561E-03-8.68403E-14
 -1      2726 1.39483E-02-1.25244E-03-8.87005E-14
 -1      2727 1.40875E-02-1.29766E-03-9.05662E-14
 -1      2728 1.39101E-02-1.20099E-03-8.75671E-14
 -1      2729 1.42253E-02-1.34964E-03-9.24391E-14
 -1      2730 1.43639E-02-1.40661E-03-9.43183E-14
 -1      2731 1.41658E-02-1.29584E-03-9.12969E-14
 -1      2732 1.45025E-02-1.46702E-03-9.62043E-14
 -1      2733 1.46422E-02-1.53001E-03-9.80951E-14
 -1      2734 1.44269E-02-1.41011E-03-9.50535E-14
 -1      2735 1.47823E-02-1.59427E-03-9.99897E-14
 -1      2736 1.49232E-02-1.65924E-03-1.01884E-13
 -1      2737 1.46950E-02-1.53495E-03-9.88308E-14
 -1      2738 1.50174E-02-1.69884E-03-1.03175E-13
 -1      2739 1.51346E-02-1.74688E-03-1.04811E-13
 -1      2740 1.51062E-02-1.71779E-03-1.04608E-13
 -1      2741 1.49234E-02-1.63897E-03-1.02018E-13
 -1      2742 1.86959E-03 4.33763E-04-1.82122E-15
 -1      2743 1.72699E-03 4.22081E-04-1.54179E-15
 -1      2744 2.15438E-03 4.51356E-04-2.45572E-15
 -1      2745 2.01204E-03 4.43462E-04-2.12580E-15
 -1      2746 1.93191E-03 4.02722E-04-2.04986E-15
 -1      2747 1.58424E-03 4.07977E-04-1.28741E-15
 -1      2748 1.44127E-03 3.91229E-04-1.05756E-15
 -1      2749 1.64561E-03 3.80010E-04-1.47891E-15
 -1      2750 2.72316E-03 4.70019E-04-4.02781E-15
 -1      2751 2.58101E-03 4.66933E-04-3.59711E-15
 -1      2752 3.00748E-03 4.73988E-04-4.96551E-15
 -1      2753 2.86532E-03 4.72342E-04-4.48366E-15
 -1      2754 2.78911E-03 4.34174E-04-4.36592E-15
 -1      2755 3.29190E-03 4.75728E-04-6.00359E-15
 -1      2756 3.14968E-03 4.75095E-04-5.47224E-15
 -1      2757 3.07452E-03 4.37406E-04-5.33913E-15
 -1      2758 3.57647E-03 4.75915E-04-7.14148E-15
 -1      2759 3.43417E-03 4.75986E-04-6.56022E-15
 -1      2760 3.35989E-03 4.38655E-04-6.41194E-15
 -1      2761 3.86123E-03 4.75020E-04-8.37707E-15
 -1      2762 3.71883E-03 4.75582E-04-7.74738E-15
 -1      2763 3.64526E-03 4.38523E-04-7.58386E-15
 -1      2764 4.14618E-03 4.73363E-04-9.70965E-15
 -1      2765 4.00368E-03 4.74274E-04-9.03088E-15
 -1      2766 3.93068E-03 4.37429E-04-8.85235E-15
 -1      2767 4.43133E-03 4.71141E-04-1.11405E-14
 -1      2768 4.28873E-03 4.72315E-04-1.04129E-14
 -1      2769 4.21615E-03 4.35651E-04-1.02178E-14
 -1      2770 4.71669E-03 4.68467E-04-1.26667E-14
 -1      2771 4.57398E-03 4.69856E-04-1.18915E-14
 -1      2772 4.50168E-03 4.33355E-04-1.16811E-14
 -1      2773 5.00227E-03 4.65392E-04-1.42892E-14
 -1      2774 4.85945E-03 4.66978E-04-1.34658E-14
 -1      2775 4.78731E-03 4.30633E-04-1.32400E-14
 -1      2776 5.28809E-03 4.61935E-04-1.60063E-14
 -1      2777 5.14515E-03 4.63710E-04-1.51356E-14
 -1      2778 5.07303E-03 4.27520E-04-1.48940E-14
 -1      2779 5.57421E-03 4.58104E-04-1.78214E-14
 -1      2780 5.43111E-03 4.60065E-04-1.69016E-14
 -1      2781 5.35888E-03 4.24025E-04-1.66430E-14
 -1      2782 5.86067E-03 4.53928E-04-1.97343E-14
 -1      2783 5.71739E-03 4.56057E-04-1.87656E-14
 -1      2784 5.64490E-03 4.20148E-04-1.84893E-14
 -1      2785 6.14757E-03 4.49481E-04-2.17458E-14
 -1      2786 6.00405E-03 4.51732E-04-2.07282E-14
 -1      2787 5.93114E-03 4.15913E-04-2.04336E-14
 -1      2788 6.43503E-03 4.44921E-04-2.38495E-14
 -1      2789 6.29122E-03 4.47202E-04-2.27862E-14
 -1      2790 6.21771E-03 4.11392E-04-2.24755E-14
 -1      2791 6.72325E-03 4.40526E-04-2.60440E-14
 -1      2792 6.57903E-03 4.42681E-04-2.49352E-14
 -1      2793 6.50476E-03 4.06742E-04-2.46074E-14
 -1      2794 7.01245E-03 4.36739E-04-2.83223E-14
 -1      2795 6.86771E-03 4.38524E-04-2.71733E-14
 -1      2796 6.79249E-03 4.02241E-04-2.68281E-14
 -1      2797 7.30295E-03 4.34198E-04-3.06843E-14
 -1      2798 7.15752E-03 4.35266E-04-2.94926E-14
 -1      2799 7.08121E-03 3.98331E-04-2.91327E-14
 -1      2800 7.59513E-03 4.33759E-04-3.31326E-14
 -1      2801 7.44882E-03 4.33653E-04-3.18983E-14
 -1      2802 7.37134E-03 3.95655E-04-3.15197E-14
 -1      2803 7.88940E-03 4.36477E-04-3.56631E-14
 -1      2804 7.74200E-03 4.34648E-04-3.43877E-14
 -1      2805 7.66342E-03 3.95087E-04-3.39928E-14
 -1      2806 8.18616E-03 4.43523E-04-3.82767E-14
 -1      2807 8.03748E-03 4.39379E-04-3.69600E-14
 -1      2808 7.95807E-03 3.97721E-04-3.65475E-14
 -1      2809 8.48563E-03 4.55969E-04-4.09679E-14
 -1      2810 8.33560E-03 4.49004E-04-3.96131E-14
 -1      2811 8.25593E-03 4.04801E-04-3.91823E-14
 -1      2812 8.78769E-03 4.74412E-04-4.37340E-14
 -1      2813 8.63643E-03 4.64424E-04-4.23410E-14
 -1      2814 8.55747E-03 4.17522E-04-4.18937E-14
 -1      2815 9.09152E-03 4.98349E-04-4.65766E-14
 -1      2816 8.93953E-03 4.85780E-04-4.51463E-14
 -1      2817 8.86270E-03 4.36632E-04-4.46790E-14
 -1      2818 9.39551E-03 5.25341E-04-4.94965E-14
 -1      2819 9.24369E-03 5.11718E-04-4.80277E-14
 -1      2820 9.17075E-03 4.61722E-04-4.75427E-14
 -1      2821 9.69730E-03 5.50189E-04-5.24864E-14
 -1      2822 9.54687E-03 5.38507E-04-5.09825E-14
 -1      2823 9.47964E-03 4.90206E-04-5.04793E-14
 -1      2824 9.99448E-03 5.64623E-04-5.55514E-14
 -1      2825 9.84657E-03 5.59373E-04-5.40093E-14
 -1      2826 9.78640E-03 5.16248E-04-5.34893E-14
 -1      2827 1.02858E-02 5.58271E-04-5.86918E-14
 -1      2828 1.01408E-02 5.64774E-04-5.71122E-14
 -1      2829 1.00880E-02 5.30361E-04-5.65729E-14
 -1      2830 1.05721E-02 5.21238E-04-6.19139E-14
 -1      2831 1.04293E-02 5.44103E-04-6.02932E-14
 -1      2832 1.03831E-02 5.20668E-04-5.97369E-14
 -1      2833 1.08569E-02 4.47867E-04-6.52087E-14
 -1      2834 1.07143E-02 4.89212E-04-6.35523E-14
 -1      2835 1.06733E-02 4.76454E-04-6.29771E-14
 -1      2836 1.11441E-02 3.38979E-04-6.85754E-14
 -1      2837 1.09998E-02 3.97503E-04-6.68824E-14
 -1      2838 1.09629E-02 3.92787E-04-6.62900E-14
 -1      2839 1.14364E-02 2.01580E-04-7.20195E-14
 -1      2840 1.12895E-02 2.73177E-04-7.02890E-14
 -1      2841 1.12565E-02 2.72680E-04-6.96785E-14
 -1      2842 1.17343E-02 4.59104E-05-7.55293E-14
 -1      2843 1.15848E-02 1.25329E-04-7.37656E-14
 -1      2844 1.15564E-02 1.25774E-04-7.31398E-14
 -1      2845 1.20360E-02-1.18190E-04-7.91007E-14
 -1      2846 1.18849E-02-3.56347E-05-7.73097E-14
 -1      2847 1.18620E-02-3.60547E-05-7.66677E-14
 -1      2848 1.23390E-02-2.83508E-04-8.27244E-14
 -1      2849 1.21876E-02-2.01020E-04-8.09064E-14
 -1      2850 1.21702E-02-2.02722E-04-8.02558E-14
 -1      2851 1.26408E-02-4.46076E-04-8.63885E-14
 -1      2852 1.24902E-02-3.65256E-04-8.45524E-14
 -1      2853 1.24781E-02-3.67822E-04-8.38920E-14
 -1      2854 1.29401E-02-6.04666E-04-9.00801E-14
 -1      2855 1.27909E-02-5.25853E-04-8.82315E-14
 -1      2856 1.27831E-02-5.28565E-04-8.75635E-14
 -1      2857 1.32366E-02-7.60355E-04-9.37617E-14
 -1      2858 1.30890E-02-6.83101E-04-9.19003E-14
 -1      2859 1.30845E-02-6.85342E-04-9.12263E-14
 -1      2860 1.33824E-02-8.39234E-04-9.48756E-14
 -1      2861 1.39853E-02-1.14999E-03-9.98360E-14
 -1      2862 1.39024E-02-1.10823E-03-9.95519E-14
 -1      2863 1.43242E-02-1.31292E-03-1.00985E-13
 -1      2864 1.42397E-02-1.27355E-03-1.00699E-13
 -1      2865 1.37584E-02-1.03425E-03-9.88668E-14
 -1      2866 1.34667E-02-9.58813E-04-8.04316E-14
 -1      2867 1.35992E-02-9.86646E-04-8.09186E-14
 -1      2868 1.44889E-02-1.38759E-03-1.01551E-13
 -1      2869 1.44075E-02-1.35098E-03-1.01269E-13
 -1      2870 1.42436E-02-1.27710E-03-9.94959E-14
 -1      2871 1.46433E-02-1.45606E-03-1.02110E-13
 -1      2872 1.45678E-02-1.42258E-03-1.01833E-13
 -1      2873 1.44094E-02-1.35261E-03-1.00059E-13
 -1      2874 1.47794E-02-1.51757E-03-1.02649E-13
 -1      2875 1.47136E-02-1.48739E-03-1.02379E-13
 -1      2876 1.45622E-02-1.42023E-03-1.00606E-13
 -1      2877 1.48976E-02-1.57610E-03-1.03190E-13
 -1      2878 1.48412E-02-1.54707E-03-1.02922E-13
 -1      2879 1.46972E-02-1.48107E-03-1.01144E-13
 -1      2880 1.49943E-02-1.63394E-03-1.03721E-13
 -1      2881 1.49485E-02-1.60475E-03-1.03456E-13
 -1      2882 1.48105E-02-1.53804E-03-1.01679E-13
 -1      2883 1.37530E-02-1.01841E-03-8.13939E-14
 -1      2884 1.36955E-02-1.03067E-03-8.12778E-14
 -1      2885 7.88847E-04-2.52519E-04-5.80170E-16
 -1      2886 9.20031E-04-2.88302E-04-7.48371E-16
 -1      2887 9.95125E-03-9.37841E-04-5.98283E-14
 -1      2888 9.93064E-03-1.25363E-05-5.77954E-14
 -1      2889 1.01144E-02 8.17838E-05-5.87345E-14
 -1      2890 1.33898E-02-1.16947E-03-8.13559E-14
 -1      2891 1.35459E-02-1.16283E-03-8.31983E-14
 -1      2892 1.21281E-02-3.38935E-04-7.42102E-14
 -1      2893 1.23745E-02-4.89490E-04-7.55741E-14
 -1      2894 1.04824E-03-3.15866E-04-9.38025E-16
 -1      2895 1.19151E-03-3.41508E-04-1.17702E-15
 -1      2896 1.25305E-03-3.19940E-04-1.31619E-15
 -1      2897 9.96736E-04-2.74872E-04-8.83598E-16
 -1      2898 7.84400E-04 1.23471E-04-4.94654E-16
 -1      2899 7.82019E-04 1.00031E-04-5.14210E-16
 -1      2900 8.99639E-04 9.94526E-05-6.65632E-16
 -1      2901 9.05363E-04 1.51604E-04-6.18524E-16
 -1      2902 1.26510E-02-6.37609E-04-7.68061E-14
 -1      2903 1.28446E-02-7.30414E-04-7.75863E-14
 -1      2904 2.43884E-03 4.62892E-04-3.19151E-15
 -1      2905 2.29664E-03 4.57786E-04-2.81117E-15
 -1      2906 2.21789E-03 4.18130E-04-2.72132E-15
 -1      2907 2.50359E-03 4.28123E-04-3.49350E-15
 -1      2908 1.41550E-02-1.23323E-03-1.00413E-13
 -1      2909 1.40699E-02-1.19188E-03-1.00122E-13
 -1      2910 1.39020E-02-1.11037E-03-9.83572E-14
 -1      2911 1.40729E-02-1.19566E-03-9.89292E-14
 -1      2912 7.81749E-04-9.79765E-05-6.17182E-16
 -1      2913 7.84059E-04-1.21329E-04-6.21424E-16
 -1      2914 1.30662E-02-8.25431E-04-7.85971E-14
 -1      2915 1.32728E-02-9.00596E-04-7.96126E-14
 -1      2916 1.29956E-02-8.02735E-04-7.91090E-14
 -1      2917 8.92389E-03-4.09058E-04-5.46167E-14
 -1      2918 9.04389E-03-3.82702E-04-5.48988E-14
 -1      2919 1.13696E-02 1.48878E-04-6.87803E-14
 -1      2920 1.15260E-02 5.49732E-05-7.00091E-14
 -1      2921 1.06682E-02 2.98576E-04-6.25686E-14
 -1      2922 1.08164E-02 3.15165E-04-6.38740E-14
 -1      2923 1.03146E-02 1.72180E-04-5.99768E-14
 -1      2924 1.04711E-02 2.42067E-04-6.10371E-14
 -1      2925 9.57970E-03-1.85210E-04-5.64359E-14
 -1      2926 9.73699E-03-1.11843E-04-5.70311E-14
 -1      2927 9.21257E-03-3.35137E-04-5.54413E-14
 -1      2928 9.39049E-03-2.69880E-04-5.59229E-14
 -1      2929 8.79455E-03-4.35645E-04-5.45461E-14
 -1      2930 8.82729E-03-4.28563E-04-5.44306E-14
 -1      2931 8.82692E-03-4.39750E-04-5.46031E-14
 -1      2932 8.79510E-03-4.39196E-04-5.45740E-14
 -1      2933 8.75795E-03-4.13289E-04-5.35024E-14
 -1      2934 9.71039E-03-7.75531E-04-5.83198E-14
 -1      2935 1.09426E-02-1.70287E-03-6.48092E-14
 -1      2936 6.52865E-04-1.88414E-04-4.41311E-16
 -1      2937 1.16931E-02-5.12321E-05-7.12345E-14
 -1      2938 1.18691E-02-1.70734E-04-7.24698E-14
 -1      2939 1.16077E-02-2.49233E-06-7.08907E-14
 -1      2940 8.95501E-04 1.00870E-06-7.35238E-16
 -1      2941 7.77658E-04-9.72353E-06-5.85510E-16
 -1      2942 7.78021E-04-3.13726E-05-5.95593E-16
 -1      2943 8.07529E-04 2.68346E-04-3.38976E-16
 -1      2944 8.85866E-03-4.37182E-04-5.42610E-14
 -1      2945 8.78284E-03-4.11351E-04-5.31910E-14
 -1      2946 8.89991E-03-4.37960E-04-5.39186E-14
 -1      2947 9.11090E-03-4.94236E-04-5.43416E-14
 -1      2948 1.32554E-02-1.19502E-03-8.00591E-14
 -1      2949 1.36511E-02-1.01942E-03-8.26155E-14
 -1      2950 1.36758E-02-1.01036E-03-8.17629E-14
 -1      2951 1.37397E-02-1.02879E-03-8.26096E-14
 -1      2952 1.30587E-02-1.28811E-03-7.91966E-14
 -1      2953 1.36727E-02-9.91428E-04-9.73901E-14
 -1      2954 1.36813E-02-1.12671E-03-8.39214E-14
 -1      2955 7.87109E-04-1.45470E-04-6.23769E-16
 -1      2956 7.90967E-04-1.70626E-04-6.24026E-16
 -1      2957 9.04892E-04-1.49067E-04-7.87917E-16
 -1      2958 1.33947E-02-9.46902E-04-8.09472E-14
 -1      2959 1.36872E-02-1.06219E-03-8.22413E-14
 -1      2960 1.37829E-02-1.02456E-03-8.20507E-14
 -1      2961 1.38030E-02-1.04639E-03-8.30031E-14
 -1      2962 1.37950E-02-1.03626E-03-8.27074E-14
 -1      2963 1.50683E-02-1.68812E-03-1.04268E-13
 -1      2964 1.50364E-02-1.66163E-03-1.04065E-13
 -1      2965 1.49011E-02-1.59293E-03-1.02285E-13
 -1      2966 1.49788E-02-1.64894E-03-1.02969E-13
 -1      2967 1.35901E-03 3.47586E-04-1.00731E-15
 -1      2968 1.29813E-03 3.71288E-04-8.52495E-16
 -1      2969 1.19877E-03 3.63652E-04-7.07496E-16
 -1      2970 9.45073E-03-6.46293E-04-5.72268E-14
 -1      2971 9.09507E-03-3.40344E-04-5.43755E-14
 -1      2972 9.44007E-03-2.14491E-04-5.54221E-14
 -1      2973 1.20143E-02-2.67918E-04-7.38606E-14
 -1      2974 9.79832E-03-3.88742E-05-5.66859E-14
 -1      2975 9.25316E-03-5.60417E-04-5.63628E-14
 -1      2976 9.12883E-03-5.10898E-04-5.54136E-14
 -1      2977 1.01635E-02 1.39523E-04-5.86742E-14
 -1      2978 9.25342E-04 2.80346E-04-4.67305E-16
 -1      2979 1.25188E-02-5.70778E-04-7.68522E-14
 -1      2980 1.05412E-02 2.83426E-04-6.14345E-14
 -1      2981 1.12568E-02 2.03468E-04-6.79260E-14
 -1      2982 1.13409E-02 1.55251E-04-6.88062E-14
 -1      2983 1.11555E-02 2.46229E-04-6.70749E-14
 -1      2984 7.78799E-04-5.31591E-05-6.04090E-16
 -1      2985 7.80015E-04-7.53497E-05-6.11422E-16
 -1      2986 8.99351E-04-9.71062E-05-7.77373E-16
 -1      2987 8.96396E-04-4.75325E-05-7.59633E-16
 -1      2988 1.08932E-02 3.14126E-04-6.45780E-14
 -1      2989 8.83941E-03-3.99420E-04-5.36569E-14
 -1      2990 7.69987E-04-2.02416E-04-5.84331E-16
 -1      2991 1.04028E-03 2.43328E-04-6.84511E-16
 -1      2992 1.03366E-03 2.11590E-04-7.21645E-16
 -1      2993 1.05907E-03 3.64504E-04-4.96619E-16
 -1      2994 1.73527E-03-3.40721E-04-2.39175E-15
 -1      2995 1.88613E-03-3.51323E-04-2.78365E-15
 -1      2996 2.02979E-03-3.59664E-04-3.18445E-15
 -1      2997 2.17343E-03-3.66454E-04-3.61161E-15
 -1      2998 1.94739E-03-3.19701E-04-2.96716E-15
 -1      2999 2.31703E-03-3.71965E-04-4.06501E-15
 -1      3000 2.46057E-03-3.76320E-04-4.54485E-15
 -1      3001 2.23543E-03-3.32629E-04-3.81600E-15
 -1      3002 2.60406E-03-3.79738E-04-5.05067E-15
 -1      3003 2.74750E-03-3.82316E-04-5.58157E-15
 -1      3004 2.52340E-03-3.40966E-04-4.76917E-15
 -1      3005 2.89088E-03-3.84222E-04-6.13871E-15
 -1      3006 3.03420E-03-3.85529E-04-6.72116E-15
 -1      3007 2.81116E-03-3.45930E-04-5.82501E-15
 -1      3008 3.17749E-03-3.86361E-04-7.32879E-15
 -1      3009 3.32072E-03-3.86772E-04-7.96231E-15
 -1      3010 3.09866E-03-3.48468E-04-6.98268E-15
 -1      3011 3.46392E-03-3.86853E-04-8.62040E-15
 -1      3012 3.60707E-03-3.86640E-04-9.30248E-15
 -1      3013 3.38588E-03-3.49293E-04-8.24078E-15
 -1      3014 3.75020E-03-3.86195E-04-1.00092E-14
 -1      3015 3.89328E-03-3.85543E-04-1.07405E-14
 -1      3016 3.67283E-03-3.48922E-04-9.59760E-15
 -1      3017 4.03635E-03-3.84724E-04-1.14966E-14
 -1      3018 4.17939E-03-3.83752E-04-1.22773E-14
 -1      3019 3.95953E-03-3.47709E-04-1.10518E-14
 -1      3020 4.32955E-03-3.82592E-04-1.31232E-14
 -1      3021 4.47969E-03-3.81298E-04-1.39961E-14
 -1      3022 4.25316E-03-3.45833E-04-1.26446E-14
 -1      3023 4.62266E-03-3.79950E-04-1.48514E-14
 -1      3024 4.76560E-03-3.78491E-04-1.57294E-14
 -1      3025 4.54657E-03-3.43454E-04-1.43388E-14
 -1      3026 4.90852E-03-3.76921E-04-1.66315E-14
 -1      3027 5.05141E-03-3.75235E-04-1.75571E-14
 -1      3028 4.83259E-03-3.40709E-04-1.60871E-14
 -1      3029 5.19427E-03-3.73430E-04-1.85062E-14
 -1      3030 5.33710E-03-3.71498E-04-1.94774E-14
 -1      3031 5.11838E-03-3.37549E-04-1.79284E-14
 -1      3032 5.47988E-03-3.69431E-04-2.04699E-14
 -1      3033 5.62261E-03-3.67222E-04-2.14847E-14
 -1      3034 5.40386E-03-3.33943E-04-1.98609E-14
 -1      3035 5.76526E-03-3.64863E-04-2.25225E-14
 -1      3036 5.90784E-03-3.62345E-04-2.35811E-14
 -1      3037 5.68896E-03-3.29852E-04-2.18824E-14
 -1      3038 6.05030E-03-3.59672E-04-2.46616E-14
 -1      3039 6.19263E-03-3.56832E-04-2.57629E-14
 -1      3040 5.97352E-03-3.25243E-04-2.39902E-14
 -1      3041 6.33477E-03-3.53844E-04-2.68846E-14
 -1      3042 6.47671E-03-3.50700E-04-2.80272E-14
 -1      3043 6.25727E-03-3.20127E-04-2.61843E-14
 -1      3044 6.61834E-03-3.47448E-04-2.91897E-14
 -1      3045 6.75965E-03-3.44081E-04-3.03724E-14
 -1      3046 6.53985E-03-3.14594E-04-2.84604E-14
 -1      3047 6.90751E-03-3.40525E-04-3.16363E-14
 -1      3048 7.05480E-03-3.36948E-04-3.29209E-14
 -1      3049 6.82765E-03-3.08731E-04-3.08788E-14
 -1      3050 7.19431E-03-3.33706E-04-3.41633E-14
 -1      3051 7.33303E-03-3.30617E-04-3.54266E-14
 -1      3052 7.11267E-03-3.03160E-04-3.33785E-14
 -1      3053 7.47062E-03-3.27986E-04-3.67075E-14
 -1      3054 7.60701E-03-3.25794E-04-3.80079E-14
 -1      3055 7.38676E-03-2.98811E-04-3.58958E-14
 -1      3056 7.74173E-03-3.24524E-04-3.93275E-14
 -1      3057 7.87472E-03-3.24123E-04-4.06657E-14
 -1      3058 7.65511E-03-2.96787E-04-3.84884E-14
 -1      3059 8.00532E-03-3.25323E-04-4.20205E-14
 -1      3060 8.13349E-03-3.27997E-04-4.33919E-14
 -1      3061 7.91523E-03-2.98905E-04-4.11549E-14
 -1      3062 8.25836E-03-3.33188E-04-4.47803E-14
 -1      3063 8.38001E-03-3.40600E-04-4.61820E-14
 -1      3064 8.16378E-03-3.07629E-04-4.38913E-14
 -1      3065 8.49725E-03-3.51722E-04-4.75967E-14
 -1      3066 8.61064E-03-3.65859E-04-4.90244E-14
 -1      3067 8.39632E-03-3.25893E-04-4.66873E-14
 -1      3068 1.38833E-02-1.15206E-03-8.64198E-14
 -1      3069 1.39967E-02-1.19578E-03-8.82772E-14
 -1      3070 1.41120E-02-1.24457E-03-9.01408E-14
 -1      3071 1.42316E-02-1.29826E-03-9.20094E-14
 -1      3072 1.40617E-02-1.19816E-03-8.89850E-14
 -1      3073 1.43540E-02-1.35505E-03-9.38865E-14
 -1      3074 1.44801E-02-1.41494E-03-9.57684E-14
 -1      3075 1.42834E-02-1.30429E-03-9.27216E-14
 -1      3076 1.46087E-02-1.47642E-03-9.76581E-14
 -1      3077 1.47402E-02-1.53956E-03-9.95505E-14
 -1      3078 1.45240E-02-1.42138E-03-9.64849E-14
 -1      3079 1.99556E-03 3.71013E-04-2.28614E-15
 -1      3080 1.85201E-03 3.62077E-04-1.96974E-15
 -1      3081 1.70846E-03 3.51269E-04-1.67852E-15
 -1      3082 1.56493E-03 3.38404E-04-1.41223E-15
 -1      3083 1.77253E-03 3.21709E-04-1.88604E-15
 -1      3084 3.14211E-03 4.00508E-04-5.71846E-15
 -1      3085 2.99897E-03 3.99489E-04-5.20176E-15
 -1      3086 2.85577E-03 3.97936E-04-4.71079E-15
 -1      3087 2.71254E-03 3.95784E-04-4.24393E-15
 -1      3088 2.92312E-03 3.61380E-04-5.06126E-15
 -1      3089 3.71436E-03 4.00944E-04-8.03064E-15
 -1      3090 3.57135E-03 4.01268E-04-7.41596E-15
 -1      3091 4.00033E-03 3.99704E-04-9.33192E-15
 -1      3092 3.85736E-03 4.00415E-04-8.66963E-15
 -1      3093 3.78376E-03 3.63230E-04-8.48272E-15
 -1      3094 4.28623E-03 3.97852E-04-1.07315E-14
 -1      3095 4.14329E-03 3.98846E-04-1.00197E-14
 -1      3096 4.07020E-03 3.61892E-04-9.81803E-15
 -1      3097 4.57208E-03 3.95527E-04-1.22274E-14
 -1      3098 4.42916E-03 3.96745E-04-1.14674E-14
 -1      3099 4.35644E-03 3.60010E-04-1.12502E-14
 -1      3100 4.85789E-03 3.92797E-04-1.38179E-14
 -1      3101 4.71499E-03 3.94211E-04-1.30100E-14
 -1      3102 4.64251E-03 3.57694E-04-1.27781E-14
 -1      3103 5.14368E-03 3.89685E-04-1.55035E-14
 -1      3104 5.00078E-03 3.91289E-04-1.46493E-14
 -1      3105 4.92843E-03 3.54994E-04-1.44009E-14
 -1      3106 5.42947E-03 3.86185E-04-1.72849E-14
 -1      3107 5.28657E-03 3.87984E-04-1.63820E-14
 -1      3108 5.21421E-03 3.51916E-04-1.61179E-14
 -1      3109 5.71531E-03 3.82293E-04-1.91627E-14
 -1      3110 5.57238E-03 3.84289E-04-1.82118E-14
 -1      3111 5.49987E-03 3.48446E-04-1.79314E-14
 -1      3112 6.00125E-03 3.78022E-04-2.11390E-14
 -1      3113 5.85826E-03 3.80203E-04-2.01386E-14
 -1      3114 5.78545E-03 3.44565E-04-1.98409E-14
 -1      3115 6.28741E-03 3.73438E-04-2.32086E-14
 -1      3116 6.14429E-03 3.75764E-04-2.21625E-14
 -1      3117 6.07101E-03 3.40277E-04-2.18473E-14
 -1      3118 6.57394E-03 3.68686E-04-2.53686E-14
 -1      3119 6.43061E-03 3.71070E-04-2.42772E-14
 -1      3120 6.35665E-03 3.35631E-04-2.39454E-14
 -1      3121 6.86111E-03 3.64032E-04-2.76158E-14
 -1      3122 6.71742E-03 3.66324E-04-2.64817E-14
 -1      3123 6.64258E-03 3.30752E-04-2.61333E-14
 -1      3124 7.14929E-03 3.59905E-04-2.99450E-14
 -1      3125 7.00504E-03 3.61867E-04-2.87704E-14
 -1      3126 6.92910E-03 3.25882E-04-2.84058E-14
 -1      3127 7.43903E-03 3.56942E-04-3.23602E-14
 -1      3128 7.29393E-03 3.58225E-04-3.11417E-14
 -1      3129 7.21668E-03 3.21421E-04-3.07624E-14
 -1      3130 7.73104E-03 3.56023E-04-3.48541E-14
 -1      3131 7.58471E-03 3.56153E-04-3.35965E-14
 -1      3132 7.50600E-03 3.17986E-04-3.32002E-14
 -1      3133 8.02620E-03 3.58289E-04-3.74329E-14
 -1      3134 7.87819E-03 3.56662E-04-3.61340E-14
 -1      3135 7.79797E-03 3.16461E-04-3.57202E-14
 -1      3136 8.32540E-03 3.65090E-04-4.00898E-14
 -1      3137 8.17527E-03 3.61010E-04-3.87506E-14
 -1      3138 8.09374E-03 3.18048E-04-3.83207E-14
 -1      3139 8.62941E-03 3.77816E-04-4.28206E-14
 -1      3140 8.47683E-03 3.70604E-04-4.14470E-14
 -1      3141 8.39453E-03 3.24255E-04-4.09977E-14
 -1      3142 8.93837E-03 3.97484E-04-4.56277E-14
 -1      3143 8.78337E-03 3.86727E-04-4.42151E-14
 -1      3144 8.70139E-03 3.36772E-04-4.37512E-14
 -1      3145 9.25134E-03 4.23913E-04-4.85085E-14
 -1      3146 9.09456E-03 4.09939E-04-4.70578E-14
 -1      3147 9.01464E-03 3.57042E-04-4.65761E-14
 -1      3148 9.56583E-03 4.54427E-04-5.14639E-14
 -1      3149 9.40869E-03 4.38995E-04-4.99775E-14
 -1      3150 9.33313E-03 3.85256E-04-4.94750E-14
 -1      3151 9.87809E-03 4.82443E-04-5.44932E-14
 -1      3152 9.72255E-03 4.69433E-04-5.29695E-14
 -1      3153 9.65375E-03 4.18653E-04-5.24504E-14
 -1      3154 1.01843E-02 4.96799E-04-5.75982E-14
 -1      3155 1.00321E-02 4.92288E-04-5.60354E-14
 -1      3156 9.97170E-03 4.49538E-04-5.54980E-14
 -1      3157 1.04831E-02 4.83699E-04-6.07809E-14
 -1      3158 1.03344E-02 4.94687E-04-5.91785E-14
 -1      3159 1.02824E-02 4.64476E-04-5.86227E-14
 -1      3160 1.07768E-02 4.31064E-04-6.40414E-14
 -1      3161 1.06299E-02 4.62739E-04-6.24022E-14
 -1      3162 1.05846E-02 4.46966E-04-6.18259E-14
 -1      3163 1.10715E-02 3.35469E-04-6.73738E-14
 -1      3164 1.09235E-02 3.88472E-04-6.56986E-14
 -1      3165 1.08823E-02 3.83906E-04-6.51048E-14
 -1      3166 1.13722E-02 2.02786E-04-7.07850E-14
 -1      3167 1.12208E-02 2.72879E-04-6.90702E-14
 -1      3168 1.11832E-02 2.74210E-04-6.84617E-14
 -1      3169 1.16803E-02 4.60802E-05-7.42630E-14
 -1      3170 1.15254E-02 1.26454E-04-7.25144E-14
 -1      3171 1.14922E-02 1.28127E-04-7.18907E-14
 -1      3172 1.19937E-02-1.21298E-04-7.78109E-14
 -1      3173 1.18366E-02-3.70867E-05-7.60282E-14
 -1      3174 1.18093E-02-3.79835E-05-7.53897E-14
 -1      3175 1.23082E-02-2.89450E-04-8.14121E-14
 -1      3176 1.21511E-02-2.05730E-04-7.96056E-14
 -1      3177 1.21304E-02-2.09578E-04-7.89537E-14
 -1      3178 1.26203E-02-4.53233E-04-8.50595E-14
 -1      3179 1.24648E-02-3.72031E-04-8.32299E-14
 -1      3180 1.24504E-02-3.77720E-04-8.25706E-14
 -1      3181 1.29276E-02-6.11311E-04-8.87370E-14
 -1      3182 1.27747E-02-5.32930E-04-8.68957E-14
 -1      3183 1.27657E-02-5.39005E-04-8.62281E-14
 -1      3184 1.43312E-02-1.31937E-03-9.85672E-14
 -1      3185 1.42486E-02-1.28236E-03-9.82895E-14
 -1      3186 1.33425E-02-9.40503E-04-8.19193E-14
 -1      3187 1.35161E-02-9.93079E-04-8.27448E-14
 -1      3188 1.37375E-02-1.08272E-03-8.34351E-14
 -1      3189 1.38207E-02-1.12399E-03-8.52234E-14
 -1      3190 1.39009E-02-1.12028E-03-8.59295E-14
 -1      3191 1.38004E-02-1.06475E-03-8.35399E-14
 -1      3192 1.41637E-02-1.24328E-03-9.80119E-14
 -1      3193 1.40774E-02-1.20236E-03-9.77293E-14
 -1      3194 1.40850E-02-1.21131E-03-9.65252E-14
 -1      3195 1.46163E-02-1.44505E-03-9.96409E-14
 -1      3196 1.45527E-02-1.41609E-03-9.93710E-14
 -1      3197 1.47239E-02-1.49983E-03-1.00169E-13
 -1      3198 1.46735E-02-1.47260E-03-9.99063E-14
 -1      3199 1.45368E-02-1.40897E-03-9.81371E-14
 -1      3200 1.07416E-03 3.29537E-04-5.86716E-16
 -1      3201 1.36694E-02-9.94601E-04-9.62368E-14
 -1      3202 1.35247E-02-9.17008E-04-9.55572E-14
 -1      3203 1.33755E-02-8.42201E-04-9.37295E-14
 -1      3204 1.08137E-02 3.28145E-04-6.38446E-14
 -1      3205 1.09802E-02 3.01808E-04-6.54649E-14
 -1      3206 1.00272E-02 1.27632E-04-5.73618E-14
 -1      3207 1.02043E-02 2.02622E-04-5.85902E-14
 -1      3208 9.63956E-03-6.57351E-05-5.53505E-14
 -1      3209 9.80501E-03 2.03627E-05-5.61007E-14
 -1      3210 1.44834E-02-1.38589E-03-9.91037E-14
 -1      3211 1.44098E-02-1.35381E-03-9.88371E-14
 -1      3212 1.42542E-02-1.28720E-03-9.70701E-14
 -1      3213 1.44073E-02-1.35246E-03-9.76047E-14
 -1      3214 3.42830E-03 4.01333E-04-6.82583E-15
 -1      3215 3.28523E-03 4.01107E-04-6.25999E-15
 -1      3216 3.21025E-03 3.63361E-04-6.10388E-15
 -1      3217 3.49712E-03 3.63824E-04-7.24499E-15
 -1      3218 1.44817E-03-3.14143E-04-1.72734E-15
 -1      3219 1.59168E-03-3.28547E-04-2.04617E-15
 -1      3220 1.65958E-03-3.00695E-04-2.22378E-15
 -1      3221 1.24512E-02-5.30446E-04-7.72953E-14
 -1      3222 1.26938E-02-6.63366E-04-7.85437E-14
 -1      3223 1.28937E-02-7.60609E-04-7.95613E-14
 -1      3224 1.30916E-02-8.45688E-04-8.05814E-14
 -1      3225 1.28159E-02-7.16445E-04-8.00072E-14
 -1      3226 8.98963E-03-3.32345E-04-5.32400E-14
 -1      3227 9.14065E-03-2.91520E-04-5.37705E-14
 -1      3228 1.01660E-03 6.82023E-05-8.61507E-16
 -1      3229 1.01543E-03 4.12243E-05-8.82242E-16
 -1      3230 8.75372E-03-3.76208E-04-5.23936E-14
 -1      3231 8.83675E-03-3.60353E-04-5.25738E-14
 -1      3232 8.99684E-03-4.59717E-04-5.39263E-14
 -1      3233 1.18796E-02-1.81249E-04-7.33239E-14
 -1      3234 1.21159E-02-3.31792E-04-7.50739E-14
 -1      3235 1.04019E-02 2.70192E-04-6.01242E-14
 -1      3236 1.05789E-02 3.17387E-04-6.16458E-14
 -1      3237 8.87899E-04-2.11841E-04-7.47503E-16
 -1      3238 8.72601E-03-3.94849E-04-5.26695E-14
 -1      3239 8.72797E-03-3.92610E-04-5.26410E-14
 -1      3240 1.06772E-03 2.82742E-04-6.60970E-16
 -1      3241 9.29435E-03-2.31654E-04-5.42053E-14
 -1      3242 9.45650E-03-1.58529E-04-5.47073E-14
 -1      3243 1.15662E-02 2.17079E-05-7.08458E-14
 -1      3244 1.17185E-02-7.70861E-05-7.20798E-14
 -1      3245 1.18291E-02-1.44543E-04-7.32756E-14
 -1      3246 8.88128E-03-4.25675E-04-5.28584E-14
 -1      3247 1.18660E-03 2.85032E-04-8.39335E-16
 -1      3248 1.32954E-03 3.04290E-04-1.04277E-15
 -1      3249 9.16210E-03-2.36385E-04-5.30656E-14
 -1      3250 8.73395E-03-3.88742E-04-5.19922E-14
 -1      3251 8.72428E-03-3.91032E-04-5.23299E-14
 -1      3252 8.67344E-03-3.72364E-04-5.14763E-14
 -1      3253 1.02834E-03 1.81194E-04-7.55120E-16
 -1      3254 1.02418E-03 1.51850E-04-7.85735E-16
 -1      3255 1.15310E-03 2.11862E-04-9.04143E-16
 -1      3256 8.72103E-03-3.85415E-04-5.05013E-14
 -1      3257 8.82505E-03-4.08762E-04-5.19540E-14
 -1      3258 8.69708E-03-3.61244E-04-5.15668E-14
 -1      3259 1.36133E-02-1.02347E-03-8.35907E-14
 -1      3260 1.37005E-02-1.04846E-03-8.44382E-14
 -1      3261 1.35818E-02-1.02247E-03-8.45635E-14
 -1      3262 2.13906E-03 3.78385E-04-2.62748E-15
 -1      3263 2.06033E-03 3.38697E-04-2.52967E-15
 -1      3264 2.28251E-03 3.84339E-04-2.99409E-15
 -1      3265 1.48145E-02-1.57443E-03-1.00614E-13
 -1      3266 1.49037E-02-1.61406E-03-1.01904E-13
 -1      3267 1.48673E-02-1.58588E-03-1.01564E-13
 -1      3268 1.47216E-02-1.51689E-03-9.94366E-14
 -1      3269 1.39907E-02-1.16006E-03-9.74488E-14
 -1      3270 1.39041E-02-1.11662E-03-9.71659E-14
 -1      3271 1.39090E-02-1.12641E-03-9.59687E-14
 -1      3272 1.39355E-03 2.80225E-04-1.20268E-15
 -1      3273 1.31966E-03-2.97759E-04-1.46537E-15
 -1      3274 1.38737E-03-2.74217E-04-1.61801E-15
 -1      3275 1.19140E-03-2.79290E-04-1.22526E-15
 -1      3276 2.63574E-03 3.57236E-04-4.11734E-15
 -1      3277 2.56925E-03 3.92879E-04-3.80212E-15
 -1      3278 2.42591E-03 3.89131E-04-3.38552E-15
 -1      3279 1.32277E-02-7.66245E-04-9.21419E-14
 -1      3280 1.30764E-02-6.89655E-04-9.03215E-14
 -1      3281 1.30715E-02-6.95548E-04-8.96477E-14
 -1      3282 1.33713E-02-8.48001E-04-9.28176E-14
 -1      3283 1.32519E-02-9.07384E-04-8.23716E-14
 -1      3284 1.10624E-02 2.76968E-04-6.63262E-14
 -1      3285 1.38290E-02-1.07844E-03-9.68443E-14
 -1      3286 1.37434E-02-1.03364E-03-9.65605E-14
 -1      3287 1.35942E-02-9.62579E-04-9.47275E-14
 -1      3288 1.37447E-02-1.04251E-03-9.53694E-14
 -1      3289 9.47962E-03-9.25799E-05-5.41308E-14
 -1      3290 9.86266E-03 9.70145E-05-5.60134E-14
 -1      3291 1.38023E-02-1.05075E-03-8.35617E-14
 -1      3292 1.38539E-02-1.07167E-03-8.45148E-14
 -1      3293 1.38026E-02-1.06489E-03-8.44134E-14
 -1      3294 1.02087E-03 1.23294E-04-8.13558E-16
 -1      3295 1.01841E-03 9.55179E-05-8.38820E-16
 -1      3296 1.13818E-03 8.86152E-05-1.03345E-15
 -1      3297 1.14380E-03 1.48769E-04-9.74725E-16
 -1      3298 1.01426E-03-2.34419E-04-9.36005E-16
 -1      3299 1.38448E-02-1.07299E-03-8.41970E-14
 -1      3300 1.02369E-03-1.49120E-04-9.71011E-16
 -1      3301 1.02773E-03-1.78358E-04-9.75131E-16
 -1      3302 1.06740E-02 3.40207E-04-6.25054E-14
 -1      3303 1.07584E-02 3.47621E-04-6.33720E-14
 -1      3304 1.05363E-02 3.44807E-04-6.11770E-14
 -1      3305 1.14518E-02 9.04296E-05-6.99742E-14
 -1      3306 1.15618E-02 2.52197E-05-7.11516E-14
 -1      3307 1.13470E-02 1.50374E-04-6.91084E-14
 -1      3308 1.48284E-02-1.55874E-03-1.01222E-13
 -1      3309 1.02578E-02 2.60107E-04-5.87900E-14
 -1      3310 1.23012E-02-4.38714E-04-7.67474E-14
 -1      3311 1.24818E-02-5.32629E-04-7.84329E-14
 -1      3312 1.21689E-02-3.49719E-04-7.61966E-14
 -1      3313 8.86225E-03-3.22762E-04-5.19767E-14
 -1      3314 1.13552E-03 3.01717E-05-1.08176E-15
 -1      3315 1.01483E-03 1.44490E-05-9.00945E-16
 -1      3316 1.01480E-03-1.22290E-05-9.17547E-16
 -1      3317 8.60964E-03-3.57139E-04-4.95709E-14
 -1      3318 1.01813E-03-9.30000E-05-9.55738E-16
 -1      3319 1.02050E-03-1.20714E-04-9.64533E-16
 -1      3320 1.14331E-03-1.45910E-04-1.17198E-15
 -1      3321 1.47110E-02-1.50425E-03-9.94416E-14
 -1      3322 1.47419E-02-1.51215E-03-1.00163E-13
 -1      3323 1.46110E-02-1.44696E-03-9.83933E-14
 -1      3324 1.46405E-02-1.47047E-03-9.83806E-14
 -1      3325 1.31754E-02-8.73445E-04-8.29503E-14
 -1      3326 1.34035E-02-9.62833E-04-8.42987E-14
 -1      3327 1.58123E-03-2.61254E-04-2.05099E-15
 -1      3328 1.72505E-03-2.71628E-04-2.39470E-15
 -1      3329 2.15766E-03-2.93575E-04-3.58318E-15
 -1      3330 2.30202E-03-2.98395E-04-4.03140E-15
 -1      3331 2.44637E-03-3.02259E-04-4.50524E-15
 -1      3332 2.59069E-03-3.05263E-04-5.00476E-15
 -1      3333 2.36949E-03-2.63647E-04-4.24629E-15
 -1      3334 2.73495E-03-3.07569E-04-5.52985E-15
 -1      3335 2.87914E-03-3.09249E-04-6.08057E-15
 -1      3336 2.65875E-03-2.69174E-04-5.23984E-15
 -1      3337 3.02326E-03-3.10431E-04-6.65632E-15
 -1      3338 3.16728E-03-3.11167E-04-7.25713E-15
 -1      3339 2.94778E-03-2.72283E-04-6.33487E-15
 -1      3340 3.31123E-03-3.11552E-04-7.88306E-15
 -1      3341 3.45508E-03-3.11624E-04-8.53355E-15
 -1      3342 3.23646E-03-2.73660E-04-7.53020E-15
 -1      3343 3.59884E-03-3.11453E-04-9.20832E-15
 -1      3344 3.74251E-03-3.11062E-04-9.90736E-15
 -1      3345 3.52472E-03-2.73817E-04-8.82389E-15
 -1      3346 3.88610E-03-3.10499E-04-1.06313E-14
 -1      3347 4.02960E-03-3.09779E-04-1.13795E-14
 -1      3348 3.81253E-03-2.73120E-04-1.02157E-14
 -1      3349 4.18019E-03-3.08887E-04-1.21914E-14
 -1      3350 4.33068E-03-3.07863E-04-1.30300E-14
 -1      3351 4.10709E-03-2.71779E-04-1.17432E-14
 -1      3352 4.47393E-03-3.06786E-04-1.38528E-14
 -1      3353 4.61708E-03-3.05608E-04-1.47001E-14
 -1      3354 4.40119E-03-2.69966E-04-1.33718E-14
 -1      3355 4.76016E-03-3.04339E-04-1.55703E-14
 -1      3356 4.90314E-03-3.02976E-04-1.64634E-14
 -1      3357 4.68766E-03-2.67831E-04-1.50579E-14
 -1      3358 5.04602E-03-3.01522E-04-1.73799E-14
 -1      3359 5.18881E-03-2.99970E-04-1.83197E-14
 -1      3360 4.97367E-03-2.65367E-04-1.68367E-14
 -1      3361 5.33147E-03-2.98323E-04-1.92820E-14
 -1      3362 5.47401E-03-2.96571E-04-2.02662E-14
 -1      3363 5.25915E-03-2.62581E-04-1.87061E-14
 -1      3364 5.61639E-03-2.94719E-04-2.12720E-14
 -1      3365 5.75860E-03-2.92759E-04-2.23008E-14
 -1      3366 5.54398E-03-2.59469E-04-2.06680E-14
 -1      3367 5.90060E-03-2.90703E-04-2.33515E-14
 -1      3368 6.04237E-03-2.88542E-04-2.44234E-14
 -1      3369 5.82798E-03-2.56039E-04-2.27165E-14
 -1      3370 6.18384E-03-2.86305E-04-2.55162E-14
 -1      3371 6.32498E-03-2.83987E-04-2.66298E-14
 -1      3372 6.11089E-03-2.52346E-04-2.48521E-14
 -1      3373 6.46570E-03-2.81642E-04-2.77656E-14
 -1      3374 6.60595E-03-2.79268E-04-2.89205E-14
 -1      3375 6.39230E-03-2.48523E-04-2.70736E-14
 -1      3376 6.75254E-03-2.76851E-04-3.01549E-14
 -1      3377 6.89839E-03-2.74515E-04-3.14128E-14
 -1      3378 6.67856E-03-2.44749E-04-2.94370E-14
 -1      3379 7.03638E-03-2.72543E-04-3.26291E-14
 -1      3380 7.17337E-03-2.70814E-04-3.38648E-14
 -1      3381 6.96172E-03-2.41627E-04-3.18834E-14
 -1      3382 7.30909E-03-2.69605E-04-3.51210E-14
 -1      3383 7.44338E-03-2.68900E-04-3.63951E-14
 -1      3384 7.23376E-03-2.39995E-04-3.43494E-14
 -1      3385 7.57587E-03-2.69121E-04-3.76878E-14
 -1      3386 7.70634E-03-2.70215E-04-3.90001E-14
 -1      3387 7.49997E-03-2.40923E-04-3.68919E-14
 -1      3388 7.83429E-03-2.72810E-04-4.03297E-14
 -1      3389 7.95938E-03-2.76746E-04-4.16768E-14
 -1      3390 7.75808E-03-2.46047E-04-3.95081E-14
 -1      3391 8.08098E-03-2.82928E-04-4.30414E-14
 -1      3392 8.19863E-03-2.91010E-04-4.44220E-14
 -1      3393 8.00498E-03-2.57492E-04-4.21957E-14
 -1      3394 8.31140E-03-3.02243E-04-4.58153E-14
 -1      3395 8.41870E-03-3.15722E-04-4.72224E-14
 -1      3396 8.23653E-03-2.77847E-04-4.49480E-14
 -1      3397 1.40079E-02-1.18132E-03-9.50401E-14
 -1      3398 1.39180E-02-1.13910E-03-9.47650E-14
 -1      3399 8.63493E-03-3.48436E-04-5.07032E-14
 -1      3400 8.65265E-03-3.31754E-04-5.04559E-14
 -1      3401 9.30811E-03-1.09641E-04-5.27175E-14
 -1      3402 9.46593E-03-2.97112E-05-5.33461E-14
 -1      3403 1.86911E-03-2.80362E-04-2.76467E-15
 -1      3404 2.01335E-03-2.87607E-04-3.16077E-15
 -1      3405 1.79151E-03-2.41649E-04-2.56689E-15
 -1      3406 1.42108E-02-1.25799E-03-9.15613E-14
 -1      3407 1.43219E-02-1.31305E-03-9.34342E-14
 -1      3408 1.44174E-02-1.36060E-03-9.49595E-14
 -1      3409 1.45379E-02-1.41966E-03-9.68453E-14
 -1      3410 1.45255E-02-1.40855E-03-9.68510E-14
 -1      3411 1.43305E-02-1.31282E-03-9.37936E-14
 -1      3412 4.14027E-03 3.24011E-04-1.03094E-14
 -1      3413 3.99691E-03 3.24775E-04-9.61292E-15
 -1      3414 3.85347E-03 3.25396E-04-8.94125E-15
 -1      3415 3.70996E-03 3.25865E-04-8.29382E-15
 -1      3416 3.92348E-03 2.87493E-04-9.40518E-15
 -1      3417 4.71300E-03 3.19881E-04-1.33342E-14
 -1      3418 4.56992E-03 3.21061E-04-1.25426E-14
 -1      3419 4.99895E-03 3.17251E-04-1.49893E-14
 -1      3420 4.85601E-03 3.18613E-04-1.41501E-14
 -1      3421 4.78353E-03 2.82125E-04-1.38966E-14
 -1      3422 5.28465E-03 3.14246E-04-1.67386E-14
 -1      3423 5.14183E-03 3.15798E-04-1.58527E-14
 -1      3424 5.06945E-03 2.79602E-04-1.55835E-14
 -1      3425 5.57010E-03 3.10839E-04-1.85827E-14
 -1      3426 5.42740E-03 3.12597E-04-1.76483E-14
 -1      3427 5.35499E-03 2.76706E-04-1.73639E-14
 -1      3428 5.85534E-03 3.06999E-04-2.05240E-14
 -1      3429 5.71274E-03 3.08976E-04-1.95412E-14
 -1      3430 5.64015E-03 2.73395E-04-1.92392E-14
 -1      3431 6.14042E-03 3.02711E-04-2.25595E-14
 -1      3432 5.99789E-03 3.04912E-04-2.15300E-14
 -1      3433 5.92497E-03 2.69620E-04-2.12104E-14
 -1      3434 6.42547E-03 2.98000E-04-2.46854E-14
 -1      3435 6.28294E-03 3.00406E-04-2.36116E-14
 -1      3436 6.20950E-03 2.65345E-04-2.32760E-14
 -1      3437 6.71070E-03 2.92962E-04-2.69010E-14
 -1      3438 6.56804E-03 2.95513E-04-2.57820E-14
 -1      3439 6.49385E-03 2.60560E-04-2.54299E-14
 -1      3440 6.99647E-03 2.87796E-04-2.91999E-14
 -1      3441 6.85348E-03 2.90375E-04-2.80399E-14
 -1      3442 6.77827E-03 2.55316E-04-2.76726E-14
 -1      3443 7.28334E-03 2.82861E-04-3.15819E-14
 -1      3444 7.13972E-03 2.85264E-04-3.03809E-14
 -1      3445 7.06317E-03 2.49758E-04-2.99977E-14
 -1      3446 7.57213E-03 2.78736E-04-3.40440E-14
 -1      3447 7.42743E-03 2.80639E-04-3.28029E-14
 -1      3448 7.34921E-03 2.44181E-04-3.24035E-14
 -1      3449 7.86399E-03 2.76306E-04-3.65881E-14
 -1      3450 7.71760E-03 2.77220E-04-3.53058E-14
 -1      3451 7.63735E-03 2.39115E-04-3.48921E-14
 -1      3452 8.16035E-03 2.76843E-04-3.92119E-14
 -1      3453 8.01153E-03 2.76075E-04-3.78916E-14
 -1      3454 7.92899E-03 2.35439E-04-3.74599E-14
 -1      3455 8.46280E-03 2.82068E-04-4.19085E-14
 -1      3456 8.31075E-03 2.78700E-04-4.05505E-14
 -1      3457 8.22587E-03 2.34522E-04-4.01043E-14
 -1      3458 8.77275E-03 2.94077E-04-4.46816E-14
 -1      3459 8.61683E-03 2.87033E-04-4.32858E-14
 -1      3460 8.53002E-03 2.38376E-04-4.28212E-14
 -1      3461 9.09076E-03 3.14926E-04-4.75245E-14
 -1      3462 8.93087E-03 3.03251E-04-4.60945E-14
 -1      3463 8.84331E-03 2.49665E-04-4.56125E-14
 -1      3464 9.41554E-03 3.45395E-04-5.04433E-14
 -1      3465 9.25262E-03 3.29020E-04-4.89741E-14
 -1      3466 9.16659E-03 2.71337E-04-4.84758E-14
 -1      3467 9.74314E-03 3.82669E-04-5.34359E-14
 -1      3468 9.57947E-03 3.63645E-04-5.19306E-14
 -1      3469 9.49832E-03 3.04960E-04-5.14114E-14
 -1      3470 1.00675E-02 4.17721E-04-5.65046E-14
 -1      3471 9.90626E-03 4.01561E-04-5.49609E-14
 -1      3472 9.83351E-03 3.47635E-04-5.44230E-14
 -1      3473 1.03828E-02 4.33824E-04-5.96494E-14
 -1      3474 1.02263E-02 4.29695E-04-5.80679E-14
 -1      3475 1.01644E-02 3.88333E-04-5.75107E-14
 -1      3476 1.06837E-02 3.95619E-04-6.27485E-14
 -1      3477 1.05286E-02 4.08934E-04-6.11306E-14
 -1      3478 1.12989E-02 2.08692E-04-6.95483E-14
 -1      3479 1.11434E-02 2.77222E-04-6.78496E-14
 -1      3480 1.16172E-02 4.80658E-05-7.29990E-14
 -1      3481 1.14566E-02 1.31120E-04-7.12656E-14
 -1      3482 1.14199E-02 1.36586E-04-7.06373E-14
 -1      3483 1.19440E-02-1.26745E-04-7.65193E-14
 -1      3484 1.17800E-02-3.88339E-05-7.47505E-14
 -1      3485 1.17495E-02-3.84183E-05-7.41112E-14
 -1      3486 1.22725E-02-3.00935E-04-8.00990E-14
 -1      3487 1.21085E-02-2.14615E-04-7.83020E-14
 -1      3488 1.20859E-02-2.19950E-04-7.76504E-14
 -1      3489 1.25971E-02-4.67345E-04-8.37299E-14
 -1      3490 1.24357E-02-3.85273E-04-8.19098E-14
 -1      3491 1.24207E-02-3.94351E-04-8.12475E-14
 -1      3492 1.29143E-02-6.24854E-04-8.73969E-14
 -1      3493 1.27568E-02-5.47093E-04-8.55594E-14
 -1      3494 1.27481E-02-5.57174E-04-8.48912E-14
 -1      3495 1.44590E-02-1.37313E-03-9.66347E-14
 -1      3496 1.44003E-02-1.34727E-03-9.63712E-14
 -1      3497 9.02571E-03-2.33918E-04-5.18087E-14
 -1      3498 9.15709E-03-1.81824E-04-5.22315E-14
 -1      3499 8.75842E-03-3.93156E-04-5.19479E-14
 -1      3500 1.28251E-02-7.10850E-04-8.08937E-14
 -1      3501 1.30026E-02-7.97041E-04-8.19213E-14
 -1      3502 1.31775E-02-8.65584E-04-8.38429E-14
 -1      3503 1.10035E-02 2.99154E-04-6.58511E-14
 -1      3504 1.11696E-02 2.36679E-04-6.74714E-14
 -1      3505 1.12760E-02 1.87758E-04-6.86253E-14
 -1      3506 9.67762E-03 7.75121E-05-5.43949E-14
 -1      3507 9.87585E-03 1.69394E-04-5.56346E-14
 -1      3508 1.01123E-02 2.60746E-04-5.73877E-14
 -1      3509 1.02922E-02 3.13772E-04-5.89084E-14
 -1      3510 1.01532E-03-3.89373E-05-9.32183E-16
 -1      3511 1.01641E-03-6.57793E-05-9.44923E-16
 -1      3512 1.13793E-03-8.59864E-05-1.15112E-15
 -1      3513 1.20232E-03-2.16371E-04-1.27188E-15
 -1      3514 1.08270E-03-2.17282E-04-1.05810E-15
 -1      3515 4.42678E-03 3.22144E-04-1.17746E-14
 -1      3516 4.28356E-03 3.23133E-04-1.10300E-14
 -1      3517 4.21055E-03 2.86106E-04-1.08063E-14
 -1      3518 4.49723E-03 2.84297E-04-1.23041E-14
 -1      3519 1.62112E-03 2.72273E-04-1.66382E-15
 -1      3520 1.38616E-03 2.44118E-04-1.25377E-15
 -1      3521 1.38016E-03 2.08834E-04-1.30092E-15
 -1      3522 2.99114E-03 3.24505E-04-5.41788E-15
 -1      3523 2.84713E-03 3.23127E-04-4.91623E-15
 -1      3524 1.38840E-02-1.08725E-03-8.50520E-14
 -1      3525 1.39012E-02-1.10419E-03-8.55900E-14
 -1      3526 1.39116E-02-1.10343E-03-8.59062E-14
 -1      3527 1.76499E-03 2.82358E-04-1.95449E-15
 -1      3528 8.72938E-03-3.03176E-04-5.05023E-14
 -1      3529 8.86579E-03-2.78688E-04-5.11529E-14
 -1      3530 8.85936E-03-2.30444E-04-5.03321E-14
 -1      3531 1.17520E-02-8.70594E-05-7.30214E-14
 -1      3532 1.19005E-02-1.80575E-04-7.42739E-14
 -1      3533 8.68617E-03-3.73948E-04-5.10955E-14
 -1      3534 2.77108E-03 2.84788E-04-4.76835E-15
 -1      3535 2.70304E-03 3.21185E-04-4.44017E-15
 -1      3536 2.55888E-03 3.18613E-04-3.98745E-15
 -1      3537 1.26381E-03-1.39717E-04-1.39076E-15
 -1      3538 1.26762E-03-1.72237E-04-1.40026E-15
 -1      3539 1.37476E-02-1.06502E-03-9.30120E-14
 -1      3540 1.38277E-02-1.09474E-03-9.44889E-14
 -1      3541 1.37377E-02-1.04871E-03-9.42102E-14
 -1      3542 1.40954E-02-1.22051E-03-9.53102E-14
 -1      3543 1.39324E-02-1.15273E-03-9.35536E-14
 -1      3544 1.41796E-02-1.25670E-03-9.55761E-14
 -1      3545 8.55136E-03-2.93768E-04-4.87938E-14
 -1      3546 8.63468E-03-3.00315E-04-4.96447E-14
 -1      3547 8.61800E-03-2.65159E-04-4.88350E-14
 -1      3548 9.50021E-03 5.08289E-05-5.29740E-14
 -1      3549 1.35126E-02-1.00255E-03-8.51489E-14
 -1      3550 1.36151E-02-1.03724E-03-8.59984E-14
 -1      3551 1.34500E-02-9.77149E-04-8.57293E-14
 -1      3552 2.34811E-03 3.50054E-04-3.27349E-15
 -1      3553 2.08027E-03-2.54828E-04-3.35475E-15
 -1      3554 1.34450E-02-8.89640E-04-9.31360E-14
 -1      3555 1.32949E-02-8.15233E-04-9.15525E-14
 -1      3556 1.35199E-02-9.31133E-04-9.34575E-14
 -1      3557 3.63600E-03 2.88329E-04-8.10058E-15
 -1      3558 3.56636E-03 3.26137E-04-7.66962E-15
 -1      3559 3.42268E-03 3.26194E-04-7.07029E-15
 -1      3560 1.08500E-02 3.73615E-04-6.46068E-14
 -1      3561 1.08001E-02 3.57872E-04-6.38793E-14
 -1      3562 1.09360E-02 3.23420E-04-6.52412E-14
 -1      3563 1.10024E-02 3.28418E-04-6.62671E-14
 -1      3564 1.11147E-02 2.75057E-04-6.73338E-14
 -1      3565 1.42631E-02-1.28782E-03-9.46127E-14
 -1      3566 1.43337E-02-1.32002E-03-9.61102E-14
 -1      3567 1.42601E-02-1.28992E-03-9.58449E-14
 -1      3568 1.30669E-02-7.03381E-04-8.89748E-14
 -1      3569 3.27892E-03 3.25971E-04-6.49548E-15
 -1      3570 3.13507E-03 3.25437E-04-5.94444E-15
 -1      3571 3.05978E-03 2.87373E-04-5.78133E-15
 -1      3572 3.34809E-03 2.88398E-04-6.89219E-15
 -1      3573 9.92783E-03 2.40320E-04-5.57427E-14
 -1      3574 1.10376E-02 2.95562E-04-6.63732E-14
 -1      3575 1.13545E-03-2.76978E-05-1.12086E-15
 -1      3576 1.20776E-02-2.81087E-04-7.59374E-14
 -1      3577 2.12617E-03 3.05745E-04-2.78049E-15
 -1      3578 1.98196E-03 2.99289E-04-2.42815E-15
 -1      3579 1.39553E-02-1.13438E-03-8.67863E-14
 -1      3580 9.15584E-03-1.18154E-04-5.14594E-14
 -1      3581 1.37914E-02-1.07684E-03-8.53921E-14
 -1      3582 1.38714E-02-1.10228E-03-8.63477E-14
 -1      3583 1.37777E-02-1.08463E-03-8.63693E-14
 -1      3584 1.03864E-02 3.55804E-04-5.97111E-14
 -1      3585 1.04733E-02 3.83319E-04-6.05534E-14
 -1      3586 1.45089E-02-1.39756E-03-9.68585E-14
 -1      3587 8.61139E-03-3.47122E-04-5.03693E-14
 -1      3588 1.83131E-03 2.51994E-04-2.16805E-15
 -1      3589 1.25482E-02-5.48530E-04-7.97716E-14
 -1      3590 1.26820E-02-6.30883E-04-8.03314E-14
 -1      3591 1.28740E-02-7.16448E-04-8.22440E-14
 -1      3592 1.26117E-03 1.10690E-04-1.21952E-15
 -1      3593 1.25897E-03 7.91242E-05-1.25003E-15
 -1      3594 1.29835E-03-2.01212E-04-1.45799E-15
 -1      3595 1.35453E-03-2.42765E-04-1.56168E-15
 -1      3596 1.48288E-03-2.56247E-04-1.83035E-15
 -1      3597 1.41925E-03-1.94424E-04-1.70374E-15
 -1      3598 1.25751E-03 4.78332E-05-1.27791E-15
 -1      3599 1.25678E-03 1.67607E-05-1.30314E-15
 -1      3600 1.38070E-03 6.71936E-05-1.48822E-15
 -1      3601 1.54896E-03-2.29453E-04-1.98349E-15
 -1      3602 1.16404E-02-1.47678E-05-7.21344E-14
 -1      3603 1.40089E-02-1.15749E-03-8.78364E-14
 -1      3604 1.41067E-02-1.20687E-03-8.96973E-14
 -1      3605 8.52282E-03-3.34907E-04-4.86750E-14
 -1      3606 8.61817E-03-3.55249E-04-5.01451E-14
 -1      3607 1.39905E-02-1.14325E-03-8.74947E-14
 -1      3608 1.43827E-02-1.33690E-03-9.50967E-14
 -1      3609 8.44876E-03-3.11499E-04-4.77873E-14
 -1      3610 1.41349E-02-1.21623E-03-9.04050E-14
 -1      3611 1.60921E-03 1.97156E-04-1.77491E-15
 -1      3612 1.37523E-03 1.74252E-04-1.34433E-15
 -1      3613 1.37134E-03 1.40295E-04-1.38434E-15
 -1      3614 1.26087E-03-1.07794E-04-1.37851E-15
 -1      3615 1.38506E-03-1.30913E-04-1.62644E-15
 -1      3616 1.25876E-03-7.63405E-05-1.36329E-15
 -1      3617 1.40542E-02-1.17881E-03-8.92633E-14
 -1      3618 1.41530E-02-1.22746E-03-9.11234E-14
 -1      3619 2.58273E-03-2.30838E-04-4.95487E-15
 -1      3620 2.72758E-03-2.32699E-04-5.47438E-15
 -1      3621 2.87237E-03-2.34083E-04-6.01899E-15
 -1      3622 3.01708E-03-2.35036E-04-6.58826E-15
 -1      3623 2.79710E-03-1.95895E-04-5.70773E-15
 -1      3624 3.16168E-03-2.35651E-04-7.18272E-15
 -1      3625 3.30617E-03-2.35959E-04-7.80177E-15
 -1      3626 3.08696E-03-1.97568E-04-6.84043E-15
 -1      3627 3.45054E-03-2.36030E-04-8.44476E-15
 -1      3628 3.59478E-03-2.35886E-04-9.11243E-15
 -1      3629 3.37636E-03-1.98119E-04-8.07103E-15
 -1      3630 3.73889E-03-2.35577E-04-9.80470E-15
 -1      3631 3.88287E-03-2.35116E-04-1.05213E-14
 -1      3632 3.66523E-03-1.97884E-04-9.39929E-15
 -1      3633 4.03391E-03-2.34506E-04-1.12998E-14
 -1      3634 4.18481E-03-2.33773E-04-1.21051E-14
 -1      3635 3.96071E-03-1.97071E-04-1.08611E-14
 -1      3636 4.32839E-03-2.32987E-04-1.28966E-14
 -1      3637 4.47183E-03-2.32114E-04-1.37118E-14
 -1      3638 4.25556E-03-1.95844E-04-1.24253E-14
 -1      3639 4.61514E-03-2.31171E-04-1.45502E-14
 -1      3640 4.75831E-03-2.30152E-04-1.54121E-14
 -1      3641 4.54261E-03-1.94347E-04-1.40476E-14
 -1      3642 4.90133E-03-2.29070E-04-1.62977E-14
 -1      3643 5.04420E-03-2.27916E-04-1.72052E-14
 -1      3644 4.82902E-03-1.92607E-04-1.57635E-14
 -1      3645 5.18690E-03-2.26703E-04-1.81375E-14
 -1      3646 5.32942E-03-2.25420E-04-1.90920E-14
 -1      3647 5.11473E-03-1.90656E-04-1.75719E-14
 -1      3648 5.47173E-03-2.24082E-04-2.00674E-14
 -1      3649 5.61382E-03-2.22679E-04-2.10652E-14
 -1      3650 5.39965E-03-1.88517E-04-1.94720E-14
 -1      3651 5.75566E-03-2.21234E-04-2.20858E-14
 -1      3652 5.89720E-03-2.19738E-04-2.31294E-14
 -1      3653 5.68359E-03-1.86230E-04-2.14608E-14
 -1      3654 6.03840E-03-2.18229E-04-2.41936E-14
 -1      3655 6.17922E-03-2.16701E-04-2.52785E-14
 -1      3656 5.96631E-03-1.83878E-04-2.35380E-14
 -1      3657 6.31958E-03-2.15215E-04-2.63868E-14
 -1      3658 6.45943E-03-2.13773E-04-2.75155E-14
 -1      3659 6.24745E-03-1.81621E-04-2.57031E-14
 -1      3660 6.60559E-03-2.12410E-04-2.87213E-14
 -1      3661 6.75096E-03-2.11214E-04-2.99503E-14
 -1      3662 6.53345E-03-1.79698E-04-2.80098E-14
 -1      3663 6.88853E-03-2.10394E-04-3.11405E-14
 -1      3664 7.02510E-03-2.09893E-04-3.23510E-14
 -1      3665 6.81651E-03-1.78666E-04-3.04026E-14
 -1      3666 7.16050E-03-2.09956E-04-3.35815E-14
 -1      3667 7.29454E-03-2.10589E-04-3.48307E-14
 -1      3668 7.08885E-03-1.79257E-04-3.28168E-14
 -1      3669 7.42698E-03-2.12149E-04-3.60988E-14
 -1      3670 7.55756E-03-2.14624E-04-3.73856E-14
 -1      3671 7.35616E-03-1.82487E-04-3.53086E-14
 -1      3672 7.68598E-03-2.18528E-04-3.86908E-14
 -1      3673 7.81185E-03-2.23790E-04-4.00137E-14
 -1      3674 7.61678E-03-1.89821E-04-3.78760E-14
 -1      3675 7.93483E-03-2.31141E-04-4.13550E-14
 -1      3676 8.05427E-03-2.40317E-04-4.27121E-14
 -1      3677 7.86856E-03-2.03178E-04-4.05171E-14
 -1      3678 8.16988E-03-2.52299E-04-4.40846E-14
 -1      3679 8.28051E-03-2.66698E-04-4.54703E-14
 -1      3680 8.10855E-03-2.24807E-04-4.32251E-14
 -1      3681 3.99377E-03 2.49537E-04-9.87443E-15
 -1      3682 3.84996E-03 2.50045E-04-9.19336E-15
 -1      3683 2.41468E-03 3.15257E-04-3.55982E-15
 -1      3684 2.27043E-03 3.11031E-04-3.15782E-15
 -1      3685 2.19298E-03 2.72170E-04-3.03840E-15
 -1      3686 2.48210E-03 2.80006E-04-3.85372E-15
 -1      3687 8.71888E-03-2.12573E-04-4.88634E-14
 -1      3688 8.85937E-03-1.71975E-04-4.95014E-14
 -1      3689 5.13992E-03 2.42074E-04-1.61822E-14
 -1      3690 4.99708E-03 2.43307E-04-1.53110E-14
 -1      3691 4.85411E-03 2.44449E-04-1.44641E-14
 -1      3692 4.71103E-03 2.45512E-04-1.36403E-14
 -1      3693 4.92474E-03 2.06890E-04-1.50365E-14
 -1      3694 5.71006E-03 2.36145E-04-1.99009E-14
 -1      3695 5.56771E-03 2.37795E-04-1.89351E-14
 -1      3696 5.99438E-03 2.32463E-04-2.19024E-14
 -1      3697 5.85228E-03 2.34373E-04-2.08893E-14
 -1      3698 5.77982E-03 1.99117E-04-2.05662E-14
 -1      3699 6.27826E-03 2.28213E-04-2.39963E-14
 -1      3700 6.13637E-03 2.30415E-04-2.29392E-14
 -1      3701 6.06358E-03 1.95554E-04-2.25989E-14
 -1      3702 6.56183E-03 2.23344E-04-2.61784E-14
 -1      3703 6.42007E-03 2.25859E-04-2.50763E-14
 -1      3704 6.34673E-03 1.91340E-04-2.47215E-14
 -1      3705 6.84532E-03 2.17849E-04-2.84469E-14
 -1      3706 6.70355E-03 2.20673E-04-2.73019E-14
 -1      3707 6.62939E-03 1.86372E-04-2.69308E-14
 -1      3708 7.12920E-03 2.11798E-04-3.07980E-14
 -1      3709 6.98717E-03 2.14880E-04-2.96122E-14
 -1      3710 6.91182E-03 1.80567E-04-2.92257E-14
 -1      3711 7.41421E-03 2.05407E-04-3.32294E-14
 -1      3712 7.27150E-03 2.08614E-04-3.20031E-14
 -1      3713 7.19450E-03 1.73907E-04-3.16007E-14
 -1      3714 7.70147E-03 1.99137E-04-3.57412E-14
 -1      3715 7.55746E-03 2.02195E-04-3.44761E-14
 -1      3716 7.47825E-03 1.66502E-04-3.40582E-14
 -1      3717 7.99260E-03 1.93850E-04-3.83336E-14
 -1      3718 7.84642E-03 1.96262E-04-3.70271E-14
 -1      3719 7.76433E-03 1.58726E-04-3.65947E-14
 -1      3720 8.28972E-03 1.91030E-04-4.09972E-14
 -1      3721 8.14027E-03 1.91957E-04-3.96570E-14
 -1      3722 8.05462E-03 1.51417E-04-3.92079E-14
 -1      3723 8.59536E-03 1.93034E-04-4.37356E-14
 -1      3724 8.44135E-03 1.91164E-04-4.23574E-14
 -1      3725 8.35164E-03 1.46180E-04-4.18930E-14
 -1      3726 8.91198E-03 2.03213E-04-4.65449E-14
 -1      3727 8.75225E-03 1.96743E-04-4.51314E-14
 -1      3728 8.65853E-03 1.45818E-04-4.46503E-14
 -1      3729 9.24097E-03 2.25761E-04-4.94260E-14
 -1      3730 9.07512E-03 2.12622E-04-4.79770E-14
 -1      3731 8.97852E-03 1.54649E-04-4.74781E-14
 -1      3732 1.11848E-02 2.39597E-04-6.79586E-14
 -1      3733 1.25750E-02-4.89425E-04-8.24002E-14
 -1      3734 1.24067E-02-4.05523E-04-8.05864E-14
 -1      3735 1.29033E-02-6.46723E-04-8.60540E-14
 -1      3736 1.27408E-02-5.69598E-04-8.42234E-14
 -1      3737 1.27352E-02-5.84394E-04-8.35542E-14
 -1      3738 1.36663E-02-1.01080E-03-9.39922E-14
 -1      3739 1.35895E-02-9.69910E-04-9.36763E-14
 -1      3740 1.34388E-02-8.98323E-04-9.20884E-14
 -1      3741 1.35818E-02-9.78335E-04-9.25215E-14
 -1      3742 1.22353E-02-3.17663E-04-7.87856E-14
 -1      3743 1.20630E-02-2.26321E-04-7.69989E-14
 -1      3744 1.23937E-02-4.18338E-04-7.99241E-14
 -1      3745 1.13516E-02 1.55308E-04-6.96057E-14
 -1      3746 5.42524E-03 2.39325E-04-1.79938E-14
 -1      3747 5.28264E-03 2.40752E-04-1.70762E-14
 -1      3748 5.21038E-03 2.04699E-04-1.67854E-14
 -1      3749 1.02406E-02 3.64857E-04-5.82891E-14
 -1      3750 1.18719E-02-1.27098E-04-7.49454E-14
 -1      3751 1.16985E-02-3.08933E-05-7.31913E-14
 -1      3752 1.42866E-02-1.29137E-03-9.35709E-14
 -1      3753 1.15199E-02 6.65786E-05-7.13224E-14
 -1      3754 1.48673E-03-1.68149E-04-1.84592E-15
 -1      3755 1.51747E-03-1.98424E-04-1.91520E-15
 -1      3756 1.61599E-03-2.01530E-04-2.13864E-15
 -1      3757 1.75989E-03-2.09447E-04-2.48667E-15
 -1      3758 1.90420E-03-2.16111E-04-2.86069E-15
 -1      3759 1.72893E-03-1.77787E-04-2.40572E-15
 -1      3760 1.25674E-03-1.41631E-05-1.32565E-15
 -1      3761 1.25739E-03-4.51584E-05-1.34566E-15
 -1      3762 1.38051E-03-6.43070E-05-1.59162E-15
 -1      3763 1.37910E-03 1.38117E-06-1.54563E-15
 -1      3764 2.29296E-03-2.25272E-04-3.99257E-15
 -1      3765 2.43784E-03-2.28385E-04-4.46123E-15
 -1      3766 2.50696E-03-1.92651E-04-4.67550E-15
 -1      3767 1.31408E-02-7.48335E-04-8.92924E-14
 -1      3768 2.02609E-03-2.19129E-04-3.19607E-15
 -1      3769 2.17081E-03-2.23799E-04-3.61771E-15
 -1      3770 2.23952E-03-1.89545E-04-3.81405E-15
 -1      3771 1.99512E-03-1.86387E-04-3.10163E-15
 -1      3772 1.39526E-02-1.12626E-03-8.69528E-14
 -1      3773 9.30312E-03 3.09696E-05-5.13320E-14
 -1      3774 9.49174E-03 1.24144E-04-5.23568E-14
 -1      3775 8.98575E-03-1.19997E-04-4.99719E-14
 -1      3776 9.11484E-03-5.70986E-05-5.04425E-14
 -1      3777 8.82487E-03-1.13989E-04-4.85026E-14
 -1      3778 1.31475E-02-8.41600E-04-8.45147E-14
 -1      3779 1.33052E-02-9.11952E-04-8.55528E-14
 -1      3780 2.04309E-03 2.26463E-04-2.74040E-15
 -1      3781 1.82577E-03 2.12939E-04-2.23065E-15
 -1      3782 1.82120E-03 1.74221E-04-2.28870E-15
 -1      3783 8.60770E-03-3.51408E-04-5.01885E-14
 -1      3784 1.00734E-02 3.43320E-04-5.67287E-14
 -1      3785 1.20244E-02-2.28538E-04-7.60613E-14
 -1      3786 1.41890E-02-1.24910E-03-9.24187E-14
 -1      3787 1.39698E-02-1.14270E-03-8.79364E-14
 -1      3788 1.33902E-02-9.38736E-04-8.70803E-14
 -1      3789 1.34162E-02-9.58300E-04-8.64038E-14
 -1      3790 1.35241E-02-1.00109E-03-8.72591E-14
 -1      3791 1.39669E-02-1.15112E-03-8.86511E-14
 -1      3792 1.40410E-02-1.18743E-03-9.04046E-14
 -1      3793 1.41731E-02-1.24703E-03-9.28460E-14
 -1      3794 1.40996E-02-1.22051E-03-9.25885E-14
 -1      3795 1.39380E-02-1.14798E-03-8.90758E-14
 -1      3796 8.37173E-03-2.49329E-04-4.62863E-14
 -1      3797 8.41640E-03-2.79412E-04-4.71709E-14
 -1      3798 1.41089E-02-1.22757E-03-9.40874E-14
 -1      3799 3.77639E-03 2.12440E-04-8.97825E-15
 -1      3800 3.70602E-03 2.50413E-04-8.53697E-15
 -1      3801 3.56195E-03 2.50631E-04-7.90377E-15
 -1      3802 4.13747E-03 2.48920E-04-1.05796E-14
 -1      3803 4.06434E-03 2.11575E-04-1.03498E-14
 -1      3804 4.28104E-03 2.48197E-04-1.13091E-14
 -1      3805 8.55687E-03-3.27881E-04-4.94232E-14
 -1      3806 2.18779E-03 2.31142E-04-3.11602E-15
 -1      3807 4.56782E-03 2.46488E-04-1.28390E-14
 -1      3808 4.42449E-03 2.47388E-04-1.20626E-14
 -1      3809 4.63851E-03 2.08757E-04-1.33802E-14
 -1      3810 5.49542E-03 2.02134E-04-1.86295E-14
 -1      3811 9.58069E-03 2.63395E-04-5.23806E-14
 -1      3812 9.40996E-03 2.42611E-04-5.08942E-14
 -1      3813 9.92469E-03 3.12923E-04-5.54110E-14
 -1      3814 9.75298E-03 2.87438E-04-5.38865E-14
 -1      3815 1.22759E-02-3.84553E-04-7.80069E-14
 -1      3816 8.51653E-03-3.03189E-04-4.86206E-14
 -1      3817 8.60834E-03-2.20460E-04-4.80168E-14
 -1      3818 8.59502E-03-1.71265E-04-4.72012E-14
 -1      3819 8.50678E-03-2.23532E-04-4.71780E-14
 -1      3820 9.31368E-03 1.78601E-04-5.03775E-14
 -1      3821 1.37262E-02-1.07528E-03-8.69555E-14
 -1      3822 1.38287E-02-1.10938E-03-8.79162E-14
 -1      3823 1.36739E-02-1.05991E-03-8.75407E-14
 -1      3824 1.48310E-03-1.33040E-04-1.83103E-15
 -1      3825 2.83985E-03 2.48049E-04-5.10314E-15
 -1      3826 2.69513E-03 2.46442E-04-4.61679E-15
 -1      3827 1.38601E-02-1.12639E-03-9.20694E-14
 -1      3828 1.37649E-02-1.08365E-03-9.18032E-14
 -1      3829 1.24718E-02-4.85003E-04-7.98983E-14
 -1      3830 1.49324E-03 1.29627E-04-1.63607E-15
 -1      3831 1.28907E-02-7.03523E-04-8.33737E-14
 -1      3832 1.30173E-02-7.74396E-04-8.39438E-14
 -1      3833 1.31560E-02-8.27919E-04-8.56526E-14
 -1      3834 3.12902E-03 2.49994E-04-6.15084E-15
 -1      3835 2.98449E-03 2.49216E-04-5.61449E-15
 -1      3836 2.90928E-03 2.11016E-04-5.44511E-15
 -1      3837 9.66222E-03 2.21815E-04-5.33512E-14
 -1      3838 1.63068E-03 1.24891E-04-1.93151E-15
 -1      3839 1.51964E-03 9.55532E-05-1.73382E-15
 -1      3840 1.35913E-02-1.01127E-03-9.00594E-14
 -1      3841 1.36684E-02-1.03716E-03-9.15343E-14
 -1      3842 1.35726E-02-9.88222E-04-9.12632E-14
 -1      3843 9.12325E-03 1.71206E-05-4.98404E-14
 -1      3844 1.32901E-02-8.29781E-04-9.03490E-14
 -1      3845 1.30579E-02-7.19878E-04-8.77763E-14
 -1      3846 1.30568E-02-7.33590E-04-8.71019E-14
 -1      3847 1.33613E-02-8.71759E-04-9.05649E-14
 -1      3848 9.39356E-03 1.50638E-04-5.12864E-14
 -1      3849 9.58898E-03 1.74104E-04-5.29326E-14
 -1      3850 1.51782E-03 6.06002E-05-1.77049E-15
 -1      3851 1.40292E-02-1.19504E-03-9.24643E-14
 -1      3852 1.39399E-02-1.16000E-03-9.22003E-14
 -1      3853 1.37781E-02-1.09629E-03-9.04557E-14
 -1      3854 1.39418E-02-1.15876E-03-9.07070E-14
 -1      3855 3.01241E-03-1.59465E-04-6.50241E-15
 -1      3856 3.15741E-03-1.59892E-04-7.09010E-15
 -1      3857 3.30229E-03-1.60120E-04-7.70204E-15
 -1      3858 3.44703E-03-1.60159E-04-8.33779E-15
 -1      3859 3.22837E-03-1.22066E-04-7.33770E-15
 -1      3860 3.59161E-03-1.60061E-04-8.99881E-15
 -1      3861 3.73604E-03-1.59829E-04-9.68281E-15
 -1      3862 3.51810E-03-1.22130E-04-8.60271E-15
 -1      3863 3.88753E-03-1.59484E-04-1.04277E-14
 -1      3864 4.03883E-03-1.59034E-04-1.11993E-14
 -1      3865 3.81441E-03-1.21756E-04-9.99920E-15
 -1      3866 4.18276E-03-1.58538E-04-1.19590E-14
 -1      3867 4.32652E-03-1.57971E-04-1.27425E-14
 -1      3868 4.11000E-03-1.21072E-04-1.14974E-14
 -1      3869 4.47011E-03-1.57356E-04-1.35492E-14
 -1      3870 4.61352E-03-1.56685E-04-1.43799E-14
 -1      3871 4.39765E-03-1.20193E-04-1.30554E-14
 -1      3872 4.75676E-03-1.55975E-04-1.52342E-14
 -1      3873 4.89981E-03-1.55220E-04-1.61110E-14
 -1      3874 4.68456E-03-1.19161E-04-1.47095E-14
 -1      3875 5.04266E-03-1.54433E-04-1.70105E-14
 -1      3876 5.18530E-03-1.53609E-04-1.79348E-14
 -1      3877 4.97068E-03-1.18016E-04-1.64547E-14
 -1      3878 5.32771E-03-1.52764E-04-1.88811E-14
 -1      3879 5.46988E-03-1.51893E-04-1.98476E-14
 -1      3880 5.25592E-03-1.16798E-04-1.82925E-14
 -1      3881 5.61176E-03-1.51019E-04-2.08385E-14
 -1      3882 5.75335E-03-1.50138E-04-2.18518E-14
 -1      3883 5.54014E-03-1.15565E-04-2.02210E-14
 -1      3884 5.89458E-03-1.49288E-04-2.28866E-14
 -1      3885 6.03543E-03-1.48468E-04-2.39436E-14
 -1      3886 5.82315E-03-1.14413E-04-2.22395E-14
 -1      3887 6.17584E-03-1.47736E-04-2.50229E-14
 -1      3888 6.31576E-03-1.47097E-04-2.61239E-14
 -1      3889 6.10464E-03-1.13505E-04-2.43464E-14
 -1      3890 6.46205E-03-1.46620E-04-2.73013E-14
 -1      3891 6.60763E-03-1.46362E-04-2.85019E-14
 -1      3892 6.39121E-03-1.13105E-04-2.65960E-14
 -1      3893 6.74550E-03-1.46459E-04-2.96674E-14
 -1      3894 6.88251E-03-1.46913E-04-3.08515E-14
 -1      3895 6.67524E-03-1.13693E-04-2.89346E-14
 -1      3896 7.01856E-03-1.47921E-04-3.20559E-14
 -1      3897 7.15347E-03-1.49515E-04-3.32797E-14
 -1      3898 6.94922E-03-1.15863E-04-3.12981E-14
 -1      3899 7.28714E-03-1.51972E-04-3.45229E-14
 -1      3900 7.41933E-03-1.55326E-04-3.57850E-14
 -1      3901 7.21931E-03-1.20516E-04-3.37396E-14
 -1      3902 7.54994E-03-1.59960E-04-3.70651E-14
 -1      3903 7.67863E-03-1.65894E-04-3.83644E-14
 -1      3904 7.48452E-03-1.28872E-04-3.62565E-14
 -1      3905 7.80535E-03-1.73642E-04-3.96816E-14
 -1      3906 7.92958E-03-1.83173E-04-4.10165E-14
 -1      3907 7.74375E-03-1.42502E-04-3.88494E-14
 -1      3908 8.05139E-03-1.95138E-04-4.23678E-14
 -1      3909 8.17007E-03-2.09367E-04-4.37330E-14
 -1      3910 7.99577E-03-1.63293E-04-4.15126E-14
 -1      3911 1.26475E-02-5.70122E-04-8.17080E-14
 -1      3912 1.84707E-03 1.36503E-04-2.41190E-15
 -1      3913 5.56554E-03 1.65158E-04-1.92703E-14
 -1      3914 5.42329E-03 1.66385E-04-1.83205E-14
 -1      3915 6.13260E-03 1.58926E-04-2.33001E-14
 -1      3916 5.99113E-03 1.60720E-04-2.22575E-14
 -1      3917 5.84947E-03 1.62341E-04-2.12380E-14
 -1      3918 5.70760E-03 1.63819E-04-2.02428E-14
 -1      3919 5.91902E-03 1.25846E-04-2.19146E-14
 -1      3920 6.69659E-03 1.49690E-04-2.76864E-14
 -1      3921 6.55584E-03 1.52354E-04-2.65572E-14
 -1      3922 6.97780E-03 1.43533E-04-3.00081E-14
 -1      3923 6.83722E-03 1.46756E-04-2.88372E-14
 -1      3924 6.76343E-03 1.13328E-04-2.84473E-14
 -1      3925 7.25906E-03 1.36164E-04-3.24091E-14
 -1      3926 7.11837E-03 1.40001E-04-3.11989E-14
 -1      3927 7.04324E-03 1.06770E-04-3.07944E-14
 -1      3928 7.54122E-03 1.27571E-04-3.48902E-14
 -1      3929 7.39994E-03 1.32001E-04-3.36395E-14
 -1      3930 7.32281E-03 9.85824E-05-3.32196E-14
 -1      3931 7.82569E-03 1.18007E-04-3.74519E-14
 -1      3932 7.68304E-03 1.22850E-04-3.61621E-14
 -1      3933 7.60302E-03 8.85963E-05-3.57266E-14
 -1      3934 8.11456E-03 1.08271E-04-4.00854E-14
 -1      3935 7.96939E-03 1.13031E-04-3.87582E-14
 -1      3936 7.88535E-03 7.69213E-05-3.83096E-14
 -1      3937 8.41078E-03 1.00100E-04-4.27906E-14
 -1      3938 8.26151E-03 1.03753E-04-4.14288E-14
 -1      3939 8.17213E-03 6.43007E-05-4.09642E-14
 -1      3940 8.71825E-03 9.67616E-05-4.55651E-14
 -1      3941 8.56285E-03 9.73653E-05-4.41692E-14
 -1      3942 8.46676E-03 5.25227E-05-4.36885E-14
 -1      3943 5.28085E-03 1.67501E-04-1.73950E-14
 -1      3944 5.13823E-03 1.68529E-04-1.64926E-14
 -1      3945 5.35132E-03 1.30510E-04-1.80089E-14
 -1      3946 8.25367E-03-2.11623E-04-4.46087E-14
 -1      3947 8.41587E-03-2.19673E-04-4.62896E-14
 -1      3948 8.39080E-03-1.79131E-04-4.54856E-14
 -1      3949 8.20699E-03-1.77304E-04-4.37365E-14
 -1      3950 1.29634E-02-7.10540E-04-8.52324E-14
 -1      3951 1.27972E-02-6.35786E-04-8.34041E-14
 -1      3952 3.41776E-03 2.50654E-04-7.29493E-15
 -1      3953 3.27345E-03 2.50462E-04-6.71091E-15
 -1      3954 3.48788E-03 2.12792E-04-7.70396E-15
 -1      3955 2.55035E-03 2.44295E-04-4.15431E-15
 -1      3956 2.40554E-03 2.41538E-04-3.71631E-15
 -1      3957 2.61936E-03 2.08164E-04-4.46129E-15
 -1      3958 2.02152E-03 1.36791E-04-2.85026E-15
 -1      3959 1.83125E-03 8.89766E-05-2.44287E-15
 -1      3960 2.72210E-03-1.57799E-04-5.40163E-15
 -1      3961 2.86729E-03-1.58775E-04-5.93967E-15
 -1      3962 2.93809E-03-1.21394E-04-6.16996E-15
 -1      3963 1.65367E-03-1.41711E-04-2.21585E-15
 -1      3964 1.79766E-03-1.47126E-04-2.56716E-15
 -1      3965 9.22124E-03 1.34718E-04-4.98168E-14
 -1      3966 1.55215E-03-1.04938E-04-1.97111E-15
 -1      3967 2.43159E-03-1.54724E-04-4.40097E-15
 -1      3968 2.57685E-03-1.56461E-04-4.88880E-15
 -1      3969 2.64742E-03-1.19867E-04-5.10137E-15
 -1      3970 6.41494E-03 1.54765E-04-2.54503E-14
 -1      3971 6.27386E-03 1.56952E-04-2.43644E-14
 -1      3972 6.48291E-03 1.18517E-04-2.61826E-14
 -1      3973 4.99543E-03 1.69468E-04-1.56137E-14
 -1      3974 4.85246E-03 1.70334E-04-1.47583E-14
 -1      3975 5.06617E-03 1.32215E-04-1.61966E-14
 -1      3976 8.67307E-03-1.06211E-04-4.70836E-14
 -1      3977 8.78322E-03-5.91257E-05-4.75380E-14
 -1      3978 8.91919E-03-7.93621E-06-4.82425E-14
 -1      3979 9.08931E-03 6.92212E-05-4.91072E-14
 -1      3980 9.01765E-03 1.01693E-04-4.82172E-14
 -1      3981 8.75732E-03-8.99843E-06-4.68217E-14
 -1      3982 2.25638E-03 1.96840E-04-3.37958E-15
 -1      3983 1.65886E-03 5.02167E-05-2.08775E-15
 -1      3984 1.51993E-03 2.34900E-05-1.81241E-15
 -1      3985 9.99394E-03 2.84710E-04-5.61751E-14
 -1      3986 3.84711E-03 1.74428E-04-9.42611E-15
 -1      3987 3.70286E-03 1.74691E-04-8.76015E-15
 -1      3988 4.35171E-03 2.10325E-04-1.18172E-14
 -1      3989 8.44730E-03-1.34483E-04-4.54275E-14
 -1      3990 8.55724E-03-1.22465E-04-4.62532E-14
 -1      3991 8.51316E-03-7.30439E-05-4.53065E-14
 -1      3992 6.20146E-03 1.22610E-04-2.40054E-14
 -1      3993 1.32672E-02-8.64996E-04-8.74276E-14
 -1      3994 1.33849E-02-9.24916E-04-8.80061E-14
 -1      3995 4.70933E-03 1.71125E-04-1.39260E-14
 -1      3996 4.56603E-03 1.71853E-04-1.31167E-14
 -1      3997 4.78024E-03 1.33624E-04-1.44770E-14
 -1      3998 5.63562E-03 1.28427E-04-1.99157E-14
 -1      3999 4.13516E-03 1.73625E-04-1.08301E-14
 -1      4000 3.99122E-03 1.74073E-04-1.01156E-14
 -1      4001 3.91814E-03 1.36424E-04-9.87937E-15
 -1      4002 1.51977E-03-1.11478E-05-1.84240E-15
 -1      4003 2.45755E-03 1.54252E-04-4.06447E-15
 -1      4004 2.23938E-03 1.46027E-04-3.43008E-15
 -1      4005 2.22362E-03 9.54999E-05-3.47246E-15
 -1      4006 8.85484E-03 9.69229E-05-4.67880E-14
 -1      4007 8.75173E-03 4.46599E-05-4.62900E-14
 -1      4008 1.36858E-02-1.06148E-03-8.92580E-14
 -1      4009 1.35956E-02-1.02167E-03-8.91278E-14
 -1      4010 1.33824E-02-9.05330E-04-8.92364E-14
 -1      4011 1.34670E-02-9.34405E-04-9.07050E-14
 -1      4012 1.33926E-02-8.92508E-04-9.04915E-14
 -1      4013 1.31552E-02-8.04824E-04-8.68754E-14
 -1      4014 9.76874E-03 2.02920E-04-5.44397E-14
 -1      4015 1.53465E-03-4.02043E-05-1.89624E-15
 -1      4016 1.53597E-03-7.51553E-05-1.92111E-15
 -1      4017 1.70666E-03-8.02896E-05-2.31191E-15
 -1      4018 1.67582E-03-1.88634E-05-2.19461E-15
 -1      4019 3.19882E-03 2.12420E-04-6.52607E-15
 -1      4020 2.74806E-03 1.57270E-04-5.00763E-15
 -1      4021 2.60281E-03 1.55968E-04-4.52349E-15
 -1      4022 2.58727E-03 1.03870E-04-4.57711E-15
 -1      4023 1.84467E-03-1.13183E-04-2.67053E-15
 -1      4024 1.91952E-03-1.49352E-04-2.88295E-15
 -1      4025 2.04163E-03-1.50930E-04-3.21704E-15
 -1      4026 1.83279E-03 4.83113E-05-2.49875E-15
 -1      4027 1.37111E-02-1.07368E-03-8.85767E-14
 -1      4028 2.30906E-03-1.54673E-04-4.01003E-15
 -1      4029 2.37935E-03-1.19218E-04-4.20569E-15
 -1      4030 2.18660E-03-1.54199E-04-3.63701E-15
 -1      4031 3.03835E-03 1.58947E-04-6.04848E-15
 -1      4032 2.89325E-03 1.58260E-04-5.51622E-15
 -1      4033 2.87807E-03 1.05499E-04-5.57734E-15
 -1      4034 1.39032E-02-1.14215E-03-8.96646E-14
 -1      4035 3.15470E-03-8.40079E-05-6.97927E-15
 -1      4036 3.29981E-03-8.41109E-05-7.58344E-15
 -1      4037 4.42256E-03 1.72510E-04-1.23308E-14
 -1      4038 4.27894E-03 1.73106E-04-1.15690E-14
 -1      4039 4.49358E-03 1.34788E-04-1.28498E-14
 -1      4040 3.44477E-03-8.41270E-05-8.21222E-15
 -1      4041 3.58957E-03-8.40529E-05-8.86448E-15
 -1      4042 3.37167E-03-4.60802E-05-7.82684E-15
 -1      4043 3.74143E-03-8.39125E-05-9.57531E-15
 -1      4044 3.89309E-03-8.37021E-05-1.03133E-14
 -1      4045 3.66862E-03-4.59677E-05-9.15740E-15
 -1      4046 4.03734E-03-8.34628E-05-1.10403E-14
 -1      4047 4.18140E-03-8.31780E-05-1.17914E-14
 -1      4048 3.96481E-03-4.57173E-05-1.05888E-14
 -1      4049 4.32528E-03-8.28685E-05-1.25669E-14
 -1      4050 4.46896E-03-8.25265E-05-1.33659E-14
 -1      4051 4.25301E-03-4.53833E-05-1.20827E-14
 -1      4052 4.61244E-03-8.21698E-05-1.41893E-14
 -1      4053 4.75572E-03-8.17904E-05-1.50348E-14
 -1      4054 4.54042E-03-4.49991E-05-1.36736E-14
 -1      4055 4.89879E-03-8.14060E-05-1.59026E-14
 -1      4056 5.04164E-03-8.10090E-05-1.67948E-14
 -1      4057 4.82701E-03-4.45946E-05-1.53561E-14
 -1      4058 5.18425E-03-8.06197E-05-1.77103E-14
 -1      4059 5.32661E-03-8.02319E-05-1.86477E-14
 -1      4060 5.11270E-03-4.42147E-05-1.71315E-14
 -1      4061 5.46870E-03-7.98716E-05-1.96084E-14
 -1      4062 5.61050E-03-7.95348E-05-2.05913E-14
 -1      4063 5.39741E-03-4.39184E-05-1.89994E-14
 -1      4064 5.75197E-03-7.92585E-05-2.15961E-14
 -1      4065 5.89308E-03-7.90418E-05-2.26237E-14
 -1      4066 5.68098E-03-4.38002E-05-2.09577E-14
 -1      4067 6.03380E-03-7.89385E-05-2.36735E-14
 -1      4068 6.17408E-03-7.89526E-05-2.47466E-14
 -1      4069 5.96320E-03-4.40101E-05-2.30054E-14
 -1      4070 6.32085E-03-7.91780E-05-2.58952E-14
 -1      4071 6.46701E-03-7.96356E-05-2.70670E-14
 -1      4072 6.25080E-03-4.48072E-05-2.51975E-14
 -1      4073 6.60560E-03-8.04040E-05-2.82043E-14
 -1      4074 6.74349E-03-8.15178E-05-2.93624E-14
 -1      4075 6.53635E-03-4.65685E-05-2.74786E-14
 -1      4076 6.88066E-03-8.31372E-05-3.05428E-14
 -1      4077 7.01697E-03-8.52915E-05-3.17412E-14
 -1      4078 6.81255E-03-4.97350E-05-2.97889E-14
 -1      4079 7.15240E-03-8.81975E-05-3.29588E-14
 -1      4080 7.28679E-03-9.18929E-05-3.41960E-14
 -1      4081 7.08597E-03-5.50403E-05-3.21815E-14
 -1      4082 7.42015E-03-9.66605E-05-3.54520E-14
 -1      4083 7.55227E-03-1.02540E-04-3.67266E-14
 -1      4084 7.35619E-03-6.34120E-05-3.46487E-14
 -1      4085 7.68324E-03-1.09882E-04-3.80202E-14
 -1      4086 7.81277E-03-1.18718E-04-3.93320E-14
 -1      4087 7.62291E-03-7.59965E-05-3.71933E-14
 -1      4088 7.94110E-03-1.29429E-04-4.06608E-14
 -1      4089 8.06793E-03-1.42115E-04-4.20059E-14
 -1      4090 7.88610E-03-9.40830E-05-3.98118E-14
 -1      4091 5.98854E-03 8.96595E-05-2.25944E-14
 -1      4092 5.84725E-03 9.08904E-05-2.15685E-14
 -1      4093 5.70570E-03 9.19633E-05-2.05661E-14
 -1      4094 5.56388E-03 9.29122E-05-1.95856E-14
 -1      4095 5.77579E-03 5.57922E-05-2.12205E-14
 -1      4096 7.10819E-03 7.03808E-05-3.15824E-14
 -1      4097 6.96918E-03 7.41036E-05-3.03864E-14
 -1      4098 6.82997E-03 7.73550E-05-2.92099E-14
 -1      4099 6.69048E-03 8.01874E-05-2.80537E-14
 -1      4100 6.89625E-03 4.18100E-05-2.99757E-14
 -1      4101 7.66356E-03 4.97979E-05-3.65645E-14
 -1      4102 7.52454E-03 5.58591E-05-3.52886E-14
 -1      4103 7.94306E-03 3.57666E-05-3.91677E-14
 -1      4104 7.80292E-03 4.30415E-05-3.78571E-14
 -1      4105 7.72275E-03 1.11765E-05-3.74026E-14
 -1      4106 8.22673E-03 1.98788E-05-4.18435E-14
 -1      4107 8.08413E-03 2.79234E-05-4.04975E-14
 -1      4108 7.99862E-03-5.51352E-06-4.00291E-14
 -1      4109 1.34912E-02-9.71719E-04-8.88642E-14
 -1      4110 5.42181E-03 9.37454E-05-1.86281E-14
 -1      4111 5.27951E-03 9.44896E-05-1.76945E-14
 -1      4112 5.49235E-03 5.72313E-05-1.92526E-14
 -1      4113 3.55844E-03 1.74829E-04-8.11851E-15
 -1      4114 3.41387E-03 1.74838E-04-7.50088E-15
 -1      4115 3.62939E-03 1.36817E-04-8.53886E-15
 -1      4116 1.30881E-02-7.56715E-04-8.70291E-14
 -1      4117 8.62595E-03-3.19190E-06-4.56035E-14
 -1      4118 1.38216E-02-1.11434E-03-8.95415E-14
 -1      4119 2.86410E-03-8.34245E-05-5.84367E-15
 -1      4120 3.00945E-03-8.37805E-05-6.39957E-15
 -1      4121 3.08133E-03-4.59853E-05-6.62641E-15
 -1      4122 2.57319E-03-8.21884E-05-4.80703E-15
 -1      4123 2.71866E-03-8.28977E-05-5.31282E-15
 -1      4124 2.79050E-03-4.56090E-05-5.52306E-15
 -1      4125 8.49630E-03-3.46803E-05-4.47591E-14
 -1      4126 8.48971E-03 1.38766E-05-4.42372E-14
 -1      4127 8.34249E-03 2.12582E-05-4.28617E-14
 -1      4128 8.38463E-03-5.22941E-05-4.39476E-14
 -1      4129 1.32419E-02-8.25683E-04-8.87546E-14
 -1      4130 1.99614E-03 4.16022E-05-2.92331E-15
 -1      4131 1.82411E-03 3.88320E-06-2.52707E-15
 -1      4132 6.55070E-03 8.26459E-05-2.69193E-14
 -1      4133 6.41061E-03 8.47856E-05-2.58063E-14
 -1      4134 6.61836E-03 4.71858E-05-2.76596E-14
 -1      4135 3.29867E-03 1.67170E-04-7.04637E-15
 -1      4136 3.15381E-03 1.66874E-04-6.47102E-15
 -1      4137 3.13888E-03 1.13826E-04-6.54125E-15
 -1      4138 3.36959E-03 1.29262E-04-7.43685E-15
 -1      4139 5.13698E-03 9.51482E-05-1.67846E-14
 -1      4140 4.99423E-03 9.57425E-05-1.58971E-14
 -1      4141 5.20785E-03 5.82938E-05-1.73770E-14
 -1      4142 6.27023E-03 8.66389E-05-2.47137E-14
 -1      4143 6.12953E-03 8.82563E-05-2.36434E-14
 -1      4144 6.33893E-03 5.10462E-05-2.54260E-14
 -1      4145 7.38577E-03 6.13110E-05-3.40333E-14
 -1      4146 7.24700E-03 6.61269E-05-3.27991E-14
 -1      4147 7.17267E-03 3.44027E-05-3.23744E-14
 -1      4148 7.44792E-03 2.43791E-05-3.48503E-14
 -1      4149 4.20621E-03 1.35728E-04-1.13165E-14
 -1      4150 8.34694E-03-1.36592E-04-4.45529E-14
 -1      4151 6.05803E-03 5.38091E-05-2.32783E-14
 -1      4152 4.92240E-03 5.90949E-05-1.55942E-14
 -1      4153 4.85127E-03 9.62714E-05-1.50327E-14
 -1      4154 4.70811E-03 9.67528E-05-1.41918E-14
 -1      4155 2.94962E-03 6.79746E-05-5.91623E-15
 -1      4156 2.80419E-03 6.75839E-05-5.38748E-15
 -1      4157 2.73074E-03 2.98668E-05-5.19468E-15
 -1      4158 2.65871E-03 6.70392E-05-4.88233E-15
 -1      4159 2.51321E-03 6.63513E-05-4.40263E-15
 -1      4160 8.25023E-03-1.54744E-05-4.23813E-14
 -1      4161 8.15993E-03-1.40626E-04-4.28665E-14
 -1      4162 2.11158E-03-1.17121E-04-3.39514E-15
 -1      4163 3.98946E-03 9.84451E-05-1.03383E-14
 -1      4164 3.84517E-03 9.86433E-05-9.64010E-15
 -1      4165 3.70071E-03 9.87748E-05-8.96511E-15
 -1      4166 3.55607E-03 9.88455E-05-8.31445E-15
 -1      4167 3.77234E-03 6.07449E-05-9.39685E-15
 -1      4168 1.83887E-03-2.77148E-05-2.59431E-15
 -1      4169 1.82833E-03-8.10936E-05-2.60976E-15
 -1      4170 2.45038E-03-8.32201E-05-4.40068E-15
 -1      4171 2.52207E-03-4.67338E-05-4.59507E-15
 -1      4172 2.32761E-03-8.40406E-05-4.01255E-15
 -1      4173 2.36348E-03 5.70418E-05-3.94799E-15
 -1      4174 2.14537E-03 5.08064E-05-3.31729E-15
 -1      4175 2.13666E-03 3.72521E-06-3.35387E-15
 -1      4176 2.43554E-03 2.07678E-05-4.22580E-15
 -1      4177 2.76035E-03-7.82002E-06-5.35985E-15
 -1      4178 2.90586E-03-7.83322E-06-5.88989E-15
 -1      4179 3.29887E-03-8.03374E-06-7.44682E-15
 -1      4180 3.44392E-03-7.99984E-06-8.06725E-15
 -1      4181 3.57187E-03 7.38933E-06-8.60176E-15
 -1      4182 3.72382E-03 7.42363E-06-9.29938E-15
 -1      4183 3.86835E-03 7.43846E-06-9.98829E-15
 -1      4184 4.01269E-03 7.45825E-06-1.07016E-14
 -1      4185 4.46852E-03-7.66346E-06-1.31621E-14
 -1      4186 4.61203E-03-7.62098E-06-1.39769E-14
 -1      4187 4.73142E-03 7.38839E-06-1.46260E-14
 -1      4188 4.87454E-03 7.33266E-06-1.54804E-14
 -1      4189 5.01744E-03 7.24174E-06-1.63588E-14
 -1      4190 5.16011E-03 7.12540E-06-1.72605E-14
 -1      4191 5.30252E-03 6.95601E-06-1.81847E-14
 -1      4192 5.44468E-03 6.74060E-06-1.91324E-14
 -1      4193 5.58655E-03 6.44383E-06-2.01023E-14
 -1      4194 5.72812E-03 6.06959E-06-2.10946E-14
 -1      4195 5.86937E-03 5.57100E-06-2.21096E-14
 -1      4196 6.01026E-03 4.94774E-06-2.31478E-14
 -1      4197 6.15078E-03 4.13721E-06-2.42081E-14
 -1      4198 6.29788E-03 3.07585E-06-2.53448E-14
 -1      4199 6.43753E-03 1.77951E-06-2.64498E-14
 -1      4200 6.57670E-03 1.88551E-07-2.75746E-14
 -1      4201 6.71539E-03-1.80605E-06-2.87196E-14
 -1      4202 6.85352E-03-4.23091E-06-2.98879E-14
 -1      4203 6.99114E-03-7.22100E-06-3.10754E-14
 -1      4204 7.12816E-03-1.08184E-05-3.22820E-14
 -1      4205 7.26467E-03-1.51787E-05-3.35087E-14
 -1      4206 7.40056E-03-2.03635E-05-3.47541E-14
 -1      4207 7.53604E-03-2.65292E-05-3.60192E-14
 -1      4208 7.67095E-03-3.37599E-05-3.73030E-14
 -1      4209 7.80569E-03-4.21658E-05-3.86045E-14
 -1      4210 7.94007E-03-5.18705E-05-3.99238E-14
 -1      4211 3.06517E-03 7.57517E-05-6.33858E-15
 -1      4212 2.99179E-03 3.77546E-05-6.13330E-15
 -1      4213 3.18063E-03 8.34884E-05-6.77450E-15
 -1      4214 3.02129E-03-3.08071E-07-6.31530E-15
 -1      4215 8.20443E-03-9.80621E-05-4.28070E-14
 -1      4216 4.13356E-03 9.82009E-05-1.10614E-14
 -1      4217 4.06102E-03 6.05293E-05-1.08034E-14
 -1      4218 4.27748E-03 9.79035E-05-1.18086E-14
 -1      4219 8.07466E-03-6.28976E-05-4.12608E-14
 -1      4220 1.97633E-03-5.93656E-05-2.97714E-15
 -1      4221 8.27176E-03-5.04478E-05-4.29203E-14
 -1      4222 3.16662E-03-2.70733E-07-6.88852E-15
 -1      4223 4.58854E-03 8.20513E-05-1.35592E-14
 -1      4224 4.44502E-03 8.23872E-05-1.27587E-14
 -1      4225 2.61481E-03-7.77729E-06-4.85365E-15
 -1      4226 4.15683E-03 7.46059E-06-1.14387E-14
 -1      4227 2.12128E-03-6.07975E-05-3.37840E-15
 -1      4228 3.49968E-03 4.54412E-05-8.19588E-15
 -1      4229 4.30078E-03 7.46553E-06-1.21997E-14
 -1      4230 4.65991E-03 4.46385E-05-1.40899E-14
 -1      4231 4.37283E-03 4.50001E-05-1.24805E-14
 -1      4232 3.42786E-03 8.34777E-05-7.79592E-15
 -1      4233 2.49186E-03-9.54597E-06-4.44841E-15
 -1      4234 2.27030E-03-5.37210E-05-3.80758E-15
 -1      4235 3.23944E-03 3.77704E-05-7.11008E-15
 -1      4236 3.31262E-03 7.58545E-05-7.32831E-15
 -1      4237 2.34239E-03-1.77777E-05-3.98677E-15
 -3
    1PSTEP                         2           1           1          
  100CL  101 1.000000000        4237                     0    1           1
 -4  STRESS      6    1
 -5  SXX         1    4    1    1
 -5  SYY         1    4    2    2
 -5  SZZ         1    4    3    3
 -5  SXY         1    4    1    2
 -5  SYZ         1    4    2    3
 -5  SZX         1    4    3    1
 -1         1 7.54040E+01 1.53676E+00 4.85106E+00-5.48910E+00-1.55580E-13 1.28406E-12
 -1         2-8.93898E-01-2.64523E+01-3.50114E+00 1.75773E-02 9.90145E-13 6.17909E-14
 -1         3 1.99958E+01-4.18904E-03 1.31288E-02-4.28651E-03-4.02092E-13-3.99833E-13
 -1         4 1.99610E+01-5.11813E-02 4.78723E-02 5.58351E-02 3.81846E-13-2.27705E-13
 -1         5 3.27677E+01 6.14256E+00 2.74226E+00 6.22414E+00-4.34583E-14 2.96782E-12
 -1         6 3.57516E+01 1.22631E+01 5.12537E+00-8.64656E+00-1.79357E-13 1.97165E-12
 -1         7 2.08184E+01 6.09961E+00-1.28661E-01-4.72554E+00-2.54657E-14 5.16531E-14
 -1         8 1.96717E+01 5.93493E+00 5.09733E-02-3.27481E+00-2.11914E-14-4.51587E-13
 -1         9 1.91369E+01 5.77187E+00 4.90991E-02-2.52662E+00-1.47209E-14-6.91745E-13
 -1        10 1.88954E+01 5.69215E+00 5.10670E-02-1.95146E+00-6.22852E-15-7.75705E-13
 -1        11 1.87740E+01 5.65130E+00 5.02706E-02-1.45620E+00-2.38221E-15-7.86794E-13
 -1        12 1.87104E+01 5.62968E+00 4.87538E-02-1.01526E+00 3.68737E-15-7.60323E-13
 -1        13 1.86770E+01 5.61829E+00 4.74328E-02-5.95454E-01 5.31021E-15-7.26609E-13
 -1        14 1.86630E+01 5.61347E+00 4.67172E-02-1.91252E-01 1.21814E-14-6.80075E-13
 -1        15 1.86635E+01 5.61363E+00 4.67624E-02 2.08226E-01 1.58375E-14-6.27973E-13
 -1        16 1.86785E+01 5.61878E+00 4.75849E-02 6.13283E-01 1.91111E-14-5.65648E-13
 -1        17 1.87132E+01 5.63045E+00 4.90979E-02 1.03511E+00 2.44533E-14-4.79076E-13
 -1        18 1.87778E+01 5.65243E+00 5.08229E-02 1.47920E+00 2.49609E-14-3.49491E-13
 -1        19 1.89011E+01 5.69388E+00 5.16701E-02 1.98022E+00 3.43024E-14-1.62922E-13
 -1        20 1.91432E+01 5.77461E+00 4.91397E-02 2.56409E+00 3.93956E-14 1.21144E-13
 -1        21 1.96666E+01 5.94943E+00 4.57969E-02 3.30896E+00 3.91492E-14 5.88994E-13
 -1        22 2.12010E+01 6.38134E+00 1.39459E-01 4.52293E+00 2.04003E-15 1.41176E-12
 -1        23 2.30290E+01-1.37918E+00-9.38331E-01-7.11176E-01-1.16896E-13 1.37626E-12
 -1        24 1.93664E+01-9.94914E-02-3.09835E-01 6.32207E-02-2.41951E-14 8.56232E-13
 -1        25 1.86779E+01-5.63211E-02-6.87739E-02 6.07169E-02-2.00003E-14 3.28737E-13
 -1        26 1.84752E+01-2.20855E-02-6.46736E-03 3.29572E-02 6.73615E-16-4.91170E-14
 -1        27 1.84863E+01-1.17994E-02 1.59020E-03 2.25949E-02 1.89432E-15-2.12733E-13
 -1        28 1.86002E+01-6.23674E-03 1.79880E-03 1.62919E-02-9.14378E-15-3.16850E-13
 -1        29 1.87597E+01-3.05514E-03 1.73721E-03 1.21371E-02-7.03810E-15-5.13123E-13
 -1        30 1.89340E+01-1.21331E-03 1.95659E-03 9.11448E-03-2.24464E-15-6.36307E-13
 -1        31 1.91121E+01-1.78481E-04 2.03845E-03 6.86747E-03-1.30364E-15-7.56224E-13
 -1        32 1.92688E+01 4.90254E-04 2.09923E-03 5.11662E-03-2.66074E-14-8.75317E-13
 -1        33 1.94075E+01 7.80366E-04 1.98840E-03 3.77433E-03-1.53696E-15-8.97994E-13
 -1        34 1.95270E+01 8.73344E-04 1.78800E-03 2.70666E-03 4.92485E-15-7.75967E-13
 -1        35 1.96279E+01 8.29652E-04 1.52786E-03 1.86324E-03 8.72065E-15-7.37702E-13
 -1        36 1.97124E+01 6.89240E-04 1.22865E-03 1.20077E-03-1.03576E-14-7.63798E-13
 -1        37 1.97836E+01 4.74826E-04 8.99742E-04 6.85310E-04-2.24111E-14-8.09280E-13
 -1        38 1.98452E+01 1.96200E-04 5.41104E-04 2.90997E-04 1.04799E-14-9.89365E-13
 -1        39 1.99018E+01-1.74836E-04 1.43594E-04-1.89298E-05 3.61272E-15-1.15692E-12
 -1        40 1.99614E+01-5.93687E-04-3.55130E-04-1.98378E-04-1.27893E-14-1.30381E-12
 -1        41 2.00251E+01-1.14699E-03-9.34215E-04-2.98897E-04 3.02580E-14-1.27476E-12
 -1        42 2.01035E+01-1.84427E-03-1.68167E-03-2.76946E-04-1.83657E-14-1.30814E-12
 -1        43 2.02068E+01-2.75733E-03-2.69132E-03-9.13825E-05 7.71659E-15-1.14046E-12
 -1        44 2.03486E+01-3.97202E-03-4.10380E-03 3.47985E-04 1.25006E-15-1.24359E-12
 -1        45 2.05474E+01-5.60026E-03-6.13282E-03 1.20731E-03 1.01730E-14-1.30564E-12
 -1        46 2.08292E+01-7.77729E-03-9.09992E-03 2.78084E-03-7.70817E-14-1.26659E-12
 -1        47 2.12299E+01-1.04784E-02-1.34335E-02 5.65045E-03-2.94047E-14-1.39617E-12
 -1        48 2.17998E+01-1.49721E-02-2.00084E-02 9.40254E-03 1.35985E-14-1.28779E-12
 -1        49 2.26538E+01-1.81769E-02-2.89963E-02 1.99231E-02 5.63182E-14-1.31364E-12
 -1        50 2.38030E+01-2.20041E-02-3.98658E-02 3.41575E-02-6.38389E-14-1.38162E-12
 -1        51 2.53723E+01-2.24492E-02-4.86607E-02 5.70138E-02 2.01486E-14-1.48057E-12
 -1        52 2.74197E+01-1.47648E-02-4.30904E-02 8.85256E-02-4.25695E-14-1.45585E-12
 -1        53 2.98575E+01 8.55814E-03 3.03106E-03 1.19556E-01-3.28699E-14-1.16991E-12
 -1        54 3.22353E+01 5.20320E-02 1.22196E-01 1.15169E-01 2.06528E-14-1.07575E-12
 -1        55 3.34602E+01 1.03380E-01 2.98792E-01 8.65811E-04 3.97286E-14-1.05838E-12
 -1        56 3.18581E+01 1.06836E-01 3.56684E-01-3.07352E-01-5.73057E-14-8.84182E-13
 -1        57 2.68327E+01 3.86495E-02 5.64719E-02-6.25260E-01 7.78232E-14-8.62727E-13
 -1        58 2.05276E+01-7.81540E-02-5.40153E-01-6.03091E-01 3.12042E-14-1.10281E-12
 -1        59 1.68005E+01-1.85339E-01-9.79993E-01-1.15995E-01-3.76331E-14-1.45504E-12
 -1        60 1.92252E+01-1.14452E-01-6.77868E-01 5.56034E-01 1.51268E-15-1.19146E-12
 -1        61 2.59381E+01 1.22994E-02 2.97754E-03 6.45993E-01-3.45431E-14-8.51180E-13
 -1        62 3.13725E+01 1.01142E-01 3.54054E-01 3.09288E-01-3.44065E-14-7.93740E-13
 -1        63 3.30492E+01 1.03862E-01 3.04695E-01 1.34409E-02 4.11424E-14-8.22446E-13
 -1        64 3.16990E+01 5.08751E-02 1.19927E-01-1.18483E-01-7.54570E-14-7.22068E-13
 -1        65 2.91961E+01 9.63695E-03 5.40581E-03-1.22330E-01-8.32033E-14-8.23175E-13
 -1        66 2.66111E+01-1.38749E-02-3.95571E-02-9.34842E-02-3.76139E-14-8.65606E-13
 -1        67 2.43883E+01-2.24595E-02-4.62244E-02-6.45544E-02 1.05677E-13-8.30599E-13
 -1        68 2.26292E+01-2.40258E-02-4.10743E-02-4.39367E-02-1.95035E-14-1.17473E-12
 -1        69 2.13122E+01-2.38597E-02-3.82194E-02-2.96413E-02 8.60761E-14-6.40217E-13
 -1        70 2.04157E+01-2.53242E-02-4.08683E-02-1.55851E-02-1.55216E-13-7.79978E-13
 -1        71 1.99894E+01-8.31004E-03-1.81638E-02 2.47274E-02 4.77154E-14-1.34935E-12
 -1        72 2.10419E+01-4.05116E-01-9.80552E-01-3.11627E-01 1.51025E-14 2.90103E-12
 -1        73 1.93308E+01-6.65894E-02-2.90807E-01-5.38568E-02 1.68702E-14 2.47916E-12
 -1        74 1.86869E+01-2.12293E-02-6.37104E-02-2.10351E-02 1.02778E-14 2.11549E-12
 -1        75 1.84849E+01-1.04722E-02-9.05256E-03-1.60812E-02-7.91468E-17 1.89476E-12
 -1        76 1.84957E+01-5.37918E-03 6.14961E-04-1.27002E-02-6.47827E-15 1.77925E-12
 -1        77 1.86085E+01-2.61689E-03 1.69864E-03-1.01795E-02 5.77755E-15 1.69623E-12
 -1        78 1.87670E+01-1.06763E-03 1.91007E-03-8.31852E-03 2.85866E-15 1.58217E-12
 -1        79 1.89399E+01-1.75278E-04 2.11989E-03-6.82078E-03 1.87475E-14 1.43247E-12
 -1        80 1.91096E+01 3.24634E-04 2.24631E-03-5.55193E-03-7.02624E-15 1.23004E-12
 -1        81 1.92665E+01 5.77969E-04 2.23321E-03-4.45545E-03 2.17810E-14 1.15162E-12
 -1        82 1.94058E+01 6.71216E-04 2.09309E-03-3.50571E-03-1.15364E-14 1.17722E-12
 -1        83 1.95263E+01 6.59152E-04 1.86146E-03-2.68706E-03 7.90641E-15 1.06287E-12
 -1        84 1.96285E+01 5.77302E-04 1.57023E-03-1.98712E-03 1.65007E-14 9.38732E-13
 -1        85 1.97147E+01 4.49043E-04 1.24154E-03-1.39487E-03-2.38221E-14 9.60748E-13
 -1        86 1.97878E+01 2.89940E-04 8.88367E-04-9.01205E-04 4.46467E-14 9.02680E-13
 -1        87 1.98515E+01 1.10969E-04 5.17042E-04-5.00371E-04-7.99395E-15 7.34563E-13
 -1        88 1.99100E+01-7.86817E-05 1.30499E-04-1.91936E-04-3.80770E-14 8.47376E-13
 -1        89 1.99676E+01-2.68811E-04-2.67882E-04 1.70787E-05-1.54445E-14 9.71783E-13
 -1        90 2.00290E+01-4.45160E-04-6.69333E-04 1.10153E-04-5.20680E-15 8.52972E-13
 -1        91 2.00988E+01-5.86063E-04-1.05324E-03 5.98512E-05 4.22507E-15 4.78456E-13
 -1        92 2.01814E+01-6.58990E-04-1.37880E-03-1.71992E-04 2.56499E-14 3.87604E-13
 -1        93 2.02799E+01-6.17610E-04-1.57483E-03-6.30757E-04-5.82810E-15 3.71397E-13
 -1        94 2.03962E+01-4.00799E-04-1.52912E-03-1.35943E-03-2.95030E-15 1.50095E-13
 -1        95 2.05287E+01 6.38776E-05-1.08075E-03-2.37901E-03 1.33009E-14 1.91915E-13
 -1        96 2.06711E+01 8.48259E-04-2.30917E-05-3.65454E-03 2.73991E-14 5.82645E-13
 -1        97 2.08098E+01 1.99814E-03 1.86877E-03-5.04368E-03-5.37299E-15 4.06677E-13
 -1        98 2.09222E+01 3.48982E-03 4.76626E-03-6.23156E-03 4.86361E-14 1.40170E-13
 -1        99 2.09749E+01 5.16940E-03 8.65075E-03-6.67148E-03-1.04118E-14-1.75328E-13
 -1       100 2.09251E+01 6.69009E-03 1.31103E-02-5.58017E-03 3.05576E-14-3.51913E-14
 -1       101 2.07251E+01 7.48847E-03 1.71251E-02-2.07136E-03 3.30456E-14 8.17467E-14
 -1       102 2.03342E+01 6.86848E-03 1.90000E-02 4.48210E-03-5.47156E-14 9.68713E-14
 -1       103 1.97359E+01 4.25285E-03 1.66831E-02 1.38542E-02-1.09417E-14 9.68670E-14
 -1       104 1.89591E+01-4.16001E-04 8.65676E-03 2.43657E-02 6.07416E-14-8.38305E-14
 -1       105 1.80923E+01-6.31783E-03-4.78575E-03 3.27698E-02-1.01735E-13-1.39914E-13
 -1       106 1.72793E+01-1.17566E-02-2.05931E-02 3.51847E-02-7.48146E-14 2.43715E-13
 -1       107 1.66871E+01-1.47801E-02-3.34614E-02 2.90576E-02 7.15953E-14 3.76270E-14
 -1       108 1.64519E+01-1.41860E-02-3.82261E-02 1.50919E-02 2.99003E-14-1.67672E-13
 -1       109 1.66255E+01-1.01811E-02-3.27675E-02-2.55124E-03-6.35256E-15 9.05118E-14
 -1       110 1.71532E+01-4.26251E-03-1.93198E-02-1.82353E-02 5.08887E-14-3.01266E-13
 -1       111 1.78964E+01 1.60614E-03-3.11151E-03-2.76383E-02-2.43087E-14-3.64240E-13
 -1       112 1.86849E+01 5.88984E-03 1.05088E-02-2.94589E-02-9.05553E-16 1.13409E-13
 -1       113 1.93732E+01 7.93353E-03 1.84394E-02-2.51782E-02 1.01038E-13 1.17750E-13
 -1       114 1.98729E+01 7.88158E-03 2.02983E-02-1.75755E-02-5.36057E-14-1.51512E-13
 -1       115 2.01591E+01 6.32717E-03 1.75107E-02-9.28651E-03 4.97833E-14-1.74578E-13
 -1       116 2.02565E+01 3.96858E-03 1.19937E-02-2.11774E-03 6.76694E-14-6.30402E-13
 -1       117 2.02206E+01 1.40825E-03 5.32128E-03 2.94549E-03 4.70923E-16-6.30589E-13
 -1       118 2.01195E+01-7.06444E-04-1.31289E-03 5.35740E-03-2.60763E-14-3.24739E-13
 -1       119 2.00231E+01-1.55791E-03-5.37257E-03 3.91652E-03-5.20479E-14-4.83129E-13
 -1       120 1.99875E+01 2.70774E-03 2.90122E-04-2.72098E-03 2.32770E-13-6.05237E-13
 -1       121 1.99993E+01-1.00289E-02-5.69666E-06-5.73586E-03-5.68005E-13 1.18100E-13
 -1       122 1.99951E+01 2.39735E-02-7.38439E-03-1.83087E-03-9.18839E-14-1.90733E-14
 -1       123 1.99937E+01 1.49236E-01-9.13370E-03 1.64574E-03 6.00291E-13 1.12444E-13
 -1       124 1.99932E+01 3.73547E-01-1.02074E-02 5.40660E-03 4.09756E-13 2.15977E-13
 -1       125 1.99938E+01 7.08944E-01-1.01487E-02 1.03328E-02 2.76198E-13-8.35023E-14
 -1       126 1.99959E+01 1.14400E+00-7.75149E-03 1.50828E-02-5.94290E-14 8.84919E-14
 -1       127 1.99999E+01 1.66257E+00-2.03579E-03 1.89696E-02-2.40836E-13-6.15075E-14
 -1       128 2.00054E+01 2.19370E+00 6.73069E-03 1.97668E-02-1.27204E-12 1.70518E-13
 -1       129 2.00114E+01 2.64207E+00 1.69963E-02 1.58854E-02-9.53178E-13 1.81483E-13
 -1       130 2.00163E+01 2.89940E+00 2.60012E-02 6.70399E-03-1.25593E-13-5.56329E-14
 -1       131 2.00178E+01 2.87343E+00 3.01948E-02-7.25494E-03-7.61261E-13-2.52864E-13
 -1       132 2.00158E+01 2.53153E+00 2.70809E-02-2.15055E-02-1.46550E-12 2.18808E-13
 -1       133 2.00084E+01 1.89896E+00 1.41024E-02-3.37948E-02-6.12718E-13 3.70832E-13
 -1       134 1.99960E+01 1.10884E+00-8.51610E-03-3.82102E-02 2.36542E-13-7.21197E-14
 -1       135 1.99935E+01 3.80988E-01-2.90828E-02-1.94330E-02 1.59169E-12 2.93798E-13
 -1       136 1.99930E+01-2.73171E-02-1.78928E-02 2.76554E-02 2.02764E-12-2.28984E-13
 -1       137-1.46360E+00-1.92533E+01-2.98872E+00-3.78219E+00 1.78441E-12 5.51614E-13
 -1       138-1.11201E+00-6.24480E+00-2.02347E+00-2.07692E+00 2.94731E-12 1.54426E-12
 -1       139 5.48499E+00 6.41486E+00-6.32844E-01 6.05077E+00 2.90357E-12 2.22622E-12
 -1       140 1.91536E+01 1.17851E+01 7.46930E-01 1.48660E+01 1.72051E-12 2.17953E-12
 -1       141 3.93309E+01 1.01412E+01 2.08907E+00 1.93718E+01 1.12826E-12 2.08294E-12
 -1       142 5.80925E+01 4.61696E+00 3.06334E+00 1.49396E+01 4.40634E-13 1.61471E-12
 -1       143 6.75779E+01 1.10476E+00 3.50679E+00 3.54359E+00 9.88203E-14 3.87440E-13
 -1       144 6.38809E+01 2.53584E+00 3.33647E+00-1.02384E+01 1.53147E-13-1.00733E-12
 -1       145 4.87972E+01 7.71026E+00 2.59443E+00-1.83776E+01 4.69708E-13-1.27465E-12
 -1       146 2.81159E+01 1.18491E+01 1.39103E+00-1.78703E+01 1.01480E-12-1.39300E-12
 -1       147 1.10471E+01 1.01819E+01 2.05308E-02-1.05688E+01 1.20326E-12-1.26749E-12
 -1       148 8.88717E-01 6.24593E-01-1.38834E+00-1.20768E+00 1.20726E-12-6.84508E-13
 -1       149-1.62040E+00-1.32683E+01-2.56072E+00 3.70468E+00 1.72728E-12-4.94729E-13
 -1       150-9.35490E-01-2.40668E+01-3.28842E+00 2.33492E+00 1.16759E-12-1.31345E-13
 -1       151-9.91927E-01-2.60771E+01-3.50958E+00-2.68330E+00 2.24827E-13 1.02782E-13
 -1       152-2.55778E+00-1.82396E+01-3.20919E+00-5.56269E+00-2.29872E-13 6.57391E-14
 -1       153-7.92591E-01-4.57150E+00-2.27554E+00-1.44595E+00-5.50171E-13-5.09537E-13
 -1       154 8.48546E+00 6.34290E+00-8.74137E-01 7.64438E+00-9.89209E-13-9.08162E-13
 -1       155 2.76362E+01 1.05114E+01 1.01940E+00 1.68289E+01-6.62359E-13-9.85212E-13
 -1       156 5.22311E+01 7.48681E+00 3.04269E+00 1.88803E+01-2.96430E-13-6.55476E-13
 -1       157 7.25546E+01 2.35480E+00 4.63874E+00 9.46000E+00-4.91621E-14 4.21663E-13
 -1       158 6.05666E+01 5.71708E+00 3.70601E+00-1.72119E+01-6.54754E-13 2.29194E-12
 -1       159 3.67430E+01 1.02733E+01 1.82087E+00-1.89769E+01-9.63951E-13 1.83442E-12
 -1       160 1.44971E+01 9.37036E+00-1.74466E-01-1.17033E+01-1.73644E-12 1.84386E-12
 -1       161 1.39720E+00 7.96033E-01-1.77172E+00-1.59437E+00-1.77980E-12 1.34648E-12
 -1       162-2.42782E+00-1.18478E+01-2.82229E+00 4.62594E+00-7.48790E-13 5.40429E-13
 -1       163-1.73530E+00-2.30777E+01-3.41892E+00 4.62485E+00 5.09759E-13-1.56524E-13
 -1       164 2.10131E+01 3.69398E+00-5.73729E-02-3.61053E+00-3.38621E-13-1.78822E-13
 -1       165 1.99909E+01 4.20732E+00-4.58013E-02-2.80932E+00-2.59092E-13-4.62283E-13
 -1       166 1.95068E+01 4.47795E+00-3.17242E-02-2.19523E+00-1.72055E-13-6.07391E-13
 -1       167 1.92683E+01 4.61452E+00-2.38240E-02-1.67488E+00-8.57693E-14-6.56170E-13
 -1       168 1.91373E+01 4.69719E+00-1.95865E-02-1.21917E+00-1.39830E-14-6.48827E-13
 -1       169 1.90637E+01 4.74796E+00-1.74506E-02-7.92259E-01 4.73348E-14-6.29246E-13
 -1       170 1.90267E+01 4.77579E+00-1.64278E-02-3.86980E-01 1.04565E-13-5.87581E-13
 -1       171 1.90158E+01 4.78433E+00-1.61337E-02 8.24835E-03 1.65008E-13-5.42079E-13
 -1       172 1.90284E+01 4.77449E+00-1.64652E-02 4.03820E-01 2.12916E-13-4.90257E-13
 -1       173 1.90674E+01 4.74492E+00-1.75162E-02 8.10167E-01 2.59696E-13-4.24271E-13
 -1       174 1.91418E+01 4.69250E+00-1.96797E-02 1.23176E+00 3.04046E-13-3.28256E-13
 -1       175 1.92770E+01 4.60551E+00-2.39809E-02 1.69844E+00 3.61501E-13-1.74433E-13
 -1       176 1.95242E+01 4.45962E+00-3.26169E-02 2.22592E+00 4.02258E-13 3.10724E-14
 -1       177 2.00125E+01 4.18401E+00-4.71748E-02 2.84811E+00 4.04108E-13 3.50466E-13
 -1       178 2.11345E+01 3.46354E+00-6.00666E-02 3.53642E+00 3.20143E-13 8.80018E-13
 -1       179 2.24190E+01 1.14356E+00-3.36571E-01 3.01487E+00 1.88897E-13 1.52746E-12
 -1       180 2.19710E+01 8.58308E-01 6.07038E-04-1.95900E+00-3.10415E-13 2.34077E-13
 -1       181 2.04468E+01 1.90051E-01-9.98897E-03-7.64279E-01-2.83485E-13 1.15536E-13
 -1       182 1.96710E+01 1.01654E-01 1.35719E-02-2.85913E-01-2.06031E-13 2.04541E-14
 -1       183 1.93311E+01 4.72142E-02 1.00114E-02-6.81646E-02-1.18337E-13-9.37323E-14
 -1       184 1.92013E+01 2.25632E-02 5.17036E-03 3.91466E-02-7.59065E-14-1.87928E-13
 -1       185 1.91877E+01 9.51152E-03 2.42704E-03 9.17770E-02-1.35736E-13-2.20699E-13
 -1       186 1.92364E+01 2.14800E-03 1.12357E-03 1.14153E-01-8.33737E-14-2.80386E-13
 -1       187 1.93200E+01-2.19838E-03 4.93880E-04 1.19161E-01-6.16113E-14-2.90486E-13
 -1       188 1.94113E+01-4.39698E-03 1.54370E-04 1.13889E-01-1.07441E-13-3.24300E-13
 -1       189 1.95034E+01-5.35548E-03-1.87148E-05 1.03490E-01-1.79616E-14-3.34957E-13
 -1       190 1.95901E+01-5.51011E-03-1.09313E-04 9.09785E-02 5.77061E-14-3.55513E-13
 -1       191 1.96687E+01-5.12696E-03-1.43371E-04 7.82885E-02 1.71642E-14-3.89362E-13
 -1       192 1.97384E+01-4.38092E-03-1.38374E-04 6.67460E-02-3.15671E-14-3.86773E-13
 -1       193 1.98002E+01-3.37384E-03-1.04572E-04 5.72793E-02-3.59842E-14-3.24410E-13
 -1       194 1.98557E+01-2.15103E-03-4.73897E-05 5.05971E-02-1.21749E-13-3.58862E-13
 -1       195 1.99079E+01-7.23493E-04 3.68993E-05 4.73171E-02-1.05786E-13-4.35950E-13
 -1       196 1.99629E+01 1.10302E-03 1.37370E-04 4.83351E-02-9.89193E-14-5.63252E-13
 -1       197 2.00202E+01 3.21859E-03 2.77658E-04 5.44837E-02 9.46091E-15-6.14332E-13
 -1       198 2.00879E+01 5.89448E-03 4.51922E-04 6.69100E-02 3.77092E-14-4.87909E-13
 -1       199 2.01732E+01 9.39103E-03 6.79281E-04 8.74262E-02 3.69761E-14-4.16303E-13
 -1       200 2.02851E+01 1.40921E-02 9.78342E-04 1.18621E-01-7.61220E-14-4.47413E-13
 -1       201 2.04354E+01 2.05455E-02 1.37060E-03 1.64217E-01-1.13316E-13-4.83687E-13
 -1       202 2.06399E+01 2.95087E-02 1.87383E-03 2.29496E-01-7.37646E-14-5.77248E-13
 -1       203 2.09191E+01 4.19536E-02 2.47200E-03 3.21795E-01-5.21860E-14-5.67351E-13
 -1       204 2.12996E+01 5.89258E-02 3.17230E-03 4.50327E-01-1.37637E-14-5.97684E-13
 -1       205 2.18445E+01 8.27972E-02 3.65959E-03 6.37305E-01 1.88727E-14-6.46419E-13
 -1       206 2.25433E+01 1.09768E-01 3.56557E-03 8.77228E-01-6.48830E-15-6.62870E-13
 -1       207 2.34570E+01 1.34950E-01 2.23163E-03 1.17672E+00-3.73885E-14-5.23106E-13
 -1       208 2.46109E+01 1.39333E-01-9.91051E-04 1.50833E+00-2.93595E-14-5.83269E-13
 -1       209 2.59896E+01 7.96476E-02-5.28630E-03 1.77348E+00 1.99709E-13-4.96946E-13
 -1       210 2.74942E+01-1.20120E-01-6.86631E-03 1.74356E+00 9.24898E-14-5.29712E-13
 -1       211 2.88905E+01-5.30438E-01-9.16668E-04 1.03265E+00 4.99618E-14-3.49660E-13
 -1       212 2.97633E+01-1.03279E+00 3.34141E-03-7.06599E-01-4.69746E-14-5.94976E-13
 -1       213 2.96294E+01-1.04822E+00-2.48503E-02-2.98119E+00-3.77771E-14-5.75691E-13
 -1       214 2.83771E+01-2.71165E-02-1.13235E-01-4.12579E+00-9.38312E-14-7.52856E-13
 -1       215 2.68355E+01 1.56502E+00-1.77668E-01-2.58811E+00-2.44360E-13-6.51293E-13
 -1       216 2.64594E+01 1.90883E+00-2.02816E-01 1.46799E+00-1.10467E-14-8.13169E-13
 -1       217 2.78923E+01 2.88554E-01-1.27141E-01 3.99508E+00 1.59428E-13-8.30207E-13
 -1       218 2.93253E+01-1.02013E+00-3.32464E-02 3.07706E+00-2.99164E-14-8.70240E-13
 -1       219 2.95095E+01-1.05265E+00 2.36518E-03 7.14897E-01 5.89546E-14-7.08452E-13
 -1       220 2.85354E+01-5.30792E-01-2.41750E-03-1.11986E+00 1.52696E-13-5.60950E-13
 -1       221 2.70520E+01-1.25507E-01-6.16540E-03-1.83718E+00-5.87824E-14-6.35421E-14
 -1       222 2.54486E+01 7.15969E-02-4.90060E-03-1.88193E+00-8.93153E-14-8.62027E-14
 -1       223 2.39609E+01 1.32993E-01-6.57362E-04-1.63417E+00-6.95717E-14-1.95485E-13
 -1       224 2.26943E+01 1.35364E-01 2.82719E-03-1.30988E+00-1.68917E-13-2.58754E-13
 -1       225 2.16791E+01 1.24655E-01 4.33170E-03-9.92258E-01 9.47497E-14-3.13947E-13
 -1       226 2.09135E+01 1.23344E-01 3.77717E-03-6.88642E-01-8.00536E-14-7.72560E-13
 -1       227 2.03811E+01 1.40244E-01 2.95562E-03-3.78488E-01-3.04347E-13-5.73334E-13
 -1       228 2.01123E+01 1.39132E-01-3.35156E-03-1.50410E-01 3.17888E-13-4.41148E-13
 -1       229 2.09637E+01 2.78024E-01-5.08174E-02 1.16536E+00 2.32803E-13 1.35897E-12
 -1       230 1.98738E+01 1.30626E-01 1.00163E-02 4.47068E-01 1.87151E-13 1.17041E-12
 -1       231 1.93688E+01 5.63137E-02 1.34249E-02 1.48949E-01 1.12656E-13 1.01662E-12
 -1       232 1.91563E+01 2.25884E-02 7.34351E-03 7.09561E-03 7.71139E-14 9.04319E-13
 -1       233 1.91036E+01 9.93258E-03 3.58897E-03-6.14468E-02 7.37297E-14 8.12095E-13
 -1       234 1.91377E+01 3.25314E-03 1.73785E-03-9.31465E-02 9.27826E-14 6.92558E-13
 -1       235 1.92161E+01-4.94712E-04 8.81567E-04-1.04393E-01 5.84308E-14 6.22600E-13
 -1       236 1.93136E+01-2.56993E-03 4.49723E-04-1.03908E-01 8.79305E-14 5.99150E-13
 -1       237 1.94156E+01-3.59096E-03 2.10151E-04-9.69172E-02 1.59142E-14 5.55647E-13
 -1       238 1.95137E+01-3.92617E-03 7.04583E-05-8.67344E-02 2.38656E-14 5.46750E-13
 -1       239 1.96037E+01-3.80930E-03-8.48647E-06-7.55266E-02 6.68946E-14 4.45713E-13
 -1       240 1.96839E+01-3.39423E-03-4.73705E-05-6.47281E-02 2.63891E-14 4.21347E-13
 -1       241 1.97544E+01-2.78167E-03-5.91217E-05-5.52936E-02-1.94044E-14 4.34031E-13
 -1       242 1.98166E+01-2.03579E-03-5.27036E-05-4.78648E-02 5.04317E-14 4.27857E-13
 -1       243 1.98727E+01-1.19645E-03-3.47589E-05-4.28807E-02 4.43666E-15 4.95668E-13
 -1       244 1.99254E+01-2.90116E-04-1.06525E-05-4.06460E-02-7.20534E-14 4.97248E-13
 -1       245 1.99780E+01 6.59014E-04 1.47409E-05-4.13612E-02-1.45867E-14 5.15836E-13
 -1       246 2.00336E+01 1.61626E-03 3.63988E-05-4.51115E-02 1.21770E-13 3.86915E-13
 -1       247 2.00958E+01 2.52096E-03 4.86853E-05-5.18111E-02 1.40131E-13 2.74438E-13
 -1       248 2.01673E+01 3.26780E-03 4.51771E-05-6.10923E-02 1.02091E-13 1.87840E-13
 -1       249 2.02506E+01 3.68550E-03 1.90153E-05-7.21334E-02-1.51039E-14 4.27864E-14
 -1       250 2.03462E+01 3.51619E-03-3.58749E-05-8.34248E-02 2.41240E-14 1.08023E-13
 -1       251 2.04527E+01 2.40322E-03-1.22324E-04-9.24900E-02 2.46290E-14 1.85213E-13
 -1       252 2.05648E+01-9.67311E-05-2.36062E-04-9.56173E-02-1.48418E-13 7.29972E-14
 -1       253 2.06724E+01-4.45114E-03-3.61070E-04-8.77188E-02 1.49924E-13 1.26454E-13
 -1       254 2.07594E+01-1.10018E-02-4.66332E-04-6.25290E-02 1.46567E-13 9.04639E-14
 -1       255 2.08029E+01-1.96902E-02-5.08155E-04-1.34593E-02 2.34297E-14 9.81139E-14
 -1       256 2.07742E+01-2.96530E-02-4.43379E-04 6.45241E-02-4.12694E-14 1.34579E-13
 -1       257 2.06428E+01-3.87834E-02-2.56429E-04 1.71778E-01-5.79296E-14 8.34856E-14
 -1       258 2.03833E+01-4.35432E-02 8.73013E-06 2.99967E-01-9.72985E-15 1.14093E-13
 -1       259 1.99864E+01-3.95094E-02 2.39234E-04 4.28646E-01 5.21087E-14 6.69430E-14
 -1       260 1.94713E+01-2.30961E-02 2.89341E-04 5.25280E-01 5.04493E-14 7.88696E-14
 -1       261 1.88946E+01 5.75154E-03 9.16910E-05 5.51905E-01-5.18912E-14 2.09597E-13
 -1       262 1.83474E+01 4.12159E-02-2.62452E-04 4.79348E-01-1.35172E-14 2.00318E-13
 -1       263 1.79370E+01 7.20463E-02-4.65506E-04 3.04454E-01 1.19523E-13 7.26465E-14
 -1       264 1.77532E+01 8.61671E-02-2.57792E-04 5.97921E-02-2.35944E-14 6.47987E-14
 -1       265 1.78346E+01 7.74983E-02 3.59826E-04-1.93976E-01-1.12397E-13-2.86945E-15
 -1       266 1.81528E+01 4.96382E-02 1.06375E-03-3.92069E-01 1.10620E-13-2.18532E-15
 -1       267 1.86235E+01 1.36372E-02 1.45149E-03-4.91933E-01 1.66201E-14 1.33322E-13
 -1       268 1.91384E+01-1.82856E-02 1.31987E-03-4.86710E-01-1.49263E-13 8.87914E-14
 -1       269 1.96008E+01-3.83516E-02 7.80910E-04-4.00440E-01 1.39235E-13-2.85464E-14
 -1       270 1.99478E+01-4.48900E-02 1.03909E-04-2.72009E-01-3.37404E-14-1.18285E-13
 -1       271 2.01566E+01-4.05385E-02-4.46653E-04-1.39181E-01 1.81033E-13-2.71885E-13
 -1       272 2.02379E+01-2.94420E-02-7.56286E-04-2.94964E-02 2.40308E-13-2.03084E-13
 -1       273 2.02242E+01-1.53660E-02-9.03674E-04 4.16841E-02-1.02265E-13-1.50420E-13
 -1       274 2.01580E+01-1.12694E-03-1.01432E-03 6.94730E-02-1.21221E-13-6.61770E-14
 -1       275 2.00800E+01 1.16872E-02-8.69445E-04 5.62485E-02 1.42830E-13-1.10533E-13
 -1       276 2.00231E+01 1.57629E-02 5.41322E-04 1.80593E-02 1.27366E-13-1.65939E-13
 -1       277 2.00229E+01 5.39719E-02 7.69391E-04 4.51709E-02 1.06116E-13 2.44323E-13
 -1       278 2.00278E+01 1.41084E-01 7.17799E-04 1.07042E-01 1.17773E-13 2.52819E-13
 -1       279 2.00325E+01 2.87114E-01 1.13446E-03 1.81695E-01-2.81102E-14 1.14910E-13
 -1       280 2.00347E+01 5.01696E-01 9.77675E-04 2.66320E-01 7.62166E-14 2.77155E-15
 -1       281 2.00301E+01 7.83216E-01 5.24499E-04 3.45937E-01-9.09576E-14-2.59655E-13
 -1       282 2.00156E+01 1.12845E+00-1.66387E-04 4.02608E-01-3.48351E-13-1.98373E-13
 -1       283 1.99904E+01 1.49993E+00-1.04729E-03 4.09628E-01-1.25481E-13-4.79318E-13
 -1       284 1.99578E+01 1.84419E+00-1.90691E-03 3.44628E-01-8.81513E-14 3.64929E-14
 -1       285 1.99250E+01 2.09466E+00-2.53478E-03 1.98559E-01-2.28308E-13 4.10068E-13
 -1       286 1.99025E+01 2.18683E+00-2.71161E-03-1.58828E-02-3.40881E-13-2.07041E-13
 -1       287 1.99004E+01 2.08255E+00-2.34656E-03-2.56154E-01-2.73766E-13-2.67047E-13
 -1       288 1.99254E+01 1.77729E+00-1.58614E-03-4.71940E-01 2.05073E-13 4.42816E-13
 -1       289 1.99792E+01 1.32103E+00-5.56871E-04-5.91982E-01 7.20264E-14 5.92763E-13
 -1       290 2.00512E+01 8.10592E-01 5.97482E-04-5.57880E-01 2.56843E-13 5.85763E-13
 -1       291 2.00972E+01 4.41868E-01-2.12504E-04-3.88273E-01 1.61763E-13 3.07100E-13
 -1       292-4.40086E-01-9.98826E+00-7.31387E-01 2.45955E+00 4.39787E-13 4.55164E-13
 -1       293 3.87730E+00-8.22377E+00-6.86659E-01 4.50005E+00 1.01819E-12 1.20356E-12
 -1       294 1.15115E+01-4.20041E+00-3.75854E-01 6.54885E+00 1.21569E-12 7.87342E-13
 -1       295 2.13946E+01-1.45183E-01 1.66190E-02 7.88947E+00 1.31337E-12 8.83932E-13
 -1       296 3.15549E+01 3.26492E+00 3.90006E-01 7.82510E+00 9.75817E-13 1.33560E-12
 -1       297 4.10597E+01 5.74077E+00 7.80194E-01 6.58530E+00 8.01498E-13 8.73968E-13
 -1       298 4.61752E+01 6.91339E+00 8.87865E-01 2.89967E+00 7.46278E-13 4.25507E-13
 -1       299 4.65978E+01 7.38519E+00 8.54682E-01-9.42227E-01 6.77097E-13 7.39339E-14
 -1       300 4.36762E+01 6.37145E+00 7.94555E-01-4.74246E+00 4.02275E-13-4.62824E-13
 -1       301 3.59119E+01 4.38510E+00 5.00897E-01-6.84140E+00 4.97269E-13-6.78457E-13
 -1       302 2.58729E+01 2.16189E+00 2.15456E-01-8.47063E+00 5.05845E-13-5.65575E-13
 -1       303 1.54503E+01-1.64970E+00-2.13846E-01-7.36557E+00 4.75731E-13-3.83554E-13
 -1       304 6.64671E+00-6.22597E+00-6.09735E-01-5.27663E+00 6.80678E-13-1.17691E-13
 -1       305 1.14188E+00-9.36317E+00-7.45375E-01-3.54864E+00 7.25836E-13-3.71383E-13
 -1       306-1.51308E+00-1.20436E+01-1.02994E+00-1.05096E+00 4.65267E-13-3.85025E-13
 -1       307-2.11667E-01-1.08641E+01-9.24232E-01 1.29788E+00 1.94067E-13-8.75827E-14
 -1       308 6.50425E+00-7.93285E+00-5.75637E-01 4.64273E+00 2.85050E-14-2.95028E-13
 -1       309 1.61175E+01-5.27722E+00-3.89687E-01 5.90525E+00-9.75331E-14-3.36300E-13
 -1       310 2.68629E+01-1.12615E+00-1.37780E-02 6.36971E+00-2.49467E-13-1.17961E-13
 -1       311 3.88288E+01 2.72384E+00 6.22901E-01 5.92627E+00-2.58446E-13-1.78968E-13
 -1       312 4.86389E+01 5.60185E+00 1.24803E+00 3.56079E+00-4.61853E-13 1.28120E-13
 -1       313 5.07217E+01 7.34905E+00 1.27860E+00 1.72776E-01-3.39340E-13 1.08580E-13
 -1       314 5.05524E+01 6.31681E+00 1.36240E+00-2.73531E+00-6.64191E-13 3.00510E-13
 -1       315 4.28657E+01 3.97365E+00 8.69480E-01-5.41859E+00-4.62281E-13 1.08824E-12
 -1       316 3.13274E+01 8.52859E-01 2.43963E-01-6.88818E+00-7.58532E-13 9.40914E-13
 -1       317 1.88653E+01-2.88311E+00-3.45578E-01-6.45193E+00-5.76650E-13 7.59087E-13
 -1       318 8.74829E+00-6.80974E+00-7.35285E-01-4.66792E+00-2.94098E-13 8.43853E-13
 -1       319 2.16241E+00-9.91740E+00-8.83476E-01-2.69389E+00 4.95215E-13 7.82971E-13
 -1       320-1.14425E+00-1.09357E+01-8.51826E-01-4.21153E-01 5.97904E-13-2.17326E-14
 -1       321 2.01459E+01 3.01493E+00-1.78012E-02-2.11043E+00-2.56645E-13-3.83284E-13
 -1       322 2.07546E+01 2.20989E+00-1.78579E-02-2.36362E+00-3.29296E-13-2.28571E-13
 -1       323 1.95829E+01 3.69212E+00-1.56051E-02-1.31871E+00-6.34890E-14-4.91967E-13
 -1       324 1.94608E+01 3.84832E+00-1.36961E-02-9.23993E-01 1.88846E-14-5.01656E-13
 -1       325 1.93919E+01 3.93940E+00-1.27085E-02-5.43966E-01 9.94098E-14-4.70313E-13
 -1       326 1.93614E+01 3.98079E+00-1.22949E-02-1.73294E-01 1.64827E-13-4.28950E-13
 -1       327 1.93628E+01 3.97916E+00-1.23161E-02 1.94381E-01 2.29303E-13-3.88500E-13
 -1       328 1.93961E+01 3.93420E+00-1.27619E-02 5.65428E-01 2.87482E-13-3.29774E-13
 -1       329 1.94668E+01 3.84086E+00-1.37667E-02 9.39469E-01 3.39889E-13-2.64044E-13
 -1       330 1.95935E+01 3.67841E+00-1.56761E-02 1.33371E+00 3.93310E-13-1.44197E-13
 -1       331 1.98082E+01 3.40981E+00-1.90492E-02 1.73983E+00 4.45087E-13 1.15723E-14
 -1       332 2.01754E+01 2.95093E+00-2.32775E-02 2.12410E+00 4.56151E-13 1.90535E-13
 -1       333 2.07592E+01 2.10610E+00-2.94981E-02 2.30741E+00 4.09800E-13 5.59157E-13
 -1       334 2.10926E+01 1.18628E+00-2.41321E-02 1.91482E+00 3.34939E-13 8.62217E-13
 -1       335 2.03813E+01 4.93827E-01 7.81083E-03 9.25462E-01 2.69508E-13 7.56937E-13
 -1       336 2.04582E+01 6.75102E-01 1.25578E-02-1.02602E+00-2.77888E-13-1.38471E-13
 -1       337 2.00360E+01 3.37202E-01 7.18472E-03-4.58218E-01-2.12564E-13-1.28806E-13
 -1       338 1.97820E+01 1.76541E-01 4.16864E-03-1.49046E-01-1.31214E-13-1.23568E-13
 -1       339 1.96465E+01 9.04756E-02 1.90122E-03 2.21532E-02-1.09303E-13-1.39006E-13
 -1       340 1.95911E+01 4.14321E-02 7.78859E-04 1.13385E-01-1.39261E-13-1.19357E-13
 -1       341 1.95868E+01 1.14960E-02 2.77208E-04 1.58036E-01-9.62755E-14-1.76385E-13
 -1       342 1.96121E+01-4.87529E-03 5.16801E-06 1.71358E-01-9.60996E-14-1.74494E-13
 -1       343 1.96526E+01-1.37591E-02-1.15178E-04 1.68079E-01-3.95296E-14-1.05931E-13
 -1       344 1.96998E+01-1.77750E-02-1.75815E-04 1.55745E-01-1.15735E-14-1.36468E-13
 -1       345 1.97482E+01-1.85336E-02-1.93402E-04 1.39382E-01 1.91372E-14-2.78664E-13
 -1       346 1.97952E+01-1.70794E-02-1.82239E-04 1.22415E-01 2.43404E-14-2.12237E-13
 -1       347 1.98395E+01-1.40699E-02-1.50837E-04 1.07224E-01 2.54632E-14-2.13362E-13
 -1       348 1.98814E+01-9.87472E-03-1.04057E-04 9.55493E-02-6.64731E-14-1.69758E-13
 -1       349 1.99219E+01-4.65114E-03-3.92647E-05 8.87688E-02-1.22202E-13-1.19496E-13
 -1       350 1.99648E+01 2.07208E-03 3.62462E-05 8.84106E-02-1.65373E-13-1.45119E-13
 -1       351 2.00087E+01 9.91446E-03 1.35559E-04 9.60207E-02-7.85479E-14-1.39771E-13
 -1       352 2.00588E+01 1.96743E-02 2.58984E-04 1.13221E-01 1.10601E-13-1.60469E-13
 -1       353 2.01190E+01 3.21602E-02 4.18821E-04 1.42518E-01 2.97561E-14-2.96640E-13
 -1       354 2.01942E+01 4.85392E-02 6.31607E-04 1.87350E-01-8.27721E-14-3.31277E-13
 -1       355 2.02902E+01 7.04563E-02 9.18956E-04 2.52489E-01-1.39239E-13-4.27166E-13
 -1       356 2.04137E+01 1.00148E-01 1.30778E-03 3.44494E-01-7.30698E-14-3.42518E-13
 -1       357 2.05728E+01 1.40478E-01 1.81982E-03 4.72194E-01 2.39609E-17-1.22147E-13
 -1       358 2.07766E+01 1.94648E-01 2.48738E-03 6.46724E-01-9.99452E-14-7.90894E-14
 -1       359 2.10486E+01 2.69286E-01 3.32758E-03 8.95601E-01-4.12751E-14-4.92690E-14
 -1       360 2.13726E+01 3.56529E-01 4.01572E-03 1.21006E+00 4.82329E-14 6.71063E-14
 -1       361 2.17698E+01 4.46835E-01 4.35589E-03 1.60709E+00 3.22160E-14 2.52779E-14
 -1       362 2.22532E+01 5.01888E-01 3.61445E-03 2.07483E+00-3.94385E-14 6.79236E-14
 -1       363 2.28541E+01 4.30641E-01 1.19185E-03 2.55366E+00 4.36369E-14 1.13326E-13
 -1       364 2.36584E+01 5.86469E-02-2.04557E-03 2.89002E+00 1.19352E-13-9.38340E-14
 -1       365 2.48611E+01-8.52597E-01-2.46319E-03 2.77123E+00 1.35344E-13-2.64445E-13
 -1       366 2.67600E+01-2.35729E+00-9.21092E-04 1.70861E+00-2.09133E-13-1.56383E-13
 -1       367 2.92677E+01-3.55607E+00-2.46074E-02-5.44310E-01-1.03704E-13-1.57088E-13
 -1       368 3.17816E+01-2.61489E+00-1.13323E-01-3.37082E+00-4.09082E-14-1.01627E-13
 -1       369 3.16874E+01 1.79239E+00-1.57622E-01-4.41337E+00-1.53683E-13-3.73632E-13
 -1       370 3.27714E+01 5.38735E+00-1.59053E-01-8.19004E-01-1.92624E-13-2.58085E-13
 -1       371 3.25905E+01 3.16905E+00-1.40559E-01 3.63899E+00-2.26819E-13-5.88411E-13
 -1       372 3.17726E+01-1.87099E+00-1.58357E-01 3.83766E+00 2.82933E-14-1.19051E-12
 -1       373 2.94012E+01-3.38548E+00-3.61840E-02 8.81182E-01 1.77086E-13-7.46387E-13
 -1       374 2.67679E+01-2.23019E+00-5.22483E-03-1.68934E+00 3.36644E-13-4.35355E-13
 -1       375 2.48801E+01-8.25297E-01-2.79485E-03-2.80651E+00 2.73489E-13-3.76907E-13
 -1       376 2.35956E+01 2.63506E-02-1.86850E-03-2.97665E+00 1.12767E-13-4.30002E-14
 -1       377 2.26737E+01 3.77859E-01 9.93609E-04-2.68391E+00 3.56141E-14 4.71583E-14
 -1       378 2.19502E+01 4.60013E-01 3.62342E-03-2.23165E+00-1.25452E-13 1.76342E-13
 -1       379 2.13578E+01 4.41733E-01 5.14088E-03-1.76307E+00-2.13759E-13-6.63528E-14
 -1       380 2.08710E+01 4.17948E-01 5.90016E-03-1.32550E+00-9.73011E-14-1.49088E-13
 -1       381 2.04651E+01 4.28586E-01 5.10391E-03-9.05475E-01-3.11359E-14 8.96814E-14
 -1       382 1.98404E+01 2.24904E-01 6.86200E-03 2.75560E-01 1.85000E-13 4.71055E-13
 -1       383 1.96461E+01 1.12698E-01 3.32919E-03 4.84237E-02 1.48408E-13 3.75060E-13
 -1       384 1.95555E+01 5.52882E-02 1.49153E-03-7.37691E-02 1.60849E-13 3.19860E-13
 -1       385 1.95329E+01 2.21096E-02 6.09374E-04-1.35593E-01 1.43675E-13 2.76800E-13
 -1       386 1.95508E+01 2.69053E-03 1.72519E-04-1.61424E-01 8.33664E-14 2.09412E-13
 -1       387 1.95909E+01-8.31568E-03-4.87212E-05-1.65778E-01 3.14311E-14 2.48529E-13
 -1       388 1.96416E+01-1.39351E-02-1.61000E-04-1.57856E-01 6.37814E-14 2.56929E-13
 -1       389 1.96956E+01-1.60081E-02-2.08570E-04-1.43683E-01 1.06972E-13 2.15670E-13
 -1       390 1.97487E+01-1.57197E-02-2.14876E-04-1.27286E-01 9.56140E-14 2.13604E-13
 -1       391 1.97987E+01-1.38496E-02-1.93838E-04-1.11380E-01-3.59211E-14 1.59930E-13
 -1       392 1.98452E+01-1.09110E-02-1.54539E-04-9.78087E-02-4.71680E-14 1.73288E-13
 -1       393 1.98886E+01-7.23985E-03-1.03101E-04-8.78348E-02 6.06228E-15 2.05681E-13
 -1       394 1.99301E+01-3.06226E-03-4.39548E-05-8.23286E-02-5.75129E-15 1.62916E-13
 -1       395 1.99713E+01 1.44404E-03 1.91181E-05-8.18743E-02 2.00129E-14 2.99966E-14
 -1       396 2.00144E+01 6.08697E-03 8.19687E-05-8.67998E-02 1.46546E-13-1.75810E-14
 -1       397 2.00615E+01 1.05893E-02 1.38995E-04-9.71250E-02 1.05489E-13-1.42027E-14
 -1       398 2.01147E+01 1.45063E-02 1.82004E-04-1.12421E-01 1.08312E-13 5.40144E-14
 -1       399 2.01759E+01 1.71337E-02 1.99129E-04-1.31570E-01 5.19666E-14 2.88671E-13
 -1       400 2.02463E+01 1.74162E-02 1.74126E-04-1.52418E-01 4.21579E-14 2.47881E-13
 -1       401 2.03263E+01 1.38831E-02 8.66216E-05-1.71350E-01-4.13992E-14 1.58053E-13
 -1       402 2.04143E+01 4.66733E-03-8.57312E-05-1.82836E-01-5.44218E-14 1.46586E-13
 -1       403 2.05065E+01-1.22992E-02-3.61894E-04-1.79100E-01-4.10623E-14-2.61384E-14
 -1       404 2.05960E+01-3.87774E-02-7.47716E-04-1.50185E-01 8.93970E-14 2.32739E-13
 -1       405 2.06718E+01-7.52425E-02-1.22182E-03-8.48250E-02 3.64214E-14 2.39815E-13
 -1       406 2.07188E+01-1.19352E-01-1.71887E-03 2.72975E-02-9.09207E-15 2.34689E-13
 -1       407 2.07177E+01-1.64054E-01-2.11694E-03 1.91371E-01 2.51910E-14 2.58464E-13
 -1       408 2.06472E+01-1.96162E-01-2.24615E-03 4.01295E-01 6.31851E-15 2.79629E-13
 -1       409 2.04886E+01-1.97103E-01-1.93253E-03 6.32800E-01-5.09048E-14 2.65191E-13
 -1       410 2.02344E+01-1.48023E-01-1.07023E-03 8.39429E-01 4.39294E-14 3.78317E-13
 -1       411 1.98982E+01-4.00674E-02 2.61987E-04 9.57060E-01-3.61176E-14 4.31131E-13
 -1       412 1.95243E+01 1.13525E-01 1.81111E-03 9.21962E-01-2.77004E-14 2.67132E-13
 -1       413 1.91858E+01 2.72004E-01 3.09791E-03 7.00755E-01 2.04099E-13 2.79956E-13
 -1       414 1.89661E+01 3.78682E-01 3.90260E-03 3.18918E-01-2.66803E-14 2.52819E-13
 -1       415 1.89245E+01 3.89294E-01 4.00031E-03-1.34649E-01-4.54732E-14 2.43938E-13
 -1       416 1.90673E+01 2.98828E-01 3.32650E-03-5.39870E-01 3.77921E-14-3.49961E-14
 -1       417 1.93445E+01 1.44204E-01 1.99829E-03-7.96883E-01 3.00416E-14-5.86055E-15
 -1       418 1.96740E+01-1.75429E-02 3.80470E-04-8.64828E-01-2.39397E-14 8.22389E-15
 -1       419 1.99770E+01-1.39109E-01-1.03793E-03-7.66539E-01 8.86462E-14-5.52263E-14
 -1       420 2.02017E+01-1.99603E-01-1.97256E-03-5.64236E-01 9.50169E-14-1.34131E-13
 -1       421 2.03289E+01-2.02735E-01-2.30203E-03-3.28030E-01 1.67720E-13-4.16638E-13
 -1       422 2.03651E+01-1.65247E-01-2.05688E-03-1.14167E-01 7.41650E-14-2.24124E-13
 -1       423 2.03314E+01-1.05857E-01-1.40266E-03 4.25650E-02-7.11007E-14 7.60741E-15
 -1       424 2.02539E+01-3.99235E-02-6.99518E-04 1.27101E-01-1.92883E-13 8.10880E-14
 -1       425 2.01607E+01 1.91249E-02 4.03448E-04 1.40174E-01-1.44343E-13 1.11629E-13
 -1       426 2.00818E+01 5.10502E-02 5.18808E-04 1.03243E-01 1.05278E-13 3.81834E-13
 -1       427 2.01339E+01 2.79303E-01 1.35353E-03 3.83089E-01-1.45798E-13 2.08421E-13
 -1       428 2.01188E+01 1.54917E-01 1.28985E-03 2.52431E-01-2.20231E-13-9.46628E-15
 -1       429 2.01294E+01 4.50843E-01 1.00596E-03 5.21900E-01-1.90621E-13-4.02217E-13
 -1       430 2.00924E+01 6.82851E-01 5.58717E-04 6.43427E-01-1.08261E-13-5.05689E-14
 -1       431 2.00144E+01 9.62704E-01-2.82662E-04 7.05200E-01-1.49985E-14-2.11923E-13
 -1       432 1.99002E+01 1.26211E+00-1.31730E-03 6.65238E-01-3.66204E-13-5.30845E-14
 -1       433 1.97705E+01 1.53489E+00-2.32667E-03 4.94416E-01-2.52115E-13 4.88186E-14
 -1       434 1.96601E+01 1.72404E+00-3.01907E-03 1.92855E-01-4.26723E-13-3.73473E-14
 -1       435 1.96099E+01 1.77728E+00-3.17069E-03-1.91063E-01-3.51787E-13-2.06311E-13
 -1       436 1.96513E+01 1.66569E+00-2.76694E-03-5.90599E-01 6.94570E-14 5.19731E-13
 -1       437 1.97996E+01 1.39238E+00-1.52714E-03-8.96663E-01 2.92566E-13 4.65158E-13
 -1       438 2.00369E+01 9.98564E-01 5.59932E-04-1.01193E+00 1.23433E-13 2.99028E-13
 -1       439 2.00394E+01 3.28894E-01 1.05038E-02 5.37184E-01 2.22551E-13 6.32676E-13
 -1       440 1.22251E+01-5.70707E+00-2.60399E-02 7.80784E+00 2.36033E-13 4.93439E-13
 -1       441 2.86189E+01-2.52821E+00 5.70166E-03 4.28447E+00 5.70918E-13 7.65554E-13
 -1       442 1.52710E+00-3.85694E+00 4.13814E-02 1.04641E+00 6.70870E-14-6.34770E-14
 -1       443 2.07265E+01-4.92687E+00-1.93214E-02 7.10837E+00 6.65829E-13 3.83957E-13
 -1       444 1.98032E+01 3.43114E+00-1.76704E-02-1.73827E+00-1.62501E-13-4.71608E-13
 -1       445 3.36689E+01 2.08916E+00 2.97569E-02 1.71902E+00 7.29573E-13 4.90497E-13
 -1       446 3.56175E+01 6.07062E+00-1.20625E-03 8.32750E-02 8.36095E-13 3.23172E-13
 -1       447 3.51146E+01 8.52078E+00-7.02608E-02-2.00565E-01 8.82752E-13 2.41779E-13
 -1       448 3.57909E+01 7.64649E+00-7.46778E-03 1.76643E-01 5.62314E-13 2.53658E-13
 -1       449 3.48159E+01 4.21237E+00 2.09194E-02-6.88316E-01 3.55119E-13 2.56919E-13
 -1       450 3.08184E+01-6.26579E-01 4.41505E-03-3.29515E+00 2.62356E-13-1.29355E-13
 -1       451 2.45452E+01-3.68362E+00 3.15570E-03-6.16978E+00 2.52715E-14-4.57759E-13
 -1       452 1.63093E+01-5.42248E+00-1.13965E-02-7.82885E+00 2.46886E-13 3.93401E-14
 -1       453 7.87393E+00-5.34049E+00-3.49566E-02-7.16032E+00 3.05214E-13 1.63772E-13
 -1       454 1.67593E+00-4.75044E+00-6.74901E-02-3.37664E+00 2.77348E-13-5.46313E-13
 -1       455 1.47115E+00-4.28876E+00-8.35672E-03 9.89933E-01 1.67144E-13-4.97408E-13
 -1       456 6.68096E+00-4.61322E+00 6.37003E-02 5.16653E+00 1.11910E-13-1.03362E-13
 -1       457 1.65282E+01-6.49398E+00-2.68313E-02 6.48335E+00 1.87156E-13-3.97155E-13
 -1       458 2.62430E+01-5.97164E+00-4.74932E-02 4.24599E+00-1.35780E-13 1.59678E-13
 -1       459 3.38517E+01-2.72773E+00 1.26489E-02 8.56458E-01-2.90462E-14 6.53366E-14
 -1       460 3.84210E+01 2.22057E+00 1.17567E-01-1.49529E+00-2.82455E-13 1.53988E-13
 -1       461 4.00413E+01 6.44952E+00 2.26968E-01-1.38430E+00-2.97401E-13 3.79280E-14
 -1       462 3.86762E+01 7.01680E+00 1.21318E-01 8.90779E-01-4.00541E-13-1.56770E-13
 -1       463 3.91502E+01 3.96813E+00 1.47808E-01 1.56568E+00-5.36404E-13-3.57159E-13
 -1       464 3.58110E+01-1.01876E+00 6.61068E-02-7.86743E-02-6.15380E-14 1.32477E-13
 -1       465 2.87315E+01-4.85991E+00-5.53136E-02-3.72749E+00-6.46705E-14 9.99478E-14
 -1       466 1.98805E+01-6.64370E+00-7.20692E-02-6.13351E+00 2.43167E-13 3.66211E-13
 -1       467 1.06127E+01-6.21894E+00-5.64468E-02-6.41019E+00 6.04516E-13 9.28119E-13
 -1       468 3.78507E+00-4.72833E+00-3.62174E-03-3.82644E+00 5.40359E-13 4.04995E-13
 -1       469 4.84070E+00-5.07733E+00-2.77209E-02 5.85822E+00 6.73211E-14 1.18587E-12
 -1       470 1.97335E+01 3.10401E+00-5.34128E-03-6.33869E-01 6.21303E-14-4.33474E-13
 -1       471 1.98300E+01 2.93023E+00-5.72372E-03-9.49767E-01-8.52779E-15-4.26842E-13
 -1       472 1.96659E+01 3.22676E+00-5.02750E-03 8.77387E-03 1.81916E-13-3.58072E-13
 -1       473 1.96845E+01 3.19367E+00-5.12352E-03 3.30373E-01 2.52345E-13-3.17971E-13
 -1       474 1.97382E+01 3.09672E+00-5.43817E-03 6.45929E-01 2.92367E-13-2.75392E-13
 -1       475 1.98363E+01 2.91903E+00-5.94495E-03 9.61509E-01 3.53573E-13-1.69370E-13
 -1       476 1.99922E+01 2.63299E+00-6.57323E-03 1.25627E+00 3.75084E-13-5.14820E-14
 -1       477 2.02227E+01 2.19359E+00-5.82451E-03 1.49033E+00 3.95672E-13 8.51851E-14
 -1       478 2.04780E+01 1.54613E+00-3.25350E-03 1.54282E+00 3.69290E-13 2.91069E-13
 -1       479 2.05330E+01 9.90729E-01 3.18678E-03 1.29818E+00 3.31462E-13 5.08327E-13
 -1       480 2.03437E+01 9.72854E-01 2.78128E-03-9.40270E-01-2.16152E-13-2.29525E-13
 -1       481 1.91946E+01-5.55834E+00 7.23012E-02 7.30746E+00 1.65923E-13 4.84915E-13
 -1       482 1.03923E+01-3.29543E+00 1.47473E-01-5.81980E+00 7.80508E-13 9.58872E-13
 -1       483 2.01716E+01 5.45440E-01 2.34294E-03-4.68066E-01-1.60554E-13-2.00398E-13
 -1       484 2.00241E+01 3.03774E-01 1.12526E-03-1.66711E-01-1.24889E-13-1.78808E-13
 -1       485 1.99233E+01 1.61728E-01 4.53246E-04 1.49906E-02-1.28222E-13-1.69945E-13
 -1       486 1.98628E+01 7.23587E-02 1.67630E-04 1.21378E-01-1.17586E-13-1.26620E-13
 -1       487 1.98370E+01 2.13379E-02 1.12796E-05 1.71076E-01-6.32059E-14-8.51223E-14
 -1       488 1.98322E+01-8.79126E-03-4.72827E-05 1.89228E-01-4.45435E-14-6.26913E-15
 -1       489 1.98408E+01-2.51421E-02-7.86553E-05 1.88247E-01-8.28872E-14-3.57090E-15
 -1       490 1.98572E+01-3.22414E-02-9.02749E-05 1.76669E-01-6.33106E-14-5.91666E-14
 -1       491 1.98778E+01-3.30356E-02-8.84121E-05 1.60421E-01 9.53889E-15-5.48534E-14
 -1       492 1.99004E+01-2.94418E-02-7.72263E-05 1.43649E-01 5.28377E-14-9.57509E-14
 -1       493 1.99239E+01-2.26459E-02-5.94959E-05 1.29329E-01-3.66591E-14-2.31131E-13
 -1       494 1.99481E+01-1.32951E-02-3.29464E-05 1.19690E-01-8.15484E-14-1.93964E-13
 -1       495 1.99746E+01-8.42604E-04-4.21640E-06 1.16733E-01-1.41734E-13-5.13751E-14
 -1       496 2.00016E+01 1.37973E-02 3.37106E-05 1.22633E-01-3.36579E-14 1.02203E-13
 -1       497 2.00317E+01 3.18420E-02 8.08701E-05 1.39059E-01-1.00936E-13 9.29636E-14
 -1       498 2.00660E+01 5.45094E-02 1.40634E-04 1.68542E-01 4.44185E-15-4.82861E-14
 -1       499 2.01059E+01 8.35860E-02 2.19444E-04 2.14333E-01-3.36533E-14-3.76804E-14
 -1       500 2.01527E+01 1.21588E-01 3.25863E-04 2.80730E-01-2.08197E-13-2.55016E-14
 -1       501 2.02068E+01 1.71918E-01 4.71023E-04 3.73400E-01-1.24482E-13-4.27125E-14
 -1       502 2.02674E+01 2.38947E-01 6.66379E-04 4.99696E-01 4.94358E-14-6.62827E-14
 -1       503 2.03321E+01 3.27699E-01 9.11380E-04 6.68751E-01-5.93850E-14-1.75012E-13
 -1       504 2.03971E+01 4.49627E-01 1.30918E-03 9.04454E-01 2.96520E-14-1.31459E-13
 -1       505 2.04444E+01 5.95183E-01 1.64714E-03 1.19731E+00 7.63361E-14 1.82911E-13
 -1       506 2.04637E+01 7.59659E-01 1.97893E-03 1.56759E+00 1.81243E-14 1.61538E-13
 -1       507 2.04414E+01 9.08662E-01 2.13947E-03 2.02200E+00 6.19297E-14 1.99605E-13
 -1       508 2.03854E+01 9.53672E-01 2.29272E-03 2.55619E+00-2.43481E-14 2.43322E-13
 -1       509 2.03702E+01 7.11178E-01 3.83860E-03 3.14535E+00 3.31517E-14 1.22387E-13
 -1       510 2.06280E+01-1.37143E-01 1.24033E-02 3.72296E+00 8.94332E-14-1.50739E-14
 -1       511 2.16945E+01-1.98076E+00 4.05815E-02 4.08452E+00-9.86381E-14-1.23080E-13
 -1       512 2.42229E+01-4.63401E+00 4.19163E-02 3.79634E+00-4.82218E-14 8.20021E-14
 -1       513 2.96780E+01-5.29638E+00-3.31908E-02 7.50312E-01-2.78666E-14 3.40152E-13
 -1       514 1.14848E+01-3.65086E+00 1.34744E-01 7.27497E+00-1.27225E-13 6.61818E-13
 -1       515 2.56009E+01-4.58622E+00 4.65126E-02-3.10674E+00 2.99746E-13-2.01665E-13
 -1       516 2.26696E+01-2.03507E+00 2.21888E-02-3.87779E+00 3.90508E-13-4.87665E-14
 -1       517 2.13615E+01-2.85844E-01 1.20242E-02-3.77144E+00 4.20684E-13 1.98343E-13
 -1       518 2.08593E+01 5.41800E-01 3.28162E-03-3.33204E+00 2.43366E-13 3.21503E-13
 -1       519 2.06635E+01 8.11799E-01 2.21430E-03-2.79496E+00-1.19340E-14 3.21560E-13
 -1       520 2.05499E+01 8.24882E-01 2.72735E-03-2.26529E+00-3.13367E-13 2.20583E-13
 -1       521 2.04329E+01 7.73037E-01 3.21011E-03-1.77697E+00-7.04843E-14 2.56409E-13
 -1       522 2.01680E+01 8.65268E-01 2.39934E-03-1.39569E+00 1.08106E-13 2.04783E-13
 -1       523 1.98525E+01 1.07672E-01 4.31992E-04-7.27619E-02 1.73456E-13 1.45687E-13
 -1       524 1.99339E+01 2.11941E-01 1.02950E-03 6.56441E-02 1.87800E-13 1.58238E-13
 -1       525 2.00675E+01 3.85662E-01 9.58994E-04 3.06085E-01 2.07389E-13 2.02891E-13
 -1       526 1.98121E+01 4.43132E-02 1.40111E-04-1.47426E-01 1.50069E-13 1.21301E-13
 -1       527 1.97998E+01 6.27655E-03 8.73569E-06-1.81131E-01 6.55934E-14 1.05118E-13
 -1       528 1.98057E+01-1.55268E-02-5.93243E-05-1.89476E-01 5.88224E-14 6.61924E-14
 -1       529 1.98224E+01-2.65828E-02-9.04872E-05-1.82954E-01 3.60167E-14 1.01875E-13
 -1       530 1.98449E+01-3.04206E-02-9.99010E-05-1.68759E-01 9.48150E-14 1.76330E-13
 -1       531 1.98700E+01-2.93760E-02-9.49947E-05-1.51835E-01 6.67526E-14 1.89795E-13
 -1       532 1.98960E+01-2.50107E-02-8.05343E-05-1.35592E-01 3.35061E-14 1.61496E-13
 -1       533 1.99220E+01-1.83657E-02-5.95623E-05-1.22388E-01 1.12106E-14-1.37108E-14
 -1       534 1.99481E+01-1.01417E-02-3.42338E-05-1.13871E-01 5.55526E-14-8.43598E-14
 -1       535 1.99747E+01-8.44747E-04-6.20867E-06-1.11179E-01 3.93041E-14-9.72882E-14
 -1       536 2.00028E+01 9.07536E-03 2.29236E-05-1.15061E-01 8.24293E-14-1.01662E-13
 -1       537 2.00335E+01 1.90791E-02 5.11842E-05-1.25881E-01 1.02599E-13 1.27498E-14
 -1       538 2.00683E+01 2.83733E-02 7.56798E-05-1.43525E-01 8.22491E-14 7.13551E-14
 -1       539 2.01089E+01 3.57271E-02 9.20453E-05-1.67188E-01 6.04942E-15 6.50247E-14
 -1       540 2.01568E+01 3.92769E-02 9.39355E-05-1.95041E-01-2.07828E-14 1.20386E-13
 -1       541 2.02137E+01 3.63589E-02 7.27394E-05-2.23771E-01 2.81896E-14 2.16908E-13
 -1       542 2.02812E+01 2.34461E-02 1.78494E-05-2.48038E-01-2.07842E-14 2.12135E-13
 -1       543 2.03605E+01-3.66637E-03-8.19915E-05-2.59943E-01-2.35574E-14 2.32186E-13
 -1       544 2.04516E+01-4.91984E-02-2.35455E-04-2.48693E-01-5.15444E-14 2.70308E-13
 -1       545 2.05533E+01-1.15941E-01-4.43005E-04-2.00848E-01-1.72611E-14 1.36870E-13
 -1       546 2.06611E+01-2.02732E-01-6.89597E-04-1.01684E-01 6.57937E-14 2.19155E-13
 -1       547 2.07657E+01-3.00825E-01-9.33438E-04 6.15067E-02-6.57791E-14 1.04608E-13
 -1       548 2.08507E+01-3.89890E-01-1.09311E-03 2.93394E-01-1.41423E-13 3.22781E-13
 -1       549 2.08919E+01-4.36026E-01-1.06329E-03 5.81600E-01 4.69327E-14 4.05568E-13
 -1       550 2.08598E+01-3.96267E-01-7.62634E-04 8.86526E-01 3.97937E-14 1.93898E-13
 -1       551 2.07310E+01-2.34326E-01-1.63790E-04 1.13611E+00 1.63334E-14 3.92015E-14
 -1       552 2.05057E+01 5.29075E-02 5.46383E-04 1.23537E+00 7.05396E-14 6.96369E-14
 -1       553 2.02271E+01 4.09927E-01 1.23569E-03 1.09930E+00 6.67184E-14-2.09728E-14
 -1       554 1.99804E+01 7.22432E-01 1.36146E-03 7.03800E-01-5.74538E-14 2.30938E-14
 -1       555 1.98615E+01 8.62797E-01 1.59479E-03 1.25873E-01 3.43021E-14-5.76258E-14
 -1       556 1.99173E+01 7.68648E-01 1.81339E-03-4.70763E-01 1.30147E-13-3.01201E-14
 -1       557 2.01170E+01 4.80104E-01 1.53519E-03-9.13838E-01 8.84062E-14-1.06390E-13
 -1       558 2.03715E+01 1.16058E-01 7.73921E-04-1.10219E+00-1.52733E-13 5.29237E-14
 -1       559 2.05879E+01-1.98581E-01 2.44706E-05-1.03856E+00-2.86347E-14 1.35573E-13
 -1       560 2.07106E+01-3.90129E-01-6.53866E-04-8.01029E-01 4.18011E-14 1.82615E-13
 -1       561 2.07303E+01-4.47412E-01-1.06981E-03-4.90567E-01 1.82677E-13 1.21768E-13
 -1       562 2.06676E+01-3.99993E-01-1.16907E-03-1.91644E-01 1.30946E-13 6.01348E-14
 -1       563 2.05534E+01-2.89884E-01-7.90885E-04 4.27649E-02-1.27636E-13-1.58295E-13
 -1       564 2.04143E+01-1.53693E-01-2.98553E-04 1.88649E-01-1.44177E-13 1.42080E-13
 -1       565 2.02721E+01-2.06286E-02 2.05442E-05 2.44010E-01-4.10068E-14 1.40428E-13
 -1       566 2.02478E+01 2.77008E-01 5.74333E-04 7.62418E-01 4.95539E-14-1.33450E-14
 -1       567 2.02845E+01 1.43181E-01 5.75925E-04 5.77522E-01-3.45549E-13-1.96951E-13
 -1       568 2.02604E+01 6.69268E-02-2.16104E-04 3.92003E-01-2.11468E-14-2.12260E-14
 -1       569 5.94569E+00-1.68155E+00 1.84590E-01 4.14398E+00 2.17264E-13 5.97189E-13
 -1       570 2.01326E+01 4.79575E-01 1.37421E-04 9.11056E-01-4.59539E-15-1.21533E-13
 -1       571 1.99318E+01 7.47147E-01-3.79265E-04 9.59157E-01-9.95315E-14-4.25374E-13
 -1       572 1.96695E+01 1.05178E+00-8.80599E-04 8.50084E-01-2.83783E-13 1.49151E-13
 -1       573 1.94041E+01 1.33998E+00-1.25053E-03 5.52806E-01-2.76307E-13 1.40952E-13
 -1       574 1.92206E+01 1.54022E+00-1.36665E-03 9.54733E-02-2.11627E-13-2.24632E-13
 -1       575 1.91939E+01 1.59629E+00-1.44476E-03-4.59061E-01-9.53215E-14 2.03769E-13
 -1       576 1.93820E+01 1.46846E+00-1.62930E-03-9.76457E-01-1.49882E-13 4.65840E-13
 -1       577 1.97192E+01 1.21342E+00-2.05050E-04-1.29403E+00 5.80915E-14 4.75347E-13
 -1       578 2.69353E+01-6.09758E+00 3.59985E-02-3.37308E+00 2.25583E-13-4.06758E-13
 -1       579 2.03970E+01 1.75566E+00-5.96520E-03-1.53727E+00-2.55343E-13-3.06433E-13
 -1       580 3.00968E+01-1.57578E+00-6.32748E-02 5.65472E-01 6.38094E-13 1.49679E-13
 -1       581 3.04690E+01-4.90042E+00-5.65700E-02-6.01064E-02 2.74062E-13-3.11744E-13
 -1       582 1.96815E+01 3.19811E+00-5.09971E-03-3.12898E-01 1.28862E-13-4.08223E-13
 -1       583 3.03071E+01 6.48414E+00-1.89116E-01-1.40276E+00 7.46972E-13-2.58162E-14
 -1       584 3.12974E+01 2.94476E+00-1.35182E-01-1.24787E+00 5.84449E-13 3.25781E-14
 -1       585 3.04239E+01 7.79603E+00-1.95203E-01 5.79262E-01 6.92002E-13 1.43737E-13
 -1       586 3.03544E+01 4.94498E+00-1.70782E-01 1.74679E+00 2.96305E-13 3.70537E-14
 -1       587 3.06403E+01 3.54461E-01-1.03523E-01 4.82799E-01 1.61777E-13 4.23446E-13
 -1       588 2.78169E+01-3.94460E+00-4.29957E-02-2.96294E+00-1.62800E-13 2.44034E-13
 -1       589 2.28535E+01-5.38594E+00 4.86960E-02-6.09619E+00-5.95426E-14-1.24217E-13
 -1       590 1.45228E+01-4.56668E+00 1.06656E-01-7.79771E+00 2.39309E-13 1.68560E-13
 -1       591 7.51310E+00-2.29005E+00 1.59969E-01-5.88571E+00 5.50324E-14-1.60982E-14
 -1       592 4.14719E+00-1.28201E+00 1.82502E-01-1.41888E+00-2.38889E-14-5.33573E-13
 -1       593 6.70226E+00-1.18490E+00 2.01144E-01 2.96714E+00-4.95298E-14-2.35770E-13
 -1       594 1.45563E+01-3.95349E+00 1.08710E-01 6.18376E+00 1.58838E-13-4.89275E-13
 -1       595 2.42112E+01-6.14622E+00 5.38359E-02 4.46495E+00 8.90676E-14 1.89513E-13
 -1       596 2.56017E+01-5.20915E+00-8.67393E-03 4.62076E+00 3.27120E-13 4.58397E-13
 -1       597 1.82330E+01-5.32547E+00 7.57355E-02-6.30374E+00 8.07104E-13 3.07903E-13
 -1       598 5.00494E+00-1.48286E+00 1.81033E-01-1.84757E+00 1.12594E-13-5.32616E-13
 -1       599 1.99730E+01 2.64919E+00-9.82622E-03-1.23929E+00-1.10637E-13-4.19983E-13
 -1       600 2.02659E+01 6.54600E-01 6.22338E-03 7.96265E-01 2.57220E-13 3.90915E-13
 -1       601 6.91188E+00 1.74862E-02 1.87153E-01 1.29039E+00 4.08811E-13 2.67203E-13
 -1       602 2.01388E+01 5.00549E-01 3.45315E-03 5.17656E-01 2.47108E-13 2.77593E-13
 -1       603 3.42455E+01 3.84153E-01-1.47942E-01-2.93620E+00-1.39944E-13 4.51028E-15
 -1       604 1.23760E+01-1.23787E+00 1.44299E-01 4.75139E+00-5.72910E-14-1.80793E-13
 -1       605 2.76681E+01 6.84942E+00-1.55621E-01-5.64928E-01 6.64288E-13 1.20017E-14
 -1       606 3.35803E+01 3.20476E-01-1.87586E-01 3.10315E+00-2.27859E-13-7.38035E-13
 -1       607 1.99615E+01 2.44910E+00-1.69223E-03 3.93847E-01 2.38064E-13-2.47999E-13
 -1       608 1.99291E+01 2.52461E+00-1.52324E-03 1.35695E-01 1.88948E-13-2.94943E-13
 -1       609 2.01200E+01 2.04593E+00-1.81322E-03 8.51696E-01 3.21493E-13-8.93704E-14
 -1       610 2.02425E+01 1.68197E+00-1.86748E-03 1.00187E+00 3.26901E-13 3.43375E-14
 -1       611 2.03630E+01 1.02674E+00 3.52065E-03 1.01076E+00 2.98207E-13 2.16797E-13
 -1       612 2.02393E+01 6.75319E-01 6.48045E-04-3.94801E-01-1.03168E-13-2.42019E-13
 -1       613 2.01673E+01 3.92018E-01 2.27897E-04-1.39846E-01-9.01303E-14-2.13899E-13
 -1       614 2.00993E+01 2.05505E-01 5.85919E-05 2.83197E-02-8.67757E-14-1.26421E-13
 -1       615 2.00501E+01 9.44985E-02-5.01325E-06 1.20833E-01-5.38417E-14-9.12473E-14
 -1       616 2.00161E+01 2.53147E-02-1.94031E-05 1.68461E-01-2.11212E-14-4.02966E-14
 -1       617 1.99947E+01-1.56963E-02-2.85183E-05 1.86596E-01-2.52502E-14-3.03585E-14
 -1       618 1.99830E+01-3.75104E-02-3.22476E-05 1.86559E-01-6.85869E-14 1.61220E-14
 -1       619 1.99781E+01-4.61137E-02-3.22003E-05 1.76525E-01-1.71251E-14 8.85790E-14
 -1       620 1.99781E+01-4.55206E-02-2.92945E-05 1.62343E-01-5.19488E-15 7.74346E-14
 -1       621 1.99816E+01-3.83560E-02-2.46976E-05 1.48225E-01-9.92504E-14-3.19182E-14
 -1       622 1.99877E+01-2.62306E-02-1.62760E-05 1.37248E-01-1.74758E-15 8.16846E-16
 -1       623 1.99959E+01-8.92671E-03-7.97136E-06 1.31800E-01 1.41329E-14 3.99089E-14
 -1       624 2.00052E+01 1.18579E-02 1.75389E-06 1.34553E-01-2.49884E-14 1.94800E-13
 -1       625 2.00154E+01 3.74230E-02 1.48840E-05 1.47057E-01-1.05471E-13 2.02702E-13
 -1       626 2.00261E+01 6.90747E-02 3.04926E-05 1.71524E-01-8.50838E-14 2.80467E-13
 -1       627 2.00363E+01 1.08830E-01 5.05130E-05 2.10526E-01-7.10893E-14 2.01172E-13
 -1       628 2.00439E+01 1.59565E-01 7.72008E-05 2.67190E-01-1.93391E-13 1.34423E-13
 -1       629 2.00457E+01 2.25161E-01 1.13366E-04 3.45344E-01-1.17695E-13 1.35861E-13
 -1       630 2.00359E+01 3.10606E-01 1.62678E-04 4.49586E-01-1.31326E-13 1.00179E-13
 -1       631 2.00054E+01 4.21759E-01 2.02540E-04 5.85313E-01-1.58310E-13 4.07893E-15
 -1       632 1.99346E+01 5.73024E-01 3.44304E-04 7.68116E-01 4.76474E-15-8.92725E-14
 -1       633 1.98067E+01 7.54888E-01 4.06542E-04 9.87364E-01 2.25292E-13-6.27908E-14
 -1       634 1.95900E+01 9.70340E-01 4.75687E-04 1.25700E+00 1.00656E-13-1.08542E-13
 -1       635 1.92453E+01 1.20001E+00 4.50454E-04 1.58490E+00 5.36951E-14 5.30450E-14
 -1       636 1.87325E+01 1.38838E+00 6.68331E-04 1.98638E+00-5.50859E-14 4.68173E-14
 -1       637 1.80315E+01 1.40981E+00 2.87879E-03 2.49585E+00-1.27532E-13 1.81721E-13
 -1       638 1.71846E+01 1.02908E+00 1.33560E-02 3.19958E+00-9.27594E-14-2.46895E-14
 -1       639 1.63982E+01-1.77280E-01 5.16160E-02 4.22304E+00-1.08611E-13-2.18749E-13
 -1       640 1.78813E+01-2.89344E+00 1.22662E-01 5.30793E+00 5.94698E-14-3.30822E-13
 -1       641 1.63349E+01-2.67423E+00 9.99356E-02-5.71325E+00 6.35516E-13 6.77666E-13
 -1       642 2.04576E+01-1.45088E-01 8.62650E-05 3.96458E-01-1.92688E-13-1.04206E-13
 -1       643 1.79320E+01-6.11007E-01 4.27199E-02-4.54106E+00 2.99136E-13 6.73226E-13
 -1       644 1.81685E+01 7.15956E-01 1.06064E-02-3.62210E+00 3.47892E-13 4.48091E-13
 -1       645 1.86998E+01 1.18782E+00 2.69890E-03-2.93862E+00-1.39931E-13-1.02505E-13
 -1       646 1.91986E+01 1.25034E+00 9.94029E-04-2.39713E+00-2.66363E-13-1.69874E-13
 -1       647 1.95723E+01 1.17135E+00 2.09474E-04-1.94191E+00-8.71816E-14 2.60639E-13
 -1       648 1.96338E+01 1.18163E+00 1.02366E-03-1.60256E+00-8.80361E-14 5.66275E-13
 -1       649 2.01107E+01 2.85735E-01 1.60312E-04 5.38734E-02 1.96040E-13 1.80379E-14
 -1       650 2.00503E+01 1.46689E-01 8.90261E-05-7.53017E-02 1.53245E-13 2.32230E-14
 -1       651 2.01943E+01 4.94094E-01-7.12705E-04 2.67344E-01 2.20327E-13 2.53276E-14
 -1       652 1.99811E+01 5.73142E-03-1.73518E-05-1.80793E-01 9.00583E-14 4.47981E-14
 -1       653 1.99667E+01-2.48826E-02-3.01190E-05-1.89993E-01 2.27691E-14 4.52574E-14
 -1       654 1.99608E+01-3.98971E-02-3.45408E-05-1.84694E-01 1.34868E-14 8.06029E-15
 -1       655 1.99609E+01-4.42272E-02-3.40192E-05-1.72001E-01 7.70080E-14 6.99051E-14
 -1       656 1.99649E+01-4.12219E-02-3.04194E-05-1.56934E-01 8.74611E-14 4.61929E-14
 -1       657 1.99716E+01-3.31526E-02-2.43554E-05-1.43033E-01 1.36496E-13-3.37997E-14
 -1       658 1.99803E+01-2.15574E-02-1.64958E-05-1.32802E-01 9.68473E-14-8.16223E-14
 -1       659 1.99905E+01-7.50605E-03-7.46414E-06-1.28024E-01 3.22766E-14-1.35188E-13
 -1       660 2.00023E+01 8.17064E-03 2.21499E-06-1.29962E-01-2.76417E-14-5.93475E-14
 -1       661 2.00162E+01 2.46492E-02 1.20104E-05-1.39453E-01 5.93437E-14-7.28279E-14
 -1       662 2.00327E+01 4.08663E-02 2.12368E-05-1.56902E-01-1.44283E-14-2.78048E-14
 -1       663 2.00531E+01 5.52419E-02 2.88114E-05-1.82156E-01 6.41011E-14 5.11294E-14
 -1       664 2.00790E+01 6.53738E-02 3.30524E-05-2.14258E-01-5.19685E-14 2.27660E-14
 -1       665 2.01128E+01 6.77362E-02 3.14706E-05-2.51055E-01 9.01580E-15 3.00589E-15
 -1       666 2.01579E+01 5.74554E-02 2.06436E-05-2.88677E-01-5.10347E-14 1.89878E-14
 -1       667 2.02185E+01 2.83150E-02-3.76588E-06-3.20894E-01-2.00453E-14 9.90552E-14
 -1       668 2.03002E+01-2.67455E-02-4.66115E-05-3.38433E-01-3.76437E-14 2.19816E-14
 -1       669 2.04093E+01-1.14234E-01-1.11635E-04-3.28450E-01-1.10842E-14 1.04781E-14
 -1       670 2.05511E+01-2.37287E-01-1.99110E-04-2.74523E-01-2.34159E-14 1.53957E-14
 -1       671 2.07280E+01-3.90960E-01-3.06610E-04-1.57879E-01 7.41633E-14 7.44468E-14
 -1       672 2.09342E+01-5.55621E-01-4.14895E-04 3.89659E-02-1.61742E-13 9.20344E-14
 -1       673 2.11499E+01-6.90033E-01-4.53180E-04 3.24424E-01-3.57237E-14 1.13802E-15
 -1       674 2.13362E+01-7.28891E-01-3.56340E-04 6.84248E-01 5.78699E-14-1.03003E-13
 -1       675 2.14380E+01-5.94838E-01-1.51677E-04 1.06370E+00 5.90999E-14-2.99484E-14
 -1       676 2.14040E+01-2.33859E-01 1.66613E-04 1.35736E+00 9.57554E-14-2.57917E-14
 -1       677 2.12227E+01 3.30632E-01 1.73690E-04 1.42438E+00 7.33127E-14-4.64947E-14
 -1       678 2.09609E+01 9.52744E-01 4.21300E-04 1.14975E+00 5.50698E-15-4.42145E-14
 -1       679 2.07498E+01 1.39434E+00-3.79464E-04 5.35804E-01-3.68826E-14-9.05754E-14
 -1       680 2.07219E+01 1.43866E+00 4.94450E-04-2.38367E-01 6.53444E-14 1.51743E-13
 -1       681 2.08891E+01 1.06745E+00 8.84742E-04-9.06681E-01-7.97189E-15 4.39120E-14
 -1       682 2.11431E+01 4.55854E-01 4.11466E-04-1.25939E+00-2.17698E-14 3.02921E-14
 -1       683 2.13445E+01-1.49111E-01 4.18233E-04-1.25223E+00-3.07746E-14-2.95785E-13
 -1       684 2.14038E+01-5.66770E-01 4.94981E-05-9.81611E-01-1.12794E-14-3.00899E-13
 -1       685 2.13154E+01-7.43490E-01-3.47520E-04-5.94311E-01 8.67290E-14-1.41268E-13
 -1       686 2.11239E+01-7.17191E-01-6.79068E-04-2.12978E-01-4.61813E-14 1.73748E-13
 -1       687 2.08894E+01-5.63695E-01-6.90889E-04 8.76441E-02 2.92508E-13 3.08655E-13
 -1       688 2.06689E+01-3.65028E-01-4.35883E-04 2.92393E-01-1.05420E-13 4.07064E-16
 -1       689 2.04728E+01-9.52782E-02 4.63757E-04 7.56036E-01 7.91033E-14 4.48224E-14
 -1       690 2.01148E+01 2.24622E-01-1.38095E-05 1.18637E+00 2.76324E-14-3.80197E-13
 -1       691 1.10952E+01-1.16308E+00 1.32257E-01 5.26600E+00 1.74021E-13 7.89382E-13
 -1       692 1.97232E+01 5.39511E-01-2.88973E-04 1.21750E+00-1.23413E-14-2.58572E-13
 -1       693 1.92554E+01 9.18779E-01-4.88261E-04 1.02087E+00-2.09422E-14 1.22798E-13
 -1       694 1.88414E+01 1.27595E+00-4.50015E-04 5.75179E-01-2.43542E-14-5.12358E-14
 -1       695 1.86188E+01 1.52157E+00-2.12017E-04-8.50105E-02 1.36934E-13-1.85188E-13
 -1       696 1.87211E+01 1.56207E+00-1.43102E-03-8.16114E-01-2.61246E-14 2.45796E-13
 -1       697 9.89325E+00-6.49624E-01 1.63266E-01-3.85208E+00 2.39257E-13 1.55938E-13
 -1       698 2.02808E+01 1.67899E+00 1.08830E-04-1.14096E+00-1.81254E-13-3.26734E-13
 -1       699 2.78248E+01-2.47147E+00-5.50258E-02-7.70102E-03-5.95739E-14 1.71658E-13
 -1       700 2.72102E+01-3.93792E+00-2.77591E-02 1.40484E+00-1.91413E-13-1.41678E-13
 -1       701 2.02908E+01 1.07622E+00-1.63272E-04-7.23231E-01-1.45023E-13-2.85031E-13
 -1       702 2.00248E+01 2.29432E+00-1.84175E-03 6.38201E-01 2.79491E-13-1.75967E-13
 -1       703 2.27876E+01-5.18713E+00 3.32786E-02 5.29328E+00-1.48988E-13 1.05728E-13
 -1       704 2.00077E+01 5.92486E-02 1.76683E-05-1.47088E-01 1.17267E-13 6.34763E-14
 -1       705 2.03653E+01 1.47020E-02 4.01467E-04 1.00507E+00-1.38780E-13 2.11394E-14
 -1       706 2.00194E+01 2.30521E+00-1.55391E-03-6.29624E-01 1.75368E-14-3.64750E-13
 -1       707 1.69653E+01-3.73360E+00 9.71845E-02 6.74202E+00-1.10734E-13 1.91645E-13
 -1       708 1.32692E+01-2.27077E+00 1.18346E-01-6.54306E+00-2.90948E-14 2.18249E-13
 -1       709 2.81911E+01 3.59729E+00-1.32350E-01-2.06809E+00 6.27248E-13-1.72608E-13
 -1       710 2.69088E+01 5.56506E+00-1.43679E-01 1.54035E+00 4.88914E-13 2.51963E-13
 -1       711 2.82018E+01 1.63312E+00-1.10576E-01 2.03236E+00 1.04597E-13 1.68497E-13
 -1       712 2.53583E+01-4.76802E+00 3.96752E-03-3.50868E+00-1.50192E-13 1.85810E-13
 -1       713 1.98124E+01-4.67307E+00 6.47324E-02-6.45901E+00 2.73080E-14 1.03154E-13
 -1       714 8.56750E+00 2.25892E-01 1.49883E-01-3.18515E+00-1.70616E-13-4.33577E-13
 -1       715 8.47764E+00 8.16591E-01 1.60107E-01 3.27976E-01-3.08013E-13-4.19380E-13
 -1       716 2.87677E+01 1.22005E-01-8.89610E-02-1.44904E+00 4.82218E-13-1.12743E-13
 -1       717 1.99283E+01 2.52598E+00-1.50633E-03-1.26511E-01 1.32132E-13-3.45333E-13
 -1       718 1.16402E+01 8.05363E-01 1.06061E-01 2.63884E+00-2.97591E-13-7.81215E-14
 -1       719 1.04986E+01 3.58966E-01 1.18489E-01 3.12534E+00 2.83697E-13 5.05151E-13
 -1       720 2.01197E+01 2.06291E+00-1.15170E-03-8.54626E-01-6.31494E-14-3.21505E-13
 -1       721 9.51923E+00 7.78899E-01 1.37855E-01-1.33450E+00 3.41656E-13-2.56052E-13
 -1       722 1.91082E+01 1.43171E+00 1.55559E-03-1.29796E+00-1.53615E-13 5.85643E-13
 -1       723 2.02721E+01 8.57882E-01 2.14722E-03 5.83354E-01 2.43685E-13 5.98654E-14
 -1       724 2.63542E+01 4.90914E+00-1.01360E-01-1.60055E+00 5.62196E-13 1.11378E-13
 -1       725 1.99580E+01 2.45503E+00-1.53207E-03-3.84440E-01 8.57426E-14-3.57653E-13
 -1       726 2.02784E+01 1.28677E+00-3.06539E-04 6.25195E-01 2.78246E-13-2.47719E-14
 -1       727 2.02617E+01 4.27051E-01-7.09299E-05-8.99171E-02-2.95431E-14-1.37999E-13
 -1       728 2.02216E+01 2.31164E-01-1.05016E-05 3.84873E-02-6.29364E-14-9.91649E-14
 -1       729 2.01805E+01 1.03045E-01-8.72240E-06 1.15199E-01-3.71283E-14-1.26155E-13
 -1       730 2.01433E+01 2.23596E-02-5.84473E-06 1.55070E-01-3.00063E-14-1.38541E-13
 -1       731 2.01119E+01-2.51814E-02-6.43055E-06 1.70279E-01-7.31502E-15-1.04157E-13
 -1       732 2.00864E+01-4.95070E-02-6.62374E-06 1.70252E-01-2.59992E-14-5.11464E-14
 -1       733 2.00663E+01-5.75260E-02-6.54787E-06 1.62035E-01 1.02465E-14 1.82498E-14
 -1       734 2.00507E+01-5.39653E-02-6.63798E-06 1.50807E-01-4.64258E-14 7.89746E-14
 -1       735 2.00387E+01-4.19405E-02-5.16845E-06 1.40349E-01-7.86526E-15 1.07157E-13
 -1       736 2.00291E+01-2.21092E-02-2.53933E-06 1.33353E-01 3.87392E-15 6.56843E-14
 -1       737 2.00214E+01 2.85902E-03-2.62392E-06 1.32805E-01 6.53030E-14 1.50253E-13
 -1       738 2.00139E+01 3.38650E-02-9.20209E-08 1.40121E-01 3.21371E-14 1.91470E-13
 -1       739 2.00050E+01 7.19228E-02 2.28701E-06 1.57087E-01-1.28940E-13 1.76874E-13
 -1       740 1.99921E+01 1.18840E-01 5.12916E-06 1.85474E-01-9.67271E-14 4.22182E-14
 -1       741 1.99719E+01 1.77300E-01 8.95576E-06 2.27116E-01-9.89692E-14 3.49962E-14
 -1       742 1.99392E+01 2.50944E-01 1.42765E-05 2.83884E-01-1.75846E-13 2.27604E-13
 -1       743 1.98861E+01 3.44432E-01 2.28488E-05 3.57539E-01-2.36054E-13 7.96034E-14
 -1       744 1.98014E+01 4.63252E-01 5.25260E-06 4.49559E-01-1.86636E-13-9.53588E-14
 -1       745 1.96593E+01 6.21999E-01 6.31069E-05 5.66319E-01-2.47643E-14-4.90768E-14
 -1       746 1.94471E+01 8.11250E-01 4.61716E-05 6.95921E-01 1.36793E-13 1.05490E-13
 -1       747 1.91253E+01 1.03857E+00 1.44821E-05 8.41055E-01 4.83388E-14-3.97211E-14
 -1       748 1.86455E+01 1.29621E+00-1.24528E-04 9.98582E-01 1.75287E-13-1.11627E-13
 -1       749 1.79438E+01 1.55772E+00-3.46708E-04 1.16863E+00 1.08320E-13-1.98065E-13
 -1       750 1.69268E+01 1.76775E+00 4.97265E-04 1.37271E+00-2.88359E-14-1.06844E-13
 -1       751 1.55037E+01 1.79073E+00 8.82852E-03 1.66036E+00-2.09315E-13-1.34481E-14
 -1       752 1.44530E+01 1.03149E+00 4.45593E-02-3.04443E+00 9.85293E-14 9.30410E-14
 -1       753 1.61517E+01 1.57520E+00 7.18185E-03-2.36847E+00 1.27869E-13-9.47698E-14
 -1       754 1.74500E+01 1.64138E+00 2.89367E-04-1.95498E+00-9.89670E-14 4.11657E-13
 -1       755 1.83966E+01 1.54474E+00-3.80016E-04-1.64881E+00-1.94172E-14 6.68175E-13
 -1       756 2.02304E+01 3.17651E-01-7.83349E-04 2.77947E-02 1.62205E-13-2.77494E-14
 -1       757 2.02708E+01 5.66573E-01 2.14283E-03 1.95106E-01 1.99265E-13-3.35712E-14
 -1       758 2.00833E+01-3.62339E-02-8.44636E-06-1.75199E-01 3.82905E-16 1.13072E-14
 -1       759 2.01106E+01-8.32641E-04-1.08691E-05-1.67655E-01 8.09401E-14 4.00420E-14
 -1       760 2.00458E+01-5.52901E-02-7.48727E-06-1.59942E-01 9.44193E-14-5.71614E-14
 -1       761 2.00337E+01-4.88474E-02-6.87051E-06-1.47909E-01 1.67218E-13-6.91283E-14
 -1       762 2.00249E+01-3.58847E-02-5.45755E-06-1.37704E-01 5.88918E-14-2.15455E-14
 -1       763 2.00185E+01-1.83183E-02-3.33674E-06-1.31702E-01 7.22641E-14 6.39992E-14
 -1       764 2.00142E+01 2.47796E-03-8.64222E-07-1.31651E-01-5.23416E-15 4.14237E-14
 -1       765 2.00115E+01 2.53529E-02 1.63392E-06-1.38862E-01 4.79862E-14-2.39174E-14
 -1       766 2.00105E+01 4.90529E-02 4.17638E-06-1.54287E-01 4.52097E-14-3.26420E-14
 -1       767 2.00116E+01 7.18701E-02 6.64471E-06-1.78511E-01-5.03656E-14 4.55638E-14
 -1       768 2.00161E+01 9.12410E-02 8.78694E-06-2.11635E-01-2.65039E-14 1.29313E-13
 -1       769 2.00261E+01 1.03317E-01 1.01273E-05-2.53028E-01-2.56585E-14 1.41611E-13
 -1       770 2.00456E+01 1.02555E-01 9.88391E-06-3.00933E-01 1.75440E-14 8.28618E-14
 -1       771 2.00802E+01 8.14431E-02 6.76868E-06-3.51882E-01-1.39282E-14 5.55476E-14
 -1       772 2.01383E+01 3.05956E-02-1.35127E-06-3.99894E-01-3.54215E-14 1.55216E-13
 -1       773 2.02313E+01-6.03832E-02-1.78254E-05-4.35452E-01 5.97265E-14 1.71478E-13
 -1       774 2.03726E+01-2.00644E-01-4.46823E-05-4.44313E-01-6.37142E-14 1.03359E-13
 -1       775 2.05764E+01-3.93613E-01-8.26548E-05-4.06501E-01-2.21490E-14 4.87492E-14
 -1       776 2.08526E+01-6.29437E-01-1.54425E-04-2.96292E-01-3.75350E-14 1.53662E-13
 -1       777 2.11988E+01-8.73971E-01-2.59561E-04-8.52321E-02 3.66663E-14 7.35738E-14
 -1       778 2.15877E+01-1.05671E+00-2.60126E-04 2.48178E-01-3.23968E-14 1.98595E-13
 -1       779 2.19545E+01-1.06483E+00-1.47903E-04 6.95714E-01-4.86184E-14 2.50850E-13
 -1       780 2.22010E+01-7.69955E-01-3.84495E-04 1.18334E+00 1.04421E-13 9.17414E-14
 -1       781 2.22343E+01-9.73578E-02-8.01573E-04 1.54974E+00 3.24454E-14 1.42580E-13
 -1       782 2.20340E+01 8.69791E-01-1.75130E-03 1.56944E+00 5.21662E-14 1.35265E-13
 -1       783 2.17438E+01 1.77282E+00 4.69244E-03 1.08088E+00-1.50054E-16 1.25949E-13
 -1       784 2.15468E+01 2.25138E+00-7.75693E-04 1.77146E-01 1.10173E-13-1.59757E-13
 -1       785 2.16865E+01 1.94435E+00 1.44679E-03-7.71384E-01 1.57247E-13-2.43710E-13
 -1       786 2.19771E+01 1.08075E+00-2.35664E-03-1.37299E+00 3.23255E-14-3.70625E-13
 -1       787 2.22275E+01 7.01065E-02-2.28660E-04-1.45652E+00-5.38034E-14-3.54107E-13
 -1       788 2.22594E+01-6.97127E-01 3.85815E-04-1.13115E+00-1.78367E-13-2.27875E-13
 -1       789 2.20593E+01-1.07660E+00-1.48480E-04-6.32718E-01-2.19166E-13 1.90347E-13
 -1       790 2.17097E+01-1.10943E+00-3.72755E-04-1.48614E-01-2.47721E-14 1.16437E-13
 -1       791 2.13123E+01-9.10217E-01 1.93768E-03 2.21505E-01-7.17813E-14 9.27210E-16
 -1       792 1.93407E+01 3.68845E-01-1.39565E-04 1.53277E+00 4.26822E-14-1.81306E-14
 -1       793 1.59578E+01-1.50255E+00 4.80818E-02 5.06557E+00-2.31586E-14-4.43603E-14
 -1       794 1.24752E+01 4.67221E-01 1.11949E-01-3.45425E+00 9.08813E-14 9.23081E-14
 -1       795 2.00093E+01-5.59107E-02 8.01371E-05 1.51987E+00-1.81765E-13-5.20783E-13
 -1       796 1.80369E+01 1.34944E+00-1.46664E-04 5.44494E-01-9.48464E-15-2.99499E-13
 -1       797 1.78711E+01 1.61942E+00-9.82780E-04-3.73008E-01 2.49654E-13-3.22492E-14
 -1       798 2.07717E+01-4.68019E-01-5.76001E-06 7.47037E-01 1.98834E-13 3.54635E-13
 -1       799 2.48096E+01 5.26955E+00-8.36878E-02 1.70455E-01 4.90812E-13 2.85132E-13
 -1       800 2.63368E+01-6.52091E-01-3.28488E-02 1.57479E+00 6.66836E-14 1.30129E-13
 -1       801 2.56558E+01-3.62819E+00-1.47279E-02-1.24697E+00-2.07202E-13 1.44468E-13
 -1       802 1.86095E+01 8.80149E-01-4.59451E-04 1.21567E+00 6.23915E-15 1.37058E-13
 -1       803 2.00621E+01-5.24370E-02-7.34370E-06-1.70542E-01 3.29008E-14-4.05070E-14
 -1       804 2.02879E+01 7.23124E-01 8.56164E-06-2.85159E-01-6.13076E-14-1.86983E-13
 -1       805 2.43209E+01-4.18197E+00 5.59287E-04 2.81118E+00-2.95375E-13-3.02627E-13
 -1       806 2.11852E+01-3.84299E+00 2.96148E-02 4.81518E+00-3.16649E-13-1.10391E-13
 -1       807 1.78380E+01-2.91626E+00 5.30096E-02-5.80360E+00-1.20903E-13 2.09867E-13
 -1       808 2.01389E+01 1.88958E+00-4.09130E-04 2.00237E-01 1.78641E-13-2.47693E-13
 -1       809 1.31345E+01-4.23882E-02 7.88900E-02-4.28703E+00-1.90959E-13 2.30180E-14
 -1       810 2.67211E+01-1.74461E+00-3.49253E-02-8.13780E-01 5.19584E-14-2.19976E-13
 -1       811 2.55094E+01 2.76453E+00-6.09027E-02 2.12482E+00 1.22798E-13 2.42139E-13
 -1       812 1.04681E+01 1.24569E+00 7.40954E-02-1.35201E+00-1.99476E-13-6.89601E-13
 -1       813 2.25072E+01-4.22834E+00 1.85491E-02-4.30808E+00-9.13766E-14 3.72287E-13
 -1       814 2.66794E+01 6.52728E-01-6.19328E-02-1.90253E+00 2.63296E-13-2.39305E-14
 -1       815 1.19778E+01 1.56251E+00 5.16267E-02 8.59728E-01-2.07619E-13-2.58014E-13
 -1       816 2.02237E+01 1.57187E+00-4.66697E-04 5.28541E-01 2.53316E-13-1.04050E-13
 -1       817 1.34279E+01 1.37367E+00 3.91480E-02 2.21550E+00-1.34992E-13-4.20809E-14
 -1       818 1.46187E+01-1.57401E-01 4.56975E-02 3.92116E+00 9.16832E-14 3.32538E-13
 -1       819 2.01845E+01 1.64124E-01-6.58601E-05-7.93586E-02 1.09923E-13-2.21356E-14
 -1       820 1.87815E+01 1.47825E+00-3.37021E-05-1.46597E+00 1.06490E-13 7.88458E-13
 -1       821 2.04689E+01-3.19654E-01-1.31112E-04 1.28235E+00-7.38226E-14-7.76133E-14
 -1       822 2.02893E+01 1.11036E+00 2.98405E-04-5.27414E-01-8.39549E-14-2.23956E-13
 -1       823 2.01445E+01 6.20161E-02 3.37054E-07-1.39467E-01 1.37538E-13-4.67729E-15
 -1       824 2.10533E+01-7.45138E-01-6.77124E-04 5.45981E-01 6.70526E-14 1.31355E-13
 -1       825 2.06805E+01-4.35748E-01-2.74772E-04 1.02715E+00 5.33506E-14-3.25267E-13
 -1       826 1.11517E+01 1.29204E+00 7.08019E-02 7.55853E-01 2.50353E-13 3.94441E-14
 -1       827 2.01742E+01 1.77435E+00 5.25670E-04 3.81087E-01 2.17826E-13-1.86975E-13
 -1       828 2.02163E+01 1.58986E+00-8.69066E-04-5.29496E-01-2.25886E-14-2.76018E-13
 -1       829 2.38180E+01 3.65069E+00-3.46618E-02 1.26823E+00 4.27190E-13 3.48501E-13
 -1       830 2.54342E+01 2.26572E+00-4.91497E-02-2.06851E+00 3.54779E-13 4.43985E-14
 -1       831 2.52629E+01-3.18383E+00-1.32063E-02 6.21970E-01-3.37145E-13-8.40304E-14
 -1       832 2.01283E+01 1.92683E+00-3.50944E-04 3.68995E-03 1.40065E-13-2.56283E-13
 -1       833 2.01698E+01 1.78189E+00-2.82702E-04-3.76043E-01 4.87252E-14-3.19351E-13
 -1       834 1.80071E+01 1.63631E+00 2.85799E-04-1.02832E+00 1.83991E-13 2.63827E-13
 -1       835 1.93917E+01-2.07717E+00 1.16499E-02 4.06242E+00-3.54178E-14-2.74030E-13
 -1       836 2.03337E+01 7.19013E-01-1.15491E-04-1.83690E-01-2.44009E-14-2.16615E-13
 -1       837 2.03046E+01 2.25903E-01 3.47751E-05 4.97778E-02-6.95576E-14-1.07140E-13
 -1       838 2.02685E+01 9.28837E-02-1.48952E-05 1.05565E-01-5.45834E-14-8.96667E-14
 -1       839 2.02292E+01 9.67299E-03-4.57130E-06 1.34064E-01 5.00039E-15-1.46955E-13
 -1       840 2.01909E+01-3.81653E-02-2.93985E-06 1.44266E-01 6.15827E-15-9.34298E-14
 -1       841 2.01558E+01-6.07445E-02-1.18863E-06 1.43357E-01 4.45971E-14-4.90263E-14
 -1       842 2.01245E+01-6.52948E-02-7.91146E-07 1.36813E-01 1.84289E-14 3.46704E-14
 -1       843 2.00969E+01-5.68325E-02-4.16730E-07 1.28702E-01-4.93306E-14-6.75942E-15
 -1       844 2.00713E+01-3.73789E-02 2.11787E-06 1.21827E-01 2.89798E-14-1.38033E-14
 -1       845 2.00488E+01-1.06358E-02-1.56845E-07 1.19187E-01 6.41102E-14 4.00817E-14
 -1       846 2.00265E+01 2.34424E-02 5.85730E-07 1.22083E-01 2.81374E-14 1.64124E-14
 -1       847 2.00022E+01 6.52782E-02 8.42871E-07 1.31885E-01-7.74056E-14-1.18546E-13
 -1       848 1.99730E+01 1.16143E-01 8.11415E-07 1.49659E-01-1.83217E-13-3.08086E-14
 -1       849 1.99347E+01 1.78142E-01 7.95320E-07 1.76154E-01-1.10510E-13-6.83135E-14
 -1       850 1.98818E+01 2.54189E-01 8.53195E-07 2.11659E-01-6.18615E-14-1.96120E-13
 -1       851 1.98064E+01 3.47968E-01 2.06856E-06 2.55692E-01-1.78542E-13-1.73381E-13
 -1       852 1.96975E+01 4.63713E-01-2.14830E-05 3.06669E-01-2.30687E-13 1.06332E-13
 -1       853 1.95300E+01 6.13894E-01 1.19670E-05 3.63334E-01-6.14930E-14 1.13304E-13
 -1       854 1.92964E+01 7.88352E-01-1.63421E-05 4.13419E-01 5.26570E-14 1.38036E-13
 -1       855 1.89603E+01 9.94420E-01-5.69657E-05 4.49240E-01-1.90878E-14-8.87516E-14
 -1       856 1.84792E+01 1.22783E+00-1.51968E-04 4.55741E-01 1.49645E-13 6.81712E-14
 -1       857 1.77934E+01 1.47362E+00-4.43577E-04 4.14855E-01 1.03318E-13 2.32319E-14
 -1       858 1.68254E+01 1.69315E+00-7.30285E-04 3.07091E-01-2.80405E-15-5.01363E-14
 -1       859 1.53877E+01 1.88173E+00 1.37824E-02 1.28157E-01-2.68056E-13-2.30737E-13
 -1       860 1.97786E+01-3.54380E-01 1.41608E-03 1.97140E+00-1.29471E-13-3.41060E-15
 -1       861 1.30141E+01 1.24532E+00 5.58384E-03-2.12529E+00-4.64198E-13-4.76468E-13
 -1       862 2.34307E+01-3.46338E+00 6.22623E-04-2.34062E+00-4.23449E-14 2.44023E-13
 -1       863 2.03304E+01 4.26329E-01 7.33371E-05-4.29307E-02-2.77612E-14-1.75652E-13
 -1       864 1.57771E+01 1.82452E+00 4.48926E-03-7.86907E-01 9.58111E-14 1.26019E-13
 -1       865 1.70551E+01 1.75069E+00 3.38218E-03-9.43355E-01 9.00794E-14-3.35062E-14
 -1       866 2.00780E+01-5.08481E-02-9.72673E-07-1.28455E-01 5.38794E-14-1.88459E-14
 -1       867 2.01026E+01-6.21677E-02-1.33392E-07-1.36986E-01 1.18346E-13-5.99667E-14
 -1       868 2.00372E+01-7.70201E-03-3.34543E-07-1.20885E-01 2.56684E-14 4.79262E-14
 -1       869 2.00195E+01 2.04515E-02-3.31298E-08-1.25564E-01 5.11137E-14-6.60046E-14
 -1       870 2.00026E+01 5.10533E-02 2.26113E-07-1.37807E-01 1.94737E-14-8.20076E-14
 -1       871 1.99864E+01 8.24465E-02 6.42647E-07-1.58810E-01-1.35251E-13 6.25650E-14
 -1       872 1.99710E+01 1.12256E-01 1.21226E-06-1.89614E-01-1.13453E-13 2.47687E-13
 -1       873 1.99581E+01 1.36876E-01 1.88992E-06-2.31034E-01-8.07217E-14 3.73839E-13
 -1       874 1.99505E+01 1.50910E-01 2.64954E-06-2.83462E-01-1.30705E-14 3.01548E-13
 -1       875 1.99538E+01 1.46633E-01 3.34239E-06-3.46500E-01-3.26086E-14 2.36702E-13
 -1       876 1.99765E+01 1.13621E-01 3.35590E-06-4.18321E-01-1.63899E-14 1.47665E-13
 -1       877 2.00317E+01 3.88464E-02 5.13474E-07-4.94613E-01 7.22647E-15 1.48458E-13
 -1       878 2.01375E+01-9.22338E-02-9.03607E-06-5.66910E-01-2.68445E-14 2.70797E-13
 -1       879 2.03165E+01-2.92681E-01-1.91864E-05-6.20165E-01 6.77690E-14 6.31307E-14
 -1       880 2.05945E+01-5.67869E-01-1.85347E-05-6.29666E-01-1.35682E-13-4.34560E-14
 -1       881 2.09935E+01-9.04435E-01-1.16037E-04-5.57981E-01-9.55249E-14 2.14782E-13
 -1       882 2.15186E+01-1.25183E+00-3.50301E-04-3.55936E-01-1.48130E-13 3.70500E-13
 -1       883 2.21375E+01-1.50048E+00-3.33738E-04 2.81781E-02-8.06333E-14 4.23118E-13
 -1       884 2.27471E+01-1.45871E+00 2.42110E-04 6.03631E-01 9.03323E-14 3.28983E-13
 -1       885 2.31676E+01-9.07106E-01-2.50412E-03 1.27179E+00-2.25004E-15 4.62711E-13
 -1       886 2.32707E+01 2.30190E-01-8.30556E-03 1.76973E+00 7.59145E-14 4.83189E-13
 -1       887 2.29722E+01 1.77461E+00-6.02539E-03 1.69069E+00 2.62406E-13 3.35993E-13
 -1       888 2.29031E+01 2.10236E+00-1.48915E-02-1.45185E+00 1.23536E-13-8.23100E-14
 -1       889 2.32583E+01 5.39114E-01-2.11284E-03-1.68598E+00 7.37014E-15-1.91291E-13
 -1       890 2.33103E+01-7.76685E-01-1.46780E-04-1.28025E+00-3.00208E-13-2.20854E-13
 -1       891 2.29696E+01-1.46195E+00-8.84011E-04-6.03631E-01-4.11745E-13-2.47329E-13
 -1       892 2.23975E+01-1.58414E+00-9.25517E-04 3.54153E-02-1.17007E-13-4.38609E-13
 -1       893 2.17739E+01-1.34750E+00-4.35423E-04 4.91250E-01-7.72747E-14-2.76724E-13
 -1       894 1.69535E+01 1.53601E+00 7.08432E-04 4.17733E-01-3.46927E-14-3.12156E-14
 -1       895 2.03560E+01-2.87333E+00 1.46466E-02-4.23925E+00-3.62566E-14 2.90101E-13
 -1       896 2.18781E+01-3.11189E+00 1.54294E-02 3.35278E+00-8.60191E-14-3.35525E-14
 -1       897 2.40661E+01 3.97125E+00-5.33882E-02-1.07778E+00 5.22289E-13 2.77348E-13
 -1       898 2.49599E+01-2.19456E+00-2.83586E-03 4.80135E-01-1.89083E-13-8.17236E-14
 -1       899 2.43870E+01 6.76444E-01-2.11273E-02 1.99276E+00 1.65618E-13 7.49676E-14
 -1       900 2.01385E+01 1.89195E+00-3.28537E-04-1.92694E-01 9.64110E-14-3.34596E-13
 -1       901 2.00564E+01-3.19837E-02-6.68893E-07-1.22400E-01-1.67694E-14 3.12020E-14
 -1       902 2.03372E+01 7.36282E-01-3.05511E-04 1.94158E-01 1.93325E-13-4.99581E-14
 -1       903 2.01993E+01-1.33248E-02-2.19212E-05-1.44925E-01 4.20009E-14-1.43685E-15
 -1       904 1.24011E+01 1.40825E+00 6.51962E-02-1.48455E+00 1.11624E-13 2.18801E-13
 -1       905 1.63796E+01-7.73454E-01 2.40078E-02-4.23102E+00-1.22882E-13 1.54577E-13
 -1       906 2.51239E+01-6.12084E-01-2.37891E-02-1.56873E+00-5.85916E-14-1.41082E-13
 -1       907 2.02379E+01 5.22330E-02-3.77833E-05-1.24709E-01 7.67087E-14-3.24400E-14
 -1       908 2.02972E+01 1.21226E+00 2.20224E-04-3.00151E-01 1.55823E-14-2.43199E-13
 -1       909 2.05531E+01-7.19285E-01 2.90625E-04 1.64804E+00-2.24382E-13-5.28418E-13
 -1       910 1.87204E+01 2.41330E-01 5.62531E-04 1.94979E+00-5.58977E-15-1.78398E-13
 -1       911 1.53848E+01 6.70434E-01 3.42884E-02-2.89911E+00-3.40469E-13-2.96382E-13
 -1       912 1.79612E+01-1.05576E+00 1.53203E-02 3.81555E+00-3.97104E-14-3.95129E-13
 -1       913 2.10531E+01-8.16626E-01 4.97264E-04 8.88346E-01-1.35074E-13-2.92063E-13
 -1       914 2.01309E+01-6.29015E-02 6.32722E-07-1.45244E-01 9.56941E-14-6.93036E-14
 -1       915 2.28776E+01 3.36319E+00-2.23627E-02-5.30058E-01 4.16965E-13 1.63515E-13
 -1       916 1.76345E+01 9.53401E-01 1.40745E-04 1.42223E+00-1.71229E-14 1.18188E-13
 -1       917 2.01632E+01-4.87088E-02-3.46927E-06-1.49540E-01 4.87503E-14-2.81488E-14
 -1       918 2.03095E+01 3.27564E-01 9.99307E-04-2.49463E-03 1.57127E-13-5.51534E-14
 -1       919 1.39182E+01 9.79234E-01 3.36672E-02 2.31062E+00 2.43755E-13 4.82715E-13
 -1       920 2.33958E+01-3.11682E+00-3.51808E-03 1.82956E+00-1.21896E-13 4.93338E-14
 -1       921 2.02863E+01 1.32885E+00-1.82542E-03 1.95742E-01 1.87476E-13-1.90257E-13
 -1       922 2.03139E+01 9.72605E-01 1.03717E-04-3.16504E-01-1.44545E-14-2.08548E-13
 -1       923 2.02781E+01 1.40451E+00 9.36876E-05 6.96460E-02 1.41279E-13-2.34793E-13
 -1       924 1.36641E+01 1.76762E+00 3.37434E-02-8.06589E-01 1.08242E-13 1.21407E-13
 -1       925 1.33510E+01 1.84339E+00 4.44853E-02 6.07848E-03-1.87714E-13-3.68511E-13
 -1       926 2.03632E+01 8.92565E-01 1.65208E-03 1.64038E-01 1.77128E-13-1.24310E-13
 -1       927 2.02877E+01 1.33904E+00-8.53499E-06-1.92782E-01 6.07546E-14-2.91656E-13
 -1       928 1.47311E+01 1.54718E+00 4.74277E-03 7.74231E-01 1.58861E-13 1.91993E-13
 -1       929 2.03241E+01 6.95053E-02-9.34511E-06 8.79208E-02-4.13404E-14-8.51820E-14
 -1       930 2.02818E+01-8.94860E-03-2.25520E-06 1.05197E-01 3.34338E-14-7.93844E-14
 -1       931 2.02381E+01-5.19681E-02-8.44260E-07 1.10547E-01 5.26774E-14-8.27858E-16
 -1       932 2.01958E+01-6.93840E-02 8.19492E-07 1.08932E-01 7.46303E-14-8.09232E-16
 -1       933 2.01563E+01-6.83396E-02 1.90653E-06 1.04115E-01-7.89430E-14-8.65916E-14
 -1       934 2.01179E+01-5.26281E-02 4.13457E-06 9.87089E-02-6.17587E-14-6.41131E-14
 -1       935 2.00835E+01-2.69246E-02 2.08875E-07 9.53548E-02 1.19375E-14-1.29523E-13
 -1       936 2.00498E+01 7.53729E-03 8.02245E-08 9.52080E-02 8.27750E-14-1.92293E-13
 -1       937 2.00144E+01 5.03615E-02 2.51718E-07 9.92321E-02-7.64830E-14-1.90375E-13
 -1       938 1.99745E+01 1.02050E-01-8.07688E-07 1.07938E-01-4.40809E-14-1.21880E-13
 -1       939 1.99260E+01 1.63890E-01-1.87526E-06 1.21297E-01-1.57745E-13-7.91081E-14
 -1       940 1.98639E+01 2.37796E-01-3.02703E-06 1.38540E-01-1.17679E-13-1.72490E-13
 -1       941 1.97813E+01 3.26146E-01-2.69319E-06 1.57774E-01-7.74856E-14-1.95632E-13
 -1       942 1.96691E+01 4.31486E-01-2.07112E-05 1.75560E-01-1.04310E-13-6.12349E-14
 -1       943 1.95062E+01 5.62909E-01 3.12679E-06 1.85705E-01-2.29394E-14 9.53779E-14
 -1       944 1.92908E+01 7.09231E-01-9.93140E-06 1.77001E-01-2.71259E-14 1.00823E-13
 -1       945 1.89954E+01 8.74578E-01-1.89631E-05 1.35542E-01-4.02182E-14 1.09523E-13
 -1       946 1.85913E+01 1.05269E+00-2.43274E-06 3.96270E-02 3.61402E-14 1.22750E-13
 -1       947 1.80405E+01 1.22910E+00 1.65757E-04-1.40579E-01 4.69590E-14-8.79382E-14
 -1       948 1.72903E+01 1.37908E+00 1.62845E-03-4.46359E-01 5.39185E-15-1.64832E-13
 -1       949 1.62047E+01 1.45254E+00-6.57522E-03-9.56990E-01-2.06560E-13-3.13773E-13
 -1       950 2.01343E+01-6.38370E-02 3.41061E-07-1.06269E-01 9.46244E-14 7.94306E-15
 -1       951 2.02778E+01 1.55917E-01-4.35436E-04-7.95086E-02 1.11967E-13-3.69714E-14
 -1       952 1.90436E+01-1.40690E+00 4.23622E-03-3.44546E+00-5.06825E-14 2.55052E-14
 -1       953 2.00082E+01 4.61769E-02-6.44266E-07-1.10179E-01-2.92584E-14 1.63432E-13
 -1       954 2.00382E+01 1.03193E-02-4.87956E-07-1.01571E-01 1.24704E-13 5.47690E-14
 -1       955 1.99457E+01 1.24597E-01-1.73565E-06-1.52071E-01-1.94859E-13 2.36851E-13
 -1       956 1.99127E+01 1.62285E-01-2.15526E-06-1.88868E-01-1.33869E-13 8.48748E-14
 -1       957 1.98799E+01 1.93458E-01-2.30665E-06-2.38937E-01 2.97112E-14 8.73221E-14
 -1       958 1.98510E+01 2.11297E-01-1.54686E-06-3.04513E-01-4.11519E-14 7.66611E-14
 -1       959 1.98328E+01 2.05948E-01 2.33831E-07-3.87711E-01 2.36056E-14 6.29524E-14
 -1       960 1.98365E+01 1.63944E-01 2.15234E-06-4.89837E-01-7.61835E-14 5.08437E-14
 -1       961 1.98798E+01 6.80404E-02 9.00323E-07-6.10058E-01-6.22989E-14 5.68716E-14
 -1       962 1.99881E+01-1.01882E-01-7.41136E-06-7.42846E-01 8.84961E-14 3.27695E-14
 -1       963 2.01958E+01-3.65525E-01 2.10254E-05-8.73679E-01-1.27805E-14 1.42027E-13
 -1       964 2.05451E+01-7.34423E-01 1.92022E-04-9.73112E-01-2.03166E-13 8.64299E-15
 -1       965 2.10817E+01-1.19842E+00 2.36601E-04-9.85765E-01-1.92752E-13 1.74518E-13
 -1       966 2.18250E+01-1.68734E+00-6.18131E-04-8.30563E-01-3.69932E-14 1.55351E-13
 -1       967 2.27657E+01-2.05655E+00 1.26550E-03-4.01071E-01 1.17888E-13-4.90634E-14
 -1       968 2.31889E+01-2.17560E+00 4.96754E-04 3.86579E-01-2.97936E-13-3.32172E-13
 -1       969 2.22206E+01-1.85276E+00-2.71983E-03 9.29448E-01-9.40697E-14-1.67810E-13
 -1       970 2.09096E+01-8.26439E-01 1.16595E-03 1.26975E+00-6.20010E-14-3.68820E-13
 -1       971 2.41148E+01-1.93007E+00 2.17592E-03-4.91634E-01-3.43269E-13-2.41071E-13
 -1       972 1.99776E+01 8.49186E-02-1.28048E-06-1.26459E-01-1.25488E-13 3.11776E-13
 -1       973 2.03483E+01 9.11050E-01-2.37820E-04-1.88574E-01-2.77611E-15-2.05737E-13
 -1       974 2.03772E+01 5.62304E-01-1.02745E-04-6.68844E-02 1.65577E-15-2.05556E-13
 -1       975 2.02765E+01 1.40625E+00-7.75912E-05-6.41427E-02 1.09396E-13-2.55943E-13
 -1       976 2.03598E+01 1.97302E-01 3.76037E-05 5.26913E-02-4.78082E-14-1.39878E-13
 -1       977 2.03768E+01 3.51107E-01-1.46597E-04 4.37990E-03-1.65254E-15-2.03237E-13
 -1       978 2.34663E+01-2.54017E+00 2.53005E-03-6.87681E-01 9.77994E-15 1.36106E-14
 -1       979 2.14716E+01-2.47781E+00-5.18153E-04-2.68703E+00 6.53319E-14 2.57721E-13
 -1       980 2.08235E+01-2.01033E+00 6.15687E-04 2.91029E+00 1.88205E-13 1.91652E-13
 -1       981 2.03871E+01 4.00896E-01-5.25334E-04 1.28693E-02 1.18416E-13-5.32892E-14
 -1       982 1.97474E+01-1.31722E+00 1.08237E-02 3.03129E+00 2.65267E-13-1.58164E-14
 -1       983 1.61944E+01 9.62778E-01 1.63661E-03 1.85076E+00-6.00200E-14-1.24047E-13
 -1       984 2.01715E+01-7.00110E-02 8.65516E-06-1.12050E-01 1.25311E-13-3.15998E-14
 -1       985 2.01001E+01-4.65458E-02 1.56817E-06-1.01255E-01-2.50251E-14 5.35748E-15
 -1       986 2.00684E+01-2.11448E-02-2.84890E-06-9.91252E-02-8.60867E-15 2.70607E-14
 -1       987 2.37328E+01-1.99072E+00-4.90450E-03 3.60442E-01-1.34530E-13-5.67148E-14
 -1       988 2.44215E+01-9.45889E-01 4.12830E-03 1.31631E+00-1.05896E-14 5.74135E-14
 -1       989 1.77487E+01-2.52227E-01 1.66410E-03-2.89645E+00-1.27159E-13-4.72342E-14
 -1       990 1.67222E+01 5.18606E-02 1.83868E-02 3.04518E+00-3.37894E-13-4.15549E-13
 -1       991 2.02985E+01 3.28492E-02 6.77366E-05-1.02245E-01 8.62014E-14-5.54056E-15
 -1       992 1.93449E+01-6.97432E-01-2.64754E-03 2.59994E+00-6.01867E-14 1.17610E-13
 -1       993 2.20977E+01-2.32108E+00-1.74610E-03 1.98539E+00 2.97306E-14-3.71034E-13
 -1       994 2.02551E+01-2.86678E-02 1.04096E-04-1.14200E-01 5.01279E-14-7.16625E-14
 -1       995 2.03783E+01 9.11939E-01 4.97109E-05 9.16853E-02 1.44022E-13-1.71324E-13
 -1       996 2.06235E+01-1.20565E+00 2.03218E-03 2.14919E+00 3.41191E-14-4.54781E-13
 -1       997 2.14781E+01-1.37049E+00-1.22310E-03 1.20412E+00-1.04536E-13-1.03202E-13
 -1       998 1.77562E+01 8.42324E-02 5.21557E-03 2.59616E+00 7.79038E-14-1.37098E-13
 -1       999 2.03059E+01-2.99493E-02-9.00407E-06 6.92337E-02 6.63910E-14-1.58298E-13
 -1      1000 2.02579E+01-6.42145E-02-1.14500E-06 7.10176E-02 5.04072E-14-1.82820E-13
 -1      1001 2.02107E+01-7.41175E-02-2.38811E-06 6.93411E-02-7.87302E-14-1.82426E-13
 -1      1002 2.01634E+01-6.53413E-02 4.30972E-06 6.61747E-02-6.61861E-14-1.27065E-13
 -1      1003 2.01206E+01-4.33972E-02-1.45178E-06 6.34040E-02-7.96369E-14-6.67523E-14
 -1      1004 2.00788E+01-1.10924E-02-9.04221E-07 6.19000E-02-3.39635E-14-7.24485E-14
 -1      1005 2.00364E+01 3.01851E-02-2.30324E-06 6.21964E-02-4.83234E-14-2.26798E-13
 -1      1006 1.99906E+01 8.01071E-02-4.72536E-06 6.43657E-02 1.07831E-14-2.01345E-13
 -1      1007 1.99380E+01 1.39054E-01-7.96005E-06 6.78821E-02-9.41002E-14-2.29500E-13
 -1      1008 1.98743E+01 2.07887E-01-1.14652E-05 7.14140E-02-1.91271E-13-2.37418E-13
 -1      1009 1.97942E+01 2.87668E-01-1.57372E-05 7.24386E-02-9.34942E-14-2.46076E-13
 -1      1010 1.96909E+01 3.79217E-01-3.52479E-05 6.68366E-02 2.98855E-15-1.50238E-13
 -1      1011 1.95486E+01 4.88183E-01-2.10911E-05 4.61264E-02 6.46697E-15 5.25306E-15
 -1      1012 1.93700E+01 6.02534E-01-3.13668E-05 1.40100E-03-6.82477E-14 2.68092E-14
 -1      1013 1.91377E+01 7.22495E-01-3.71794E-05-8.30190E-02-1.73868E-14-3.38818E-15
 -1      1014 1.88376E+01 8.38338E-01-1.40885E-05-2.29142E-01-1.04550E-13-1.19466E-13
 -1      1015 1.84544E+01 9.32103E-01 1.15063E-04-4.67201E-01-6.97308E-14-1.40250E-13
 -1      1016 1.79729E+01 9.73590E-01 8.38837E-04-8.39303E-01-8.81317E-14-3.35464E-13
 -1      1017 1.73691E+01 9.04027E-01-3.62704E-03-1.39722E+00-1.99929E-13-3.53549E-13
 -1      1018 1.99398E+01 1.26005E-01-7.15115E-06-1.04121E-01-5.72955E-14 1.89317E-13
 -1      1019 1.98388E+01 2.22264E-01-1.02053E-05-1.74010E-01-1.16392E-13 1.74241E-13
 -1      1020 1.98916E+01 1.74935E-01-8.59041E-06-1.32596E-01-1.16634E-13 1.36572E-13
 -1      1021 1.97256E+01 2.88927E-01-1.08373E-05-3.12310E-01-4.19587E-14 1.44811E-13
 -1      1022 1.96756E+01 2.88768E-01-6.53041E-06-4.19958E-01-7.32935E-14 6.68853E-14
 -1      1023 1.96451E+01 2.45975E-01-1.71204E-06-5.61404E-01-1.02232E-13 3.59755E-14
 -1      1024 1.96549E+01 1.38517E-01-1.10835E-05-7.41742E-01 1.47373E-14-2.14592E-14
 -1      1025 1.97380E+01-6.14812E-02-1.62282E-05-9.61581E-01 4.19716E-14-2.45171E-14
 -1      1026 1.99411E+01-3.83584E-01 3.40320E-05-1.20983E+00-8.42548E-14 1.54641E-13
 -1      1027 2.03307E+01-8.52845E-01 1.79964E-03-1.46092E+00-2.08202E-13 1.39954E-13
 -1      1028 2.09907E+01-1.48759E+00-2.22399E-03-1.63242E+00-2.91511E-14-1.55331E-13
 -1      1029 1.99837E+01 7.86612E-02-5.73040E-06-8.55561E-02-1.18934E-13 2.35992E-13
 -1      1030 1.73891E+01 4.59277E-01-1.03301E-03-2.11918E+00-2.20218E-13-2.07372E-13
 -1      1031 2.02120E+01-6.02490E-02 6.16230E-05-1.15971E-01 5.96206E-14-8.14833E-14
 -1      1032 2.03385E+01 1.36665E-01 5.62354E-04-7.43609E-02 9.40651E-14-2.37026E-15
 -1      1033 2.04244E+01 5.08914E-01-6.36993E-05 1.74093E-02 9.32820E-14-1.61612E-13
 -1      1034 2.03519E+01 3.79598E-02-1.78371E-05 6.11440E-02 1.68407E-14-1.12891E-13
 -1      1035 2.03855E+01 8.10654E-01 7.48099E-04-8.80134E-02 4.12010E-15-2.49061E-13
 -1      1036 2.03902E+01 1.52504E-01-5.38261E-06 4.33648E-02 1.79879E-14-1.42350E-13
 -1      1037 1.97824E+01 2.62872E-01-1.28976E-05-2.32267E-01-2.29490E-14 1.64154E-13
 -1      1038 2.00246E+01 3.49198E-02 9.98990E-07-7.46106E-02-2.34478E-14 1.47219E-13
 -1      1039 2.02224E+01-1.42358E+00 1.35210E-03-2.43890E+00 3.31910E-14 2.35312E-13
 -1      1040 2.18496E+01-2.10935E+00 1.95644E-03-1.63246E+00 9.31542E-14-7.65472E-14
 -1      1041 2.03827E+01 9.43396E-01 3.27121E-04 1.41001E-02 1.00920E-13-1.87639E-13
 -1      1042 2.01878E+01-7.25163E-02 7.55577E-07-7.35605E-02-3.87141E-15 1.72429E-14
 -1      1043 1.91221E+01-5.73504E-01 5.58402E-03-2.33951E+00-6.32609E-14-3.23299E-14
 -1      1044 2.00640E+01-3.62473E-03-1.03504E-05-6.94870E-02-1.16891E-14-3.34170E-14
 -1      1045 2.01444E+01-5.97858E-02-5.56239E-06-7.03178E-02-6.01099E-15 9.55662E-14
 -1      1046 2.04062E+01 1.83926E-01-9.96469E-05-3.37398E-02 2.86558E-14-1.20441E-13
 -1      1047 2.13694E+01-1.48584E+00 2.54261E-04 1.60865E+00 8.16795E-15-5.64106E-13
 -1      1048 2.03889E+01 8.91293E-01 5.89280E-04-4.38435E-02 5.04038E-14-2.20359E-13
 -1      1049 2.03690E+01 6.05006E-02-8.47416E-05-4.98853E-02 9.27628E-14-7.29690E-14
 -1      1050 2.04125E+01 5.34138E-01-3.09632E-04-3.18966E-02 1.74545E-14-2.42232E-13
 -1      1051 2.04122E+01 2.94818E-01 9.51806E-05 1.72266E-02 4.23666E-14-1.87939E-13
 -1      1052 2.03239E+01-1.74986E-02-3.53601E-05-5.78972E-02 1.12557E-13-5.51584E-14
 -1      1053 2.03050E+01-4.92829E-02 8.82399E-06 2.77845E-02-4.19680E-15-2.00342E-13
 -1      1054 2.01037E+01-3.60602E-02 8.56750E-06-6.84550E-02 2.34823E-14 3.91218E-14
 -1      1055 2.02544E+01-7.24922E-02 3.54614E-05 2.77623E-02 2.24183E-14-1.98122E-13
 -1      1056 2.02025E+01-7.34632E-02-4.80983E-06 2.69029E-02-3.84587E-14-1.71298E-13
 -1      1057 2.01547E+01-5.75842E-02-1.19524E-05 2.57283E-02 2.37206E-14-1.34483E-13
 -1      1058 2.01083E+01-2.97619E-02-3.51647E-05 2.44579E-02-7.13848E-14-9.68226E-14
 -1      1059 2.00623E+01 8.11960E-03 1.93276E-05 2.31015E-02-1.09297E-13-6.74664E-14
 -1      1060 2.00146E+01 5.42009E-02-3.59757E-06 2.14412E-02-4.52479E-14-7.81062E-14
 -1      1061 1.99622E+01 1.08421E-01-7.01827E-06 1.86577E-02-4.13350E-14-1.87630E-13
 -1      1062 1.99018E+01 1.70575E-01-1.12612E-05 1.31516E-02-1.09295E-13-1.62314E-13
 -1      1063 1.98295E+01 2.40600E-01-1.96890E-05 2.34126E-03-7.58420E-14-1.76730E-14
 -1      1064 1.97409E+01 3.17906E-01-5.45845E-05-1.78289E-02 2.01766E-14-2.19140E-14
 -1      1065 1.96252E+01 4.05161E-01-4.74211E-05-5.60369E-02 6.64354E-14-5.92169E-14
 -1      1066 1.94879E+01 4.90169E-01-8.12482E-05-1.18295E-01 6.14725E-15-1.30026E-13
 -1      1067 1.93201E+01 5.69913E-01-1.29059E-04-2.19001E-01-4.91831E-14-1.14630E-13
 -1      1068 1.91191E+01 6.32152E-01-1.96771E-04-3.76449E-01-1.00522E-13-3.28048E-14
 -1      1069 1.88859E+01 6.56838E-01-3.01172E-04-6.14734E-01-1.87768E-13-3.50644E-14
 -1      1070 1.86300E+01 6.12563E-01-2.63957E-04-9.65123E-01-1.37529E-13-1.11503E-13
 -1      1071 1.83684E+01 4.57274E-01-3.52825E-04-1.46059E+00-2.09554E-13-2.18671E-13
 -1      1072 1.98280E+01 2.32645E-01 4.08437E-05-9.87324E-02-6.61366E-14 4.94902E-15
 -1      1073 1.98932E+01 1.72992E-01 2.66642E-05-7.00988E-02-5.45485E-14 7.91244E-15
 -1      1074 1.94755E+01 4.03796E-01 1.83715E-04-4.33744E-01 3.74423E-15-2.10994E-13
 -1      1075 1.95730E+01 3.88434E-01 1.33411E-04-3.00221E-01-3.14879E-14-8.21742E-14
 -1      1076 1.93260E+01 2.72937E-01 2.21708E-04-8.73087E-01-8.43291E-14-2.30738E-14
 -1      1077 1.93300E+01 6.10029E-02-8.55756E-04-1.20759E+00-6.85984E-14 1.14565E-13
 -1      1078 1.94632E+01-2.98703E-01 1.15714E-03-1.60481E+00-1.04293E-13 9.89133E-14
 -1      1079 1.99500E+01 1.16453E-01 1.87439E-05-5.17885E-02-9.87977E-14-6.11469E-14
 -1      1080 2.02339E+01-6.99315E-02-5.98674E-05-7.62706E-02 2.13085E-14-6.03783E-14
 -1      1081 2.03543E+01 4.57706E-03 1.03665E-04 2.57316E-02 5.81102E-15-1.24210E-13
 -1      1082 2.03970E+01 9.94877E-02-1.42103E-05 2.08620E-02 1.96424E-14-1.38568E-13
 -1      1083 1.98621E+01-7.93121E-01-1.17528E-03-1.90325E+00-1.78813E-14 2.39455E-13
 -1      1084 2.04325E+01 5.50688E-01-2.84185E-04-2.49641E-03 7.48668E-14-1.29554E-13
 -1      1085 1.96673E+01 3.47022E-01 9.67867E-05-2.06607E-01-4.23028E-14-1.80456E-14
 -1      1086 2.02786E+01-5.31272E-02-1.58737E-04-6.82493E-02 8.86932E-14-3.66224E-14
 -1      1087 2.00006E+01 6.47646E-02 1.39220E-05-4.06638E-02-1.34032E-13-5.52423E-14
 -1      1088 1.97529E+01 2.92405E-01 7.13326E-05-1.42185E-01-1.02542E-14-5.47649E-14
 -1      1089 1.93861E+01 3.74221E-01 2.28495E-04-6.20046E-01-6.92486E-14-1.99453E-13
 -1      1090 2.00473E+01 1.90380E-02 3.29888E-07-3.44782E-02-1.00713E-13-5.63810E-14
 -1      1091 2.03660E+01 2.02485E-02-1.04723E-04-1.46145E-02 6.28425E-14-1.56789E-13
 -1      1092 2.04074E+01 1.26523E-01 7.32997E-05-1.06316E-02 3.63716E-14-2.10892E-13
 -1      1093 2.01843E+01-6.96780E-02 1.59482E-05-3.22220E-02-2.10002E-14-5.84161E-14
 -1      1094 2.02332E+01-7.52659E-02-2.36390E-05-3.32942E-02-9.63015E-15-4.89865E-14
 -1      1095 2.04231E+01 2.21836E-01-3.10020E-04 1.35862E-02 7.61831E-14-1.32588E-13
 -1      1096 2.04349E+01 2.98447E-01-1.90471E-04-2.36739E-03 5.91611E-14-1.41647E-13
 -1      1097 2.02823E+01-6.39495E-02 3.79619E-05-1.64472E-02 3.43330E-14-4.26778E-14
 -1      1098 2.00865E+01-1.33042E-02 1.21099E-05-1.64325E-02-2.94481E-14-9.23464E-14
 -1      1099 2.03260E+01-3.11113E-02 2.30815E-05-2.47555E-02 1.59962E-14-1.31759E-13
 -1      1100 2.01377E+01-5.00673E-02 2.49247E-05-3.14262E-02 3.39898E-14-1.55410E-13
 -1      1101 2.79628E+01 9.08648E+00 2.32529E+00-6.69833E+00-5.37348E-14 9.86961E-13
 -1      1102 2.05473E+01 6.22714E+00 2.09746E-01-3.90420E+00-2.40918E-14-1.38611E-13
 -1      1103 1.94342E+01 5.85287E+00 7.52959E-02-2.88814E+00-1.35725E-14-5.56357E-13
 -1      1104 1.90260E+01 5.72594E+00 6.04032E-02-2.23539E+00-6.27970E-15-7.19607E-13
 -1      1105 1.88398E+01 5.66922E+00 5.75548E-02-1.70179E+00-2.88311E-15-7.67284E-13
 -1      1106 1.87463E+01 5.64056E+00 5.55263E-02-1.23435E+00 1.47451E-17-7.60897E-13
 -1      1107 1.86974E+01 5.62534E+00 5.37603E-02-8.04522E-01 1.38431E-15-7.31968E-13
 -1      1108 1.86734E+01 5.61779E+00 5.25413E-02-3.92960E-01 3.37339E-15-6.88902E-13
 -1      1109 1.86666E+01 5.61563E+00 5.21541E-02 8.46624E-03 5.27638E-15-6.40262E-13
 -1      1110 1.86745E+01 5.61815E+00 5.26691E-02 4.10314E-01 7.71150E-15-5.85944E-13
 -1      1111 1.86995E+01 5.62608E+00 5.40541E-02 8.23265E-01 8.59122E-15-5.09669E-13
 -1      1112 1.87500E+01 5.64189E+00 5.62466E-02 1.25575E+00 1.15125E-14-4.02314E-13
 -1      1113 1.88451E+01 5.67110E+00 5.84883E-02 1.72752E+00 1.25750E-14-2.43259E-13
 -1      1114 1.90319E+01 5.72779E+00 6.06775E-02 2.26861E+00 1.60982E-14-8.81326E-15
 -1      1115 1.94312E+01 5.85021E+00 6.94336E-02 2.92901E+00 1.86101E-14 3.69281E-13
 -1      1116 2.04528E+01 6.18172E+00 1.52931E-01 3.87873E+00 1.67921E-14 1.00739E-12
 -1      1117 2.52171E+01 7.99425E+00 1.43024E+00 5.84636E+00 2.02616E-14 2.14950E-12
 -1      1118 2.88124E+01 3.61633E+00 1.27125E+00-4.21712E+00-1.99007E-13 1.68077E-12
 -1      1119 2.02272E+01-1.77760E-01-6.16347E-01-1.09900E-01-6.72865E-14 1.22302E-12
 -1      1120 1.88330E+01-9.63540E-02-2.36343E-01 6.25231E-02-2.49592E-14 5.76631E-13
 -1      1121 1.84989E+01-4.80603E-02-5.95810E-02 4.04974E-02-1.75710E-14 1.28342E-13
 -1      1122 1.84435E+01-2.46243E-02-1.51985E-02 2.67820E-02-5.33905E-15-1.57607E-13
 -1      1123 1.85250E+01-1.30541E-02-4.97047E-03 1.90582E-02-6.42021E-15-2.43503E-13
 -1      1124 1.86717E+01-6.61673E-03-1.47066E-03 1.41016E-02-1.04101E-14-4.27818E-13
 -1      1125 1.88439E+01-2.96502E-03 5.29871E-04 1.06767E-02-8.03437E-15-5.77229E-13
 -1      1126 1.90234E+01-5.49406E-04 1.81736E-03 8.16337E-03-4.77912E-15-6.93033E-13
 -1      1127 1.91929E+01 7.17651E-04 2.65051E-03 6.04270E-03-1.21362E-14-8.30944E-13
 -1      1128 1.93413E+01 1.34633E-03 2.89527E-03 4.54141E-03-4.20249E-15-9.29401E-13
 -1      1129 1.94706E+01 1.59992E-03 2.84795E-03 3.33030E-03-3.52554E-15-8.61415E-13
 -1      1130 1.95806E+01 1.59074E-03 2.59047E-03 2.36690E-03-4.87147E-15-7.48494E-13
 -1      1131 1.96729E+01 1.39940E-03 2.19058E-03 1.60578E-03 9.18943E-16-7.88329E-13
 -1      1132 1.97501E+01 1.07532E-03 1.68874E-03 1.01012E-03-5.38758E-15-7.90563E-13
 -1      1133 1.98157E+01 6.43110E-04 1.10175E-03 5.51270E-04-1.35029E-14-9.12411E-13
 -1      1134 1.98739E+01 1.02532E-04 4.24110E-04 2.06250E-04 2.04902E-15-1.07328E-12
 -1      1135 1.99307E+01-5.88247E-04-4.02045E-04-4.13762E-05 7.79677E-17-1.26385E-12
 -1      1136 1.99910E+01-1.40085E-03-1.38969E-03-1.65863E-04 5.10975E-15-1.26192E-12
 -1      1137 2.00602E+01-2.43342E-03-2.61730E-03-1.78756E-04-2.43585E-15-1.32378E-12
 -1      1138 2.01487E+01-3.77144E-03-4.23193E-03-3.52527E-05-1.71795E-14-1.27192E-12
 -1      1139 2.02682E+01-5.54124E-03-6.42156E-03 3.37524E-04 9.09917E-16-1.17779E-12
 -1      1140 2.04342E+01-7.91637E-03-9.46471E-03 1.07542E-03 1.06301E-14-1.31955E-12
 -1      1141 2.06687E+01-1.11230E-02-1.37629E-02 2.41880E-03-2.77712E-14-1.28489E-12
 -1      1142 2.10018E+01-1.54350E-02-1.98831E-02 4.77172E-03-4.97196E-14-1.32425E-12
 -1      1143 2.14761E+01-2.16318E-02-2.86776E-02 8.74330E-03 4.07443E-16-1.33578E-12
 -1      1144 2.21718E+01-2.78392E-02-4.05432E-02 1.53700E-02 1.65566E-14-1.33761E-12
 -1      1145 2.31597E+01-3.62984E-02-5.52162E-02 2.81846E-02-1.09908E-14-1.31917E-12
 -1      1146 2.45053E+01-4.25709E-02-6.89873E-02 4.69548E-02-9.61167E-15-1.43863E-12
 -1      1147 2.63161E+01-4.15651E-02-7.04558E-02 7.37473E-02-1.17393E-14-1.45242E-12
 -1      1148 2.86035E+01-2.18542E-02-3.33814E-02 1.04033E-01-2.05814E-14-1.38455E-12
 -1      1149 3.11395E+01 3.39729E-02 8.32193E-02 1.16373E-01-3.33804E-15-1.09260E-12
 -1      1150 3.31757E+01 1.37935E-01 2.97298E-01 5.70000E-02 3.15668E-14-1.14574E-12
 -1      1151 3.32253E+01 2.47586E-01 4.91603E-01-1.50117E-01-1.19071E-14-9.93733E-13
 -1      1152 2.97913E+01 2.39541E-01 3.57108E-01-4.71092E-01 1.39784E-14-9.46188E-13
 -1      1153 2.35434E+01 1.04468E-02-2.65121E-01-6.29516E-01 4.69156E-14-8.03080E-13
 -1      1154 1.78668E+01-3.95056E-01-1.02225E+00-3.61373E-01 3.20924E-14-1.43574E-12
 -1      1155 1.70404E+01-4.61559E-01-1.13232E+00 2.32564E-01-1.07969E-14-1.32383E-12
 -1      1156 2.23606E+01-7.62963E-02-3.92638E-01 6.29389E-01-2.53807E-14-1.06187E-12
 -1      1157 2.91312E+01 2.40670E-01 3.34464E-01 4.88073E-01 3.23960E-14-7.26141E-13
 -1      1158 3.27811E+01 2.63847E-01 4.97764E-01 1.59196E-01-3.54751E-14-9.29701E-13
 -1      1159 3.27153E+01 1.29156E-01 2.96704E-01-4.72188E-02-5.63438E-14-6.33153E-13
 -1      1160 3.05411E+01 3.61794E-02 8.43402E-02-1.18404E-01-3.94780E-15-7.99152E-13
 -1      1161 2.78732E+01-1.94288E-02-2.89182E-02-1.08198E-01-4.58596E-14-9.18293E-13
 -1      1162 2.54234E+01-4.00415E-02-6.64594E-02-8.03101E-02 7.54700E-14-7.33053E-13
 -1      1163 2.34255E+01-4.34232E-02-6.86810E-02-5.58035E-02 8.46285E-15-1.00685E-12
 -1      1164 2.18913E+01-4.17020E-02-6.33342E-02-3.81284E-02 4.41348E-14-9.90583E-13
 -1      1165 2.07850E+01-4.08669E-02-6.26914E-02-2.32688E-02-3.33501E-15-6.15400E-13
 -1      1166 2.01141E+01-3.80295E-02-5.69383E-02 1.02965E-04-2.06376E-14-1.11550E-12
 -1      1167 1.99516E+01-3.56902E-02 4.92672E-03 3.86505E-02 1.78009E-13-9.91123E-13
 -1      1168 2.77923E+01 5.25677E-01 3.76891E-01 1.96661E+00-3.74423E-14 3.03457E-12
 -1      1169 2.00847E+01-6.66416E-02-5.73639E-01 1.29519E-01 1.16226E-15 2.73326E-12
 -1      1170 1.89063E+01-4.19619E-02-1.93210E-01 1.93191E-02 8.44290E-15 2.30020E-12
 -1      1171 1.85273E+01-2.26341E-02-5.04254E-02 1.16023E-03 7.73904E-15 2.02227E-12
 -1      1172 1.84564E+01-1.36925E-02-1.36882E-02-4.39304E-03 1.17181E-15 1.85797E-12
 -1      1173 1.85315E+01-7.89575E-03-4.89558E-03-5.62743E-03-5.99076E-15 1.75165E-12
 -1      1174 1.86750E+01-4.42665E-03-1.99440E-03-5.74686E-03 4.31838E-16 1.66861E-12
 -1      1175 1.88457E+01-2.26009E-03-2.98798E-04-5.42000E-03-4.52221E-16 1.53852E-12
 -1      1176 1.90203E+01-9.01160E-04 8.49101E-04-4.89428E-03 1.26845E-14 1.35376E-12
 -1      1177 1.91857E+01-7.31755E-05 1.54951E-03-4.27316E-03 1.05764E-14 1.20719E-12
 -1      1178 1.93352E+01 3.94215E-04 1.88470E-03-3.61867E-03-2.93512E-15 1.15341E-12
 -1      1179 1.94660E+01 6.11515E-04 1.94567E-03-2.97017E-03 5.56627E-15 1.14108E-12
 -1      1180 1.95778E+01 6.52483E-04 1.81081E-03-2.35200E-03 1.49898E-14 1.00406E-12
 -1      1181 1.96721E+01 5.66666E-04 1.53734E-03-1.77794E-03-1.59645E-14 9.57422E-13
 -1      1182 1.97517E+01 3.87148E-04 1.16316E-03-1.25507E-03-1.86925E-15 9.56692E-13
 -1      1183 1.98198E+01 1.36213E-04 7.11465E-04-7.87241E-04 3.15293E-14 8.38375E-13
 -1      1184 1.98805E+01-1.69770E-04 1.96188E-04-3.78560E-04-1.66538E-14 7.69741E-13
 -1      1185 1.99380E+01-5.15378E-04-3.71870E-04-3.67900E-05-1.74724E-14 9.25372E-13
 -1      1186 1.99969E+01-8.80491E-04-9.77600E-04 2.23055E-04-2.26423E-14 9.86530E-13
 -1      1187 2.00618E+01-1.23351E-03-1.59205E-03 3.75176E-04 1.59393E-14 7.02049E-13
 -1      1188 2.01372E+01-1.52335E-03-2.16015E-03 3.79975E-04 8.65128E-15 3.67649E-13
 -1      1189 2.02271E+01-1.67063E-03-2.58554E-03 1.82688E-04 5.33132E-15 4.19952E-13
 -1      1190 2.03342E+01-1.55979E-03-2.71379E-03-2.84192E-04 3.19647E-15 2.85287E-13
 -1      1191 2.04588E+01-1.03580E-03-2.31809E-03-1.09117E-03 1.09244E-14 1.33187E-13
 -1      1192 2.05973E+01 8.74619E-05-1.09634E-03-2.28958E-03 3.95895E-15 3.74873E-13
 -1      1193 2.07404E+01 1.99653E-03 1.30336E-03-3.87100E-03-1.55162E-15 5.70963E-13
 -1      1194 2.08703E+01 4.81127E-03 5.20341E-03-5.70417E-03 1.70010E-14 2.32160E-13
 -1      1195 2.09595E+01 8.47035E-03 1.07334E-02-7.45412E-03 2.09317E-14-1.84748E-16
 -1      1196 2.09696E+01 1.25753E-02 1.75679E-02-8.50915E-03-3.84675E-16-8.42042E-14
 -1      1197 2.08544E+01 1.62420E-02 2.46070E-02-7.97713E-03 2.55536E-14-4.66632E-14
 -1      1198 2.05674E+01 1.80772E-02 2.97619E-02-4.84943E-03 2.69641E-15 3.39520E-14
 -1      1199 2.00769E+01 1.64542E-02 3.01439E-02 1.57862E-03-5.21946E-14 1.39767E-13
 -1      1200 1.93853E+01 1.01934E-02 2.29702E-02 1.10612E-02 1.92782E-14 1.84401E-14
 -1      1201 1.85492E+01-4.77949E-04 7.19854E-03 2.18213E-02-1.91699E-14-1.17246E-13
 -1      1202 1.76859E+01-1.32741E-02-1.48100E-02 3.05561E-02-8.18652E-14 6.98747E-14
 -1      1203 1.69565E+01-2.41907E-02-3.69095E-02 3.35305E-02-9.77582E-15 2.29174E-13
 -1      1204 1.65212E+01-2.92818E-02-5.13200E-02 2.84752E-02 9.19759E-14-1.43144E-13
 -1      1205 1.64812E+01-2.67806E-02-5.25276E-02 1.61944E-02-3.03381E-14-1.31761E-14
 -1      1206 1.68372E+01-1.80643E-02-4.03924E-02 4.61582E-04 5.58351E-14-7.91103E-14
 -1      1207 1.74891E+01-6.71377E-03-2.00932E-02-1.38027E-02 2.39908E-14-4.06709E-13
 -1      1208 1.82756E+01 3.48847E-03 9.15622E-04-2.28624E-02 7.20624E-15-1.91139E-13
 -1      1209 1.90322E+01 1.01706E-02 1.66185E-02-2.54742E-02-5.16948E-16 1.93422E-13
 -1      1210 1.96380E+01 1.27540E-02 2.44100E-02-2.26715E-02 2.29469E-14-4.36040E-14
 -1      1211 2.00357E+01 1.19127E-02 2.47934E-02-1.66129E-02-8.75927E-15-1.96980E-13
 -1      1212 2.02263E+01 8.79147E-03 1.98775E-02-9.47787E-03 5.09253E-14-3.60350E-13
 -1      1213 2.02517E+01 4.49226E-03 1.19561E-02-2.90699E-03 5.14249E-14-6.63736E-13
 -1      1214 2.01752E+01-7.96359E-05 2.90085E-03 2.02879E-03-2.32583E-14-4.70243E-13
 -1      1215 2.00673E+01-3.70299E-03-5.00950E-03 4.18056E-03 8.31401E-15-3.94968E-13
 -1      1216 1.99944E+01-3.63265E-03-6.21505E-03 1.92826E-03 1.10636E-13-5.83072E-13
 -1      1217 1.99915E+01 3.21791E-03 7.46343E-03-2.92284E-03-7.59359E-15-5.13708E-13
 -1      1218 2.00025E+01-9.02115E-03 6.82113E-03-3.16264E-03-5.49120E-13-4.39416E-14
 -1      1219 1.99938E+01-8.44970E-03-8.25440E-03-3.99096E-03-5.13659E-13-2.88521E-14
 -1      1220 1.99902E+01 6.88912E-02-1.37689E-02 2.09203E-04 4.27073E-13 5.16987E-14
 -1      1221 1.99883E+01 2.40822E-01-1.61092E-02 3.66347E-03 6.23944E-13 5.68437E-14
 -1      1222 1.99879E+01 5.19823E-01-1.69433E-02 7.94819E-03 4.53014E-13 8.11596E-14
 -1      1223 1.99896E+01 9.08723E-01-1.46927E-02 1.27826E-02-7.52245E-14-3.30739E-14
 -1      1224 1.99950E+01 1.39456E+00-7.71231E-03 1.70147E-02-2.71016E-14 5.28234E-14
 -1      1225 2.00038E+01 1.93522E+00 4.50061E-03 1.92212E-02-7.92293E-13-1.89328E-13
 -1      1226 2.00150E+01 2.44489E+00 2.03263E-02 1.76041E-02-1.16592E-12 6.26931E-14
 -1      1227 2.00259E+01 2.81730E+00 3.61775E-02 1.10390E-02-5.20526E-13 1.58799E-13
 -1      1228 2.00329E+01 2.94608E+00 4.69342E-02-3.10527E-04-3.80990E-13-2.30227E-13
 -1      1229 2.00339E+01 2.76187E+00 4.78293E-02-1.46251E-02-1.24283E-12-4.51449E-14
 -1      1230 2.00249E+01 2.25951E+00 3.48645E-02-2.75962E-02-1.29503E-12 2.09522E-13
 -1      1231 2.00075E+01 1.51515E+00 7.25648E-03-3.53808E-02 8.95777E-14 1.06111E-13
 -1      1232 1.99849E+01 7.13572E-01-2.80252E-02-2.91928E-02 8.41861E-13 8.35152E-14
 -1      1233 1.99809E+01 1.11847E-01-4.21069E-02 7.98866E-03 2.14427E-12-3.68080E-14
 -1      1234 1.99754E+01-4.82597E-02 1.15030E-02 3.68452E-02 1.17913E-12-1.32528E-13
 -1      1235-1.27529E+00-2.47879E+01-3.77971E+00-2.28757E+00 1.33948E-12 3.42497E-13
 -1      1236-1.67567E+00-1.38649E+01-2.92311E+00-3.69018E+00 2.28617E-12 9.59677E-13
 -1      1237 1.56947E+00 1.18812E-01-1.47700E+00 1.48762E+00 3.19278E-12 1.98985E-12
 -1      1238 1.20239E+01 9.79457E+00 1.74283E-01 1.05610E+01 2.35523E-12 2.29416E-12
 -1      1239 2.95705E+01 1.17966E+01 1.74014E+00 1.77914E+01 1.45606E-12 2.09077E-12
 -1      1240 5.02263E+01 7.86018E+00 3.12791E+00 1.80701E+01 7.69884E-13 1.97020E-12
 -1      1241 6.51330E+01 3.16773E+00 4.01968E+00 9.73107E+00 2.64851E-13 1.10945E-12
 -1      1242 6.83179E+01 1.97372E+00 4.17138E+00-3.53989E+00 7.49192E-14-3.74312E-13
 -1      1243 5.83926E+01 5.56141E+00 3.66902E+00-1.51213E+01 3.24712E-13-1.25633E-12
 -1      1244 3.93621E+01 1.05872E+01 2.46920E+00-1.89483E+01 6.73461E-13-1.35336E-12
 -1      1245 1.96109E+01 1.18588E+01 9.61416E-01-1.46572E+01 1.25322E-12-1.55320E-12
 -1      1246 5.44790E+00 5.81379E+00-7.07773E-01-5.69583E+00 1.01696E-12-8.95728E-13
 -1      1247-8.29638E-01-6.86972E+00-2.24697E+00 1.96372E+00 1.59073E-12-7.10987E-13
 -1      1248-1.48306E+00-2.00388E+01-3.33953E+00 3.56217E+00 1.51656E-12-3.17940E-13
 -1      1249-8.95668E-01-2.70405E+01-3.91625E+00-1.18830E-01 7.78155E-13-6.84869E-15
 -1      1250-1.85444E+00-2.40126E+01-3.87238E+00-4.72571E+00-1.81410E-13 6.53644E-15
 -1      1251-2.34932E+00-1.23414E+01-3.15795E+00-4.40073E+00-2.82885E-13-2.07501E-13
 -1      1252 2.91238E+00 8.66026E-01-1.84221E+00 2.55855E+00-9.00613E-13-7.92033E-13
 -1      1253 1.75232E+01 9.07848E+00 1.02597E-01 1.24185E+01-8.46878E-13-9.92317E-13
 -1      1254 4.05654E+01 9.75491E+00 2.41704E+00 1.87212E+01-5.27800E-13-9.24816E-13
 -1      1255 6.48876E+01 5.18531E+00 4.59374E+00 1.52260E+01-1.81521E-13-1.68310E-13
 -1      1256 7.71190E+01 2.25999E+00 5.69156E+00 2.08798E+00 4.31599E-15 8.57037E-13
 -1      1257 7.08644E+01 3.86448E+00 5.14370E+00-1.21417E+01-4.85750E-13 1.84830E-12
 -1      1258 4.98970E+01 8.65608E+00 3.29041E+00-1.90576E+01-8.56204E-13 2.13873E-12
 -1      1259 2.55678E+01 1.05939E+01 1.02712E+00-1.58493E+01-1.36136E-12 1.80811E-12
 -1      1260 7.24490E+00 5.43046E+00-1.05864E+00-6.40870E+00-1.89160E-12 1.82010E-12
 -1      1261-1.16582E+00-5.99815E+00-2.60094E+00 2.23261E+00-1.42664E-12 1.03295E-12
 -1      1262-2.43969E+00-1.88609E+01-3.59492E+00 5.37708E+00 2.58682E-14 8.08797E-14
 -1      1263-1.37955E+00-2.68668E+01-4.04812E+00 2.62508E+00 7.88258E-13-6.61277E-15
 -1      1264 2.22663E+01 1.83817E+00-7.25887E-01-2.79072E+00-7.35800E-14 6.96165E-13
 -1      1265 2.03592E+01 4.69015E+00-4.86449E-02-3.30727E+00-1.61982E-13-3.40894E-13
 -1      1266 2.08665E+01 4.81061E+00-1.13385E-01-4.16146E+00-2.28900E-13-1.21403E-13
 -1      1267 1.95313E+01 4.99316E+00-1.96938E-02-2.65470E+00-1.35947E-13-6.30822E-13
 -1      1268 1.98296E+01 5.09005E+00 2.43023E-04-3.04579E+00-1.62925E-13-5.12222E-13
 -1      1269 2.05259E+01 3.95268E+00-2.59034E-02-3.07529E+00-2.74711E-13-2.91461E-13
 -1      1270 1.91840E+01 5.08439E+00-3.54615E-03-2.07105E+00-8.72219E-14-7.46403E-13
 -1      1271 1.93326E+01 5.13956E+00 1.05520E-02-2.36387E+00-1.07723E-13-7.01252E-13
 -1      1272 1.97531E+01 4.36581E+00-2.45202E-02-2.48956E+00-2.07421E-13-5.29597E-13
 -1      1273 1.90094E+01 5.13084E+00 3.28192E-03-1.56486E+00-4.19699E-14-7.74754E-13
 -1      1274 1.90870E+01 5.16039E+00 1.25477E-02-1.81493E+00-5.38024E-14-7.68056E-13
 -1      1275 1.93917E+01 4.55482E+00-2.00466E-02-1.93223E+00-1.22140E-13-6.24920E-13
 -1      1276 1.89158E+01 5.16078E+00 6.52144E-03-1.11722E+00 4.47559E-16-7.57812E-13
 -1      1277 1.89582E+01 5.17708E+00 1.26772E-02-1.33867E+00-1.53037E-14-7.66602E-13
 -1      1278 1.92061E+01 4.66155E+00-1.61224E-02-1.44471E+00-5.34993E-14-6.45241E-13
 -1      1279 1.88646E+01 5.18054E+00 8.18921E-03-6.93998E-01 3.52138E-14-7.25392E-13
 -1      1280 1.88874E+01 5.18935E+00 1.19624E-02-9.04236E-01 2.29400E-14-7.45647E-13
 -1      1281 1.91031E+01 4.72691E+00-1.40374E-02-1.00449E+00 1.46398E-14-6.38132E-13
 -1      1282 1.88407E+01 5.19245E+00 9.29136E-03-2.89252E-01 6.75793E-14-6.83202E-13
 -1      1283 1.88505E+01 5.19626E+00 1.10633E-02-4.91394E-01 5.71140E-14-7.07549E-13
 -1      1284 1.90476E+01 4.76577E+00-1.29335E-02-5.88942E-01 7.43137E-14-6.03077E-13
 -1      1285 1.88370E+01 5.19739E+00 1.02264E-02 1.08216E-01 1.00257E-13-6.30461E-13
 -1      1286 1.88367E+01 5.19725E+00 1.01518E-02-9.14839E-02 9.05325E-14-6.59731E-13
 -1      1287 1.90235E+01 4.78378E+00-1.24755E-02-1.89162E-01 1.25866E-13-5.58938E-13
 -1      1288 1.88523E+01 5.19589E+00 1.11666E-02 5.08727E-01 1.29612E-13-5.73009E-13
 -1      1289 1.88417E+01 5.19179E+00 9.23023E-03 3.06154E-01 1.19793E-13-6.09360E-13
 -1      1290 1.90244E+01 4.78313E+00-1.24910E-02 2.05794E-01 1.78290E-13-5.13738E-13
 -1      1291 1.88907E+01 5.18817E+00 1.21017E-02 9.23079E-01 1.57633E-13-4.95678E-13
 -1      1292 1.88670E+01 5.17917E+00 8.14233E-03 7.11867E-01 1.47996E-13-5.43553E-13
 -1      1293 1.90503E+01 4.76367E+00-1.29766E-02 6.06272E-01 2.25651E-13-4.51340E-13
 -1      1294 1.89624E+01 5.17517E+00 1.28970E-02 1.35636E+00 1.81959E-13-3.80199E-13
 -1      1295 1.89193E+01 5.15846E+00 6.46272E-03 1.13345E+00 1.72753E-13-4.48409E-13
 -1      1296 1.91075E+01 4.72322E+00-1.39976E-02 1.01969E+00 2.67263E-13-3.69191E-13
 -1      1297 1.90949E+01 5.15681E+00 1.28978E-02 1.84097E+00 2.20790E-13-2.06939E-13
 -1      1298 1.90154E+01 5.12644E+00 3.15786E-03 1.58820E+00 2.01706E-13-3.05193E-13
 -1      1299 1.92127E+01 4.65491E+00-1.61457E-02 1.46288E+00 3.14192E-13-2.44412E-13
 -1      1300 1.93443E+01 5.13324E+00 1.04352E-02 2.39795E+00 2.50598E-13 4.47350E-14
 -1      1301 1.91938E+01 5.07639E+00-4.17726E-03 2.10062E+00 2.29268E-13-1.02834E-13
 -1      1302 1.94052E+01 4.54251E+00-1.99145E-02 1.95826E+00 3.59165E-13-6.78520E-14
 -1      1303 1.98543E+01 5.09940E+00 6.00971E-03 3.08455E+00 2.52062E-13 4.38774E-13
 -1      1304 1.95434E+01 4.98455E+00-2.02498E-02 2.69736E+00 2.33313E-13 2.03754E-13
 -1      1305 1.97738E+01 4.34571E+00-2.47814E-02 2.52859E+00 3.84989E-13 2.02720E-13
 -1      1306 2.11023E+01 4.90656E+00 7.96423E-03 4.05400E+00 1.80217E-13 1.11142E-12
 -1      1307 2.03332E+01 4.73392E+00-4.81045E-02 3.41635E+00 1.85296E-13 7.10654E-13
 -1      1308 2.05624E+01 3.91592E+00-2.28698E-02 3.17912E+00 3.47129E-13 6.24681E-13
 -1      1309 2.72022E+01 3.20533E+00 9.28892E-01 4.58236E+00 5.54834E-14 2.20224E-12
 -1      1310 2.20193E+01 3.52216E+00-1.82152E-01 3.88514E+00 7.32747E-14 1.46699E-12
 -1      1311 2.21125E+01 2.56168E+00-3.25263E-02 3.45707E+00 2.75700E-13 1.21930E-12
 -1      1312 2.14260E+01 3.59609E-01-7.63676E-01 1.18388E+00 1.17371E-13 2.19214E-12
 -1      1313 2.20003E+01 1.31427E-01-4.00893E-01-1.28580E+00-1.96482E-13 7.82319E-13
 -1      1314 2.06775E+01 3.06712E-01-1.64847E-01-8.05824E-01-1.74694E-13 5.44384E-13
 -1      1315 2.00798E+01 1.53472E-01-7.35258E-02-4.02232E-01-1.48537E-13 4.58722E-13
 -1      1316 1.96099E+01 9.11673E-02-1.49295E-02-3.30082E-01-1.47167E-13 2.29747E-13
 -1      1317 2.09715E+01 3.69042E-01-1.04292E-01-1.27403E+00-3.17205E-13 1.79273E-13
 -1      1318 1.92524E+01 6.44962E-02 3.04007E-03-1.35493E-01-1.20390E-13 1.66863E-13
 -1      1319 1.90979E+01 4.12678E-02 1.32221E-02-1.17697E-01-1.02376E-13-3.08087E-15
 -1      1320 1.99206E+01 1.33891E-01-3.51416E-02-5.04226E-01-2.53075E-13 7.50372E-14
 -1      1321 1.89374E+01 3.15368E-02 1.32440E-02-2.81688E-02-6.08827E-14-7.11722E-14
 -1      1322 1.89177E+01 1.93950E-02 1.10591E-02-1.87823E-02-5.66201E-14-1.60955E-13
 -1      1323 1.94431E+01 5.54551E-02-8.51591E-03-1.70300E-01-1.67755E-13-3.54751E-14
 -1      1324 1.88615E+01 1.60119E-02 8.78183E-03 2.48700E-02-2.58634E-14-1.96371E-13
 -1      1325 1.89037E+01 9.07346E-03 6.44133E-03 2.94975E-02-4.21373E-14-2.50725E-13
 -1      1326 1.92339E+01 2.44191E-02-3.49707E-03-1.14391E-02-8.84388E-14-1.43594E-13
 -1      1327 1.89036E+01 7.85049E-03 4.67911E-03 5.06555E-02-7.60362E-14-2.79433E-13
 -1      1328 1.89737E+01 3.47401E-03 3.62754E-03 5.25493E-02-6.76705E-14-3.61374E-13
 -1      1329 1.91769E+01 1.01804E-02-2.21719E-03 6.72338E-02-1.20586E-13-2.14649E-13
 -1      1330 1.90031E+01 3.30649E-03 2.48927E-03 6.13079E-02-4.11806E-14-3.97147E-13
 -1      1331 1.90836E+01 2.42936E-04 2.21985E-03 6.16378E-02-4.35439E-14-4.61235E-13
 -1      1332 1.92028E+01 2.66387E-03-1.34785E-03 1.04057E-01-1.04360E-13-2.54374E-13
 -1      1333 1.91297E+01 5.60942E-04 1.41460E-03 6.32382E-02-2.86788E-14-4.59754E-13
 -1      1334 1.92140E+01-1.64033E-03 1.40881E-03 6.25639E-02-2.88240E-14-5.13897E-13
 -1      1335 1.92737E+01-1.17413E-03-5.80374E-04 1.17426E-01-7.67261E-14-2.83448E-13
 -1      1336 1.92624E+01-1.11812E-03 7.49792E-04 6.00937E-02-4.59249E-14-5.32418E-13
 -1      1337 1.93376E+01-2.37970E-03 9.64799E-04 5.88940E-02-6.37644E-14-5.84039E-13
 -1      1338 1.93645E+01-3.59964E-03 7.93749E-06 1.16919E-01-7.98347E-14-3.13373E-13
 -1      1339 1.93858E+01-1.95188E-03 4.17980E-04 5.43875E-02-3.05480E-14-5.97520E-13
 -1      1340 1.94530E+01-2.72222E-03 6.69887E-04 5.29851E-02-4.40961E-15-6.23478E-13
 -1      1341 1.94579E+01-4.51070E-03 3.45197E-04 1.08920E-01-7.57575E-14-3.35559E-13
 -1      1342 1.94980E+01-2.25927E-03 2.25676E-04 4.76455E-02 1.32225E-14-5.86021E-13
 -1      1343 1.95563E+01-2.70534E-03 4.68025E-04 4.62225E-02 2.31137E-14-5.66143E-13
 -1      1344 1.95482E+01-4.76214E-03 5.14158E-04 9.73543E-02 3.12679E-14-3.38802E-13
 -1      1345 1.95968E+01-2.24219E-03 1.13227E-04 4.08471E-02 2.07883E-14-5.40048E-13
 -1      1346 1.96464E+01-2.45058E-03 3.34248E-04 3.95330E-02 1.87180E-14-5.29427E-13
 -1      1347 1.96312E+01-4.53683E-03 5.65437E-04 8.46680E-02 2.64119E-14-3.98599E-13
 -1      1348 1.96821E+01-2.00395E-03 5.40417E-05 3.46614E-02-8.63312E-15-5.54017E-13
 -1      1349 1.97239E+01-2.03466E-03 2.51987E-04 3.35421E-02-1.54594E-14-5.66741E-13
 -1      1350 1.97053E+01-3.99825E-03 5.34339E-04 7.24904E-02-1.64733E-14-4.15217E-13
 -1      1351 1.97554E+01-1.60749E-03 3.20811E-05 2.95514E-02-3.42132E-14-5.32785E-13
 -1      1352 1.97909E+01-1.50059E-03 2.10880E-04 2.86883E-02-3.73359E-14-5.62478E-13
 -1      1353 1.97708E+01-3.24512E-03 4.44492E-04 6.19401E-02-1.76127E-14-3.67556E-13
 -1      1354 1.98190E+01-1.08529E-03 3.71927E-05 2.58668E-02-8.32871E-14-5.60576E-13
 -1      1355 1.98500E+01-8.65021E-04 2.05095E-04 2.53105E-02-7.12874E-14-6.40224E-13
 -1      1356 1.98290E+01-2.32776E-03 3.10068E-04 5.38289E-02-7.76976E-14-3.60911E-13
 -1      1357 1.98762E+01-4.41660E-04 6.48476E-05 2.39185E-02-4.56331E-14-7.08289E-13
 -1      1358 1.99049E+01-1.17387E-04 2.44226E-04 2.37180E-02-5.04426E-14-7.91819E-13
 -1      1359 1.98822E+01-1.25732E-03 1.37201E-04 4.88224E-02-1.12012E-13-3.96761E-13
 -1      1360 1.99325E+01 3.65031E-04 1.11575E-04 2.40817E-02-5.06229E-14-8.43333E-13
 -1      1361 1.99629E+01 8.16392E-04 2.91091E-04 2.43542E-02-6.48615E-14-9.14405E-13
 -1      1362 1.99349E+01-3.72934E-06-9.74259E-05 4.76245E-02-1.02310E-13-4.99108E-13
 -1      1363 1.99916E+01 1.34607E-03 1.64807E-04 2.68787E-02-4.28612E-16-9.24603E-13
 -1      1364 2.00242E+01 1.90185E-03 3.87865E-04 2.76440E-02 3.37251E-14-9.15104E-13
 -1      1365 1.99900E+01 1.57972E-03-3.45733E-04 5.11900E-02-6.53101E-14-6.04727E-13
 -1      1366 2.00580E+01 2.56637E-03 2.30705E-04 3.27822E-02 2.67335E-14-8.94628E-13
 -1      1367 2.00983E+01 3.28005E-03 5.19609E-04 3.42041E-02-4.60336E-15-8.51313E-13
 -1      1368 2.00512E+01 3.47735E-03-6.62639E-04 6.04096E-02 4.51998E-14-5.97251E-13
 -1      1369 2.01409E+01 4.16174E-03 3.02708E-04 4.27122E-02 3.39559E-14-8.53902E-13
 -1      1370 2.01938E+01 5.07847E-03 6.93454E-04 4.49860E-02 5.43189E-14-7.80736E-13
 -1      1371 2.01260E+01 5.92544E-03-1.06482E-03 7.67966E-02 2.11261E-14-4.24295E-13
 -1      1372 2.02499E+01 6.29845E-03 3.69710E-04 5.79503E-02-4.38519E-14-7.67532E-13
 -1      1373 2.03224E+01 7.48662E-03 9.10711E-04 6.13680E-02-6.06993E-14-8.24975E-13
 -1      1374 2.02225E+01 9.20053E-03-1.58280E-03 1.02532E-01 7.09328E-15-4.35601E-13
 -1      1375 2.03980E+01 9.22025E-03 4.09091E-04 8.03546E-02-4.04438E-14-8.70776E-13
 -1      1376 2.04993E+01 1.07680E-02 1.16119E-03 8.53441E-02-4.61104E-14-8.83388E-13
 -1      1377 2.03508E+01 1.36984E-02-2.26285E-03 1.40758E-01-1.01176E-13-4.90665E-13
 -1      1378 2.06025E+01 1.32674E-02 3.71363E-04 1.12581E-01-3.82370E-14-9.24466E-13
 -1      1379 2.07455E+01 1.52735E-02 1.40482E-03 1.19761E-01-6.53477E-14-9.38150E-13
 -1      1380 2.05245E+01 1.99796E-02-3.17062E-03 1.95958E-01-1.09808E-13-5.09843E-13
 -1      1381 2.08868E+01 1.88899E-02 1.53809E-04 1.58346E-01-5.94429E-14-9.02546E-13
 -1      1382 2.10894E+01 2.13670E-02 1.49546E-03 1.68612E-01-5.21508E-14-9.70052E-13
 -1      1383 2.07615E+01 2.87988E-02-4.40319E-03 2.74406E-01-3.83981E-14-5.98389E-13
 -1      1384 2.12830E+01 2.70520E-02-3.08894E-04 2.22636E-01-2.44427E-14-9.68184E-13
 -1      1385 2.15699E+01 2.91623E-02 1.30060E-03 2.37100E-01 1.44294E-14-9.26335E-13
 -1      1386 2.10852E+01 4.09131E-02-6.13409E-03 3.84515E-01-6.28755E-14-5.60920E-13
 -1      1387 2.18482E+01 3.75136E-02-1.68920E-03 3.14839E-01-5.13391E-15-9.36364E-13
 -1      1388 2.22752E+01 4.01580E-02 2.08329E-04 3.37167E-01 1.74426E-14-9.67644E-13
 -1      1389 2.15387E+01 5.83403E-02-8.56129E-03 5.41335E-01 1.61798E-14-6.59376E-13
 -1      1390 2.26346E+01 5.05683E-02-4.38604E-03 4.38010E-01 3.41619E-14-9.76729E-13
 -1      1391 2.32035E+01 5.19899E-02-1.93121E-03 4.65714E-01-5.21666E-14-9.95315E-13
 -1      1392 2.21537E+01 7.94008E-02-1.16367E-02 7.55103E-01 2.57832E-14-6.93287E-13
 -1      1393 2.36760E+01 6.33840E-02-8.79222E-03 5.91964E-01-7.22703E-14-9.79848E-13
 -1      1394 2.44439E+01 6.02604E-02-5.64635E-03 6.27271E-01-2.77053E-14-1.04732E-12
 -1      1395 2.29530E+01 1.02247E-01-1.51445E-02 1.02501E+00-3.49130E-14-5.73087E-13
 -1      1396 2.50444E+01 6.97905E-02-1.40180E-02 7.66881E-01 2.13492E-14-1.03619E-12
 -1      1397 2.60288E+01 5.45250E-02-9.05118E-03 8.05597E-01-1.98470E-14-1.01535E-12
 -1      1398 2.39858E+01 1.14735E-01-1.84455E-02 1.34315E+00-3.35877E-14-5.71808E-13
 -1      1399 2.67499E+01 5.25975E-02-1.56341E-02 9.15983E-01 6.51089E-14-9.30860E-13
 -1      1400 2.78922E+01 1.26856E-02-5.79673E-03 9.43043E-01 6.78379E-14-8.34437E-13
 -1      1401 2.52650E+01 8.94627E-02-1.82646E-02 1.64879E+00 8.87970E-14-5.22651E-13
 -1      1402 2.86792E+01-2.02793E-02-2.24784E-03 9.25200E-01 1.37911E-14-7.74471E-13
 -1      1403 2.97490E+01-9.78324E-02 1.55140E-02 9.03668E-01 1.37286E-14-7.58962E-13
 -1      1404 2.67442E+01-2.76529E-02-7.72814E-03 1.78217E+00 1.40816E-13-5.29056E-13
 -1      1405 3.04671E+01-1.86265E-01 4.04827E-02 5.90945E-01 3.64986E-14-7.51420E-13
 -1      1406 3.09610E+01-2.90694E-01 5.76520E-02 4.58758E-01 4.83433E-14-7.18103E-13
 -1      1407 2.82630E+01-3.02882E-01 2.16702E-02 1.43613E+00 5.44773E-14-4.97543E-13
 -1      1408 3.13701E+01-4.17010E-01 1.03032E-01-2.94398E-01 2.86646E-14-8.62331E-13
 -1      1409 3.05923E+01-4.78171E-01 7.53617E-02-5.77278E-01-5.61565E-14-7.13762E-13
 -1      1410 2.94828E+01-7.14532E-01 6.49662E-02 2.21600E-01 1.44537E-14-4.91419E-13
 -1      1411 3.04158E+01-4.91886E-01 1.05014E-01-1.55815E+00-5.03000E-14-7.43294E-13
 -1      1412 2.82073E+01-3.69818E-01-1.01658E-02-1.83046E+00 6.49220E-16-7.46597E-13
 -1      1413 2.98745E+01-9.45331E-01 7.24755E-02-1.84130E+00-8.71907E-14-5.45342E-13
 -1      1414 2.74507E+01-1.49892E-01-4.93020E-02-2.31355E+00 3.40700E-14-7.71716E-13
 -1      1415 2.48004E+01 1.63686E-01-2.07257E-01-2.30972E+00-5.91055E-14-8.63309E-13
 -1      1416 2.90802E+01-4.42280E-01-1.60238E-02-3.67777E+00-5.70377E-15-6.84328E-13
 -1      1417 2.38691E+01 5.59528E-01-2.91395E-01-1.63800E+00-1.19404E-13-9.32254E-13
 -1      1418 2.23112E+01 7.89342E-01-4.05319E-01-1.21554E+00-1.14075E-13-1.07406E-12
 -1      1419 2.74962E+01 6.73784E-01-2.04824E-01-3.54072E+00-1.89376E-13-6.67306E-13
 -1      1420 2.20706E+01 8.76969E-01-4.27258E-01 5.24217E-01-1.99285E-14-1.06992E-12
 -1      1421 2.30735E+01 7.01073E-01-3.55811E-01 1.09460E+00 1.57652E-14-1.00731E-12
 -1      1422 2.63298E+01 1.58390E+00-3.38349E-01-6.19159E-01-1.06110E-13-7.74778E-13
 -1      1423 2.39468E+01 3.40967E-01-2.59416E-01 2.18448E+00 6.58917E-14-1.00542E-12
 -1      1424 2.67551E+01-6.43413E-02-9.24623E-02 2.26009E+00 1.12785E-13-8.77437E-13
 -1      1425 2.70050E+01 9.89684E-01-2.51208E-01 2.95000E+00 6.53366E-14-8.39252E-13
 -1      1426 2.76643E+01-3.07809E-01-1.59624E-02 1.89544E+00-2.74461E-14-8.42520E-13
 -1      1427 3.00147E+01-5.12401E-01 8.79282E-02 1.59751E+00 1.48527E-14-8.29337E-13
 -1      1428 2.87067E+01-3.06384E-01-3.43850E-02 3.71052E+00 7.64597E-14-8.04166E-13
 -1      1429 3.02339E+01-4.67259E-01 8.04991E-02 5.94994E-01-5.21631E-14-7.98639E-13
 -1      1430 3.10269E+01-4.30271E-01 1.01332E-01 3.04873E-01 6.56454E-14-8.04162E-13
 -1      1431 2.96186E+01-9.15936E-01 7.82451E-02 1.90024E+00-2.71120E-14-8.39235E-13
 -1      1432 3.05858E+01-2.89924E-01 6.04356E-02-4.91228E-01 6.29323E-14-7.11875E-13
 -1      1433 3.00211E+01-1.83894E-01 3.89392E-02-6.36467E-01-2.01852E-14-6.48426E-13
 -1      1434 2.91836E+01-7.22064E-01 6.42490E-02-2.63268E-01 1.40582E-13-6.60436E-13
 -1      1435 2.92563E+01-1.01908E-01 1.45005E-02-9.51682E-01-2.97288E-14-4.37317E-13
 -1      1436 2.81265E+01-2.29442E-02-1.55999E-03-9.74649E-01-4.81611E-14-4.21399E-13
 -1      1437 2.78645E+01-2.97866E-01 2.44168E-02-1.52447E+00 2.57953E-14-3.15352E-13
 -1      1438 2.72871E+01 8.10879E-03-5.40141E-03-9.99628E-01-7.99380E-14-4.11754E-13
 -1      1439 2.60758E+01 4.98071E-02-1.39158E-02-9.75058E-01-6.20481E-14-4.36415E-13
 -1      1440 2.62547E+01-3.16765E-02-5.87924E-03-1.88211E+00-9.05144E-14-3.48645E-14
 -1      1441 2.52950E+01 4.99865E-02-8.36710E-03-8.72025E-01-3.13126E-14-4.02726E-13
 -1      1442 2.42303E+01 6.85370E-02-1.22069E-02-8.35477E-01 2.41716E-14-4.78881E-13
 -1      1443 2.46720E+01 8.38019E-02-1.68391E-02-1.76635E+00-2.98355E-14-1.15944E-13
 -1      1444 2.35676E+01 5.81927E-02-4.91222E-03-6.98604E-01-8.30759E-14-5.53495E-13
 -1      1445 2.27142E+01 6.60173E-02-7.40915E-03-6.63982E-01-9.36612E-14-7.43971E-13
 -1      1446 2.32805E+01 1.12205E-01-1.75813E-02-1.47394E+00-2.00845E-13-2.01468E-13
 -1      1447 2.21852E+01 5.58248E-02-1.83867E-03-5.29500E-01 5.70551E-14-6.91606E-13
 -1      1448 2.15433E+01 6.05039E-02-4.67707E-03-4.98807E-01 9.81637E-14-4.90535E-13
 -1      1449 2.21369E+01 1.08676E-01-1.54845E-02-1.15129E+00 1.74956E-14-2.90953E-13
 -1      1450 2.11464E+01 5.51909E-02-2.10093E-03-3.70157E-01 9.89330E-14-6.71829E-13
 -1      1451 2.07092E+01 6.03193E-02-4.55261E-03-3.39711E-01-7.69376E-14-7.33850E-13
 -1      1452 2.12473E+01 1.03121E-01-1.45745E-02-8.41202E-01 3.59218E-14-5.51097E-13
 -1      1453 2.04359E+01 5.93997E-02-5.80259E-03-2.07645E-01-2.51612E-13-6.86548E-13
 -1      1454 2.02166E+01 7.15100E-02 3.17089E-03-1.68209E-01-1.07084E-13-8.32651E-13
 -1      1455 2.06011E+01 1.11026E-01-1.46591E-02-5.35467E-01-2.42651E-13-6.82253E-13
 -1      1456 2.00826E+01 6.34867E-02-3.21226E-03-6.54068E-02 1.46186E-13-8.94388E-13
 -1      1457 2.00478E+01 5.08216E-02 2.72184E-02-4.27046E-02 4.15012E-13-3.13004E-13
 -1      1458 2.00412E+01 7.58804E-02-8.99420E-03-6.51097E-02 1.13929E-12-3.12475E-13
 -1      1459 2.02229E+01 1.28391E-01-1.02069E-02-2.63261E-01-3.52739E-14-4.86180E-13
 -1      1460 2.02584E+01 7.58323E-02-1.51768E-01 4.83776E-01 1.37754E-13 1.90291E-12
 -1      1461 2.15294E+01 2.16084E-01-2.29255E-01 7.21279E-01 1.10786E-13 2.08725E-12
 -1      1462 2.17281E+01 8.82275E-01-8.52749E-02 2.06553E+00 2.02414E-13 1.49246E-12
 -1      1463 1.93281E+01 3.41575E-02-2.07851E-02 1.85459E-01 1.04973E-13 1.62215E-12
 -1      1464 1.97513E+01 1.14146E-01-6.19722E-02 2.39173E-01 1.02522E-13 1.78153E-12
 -1      1465 2.03022E+01 1.86294E-01-5.55046E-02 7.88503E-01 2.13746E-13 1.27753E-12
 -1      1466 1.89472E+01 1.66093E-02 6.08166E-03 5.27497E-02 6.44051E-14 1.43711E-12
 -1      1467 1.90877E+01 5.13610E-02 1.68146E-03 8.01459E-02 6.48075E-14 1.54797E-12
 -1      1468 1.95531E+01 6.68019E-02-1.53435E-02 2.97601E-01 1.46242E-13 1.11521E-12
 -1      1469 1.88368E+01 8.52001E-03 7.18829E-03-8.67085E-03 4.18875E-14 1.33100E-12
 -1      1470 1.88537E+01 2.53291E-02 1.15267E-02 6.30507E-03 3.59565E-14 1.38537E-12
 -1      1471 1.92178E+01 2.10734E-02-6.91257E-03 7.69642E-02 9.42788E-14 9.66213E-13
 -1      1472 1.88626E+01 3.78546E-03 4.81460E-03-3.89867E-02 5.13244E-14 1.23583E-12
 -1      1473 1.88199E+01 1.34677E-02 8.53250E-03-3.07536E-02 3.20408E-14 1.27960E-12
 -1      1474 1.91012E+01 6.94407E-03-4.66849E-03-2.74333E-02 6.72665E-14 8.74991E-13
 -1      1475 1.89564E+01 1.14907E-03 3.27555E-03-5.24190E-02 4.81238E-14 1.12490E-12
 -1      1476 1.88863E+01 7.11663E-03 5.29751E-03-4.80329E-02 4.27846E-14 1.17549E-12
 -1      1477 1.91035E+01 9.36632E-04-3.21654E-03-7.72678E-02 8.96440E-14 7.58443E-13
 -1      1478 1.90804E+01-3.36840E-04 2.45646E-03-5.63999E-02 4.42332E-14 1.01034E-12
 -1      1479 1.90004E+01 3.41964E-03 3.37924E-03-5.43696E-02 3.68302E-14 1.07933E-12
 -1      1480 1.91669E+01-1.99177E-03-2.08409E-03-9.86738E-02 7.57883E-14 6.80834E-13
 -1      1481 1.92130E+01-1.14985E-03 1.96489E-03-5.49789E-02 4.40365E-14 8.98877E-13
 -1      1482 1.91328E+01 1.16985E-03 2.28390E-03-5.44029E-02 6.36135E-14 9.94765E-13
 -1      1483 1.92592E+01-3.44104E-03-1.20634E-03-1.04038E-01 7.49524E-14 6.23947E-13
 -1      1484 1.93417E+01-1.53688E-03 1.60743E-03-5.06121E-02 2.52032E-14 8.40294E-13
 -1      1485 1.92666E+01-1.77811E-04 1.60924E-03-5.09075E-02 9.71226E-15 8.71121E-13
 -1      1486 1.93617E+01-4.04456E-03-5.85204E-04-1.00301E-01 4.36059E-14 5.90059E-13
 -1      1487 1.94601E+01-1.64777E-03 1.31286E-03-4.48710E-02 7.72562E-15 8.59898E-13
 -1      1488 1.93927E+01-9.30663E-04 1.15495E-03-4.56474E-02 1.40764E-14 8.41385E-13
 -1      1489 1.94636E+01-4.12438E-03-1.79077E-04-9.17204E-02 1.34803E-14 5.53144E-13
 -1      1490 1.95650E+01-1.57808E-03 1.05874E-03-3.87849E-02 3.45991E-14 7.51080E-13
 -1      1491 1.95064E+01-1.27940E-03 8.31226E-04-3.97752E-02 2.61965E-14 8.06008E-13
 -1      1492 1.95587E+01-3.87412E-03 6.39902E-05-8.10305E-02 4.94074E-14 5.07857E-13
 -1      1493 1.96561E+01-1.39086E-03 8.36962E-04-3.30343E-02 3.17660E-14 6.87232E-13
 -1      1494 1.96060E+01-1.34859E-03 5.95528E-04-3.40533E-02 1.86098E-14 7.29141E-13
 -1      1495 1.96443E+01-3.41697E-03 1.88343E-04-7.00293E-02 4.07737E-14 4.34132E-13
 -1      1496 1.97344E+01-1.12741E-03 6.42829E-04-2.80706E-02-7.27906E-15 6.82352E-13
 -1      1497 1.96919E+01-1.22112E-03 4.23760E-04-2.89878E-02 3.51189E-15 6.92879E-13
 -1      1498 1.97198E+01-2.83220E-03 2.26600E-04-5.99097E-02-8.16513E-16 4.65417E-13
 -1      1499 1.98021E+01-8.14248E-04 4.71976E-04-2.41965E-02 2.82716E-14 6.44736E-13
 -1      1500 1.97659E+01-9.51655E-04 2.99931E-04-2.49174E-02 3.17923E-15 6.61538E-13
 -1      1501 1.97861E+01-2.16948E-03 2.01325E-04-5.14688E-02 1.38271E-14 3.97907E-13
 -1      1502 1.98622E+01-4.68303E-04 3.19796E-04-2.16198E-02 3.06757E-15 6.01724E-13
 -1      1503 1.98304E+01-5.75690E-04 2.12206E-04-2.20724E-02 4.73297E-14 6.65549E-13
 -1      1504 1.98450E+01-1.45850E-03 1.27588E-04-4.52462E-02 3.93039E-14 4.79016E-13
 -1      1505 1.99180E+01-1.01446E-04 1.81593E-04-2.04858E-02-5.42058E-14 6.60179E-13
 -1      1506 1.98886E+01-1.16777E-04 1.51199E-04-2.06125E-02-3.82955E-14 5.95997E-13
 -1      1507 1.98991E+01-7.17170E-04 1.53115E-05-4.16136E-02-4.04173E-14 5.03974E-13
 -1      1508 1.99733E+01 2.74919E-04 5.31236E-05-2.08918E-02-1.83119E-14 7.29197E-13
 -1      1509 1.99443E+01 4.06488E-04 1.09042E-04-2.06453E-02-2.04748E-14 6.81105E-13
 -1      1510 1.99513E+01 4.03323E-05-1.28567E-04-4.08245E-02-3.01523E-14 5.18016E-13
 -1      1511 2.00321E+01 6.44733E-04-6.84892E-05-2.28802E-02 5.19557E-14 6.02342E-13
 -1      1512 2.00012E+01 9.72725E-04 7.88417E-05-2.22251E-02 3.81278E-14 6.69926E-13
 -1      1513 2.00048E+01 7.94508E-04-2.97799E-04-4.30243E-02 5.11308E-14 4.77999E-13
 -1      1514 2.00984E+01 9.81266E-04-1.83309E-04-2.64080E-02 1.07129E-13 3.69803E-13
 -1      1515 2.00634E+01 1.54843E-03 5.44271E-05-2.53281E-02 9.21616E-14 5.17190E-13
 -1      1516 2.00631E+01 1.50965E-03-4.84107E-04-4.82180E-02 1.31888E-13 3.18620E-13
 -1      1517 2.01757E+01 1.24011E-03-2.86411E-04-3.12879E-02 5.55053E-14 2.64606E-13
 -1      1518 2.01345E+01 2.07647E-03 3.04601E-05-2.98025E-02 2.57499E-14 3.29686E-13
 -1      1519 2.01295E+01 2.12064E-03-6.73742E-04-5.61879E-02 1.17374E-13 2.57060E-13
 -1      1520 2.02667E+01 1.35162E-03-3.64785E-04-3.70971E-02-1.50434E-14 1.90993E-13
 -1      1521 2.02179E+01 2.46244E-03 3.08539E-06-3.52867E-02 4.28975E-15 2.22184E-13
 -1      1522 2.02064E+01 2.51753E-03-8.43122E-04-6.63540E-02 6.04513E-14 9.37301E-14
 -1      1523 2.03727E+01 1.21425E-03-3.93347E-04-4.30514E-02 2.55643E-14 1.53099E-13
 -1      1524 2.03156E+01 2.56015E-03-2.86452E-05-4.10956E-02 1.22574E-14 2.47417E-13
 -1      1525 2.02957E+01 2.52985E-03-9.53571E-04-7.75719E-02-1.03765E-14 7.73802E-14
 -1      1526 2.04918E+01 6.92117E-04-3.30696E-04-4.78554E-02 3.43841E-14 1.74199E-13
 -1      1527 2.04273E+01 2.16016E-03-6.03937E-05-4.60808E-02 1.46697E-14 1.67059E-13
 -1      1528 2.03971E+01 1.91538E-03-9.45759E-04-8.78767E-02 3.38069E-14 1.63812E-13
 -1      1529 2.06181E+01-3.76980E-04-1.16622E-04-4.95544E-02-4.60303E-14 3.10055E-13
 -1      1530 2.05497E+01 9.89260E-04-7.93765E-05-4.84880E-02-7.44026E-14 1.52745E-13
 -1      1531 2.05074E+01 3.63573E-04-7.35533E-04-9.42071E-02-6.14443E-14 1.18142E-13
 -1      1532 2.07397E+01-2.15319E-03 3.24213E-04-4.54529E-02 8.61618E-14 2.78392E-13
 -1      1533 2.06741E+01-1.26460E-03-6.15489E-05-4.58640E-02 7.75652E-14 3.86424E-13
 -1      1534 2.06193E+01-2.46904E-03-2.14900E-04-9.21935E-02-9.58500E-15 1.05215E-13
 -1      1535 2.08371E+01-4.73269E-03 1.06466E-03-3.22110E-02 1.05058E-13 1.20858E-13
 -1      1536 2.07854E+01-4.88068E-03 2.79189E-05-3.51101E-02 5.86502E-14 2.45574E-13
 -1      1537 2.07198E+01-6.86577E-03 7.35099E-04-7.61714E-02 1.39395E-13 9.67618E-14
 -1      1538 2.08821E+01-8.04040E-03 2.13342E-03-6.29359E-03 3.27188E-14-6.29494E-14
 -1      1539 2.08605E+01-9.96262E-03 2.25575E-04-1.28343E-02 5.39640E-14 9.72451E-14
 -1      1540 2.07895E+01-1.28712E-02 2.20970E-03-3.96825E-02 1.01278E-13 1.05845E-13
 -1      1541 2.08392E+01-1.16796E-02 3.44268E-03 3.50230E-02-1.28977E-14 8.54087E-14
 -1      1542 2.08681E+01-1.62121E-02 5.45394E-04 2.38106E-02-5.91692E-14-7.92931E-16
 -1      1543 2.08026E+01-2.00163E-02 4.21363E-03 2.31931E-02-5.03803E-14 1.09426E-13
 -1      1544 2.06702E+01-1.47811E-02 4.69656E-03 9.19584E-02-8.98565E-15 1.28862E-13
 -1      1545 2.07715E+01-2.26538E-02 9.36267E-04 7.56625E-02-1.30972E-14 3.65524E-14
 -1      1546 2.07286E+01-2.69963E-02 6.56078E-03 1.15364E-01-1.47009E-14 8.84427E-14
 -1      1547 2.03431E+01-1.59661E-02 5.33343E-03 1.60034E-01-1.53371E-14 1.14830E-13
 -1      1548 2.05349E+01-2.74461E-02 1.23420E-03 1.39559E-01 2.99465E-14 1.53728E-13
 -1      1549 2.05383E+01-3.14762E-02 8.76644E-03 2.33148E-01-4.46314E-14 1.05749E-13
 -1      1550 1.98464E+01-1.36019E-02 4.60030E-03 2.28203E-01 2.72397E-14 1.09815E-13
 -1      1551 2.01346E+01-2.80313E-02 1.15064E-03 2.06439E-01-1.74539E-14 1.25464E-13
 -1      1552 2.02122E+01-3.03361E-02 1.00107E-02 3.62456E-01 2.17955E-14 6.24145E-14
 -1      1553 1.92050E+01-6.50038E-03 1.85651E-03 2.78872E-01 3.60794E-14-5.64132E-15
 -1      1554 1.95744E+01-2.19104E-02 3.51827E-04 2.60849E-01 1.12273E-14 5.15595E-14
 -1      1555 1.97531E+01-2.06766E-02 9.29454E-03 4.76892E-01 5.00203E-14 4.07981E-14
 -1      1556 1.84911E+01 5.06378E-03-2.91356E-03 2.91608E-01-7.65324E-14 2.33147E-15
 -1      1557 1.88993E+01-8.06113E-03-1.32810E-03 2.83525E-01 2.32643E-14 2.06293E-14
 -1      1558 1.91974E+01-1.60253E-03 5.87309E-03 5.40862E-01-5.38355E-15 1.61127E-13
 -1      1559 1.78207E+01 1.85506E-02-8.64888E-03 2.50976E-01-4.24858E-14 1.98019E-13
 -1      1560 1.82006E+01 1.15473E-02-3.63355E-03 2.57882E-01-6.24284E-14 2.65100E-14
 -1      1561 1.86197E+01 2.40011E-02-1.17366E-04 5.19954E-01-6.03996E-14 2.44676E-13
 -1      1562 1.73278E+01 2.95077E-02-1.32686E-02 1.55903E-01 1.02696E-13 3.91579E-14
 -1      1563 1.76031E+01 3.15791E-02-5.74645E-03 1.78796E-01 2.92075E-14 1.35260E-13
 -1      1564 1.81228E+01 4.90470E-02-7.24208E-03 3.96975E-01 5.67870E-14 1.31467E-13
 -1      1565 1.71228E+01 3.34705E-02-1.46295E-02 2.46757E-02 1.27663E-14-6.46194E-14
 -1      1566 1.72319E+01 4.51050E-02-6.59611E-03 5.88729E-02 5.28787E-14 6.41327E-15
 -1      1567 1.78106E+01 6.46776E-02-1.30377E-02 1.86100E-01 8.18946E-14 7.35609E-14
 -1      1568 1.72497E+01 2.85757E-02-1.18154E-02-1.09678E-01-2.02182E-14 3.44638E-14
 -1      1569 1.71693E+01 4.71089E-02-5.49754E-03-7.32159E-02-4.88524E-14 1.94914E-14
 -1      1570 1.77526E+01 6.44690E-02-1.52991E-02-6.55794E-02-1.19597E-13 6.74595E-14
 -1      1571 1.76678E+01 1.67268E-02-5.81270E-03-2.12656E-01 8.76625E-14-1.24636E-13
 -1      1572 1.74226E+01 3.72568E-02-2.66618E-03-1.83503E-01 7.49019E-14 5.48537E-14
 -1      1573 1.79558E+01 4.81252E-02-1.33383E-02-2.94141E-01 4.68401E-14-5.61400E-14
 -1      1574 1.82678E+01 2.47559E-03 1.06150E-03-2.62379E-01-2.71840E-14-8.87242E-14
 -1      1575 1.79210E+01 1.99084E-02 8.45076E-04-2.46672E-01 4.43211E-14-7.87773E-14
 -1      1576 1.83619E+01 2.17372E-02-8.31220E-03-4.44778E-01 8.45218E-14 1.07588E-14
 -1      1577 1.89128E+01-9.51647E-03 6.47562E-03-2.56335E-01-3.44776E-14 1.18287E-13
 -1      1578 1.85425E+01 1.48981E-03 3.75783E-03-2.54996E-01-9.51033E-14-9.76580E-14
 -1      1579 1.88700E+01-5.53284E-03-2.38971E-03-4.92370E-01-1.12255E-13 1.53094E-13
 -1      1580 1.94832E+01-1.65265E-02 9.19363E-03-2.08241E-01 1.11457E-13 9.01276E-14
 -1      1581 1.91572E+01-1.27128E-02 5.24346E-03-2.17921E-01 3.46212E-14 1.42782E-13
 -1      1582 1.93727E+01-2.58906E-02 2.50742E-03-4.45850E-01 7.02693E-15 6.74885E-14
 -1      1583 1.99041E+01-1.82236E-02 9.24873E-03-1.39159E-01-4.57234E-14-1.06387E-13
 -1      1584 1.96645E+01-2.02702E-02 5.21305E-03-1.54628E-01 6.99293E-14-2.14412E-15
 -1      1585 1.97870E+01-3.57521E-02 5.39822E-03-3.37325E-01 8.06846E-14-7.50775E-14
 -1      1586 2.01512E+01-1.58423E-02 7.46563E-03-6.90042E-02 1.14952E-13-2.26292E-13
 -1      1587 2.00111E+01-2.14052E-02 4.11742E-03-8.53073E-02 9.21607E-14-1.53822E-13
 -1      1588 2.00691E+01-3.56800E-02 6.24421E-03-2.05613E-01 6.48093E-14-1.77275E-13
 -1      1589 2.02421E+01-1.10830E-02 4.78978E-03-1.19714E-02 1.29494E-13-3.96375E-13
 -1      1590 2.01907E+01-1.77686E-02 2.56095E-03-2.55117E-02 1.63001E-13-2.10307E-13
 -1      1591 2.02135E+01-2.85610E-02 5.53015E-03-8.35580E-02 1.93035E-13-2.56763E-13
 -1      1592 2.02198E+01-5.42997E-03 1.88353E-03 2.42406E-02-5.81724E-14-3.73875E-13
 -1      1593 2.02320E+01-1.12994E-02 9.74482E-04 1.55585E-02 7.17547E-15-3.61690E-13
 -1      1594 2.02434E+01-1.77176E-02 3.81689E-03 7.40647E-03 7.13101E-14-1.31043E-13
 -1      1595 2.01393E+01 1.01239E-04-8.22467E-04 3.73044E-02-5.51512E-14-1.86373E-13
 -1      1596 2.01830E+01-3.63830E-03-4.41937E-04 3.43571E-02-5.89243E-14-2.86023E-13
 -1      1597 2.01976E+01-5.90517E-03 1.54925E-03 5.71841E-02-1.36351E-13-1.06248E-13
 -1      1598 2.00548E+01 4.41384E-03-2.35245E-03 2.86137E-02 1.05132E-14-3.18127E-13
 -1      1599 2.00981E+01 3.87064E-03-1.44259E-03 3.15434E-02 8.06088E-14-2.31016E-13
 -1      1600 2.01198E+01 4.88531E-03-7.09147E-04 6.47715E-02 7.12217E-14-1.09970E-13
 -1      1601 2.00084E+01 6.11797E-03 4.91159E-04 6.99938E-03 1.23761E-13-3.44579E-13
 -1      1602 2.00262E+01 8.22724E-03-1.00203E-03 1.32891E-02 7.16064E-14-3.39335E-13
 -1      1603 2.00484E+01 1.28919E-02-1.20763E-03 3.81683E-02 1.36951E-13-2.03806E-13
 -1      1604 1.99983E+01 1.21693E-03 2.12258E-03-2.42660E-03-1.69839E-13-1.95142E-13
 -1      1605 2.00105E+01 4.67541E-02-7.19486E-04 2.35847E-02-4.04603E-14 8.01743E-14
 -1      1606 2.00096E+01 2.39982E-02 1.13687E-03 1.80053E-02-1.76342E-13 1.35312E-13
 -1      1607 2.00134E+01 1.54979E-01-3.70549E-04 5.71930E-02 3.59809E-13 1.71463E-13
 -1      1608 2.00127E+01 9.06233E-02-6.63969E-04 5.03315E-02 8.77191E-14 1.77790E-13
 -1      1609 2.00244E+01 8.89481E-02-1.68976E-03 7.57643E-02 6.35331E-14 2.37646E-13
 -1      1610 2.00155E+01 3.39780E-01-2.87999E-04 9.68002E-02 2.21480E-13 6.48669E-14
 -1      1611 2.00150E+01 2.28113E-01-9.04433E-04 8.84918E-02 2.85662E-13 1.15998E-13
 -1      1612 2.00238E+01 2.00804E-01-4.37941E-03 1.43718E-01 1.35000E-13 1.84653E-13
 -1      1613 2.00156E+01 6.13322E-01-6.07930E-04 1.41134E-01 2.37252E-13 1.38761E-14
 -1      1614 2.00167E+01 4.49333E-01-1.23325E-03 1.32108E-01 1.88812E-13 1.77629E-13
 -1      1615 2.00268E+01 3.78938E-01-4.92589E-03 2.23851E-01 3.10727E-14 5.72025E-16
 -1      1616 2.00121E+01 9.67520E-01-9.54495E-04 1.82232E-01-6.41596E-14 1.93595E-15
 -1      1617 2.00155E+01 7.57965E-01-1.59810E-03 1.74391E-01 2.93177E-14-2.23155E-13
 -1      1618 2.00256E+01 6.28421E-01-4.89833E-03 3.06824E-01-2.63405E-14-2.77613E-13
 -1      1619 2.00037E+01 1.39258E+00-1.02420E-03 2.10309E-01-2.80678E-13-8.94149E-14
 -1      1620 2.00099E+01 1.14578E+00-1.69492E-03 2.05766E-01-1.70039E-13-7.46102E-14
 -1      1621 2.00180E+01 9.46430E-01-3.70163E-03 3.76186E-01-2.10219E-13-1.16160E-13
 -1      1622 1.99907E+01 1.83485E+00-6.30118E-04 2.11197E-01-6.40023E-13-2.93195E-13
 -1      1623 1.99993E+01 1.58514E+00-1.25562E-03 2.13068E-01-2.69812E-13-4.23070E-13
 -1      1624 2.00020E+01 1.31409E+00-9.84346E-04 4.09344E-01-3.01215E-13-2.72160E-13
 -1      1625 1.99751E+01 2.22195E+00 2.42549E-04 1.73553E-01-3.96051E-13 9.28118E-14
 -1      1626 1.99844E+01 2.01386E+00-2.41733E-04 1.83909E-01-6.43879E-13 2.30200E-13
 -1      1627 1.99789E+01 1.68490E+00 3.18243E-03 3.81226E-01-1.57906E-13-1.97016E-13
 -1      1628 1.99609E+01 2.46924E+00 1.37438E-03 9.34659E-02-2.63549E-13 2.43890E-13
 -1      1629 1.99683E+01 2.35251E+00 1.19753E-03 1.12487E-01-6.17605E-13 3.38417E-13
 -1      1630 1.99529E+01 1.99642E+00 8.06398E-03 2.75638E-01-1.27091E-13 1.27267E-13
 -1      1631 1.99529E+01 2.50136E+00 2.32617E-03-2.11557E-02-5.21313E-13-2.42047E-13
 -1      1632 1.99559E+01 2.51740E+00 2.71758E-03 4.02557E-03-2.67588E-13-1.71223E-13
 -1      1633 1.99309E+01 2.17936E+00 1.23216E-02 9.40835E-02-2.69926E-13 1.43003E-13
 -1      1634 1.99555E+01 2.28457E+00 2.64562E-03-1.46915E-01-7.94672E-13 8.44940E-14
 -1      1635 1.99516E+01 2.44631E+00 3.53084E-03-1.21518E-01-4.92032E-13-3.03909E-13
 -1      1636 1.99217E+01 2.17740E+00 1.45039E-02-1.35958E-01-3.96487E-13-3.93659E-13
 -1      1637 1.99713E+01 1.82978E+00 1.54489E-03-2.56643E-01-3.11830E-13 4.33453E-13
 -1      1638 1.99598E+01 2.12438E+00 3.27844E-03-2.36718E-01-5.98461E-13 3.30833E-13
 -1      1639 1.99307E+01 1.96791E+00 1.30635E-02-3.67211E-01-1.06267E-13 2.67915E-13
 -1      1640 1.99990E+01 1.22650E+00-1.52514E-03-3.12258E-01 1.07039E-13 2.18093E-13
 -1      1641 1.99814E+01 1.59031E+00 9.49232E-04-3.06332E-01-2.15081E-13 5.50945E-13
 -1      1642 1.99630E+01 1.57109E+00 7.71816E-03-5.38745E-01 1.17372E-13 6.05408E-13
 -1      1643 2.00377E+01 6.23856E-01-4.56779E-03-2.78914E-01 7.73045E-13 5.05660E-13
 -1      1644 2.00155E+01 9.56903E-01-4.05586E-03-2.98189E-01 2.41380E-13 2.90500E-13
 -1      1645 2.00169E+01 1.06197E+00-1.08077E-03-5.86416E-01 2.11375E-13 3.80105E-13
 -1      1646 2.00544E+01 2.25203E-01-1.80283E-03-1.67568E-01 1.03930E-12 1.22300E-14
 -1      1647 2.00356E+01 4.34043E-01-1.03626E-02-2.05590E-01 8.48011E-13 3.64779E-13
 -1      1648 2.00522E+01 6.12192E-01-1.01706E-02-4.73988E-01 2.01561E-13 5.13802E-13
 -1      1649 2.01051E+01 2.77744E-01-5.17015E-03-2.67888E-01 2.54779E-13-8.06188E-14
 -1      1650-3.49103E-01-1.40726E+01-1.48231E+00-2.79973E-01 1.08702E-12 5.05845E-13
 -1      1651-5.11996E-01-1.71476E+01-1.75911E+00 9.47477E-01 7.30305E-13 2.32592E-13
 -1      1652 2.07431E+00-7.02913E+00-1.04509E+00 1.28823E+00 1.91092E-12 1.29688E-12
 -1      1653 1.08048E+00-1.27639E+01-1.61839E+00 3.97015E-01 1.42353E-12 9.22554E-13
 -1      1654 8.86842E+00 1.09398E+00-3.42783E-01 6.00707E+00 2.08766E-12 1.44906E-12
 -1      1655 4.97298E+00-4.73246E+00-1.16978E+00 2.58216E+00 2.08566E-12 1.22746E-12
 -1      1656 2.01263E+01 5.85586E+00 4.04739E-01 1.09132E+01 1.53455E-12 1.56775E-12
 -1      1657 1.33372E+01 2.96141E+00-4.45355E-01 7.39077E+00 2.01827E-12 1.62470E-12
 -1      1658 3.47256E+01 6.88820E+00 1.12712E+00 1.32430E+01 1.10434E-12 1.55964E-12
 -1      1659 2.52807E+01 6.85557E+00 2.90014E-01 1.15341E+01 1.28086E-12 1.72795E-12
 -1      1660 4.84503E+01 5.27820E+00 1.63907E+00 1.08198E+01 6.09707E-13 1.18749E-12
 -1      1661 3.99018E+01 7.09031E+00 1.05028E+00 1.28568E+01 8.77520E-13 1.49303E-12
 -1      1662 5.55979E+01 3.75959E+00 1.75034E+00 3.61161E+00 4.36429E-13 4.57412E-13
 -1      1663 5.14832E+01 5.01288E+00 1.53140E+00 8.47951E+00 5.62744E-13 9.72777E-13
 -1      1664 5.43591E+01 4.32679E+00 1.62100E+00-5.06736E+00 4.11976E-13-4.00513E-13
 -1      1665 5.59816E+01 3.83772E+00 1.71953E+00 7.87644E-01 4.04565E-13 1.70256E-13
 -1      1666 4.57155E+01 6.16739E+00 1.24317E+00-1.12335E+01 4.14502E-13-8.45324E-13
 -1      1667 5.24605E+01 4.42235E+00 1.68256E+00-7.67285E+00 2.71616E-13-7.20979E-13
 -1      1668 3.19570E+01 7.21741E+00 6.03581E-01-1.23371E+01 6.60139E-13-9.47686E-13
 -1      1669 4.12962E+01 6.12667E+00 1.29866E+00-1.23301E+01 4.64462E-13-9.27702E-13
 -1      1670 1.82681E+01 5.77320E+00-1.07290E-01-9.82697E+00 8.35554E-13-8.69749E-13
 -1      1671 2.64364E+01 7.11584E+00 7.18013E-01-1.27552E+01 8.11351E-13-8.73968E-13
 -1      1672 7.91652E+00-3.34278E-01-8.75435E-01-4.65815E+00 8.44214E-13-5.20917E-13
 -1      1673 1.33799E+01 4.32365E+00 9.83230E-03-8.58037E+00 7.88924E-13-7.98028E-13
 -1      1674 2.27186E+00-9.00682E+00-1.47239E+00-9.17417E-01 1.19116E-12-3.24574E-13
 -1      1675 4.33124E+00-2.68509E+00-7.48994E-01-3.12138E+00 9.67226E-13-3.94074E-13
 -1      1676 7.85183E-02-1.57382E+01-1.75733E+00-5.23490E-01 9.59233E-13-3.10585E-13
 -1      1677 4.62874E-01-1.10533E+01-1.32460E+00-2.15784E-01 1.22791E-12-3.90646E-13
 -1      1678-9.38293E-01-1.83284E+01-1.95507E+00-1.48796E+00 4.12854E-13-1.05582E-13
 -1      1679-8.29654E-01-1.74200E+01-1.83771E+00 3.26123E-01 7.72160E-13-2.39975E-13
 -1      1680-6.83674E-01-1.40727E+01-1.68347E+00-1.82582E+00-4.21885E-15 9.46465E-15
 -1      1681-6.01817E-01-1.76155E+01-1.96380E+00-9.14922E-01 1.65090E-13-1.14353E-14
 -1      1682 3.74109E+00-6.14739E+00-1.06448E+00 1.65679E+00-2.41807E-13-3.72979E-13
 -1      1683 1.84013E+00-1.20908E+01-1.67473E+00-1.67730E-01-7.61613E-14-5.20972E-14
 -1      1684 1.28579E+01 5.51423E-01-3.91935E-01 6.42490E+00-5.02265E-13-5.62328E-13
 -1      1685 7.68348E+00-4.40555E+00-1.23769E+00 2.80353E+00-3.08420E-13-4.81504E-13
 -1      1686 2.69854E+01 4.88050E+00 5.44620E-01 1.11208E+01-4.13225E-13-4.70290E-13
 -1      1687 1.76793E+01 2.46527E+00-5.48916E-01 7.49778E+00-5.72431E-13-4.68736E-13
 -1      1688 4.44521E+01 5.35822E+00 1.63953E+00 1.21943E+01-2.87381E-13-3.74811E-13
 -1      1689 3.31442E+01 5.88956E+00 5.19232E-01 1.15338E+01-4.93605E-13-4.99822E-13
 -1      1690 5.90375E+01 3.90733E+00 2.47811E+00 6.81065E+00-2.94029E-13 2.71894E-13
 -1      1691 5.00466E+01 5.65285E+00 1.71262E+00 1.08759E+01-3.35884E-13-2.30038E-13
 -1      1692 6.16667E+01 3.96779E+00 2.49710E+00-1.98035E+00-2.01339E-13 6.19893E-13
 -1      1693 6.04734E+01 4.22559E+00 2.40131E+00 4.11742E+00-1.96176E-13 2.86937E-13
 -1      1694 5.49645E+01 5.18110E+00 2.06666E+00-9.52676E+00-6.33521E-13 1.25622E-12
 -1      1695 6.14043E+01 3.72157E+00 2.58822E+00-4.54995E+00-4.81726E-13 8.13960E-13
 -1      1696 3.96728E+01 6.23979E+00 9.85759E-01-1.21482E+01-6.70464E-13 1.49947E-12
 -1      1697 5.04282E+01 4.98474E+00 1.98814E+00-1.12418E+01-5.50199E-13 1.65135E-12
 -1      1698 2.28743E+01 4.64378E+00-1.76298E-01-9.66766E+00-1.16662E-12 1.23501E-12
 -1      1699 3.33938E+01 5.74468E+00 9.55389E-01-1.25259E+01-8.05356E-13 1.32760E-12
 -1      1700 9.95208E+00-8.90115E-01-1.12010E+00-4.47733E+00-1.12244E-12 1.09091E-12
 -1      1701 1.68093E+01 3.36853E+00-1.23677E-01-8.65214E+00-1.17639E-12 1.24056E-12
 -1      1702 2.93615E+00-8.63937E+00-1.67788E+00-2.85426E-01-6.13287E-13 7.52676E-13
 -1      1703 5.70587E+00-2.84565E+00-9.65053E-01-2.98304E+00-1.01119E-12 1.01719E-12
 -1      1704 1.47476E-01-1.54854E+01-1.89021E+00 1.00493E+00 4.97269E-13 2.32925E-13
 -1      1705 6.31897E-01-1.05790E+01-1.49440E+00 7.75630E-01-5.72875E-14 6.25888E-13
 -1      1706-7.56908E-01-1.77179E+01-1.80423E+00 1.33352E-01 8.21967E-13 8.97060E-14
 -1      1707-8.92242E-01-1.63091E+01-1.74577E+00 1.69401E+00 5.76261E-13-5.00711E-14
 -1      1708 1.64585E+01-2.17963E+00-1.70509E-01 7.24423E+00 1.33971E-12 8.30558E-13
 -1      1709-1.37875E+00-1.14644E+01-1.21589E+00 1.02785E+00 5.53405E-13 2.56239E-13
 -1      1710 2.00087E+01 6.67708E-03 2.16473E-04 5.23682E-03-1.97195E-13 4.56514E-15
 -1      1711 2.00220E+01 3.29282E-02-4.10447E-04 3.04422E-02 1.00192E-13 8.08689E-14
 -1      1712 1.24586E+00-1.00596E+01-1.08077E+00 3.39435E+00 6.87284E-13 9.09078E-13
 -1      1713 7.35030E+00-6.68470E+00-7.49900E-01 5.46111E+00 1.14875E-12 1.02217E-12
 -1      1714 2.68467E+01 1.84009E+00 3.89376E-01 7.95035E+00 1.12421E-12 1.22802E-12
 -1      1715 3.70770E+01 5.04960E+00 9.55257E-01 7.39144E+00 9.23178E-13 1.13298E-12
 -1      1716 4.50020E+01 7.00433E+00 1.40504E+00 4.91852E+00 7.61918E-13 6.14730E-13
 -1      1717 4.78525E+01 7.93609E+00 1.49666E+00 9.77518E-01 7.20590E-13 2.78985E-13
 -1      1718 4.66223E+01 7.59263E+00 1.43129E+00-2.92265E+00 5.35461E-13-1.86295E-13
 -1      1719 4.07825E+01 6.03474E+00 1.11543E+00-5.95089E+00 4.63921E-13-6.63913E-13
 -1      1720 3.16735E+01 3.72854E+00 6.91420E-01-7.91632E+00 5.75262E-13-6.01963E-13
 -1      1721 2.08201E+01 4.50190E-01 1.06897E-01-7.99832E+00 3.85469E-13-5.22027E-13
 -1      1722 1.08502E+01-4.18013E+00-5.25952E-01-6.28324E+00 6.39266E-13-2.44693E-13
 -1      1723 3.50784E+00-8.59421E+00-9.77698E-01-4.27168E+00 7.62612E-13-2.34854E-13
 -1      1724-6.91981E-01-1.15257E+01-1.24750E+00-2.27062E+00 5.97633E-13-4.30322E-13
 -1      1725-1.43228E+00-1.24844E+01-1.40240E+00 3.93731E-02 3.15040E-13-2.59626E-13
 -1      1726 2.59165E+00-1.00418E+01-1.07414E+00 2.93523E+00 1.36446E-13-1.16879E-13
 -1      1727 1.09703E+01-7.15918E+00-7.15485E-01 5.16999E+00-4.17444E-14-4.05426E-13
 -1      1728 2.13046E+01-3.39634E+00-2.89614E-01 6.03386E+00-2.11720E-13-2.67453E-13
 -1      1729 3.32378E+01 1.04660E+00 4.90715E-01 6.23725E+00-2.27929E-13-1.58762E-13
 -1      1730 4.48732E+01 4.75814E+00 1.41045E+00 4.88930E+00-3.58977E-13-6.42819E-14
 -1      1731 5.13719E+01 7.27515E+00 1.93571E+00 1.89153E+00-4.25660E-13 1.61537E-13
 -1      1732 5.22578E+01 7.77951E+00 2.02880E+00-1.25331E+00-5.11591E-13 2.20796E-13
 -1      1733 4.80986E+01 5.83605E+00 1.69144E+00-4.21854E+00-5.54334E-13 6.70242E-13
 -1      1734 3.78627E+01 2.83416E+00 8.87987E-01-6.30939E+00-5.87363E-13 1.15730E-12
 -1      1735 2.52521E+01-8.94664E-01 3.12628E-02-6.77735E+00-7.59171E-13 7.98583E-13
 -1      1736 1.35369E+01-5.11225E+00-6.81467E-01-5.51517E+00-3.90799E-13 8.70304E-13
 -1      1737 4.97559E+00-9.09607E+00-1.12823E+00-3.50337E+00 7.01661E-14 9.43086E-13
 -1      1738-6.63398E-02-1.14206E+01-1.28799E+00-1.46084E+00 5.91471E-13 2.56184E-13
 -1      1739 2.28592E+01 1.98497E+00-2.35775E-02-2.72258E+00-2.35780E-13 5.37986E-13
 -1      1740 1.98233E+01 3.71437E+00-3.55582E-02-2.15231E+00-2.06911E-13-4.47399E-13
 -1      1741 2.00584E+01 3.56213E+00-4.02600E-02-2.44530E+00-2.64386E-13-3.80758E-13
 -1      1742 2.03637E+01 3.18179E+00-4.57152E-02-2.58522E+00-2.82787E-13-2.83482E-13
 -1      1743 2.05835E+01 2.81002E+00-1.42529E-01-2.85362E+00-3.32637E-13-1.64306E-13
 -1      1744 2.04236E+01 2.69341E+00-4.44234E-03-2.22626E+00-2.94544E-13-3.03441E-13
 -1      1745 1.93546E+01 4.18953E+00-2.02062E-02-1.27096E+00-4.27145E-14-5.22577E-13
 -1      1746 1.94278E+01 4.14918E+00-1.75087E-02-1.49522E+00-7.94373E-14-5.24988E-13
 -1      1747 1.92586E+01 4.29469E+00-1.68004E-02-8.59888E-01 3.46249E-14-5.13114E-13
 -1      1748 1.93012E+01 4.27093E+00-1.43397E-02-1.07064E+00 1.16595E-15-5.23638E-13
 -1      1749 1.95270E+01 3.78285E+00-9.21481E-03-1.12040E+00-2.86588E-14-4.99930E-13
 -1      1750 1.92071E+01 4.35512E+00-1.48093E-02-4.66860E-01 1.03201E-13-4.74837E-13
 -1      1751 1.92291E+01 4.34232E+00-1.33153E-02-6.67184E-01 7.60548E-14-5.02154E-13
 -1      1752 1.94301E+01 3.90319E+00-9.19864E-03-7.33364E-01 6.00174E-14-4.89763E-13
 -1      1753 1.91878E+01 4.38076E+00-1.36728E-02-8.36577E-02 1.70276E-13-4.35057E-13
 -1      1754 1.91942E+01 4.37684E+00-1.32208E-02-2.79121E-01 1.31320E-13-4.55986E-13
 -1      1755 1.93798E+01 3.96779E+00-9.15720E-03-3.58341E-01 1.24403E-13-4.47118E-13
 -1      1756 1.91959E+01 4.37545E+00-1.31724E-02 2.98131E-01 2.24627E-13-3.93073E-13
 -1      1757 1.91883E+01 4.37992E+00-1.37579E-02 1.02502E-01 1.97480E-13-4.21607E-13
 -1      1758 1.93651E+01 3.98722E+00-9.14392E-03 1.05294E-02 1.94198E-13-4.12701E-13
 -1      1759 1.92331E+01 4.33822E+00-1.33300E-02 6.86935E-01 2.78910E-13-3.28761E-13
 -1      1760 1.92099E+01 4.35192E+00-1.49208E-02 4.86096E-01 2.50173E-13-3.64776E-13
 -1      1761 1.93825E+01 3.96446E+00-9.18891E-03 3.79605E-01 2.51384E-13-3.58330E-13
 -1      1762 1.93065E+01 4.26481E+00-1.44004E-02 1.08467E+00 3.24921E-13-2.54911E-13
 -1      1763 1.92632E+01 4.28926E+00-1.69726E-02 8.76667E-01 2.98225E-13-3.02638E-13
 -1      1764 1.94353E+01 3.89691E+00-9.19735E-03 7.51845E-01 3.10446E-13-2.97113E-13
 -1      1765 1.94379E+01 4.13763E+00-1.74112E-02 1.51479E+00 3.83916E-13-1.20896E-13
 -1      1766 1.93616E+01 4.18014E+00-2.04991E-02 1.28524E+00 3.47538E-13-1.97013E-13
 -1      1767 1.95348E+01 3.77292E+00-9.23824E-03 1.13570E+00 3.56310E-13-2.01880E-13
 -1      1768 1.96663E+01 3.92143E+00-2.53230E-02 1.97989E+00 4.26167E-13 5.04215E-14
 -1      1769 1.95341E+01 3.99810E+00-2.69066E-02 1.72257E+00 4.00549E-13-4.86451E-14
 -1      1770 1.97078E+01 3.56572E+00-8.82833E-03 1.53569E+00 4.09146E-13-6.79474E-14
 -1      1771 2.00788E+01 3.52242E+00-4.43164E-02 2.47624E+00 4.32054E-13 2.93793E-13
 -1      1772 1.98411E+01 3.68381E+00-3.79510E-02 2.18132E+00 4.26496E-13 1.40898E-13
 -1      1773 2.00028E+01 3.22158E+00-6.25785E-03 1.93205E+00 4.45693E-13 1.06028E-13
 -1      1774 2.09185E+01 2.66960E+00-6.21276E-02 2.85552E+00 3.69746E-13 7.32824E-13
 -1      1775 2.04124E+01 3.10032E+00-4.96637E-02 2.61355E+00 4.00788E-13 4.78922E-13
 -1      1776 2.04982E+01 2.60873E+00-6.78807E-04 2.23886E+00 4.24319E-13 3.77625E-13
 -1      1777 2.17291E+01 1.21150E+00-1.23389E-01 2.32883E+00 2.70353E-13 1.20630E-12
 -1      1778 2.12768E+01 2.27253E+00 3.29976E-03 2.74178E+00 3.22938E-13 8.94743E-13
 -1      1779 2.09584E+01 1.68908E+00-1.37172E-02 2.14565E+00 3.85225E-13 7.19442E-13
 -1      1780 2.09591E+01 7.78728E-01-6.06204E-02 1.52361E+00 2.83731E-13 1.12309E-12
 -1      1781 2.17972E+01 2.45827E+00 9.08559E-02-3.04826E+00-3.10621E-13 8.78742E-14
 -1      1782 2.01190E+01 2.99609E-01-4.94601E-03 6.62869E-01 2.32259E-13 9.70819E-13
 -1      1783 2.06498E+01 4.38380E-01-1.43076E-02 1.03328E+00 2.52375E-13 1.05128E-12
 -1      1784 2.07476E+01 8.47127E-01 5.40990E-03 1.40891E+00 3.00801E-13 8.16064E-13
 -1      1785 2.15075E+01 1.74276E+00 7.94481E-02-2.33720E+00-3.18679E-13-4.76008E-15
 -1      1786 2.05216E+01 5.00448E-01 3.25308E-02-9.21699E-01-2.70339E-13-1.56696E-14
 -1      1787 2.00895E+01 3.51839E-01 7.57853E-03-6.29925E-01-2.29441E-13-6.99944E-14
 -1      1788 1.98949E+01 2.57363E-01 2.74171E-02-3.91553E-01-2.07046E-13-5.59448E-14
 -1      1789 1.97039E+01 1.78120E-01 1.04066E-02-2.53691E-01-1.64220E-13-1.12083E-13
 -1      1790 2.01995E+01 4.83800E-01-5.72741E-03-7.23173E-01-2.48981E-13-1.26536E-13
 -1      1791 1.95819E+01 1.32738E-01 1.66823E-02-1.20110E-01-1.17600E-13-1.01506E-13
 -1      1792 1.95037E+01 9.30269E-02 6.97999E-03-4.93506E-02-9.75929E-14-1.53690E-13
 -1      1793 1.98733E+01 2.44103E-01-5.70559E-03-2.95903E-01-1.75646E-13-1.30962E-13
 -1      1794 1.94388E+01 6.83263E-02 8.69745E-03 2.41154E-02-1.07305E-13-1.63573E-13
 -1      1795 1.94241E+01 4.65881E-02 4.09548E-03 6.02471E-02-1.21170E-13-1.78338E-13
 -1      1796 1.96906E+01 1.25130E-01-4.61514E-03-5.91540E-02-1.28627E-13-1.35886E-13
 -1      1797 1.93981E+01 3.24262E-02 4.28740E-03 9.88490E-02-1.39189E-13-1.59311E-13
 -1      1798 1.94177E+01 1.96604E-02 2.36439E-03 1.15686E-01-1.08023E-13-2.02052E-13
 -1      1799 1.96040E+01 6.06822E-02-3.47159E-03 7.02883E-02-1.24934E-13-1.26338E-13
 -1      1800 1.94166E+01 1.09022E-02 1.90712E-03 1.34026E-01-8.99367E-14-2.21573E-13
 -1      1801 1.94554E+01 3.27193E-03 1.36965E-03 1.39531E-01-7.57873E-14-2.33050E-13
 -1      1802 1.95798E+01 2.37788E-02-2.23386E-03 1.37348E-01-1.22759E-13-1.52144E-13
 -1      1803 1.94683E+01-1.41929E-03 5.50065E-04 1.44348E-01-8.45726E-14-2.40975E-13
 -1      1804 1.95125E+01-5.35717E-03 8.12304E-04 1.42933E-01-9.73016E-14-2.61831E-13
 -1      1805 1.95945E+01 1.61093E-03-1.42048E-03 1.65566E-01-9.86389E-14-1.82802E-13
 -1      1806 1.95328E+01-8.16720E-03-1.78235E-04 1.40729E-01-8.32645E-14-2.19658E-13
 -1      1807 1.95781E+01-9.95989E-03 4.53616E-04 1.35769E-01-1.66607E-14-2.16949E-13
 -1      1808 1.96299E+01-1.00512E-02-7.84185E-04 1.70238E-01-7.77042E-14-1.53741E-13
 -1      1809 1.96016E+01-1.13471E-02-5.44142E-04 1.29737E-01-1.31681E-14-2.19187E-13
 -1      1810 1.96447E+01-1.18302E-02 2.25896E-04 1.23173E-01 3.26938E-14-2.47256E-13
 -1      1811 1.96753E+01-1.59570E-02-3.69880E-04 1.62182E-01-1.42335E-14-1.07029E-13
 -1      1812 1.96687E+01-1.22283E-02-7.04768E-04 1.15491E-01 4.37392E-14-3.49246E-13
 -1      1813 1.97081E+01-1.18411E-02 1.07760E-04 1.08581E-01 1.86855E-14-3.36352E-13
 -1      1814 1.97239E+01-1.80351E-02-1.18668E-04 1.47658E-01-3.68089E-15-2.40174E-13
 -1      1815 1.97313E+01-1.15580E-02-7.34827E-04 1.00734E-01 1.39469E-15-3.05816E-13
 -1      1816 1.97664E+01-1.05810E-02 7.36673E-05 9.43387E-02-1.57486E-14-2.87708E-13
 -1      1817 1.97721E+01-1.75446E-02 1.56219E-05 1.30872E-01 2.47127E-14-2.41542E-13
 -1      1818 1.97883E+01-9.81344E-03-6.81054E-04 8.73562E-02-7.22518E-15-2.72660E-13
 -1      1819 1.98196E+01-8.41210E-03 1.09270E-04 8.20815E-02 3.27310E-15-2.40212E-13
 -1      1820 1.98179E+01-1.52897E-02 6.47331E-05 1.14706E-01 2.45679E-14-2.42648E-13
 -1      1821 1.98402E+01-7.27400E-03-5.73452E-04 7.67146E-02-4.15068E-14-2.42356E-13
 -1      1822 1.98686E+01-5.52502E-03 2.08572E-04 7.30236E-02-7.79785E-14-2.61208E-13
 -1      1823 1.98609E+01-1.17530E-02 5.04986E-05 1.01207E-01-2.23587E-14-2.11544E-13
 -1      1824 1.98885E+01-4.06266E-03-4.29974E-04 6.98795E-02-1.11768E-13-2.62877E-13
 -1      1825 1.99153E+01-1.94890E-03 3.97465E-04 6.81735E-02-9.43080E-14-2.51588E-13
 -1      1826 1.99017E+01-7.16993E-03-1.31820E-05 9.19353E-02-9.87285E-14-1.36751E-13
 -1      1827 1.99364E+01-3.88152E-05-2.59576E-04 6.78451E-02-1.37138E-13-2.92825E-13
 -1      1828 1.99647E+01 2.60240E-03 6.40551E-04 6.87247E-02-1.06337E-13-3.35961E-13
 -1      1829 1.99429E+01-1.47200E-03-1.51210E-04 8.82649E-02-1.41585E-13-1.44769E-13
 -1      1830 1.99861E+01 4.81165E-03-6.58246E-05 7.20082E-02-9.79231E-14-3.79041E-13
 -1      1831 2.00158E+01 7.91462E-03 9.66236E-04 7.58706E-02-6.29924E-14-3.87446E-13
 -1      1832 1.99857E+01 5.61701E-03-2.62640E-04 9.18607E-02-1.26279E-13-1.37251E-13
 -1      1833 2.00403E+01 1.06980E-02 1.38571E-04 8.34335E-02 5.55041E-14-4.00442E-13
 -1      1834 2.00754E+01 1.46185E-02 1.42934E-03 9.10351E-02 9.02393E-14-3.53467E-13
 -1      1835 2.00319E+01 1.40959E-02-4.33669E-04 1.04166E-01 1.60507E-14-1.31629E-13
 -1      1836 2.01048E+01 1.81753E-02 3.61964E-04 1.04001E-01 5.34393E-14-3.70449E-13
 -1      1837 2.01491E+01 2.32677E-02 2.05921E-03 1.16394E-01 8.67074E-15-3.33398E-13
 -1      1838 2.00861E+01 2.48250E-02-6.41064E-04 1.27291E-01 7.26012E-14-2.24662E-13
 -1      1839 2.01858E+01 2.79249E-02 6.05833E-04 1.36313E-01-4.67315E-14-3.74438E-13
 -1      1840 2.02438E+01 3.47030E-02 2.91715E-03 1.54993E-01-3.64903E-14-4.05672E-13
 -1      1841 2.01526E+01 3.87734E-02-8.82031E-04 1.64185E-01-3.81924E-14-2.88588E-13
 -1      1842 2.02905E+01 4.09221E-02 8.69391E-04 1.84030E-01-1.06315E-13-4.43439E-13
 -1      1843 2.03685E+01 5.01007E-02 4.08225E-03 2.11120E-01-1.30945E-13-4.66900E-13
 -1      1844 2.02366E+01 5.73283E-02-1.15235E-03 2.18932E-01-1.04226E-13-4.11903E-13
 -1      1845 2.04285E+01 5.85124E-02 1.14415E-03 2.52271E-01-1.16082E-13-4.33686E-13
 -1      1846 2.05345E+01 7.10465E-02 5.64834E-03 2.90742E-01-7.11718E-14-4.47949E-13
 -1      1847 2.03446E+01 8.24117E-02-1.44112E-03 2.97175E-01-1.10862E-13-4.11961E-13
 -1      1848 2.06116E+01 8.24619E-02 1.40327E-03 3.48067E-01-4.89112E-14-3.68226E-13
 -1      1849 2.07561E+01 9.95153E-02 7.69163E-03 4.01964E-01-3.09024E-14-3.45073E-13
 -1      1850 2.04838E+01 1.16564E-01-1.72824E-03 4.06581E-01-2.72957E-14-2.47376E-13
 -1      1851 2.08546E+01 1.15072E-01 1.64040E-03 4.80786E-01-6.09413E-14-3.52886E-13
 -1      1852 2.10517E+01 1.37767E-01 1.04558E-02 5.55220E-01-5.50593E-14-3.28632E-13
 -1      1853 2.06630E+01 1.62818E-01-1.99919E-03 5.57217E-01-5.30743E-14-9.28643E-14
 -1      1854 2.11833E+01 1.59226E-01 1.63370E-03 6.67472E-01-1.32043E-14-3.49902E-13
 -1      1855 2.14631E+01 1.90061E-01 1.35891E-02 7.75252E-01 1.58484E-14-3.12697E-13
 -1      1856 2.08976E+01 2.25566E-01-2.50610E-03 7.67806E-01-6.91296E-14-7.33860E-14
 -1      1857 2.16190E+01 2.14784E-01 1.30285E-03 9.18280E-01 5.38198E-14-2.84172E-13
 -1      1858 2.19768E+01 2.48603E-01 1.61625E-02 1.05346E+00 5.59240E-14-2.87308E-13
 -1      1859 2.11946E+01 3.05949E-01-2.30858E-03 1.04942E+00 1.70567E-15 1.08556E-14
 -1      1860 2.21681E+01 2.74010E-01 1.92429E-04 1.23555E+00-5.21978E-15-3.26994E-13
 -1      1861 2.26332E+01 3.05204E-01 1.76199E-02 1.40244E+00 5.96918E-15-2.04844E-13
 -1      1862 2.15543E+01 3.94187E-01-2.38939E-03 1.40480E+00 6.26205E-14 2.75408E-14
 -1      1863 2.28677E+01 3.19507E-01-1.18404E-03 1.61837E+00-1.86162E-14-2.28267E-13
 -1      1864 2.34494E+01 3.25847E-01 1.53790E-02 1.80094E+00-5.37521E-14-2.58544E-13
 -1      1865 2.19945E+01 4.66907E-01-3.13997E-03 1.83837E+00-1.08234E-14 4.34571E-14
 -1      1866 2.37466E+01 3.01241E-01-1.42911E-03 2.02262E+00-2.58834E-14-1.97634E-13
 -1      1867 2.44319E+01 2.35741E-01 6.71729E-03 2.16861E+00 1.39817E-13-1.76512E-13
 -1      1868 2.25352E+01 4.59608E-01-5.72979E-03 2.31587E+00-1.93881E-14 7.97635E-14
 -1      1869 2.48427E+01 1.17796E-01 4.18426E-03 2.32076E+00 1.43793E-13-2.89531E-13
 -1      1870 2.55738E+01-9.87736E-02-1.02629E-02 2.31453E+00 1.05454E-13-2.93847E-13
 -1      1871 2.32278E+01 2.38083E-01-1.20914E-02 2.73360E+00 8.79654E-14 8.32147E-15
 -1      1872 2.62075E+01-3.86272E-01 2.27868E-02 2.23949E+00 1.28012E-13-3.61301E-13
 -1      1873 2.68600E+01-8.24454E-01-3.31064E-02 1.89171E+00 7.09953E-14-2.54621E-13
 -1      1874 2.41991E+01-4.10638E-01-2.38446E-02 2.86318E+00 1.44640E-13-1.94381E-13
 -1      1875 2.78643E+01-1.30295E+00 4.96421E-02 1.34176E+00-6.34631E-14-2.13512E-13
 -1      1876 2.82502E+01-1.84808E+00-5.44120E-02 4.77759E-01-1.43295E-13-3.35556E-13
 -1      1877 2.56856E+01-1.63830E+00-3.86212E-02 2.30469E+00-1.51268E-14-2.68108E-13
 -1      1878 2.95638E+01-2.21226E+00 4.24779E-02-6.72453E-01-7.86315E-14-4.27068E-13
 -1      1879 2.94809E+01-2.30620E+00-6.96993E-02-1.81636E+00-7.49956E-14-3.68800E-13
 -1      1880 2.78640E+01-3.02586E+00-5.26983E-02 6.57794E-01-2.03709E-13-1.81963E-13
 -1      1881 3.06476E+01-1.93011E+00-6.60518E-02-3.12324E+00-4.96131E-14-3.97897E-13
 -1      1882 3.01961E+01-8.93211E-01-5.99960E-02-3.78094E+00-1.26454E-13-5.32074E-13
 -1      1883 3.03155E+01-3.12789E+00-9.23019E-02-1.92845E+00-6.22939E-14-1.15748E-13
 -1      1884 2.99106E+01 4.76352E-01-2.37983E-01-4.11282E+00-9.73943E-14-5.40391E-13
 -1      1885 2.92091E+01 2.05874E+00-1.23926E-01-3.36641E+00-1.98397E-13-5.01779E-13
 -1      1886 2.96575E+01 3.31186E+00-2.02214E-01-1.73348E+00-2.06946E-13-4.98981E-13
 -1      1887 2.95016E+01 3.65958E+00-1.96494E-01 3.53383E-01-8.78742E-14-5.15810E-13
 -1      1888 2.94702E+01 2.93535E+00-1.27505E-01 2.49706E+00-1.11799E-13-7.07878E-13
 -1      1889 3.00662E+01 1.25708E+00-2.37617E-01 3.76669E+00 4.38538E-15-7.55868E-13
 -1      1890 2.99302E+01-2.75063E-01-5.79328E-02 3.87098E+00 3.69427E-14-1.03963E-12
 -1      1891 3.04724E+01-1.64895E+00-1.09639E-01 3.33936E+00 4.10609E-14-9.57207E-13
 -1      1892 2.93938E+01-2.14075E+00-6.11563E-02 2.01057E+00 2.67061E-14-8.68030E-13
 -1      1893 2.94850E+01-2.17635E+00 2.09339E-02 7.98012E-01 1.30326E-13-7.02719E-13
 -1      1894 3.05110E+01-2.68005E+00-8.56287E-02 2.36295E+00 9.97015E-14-9.90236E-13
 -1      1895 2.81282E+01-1.78877E+00-5.56813E-02-4.78238E-01 2.16514E-13-5.62654E-13
 -1      1896 2.77029E+01-1.25270E+00 4.46993E-02-1.39371E+00 3.34340E-13-4.87523E-13
 -1      1897 2.79815E+01-2.84562E+00-3.71145E-02-4.82438E-01 2.32626E-13-5.26604E-13
 -1      1898 2.66839E+01-8.13360E-01-3.71483E-02-1.95439E+00 2.57221E-13-4.22974E-13
 -1      1899 2.59970E+01-3.78312E-01 2.29372E-02-2.30910E+00 8.24167E-14-2.15831E-13
 -1      1900 2.57381E+01-1.53962E+00-2.70942E-02-2.30670E+00 3.27571E-13-4.40578E-13
 -1      1901 2.53152E+01-1.21312E-01-1.32013E-02-2.40408E+00-3.57197E-14-1.17796E-13
 -1      1902 2.45408E+01 9.95609E-02 5.82820E-03-2.41856E+00-7.39057E-14-8.21964E-14
 -1      1903 2.41903E+01-4.05019E-01-1.81954E-02-2.92356E+00 1.55893E-13-2.00300E-13
 -1      1904 2.40654E+01 2.00631E-01 3.69676E-03-2.28699E+00-2.56852E-14-1.30056E-13
 -1      1905 2.33303E+01 2.76900E-01 3.72825E-04-2.14905E+00-1.71911E-14-2.03203E-13
 -1      1906 2.31088E+01 1.95399E-01-1.10622E-02-2.84303E+00 5.23151E-14 8.82931E-14
 -1      1907 2.29681E+01 2.96578E-01 1.29302E-02-1.94142E+00-9.79512E-14-1.02749E-13
 -1      1908 2.23343E+01 3.05810E-01 9.95312E-04-1.76105E+00-1.42045E-13 1.20572E-14
 -1      1909 2.22915E+01 4.10665E-01-6.34841E-03-2.46126E+00-2.59523E-14 1.17208E-13
 -1      1910 2.20417E+01 2.97122E-01 1.59534E-02-1.54660E+00-1.53915E-13-1.77882E-13
 -1      1911 2.15307E+01 2.88246E-01 3.39138E-03-1.36802E+00-2.83966E-14-3.57439E-13
 -1      1912 2.16334E+01 4.41419E-01-3.83935E-03-1.99710E+00-2.16489E-13 2.00116E-13
 -1      1913 2.12890E+01 2.80991E-01 1.49864E-02-1.16616E+00-8.00193E-14-2.54893E-13
 -1      1914 2.09013E+01 2.77802E-01 4.89736E-03-9.93879E-01-2.07415E-13-4.77017E-13
 -1      1915 2.10907E+01 4.17954E-01-3.81806E-03-1.54292E+00-9.91872E-14-1.79196E-13
 -1      1916 2.07062E+01 2.80722E-01 1.13772E-02-7.99410E-01-1.05003E-13-3.94138E-13
 -1      1917 2.04304E+01 2.92351E-01 5.41466E-03-6.29098E-01-1.29682E-13-2.77711E-13
 -1      1918 2.06464E+01 4.07246E-01-6.15198E-03-1.11256E+00-8.80025E-14-3.29862E-14
 -1      1919 2.02441E+01 2.95436E-01 5.13068E-03-3.95558E-01-1.99025E-14-1.80412E-13
 -1      1920 1.95131E+01 1.12266E-01 9.63528E-03 1.27708E-01 1.32167E-13 6.82563E-13
 -1      1921 1.96289E+01 1.58797E-01 1.71497E-02 2.21333E-01 1.42708E-13 7.45216E-13
 -1      1922 1.93827E+01 5.75638E-02 6.11870E-03-1.32178E-02 1.03034E-13 5.90326E-13
 -1      1923 1.94189E+01 8.24046E-02 1.19765E-02 3.34417E-02 1.07762E-13 6.31409E-13
 -1      1924 1.97153E+01 1.54093E-01-4.61283E-03 1.54792E-01 1.62072E-13 4.26835E-13
 -1      1925 1.93505E+01 2.74333E-02 3.66926E-03-8.74794E-02 1.34743E-13 5.04783E-13
 -1      1926 1.93394E+01 4.14337E-02 6.24859E-03-6.43763E-02 1.18036E-13 5.56275E-13
 -1      1927 1.95808E+01 7.71763E-02-4.06714E-03-1.59552E-02 1.57699E-13 3.48730E-13
 -1      1928 1.93760E+01 9.86534E-03 2.23687E-03-1.22361E-01 9.46654E-14 4.46106E-13
 -1      1929 1.93403E+01 1.79069E-02 2.97471E-03-1.12579E-01 1.24049E-13 4.86388E-13
 -1      1930 1.95321E+01 3.45312E-02-2.89565E-03-1.06598E-01 1.60204E-13 3.16275E-13
 -1      1931 1.94324E+01-4.15706E-04 1.36819E-03-1.33963E-01 7.74177E-14 4.05093E-13
 -1      1932 1.93854E+01 4.13881E-03 1.20249E-03-1.31991E-01 6.27957E-14 4.15402E-13
 -1      1933 1.95348E+01 1.00378E-02-1.87532E-03-1.49676E-01 1.20365E-13 2.42845E-13
 -1      1934 1.95027E+01-6.15845E-03 8.18784E-04-1.31962E-01 8.48399E-15 4.06159E-13
 -1      1935 1.94525E+01-3.77682E-03 2.25659E-04-1.34464E-01 5.63211E-14 4.06827E-13
 -1      1936 1.95671E+01-4.00212E-03-1.10956E-03-1.64297E-01 6.35183E-14 2.21140E-13
 -1      1937 1.95768E+01-8.96016E-03 4.67760E-04-1.22488E-01 3.35822E-14 3.94522E-13
 -1      1938 1.95279E+01-7.97503E-03-3.07158E-04-1.27332E-01 2.83920E-14 4.15367E-13
 -1      1939 1.96146E+01-1.15710E-02-5.80700E-04-1.62205E-01 3.96716E-14 2.76806E-13
 -1      1940 1.96486E+01-9.81149E-03 2.54179E-04-1.09560E-01 9.06893E-14 3.24008E-13
 -1      1941 1.96035E+01-9.73876E-03-5.75650E-04-1.15339E-01 6.80031E-14 3.63404E-13
 -1      1942 1.96682E+01-1.49706E-02-2.40440E-04-1.50951E-01 8.93976E-14 2.28903E-13
 -1      1943 1.97153E+01-9.35798E-03 1.41036E-04-9.58542E-02 5.37788E-14 2.87003E-13
 -1      1944 1.96749E+01-9.88430E-03-6.78530E-04-1.01625E-01 9.25024E-14 3.09889E-13
 -1      1945 1.97225E+01-1.56244E-02-3.93683E-05-1.35525E-01 1.06467E-13 2.23570E-13
 -1      1946 1.97758E+01-8.02594E-03 1.03784E-04-8.31696E-02-4.71581E-14 2.86749E-13
 -1      1947 1.97400E+01-8.94739E-03-6.76111E-04-8.82980E-02-5.75568E-15 2.91936E-13
 -1      1948 1.97743E+01-1.44527E-02 6.14689E-05-1.19277E-01 4.10346E-14 2.13143E-13
 -1      1949 1.98304E+01-6.09567E-03 1.25146E-04-7.27245E-02 1.28006E-14 3.22623E-13
 -1      1950 1.97987E+01-7.28111E-03-6.07496E-04-7.67768E-02-3.06995E-14 3.23746E-13
 -1      1951 1.98226E+01-1.20587E-02 9.06528E-05-1.04472E-01-4.25047E-14 1.47659E-13
 -1      1952 1.98804E+01-3.75082E-03 1.92270E-04-6.53523E-02-5.87993E-15 3.69272E-13
 -1      1953 1.98518E+01-5.11642E-03-4.98895E-04-6.80285E-02 5.39853E-14 3.62653E-13
 -1      1954 1.98674E+01-8.83648E-03 6.86078E-05-9.26529E-02-1.55271E-14 1.78197E-13
 -1      1955 1.99278E+01-1.11802E-03 2.94324E-04-6.16279E-02-6.91046E-14 3.41306E-13
 -1      1956 1.99009E+01-2.60640E-03-3.68301E-04-6.27179E-02-2.31389E-14 3.50059E-13
 -1      1957 1.99095E+01-5.04565E-03 9.98069E-06-8.48810E-02 6.19872E-15 1.84215E-13
 -1      1958 1.99751E+01 1.69582E-03 4.20077E-04-6.19321E-02 1.21446E-14 2.86247E-13
 -1      1959 1.99482E+01 1.35727E-04-2.28651E-04-6.12968E-02-2.47434E-14 2.76716E-13
 -1      1960 1.99505E+01-8.72102E-04-7.43753E-05-8.18801E-02-2.88599E-14 9.72904E-14
 -1      1961 2.00248E+01 4.56370E-03 5.55177E-04-6.64584E-02 1.46086E-13 2.01742E-13
 -1      1962 1.99964E+01 2.99843E-03-9.02135E-05-6.40357E-02 7.17601E-14 2.44988E-13
 -1      1963 1.99923E+01 3.51291E-03-1.75661E-04-8.41066E-02 1.07776E-13 1.37808E-14
 -1      1964 2.00796E+01 7.29288E-03 6.79041E-04-7.51559E-02 1.01728E-13 1.48541E-13
 -1      1965 2.00481E+01 5.82963E-03 3.74558E-05-7.09931E-02 1.41713E-13 1.85076E-13
 -1      1966 2.00369E+01 7.88895E-03-2.85497E-04-9.17386E-02 1.30425E-13-1.27743E-14
 -1      1967 2.01421E+01 9.57177E-03 7.61488E-04-8.75987E-02 1.08903E-13 1.25752E-13
 -1      1968 2.01060E+01 8.38769E-03 1.43877E-04-8.19190E-02 8.05794E-14 1.79540E-13
 -1      1969 2.00866E+01 1.19129E-02-3.94327E-04-1.04580E-01 8.50120E-14 1.13367E-14
 -1      1970 2.02143E+01 1.09114E-02 7.59611E-04-1.02776E-01 3.83341E-14 1.69576E-13
 -1      1971 2.01726E+01 1.02854E-02 2.16400E-04-9.60791E-02 1.15656E-13 2.14900E-13
 -1      1972 2.01435E+01 1.50352E-02-4.89761E-04-1.21869E-01 9.51606E-14 1.95419E-13
 -1      1973 2.02970E+01 1.05900E-02 6.16052E-04-1.18800E-01 2.06617E-14 1.38780E-13
 -1      1974 2.02494E+01 1.09317E-02 2.39548E-04-1.11998E-01 2.60518E-14 1.62837E-13
 -1      1975 2.02092E+01 1.64105E-02-5.54862E-04-1.41989E-01 4.52676E-14 2.93091E-13
 -1      1976 2.03894E+01 7.62200E-03 2.60752E-04-1.32546E-01 1.77229E-15 1.93580E-13
 -1      1977 2.03370E+01 9.48426E-03 1.95328E-04-1.27129E-01-7.90438E-15 1.27218E-13
 -1      1978 2.02846E+01 1.48228E-02-5.66437E-04-1.62075E-01-5.37537E-15 1.73341E-13
 -1      1979 2.04883E+01 7.90299E-04-3.80511E-04-1.39304E-01-9.37823E-14 1.18926E-13
 -1      1980 2.04337E+01 4.84289E-03 6.49738E-05-1.37486E-01-1.27345E-14 1.71849E-13
 -1      1981 2.03692E+01 8.66329E-03-4.93503E-04-1.77574E-01-5.08983E-14 1.47614E-13
 -1      1982 2.05864E+01-1.11904E-02-1.36654E-03-1.32549E-01 5.02655E-14 2.84944E-14
 -1      1983 2.05348E+01-4.26624E-03-1.67499E-04-1.37346E-01-1.02801E-13 3.68791E-15
 -1      1984 2.04606E+01-3.96567E-03-2.96394E-04-1.81844E-01-3.21069E-14 6.36483E-14
 -1      1985 2.06723E+01-2.92892E-02-2.70614E-03-1.04105E-01 1.42523E-13 1.16548E-13
 -1      1986 2.06319E+01-1.90350E-02-5.09977E-04-1.19205E-01 1.53443E-13 1.30228E-13
 -1      1987 2.05534E+01-2.49078E-02 7.23723E-05-1.66004E-01 3.85374E-15 1.14698E-13
 -1      1988 2.07294E+01-5.34579E-02-4.30823E-03-4.50592E-02 9.89790E-15 2.08417E-13
 -1      1989 2.07113E+01-4.00495E-02-9.56079E-04-7.43134E-02 9.30909E-14 1.56836E-13
 -1      1990 2.06388E+01-5.52288E-02 6.62823E-04-1.19382E-01 7.49692E-14 2.50985E-13
 -1      1991 2.07361E+01-8.15931E-02-5.92564E-03 5.20992E-02-2.56739E-14 1.86543E-13
 -1      1992 2.07542E+01-6.64233E-02-1.47912E-03 5.78163E-03-8.63524E-15 2.26540E-13
 -1      1993 2.07037E+01-9.39941E-02 1.51288E-03-3.10477E-02 1.88575E-14 2.08596E-13
 -1      1994 2.06684E+01-1.08366E-01-7.12152E-03 1.89752E-01-1.46766E-14 1.67503E-13
 -1      1995 2.07369E+01-9.46484E-02-2.02590E-03 1.26215E-01 3.04565E-14 1.81701E-13
 -1      1996 2.07304E+01-1.36609E-01 2.61639E-03 1.06990E-01 1.45131E-15 2.30932E-13
 -1      1997 2.05040E+01-1.24578E-01-7.31273E-03 3.60021E-01-1.81253E-14 1.76727E-13
 -1      1998 2.06343E+01-1.17556E-01-2.50769E-03 2.84187E-01-6.98989E-14 1.53011E-13
 -1      1999 2.06981E+01-1.73229E-01 3.86286E-03 2.94601E-01 4.23164E-15 3.02226E-13
 -1      2000 2.02301E+01-1.18240E-01-5.94895E-03 5.39709E-01 8.62158E-15 1.29378E-13
 -1      2001 2.04251E+01-1.24317E-01-2.77955E-03 4.63558E-01-9.35666E-15 1.22862E-13
 -1      2002 2.05855E+01-1.88500E-01 4.94838E-03 5.16921E-01 7.21406E-15 2.61378E-13
 -1      2003 1.98527E+01-7.86248E-02-2.83723E-03 6.88588E-01 8.18518E-14 2.13774E-13
 -1      2004 2.01018E+01-1.02830E-01-2.60597E-03 6.31160E-01 7.46358E-14 2.06306E-13
 -1      2005 2.03778E+01-1.64514E-01 5.31996E-03 7.38668E-01-1.13434E-14 3.11144E-13
 -1      2006 1.94059E+01-3.23004E-03 1.52045E-03 7.55500E-01-4.26121E-14 3.07270E-13
 -1      2007 1.96817E+01-4.53510E-02-1.67543E-03 7.39028E-01 3.82587E-14 2.44272E-13
 -1      2008 2.00767E+01-8.82981E-02 4.27681E-03 9.04088E-01 8.16935E-15 3.73341E-13
 -1      2009 1.89549E+01 9.52970E-02 5.84946E-03 6.94977E-01-2.61642E-14 2.59642E-13
 -1      2010 1.92149E+01 4.39512E-02 3.18632E-04 7.36589E-01-7.09053E-14 2.84209E-13
 -1      2011 1.97107E+01 3.74407E-02 1.33564E-03 9.48061E-01-5.27250E-14 3.51568E-13
 -1      2012 1.85864E+01 1.88202E-01 8.58067E-03 4.90872E-01 1.00249E-13 1.99783E-13
 -1      2013 1.87818E+01 1.44029E-01 3.34085E-03 5.92417E-01 9.89447E-14 2.16444E-13
 -1      2014 1.93404E+01 1.86470E-01-3.14633E-03 8.20394E-01 1.07453E-13 2.49600E-13
 -1      2015 1.83844E+01 2.40871E-01 8.80693E-03 1.74593E-01 2.67278E-14 1.90173E-13
 -1      2016 1.84749E+01 2.21214E-01 6.84549E-03 3.16858E-01 7.38290E-14 1.85114E-13
 -1      2017 1.90486E+01 3.12222E-01-7.64190E-03 5.16023E-01 8.39801E-14 2.55535E-13
 -1      2018 1.83976E+01 2.31220E-01 6.79458E-03-1.77932E-01-1.77006E-13 1.20692E-13
 -1      2019 1.83654E+01 2.44557E-01 9.51356E-03-3.06566E-02-8.91440E-14 1.74010E-13
 -1      2020 1.89121E+01 3.67663E-01-9.77671E-03 9.27730E-02-2.38910E-14 2.19644E-13
 -1      2021 1.86176E+01 1.63137E-01 3.70258E-03-4.75062E-01 8.95659E-14-5.30795E-14
 -1      2022 1.84740E+01 2.03958E-01 9.95684E-03-3.60563E-01-2.14620E-14-1.03871E-13
 -1      2023 1.89664E+01 3.29688E-01-8.48031E-03-3.42454E-01-1.62656E-14 9.91798E-14
 -1      2024 1.89810E+01 6.39139E-02 8.03737E-04-6.47699E-01-2.41660E-14-1.39212E-14
 -1      2025 1.87625E+01 1.16102E-01 7.62434E-03-5.90383E-01 3.50579E-14-8.80511E-14
 -1      2026 1.91878E+01 2.13265E-01-4.50300E-03-6.77169E-01 4.52455E-14-2.00285E-14
 -1      2027 1.93955E+01-3.15089E-02-1.17296E-03-6.74055E-01-8.85989E-14-1.42074E-14
 -1      2028 1.91510E+01 1.44432E-02 3.28115E-03-6.77357E-01 7.44402E-15 7.87400E-14
 -1      2029 1.95054E+01 6.23168E-02 4.84859E-05-8.39873E-01-2.46982E-14 3.99457E-14
 -1      2030 1.97746E+01-9.75917E-02-2.10133E-03-5.78667E-01 1.32714E-13-1.08311E-13
 -1      2031 1.95497E+01-6.90013E-02-1.46174E-03-6.28306E-01-2.96204E-14-5.24563E-14
 -1      2032 1.98337E+01-7.36231E-02 3.42729E-03-8.22287E-01 2.08906E-14-3.18372E-14
 -1      2033 2.00606E+01-1.25585E-01-2.23203E-03-4.12190E-01 9.40090E-15-1.93053E-13
 -1      2034 1.98868E+01-1.16717E-01-5.12265E-03-4.85688E-01 1.46974E-13-1.31270E-13
 -1      2035 2.01045E+01-1.61683E-01 4.92635E-03-6.68558E-01 1.09294E-13-4.58559E-14
 -1      2036 2.02313E+01-1.20379E-01-1.81939E-03-2.28111E-01 1.80921E-13-4.87074E-13
 -1      2037 2.01220E+01-1.27404E-01-6.96523E-03-3.03902E-01 4.70110E-14-3.56026E-13
 -1      2038 2.02824E+01-1.93039E-01 4.82498E-03-4.46220E-01 1.13100E-13-2.90996E-13
 -1      2039 2.02941E+01-9.30193E-02-1.02970E-03-6.77523E-02 1.70736E-13-2.38430E-13
 -1      2040 2.02461E+01-1.09885E-01-7.02722E-03-1.30218E-01 1.66828E-13-3.75689E-13
 -1      2041 2.03622E+01-1.77098E-01 3.81264E-03-2.19092E-01 1.13433E-13-3.71943E-13
 -1      2042 2.02747E+01-5.46932E-02-4.86310E-05 4.42785E-02-1.03416E-13-7.19435E-14
 -1      2043 2.02738E+01-7.58064E-02-5.84497E-03 3.82892E-03 1.04332E-13-1.40812E-13
 -1      2044 2.03593E+01-1.30689E-01 2.52536E-03-3.26892E-02-2.39795E-14-3.54007E-14
 -1      2045 2.02066E+01-1.44191E-02 8.60323E-04 9.84284E-02-1.75794E-13 9.86364E-15
 -1      2046 2.02329E+01-3.54104E-02-4.14980E-03 8.27778E-02-1.32910E-13-3.82414E-14
 -1      2047 2.02990E+01-7.04186E-02 1.23471E-03 8.83534E-02-1.10816E-13 8.04309E-14
 -1      2048 2.01222E+01 2.12327E-02 1.56297E-03 9.62044E-02 2.62744E-14 4.40870E-14
 -1      2049 2.01566E+01 4.12274E-03-2.29041E-03 1.04320E-01-1.25764E-13 9.15099E-15
 -1      2050 2.02081E+01-9.28272E-03 2.76010E-05 1.37297E-01-1.67799E-13 9.14121E-14
 -1      2051 2.00514E+01 3.62189E-02 1.04134E-03 5.83931E-02 7.38488E-14 7.03218E-14
 -1      2052 2.00815E+01 2.87534E-02-9.90799E-04 7.91170E-02 8.91657E-14 7.80168E-14
 -1      2053 2.01210E+01 3.01489E-02-1.13384E-03 1.22003E-01-3.25994E-14 1.62026E-13
 -1      2054 2.00510E+01 5.29605E-02 7.04860E-05 7.34800E-02 9.07620E-14 4.10196E-13
 -1      2055 2.00873E+01 3.96903E-01 4.37351E-03 3.28504E-01 3.70360E-14 2.67742E-14
 -1      2056 2.00841E+01 2.88472E-01 1.96798E-03 2.79237E-01-1.56379E-13 2.19674E-13
 -1      2057 2.00795E+01 2.29053E-01 4.40763E-03 2.19397E-01-1.23581E-13 8.50383E-14
 -1      2058 2.00712E+01 1.51924E-01 7.23382E-04 1.75749E-01-6.94069E-14 9.74876E-14
 -1      2059 2.01211E+01 2.07707E-01-2.93070E-03 3.16559E-01-1.80957E-13 1.50270E-13
 -1      2060 2.00585E+01 9.84377E-02 2.50091E-03 1.07528E-01 1.31912E-13 3.29138E-13
 -1      2061 2.00795E+01 6.21749E-01 3.04896E-03 4.36901E-01-1.34870E-13-3.58666E-13
 -1      2062 2.00853E+01 4.82119E-01 2.17256E-03 3.90760E-01-1.18195E-13-1.86543E-13
 -1      2063 2.01262E+01 3.54148E-01-3.33798E-03 4.52570E-01-1.81222E-13-1.86322E-13
 -1      2064 2.00488E+01 9.06539E-01 5.31764E-04 5.24208E-01-2.39417E-13-2.13075E-13
 -1      2065 2.00676E+01 7.38524E-01 2.20555E-03 4.91305E-01-2.02794E-13-8.93907E-14
 -1      2066 2.01061E+01 5.57114E-01-3.31510E-03 5.84370E-01-1.38650E-13-1.83597E-13
 -1      2067 1.99916E+01 1.22665E+00-3.06007E-03 5.55696E-01-5.77498E-14-2.09645E-13
 -1      2068 2.00244E+01 1.04914E+00 1.69218E-03 5.51649E-01-2.27165E-13-5.52341E-14
 -1      2069 2.00503E+01 8.17451E-01-2.39294E-03 6.78123E-01-5.09336E-14-1.11881E-13
 -1      2070 1.99137E+01 1.54221E+00-6.92136E-03 4.99667E-01-2.15274E-13-1.08793E-13
 -1      2071 1.99562E+01 1.38089E+00 3.79073E-04 5.37358E-01-1.94538E-13-2.06456E-13
 -1      2072 1.99576E+01 1.11467E+00-3.77944E-04 6.90921E-01-1.58582E-13-3.03281E-13
 -1      2073 1.98310E+01 1.79852E+00-9.97519E-03 3.37903E-01-1.24760E-13 1.91080E-13
 -1      2074 1.98736E+01 1.68425E+00-1.72127E-03 4.22580E-01-1.81153E-13-9.01189E-16
 -1      2075 1.98403E+01 1.41068E+00 2.64470E-03 5.86432E-01-3.77645E-13-1.74912E-14
 -1      2076 1.97678E+01 1.93678E+00-1.10673E-02 7.80682E-02-3.33537E-13-1.06496E-13
 -1      2077 1.97972E+01 1.89843E+00-4.29922E-03 2.02329E-01-3.17578E-13 2.43313E-13
 -1      2078 1.97252E+01 1.65177E+00 6.03192E-03 3.49420E-01-3.17793E-13 7.62428E-14
 -1      2079 1.97497E+01 1.91292E+00-9.46838E-03-2.33528E-01-3.26669E-13-3.05252E-13
 -1      2080 1.97527E+01 1.96629E+00-6.87490E-03-9.44506E-02-4.73673E-13-1.04577E-13
 -1      2081 1.96488E+01 1.77961E+00 8.71793E-03 3.56938E-03-4.46870E-13-1.68225E-13
 -1      2082 1.97942E+01 1.71057E+00-5.44931E-03-5.38154E-01 1.69628E-13 4.84914E-13
 -1      2083 1.97631E+01 1.85659E+00-8.45289E-03-4.12773E-01-1.16374E-13 2.36161E-13
 -1      2084 1.96451E+01 1.75228E+00 9.64620E-03-3.92612E-01-9.40483E-14 1.79173E-13
 -1      2085 1.99074E+01 1.35432E+00 5.03436E-04-7.46335E-01 2.77387E-13 5.91385E-13
 -1      2086 1.98409E+01 1.56923E+00-8.46738E-03-6.75064E-01 3.07177E-13 4.45749E-13
 -1      2087 1.97354E+01 1.55456E+00 8.02570E-03-7.50177E-01 1.66741E-13 4.88388E-13
 -1      2088 2.00679E+01 9.11530E-01 7.24625E-03-7.84234E-01 2.90116E-13 3.96416E-13
 -1      2089 1.99787E+01 1.15156E+00-7.13944E-03-7.93739E-01 1.24814E-13 4.48195E-13
 -1      2090 1.99262E+01 1.21273E+00 6.43127E-03-9.62312E-01 1.29255E-13 3.80215E-13
 -1      2091 1.97247E+01 1.78559E-01 1.26057E-02 3.27083E-01 1.66133E-13 8.34324E-13
 -1      2092 1.99795E+01 2.56159E-01 1.69834E-02 5.05216E-01 1.97517E-13 9.00377E-13
 -1      2093 2.01769E+01 4.15333E-01-4.00164E-04 7.32319E-01 2.38745E-13 6.99336E-13
 -1      2094 1.99070E+01 2.63660E-01-3.75718E-03 4.03228E-01 2.05272E-13 5.65859E-13
 -1      2095 1.20820E+01-4.94051E+00-9.29491E-02 7.29486E+00 6.76570E-13 6.02837E-13
 -1      2096 8.05670E+00-6.74546E+00-3.59799E-01 6.13978E+00 5.97966E-13 7.89008E-13
 -1      2097 2.98604E+01 3.22151E-01 1.87054E-01 5.99208E+00 7.23532E-13 1.09546E-12
 -1      2098 2.50707E+01-1.62998E+00-1.17713E-01 6.01086E+00 9.19653E-13 8.37663E-13
 -1      2099 6.18716E-01-6.64011E+00-2.39299E-01 1.97670E+00 2.34535E-13 1.77469E-13
 -1      2100 3.19421E-01-7.10615E+00-3.02778E-01 5.65990E-02 3.20563E-13-1.21070E-13
 -1      2101 2.09796E+01-2.48174E+00 3.72350E-02 7.49283E+00 1.06221E-12 4.51417E-13
 -1      2102 1.60444E+01-4.56526E+00-2.72753E-01 6.80471E+00 8.54650E-13 5.46646E-13
 -1      2103 1.95241E+01 4.01759E+00-2.49867E-02-1.70002E+00-1.16285E-13-5.09717E-13
 -1      2104 1.96481E+01 3.94383E+00-2.46579E-02-1.95637E+00-1.74546E-13-4.83606E-13
 -1      2105 1.99641E+01 3.23739E+00-1.87387E-02-1.92588E+00-2.04317E-13-4.28038E-13
 -1      2106 1.96954E+01 3.58948E+00-6.67896E-03-1.52032E+00-1.05077E-13-4.85372E-13
 -1      2107 3.68714E+01 3.92227E+00 3.18181E-01 4.13773E+00 8.42271E-13 7.10210E-13
 -1      2108 3.24507E+01 2.31463E+00 9.88779E-03 4.56403E+00 8.49154E-13 9.02167E-13
 -1      2109 4.01304E+01 6.40231E+00 2.34941E-01 1.62057E+00 7.97196E-13 3.55438E-13
 -1      2110 3.80412E+01 5.51000E+00 1.72483E-01 2.92159E+00 8.44685E-13 6.13010E-13
 -1      2111 4.02085E+01 7.78461E+00 1.65385E-01-2.14761E-01 7.78044E-13 1.53953E-13
 -1      2112 4.01429E+01 7.53613E+00 2.12349E-01 9.18667E-01 8.47544E-13 3.44613E-13
 -1      2113 3.93851E+01 6.70521E+00 2.00733E-01-1.86842E+00 5.20028E-13-1.39000E-13
 -1      2114 4.05071E+01 7.39231E+00 2.18076E-01-6.05471E-01 6.26721E-13 1.64785E-13
 -1      2115 3.51572E+01 3.96585E+00 7.07890E-02-3.49977E+00 4.24688E-13-2.99538E-13
 -1      2116 3.86998E+01 5.27449E+00 2.97432E-01-2.83448E+00 4.25937E-13-1.33726E-13
 -1      2117 2.84081E+01 3.55069E-01-3.52038E-02-5.71768E+00 4.18027E-13-4.47420E-13
 -1      2118 3.28946E+01 1.85992E+00 1.69799E-01-5.08724E+00 4.32140E-13-3.68594E-13
 -1      2119 1.99510E+01-2.81681E+00-2.19817E-01-6.76491E+00 2.02172E-13-4.06175E-13
 -1      2120 2.50693E+01-7.69317E-01 1.21711E-01-7.25583E+00 2.45082E-13-6.03573E-13
 -1      2121 1.15399E+01-5.70243E+00-3.31648E-01-6.64624E+00 4.52860E-13-1.18558E-13
 -1      2122 1.60718E+01-3.59261E+00-1.61917E-02-7.64947E+00 3.62266E-13-1.35308E-13
 -1      2123 4.48144E+00-7.06567E+00-3.59651E-01-5.22568E+00 4.67015E-13-4.17166E-14
 -1      2124 7.53332E+00-5.74283E+00-2.13496E-01-6.41598E+00 4.93827E-13 5.74124E-14
 -1      2125 1.84548E-01-8.06662E+00-4.63147E-01-2.00604E+00 3.62418E-13-4.79061E-13
 -1      2126 1.50806E+00-6.79761E+00-2.92652E-01-3.64790E+00 4.83280E-13-4.30489E-13
 -1      2127 8.09269E-01-7.24616E+00-3.24932E-01 1.38839E+00 1.26621E-13-2.83829E-13
 -1      2128 2.30438E-02-7.76697E+00-4.11997E-01-2.58545E-01 3.05051E-13-4.18943E-13
 -1      2129 6.67658E+00-6.12985E+00-1.44445E-01 5.04842E+00 5.54001E-14-2.05669E-13
 -1      2130 3.22457E+00-7.38117E+00-3.78327E-01 3.13447E+00 1.16407E-13-1.83742E-14
 -1      2131 1.65237E+01-5.84730E+00-1.02782E-01 6.29602E+00-3.33067E-15-3.57450E-13
 -1      2132 1.15149E+01-7.03370E+00-3.21238E-01 5.50224E+00 1.42220E-13-4.16833E-13
 -1      2133 2.66547E+01-3.50070E+00 6.61158E-02 5.35978E+00-2.72504E-13-3.44169E-14
 -1      2134 2.10578E+01-5.54735E+00-3.02757E-01 5.08326E+00-1.30396E-13-9.74221E-14
 -1      2135 3.59414E+01-6.57299E-03 2.76296E-01 3.47496E+00-1.56819E-13-1.83298E-13
 -1      2136 3.02553E+01-2.09486E+00-1.47411E-01 3.62056E+00-1.47771E-13-6.82787E-14
 -1      2137 4.28342E+01 3.84044E+00 5.35132E-01 1.28163E+00-3.48027E-13 1.43885E-13
 -1      2138 3.84874E+01 2.17356E+00 1.95101E-01 1.95012E+00-2.18110E-13-3.70814E-14
 -1      2139 4.47977E+01 6.68723E+00 5.38402E-01-3.03026E-01-3.18856E-13 7.85483E-14
 -1      2140 4.40787E+01 5.75494E+00 5.71817E-01 5.73577E-01-3.58658E-13 1.87628E-14
 -1      2141 4.41743E+01 6.44509E+00 5.63782E-01-3.77353E-01-5.22971E-13 2.98650E-14
 -1      2142 4.40392E+01 7.00864E+00 4.83882E-01 1.59085E-01-3.74589E-13-2.97401E-14
 -1      2143 4.07452E+01 3.69932E+00 3.10624E-01-1.54200E+00-5.23359E-13 3.32956E-13
 -1      2144 4.40851E+01 4.98748E+00 5.40916E-01-7.86254E-01-5.80092E-13-1.69309E-14
 -1      2145 3.35104E+01-3.92603E-01-2.81224E-02-3.34145E+00-4.09839E-13 6.46594E-13
 -1      2146 3.87769E+01 1.45824E+00 3.55271E-01-2.88804E+00-2.64330E-13 6.68354E-13
 -1      2147 2.37098E+01-3.96679E+00-3.20775E-01-5.09675E+00-3.20743E-13 4.31988E-13
 -1      2148 2.98738E+01-1.88660E+00 1.37029E-01-5.34146E+00-4.50973E-13 5.59996E-13
 -1      2149 1.43636E+01-6.65574E+00-4.44186E-01-5.51541E+00 2.62013E-14 6.28109E-13
 -1      2150 1.96344E+01-4.80951E+00-8.37706E-02-6.32441E+00-1.51101E-13 6.13565E-13
 -1      2151 6.32911E+00-7.72550E+00-4.39688E-01-4.55134E+00 5.09037E-13 9.59371E-13
 -1      2152 1.00177E+01-6.43132E+00-2.45626E-01-5.71486E+00 1.57097E-13 8.29094E-13
 -1      2153 1.33676E+00-7.41411E+00-3.43781E-01-2.00693E+00 5.89112E-13 1.38778E-14
 -1      2154 3.26080E+00-7.10281E+00-2.99446E-01-3.54168E+00 5.38736E-13 6.51590E-13
 -1      2155 4.58349E+00-6.55045E+00-2.54127E-01 5.41198E+00 4.83780E-13 1.15546E-12
 -1      2156 2.21815E+00-7.23154E+00-3.25886E-01 4.00216E+00 2.39142E-13 8.27671E-13
 -1      2157 3.20970E+01-4.44682E-01-7.47209E-02-4.00610E+00-4.09672E-14-2.76723E-13
 -1      2158 3.22871E+01 3.70479E+00-1.17645E-01-2.74986E+00-2.43472E-13-4.00652E-13
 -1      2159 2.07352E+01 1.10846E+00-2.09101E-02-1.61580E+00-2.99278E-13-6.41761E-14
 -1      2160 1.64660E+01-5.51048E+00-4.27150E-02 7.45873E+00 3.77365E-13 5.14033E-13
 -1      2161 3.15390E+01-8.55082E-02 1.64408E-01 2.97672E+00 5.93567E-13 5.96023E-13
 -1      2162 2.06269E+01 1.33218E+00-1.78593E-02-1.67753E+00-3.09499E-13-1.65437E-13
 -1      2163 2.02746E+01 4.34763E-01 1.87731E-03-6.43528E-01 5.99165E-14 1.86217E-13
 -1      2164 8.41849E+00-5.65759E+00-1.20804E-01 6.90080E+00 1.38334E-13 8.58924E-13
 -1      2165 2.01012E+01 9.94526E-02 9.76338E-04 1.74424E-01-5.97122E-14 1.78789E-13
 -1      2166 2.79064E+00-4.85176E+00-1.30895E-01 3.48881E+00 1.17240E-13 5.60163E-13
 -1      2167 2.32146E+00-4.64163E+00-1.22036E-01-1.41243E+00 3.50234E-13-1.34004E-13
 -1      2168 2.02221E+01 6.15790E-01-1.11055E-03-7.37412E-01 8.27689E-14 4.05306E-13
 -1      2169 6.96268E+00-5.82329E+00-1.54726E-01-5.11907E+00 5.76761E-13 1.00048E-12
 -1      2170 1.52108E+01-6.62983E+00-1.19923E-01-6.33849E+00 4.28213E-13 5.28133E-13
 -1      2171 2.50100E+01-3.67897E+00 8.24501E-02 5.85077E+00 7.41573E-13 5.66991E-13
 -1      2172 2.02510E+01 7.15477E-01 5.10195E-03-9.80904E-01 9.36842E-14 2.19487E-13
 -1      2173 2.43880E+01-5.85276E+00-3.88217E-02-4.88569E+00 5.20695E-14 2.20546E-13
 -1      2174 3.27691E+01-2.76050E+00 1.76526E-01-2.10532E+00-1.65146E-13 1.61204E-13
 -1      2175 3.81144E+01 1.76417E+00 3.20710E-01 7.14074E-01-2.75557E-13-7.01106E-14
 -1      2176 3.96268E+01 5.89812E+00 4.35136E-01 1.25708E+00-4.77285E-13-2.04170E-13
 -1      2177 4.01800E+01 7.15666E+00 4.39334E-01-2.51149E-01-2.93543E-13-3.22242E-14
 -1      2178 3.98825E+01 4.74600E+00 4.70912E-01-1.50802E+00-3.50997E-13 9.59788E-14
 -1      2179 3.67050E+01-6.12819E-02 2.48517E-01-3.24207E-01-1.80276E-13 3.54161E-14
 -1      2180 3.03150E+01-4.35387E+00 6.93187E-02 2.68046E+00-9.47020E-14 1.13021E-13
 -1      2181 2.13805E+01-6.42237E+00-6.09183E-02 5.34934E+00 1.66533E-14-7.66887E-14
 -1      2182 1.13836E+01-5.90070E+00-6.99031E-02 5.94646E+00 1.92346E-13-3.43031E-13
 -1      2183 3.79370E+00-4.71691E+00-9.25648E-02 3.11592E+00 1.02113E-13-2.08722E-13
 -1      2184 1.31280E+00-4.89279E+00-1.91068E-01-1.19328E+00 2.22454E-13-5.48839E-13
 -1      2185 4.48653E+00-5.37831E+00-1.63493E-01-5.33690E+00 2.87104E-13-2.21767E-13
 -1      2186 1.20621E+01-5.57856E+00-8.38886E-02-7.57546E+00 3.37286E-13 3.07809E-14
 -1      2187 2.05294E+01-4.68269E+00 1.61490E-02-6.98946E+00 1.22846E-13-1.42775E-13
 -1      2188 2.80824E+01-1.99955E+00 1.52177E-01-4.82180E+00 1.63952E-13-3.19855E-13
 -1      2189 3.34073E+01 2.00578E+00 2.09222E-01-2.04596E+00 2.80283E-13 4.53526E-14
 -1      2190 3.59166E+01 6.32469E+00 2.78049E-01-2.47357E-01 4.45199E-13 2.25542E-13
 -1      2191 3.62185E+01 8.48193E+00 2.27390E-01-8.42586E-03 7.31082E-13 2.53075E-13
 -1      2192 3.52754E+01 4.44293E+00 2.76917E-01 9.43751E-01 8.06355E-13 4.60298E-13
 -1      2193 3.61290E+01 7.71994E+00 2.56310E-01-5.10403E-02 8.60145E-13 2.05419E-13
 -1      2194 1.95605E+01 3.51603E+00-1.11163E-02-5.91555E-01 8.08809E-14-4.57463E-13
 -1      2195 1.95960E+01 3.46997E+00-1.05111E-02-7.76039E-01 3.95280E-14-4.75849E-13
 -1      2196 1.96428E+01 3.38143E+00-1.27946E-02-9.40333E-01 7.55927E-15-4.68852E-13
 -1      2197 1.97036E+01 3.30080E+00-1.27743E-02-1.13026E+00-3.83895E-14-4.59256E-13
 -1      2198 1.97874E+01 3.03328E+00 3.09251E-04-7.92003E-01 2.77972E-14-4.34048E-13
 -1      2199 1.95132E+01 3.59867E+00-9.62548E-03 9.94244E-02 2.09216E-13-3.79438E-13
 -1      2200 1.95125E+01 3.59950E+00-9.63098E-03-8.00992E-02 1.73432E-13-4.02067E-13
 -1      2201 1.95394E+01 3.55920E+00-9.72900E-03 4.45586E-01 2.74204E-13-3.23914E-13
 -1      2202 1.95219E+01 3.58179E+00-1.01549E-02 2.64688E-01 2.40533E-13-3.54787E-13
 -1      2203 1.96795E+01 3.22145E+00-8.99912E-04 1.69554E-01 2.13936E-13-3.40610E-13
 -1      2204 1.96012E+01 3.46256E+00-1.06322E-02 7.89770E-01 3.19526E-13-2.71308E-13
 -1      2205 1.95649E+01 3.50961E+00-1.12246E-02 6.08230E-01 2.94744E-13-3.12197E-13
 -1      2206 1.97163E+01 3.15780E+00-5.21380E-04 4.88134E-01 2.76708E-13-2.97757E-13
 -1      2207 1.97117E+01 3.28873E+00-1.29600E-02 1.14320E+00 3.73874E-13-1.58736E-13
 -1      2208 1.96491E+01 3.37217E+00-1.28856E-02 9.53865E-01 3.45071E-13-2.20700E-13
 -1      2209 1.97931E+01 3.02409E+00 2.37502E-04 8.04019E-01 3.13315E-13-2.20862E-13
 -1      2210 1.98911E+01 3.00295E+00-1.81445E-02 1.49014E+00 4.12469E-13-2.59558E-14
 -1      2211 1.97914E+01 3.14410E+00-1.52620E-02 1.29989E+00 3.82171E-13-1.05910E-13
 -1      2212 1.99224E+01 2.79894E+00 1.99777E-03 1.11006E+00 3.60937E-13-1.11957E-13
 -1      2213 2.01675E+01 2.53702E+00-2.87348E-02 1.78679E+00 4.31186E-13 1.30377E-13
 -1      2214 2.00148E+01 2.78332E+00-1.80952E-02 1.62228E+00 4.22172E-13 4.91152E-14
 -1      2215 2.01175E+01 2.44769E+00 5.78542E-03 1.37804E+00 3.81086E-13 2.67373E-14
 -1      2216 2.05845E+01 1.79496E+00-2.65934E-02 1.89120E+00 3.88488E-13 4.21840E-13
 -1      2217 2.03637E+01 2.22511E+00-1.07957E-02 1.85354E+00 4.07011E-13 2.40511E-13
 -1      2218 2.03883E+01 1.91176E+00 1.40830E-02 1.53281E+00 3.74507E-13 1.86686E-13
 -1      2219 2.07913E+01 1.06710E+00-1.78444E-02 1.59100E+00 3.29656E-13 6.82688E-13
 -1      2220 2.06779E+01 1.53581E+00 8.74734E-04 1.79227E+00 3.62776E-13 5.36954E-13
 -1      2221 2.05036E+01 1.28006E+00 4.51164E-04 1.42100E+00 3.57917E-13 4.01947E-13
 -1      2222 2.04487E+01 7.43577E-01-1.84407E-03 1.11181E+00 3.05020E-13 6.37411E-13
 -1      2223 3.28594E+01 4.56166E+00-1.06367E-01 1.49742E+00-2.07945E-13-2.92918E-13
 -1      2224 2.04016E+01 8.55607E-01 1.35232E-02-9.99799E-01-2.42402E-13-1.82678E-13
 -1      2225 2.01890E+01 6.26914E-01-4.68318E-03-6.91964E-01-2.09368E-13-1.78144E-13
 -1      2226 1.97873E+01-5.36992E+00-3.01838E-02 7.26112E+00 3.99292E-13 5.18738E-13
 -1      2227 1.58049E+01-5.48143E+00 5.13877E-02 7.47184E+00 1.56597E-13 4.38698E-13
 -1      2228 7.14702E+00-3.91286E+00 8.32585E-02-4.77372E+00 6.07042E-13 7.82652E-13
 -1      2229 1.04641E+01-4.80945E+00 2.32795E-02-6.16738E+00 7.38298E-13 9.65117E-13
 -1      2230 2.01239E+01 4.69793E-01 1.62000E-02-4.75096E-01-1.82006E-13-1.55293E-13
 -1      2231 1.99831E+01 3.44442E-01 9.62935E-05-3.03696E-01-1.40059E-13-1.59085E-13
 -1      2232 2.02449E+01 7.49387E-01-6.46325E-04-6.94190E-01-1.98705E-13-2.07016E-13
 -1      2233 1.99196E+01 2.59465E-01 1.08846E-02-1.66398E-01-1.37482E-13-1.45260E-13
 -1      2234 1.98408E+01 1.87976E-01 7.22111E-04-6.91860E-02-1.11790E-13-1.55087E-13
 -1      2235 2.00803E+01 4.16117E-01-3.61361E-03-3.10853E-01-1.43368E-13-1.94267E-13
 -1      2236 1.97965E+01 1.38636E-01 6.45661E-03 1.28459E-02-1.04609E-13-1.46051E-13
 -1      2237 1.97612E+01 9.58645E-02 5.90123E-04 6.62922E-02-1.24535E-13-1.41655E-13
 -1      2238 1.99594E+01 2.27132E-01-3.61273E-03-7.17822E-02-1.22945E-13-1.75089E-13
 -1      2239 1.97346E+01 6.48399E-02 3.59963E-03 1.13739E-01-1.27062E-13-1.36000E-13
 -1      2240 1.97274E+01 3.84391E-02 5.02051E-04 1.41065E-01-1.00147E-13-1.48287E-13
 -1      2241 1.98825E+01 1.13631E-01-2.71116E-03 7.09577E-02-1.32467E-13-1.61120E-13
 -1      2242 1.97164E+01 2.12465E-02 1.84746E-03 1.62283E-01-7.72531E-14-1.34632E-13
 -1      2243 1.97262E+01 6.33634E-03 4.92877E-04 1.71938E-01-6.80639E-14-1.11975E-13
 -1      2244 1.98429E+01 4.42413E-02-2.11547E-03 1.47827E-01-9.52875E-14-9.32750E-14
 -1      2245 1.97248E+01-4.10580E-03 7.60411E-04 1.78974E-01-6.26196E-14-7.29458E-14
 -1      2246 1.97435E+01-1.23211E-02 4.07441E-04 1.79041E-01-4.14156E-14-4.09900E-14
 -1      2247 1.98300E+01 4.66617E-03-1.42864E-03 1.81173E-01-4.72982E-14-6.05262E-14
 -1      2248 1.97481E+01-1.80216E-02 1.28248E-04 1.77449E-01-6.36665E-14-4.64431E-14
 -1      2249 1.97709E+01-2.19478E-02 3.29807E-04 1.72172E-01-3.97692E-14-8.34287E-14
 -1      2250 1.98336E+01-1.79309E-02-9.21794E-04 1.89340E-01-6.48451E-14 1.52617E-14
 -1      2251 1.97791E+01-2.44395E-02-2.42578E-04 1.65880E-01-4.21687E-14-1.09624E-13
 -1      2252 1.98031E+01-2.54834E-02 2.84650E-04 1.58088E-01-2.46660E-14-1.65822E-13
 -1      2253 1.98473E+01-2.92271E-02-5.69325E-04 1.82764E-01-8.13019E-14-5.72469E-14
 -1      2254 1.98131E+01-2.57806E-02-4.40564E-04 1.49810E-01 7.30048E-16-1.56322E-13
 -1      2255 1.98367E+01-2.48580E-02 2.74719E-04 1.41437E-01 2.71129E-14-1.50182E-13
 -1      2256 1.98666E+01-3.29064E-02-3.38413E-04 1.68644E-01-2.01953E-14-5.72946E-14
 -1      2257 1.98476E+01-2.36233E-02-5.25563E-04 1.33069E-01 3.58685E-14-1.74214E-13
 -1      2258 1.98702E+01-2.13147E-02 3.01393E-04 1.25467E-01 5.78048E-14-1.74311E-13
 -1      2259 1.98886E+01-3.13592E-02-2.00170E-04 1.51988E-01 2.05164E-14-9.76540E-14
 -1      2260 1.98815E+01-1.89593E-02-5.38875E-04 1.18365E-01 3.47307E-15-2.00120E-13
 -1      2261 1.99030E+01-1.55975E-02 3.67239E-04 1.12524E-01-4.80458E-14-1.97744E-13
 -1      2262 1.99118E+01-2.61066E-02-1.31830E-04 1.36335E-01 2.41581E-14-1.44790E-13
 -1      2263 1.99145E+01-1.23377E-02-5.08939E-04 1.07718E-01-7.22974E-14-1.72727E-13
 -1      2264 1.99356E+01-8.03318E-03 5.06905E-04 1.04422E-01-1.10811E-13-1.51061E-13
 -1      2265 1.99357E+01-1.80335E-02-1.16631E-04 1.24283E-01-4.94044E-14-2.23189E-13
 -1      2266 1.99481E+01-3.68524E-03-4.58467E-04 1.02737E-01-1.53845E-13-1.22469E-13
 -1      2267 1.99705E+01 1.82905E-03 6.74208E-04 1.02894E-01-1.58121E-13-1.12186E-13
 -1      2268 1.99609E+01-7.28591E-03-1.78210E-04 1.17861E-01-1.24477E-13-1.31786E-13
 -1      2269 1.99832E+01 6.90663E-03-3.99132E-04 1.05492E-01-1.13898E-13-3.33708E-14
 -1      2270 2.00063E+01 1.33706E-02 8.90119E-04 1.09802E-01-4.82093E-14-3.91963E-14
 -1      2271 1.99874E+01 6.24059E-03-1.93892E-04 1.19295E-01-9.68364E-14 5.04191E-14
 -1      2272 2.00203E+01 1.96723E-02-3.51714E-04 1.17396E-01-6.03429E-14-1.02826E-14
 -1      2273 2.00467E+01 2.77107E-02 1.21439E-03 1.26821E-01 2.54807E-14-3.98629E-14
 -1      2274 2.00156E+01 2.24371E-02-2.61932E-04 1.30354E-01-6.70937E-14 1.12199E-13
 -1      2275 2.00627E+01 3.56400E-02-3.28562E-04 1.40616E-01 5.70002E-14-1.39189E-13
 -1      2276 2.00946E+01 4.58634E-02 1.65195E-03 1.56463E-01 1.40070E-14-2.02973E-13
 -1      2277 2.00474E+01 4.26288E-02-3.38553E-04 1.53189E-01-4.95982E-14-1.86111E-14
 -1      2278 2.01130E+01 5.60583E-02-3.46987E-04 1.78024E-01 5.35574E-15-2.26869E-13
 -1      2279 2.01528E+01 6.93502E-02 2.23827E-03 2.02077E-01-5.50258E-14-1.79646E-13
 -1      2280 2.00841E+01 6.83204E-02-4.05929E-04 1.90669E-01 3.55521E-15-3.17750E-14
 -1      2281 2.01741E+01 8.27164E-02-4.30563E-04 2.33498E-01-1.68901E-13-1.91693E-13
 -1      2282 2.02249E+01 1.00302E-01 3.01719E-03 2.68197E-01-1.63794E-13-2.23008E-13
 -1      2283 2.01271E+01 1.01680E-01-4.38098E-04 2.46554E-01-1.42965E-13-2.61427E-14
 -1      2284 2.02492E+01 1.18075E-01-6.13394E-04 3.12272E-01-1.05514E-13-2.21831E-13
 -1      2285 2.03146E+01 1.41586E-01 4.03875E-03 3.60926E-01-8.06026E-14-1.77135E-13
 -1      2286 2.01772E+01 1.45697E-01-3.93920E-04 3.25812E-01-1.48334E-13-4.41317E-14
 -1      2287 2.03412E+01 1.65367E-01-9.45291E-04 4.21333E-01-1.31282E-14-1.98130E-13
 -1      2288 2.04254E+01 1.96850E-01 5.34973E-03 4.88312E-01 7.22315E-14-1.35773E-13
 -1      2289 2.02346E+01 2.04314E-01-2.09550E-04 4.34940E-01-8.20802E-14-5.03988E-14
 -1      2290 2.04526E+01 2.28564E-01-1.49282E-03 5.69783E-01-6.07793E-15-1.21872E-13
 -1      2291 2.05609E+01 2.70374E-01 7.17030E-03 6.60517E-01-9.53265E-14-1.23112E-13
 -1      2292 2.02976E+01 2.82402E-01 2.07882E-04 5.82220E-01 3.18105E-14-1.30914E-13
 -1      2293 2.05870E+01 3.14383E-01-2.32421E-03 7.74420E-01-3.54265E-14-7.47624E-14
 -1      2294 2.07298E+01 3.70918E-01 9.25096E-03 9.03183E-01-1.03171E-14-6.86394E-14
 -1      2295 2.03634E+01 3.87319E-01 6.19463E-04 7.83809E-01-2.00152E-14-1.85547E-13
 -1      2296 2.07445E+01 4.23147E-01-3.48241E-03 1.04648E+00-3.30055E-14 8.51073E-14
 -1      2297 2.09152E+01 4.88363E-01 1.10079E-02 1.20622E+00 2.65447E-14 1.27809E-13
 -1      2298 2.04228E+01 5.22856E-01 2.24961E-03 1.04788E+00 3.73926E-14 2.89797E-14
 -1      2299 2.09145E+01 5.47373E-01-4.99724E-03 1.38944E+00 4.51594E-14 7.56963E-14
 -1      2300 2.11230E+01 6.15962E-01 1.28719E-02 1.58891E+00 9.18944E-14 5.52777E-14
 -1      2301 2.04607E+01 6.79487E-01 3.95834E-03 1.37888E+00 4.24484E-14 1.53168E-13
 -1      2302 2.11009E+01 6.67664E-01-6.24553E-03 1.81597E+00 5.27124E-14 1.91700E-14
 -1      2303 2.13535E+01 7.15092E-01 1.40643E-02 2.04846E+00 2.83636E-14 1.33564E-13
 -1      2304 2.04644E+01 8.38763E-01 5.68476E-03 1.79108E+00 4.40112E-14 1.17986E-13
 -1      2305 2.13178E+01 7.23423E-01-5.67566E-03 2.31670E+00-3.56854E-14 1.54319E-13
 -1      2306 2.16296E+01 6.93325E-01 1.45132E-02 2.55395E+00 4.99518E-14 1.61874E-13
 -1      2307 2.04279E+01 9.38489E-01 6.21022E-03 2.28587E+00 9.69613E-15 2.38732E-13
 -1      2308 2.16259E+01 5.82840E-01 9.33227E-04 2.84613E+00 4.90897E-14 8.97814E-14
 -1      2309 2.20390E+01 3.67214E-01 1.56431E-02 3.02016E+00 6.68437E-14 2.87173E-14
 -1      2310 2.03827E+01 8.40648E-01 3.17798E-03 2.84894E+00 2.99644E-14 1.39609E-13
 -1      2311 2.21997E+01 8.87824E-03 2.33150E-02 3.28593E+00 1.27817E-13-4.98959E-14
 -1      2312 2.28039E+01-5.53404E-01 1.90326E-02 3.26740E+00 1.28571E-13-1.27797E-13
 -1      2313 2.04610E+01 2.87154E-01-6.94315E-03 3.43524E+00 4.14599E-14 1.06793E-13
 -1      2314 2.34215E+01-1.30661E+00 7.15497E-02 3.36048E+00 5.47808E-14-2.23051E-13
 -1      2315 2.43483E+01-2.28335E+00 2.58342E-02 2.94392E+00-1.13680E-13-1.14808E-13
 -1      2316 2.10199E+01-1.10028E+00-2.71034E-02 3.92528E+00-3.53884E-15-9.78939E-14
 -1      2317 2.57429E+01-3.32822E+00 1.08934E-01 2.58073E+00-1.72931E-13-8.25069E-14
 -1      2318 2.69368E+01-4.21667E+00 2.87618E-03 1.64203E+00-1.35433E-13-8.86270E-15
 -1      2319 2.27024E+01-3.31914E+00-1.79631E-02 3.99330E+00-1.06179E-13 7.84095E-15
 -1      2320 2.97164E+01-4.42638E+00 4.53748E-02 8.86246E-02-5.98827E-14 1.08150E-13
 -1      2321 3.10690E+01-3.85729E+00 8.38626E-03-1.20269E+00 2.72490E-14 1.34406E-13
 -1      2322 3.23514E+01 5.95611E-01-1.18330E-01 3.90768E+00-1.38528E-13-9.33281E-13
 -1      2323 1.17349E+01-4.72760E+00 2.23408E-02 7.64230E+00 1.12410E-13 5.54334E-13
 -1      2324 8.33609E+00-4.18228E+00 9.18500E-02 6.50191E+00-1.41137E-13 9.80660E-13
 -1      2325 2.75734E+01-4.04564E+00-1.23407E-02-1.14313E+00 2.39461E-13-4.68934E-13
 -1      2326 2.62967E+01-3.22097E+00 8.64701E-02-2.25118E+00 3.34045E-13-3.15103E-13
 -1      2327 2.47788E+01-2.25341E+00 2.64811E-04-2.83490E+00 3.31658E-13-3.41126E-13
 -1      2328 2.38666E+01-1.30445E+00 6.18918E-02-3.28637E+00 3.71352E-13-2.70128E-13
 -1      2329 2.38559E+01-3.36724E+00-4.31534E-02-3.57155E+00 3.31540E-13-1.28009E-13
 -1      2330 2.31527E+01-6.25071E-01 5.15870E-03-3.30284E+00 3.57740E-13-6.25572E-14
 -1      2331 2.25257E+01-6.55427E-02 2.60679E-02-3.34839E+00 3.38518E-13 1.38810E-13
 -1      2332 2.18734E+01-1.16570E+00-2.09083E-02-3.84357E+00 4.31905E-13 1.10596E-13
 -1      2333 2.22433E+01 2.52682E-01 6.73875E-03-3.15422E+00 1.90009E-13 1.11300E-13
 -1      2334 2.17829E+01 4.86364E-01 5.44140E-03-2.99738E+00 1.20976E-13 1.63687E-13
 -1      2335 2.10698E+01 1.23625E-01-8.37660E-03-3.55848E+00 3.05526E-13 2.26451E-13
 -1      2336 2.16797E+01 5.85931E-01 1.02758E-02-2.73684E+00 7.33857E-14 2.11180E-13
 -1      2337 2.13112E+01 6.42944E-01-1.17298E-03-2.50757E+00-5.71524E-14 1.87650E-13
 -1      2338 2.07546E+01 6.80423E-01-6.29905E-04-3.06523E+00 1.72568E-13 3.78252E-13
 -1      2339 2.12595E+01 6.44241E-01 1.21112E-02-2.24693E+00-2.41575E-13 1.12263E-13
 -1      2340 2.09556E+01 6.34086E-01-1.18961E-03-2.00924E+00-3.04818E-13 1.49981E-13
 -1      2341 2.06092E+01 8.20982E-01 2.73471E-03-2.52929E+00-2.28000E-13 2.12247E-13
 -1      2342 2.09073E+01 6.12236E-01 1.27949E-02-1.76605E+00-1.64150E-13 1.43044E-13
 -1      2343 2.06616E+01 5.94825E-01 3.27749E-03-1.54190E+00 2.47250E-14-1.27094E-14
 -1      2344 2.04902E+01 7.96017E-01 1.37962E-03-2.01922E+00-2.33687E-13 3.33297E-13
 -1      2345 2.05304E+01 6.49820E-01 1.26060E-02-1.37113E+00 1.62006E-14 1.55434E-13
 -1      2346 2.03428E+01 6.52326E-01 6.36896E-03-1.15113E+00 1.57773E-15 2.25842E-13
 -1      2347 2.00750E+01 9.12420E-01-1.07832E-02-1.20127E+00 1.08269E-13 1.80039E-13
 -1      2348 2.02655E+01 8.06249E-01-7.94267E-03-1.58142E+00 6.63412E-14 1.99088E-13
 -1      2349 1.96964E+01 6.09219E-02 1.00427E-03-1.05919E-01 1.52816E-13 2.10704E-13
 -1      2350 1.97137E+01 9.13704E-02 5.04391E-03-6.85994E-02 1.58801E-13 2.25619E-13
 -1      2351 1.97499E+01 1.27026E-01 1.31080E-03-6.71842E-03 1.66020E-13 2.30610E-13
 -1      2352 1.98043E+01 1.78220E-01 8.91521E-03 6.44198E-02 1.68158E-13 2.60331E-13
 -1      2353 1.98798E+01 1.54901E-01-3.41299E-03-6.83860E-03 1.82860E-13 1.43509E-13
 -1      2354 1.98631E+01 2.39464E-01 1.72862E-03 1.72061E-01 1.78264E-13 2.83367E-13
 -1      2355 1.99672E+01 3.24096E-01 1.09660E-02 3.01204E-01 1.94275E-13 3.34674E-13
 -1      2356 1.99815E+01 2.91680E-01-4.47986E-03 1.78632E-01 1.98502E-13 1.82864E-13
 -1      2357 1.96838E+01 2.11595E-02 7.46663E-04-1.55445E-01 1.10676E-13 1.61965E-13
 -1      2358 1.96786E+01 3.93819E-02 2.69688E-03-1.38597E-01 1.35776E-13 1.92873E-13
 -1      2359 1.98231E+01 7.26758E-02-2.57920E-03-1.12255E-01 1.67931E-13 1.37332E-13
 -1      2360 1.96968E+01-2.36505E-03 5.51148E-04-1.74008E-01 4.56165E-14 1.71175E-13
 -1      2361 1.96789E+01 8.18512E-03 1.26640E-03-1.69533E-01 7.25661E-14 1.63547E-13
 -1      2362 1.97999E+01 2.31682E-02-1.79798E-03-1.65623E-01 1.11058E-13 1.24439E-13
 -1      2363 1.97245E+01-1.54303E-02 4.04878E-04-1.73919E-01 6.09784E-14 1.55098E-13
 -1      2364 1.97003E+01-9.84212E-03 4.02159E-04-1.76659E-01 4.48667E-14 1.79803E-13
 -1      2365 1.97990E+01-5.91285E-03-1.17634E-03-1.86121E-01 6.45857E-14 8.88125E-14
 -1      2366 1.97594E+01-2.15556E-02 3.08304E-04-1.63395E-01 7.78785E-14 1.70387E-13
 -1      2367 1.97330E+01-1.92553E-02-1.11822E-04-1.69942E-01 7.95029E-14 1.76010E-13
 -1      2368 1.98118E+01-2.17730E-02-7.27593E-04-1.86670E-01 5.35376E-14 6.55873E-14
 -1      2369 1.97970E+01-2.30186E-02 2.56678E-04-1.48011E-01 8.36355E-14 2.17053E-13
 -1      2370 1.97705E+01-2.29172E-02-3.98252E-04-1.56072E-01 1.03011E-13 2.26972E-13
 -1      2371 1.98325E+01-2.88525E-02-4.22759E-04-1.76063E-01 6.50564E-14 1.56235E-13
 -1      2372 1.98345E+01-2.13289E-02 2.45139E-04-1.31571E-01 2.33749E-14 2.00975E-13
 -1      2373 1.98092E+01-2.27057E-02-5.35731E-04-1.39594E-01 9.03427E-14 2.22354E-13
 -1      2374 1.98569E+01-3.00305E-02-2.29466E-04-1.60331E-01 8.75078E-14 1.85092E-13
 -1      2375 1.98707E+01-1.74934E-02 2.68896E-04-1.16684E-01-2.69480E-14 1.38620E-13
 -1      2376 1.98471E+01-1.98715E-02-5.76412E-04-1.23607E-01-1.23093E-14 1.61602E-13
 -1      2377 1.98828E+01-2.72151E-02-1.19402E-04-1.43628E-01 4.28233E-14 1.76200E-13
 -1      2378 1.99055E+01-1.21815E-02 3.23490E-04-1.05149E-01-4.47505E-15 5.85922E-14
 -1      2379 1.98833E+01-1.52467E-02-5.55754E-04-1.10243E-01-2.95835E-14 5.87052E-14
 -1      2380 1.99089E+01-2.16781E-02-7.06515E-05-1.28821E-01 1.57532E-14 8.48244E-14
 -1      2381 1.99394E+01-5.84672E-03 4.04053E-04-9.82119E-02 4.87114E-14 2.44901E-14
 -1      2382 1.99180E+01-9.38604E-03-4.97744E-04-1.00975E-01 3.08563E-14 4.84833E-14
 -1      2383 1.99349E+01-1.42686E-02-6.67366E-05-1.17903E-01 4.51395E-14-6.30584E-14
 -1      2384 1.99735E+01 1.17005E-03 5.04105E-04-9.67273E-02 1.14102E-14-6.85534E-14
 -1      2385 1.99522E+01-2.67774E-03-4.18193E-04-9.68214E-02 3.93494E-14 1.33918E-14
 -1      2386 1.99611E+01-5.57349E-03-9.54447E-05-1.12258E-01 4.23325E-14-7.90956E-14
 -1      2387 2.00093E+01 8.53848E-03 6.13753E-04-1.01223E-01 1.35496E-13-7.38763E-14
 -1      2388 1.99870E+01 4.55506E-03-3.26801E-04-9.84588E-02 8.35075E-14-8.03291E-14
 -1      2389 1.99883E+01 3.94161E-03-1.47803E-04-1.12828E-01 5.29279E-14-1.39886E-13
 -1      2390 2.00483E+01 1.58285E-02 7.17415E-04-1.11881E-01 9.70933E-14-2.70626E-14
 -1      2391 2.00240E+01 1.19495E-02-2.28490E-04-1.06241E-01 1.09264E-13-4.16378E-14
 -1      2392 2.00174E+01 1.37923E-02-2.17068E-04-1.20172E-01 1.01443E-13-3.26733E-14
 -1      2393 2.00925E+01 2.23847E-02 7.91123E-04-1.28415E-01 8.32741E-14 3.81737E-14
 -1      2394 2.00652E+01 1.89861E-02-1.24249E-04-1.20126E-01 7.79287E-14 6.94190E-15
 -1      2395 2.00499E+01 2.33219E-02-2.98051E-04-1.34421E-01 1.05498E-13 4.75436E-14
 -1      2396 2.01434E+01 2.71861E-02 7.99738E-04-1.49844E-01 1.71954E-16 1.72527E-13
 -1      2397 2.01122E+01 2.48554E-02-1.16478E-05-1.39504E-01 6.80946E-14 7.88479E-14
 -1      2398 2.00874E+01 3.15284E-02-3.86564E-04-1.55128E-01 3.38910E-14 7.48269E-14
 -1      2399 2.02024E+01 2.87031E-02 6.94848E-04-1.74152E-01 7.00502E-15 1.95889E-13
 -1      2400 2.01669E+01 2.83142E-02 1.14689E-04-1.62907E-01 1.06972E-14 1.70675E-13
 -1      2401 2.01314E+01 3.68762E-02-4.78864E-04-1.80992E-01-1.31648E-14 5.12328E-14
 -1      2402 2.02706E+01 2.47865E-02 4.14719E-04-1.97847E-01-2.77500E-14 2.00318E-13
 -1      2403 2.02308E+01 2.75523E-02 2.62221E-04-1.87612E-01 2.86305E-14 2.30817E-13
 -1      2404 2.01837E+01 3.71157E-02-5.70897E-04-2.09465E-01 8.71974E-15 1.89993E-13
 -1      2405 2.03477E+01 1.26597E-02-1.11291E-04-2.15462E-01-5.84146E-14 2.02822E-13
 -1      2406 2.03047E+01 2.01185E-02 4.38433E-04-2.09152E-01-3.95340E-14 1.75010E-13
 -1      2407 2.02459E+01 2.91690E-02-6.56694E-04-2.36247E-01-3.26932E-15 2.00727E-13
 -1      2408 2.04325E+01-1.08613E-02-9.50222E-04-2.19133E-01-2.21474E-14 1.27216E-13
 -1      2409 2.03884E+01 3.00189E-03 6.46280E-04-2.20830E-01-3.80346E-14 1.68203E-13
 -1      2410 2.03194E+01 9.19222E-03-7.24955E-04-2.54740E-01-1.22588E-14 2.08927E-13
 -1      2411 2.05216E+01-4.87302E-02-2.14024E-03-1.98472E-01-4.47678E-14 2.80899E-13
 -1      2412 2.04800E+01-2.69769E-02 8.75435E-04-2.13388E-01-7.14897E-14 1.45660E-13
 -1      2413 2.04050E+01-2.69981E-02-7.52471E-04-2.55607E-01-4.76945E-14 2.83697E-13
 -1      2414 2.06087E+01-1.02380E-01-3.64841E-03-1.41138E-01 1.80569E-14 1.98715E-13
 -1      2415 2.05755E+01-7.22480E-02 1.08766E-03-1.75170E-01 3.33053E-14 1.91423E-13
 -1      2416 2.05021E+01-8.28669E-02-6.93488E-04-2.26704E-01-7.21035E-15 1.57931E-13
 -1      2417 2.06843E+01-1.69595E-01-5.31038E-03-3.46736E-02-1.36216E-14 1.77233E-13
 -1      2418 2.06669E+01-1.32819E-01 1.19657E-03-9.32451E-02 3.54682E-14 1.84704E-13
 -1      2419 2.06080E+01-1.59171E-01-4.67144E-04-1.53860E-01 5.83680E-15 1.83998E-13
 -1      2420 2.07344E+01-2.41666E-01-6.76083E-03 1.29738E-01-3.32384E-14 1.32449E-13
 -1      2421 2.07417E+01-2.03757E-01 1.05147E-03 4.38045E-02-3.69379E-14 1.16219E-13
 -1      2422 2.07159E+01-2.50874E-01 4.88288E-05-2.31636E-02 9.93503E-15 1.68565E-13
 -1      2423 2.07408E+01-3.00703E-01-7.39506E-03 3.51148E-01-3.14792E-14 3.28751E-13
 -1      2424 2.07822E+01-2.72240E-01 4.49535E-04 2.40805E-01-2.96041E-14 2.95558E-13
 -1      2425 2.08132E+01-3.43350E-01 9.97135E-04 1.74411E-01-1.07965E-13 2.04068E-13
 -1      2426 2.06829E+01-3.19335E-01-6.46022E-03 6.10871E-01-1.49351E-14 3.76512E-13
 -1      2427 2.07652E+01-3.15627E-01-7.90233E-04 4.88475E-01 6.30843E-14 3.73637E-13
 -1      2428 2.08795E+01-4.09451E-01 2.44505E-03 4.35491E-01-2.84105E-14 3.86409E-13
 -1      2429 2.05429E+01-2.66305E-01-3.37772E-03 8.65432E-01-1.02891E-15 3.17763E-13
 -1      2430 2.06673E+01-3.03493E-01-2.64476E-03 7.55076E-01-2.50750E-14 2.94380E-13
 -1      2431 2.08871E+01-4.10982E-01 4.15550E-03 7.34567E-01 2.97277E-14 3.10795E-13
 -1      2432 2.03162E+01-1.20533E-01 1.69801E-03 1.04643E+00-4.12024E-14 2.95178E-13
 -1      2433 2.04735E+01-2.07161E-01-4.61370E-03 9.81961E-01-4.27956E-15 2.57488E-13
 -1      2434 2.08079E+01-3.09109E-01 5.37565E-03 1.01588E+00 3.31811E-14 1.00024E-13
 -1      2435 2.00238E+01 1.08922E-01 7.37503E-03 1.07472E+00 7.84789E-15 2.18529E-13
 -1      2436 2.01928E+01-1.74537E-02-5.66013E-03 1.09059E+00-8.91336E-15 2.66649E-13
 -1      2437 2.06282E+01-8.53080E-02 4.93226E-03 1.19505E+00 4.87852E-14 5.75695E-15
 -1      2438 1.97211E+01 3.68546E-01 1.11805E-02 8.92331E-01 1.22471E-13 1.56733E-13
 -1      2439 1.98701E+01 2.35973E-01-4.39999E-03 1.00756E+00 2.81078E-14 8.60462E-14
 -1      2440 2.03682E+01 2.32897E-01 1.83459E-03 1.17994E+00 6.96978E-14 8.11773E-14
 -1      2441 1.94891E+01 5.69381E-01 1.08726E-02 5.01913E-01-5.15005E-14 2.47744E-13
 -1      2442 1.95846E+01 4.79189E-01-3.79999E-04 7.03948E-01 1.38735E-13 2.34806E-13
 -1      2443 2.00939E+01 5.61719E-01-3.26817E-03 9.13307E-01-5.69976E-15 1.70416E-14
 -1      2444 1.94042E+01 6.28136E-01 6.64641E-03-1.18353E-02 2.49488E-14 1.33873E-13
 -1      2445 1.94237E+01 6.19074E-01 5.66680E-03 2.29158E-01-7.70022E-14 1.84066E-13
 -1      2446 1.99015E+01 7.82137E-01-7.98569E-03 4.20237E-01 1.66360E-15-1.80423E-14
 -1      2447 1.94953E+01 5.18563E-01 7.29857E-04-5.08065E-01 3.63732E-14-1.32284E-14
 -1      2448 1.94364E+01 5.94943E-01 1.07288E-02-2.93323E-01 1.05421E-13 9.19604E-14
 -1      2449 1.98690E+01 8.04904E-01-8.14558E-03-1.76009E-01 8.75933E-14-4.57447E-14
 -1      2450 1.97259E+01 2.87054E-01-4.06462E-03-8.53023E-01 8.25520E-14-2.20139E-14
 -1      2451 1.96077E+01 4.16651E-01 1.20025E-02-7.18474E-01 1.91455E-14-2.55462E-14
 -1      2452 2.00047E+01 6.18253E-01-4.21804E-03-7.03170E-01 9.47682E-14-6.88681E-14
 -1      2453 2.00135E+01 2.41176E-02-6.08540E-03-9.77992E-01-8.69306E-14-1.01199E-15
 -1      2454 1.98684E+01 1.57846E-01 8.86649E-03-9.44716E-01 1.86242E-14 3.75162E-14
 -1      2455 2.02436E+01 2.98327E-01 9.53342E-04-1.02105E+00-1.15067E-14-6.80482E-14
 -1      2456 2.02726E+01-1.86742E-01-5.39425E-03-8.96417E-01 3.36664E-14 4.32690E-14
 -1      2457 2.01340E+01-8.83774E-02 3.25656E-03-9.50914E-01-2.07180E-14 6.85537E-14
 -1      2458 2.04885E+01-3.62697E-02 4.67706E-03-1.08082E+00-1.06447E-13 1.31074E-13
 -1      2459 2.04485E+01-3.03024E-01-3.34366E-03-6.77651E-01 6.38682E-14 4.89342E-14
 -1      2460 2.03404E+01-2.56227E-01-2.27538E-03-7.86007E-01 9.19896E-14 9.69389E-14
 -1      2461 2.06619E+01-2.87931E-01 5.67820E-03-9.25423E-01 1.44203E-14 1.53033E-13
 -1      2462 2.05250E+01-3.24731E-01-1.11721E-03-4.06158E-01 1.64618E-13-3.57250E-14
 -1      2463 2.04588E+01-3.25058E-01-6.01293E-03-5.31153E-01 1.53692E-13 5.20340E-14
 -1      2464 2.07324E+01-4.13148E-01 4.63639E-03-6.46842E-01 8.00323E-14 1.53655E-13
 -1      2465 2.05148E+01-2.76572E-01 7.14177E-04-1.51477E-01 3.27455E-14-3.16086E-14
 -1      2466 2.04898E+01-3.09390E-01-7.52273E-03-2.63856E-01 1.51033E-13-1.88298E-14
 -1      2467 2.07077E+01-4.19876E-01 2.80343E-03-3.39009E-01 2.12860E-13 1.10526E-13
 -1      2468 2.04433E+01-1.88746E-01 2.21223E-03 4.29410E-02-8.62717E-14-4.07536E-14
 -1      2469 2.04513E+01-2.38621E-01-7.23254E-03-3.91685E-02-6.82239E-14-8.34275E-14
 -1      2470 2.06156E+01-3.42547E-01 1.32514E-03-7.07102E-02-9.70847E-14-5.82350E-14
 -1      2471 2.03365E+01-8.70155E-02 3.02474E-03 1.57479E-01-2.12681E-13 1.39951E-13
 -1      2472 2.03661E+01-1.41400E-01-5.98493E-03 1.13009E-01-1.00504E-13 7.51019E-14
 -1      2473 2.04860E+01-2.20166E-01 5.61850E-04 1.20185E-01-7.06592E-14-3.69427E-14
 -1      2474 2.02195E+01 7.41739E-03 3.41802E-03 1.92597E-01-1.28647E-13 7.65727E-14
 -1      2475 2.02582E+01-4.10980E-02-4.57405E-03 1.83676E-01-1.42192E-13 7.54721E-14
 -1      2476 2.03446E+01-8.65113E-02 2.64537E-04 2.19606E-01-9.44320E-14 2.41643E-13
 -1      2477 2.01409E+01 7.52779E-02-8.17141E-04 1.96316E-01-2.04541E-13 1.23493E-14
 -1      2478 2.01658E+01 4.82008E-01 1.23462E-03 7.04439E-01-9.96585E-15-1.63022E-14
 -1      2479 2.01937E+01 3.69034E-01 2.53033E-03 6.38855E-01-3.36453E-14-3.12605E-13
 -1      2480 2.02069E+01 3.03311E-01 3.31799E-03 5.51622E-01-2.54311E-13-3.62661E-13
 -1      2481 2.02092E+01 2.15307E-01 9.87909E-04 4.78200E-01-2.81507E-13 4.70094E-14
 -1      2482 2.02594E+01 2.02090E-01-3.91629E-03 6.70124E-01-1.26953E-13-1.56290E-13
 -1      2483 2.02016E+01 1.81658E-01 4.61395E-03 3.87484E-01-1.27810E-13 1.90138E-13
 -1      2484 2.01895E+01 1.20636E-01 2.37026E-03 3.21825E-01-1.17270E-13 3.46979E-14
 -1      2485 2.02759E+01 1.00817E-01-3.61015E-06 4.82920E-01-2.04966E-13-6.88510E-14
 -1      2486 5.28301E+00-3.36994E+00 7.19491E-02 5.07349E+00 2.02421E-13 9.25315E-13
 -1      2487 3.71681E+00-2.66418E+00 1.27276E-01 2.60698E+00 9.03722E-14 3.65374E-13
 -1      2488 8.60051E+00-2.75504E+00 1.47749E-01 5.80295E+00-2.71727E-14 7.16399E-13
 -1      2489 2.00620E+01 7.19135E-01-2.31458E-03 8.07711E-01-2.14288E-14-1.49356E-13
 -1      2490 2.01234E+01 5.87631E-01 3.96780E-03 7.73557E-01 3.56733E-14-5.68406E-14
 -1      2491 2.01860E+01 3.69024E-01-3.83877E-03 8.39969E-01 3.01336E-14 1.19832E-14
 -1      2492 1.98977E+01 9.97346E-01-6.46970E-03 8.09143E-01-2.47486E-13-2.05806E-13
 -1      2493 1.99891E+01 8.61218E-01 4.69532E-03 8.28665E-01-1.07062E-13-3.93153E-13
 -1      2494 2.00288E+01 6.07024E-01-3.27063E-03 9.41110E-01-1.37565E-13-2.76308E-13
 -1      2495 1.96979E+01 1.28098E+00-1.00465E-02 6.66409E-01-3.09094E-13 8.05235E-14
 -1      2496 1.98031E+01 1.16114E+00 4.21751E-03 7.55549E-01-3.98060E-13 2.04697E-13
 -1      2497 1.97999E+01 8.99268E-01-1.16084E-03 9.12987E-01-1.40345E-13-1.58994E-13
 -1      2498 1.95121E+01 1.51680E+00-1.15429E-02 3.65071E-01-3.67629E-13 1.53258E-14
 -1      2499 1.96028E+01 1.43731E+00 2.05249E-03 5.24352E-01-3.43184E-13 7.68131E-14
 -1      2500 1.95403E+01 1.20447E+00 2.35435E-03 7.10475E-01-2.69836E-13 1.28949E-13
 -1      2501 1.94040E+01 1.64412E+00-1.00468E-02-5.56947E-02-2.69324E-13-1.56482E-13
 -1      2502 1.94472E+01 1.62592E+00-1.76854E-03 1.47955E-01-3.31012E-13-5.67231E-14
 -1      2503 1.93203E+01 1.45736E+00 6.20195E-03 3.30721E-01-2.57670E-13-8.87586E-14
 -1      2504 1.94251E+01 1.62065E+00-5.94491E-03-5.30591E-01-1.26200E-14 4.45379E-13
 -1      2505 1.93959E+01 1.67460E+00-6.30972E-03-3.17406E-01-1.69564E-13 5.50428E-14
 -1      2506 1.92186E+01 1.59208E+00 9.22094E-03-1.79994E-01-7.71958E-14-1.87532E-14
 -1      2507 1.96052E+01 1.42450E+00-1.46882E-03-9.36444E-01 8.14890E-14 4.62765E-13
 -1      2508 1.94965E+01 1.55164E+00-9.75395E-03-7.74494E-01-3.33573E-14 5.39993E-13
 -1      2509 1.92953E+01 1.55769E+00 8.86090E-03-7.23414E-01-1.34057E-13 3.78298E-13
 -1      2510 1.99038E+01 1.10666E+00 3.67088E-03-1.14841E+00 9.02512E-14 3.21315E-13
 -1      2511 1.97318E+01 1.28677E+00-1.06572E-02-1.08754E+00 9.03117E-14 3.86567E-13
 -1      2512 1.95600E+01 1.36101E+00 8.84906E-03-1.14316E+00-5.66272E-14 4.13309E-13
 -1      2513 1.99639E+01 1.05490E+00 1.15681E-02-1.35385E+00 1.73144E-13 2.61787E-13
 -1      2514 2.34741E+01-6.30613E+00-4.26151E-02-4.60569E+00 2.50189E-13-1.24414E-13
 -1      2515 2.76393E+01-5.59059E+00-4.98090E-02-3.51535E+00 1.27731E-13-2.09444E-13
 -1      2516 2.05471E+01 1.95510E+00-1.37196E-02-1.89591E+00-2.78937E-13-2.74033E-13
 -1      2517 2.04091E+01 1.20898E+00-8.81880E-03-1.28959E+00-2.69940E-13-2.27574E-13
 -1      2518 2.03820E+01 1.38495E+00 9.18652E-03-1.23847E+00-2.39701E-13-2.61066E-13
 -1      2519 2.02949E+01 2.39752E+00 7.00998E-04-1.83616E+00-2.54387E-13-3.41605E-13
 -1      2520 3.15741E+01 7.30451E-02-1.04546E-01 1.22627E+00 6.39058E-13 2.83523E-13
 -1      2521 2.94818E+01-1.95653E+00-9.57457E-03 2.24893E+00 5.95697E-13 4.26992E-13
 -1      2522 3.15185E+01-3.18260E+00 7.30095E-03 1.76302E+00 1.21122E-13-7.04742E-13
 -1      2523 3.01029E+01-4.20981E+00-9.42697E-03 4.11587E-01 2.56205E-13-5.17086E-13
 -1      2524 1.95198E+01 3.58484E+00-1.00992E-02-2.45347E-01 1.48238E-13-4.25648E-13
 -1      2525 1.95359E+01 3.56412E+00-9.67019E-03-4.26126E-01 1.12343E-13-4.42636E-13
 -1      2526 1.97122E+01 3.16361E+00-5.61221E-04-4.73398E-01 9.21534E-14-4.16987E-13
 -1      2527 1.96780E+01 3.22356E+00-9.17072E-04-1.52050E-01 1.50011E-13-3.88560E-13
 -1      2528 3.24456E+01 7.43464E+00-1.99741E-01-7.31846E-01 7.81653E-13 1.69545E-13
 -1      2529 3.29763E+01 6.27227E+00-1.00238E-01-8.32377E-01 7.40519E-13 1.75804E-13
 -1      2530 3.31599E+01 4.38395E+00-1.52654E-01-4.70732E-01 7.36633E-13 1.90320E-13
 -1      2531 3.24427E+01 2.50628E+00-8.24651E-02 7.60135E-02 6.45289E-13 2.93765E-13
 -1      2532 3.30835E+01 7.72374E+00-1.07136E-01 5.26727E-01 5.94080E-13 2.08430E-13
 -1      2533 3.26555E+01 8.12619E+00-1.62107E-01 1.19059E-01 7.63167E-13 1.65591E-13
 -1      2534 3.24991E+01 4.55777E+00-1.02309E-01 7.42334E-01 3.33206E-13 2.09471E-13
 -1      2535 3.27357E+01 6.13404E+00-1.79128E-01 8.44087E-01 4.34430E-13 1.60150E-13
 -1      2536 3.08282E+01-8.56697E-02-4.32990E-02-1.22936E+00 1.70981E-13 1.96509E-13
 -1      2537 3.23493E+01 2.10519E+00-1.54610E-01-1.75233E-01 2.76515E-13 4.12392E-13
 -1      2538 2.63179E+01-3.79280E+00-1.52919E-02-4.45065E+00-7.57172E-14-7.83540E-14
 -1      2539 2.89524E+01-2.45476E+00-1.19335E-01-3.20488E+00 3.61516E-14 6.79179E-14
 -1      2540 1.97514E+01-5.27882E+00 5.13765E-02-6.87470E+00 6.44207E-14-2.14342E-14
 -1      2541 2.34932E+01-4.68374E+00-3.30910E-02-6.18878E+00-3.29736E-14-2.65538E-13
 -1      2542 2.55360E+01-4.67271E+00 6.05003E-02-4.54881E+00-1.42025E-13 1.40860E-14
 -1      2543 1.13797E+01-4.81014E+00 7.45978E-02-7.37464E+00 2.67175E-13 8.44047E-14
 -1      2544 1.51947E+01-5.06835E+00-1.60547E-02-7.88876E+00 2.70339E-13 1.28009E-13
 -1      2545 4.69205E+00-3.34805E+00 8.25728E-02-4.59179E+00 1.50241E-13-2.67231E-13
 -1      2546 7.54746E+00-3.83688E+00 3.42911E-02-6.61165E+00 1.97314E-13 9.10105E-14
 -1      2547 2.79471E+00-2.75148E+00 8.00974E-02-1.38965E-01 9.00495E-14-6.07125E-13
 -1      2548 2.91982E+00-2.94935E+00 6.45220E-02-2.50009E+00 1.18516E-13-5.35516E-13
 -1      2549 6.52365E+00-2.87411E+00 1.00110E-01 4.02502E+00 6.82232E-14-1.25233E-13
 -1      2550 4.21083E+00-2.69740E+00 1.22454E-01 1.91291E+00 1.02626E-13-3.07532E-13
 -1      2551 1.54028E+01-5.22054E+00 4.15559E-02 6.44700E+00 1.68643E-13-4.89275E-13
 -1      2552 1.07633E+01-4.12188E+00 1.23847E-01 5.63965E+00 1.46494E-13-3.22103E-13
 -1      2553 2.50641E+01-6.16190E+00-4.01745E-02 4.38857E+00-9.43690E-15 1.55737E-13
 -1      2554 2.03994E+01-6.22599E+00-4.27060E-03 5.33247E+00 1.36946E-13 8.51532E-15
 -1      2555 3.13282E+01-4.29008E+00-1.08407E-01 7.57552E-01 2.77972E-14 2.72588E-13
 -1      2556 2.80131E+01-5.59987E+00-6.68031E-02 2.25192E+00-8.08520E-14 3.13638E-13
 -1      2557 3.55728E+01 6.23429E+00-6.74936E-02 2.00305E-01-2.76557E-13-1.74909E-13
 -1      2558 3.62077E+01 5.96601E+00-1.23701E-02-1.27283E+00-2.14384E-13-1.45994E-13
 -1      2559 2.96689E+01-5.01628E+00-1.08062E-01-1.63290E+00 1.36668E-13-1.87628E-13
 -1      2560 3.26017E+01-3.24278E+00-1.18881E-01 5.00707E-03 8.52166E-14-2.09222E-13
 -1      2561 2.67289E+01-4.05968E+00-1.13344E-01 4.53880E+00 5.09287E-13 5.28744E-13
 -1      2562 2.34073E+01-5.00184E+00 2.50498E-02 5.76580E+00 5.27245E-13 4.23495E-13
 -1      2563 1.45657E+01-5.66024E+00 2.64045E-02-6.28725E+00 7.43405E-13 4.36415E-13
 -1      2564 1.88385E+01-6.03167E+00-4.27317E-02-6.29441E+00 5.30576E-13 3.59900E-13
 -1      2565 3.23158E+00-2.62835E+00 9.62958E-02-3.89897E-01 1.65323E-13-3.48555E-13
 -1      2566 4.35026E+00-3.13594E+00 7.75970E-02-2.89233E+00 2.83135E-13-1.12632E-13
 -1      2567 3.51901E+01 4.86271E+00-1.57217E-01 2.07086E+00-3.31735E-13-3.39617E-13
 -1      2568 2.01980E+01 6.55760E-02 9.88309E-04 2.55632E-01-1.25782E-13 2.08233E-14
 -1      2569 3.51237E+01 3.76834E+00-1.65097E-01-2.77251E+00-2.69118E-13-1.68338E-13
 -1      2570 3.57218E+01 3.45802E+00-5.44839E-02 2.80540E+00-3.83915E-13-4.76175E-13
 -1      2571 3.47321E+01 1.94214E+00-1.35965E-01-3.22633E+00-2.10693E-13-1.49436E-13
 -1      2572 1.99135E+01 2.81048E+00 1.13838E-03-1.09762E+00-6.12177E-14-4.21800E-13
 -1      2573 1.97804E+01 3.15627E+00-1.61795E-02-1.28732E+00-8.05536E-14-4.54234E-13
 -1      2574 1.98833E+01 3.01282E+00-1.85326E-02-1.47725E+00-1.38412E-13-4.52486E-13
 -1      2575 2.26079E+01-5.38700E+00 7.92558E-02 6.05408E+00 2.82302E-13 5.10217E-13
 -1      2576 2.03311E+01 5.90119E-01 9.12468E-03 8.71623E-01 2.58337E-13 5.74403E-13
 -1      2577 2.03924E+01 8.35984E-01 6.79982E-03 1.04785E+00 2.93467E-13 4.43491E-13
 -1      2578 2.01609E+01 4.88690E-01 7.90018E-03 6.62831E-01 2.41463E-13 5.19580E-13
 -1      2579 7.46692E+00-2.47317E+00 1.44684E-01-3.93753E+00 3.39326E-13 3.50275E-13
 -1      2580 3.09061E+01 7.75735E-01-2.17130E-02-3.96706E-01 5.84852E-13 5.39568E-14
 -1      2581 1.53295E+01-4.76099E+00 1.06224E-01 7.37219E+00 8.41549E-14 5.75345E-13
 -1      2582 1.44285E+01-4.38611E+00 1.39107E-01-6.12735E+00 8.99558E-13 5.11313E-13
 -1      2583 3.29345E+01-2.78416E+00-3.80146E-02-1.54382E+00-3.95343E-15 1.55431E-13
 -1      2584 2.67178E+01-5.11410E+00-3.76600E-02 2.29087E+00-8.17540E-14 1.96534E-13
 -1      2585 2.87847E+01-5.33794E+00 4.69347E-02-1.78294E+00 1.89460E-13-3.09031E-13
 -1      2586 6.31601E+00-8.64138E-01 1.48199E-01 2.58175E+00 3.41539E-13 3.92464E-13
 -1      2587 4.52878E+00-1.76203E+00 1.64684E-01 1.19329E+00 2.47170E-13 2.53519E-13
 -1      2588 5.88284E+00-7.12745E-01 1.69224E-01-1.23560E-01 2.96443E-13-1.70586E-13
 -1      2589 2.27870E+01-5.79390E+00 1.08516E-01-4.80864E+00 5.23026E-13 5.57887E-15
 -1      2590 2.01189E+01 2.61293E+00-1.00009E-02-1.67644E+00-2.12659E-13-3.92058E-13
 -1      2591 2.00020E+01 3.64325E-01 8.14739E-03 3.93468E-01 2.20557E-13 3.77337E-13
 -1      2592 2.00964E+01 4.32676E-01 1.16896E-02 5.35860E-01 2.33239E-13 4.60317E-13
 -1      2593 2.01843E+01 5.65255E-01-3.14300E-03 6.53290E-01 2.46708E-13 3.41419E-13
 -1      2594 2.00845E+01 4.35034E-01-5.69491E-03 4.08569E-01 2.31820E-13 2.44811E-13
 -1      2595 2.02622E+01 1.20166E-02-4.17420E-03 3.18194E-01-1.16559E-14 4.40471E-14
 -1      2596 3.37488E+01-1.61519E+00-6.19413E-02 2.17630E+00 4.04538E-15-5.64215E-13
 -1      2597 3.44771E+01-1.06889E+00-1.51982E-02-1.18496E+00-7.51274E-14 1.05249E-13
 -1      2598 3.27305E+01-1.53523E+00-2.81196E-01-3.19869E+00-2.01228E-14-1.81521E-14
 -1      2599 2.77714E+01-4.89173E+00-4.34550E-02-1.59640E+00 2.66787E-13-2.78014E-13
 -1      2600 2.81987E+01-3.48386E+00 2.33442E-02 2.60915E+00 5.03847E-13 3.27904E-13
 -1      2601 1.93249E+01-5.21537E+00 7.24380E-02 5.44928E+00 1.56070E-13-1.88807E-13
 -1      2602 9.93188E+00-2.75944E+00 1.72232E-01 4.95550E+00 3.56382E-14-1.62648E-13
 -1      2603 9.59215E+00-1.19159E+00 1.73039E-01 4.01207E+00-8.07826E-14-2.02671E-13
 -1      2604 1.31852E+01-2.62400E+00 4.31443E-02 5.34779E+00 1.02016E-13-3.15276E-13
 -1      2605 5.28858E+00-1.34554E+00 1.68914E-01 8.72219E-01-4.56163E-14-4.06786E-13
 -1      2606 5.72448E+00-1.85508E+00 1.60368E-01-3.72337E+00-1.38778E-17-2.88214E-13
 -1      2607 1.88019E+01-5.08374E+00 9.46974E-02-7.07057E+00 1.51545E-13 8.93851E-14
 -1      2608 2.95830E+01-1.78993E+00 1.07424E-02-1.23598E+00 3.35756E-15 3.41976E-13
 -1      2609 3.08103E+01 2.74900E+00-5.47835E-02 1.12672E+00 2.19186E-13 2.13024E-13
 -1      2610 3.06642E+01 6.53057E+00-9.21156E-02 1.19877E+00 5.10147E-13 1.23859E-13
 -1      2611 3.11295E+01 4.91605E+00-6.15317E-02-1.33728E+00 6.42597E-13-1.66533E-14
 -1      2612 3.10777E+01 7.54753E+00-1.41405E-01-4.14004E-01 7.63473E-13 1.34337E-13
 -1      2613 2.90063E+01 6.71591E+00-1.43544E-01-9.37284E-01 7.33358E-13-2.50008E-14
 -1      2614 2.90049E+01 7.40441E+00-1.52511E-01-3.36544E-02 7.18425E-13 8.01234E-14
 -1      2615 1.10208E+01-3.51800E+00 1.49737E-01-6.92362E+00 1.34365E-13 3.12805E-14
 -1      2616 3.62041E+01 1.17411E+00-6.30909E-02-2.19703E+00-2.61069E-13 2.84772E-14
 -1      2617 3.50037E+01-2.80077E-01-6.78530E-03 1.67806E+00-8.88734E-14-2.57683E-13
 -1      2618 3.61619E+01 2.05547E+00-4.59548E-02 2.26381E+00-3.80834E-13-5.02154E-13
 -1      2619 1.98460E+01 2.76488E+00-6.36804E-03 5.16182E-01 2.73923E-13-2.60014E-13
 -1      2620 1.98211E+01 2.81480E+00-5.74765E-03 3.65253E-01 2.42487E-13-2.85497E-13
 -1      2621 1.98041E+01 2.85241E+00-5.63945E-03 2.29800E-01 2.21536E-13-3.12452E-13
 -1      2622 1.97955E+01 2.86936E+00-5.43999E-03 7.51897E-02 1.88975E-13-3.25077E-13
 -1      2623 1.99506E+01 2.50136E+00 3.62506E-03 2.64956E-01 2.03862E-13-2.76390E-13
 -1      2624 2.00435E+01 2.32333E+00-1.10933E-02 1.04628E+00 3.53229E-13-7.60542E-14
 -1      2625 1.99795E+01 2.47315E+00-6.36426E-03 9.10788E-01 3.38437E-13-1.32277E-13
 -1      2626 2.02068E+01 1.91351E+00-1.65902E-02 1.23463E+00 3.62342E-13 5.30190E-14
 -1      2627 2.01251E+01 2.14670E+00-4.66962E-03 1.13199E+00 3.47883E-13-3.51889E-15
 -1      2628 2.01912E+01 1.89155E+00 8.23040E-03 9.28125E-01 3.26203E-13-2.00653E-14
 -1      2629 2.04430E+01 1.01338E+00 2.23116E-03 1.15472E+00 3.12448E-13 3.54977E-13
 -1      2630 2.04000E+01 1.27506E+00-7.21199E-03 1.26739E+00 3.32381E-13 2.48819E-13
 -1      2631 2.03130E+01 8.46909E-01 6.17035E-03 8.99208E-01 2.75138E-13 3.10421E-13
 -1      2632 2.02151E+01 6.27089E-01 7.75531E-03-4.37702E-01-1.33742E-13-2.28869E-13
 -1      2633 2.01324E+01 4.76078E-01-3.04784E-03-2.78627E-01-1.07613E-13-2.19648E-13
 -1      2634 2.01060E+01 3.62715E-01 6.62787E-03-1.58906E-01-1.01118E-13-1.95407E-13
 -1      2635 2.00468E+01 2.67504E-01-1.91462E-03-6.08955E-02-1.12185E-13-1.95011E-13
 -1      2636 2.01959E+01 5.29102E-01-1.36942E-03-2.62424E-01-9.24006E-14-2.28630E-13
 -1      2637 2.00194E+01 1.94340E-01 4.53369E-03 1.75886E-02-1.06144E-13-1.45819E-13
 -1      2638 1.99825E+01 1.33038E-01-9.62038E-04 7.61226E-02-1.03593E-13-1.26165E-13
 -1      2639 2.01253E+01 2.95357E-01-1.91400E-03-5.21441E-02-9.12647E-14-1.68493E-13
 -1      2640 1.99623E+01 9.07314E-02 2.89969E-03 1.18055E-01-8.90729E-14-8.69041E-14
 -1      2641 1.99450E+01 5.44182E-02-2.73744E-04 1.46803E-01-6.38421E-14-7.32490E-14
 -1      2642 2.00678E+01 1.47306E-01-1.97984E-03 7.68862E-02-8.09483E-14-1.03391E-13
 -1      2643 1.99306E+01 2.79671E-02 1.69454E-03 1.67746E-01-4.01085E-14-6.21097E-14
 -1      2644 1.99254E+01 6.19406E-03 4.59098E-05 1.79450E-01-3.66847E-14-4.44409E-14
 -1      2645 2.00278E+01 5.79013E-02-1.57077E-03 1.46233E-01-3.41630E-14-5.83357E-14
 -1      2646 1.99161E+01-9.38681E-03 8.95584E-04 1.86586E-01-4.02574E-14-1.49050E-14
 -1      2647 1.99188E+01-2.15267E-02 2.13334E-04 1.87848E-01-4.83511E-14 2.78637E-15
 -1      2648 2.00015E+01 3.37521E-03-1.17158E-03 1.78546E-01-2.65014E-14-4.04199E-14
 -1      2649 1.99135E+01-2.97276E-02 3.59654E-04 1.86570E-01-8.19674E-14 1.73159E-14
 -1      2650 1.99209E+01-3.53155E-02 3.09623E-04 1.81921E-01-6.88559E-14-3.21732E-15
 -1      2651 1.99861E+01-2.76012E-02-8.43871E-04 1.87179E-01-4.82178E-14-1.59325E-14
 -1      2652 1.99186E+01-3.84570E-02 1.12065E-05 1.76105E-01-2.99107E-14 1.66516E-14
 -1      2653 1.99286E+01-3.95408E-02 3.70585E-04 1.68709E-01 5.59791E-15 2.00232E-14
 -1      2654 1.99786E+01-4.24920E-02-5.94697E-04 1.81845E-01-4.31953E-14 5.93374E-14
 -1      2655 1.99284E+01-3.91670E-02-2.06838E-04 1.61118E-01 1.95044E-14 1.69466E-14
 -1      2656 1.99399E+01-3.70985E-02 4.19161E-04 1.53200E-01 3.27260E-14-2.87075E-14
 -1      2657 1.99768E+01-4.62761E-02-4.15282E-04 1.69525E-01-4.06798E-15 8.99001E-14
 -1      2658 1.99412E+01-3.42142E-02-3.38469E-04 1.45818E-01-2.55932E-14-6.53890E-14
 -1      2659 1.99534E+01-2.98428E-02 4.70536E-04 1.38982E-01-7.79567E-14-1.65861E-13
 -1      2660 1.99790E+01-4.22523E-02-2.92444E-04 1.55220E-01-4.37033E-14 9.37541E-15
 -1      2661 1.99558E+01-2.50494E-02-4.16698E-04 1.33268E-01-3.12500E-14-1.42630E-13
 -1      2662 1.99686E+01-1.88180E-02 5.65058E-04 1.28719E-01-3.60432E-14-1.54949E-13
 -1      2663 1.99839E+01-3.25092E-02-2.13101E-04 1.42569E-01-5.54070E-14-9.28290E-15
 -1      2664 1.99720E+01-1.20302E-02-4.72376E-04 1.25701E-01-5.08195E-14-1.02800E-13
 -1      2665 1.99860E+01-3.69154E-03 6.58838E-04 1.24570E-01-6.51941E-14-9.85336E-17
 -1      2666 1.99911E+01-1.78406E-02-1.98393E-04 1.34217E-01 2.66096E-15-1.12213E-14
 -1      2667 1.99897E+01 4.41107E-03-5.21021E-04 1.25685E-01-9.03584E-14 1.08394E-13
 -1      2668 2.00043E+01 1.42525E-02 7.66423E-04 1.28952E-01-2.27583E-14 1.90672E-13
 -1      2669 2.00000E+01 1.31469E-03-1.29176E-04 1.32825E-01-1.92518E-14 1.07920E-13
 -1      2670 2.00083E+01 2.42563E-02-5.86908E-04 1.34879E-01-5.36440E-14 1.81044E-13
 -1      2671 2.00246E+01 3.63806E-02 9.43173E-04 1.43505E-01-1.15872E-13 1.69538E-13
 -1      2672 2.00098E+01 2.44849E-02-9.86587E-05 1.40357E-01-5.42308E-14 2.27396E-13
 -1      2673 2.00286E+01 4.87973E-02-6.92401E-04 1.55333E-01-1.07292E-13 1.93094E-13
 -1      2674 2.00474E+01 6.39387E-02 1.17552E-03 1.70578E-01-4.61846E-14 1.46772E-13
 -1      2675 2.00204E+01 5.31039E-02-5.53012E-05 1.58744E-01-8.98119E-14 2.34101E-13
 -1      2676 2.00507E+01 7.96003E-02-8.62829E-04 1.89600E-01-1.64047E-14 1.39034E-13
 -1      2677 2.00726E+01 9.88482E-02 1.47428E-03 2.13071E-01-5.27559E-14 8.77271E-14
 -1      2678 2.00309E+01 8.88462E-02 2.59573E-05 1.90360E-01-6.36880E-14 2.51001E-13
 -1      2679 2.00743E+01 1.18949E-01-1.13054E-03 2.40896E-01-1.38525E-13 3.31071E-14
 -1      2680 2.01000E+01 1.43819E-01 1.84846E-03 2.74676E-01-1.87712E-13 3.06415E-14
 -1      2681 2.00401E+01 1.34192E-01 1.80837E-04 2.38047E-01-1.42740E-13 1.50196E-13
 -1      2682 2.00981E+01 1.69988E-01-1.53876E-03 3.13318E-01-1.61880E-13 3.68741E-14
 -1      2683 2.01280E+01 2.02493E-01 2.30208E-03 3.60103E-01-1.25081E-13 6.03864E-14
 -1      2684 2.00455E+01 1.92572E-01 4.62354E-04 3.05276E-01-1.65599E-13 9.33225E-14
 -1      2685 2.01195E+01 2.36850E-01-2.14706E-03 4.12056E-01-1.62556E-13 4.05216E-14
 -1      2686 2.01533E+01 2.79546E-01 2.83604E-03 4.75261E-01-7.70372E-14 4.77745E-14
 -1      2687 2.00427E+01 2.68502E-01 9.49411E-04 3.96263E-01-1.20252E-13 1.49548E-13
 -1      2688 2.01332E+01 3.24567E-01-3.06360E-03 5.43572E-01-7.41443E-14 1.56002E-14
 -1      2689 2.01702E+01 3.80517E-01 3.56467E-03 6.27308E-01-1.10156E-13-8.93197E-14
 -1      2690 2.00244E+01 3.67656E-01 1.76735E-03 5.16005E-01-1.58172E-13 5.85478E-14
 -1      2691 2.01290E+01 4.42581E-01-4.28557E-03 7.20081E-01-3.15747E-14-1.05600E-13
 -1      2692 2.01658E+01 5.18064E-01 4.27893E-03 8.35996E-01 5.12698E-15-1.28198E-13
 -1      2693 1.99771E+01 4.99247E-01 2.74421E-03 6.74904E-01-5.53745E-14-3.41294E-14
 -1      2694 2.00937E+01 5.92656E-01-6.04125E-03 9.49261E-01 1.10445E-13-1.22867E-13
 -1      2695 2.01232E+01 6.81843E-01 4.60885E-03 1.09059E+00 1.84188E-13 3.45681E-14
 -1      2696 1.98832E+01 6.68688E-01 5.03522E-03 8.75771E-01 1.03985E-13-1.05617E-13
 -1      2697 2.00053E+01 7.70497E-01-8.28791E-03 1.23237E+00 8.99507E-14 6.57794E-14
 -1      2698 2.00214E+01 8.71979E-01 5.20387E-03 1.40849E+00 6.78711E-16 8.00925E-14
 -1      2699 1.97191E+01 8.70147E-01 7.74235E-03 1.11985E+00 1.46709E-13-8.17627E-14
 -1      2700 1.98379E+01 9.64611E-01-1.10673E-02 1.58416E+00 2.06584E-14 1.58251E-13
 -1      2701 1.98348E+01 1.06157E+00 6.24594E-03 1.79689E+00 7.26225E-14 1.91293E-13
 -1      2702 1.94493E+01 1.09696E+00 1.12704E-02 1.41821E+00 9.10315E-14-7.60421E-14
 -1      2703 1.95666E+01 1.12984E+00-1.38753E-02 2.01514E+00 1.40000E-14 1.99227E-13
 -1      2704 1.95502E+01 1.17945E+00 9.25673E-03 2.26222E+00-2.90295E-14 1.67549E-13
 -1      2705 1.90339E+01 1.31179E+00 1.54524E-02 1.78184E+00-3.71339E-15 1.60939E-14
 -1      2706 1.91898E+01 1.15954E+00-1.46027E-02 2.53906E+00-9.09990E-14 2.35110E-13
 -1      2707 1.92015E+01 1.07408E+00 1.86791E-02 2.81174E+00 5.34338E-15 1.35961E-13
 -1      2708 1.84392E+01 1.42287E+00 1.98737E-02 2.23518E+00-8.47481E-14 1.21171E-13
 -1      2709 1.87778E+01 8.46103E-01-6.25123E-03 3.18057E+00-1.18698E-14 5.23592E-14
 -1      2710 1.89370E+01 4.62159E-01 4.20190E-02 3.46217E+00-1.55397E-14-1.68251E-14
 -1      2711 1.76661E+01 1.24891E+00 2.54252E-02 2.83363E+00-8.85711E-14 2.41257E-14
 -1      2712 1.85799E+01-1.42614E-01 3.76165E-02 3.95596E+00 9.04485E-15-1.53412E-13
 -1      2713 1.90496E+01-1.10451E+00 6.52986E-02 4.22236E+00-9.98923E-14-2.17711E-13
 -1      2714 1.68285E+01 4.45772E-01 3.61100E-02 3.68711E+00-1.17545E-13-7.62029E-14
 -1      2715 1.98624E+01-2.35371E+00 1.09889E-01 4.61035E+00-6.44831E-14-1.96509E-13
 -1      2716 2.09599E+01-3.84726E+00 4.23514E-02 4.66199E+00 1.08386E-14-3.55618E-14
 -1      2717 3.35120E+01 2.08979E+00 3.53959E-02 3.47906E+00-2.96929E-13-6.57807E-13
 -1      2718 3.24264E+01-1.24775E+00-3.60694E-01 3.59806E+00-1.08205E-13-1.03070E-12
 -1      2719 1.36230E+01-2.82619E+00 2.01531E-01-5.62453E+00 7.80750E-13 6.41140E-13
 -1      2720 1.70680E+01-4.15047E+00-8.09837E-03-6.06301E+00 7.21312E-13 4.90080E-13
 -1      2721 2.03541E+01-4.15346E-02-1.59607E-03 4.01206E-01-1.84135E-14-8.01445E-14
 -1      2722 2.03662E+01-6.81758E-02 4.49611E-03 3.15201E-01-1.08049E-13 6.84497E-14
 -1      2723 2.04282E+01-1.60917E-01-5.36594E-03 2.90590E-01-1.82014E-13 1.95674E-14
 -1      2724 2.04300E+01-1.30315E+00 7.82811E-02-4.18008E+00 3.65909E-13 3.94063E-13
 -1      2725 1.97207E+01-4.28644E-01 3.60553E-02-4.10118E+00 4.01309E-13 3.84203E-13
 -1      2726 1.98016E+01 2.11932E-01 3.45094E-02-3.69965E+00 3.10000E-13 2.96234E-13
 -1      2727 1.95300E+01 6.24656E-01 1.59965E-03-3.47550E+00 3.31266E-13 3.71214E-13
 -1      2728 1.80537E+01 8.29394E-02 2.80901E-02-4.06910E+00 2.96350E-13 5.95380E-13
 -1      2729 1.97882E+01 8.68221E-01 1.71278E-02-3.12953E+00 1.48529E-13 2.32093E-13
 -1      2730 1.96755E+01 9.89905E-01-8.44533E-03-2.87276E+00-3.01564E-14 2.01642E-13
 -1      2731 1.84620E+01 9.72575E-01 1.45952E-02-3.27208E+00 1.55495E-13 1.57387E-13
 -1      2732 1.99291E+01 1.03445E+00 9.80379E-03-2.58939E+00-1.80075E-13 9.17951E-15
 -1      2733 1.98647E+01 1.02770E+00-8.81254E-03-2.33669E+00-2.73486E-13 1.25787E-13
 -1      2734 1.89852E+01 1.23625E+00 1.33467E-02-2.66419E+00-2.29408E-13-2.98744E-13
 -1      2735 2.00604E+01 1.00322E+00 8.49543E-03-2.09545E+00-1.74457E-13 1.90888E-13
 -1      2736 2.00038E+01 9.67605E-01-3.24965E-03-1.86021E+00-3.83136E-14 3.13927E-13
 -1      2737 1.94122E+01 1.21910E+00 8.79858E-03-2.16693E+00-2.29732E-13 5.36315E-14
 -1      2738 2.00390E+01 9.88558E-01 1.02012E-02-1.70324E+00-9.32056E-14 2.99717E-13
 -1      2739 1.99176E+01 1.02114E+00 2.22422E-03-1.49674E+00 1.70649E-14 2.31687E-13
 -1      2740 1.96539E+01 1.18058E+00-1.05270E-02-1.44109E+00 2.43388E-14 5.67186E-13
 -1      2741 1.95902E+01 1.17004E+00-3.74119E-03-1.76802E+00-6.96028E-14 5.16968E-13
 -1      2742 1.99839E+01 1.89555E-01-9.76493E-04-1.07913E-02 1.82692E-13 8.75118E-14
 -1      2743 2.00329E+01 2.62045E-01 6.16597E-03 6.48752E-02 2.00014E-13 9.29106E-14
 -1      2744 1.99330E+01 9.09574E-02-3.63781E-04-1.12391E-01 1.59132E-13 8.09761E-14
 -1      2745 1.99587E+01 1.36284E-01 3.87491E-03-7.03276E-02 1.66883E-13 1.03624E-13
 -1      2746 2.00723E+01 2.12951E-01-2.27167E-03-1.37005E-02 1.74805E-13 1.78117E-14
 -1      2747 2.00630E+01 3.49785E-01-1.45699E-03 1.64561E-01 2.07913E-13 1.01873E-13
 -1      2748 2.01465E+01 4.62398E-01 9.95816E-03 2.94210E-01 2.15742E-13 1.18113E-13
 -1      2749 2.01373E+01 3.91722E-01-3.00880E-03 1.54684E-01 2.12906E-13 2.55226E-14
 -1      2750 1.98946E+01-6.53127E-03 1.75670E-04-1.85661E-01 6.83571E-14 5.61011E-14
 -1      2751 1.98939E+01 9.77183E-03 1.30907E-03-1.79276E-01 7.83431E-14 6.85478E-14
 -1      2752 1.98954E+01-2.65483E-02 2.78702E-04-1.86833E-01 1.20664E-14 5.32425E-14
 -1      2753 1.98883E+01-1.79798E-02 6.10973E-04-1.88661E-01 4.76546E-14 4.54041E-14
 -1      2754 1.99705E+01-1.07888E-02-1.02003E-03-1.86187E-01 5.74487E-14 4.57835E-14
 -1      2755 1.99035E+01-3.54070E-02 3.36902E-04-1.76979E-01 5.16611E-14 8.13110E-14
 -1      2756 1.98928E+01-3.20874E-02 1.56124E-04-1.83181E-01 8.53129E-15 6.23194E-14
 -1      2757 1.99614E+01-3.32120E-02-7.16940E-04-1.87785E-01 1.53346E-14 2.17539E-14
 -1      2758 1.99160E+01-3.66498E-02 3.75106E-04-1.62108E-01 7.32281E-14 1.28985E-13
 -1      2759 1.99035E+01-3.69084E-02-1.29652E-04-1.70027E-01 9.24420E-14 1.09056E-13
 -1      2760 1.99593E+01-4.26091E-02-4.94074E-04-1.78539E-01 4.39829E-14 4.84035E-14
 -1      2761 1.99310E+01-3.26755E-02 4.08259E-04-1.46427E-01 5.92100E-14 1.05059E-13
 -1      2762 1.99177E+01-3.53825E-02-2.99007E-04-1.54220E-01 5.41615E-14 1.11567E-13
 -1      2763 1.99618E+01-4.30858E-02-3.38605E-04-1.64483E-01 8.97721E-14 6.18466E-14
 -1      2764 1.99473E+01-2.51020E-02 4.45644E-04-1.32876E-01 7.52417E-14 2.89266E-15
 -1      2765 1.99338E+01-2.94983E-02-3.90497E-04-1.39262E-01 1.01719E-13 1.02913E-13
 -1      2766 1.99675E+01-3.74320E-02-2.36804E-04-1.49875E-01 1.13687E-13 3.97995E-14
 -1      2767 1.99647E+01-1.50239E-02 4.92146E-04-1.23524E-01 7.53469E-14-6.90521E-14
 -1      2768 1.99510E+01-2.05960E-02-4.31260E-04-1.27606E-01 7.65537E-14-2.97620E-14
 -1      2769 1.99754E+01-2.75366E-02-1.76962E-04-1.37720E-01 1.11994E-13-8.30909E-14
 -1      2770 1.99832E+01-3.21585E-03 5.49222E-04-1.19825E-01 3.40301E-14-8.01155E-14
 -1      2771 1.99691E+01-9.59412E-03-4.39738E-04-1.20980E-01 4.19317E-14-7.87224E-14
 -1      2772 1.99849E+01-1.46898E-02-1.49568E-04-1.30152E-01 6.12254E-14-1.06184E-13
 -1      2773 2.00032E+01 9.68360E-03 6.14658E-04-1.22779E-01 3.47147E-15-5.77805E-14
 -1      2774 1.99883E+01 2.82008E-03-4.26989E-04-1.20597E-01 1.94690E-14-4.04255E-14
 -1      2775 1.99960E+01 1.67307E-04-1.48365E-04-1.28688E-01 1.09762E-14-1.11267E-13
 -1      2776 2.00256E+01 2.29826E-02 6.81810E-04-1.32980E-01 8.23290E-14-1.90128E-14
 -1      2777 2.00093E+01 1.60060E-02-3.97221E-04-1.27255E-01 5.73253E-14-4.86143E-14
 -1      2778 2.00087E+01 1.62138E-02-1.69884E-04-1.34375E-01 2.15531E-14-8.34345E-14
 -1      2779 2.00514E+01 3.57289E-02 7.38325E-04-1.50567E-01 5.27110E-14 5.22688E-14
 -1      2780 2.00331E+01 2.91734E-02-3.47915E-04-1.41342E-01 4.25268E-14 3.25027E-14
 -1      2781 2.00238E+01 3.25098E-02-2.13709E-04-1.47838E-01 9.19503E-15-5.94569E-14
 -1      2782 2.00819E+01 4.64773E-02 7.64439E-04-1.75054E-01 4.81301E-14 6.23633E-14
 -1      2783 2.00608E+01 4.11628E-02-2.69372E-04-1.62722E-01 8.08115E-14 1.07140E-13
 -1      2784 2.00421E+01 4.77332E-02-2.83131E-04-1.69211E-01 3.64242E-14 1.40052E-14
 -1      2785 2.01188E+01 5.30387E-02 7.31273E-04-2.05036E-01-5.76180E-14 7.68452E-14
 -1      2786 2.00942E+01 5.02023E-02-1.44097E-04-1.90510E-01-1.63364E-15 8.49365E-14
 -1      2787 2.00650E+01 5.98890E-02-3.85516E-04-1.97950E-01 8.29079E-15 4.27257E-14
 -1      2788 2.01641E+01 5.22465E-02 5.99466E-04-2.37772E-01 2.97721E-14 1.00670E-13
 -1      2789 2.01354E+01 5.36591E-02 5.33894E-05-2.22705E-01-1.16803E-14 1.04479E-13
 -1      2790 2.00946E+01 6.60048E-02-5.32641E-04-2.32523E-01-3.89049E-14-1.61944E-14
 -1      2791 2.02202E+01 3.98187E-02 3.19006E-04-2.68648E-01-2.08617E-15 1.00550E-13
 -1      2792 2.01868E+01 4.78389E-02 3.55259E-04-2.55704E-01 3.27236E-14 1.20840E-13
 -1      2793 2.01336E+01 6.18673E-02-7.39840E-04-2.69942E-01-2.37522E-14 1.75424E-14
 -1      2794 2.02898E+01 1.04678E-02-1.68200E-04-2.90588E-01-3.28567E-14 2.04308E-13
 -1      2795 2.02514E+01 2.79447E-02 7.95579E-04-2.83708E-01-3.68399E-14 1.58843E-13
 -1      2796 2.01858E+01 4.19154E-02-1.02236E-03-3.05188E-01-5.30681E-14 1.93904E-14
 -1      2797 2.03757E+01-4.14885E-02-9.20113E-04-2.93555E-01-5.29124E-14 1.77318E-13
 -1      2798 2.03326E+01-1.16086E-02 1.39895E-03-2.98122E-01-5.29576E-14 1.51055E-13
 -1      2799 2.02563E+01-5.02949E-04-1.38637E-03-3.30539E-01 1.18167E-14 7.14860E-14
 -1      2800 2.04803E+01-1.20651E-01-1.97579E-03-2.64395E-01-2.72290E-14 9.94708E-14
 -1      2801 2.04335E+01-7.62160E-02 2.15873E-03-2.87140E-01 1.18978E-14 1.25831E-13
 -1      2802 2.03507E+01-7.21685E-02-1.81090E-03-3.34954E-01-2.38979E-14-1.33967E-14
 -1      2803 2.06040E+01-2.27780E-01-3.31956E-03-1.87524E-01 3.09835E-14 1.17049E-13
 -1      2804 2.05561E+01-1.69037E-01 3.00047E-03-2.35890E-01-4.61269E-14 1.27935E-13
 -1      2805 2.04753E+01-1.77857E-01-2.21788E-03-3.03788E-01-3.39147E-14 2.78760E-14
 -1      2806 2.07434E+01-3.55479E-01-4.81553E-03-4.71841E-02 1.06157E-14 1.06643E-13
 -1      2807 2.06989E+01-2.87500E-01 3.72860E-03-1.27766E-01 1.29897E-13 1.35951E-13
 -1      2808 2.06341E+01-3.16531E-01-2.43464E-03-2.19363E-01 5.30558E-14 3.01845E-15
 -1      2809 2.08876E+01-4.82743E-01-6.09904E-03 1.67706E-01-1.89968E-13 2.01010E-13
 -1      2810 2.08540E+01-4.18331E-01 3.98014E-03 5.20535E-02-1.12910E-13 1.89909E-13
 -1      2811 2.08261E+01-4.75629E-01-2.16105E-03-6.33313E-02-5.31663E-14 1.07087E-13
 -1      2812 2.10150E+01-5.70424E-01-6.46230E-03 4.55093E-01-1.32023E-15 1.84869E-13
 -1      2813 2.10025E+01-5.32152E-01 3.23895E-03 3.09713E-01-9.91577E-14 1.85019E-13
 -1      2814 2.10394E+01-6.24313E-01-9.83795E-04 1.77699E-01-1.21215E-13 3.10570E-14
 -1      2815 2.10926E+01-5.62710E-01-4.95331E-03 7.87716E-01 5.66462E-14 3.15345E-14
 -1      2816 2.11123E+01-5.80974E-01 9.67212E-04 6.31517E-01 6.12187E-14 1.57337E-13
 -1      2817 2.12454E+01-7.08776E-01 1.45094E-03 5.01595E-01 3.60377E-14-4.46040E-14
 -1      2818 2.10823E+01-4.02393E-01-8.78939E-04 1.10155E+00 5.24372E-14 4.50253E-15
 -1      2819 2.11414E+01-5.05348E-01-2.97736E-03 9.70419E-01 5.23850E-14 1.99215E-14
 -1      2820 2.13964E+01-6.57730E-01 4.80256E-03 8.74773E-01 3.70134E-14-1.35734E-13
 -1      2821 2.09588E+01-6.36124E-02 5.29835E-03 1.29574E+00 7.00647E-14-7.69374E-14
 -1      2822 2.10541E+01-2.58222E-01-7.64359E-03 1.23872E+00 6.63636E-14-5.64552E-14
 -1      2823 2.14365E+01-4.06854E-01 7.62522E-03 1.21736E+00 9.99872E-14 2.73118E-14
 -1      2824 2.07361E+01 4.06823E-01 1.10218E-02 1.25734E+00 1.07588E-13-6.69008E-14
 -1      2825 2.08481E+01 1.56040E-01-1.09262E-02 1.32063E+00 1.05513E-13-4.39957E-14
 -1      2826 2.13295E+01 5.71500E-02 7.63291E-03 1.40484E+00 5.60094E-14-1.79582E-15
 -1      2827 2.04856E+01 8.70382E-01 1.25699E-02 9.19360E-01-7.92313E-14-6.51620E-14
 -1      2828 2.05817E+01 6.45109E-01-9.68428E-03 1.11845E+00 3.05234E-14-3.08116E-14
 -1      2829 2.10998E+01 6.45499E-01 2.79445E-03 1.30489E+00 3.19524E-14-4.82236E-14
 -1      2830 2.03172E+01 1.13972E+00 7.26492E-03 3.23247E-01 3.55046E-14-1.06498E-13
 -1      2831 2.03626E+01 1.03728E+00-3.75127E-03 6.20643E-01-7.03179E-14-1.57075E-13
 -1      2832 2.08512E+01 1.17290E+00-3.42186E-03 8.57784E-01-8.80546E-15-1.37983E-13
 -1      2833 2.03202E+01 1.08804E+00-1.24572E-03-3.56765E-01 9.42780E-14 2.03092E-14
 -1      2834 2.03012E+01 1.15636E+00 5.97989E-03-4.96048E-02 6.35798E-14-4.85957E-14
 -1      2835 2.07248E+01 1.40675E+00-8.59722E-03 1.50403E-01 6.10330E-15 1.21786E-13
 -1      2836 2.04923E+01 7.39409E-01-8.66998E-03-9.05309E-01 6.02065E-14-4.00173E-14
 -1      2837 2.04180E+01 9.47748E-01 1.26987E-02-6.80492E-01 8.37329E-14-1.32278E-14
 -1      2838 2.07983E+01 1.24822E+00-5.07369E-03-5.84835E-01 4.52480E-14 1.56417E-13
 -1      2839 2.07411E+01 2.48091E-01-1.14837E-02-1.17176E+00-1.39151E-13 6.34939E-14
 -1      2840 2.06430E+01 5.05670E-01 1.25285E-02-1.08106E+00 2.32780E-14-3.71015E-14
 -1      2841 2.10209E+01 7.63876E-01 1.39596E-03-1.10098E+00-2.73145E-14 2.52419E-14
 -1      2842 2.09514E+01-2.01684E-01-8.96270E-03-1.13669E+00-7.09903E-15-1.90125E-14
 -1      2843 2.08639E+01 1.39183E-02 7.31917E-03-1.17577E+00-9.63976E-14-6.34502E-14
 -1      2844 2.12588E+01 1.61725E-01 7.22140E-03-1.27153E+00-4.70515E-14-1.78367E-13
 -1      2845 2.10481E+01-4.91366E-01-4.26949E-03-8.85778E-01-2.81689E-14-4.25304E-14
 -1      2846 2.09948E+01-3.67008E-01 7.20599E-04-1.01141E+00-3.56964E-14-8.33887E-14
 -1      2847 2.13906E+01-3.49665E-01 8.30827E-03-1.12551E+00 1.52015E-14-3.44231E-13
 -1      2848 2.10201E+01-5.95289E-01 1.39990E-04-5.40498E-01 1.35349E-13-1.19140E-13
 -1      2849 2.10079E+01-5.65015E-01-4.24363E-03-7.00095E-01 7.91983E-14-2.23902E-14
 -1      2850 2.13707E+01-6.50101E-01 5.75946E-03-7.89826E-01 1.25625E-14-2.01115E-13
 -1      2851 2.08979E+01-5.50342E-01 2.95303E-03-2.03091E-01 8.50856E-14 3.16734E-14
 -1      2852 2.09211E+01-5.89812E-01-6.62162E-03-3.54173E-01 1.02333E-13 4.16291E-14
 -1      2853 2.12237E+01-7.28984E-01 2.20822E-03-4.00985E-01 1.63120E-14-2.20938E-14
 -1      2854 2.07268E+01-4.14923E-01 4.79712E-03 6.47001E-02 5.74675E-14-4.21980E-14
 -1      2855 2.07723E+01-4.93954E-01-6.98381E-03-5.25994E-02 2.12410E-13 9.43850E-14
 -1      2856 2.10049E+01-6.41594E-01-4.67131E-04-5.79274E-02 1.34413E-13 3.46809E-13
 -1      2857 2.05478E+01-2.45969E-01 5.66430E-03 2.39667E-01-1.17683E-13-2.82604E-14
 -1      2858 2.06041E+01-3.41226E-01-6.58971E-03 1.67153E-01-1.09868E-13-1.23714E-13
 -1      2859 2.07768E+01-4.61846E-01 2.17967E-04 1.95275E-01 7.92727E-14 1.24524E-13
 -1      2860 2.05592E+01-2.50871E-01-9.30165E-05 3.49713E-01-2.00153E-13-7.35176E-14
 -1      2861 2.03590E+01 9.49109E-02 2.74724E-03 7.60620E-01 3.28820E-14 3.51764E-14
 -1      2862 2.03781E+01 2.55634E-02 4.64770E-04 6.64981E-01-1.43494E-13-1.31026E-13
 -1      2863 2.00053E+01 4.82507E-01-4.64669E-03 1.07209E+00-6.80889E-14-4.08279E-13
 -1      2864 2.01407E+01 3.62217E-01 6.70724E-03 1.04335E+00-3.96256E-14-3.41107E-13
 -1      2865 2.03769E+01-8.61082E-03 1.72651E-03 4.94931E-01-2.12297E-13-8.73820E-14
 -1      2866 1.10302E+01-2.42390E+00 7.52845E-02 6.30237E+00 1.89709E-14 6.70658E-13
 -1      2867 8.60344E+00-1.34437E+00 1.81119E-01 4.68568E+00 2.36713E-13 6.77097E-13
 -1      2868 1.96704E+01 7.86589E-01-9.18427E-03 1.03039E+00-1.65316E-13-1.14137E-13
 -1      2869 1.98518E+01 6.54717E-01 8.64152E-03 1.08231E+00 5.13803E-14-3.40309E-13
 -1      2870 1.99133E+01 3.70989E-01-5.35088E-03 1.21071E+00 5.06213E-14-2.89397E-13
 -1      2871 1.93016E+01 1.11569E+00-1.20902E-02 7.80557E-01-1.20814E-13 1.93854E-13
 -1      2872 1.94892E+01 9.94774E-01 8.55366E-03 9.30951E-01-1.34777E-13 1.45413E-13
 -1      2873 1.94865E+01 7.24541E-01-2.41486E-03 1.13122E+00-6.89997E-14-5.71351E-14
 -1      2874 1.90094E+01 1.39286E+00-1.17191E-02 3.27613E-01-1.89753E-13-3.24994E-13
 -1      2875 1.91438E+01 1.31161E+00 5.45684E-03 5.62469E-01-1.17170E-13 8.80685E-14
 -1      2876 1.90508E+01 1.10304E+00 2.60316E-03 8.09621E-01-1.07116E-14 1.02988E-13
 -1      2877 1.88993E+01 1.54677E+00-7.87689E-03-2.78703E-01 2.90381E-14-2.70253E-14
 -1      2878 1.89268E+01 1.52599E+00-2.77173E-04 9.01040E-03-3.37452E-14-2.37901E-13
 -1      2879 1.87385E+01 1.41565E+00 8.34394E-03 2.52484E-01-1.29909E-15-1.70532E-13
 -1      2880 1.90615E+01 1.51009E+00-3.19886E-03-8.98092E-01-1.54329E-13 3.76696E-13
 -1      2881 1.89489E+01 1.56785E+00-6.06082E-03-6.30602E-01-9.58463E-14 2.10124E-13
 -1      2882 1.86777E+01 1.56516E+00 1.00437E-02-4.54533E-01 8.78312E-14 9.10296E-14
 -1      2883 7.51240E+00-1.03085E+00 1.80953E-01-2.86549E+00 1.37626E-13-1.58262E-13
 -1      2884 9.94641E+00-2.03370E+00 8.99787E-02-4.89627E+00 4.36318E-13 6.12232E-13
 -1      2885 2.03199E+01 1.70973E+00-9.81888E-03-1.33210E+00-2.19467E-13-3.19026E-13
 -1      2886 2.02872E+01 1.32818E+00-7.03015E-03-1.03498E+00-2.00374E-13-2.92197E-13
 -1      2887 2.69991E+01-5.72701E+00 1.81588E-03 2.70865E+00-5.59552E-14 2.87062E-13
 -1      2888 2.80005E+01-3.01795E+00 2.21254E-02-1.35286E+00-8.58775E-14 2.31398E-13
 -1      2889 2.89113E+01-1.29883E+00-1.84296E-01 1.38431E-01 1.00100E-13 3.03924E-13
 -1      2890 2.11995E+01-3.75275E+00 1.11702E-01-4.66075E+00 4.63768E-13 3.88474E-13
 -1      2891 1.98242E+01-2.37927E+00 8.80118E-02-4.79835E+00 4.49529E-13 4.57787E-13
 -1      2892 2.83199E+01-3.02060E+00-1.67008E-01 1.10830E+00 2.85721E-13 4.81143E-14
 -1      2893 2.66825E+01-4.35277E+00 7.56451E-02 2.85863E+00 3.42434E-14 2.20310E-13
 -1      2894 2.03185E+01 1.03566E+00 4.94492E-03-8.33715E-01-1.72971E-13-2.60890E-13
 -1      2895 2.02251E+01 7.98670E-01-5.14598E-03-5.93638E-01-1.60061E-13-2.53994E-13
 -1      2896 2.02621E+01 8.79242E-01 2.46142E-03-5.54600E-01-1.33718E-13-2.54609E-13
 -1      2897 2.02795E+01 1.38643E+00 2.01042E-03-9.20015E-01-1.66910E-13-2.98718E-13
 -1      2898 1.99241E+01 2.59567E+00-7.98995E-03 7.94760E-01 3.25690E-13-1.69005E-13
 -1      2899 1.98807E+01 2.68787E+00-6.17208E-03 6.45707E-01 2.85410E-13-2.29362E-13
 -1      2900 1.99994E+01 2.38819E+00 4.17466E-03 5.17025E-01 2.60658E-13-2.19724E-13
 -1      2901 2.00803E+01 2.19010E+00 5.38481E-03 7.46605E-01 2.97869E-13-1.23025E-13
 -1      2902 2.38229E+01-5.35560E+00-1.07998E-01 5.05542E+00 9.79911E-14 3.09336E-13
 -1      2903 2.12064E+01-5.22981E+00 1.20360E-01 6.16238E+00 4.38538E-15 2.63229E-13
 -1      2904 1.99053E+01 2.99322E-02-1.14536E-05-1.64884E-01 8.97587E-14 8.71242E-14
 -1      2905 1.99150E+01 5.77104E-02 2.34031E-03-1.44718E-01 1.39851E-13 9.48291E-14
 -1      2906 2.00225E+01 1.00607E-01-1.81670E-03-1.13116E-01 1.36287E-13 2.83854E-14
 -1      2907 1.99897E+01 3.07515E-02-1.39965E-03-1.65241E-01 1.08735E-13 5.97293E-14
 -1      2908 2.02399E+01 2.47623E-01-5.87930E-04 9.59092E-01-7.49603E-14-9.75777E-14
 -1      2909 2.03153E+01 1.53156E-01 4.19009E-03 8.80510E-01-2.84876E-14 4.17749E-14
 -1      2910 2.04162E+01-5.22804E-02-4.48626E-03 8.81699E-01-2.47643E-14 1.53722E-13
 -1      2911 2.02350E+01 1.06393E-01-5.61781E-03 1.10027E+00-5.07981E-14-2.07780E-13
 -1      2912 1.98755E+01 2.69698E+00-5.98587E-03-6.35371E-01 4.71129E-14-4.02122E-13
 -1      2913 1.99183E+01 2.60729E+00-7.58543E-03-7.84495E-01 4.88840E-15-3.94566E-13
 -1      2914 1.77848E+01-4.76377E+00 2.65519E-03 7.09066E+00 5.15143E-14 3.92658E-13
 -1      2915 1.43886E+01-3.58570E+00 1.59708E-01 6.94303E+00-5.49005E-14 4.51125E-13
 -1      2916 1.99985E+01-4.48605E+00 1.15819E-01 6.05679E+00-1.29244E-13 1.94962E-13
 -1      2917 1.05564E+01-2.20349E+00 1.67497E-01-6.16907E+00 2.54102E-14 5.85643E-14
 -1      2918 1.36391E+01-3.50538E+00 2.20986E-02-7.22636E+00 9.33698E-14 1.84047E-13
 -1      2919 2.91290E+01 4.99489E+00-2.00917E-01-1.69740E+00 7.38437E-13-2.19408E-13
 -1      2920 2.97667E+01 3.36125E+00-1.13733E-01-1.73593E+00 5.86670E-13-3.19189E-15
 -1      2921 2.86490E+01 5.41356E+00-1.15846E-01 1.71557E+00 4.24022E-13 1.29896E-13
 -1      2922 2.85738E+01 6.54033E+00-2.15044E-01 9.43432E-01 6.33715E-13 2.00180E-13
 -1      2923 2.94849E+01 1.14856E+00-4.75298E-02 1.36623E+00 1.09940E-13 1.90237E-13
 -1      2924 2.90830E+01 3.13339E+00-2.19136E-01 1.80623E+00 1.37057E-13 5.25829E-14
 -1      2925 2.43141E+01-4.89938E+00 1.05771E-01-4.64601E+00-9.56041E-14 1.27398E-14
 -1      2926 2.62605E+01-4.50951E+00-1.24369E-01-3.32521E+00-1.28841E-13 1.85192E-13
 -1      2927 1.73926E+01-4.48259E+00 1.53113E-01-7.03675E+00 1.49381E-13 2.29414E-13
 -1      2928 2.09931E+01-5.19955E+00-6.24851E-02-6.35337E+00 1.50158E-14 3.90642E-14
 -1      2929 6.43197E+00-4.50918E-01 1.69128E-01-2.28682E+00-1.57561E-13-4.38954E-13
 -1      2930 7.86086E+00-1.03425E+00 1.00187E-01-4.53339E+00-4.92939E-14-2.25320E-13
 -1      2931 7.44674E+00-1.63348E-01 1.45619E-01 1.59260E+00-2.08021E-13-3.71925E-13
 -1      2932 6.40176E+00-1.40502E-01 1.90409E-01-5.47845E-01-1.41824E-13-4.30045E-13
 -1      2933 8.54073E+00 5.03673E-01 1.79378E-01-1.39237E+00-2.61394E-13-4.74648E-13
 -1      2934 2.43371E+01-5.34455E+00 1.06718E-01 4.10424E+00 4.17444E-14 1.04680E-13
 -1      2935 3.34631E+01 1.44145E+00 6.42890E-02-3.86946E+00-1.33282E-13-2.59182E-13
 -1      2936 2.00855E+01 2.52667E+00-2.10946E-03-1.45786E+00-1.76957E-13-3.91446E-13
 -1      2937 2.98303E+01 1.38362E+00-1.81643E-01-1.24446E+00 4.95423E-13-2.03032E-14
 -1      2938 2.94678E+01-5.21642E-01-2.69157E-02-5.69155E-01 5.60579E-13-3.20993E-14
 -1      2939 2.85983E+01 1.92872E+00-8.38496E-02-1.77124E+00 5.03375E-13-4.49640E-15
 -1      2940 1.99338E+01 2.53876E+00 3.41607E-03 4.63726E-03 1.63112E-13-3.10946E-13
 -1      2941 1.97949E+01 2.87008E+00-5.49858E-03-6.18820E-02 1.59747E-13-3.47178E-13
 -1      2942 1.98024E+01 2.85544E+00-5.53755E-03-2.16611E-01 1.29363E-13-3.81385E-13
 -1      2943 2.03236E+01 1.60388E+00 1.73256E-03 1.27134E+00 3.45068E-13 1.49718E-13
 -1      2944 9.50727E+00-1.04952E-01 2.05677E-01 2.76971E+00-1.81501E-13-1.83242E-13
 -1      2945 1.00572E+01 7.62967E-01 1.15575E-01 1.57431E+00-3.14325E-13-2.50328E-13
 -1      2946 1.17734E+01-2.30484E-01 6.17323E-02 3.63813E+00-1.99649E-13-7.65082E-14
 -1      2947 1.68941E+01-1.55338E+00 1.46276E-02 4.78810E+00-2.50008E-14-3.39735E-13
 -1      2948 2.22832E+01-4.85612E+00 1.24301E-01-4.66922E+00 5.10633E-13 9.77968E-14
 -1      2949 1.07120E+01-4.21642E-01 1.02999E-01 4.08203E+00 3.05617E-13 5.79037E-13
 -1      2950 8.44224E+00-5.94930E-01 1.79617E-01 3.62758E+00 3.21208E-13 4.89858E-13
 -1      2951 8.64511E+00 1.96640E-01 1.37699E-01 2.29178E+00 3.58946E-13 4.59105E-13
 -1      2952 2.61688E+01-5.48054E+00-1.77296E-03-3.24015E+00 2.06529E-13-2.84019E-13
 -1      2953 2.04717E+01-1.34828E-01-2.58342E-03 5.73445E-01-7.30836E-14-3.85151E-14
 -1      2954 1.72365E+01-1.59457E+00 8.15583E-02-5.06363E+00 4.05481E-13 6.97782E-13
 -1      2955 1.99728E+01 2.48961E+00-5.41984E-03-9.01894E-01-3.13256E-14-3.70530E-13
 -1      2956 2.00335E+01 2.35986E+00-6.80093E-03-1.03623E+00-8.95855E-14-3.72039E-13
 -1      2957 2.00736E+01 2.20513E+00 5.94802E-03-7.39798E-01-2.18403E-14-3.35861E-13
 -1      2958 1.39910E+01-2.48299E+00 1.38732E-01 6.14325E+00-1.50435E-14 5.02182E-13
 -1      2959 1.29075E+01-1.70590E+00 9.79841E-02-4.92723E+00 4.69888E-13 3.39284E-13
 -1      2960 7.52802E+00-2.47552E-01 2.04327E-01-1.56722E+00 1.90018E-13-4.15779E-13
 -1      2961 9.61773E+00 8.52172E-02 1.34361E-01-2.47044E+00 2.68056E-13-5.59552E-14
 -1      2962 8.12275E+00 3.79551E-01 1.37170E-01-1.18604E-01 3.28175E-13-8.91509E-14
 -1      2963 1.94244E+01 1.31787E+00-1.10354E-03-1.29666E+00-6.40795E-14 4.40762E-13
 -1      2964 1.92265E+01 1.43380E+00-9.53875E-03-1.13387E+00-1.42764E-13 4.11478E-13
 -1      2965 1.89048E+01 1.50711E+00 2.36491E-03-1.05947E+00-8.41043E-14 5.01851E-13
 -1      2966 1.93836E+01 1.32197E+00 9.37564E-03-1.45286E+00-8.38961E-14 6.42233E-13
 -1      2967 2.02170E+01 6.52873E-01-9.13028E-03 4.16678E-01 2.37750E-13 4.58462E-14
 -1      2968 2.01767E+01 6.13567E-01 1.64822E-04 4.43186E-01 2.26021E-13 1.32922E-13
 -1      2969 2.02094E+01 6.98635E-01 6.84048E-03 5.57190E-01 2.47605E-13 1.63264E-13
 -1      2970 1.96556E+01-4.38208E+00 8.65832E-02 5.16315E+00 6.28109E-14-1.59581E-13
 -1      2971 1.66237E+01-3.49156E+00 1.43205E-01-6.56949E+00-1.56819E-14 2.22329E-13
 -1      2972 2.27286E+01-4.79678E+00 4.94115E-02-5.07190E+00-6.58085E-14 8.57578E-14
 -1      2973 2.81300E+01-1.99824E+00-4.20099E-02-7.51787E-02 2.53478E-13-1.85615E-13
 -1      2974 2.68038E+01-3.68030E+00-2.36352E-03-1.77315E+00-1.20053E-13 1.57131E-13
 -1      2975 1.64581E+01-3.36880E+00 1.70438E-01 5.67041E+00 1.20057E-13-3.74617E-13
 -1      2976 1.51047E+01-2.13869E+00 1.35698E-01 5.15716E+00 4.72400E-14-3.14457E-13
 -1      2977 2.81967E+01-4.70376E-01-4.53053E-02 1.06051E+00 5.00017E-14 1.25094E-13
 -1      2978 2.03189E+01 1.39094E+00 9.56874E-03 1.02502E+00 3.16171E-13 1.22582E-13
 -1      2979 2.52640E+01-4.60945E+00 3.95163E-02 3.40907E+00-1.69788E-13 3.91701E-14
 -1      2980 2.77159E+01 3.73421E+00-9.86100E-02 1.86561E+00 2.80526E-13 2.16209E-13
 -1      2981 2.83077E+01 5.56756E+00-1.39029E-01-1.48365E+00 6.58751E-13-7.45237E-15
 -1      2982 2.73072E+01 4.29999E+00-9.91130E-02-1.78104E+00 5.89126E-13-8.78186E-14
 -1      2983 2.69963E+01 5.91216E+00-1.24156E-01-1.13728E+00 5.63272E-13-2.28983E-16
 -1      2984 1.98180E+01 2.81993E+00-5.67949E-03-3.51817E-01 1.10494E-13-3.75734E-13
 -1      2985 1.98421E+01 2.77164E+00-6.16098E-03-5.05442E-01 7.34195E-14-3.90310E-13
 -1      2986 1.99950E+01 2.39623E+00 4.34859E-03-5.07804E-01 5.14546E-14-3.71975E-13
 -1      2987 1.99486E+01 2.50461E+00 3.65761E-03-2.55757E-01 1.05804E-13-3.58176E-13
 -1      2988 2.73873E+01 6.32062E+00-1.41618E-01 5.31328E-01 6.03684E-13 1.81574E-13
 -1      2989 1.08670E+01-9.89743E-01 1.75741E-01-4.95704E+00-2.84356E-14-1.48187E-13
 -1      2990 2.01446E+01 2.17310E+00 5.29682E-04-1.20708E+00-1.42048E-13-3.74487E-13
 -1      2991 2.02327E+01 1.46992E+00-1.27823E-02 8.05693E-01 3.08558E-13 9.22317E-15
 -1      2992 2.01989E+01 1.66711E+00-1.79922E-03 7.47948E-01 2.95007E-13-4.85042E-14
 -1      2993 2.02580E+01 7.55207E-01 6.64563E-03 7.55579E-01 2.64958E-13 2.56381E-13
 -1      2994 2.02206E+01 4.19885E-01 3.93582E-03-1.18187E-01-6.00588E-14-1.78969E-13
 -1      2995 2.01802E+01 3.08509E-01-2.34397E-03-3.02288E-02-5.85407E-14-1.53071E-13
 -1      2996 2.01662E+01 2.26791E-01 3.25336E-03 3.03976E-02-7.64221E-14-1.23359E-13
 -1      2997 2.01364E+01 1.57549E-01-1.24259E-03 8.01421E-02-5.94671E-14-1.12527E-13
 -1      2998 2.02373E+01 3.27140E-01-9.72694E-04-2.29962E-02-5.38199E-14-1.21206E-13
 -1      2999 2.01197E+01 1.04732E-01 2.26080E-03 1.15805E-01-3.41351E-14-1.25878E-13
 -1      3000 2.00991E+01 6.07784E-02-5.69451E-04 1.42313E-01-1.64660E-14-9.12507E-14
 -1      3001 2.01967E+01 1.65267E-01-1.09174E-03 7.87553E-02-5.41007E-14-1.03343E-13
 -1      3002 2.00829E+01 2.78828E-02 1.46591E-03 1.60145E-01-2.76245E-14-9.82845E-14
 -1      3003 2.00699E+01 1.29172E-03-1.42878E-04 1.71284E-01-2.41913E-14-9.92656E-14
 -1      3004 2.01581E+01 6.12138E-02-1.00368E-03 1.36450E-01-3.14161E-14-1.42968E-13
 -1      3005 2.00555E+01-1.78642E-02 8.60941E-04 1.77287E-01-2.79698E-14-5.36880E-14
 -1      3006 2.00482E+01-3.24080E-02 1.26026E-04 1.78827E-01-3.50356E-14-5.15522E-14
 -1      3007 2.01245E+01-2.59840E-03-8.55937E-04 1.63517E-01-2.23017E-14-1.08609E-13
 -1      3008 2.00361E+01-4.20231E-02 4.22024E-04 1.77615E-01-4.25259E-14 4.99847E-15
 -1      3009 2.00330E+01-4.81763E-02 2.93131E-04 1.73755E-01-3.44774E-14 1.93263E-14
 -1      3010 2.00967E+01-3.82741E-02-6.99592E-04 1.70757E-01-9.84560E-15-8.08287E-14
 -1      3011 2.00231E+01-5.11265E-02 1.12308E-04 1.68757E-01-1.66455E-14 7.02223E-14
 -1      3012 2.00229E+01-5.13934E-02 3.97441E-04 1.62523E-01-2.43398E-15 5.78623E-14
 -1      3013 2.00744E+01-5.42315E-02-5.55519E-04 1.66376E-01-1.81748E-14-1.62763E-14
 -1      3014 2.00149E+01-4.96242E-02-1.04616E-04 1.56247E-01-4.60623E-14 9.48174E-14
 -1      3015 2.00168E+01-4.56714E-02 4.65524E-04 1.49827E-01-7.35130E-14 4.48038E-14
 -1      3016 2.00570E+01-5.62870E-02-4.30625E-04 1.56465E-01-6.38896E-15 3.29558E-14
 -1      3017 2.00104E+01-4.04367E-02-2.59699E-04 1.44110E-01-4.08295E-14 6.77280E-14
 -1      3018 2.00139E+01-3.32811E-02 5.41990E-04 1.39115E-01 1.20181E-14 1.04943E-13
 -1      3019 2.00436E+01-4.83433E-02-3.24129E-04 1.45494E-01-3.14583E-14 7.10004E-14
 -1      3020 2.00084E+01-2.48564E-02-3.87413E-04 1.35168E-01-1.82649E-14 5.69038E-14
 -1      3021 2.00132E+01-1.44812E-02 5.92130E-04 1.32888E-01 2.72844E-14 5.67002E-14
 -1      3022 2.00330E+01-3.23833E-02-2.54574E-04 1.36619E-01-2.23486E-14 8.43573E-14
 -1      3023 2.00084E+01-3.94509E-03-4.98722E-04 1.32316E-01 3.13721E-14 1.01319E-13
 -1      3024 2.00139E+01 8.56743E-03 6.27274E-04 1.33973E-01 1.14932E-14 1.21080E-13
 -1      3025 2.00247E+01-9.79277E-03-1.31494E-04 1.32798E-01 4.61384E-14 1.02055E-13
 -1      3026 2.00091E+01 2.16687E-02-6.21357E-04 1.37412E-01-1.15765E-14 1.76064E-13
 -1      3027 2.00153E+01 3.70611E-02 6.96111E-04 1.43880E-01-6.53579E-14 1.51751E-13
 -1      3028 2.00174E+01 1.82856E-02-2.85965E-05 1.36098E-01 5.62846E-14 1.90449E-13
 -1      3029 2.00095E+01 5.31881E-02-7.77484E-04 1.52228E-01-1.08833E-13 1.66661E-13
 -1      3030 2.00161E+01 7.21343E-02 7.76451E-04 1.64579E-01-9.73158E-14 1.91403E-13
 -1      3031 2.00095E+01 5.29423E-02 1.00661E-04 1.48166E-01-4.68607E-14 1.75950E-13
 -1      3032 2.00081E+01 9.21252E-02-9.90988E-04 1.78763E-01-1.05677E-13 1.34037E-13
 -1      3033 2.00147E+01 1.15699E-01 8.63888E-04 1.98221E-01-8.94951E-14 9.56240E-14
 -1      3034 1.99991E+01 9.56020E-02 2.81426E-04 1.70767E-01-1.23038E-13 8.29426E-14
 -1      3035 2.00026E+01 1.40799E-01-1.28997E-03 2.19247E-01-1.18725E-13 1.25139E-13
 -1      3036 2.00081E+01 1.70517E-01 9.45611E-04 2.47255E-01-1.60906E-13 1.31863E-13
 -1      3037 1.99833E+01 1.48548E-01 5.49956E-04 2.05702E-01-9.01214E-14 1.95871E-14
 -1      3038 1.99894E+01 2.02438E-01-1.70991E-03 2.76215E-01-2.04715E-13 1.95870E-13
 -1      3039 1.99922E+01 2.40314E-01 9.96600E-04 3.14482E-01-1.35652E-13 1.69938E-13
 -1      3040 1.99579E+01 2.14996E-01 9.58785E-04 2.54827E-01-1.55681E-13 1.34351E-13
 -1      3041 1.99627E+01 2.81276E-01-2.29843E-03 3.52518E-01-1.58031E-13 1.20435E-13
 -1      3042 1.99599E+01 3.29863E-01 9.82598E-04 4.03007E-01-1.68664E-13 8.54418E-14
 -1      3043 1.99166E+01 2.99180E-01 1.58453E-03 3.19971E-01-1.68276E-13 1.62390E-13
 -1      3044 1.99137E+01 3.82458E-01-3.16069E-03 4.51234E-01-1.74078E-13-2.55520E-14
 -1      3045 1.99010E+01 4.44843E-01 9.12980E-04 5.16086E-01-1.77946E-13-4.74796E-14
 -1      3046 1.98502E+01 4.06417E-01 2.55216E-03 4.02739E-01-2.39444E-13-9.24068E-15
 -1      3047 1.98257E+01 5.16213E-01-4.24667E-03 5.78492E-01-1.07209E-13-2.96496E-14
 -1      3048 1.97919E+01 5.99449E-01 6.00014E-04 6.64714E-01-4.52707E-14-5.12094E-14
 -1      3049 1.97410E+01 5.46010E-01 3.77547E-03 5.07183E-01-1.06961E-13-5.91550E-14
 -1      3050 1.96799E+01 6.85151E-01-5.87060E-03 7.36249E-01 5.62550E-14-2.41775E-14
 -1      3051 1.96180E+01 7.83768E-01-2.65877E-04 8.37225E-01 1.66709E-13 4.95057E-14
 -1      3052 1.95697E+01 7.22994E-01 6.15759E-03 6.30400E-01 7.03208E-14 2.25812E-15
 -1      3053 1.94503E+01 8.87751E-01-7.97946E-03 9.20622E-01 1.64697E-13-7.67711E-14
 -1      3054 1.93433E+01 1.00378E+00-1.31090E-03 1.04184E+00 1.19764E-13-1.16578E-13
 -1      3055 1.93117E+01 9.34313E-01 9.11377E-03 7.67897E-01 9.14105E-14 2.31879E-14
 -1      3056 1.90951E+01 1.12131E+00-1.10348E-02 1.13743E+00 1.48407E-13-1.82859E-13
 -1      3057 1.89237E+01 1.24622E+00-2.60536E-03 1.28075E+00 7.70655E-14-9.32921E-14
 -1      3058 1.89236E+01 1.18142E+00 1.32573E-02 9.19333E-01 1.03310E-13-5.82102E-14
 -1      3059 1.85620E+01 1.36148E+00-1.56157E-02 1.39118E+00 2.59534E-14-9.69829E-14
 -1      3060 1.83070E+01 1.47266E+00-2.96268E-03 1.56134E+00-1.01264E-14-1.02126E-13
 -1      3061 1.83511E+01 1.44736E+00 1.89265E-02 1.08310E+00 1.26765E-13-1.95066E-13
 -1      3062 1.77854E+01 1.54837E+00-2.19601E-02 1.69997E+00-2.76751E-14 8.33979E-15
 -1      3063 1.74390E+01 1.59260E+00 3.78121E-04 1.91251E+00-8.02338E-14 7.39521E-14
 -1      3064 1.75206E+01 1.69175E+00 2.77493E-02 1.26692E+00 8.85363E-14-1.77587E-13
 -1      3065 1.66978E+01 1.55559E+00-2.78148E-02 2.11196E+00-2.29756E-13 9.78965E-14
 -1      3066 1.62886E+01 1.44109E+00 1.85238E-02 2.40668E+00-1.46505E-13 9.84976E-15
 -1      3067 1.63310E+01 1.82304E+00 4.27461E-02 1.51358E+00-1.93894E-13-5.66591E-14
 -1      3068 1.60516E+01 2.33178E-01 4.09839E-02-3.85080E+00 1.58880E-13 3.59865E-13
 -1      3069 1.62491E+01 8.32717E-01-1.35431E-02-3.36909E+00 2.52313E-13 3.10418E-13
 -1      3070 1.71280E+01 1.16900E+00 2.11948E-02-2.98391E+00 2.67679E-13 1.34140E-13
 -1      3071 1.73842E+01 1.34126E+00-2.23345E-02-2.67938E+00-4.38664E-14-3.48970E-14
 -1      3072 1.54272E+01 1.34541E+00 5.49653E-02-2.69239E+00 1.67437E-13-3.75394E-14
 -1      3073 1.80442E+01 1.42742E+00 6.36388E-03-2.43055E+00-1.99499E-13 1.23281E-13
 -1      3074 1.82910E+01 1.42659E+00-1.74272E-02-2.19009E+00-1.98809E-13 2.07657E-13
 -1      3075 1.68938E+01 1.64420E+00 3.35634E-02-2.15235E+00-2.31651E-15 1.29242E-13
 -1      3076 1.87728E+01 1.40119E+00 1.69782E-03-2.01069E+00-1.74360E-13 3.10924E-13
 -1      3077 1.89670E+01 1.34888E+00-9.99506E-03-1.80625E+00-9.25115E-14 4.67068E-13
 -1      3078 1.79833E+01 1.60944E+00 1.74598E-02-1.80194E+00-8.11524E-14 5.39243E-13
 -1      3079 2.01394E+01 2.29266E-01-1.60792E-03-2.43444E-02 1.58715E-13-3.84670E-15
 -1      3080 2.01780E+01 3.14551E-01 4.50184E-03 4.52781E-02 1.78811E-13-1.39772E-14
 -1      3081 2.01890E+01 4.15976E-01-3.17083E-03 1.21327E-01 1.92102E-13-1.23714E-14
 -1      3082 2.02412E+01 5.42987E-01 6.12746E-03 2.34508E-01 2.01936E-13-1.47277E-14
 -1      3083 2.02441E+01 4.30689E-01-4.26284E-03 1.06595E-01 1.88136E-13-3.72740E-14
 -1      3084 2.00229E+01-3.87727E-02 2.20131E-04-1.80349E-01 9.32482E-15 8.40301E-15
 -1      3085 2.00269E+01-2.85133E-02 6.37400E-04-1.81595E-01 1.33561E-14 3.56879E-14
 -1      3086 2.00395E+01-1.43899E-02 6.84804E-06-1.79296E-01 4.56220E-14 4.99887E-14
 -1      3087 2.00487E+01 5.79192E-03 1.16844E-03-1.72776E-01 8.71732E-14 3.50188E-14
 -1      3088 2.00941E+01-1.95823E-02-7.99509E-04-1.72104E-01 4.38216E-14 2.93362E-14
 -1      3089 2.00061E+01-4.79747E-02 4.29270E-04-1.58744E-01 1.05948E-13-2.04371E-15
 -1      3090 2.00041E+01-4.93452E-02 5.09895E-07-1.65548E-01 8.41154E-14 3.06926E-15
 -1      3091 2.00034E+01-4.04274E-02 4.81534E-04-1.45749E-01 1.52404E-13-5.84806E-14
 -1      3092 1.99997E+01-4.51045E-02-1.75056E-04-1.52173E-01 1.45451E-13-2.07932E-14
 -1      3093 2.00385E+01-5.25354E-02-3.82482E-04-1.53909E-01 1.36673E-13-3.75580E-14
 -1      3094 2.00032E+01-2.79354E-02 5.21934E-04-1.35517E-01 6.61123E-14-5.99982E-14
 -1      3095 1.99984E+01-3.49312E-02-2.92682E-04-1.40242E-01 1.00997E-13-6.55795E-14
 -1      3096 2.00283E+01-4.27162E-02-2.90942E-04-1.42673E-01 1.16683E-13-4.85585E-14
 -1      3097 2.00052E+01-1.19655E-02 5.60376E-04-1.30122E-01 5.52883E-14-2.52648E-14
 -1      3098 1.99994E+01-2.05928E-02-3.71400E-04-1.32209E-01 9.37500E-14-1.56523E-14
 -1      3099 2.00210E+01-2.73647E-02-2.20668E-04-1.34486E-01 4.87812E-14 3.99014E-15
 -1      3100 2.00089E+01 6.39537E-03 6.02509E-04-1.31070E-01-4.18651E-14-2.49730E-14
 -1      3101 2.00022E+01-3.33901E-03-4.24359E-04-1.29849E-01 7.07311E-15-5.00099E-14
 -1      3102 2.00158E+01-8.12060E-03-1.69680E-04-1.31396E-01 4.51591E-14 6.86895E-14
 -1      3103 2.00145E+01 2.61633E-02 6.50109E-04-1.39432E-01 7.68000E-14-5.82133E-14
 -1      3104 2.00067E+01 1.58262E-02-4.57545E-04-1.34453E-01 2.11528E-14-3.89874E-14
 -1      3105 2.00124E+01 1.37543E-02-1.39537E-04-1.34929E-01 1.93457E-14 1.22510E-14
 -1      3106 2.00223E+01 4.61727E-02 7.01428E-04-1.55886E-01 9.45441E-15-5.51747E-14
 -1      3107 2.00131E+01 3.58658E-02-4.69779E-04-1.46917E-01 4.87433E-14-5.60161E-14
 -1      3108 2.00106E+01 3.70583E-02-1.33312E-04-1.46214E-01 3.88044E-14-3.27634E-14
 -1      3109 2.00332E+01 6.47590E-02 7.50235E-04-1.80647E-01-8.78499E-16 4.90566E-14
 -1      3110 2.00220E+01 5.54117E-02-4.51766E-04-1.67733E-01-4.49791E-14-3.60567E-14
 -1      3111 2.00106E+01 6.03038E-02-1.59828E-04-1.66022E-01-5.93464E-15-1.44043E-14
 -1      3112 2.00484E+01 7.94049E-02 7.84900E-04-2.13290E-01-6.07750E-14 9.08280E-14
 -1      3113 2.00345E+01 7.24284E-02-3.84510E-04-1.96865E-01-3.50118E-15 1.11056E-13
 -1      3114 2.00133E+01 8.13429E-02-2.33865E-04-1.94704E-01-3.24796E-14 1.15346E-13
 -1      3115 2.00705E+01 8.63723E-02 7.86781E-04-2.52427E-01 2.14948E-15 8.79364E-14
 -1      3116 2.00528E+01 8.38483E-02-2.37875E-04-2.33500E-01-2.36279E-14 8.02715E-14
 -1      3117 2.00202E+01 9.69484E-02-3.78273E-04-2.32009E-01-2.70295E-14 1.29039E-13
 -1      3118 2.01029E+01 8.03836E-02 7.27653E-04-2.95253E-01-5.73821E-14 2.89379E-14
 -1      3119 2.00798E+01 8.52181E-02 3.05885E-05-2.75656E-01 2.03064E-14 6.41278E-14
 -1      3120 2.00344E+01 1.02392E-01-6.24973E-04-2.76762E-01-5.81105E-16 1.17456E-13
 -1      3121 2.01506E+01 5.44869E-02 5.65971E-04-3.36926E-01-4.67477E-16 1.95435E-14
 -1      3122 2.01203E+01 7.04483E-02 4.74794E-04-3.19628E-01-5.14430E-14 1.13347E-14
 -1      3123 2.00605E+01 9.11026E-02-1.01374E-03-3.26380E-01 2.04764E-15 4.52115E-14
 -1      3124 2.02207E+01 3.57413E-04 2.42175E-04-3.69829E-01 6.92947E-15 1.05278E-13
 -1      3125 2.01808E+01 3.18554E-02 1.15447E-03-3.59268E-01 1.58661E-14 9.89867E-14
 -1      3126 2.01056E+01 5.45788E-02-1.58606E-03-3.76177E-01-2.36047E-14 6.11560E-14
 -1      3127 2.03217E+01-9.05553E-02-3.24231E-04-3.82777E-01 6.31090E-15 7.29736E-14
 -1      3128 2.02696E+01-3.91824E-02 2.12008E-03-3.85146E-01 8.74222E-15 8.39526E-14
 -1      3129 2.01792E+01-1.71198E-02-2.36972E-03-4.18454E-01 9.79757E-15 1.98715E-13
 -1      3130 2.04632E+01-2.24444E-01-1.22850E-03-3.60405E-01-5.01024E-14 3.32577E-14
 -1      3131 2.03965E+01-1.50457E-01 3.38215E-03-3.83716E-01-2.28134E-15 5.47730E-14
 -1      3132 2.02938E+01-1.33787E-01-3.34587E-03-4.41386E-01 3.85244E-14 1.42203E-13
 -1      3133 2.06529E+01-4.00437E-01-2.55653E-03-2.83255E-01 3.85814E-14 7.35109E-14
 -1      3134 2.05713E+01-3.05398E-01 4.85257E-03-3.36859E-01 1.82532E-14 2.53017E-14
 -1      3135 2.04635E+01-3.01650E-01-4.39337E-03-4.27907E-01-6.29741E-14 4.08904E-14
 -1      3136 2.08928E+01-6.03271E-01-4.29342E-03-1.29555E-01-1.10037E-13 1.08402E-13
 -1      3137 2.07994E+01-4.97152E-01 6.23733E-03-2.22570E-01-2.39707E-14 1.22468E-13
 -1      3138 2.07010E+01-5.17269E-01-5.22078E-03-3.55154E-01-3.95722E-14 8.42065E-14
 -1      3139 2.11717E+01-7.93957E-01-6.10300E-03 1.19328E-01-5.54852E-14 2.10100E-14
 -1      3140 2.10757E+01-7.00092E-01 6.93578E-03-1.84003E-02-5.85465E-14 4.59764E-14
 -1      3141 2.10114E+01-7.58099E-01-5.27325E-03-1.95833E-01 1.65367E-14 1.21859E-13
 -1      3142 2.14569E+01-9.01927E-01-6.94682E-03 4.67227E-01 3.28914E-14 4.50988E-14
 -1      3143 2.13754E+01-8.60671E-01 6.02861E-03 2.89746E-01 6.20977E-17 3.85397E-14
 -1      3144 2.13818E+01-9.71067E-01-3.71123E-03 7.55756E-02-2.67563E-14 1.23854E-13
 -1      3145 2.16904E+01-8.28955E-01-5.27874E-03 8.82070E-01-1.45089E-14 8.93574E-14
 -1      3146 2.16452E+01-8.93077E-01 2.35844E-03 6.89670E-01-2.44021E-14 4.83174E-14
 -1      3147 2.17684E+01-1.06288E+00 4.43925E-04 4.67297E-01-1.92965E-14 2.22112E-13
 -1      3148 2.17997E+01-4.82921E-01-8.55026E-06 1.27283E+00 1.09786E-13 4.29395E-14
 -1      3149 2.18088E+01-6.95915E-01-4.61341E-03 1.11705E+00 8.70489E-14 3.61517E-14
 -1      3150 2.20886E+01-9.12597E-01 6.43002E-03 9.40013E-01 1.43440E-14 1.82341E-13
 -1      3151 2.17337E+01 1.57237E-01 8.12640E-03 1.48748E+00 4.69213E-14 1.04298E-13
 -1      3152 2.17980E+01-2.01896E-01-1.30062E-02 1.44084E+00 8.30885E-14 6.76522E-14
 -1      3153 2.22416E+01-4.23179E-01 1.08377E-02 1.37660E+00 6.34570E-14 1.07756E-13
 -1      3154 2.15106E+01 9.60498E-01 1.40238E-02 1.35395E+00 5.65941E-14 6.46169E-14
 -1      3155 2.16031E+01 5.46421E-01-1.86998E-02 1.48199E+00 3.46142E-14 4.92950E-14
 -1      3156 2.21626E+01 4.01806E-01 1.09065E-02 1.58193E+00 2.35707E-14 1.31029E-13
 -1      3157 2.12648E+01 1.63281E+00 1.43500E-02 8.09101E-01-3.66892E-14-2.37505E-15
 -1      3158 2.13341E+01 1.32227E+00-1.56070E-02 1.10916E+00 5.79007E-15-1.50332E-14
 -1      3159 2.19066E+01 1.33739E+00 3.22947E-03 1.34969E+00 3.89151E-14 8.41412E-14
 -1      3160 2.11518E+01 1.83033E+00-7.52629E-04-3.53881E-02 4.88633E-14-4.75921E-15
 -1      3161 2.11471E+01 1.79774E+00-9.54357E-03 3.51247E-01 3.11383E-16-7.24676E-14
 -1      3162 2.16491E+01 2.02450E+00 2.98220E-03 6.54989E-01 5.00273E-14 5.20504E-14
 -1      3163 2.12727E+01 1.46344E+00-1.25121E-02-8.33769E-01 6.45482E-14-9.35059E-14
 -1      3164 2.12171E+01 1.71919E+00 1.14610E-02-4.99195E-01 1.31335E-13-4.16308E-14
 -1      3165 2.16365E+01 2.08709E+00-3.72601E-03-3.04944E-01 1.35685E-13-2.14293E-13
 -1      3166 2.15347E+01 7.12892E-01-1.93998E-02-1.30199E+00-1.18426E-14-1.67116E-13
 -1      3167 2.14492E+01 1.12392E+00 1.56647E-02-1.13367E+00-4.54879E-14-2.01536E-13
 -1      3168 2.18433E+01 1.51832E+00-2.86500E-04-1.09724E+00 8.69569E-14-3.03759E-13
 -1      3169 2.17620E+01-8.14985E-02-1.49956E-02-1.33993E+00-4.31413E-14-3.03102E-13
 -1      3170 2.16929E+01 3.09182E-01 1.10717E-02-1.35662E+00 4.36043E-14-1.43270E-13
 -1      3171 2.21273E+01 5.88712E-01 8.64038E-03-1.43985E+00-1.25789E-14-3.38986E-13
 -1      3172 2.18181E+01-6.51086E-01-6.52797E-03-1.04845E+00-5.05827E-14-2.22172E-13
 -1      3173 2.18009E+01-3.98737E-01 2.57402E-03-1.19401E+00-8.59212E-14-2.25305E-13
 -1      3174 2.22698E+01-2.99319E-01 1.30543E-02-1.30676E+00-1.20601E-13-3.09335E-13
 -1      3175 2.16853E+01-9.09084E-01 9.29172E-04-6.12154E-01-9.57503E-14 1.12906E-13
 -1      3176 2.17261E+01-8.17456E-01-4.18642E-03-8.09887E-01-9.28808E-14 1.54999E-14
 -1      3177 2.21739E+01-8.80436E-01 8.38879E-03-8.84334E-01-1.96074E-13-2.94895E-14
 -1      3178 2.14223E+01-9.01268E-01 5.14546E-03-1.83653E-01-8.85782E-14 1.62850E-13
 -1      3179 2.15070E+01-9.34848E-01-7.04595E-03-3.72619E-01 8.69075E-15 8.63263E-14
 -1      3180 2.18844E+01-1.09398E+00 1.70544E-03-3.86322E-01-8.92184E-14 2.16375E-13
 -1      3181 2.11052E+01-7.27802E-01 4.22070E-03 1.50167E-01 1.50417E-13 1.91452E-13
 -1      3182 2.12141E+01-8.29416E-01-6.63900E-03 7.38185E-03-1.94672E-14 1.83894E-13
 -1      3183 2.15041E+01-1.01860E+00-2.01507E-03 4.45666E-02-7.17586E-14 4.33362E-14
 -1      3184 1.92619E+01 6.32448E-01-1.25827E-02 1.27300E+00 2.06108E-14-3.16272E-14
 -1      3185 1.95679E+01 4.72499E-01 1.37557E-02 1.36552E+00-1.71392E-14-8.74461E-14
 -1      3186 1.62188E+01-2.65997E+00 4.65650E-03 5.93624E+00-1.20945E-13-1.72293E-14
 -1      3187 1.36371E+01-1.27361E+00 1.07146E-01 5.16811E+00 1.69934E-14 3.56867E-13
 -1      3188 1.40350E+01-1.03753E+00 7.85455E-02-4.58171E+00 3.54876E-13 4.01665E-13
 -1      3189 1.50343E+01-1.84188E-01 9.40424E-03-4.12771E+00 1.62613E-13 3.96023E-13
 -1      3190 1.36813E+01 8.30812E-01 1.48183E-01-3.19275E+00 4.06168E-14 8.35373E-14
 -1      3191 1.14350E+01 6.53243E-02 2.43098E-01-3.62372E+00 1.85220E-13 5.63716E-14
 -1      3192 1.98400E+01 2.37524E-01-6.99708E-03 1.36838E+00-9.00029E-14-3.82473E-13
 -1      3193 2.00875E+01 1.00392E-01 1.06969E-02 1.34464E+00-2.23090E-14-3.67996E-13
 -1      3194 1.96661E+01 1.37883E-01-8.21613E-03 1.53948E+00-9.83027E-14-2.79843E-13
 -1      3195 1.83064E+01 1.41914E+00-1.22211E-02 2.20430E-01 6.93150E-14-3.23039E-13
 -1      3196 1.84665E+01 1.31797E+00 7.62069E-03 5.58538E-01 1.91696E-14-1.04355E-13
 -1      3197 1.82971E+01 1.58381E+00-6.83545E-03-6.05534E-01 1.33551E-13 9.88607E-14
 -1      3198 1.82514E+01 1.56474E+00-6.13030E-04-2.23482E-01 1.89061E-13-1.36070E-13
 -1      3199 1.79665E+01 1.50253E+00 1.16052E-02 9.06032E-02 1.07845E-13-2.77055E-13
 -1      3200 2.02863E+01 9.30886E-01-7.90301E-03 7.81804E-01 2.75249E-13 1.31051E-13
 -1      3201 2.06135E+01-2.71923E-01 1.14155E-03 7.55395E-01 1.65636E-13 1.71659E-13
 -1      3202 2.06249E+01-2.93901E-01 4.06786E-03 5.57025E-01-2.91711E-14 1.00837E-13
 -1      3203 2.07289E+01-4.33507E-01-4.36299E-03 5.10940E-01 4.06902E-14 2.58071E-13
 -1      3204 2.58270E+01 5.53528E+00-9.16686E-02 7.95298E-01 5.18169E-13 2.44499E-13
 -1      3205 2.62259E+01 5.97525E+00-1.42463E-01-2.11877E-01 5.48950E-13 1.25515E-13
 -1      3206 2.72184E+01-1.31260E+00 5.14664E-02 8.78417E-01-2.82621E-14 7.38090E-14
 -1      3207 2.70542E+01 2.73394E-01-1.54935E-01 1.69803E+00 1.25983E-13 2.14360E-13
 -1      3208 2.57183E+01-3.97859E+00 1.02142E-01-2.25591E+00-1.68763E-13 2.20587E-13
 -1      3209 2.64607E+01-3.25107E+00-1.47217E-01-7.25962E-01-1.58860E-13 1.42747E-13
 -1      3210 1.86895E+01 1.06106E+00-1.53692E-02 8.87994E-01-8.40669E-15 9.40226E-14
 -1      3211 1.89701E+01 9.14709E-01 1.30393E-02 1.11057E+00-5.22347E-15 1.02052E-13
 -1      3212 1.89691E+01 6.15192E-01-3.87397E-03 1.39145E+00 9.53408E-14 4.82522E-14
 -1      3213 1.83264E+01 1.11997E+00 4.17715E-03 8.96730E-01-2.46413E-14 2.89278E-14
 -1      3214 2.00123E+01-4.84584E-02 3.50165E-04-1.71619E-01 3.94694E-14 9.82768E-15
 -1      3215 2.00127E+01-4.50734E-02 2.59879E-04-1.76950E-01 2.69612E-14-1.75681E-15
 -1      3216 2.00705E+01-4.51527E-02-6.38945E-04-1.73236E-01 2.17833E-14-5.49613E-15
 -1      3217 2.00522E+01-5.44848E-02-4.98391E-04-1.65385E-01 6.13401E-14-6.58695E-14
 -1      3218 2.02668E+01 7.08284E-01 3.13779E-03-3.43311E-01-8.60909E-14-2.21568E-13
 -1      3219 2.02262E+01 5.47681E-01-3.46313E-03-2.12096E-01-7.78236E-14-2.23020E-13
 -1      3220 2.02723E+01 5.72344E-01-3.40795E-04-1.84020E-01-4.08680E-14-1.70814E-13
 -1      3221 2.55479E+01-4.16558E+00-7.18072E-02 2.17277E+00-2.93337E-13-2.61772E-13
 -1      3222 2.37548E+01-4.55107E+00 7.29217E-02 3.94631E+00-2.57058E-13-9.89625E-14
 -1      3223 2.17489E+01-4.60805E+00-5.55501E-02 5.09861E+00-2.52437E-13-4.19838E-14
 -1      3224 1.92594E+01-3.71030E+00 9.54073E-02 5.69791E+00-2.19026E-13-1.16539E-14
 -1      3225 2.28794E+01-4.08477E+00 2.60358E-02 3.81880E+00-3.53693E-13-1.26691E-13
 -1      3226 1.56809E+01-2.54120E+00 1.11549E-01-6.12045E+00-9.95454E-14 2.83815E-13
 -1      3227 1.85780E+01-3.90373E+00-3.39900E-02-6.16540E+00-6.25888E-14 1.10925E-13
 -1      3228 2.00452E+01 2.16058E+00-4.65663E-03 2.92917E-01 2.09499E-13-2.38616E-13
 -1      3229 2.00324E+01 2.20007E+00-3.31766E-03 1.71207E-01 1.78151E-13-2.73355E-13
 -1      3230 1.09321E+01 1.41838E-01 1.28412E-01-3.76558E+00-1.36530E-13-2.17895E-13
 -1      3231 1.29841E+01-1.19677E+00 2.94409E-02-5.42632E+00-8.58688E-14 1.42525E-13
 -1      3232 1.46049E+01-5.83720E-01 1.66602E-01 4.37919E+00-7.63938E-14-2.26007E-13
 -1      3233 2.76363E+01-9.79610E-01-1.07907E-01-1.07295E+00 2.88228E-13-1.57915E-13
 -1      3234 2.69949E+01-2.69598E+00-1.00838E-02 2.53926E-01-3.82472E-14-2.42924E-13
 -1      3235 2.69012E+01 2.39447E+00-3.42099E-02 2.14108E+00 1.05610E-13 3.38680E-13
 -1      3236 2.61295E+01 4.08335E+00-1.30745E-01 1.82737E+00 2.17645E-13 2.78541E-13
 -1      3237 2.01971E+01 1.89095E+00 1.02816E-03-1.00733E+00-1.17509E-13-3.29958E-13
 -1      3238 9.41380E+00 1.00294E+00 8.87284E-02-5.12587E-01-2.51942E-13-5.12271E-13
 -1      3239 9.49215E+00 6.73128E-01 7.29529E-02-2.25717E+00-2.25001E-13-5.04069E-13
 -1      3240 2.02781E+01 1.26481E+00 5.55270E-03 8.03307E-01 2.77692E-13 5.19975E-14
 -1      3241 2.13960E+01-4.28234E+00 1.24907E-01-5.27168E+00-5.01404E-14 1.29753E-13
 -1      3242 2.36169E+01-4.65902E+00-9.86442E-02-3.99234E+00-1.38028E-13 2.70526E-13
 -1      3243 2.73557E+01 2.07687E+00-1.10973E-01-1.98348E+00 4.49848E-13-5.99659E-14
 -1      3244 2.77225E+01 5.10867E-01-4.07207E-02-1.72563E+00 3.54237E-13-4.78367E-14
 -1      3245 2.68171E+01-6.24597E-01-4.17303E-02-1.39169E+00 1.50411E-13-7.84824E-14
 -1      3246 1.39178E+01 2.19183E-01 4.18515E-02 3.54637E+00-2.06862E-13-7.62723E-14
 -1      3247 2.02964E+01 1.10400E+00 1.35144E-02 6.18242E-01 2.57373E-13 2.65599E-14
 -1      3248 2.02527E+01 8.71546E-01-1.23296E-03 4.51904E-01 2.45887E-13-2.67538E-15
 -1      3249 2.03208E+01-3.60513E+00 6.92337E-02-5.09718E+00-9.24053E-14 2.01776E-13
 -1      3250 1.17537E+01 1.16136E+00 5.77624E-02 1.71106E+00-2.64404E-13-2.05912E-13
 -1      3251 1.04801E+01 1.20681E+00 1.47671E-01 5.96334E-01-2.77350E-13-2.67467E-13
 -1      3252 1.10819E+01 1.35283E+00 7.86120E-03-1.95681E-01-1.53570E-13-4.60396E-13
 -1      3253 2.01592E+01 1.79735E+00-8.32937E-03 6.85897E-01 2.89359E-13-9.77320E-14
 -1      3254 2.01255E+01 1.93065E+00-2.44331E-03 5.90059E-01 2.62129E-13-1.38416E-13
 -1      3255 2.02584E+01 1.46112E+00 9.08078E-03 5.81242E-01 2.64342E-13-5.89596E-14
 -1      3256 1.52231E+01 1.15440E+00-1.78594E-02 2.76607E+00-1.03647E-13 3.25191E-14
 -1      3257 1.47918E+01 6.08821E-01 4.78783E-02 3.24568E+00-1.43394E-13-3.47986E-15
 -1      3258 1.18296E+01 6.56006E-01 1.23027E-01-2.87698E+00-2.24230E-13-3.95760E-13
 -1      3259 1.30539E+01-6.23821E-01 1.10087E-01 4.59011E+00 7.32019E-14 5.36154E-13
 -1      3260 1.25398E+01 8.63825E-02 6.31256E-02 3.59916E+00 1.60039E-13 4.49467E-13
 -1      3261 1.52074E+01-8.18665E-01 2.93388E-02 4.40641E+00-6.00388E-15 4.59494E-14
 -1      3262 2.01229E+01 1.62841E-01 2.91213E-03-7.45875E-02 1.28438E-13 5.47105E-15
 -1      3263 2.02002E+01 2.41771E-01-1.60359E-03-2.87339E-02 1.35801E-13-1.56788E-14
 -1      3264 2.00969E+01 1.07475E-01-8.78163E-04-1.13749E-01 1.08762E-13 2.33089E-14
 -1      3265 1.91774E+01 1.33197E+00 4.43852E-03-1.71313E+00 2.04774E-14 6.11408E-13
 -1      3266 1.92144E+01 1.32868E+00-1.97792E-03-1.54160E+00 6.92439E-14 6.91589E-13
 -1      3267 1.89468E+01 1.45386E+00 1.17350E-03-1.37924E+00-2.73002E-14 7.30046E-13
 -1      3268 1.86095E+01 1.51789E+00 7.68421E-03-1.55417E+00 6.37204E-14 7.87752E-13
 -1      3269 2.02786E+01-4.66271E-02-1.82689E-03 1.23694E+00-1.48562E-14-2.26155E-13
 -1      3270 2.04301E+01-1.39900E-01 6.74720E-03 1.13847E+00-1.48261E-13-1.02632E-13
 -1      3271 2.02325E+01-2.07614E-01-8.61150E-03 1.40859E+00-8.24770E-14-2.17878E-13
 -1      3272 2.02742E+01 8.97687E-01-2.94718E-03 4.02876E-01 2.40559E-13-3.08502E-14
 -1      3273 2.02568E+01 8.87080E-01-4.34103E-03-4.59949E-01-9.88219E-14-2.36494E-13
 -1      3274 2.02882E+01 9.19025E-01 2.01147E-03-4.02524E-01-8.02422E-14-1.97531E-13
 -1      3275 2.02862E+01 1.09606E+00-8.55351E-04-6.27474E-01-1.02922E-13-2.59332E-13
 -1      3276 2.01239E+01 2.92746E-02-9.75496E-04-1.54619E-01 1.15414E-13 1.42845E-14
 -1      3277 2.00637E+01 3.12241E-02-3.31738E-04-1.60654E-01 1.22033E-13 4.76273E-14
 -1      3278 2.00800E+01 6.57766E-02 1.90523E-03-1.41249E-01 1.24701E-13 5.62523E-14
 -1      3279 2.08695E+01-5.43537E-01 3.57241E-03 4.08331E-01 5.90594E-14 1.18915E-13
 -1      3280 2.09793E+01-6.68580E-01-4.89991E-03 3.09719E-01 1.95912E-13 2.10914E-13
 -1      3281 2.11896E+01-8.31268E-01 2.66051E-03 3.87353E-01-6.01892E-14-4.84231E-14
 -1      3282 2.09149E+01-5.99819E-01 3.07108E-03 6.50119E-01 1.77542E-13 3.35108E-13
 -1      3283 1.85739E+01-2.71621E+00 6.44609E-02 5.09277E+00-1.66984E-13-1.00094E-14
 -1      3284 2.56271E+01 5.17538E+00-9.31080E-02-6.73269E-01 5.05346E-13 1.54649E-13
 -1      3285 2.05169E+01-2.04785E-01 1.08516E-03 1.01715E+00-8.75110E-14-7.66622E-14
 -1      3286 2.05858E+01-2.54268E-01 4.56492E-03 8.86333E-01 1.31026E-13-9.25729E-14
 -1      3287 2.07162E+01-4.62809E-01-6.32843E-03 8.91007E-01 1.19539E-13-5.94111E-14
 -1      3288 2.05662E+01-3.91666E-01-7.15058E-03 1.15711E+00-3.95850E-14-1.54486E-13
 -1      3289 2.41918E+01-4.00603E+00 6.10360E-03-2.84537E+00-1.20872E-13 3.20263E-13
 -1      3290 2.61547E+01-2.22648E+00-2.24678E-02 2.03704E-01-1.22820E-13 5.33254E-14
 -1      3291 9.24787E+00 7.06723E-01 1.65670E-01 1.03047E+00 2.91591E-13 1.54946E-13
 -1      3292 1.02568E+01 1.01046E+00 7.54961E-02-1.93672E-01 3.35635E-13-2.04850E-13
 -1      3293 1.07266E+01 7.98656E-01 7.12702E-02 1.83762E+00 1.93205E-13 3.48582E-13
 -1      3294 2.00913E+01 2.02217E+00-6.54164E-03 5.03747E-01 2.54979E-13-1.78822E-13
 -1      3295 2.00674E+01 2.10691E+00-2.53941E-03 3.89812E-01 2.27460E-13-2.15319E-13
 -1      3296 2.01608E+01 1.85196E+00 5.91344E-03 2.91969E-01 1.93865E-13-2.14006E-13
 -1      3297 2.02060E+01 1.69401E+00 6.98545E-03 4.57673E-01 2.40991E-13-1.42822E-13
 -1      3298 2.02177E+01 1.56826E+00-1.92132E-03-8.07992E-01-1.05766E-13-3.06827E-13
 -1      3299 1.09090E+01 5.10697E-01 7.23791E-02-2.46032E+00 2.45165E-13-8.37386E-14
 -1      3300 2.01210E+01 1.94022E+00-2.39095E-03-5.84158E-01 1.16617E-15-3.07671E-13
 -1      3301 2.01571E+01 1.80877E+00-7.38741E-03-6.82930E-01-3.88985E-14-2.97869E-13
 -1      3302 2.53179E+01 4.45433E+00-9.14501E-02 1.39994E+00 4.05509E-13 3.62977E-13
 -1      3303 2.43164E+01 4.53751E+00-3.75843E-02 7.67533E-01 4.20032E-13 4.48983E-13
 -1      3304 2.46889E+01 3.23411E+00-4.20847E-02 1.64326E+00 2.93880E-13 2.81291E-13
 -1      3305 2.67848E+01 2.82768E+00-9.92577E-02-2.05582E+00 4.98240E-13-5.30617E-14
 -1      3306 2.61044E+01 1.53928E+00-3.01040E-02-1.96696E+00 3.59754E-13 2.95614E-14
 -1      3307 2.58668E+01 3.60543E+00-7.53594E-02-1.86826E+00 5.25156E-13 9.49935E-14
 -1      3308 1.87320E+01 1.51800E+00-2.34234E-03-1.12886E+00-1.04060E-14 4.20558E-13
 -1      3309 2.60154E+01 1.06594E+00-3.90668E-02 1.93535E+00 9.88307E-14 2.66526E-13
 -1      3310 2.62005E+01-3.52341E+00 1.05960E-03 9.98925E-01-3.25806E-13-1.43462E-13
 -1      3311 2.47557E+01-3.66509E+00-1.92919E-02 1.78529E+00-2.57403E-13-1.67121E-13
 -1      3312 2.59507E+01-2.54106E+00-4.55402E-02-1.00749E-01-1.48296E-13-1.97339E-13
 -1      3313 1.53954E+01-1.46410E+00 9.33743E-02-5.15905E+00-1.64632E-13 2.23405E-13
 -1      3314 2.01395E+01 1.92252E+00 4.92566E-03 1.02175E-01 1.62226E-13-2.61037E-13
 -1      3315 2.00256E+01 2.21846E+00-3.66994E-03 6.61928E-02 1.69336E-13-2.72118E-13
 -1      3316 2.00253E+01 2.21910E+00-3.64028E-03-5.78912E-02 1.29692E-13-2.94825E-13
 -1      3317 1.46174E+01 1.64414E+00 6.35742E-02 1.91671E+00-1.55989E-13-6.98998E-14
 -1      3318 2.00634E+01 2.11115E+00-3.06673E-03-3.83766E-01 7.19030E-14-3.43269E-13
 -1      3319 2.00877E+01 2.03327E+00-5.28691E-03-4.98152E-01 2.87972E-14-3.40838E-13
 -1      3320 2.01994E+01 1.70311E+00 5.33535E-03-4.54299E-01 8.89122E-15-2.86472E-13
 -1      3321 1.83680E+01 1.55365E+00-9.02435E-03-1.24520E+00 1.28930E-13 5.10397E-13
 -1      3322 1.83780E+01 1.59586E+00 1.24354E-03-9.22527E-01 1.08602E-13 1.69849E-13
 -1      3323 1.79492E+01 1.63366E+00 5.74027E-03-7.05001E-01 2.08033E-13 1.49305E-13
 -1      3324 1.81859E+01 1.58999E+00-2.82608E-03-1.33574E+00 1.23157E-13 4.60826E-13
 -1      3325 2.00982E+01-2.97434E+00-1.52349E-02 4.47515E+00-1.74609E-13-1.18586E-13
 -1      3326 1.78114E+01-1.79136E+00 5.27461E-02 4.58422E+00-1.53107E-14-6.72171E-14
 -1      3327 2.03125E+01 7.26718E-01 1.33166E-03-2.36290E-01-4.25968E-14-1.79352E-13
 -1      3328 2.02973E+01 5.66260E-01-2.43355E-03-1.37995E-01-3.07553E-14-1.67723E-13
 -1      3329 2.02665E+01 2.34126E-01 1.98042E-03 4.22021E-02-6.66969E-14-1.01816E-13
 -1      3330 2.02426E+01 1.60167E-01-1.20602E-03 8.28161E-02-6.44446E-14-1.08448E-13
 -1      3331 2.02276E+01 1.02439E-01 1.58324E-03 1.08729E-01-6.22905E-14-1.10277E-13
 -1      3332 2.02063E+01 5.49793E-02-6.17967E-04 1.30692E-01-4.11726E-14-1.13795E-13
 -1      3333 2.02841E+01 1.57846E-01-5.00490E-04 7.90681E-02-6.66331E-14-9.75829E-14
 -1      3334 2.01887E+01 1.91565E-02 1.10463E-03 1.43268E-01-1.75493E-14-1.32005E-13
 -1      3335 2.01712E+01-9.29915E-03-1.82354E-04 1.52597E-01 6.49411E-15-1.34174E-13
 -1      3336 2.02461E+01 5.02580E-02-5.96184E-04 1.20781E-01-2.29318E-14-1.23227E-13
 -1      3337 2.01533E+01-2.96432E-02 6.91624E-04 1.56283E-01-2.63521E-15-1.27924E-13
 -1      3338 2.01395E+01-4.45658E-02 1.08141E-04 1.57693E-01-4.71975E-15-8.89607E-14
 -1      3339 2.02076E+01-1.51863E-02-6.20836E-04 1.39773E-01 4.22668E-15-1.22047E-13
 -1      3340 2.01225E+01-5.39521E-02 3.71449E-04 1.56075E-01 6.50973E-15-5.43094E-14
 -1      3341 2.01119E+01-5.92781E-02 2.92608E-04 1.53114E-01 2.59503E-14-1.21141E-14
 -1      3342 2.01712E+01-5.02810E-02-5.84894E-04 1.44153E-01 2.41699E-14-5.59250E-14
 -1      3343 2.00963E+01-6.08851E-02 1.26812E-04 1.48909E-01 1.79091E-14 2.21506E-14
 -1      3344 2.00884E+01-5.93578E-02 4.03929E-04 1.44198E-01 1.11834E-15 7.62951E-14
 -1      3345 2.01383E+01-6.37157E-02-5.13520E-04 1.40227E-01 3.23703E-14-2.17406E-14
 -1      3346 2.00744E+01-5.53455E-02-6.17291E-05 1.39419E-01-3.86939E-14 4.72141E-14
 -1      3347 2.00687E+01-4.87888E-02 4.86626E-04 1.34896E-01-2.79500E-14 4.38912E-14
 -1      3348 2.01092E+01-6.16106E-02-4.22328E-04 1.32759E-01-1.88548E-14 3.03007E-14
 -1      3349 2.00554E+01-4.00643E-02-2.24629E-04 1.30852E-01-9.67618E-15 5.76293E-14
 -1      3350 2.00509E+01-2.89296E-02 5.23891E-04 1.27918E-01 1.06470E-14 5.09028E-14
 -1      3351 2.00830E+01-4.75899E-02-3.31054E-04 1.25119E-01-1.08477E-14-1.38505E-14
 -1      3352 2.00389E+01-1.70277E-02-3.61465E-04 1.26216E-01 3.52616E-14 5.72187E-14
 -1      3353 2.00357E+01-2.94365E-03 5.26342E-04 1.26254E-01 8.05743E-14 1.08203E-13
 -1      3354 2.00593E+01-2.42717E-02-1.91933E-04 1.20312E-01 3.79450E-14 2.74371E-17
 -1      3355 2.00237E+01 1.22029E-02-5.02661E-04 1.27505E-01 7.56084E-14 8.59439E-14
 -1      3356 2.00207E+01 2.97166E-02 5.33716E-04 1.31298E-01 5.98006E-14 1.15763E-13
 -1      3357 2.00373E+01 6.27964E-03-5.00912E-05 1.20370E-01 6.68920E-14 2.28051E-14
 -1      3358 2.00075E+01 4.83553E-02-6.63124E-04 1.36197E-01-7.94257E-15 4.10480E-14
 -1      3359 2.00039E+01 6.97456E-02 5.25686E-04 1.44594E-01-1.11575E-13 7.01806E-14
 -1      3360 2.00145E+01 4.44181E-02 1.24267E-04 1.26668E-01-3.91307E-14-4.39905E-14
 -1      3361 1.99881E+01 9.25343E-02-8.61023E-04 1.53728E-01-1.85376E-13 8.04015E-14
 -1      3362 1.99826E+01 1.18670E-01 4.92077E-04 1.67541E-01-1.32703E-13 2.91088E-14
 -1      3363 1.99884E+01 9.09986E-02 3.50795E-04 1.40416E-01-1.21464E-13-7.20815E-14
 -1      3364 1.99620E+01 1.46682E-01-1.11500E-03 1.81381E-01-1.11550E-13 1.04390E-14
 -1      3365 1.99530E+01 1.78852E-01 4.11519E-04 2.01401E-01-8.87803E-14-4.52806E-14
 -1      3366 1.99554E+01 1.47741E-01 6.58932E-04 1.62526E-01-1.56713E-13-3.90055E-14
 -1      3367 1.99248E+01 2.13588E-01-1.44644E-03 2.20251E-01-6.01126E-14-1.01600E-13
 -1      3368 1.99094E+01 2.53510E-01 2.47514E-04 2.47207E-01-1.14504E-13 1.13681E-14
 -1      3369 1.99110E+01 2.17201E-01 1.09106E-03 1.93525E-01-8.55476E-14-1.40402E-13
 -1      3370 1.98698E+01 2.96912E-01-1.88251E-03 2.71079E-01-1.83004E-13 4.00578E-14
 -1      3371 1.98441E+01 3.46737E-01-5.03754E-05 3.05532E-01-2.13119E-13-6.72101E-15
 -1      3372 1.98485E+01 3.02743E-01 1.70826E-03 2.33338E-01-1.21257E-13-2.06194E-13
 -1      3373 1.97874E+01 4.01035E-01-2.49836E-03 3.33952E-01-2.82229E-13 5.60866E-14
 -1      3374 1.97458E+01 4.63287E-01-5.48588E-04 3.76140E-01-2.17484E-13 2.88701E-14
 -1      3375 1.97588E+01 4.08519E-01 2.61303E-03 2.80909E-01-1.87808E-13-5.49874E-14
 -1      3376 1.96598E+01 5.35168E-01-3.19961E-03 4.09437E-01-1.14577E-13-1.24588E-14
 -1      3377 1.95882E+01 6.16413E-01-1.38975E-03 4.61588E-01-1.91477E-14 2.95634E-14
 -1      3378 1.96245E+01 5.42399E-01 3.77967E-03 3.35095E-01-1.59638E-13 1.47643E-13
 -1      3379 1.94685E+01 7.01270E-01-4.28622E-03 4.94068E-01 6.99569E-14 4.09661E-14
 -1      3380 1.93613E+01 7.96050E-01-2.84698E-03 5.49595E-01 1.11648E-13 1.23373E-13
 -1      3381 1.94289E+01 7.07191E-01 5.77978E-03 3.88697E-01 1.25847E-14 1.53700E-13
 -1      3382 1.91906E+01 8.98362E-01-5.61103E-03 5.78771E-01 8.95256E-14-5.01308E-16
 -1      3383 1.90267E+01 1.00975E+00-4.86672E-03 6.37337E-01 2.08566E-14-3.64631E-14
 -1      3384 1.91518E+01 9.00051E-01 8.29871E-03 4.32243E-01 1.59544E-14-1.43442E-14
 -1      3385 1.87831E+01 1.12766E+00-7.61190E-03 6.57512E-01 4.83689E-14 5.77157E-14
 -1      3386 1.85381E+01 1.25150E+00-7.67447E-03 7.15437E-01 1.57154E-13 4.73504E-14
 -1      3387 1.87541E+01 1.12370E+00 1.18851E-02 4.54174E-01 7.33503E-14-3.42622E-14
 -1      3388 1.81915E+01 1.37698E+00-1.07972E-02 7.20221E-01 1.54820E-13-1.42276E-14
 -1      3389 1.78328E+01 1.50081E+00-1.15089E-02 7.74770E-01 1.40018E-13-5.65051E-14
 -1      3390 1.81867E+01 1.36895E+00 1.69560E-02 4.37809E-01 1.15014E-13 4.38824E-14
 -1      3391 1.73402E+01 1.61321E+00-1.62830E-02 7.58291E-01 7.52445E-14-1.12065E-13
 -1      3392 1.68182E+01 1.71380E+00-1.66436E-02 8.12231E-01 8.96375E-15-1.28975E-13
 -1      3393 1.73816E+01 1.61185E+00 2.44877E-02 3.65618E-01 6.50001E-14-4.08944E-14
 -1      3394 1.61148E+01 1.77408E+00-2.31042E-02 7.70018E-01-2.02934E-13-2.12607E-13
 -1      3395 1.53790E+01 1.80138E+00-1.48509E-02 8.27917E-01-2.34802E-13-1.35785E-13
 -1      3396 1.62693E+01 1.81046E+00 4.79197E-02 2.24577E-01-1.36614E-13-1.15366E-13
 -1      3397 1.95204E+01 1.33954E-03-9.88157E-03 1.75182E+00-8.92947E-14 4.90703E-14
 -1      3398 1.99323E+01-1.81195E-01 1.68332E-02 1.73183E+00-2.18061E-13-3.31625E-13
 -1      3399 1.19425E+01 1.34652E+00 1.17166E-01-1.79199E+00-3.16079E-13-6.33021E-13
 -1      3400 1.30205E+01 5.69618E-01 1.12755E-02-3.09802E+00-3.23087E-13-1.93137E-13
 -1      3401 2.31562E+01-3.66576E+00 9.88666E-02-3.22535E+00-5.38376E-14 3.92706E-13
 -1      3402 2.42842E+01-3.69873E+00-1.05641E-01-1.88599E+00-1.13735E-13 2.42039E-13
 -1      3403 2.02994E+01 4.33352E-01 2.19587E-03-6.87328E-02-2.80678E-14-1.44248E-13
 -1      3404 2.02759E+01 3.22820E-01-1.86835E-03-2.40336E-03-4.68893E-14-1.31416E-13
 -1      3405 2.03321E+01 5.70957E-01 5.76656E-04-1.11475E-01-2.59996E-14-2.10142E-13
 -1      3406 1.58995E+01 1.69339E+00-4.21763E-03-1.54854E+00 1.13600E-13 2.57671E-14
 -1      3407 1.65546E+01 1.69908E+00-2.27799E-02-1.40718E+00 5.52830E-14 2.03928E-13
 -1      3408 1.72101E+01 1.69285E+00-6.69363E-03-1.43862E+00 2.90412E-14 1.22806E-13
 -1      3409 1.77080E+01 1.63862E+00-1.16078E-02-1.31637E+00 2.66752E-14 3.14975E-13
 -1      3410 1.75624E+01 1.68656E+00 4.01055E-03-9.85866E-01 1.34147E-13 1.46536E-13
 -1      3411 1.64817E+01 1.81010E+00 2.67706E-02-8.66070E-01 8.60106E-14 3.59959E-14
 -1      3412 2.00522E+01-4.27127E-02 4.90319E-04-1.33408E-01 5.31147E-14 3.27685E-15
 -1      3413 2.00563E+01-4.99620E-02-1.27211E-04-1.37911E-01 1.05264E-13-2.05667E-14
 -1      3414 2.00689E+01-5.51122E-02 4.36978E-04-1.42810E-01 1.41085E-13-4.75440E-14
 -1      3415 2.00749E+01-5.84134E-02 3.70750E-05-1.48037E-01 1.09377E-13-8.68864E-14
 -1      3416 2.00889E+01-5.70043E-02-3.83380E-04-1.32668E-01 1.03679E-13-1.56475E-14
 -1      3417 2.00264E+01-1.62408E-03 5.58812E-04-1.26537E-01 1.73158E-14 4.13390E-14
 -1      3418 2.00278E+01-1.36957E-02-3.52881E-04-1.26249E-01 4.52597E-14 5.26563E-14
 -1      3419 2.00161E+01 2.40107E-02 5.95283E-04-1.32460E-01 2.56665E-14-5.92634E-14
 -1      3420 2.00166E+01 1.05826E-02-4.36333E-04-1.28642E-01 2.54868E-14-1.31296E-14
 -1      3421 2.00279E+01 6.20765E-03-1.31443E-04-1.22934E-01 3.59128E-14-5.76803E-15
 -1      3422 2.00072E+01 5.12655E-02 6.43306E-04-1.46283E-01 3.98420E-15-4.93314E-14
 -1      3423 2.00068E+01 3.71690E-02-5.04526E-04-1.38430E-01-3.04761E-15-6.10527E-14
 -1      3424 2.00108E+01 3.56682E-02-7.15265E-05-1.31343E-01 5.08688E-14-8.34505E-14
 -1      3425 1.99997E+01 7.84579E-02 7.07653E-04-1.68900E-01-8.49680E-14 5.78624E-14
 -1      3426 1.99980E+01 6.46103E-02-5.52931E-04-1.56681E-01-3.94932E-14 2.58178E-14
 -1      3427 1.99944E+01 6.67206E-02-4.00188E-05-1.47919E-01-4.93351E-14-8.75980E-15
 -1      3428 1.99944E+01 1.03108E-01 7.90914E-04-2.00891E-01-3.49653E-14 1.56939E-13
 -1      3429 1.99909E+01 9.08864E-02-5.67279E-04-1.84198E-01-5.91956E-14 1.63645E-13
 -1      3430 1.99786E+01 9.73375E-02-5.38002E-05-1.73783E-01-1.42451E-13 1.50688E-13
 -1      3431 1.99931E+01 1.21467E-01 8.92877E-04-2.42363E-01-6.80330E-14 2.43410E-13
 -1      3432 1.99868E+01 1.12952E-01-5.22509E-04-2.21420E-01-1.82539E-14 2.25216E-13
 -1      3433 1.99643E+01 1.24503E-01-1.40145E-04-2.09868E-01-9.66206E-14 3.22546E-13
 -1      3434 1.99993E+01 1.28022E-01 1.00795E-03-2.92652E-01 1.91042E-15 2.47462E-13
 -1      3435 1.99884E+01 1.26252E-01-3.79214E-04-2.68195E-01-3.19766E-14 2.36943E-13
 -1      3436 1.99536E+01 1.43675E-01-3.38732E-04-2.56786E-01-4.15773E-14 3.54698E-13
 -1      3437 2.00187E+01 1.15089E-01 1.11950E-03-3.49853E-01-5.39701E-14 2.21682E-13
 -1      3438 2.00003E+01 1.24253E-01-8.02440E-05-3.23399E-01 9.49152E-15 1.78004E-13
 -1      3439 1.99506E+01 1.48238E-01-7.04412E-04-3.14556E-01-4.68115E-15 2.42721E-13
 -1      3440 2.00598E+01 7.26526E-02 1.18957E-03-4.10090E-01-4.90591E-14 1.77829E-13
 -1      3441 2.00300E+01 9.81311E-02 4.51466E-04-3.84322E-01-3.65618E-14 1.77465E-13
 -1      3442 1.99622E+01 1.29040E-01-1.30621E-03-3.82098E-01-3.35308E-14 1.97221E-13
 -1      3443 2.01347E+01-1.11693E-02 1.14153E-03-4.66471E-01 4.64957E-14 1.40887E-13
 -1      3444 2.00883E+01 3.68731E-02 1.31094E-03-4.45737E-01-1.54318E-14 1.51231E-13
 -1      3445 1.99989E+01 7.42592E-02-2.22220E-03-4.56397E-01-1.86907E-15 1.45578E-13
 -1      3446 2.02591E+01-1.48463E-01 8.41011E-04-5.07640E-01-3.93781E-14 2.33113E-13
 -1      3447 2.01899E+01-7.17554E-02 2.59918E-03-4.98575E-01 5.15925E-14 2.15421E-13
 -1      3448 2.00760E+01-2.99915E-02-3.51992E-03-5.31152E-01-1.83838E-14 1.88666E-13
 -1      3449 2.04512E+01-3.47755E-01 8.43973E-05-5.16017E-01-1.35503E-14 5.32217E-14
 -1      3450 2.03530E+01-2.38638E-01 4.39335E-03-5.28145E-01-4.18505E-14 1.21331E-13
 -1      3451 2.02140E+01-1.97586E-01-5.20648E-03-5.94732E-01 2.66860E-14 1.89758E-13
 -1      3452 2.07282E+01-6.07023E-01-1.42457E-03-4.66227E-01-6.26198E-14 3.77315E-14
 -1      3453 2.05973E+01-4.68104E-01 6.66432E-03-5.12164E-01-8.47011E-14 1.98197E-14
 -1      3454 2.04371E+01-4.37706E-01-7.13984E-03-6.27410E-01-1.93507E-14-7.03424E-14
 -1      3455 2.10993E+01-9.02091E-01-3.90806E-03-3.24908E-01-2.36670E-14 1.63785E-13
 -1      3456 2.09381E+01-7.49000E-01 9.04302E-03-4.19388E-01-5.29898E-14 1.73503E-13
 -1      3457 2.07702E+01-7.46140E-01-8.95736E-03-5.98307E-01-1.38074E-13 4.57706E-14
 -1      3458 2.15528E+01-1.17095E+00-7.17822E-03-5.64026E-02-1.20129E-13 3.07855E-13
 -1      3459 2.13749E+01-1.04058E+00 1.06418E-02-2.11814E-01-2.27600E-14 2.39976E-13
 -1      3460 2.12289E+01-1.08979E+00-9.76142E-03-4.63885E-01-1.14566E-13 3.08750E-13
 -1      3461 2.20406E+01-1.29682E+00-9.33863E-03 3.62291E-01-5.62914E-14 3.95484E-13
 -1      3462 2.18754E+01-1.25688E+00 9.96334E-03 1.45400E-01-7.45632E-14 3.84243E-13
 -1      3463 2.18037E+01-1.38882E+00-8.33133E-03-1.73578E-01-1.00752E-13 3.86646E-13
 -1      3464 2.24659E+01-1.11383E+00-7.43500E-03 8.97692E-01 1.12598E-13 2.13811E-13
 -1      3465 2.23518E+01-1.25266E+00 4.37890E-03 6.51270E-01 4.15471E-14 3.28976E-13
 -1      3466 2.24316E+01-1.48530E+00-1.13147E-03 3.07370E-01-1.10759E-14 3.67120E-13
 -1      3467 2.26956E+01-4.76057E-01-1.93141E-03 1.41286E+00 2.05070E-14 2.83086E-13
 -1      3468 2.26692E+01-8.58946E-01-8.15464E-03 1.21701E+00 8.76061E-14 2.85260E-13
 -1      3469 2.29747E+01-1.17387E+00 1.02499E-02 9.39797E-01 5.94958E-14 3.83163E-13
 -1      3470 2.26499E+01 6.18155E-01 8.21693E-03 1.67031E+00 6.18689E-14 3.04292E-13
 -1      3471 2.27188E+01 1.39048E-02-2.22833E-02 1.63507E+00 3.69149E-14 3.14543E-13
 -1      3472 2.32543E+01-3.37059E-01 8.47846E-03 1.52830E+00 1.28287E-14 4.34441E-13
 -1      3473 2.23581E+01 1.81927E+00 1.35553E-02 1.34670E+00 9.49236E-14 2.46899E-13
 -1      3474 2.24733E+01 1.25158E+00-3.03952E-02 1.60033E+00 9.11480E-14 2.54081E-13
 -1      3475 2.31610E+01 1.02557E+00 8.74268E-04 1.76625E+00 1.48538E-13 4.28361E-13
 -1      3476 2.26258E+01 2.98747E+00-1.34190E-02 6.82883E-01 3.27863E-13 8.22988E-14
 -1      3477 2.27261E+01 2.61203E+00-2.19211E-02 1.14722E+00 2.60545E-13 2.01083E-13
 -1      3478 2.24131E+01 1.51299E+00-3.45575E-02-1.38639E+00 1.34080E-13-2.69044E-13
 -1      3479 2.23170E+01 2.09018E+00 1.46643E-02-1.09173E+00 1.46981E-13-1.85911E-13
 -1      3480 2.27090E+01 2.46182E-01-2.75847E-02-1.55075E+00-8.59203E-14-3.34189E-13
 -1      3481 2.26383E+01 8.89838E-01 1.44222E-02-1.52629E+00 5.30001E-14-2.91122E-13
 -1      3482 2.31334E+01 1.30688E+00 2.03565E-03-1.60743E+00 6.60179E-14-1.21651E-13
 -1      3483 2.27622E+01-7.58410E-01-1.10756E-02-1.19225E+00-2.93000E-13-2.63953E-13
 -1      3484 2.27683E+01-3.07955E-01 4.25225E-03-1.37395E+00-1.79644E-13-3.46936E-13
 -1      3485 2.33266E+01-9.43670E-02 1.43571E-02-1.51862E+00-1.17984E-13-2.17650E-13
 -1      3486 2.25124E+01-1.26283E+00 2.27358E-03-6.16010E-01-3.27726E-13-9.69649E-14
 -1      3487 2.26043E+01-1.07083E+00-6.18975E-03-8.71664E-01-3.02756E-13-2.05543E-13
 -1      3488 2.31537E+01-1.10746E+00 8.17260E-03-9.44562E-01-3.66594E-13-2.14130E-13
 -1      3489 2.20647E+01-1.32517E+00 8.98857E-03-6.27254E-02-2.88132E-14-1.67166E-13
 -1      3490 2.22212E+01-1.34300E+00-9.95216E-03-2.99153E-01-1.67266E-13-1.61871E-13
 -1      3491 2.26750E+01-1.53119E+00-1.72250E-03-2.74230E-01-3.25591E-13-3.47702E-13
 -1      3492 2.15410E+01-1.11084E+00 4.19306E-03 3.46633E-01-1.22435E-13-1.58672E-13
 -1      3493 2.17423E+01-1.24764E+00-8.74677E-03 1.69685E-01-2.69155E-14-1.20392E-13
 -1      3494 2.20658E+01-1.47885E+00-7.80651E-03 2.69233E-01-3.45196E-14-3.41169E-13
 -1      3495 1.73977E+01 1.57159E+00-5.83612E-03 1.03936E-02 1.69075E-13-2.95818E-14
 -1      3496 1.75274E+01 1.44544E+00 9.59916E-03 4.75457E-01 1.00375E-14-3.16721E-13
 -1      3497 1.92737E+01-2.80146E+00 8.67801E-02-4.94088E+00-5.22100E-14 1.82070E-13
 -1      3498 2.11669E+01-3.64948E+00-7.56189E-02-4.31979E+00-5.65624E-14 3.96065E-13
 -1      3499 1.26804E+01 1.16958E+00 1.41118E-01 2.39315E+00-2.19097E-13-6.49480E-14
 -1      3500 2.29336E+01-3.69773E+00-2.79264E-02 3.12374E+00-2.52329E-13-2.03735E-13
 -1      3501 2.16123E+01-3.37113E+00 6.85334E-02 4.01044E+00-2.11834E-13-9.79477E-14
 -1      3502 2.06711E+01-2.64492E+00 2.13255E-02 3.76989E+00-6.36002E-14-1.14123E-13
 -1      3503 2.44598E+01 4.62695E+00-6.77974E-02-4.86175E-01 4.92155E-13 2.84880E-13
 -1      3504 2.52067E+01 4.41213E+00-8.30080E-02-1.33947E+00 5.03764E-13 2.78800E-13
 -1      3505 2.47831E+01 3.20117E+00-5.24147E-02-1.57330E+00 4.01172E-13 1.69299E-13
 -1      3506 2.54905E+01-2.68619E+00 9.04923E-02-2.60962E-01-2.51195E-13-2.94053E-14
 -1      3507 2.54648E+01-1.60838E+00-1.04972E-01 9.44387E-01-1.05862E-13 1.57712E-14
 -1      3508 2.54172E+01 2.15418E-01 3.91909E-02 1.85885E+00 1.68067E-13 8.58584E-14
 -1      3509 2.48518E+01 1.61477E+00-7.46330E-02 2.00351E+00 1.96055E-13 8.60119E-14
 -1      3510 2.00316E+01 2.20182E+00-3.33255E-03-1.62979E-01 1.15554E-13-3.31633E-13
 -1      3511 2.00438E+01 2.16509E+00-4.22893E-03-2.84566E-01 8.38470E-14-3.37642E-13
 -1      3512 2.01602E+01 1.85233E+00 5.27059E-03-2.85043E-01 6.79782E-14-3.31879E-13
 -1      3513 2.02592E+01 1.36011E+00 3.23822E-03-5.35029E-01-5.72459E-14-2.49699E-13
 -1      3514 2.02202E+01 1.57574E+00 2.12176E-03-6.95944E-01-7.31129E-14-2.65068E-13
 -1      3515 2.00382E+01-2.43105E-02 5.26584E-04-1.27347E-01 1.39236E-14 3.77486E-14
 -1      3516 2.00408E+01-3.43716E-02-2.52593E-04-1.29906E-01 3.48563E-14 1.18573E-14
 -1      3517 2.00662E+01-4.17883E-02-2.92447E-04-1.25275E-01 1.86450E-14-3.44687E-15
 -1      3518 2.00461E+01-2.01036E-02-2.05705E-04-1.21415E-01 1.96245E-15 4.48191E-14
 -1      3519 2.03081E+01 6.72837E-01 7.06190E-03 2.00348E-01 1.93469E-13-2.89381E-14
 -1      3520 2.02950E+01 9.94395E-01-5.80141E-03 3.92351E-01 2.31667E-13-4.64913E-14
 -1      3521 2.02840E+01 1.13310E+00-2.23187E-03 3.60486E-01 2.16532E-13-8.12990E-14
 -1      3522 2.01421E+01-2.59400E-02-2.53514E-05-1.60474E-01 2.19187E-14-4.67555E-15
 -1      3523 2.01571E+01-4.36762E-03 9.17630E-04-1.55121E-01 6.63200E-14 3.46033E-14
 -1      3524 1.11277E+01 1.14650E+00 1.50289E-01-1.37552E+00 3.12830E-13 2.77556E-16
 -1      3525 1.23222E+01 9.16041E-01 4.49891E-02-2.38858E+00 9.68964E-14 1.99639E-13
 -1      3526 1.18026E+01 1.30692E+00 7.72075E-02-3.99897E-01 2.16939E-13 2.01228E-15
 -1      3527 2.02883E+01 5.20806E-01-1.44259E-03 1.16160E-01 1.73233E-13-3.82668E-14
 -1      3528 1.48128E+01-4.10448E-01 5.46423E-02-4.26361E+00-1.57891E-13 1.35895E-13
 -1      3529 1.68779E+01-1.84691E+00-8.03384E-03-5.05180E+00-1.07209E-13 2.73517E-13
 -1      3530 1.83731E+01-1.83256E+00 4.55976E-02-4.34237E+00-8.83738E-14 1.67552E-13
 -1      3531 2.58122E+01-1.24300E-01-9.82206E-02-1.69008E+00 6.95902E-14-7.44196E-14
 -1      3532 2.60358E+01-1.04231E+00 2.58997E-02-1.24224E+00-1.68823E-14-1.46013E-13
 -1      3533 1.25115E+01 1.34480E+00-4.54373E-02 1.60176E+00-1.90515E-13-1.83686E-13
 -1      3534 2.02158E+01 1.83328E-02-7.22519E-04-1.35602E-01 6.41488E-14-4.18536E-15
 -1      3535 2.01748E+01 2.35364E-02-3.94638E-04-1.46564E-01 8.15813E-14-4.75417E-15
 -1      3536 2.01942E+01 6.11930E-02 1.46490E-03-1.30548E-01 1.10144E-13-3.99389E-14
 -1      3537 2.02366E+01 1.48951E+00-1.01197E-03-3.41676E-01 3.61377E-14-2.76862E-13
 -1      3538 2.02495E+01 1.39145E+00-4.41954E-03-4.09276E-01-5.68610E-16-2.67273E-13
 -1      3539 2.01569E+01-5.69400E-01-1.27640E-02 1.82119E+00-2.48087E-13-3.27266E-13
 -1      3540 2.02621E+01-3.87758E-01-3.12211E-03 1.58706E+00-2.93086E-13-5.19583E-13
 -1      3541 2.05315E+01-5.02690E-01 9.59350E-03 1.45654E+00-1.50850E-13-2.90981E-13
 -1      3542 1.90834E+01 3.32358E-01 2.08270E-02 1.72680E+00 5.35494E-14-1.39619E-13
 -1      3543 1.92380E+01-8.40986E-02-1.00592E-02 1.97935E+00-2.17816E-14 4.90559E-14
 -1      3544 1.86109E+01 5.44609E-01-1.83911E-02 1.57949E+00 3.00747E-15-5.78112E-14
 -1      3545 1.44146E+01 1.03085E+00 9.89513E-02-2.58968E+00-4.29937E-13-3.44195E-13
 -1      3546 1.44805E+01 2.85358E-01 6.40115E-02-3.54128E+00-2.64989E-13-1.36079E-13
 -1      3547 1.58790E+01-8.29923E-02 8.75810E-03-3.45956E+00-1.86098E-13-8.90399E-14
 -1      3548 2.43362E+01-2.88770E+00 8.03852E-03-8.97520E-01-1.53056E-13 2.43937E-14
 -1      3549 1.70933E+01-1.28150E+00 4.48852E-02 4.41760E+00 7.47180E-14-1.61844E-13
 -1      3550 1.63161E+01-6.58497E-01 2.00643E-02 3.92757E+00 1.03128E-13-8.68177E-14
 -1      3551 1.86850E+01-1.53801E+00 2.39782E-02 3.87768E+00-1.92530E-14-3.18422E-13
 -1      3552 2.01602E+01 1.11444E-01-1.15972E-03-1.11056E-01 1.17481E-13-1.41340E-14
 -1      3553 2.03161E+01 3.24411E-01-3.18008E-05 4.97754E-03-5.02733E-14-1.37307E-13
 -1      3554 2.09150E+01-6.36215E-01 2.80393E-03 8.18860E-01 3.63286E-14 1.79057E-14
 -1      3555 2.10374E+01-7.85307E-01-5.85702E-03 7.18420E-01-6.94067E-14-4.65044E-14
 -1      3556 2.08705E+01-6.23552E-01 2.79444E-03 9.59064E-01-1.90502E-14-3.29931E-13
 -1      3557 2.01150E+01-6.31594E-02-4.73153E-04-1.41195E-01 1.10113E-13-9.97468E-14
 -1      3558 2.00892E+01-5.90602E-02 3.50357E-04-1.52985E-01 9.49481E-14-9.31305E-14
 -1      3559 2.00976E+01-5.67802E-02 2.54390E-04-1.57261E-01 6.22575E-14-6.39143E-14
 -1      3560 2.21930E+01 2.84032E+00-3.10855E-03-1.66181E-01 2.90296E-13-5.75343E-14
 -1      3561 2.33544E+01 3.63584E+00-2.71568E-02 3.49820E-01 4.04517E-13 3.14108E-13
 -1      3562 2.38317E+01 4.22318E+00-6.10812E-02-1.72073E-01 4.52031E-13 3.37625E-13
 -1      3563 2.22705E+01 2.60066E+00-1.63329E-02-6.31417E-01 2.55505E-13-1.08996E-13
 -1      3564 2.29325E+01 2.72690E+00-1.65058E-02-1.00787E+00 2.64797E-13 1.98053E-14
 -1      3565 1.72839E+01 1.23757E+00 1.11382E-03 9.35131E-01-5.67526E-14-1.18151E-13
 -1      3566 1.77894E+01 1.12530E+00-2.06719E-02 9.77566E-01-3.77988E-14-8.97291E-14
 -1      3567 1.81783E+01 9.37627E-01 1.93999E-02 1.30928E+00-2.81357E-14 6.08521E-14
 -1      3568 2.13939E+01-1.03517E+00 1.42985E-03 5.31597E-01-1.26244E-13-1.53290E-13
 -1      3569 2.01134E+01-5.10347E-02 2.08892E-04-1.60453E-01 5.25404E-14-5.04889E-14
 -1      3570 2.01249E+01-4.08067E-02 5.39385E-04-1.61485E-01 3.49002E-14-2.30579E-14
 -1      3571 2.01788E+01-3.19954E-02-6.71220E-04-1.47696E-01 5.00137E-14-1.81082E-14
 -1      3572 2.01450E+01-5.65998E-02-5.73219E-04-1.47639E-01 7.12259E-14-3.94859E-14
 -1      3573 2.47473E+01-7.65939E-01-1.28230E-02 1.32591E+00-1.51875E-15 1.95174E-14
 -1      3574 2.34748E+01 3.70760E+00-1.68446E-02-8.03390E-01 5.38930E-13 2.82760E-13
 -1      3575 2.01391E+01 1.92385E+00 4.93460E-03-9.48344E-02 1.15006E-13-2.94979E-13
 -1      3576 2.53531E+01-1.92691E+00-1.31631E-02-5.37078E-01-1.86849E-13-1.55289E-13
 -1      3577 2.02467E+01 2.39519E-01-1.87447E-03-4.22217E-02 1.42436E-13-5.06957E-14
 -1      3578 2.02751E+01 3.30129E-01 3.18800E-03 1.51082E-02 1.58019E-13-2.84884E-14
 -1      3579 1.32710E+01 1.15056E+00-4.12563E-04-2.28970E+00 3.31367E-14 2.41772E-13
 -1      3580 2.19691E+01-3.20199E+00 1.83766E-02-3.33899E+00-4.62269E-14 3.38977E-13
 -1      3581 1.24139E+01 6.90232E-01 1.09495E-01 2.72421E+00 1.68658E-13 4.60396E-13
 -1      3582 1.24571E+01 1.12576E+00 2.87178E-02 1.59574E+00 2.32108E-13 2.98719E-13
 -1      3583 1.41563E+01 3.70695E-01 5.37769E-03 3.06893E+00 1.72784E-13 4.93099E-13
 -1      3584 2.41753E+01 2.22513E+00-3.59631E-02 1.89649E+00 3.15803E-13 2.07467E-13
 -1      3585 2.33874E+01 2.68631E+00-1.91393E-02 1.52144E+00 3.81086E-13 2.24811E-13
 -1      3586 1.74499E+01 1.67206E+00-5.50511E-03-6.48115E-01 2.31834E-13-1.33757E-14
 -1      3587 1.23728E+01 1.43379E+00 2.99959E-02-7.26097E-01-2.99091E-13-4.68077E-13
 -1      3588 2.03210E+01 5.21840E-01-1.72464E-03 9.51468E-02 1.73159E-13-4.23854E-14
 -1      3589 2.41982E+01-3.19056E+00-4.23420E-02 1.27868E+00-2.50010E-13 7.45033E-14
 -1      3590 2.38972E+01-3.57394E+00 3.55210E-02 2.30217E+00-1.99135E-13-2.03702E-13
 -1      3591 2.26448E+01-3.12004E+00 3.34315E-03 2.63173E+00-8.78794E-14-3.76325E-14
 -1      3592 2.02254E+01 1.54282E+00-3.70999E-03 2.87375E-01 1.94597E-13-1.89420E-13
 -1      3593 2.02131E+01 1.60404E+00-2.42663E-03 2.03796E-01 1.81026E-13-2.21086E-13
 -1      3594 2.02718E+01 1.27904E+00 2.07815E-03-4.24956E-01-2.01541E-14-2.38433E-13
 -1      3595 2.02958E+01 1.03643E+00-2.73663E-03-4.18980E-01-4.99504E-14-2.11302E-13
 -1      3596 2.02953E+01 8.47721E-01-2.26345E-03-3.00501E-01-3.88950E-14-1.83822E-13
 -1      3597 2.03071E+01 1.09626E+00 1.32941E-03-3.10279E-01 1.54312E-15-2.33489E-13
 -1      3598 2.02041E+01 1.63967E+00-3.27715E-03 1.30848E-01 1.64738E-13-2.50329E-13
 -1      3599 2.01999E+01 1.65868E+00-2.91778E-03 4.00753E-02 1.43563E-13-2.49111E-13
 -1      3600 2.02893E+01 1.38262E+00 4.92710E-03 1.34120E-01 1.68262E-13-2.20480E-13
 -1      3601 2.03222E+01 8.52446E-01 1.61732E-03-2.48819E-01-1.81494E-14-2.08175E-13
 -1      3602 2.53147E+01 7.76681E-01-3.19801E-02-1.86194E+00 1.52137E-13-8.94632E-14
 -1      3603 1.39586E+01 1.39305E+00 2.50623E-02-1.90580E+00 1.05242E-13 2.49450E-13
 -1      3604 1.48349E+01 1.62203E+00-1.90877E-02-1.64326E+00 1.04338E-13 8.41983E-14
 -1      3605 1.43280E+01 1.77564E+00-2.37355E-02 9.25965E-01-1.66283E-13-1.74270E-13
 -1      3606 1.33850E+01 1.65290E+00 5.72583E-02 1.08409E+00-1.56188E-13-1.93595E-13
 -1      3607 1.30867E+01 1.61675E+00 6.88615E-02-1.14180E+00 5.37051E-14 2.07261E-13
 -1      3608 1.69520E+01 1.65127E+00 5.42824E-04-2.61173E-01 2.59171E-14 2.18020E-14
 -1      3609 1.45002E+01 1.95850E+00 8.04880E-02 7.06594E-02-2.47076E-13-3.13555E-13
 -1      3610 1.49037E+01 1.81428E+00 5.75764E-02-7.89838E-01 1.28901E-13 1.72525E-13
 -1      3611 2.03524E+01 8.37333E-01 6.39574E-03 1.79964E-01 1.92121E-13-8.38657E-14
 -1      3612 2.02861E+01 1.20805E+00-5.73386E-03 3.31840E-01 2.05337E-13-1.12171E-13
 -1      3613 2.02755E+01 1.30497E+00-2.21712E-03 2.72326E-01 1.90176E-13-1.56446E-13
 -1      3614 2.02216E+01 1.55343E+00-3.92244E-03-2.80628E-01 5.73829E-14-3.09188E-13
 -1      3615 2.02962E+01 1.28926E+00 4.04203E-03-2.50157E-01 3.79295E-14-2.64821E-13
 -1      3616 2.02112E+01 1.60988E+00-2.20617E-03-1.96782E-01 8.09394E-14-3.17317E-13
 -1      3617 1.41313E+01 1.62982E+00 2.39791E-03 3.05312E-02 1.69319E-13 5.02931E-14
 -1      3618 1.52005E+01 1.69291E+00-9.25099E-03-5.34687E-02 9.66146E-14 1.33903E-13
 -1      3619 2.02984E+01 8.42543E-02 1.02127E-03 9.55896E-02-4.84087E-14-8.87405E-14
 -1      3620 2.02770E+01 3.77333E-02-4.79239E-04 1.11314E-01-2.55290E-14-1.17637E-13
 -1      3621 2.02573E+01 2.56586E-03 7.55951E-04 1.18646E-01 2.72194E-14-1.12261E-13
 -1      3622 2.02370E+01-2.45728E-02-1.09808E-04 1.25142E-01 3.63401E-14-7.56354E-14
 -1      3623 2.03009E+01 2.95055E-02-3.69363E-04 9.72025E-02-3.20527E-15-8.02006E-14
 -1      3624 2.02160E+01-4.36244E-02 4.97919E-04 1.26602E-01 3.46656E-14-4.72576E-14
 -1      3625 2.01977E+01-5.67440E-02 1.39253E-04 1.27398E-01 5.31800E-14-3.72344E-14
 -1      3626 2.02579E+01-3.12542E-02-4.77758E-04 1.08261E-01 4.67417E-14-3.90582E-14
 -1      3627 2.01769E+01-6.42318E-02 2.82364E-04 1.25514E-01 6.72595E-14-4.31506E-14
 -1      3628 2.01610E+01-6.72830E-02 2.92439E-04 1.23309E-01 4.97308E-14-3.60429E-15
 -1      3629 2.02150E+01-6.14251E-02-5.00161E-04 1.09944E-01 5.69608E-14 2.06361E-14
 -1      3630 2.01412E+01-6.64447E-02 1.01970E-04 1.19999E-01-1.84163E-14-4.67722E-14
 -1      3631 2.01275E+01-6.22031E-02 3.88534E-04 1.16829E-01-5.83698E-14-4.29881E-14
 -1      3632 2.01744E+01-6.94895E-02-4.55371E-04 1.06594E-01 4.46644E-15-5.52398E-14
 -1      3633 2.01080E+01-5.48223E-02-6.46771E-05 1.13359E-01-5.07248E-14-6.53463E-14
 -1      3634 2.00954E+01-4.44158E-02 4.25095E-04 1.10632E-01 5.83045E-15-6.14124E-14
 -1      3635 2.01357E+01-6.10584E-02-3.75039E-04 1.01348E-01-8.16940E-14-7.00474E-14
 -1      3636 2.00776E+01-3.24730E-02-2.00063E-04 1.08428E-01 3.01911E-14-1.01812E-13
 -1      3637 2.00668E+01-1.80975E-02 4.11199E-04 1.07537E-01 4.89920E-14-6.25481E-14
 -1      3638 2.00998E+01-4.01223E-02-2.49780E-04 9.69261E-02-2.48970E-14-8.34255E-14
 -1      3639 2.00492E+01-2.14355E-03-3.38763E-04 1.07170E-01 8.31367E-14-4.29159E-14
 -1      3640 2.00385E+01 1.62245E-02 3.81096E-04 1.08813E-01 4.21857E-14-6.72999E-14
 -1      3641 2.00662E+01-9.88340E-03-1.00066E-04 9.51211E-02 5.40285E-14-1.75313E-13
 -1      3642 2.00201E+01 3.60848E-02-4.84592E-04 1.10780E-01-5.14269E-14-5.10371E-14
 -1      3643 2.00085E+01 5.85391E-02 3.18590E-04 1.15598E-01-8.78920E-14-1.25291E-13
 -1      3644 2.00322E+01 2.89694E-02 8.99734E-05 9.70277E-02-5.83300E-15-1.91440E-13
 -1      3645 1.99876E+01 8.26464E-02-6.48859E-04 1.20205E-01-4.20737E-14-1.25663E-13
 -1      3646 1.99735E+01 1.09717E-01 2.12038E-04 1.28662E-01-9.37430E-14-6.09065E-14
 -1      3647 1.99952E+01 7.64780E-02 3.26967E-04 1.03381E-01-5.20456E-14-1.55078E-13
 -1      3648 1.99483E+01 1.38819E-01-8.39991E-04 1.35980E-01-1.61323E-13-6.94332E-14
 -1      3649 1.99296E+01 1.71413E-01 3.91317E-05 1.48339E-01-1.04395E-13-8.87291E-14
 -1      3650 1.99518E+01 1.33562E-01 6.31473E-04 1.14426E-01-1.25508E-13-7.04791E-14
 -1      3651 1.98975E+01 2.06626E-01-1.06505E-03 1.58117E-01-1.12021E-13-1.26417E-13
 -1      3652 1.98713E+01 2.45978E-01-2.37885E-04 1.74351E-01-1.16975E-13-1.54752E-13
 -1      3653 1.98976E+01 2.01855E-01 1.03246E-03 1.29776E-01-1.26048E-13-1.23782E-13
 -1      3654 1.98289E+01 2.88736E-01-1.33050E-03 1.85844E-01-5.70605E-14-1.67153E-13
 -1      3655 1.97912E+01 3.36350E-01-6.71539E-04 2.05457E-01-1.16282E-13-1.55782E-13
 -1      3656 1.98267E+01 2.83548E-01 1.57022E-03 1.48124E-01-1.01517E-13-1.99819E-13
 -1      3657 1.97341E+01 3.88237E-01-1.67464E-03 2.17170E-01-1.20262E-13-1.12382E-13
 -1      3658 1.96791E+01 4.45736E-01-1.36908E-03 2.38982E-01-1.19847E-13 5.84478E-15
 -1      3659 1.97313E+01 3.81232E-01 2.31716E-03 1.66780E-01-9.29677E-14-1.06368E-13
 -1      3660 1.95971E+01 5.12171E-01-1.97440E-03 2.48716E-01-1.13037E-13 1.13646E-13
 -1      3661 1.95113E+01 5.84719E-01-2.40853E-03 2.71200E-01-6.01586E-14 1.57714E-13
 -1      3662 1.95970E+01 5.00483E-01 3.27927E-03 1.81268E-01-4.81391E-14-1.77300E-14
 -1      3663 1.94032E+01 6.60737E-01-2.45002E-03 2.73396E-01-4.50920E-15 1.00068E-13
 -1      3664 1.92833E+01 7.42435E-01-4.01350E-03 2.90317E-01 2.64965E-14 1.08890E-13
 -1      3665 1.94114E+01 6.41122E-01 4.72467E-03 1.82317E-01-4.03293E-14 1.27804E-13
 -1      3666 1.91362E+01 8.31428E-01-2.87758E-03 2.79102E-01-1.30323E-14 7.99171E-14
 -1      3667 1.89626E+01 9.24321E-01-6.30672E-03 2.85161E-01-6.39973E-14 1.48352E-14
 -1      3668 1.91615E+01 7.98840E-01 6.51581E-03 1.58054E-01-4.08332E-14 1.17954E-13
 -1      3669 1.87621E+01 1.02455E+00-3.47833E-03 2.50981E-01-9.10486E-15 6.02362E-14
 -1      3670 1.85128E+01 1.12486E+00-9.56542E-03 2.37146E-01 1.25995E-13 9.11364E-14
 -1      3671 1.88193E+01 9.73296E-01 8.99849E-03 9.04597E-02 3.68878E-15 1.16240E-13
 -1      3672 1.82401E+01 1.23055E+00-4.38770E-03 1.66934E-01 1.24500E-13 1.26467E-14
 -1      3673 1.78840E+01 1.32903E+00-1.41928E-02 1.21785E-01 7.00588E-14-4.22475E-14
 -1      3674 1.83524E+01 1.15427E+00 1.24846E-02-4.61244E-02 5.59831E-14-4.07291E-15
 -1      3675 1.75111E+01 1.42925E+00-5.79184E-03-1.58292E-03 4.43083E-14-7.83278E-14
 -1      3676 1.70097E+01 1.50717E+00-1.91170E-02-8.88007E-02 3.14740E-14-1.17671E-13
 -1      3677 1.77172E+01 1.32156E+00 1.77372E-02-2.86957E-01 1.27585E-14-1.15169E-13
 -1      3678 1.64773E+01 1.57854E+00-1.11558E-02-2.81151E-01-1.27184E-13-1.26790E-13
 -1      3679 1.56944E+01 1.62978E+00-2.99338E-02-4.04066E-01-2.23474E-13-2.29853E-13
 -1      3680 1.68243E+01 1.44053E+00 1.95349E-02-6.86279E-01-9.80132E-14-2.55820E-13
 -1      3681 2.01069E+01-5.68687E-02 4.14300E-04-1.17741E-01 6.84212E-14-1.22099E-14
 -1      3682 2.01191E+01-6.28239E-02 3.08329E-05-1.21231E-01 9.72261E-14-2.21240E-14
 -1      3683 2.02106E+01 1.07609E-01-8.87532E-04-1.09809E-01 1.18814E-13-4.91254E-14
 -1      3684 2.02356E+01 1.67371E-01 2.37921E-03-7.69478E-02 1.14162E-13-3.85818E-14
 -1      3685 2.02906E+01 2.34918E-01-2.25094E-03-4.37642E-02 1.39220E-13-5.33405E-14
 -1      3686 2.02535E+01 1.05011E-01-8.13018E-04-1.03696E-01 8.98355E-14-2.99597E-14
 -1      3687 1.77960E+01-1.09918E+00 2.39278E-02-3.85076E+00-8.90503E-14 4.20150E-14
 -1      3688 1.95452E+01-2.17542E+00-3.42966E-02-3.86498E+00-5.21068E-14 1.48378E-13
 -1      3689 2.00060E+01 4.97078E-02 5.44166E-04-1.24178E-01 2.66632E-14 2.65233E-14
 -1      3690 2.00136E+01 3.23708E-02-4.65060E-04-1.17969E-01 3.63045E-14 8.72110E-15
 -1      3691 2.00294E+01 1.63501E-02 5.06592E-04-1.13793E-01 7.59908E-14-2.44902E-14
 -1      3692 2.00376E+01 5.91237E-04-3.55962E-04-1.11215E-01 7.61881E-14 3.69637E-14
 -1      3693 2.00230E+01 2.81882E-02-3.72477E-05-1.05588E-01 3.56531E-14 8.51387E-14
 -1      3694 1.99590E+01 1.19844E-01 7.08374E-04-1.71001E-01-1.59032E-13 2.32160E-13
 -1      3695 1.99654E+01 1.02163E-01-6.67228E-04-1.55701E-01-1.68268E-13 1.74623E-13
 -1      3696 1.99361E+01 1.51209E-01 8.61909E-04-2.10155E-01-1.25123E-13 2.28126E-13
 -1      3697 1.99412E+01 1.35745E-01-7.36530E-04-1.89538E-01-1.47840E-13 2.12344E-13
 -1      3698 1.99296E+01 1.43643E-01 1.21827E-04-1.69962E-01-1.71364E-13 1.71968E-13
 -1      3699 1.99163E+01 1.74053E-01 1.08279E-03-2.61520E-01-4.27411E-15 1.85353E-13
 -1      3700 1.99184E+01 1.63543E-01-7.52886E-04-2.35253E-01-1.93443E-14 2.22039E-13
 -1      3701 1.98966E+01 1.78040E-01 3.56146E-05-2.13302E-01-3.11715E-14 6.33441E-14
 -1      3702 1.99040E+01 1.81081E-01 1.38239E-03-3.26053E-01-4.57374E-14 1.34976E-13
 -1      3703 1.99005E+01 1.79517E-01-6.71364E-04-2.94119E-01-2.29218E-14 1.50196E-13
 -1      3704 1.98652E+01 2.02378E-01-1.97534E-04-2.71026E-01 2.30622E-16 8.52538E-14
 -1      3705 1.99072E+01 1.62085E-01 1.75965E-03-4.03943E-01 1.17399E-14 5.92705E-14
 -1      3706 1.98937E+01 1.75002E-01-4.21278E-04-3.66926E-01 2.28629E-14 1.14564E-13
 -1      3707 1.98406E+01 2.08235E-01-6.57089E-04-3.45327E-01-1.17080E-14 4.98470E-14
 -1      3708 1.99379E+01 1.03674E-01 2.18218E-03-4.93742E-01-2.05277E-14 8.39691E-14
 -1      3709 1.99082E+01 1.38247E-01 1.02397E-04-4.53318E-01-1.92151E-14 2.75131E-14
 -1      3710 1.98315E+01 1.83840E-01-1.44795E-03-4.37951E-01-2.15668E-14 4.31815E-14
 -1      3711 2.00141E+01-1.03242E-02 2.55176E-03-5.90851E-01-6.21108E-14 1.34850E-13
 -1      3712 1.99595E+01 5.44310E-02 1.04904E-03-5.50587E-01-4.30344E-14 1.41571E-13
 -1      3713 1.98518E+01 1.13686E-01-2.70313E-03-5.49207E-01-9.76134E-14 7.36482E-14
 -1      3714 2.01597E+01-1.96962E-01 2.66986E-03-6.84993E-01 1.26052E-13 1.02591E-13
 -1      3715 2.00697E+01-9.33222E-02 2.61497E-03-6.51578E-01 4.76892E-14 1.78410E-13
 -1      3716 1.99228E+01-2.11009E-02-4.57065E-03-6.76057E-01 2.61919E-14 1.97300E-14
 -1      3717 2.04045E+01-4.69433E-01 2.21978E-03-7.56464E-01-9.76895E-14 8.02147E-14
 -1      3718 2.02676E+01-3.20829E-01 5.03996E-03-7.41359E-01 4.16069E-14 9.26371E-14
 -1      3719 2.00739E+01-2.40624E-01-7.13358E-03-8.08712E-01 4.22507E-14 5.28359E-14
 -1      3720 2.07796E+01-8.27989E-01 4.67980E-04-7.71673E-01-1.39341E-13 1.31504E-13
 -1      3721 2.05870E+01-6.36016E-01 8.51575E-03-7.92660E-01-1.71031E-13 9.23237E-14
 -1      3722 2.03433E+01-5.60542E-01-1.02600E-02-9.25384E-01-9.77795E-14 8.15539E-14
 -1      3723 2.13094E+01-1.24101E+00-2.90005E-03-6.77392E-01-1.81763E-13 2.98457E-13
 -1      3724 2.10604E+01-1.02688E+00 1.25931E-02-7.59610E-01-1.31553E-13 2.26533E-13
 -1      3725 2.07757E+01-9.81400E-01-1.35804E-02-9.84829E-01-2.19027E-13 9.30094E-15
 -1      3726 2.19849E+01-1.62243E+00-9.71558E-03-4.08731E-01-8.68896E-14 3.06169E-13
 -1      3727 2.16994E+01-1.43653E+00 1.59328E-02-5.78276E-01-1.32730E-13 2.89368E-13
 -1      3728 2.14075E+01-1.46099E+00-1.60147E-02-9.15794E-01-1.14146E-13 2.12279E-13
 -1      3729 2.27526E+01-1.77504E+00-1.15038E-02 1.07149E-01 9.24080E-14 1.69390E-13
 -1      3730 2.24773E+01-1.73824E+00 1.76163E-02-1.66897E-01 4.17063E-14 1.42057E-13
 -1      3731 2.22494E+01-1.90460E+00-1.81808E-02-6.37294E-01 5.80480E-14 6.43652E-14
 -1      3732 2.34416E+01 3.00478E+00-4.40703E-02-1.24903E+00 3.43463E-13 9.14459E-14
 -1      3733 2.28061E+01-1.83199E+00 1.91923E-02 1.99090E-01-1.80648E-13-4.27460E-13
 -1      3734 2.30536E+01-1.84154E+00-1.65128E-02-9.09999E-02-3.16171E-13-3.09559E-13
 -1      3735 2.20277E+01-1.56436E+00 1.50973E-02 6.91860E-01-2.61033E-14-1.81011E-13
 -1      3736 2.23165E+01-1.74735E+00-1.02178E-02 4.95332E-01-9.27541E-14-3.26278E-13
 -1      3737 2.26451E+01-2.06452E+00-2.61898E-02 6.76970E-01-2.20372E-13-3.04336E-13
 -1      3738 2.06831E+01-5.68529E-01 1.43137E-03 1.27675E+00-9.14887E-14-1.91857E-13
 -1      3739 2.08029E+01-6.23478E-01 4.44998E-03 1.14632E+00 1.59180E-14-3.64420E-13
 -1      3740 2.09781E+01-8.42280E-01-8.38732E-03 1.07936E+00-5.94797E-14-3.58254E-13
 -1      3741 2.07205E+01-7.91962E-01-9.17001E-03 1.46112E+00-1.54185E-13-3.66652E-13
 -1      3742 2.35430E+01-1.66096E+00 1.54977E-02-5.52534E-01-3.94580E-13-2.91146E-13
 -1      3743 2.36614E+01-1.33908E+00-1.16827E-02-8.66630E-01-3.28506E-13-1.92007E-13
 -1      3744 2.35849E+01-2.12608E+00-3.26303E-02-2.37228E-02-3.20132E-13-2.36734E-13
 -1      3745 2.41131E+01 2.27255E+00-2.07183E-02-1.74564E+00 1.77282E-13 7.06154E-14
 -1      3746 1.99825E+01 8.49239E-02 6.07184E-04-1.42792E-01-1.36387E-13 1.95557E-13
 -1      3747 1.99896E+01 6.68269E-02-5.72075E-04-1.32323E-01-5.00356E-14 1.15101E-13
 -1      3748 1.99930E+01 6.56033E-02 5.36715E-05-1.17967E-01-7.83981E-14 2.32794E-13
 -1      3749 2.36796E+01 1.29847E+00 3.17415E-03 1.79176E+00 2.48405E-13 2.78319E-13
 -1      3750 2.41782E+01-7.24146E-01-1.26875E-02-1.39720E+00-1.61175E-13-1.45180E-13
 -1      3751 2.41472E+01 8.32443E-02 2.98342E-03-1.62745E+00 4.05492E-14-1.40257E-13
 -1      3752 1.63273E+01 1.65964E+00-1.21424E-02-1.24655E-01-1.52677E-14 8.76816E-14
 -1      3753 2.42562E+01 1.26055E+00-4.99999E-02-1.82927E+00 1.57101E-13-5.07993E-14
 -1      3754 2.03217E+01 1.06332E+00 2.25238E-04-2.42641E-01 2.45789E-15-2.15062E-13
 -1      3755 2.03304E+01 9.44358E-01-2.66797E-04-2.52483E-01-1.01523E-14-2.17821E-13
 -1      3756 2.03375E+01 8.15662E-01-1.47423E-03-1.86422E-01-1.35394E-14-2.26351E-13
 -1      3757 2.03558E+01 6.40249E-01 1.76460E-05-1.22823E-01-8.27158E-15-2.20172E-13
 -1      3758 2.03507E+01 4.94367E-01-1.29973E-03-5.42594E-02-1.50991E-14-2.03404E-13
 -1      3759 2.03645E+01 7.36002E-01 1.26273E-03-1.26355E-01-1.05130E-14-2.07216E-13
 -1      3760 2.02003E+01 1.66029E+00-2.50560E-03-3.41478E-02 1.29295E-13-2.58471E-13
 -1      3761 2.02035E+01 1.64146E+00-3.37978E-03-1.25144E-01 1.10534E-13-3.20031E-13
 -1      3762 2.02872E+01 1.38772E+00 5.07039E-03-1.27805E-01 8.18132E-14-2.82391E-13
 -1      3763 2.02830E+01 1.42173E+00 5.69512E-03 2.91570E-03 1.15473E-13-2.27123E-13
 -1      3764 2.03340E+01 2.15078E-01 1.04745E-03 4.99587E-02-5.16815E-14-1.25693E-13
 -1      3765 2.03141E+01 1.42121E-01-8.78435E-04 7.92984E-02-4.70483E-14-9.79169E-14
 -1      3766 2.03403E+01 1.32155E-01-1.84509E-04 7.12901E-02-5.19884E-14-1.07826E-13
 -1      3767 2.14036E+01-1.08980E+00 5.33028E-05 7.07587E-01-2.09686E-13-2.84420E-13
 -1      3768 2.03548E+01 3.90903E-01 5.59909E-04-1.93929E-02-9.60617E-15-1.90479E-13
 -1      3769 2.03394E+01 2.86658E-01-1.18388E-03 2.71716E-02-2.97016E-14-1.49989E-13
 -1      3770 2.03666E+01 2.75667E-01 3.23675E-04 2.92210E-02-2.53517E-14-1.70153E-13
 -1      3771 2.03762E+01 4.58464E-01 6.00594E-04-3.04675E-02 6.91757E-15-2.10384E-13
 -1      3772 1.24290E+01 1.55504E+00 6.15760E-02-5.62859E-02 1.83693E-13-2.53270E-15
 -1      3773 2.36032E+01-2.88035E+00 6.45087E-02-1.43234E+00-5.37521E-14-5.41841E-15
 -1      3774 2.40691E+01-2.46348E+00-5.29430E-02-1.63357E-01-9.69491E-14-2.13458E-14
 -1      3775 2.10523E+01-2.56185E+00 6.24759E-02-3.37364E+00 2.95085E-14 2.94434E-13
 -1      3776 2.22370E+01-3.06710E+00-7.65527E-02-2.57429E+00 2.69559E-14 2.69193E-13
 -1      3777 2.03090E+01-1.95155E+00 1.94984E-02-3.10419E+00 1.97273E-14 1.82969E-13
 -1      3778 2.12609E+01-2.59151E+00-2.28078E-02 3.13734E+00 4.72753E-14 1.57480E-13
 -1      3779 2.01576E+01-2.03221E+00 1.42991E-02 3.46249E+00 1.03277E-13-9.40949E-14
 -1      3780 2.03494E+01 3.78175E-01 3.71927E-03 6.77231E-03 1.29481E-13-4.15356E-14
 -1      3781 2.03589E+01 5.66580E-01-2.02048E-03 9.49271E-02 1.63864E-13-6.28354E-14
 -1      3782 2.03688E+01 6.40055E-01-2.18580E-03 8.95529E-02 1.49908E-13-9.67049E-14
 -1      3783 1.29297E+01 1.83550E+00 1.63520E-01 3.81924E-01-1.83993E-13-3.13079E-13
 -1      3784 2.37970E+01 4.17919E-01-2.53521E-02 1.85874E+00 8.66156E-14 3.20119E-13
 -1      3785 2.45664E+01-1.34751E+00-3.02671E-02-9.95061E-01-1.81602E-13-1.73999E-13
 -1      3786 1.59900E+01 1.57577E+00 3.57945E-02 5.86768E-01 3.14193E-14 2.15175E-13
 -1      3787 1.36050E+01 1.40702E+00 3.01445E-02 7.57858E-01 2.18664E-13 1.14048E-13
 -1      3788 2.03147E+01-1.64284E+00 2.04264E-02 2.93542E+00 3.20059E-13 4.27347E-14
 -1      3789 1.95725E+01-1.70890E+00 4.64066E-04 3.52376E+00 1.89474E-13-1.95428E-13
 -1      3790 1.88623E+01-1.19882E+00 9.40006E-03 3.40416E+00 8.25528E-14-1.68290E-13
 -1      3791 1.42609E+01 1.27828E+00 1.77318E-02 1.49636E+00 2.10983E-13 2.92526E-13
 -1      3792 1.54963E+01 1.24923E+00 9.61299E-03 1.36268E+00 8.12701E-14 1.41584E-13
 -1      3793 1.65169E+01 1.24907E+00-1.77439E-02 1.08604E+00-6.34202E-14-1.21051E-13
 -1      3794 1.69882E+01 9.96708E-01 2.80775E-02 1.61445E+00-6.80421E-14-1.12370E-13
 -1      3795 1.51888E+01 9.93642E-01 4.67323E-02 2.05728E+00 1.35830E-13 3.17010E-13
 -1      3796 1.57788E+01 1.12223E+00 2.48486E-02-1.85384E+00-2.83274E-13-3.58121E-13
 -1      3797 1.50729E+01 1.33324E+00-6.73252E-03-1.34856E+00-3.32824E-13-3.24891E-13
 -1      3798 1.81606E+01 5.82275E-01-6.21020E-03 1.71345E+00 4.65361E-15-1.46242E-14
 -1      3799 2.01513E+01-6.75203E-02-4.35104E-04-1.09171E-01 9.65651E-14-2.57776E-14
 -1      3800 2.01378E+01-6.58806E-02 3.45268E-04-1.24933E-01 1.02075E-13-2.77374E-14
 -1      3801 2.01522E+01-6.58145E-02 2.06986E-04-1.28084E-01 1.10642E-13-4.29264E-14
 -1      3802 2.00894E+01-4.88660E-02-1.11822E-04-1.14605E-01 1.19467E-14-2.42331E-14
 -1      3803 2.01160E+01-5.56606E-02-3.50677E-04-1.03689E-01 5.07956E-14 4.25593E-14
 -1      3804 2.00790E+01-3.85796E-02 4.56650E-04-1.12158E-01-3.93097E-14-1.44210E-14
 -1      3805 1.29241E+01 1.40023E+00-7.54682E-02-1.06898E+00-3.34972E-13-4.75342E-13
 -1      3806 2.03323E+01 2.75369E-01-1.11619E-03-3.11513E-02 1.13172E-13-1.10696E-14
 -1      3807 2.00535E+01-1.35894E-02 4.82739E-04-1.10280E-01 1.61829E-14 4.80922E-14
 -1      3808 2.00626E+01-2.70233E-02-2.39324E-04-1.10642E-01-1.18783E-14 2.96770E-14
 -1      3809 2.00528E+01-5.64311E-03-1.55283E-04-1.00116E-01 7.33444E-14 2.11507E-14
 -1      3810 1.99620E+01 1.04910E-01 1.15049E-04-1.38840E-01-1.58021E-13 3.12507E-13
 -1      3811 2.34584E+01-1.43812E+00-9.05028E-03 8.38789E-01-6.60436E-14 2.12531E-13
 -1      3812 2.32431E+01-1.70092E+00 3.82656E-03 4.88706E-01-2.38089E-14 1.33656E-13
 -1      3813 2.38361E+01-3.52468E-01-1.30400E-02 1.53132E+00 2.07022E-14 2.35043E-13
 -1      3814 2.37640E+01-9.62504E-01-1.22982E-02 1.28682E+00-1.91366E-14 2.63263E-13
 -1      3815 2.48054E+01-2.43731E+00 4.67993E-02 5.37359E-03-3.14982E-13-2.03755E-13
 -1      3816 1.40327E+01 1.22422E+00-2.32412E-02-1.58766E+00-3.24433E-13-4.22933E-13
 -1      3817 1.71722E+01-4.87408E-01 3.04842E-02-3.52847E+00-1.20273E-13 3.23348E-14
 -1      3818 1.83852E+01-7.90490E-01 1.55003E-02-3.12343E+00-4.33989E-14-5.92408E-14
 -1      3819 1.66370E+01 9.79864E-02-6.83152E-03-2.92471E+00-2.09953E-13-8.00642E-14
 -1      3820 2.32171E+01-2.01703E+00-3.81410E-03-3.77091E-02 1.15179E-14-2.69958E-14
 -1      3821 1.57860E+01-2.91576E-02 6.57736E-02 3.46977E+00-4.45789E-14 2.06146E-14
 -1      3822 1.53083E+01 4.61348E-01 4.09530E-03 2.74612E+00-7.63278E-15 1.14609E-13
 -1      3823 1.72774E+01-5.22562E-01 1.45528E-03 3.43096E+00-2.47546E-13-4.32957E-13
 -1      3824 2.03197E+01 1.12243E+00-8.43929E-04-1.95638E-01 4.10610E-14-2.47209E-13
 -1      3825 2.02494E+01 8.35741E-03-3.28226E-05-1.24127E-01 5.70174E-14-1.23013E-15
 -1      3826 2.02693E+01 4.50215E-02 8.08507E-04-1.11965E-01 7.09660E-14-1.71719E-14
 -1      3827 1.89804E+01-2.16457E-01-9.38691E-03 2.26805E+00-8.05085E-14-8.56953E-16
 -1      3828 1.96185E+01-4.87505E-01 2.35741E-02 2.27213E+00 1.54065E-14 1.00218E-13
 -1      3829 2.38904E+01-2.58434E+00 1.89004E-03 6.28692E-01-2.56134E-13-9.40610E-14
 -1      3830 2.03298E+01 1.11042E+00 8.61078E-04 1.83117E-01 1.85214E-13-1.56595E-13
 -1      3831 2.26044E+01-2.76298E+00-5.25846E-02 1.93219E+00-1.06256E-14-1.24123E-13
 -1      3832 2.20532E+01-2.64864E+00 2.80449E-02 2.59092E+00 3.90946E-14-1.77836E-13
 -1      3833 2.14747E+01-2.17854E+00-6.96434E-04 2.47337E+00 1.50363E-13-8.39851E-14
 -1      3834 2.02097E+01-3.95303E-02 1.43164E-04-1.32273E-01 3.48132E-14-3.37702E-14
 -1      3835 2.02283E+01-1.94908E-02 5.63931E-04-1.28238E-01 3.92463E-14-4.64494E-14
 -1      3836 2.02739E+01 1.06784E-04-8.17156E-04-1.08223E-01 6.99835E-14-2.11068E-14
 -1      3837 2.41207E+01-1.46016E+00 2.34655E-02 8.69052E-01-6.57590E-14 3.30725E-14
 -1      3838 2.03729E+01 9.22162E-01 5.50254E-03 1.32111E-01 1.65536E-13-1.61491E-13
 -1      3839 2.03267E+01 1.11919E+00-2.75248E-03 1.37577E-01 1.72411E-13-1.87174E-13
 -1      3840 2.00198E+01-9.89724E-01-5.99257E-03 2.38648E+00 6.91140E-14-7.95953E-14
 -1      3841 2.01699E+01-7.79617E-01-3.22158E-03 2.06075E+00-5.69607E-14-1.91103E-13
 -1      3842 2.06150E+01-9.32032E-01 1.69894E-02 1.88502E+00-8.76811E-14-4.72874E-13
 -1      3843 2.25749E+01-2.58752E+00 4.44725E-03-1.70447E+00 9.27557E-15 7.29009E-14
 -1      3844 2.12793E+01-1.07295E+00 8.60345E-03 1.04007E+00-1.25876E-13-2.59362E-13
 -1      3845 2.16422E+01-1.38814E+00-7.22047E-03 8.53663E-01-5.16957E-14-1.49462E-13
 -1      3846 2.18157E+01-1.62485E+00-1.13342E-02 1.08113E+00-7.57574E-14-7.89752E-14
 -1      3847 2.11894E+01-1.07676E+00 6.80327E-03 1.23078E+00-5.88036E-14-3.08844E-13
 -1      3848 2.35303E+01-2.27455E+00-2.24176E-02-1.98418E-01-3.13560E-14 3.75186E-14
 -1      3849 2.43116E+01-2.10439E+00-2.81591E-03 3.85539E-01-1.45868E-13-9.61019E-14
 -1      3850 2.03248E+01 1.15274E+00-2.45778E-03 8.40051E-02 1.43401E-13-2.08512E-13
 -1      3851 1.76243E+01 5.13448E-01-1.85980E-02 1.98932E+00 1.09449E-13 5.59097E-14
 -1      3852 1.83219E+01 1.91805E-01 2.80205E-02 2.24484E+00 8.27083E-14-1.48842E-13
 -1      3853 1.85610E+01-3.36803E-01-3.24224E-03 2.62618E+00-7.43702E-14 3.72914E-14
 -1      3854 1.69392E+01 4.87506E-01-1.14184E-02 2.25333E+00 1.78581E-14-2.95980E-13
 -1      3855 2.02952E+01-1.80467E-02 4.67943E-04 8.64493E-02 3.57514E-14-1.16414E-13
 -1      3856 2.02727E+01-4.14302E-02 4.12533E-06 9.03119E-02 5.74928E-14-8.56408E-14
 -1      3857 2.02491E+01-5.71493E-02 3.36975E-04 9.01193E-02 5.31400E-14-7.50721E-14
 -1      3858 2.02276E+01-6.68629E-02 1.79527E-04 9.04306E-02 5.79058E-14-6.79021E-14
 -1      3859 2.02800E+01-4.78178E-02-4.27390E-04 7.03217E-02 6.39227E-14-1.76230E-13
 -1      3860 2.02042E+01-7.11723E-02 2.09253E-04 8.86024E-02-7.26668E-15-9.52716E-14
 -1      3861 2.01843E+01-7.09970E-02 2.85601E-04 8.71728E-02-8.26694E-14-1.21247E-13
 -1      3862 2.02325E+01-6.98397E-02-4.57164E-04 7.02789E-02-2.28813E-14-1.83224E-13
 -1      3863 2.01605E+01-6.66746E-02 7.26084E-05 8.47195E-02-8.56697E-14-1.04867E-13
 -1      3864 2.01414E+01-5.85802E-02 3.23908E-04 8.28285E-02-7.79872E-14-7.91748E-14
 -1      3865 2.01855E+01-7.03945E-02-4.14484E-04 6.77477E-02-6.17242E-14-1.38786E-13
 -1      3866 2.01196E+01-4.80209E-02-3.79061E-05 8.07908E-02-8.01986E-14-6.78198E-14
 -1      3867 2.01026E+01-3.47083E-02 3.02645E-04 7.96539E-02-3.04768E-14-7.55723E-14
 -1      3868 2.01408E+01-5.48113E-02-3.20565E-04 6.47520E-02-9.61101E-14-1.10575E-13
 -1      3869 2.00813E+01-1.92515E-02-1.58434E-04 7.84987E-02-7.16396E-15-8.67035E-14
 -1      3870 2.00646E+01-1.33070E-03 2.50600E-04 7.87193E-02 3.53909E-14-1.22867E-13
 -1      3871 2.00990E+01-2.75234E-02-1.76489E-04 6.25808E-02-3.42894E-14-7.52598E-14
 -1      3872 2.00429E+01 1.84459E-02-2.78684E-04 7.87275E-02 1.62393E-14-2.33448E-13
 -1      3873 2.00255E+01 4.06385E-02 1.59724E-04 8.07336E-02-6.52370E-14-2.16760E-13
 -1      3874 2.00574E+01 9.47125E-03 3.97212E-06 6.19647E-02-4.15275E-14-1.55595E-13
 -1      3875 2.00020E+01 6.46915E-02-4.04586E-04 8.19887E-02-2.01665E-14-2.40213E-13
 -1      3876 1.99822E+01 9.12677E-02 1.72599E-05 8.59815E-02-1.18672E-14-1.90940E-13
 -1      3877 2.00140E+01 5.53130E-02 2.23473E-04 6.32081E-02-2.30912E-14-1.82009E-13
 -1      3878 1.99554E+01 1.19929E-01-5.36215E-04 8.82899E-02-7.48194E-14-2.01252E-13
 -1      3879 1.99312E+01 1.51348E-01-1.95068E-04 9.41692E-02-1.32694E-13-1.41442E-13
 -1      3880 1.99655E+01 1.10046E-01 4.95418E-04 6.60851E-02-5.51029E-14-2.35772E-13
 -1      3881 1.98988E+01 1.85261E-01-6.68420E-04 9.69625E-02-1.80428E-13-1.92591E-13
 -1      3882 1.98675E+01 2.22208E-01-5.09033E-04 1.04216E-01-1.19991E-13-2.14249E-13
 -1      3883 1.99083E+01 1.74302E-01 8.33103E-04 6.96878E-02-1.50359E-13-2.28225E-13
 -1      3884 1.98271E+01 2.62218E-01-7.92697E-04 1.06377E-01-9.54058E-14-2.02446E-13
 -1      3885 1.97851E+01 3.05483E-01-9.71000E-04 1.13882E-01-1.11124E-13-2.17511E-13
 -1      3886 1.98376E+01 2.49068E-01 1.25526E-03 7.21069E-02-1.32641E-13-2.39108E-13
 -1      3887 1.97335E+01 3.52413E-01-9.15275E-04 1.13476E-01-4.90175E-14-2.17721E-13
 -1      3888 1.96760E+01 4.02653E-01-1.69490E-03 1.19247E-01-6.37107E-14-1.23687E-13
 -1      3889 1.97474E+01 3.35343E-01 1.79297E-03 7.00090E-02-4.16021E-14-2.22422E-13
 -1      3890 1.96056E+01 4.60358E-01-9.04687E-04 1.12773E-01-4.60275E-14-3.70050E-14
 -1      3891 1.95214E+01 5.20964E-01-2.69676E-03 1.13000E-01 3.21298E-14 2.54778E-14
 -1      3892 1.96268E+01 4.36326E-01 2.48051E-03 5.74082E-02-3.80775E-15-6.37564E-14
 -1      3893 1.94335E+01 5.84070E-01-9.03942E-04 9.57739E-02-3.66448E-14 1.76698E-14
 -1      3894 1.93218E+01 6.48743E-01-4.12041E-03 8.51254E-02-7.50525E-14 4.10023E-14
 -1      3895 1.94686E+01 5.49024E-01 3.34324E-03 2.50464E-02-2.21246E-14 2.02100E-14
 -1      3896 1.92084E+01 7.18822E-01-6.51477E-04 5.00250E-02-2.00356E-14 2.81202E-14
 -1      3897 1.90543E+01 7.87687E-01-6.14399E-03 2.04991E-02 1.19232E-14 6.43822E-14
 -1      3898 1.92664E+01 6.67303E-01 4.34498E-03-3.86724E-02-5.14311E-14 2.53878E-14
 -1      3899 1.89090E+01 8.61715E-01-1.82184E-04-4.27831E-02-5.46508E-14 3.53553E-14
 -1      3900 1.86973E+01 9.29578E-01-8.92373E-03-1.02790E-01-5.50049E-14 1.07931E-14
 -1      3901 1.90041E+01 7.86680E-01 5.59545E-03-1.52819E-01-5.87670E-14-3.25839E-14
 -1      3902 1.85130E+01 1.00090E+00 6.76866E-04-2.08463E-01-1.79553E-14-1.64205E-14
 -1      3903 1.82236E+01 1.05767E+00-1.26896E-02-3.15030E-01 1.00816E-14-1.16270E-13
 -1      3904 1.86673E+01 8.93304E-01 7.12449E-03-3.43363E-01-7.85528E-14-1.78026E-13
 -1      3905 1.79936E+01 1.11413E+00 2.29829E-03-4.82555E-01-3.85772E-14-1.83590E-13
 -1      3906 1.76020E+01 1.14462E+00-1.58496E-02-6.59283E-01-4.70676E-14-2.26040E-13
 -1      3907 1.82409E+01 9.62725E-01 9.10826E-03-6.45895E-01-8.43143E-14-1.83335E-13
 -1      3908 1.73263E+01 1.16307E+00 7.93259E-03-9.06908E-01-1.32691E-13-2.43757E-13
 -1      3909 1.68031E+01 1.15719E+00-6.08073E-03-1.21193E+00-2.14342E-13-3.10179E-13
 -1      3910 1.77025E+01 9.59605E-01 1.08305E-02-1.10915E+00-1.32272E-13-3.71145E-13
 -1      3911 2.34090E+01-2.55947E+00 4.04061E-02 1.04791E+00-2.42582E-13-1.93355E-13
 -1      3912 2.03857E+01 6.44256E-01-2.43277E-03 5.89670E-02 1.31969E-13-1.24849E-13
 -1      3913 1.99430E+01 1.26567E-01 5.40900E-04-1.28132E-01-1.28577E-13 1.95256E-13
 -1      3914 1.99579E+01 1.04145E-01-6.70312E-04-1.15616E-01-8.48630E-14 2.41931E-13
 -1      3915 1.98600E+01 2.09883E-01 9.42869E-04-2.06567E-01-5.32953E-14 1.44548E-13
 -1      3916 1.98746E+01 1.90233E-01-1.00219E-03-1.81980E-01-1.08165E-13 8.35600E-14
 -1      3917 1.99025E+01 1.70193E-01 6.94575E-04-1.60764E-01-1.49499E-13 7.65859E-14
 -1      3918 1.99177E+01 1.48103E-01-8.36952E-04-1.42781E-01-1.70870E-13 1.65748E-13
 -1      3919 1.98664E+01 1.99131E-01 3.94247E-04-1.52676E-01-1.19519E-13 1.58801E-13
 -1      3920 1.97811E+01 2.50791E-01 1.86612E-03-3.50579E-01-4.61032E-14 1.31225E-13
 -1      3921 1.97873E+01 2.47354E-01-1.21235E-03-3.08912E-01-4.36672E-14 1.58353E-13
 -1      3922 1.97593E+01 2.30543E-01 2.60059E-03-4.56007E-01-7.21123E-14 1.33168E-13
 -1      3923 1.97538E+01 2.44450E-01-1.13342E-03-4.04062E-01-2.73878E-14 1.04794E-13
 -1      3924 1.97003E+01 2.88907E-01-3.48355E-04-3.64803E-01-6.26458E-14 7.16766E-14
 -1      3925 1.97677E+01 1.61961E-01 3.51761E-03-5.87694E-01-1.23050E-13 7.42286E-14
 -1      3926 1.97417E+01 2.02339E-01-7.70523E-04-5.25244E-01-1.29204E-13 1.19023E-13
 -1      3927 1.96579E+01 2.66663E-01-1.24000E-03-4.89065E-01-6.58427E-14 5.81525E-14
 -1      3928 1.98294E+01 2.35603E-02 4.51156E-03-7.45539E-01 2.23421E-14-2.34173E-14
 -1      3929 1.97707E+01 1.01842E-01 9.65029E-05-6.74378E-01-3.06192E-16 4.25868E-15
 -1      3930 1.96437E+01 1.90157E-01-2.76053E-03-6.49741E-01-5.09351E-14 4.66283E-15
 -1      3931 1.99783E+01-2.09156E-01 5.35347E-03-9.22644E-01-1.05596E-14 3.54619E-14
 -1      3932 1.98704E+01-8.02051E-02 1.81702E-03-8.48684E-01 1.87562E-14-6.24138E-14
 -1      3933 1.96837E+01 3.41380E-02-5.20655E-03-8.49916E-01 2.92344E-14-3.72031E-14
 -1      3934 2.02588E+01-5.57929E-01 5.76698E-03-1.09839E+00-1.37063E-13 4.18385E-14
 -1      3935 2.00827E+01-3.67952E-01 4.91446E-03-1.03507E+00-4.91775E-14 1.06118E-13
 -1      3936 1.98176E+01-2.31117E-01-8.80244E-03-1.08457E+00-5.30085E-14 3.34941E-14
 -1      3937 2.07265E+01-1.03375E+00 4.61278E-03-1.23022E+00-2.35765E-13 7.92908E-14
 -1      3938 2.04616E+01-7.79026E-01 9.85788E-03-1.20361E+00-2.38019E-13 3.43135E-14
 -1      3939 2.01017E+01-6.30568E-01-1.23270E-02-1.33606E+00-1.05272E-13 1.91201E-13
 -1      3940 2.14374E+01-1.60757E+00-2.54513E-04-1.23771E+00-1.06034E-14-3.32031E-14
 -1      3941 2.10720E+01-1.31361E+00 1.48938E-02-1.29126E+00-1.21028E-13 1.49642E-15
 -1      3942 2.06088E+01-1.17775E+00-1.49866E-02-1.55343E+00-1.37967E-13-4.03286E-14
 -1      3943 1.99810E+01 8.28334E-02 4.54353E-04-1.06086E-01-1.02681E-13 2.36661E-13
 -1      3944 1.99955E+01 6.14074E-02-5.14037E-04-9.80616E-02-8.05273E-14 2.27381E-13
 -1      3945 1.99623E+01 1.02595E-01 2.30863E-04-9.44721E-02-9.13992E-14 2.10205E-13
 -1      3946 1.68015E+01 9.73230E-01 1.09967E-02-1.56862E+00-2.17998E-13-2.76407E-13
 -1      3947 1.65153E+01 5.39989E-01 1.96920E-02-2.45157E+00-2.53695E-13-1.86542E-13
 -1      3948 1.74870E+01 6.09488E-02-3.36743E-02-2.52632E+00-2.00456E-13-1.06125E-13
 -1      3949 1.73520E+01 6.78532E-01-8.06994E-03-1.74520E+00-2.08777E-13-2.66783E-13
 -1      3950 2.22316E+01-2.06179E+00 1.71335E-02 1.43903E+00-6.81668E-14-2.81023E-13
 -1      3951 2.27460E+01-2.29000E+00 1.24618E-02 1.19110E+00-2.13725E-13-3.40378E-13
 -1      3952 2.01721E+01-6.18566E-02 2.40699E-04-1.30977E-01 7.75228E-14-4.04247E-14
 -1      3953 2.01887E+01-5.34554E-02 3.85394E-04-1.31845E-01 4.74696E-14-3.30870E-14
 -1      3954 2.01897E+01-6.60669E-02-5.37351E-04-1.14200E-01 9.69877E-14-6.33772E-14
 -1      3955 2.02882E+01 9.18679E-02-5.22023E-04-1.00095E-01 7.22047E-14-2.66212E-14
 -1      3956 2.03102E+01 1.50624E-01 1.77946E-03-7.53268E-02 1.05323E-13-2.03592E-14
 -1      3957 2.03154E+01 8.28102E-02-7.17143E-04-8.82461E-02 7.94976E-14-1.22963E-14
 -1      3958 2.04127E+01 4.72968E-01 5.33711E-03 1.87073E-02 1.09816E-13-1.22916E-13
 -1      3959 2.03985E+01 6.96171E-01-3.91472E-03 5.06074E-02 1.30811E-13-1.49125E-13
 -1      3960 2.03394E+01 5.56466E-02 5.78405E-04 7.37261E-02 4.08486E-15-8.45003E-14
 -1      3961 2.03173E+01 1.34875E-02-2.70707E-04 8.35145E-02 1.60209E-14-8.94059E-14
 -1      3962 2.03271E+01 3.28993E-03-3.16334E-04 6.55107E-02 3.61912E-14-1.22874E-13
 -1      3963 2.03668E+01 8.62775E-01 5.47472E-04-1.38750E-01 4.95756E-15-2.30157E-13
 -1      3964 2.03803E+01 6.81834E-01-1.85407E-03-7.80386E-02-8.43509E-17-2.30360E-13
 -1      3965 2.31462E+01-2.22441E+00 3.54838E-02-5.38173E-01 6.99081E-14-7.01631E-15
 -1      3966 2.03389E+01 1.06681E+00 5.51727E-05-1.40200E-01 3.09793E-14-2.64044E-13
 -1      3967 2.03762E+01 1.76759E-01 5.50841E-04 4.73139E-02-2.58508E-14-1.35948E-13
 -1      3968 2.03573E+01 1.09212E-01-5.57573E-04 6.57854E-02-1.64158E-14-1.15706E-13
 -1      3969 2.03698E+01 9.42179E-02-1.00465E-04 5.27968E-02 2.34356E-14-1.31146E-13
 -1      3970 1.98178E+01 2.39700E-01 1.32172E-03-2.68645E-01-3.04984E-14 1.77315E-13
 -1      3971 1.98299E+01 2.25739E-01-1.14227E-03-2.36180E-01 8.74391E-15 1.63238E-13
 -1      3972 1.97548E+01 2.76331E-01 1.29823E-04-2.71236E-01-4.64587E-14 1.71526E-13
 -1      3973 2.00168E+01 4.14353E-02 4.12214E-04-9.25339E-02-4.08408E-14 1.85154E-13
 -1      3974 2.00312E+01 2.19030E-02-3.60041E-04-8.81504E-02 5.91160E-14 1.73692E-13
 -1      3975 2.00043E+01 5.68716E-02 9.57896E-05-7.97968E-02-9.39110E-14 1.75083E-13
 -1      3976 1.96947E+01-1.39963E+00 1.60457E-02-2.92013E+00-3.40417E-14 1.61053E-13
 -1      3977 2.07114E+01-1.98768E+00-4.30932E-02-2.58535E+00 3.36790E-14 2.55556E-13
 -1      3978 2.17554E+01-2.22546E+00 4.24630E-02-2.13702E+00 2.75231E-14 7.61145E-14
 -1      3979 2.25809E+01-2.40835E+00-3.32701E-02-1.20058E+00 5.11546E-14 4.07992E-14
 -1      3980 2.22976E+01-2.13503E+00-1.69164E-02-1.04156E+00 7.76766E-14-2.43398E-14
 -1      3981 2.10790E+01-1.78599E+00 1.14607E-02-2.07012E+00 6.78212E-14 3.73232E-14
 -1      3982 2.03574E+01 2.63903E-01-1.32305E-03-3.16782E-02 1.08123E-13-9.74172E-15
 -1      3983 2.03881E+01 9.46938E-01 6.99164E-03 5.50358E-02 1.14508E-13-1.71761E-13
 -1      3984 2.03267E+01 1.16629E+00-2.71368E-03 3.65482E-02 1.21782E-13-2.04311E-13
 -1      3985 2.44125E+01-2.47990E-01-4.21679E-02 1.67499E+00 4.26673E-14 3.54803E-14
 -1      3986 2.01618E+01-6.78458E-02 3.24893E-04-9.03149E-02 5.22924E-14 8.27287E-15
 -1      3987 2.01805E+01-7.08255E-02 1.77197E-04-9.23179E-02 7.28868E-14 2.49170E-15
 -1      3988 2.00834E+01-3.41677E-02-2.50560E-04-1.00027E-01-4.18928E-14-1.14018E-14
 -1      3989 1.84701E+01-4.06077E-01 1.48650E-02-2.61077E+00-8.29289E-14-1.04196E-13
 -1      3990 1.90855E+01-9.73472E-01 3.70906E-03-2.86745E+00-4.44567E-14-2.21828E-14
 -1      3991 1.96896E+01-9.86609E-01 1.42379E-02-2.36534E+00 6.27916E-15 1.11517E-13
 -1      3992 1.98118E+01 2.43121E-01 3.44875E-04-2.02326E-01-6.37970E-14 1.56882E-13
 -1      3993 2.12882E+01-1.76364E+00-4.66116E-03 2.09071E+00 3.94990E-14-5.48579E-13
 -1      3994 2.07339E+01-1.58222E+00 1.12052E-02 2.52083E+00 1.57356E-13-1.70536E-13
 -1      3995 2.00515E+01 4.10197E-03 3.99476E-04-8.56736E-02 6.56653E-14 7.06411E-14
 -1      3996 2.00662E+01-1.29430E-02-2.64932E-04-8.40822E-02 5.52701E-15 3.15396E-14
 -1      3997 2.00439E+01 1.55197E-02-6.69432E-05-7.18608E-02-1.79047E-14 5.61200E-14
 -1      3998 1.99166E+01 1.50887E-01 3.39737E-04-1.17880E-01-6.45309E-14 1.43146E-13
 -1      3999 2.01230E+01-5.26524E-02 3.70668E-04-8.61434E-02 5.07400E-15 8.35337E-14
 -1      4000 2.01399E+01-6.17325E-02 1.81336E-05-8.79462E-02 6.48802E-14 8.88813E-14
 -1      4001 2.01647E+01-6.67358E-02-4.08556E-04-7.19018E-02-3.37948E-15 5.75206E-14
 -1      4002 2.03244E+01 1.16559E+00-3.71648E-03-2.24856E-02 9.78336E-14-2.14654E-13
 -1      4003 2.03736E+01 1.64954E-01 9.90000E-04-5.56097E-02 6.59397E-14-3.64387E-14
 -1      4004 2.03956E+01 2.90729E-01-1.49766E-03-1.62153E-02 7.45758E-14-8.78418E-14
 -1      4005 2.04157E+01 3.40442E-01-1.48838E-04-7.36753E-03 4.55637E-14-1.56202E-13
 -1      4006 2.18820E+01-1.83622E+00 2.66067E-02-1.19849E+00 7.52107E-14-2.51151E-14
 -1      4007 2.13633E+01-1.83449E+00-2.57181E-02-1.63791E+00 5.56162E-14-1.60612E-13
 -1      4008 1.87164E+01-6.29749E-01 7.55058E-03 2.87733E+00 1.76777E-14-6.20641E-15
 -1      4009 1.95229E+01-1.01475E+00-5.92140E-04 2.81854E+00 5.56324E-14 2.75561E-15
 -1      4010 2.09632E+01-1.37092E+00-1.45157E-02 1.89229E+00-2.99348E-14-6.38216E-13
 -1      4011 2.09390E+01-1.09178E+00 4.58881E-04 1.63371E+00-4.27339E-14-5.16718E-13
 -1      4012 2.11393E+01-1.13760E+00 5.92534E-03 1.43358E+00 1.76146E-14-4.34162E-13
 -1      4013 2.16958E+01-1.88878E+00-3.83560E-03 1.80767E+00-2.58708E-14-4.94747E-13
 -1      4014 2.47282E+01-1.47807E+00 2.98845E-02 9.24740E-01-3.35062E-14 1.25548E-14
 -1      4015 2.03310E+01 1.14097E+00-1.65314E-03-5.67876E-02 8.02381E-14-2.31714E-13
 -1      4016 2.03347E+01 1.10715E+00-2.54982E-03-1.10513E-01 5.31448E-14-2.65235E-13
 -1      4017 2.03901E+01 8.59628E-01 3.65531E-03-6.71149E-02 3.38696E-14-2.34921E-13
 -1      4018 2.03928E+01 9.32263E-01 6.43577E-03-1.48150E-02 7.02425E-14-2.02158E-13
 -1      4019 2.02309E+01-4.59608E-02-6.95027E-04-1.15277E-01 5.49060E-14-7.76204E-14
 -1      4020 2.03362E+01 4.85565E-02 4.35440E-04-7.72012E-02 8.78894E-14-3.63509E-14
 -1      4021 2.03570E+01 9.89857E-02 2.07210E-04-6.29106E-02 8.73339E-14-1.84353E-14
 -1      4022 2.03842E+01 1.23244E-01-5.02812E-04-4.05758E-02 7.14399E-14-8.36871E-14
 -1      4023 2.03981E+01 6.66398E-01-1.24768E-03-5.84571E-02 1.05471E-14-2.42680E-13
 -1      4024 2.03964E+01 5.53699E-01 1.22494E-03-5.10069E-02 1.02820E-14-2.25155E-13
 -1      4025 2.03932E+01 4.39849E-01-1.56309E-03-1.29182E-02-1.78605E-15-2.34822E-13
 -1      4026 2.04015E+01 7.15524E-01-3.24662E-03 2.01591E-02 1.02047E-13-1.67656E-13
 -1      4027 1.77846E+01-4.66933E-01 1.64789E-03 3.19037E+00-1.07850E-13-2.67411E-13
 -1      4028 2.03842E+01 2.45109E-01-6.45397E-04 3.53713E-02-6.54864E-15-1.78962E-13
 -1      4029 2.03983E+01 2.24085E-01 1.00681E-04 3.14166E-02 2.78305E-14-1.60888E-13
 -1      4030 2.03960E+01 3.25221E-01 1.11181E-03 1.00659E-02 1.34530E-14-2.03124E-13
 -1      4031 2.02919E+01-2.16072E-02 4.78273E-04-8.70684E-02 9.05183E-14-5.48964E-14
 -1      4032 2.03146E+01 8.04625E-03 3.64146E-04-8.05789E-02 1.11255E-13-3.08889E-14
 -1      4033 2.03436E+01 1.99977E-02-7.59143E-04-5.33322E-02 9.78628E-14-6.43196E-14
 -1      4034 1.63521E+01 4.76579E-01-2.14650E-02 2.45579E+00-2.06989E-13-2.62822E-13
 -1      4035 2.03064E+01-3.89710E-02 2.52200E-04 4.77708E-02 4.44565E-14-1.99975E-13
 -1      4036 2.02821E+01-5.67770E-02 1.38579E-04 4.98430E-02 4.15610E-14-2.23997E-13
 -1      4037 2.00868E+01-2.78602E-02 4.47655E-04-8.41499E-02-2.50246E-14 3.38915E-14
 -1      4038 2.01021E+01-4.14281E-02-1.04750E-04-8.46641E-02-1.26983E-14 5.95153E-14
 -1      4039 2.00831E+01-2.03137E-02-2.59075E-04-6.87407E-02 1.17981E-15-2.26957E-14
 -1      4040 2.02569E+01-6.78153E-02 2.34893E-04 4.89474E-02 2.44436E-14-2.03811E-13
 -1      4041 2.02332E+01-7.32146E-02 2.25707E-04 4.92524E-02-3.18658E-14-1.93914E-13
 -1      4042 2.02774E+01-6.17443E-02-4.89672E-04 2.78384E-02 2.33275E-14-2.13811E-13
 -1      4043 2.02072E+01-7.34279E-02 2.03812E-04 4.75608E-02-5.76315E-14-1.80843E-13
 -1      4044 2.01834E+01-6.90260E-02 2.62160E-04 4.70431E-02-4.79892E-14-1.65358E-13
 -1      4045 2.02264E+01-7.40986E-02-6.10391E-04 2.74514E-02-8.67219E-15-1.72335E-13
 -1      4046 2.01595E+01-6.11546E-02 1.40487E-04 4.54881E-02-3.09106E-14-1.36991E-13
 -1      4047 2.01379E+01-5.01454E-02 2.22511E-04 4.49068E-02-3.87590E-14-8.13559E-14
 -1      4048 2.01765E+01-6.63285E-02-6.22174E-04 2.64902E-02-2.24815E-14-1.72602E-13
 -1      4049 2.01148E+01-3.64380E-02 4.32657E-05 4.35668E-02-5.64306E-14-5.33265E-14
 -1      4050 2.00938E+01-2.00956E-02 1.50042E-04 4.32988E-02-4.48908E-14-9.40944E-14
 -1      4051 2.01302E+01-4.42576E-02-4.26583E-04 2.52424E-02-1.50773E-15-9.80790E-14
 -1      4052 2.00707E+01-1.56380E-03-6.75968E-05 4.24231E-02-1.02919E-13-8.57881E-14
 -1      4053 2.00494E+01 1.91940E-02 4.20739E-05 4.27473E-02-8.23030E-14-1.43793E-13
 -1      4054 2.00846E+01-1.09780E-02-1.35331E-04 2.37748E-02-1.02181E-13-1.02208E-13
 -1      4055 2.00254E+01 4.20704E-02-1.42194E-04 4.18767E-02-2.87131E-14-1.13397E-13
 -1      4056 2.00023E+01 6.70150E-02-1.18911E-04 4.28290E-02-1.36068E-14-1.23627E-13
 -1      4057 2.00386E+01 3.10112E-02 5.10676E-05 2.23484E-02-4.66851E-14-2.44548E-14
 -1      4058 1.99760E+01 9.41101E-02-2.19734E-04 4.17767E-02-2.54145E-14-1.99041E-13
 -1      4059 1.99493E+01 1.23216E-01-3.50383E-04 4.30008E-02-6.47774E-14-1.79693E-13
 -1      4060 1.99893E+01 8.15370E-02 3.27123E-04 2.02047E-02-7.33194E-14-1.78924E-13
 -1      4061 1.99193E+01 1.54729E-01-2.75724E-04 4.10301E-02-1.05770E-13-1.93143E-13
 -1      4062 1.98867E+01 1.88155E-01-6.73387E-04 4.17829E-02-1.66122E-13-1.60525E-13
 -1      4063 1.99338E+01 1.40069E-01 6.58941E-04 1.61462E-02-5.78772E-14-1.67314E-13
 -1      4064 1.98511E+01 2.24385E-01-2.87834E-04 3.76822E-02-1.58124E-13-1.39807E-13
 -1      4065 1.98097E+01 2.62259E-01-1.12686E-03 3.66099E-02-7.10028E-14-1.44884E-13
 -1      4066 1.98686E+01 2.06537E-01 1.02112E-03 8.13952E-03-1.26381E-13-7.12491E-14
 -1      4067 1.97664E+01 3.03439E-01-2.24742E-04 2.84208E-02-4.03989E-14-1.59798E-13
 -1      4068 1.97126E+01 3.45525E-01-1.80619E-03 2.33891E-02 5.68159E-15-7.32398E-14
 -1      4069 1.97893E+01 2.80624E-01 1.39910E-03-7.14374E-03-1.01805E-14-7.43702E-15
 -1      4070 1.96567E+01 3.93908E-01 9.35386E-06 7.20942E-03 7.24574E-14-2.40455E-14
 -1      4071 1.95820E+01 4.42025E-01-2.67818E-03-6.52723E-03 5.18218E-14-1.05768E-14
 -1      4072 1.96885E+01 3.63202E-01 1.71336E-03-3.58146E-02 5.23976E-14-1.27227E-14
 -1      4073 1.95165E+01 4.92118E-01 3.56836E-04-3.40520E-02-5.19438E-14-2.96714E-14
 -1      4074 1.94222E+01 5.39673E-01-3.83487E-03-6.04261E-02-6.17641E-14-5.60904E-14
 -1      4075 1.95630E+01 4.49570E-01 1.95428E-03-8.56584E-02 2.86941E-14-6.38406E-14
 -1      4076 1.93432E+01 5.91354E-01 1.05933E-03-1.06125E-01-9.57958E-14 2.42317E-15
 -1      4077 1.92195E+01 6.36673E-01-5.43017E-03-1.53540E-01-8.12000E-14-3.40964E-14
 -1      4078 1.94115E+01 5.32081E-01 2.05376E-03-1.66315E-01-2.06849E-14-1.72333E-13
 -1      4079 1.91264E+01 6.85591E-01 2.17902E-03-2.26397E-01-8.70568E-14-4.93045E-15
 -1      4080 1.89656E+01 7.22029E-01-7.49515E-03-3.05904E-01-9.91527E-14-5.43424E-14
 -1      4081 1.92274E+01 6.02970E-01 1.86101E-03-2.94316E-01-6.53569E-14-8.01716E-14
 -1      4082 1.88598E+01 7.60302E-01 3.94897E-03-4.17889E-01-1.34344E-13-4.83599E-14
 -1      4083 1.86534E+01 7.76629E-01-1.00845E-02-5.44609E-01-1.31447E-13-8.24339E-14
 -1      4084 1.90094E+01 6.45876E-01 1.10939E-03-4.90743E-01-1.35483E-13 7.47780E-15
 -1      4085 1.85404E+01 7.91013E-01 6.70977E-03-7.11176E-01-1.54183E-13-1.16277E-13
 -1      4086 1.82799E+01 7.70373E-01-1.27421E-02-9.06154E-01-1.20480E-13-2.26500E-13
 -1      4087 1.87616E+01 6.34652E-01-5.48777E-04-7.82826E-01-1.60340E-13-6.53303E-14
 -1      4088 1.81756E+01 7.25075E-01 7.73143E-03-1.14620E+00-1.38454E-13-2.29566E-13
 -1      4089 1.78832E+01 6.51577E-01-1.07512E-02-1.44590E+00-1.79311E-13-3.09316E-13
 -1      4090 1.85018E+01 5.29431E-01-2.43703E-03-1.20051E+00-1.41435E-13-1.23350E-13
 -1      4091 1.98340E+01 2.29199E-01 7.55203E-04-1.35915E-01-9.20155E-14 1.09999E-13
 -1      4092 1.98583E+01 2.01534E-01-1.14843E-03-1.16030E-01-9.57010E-14 1.28874E-13
 -1      4093 1.98928E+01 1.75199E-01 5.13728E-04-1.01006E-01-8.13390E-14 7.59075E-14
 -1      4094 1.99154E+01 1.47825E-01-8.57236E-04-8.73716E-02-3.08395E-14 1.22032E-13
 -1      4095 1.98630E+01 2.03719E-01 8.92181E-04-8.37800E-02-8.91148E-14-1.55682E-14
 -1      4096 1.95647E+01 3.32175E-01 3.97015E-03-4.97769E-01-3.15852E-14-1.08382E-13
 -1      4097 1.95727E+01 3.41126E-01-2.49410E-03-4.26543E-01-3.16395E-14-7.42976E-14
 -1      4098 1.96271E+01 3.43876E-01 2.69041E-03-3.59828E-01-5.80111E-14-3.32303E-14
 -1      4099 1.96466E+01 3.34226E-01-2.20467E-03-3.06408E-01-2.22604E-15 4.45648E-14
 -1      4100 1.95259E+01 3.96153E-01 2.02575E-04-3.64583E-01-1.83960E-14-1.56157E-13
 -1      4101 1.95426E+01 1.18005E-01 7.88327E-03-9.19900E-01 2.67867E-14-1.29909E-14
 -1      4102 1.94894E+01 2.01024E-01-2.11160E-03-8.04634E-01-7.04864E-15-1.69389E-14
 -1      4103 1.96501E+01-1.49557E-01 8.93918E-03-1.21357E+00-9.00303E-14 1.74010E-13
 -1      4104 1.95373E+01-1.90206E-03-7.75083E-04-1.07844E+00 1.15043E-14 1.70787E-13
 -1      4105 1.93108E+01 1.60192E-01-7.62046E-03-1.03478E+00-7.83358E-14 7.10962E-14
 -1      4106 1.99034E+01-5.67655E-01 7.77913E-03-1.54175E+00-1.05040E-13 1.75838E-13
 -1      4107 1.97153E+01-3.39439E-01 3.42583E-03-1.39797E+00-5.10909E-14 2.27351E-13
 -1      4108 1.93718E+01-1.45236E-01-1.45815E-02-1.40997E+00-6.73214E-14 9.73367E-14
 -1      4109 2.02203E+01-1.25316E+00 8.69965E-03 2.56064E+00 2.40825E-13-1.75501E-13
 -1      4110 1.99452E+01 1.22151E-01 3.83541E-04-7.77505E-02-7.34104E-14 1.08769E-13
 -1      4111 1.99661E+01 9.63591E-02-6.12405E-04-6.88120E-02-1.07495E-13 1.20826E-13
 -1      4112 1.99233E+01 1.45349E-01 6.43051E-04-6.04910E-02-5.55014E-14-7.09110E-15
 -1      4113 2.02034E+01-6.99477E-02 2.55621E-04-9.44932E-02 8.75646E-14-7.77296E-14
 -1      4114 2.02246E+01-6.44488E-02 4.26582E-04-9.54802E-02 4.03753E-14-8.87749E-14
 -1      4115 2.02087E+01-7.19564E-02-5.38685E-04-7.50329E-02 9.91077E-15-2.86049E-14
 -1      4116 2.18289E+01-1.66965E+00 9.53755E-03 1.26593E+00-3.99166E-14-3.37811E-13
 -1      4117 2.06488E+01-1.44311E+00 1.13148E-02-2.02942E+00 1.60048E-14 3.92853E-14
 -1      4118 1.72771E+01 1.06896E-01 3.47850E-02 2.78113E+00-1.57155E-13-4.24842E-13
 -1      4119 2.03537E+01 2.20244E-02 1.94136E-04 4.27147E-02 1.68790E-14-1.27884E-13
 -1      4120 2.03307E+01-1.30231E-02 4.73715E-05 4.80363E-02 3.56625E-14-1.56891E-13
 -1      4121 2.03278E+01-2.35579E-02-4.18837E-04 2.68165E-02-2.06288E-14-1.62383E-13
 -1      4122 2.03941E+01 1.26942E-01 9.15944E-05 3.15765E-02 1.74255E-14-1.34076E-13
 -1      4123 2.03751E+01 6.82550E-02-8.97000E-05 4.12417E-02 1.17797E-14-1.36465E-13
 -1      4124 2.03740E+01 5.04674E-02-3.10681E-04 2.30257E-02 3.33785E-14-1.17668E-13
 -1      4125 2.00181E+01-1.10943E+00-7.32166E-03-2.16704E+00 3.02276E-14 2.49419E-13
 -1      4126 2.04472E+01-1.12992E+00 1.11669E-02-1.77663E+00-5.03812E-15 7.23143E-14
 -1      4127 2.01202E+01-8.15351E-01 8.82513E-03-1.67638E+00-1.02510E-13 2.21799E-13
 -1      4128 1.94897E+01-7.09227E-01-8.56100E-03-2.11246E+00-2.40488E-14 9.20494E-14
 -1      4129 2.14316E+01-1.43161E+00-5.79992E-04 1.39739E+00-4.72057E-14-3.09119E-13
 -1      4130 2.04339E+01 5.44069E-01 4.68319E-03 8.16539E-03 8.25960E-14-1.52247E-13
 -1      4131 2.04046E+01 7.36523E-01-2.65806E-03 3.98027E-03 9.41512E-14-1.66348E-13
 -1      4132 1.96981E+01 3.21687E-01 1.77936E-03-2.58996E-01-3.91016E-14 1.81992E-14
 -1      4133 1.97225E+01 3.01307E-01-1.83657E-03-2.19769E-01-2.61895E-14 6.50189E-14
 -1      4134 1.96231E+01 3.68444E-01 8.14220E-04-2.51656E-01-4.79991E-14-1.55395E-14
 -1      4135 2.02468E+01-5.62860E-02 2.86903E-04-9.29413E-02 6.69079E-14-9.77616E-14
 -1      4136 2.02695E+01-4.02952E-02 4.53910E-04-9.12477E-02 7.45265E-14-7.61462E-14
 -1      4137 2.02981E+01-3.61392E-02-9.22968E-04-6.25387E-02 1.02015E-13-2.63988E-14
 -1      4138 2.02539E+01-6.22421E-02-8.10667E-04-7.21837E-02 4.51909E-14-4.15275E-14
 -1      4139 1.99924E+01 7.24500E-02 3.25657E-04-6.30482E-02-1.47137E-13 1.10601E-13
 -1      4140 2.00122E+01 4.90362E-02-3.99479E-04-5.76428E-02-8.70928E-14 4.60136E-14
 -1      4141 1.99762E+01 9.09311E-02 3.74454E-04-4.58959E-02-1.31137E-13-6.00444E-14
 -1      4142 1.97686E+01 2.80134E-01 1.14817E-03-1.86741E-01-1.00440E-14 3.66448E-14
 -1      4143 1.97939E+01 2.54401E-01-1.48332E-03-1.58522E-01-4.24920E-14 5.41021E-14
 -1      4144 1.97133E+01 3.20657E-01 1.03597E-03-1.73139E-01-3.29351E-14 9.08588E-15
 -1      4145 1.95274E+01 2.66053E-01 5.66910E-03-6.81942E-01-6.97584E-14-7.25036E-14
 -1      4146 1.95132E+01 3.04663E-01-2.55705E-03-5.89523E-01-9.61863E-14-9.93437E-14
 -1      4147 1.94295E+01 3.87657E-01-1.08054E-03-5.23708E-01-2.05008E-14-2.48026E-13
 -1      4148 1.93489E+01 3.19680E-01-3.46485E-03-7.42534E-01-7.18176E-14-6.75269E-14
 -1      4149 2.01228E+01-4.82630E-02-3.24788E-04-6.92679E-02 8.41450E-15 7.42363E-14
 -1      4150 1.82222E+01-7.80353E-02-6.18460E-03-2.28439E+00-1.37577E-13-1.76254E-13
 -1      4151 1.97935E+01 2.63667E-01 1.08635E-03-1.19528E-01-1.99451E-14-4.37327E-14
 -1      4152 2.00241E+01 4.19039E-02 9.48569E-05-3.73053E-02-1.14951E-13-6.59235E-14
 -1      4153 2.00364E+01 2.75412E-02 3.12268E-04-5.46055E-02-5.99557E-14 2.53801E-14
 -1      4154 2.00559E+01 7.32135E-03-1.27145E-04-5.20320E-02-6.10366E-14-6.84417E-14
 -1      4155 2.03450E+01 1.47461E-03 2.50042E-05-3.69638E-02 8.37124E-14-1.07594E-13
 -1      4156 2.03679E+01 4.14570E-02 3.00176E-04-3.12463E-02 8.71053E-14-1.13647E-13
 -1      4157 2.03852E+01 7.22222E-02-2.67009E-04-1.35041E-02 5.59389E-14-1.73326E-13
 -1      4158 2.03881E+01 9.29725E-02-1.39724E-04-3.11294E-02 7.88662E-14-1.53896E-13
 -1      4159 2.04059E+01 1.56880E-01-3.19285E-04-2.04922E-02 3.93983E-14-1.71377E-13
 -1      4160 1.96318E+01-5.37915E-01-7.74408E-03-1.74741E+00-1.10653E-13 1.24988E-13
 -1      4161 1.79455E+01 4.85004E-01 1.97866E-02-1.76143E+00-2.12629E-13-2.87163E-13
 -1      4162 2.04113E+01 4.11021E-01-5.22606E-04-4.40430E-03 2.85459E-14-2.23240E-13
 -1      4163 2.01649E+01-6.42650E-02 3.37085E-04-5.17310E-02-2.68359E-14 1.22422E-14
 -1      4164 2.01865E+01-7.08222E-02 1.31522E-04-5.23832E-02-1.52693E-14-2.94174E-14
 -1      4165 2.02112E+01-7.35933E-02 3.21847E-04-5.40580E-02-1.79775E-14-2.15220E-14
 -1      4166 2.02347E+01-7.19713E-02 3.50403E-04-5.45425E-02 6.64447E-17-3.60751E-14
 -1      4167 2.02065E+01-7.34243E-02-6.51430E-04-3.26212E-02-1.35651E-14-7.48906E-14
 -1      4168 2.04067E+01 7.12025E-01-3.12050E-03-1.96319E-02 5.68566E-14-1.69148E-13
 -1      4169 2.04009E+01 7.07430E-01-1.28704E-03-4.23532E-02 3.94882E-14-2.22786E-13
 -1      4170 2.04069E+01 1.87264E-01-2.39029E-04 2.87968E-02 5.57308E-14-1.37154E-13
 -1      4171 2.04086E+01 1.61281E-01 5.54583E-05 1.68152E-02 3.71787E-14-1.31651E-13
 -1      4172 2.04170E+01 2.60755E-01-1.04313E-04 1.76322E-02 6.61121E-14-1.52125E-13
 -1      4173 2.04230E+01 2.43279E-01 1.13763E-03-1.75163E-02 2.72799E-14-1.54384E-13
 -1      4174 2.04271E+01 3.97836E-01-2.39896E-03 5.52220E-03 6.31908E-14-1.62507E-13
 -1      4175 2.04337E+01 4.21286E-01-6.92676E-04 8.85974E-04 7.40647E-14-1.26376E-13
 -1      4176 2.04199E+01 2.12641E-01 4.49417E-04-5.90193E-03 3.30511E-14-1.74694E-13
 -1      4177 2.03824E+01 5.83943E-02-2.17720E-04 3.61718E-03 4.73480E-14-1.56211E-13
 -1      4178 2.03615E+01 1.42047E-02 5.95516E-04 6.30482E-03 3.42257E-14-1.49245E-13
 -1      4179 2.02946E+01-5.65491E-02 2.30870E-04 5.33368E-03-7.33323E-15-1.00448E-13
 -1      4180 2.02697E+01-6.80242E-02 4.53846E-04 6.02885E-03 3.05935E-14-1.31720E-13
 -1      4181 2.02454E+01-7.32035E-02 2.77569E-04-3.41542E-03 1.09344E-14-1.13182E-13
 -1      4182 2.02198E+01-7.41799E-02 3.21675E-04-2.83447E-03-2.60715E-14-1.01755E-13
 -1      4183 2.01953E+01-7.08566E-02 4.23774E-04-3.21748E-03-1.95912E-14-1.02273E-13
 -1      4184 2.01712E+01-6.35556E-02 2.85773E-04-3.01009E-03 1.29226E-15-1.04133E-13
 -1      4185 2.00979E+01-2.13299E-02 1.85013E-04 3.97964E-03-8.91376E-14-8.98757E-14
 -1      4186 2.00746E+01-2.59744E-03 6.53579E-05 3.49392E-03-8.33856E-14-7.81633E-14
 -1      4187 2.00550E+01 1.40419E-02 7.82278E-05-5.91254E-03-9.22635E-14-4.97679E-14
 -1      4188 2.00309E+01 3.62149E-02-1.80463E-04-6.81938E-03-7.29146E-14-7.99801E-14
 -1      4189 2.00074E+01 6.00471E-02 6.11825E-05-9.74498E-03-9.99635E-14-1.08608E-13
 -1      4190 1.99807E+01 8.58213E-02-4.26943E-04-1.15983E-02-8.52990E-14-1.38530E-13
 -1      4191 1.99553E+01 1.13159E-01-4.91643E-06-1.66323E-02-6.62166E-14-1.39212E-13
 -1      4192 1.99244E+01 1.42283E-01-7.23675E-04-2.03005E-02-9.41373E-14-1.55690E-13
 -1      4193 1.98960E+01 1.72785E-01-2.58326E-05-2.85269E-02-8.50844E-14-7.70728E-14
 -1      4194 1.98590E+01 2.04939E-01-1.07639E-03-3.53544E-02-7.24061E-14-9.78013E-15
 -1      4195 1.98267E+01 2.38074E-01 3.64913E-05-4.83099E-02-5.09135E-14-1.66842E-14
 -1      4196 1.97813E+01 2.72564E-01-1.49730E-03-6.04109E-02-1.24907E-14-1.07903E-14
 -1      4197 1.97445E+01 3.07399E-01 2.97682E-04-8.02190E-02 6.84543E-15-4.85850E-14
 -1      4198 1.96855E+01 3.44933E-01-1.88500E-03-1.02120E-01-2.27612E-14-1.01717E-13
 -1      4199 1.96439E+01 3.79159E-01 7.58144E-04-1.32085E-01-3.97597E-14-8.49660E-14
 -1      4200 1.95739E+01 4.13507E-01-2.27715E-03-1.66392E-01 1.19974E-14-7.66247E-14
 -1      4201 1.95287E+01 4.43716E-01 1.52123E-03-2.10613E-01 3.22748E-15-1.44517E-13
 -1      4202 1.94433E+01 4.72444E-01-2.67728E-03-2.64696E-01-2.25951E-14-1.84912E-13
 -1      4203 1.93976E+01 4.93006E-01 2.73817E-03-3.28795E-01-1.91252E-14-1.70312E-13
 -1      4204 1.92957E+01 5.09387E-01-2.91470E-03-4.11456E-01-4.74470E-14-1.72338E-13
 -1      4205 1.92555E+01 5.11524E-01 4.60989E-03-5.02351E-01-7.03814E-14-1.38430E-13
 -1      4206 1.91384E+01 5.05096E-01-2.78900E-03-6.24989E-01-1.10086E-13-1.48603E-13
 -1      4207 1.91147E+01 4.75732E-01 7.34608E-03-7.50590E-01-1.71344E-13-7.80102E-14
 -1      4208 1.89879E+01 4.30607E-01-2.04239E-03-9.26845E-01-1.33232E-13-7.36835E-14
 -1      4209 1.89974E+01 3.50164E-01 1.03311E-02-1.09658E+00-9.26123E-14-7.41513E-14
 -1      4210 1.88717E+01 2.56588E-01 2.66487E-03-1.33951E+00-1.23639E-13-1.16208E-13
 -1      4211 2.03253E+01-2.29710E-02 5.97746E-04-4.03636E-02 7.15725E-14-1.03196E-13
 -1      4212 2.03435E+01-5.52499E-03-5.69342E-04-2.01363E-02 4.47183E-14-1.61553E-13
 -1      4213 2.03030E+01-4.20721E-02 2.16246E-04-4.68982E-02 5.74353E-14-7.81162E-14
 -1      4214 2.03415E+01-1.32309E-02 9.83235E-05 3.43507E-04-2.22145E-15-1.30410E-13
 -1      4215 1.86456E+01-4.69099E-02-1.56125E-02-1.90107E+00-1.82458E-13-1.19919E-13
 -1      4216 2.01413E+01-5.49394E-02 8.04544E-06-5.04248E-02 5.85138E-15-2.79844E-14
 -1      4217 2.01592E+01-6.06332E-02-5.06260E-04-3.16891E-02-7.96804E-15-7.66740E-14
 -1      4218 2.01213E+01-4.25982E-02 3.67125E-04-5.01752E-02 5.00532E-14-6.35906E-14
 -1      4219 1.88986E+01 7.06454E-02-1.75646E-03-1.56566E+00-1.63229E-13-1.06625E-13
 -1      4220 2.04271E+01 5.54230E-01 2.96031E-03-1.92317E-02 5.25776E-14-1.71926E-13
 -1      4221 1.93222E+01-4.11586E-01 1.52183E-02-1.94523E+00-1.48318E-13 3.06527E-14
 -1      4222 2.03169E+01-3.94717E-02 2.82191E-04 2.09495E-03-2.59509E-14-1.37085E-13
 -1      4223 2.00759E+01-7.68765E-03 2.92127E-04-4.34672E-02-2.50427E-14-1.01365E-13
 -1      4224 2.00957E+01-2.50179E-02-6.82582E-05-4.24314E-02 3.67308E-14-5.90483E-14
 -1      4225 2.04028E+01 1.15067E-01 4.22346E-04 5.83240E-03 3.04022E-14-1.81160E-13
 -1      4226 2.01476E+01-5.32007E-02 3.45748E-04-3.32790E-03 2.73019E-14-1.34852E-13
 -1      4227 2.04242E+01 4.19555E-01-1.33100E-03 2.66270E-03 5.92962E-14-1.50334E-13
 -1      4228 2.02555E+01-7.04415E-02-6.71123E-04-2.46105E-02 2.46827E-14-5.80444E-14
 -1      4229 2.01239E+01-3.99928E-02 7.67438E-05-3.28150E-03-2.08542E-14-1.72012E-13
 -1      4230 2.00661E+01 2.81344E-03-1.83563E-04-2.52027E-02-7.33669E-14-5.16857E-14
 -1      4231 2.01111E+01-3.23969E-02-2.67405E-04-2.38529E-02 2.03988E-14-1.49071E-13
 -1      4232 2.02592E+01-6.63441E-02 1.13708E-04-4.70428E-02 3.53345E-14-4.19661E-14
 -1      4233 2.04158E+01 1.74167E-01-3.61972E-05 1.97778E-03 4.56751E-14-1.65343E-13
 -1      4234 2.04275E+01 3.04793E-01 1.43100E-03 5.66654E-03 7.03485E-14-1.45383E-13
 -1      4235 2.03020E+01-4.84146E-02-5.18877E-04-2.09777E-02 1.04587E-14-6.82314E-14
 -1      4236 2.02818E+01-5.72693E-02 4.47442E-04-4.18401E-02 6.36796E-14-2.77826E-14
 -1      4237 2.04288E+01 2.61786E-01-2.95570E-04 4.32112E-03 6.97494E-14-1.40404E-13
 -3
    1PSTEP                         3           1           1          
  100CL  101 1.000000000        4237                     0    1           1
 -4  TOSTRAIN    6    1
 -5  EXX         1    4    1    1
 -5  EYY         1    4    2    2
 -5  EZZ         1    4    3    3
 -5  EXY         1    4    1    2
 -5  EYZ         1    4    2    3
 -5  EZX         1    4    3    1
 -1         1 3.49941E-04-1.07332E-04-8.68151E-05-3.39801E-05-9.62971E-19 7.94930E-18
 -1         2 3.85340E-05-1.19685E-04 2.23939E-05 1.08812E-07 6.12966E-18 3.82647E-19
 -1         3 9.52052E-05-2.86041E-05-2.84969E-05-2.65355E-08-2.48915E-18-2.47516E-18
 -1         4 9.50571E-05-2.88278E-05-2.82146E-05 3.45646E-07 2.36381E-18-1.40959E-18
 -1         5 1.43344E-04-2.14782E-05-4.25277E-05 3.85304E-05-2.69515E-19 1.83721E-17
 -1         6 1.45405E-04 2.57561E-10-4.41859E-05-5.35263E-05-1.11088E-18 1.22054E-17
 -1         7 9.06055E-05-5.11055E-07-3.90670E-05-2.92533E-05-1.57972E-19 3.19649E-19
 -1         8 8.51235E-05 8.62848E-08-3.63382E-05-2.02726E-05-1.31105E-19-2.79555E-18
 -1         9 8.28125E-05 7.64923E-08-3.53502E-05-1.56410E-05-9.11619E-20-4.28221E-18
 -1        10 8.17734E-05 3.91304E-08-3.48819E-05-1.20804E-05-3.85797E-20-4.80197E-18
 -1        11 8.12549E-05 1.91357E-08-3.46539E-05-9.01456E-06-1.47337E-20-4.87063E-18
 -1        12 8.09853E-05 9.15696E-09-3.45395E-05-6.28496E-06 2.28351E-20-4.70675E-18
 -1        13 8.08441E-05 4.59494E-09-3.44817E-05-3.68614E-06 3.28730E-20-4.49806E-18
 -1        14 8.07852E-05 2.70726E-09-3.44581E-05-1.18394E-06 7.54099E-20-4.20998E-18
 -1        15 8.07873E-05 2.68496E-09-3.44589E-05 1.28902E-06 9.80416E-20-3.88744E-18
 -1        16 8.08506E-05 4.47884E-09-3.44839E-05 3.79651E-06 1.18303E-19-3.50163E-18
 -1        17 8.09967E-05 8.40242E-09-3.45428E-05 6.40785E-06 1.51377E-19-2.96571E-18
 -1        18 8.12708E-05 1.82380E-08-3.46584E-05 9.15692E-06 1.54521E-19-2.16352E-18
 -1        19 8.17973E-05 3.83071E-08-3.48896E-05 1.22585E-05 2.12334E-19-1.00856E-18
 -1        20 8.28384E-05 8.05383E-08-3.53628E-05 1.58729E-05 2.43866E-19 7.49932E-19
 -1        21 8.50860E-05 1.70005E-07-3.63763E-05 2.04840E-05 2.42410E-19 3.64615E-18
 -1        22 9.16418E-05-9.90650E-08-3.87393E-05 2.79991E-05 1.27055E-20 8.73949E-18
 -1        23 1.12973E-04-3.81256E-05-3.53966E-05-4.40252E-06-7.23710E-19 8.51946E-18
 -1        24 9.28055E-05-2.76974E-05-2.89995E-05 3.91366E-07-1.49766E-19 5.30048E-18
 -1        25 8.91212E-05-2.68527E-05-2.69298E-05 3.75867E-07-1.23802E-19 2.03501E-18
 -1        26 8.80180E-05-2.64891E-05-2.63924E-05 2.04021E-07 4.17147E-21-3.04085E-19
 -1        27 8.80447E-05-2.64675E-05-2.63846E-05 1.39873E-07 1.17261E-20-1.31689E-18
 -1        28 8.85788E-05-2.66040E-05-2.65543E-05 1.00855E-07-5.66040E-20-1.96145E-18
 -1        29 8.93337E-05-2.68166E-05-2.67869E-05 7.51344E-08-4.35702E-20-3.17645E-18
 -1        30 9.01609E-05-2.70572E-05-2.70375E-05 5.64230E-08-1.38953E-20-3.93905E-18
 -1        31 9.10074E-05-2.73068E-05-2.72931E-05 4.25129E-08-8.07013E-21-4.68138E-18
 -1        32 9.17527E-05-2.75276E-05-2.75176E-05 3.16743E-08-1.64713E-19-5.41863E-18
 -1        33 9.24128E-05-2.77242E-05-2.77167E-05 2.33649E-08-9.51423E-21-5.55901E-18
 -1        34 9.29818E-05-2.78941E-05-2.78884E-05 1.67555E-08 3.04872E-20-4.80361E-18
 -1        35 9.34629E-05-2.80381E-05-2.80338E-05 1.15344E-08 5.39850E-20-4.56673E-18
 -1        36 9.38660E-05-2.81591E-05-2.81558E-05 7.43332E-09-6.41186E-20-4.72827E-18
 -1        37 9.42057E-05-2.82613E-05-2.82587E-05 4.24239E-09-1.38735E-19-5.00983E-18
 -1        38 9.45001E-05-2.83502E-05-2.83480E-05 1.80141E-09 6.48756E-20-6.12464E-18
 -1        39 9.47704E-05-2.84322E-05-2.84302E-05-1.17185E-10 2.23645E-20-7.16187E-18
 -1        40 9.50556E-05-2.85186E-05-2.85171E-05-1.22806E-09-7.91719E-20-8.07123E-18
 -1        41 9.53605E-05-2.86114E-05-2.86101E-05-1.85032E-09 1.87311E-19-7.89134E-18
 -1        42 9.57358E-05-2.87256E-05-2.87246E-05-1.71443E-09-1.13693E-19-8.09798E-18
 -1        43 9.62305E-05-2.88761E-05-2.88757E-05-5.65701E-10 4.77691E-20-7.06002E-18
 -1        44 9.69095E-05-2.90824E-05-2.90832E-05 2.15419E-09 7.73869E-21-7.69840E-18
 -1        45 9.78617E-05-2.93714E-05-2.93747E-05 7.47383E-09 6.29745E-20-8.08256E-18
 -1        46 9.92106E-05-2.97800E-05-2.97882E-05 1.72147E-08-4.77173E-19-7.84083E-18
 -1        47 1.01129E-04-3.03591E-05-3.03774E-05 3.49790E-08-1.82031E-19-8.64299E-18
 -1        48 1.03859E-04-3.11853E-05-3.12165E-05 5.82062E-08 8.41789E-20-7.97200E-18
 -1        49 1.07943E-04-3.24077E-05-3.24747E-05 1.23333E-07 3.48642E-19-8.13205E-18
 -1        50 1.13436E-04-3.40521E-05-3.41627E-05 2.11451E-07-3.95191E-19-8.55281E-18
 -1        51 1.20922E-04-3.62835E-05-3.64458E-05 3.52943E-07 1.24728E-19-9.16527E-18
 -1        52 1.30653E-04-3.91798E-05-3.93551E-05 5.48016E-07-2.63527E-19-9.01238E-18
 -1        53 1.42162E-04-4.26172E-05-4.26514E-05 7.40110E-07-2.03478E-19-7.24232E-18
 -1        54 1.53252E-04-4.59772E-05-4.55429E-05 7.12949E-07 1.27849E-19-6.65953E-18
 -1        55 1.58760E-04-4.77348E-05-4.65251E-05 5.35978E-09 2.45937E-19-6.55177E-18
 -1        56 1.51043E-04-4.55123E-05-4.39657E-05-1.90265E-06-3.54722E-19-5.47310E-18
 -1        57 1.27639E-04-3.82290E-05-3.81187E-05-3.87066E-06 4.81760E-19-5.34118E-18
 -1        58 9.86336E-05-2.89256E-05-3.17856E-05-3.73342E-06 1.93176E-19-6.82751E-18
 -1        59 8.16671E-05-2.34833E-05-2.84026E-05-7.18067E-07-2.32987E-19-9.00740E-18
 -1        60 9.26805E-05-2.70412E-05-3.05290E-05 3.44211E-06 9.33060E-21-7.37512E-18
 -1        61 1.23493E-04-3.70001E-05-3.70578E-05 3.99900E-06-2.13826E-19-5.26876E-18
 -1        62 1.48743E-04-4.48420E-05-4.32764E-05 1.91464E-06-2.12989E-19-4.91385E-18
 -1        63 1.56793E-04-4.71538E-05-4.59106E-05 8.32056E-08 2.54692E-19-5.09138E-18
 -1        64 1.50704E-04-4.52134E-05-4.47859E-05-7.33468E-07-4.67117E-19-4.46993E-18
 -1        65 1.39008E-04-4.16706E-05-4.16968E-05-7.57281E-07-5.15070E-19-5.09586E-18
 -1        66 1.26796E-04-3.80254E-05-3.81844E-05-5.78711E-07-2.32853E-19-5.35852E-18
 -1        67 1.16233E-04-3.48813E-05-3.50284E-05-3.99623E-07 6.54187E-19-5.14175E-18
 -1        68 1.07851E-04-3.23831E-05-3.24886E-05-2.71989E-07-1.20738E-19-7.27208E-18
 -1        69 1.01575E-04-3.05050E-05-3.05939E-05-1.83494E-07 5.32857E-19-3.96320E-18
 -1        70 9.73122E-05-2.92275E-05-2.93237E-05-9.64790E-08-9.60867E-19-4.82843E-18
 -1        71 9.52254E-05-2.85699E-05-2.86309E-05 1.53074E-07 2.95382E-19-8.35310E-18
 -1        72 1.02179E-04-3.05882E-05-3.41504E-05-1.92912E-06 9.35177E-20 1.79585E-17
 -1        73 9.25618E-05-2.75170E-05-2.89050E-05-3.33399E-07 1.04446E-19 1.53472E-17
 -1        74 8.91065E-05-2.67056E-05-2.69686E-05-1.30217E-07 6.36284E-20 1.30958E-17
 -1        75 8.80512E-05-2.64439E-05-2.64351E-05-9.95506E-08-4.90518E-22 1.17295E-17
 -1        76 8.80817E-05-2.64489E-05-2.64118E-05-7.86200E-08-4.01050E-20 1.10145E-17
 -1        77 8.86133E-05-2.65985E-05-2.65718E-05-6.30159E-08 3.57656E-20 1.05004E-17
 -1        78 8.93655E-05-2.68178E-05-2.67994E-05-5.14956E-08 1.76970E-20 9.79436E-18
 -1        79 9.01873E-05-2.70609E-05-2.70467E-05-4.22239E-08 1.16056E-19 8.86767E-18
 -1        80 9.09945E-05-2.73011E-05-2.72892E-05-3.43691E-08-4.34958E-20 7.61454E-18
 -1        81 9.17412E-05-2.75240E-05-2.75137E-05-2.75814E-08 1.34835E-19 7.12907E-18
 -1        82 9.24048E-05-2.77224E-05-2.77136E-05-2.17020E-08-7.14161E-20 7.28754E-18
 -1        83 9.29787E-05-2.78942E-05-2.78868E-05-1.66342E-08 4.89443E-20 6.57967E-18
 -1        84 9.34661E-05-2.80402E-05-2.80341E-05-1.23012E-08 1.02147E-19 5.81120E-18
 -1        85 9.38769E-05-2.81634E-05-2.81585E-05-8.63491E-09-1.47470E-19 5.94749E-18
 -1        86 9.42257E-05-2.82681E-05-2.82644E-05-5.57889E-09 2.76384E-19 5.58802E-18
 -1        87 9.45300E-05-2.83595E-05-2.83570E-05-3.09754E-09-4.94864E-20 4.54729E-18
 -1        88 9.48092E-05-2.84433E-05-2.84421E-05-1.18817E-09-2.35715E-19 5.24566E-18
 -1        89 9.50845E-05-2.85260E-05-2.85260E-05 1.05725E-10-9.56087E-20 6.01580E-18
 -1        90 9.53779E-05-2.86141E-05-2.86154E-05 6.81897E-10-3.22325E-20 5.28030E-18
 -1        91 9.57111E-05-2.87139E-05-2.87168E-05 3.70507E-10 2.61552E-20 2.96187E-18
 -1        92 9.61046E-05-2.88317E-05-2.88361E-05-1.06471E-09 1.58785E-19 2.39945E-18
 -1        93 9.65743E-05-2.89720E-05-2.89780E-05-3.90469E-09-3.60788E-20 2.29912E-18
 -1        94 9.71277E-05-2.91372E-05-2.91442E-05-8.41550E-09-1.82640E-20 9.29161E-19
 -1        95 9.77573E-05-2.93249E-05-2.93320E-05-1.47272E-08 8.23387E-20 1.18804E-18
 -1        96 9.84325E-05-2.95260E-05-2.95314E-05-2.26234E-08 1.69613E-19 3.60685E-18
 -1        97 9.90886E-05-2.97214E-05-2.97222E-05-3.12228E-08-3.32612E-20 2.51753E-18
 -1        98 9.96175E-05-2.98790E-05-2.98711E-05-3.85763E-08 3.01081E-19 8.67722E-19
 -1        99 9.98609E-05-2.99519E-05-2.99304E-05-4.12996E-08-6.44545E-20-1.08536E-18
 -1       100 9.96151E-05-2.98799E-05-2.98401E-05-3.45439E-08 1.89167E-19-2.17850E-19
 -1       101 9.86559E-05-2.95961E-05-2.95365E-05-1.28227E-08 2.04569E-19 5.06056E-19
 -1       102 9.67924E-05-2.90433E-05-2.89682E-05 2.77463E-08-3.38716E-19 5.99660E-19
 -1       103 9.39506E-05-2.81977E-05-2.81208E-05 8.57641E-08-6.77329E-20 5.99653E-19
 -1       104 9.02698E-05-2.70988E-05-2.70426E-05 1.50835E-07 3.76019E-19-5.18914E-19
 -1       105 8.61697E-05-2.58694E-05-2.58599E-05 2.02860E-07-6.29790E-19-8.66184E-19
 -1       106 8.23284E-05-2.47112E-05-2.47659E-05 2.17810E-07-4.63139E-19 1.50872E-18
 -1       107 7.95313E-05-2.38613E-05-2.39769E-05 1.79880E-07 4.43209E-19 2.32927E-19
 -1       108 7.84172E-05-2.35156E-05-2.36645E-05 9.34263E-08 1.85098E-19-1.03797E-18
 -1       109 7.92302E-05-2.37523E-05-2.38921E-05-1.57934E-08-3.93225E-20 5.60312E-19
 -1       110 8.17157E-05-2.44973E-05-2.45905E-05-1.12885E-07 3.15028E-19-1.86497E-18
 -1       111 8.52229E-05-2.55541E-05-2.55833E-05-1.71094E-07-1.50483E-19-2.25479E-18
 -1       112 8.89525E-05-2.66797E-05-2.66511E-05-1.82365E-07-5.60622E-21 7.02025E-19
 -1       113 9.22157E-05-2.76646E-05-2.75995E-05-1.55865E-07 6.25472E-19 7.28938E-19
 -1       114 9.45927E-05-2.83814E-05-2.83045E-05-1.08800E-07-3.31846E-19-9.37927E-19
 -1       115 9.59614E-05-2.87935E-05-2.87243E-05-5.74879E-08 3.08182E-19-1.08072E-18
 -1       116 9.64368E-05-2.89361E-05-2.88864E-05-1.31098E-08 4.18905E-19-3.90249E-18
 -1       117 9.62789E-05-2.88875E-05-2.88632E-05 1.82340E-08 2.91529E-21-3.90365E-18
 -1       118 9.58102E-05-2.87437E-05-2.87474E-05 3.31649E-08-1.61425E-19-2.01029E-18
 -1       119 9.53578E-05-2.86041E-05-2.86277E-05 2.42451E-08-3.22202E-19-2.99080E-18
 -1       120 9.51744E-05-2.85411E-05-2.85561E-05-1.68441E-08 1.44095E-18-3.74671E-18
 -1       121 9.52492E-05-2.86182E-05-2.85562E-05-3.55077E-08-3.51622E-18 7.31093E-19
 -1       122 9.51912E-05-2.84398E-05-2.86339E-05-1.13339E-08-5.68804E-19-1.18072E-19
 -1       123 9.50080E-05-2.78387E-05-2.88191E-05 1.01879E-08 3.71609E-18 6.96079E-19
 -1       124 9.46867E-05-2.67684E-05-2.91440E-05 3.34694E-08 2.53658E-18 1.33701E-18
 -1       125 9.42105E-05-2.51722E-05-2.96237E-05 6.39652E-08 1.70981E-18-5.16917E-19
 -1       126 9.35953E-05-2.31068E-05-3.02367E-05 9.33694E-08-3.67860E-19 5.47806E-19
 -1       127 9.28654E-05-2.06514E-05-3.09561E-05 1.17431E-07-1.49089E-18-3.80761E-19
 -1       128 9.21204E-05-1.81426E-05-3.16810E-05 1.22366E-07-7.87454E-18 1.05559E-18
 -1       129 9.14938E-05-1.60307E-05-3.22812E-05 9.83385E-08-5.90062E-18 1.12346E-18
 -1       130 9.11367E-05-1.48252E-05-3.26129E-05 4.15009E-08-7.77475E-19-3.44395E-19
 -1       131 9.11750E-05-1.49570E-05-3.25580E-05-4.49115E-08-4.71258E-18-1.56535E-18
 -1       132 9.16582E-05-1.65778E-05-3.20815E-05-1.33129E-07-9.07212E-18 1.35452E-18
 -1       133 9.25451E-05-1.95609E-05-3.12290E-05-2.09206E-07-3.79301E-18 2.29562E-18
 -1       134 9.36472E-05-2.32734E-05-3.01904E-05-2.36539E-07 1.46433E-18-4.46455E-19
 -1       135 9.47043E-05-2.67063E-05-2.92449E-05-1.20300E-07 9.85334E-18 1.81875E-18
 -1       136 9.52692E-05-2.86659E-05-2.86076E-05 1.71200E-07 1.25521E-17-1.41752E-18
 -1       137 2.48048E-05-8.53221E-05 1.53636E-05-2.34136E-05 1.10462E-17 3.41497E-18
 -1       138 6.51655E-06-2.52579E-05 8.74168E-07-1.28571E-05 1.82442E-17 9.56025E-18
 -1       139 1.78590E-05 2.36153E-05-2.00133E-05 3.74572E-05 1.79728E-17 1.37795E-17
 -1       140 7.33048E-05 2.76900E-05-4.06413E-05 9.20277E-05 1.06506E-17 1.34907E-17
 -1       141 1.69818E-04-1.08798E-05-6.07266E-05 1.19920E-04 6.98357E-18 1.28935E-17
 -1       142 2.65659E-04-6.53799E-05-7.49976E-05 9.24833E-05 2.72771E-18 9.99541E-18
 -1       143 3.15211E-04-9.62887E-05-8.14190E-05 2.19365E-05 6.11849E-19 2.39859E-18
 -1       144 2.95806E-04-8.39494E-05-7.89931E-05-6.33803E-05 9.48161E-19-6.23607E-18
 -1       145 2.17647E-04-3.67011E-05-6.83706E-05-1.13766E-04 2.90861E-18-7.89138E-18
 -1       146 1.14971E-04 1.42714E-05-5.04688E-05-1.10626E-04 6.28138E-18-8.62237E-18
 -1       147 3.80305E-05 3.26744E-05-3.02295E-05-6.54258E-05 7.44796E-18-7.84734E-18
 -1       148 5.32305E-06 3.68800E-06-8.77301E-06-7.47610E-06 7.47422E-18-4.23728E-18
 -1       149 1.48967E-05-5.72095E-05 9.07572E-06 2.29337E-05 1.06938E-17-3.06234E-18
 -1       150 3.46241E-05-1.08570E-04 2.00584E-05 1.44543E-05 7.22816E-18-8.13105E-19
 -1       151 3.75433E-05-1.17746E-04 2.19578E-05-1.66109E-05 1.39173E-18 6.36228E-19
 -1       152 1.84612E-05-7.86166E-05 1.44287E-05-3.44357E-05-1.42174E-18 4.07158E-19
 -1       153 6.00725E-06-1.73860E-05-3.17292E-06-8.95114E-06-3.40338E-18-3.15287E-18
 -1       154 3.25944E-05 1.93310E-05-2.53459E-05 4.73224E-05-6.12320E-18-5.62133E-18
 -1       155 1.15128E-04 9.11776E-06-4.96423E-05 1.04179E-04-4.10176E-18-6.10118E-18
 -1       156 2.33677E-04-4.33111E-05-7.08223E-05 1.16878E-04-1.83594E-18-4.05771E-18
 -1       157 3.35507E-04-9.90628E-05-8.49242E-05 5.85619E-05-3.04315E-19 2.61077E-18
 -1       158 2.74951E-04-6.45938E-05-7.70433E-05-1.06550E-04-4.05358E-18 1.41899E-17
 -1       159 1.57689E-04-6.17063E-06-5.84954E-05-1.17476E-04-5.96650E-18 1.13574E-17
 -1       160 5.58969E-05 2.41598E-05-3.49272E-05-7.24488E-05-1.07472E-17 1.14133E-17
 -1       161 8.04718E-06 4.32566E-06-1.15700E-05-9.86991E-06-1.10169E-17 8.33565E-18
 -1       162 9.39624E-06-4.89180E-05 6.95430E-06 2.86367E-05-4.63454E-18 3.34536E-18
 -1       163 2.95890E-05-1.02531E-04 1.91666E-05 2.86300E-05 3.15520E-18-9.68966E-19
 -1       164 9.48673E-05-1.23464E-05-3.55691E-05-2.23509E-05-2.09617E-18-1.10699E-18
 -1       165 8.92497E-05-8.45810E-06-3.47870E-05-1.73910E-05-1.60390E-18-2.86177E-18
 -1       166 8.65379E-05-6.49801E-06-3.44151E-05-1.35895E-05-1.06509E-18-3.76002E-18
 -1       167 8.51956E-05-5.51818E-06-3.42317E-05-1.03683E-05-5.30954E-19-4.06201E-18
 -1       168 8.44477E-05-4.94344E-06-3.41426E-05-7.54723E-06-8.65603E-20-4.01654E-18
 -1       169 8.40218E-05-4.59963E-06-3.40998E-05-4.90446E-06 2.93025E-19-3.89533E-18
 -1       170 8.38041E-05-4.41560E-06-3.40817E-05-2.39559E-06 6.47307E-19-3.63742E-18
 -1       171 8.37399E-05-4.35993E-06-3.40771E-05 5.10612E-08 1.02148E-18-3.35573E-18
 -1       172 8.38142E-05-4.42422E-06-3.40825E-05 2.49984E-06 1.31805E-18-3.03491E-18
 -1       173 8.40439E-05-4.61934E-06-3.41011E-05 5.01532E-06 1.60764E-18-2.62644E-18
 -1       174 8.44758E-05-4.97205E-06-3.41427E-05 7.62517E-06 1.88219E-18-2.03205E-18
 -1       175 8.52503E-05-5.57335E-06-3.42321E-05 1.05141E-05 2.23786E-18-1.07983E-18
 -1       176 8.66481E-05-6.60881E-06-3.44179E-05 1.37795E-05 2.49017E-18 1.92382E-19
 -1       177 8.93877E-05-8.59798E-06-3.47911E-05 1.76312E-05 2.50163E-18 2.16950E-18
 -1       178 9.57785E-05-1.36133E-05-3.54261E-05 2.18921E-05 1.98187E-18 5.44761E-18
 -1       179 1.05604E-04-2.61008E-05-3.52635E-05 1.86635E-05 1.16939E-18 9.45559E-18
 -1       180 1.03397E-04-2.73009E-05-3.26105E-05-1.21271E-05-1.92165E-18 1.44909E-18
 -1       181 9.71083E-05-2.82904E-05-2.95287E-05-4.73125E-06-1.75492E-18 7.15227E-19
 -1       182 9.35068E-05-2.76368E-05-2.81820E-05-1.76994E-06-1.27542E-18 1.26618E-19
 -1       183 9.19711E-05-2.74053E-05-2.76356E-05-4.21972E-07-7.32564E-19-5.80244E-19
 -1       184 9.13951E-05-2.73304E-05-2.74380E-05 2.42336E-07-4.69897E-19-1.16336E-18
 -1       185 9.13531E-05-2.73692E-05-2.74131E-05 5.68144E-07-8.40268E-19-1.36623E-18
 -1       186 9.15971E-05-2.74719E-05-2.74782E-05 7.06661E-07-5.16123E-19-1.73572E-18
 -1       187 9.20027E-05-2.76112E-05-2.75946E-05 7.37666E-07-3.81403E-19-1.79825E-18
 -1       188 9.24409E-05-2.77516E-05-2.77234E-05 7.05030E-07-6.65110E-19-2.00757E-18
 -1       189 9.28809E-05-2.78875E-05-2.78544E-05 6.40651E-07-1.11191E-19-2.07354E-18
 -1       190 9.32942E-05-2.80119E-05-2.79785E-05 5.63200E-07 3.57228E-19-2.20080E-18
 -1       191 9.36679E-05-2.81223E-05-2.80915E-05 4.84643E-07 1.06254E-19-2.41034E-18
 -1       192 9.39990E-05-2.82184E-05-2.81922E-05 4.13190E-07-1.95415E-19-2.39431E-18
 -1       193 9.42915E-05-2.83019E-05-2.82816E-05 3.54586E-07-2.22759E-19-2.00825E-18
 -1       194 9.45543E-05-2.83755E-05-2.83625E-05 3.13220E-07-7.53686E-19-2.22153E-18
 -1       195 9.48007E-05-2.84434E-05-2.84387E-05 2.92916E-07-6.54865E-19-2.69874E-18
 -1       196 9.50598E-05-2.85134E-05-2.85194E-05 2.99217E-07-6.12358E-19-3.48680E-18
 -1       197 9.53294E-05-2.85854E-05-2.86036E-05 3.37280E-07 5.85676E-20-3.80301E-18
 -1       198 9.56478E-05-2.86696E-05-2.87033E-05 4.14205E-07 2.33438E-19-3.02039E-18
 -1       199 9.60484E-05-2.87751E-05-2.88290E-05 5.41210E-07 2.28901E-19-2.57711E-18
 -1       200 9.65740E-05-2.89129E-05-2.89941E-05 7.34321E-07-4.71231E-19-2.76970E-18
 -1       201 9.72803E-05-2.90976E-05-2.92163E-05 1.01658E-06-7.01477E-19-2.99426E-18
 -1       202 9.82406E-05-2.93478E-05-2.95188E-05 1.42069E-06-4.56637E-19-3.57344E-18
 -1       203 9.95512E-05-2.96882E-05-2.99326E-05 1.99206E-06-3.23059E-19-3.51217E-18
 -1       204 1.01338E-04-3.01520E-05-3.04971E-05 2.78774E-06-8.52029E-20-3.69995E-18
 -1       205 1.03898E-04-3.08174E-05-3.13073E-05 3.94522E-06 1.16824E-19-4.00164E-18
 -1       206 1.07187E-04-3.16871E-05-3.23446E-05 5.43046E-06-4.01613E-20-4.10348E-18
 -1       207 1.11504E-04-3.28705E-05-3.36921E-05 7.28445E-06-2.31448E-19-3.23828E-18
 -1       208 1.16997E-04-3.44935E-05-3.53622E-05 9.33729E-06-1.81742E-19-3.61070E-18
 -1       209 1.23654E-04-3.67411E-05-3.72669E-05 1.09787E-05 1.23630E-18-3.07633E-18
 -1       210 1.31106E-04-3.98397E-05-3.91386E-05 1.07935E-05 5.72558E-19-3.27920E-18
 -1       211 1.38333E-04-4.37967E-05-4.05187E-05 6.39258E-06 3.09286E-19-2.16453E-18
 -1       212 1.43201E-04-4.74419E-05-4.10277E-05-4.37418E-06-2.90810E-19-3.68317E-18
 -1       213 1.42626E-04-4.72838E-05-4.09487E-05-1.84550E-05-2.33860E-19-3.56379E-18
 -1       214 1.35329E-04-4.05060E-05-4.10392E-05-2.55406E-05-5.80879E-19-4.66043E-18
 -1       215 1.25806E-04-3.06302E-05-4.14183E-05-1.60217E-05-1.51269E-18-4.03182E-18
 -1       216 1.23560E-04-2.84197E-05-4.14918E-05 9.08756E-06-6.83450E-20-5.03390E-18
 -1       217 1.32590E-04-3.82905E-05-4.08639E-05 2.47315E-05 9.87032E-19-5.13941E-18
 -1       218 1.41149E-04-4.67035E-05-4.05942E-05 1.90485E-05-1.85197E-19-5.38718E-18
 -1       219 1.42022E-04-4.71724E-05-4.06414E-05 4.42556E-06 3.64952E-19-4.38565E-18
 -1       220 1.36645E-04-4.32890E-05-4.00181E-05-6.93247E-06 9.45276E-19-3.47254E-18
 -1       221 1.29007E-04-3.92346E-05-3.84958E-05-1.13730E-05-3.63893E-19-3.93374E-19
 -1       222 1.21089E-04-3.60072E-05-3.64808E-05-1.16500E-05-5.52903E-19-5.33670E-19
 -1       223 1.13910E-04-3.35956E-05-3.44229E-05-1.01163E-05-4.30680E-19-1.21015E-18
 -1       224 1.07871E-04-3.17799E-05-3.26004E-05-8.10880E-06-1.04568E-18-1.60181E-18
 -1       225 1.03050E-04-3.03828E-05-3.11276E-05-6.14255E-06 5.86549E-19-1.94348E-18
 -1       226 9.94066E-05-2.92945E-05-3.00347E-05-4.26302E-06-4.95571E-19-4.78251E-18
 -1       227 9.68481E-05-2.84522E-05-2.93021E-05-2.34302E-06-1.88405E-18-3.54921E-18
 -1       228 9.55787E-05-2.80645E-05-2.89465E-05-9.31110E-07 1.96788E-18-2.73091E-18
 -1       229 9.95025E-05-2.85516E-05-3.05873E-05 7.21416E-06 1.44116E-18 8.41267E-18
 -1       230 9.44363E-05-2.77834E-05-2.85301E-05 2.76756E-06 1.15856E-18 7.24539E-18
 -1       231 9.21325E-05-2.74207E-05-2.76862E-05 9.22063E-07 6.97389E-19 6.29334E-18
 -1       232 9.11777E-05-2.72691E-05-2.73634E-05 4.39252E-08 4.77371E-19 5.59817E-18
 -1       233 9.09503E-05-2.72487E-05-2.72880E-05-3.80385E-07 4.56423E-19 5.02726E-18
 -1       234 9.11249E-05-2.73266E-05-2.73360E-05-5.76621E-07 5.74368E-19 4.28727E-18
 -1       235 9.15045E-05-2.74551E-05-2.74466E-05-6.46243E-07 3.61714E-19 3.85419E-18
 -1       236 9.19724E-05-2.76037E-05-2.75850E-05-6.43243E-07 5.44332E-19 3.70902E-18
 -1       237 9.24600E-05-2.77540E-05-2.77304E-05-5.99964E-07 9.85165E-20 3.43972E-18
 -1       238 9.29281E-05-2.78956E-05-2.78708E-05-5.36927E-07 1.47739E-19 3.38464E-18
 -1       239 9.33566E-05-2.80235E-05-2.79999E-05-4.67546E-07 4.14109E-19 2.75917E-18
 -1       240 9.37378E-05-2.81359E-05-2.81152E-05-4.00698E-07 1.63361E-19 2.60834E-18
 -1       241 9.40726E-05-2.82337E-05-2.82169E-05-3.42294E-07-1.20123E-19 2.68686E-18
 -1       242 9.43677E-05-2.83190E-05-2.83068E-05-2.96306E-07 3.12196E-19 2.64864E-18
 -1       243 9.46336E-05-2.83952E-05-2.83880E-05-2.65452E-07 2.74649E-20 3.06842E-18
 -1       244 9.48834E-05-2.84663E-05-2.84645E-05-2.51618E-07-4.46045E-19 3.07820E-18
 -1       245 9.51322E-05-2.85368E-05-2.85408E-05-2.56045E-07-9.02987E-20 3.19327E-18
 -1       246 9.53960E-05-2.86119E-05-2.86216E-05-2.79262E-07 7.53816E-19 2.39519E-18
 -1       247 9.56905E-05-2.86963E-05-2.87116E-05-3.20736E-07 8.67480E-19 1.69890E-18
 -1       248 9.60302E-05-2.87950E-05-2.88149E-05-3.78191E-07 6.31992E-19 1.16282E-18
 -1       249 9.64259E-05-2.89118E-05-2.89345E-05-4.46540E-07-9.35004E-20 2.64869E-19
 -1       250 9.68817E-05-2.90492E-05-2.90712E-05-5.16439E-07 1.49339E-19 6.68714E-19
 -1       251 9.73904E-05-2.92065E-05-2.92221E-05-5.72557E-07 1.52465E-19 1.14655E-18
 -1       252 9.79280E-05-2.93784E-05-2.93792E-05-5.91917E-07-9.18780E-19 4.51887E-19
 -1       253 9.84470E-05-2.95527E-05-2.95274E-05-5.43021E-07 9.28100E-19 7.82808E-19
 -1       254 9.88708E-05-2.97080E-05-2.96428E-05-3.87084E-07 9.07322E-19 5.60014E-19
 -1       255 9.90901E-05-2.98114E-05-2.96927E-05-8.33192E-08 1.45043E-19 6.07371E-19
 -1       256 9.89677E-05-2.98180E-05-2.96372E-05 3.99435E-07-2.55479E-19 8.33110E-19
 -1       257 9.83548E-05-2.96740E-05-2.94355E-05 1.06339E-06-3.58612E-19 5.16816E-19
 -1       258 9.71255E-05-2.93263E-05-2.90567E-05 1.85694E-06-6.02320E-20 7.06289E-19
 -1       259 9.52294E-05-2.87405E-05-2.84944E-05 2.65352E-06 3.22576E-19 4.14408E-19
 -1       260 9.27533E-05-2.79266E-05-2.77818E-05 3.25173E-06 3.12307E-19 4.88245E-19
 -1       261 8.99659E-05-2.69650E-05-2.70001E-05 3.41655E-06-3.21231E-19 1.29751E-18
 -1       262 8.73102E-05-2.60140E-05-2.62708E-05 2.96739E-06-8.36792E-20 1.24007E-18
 -1       263 8.53121E-05-2.52806E-05-2.57295E-05 1.88471E-06 7.39905E-19 4.49715E-19
 -1       264 8.44163E-05-2.49510E-05-2.54860E-05 3.70142E-07-1.46065E-19 4.01132E-19
 -1       265 8.48156E-05-2.51095E-05-2.55871E-05-1.20080E-06-6.95796E-19-1.77711E-20
 -1       266 8.63696E-05-2.56977E-05-2.59984E-05-2.42710E-06 6.84793E-19-1.35261E-20
 -1       267 8.86616E-05-2.65421E-05-2.66175E-05-3.04530E-06 1.02886E-19 8.25321E-19
 -1       268 9.11595E-05-2.74296E-05-2.73082E-05-3.01297E-06-9.24009E-19 5.49658E-19
 -1       269 9.33908E-05-2.81849E-05-2.79426E-05-2.47891E-06 8.61930E-19-1.76716E-19
 -1       270 9.50534E-05-2.87107E-05-2.84322E-05-1.68386E-06-2.08862E-19-7.32240E-19
 -1       271 9.60422E-05-2.89875E-05-2.87393E-05-8.61595E-07 1.12068E-18-1.68310E-18
 -1       272 9.64141E-05-2.90504E-05-2.88728E-05-1.82597E-07 1.48762E-18-1.25719E-18
 -1       273 9.63291E-05-2.89636E-05-2.88741E-05 2.58045E-07-6.33070E-19-9.31168E-19
 -1       274 9.59933E-05-2.88010E-05-2.88003E-05 4.30071E-07-7.50413E-19-4.09666E-19
 -1       275 9.56037E-05-2.86288E-05-2.87066E-05 3.48205E-07 8.84182E-19-6.84249E-19
 -1       276 9.53250E-05-2.85302E-05-2.86244E-05 1.11796E-07 7.88454E-19-1.02724E-18
 -1       277 9.52689E-05-2.83482E-05-2.86776E-05 2.79629E-07 6.56909E-19 1.51248E-18
 -1       278 9.51679E-05-2.79403E-05-2.88093E-05 6.62643E-07 7.29073E-19 1.56507E-18
 -1       279 9.49813E-05-2.72523E-05-2.90227E-05 1.12478E-06-1.74016E-19 7.11348E-19
 -1       280 9.46854E-05-2.62334E-05-2.93331E-05 1.64865E-06 4.71818E-19 1.71590E-20
 -1       281 9.42619E-05-2.48856E-05-2.97308E-05 2.14151E-06-5.63071E-19-1.60739E-18
 -1       282 9.37007E-05-2.32199E-05-3.02066E-05 2.49234E-06-2.15646E-18-1.22803E-18
 -1       283 9.30513E-05-2.14137E-05-3.07055E-05 2.53579E-06-7.76785E-19-2.96721E-18
 -1       284 9.24052E-05-1.97265E-05-3.11547E-05 2.13341E-06-5.45700E-19 2.25911E-19
 -1       285 9.18922E-05-1.84861E-05-3.14687E-05 1.22918E-06-1.41334E-18 2.53852E-18
 -1       286 9.16537E-05-1.80148E-05-3.15691E-05-9.83219E-08-2.11022E-18-1.28168E-18
 -1       287 9.17922E-05-1.85089E-05-3.14154E-05-1.58571E-06-1.69474E-18-1.65315E-18
 -1       288 9.23463E-05-1.99994E-05-3.10114E-05-2.92153E-06 1.26950E-18 2.74124E-18
 -1       289 9.32526E-05-2.22503E-05-3.04315E-05-3.66465E-06 4.45872E-19 3.66949E-18
 -1       290 9.43229E-05-2.47854E-05-2.97997E-05-3.45354E-06 1.58998E-18 3.62616E-18
 -1       291 9.50698E-05-2.66058E-05-2.93425E-05-2.40359E-06 1.00139E-18 1.90110E-18
 -1       292 1.32181E-05-4.58896E-05 1.14148E-05 1.52258E-05 2.72226E-18 2.81744E-18
 -1       293 3.11925E-05-4.37189E-05 2.93944E-06 2.78574E-05 6.30277E-18 7.45053E-18
 -1       294 6.13544E-05-3.59101E-05-1.22343E-05 4.05405E-05 7.52673E-18 4.87425E-18
 -1       295 1.02063E-04-3.12788E-05-3.02771E-05 4.88396E-05 8.13046E-18 5.47289E-18
 -1       296 1.45040E-04-3.00883E-05-4.78854E-05 4.84411E-05 6.04114E-18 8.26852E-18
 -1       297 1.86207E-04-3.24343E-05-6.31427E-05 4.07661E-05 4.96171E-18 5.41000E-18
 -1       298 2.08737E-04-3.43120E-05-7.16129E-05 1.79503E-05 4.61982E-18 2.63459E-18
 -1       299 2.10123E-04-3.26216E-05-7.30486E-05-5.83283E-06 4.19239E-18 4.57662E-19
 -1       300 1.97745E-04-3.31895E-05-6.77131E-05-2.93581E-05 2.48996E-18-2.86509E-18
 -1       301 1.64029E-04-3.11369E-05-5.51820E-05-4.23515E-05 3.07838E-18-4.19938E-18
 -1       302 1.19808E-04-2.69743E-05-3.90237E-05-5.24372E-05 3.13085E-18-3.50100E-18
 -1       303 7.62349E-05-2.96220E-05-2.07334E-05-4.55964E-05 2.94471E-18-2.37423E-18
 -1       304 4.14163E-05-3.82717E-05-3.50456E-06-3.26648E-05 4.21335E-18-7.28528E-19
 -1       305 1.98783E-05-4.51530E-05 8.19529E-06-2.19678E-05 4.49415E-18-2.29938E-18
 -1       306 1.14713E-05-5.37175E-05 1.44622E-05-6.50592E-06 2.88020E-18-2.38323E-18
 -1       307 1.58325E-05-5.01109E-05 1.14214E-05 8.03448E-06 1.20173E-18-5.42207E-19
 -1       308 4.31276E-05-4.62449E-05-7.00283E-07 2.87407E-05 1.76606E-19-1.82628E-18
 -1       309 8.48458E-05-4.75980E-05-1.73418E-05 3.65563E-05-6.03299E-19-2.08243E-18
 -1       310 1.29547E-04-4.37185E-05-3.68324E-05 3.94316E-05-1.54414E-18-7.30354E-19
 -1       311 1.80118E-04-4.33888E-05-5.63947E-05 3.66864E-05-1.60005E-18-1.10792E-18
 -1       312 2.21828E-04-4.45916E-05-7.15438E-05 2.20430E-05-2.85958E-18 7.93246E-19
 -1       313 2.29207E-04-3.92907E-05-7.68696E-05 1.06956E-06-2.10085E-18 6.72121E-19
 -1       314 2.29756E-04-4.40840E-05-7.47542E-05-1.69329E-05-4.11118E-18 1.86030E-18
 -1       315 1.97204E-04-4.35567E-05-6.27730E-05-3.35436E-05-2.86187E-18 6.73815E-18
 -1       316 1.47611E-04-4.10407E-05-4.48101E-05-4.26411E-05-4.69510E-18 5.82632E-18
 -1       317 9.44471E-05-4.01858E-05-2.44773E-05-3.99405E-05-3.56897E-18 4.69955E-18
 -1       318 5.24371E-05-4.38745E-05-6.27072E-06-2.88967E-05-1.82070E-18 5.22376E-18
 -1       319 2.57270E-05-4.90528E-05 6.87152E-06-1.66765E-05 3.06584E-18 4.84704E-18
 -1       320 1.13905E-05-4.92231E-05 1.32007E-05-2.60713E-06 3.70132E-18-1.34678E-19
 -1       321 9.16510E-05-1.43976E-05-3.31716E-05-1.30646E-05-1.58875E-18-2.37271E-18
 -1       322 9.57000E-05-1.91007E-05-3.28915E-05-1.46319E-05-2.03850E-18-1.41494E-18
 -1       323 8.79996E-05-1.03717E-05-3.33243E-05-8.16345E-06-3.93026E-19-3.04550E-18
 -1       324 8.71926E-05-9.45631E-06-3.33640E-05-5.71996E-06 1.16905E-19-3.10547E-18
 -1       325 8.67329E-05-8.92553E-06-3.33910E-05-3.36741E-06 6.15394E-19-2.91146E-18
 -1       326 8.65279E-05-8.68546E-06-3.34046E-05-1.07277E-06 1.02036E-18-2.65541E-18
 -1       327 8.65367E-05-8.69510E-06-3.34043E-05 1.20331E-06 1.41949E-18-2.40500E-18
 -1       328 8.67604E-05-8.95623E-06-3.33898E-05 3.50027E-06 1.77965E-18-2.04146E-18
 -1       329 8.72317E-05-9.50021E-06-3.33622E-05 5.81576E-06 2.10407E-18-1.63455E-18
 -1       330 8.80698E-05-1.04521E-05-3.33202E-05 8.25632E-06 2.43477E-18-8.92637E-19
 -1       331 8.94809E-05-1.20330E-05-3.32593E-05 1.07704E-05 2.75530E-18 7.16173E-20
 -1       332 9.18909E-05-1.47367E-05-3.31484E-05 1.31492E-05 2.82380E-18 1.17951E-18
 -1       333 9.58868E-05-1.95848E-05-3.28052E-05 1.42840E-05 2.53686E-18 3.46146E-18
 -1       334 9.87807E-05-2.44489E-05-3.19419E-05 1.18537E-05 2.07340E-18 5.33752E-18
 -1       335 9.63370E-05-2.67757E-05-2.97844E-05 5.72905E-06 1.66838E-18 4.68579E-18
 -1       336 9.64376E-05-2.60292E-05-3.01306E-05-6.35157E-06-1.72026E-18-8.57204E-19
 -1       337 9.49177E-05-2.70274E-05-2.90704E-05-2.83659E-06-1.31588E-18-7.97372E-19
 -1       338 9.39419E-05-2.74253E-05-2.84924E-05-9.22663E-07-8.12278E-19-7.64946E-19
 -1       339 9.34229E-05-2.76384E-05-2.81867E-05 1.37139E-07-6.76639E-19-8.60515E-19
 -1       340 9.32307E-05-2.77911E-05-2.80428E-05 7.01907E-07-8.62089E-19-7.38876E-19
 -1       341 9.32535E-05-2.79267E-05-2.79962E-05 9.78319E-07-5.95991E-19-1.09191E-18
 -1       342 9.33977E-05-2.80404E-05-2.80102E-05 1.06079E-06-5.94902E-19-1.08020E-18
 -1       343 9.36038E-05-2.81405E-05-2.80561E-05 1.04049E-06-2.44707E-19-6.55760E-19
 -1       344 9.38340E-05-2.82269E-05-2.81179E-05 9.64135E-07-7.16453E-20-8.44803E-19
 -1       345 9.40658E-05-2.82997E-05-2.81862E-05 8.62844E-07 1.18469E-19-1.72507E-18
 -1       346 9.42874E-05-2.83599E-05-2.82553E-05 7.57805E-07 1.50678E-19-1.31385E-18
 -1       347 9.44943E-05-2.84090E-05-2.83228E-05 6.63765E-07 1.57629E-19-1.32081E-18
 -1       348 9.46877E-05-2.84489E-05-2.83884E-05 5.91496E-07-4.11500E-19-1.05088E-18
 -1       349 9.48729E-05-2.84819E-05-2.84534E-05 5.49521E-07-7.56487E-19-7.39735E-19
 -1       350 9.50674E-05-2.85113E-05-2.85239E-05 5.47304E-07-1.02374E-18-8.98356E-19
 -1       351 9.52651E-05-2.85368E-05-2.85973E-05 5.94414E-07-4.86249E-19-8.65251E-19
 -1       352 9.54895E-05-2.85621E-05-2.86823E-05 7.00891E-07 6.84674E-19-9.93379E-19
 -1       353 9.57584E-05-2.85889E-05-2.87854E-05 8.82254E-07 1.84204E-19-1.83635E-18
 -1       354 9.60928E-05-2.86187E-05-2.89152E-05 1.15979E-06-5.12399E-19-2.05076E-18
 -1       355 9.65178E-05-2.86517E-05-2.90822E-05 1.56303E-06-8.61957E-19-2.64436E-18
 -1       356 9.70631E-05-2.86874E-05-2.92992E-05 2.13258E-06-4.52337E-19-2.12035E-18
 -1       357 9.77624E-05-2.87234E-05-2.95817E-05 2.92311E-06 1.48893E-22-7.56147E-19
 -1       358 9.86546E-05-2.87575E-05-2.99471E-05 4.00353E-06-6.18709E-19-4.89601E-19
 -1       359 9.98422E-05-2.87919E-05-3.04383E-05 5.54420E-06-2.55515E-19-3.04999E-19
 -1       360 1.01259E-04-2.88402E-05-3.10224E-05 7.49085E-06 2.98582E-19 4.15419E-19
 -1       361 1.03021E-04-2.89781E-05-3.17173E-05 9.94864E-06 1.99433E-19 1.56483E-19
 -1       362 1.05245E-04-2.94054E-05-3.24900E-05 1.28442E-05-2.44144E-19 4.20478E-19
 -1       363 1.08212E-04-3.05998E-05-3.32583E-05 1.58084E-05 2.70135E-19 7.01544E-19
 -1       364 1.12578E-04-3.35155E-05-3.38912E-05 1.78906E-05 7.38838E-19-5.80878E-19
 -1       365 1.19608E-04-3.95723E-05-3.43095E-05 1.71552E-05 8.37845E-19-1.63705E-18
 -1       366 1.30798E-04-4.94525E-05-3.48654E-05 1.05771E-05-1.29465E-18-9.68098E-19
 -1       367 1.44485E-04-5.87095E-05-3.68481E-05-3.36954E-06-6.41972E-19-9.72460E-19
 -1       368 1.55238E-04-5.76922E-05-4.22064E-05-2.08670E-05-2.53183E-19-6.29187E-19
 -1       369 1.48557E-04-3.65074E-05-4.85789E-05-2.73209E-05-9.51430E-19-2.31314E-18
 -1       370 1.48585E-04-2.09350E-05-5.52699E-05-5.07002E-06-1.19262E-18-1.59766E-18
 -1       371 1.50866E-04-3.12663E-05-5.17544E-05 2.25271E-05-1.40427E-18-3.64245E-18
 -1       372 1.54197E-04-5.40727E-05-4.34707E-05 2.37570E-05 1.75151E-19-7.36993E-18
 -1       373 1.44894E-04-5.80714E-05-3.73376E-05 5.45494E-06 1.09626E-18-4.62054E-18
 -1       374 1.30660E-04-4.88524E-05-3.50788E-05-1.04578E-05 2.08398E-18-2.69506E-18
 -1       375 1.19660E-04-3.94690E-05-3.43773E-05-1.73736E-05 1.69304E-18-2.33323E-18
 -1       376 1.12325E-04-3.35798E-05-3.37545E-05-1.84269E-05 6.98082E-19-2.66193E-19
 -1       377 1.07429E-04-3.05931E-05-3.29261E-05-1.66147E-05 2.20469E-19 2.91929E-19
 -1       378 1.03863E-04-2.91721E-05-3.19974E-05-1.38150E-05-7.76610E-19 1.09164E-18
 -1       379 1.01066E-04-2.84150E-05-3.11177E-05-1.09142E-05-1.32327E-18-4.10757E-19
 -1       380 9.87802E-05-2.78339E-05-3.03847E-05-8.20545E-06-6.02336E-19-9.22924E-19
 -1       381 9.68334E-05-2.72023E-05-2.98238E-05-5.60532E-06-1.92746E-19 5.55170E-19
 -1       382 9.41472E-05-2.72823E-05-2.86321E-05 1.70585E-06 1.14524E-18 2.91606E-18
 -1       383 9.33870E-05-2.75339E-05-2.82110E-05 2.99765E-07 9.18715E-19 2.32180E-18
 -1       384 9.30405E-05-2.76753E-05-2.80084E-05-4.56666E-07 9.95729E-19 1.98009E-18
 -1       385 9.29815E-05-2.77998E-05-2.79329E-05-8.39386E-07 8.89415E-19 1.71352E-18
 -1       386 9.30949E-05-2.79171E-05-2.79327E-05-9.99290E-07 5.16077E-19 1.29636E-18
 -1       387 9.33021E-05-2.80266E-05-2.79754E-05-1.02625E-06 1.94574E-19 1.53851E-18
 -1       388 9.35518E-05-2.81256E-05-2.80404E-05-9.77204E-07 3.94838E-19 1.59051E-18
 -1       389 9.38119E-05-2.82125E-05-2.81147E-05-8.89468E-07 6.62205E-19 1.33510E-18
 -1       390 9.40641E-05-2.82869E-05-2.81910E-05-7.87961E-07 5.91896E-19 1.32231E-18
 -1       391 9.42997E-05-2.83496E-05-2.82650E-05-6.89495E-07-2.22368E-19 9.90040E-19
 -1       392 9.45168E-05-2.84020E-05-2.83354E-05-6.05482E-07-2.91992E-19 1.07274E-18
 -1       393 9.47181E-05-2.84466E-05-2.84024E-05-5.43739E-07 3.75283E-20 1.27327E-18
 -1       394 9.49095E-05-2.84860E-05-2.84674E-05-5.09653E-07-3.56032E-20 1.00853E-18
 -1       395 9.50995E-05-2.85236E-05-2.85325E-05-5.06841E-07 1.23889E-19 1.85693E-19
 -1       396 9.52980E-05-2.85632E-05-2.86003E-05-5.37332E-07 9.07189E-19-1.08835E-19
 -1       397 9.55156E-05-2.86090E-05-2.86737E-05-6.01250E-07 6.53026E-19-8.79213E-20
 -1       398 9.57632E-05-2.86665E-05-2.87551E-05-6.95941E-07 6.70503E-19 3.34375E-19
 -1       399 9.60509E-05-2.87414E-05-2.88462E-05-8.14480E-07 3.21698E-19 1.78701E-18
 -1       400 9.63860E-05-2.88407E-05-2.89474E-05-9.43541E-07 2.60977E-19 1.53450E-18
 -1       401 9.67719E-05-2.89716E-05-2.90570E-05-1.06074E-06-2.56281E-19 9.78421E-19
 -1       402 9.72042E-05-2.91409E-05-2.91703E-05-1.13184E-06-3.36897E-19 9.07438E-19
 -1       403 9.76680E-05-2.93530E-05-2.92791E-05-1.10871E-06-2.54195E-19-1.61810E-19
 -1       404 9.81325E-05-2.96064E-05-2.93710E-05-9.29718E-07 5.53409E-19 1.44076E-18
 -1       405 9.85465E-05-2.98877E-05-2.94295E-05-5.25107E-07 2.25466E-19 1.48457E-18
 -1       406 9.88340E-05-3.01642E-05-2.94360E-05 1.68984E-07-5.62851E-20 1.45284E-18
 -1       407 9.88930E-05-3.03749E-05-2.93724E-05 1.18468E-06 1.55944E-19 1.60002E-18
 -1       408 9.86033E-05-3.04268E-05-2.92264E-05 2.48421E-06 3.91149E-20 1.73104E-18
 -1       409 9.78493E-05-3.02053E-05-2.89971E-05 3.91734E-06-3.15125E-19 1.64166E-18
 -1       410 9.65671E-05-2.96096E-05-2.86999E-05 5.19646E-06 2.71945E-19 2.34196E-18
 -1       411 9.48101E-05-2.86171E-05-2.83675E-05 5.92466E-06-2.23585E-19 2.66891E-18
 -1       412 9.28079E-05-2.73538E-05-2.80454E-05 5.70739E-06-1.71478E-19 1.65367E-18
 -1       413 9.09680E-05-2.61175E-05-2.77821E-05 4.33801E-06 1.26347E-18 1.73306E-18
 -1       414 8.97682E-05-2.52967E-05-2.76168E-05 1.97426E-06-1.65161E-19 1.56507E-18
 -1       415 8.95549E-05-2.51870E-05-2.75721E-05-8.33539E-07-2.81499E-19 1.51009E-18
 -1       416 9.03651E-05-2.58208E-05-2.76501E-05-3.34205E-06 2.33948E-19-2.16644E-19
 -1       417 9.19076E-05-2.69511E-05-2.78314E-05-4.93308E-06 1.85974E-19-3.62764E-20
 -1       418 9.37102E-05-2.81898E-05-2.80788E-05-5.35370E-06-1.48199E-19 5.09109E-20
 -1       419 9.53289E-05-2.91995E-05-2.83448E-05-4.74524E-06 5.48763E-19-3.41879E-19
 -1       420 9.64865E-05-2.98072E-05-2.85838E-05-3.49289E-06 5.88202E-19-8.30334E-19
 -1       421 9.70971E-05-3.00034E-05-2.87626E-05-2.03066E-06 1.03826E-18-2.57919E-18
 -1       422 9.72157E-05-2.98770E-05-2.88667E-05-7.06750E-07 4.59117E-19-1.38744E-18
 -1       423 9.69692E-05-2.95469E-05-2.89002E-05 2.63498E-07-4.40147E-19 4.70935E-20
 -1       424 9.65053E-05-2.91233E-05-2.88805E-05 7.86813E-07-1.19404E-18 5.01974E-19
 -1       425 9.59754E-05-2.87105E-05-2.88264E-05 8.67741E-07-8.93550E-19 6.91035E-19
 -1       426 9.55539E-05-2.84459E-05-2.87587E-05 6.39123E-07 6.51719E-19 2.36373E-18
 -1       427 9.54748E-05-2.74346E-05-2.91553E-05 2.37150E-06-9.02561E-19 1.29022E-18
 -1       428 9.55808E-05-2.80053E-05-2.89564E-05 1.56267E-06-1.36333E-18-5.86008E-20
 -1       429 9.52089E-05-2.66109E-05-2.93956E-05 3.23081E-06-1.18003E-18-2.48992E-18
 -1       430 9.47019E-05-2.54526E-05-2.96763E-05 3.98312E-06-6.70189E-19-3.13046E-19
 -1       431 9.39318E-05-2.40073E-05-2.99686E-05 4.36552E-06-9.28471E-20-1.31190E-18
 -1       432 9.29619E-05-2.24170E-05-3.02382E-05 4.11814E-06-2.26697E-18-3.28618E-19
 -1       433 9.19556E-05-2.09312E-05-3.04473E-05 3.06067E-06-1.56071E-18 3.02212E-19
 -1       434 9.11609E-05-1.98718E-05-3.05632E-05 1.19387E-06-2.64162E-18-2.31197E-19
 -1       435 9.08463E-05-1.95464E-05-3.05683E-05-1.18277E-06-2.17773E-18-1.27716E-18
 -1       436 9.12021E-05-2.01375E-05-3.04661E-05-3.65609E-06 4.29972E-19 3.21738E-18
 -1       437 9.22969E-05-2.16526E-05-3.02815E-05-5.55077E-06 1.81112E-18 2.87955E-18
 -1       438 9.39865E-05-2.38699E-05-3.00480E-05-6.26433E-06 7.64110E-19 1.85112E-18
 -1       439 9.49408E-05-2.70765E-05-2.90475E-05 3.32542E-06 1.37768E-18 3.91655E-18
 -1       440 6.64048E-05-4.46037E-05-9.43543E-06 4.83342E-05 1.46177E-18 3.05461E-18
 -1       441 1.39884E-04-5.29314E-05-3.72453E-05 2.65229E-05 3.53403E-18 4.73936E-18
 -1       442 1.27227E-05-2.06071E-05 3.52540E-06 6.47777E-06 4.15384E-19-3.92917E-19
 -1       443 1.05764E-04-5.30430E-05-2.26630E-05 4.40042E-05 4.12166E-18 2.37667E-18
 -1       444 8.94245E-05-1.19263E-05-3.32760E-05-1.07607E-05-1.00596E-18-2.91948E-18
 -1       445 1.57301E-04-3.81926E-05-5.09413E-05 1.06416E-05 4.51646E-18 3.03608E-18
 -1       446 1.60937E-04-2.19727E-05-5.95602E-05 5.15512E-07 5.17590E-18 2.00048E-18
 -1       447 1.55140E-04-9.48814E-06-6.26708E-05-1.24159E-06 5.46463E-18 1.49676E-18
 -1       448 1.59520E-04-1.47073E-05-6.20889E-05 1.09351E-06 3.48141E-18 1.57040E-18
 -1       449 1.59742E-04-2.97079E-05-5.56550E-05-4.26101E-06 2.19847E-18 1.59030E-18
 -1       450 1.47643E-04-4.70164E-05-4.31102E-05-2.03985E-05 1.62395E-18-8.00658E-19
 -1       451 1.22140E-04-5.26101E-05-2.97872E-05-3.81939E-05 1.55960E-19-2.83375E-18
 -1       452 8.54259E-05-4.91040E-05-1.56068E-05-4.84643E-05 1.52847E-18 2.43469E-19
 -1       453 4.51741E-05-3.66294E-05-3.78567E-06-4.43258E-05 1.88941E-18 1.01395E-18
 -1       454 1.48634E-05-2.49189E-05 4.07078E-06-2.09030E-05 1.71715E-18-3.38157E-18
 -1       455 1.31442E-05-2.25124E-05 3.98536E-06 6.12816E-06 1.03449E-18-3.07886E-18
 -1       456 3.83134E-05-3.16030E-05-2.65057E-06 3.19833E-05 6.92767E-19-6.40145E-19
 -1       457 8.80210E-05-5.44970E-05-1.44623E-05 4.01350E-05 1.15864E-18-2.45851E-18
 -1       458 1.33565E-04-6.58585E-05-2.91853E-05 2.62847E-05-8.40786E-19 9.88382E-19
 -1       459 1.65077E-04-6.13669E-05-4.44026E-05 5.30188E-06-1.79836E-19 4.04670E-19
 -1       460 1.79617E-04-4.44810E-05-5.74996E-05-9.25653E-06-1.74843E-18 9.52912E-19
 -1       461 1.81135E-04-2.68141E-05-6.53346E-05-8.56946E-06-1.84081E-18 2.35263E-19
 -1       462 1.73975E-04-2.20117E-05-6.46980E-05 5.51435E-06-2.47969E-18-9.70329E-19
 -1       463 1.80549E-04-3.72441E-05-6.08937E-05 9.69227E-06-3.32069E-18-2.21076E-18
 -1       464 1.71889E-04-5.61042E-05-4.93884E-05-4.87032E-07-3.80910E-19 8.20140E-19
 -1       465 1.43838E-04-6.41083E-05-3.43656E-05-2.30749E-05-4.00329E-19 6.18969E-19
 -1       466 1.04263E-04-5.99345E-05-1.92530E-05-3.79693E-05 1.50518E-18 2.26698E-18
 -1       467 5.95014E-05-4.46943E-05-6.54557E-06-3.96821E-05 3.74283E-18 5.74553E-18
 -1       468 2.47841E-05-2.79179E-05 1.33026E-06-2.36875E-05 3.34493E-18 2.50732E-18
 -1       469 3.03439E-05-3.10535E-05 2.06046E-07 3.62652E-05 4.17058E-19 7.34081E-18
 -1       470 8.95423E-05-1.34021E-05-3.26504E-05-3.92395E-06 3.84616E-19-2.68341E-18
 -1       471 9.02509E-05-1.43670E-05-3.25419E-05-5.87951E-06-5.27910E-20-2.64235E-18
 -1       472 8.90446E-05-1.27214E-05-3.27277E-05 5.43144E-08 1.12614E-18-2.21664E-18
 -1       473 8.91805E-05-1.29054E-05-3.27074E-05 2.04516E-06 1.56214E-18-1.96839E-18
 -1       474 8.95753E-05-1.34434E-05-3.26472E-05 3.99861E-06 1.80989E-18-1.70481E-18
 -1       475 9.02972E-05-1.44290E-05-3.25360E-05 5.95220E-06 2.18879E-18-1.04848E-18
 -1       476 9.14490E-05-1.60129E-05-3.23530E-05 7.77689E-06 2.32195E-18-3.18696E-19
 -1       477 9.31734E-05-1.84356E-05-3.20511E-05 9.22587E-06 2.44940E-18 5.27334E-19
 -1       478 9.53101E-05-2.18871E-05-3.14785E-05 9.55081E-06 2.28609E-18 1.80186E-18
 -1       479 9.63563E-05-2.46197E-05-3.07330E-05 8.03633E-06 2.05190E-18 3.14678E-18
 -1       480 9.54811E-05-2.44338E-05-3.04390E-05-5.82072E-06-1.33808E-18-1.42087E-18
 -1       481 9.92399E-05-5.39924E-05-1.91360E-05 4.52367E-05 1.02719E-18 3.00188E-18
 -1       482 5.39841E-05-3.07493E-05-9.43610E-06-3.60273E-05 4.83142E-18 5.93606E-18
 -1       483 9.52727E-05-2.62226E-05-2.95846E-05-2.89755E-06-9.93902E-19-1.24056E-18
 -1       484 9.49171E-05-2.71609E-05-2.90344E-05-1.03202E-06-7.73125E-19-1.10691E-18
 -1       485 9.46412E-05-2.76924E-05-2.86908E-05 9.27988E-08-7.93757E-19-1.05204E-18
 -1       486 9.44813E-05-2.80311E-05-2.84780E-05 7.51386E-07-7.27915E-19-7.83841E-19
 -1       487 9.44312E-05-2.82369E-05-2.83690E-05 1.05904E-06-3.91275E-19-5.26947E-19
 -1       488 9.44518E-05-2.83736E-05-2.83194E-05 1.17141E-06-2.75745E-19-3.88089E-20
 -1       489 9.45160E-05-2.84636E-05-2.83084E-05 1.16534E-06-5.13111E-19-2.21055E-20
 -1       490 9.46042E-05-2.85208E-05-2.83218E-05 1.09367E-06-3.91923E-19-3.66269E-19
 -1       491 9.47034E-05-2.85540E-05-2.83501E-05 9.93084E-07 5.90502E-20-3.39569E-19
 -1       492 9.48059E-05-2.85692E-05-2.83874E-05 8.89259E-07 3.27090E-19-5.92743E-19
 -1       493 9.49082E-05-2.85705E-05-2.84307E-05 8.00611E-07-2.26937E-19-1.43081E-18
 -1       494 9.50101E-05-2.85606E-05-2.84785E-05 7.40935E-07-5.04823E-19-1.20073E-18
 -1       495 9.51183E-05-2.85391E-05-2.85339E-05 7.22633E-07-8.77403E-19-3.18036E-19
 -1       496 9.52261E-05-2.85081E-05-2.85933E-05 7.59157E-07-2.08359E-19 6.32686E-19
 -1       497 9.53432E-05-2.84651E-05-2.86618E-05 8.60844E-07-6.24841E-19 5.75489E-19
 -1       498 9.54741E-05-2.84063E-05-2.87429E-05 1.04336E-06 2.74972E-20-2.98914E-19
 -1       499 9.56228E-05-2.83250E-05-2.88411E-05 1.32682E-06-2.08330E-19-2.33259E-19
 -1       500 9.57910E-05-2.82110E-05-2.89617E-05 1.73785E-06-1.28884E-18-1.57867E-19
 -1       501 9.59764E-05-2.80488E-05-2.91101E-05 2.31152E-06-7.70604E-19-2.64411E-19
 -1       502 9.61693E-05-2.78166E-05-2.92917E-05 3.09336E-06 3.06031E-19-4.10321E-19
 -1       503 9.63502E-05-2.74867E-05-2.95097E-05 4.13988E-06-3.67622E-19-1.08341E-18
 -1       504 9.64847E-05-2.69995E-05-2.97748E-05 5.59900E-06 1.83561E-19-8.13792E-19
 -1       505 9.65018E-05-2.63745E-05-3.00487E-05 7.41191E-06 4.72557E-19 1.13231E-18
 -1       506 9.63582E-05-2.56193E-05-3.03097E-05 9.70416E-06 1.12197E-19 9.99996E-19
 -1       507 9.60387E-05-2.48781E-05-3.04899E-05 1.25171E-05 3.83375E-19 1.23565E-18
 -1       508 9.57076E-05-2.45839E-05-3.04734E-05 1.58240E-05-1.50727E-19 1.50628E-18
 -1       509 9.59796E-05-2.57192E-05-3.00980E-05 1.94712E-05 2.05227E-19 7.57630E-19
 -1       510 9.84068E-05-3.01394E-05-2.92136E-05 2.30469E-05 5.53639E-19-9.32795E-20
 -1       511 1.06079E-04-4.04823E-05-2.79693E-05 2.52851E-05-6.10605E-19-7.61906E-19
 -1       512 1.21907E-04-5.67307E-05-2.77845E-05 2.35012E-05-2.98500E-19 5.07624E-19
 -1       513 1.48938E-04-6.75706E-05-3.49890E-05 4.64479E-06-1.72504E-19 2.10570E-18
 -1       514 5.97126E-05-3.39844E-05-1.05497E-05 4.50355E-05-7.87476E-19 4.09694E-18
 -1       515 1.28394E-04-5.84782E-05-2.97994E-05-1.92322E-05 1.85558E-18-1.24839E-18
 -1       516 1.10826E-04-4.21077E-05-2.93723E-05-2.40054E-05 2.41742E-18-3.01881E-19
 -1       517 1.02113E-04-3.18948E-05-3.00509E-05-2.33470E-05 2.60423E-18 1.22783E-18
 -1       518 9.85512E-05-2.72236E-05-3.05573E-05-2.06269E-05 1.50655E-18 1.99026E-18
 -1       519 9.72347E-05-2.56567E-05-3.06684E-05-1.73022E-05-7.38772E-20 1.99061E-18
 -1       520 9.66743E-05-2.54329E-05-3.05224E-05-1.40232E-05-1.93989E-18 1.36551E-18
 -1       521 9.61905E-05-2.55133E-05-3.02789E-05-1.10003E-05-4.36332E-19 1.58729E-18
 -1       522 9.47986E-05-2.46945E-05-3.00361E-05-8.64000E-06 6.69231E-19 1.26770E-18
 -1       523 9.43814E-05-2.78486E-05-2.85125E-05-4.50431E-07 1.07377E-18 9.01870E-19
 -1       524 9.46193E-05-2.74693E-05-2.87749E-05 4.06368E-07 1.16257E-18 9.79568E-19
 -1       525 9.50071E-05-2.68327E-05-2.92142E-05 1.89481E-06 1.28384E-18 1.25599E-18
 -1       526 9.42798E-05-2.80922E-05-2.83656E-05-9.12635E-07 9.29001E-19 7.50911E-19
 -1       527 9.42759E-05-2.82556E-05-2.82944E-05-1.12129E-06 4.06054E-19 6.50729E-19
 -1       528 9.43352E-05-2.83677E-05-2.82720E-05-1.17294E-06 3.64139E-19 4.09762E-19
 -1       529 9.44305E-05-2.84442E-05-2.82802E-05-1.13257E-06 2.22960E-19 6.30657E-19
 -1       530 9.45431E-05-2.84946E-05-2.83069E-05-1.04470E-06 5.86950E-19 1.09156E-18
 -1       531 9.46612E-05-2.85255E-05-2.83442E-05-9.39934E-07 4.13230E-19 1.17492E-18
 -1       532 9.47786E-05-2.85418E-05-2.83875E-05-8.39376E-07 2.07418E-19 9.99736E-19
 -1       533 9.48931E-05-2.85474E-05-2.84341E-05-7.57643E-07 6.93991E-20-8.48763E-20
 -1       534 9.50054E-05-2.85455E-05-2.84829E-05-7.04913E-07 3.43897E-19-5.22227E-19
 -1       535 9.51188E-05-2.85393E-05-2.85341E-05-6.88251E-07 2.43311E-19-6.02260E-19
 -1       536 9.52382E-05-2.85322E-05-2.85882E-05-7.12283E-07 5.10277E-19-6.29337E-19
 -1       537 9.53702E-05-2.85285E-05-2.86463E-05-7.79264E-07 6.35138E-19 7.89275E-20
 -1       538 9.55228E-05-2.85340E-05-2.87092E-05-8.88488E-07 5.09161E-19 4.41722E-19
 -1       539 9.57053E-05-2.85570E-05-2.87776E-05-1.03498E-06 3.74487E-20 4.02534E-19
 -1       540 9.59284E-05-2.86085E-05-2.88511E-05-1.20740E-06-1.28655E-19 7.45249E-19
 -1       541 9.62038E-05-2.87037E-05-2.89283E-05-1.38525E-06 1.74507E-19 1.34277E-18
 -1       542 9.65439E-05-2.88616E-05-2.90066E-05-1.53547E-06-1.28664E-19 1.31322E-18
 -1       543 9.69599E-05-2.91037E-05-2.90815E-05-1.60917E-06-1.45831E-19 1.43734E-18
 -1       544 9.74593E-05-2.94505E-05-2.91474E-05-1.53953E-06-3.19084E-19 1.67334E-18
 -1       545 9.80392E-05-2.99133E-05-2.91984E-05-1.24334E-06-1.06855E-19 8.47293E-19
 -1       546 9.86768E-05-3.04803E-05-2.92295E-05-6.29471E-07 4.07294E-19 1.35667E-18
 -1       547 9.93153E-05-3.10964E-05-2.92400E-05 3.80755E-07-4.07205E-19 6.47576E-19
 -1       548 9.98478E-05-3.16418E-05-2.92350E-05 1.81625E-06-8.75478E-19 1.99817E-18
 -1       549 1.00110E-04-3.19204E-05-2.92277E-05 3.60038E-06 2.90535E-19 2.51066E-18
 -1       550 9.98997E-05-3.16857E-05-2.92373E-05 5.48802E-06 2.46343E-19 1.20032E-18
 -1       551 9.90538E-05-3.07313E-05-2.92817E-05 7.03306E-06 1.01111E-19 2.42676E-19
 -1       552 9.75699E-05-2.90427E-05-2.93669E-05 7.64756E-06 4.36674E-19 4.31085E-19
 -1       553 9.57323E-05-2.69456E-05-2.94756E-05 6.80517E-06 4.13019E-19-1.29833E-19
 -1       554 9.41108E-05-2.51052E-05-2.95690E-05 4.35686E-06-3.55666E-19 1.42961E-19
 -1       555 9.33438E-05-2.42673E-05-2.95986E-05 7.79215E-07 2.12346E-19-3.56731E-19
 -1       556 9.37435E-05-2.47956E-05-2.95427E-05-2.91424E-06 8.05676E-19-1.86458E-19
 -1       557 9.51073E-05-2.64546E-05-2.94172E-05-5.65709E-06 5.47276E-19-6.58606E-19
 -1       558 9.68404E-05-2.85506E-05-2.92643E-05-6.82311E-06-9.45489E-19 3.27622E-19
 -1       559 9.83212E-05-3.03569E-05-2.91275E-05-6.42919E-06-1.77262E-19 8.39264E-19
 -1       560 9.91801E-05-3.14434E-05-2.90323E-05-4.95875E-06 2.58768E-19 1.13048E-18
 -1       561 9.93563E-05-3.17437E-05-2.89806E-05-3.03685E-06 1.13086E-18 7.53802E-19
 -1       562 9.89903E-05-3.14282E-05-2.89593E-05-1.18637E-06 8.10620E-19 3.72263E-19
 -1       563 9.82886E-05-3.07413E-05-2.89517E-05 2.64735E-07-7.90125E-19-9.79924E-19
 -1       564 9.74308E-05-2.98947E-05-2.89451E-05 1.16783E-06-8.92526E-19 8.79545E-19
 -1       565 9.65633E-05-2.90584E-05-2.89306E-05 1.51054E-06-2.53851E-19 8.69318E-19
 -1       566 9.60218E-05-2.76072E-05-2.93185E-05 4.71973E-06 3.06762E-19-8.26125E-20
 -1       567 9.63875E-05-2.82969E-05-2.91796E-05 3.57513E-06-2.13911E-18-1.21922E-18
 -1       568 9.63828E-05-2.86244E-05-2.90401E-05 2.42668E-06-1.30909E-19-1.31399E-19
 -1       569 3.04513E-05-1.67649E-05-5.21263E-06 2.56532E-05 1.34496E-18 3.69688E-18
 -1       570 9.51844E-05-2.64774E-05-2.94454E-05 5.63987E-06-2.84478E-20-7.52346E-19
 -1       571 9.38467E-05-2.49157E-05-2.95432E-05 5.93764E-06-6.16146E-19-2.63327E-18
 -1       572 9.21629E-05-2.30895E-05-2.96060E-05 5.26242E-06-1.75675E-18 9.23317E-19
 -1       573 9.04878E-05-2.13374E-05-2.96403E-05 3.42213E-06-1.71047E-18 8.72556E-19
 -1       574 8.93282E-05-2.01216E-05-2.96648E-05 5.91025E-07-1.31007E-18-1.39058E-18
 -1       575 8.91214E-05-1.98165E-05-2.97072E-05-2.84180E-06-5.90085E-19 1.26143E-18
 -1       576 9.01995E-05-2.06935E-05-2.97941E-05-6.04473E-06-9.27841E-19 2.88377E-18
 -1       577 9.21678E-05-2.23918E-05-2.99047E-05-8.01066E-06 3.59612E-19 2.94262E-18
 -1       578 1.36923E-04-6.75665E-05-2.95968E-05-2.08810E-05 1.39665E-18-2.51794E-18
 -1       579 9.46292E-05-2.07698E-05-3.16751E-05-9.51646E-06-1.58070E-18-1.89696E-18
 -1       580 1.45660E-04-5.04087E-05-4.10456E-05 3.50054E-06 3.95016E-18 9.26601E-19
 -1       581 1.52172E-04-6.67817E-05-3.67959E-05-3.72087E-07 1.69661E-18-1.92986E-18
 -1       582 8.91600E-05-1.28800E-05-3.27094E-05-1.93699E-06 7.97716E-19-2.52710E-18
 -1       583 1.35327E-04-1.21489E-05-5.34595E-05-8.68378E-06 4.62385E-18-1.59798E-19
 -1       584 1.45022E-04-3.04948E-05-4.95611E-05-7.72493E-06 3.61800E-18 2.01488E-19
 -1       585 1.34017E-04-6.05989E-06-5.55294E-05 3.58591E-06 4.28387E-18 8.89795E-19
 -1       586 1.37725E-04-1.95720E-05-5.12409E-05 1.08135E-05 1.83451E-18 2.29334E-19
 -1       587 1.45547E-04-4.19360E-05-4.47711E-05 2.98875E-06 1.00146E-18 2.62141E-18
 -1       588 1.38158E-04-5.84608E-05-3.43081E-05-1.83420E-05-1.00774E-18 1.51047E-18
 -1       589 1.16451E-04-5.83647E-05-2.47217E-05-3.77383E-05-3.68724E-19-7.69066E-19
 -1       590 7.55279E-05-4.26454E-05-1.37152E-05-4.82715E-05 1.48146E-18 1.04354E-18
 -1       591 3.88196E-05-2.18665E-05-6.69974E-06-3.64354E-05 3.40507E-19-9.94205E-20
 -1       592 2.13193E-05-1.22901E-05-3.22407E-06-8.78357E-06-1.47887E-19-3.30300E-18
 -1       593 3.33209E-05-1.55044E-05-6.92412E-06 1.83680E-05-3.06573E-19-1.45965E-18
 -1       594 7.48085E-05-3.97762E-05-1.46293E-05 3.82804E-05 9.83088E-19-3.02862E-18
 -1       595 1.23995E-04-6.39321E-05-2.55508E-05 2.76402E-05 5.51048E-19 1.17314E-18
 -1       596 1.29367E-04-6.13669E-05-2.91735E-05 2.86047E-05 2.02512E-18 2.83780E-18
 -1       597 9.43233E-05-5.15147E-05-1.80787E-05-3.90232E-05 4.99633E-18 1.90614E-18
 -1       598 2.56928E-05-1.44698E-05-4.16949E-06-1.14374E-05 6.97055E-19-3.29729E-18
 -1       599 9.13391E-05-1.59037E-05-3.23642E-05-7.67179E-06-6.84894E-19-2.59990E-18
 -1       600 9.55602E-05-2.58430E-05-2.98568E-05 4.92926E-06 1.59231E-18 2.41995E-18
 -1       601 3.26214E-05-1.00582E-05-9.00790E-06 7.98811E-06 2.53073E-18 1.65426E-18
 -1       602 9.51789E-05-2.63910E-05-2.94683E-05 3.20454E-06 1.52971E-18 1.71843E-18
 -1       603 1.62736E-04-4.68815E-05-5.01754E-05-1.81765E-05-8.66197E-19 2.83756E-20
 -1       604 6.04957E-05-2.37808E-05-1.52245E-05 2.94133E-05-3.54669E-19-1.11920E-18
 -1       605 1.22190E-04-6.68720E-06-5.00518E-05-3.49717E-06 4.11240E-18 7.42742E-20
 -1       606 1.59716E-04-4.61777E-05-4.93229E-05 1.92100E-05-1.41057E-18-4.56890E-18
 -1       607 9.15585E-05-1.68516E-05-3.20232E-05 2.43810E-06 1.47373E-18-1.53523E-18
 -1       608 9.12959E-05-1.64460E-05-3.20839E-05 8.40019E-07 1.16968E-18-1.82584E-18
 -1       609 9.28893E-05-1.89977E-05-3.16742E-05 5.27240E-06 1.99020E-18-5.53245E-19
 -1       610 9.39928E-05-2.09058E-05-3.13296E-05 6.20206E-06 2.02367E-18 2.12565E-19
 -1       611 9.54948E-05-2.42058E-05-3.05400E-05 6.25711E-06 1.84605E-18 1.34208E-18
 -1       612 9.54118E-05-2.56984E-05-2.98749E-05-2.44401E-06-6.38659E-19-1.49821E-18
 -1       613 9.54742E-05-2.69440E-05-2.93693E-05-8.65715E-07-5.57949E-19-1.32414E-18
 -1       614 9.54174E-05-2.77348E-05-2.90066E-05 1.75313E-07-5.37183E-19-7.82605E-19
 -1       615 9.53414E-05-2.81929E-05-2.87780E-05 7.48017E-07-3.33306E-19-5.64864E-19
 -1       616 9.52786E-05-2.84738E-05-2.86307E-05 1.04285E-06-1.30750E-19-2.49455E-19
 -1       617 9.52355E-05-2.86386E-05-2.85416E-05 1.15512E-06-1.56311E-19-1.87934E-19
 -1       618 9.52105E-05-2.87256E-05-2.84936E-05 1.15489E-06-4.24585E-19 9.98028E-20
 -1       619 9.51997E-05-2.87597E-05-2.84744E-05 1.09277E-06-1.06012E-19 5.48346E-19
 -1       620 9.51991E-05-2.87569E-05-2.84753E-05 1.00498E-06-3.21588E-20 4.79357E-19
 -1       621 9.52055E-05-2.87278E-05-2.84905E-05 9.17580E-07-6.14407E-19-1.97589E-19
 -1       622 9.52168E-05-2.86787E-05-2.85164E-05 8.49629E-07-1.08184E-20 5.05671E-21
 -1       623 9.52313E-05-2.86081E-05-2.85529E-05 8.15904E-07 8.74894E-20 2.47055E-19
 -1       624 9.52457E-05-2.85223E-05-2.85957E-05 8.32949E-07-1.54690E-19 1.20590E-18
 -1       625 9.52581E-05-2.84153E-05-2.86469E-05 9.10354E-07-6.52915E-19 1.25482E-18
 -1       626 9.52639E-05-2.82799E-05-2.87073E-05 1.06182E-06-5.26709E-19 1.73622E-18
 -1       627 9.52553E-05-2.81051E-05-2.87785E-05 1.30325E-06-4.40077E-19 1.24535E-18
 -1       628 9.52191E-05-2.78744E-05-2.88617E-05 1.65403E-06-1.19718E-18 8.32142E-19
 -1       629 9.51339E-05-2.75647E-05-2.89578E-05 2.13784E-06-7.28590E-19 8.41046E-19
 -1       630 9.49652E-05-2.71439E-05-2.90657E-05 2.78315E-06-8.12968E-19 6.20158E-19
 -1       631 9.46609E-05-2.65710E-05-2.91807E-05 3.62337E-06-9.80013E-19 2.52506E-20
 -1       632 9.41073E-05-2.57497E-05-2.92949E-05 4.75500E-06 2.94966E-20-5.52639E-19
 -1       633 9.32385E-05-2.47011E-05-2.93717E-05 6.11225E-06 1.39467E-18-3.88704E-19
 -1       634 9.18987E-05-2.33657E-05-2.93696E-05 7.78141E-06 6.23106E-19-6.71928E-19
 -1       635 8.99296E-05-2.17797E-05-2.92055E-05 9.81130E-06 3.32397E-19 3.28375E-19
 -1       636 8.72180E-05-2.01503E-05-2.87409E-05 1.22967E-05-3.41008E-19 2.89822E-19
 -1       637 8.38461E-05-1.90500E-05-2.77596E-05 1.54505E-05-7.89480E-19 1.12494E-18
 -1       638 8.03421E-05-1.96681E-05-2.59559E-05 1.98069E-05-5.74229E-19-1.52827E-19
 -1       639 7.82663E-05-2.43440E-05-2.29270E-05 2.61427E-05-6.72372E-19-1.35411E-18
 -1       640 8.91073E-05-3.94982E-05-2.08271E-05 3.28586E-05 3.68142E-19-2.04794E-18
 -1       641 8.14629E-05-3.62128E-05-1.90394E-05-3.53677E-05 3.93420E-18 4.19512E-18
 -1       642 9.76245E-05-2.99162E-05-2.90175E-05 2.45426E-06-1.19283E-18-6.45086E-19
 -1       643 8.62024E-05-2.85878E-05-2.45409E-05-2.81113E-05 1.85179E-18 4.16757E-18
 -1       644 8.54787E-05-2.25608E-05-2.69273E-05-2.24225E-05 2.15362E-18 2.77390E-18
 -1       645 8.73461E-05-2.10616E-05-2.83981E-05-1.81914E-05-8.66244E-19-6.34558E-19
 -1       646 8.96344E-05-2.14740E-05-2.92081E-05-1.48394E-05-1.64892E-18-1.05160E-18
 -1       647 9.15276E-05-2.23828E-05-2.96327E-05-1.20213E-05-5.39695E-19 1.61348E-18
 -1       648 9.18047E-05-2.24229E-05-2.97314E-05-9.92064E-06-5.44985E-19 3.50551E-18
 -1       649 9.53570E-05-2.73692E-05-2.91370E-05 3.33502E-07 1.21358E-18 1.11664E-19
 -1       650 9.52677E-05-2.79448E-05-2.88524E-05-4.66153E-07 9.48661E-19 1.43761E-19
 -1       651 9.54583E-05-2.64951E-05-2.95582E-05 1.65499E-06 1.36393E-18 1.56790E-19
 -1       652 9.51402E-05-2.85172E-05-2.85528E-05-1.11919E-06 5.57503E-19 2.77321E-19
 -1       653 9.51149E-05-2.86423E-05-2.84884E-05-1.17614E-06 1.40951E-19 2.80165E-19
 -1       654 9.51085E-05-2.87054E-05-2.84586E-05-1.14335E-06 8.34899E-20 4.98970E-20
 -1       655 9.51151E-05-2.87261E-05-2.84525E-05-1.06477E-06 4.76716E-19 4.32746E-19
 -1       656 9.51300E-05-2.87176E-05-2.84626E-05-9.71499E-07 5.41426E-19 2.85956E-19
 -1       657 9.51504E-05-2.86888E-05-2.84837E-05-8.85441E-07 8.44975E-19-2.09236E-19
 -1       658 9.51750E-05-2.86459E-05-2.85125E-05-8.22107E-07 5.99531E-19-5.05281E-19
 -1       659 9.52035E-05-2.85936E-05-2.85472E-05-7.92531E-07 1.99808E-19-8.36877E-19
 -1       660 9.52375E-05-2.85358E-05-2.85864E-05-8.04526E-07-1.71115E-19-3.67390E-19
 -1       661 9.52798E-05-2.84771E-05-2.86297E-05-8.63281E-07 3.67366E-19-4.50840E-19
 -1       662 9.53354E-05-2.84236E-05-2.86764E-05-9.71299E-07-8.93182E-20-1.72125E-19
 -1       663 9.54119E-05-2.83842E-05-2.87260E-05-1.12763E-06 3.96816E-19 3.16515E-19
 -1       664 9.55208E-05-2.83730E-05-2.87775E-05-1.32636E-06-3.21710E-19 1.40933E-19
 -1       665 9.56785E-05-2.84101E-05-2.88292E-05-1.55415E-06 5.58121E-20 1.86079E-20
 -1       666 9.59077E-05-2.85234E-05-2.88789E-05-1.78705E-06-3.15929E-19 1.17544E-19
 -1       667 9.62381E-05-2.87487E-05-2.89240E-05-1.98649E-06-1.24090E-19 6.13199E-19
 -1       668 9.67061E-05-2.91276E-05-2.89624E-05-2.09506E-06-2.33033E-19 1.36076E-19
 -1       669 9.73503E-05-2.96999E-05-2.89934E-05-2.03326E-06-6.86163E-20 6.48645E-20
 -1       670 9.82017E-05-3.04884E-05-2.90207E-05-1.69943E-06-1.44955E-19 9.53067E-20
 -1       671 9.92636E-05-3.14727E-05-2.90543E-05-9.77346E-07 4.59106E-19 4.60861E-19
 -1       672 1.00481E-04-3.25512E-05-2.91142E-05 2.41217E-07-1.00126E-18 5.69737E-19
 -1       673 1.01700E-04-3.34993E-05-2.92305E-05 2.00834E-06-2.21147E-19 7.04468E-21
 -1       674 1.02643E-04-3.39506E-05-2.94407E-05 4.23582E-06 3.58243E-19-6.37637E-19
 -1       675 1.02936E-04-3.34580E-05-2.97766E-05 6.58483E-06 3.65856E-19-1.85395E-19
 -1       676 1.02258E-04-3.16910E-05-3.02423E-05 8.40273E-06 5.92770E-19-1.59665E-19
 -1       677 1.00588E-04-2.87440E-05-3.07897E-05 8.81757E-06 4.53841E-19-2.87826E-19
 -1       678 9.84520E-05-2.54078E-05-3.13032E-05 7.11752E-06 3.40932E-20-2.73710E-19
 -1       679 9.68170E-05-2.30023E-05-3.16362E-05 3.31688E-06-2.28323E-19-5.60705E-19
 -1       680 9.66197E-05-2.27526E-05-3.16556E-05-1.47561E-06 4.04512E-19 9.39363E-19
 -1       681 9.79457E-05-2.47597E-05-3.13623E-05-5.61279E-06-4.93503E-20 2.71838E-19
 -1       682 1.00030E-04-2.80343E-05-3.08537E-05-7.79624E-06-1.34765E-19 1.87522E-19
 -1       683 1.01853E-04-3.12028E-05-3.02771E-05-7.75188E-06-1.90509E-19-1.83105E-18
 -1       684 1.02732E-04-3.32758E-05-2.97669E-05-6.07664E-06-6.98250E-20-1.86271E-18
 -1       685 1.02565E-04-3.39905E-05-2.93901E-05-3.67907E-06 5.36894E-19-8.74514E-19
 -1       686 1.01616E-04-3.35912E-05-2.91557E-05-1.31844E-06-2.85884E-19 1.07558E-18
 -1       687 1.00279E-04-3.25252E-05-2.90399E-05 5.42559E-07 1.81077E-18 1.91072E-18
 -1       688 9.89453E-05-3.12646E-05-2.90076E-05 1.81005E-06-6.52599E-19 2.52001E-21
 -1       689 9.76251E-05-2.97013E-05-2.91086E-05 4.68022E-06 4.89687E-19 2.77472E-19
 -1       690 9.54637E-05-2.76657E-05-2.90563E-05 7.34421E-06 1.71058E-19-2.35360E-18
 -1       691 5.43068E-05-2.15777E-05-1.35589E-05 3.25990E-05 1.07719E-18 4.88672E-18
 -1       692 9.31496E-05-2.56065E-05-2.89481E-05 7.53690E-06-7.63989E-20-1.60068E-18
 -1       693 9.03805E-05-2.31319E-05-2.88226E-05 6.31967E-06-1.29643E-19 7.60181E-19
 -1       694 8.78989E-05-2.08397E-05-2.87413E-05 3.56063E-06-1.50765E-19-3.17175E-19
 -1       695 8.64877E-05-1.93525E-05-2.87730E-05-5.26256E-07 8.47685E-19-1.14640E-18
 -1       696 8.69187E-05-1.93040E-05-2.89828E-05-5.05213E-06-1.61724E-19 1.52159E-18
 -1       697 4.78055E-05-1.74599E-05-1.24277E-05-2.38462E-05 1.48112E-18 9.65300E-19
 -1       698 9.41763E-05-2.09775E-05-3.13705E-05-7.06309E-06-1.12205E-18-2.02264E-18
 -1       699 1.36108E-04-5.14399E-05-3.64810E-05-4.76730E-08-3.68784E-19 1.06263E-18
 -1       700 1.35238E-04-5.75840E-05-3.33783E-05 8.69661E-06-1.18491E-18-8.77050E-19
 -1       701 9.50857E-05-2.38618E-05-3.05251E-05-4.47714E-06-8.97762E-19-1.76448E-18
 -1       702 9.20814E-05-1.76789E-05-3.18933E-05 3.95077E-06 1.73018E-18-1.08932E-18
 -1       703 1.15875E-04-5.73019E-05-2.49850E-05 3.27679E-05-9.22313E-19 6.54545E-19
 -1       704 9.51901E-05-2.83003E-05-2.86670E-05-9.10547E-07 7.25937E-19 3.92949E-19
 -1       705 9.69561E-05-2.90239E-05-2.91124E-05 6.22187E-06-8.59117E-19 1.30863E-19
 -1       706 9.20395E-05-1.76197E-05-3.18997E-05-3.89767E-06 1.08561E-19-2.25798E-18
 -1       707 8.59820E-05-4.21540E-05-1.84396E-05 4.17363E-05-6.85541E-19 1.18638E-18
 -1       708 6.62615E-05-2.99382E-05-1.51485E-05-4.05047E-05-1.80074E-19 1.35118E-18
 -1       709 1.29293E-04-2.29539E-05-4.60422E-05-1.28024E-05 3.88309E-18-1.06859E-18
 -1       710 1.20392E-04-1.17356E-05-4.70754E-05 9.53548E-06 3.02658E-18 1.55980E-18
 -1       711 1.32119E-04-3.23535E-05-4.31478E-05 1.25813E-05 6.47398E-19 1.04312E-18
 -1       712 1.27559E-04-5.89366E-05-2.93957E-05-2.17204E-05-9.29804E-19 1.15027E-18
 -1       713 1.00928E-04-5.06486E-05-2.13193E-05-3.99844E-05 1.69089E-19 6.38564E-19
 -1       714 4.02608E-05-1.13777E-05-1.18483E-05-1.97176E-05-1.05620E-18-2.68414E-18
 -1       715 3.89744E-05-8.45111E-06-1.25151E-05 2.03032E-06-1.90674E-18-2.59610E-18
 -1       716 1.36942E-04-4.03886E-05-4.16946E-05-8.97022E-06 2.98517E-18-6.97982E-19
 -1       717 9.12902E-05-1.64384E-05-3.20847E-05-7.83162E-07 8.17963E-19-2.13778E-18
 -1       718 5.41276E-05-1.29453E-05-1.72743E-05 1.63357E-05-1.84222E-18-4.83603E-19
 -1       719 4.93113E-05-1.34579E-05-1.49466E-05 1.93474E-05 1.75622E-18 3.12706E-18
 -1       720 9.28629E-05-1.89174E-05-3.16950E-05-5.29054E-06-3.90924E-19-1.99027E-18
 -1       721 4.40200E-05-1.00868E-05-1.40552E-05-8.26121E-06 2.11501E-18-1.58504E-18
 -1       722 8.89438E-05-2.04819E-05-2.93353E-05-8.03501E-06-9.50948E-19 3.62541E-18
 -1       723 9.53051E-05-2.48780E-05-3.01754E-05 3.61124E-06 1.50853E-18 3.70596E-19
 -1       724 1.18628E-04-1.41272E-05-4.51445E-05-9.90819E-06 3.48027E-18 6.89472E-19
 -1       725 9.15333E-05-1.68187E-05-3.20260E-05-2.37986E-06 5.30788E-19-2.21404E-18
 -1       726 9.47259E-05-2.28412E-05-3.08088E-05 3.87025E-06 1.72248E-18-1.53350E-19
 -1       727 9.58744E-05-2.69116E-05-2.95557E-05-5.56629E-07-1.82885E-19-8.54278E-19
 -1       728 9.59631E-05-2.77872E-05-2.92183E-05 2.38255E-07-3.89606E-19-6.13878E-19
 -1       729 9.59503E-05-2.83385E-05-2.89765E-05 7.13135E-07-2.29842E-19-7.80962E-19
 -1       730 9.58886E-05-2.86697E-05-2.88081E-05 9.59956E-07-1.85753E-19-8.57633E-19
 -1       731 9.58070E-05-2.88512E-05-2.86954E-05 1.05411E-06-4.52835E-20-6.44781E-19
 -1       732 9.57202E-05-2.89306E-05-2.86242E-05 1.05394E-06-1.60947E-19-3.16621E-19
 -1       733 9.56358E-05-2.89400E-05-2.85839E-05 1.00307E-06 6.34310E-20 1.12975E-19
 -1       734 9.55565E-05-2.89008E-05-2.85667E-05 9.33568E-07-2.87398E-19 4.88891E-19
 -1       735 9.54825E-05-2.88265E-05-2.85669E-05 8.68826E-07-4.86897E-20 6.63352E-19
 -1       736 9.54080E-05-2.87182E-05-2.85814E-05 8.25516E-07 2.39814E-20 4.06617E-19
 -1       737 9.53357E-05-2.85883E-05-2.86060E-05 8.22125E-07 4.04257E-19 9.30135E-19
 -1       738 9.52559E-05-2.84300E-05-2.86397E-05 8.67417E-07 1.98944E-19 1.18529E-18
 -1       739 9.51589E-05-2.82360E-05-2.86812E-05 9.72445E-07-7.98199E-19 1.09494E-18
 -1       740 9.50308E-05-2.79943E-05-2.87299E-05 1.14817E-06-5.98787E-19 2.61351E-19
 -1       741 9.48512E-05-2.76871E-05-2.87846E-05 1.40595E-06-6.12666E-19 2.16643E-19
 -1       742 9.45900E-05-2.72896E-05-2.88430E-05 1.75738E-06-1.08857E-18 1.40898E-18
 -1       743 9.42039E-05-2.67687E-05-2.89007E-05 2.21333E-06-1.46129E-18 4.92783E-19
 -1       744 9.36307E-05-2.60818E-05-2.89495E-05 2.78298E-06-1.15536E-18-5.90316E-19
 -1       745 9.27272E-05-2.51230E-05-2.89730E-05 3.50579E-06-1.53303E-19-3.03809E-19
 -1       746 9.14462E-05-2.39185E-05-2.89403E-05 4.30808E-06 8.46812E-19 6.53031E-19
 -1       747 8.95890E-05-2.23762E-05-2.88054E-05 5.20653E-06 2.99239E-19-2.45892E-19
 -1       748 8.69365E-05-2.04638E-05-2.84887E-05 6.18170E-06 1.08511E-18-6.91022E-19
 -1       749 8.32219E-05-1.82158E-05-2.78610E-05 7.23435E-06 6.70552E-19-1.22612E-18
 -1       750 7.80778E-05-1.57640E-05-2.67041E-05 8.49772E-06-1.78506E-19-6.61415E-19
 -1       751 7.12563E-05-1.36334E-05-2.46643E-05 1.02784E-05-1.29577E-18-8.32537E-20
 -1       752 6.72868E-05-1.57990E-05-2.19086E-05-1.88465E-05 6.09943E-19 5.75989E-19
 -1       753 7.46522E-05-1.55831E-05-2.52899E-05-1.46619E-05 7.91574E-19-5.86669E-19
 -1       754 8.07502E-05-1.71130E-05-2.72721E-05-1.21023E-05-6.12651E-19 2.54835E-18
 -1       755 8.53967E-05-1.89244E-05-2.84895E-05-1.02069E-05-1.20202E-19 4.13632E-18
 -1       756 9.58825E-05-2.73868E-05-2.93581E-05 1.72062E-07 1.00412E-18-1.71782E-19
 -1       757 9.57151E-05-2.62633E-05-2.97574E-05 1.20780E-06 1.23354E-18-2.07822E-19
 -1       758 9.56867E-05-2.88630E-05-2.86388E-05-1.08456E-06 2.37040E-21 6.99969E-20
 -1       759 9.57659E-05-2.87334E-05-2.87283E-05-1.03787E-06 5.01058E-19 2.47879E-19
 -1       760 9.55353E-05-2.89002E-05-2.85579E-05-9.90119E-07 5.84500E-19-3.53856E-19
 -1       761 9.54685E-05-2.88522E-05-2.85499E-05-9.15624E-07 1.03516E-18-4.27937E-19
 -1       762 9.54078E-05-2.87778E-05-2.85557E-05-8.52454E-07 3.64569E-19-1.33377E-19
 -1       763 9.53525E-05-2.86851E-05-2.85718E-05-8.15300E-07 4.47349E-19 3.96186E-19
 -1       764 9.53021E-05-2.85799E-05-2.85952E-05-8.14985E-07-3.24020E-20 2.56432E-19
 -1       765 9.52566E-05-2.84671E-05-2.86241E-05-8.59625E-07 2.97058E-19-1.48060E-19
 -1       766 9.52179E-05-2.83528E-05-2.86564E-05-9.55111E-07 2.79869E-19-2.02070E-19
 -1       767 9.51907E-05-2.82458E-05-2.86906E-05-1.10507E-06-3.11787E-19 2.82062E-19
 -1       768 9.51843E-05-2.81599E-05-2.87247E-05-1.31012E-06-1.64072E-19 8.00508E-19
 -1       769 9.52149E-05-2.81168E-05-2.87563E-05-1.56636E-06-1.58838E-19 8.76641E-19
 -1       770 9.53085E-05-2.81482E-05-2.87830E-05-1.86292E-06 1.08606E-19 5.12954E-19
 -1       771 9.55035E-05-2.82981E-05-2.88023E-05-2.17832E-06-8.62220E-20 3.43866E-19
 -1       772 9.58531E-05-2.86233E-05-2.88128E-05-2.47554E-06-2.19276E-19 9.60860E-19
 -1       773 9.64256E-05-2.91893E-05-2.88156E-05-2.69565E-06 3.69736E-19 1.06153E-18
 -1       774 9.72991E-05-3.00591E-05-2.88173E-05-2.75051E-06-3.94421E-19 6.39842E-19
 -1       775 9.85452E-05-3.12691E-05-2.88329E-05-2.51644E-06-1.37113E-19 3.01781E-19
 -1       776 1.00198E-04-3.27865E-05-2.88910E-05-1.83419E-06-2.32359E-19 9.51239E-19
 -1       777 1.02195E-04-3.44453E-05-2.90366E-05-5.27628E-07 2.26982E-19 4.55456E-19
 -1       778 1.04309E-04-3.58712E-05-2.93312E-05 1.53634E-06-2.00552E-19 1.22940E-18
 -1       779 1.06067E-04-3.64340E-05-2.98431E-05 4.30680E-06-3.00971E-19 1.55288E-18
 -1       780 1.06819E-04-3.53816E-05-3.06175E-05 7.32544E-06 6.46416E-19 5.67923E-19
 -1       781 1.06018E-04-3.22258E-05-3.16280E-05 9.59363E-06 2.00856E-19 8.82642E-19
 -1       782 1.03684E-04-2.73327E-05-3.27280E-05 9.71558E-06 3.22933E-19 8.37356E-19
 -1       783 1.01003E-04-2.26273E-05-3.35728E-05 6.69115E-06-9.31405E-22 7.79685E-19
 -1       784 9.93887E-05-2.00592E-05-3.40011E-05 1.09662E-06 6.82031E-19-9.88975E-19
 -1       785 1.00489E-04-2.17239E-05-3.37514E-05-4.77523E-06 9.73434E-19-1.50868E-18
 -1       786 1.03113E-04-2.62461E-05-3.29511E-05-8.49947E-06 2.00112E-19-2.29434E-18
 -1       787 1.05745E-04-3.14194E-05-3.18548E-05-9.01653E-06-3.33070E-19-2.19209E-18
 -1       788 1.06992E-04-3.51193E-05-3.08014E-05-7.00236E-06-1.10418E-18-1.41066E-18
 -1       789 1.06583E-04-3.66398E-05-2.99760E-05-3.91682E-06-1.35674E-18 1.17834E-18
 -1       790 1.04965E-04-3.62964E-05-2.94308E-05-9.19992E-07-1.53351E-19 7.20801E-19
 -1       791 1.02785E-04-3.47833E-05-2.91366E-05 1.37122E-06-4.44362E-19 5.73939E-21
 -1       792 9.15717E-05-2.58729E-05-2.81571E-05 9.48858E-06 2.64224E-19-1.12236E-19
 -1       793 7.80675E-05-3.00206E-05-2.04214E-05 3.13583E-05-1.43357E-19-2.74571E-19
 -1       794 5.85782E-05-1.57568E-05-1.79561E-05-2.13834E-05 5.62628E-19 5.71271E-19
 -1       795 9.53621E-05-2.88511E-05-2.85044E-05 9.40872E-06-1.12521E-18-3.22390E-18
 -1       796 8.39626E-05-1.93409E-05-2.76955E-05 3.37068E-06-5.87156E-20-1.85404E-18
 -1       797 8.27885E-05-1.78172E-05-2.78483E-05-2.30910E-06 1.54548E-18-1.99638E-19
 -1       798 9.95814E-05-3.19025E-05-2.90053E-05 4.62452E-06 1.23088E-18 2.19536E-18
 -1       799 1.10733E-04-1.02296E-05-4.33687E-05 1.05520E-06 3.03836E-18 1.76509E-18
 -1       800 1.26392E-04-4.06822E-05-3.68488E-05 9.74872E-06 4.12796E-19 8.05561E-19
 -1       801 1.27375E-04-5.39072E-05-3.15381E-05-7.71931E-06-1.28268E-18 8.94308E-19
 -1       802 8.73599E-05-2.23931E-05-2.78445E-05 7.52556E-06 3.86240E-20 8.48455E-19
 -1       803 9.56085E-05-2.89098E-05-2.85852E-05-1.05574E-06 2.03672E-19-2.50758E-19
 -1       804 9.55760E-05-2.55393E-05-3.00157E-05-1.76527E-06-3.79523E-19-1.15751E-18
 -1       805 1.21787E-04-5.46590E-05-2.87672E-05 1.74025E-05-1.82850E-18-1.87341E-18
 -1       806 1.06329E-04-4.86068E-05-2.46335E-05 2.98083E-05-1.96021E-18-6.83377E-19
 -1       807 8.90334E-05-3.94456E-05-2.10644E-05-3.59270E-05-7.48433E-19 1.29916E-18
 -1       808 9.32009E-05-1.97713E-05-3.14712E-05 1.23956E-06 1.10587E-18-1.53334E-18
 -1       809 6.24929E-05-1.90781E-05-1.83273E-05-2.65388E-05-1.18213E-18 1.42500E-19
 -1       810 1.29785E-04-4.64307E-05-3.58469E-05-5.03769E-06 3.21654E-19-1.36174E-18
 -1       811 1.17611E-04-2.31905E-05-4.06813E-05 1.31536E-05 7.60186E-19 1.49893E-18
 -1       812 4.79628E-05-9.12848E-06-1.63812E-05-8.36959E-06-1.23486E-18-4.26905E-18
 -1       813 1.13191E-04-5.23145E-05-2.60243E-05-2.66691E-05-5.65666E-19 2.30466E-18
 -1       814 1.26201E-04-3.49167E-05-3.93408E-05-1.17776E-05 1.62990E-18-1.48118E-19
 -1       815 5.47312E-05-9.74438E-06-1.90975E-05 5.32213E-06-1.28525E-18-1.59721E-18
 -1       816 9.40583E-05-2.14052E-05-3.11387E-05 3.27192E-06 1.56815E-18-6.44121E-19
 -1       817 6.19243E-05-1.26974E-05-2.09587E-05 1.37150E-05-8.35656E-19-2.60496E-19
 -1       818 6.97724E-05-2.16987E-05-2.04414E-05 2.42739E-05 5.67575E-19 2.05856E-18
 -1       819 9.58825E-05-2.80534E-05-2.90698E-05-4.91267E-07 6.80478E-19-1.37030E-19
 -1       820 8.73239E-05-1.97914E-05-2.89426E-05-9.07503E-06 6.59222E-19 4.88093E-18
 -1       821 9.79279E-05-3.07633E-05-2.87853E-05 7.93838E-06-4.56997E-19-4.80463E-19
 -1       822 9.50292E-05-2.36978E-05-3.05696E-05-3.26494E-06-5.19720E-19-1.38640E-18
 -1       823 9.58378E-05-2.84826E-05-2.88665E-05-8.63367E-07 8.51426E-19-2.89547E-20
 -1       824 1.01319E-04-3.36235E-05-2.90149E-05 3.37988E-06 4.15088E-19 8.13147E-19
 -1       825 9.91013E-05-3.16181E-05-2.89223E-05 6.35857E-06 3.30266E-19-2.01356E-18
 -1       826 5.11566E-05-9.87965E-06-1.74397E-05 4.67909E-06 1.54981E-18 2.44197E-19
 -1       827 9.35323E-05-2.03718E-05-3.13526E-05 2.35911E-06 1.34845E-18-1.15746E-18
 -1       828 9.39983E-05-2.13085E-05-3.11559E-05-3.27783E-06-1.39835E-19-1.70869E-18
 -1       829 1.08253E-04-1.65920E-05-3.94061E-05 7.85097E-06 2.64449E-18 2.15738E-18
 -1       830 1.17949E-04-2.54752E-05-3.98053E-05-1.28051E-05 2.19625E-18 2.74842E-19
 -1       831 1.24867E-04-5.12321E-05-3.16044E-05 3.85029E-06-2.08710E-18-5.20186E-19
 -1       832 9.30971E-05-1.95789E-05-3.15091E-05 2.28425E-08 8.67066E-19-1.58651E-18
 -1       833 9.35014E-05-2.03284E-05-3.13609E-05-2.32788E-06 3.01632E-19-1.97693E-18
 -1       834 8.34099E-05-1.79328E-05-2.80606E-05-6.36577E-06 1.13899E-18 1.63322E-18
 -1       835 9.52922E-05-3.76103E-05-2.46796E-05 2.51483E-05-2.19262E-19-1.69637E-18
 -1       836 9.58000E-05-2.56241E-05-3.00758E-05-1.13713E-06-1.51053E-19-1.34095E-18
 -1       837 9.63657E-05-2.79309E-05-2.93291E-05 3.08148E-07-4.30595E-19-6.63249E-19
 -1       838 9.63839E-05-2.85127E-05-2.90877E-05 6.53497E-07-3.37897E-19-5.55079E-19
 -1       839 9.63157E-05-2.88528E-05-2.89127E-05 8.29919E-07 3.09549E-20-9.09724E-19
 -1       840 9.62019E-05-2.90259E-05-2.87897E-05 8.93073E-07 3.81226E-20-5.78375E-19
 -1       841 9.60667E-05-2.90832E-05-2.87072E-05 8.87451E-07 2.76077E-19-3.03496E-19
 -1       842 9.59241E-05-2.90602E-05-2.86560E-05 8.46939E-07 1.14083E-19 2.14627E-19
 -1       843 9.57809E-05-2.89806E-05-2.86287E-05 7.96725E-07-3.05380E-19-4.18441E-20
 -1       844 9.56312E-05-2.88513E-05-2.86199E-05 7.54164E-07 1.79399E-19-8.54492E-20
 -1       845 9.54858E-05-2.86918E-05-2.86260E-05 7.37826E-07 3.96873E-19 2.48125E-19
 -1       846 9.53309E-05-2.84977E-05-2.86428E-05 7.55751E-07 1.74184E-19 1.01600E-19
 -1       847 9.51555E-05-2.82638E-05-2.86679E-05 8.16430E-07-4.79177E-19-7.33853E-19
 -1       848 9.49435E-05-2.79798E-05-2.86987E-05 9.26458E-07-1.13420E-18-1.90720E-19
 -1       849 9.46726E-05-2.76298E-05-2.87326E-05 1.09048E-06-6.84110E-19-4.22893E-19
 -1       850 9.43120E-05-2.71921E-05-2.87657E-05 1.31027E-06-3.82952E-19-1.21408E-18
 -1       851 9.38189E-05-2.66378E-05-2.87919E-05 1.58285E-06-1.10526E-18-1.07331E-18
 -1       852 9.31354E-05-2.59312E-05-2.88019E-05 1.89843E-06-1.42806E-18 6.58245E-19
 -1       853 9.21229E-05-2.49767E-05-2.87769E-05 2.24921E-06-3.80671E-19 7.01407E-19
 -1       854 9.07613E-05-2.38122E-05-2.86926E-05 2.55926E-06 3.25972E-19 8.54506E-19
 -1       855 8.88667E-05-2.23508E-05-2.85070E-05 2.78101E-06-1.18162E-19-5.49415E-19
 -1       856 8.62421E-05-2.05518E-05-2.81536E-05 2.82126E-06 9.26376E-19 4.22012E-19
 -1       857 8.26262E-05-1.84013E-05-2.75265E-05 2.56815E-06 6.39590E-19 1.43815E-19
 -1       858 7.77034E-05-1.59727E-05-2.64586E-05 1.90104E-06-1.73571E-20-3.10366E-19
 -1       859 7.05667E-05-1.30414E-05-2.46049E-05 7.93353E-07-1.65940E-18-1.42838E-18
 -1       860 9.46879E-05-2.99447E-05-2.77421E-05 1.22039E-05-8.01490E-19-2.11126E-20
 -1       861 6.01850E-05-1.26695E-05-2.03441E-05-1.31565E-05-2.87362E-18-2.94958E-18
 -1       862 1.16522E-04-4.99657E-05-2.85218E-05-1.44896E-05-2.62138E-19 1.51062E-18
 -1       863 9.62023E-05-2.70134E-05-2.96521E-05-2.65762E-07-1.71855E-19-1.08737E-18
 -1       864 7.25163E-05-1.38569E-05-2.51238E-05-4.87133E-06 5.93116E-19 7.80120E-19
 -1       865 7.87090E-05-1.60327E-05-2.68493E-05-5.83982E-06 5.57632E-19-2.07417E-19
 -1       866 9.56820E-05-2.89249E-05-2.86102E-05-7.95195E-07 3.33539E-19-1.16665E-19
 -1       867 9.58153E-05-2.90140E-05-2.86291E-05-8.48011E-07 7.32619E-19-3.71223E-19
 -1       868 9.54263E-05-2.86613E-05-2.86136E-05-7.48336E-07 1.58900E-19 2.96686E-19
 -1       869 9.53017E-05-2.85019E-05-2.86285E-05-7.77300E-07 3.16418E-19-4.08600E-19
 -1       870 9.51777E-05-2.83321E-05-2.86481E-05-8.53092E-07 1.20552E-19-5.07666E-19
 -1       871 9.50554E-05-2.81594E-05-2.86697E-05-9.83108E-07-8.37267E-19 3.87307E-19
 -1       872 9.49399E-05-2.79955E-05-2.86904E-05-1.17380E-06-7.02326E-19 1.53330E-18
 -1       873 9.48430E-05-2.78598E-05-2.87071E-05-1.43021E-06-4.99706E-19 2.31424E-18
 -1       874 9.47869E-05-2.77821E-05-2.87163E-05-1.75476E-06-8.09124E-20 1.86673E-18
 -1       875 9.48084E-05-2.78071E-05-2.87148E-05-2.14500E-06-2.01863E-19 1.46530E-18
 -1       876 9.49639E-05-2.79968E-05-2.87002E-05-2.58961E-06-1.01461E-19 9.14119E-19
 -1       877 9.53337E-05-2.84318E-05-2.86723E-05-3.06189E-06 4.47352E-20 9.19025E-19
 -1       878 9.60245E-05-2.92070E-05-2.86361E-05-3.50944E-06-1.66180E-19 1.67636E-18
 -1       879 9.71636E-05-3.04173E-05-2.86056E-05-3.83911E-06 4.19522E-19 3.90808E-19
 -1       880 9.88804E-05-3.21248E-05-2.86096E-05-3.89794E-06-8.39936E-19-2.69012E-19
 -1       881 1.01261E-04-3.42974E-05-2.86992E-05-3.45417E-06-5.91344E-19 1.32961E-18
 -1       882 1.04258E-04-3.67015E-05-2.89542E-05-2.20341E-06-9.16995E-19 2.29357E-18
 -1       883 1.07561E-04-3.87697E-05-2.94831E-05 1.74436E-07-4.99159E-19 2.61930E-18
 -1       884 1.10403E-04-3.94424E-05-3.04108E-05 3.73676E-06 5.59201E-19 2.03656E-18
 -1       885 1.11621E-04-3.74125E-05-3.18126E-05 7.87296E-06-1.39289E-20 2.86440E-18
 -1       886 1.10496E-04-3.21358E-05-3.36122E-05 1.09555E-05 4.69949E-19 2.99117E-18
 -1       887 1.06865E-04-2.43583E-05-3.53813E-05 1.04662E-05 1.62442E-18 2.07996E-18
 -1       888 1.06080E-04-2.26862E-05-3.57930E-05-8.98761E-06 7.64758E-19-5.09537E-19
 -1       889 1.09987E-04-3.06560E-05-3.40064E-05-1.04370E-05 4.56306E-20-1.18419E-18
 -1       890 1.12111E-04-3.69988E-05-3.21916E-05-7.92533E-06-1.85843E-18-1.36719E-18
 -1       891 1.11469E-04-3.97741E-05-3.07294E-05-3.73676E-06-2.54890E-18-1.53109E-18
 -1       892 1.08919E-04-3.95386E-05-2.97378E-05 2.19237E-07-7.24328E-19-2.71520E-18
 -1       893 1.05611E-04-3.75216E-05-2.91826E-05 3.04107E-06-4.78368E-19-1.71305E-18
 -1       894 7.85359E-05-1.69060E-05-2.64103E-05 2.58597E-06-2.14762E-19-1.93240E-19
 -1       895 1.01017E-04-4.27835E-05-2.49056E-05-2.62430E-05-2.24457E-19 1.79587E-18
 -1       896 1.08605E-04-4.60950E-05-2.67354E-05 2.07553E-05-5.32493E-19-2.07706E-19
 -1       897 1.09004E-04-1.53931E-05-4.03076E-05-6.67200E-06 3.23322E-18 1.71690E-18
 -1       898 1.21996E-04-4.61032E-05-3.25354E-05 2.97226E-06-1.17051E-18-5.05908E-19
 -1       899 1.15193E-04-3.15873E-05-3.59056E-05 1.23362E-05 1.02525E-18 4.64090E-19
 -1       900 9.31952E-05-1.97595E-05-3.14736E-05-1.19286E-06 5.96830E-19-2.07131E-18
 -1       901 9.55526E-05-2.88044E-05-2.86064E-05-7.57713E-07-1.03811E-19 1.93155E-19
 -1       902 9.57924E-05-2.55466E-05-3.01064E-05 1.20193E-06 1.19678E-18-3.09264E-19
 -1       903 9.62062E-05-2.89196E-05-2.88372E-05-8.97158E-07 2.60006E-19-8.89483E-21
 -1       904 5.69482E-05-1.11031E-05-1.94173E-05-9.19005E-06 6.90994E-19 1.35446E-18
 -1       905 7.90689E-05-2.71169E-05-2.21802E-05-2.61920E-05-7.60682E-19 9.56922E-19
 -1       906 1.20546E-04-3.87720E-05-3.51302E-05-9.71116E-06-3.62719E-19-8.73357E-19
 -1       907 9.62962E-05-2.86624E-05-2.89860E-05-7.72007E-07 4.74863E-19-2.00819E-19
 -1       908 9.49211E-05-2.32236E-05-3.07267E-05-1.85807E-06 9.64620E-20-1.50552E-18
 -1       909 9.88991E-05-3.27872E-05-2.83327E-05 1.02022E-05-1.38903E-18-3.27116E-18
 -1       910 8.87991E-05-2.55950E-05-2.70855E-05 1.20701E-05-3.46039E-20-1.10437E-18
 -1       911 7.22542E-05-1.88347E-05-2.27728E-05-1.79468E-05-2.10766E-18-1.83475E-18
 -1       912 8.70157E-05-3.07081E-05-2.40776E-05 2.36201E-05-2.45832E-19-2.44604E-18
 -1       913 1.01419E-04-3.39653E-05-2.89069E-05 5.49929E-06-8.36172E-19-1.80801E-18
 -1       914 9.59511E-05-2.90579E-05-2.86685E-05-8.99127E-07 5.92392E-19-4.29022E-19
 -1       915 1.04168E-04-1.66352E-05-3.75934E-05-3.28131E-06 2.58122E-18 1.01224E-18
 -1       916 8.26116E-05-2.06523E-05-2.65535E-05 8.80427E-06-1.06001E-19 7.31638E-19
 -1       917 9.60847E-05-2.90365E-05-2.87350E-05-9.25725E-07 3.01788E-19-1.74254E-19
 -1       918 9.62426E-05-2.74552E-05-2.94768E-05-1.54430E-08 9.72692E-19-3.41426E-19
 -1       919 6.48302E-05-1.52682E-05-2.11217E-05 1.43038E-05 1.50896E-18 2.98824E-18
 -1       920 1.15866E-04-4.82596E-05-2.89868E-05 1.13258E-05-7.54592E-19 3.05398E-19
 -1       921 9.47059E-05-2.26500E-05-3.08875E-05 1.21173E-06 1.16057E-18-1.17778E-18
 -1       922 9.53432E-05-2.43885E-05-3.04088E-05-1.95931E-06-8.94801E-20-1.29101E-18
 -1       923 9.45558E-05-2.22807E-05-3.09747E-05 4.31142E-07 8.74581E-19-1.45348E-18
 -1       924 6.24935E-05-1.11511E-05-2.18846E-05-4.99317E-06 6.70056E-19 7.51566E-19
 -1       925 6.08790E-05-1.03583E-05-2.14944E-05 3.76287E-08-1.16204E-18-2.28123E-18
 -1       926 9.56900E-05-2.48423E-05-3.03575E-05 1.01547E-06 1.09651E-18-7.69538E-19
 -1       927 9.46953E-05-2.26061E-05-3.08954E-05-1.19341E-06 3.76100E-19-1.80549E-18
 -1       928 6.79310E-05-1.36837E-05-2.32321E-05 4.79286E-06 9.83437E-19 1.18854E-18
 -1       929 9.66821E-05-2.87034E-05-2.91338E-05 5.44271E-07-2.55917E-19-5.27317E-19
 -1       930 9.65930E-05-2.90167E-05-2.89613E-05 6.51222E-07 2.06971E-19-4.91427E-19
 -1       931 9.64462E-05-2.91590E-05-2.88373E-05 6.84336E-07 3.26098E-19-5.12484E-21
 -1       932 9.62697E-05-2.91816E-05-2.87521E-05 6.74340E-07 4.61997E-19-5.00951E-21
 -1       933 9.60800E-05-2.91201E-05-2.86971E-05 6.44523E-07-4.88694E-19-5.36043E-19
 -1       934 9.58749E-05-2.89905E-05-2.86647E-05 6.11055E-07-3.82316E-19-3.96891E-19
 -1       935 9.56744E-05-2.88190E-05-2.86523E-05 5.90292E-07 7.38987E-20-8.01806E-19
 -1       936 9.54644E-05-2.86067E-05-2.86533E-05 5.89383E-07 5.12416E-19-1.19038E-18
 -1       937 9.52348E-05-2.83522E-05-2.86640E-05 6.14294E-07-4.73466E-19-1.17851E-18
 -1       938 9.49708E-05-2.80490E-05-2.86808E-05 6.68188E-07-2.72882E-19-7.54495E-19
 -1       939 9.46517E-05-2.76853E-05-2.86999E-05 7.50888E-07-9.76514E-19-4.89717E-19
 -1       940 9.42503E-05-2.72446E-05-2.87167E-05 8.57626E-07-7.28488E-19-1.06780E-18
 -1       941 9.37306E-05-2.67059E-05-2.87249E-05 9.76694E-07-4.79673E-19-1.21106E-18
 -1       942 9.30462E-05-2.60440E-05-2.87153E-05 1.08680E-06-6.45731E-19-3.79073E-19
 -1       943 9.20825E-05-2.51855E-05-2.86701E-05 1.14960E-06-1.42005E-19 5.90435E-19
 -1       944 9.08479E-05-2.41810E-05-2.85715E-05 1.09572E-06-1.67922E-19 6.24142E-19
 -1       945 8.92049E-05-2.29716E-05-2.83858E-05 8.39072E-07-2.48970E-19 6.77997E-19
 -1       946 8.70263E-05-2.15462E-05-2.80629E-05 2.45310E-07 2.23725E-19 7.59883E-19
 -1       947 8.41511E-05-1.99195E-05-2.75272E-05-8.70249E-07 2.90698E-19-5.44379E-19
 -1       948 8.03623E-05-1.81357E-05-2.66628E-05-2.76317E-06 3.33760E-20-1.02039E-18
 -1       949 7.50997E-05-1.62234E-05-2.52560E-05-5.92423E-06-1.27871E-18-1.94240E-18
 -1       950 9.59686E-05-2.90672E-05-2.86720E-05-6.57855E-07 5.85770E-19 4.91713E-20
 -1       951 9.63387E-05-2.82252E-05-2.91931E-05-4.92196E-07 6.93131E-19-2.28871E-19
 -1       952 9.26877E-05-3.39108E-05-2.51751E-05-2.13290E-05-3.13736E-19 1.57905E-19
 -1       953 9.52114E-05-2.83633E-05-2.86492E-05-6.82063E-07-1.81123E-19 1.01172E-18
 -1       954 9.54051E-05-2.85768E-05-2.86407E-05-6.28773E-07 7.71978E-19 3.39046E-19
 -1       955 9.48017E-05-2.79006E-05-2.86719E-05-9.41392E-07-1.20627E-18 1.46622E-18
 -1       956 9.45903E-05-2.76739E-05-2.86785E-05-1.16919E-06-8.28716E-19 5.25416E-19
 -1       957 9.43897E-05-2.74786E-05-2.86762E-05-1.47913E-06 1.83926E-19 5.40566E-19
 -1       958 9.42267E-05-2.73524E-05-2.86604E-05-1.88508E-06-2.54750E-19 4.74569E-19
 -1       959 9.41476E-05-2.73518E-05-2.86268E-05-2.40011E-06 1.46130E-19 3.89705E-19
 -1       960 9.42255E-05-2.75572E-05-2.85721E-05-3.03233E-06-4.71612E-19 3.14747E-19
 -1       961 9.45687E-05-2.80758E-05-2.84970E-05-3.77655E-06-3.85660E-19 3.52062E-19
 -1       962 9.53271E-05-2.90396E-05-2.84090E-05-4.59857E-06 5.47833E-19 2.02859E-19
 -1       963 9.66928E-05-3.05918E-05-2.83289E-05-5.40849E-06-7.91183E-20 8.79211E-19
 -1       964 9.88825E-05-3.28476E-05-2.83000E-05-6.02403E-06-1.25769E-18 5.35050E-20
 -1       965 1.02101E-04-3.58239E-05-2.84036E-05-6.10236E-06-1.19323E-18 1.08035E-18
 -1       966 1.06340E-04-3.92127E-05-2.87711E-05-5.14158E-06-2.29004E-19 9.61694E-19
 -1       967 1.11344E-04-4.23173E-05-2.95785E-05-2.48282E-06 7.29779E-19-3.03726E-19
 -1       968 1.13531E-04-4.34877E-05-3.00166E-05 2.39311E-06-1.84437E-18-2.05630E-18
 -1       969 1.08463E-04-4.05625E-05-2.91098E-05 5.75372E-06-5.82341E-19-1.03882E-18
 -1       970 1.00748E-04-3.38079E-05-2.86846E-05 7.86036E-06-3.83816E-19-2.28317E-18
 -1       971 1.17587E-04-4.36436E-05-3.16821E-05-3.04345E-06-2.12500E-18-1.49234E-18
 -1       972 9.50103E-05-2.81351E-05-2.86608E-05-7.82843E-07-7.76833E-19 1.93004E-18
 -1       973 9.55956E-05-2.47304E-05-3.03717E-05-1.16736E-06-1.71855E-20-1.27361E-18
 -1       974 9.62313E-05-2.64326E-05-2.99141E-05-4.14047E-07 1.02500E-20-1.27249E-18
 -1       975 9.45462E-05-2.22700E-05-3.09758E-05-3.97074E-07 6.77213E-19-1.58441E-18
 -1       976 9.66694E-05-2.81459E-05-2.93671E-05 3.26184E-07-2.95956E-19-8.65910E-19
 -1       977 9.65309E-05-2.74375E-05-2.96119E-05 2.71137E-08-1.02300E-20-1.25814E-18
 -1       978 1.15369E-04-4.56229E-05-2.98824E-05-4.25707E-06 6.05430E-20 8.42645E-20
 -1       979 1.05786E-04-4.24720E-05-2.71364E-05-1.66340E-05 4.04437E-19 1.59541E-18
 -1       980 1.02031E-04-3.93218E-05-2.68731E-05 1.80161E-05 1.16508E-18 1.18642E-18
 -1       981 9.65093E-05-2.72146E-05-2.96996E-05 7.96669E-08 7.33049E-19-3.29886E-19
 -1       982 9.59015E-05-3.44985E-05-2.62773E-05 1.87651E-05 1.64213E-18-9.79112E-20
 -1       983 7.57382E-05-1.85525E-05-2.45024E-05 1.14571E-05-3.71557E-19-7.67910E-19
 -1       984 9.61548E-05-2.91498E-05-2.87164E-05-6.93644E-07 7.75733E-19-1.95618E-19
 -1       985 9.57815E-05-2.89361E-05-2.86480E-05-6.26819E-07-1.54917E-19 3.31653E-20
 -1       986 9.55942E-05-2.87699E-05-2.86390E-05-6.13632E-07-5.32918E-20 1.67518E-19
 -1       987 1.15864E-04-4.33765E-05-3.10834E-05 2.23131E-06-8.32800E-19-3.51089E-19
 -1       988 1.17638E-04-3.93980E-05-3.35170E-05 8.14861E-06-6.55557E-20 3.55418E-19
 -1       989 8.48757E-05-2.65588E-05-2.49871E-05-1.79304E-05-7.87177E-19-2.92406E-19
 -1       990 7.95293E-05-2.36682E-05-2.38754E-05 1.88511E-05-2.09173E-18-2.57244E-18
 -1       991 9.66126E-05-2.88415E-05-2.90445E-05-6.32945E-07 5.33628E-19-3.42987E-20
 -1       992 9.31189E-05-3.09530E-05-2.66519E-05 1.60949E-05-3.72586E-19 7.28066E-19
 -1       993 1.08546E-04-4.26185E-05-2.82607E-05 1.22905E-05 1.84049E-19-2.29688E-18
 -1       994 9.64936E-05-2.90725E-05-2.88944E-05-7.06952E-07 3.10316E-19-4.43625E-19
 -1       995 9.57366E-05-2.47693E-05-3.04144E-05 5.67575E-07 8.91565E-19-1.06058E-18
 -1       996 9.99266E-05-3.52062E-05-2.77301E-05 1.33045E-05 2.11213E-19-2.81531E-18
 -1       997 1.04236E-04-3.72074E-05-2.87310E-05 7.45406E-06-6.47128E-19-6.38868E-19
 -1       998 8.44257E-05-2.49724E-05-2.54615E-05 1.60715E-05 4.82264E-19-8.48701E-19
 -1       999 9.67377E-05-2.91511E-05-2.89657E-05 4.28590E-07 4.10992E-19-9.79942E-19
 -1      1000 9.65578E-05-2.92456E-05-2.88481E-05 4.39633E-07 3.12044E-19-1.13175E-18
 -1      1001 9.63471E-05-2.92253E-05-2.87665E-05 4.29254E-07-4.87377E-19-1.12930E-18
 -1      1002 9.61096E-05-2.91160E-05-2.87115E-05 4.09653E-07-4.09723E-19-7.86596E-19
 -1      1003 9.58742E-05-2.89503E-05-2.86817E-05 3.92501E-07-4.92990E-19-4.13228E-19
 -1      1004 9.56294E-05-2.87369E-05-2.86682E-05 3.83190E-07-2.10250E-19-4.48491E-19
 -1      1005 9.53684E-05-2.84797E-05-2.86666E-05 3.85025E-07-2.99145E-19-1.40399E-18
 -1      1006 9.50790E-05-2.81766E-05-2.86725E-05 3.98454E-07 6.67527E-20-1.24642E-18
 -1      1007 9.47444E-05-2.78207E-05-2.86816E-05 4.20222E-07-5.82525E-19-1.42072E-18
 -1      1008 9.43428E-05-2.74020E-05-2.86890E-05 4.42087E-07-1.18406E-18-1.46973E-18
 -1      1009 9.38470E-05-2.69075E-05-2.86884E-05 4.48430E-07-5.78774E-19-1.52333E-18
 -1      1010 9.32247E-05-2.63241E-05-2.86718E-05 4.13750E-07 1.85005E-20-9.30047E-19
 -1      1011 9.23911E-05-2.56018E-05-2.86240E-05 2.85544E-07 4.00335E-20 3.25190E-20
 -1      1012 9.13775E-05-2.48022E-05-2.85324E-05 8.67287E-09-4.22486E-19 1.65962E-19
 -1      1013 9.00998E-05-2.38991E-05-2.83719E-05-5.13927E-07-1.07633E-19-2.09740E-20
 -1      1014 8.85053E-05-2.29188E-05-2.81086E-05-1.41850E-06-6.47212E-19-7.39549E-19
 -1      1015 8.65466E-05-2.19251E-05-2.76945E-05-2.89220E-06-4.31667E-19-8.68214E-19
 -1      1016 8.41934E-05-2.10407E-05-2.70625E-05-5.19568E-06-5.45577E-19-2.07668E-18
 -1      1017 8.14235E-05-2.05029E-05-2.61217E-05-8.64943E-06-1.23765E-18-2.18863E-18
 -1      1018 9.47713E-05-2.78853E-05-2.86654E-05-6.44557E-07-3.54687E-19 1.17196E-18
 -1      1019 9.41532E-05-2.72828E-05-2.86588E-05-1.07720E-06-7.20524E-19 1.07863E-18
 -1      1020 9.44722E-05-2.75836E-05-2.86666E-05-8.20833E-07-7.22023E-19 8.45445E-19
 -1      1021 9.35189E-05-2.68036E-05-2.85923E-05-1.93335E-06-2.59744E-19 8.96448E-19
 -1      1022 9.32811E-05-2.67330E-05-2.85206E-05-2.59974E-06-4.53722E-19 4.14052E-19
 -1      1023 9.31966E-05-2.68931E-05-2.84158E-05-3.47536E-06-6.32862E-19 2.22705E-19
 -1      1024 9.33967E-05-2.74188E-05-2.82763E-05-4.59174E-06 9.12308E-20-1.32843E-19
 -1      1025 9.40782E-05-2.84899E-05-2.81094E-05-5.95265E-06 2.59824E-19-1.51772E-19
 -1      1026 9.55055E-05-3.03139E-05-2.79391E-05-7.48940E-06-5.21577E-19 9.57304E-19
 -1      1027 9.80285E-05-3.31075E-05-2.78169E-05-9.04381E-06-1.28887E-18 8.66384E-19
 -1      1028 1.02084E-04-3.70674E-05-2.78722E-05-1.01054E-05-1.80460E-19-9.61573E-19
 -1      1029 9.50480E-05-2.81735E-05-2.86605E-05-5.29633E-07-7.36260E-19 1.46091E-18
 -1      1030 8.21506E-05-2.26531E-05-2.55026E-05-1.31187E-05-1.36325E-18-1.28373E-18
 -1      1031 9.63337E-05-2.91613E-05-2.87880E-05-7.17917E-07 3.69080E-19-5.04420E-19
 -1      1032 9.66541E-05-2.84051E-05-2.92476E-05-4.60329E-07 5.82308E-19-1.46730E-20
 -1      1033 9.65322E-05-2.67543E-05-2.99051E-05 1.07772E-07 5.77460E-19-1.00045E-18
 -1      1034 9.68594E-05-2.88933E-05-2.91284E-05 3.78510E-07 1.04252E-19-6.98847E-19
 -1      1035 9.59145E-05-2.52629E-05-3.02766E-05-5.44845E-07 2.55055E-20-1.54181E-18
 -1      1036 9.68782E-05-2.84026E-05-2.93467E-05 2.68449E-07 1.11354E-19-8.81213E-19
 -1      1037 9.38264E-05-2.70088E-05-2.86362E-05-1.43784E-06-1.42065E-19 1.01619E-18
 -1      1038 9.53053E-05-2.84403E-05-2.86565E-05-4.61875E-07-1.45153E-19 9.11358E-19
 -1      1039 9.83287E-05-3.56700E-05-2.68490E-05-1.50980E-05 2.05472E-19 1.45670E-18
 -1      1040 1.07056E-04-4.12610E-05-2.81910E-05-1.01057E-05 5.76669E-19-4.73862E-19
 -1      1041 9.57125E-05-2.46263E-05-3.04644E-05 8.72862E-08 6.24743E-19-1.16157E-18
 -1      1042 9.62359E-05-2.91850E-05-2.87361E-05-4.55375E-07-2.39658E-20 1.06742E-19
 -1      1043 9.18688E-05-3.00562E-05-2.64713E-05-1.44827E-05-3.91617E-19-2.00134E-19
 -1      1044 9.55479E-05-2.86801E-05-2.86577E-05-4.30158E-07-7.23612E-20-2.06867E-19
 -1      1045 9.60113E-05-2.90625E-05-2.86924E-05-4.35301E-07-3.72109E-20 5.91600E-19
 -1      1046 9.69098E-05-2.82758E-05-2.94150E-05-2.08866E-07 1.77393E-19-7.45589E-19
 -1      1047 1.03881E-04-3.76035E-05-2.84038E-05 9.95830E-06 5.05680E-20-3.49208E-18
 -1      1048 9.58159E-05-2.48836E-05-3.03975E-05-2.71412E-07 3.12023E-19-1.36413E-18
 -1      1049 9.69088E-05-2.88103E-05-2.91854E-05-3.08814E-07 5.74246E-19-4.51713E-19
 -1      1050 9.64399E-05-2.66168E-05-2.99253E-05-1.97455E-07 1.08052E-19-1.49953E-18
 -1      1051 9.67798E-05-2.77566E-05-2.95811E-05 1.06641E-07 2.62269E-19-1.16343E-18
 -1      1052 9.68055E-05-2.91174E-05-2.90093E-05-3.58411E-07 6.96783E-19-3.41457E-19
 -1      1053 9.67607E-05-2.92418E-05-2.89366E-05 1.71999E-07-2.59802E-20-1.24021E-18
 -1      1054 9.57836E-05-2.88913E-05-2.86681E-05-4.23769E-07 1.45367E-19 2.42182E-19
 -1      1055 9.65528E-05-2.92800E-05-2.88311E-05 1.71862E-07 1.38780E-19-1.22647E-18
 -1      1056 9.63074E-05-2.92106E-05-2.87558E-05 1.66542E-07-2.38077E-19-1.06042E-18
 -1      1057 9.60569E-05-2.90666E-05-2.87102E-05 1.59270E-07 1.46842E-19-8.32513E-19
 -1      1058 9.57964E-05-2.88678E-05-2.86838E-05 1.51406E-07-4.41906E-19-5.99378E-19
 -1      1059 9.55234E-05-2.86219E-05-2.86720E-05 1.43009E-07-6.76598E-19-4.17649E-19
 -1      1060 9.52304E-05-2.83342E-05-2.86698E-05 1.32731E-07-2.80106E-19-4.83515E-19
 -1      1061 9.49032E-05-2.80011E-05-2.86723E-05 1.15500E-07-2.55883E-19-1.16152E-18
 -1      1062 9.45268E-05-2.76189E-05-2.86749E-05 8.14148E-08-6.76586E-19-1.00480E-18
 -1      1063 9.40825E-05-2.71821E-05-2.86717E-05 1.44935E-08-4.69498E-19-1.09404E-19
 -1      1064 9.35502E-05-2.66874E-05-2.86557E-05-1.10369E-07 1.24903E-19-1.35658E-19
 -1      1065 9.28745E-05-2.61066E-05-2.86150E-05-3.46895E-07 4.11267E-19-3.66581E-19
 -1      1066 9.20996E-05-2.55057E-05-2.85405E-05-7.32301E-07 3.80543E-20-8.04923E-19
 -1      1067 9.11867E-05-2.48862E-05-2.84150E-05-1.35572E-06-3.04467E-19-7.09616E-19
 -1      1068 9.01404E-05-2.43024E-05-2.82170E-05-2.33040E-06-6.22277E-19-2.03077E-19
 -1      1069 8.89950E-05-2.38516E-05-2.79196E-05-3.80549E-06-1.16238E-18-2.17065E-19
 -1      1070 8.78397E-05-2.36970E-05-2.74907E-05-5.97457E-06-8.51371E-19-6.90256E-19
 -1      1071 8.68159E-05-2.40626E-05-2.68955E-05-9.04175E-06-1.29724E-18-1.35368E-18
 -1      1072 9.40868E-05-2.72180E-05-2.86579E-05-6.11201E-07-4.09417E-19 3.06368E-20
 -1      1073 9.44825E-05-2.75952E-05-2.86659E-05-4.33945E-07-3.37681E-19 4.89817E-20
 -1      1074 9.21632E-05-2.58995E-05-2.83981E-05-2.68508E-06 2.31786E-20-1.30616E-18
 -1      1075 9.26498E-05-2.61120E-05-2.85158E-05-1.85851E-06-1.94925E-19-5.08698E-19
 -1      1076 9.16382E-05-2.63091E-05-2.79974E-05-5.40482E-06-5.22038E-19-1.42838E-19
 -1      1077 9.19618E-05-2.73226E-05-2.77056E-05-7.47558E-06-4.24657E-19 7.09214E-19
 -1      1078 9.31070E-05-2.92286E-05-2.73724E-05-9.93455E-06-6.45625E-19 6.12320E-19
 -1      1079 9.48338E-05-2.79455E-05-2.86663E-05-3.20595E-07-6.11605E-19-3.78529E-19
 -1      1080 9.64520E-05-2.92385E-05-2.88060E-05-4.72151E-07 1.31910E-19-3.73770E-19
 -1      1081 9.69183E-05-2.90559E-05-2.90836E-05 1.59291E-07 3.59730E-20-7.68917E-19
 -1      1082 9.69865E-05-2.86648E-05-2.92808E-05 1.29146E-07 1.21596E-19-8.57803E-19
 -1      1083 9.57159E-05-3.21495E-05-2.72469E-05-1.17820E-05-1.10694E-19 1.48234E-18
 -1      1084 9.65116E-05-2.65666E-05-2.99774E-05-1.54540E-08 4.63461E-19-8.01999E-19
 -1      1085 9.31581E-05-2.64438E-05-2.85915E-05-1.27900E-06-2.61874E-19-1.11711E-19
 -1      1086 9.66410E-05-2.92222E-05-2.88943E-05-4.22496E-07 5.49053E-19-2.26710E-19
 -1      1087 9.51485E-05-2.82639E-05-2.86648E-05-2.51728E-07-8.29724E-19-3.41976E-19
 -1      1088 9.36435E-05-2.68261E-05-2.86358E-05-8.80192E-07-6.34786E-20-3.39021E-19
 -1      1089 9.17798E-05-2.59127E-05-2.82279E-05-3.83838E-06-4.28682E-19-1.23471E-18
 -1      1090 9.54364E-05-2.85484E-05-2.86663E-05-2.13436E-07-6.23464E-19-3.49026E-19
 -1      1091 9.69523E-05-2.89978E-05-2.91238E-05-9.04707E-08 3.89025E-19-9.70597E-19
 -1      1092 9.69972E-05-2.85510E-05-2.93338E-05-6.58150E-08 2.25158E-19-1.30552E-18
 -1      1093 9.62153E-05-2.91665E-05-2.87351E-05-1.99470E-07-1.30002E-19-3.61623E-19
 -1      1094 9.64563E-05-2.92630E-05-2.87972E-05-2.06107E-07-5.96152E-20-3.03249E-19
 -1      1095 9.69365E-05-2.81191E-05-2.94943E-05 8.41049E-08 4.71609E-19-8.20780E-19
 -1      1096 9.68829E-05-2.77712E-05-2.96200E-05-1.46553E-08 3.66236E-19-8.76863E-19
 -1      1097 9.66737E-05-2.92793E-05-2.88832E-05-1.01816E-07 2.12538E-19-2.64196E-19
 -1      1098 9.56688E-05-2.87583E-05-2.86759E-05-1.01725E-07-1.82298E-19-5.71668E-19
 -1      1099 9.68350E-05-2.91854E-05-2.89926E-05-1.53249E-07 9.90238E-20-8.15649E-19
 -1      1100 9.59651E-05-2.90065E-05-2.86964E-05-1.94543E-07 2.10413E-19-9.62059E-19
 -1      1101 1.16854E-04 2.57561E-10-4.18547E-05-4.14659E-05-3.33731E-19 6.10965E-18
 -1      1102 8.86489E-05 7.19175E-11-3.72505E-05-2.41688E-05-1.49078E-19-8.58044E-19
 -1      1103 8.40752E-05 4.14564E-11-3.57659E-05-1.78790E-05-8.39092E-20-3.44409E-18
 -1      1104 8.23340E-05 3.20117E-11-3.50723E-05-1.38381E-05-3.89900E-20-4.45469E-18
 -1      1105 8.15323E-05 2.73435E-11-3.47388E-05-1.05349E-05-1.78539E-20-4.74984E-18
 -1      1106 8.11310E-05 2.46053E-11-3.45740E-05-7.64119E-06 9.26442E-23-4.71030E-18
 -1      1107 8.09221E-05 2.29523E-11-3.44907E-05-4.98038E-06 8.56959E-21-4.53123E-18
 -1      1108 8.08206E-05 2.20603E-11-3.44515E-05-2.43261E-06 2.08847E-20-4.26463E-18
 -1      1109 8.07918E-05 2.17906E-11-3.44406E-05 5.24101E-08 3.26645E-20-3.96352E-18
 -1      1110 8.08250E-05 2.21055E-11-3.44530E-05 2.54004E-06 4.77349E-20-3.62727E-18
 -1      1111 8.09308E-05 2.30551E-11-3.44934E-05 5.09640E-06 5.31844E-20-3.15509E-18
 -1      1112 8.11457E-05 2.47688E-11-3.45778E-05 7.77370E-06 7.12831E-20-2.49052E-18
 -1      1113 8.15537E-05 2.76376E-11-3.47447E-05 1.06942E-05 7.78741E-20-1.50589E-18
 -1      1114 8.23591E-05 3.25093E-11-3.50821E-05 1.40438E-05 9.96587E-20-5.45542E-20
 -1      1115 8.40731E-05 4.19137E-11-3.57857E-05 1.81320E-05 1.15144E-19 2.28604E-18
 -1      1116 8.83446E-05 6.67389E-11-3.73210E-05 2.40112E-05 1.04079E-19 6.23615E-18
 -1      1117 1.06618E-04 1.63921E-10-4.06341E-05 3.61918E-05 1.25361E-19 1.33066E-17
 -1      1118 1.30219E-04-2.57560E-05-4.02731E-05-2.61060E-05-1.23233E-18 1.04041E-17
 -1      1119 9.74545E-05-2.88620E-05-3.15771E-05-6.80331E-07-4.16528E-19 7.57120E-18
 -1      1120 9.01562E-05-2.70255E-05-2.78921E-05 3.87048E-07-1.54504E-19 3.56957E-18
 -1      1121 8.82436E-05-2.65707E-05-2.66420E-05 2.50698E-07-1.08768E-19 7.94517E-19
 -1      1122 8.78830E-05-2.64434E-05-2.63850E-05 1.65793E-07-3.30525E-20-9.75676E-19
 -1      1123 8.82401E-05-2.65194E-05-2.64693E-05 1.17979E-07-3.97427E-20-1.50740E-18
 -1      1124 8.89242E-05-2.67032E-05-2.66713E-05 8.72958E-08-6.44444E-20-2.64835E-18
 -1      1125 8.97363E-05-2.69347E-05-2.69131E-05 6.60936E-08-4.97367E-20-3.57331E-18
 -1      1126 9.05857E-05-2.71815E-05-2.71668E-05 5.05351E-08-2.95850E-20-4.29020E-18
 -1      1127 9.13899E-05-2.74188E-05-2.74068E-05 3.74072E-08-7.51292E-20-5.14394E-18
 -1      1128 9.20953E-05-2.76281E-05-2.76185E-05 2.81135E-08-2.60151E-20-5.75344E-18
 -1      1129 9.27107E-05-2.78116E-05-2.78038E-05 2.06161E-08-2.18246E-20-5.33257E-18
 -1      1130 9.32350E-05-2.79684E-05-2.79622E-05 1.46522E-08-3.01568E-20-4.63354E-18
 -1      1131 9.36753E-05-2.81006E-05-2.80957E-05 9.94056E-09 5.68852E-21-4.88014E-18
 -1      1132 9.40442E-05-2.82117E-05-2.82079E-05 6.25311E-09-3.33516E-20-4.89396E-18
 -1      1133 9.43581E-05-2.83067E-05-2.83039E-05 3.41262E-09-8.35892E-20-5.64826E-18
 -1      1134 9.46367E-05-2.83913E-05-2.83893E-05 1.27679E-09 1.26844E-20-6.64413E-18
 -1      1135 9.49097E-05-2.84747E-05-2.84736E-05-2.56139E-10 4.82660E-22-7.82386E-18
 -1      1136 9.51992E-05-2.85632E-05-2.85632E-05-1.02677E-09 3.16317E-20-7.81191E-18
 -1      1137 9.55321E-05-2.86653E-05-2.86665E-05-1.10659E-09-1.50791E-20-8.19481E-18
 -1      1138 9.59578E-05-2.87958E-05-2.87987E-05-2.18231E-10-1.06350E-19-7.87382E-18
 -1      1139 9.65321E-05-2.89717E-05-2.89772E-05 2.08944E-09 5.63351E-21-7.29110E-18
 -1      1140 9.73307E-05-2.92159E-05-2.92255E-05 6.65734E-09 6.58047E-20-8.16861E-18
 -1      1141 9.84577E-05-2.95600E-05-2.95763E-05 1.49735E-08-1.71917E-19-7.95408E-18
 -1      1142 1.00059E-04-3.00476E-05-3.00752E-05 2.95392E-08-3.07791E-19-8.19772E-18
 -1      1143 1.02339E-04-3.07422E-05-3.07858E-05 5.41252E-08 2.51794E-21-8.26909E-18
 -1      1144 1.05678E-04-3.17487E-05-3.18273E-05 9.51474E-08 1.02496E-19-8.28044E-18
 -1      1145 1.10415E-04-3.31792E-05-3.32963E-05 1.74476E-07-6.80306E-20-8.16632E-18
 -1      1146 1.16851E-04-3.51118E-05-3.52753E-05 2.90673E-07-5.95074E-20-8.90570E-18
 -1      1147 1.25475E-04-3.76917E-05-3.78706E-05 4.56531E-07-7.26695E-20-8.99094E-18
 -1      1148 1.36286E-04-4.09185E-05-4.09899E-05 6.44016E-07-1.27411E-19-8.57102E-18
 -1      1149 1.48116E-04-4.44421E-05-4.41372E-05 7.20402E-07-2.06630E-20-6.76366E-18
 -1      1150 1.57358E-04-4.71617E-05-4.61751E-05 3.52857E-07 1.95413E-19-7.09271E-18
 -1      1151 1.57160E-04-4.69881E-05-4.54775E-05-9.29295E-07-7.36919E-20-6.15179E-18
 -1      1152 1.41011E-04-4.19285E-05-4.12007E-05-2.91629E-06 8.65297E-20-5.85723E-18
 -1      1153 1.12475E-04-3.32049E-05-3.49108E-05-3.89700E-06 2.90413E-19-4.97208E-18
 -1      1154 8.71047E-05-2.59449E-05-2.98275E-05-2.23707E-06 1.98682E-19-8.88792E-18
 -1      1155 8.34216E-05-2.49237E-05-2.90760E-05 1.43968E-06-6.68891E-20-8.19504E-18
 -1      1156 1.07149E-04-3.17462E-05-3.37045E-05 3.89622E-06-1.57125E-19-6.57298E-18
 -1      1157 1.37898E-04-4.09477E-05-4.03671E-05 3.02140E-06 2.00535E-19-4.49520E-18
 -1      1158 1.55013E-04-4.62849E-05-4.48368E-05 9.85502E-07-2.19620E-19-5.75580E-18
 -1      1159 1.55179E-04-4.65451E-05-4.55078E-05-2.92307E-07-3.48792E-19-3.91949E-18
 -1      1160 1.45262E-04-4.35784E-05-4.32802E-05-7.32977E-07-2.44448E-20-4.94710E-18
 -1      1161 1.32798E-04-3.98700E-05-3.99288E-05-6.69799E-07-2.83892E-19-5.68486E-18
 -1      1162 1.21216E-04-3.64149E-05-3.65784E-05-4.97158E-07 4.67198E-19-4.53787E-18
 -1      1163 1.11710E-04-3.35737E-05-3.37300E-05-3.45450E-07 5.23804E-20-6.23289E-18
 -1      1164 1.04395E-04-3.13814E-05-3.15154E-05-2.36033E-07 2.73228E-19-6.13223E-18
 -1      1165 9.91240E-05-2.97979E-05-2.99330E-05-1.44045E-07-2.06464E-20-3.80961E-18
 -1      1166 9.59171E-05-2.88342E-05-2.89512E-05 6.37401E-10-1.27763E-19-6.90549E-18
 -1      1167 9.50514E-05-2.86792E-05-2.84278E-05 2.39265E-07 1.10196E-18-6.13552E-18
 -1      1168 1.31055E-04-3.77384E-05-3.86595E-05 1.21742E-05-2.31902E-19 1.87846E-17
 -1      1169 9.65560E-05-2.81903E-05-3.13288E-05 8.01784E-07 7.25272E-21 1.69201E-17
 -1      1170 9.03659E-05-2.69328E-05-2.78691E-05 1.19594E-07 5.22646E-20 1.42394E-17
 -1      1171 8.83297E-05-2.65034E-05-2.66754E-05 7.18237E-09 4.79136E-20 1.25187E-17
 -1      1172 8.79268E-05-2.64119E-05-2.64119E-05-2.71950E-08 7.25272E-21 1.15018E-17
 -1      1173 8.82635E-05-2.65042E-05-2.64856E-05-3.48364E-08-3.70858E-20 1.08436E-17
 -1      1174 8.89380E-05-2.66969E-05-2.66818E-05-3.55758E-08 2.67303E-21 1.03295E-17
 -1      1175 8.97452E-05-2.69328E-05-2.69207E-05-3.35524E-08-2.79877E-21 9.52414E-18
 -1      1176 9.05729E-05-2.71774E-05-2.71665E-05-3.02980E-08 7.85233E-20 8.38042E-18
 -1      1177 9.13585E-05-2.74108E-05-2.74007E-05-2.64529E-08 6.54732E-20 7.47311E-18
 -1      1178 9.20693E-05-2.76226E-05-2.76134E-05-2.24013E-08-1.81699E-20 7.14016E-18
 -1      1179 9.26915E-05-2.78084E-05-2.78001E-05-1.83868E-08 3.44578E-20 7.06383E-18
 -1      1180 9.32239E-05-2.79677E-05-2.79605E-05-1.45600E-08 9.27939E-20 6.21559E-18
 -1      1181 9.36737E-05-2.81025E-05-2.80965E-05-1.10063E-08-9.88281E-20 5.92690E-18
 -1      1182 9.40533E-05-2.82165E-05-2.82117E-05-7.76945E-09-1.15716E-20 5.92238E-18
 -1      1183 9.43789E-05-2.83144E-05-2.83108E-05-4.87340E-09 1.95181E-19 5.18994E-18
 -1      1184 9.46690E-05-2.84018E-05-2.83995E-05-2.34347E-09-1.03095E-19 4.76507E-18
 -1      1185 9.49442E-05-2.84848E-05-2.84839E-05-2.27748E-10-1.08163E-19 5.72850E-18
 -1      1186 9.52259E-05-2.85698E-05-2.85704E-05 1.38082E-09-1.40167E-19 6.10709E-18
 -1      1187 9.55363E-05-2.86633E-05-2.86655E-05 2.32252E-09 9.86723E-20 4.34602E-18
 -1      1188 9.58967E-05-2.87716E-05-2.87755E-05 2.35223E-09 5.35555E-20 2.27592E-18
 -1      1189 9.63256E-05-2.89001E-05-2.89058E-05 1.13092E-09 3.30035E-20 2.59970E-18
 -1      1190 9.68355E-05-2.90524E-05-2.90595E-05-1.75928E-09 1.97875E-20 1.76607E-18
 -1      1191 9.74275E-05-2.92284E-05-2.92364E-05-6.75486E-09 6.76276E-20 8.24487E-19
 -1      1192 9.80839E-05-2.94227E-05-2.94301E-05-1.41736E-08 2.45078E-20 2.32064E-18
 -1      1193 9.87589E-05-2.96215E-05-2.96257E-05-2.39633E-08-9.60543E-21 3.53454E-18
 -1      1194 9.93682E-05-2.97993E-05-2.97969E-05-3.53115E-08 1.05245E-19 1.43719E-18
 -1      1195 9.97798E-05-2.99172E-05-2.99032E-05-4.61446E-08 1.29579E-19-1.14151E-21
 -1      1196 9.98123E-05-2.99218E-05-2.98909E-05-5.26757E-08-2.38145E-21-5.21263E-19
 -1      1197 9.92483E-05-2.97498E-05-2.96980E-05-4.93822E-08 1.58191E-19-2.88865E-19
 -1      1198 9.78719E-05-2.93385E-05-2.92662E-05-3.00203E-08 1.66909E-20 2.10183E-19
 -1      1199 9.55376E-05-2.86460E-05-2.85612E-05 9.77242E-09-3.23110E-19 8.65244E-19
 -1      1200 9.22636E-05-2.76776E-05-2.75985E-05 6.84742E-08 1.19341E-19 1.14164E-19
 -1      1201 8.83198E-05-2.65114E-05-2.64639E-05 1.35084E-07-1.18671E-19-7.25881E-19
 -1      1202 8.42585E-05-2.53076E-05-2.53171E-05 1.89157E-07-5.06785E-19 4.32516E-19
 -1      1203 8.08327E-05-2.42861E-05-2.43648E-05 2.07570E-07-6.05198E-20 1.41870E-18
 -1      1204 7.87877E-05-2.36679E-05-2.38043E-05 1.76275E-07 5.69370E-19-8.86129E-19
 -1      1205 7.85950E-05-2.35970E-05-2.37564E-05 1.00251E-07-1.87806E-19-8.15799E-20
 -1      1206 8.02608E-05-2.40815E-05-2.42197E-05 2.85741E-09 3.45652E-19-4.89744E-19
 -1      1207 8.33199E-05-2.49878E-05-2.50706E-05-8.54450E-08 1.48515E-19-2.51773E-18
 -1      1208 8.70204E-05-2.60927E-05-2.61086E-05-1.41529E-07 4.46103E-20-1.18328E-18
 -1      1209 9.05911E-05-2.71641E-05-2.71242E-05-1.57698E-07-3.20119E-21 1.19733E-18
 -1      1210 9.34613E-05-2.80284E-05-2.79563E-05-1.40348E-07 1.42052E-19-2.69886E-19
 -1      1211 9.53557E-05-2.86011E-05-2.85214E-05-1.02842E-07-5.42242E-20-1.21940E-18
 -1      1212 9.62747E-05-2.88812E-05-2.88126E-05-5.86725E-08 3.15252E-19-2.23074E-18
 -1      1213 9.64130E-05-2.89266E-05-2.88804E-05-1.79956E-08 3.18344E-19-4.10884E-18
 -1      1214 9.60684E-05-2.88263E-05-2.88078E-05 1.25591E-08-1.43980E-19-2.91103E-18
 -1      1215 9.55711E-05-2.86781E-05-2.86862E-05 2.58796E-08 5.14676E-20-2.44504E-18
 -1      1216 9.52254E-05-2.85718E-05-2.85878E-05 1.19368E-08 6.84892E-19-3.60949E-18
 -1      1217 9.51823E-05-2.85546E-05-2.85283E-05-1.80937E-08-4.70087E-20-3.18010E-18
 -1      1218 9.52529E-05-2.86276E-05-2.85296E-05-1.95782E-08-3.39932E-18-2.72019E-19
 -1      1219 9.52324E-05-2.85910E-05-2.85898E-05-2.47060E-08-3.17979E-18-1.78608E-19
 -1      1220 9.51125E-05-2.82097E-05-2.87214E-05 1.29507E-09 2.64379E-18 3.20040E-19
 -1      1221 9.48612E-05-2.73849E-05-2.89754E-05 2.26786E-08 3.86251E-18 3.51890E-19
 -1      1222 9.44619E-05-2.60545E-05-2.93774E-05 4.92031E-08 2.80438E-18 5.02419E-19
 -1      1223 9.39113E-05-2.42083E-05-2.99247E-05 7.91305E-08-4.65656E-19-2.04744E-19
 -1      1224 9.32330E-05-2.19125E-05-3.05932E-05 1.05329E-07-1.67765E-19 3.27002E-19
 -1      1225 9.24852E-05-1.93679E-05-3.13200E-05 1.18988E-07-4.90464E-18-1.17203E-18
 -1      1226 9.17876E-05-1.69795E-05-3.19887E-05 1.08978E-07-7.21763E-18 3.88098E-19
 -1      1227 9.12850E-05-1.52444E-05-3.24609E-05 6.83367E-08-3.22230E-18 9.83036E-19
 -1      1228 9.11192E-05-1.46566E-05-3.26037E-05-1.92231E-09-2.35851E-18-1.42521E-18
 -1      1229 9.13855E-05-1.55364E-05-3.23376E-05-9.05365E-08-7.69371E-18-2.79471E-19
 -1      1230 9.20790E-05-1.78972E-05-3.16689E-05-1.70834E-07-8.01685E-18 1.29703E-18
 -1      1231 9.30988E-05-2.13775E-05-3.07120E-05-2.19024E-07 5.54542E-19 6.56878E-19
 -1      1232 9.41868E-05-2.51118E-05-2.97027E-05-1.80717E-07 5.21153E-18 5.16999E-19
 -1      1233 9.50477E-05-2.79514E-05-2.89045E-05 4.94536E-08 1.32740E-17-2.27858E-19
 -1      1234 9.51736E-05-2.87826E-05-2.84126E-05 2.28090E-07 7.29938E-18-8.20413E-19
 -1      1235 3.47381E-05-1.10816E-04 1.92345E-05-1.41611E-05 8.29245E-18 2.12041E-18
 -1      1236 1.60035E-05-5.94539E-05 8.28131E-06-2.28440E-05 1.41514E-17 5.94109E-18
 -1      1237 9.41395E-06 4.33666E-07-9.44516E-06 9.20907E-06 1.97613E-17 1.23176E-17
 -1      1238 4.30156E-05 2.92148E-05-3.03394E-05 6.53774E-05 1.45791E-17 1.42014E-17
 -1      1239 1.21474E-04 1.14447E-05-5.08094E-05 1.10137E-04 9.01243E-18 1.29410E-17
 -1      1240 2.23475E-04-3.87908E-05-6.80858E-05 1.11863E-04 4.76498E-18 1.21939E-17
 -1      1241 2.99890E-04-8.37052E-05-7.84311E-05 6.02399E-05 1.63954E-18 6.86859E-18
 -1      1242 3.16544E-04-9.41574E-05-8.05528E-05-2.19136E-05 4.63909E-19-2.31664E-18
 -1      1243 2.64873E-04-6.21765E-05-7.38913E-05-9.36082E-05 2.01022E-18-7.77915E-18
 -1      1244 1.68787E-04-9.34392E-06-5.95979E-05-1.17299E-04 4.17079E-18-8.37716E-18
 -1      1245 7.50706E-05 2.70817E-05-4.03786E-05-9.07350E-05 7.75628E-18-9.61382E-18
 -1      1246 1.86481E-05 2.09131E-05-1.94585E-05-3.52599E-05 6.29854E-18-5.54214E-18
 -1      1247 9.07318E-06-2.83178E-05 2.99214E-07 1.21564E-05 9.84422E-18-4.40203E-18
 -1      1248 2.63354E-05-8.85333E-05 1.48429E-05 2.20516E-05 9.38936E-18-1.96808E-18
 -1      1249 3.99588E-05-1.21890E-04 2.12600E-05-7.35616E-07 4.81644E-18-4.23516E-20
 -1      1250 3.10051E-05-1.06165E-04 1.85131E-05-2.92544E-05-1.12147E-18 4.02341E-20
 -1      1251 1.09548E-05-5.09013E-05 5.94895E-06-2.72426E-05-1.74912E-18-1.28410E-18
 -1      1252 1.52630E-05 2.59512E-06-1.41702E-05 1.58386E-05-5.57009E-18-4.89924E-18
 -1      1253 7.03278E-05 1.80512E-05-3.75138E-05 7.68762E-05-5.24313E-18-6.14268E-18
 -1      1254 1.75780E-04-1.49515E-05-6.03764E-05 1.15893E-04-3.27124E-18-5.72933E-18
 -1      1255 2.95018E-04-7.45670E-05-7.82291E-05 9.42564E-05-1.12401E-18-1.04016E-18
 -1      1256 3.55874E-04-1.07539E-04-8.62959E-05 1.29256E-05 2.66815E-20 5.30518E-18
 -1      1257 3.24581E-04-9.01807E-05-8.22618E-05-7.51626E-05-3.00718E-18 1.14426E-17
 -1      1258 2.20538E-04-3.47626E-05-6.79786E-05-1.17976E-04-5.30073E-18 1.32425E-17
 -1      1259 1.05150E-04 1.24545E-05-4.67685E-05-9.81144E-05-8.42713E-18 1.11893E-17
 -1      1260 2.82541E-05 1.70218E-05-2.31488E-05-3.96729E-05-1.17077E-17 1.12655E-17
 -1      1261 6.73289E-06-2.31815E-05-2.15118E-06 1.38209E-05-8.83117E-18 6.39679E-18
 -1      1262 2.04621E-05-8.11927E-05 1.33107E-05 3.32867E-05 1.62630E-19 5.01020E-19
 -1      1263 3.75949E-05-1.20184E-04 2.10752E-05 1.62505E-05 4.87933E-18-4.11605E-20
 -1      1264 1.04441E-04-2.20189E-05-3.78916E-05-1.72759E-05-4.55704E-19 4.30949E-18
 -1      1265 9.03178E-05-6.68101E-06-3.60164E-05-2.04736E-05-1.00273E-18-2.11028E-18
 -1      1266 9.26539E-05-6.73960E-06-3.72215E-05-2.57614E-05-1.41709E-18-7.51530E-19
 -1      1267 8.59014E-05-4.09682E-06-3.51288E-05-1.64339E-05-8.41580E-19-3.90506E-18
 -1      1268 8.71549E-05-4.09002E-06-3.55984E-05-1.88549E-05-1.00850E-18-3.17095E-18
 -1      1269 9.21327E-05-1.04634E-05-3.50927E-05-1.90375E-05-1.70058E-18-1.80434E-18
 -1      1270 8.40942E-05-3.18933E-06-3.46861E-05-1.28208E-05-5.39957E-19-4.62058E-18
 -1      1271 8.47026E-05-3.15894E-06-3.49100E-05-1.46335E-05-6.66933E-19-4.34107E-18
 -1      1272 8.78605E-05-7.39413E-06-3.45723E-05-1.54116E-05-1.28404E-18-3.27844E-18
 -1      1273 8.31866E-05-2.72846E-06-3.44705E-05-9.68722E-06-2.59814E-19-4.79609E-18
 -1      1274 8.35006E-05-2.71182E-06-3.45794E-05-1.12353E-05-3.33069E-19-4.75461E-18
 -1      1275 8.58631E-05-5.98413E-06-3.43047E-05-1.19614E-05-7.56103E-19-3.86858E-18
 -1      1276 8.26935E-05-2.45678E-06-3.43641E-05-6.91614E-06 2.77271E-21-4.69119E-18
 -1      1277 8.28632E-05-2.44849E-06-3.44186E-05-8.28700E-06-9.47287E-20-4.74562E-18
 -1      1278 8.48211E-05-5.21636E-06-3.41734E-05-8.94343E-06-3.31190E-19-3.99434E-18
 -1      1279 8.24187E-05-2.29183E-06-3.43111E-05-4.29618E-06 2.17992E-19-4.49055E-18
 -1      1280 8.25096E-05-2.28790E-06-3.43384E-05-5.59765E-06 1.42007E-19-4.61591E-18
 -1      1281 8.42346E-05-4.76102E-06-3.41098E-05-6.21826E-06 9.06259E-20-3.95035E-18
 -1      1282 8.22867E-05-2.20265E-06-3.42889E-05-1.79061E-06 4.18349E-19-4.22935E-18
 -1      1283 8.23255E-05-2.20105E-06-3.42999E-05-3.04196E-06 3.53563E-19-4.38006E-18
 -1      1284 8.39132E-05-4.49825E-06-3.40807E-05-3.64583E-06 4.60037E-19-3.73332E-18
 -1      1285 8.22607E-05-2.17520E-06-3.42862E-05 6.69908E-07 6.20639E-19-3.90286E-18
 -1      1286 8.22593E-05-2.17523E-06-3.42858E-05-5.66329E-07 5.60439E-19-4.08405E-18
 -1      1287 8.37722E-05-4.37876E-06-3.40699E-05-1.17101E-06 7.79169E-19-3.46008E-18
 -1      1288 8.23342E-05-2.20549E-06-3.43014E-05 3.14926E-06 8.02354E-19-3.54719E-18
 -1      1289 8.22925E-05-2.20712E-06-3.42896E-05 1.89524E-06 7.41575E-19-3.77220E-18
 -1      1290 8.37772E-05-4.38305E-06-3.40702E-05 1.27396E-06 1.10370E-18-3.18028E-18
 -1      1291 8.25269E-05-2.29845E-06-3.43408E-05 5.71430E-06 9.75828E-19-3.06850E-18
 -1      1292 8.24326E-05-2.30185E-06-3.43130E-05 4.40680E-06 9.16164E-19-3.36484E-18
 -1      1293 8.39289E-05-4.51201E-06-3.40817E-05 3.75311E-06 1.39689E-18-2.79402E-18
 -1      1294 8.28855E-05-2.46388E-06-3.44208E-05 8.39653E-06 1.12641E-18-2.35361E-18
 -1      1295 8.27132E-05-2.47263E-06-3.43660E-05 7.01659E-06 1.06943E-18-2.77581E-18
 -1      1296 8.42607E-05-4.78492E-06-3.41106E-05 6.31236E-06 1.65449E-18-2.28545E-18
 -1      1297 8.35429E-05-2.74065E-06-3.45839E-05 1.13965E-05 1.36681E-18-1.28104E-18
 -1      1298 8.32217E-05-2.75781E-06-3.44733E-05 9.83169E-06 1.24865E-18-1.88929E-18
 -1      1299 8.48622E-05-5.25739E-06-3.41734E-05 9.05589E-06 1.94499E-18-1.51299E-18
 -1      1300 8.47676E-05-3.20562E-06-3.49182E-05 1.48445E-05 1.55134E-18 2.76927E-19
 -1      1301 8.41529E-05-3.24041E-06-3.46916E-05 1.30039E-05 1.41927E-18-6.36611E-19
 -1      1302 8.59449E-05-6.06228E-06-3.43058E-05 1.21226E-05 2.22340E-18-4.20022E-19
 -1      1303 8.72507E-05-4.08895E-06-3.56195E-05 1.90948E-05 1.56045E-18 2.71625E-18
 -1      1304 8.59721E-05-4.15430E-06-3.51364E-05 1.66979E-05 1.44435E-18 1.26134E-18
 -1      1305 8.79883E-05-7.51907E-06-3.45745E-05 1.56532E-05 2.38329E-18 1.25496E-18
 -1      1306 9.34663E-05-6.79289E-06-3.71176E-05 2.50962E-05 1.11565E-18 6.88013E-18
 -1      1307 9.01306E-05-6.43621E-06-3.60392E-05 2.11488E-05 1.14715E-18 4.39917E-18
 -1      1308 9.23547E-05-1.06950E-05-3.50779E-05 1.96803E-05 2.14890E-18 3.86702E-18
 -1      1309 1.23628E-04-2.49237E-05-3.90160E-05 2.83670E-05 3.43260E-19 1.36326E-17
 -1      1310 1.00082E-04-1.44237E-05-3.73552E-05 2.40508E-05 4.53586E-19 9.08146E-18
 -1      1311 1.01684E-04-1.93443E-05-3.54037E-05 2.14009E-05 1.70674E-18 7.54812E-18
 -1      1312 1.02606E-04-2.78052E-05-3.47589E-05 7.32877E-06 7.26569E-19 1.35701E-17
 -1      1313 1.05148E-04-3.02305E-05-3.35258E-05-7.95969E-06-1.21634E-18 4.84291E-18
 -1      1314 9.82617E-05-2.78433E-05-3.07625E-05-4.98844E-06-1.08134E-18 3.36997E-18
 -1      1315 9.55041E-05-2.78496E-05-2.92548E-05-2.49001E-06-9.19507E-19 2.83972E-18
 -1      1316 9.32714E-05-2.75586E-05-2.82154E-05-2.04336E-06-9.11037E-19 1.42219E-18
 -1      1317 9.94860E-05-2.80529E-05-3.09831E-05-7.88686E-06-1.96374E-18 1.10982E-18
 -1      1318 9.15814E-05-2.72006E-05-2.75810E-05-8.38767E-07-7.45263E-19 1.03296E-18
 -1      1319 9.08643E-05-2.71050E-05-2.72786E-05-7.28597E-07-6.33746E-19-1.90847E-20
 -1      1320 9.47189E-05-2.77702E-05-2.88166E-05-3.12140E-06-1.56667E-18 4.64505E-19
 -1      1321 9.01139E-05-2.69221E-05-2.70354E-05-1.74378E-07-3.76897E-19-4.40589E-19
 -1      1322 9.00409E-05-2.69488E-05-2.70004E-05-1.16271E-07-3.50513E-19-9.96402E-19
 -1      1323 9.25191E-05-2.74996E-05-2.78956E-05-1.05424E-06-1.03849E-18-2.19580E-19
 -1      1324 8.97815E-05-2.68814E-05-2.69261E-05 1.53957E-07-1.60109E-19-1.21562E-18
 -1      1325 8.99956E-05-2.69713E-05-2.69876E-05 1.82604E-07-2.60851E-19-1.55212E-18
 -1      1326 9.15603E-05-2.73558E-05-2.75286E-05-7.08133E-08-5.47484E-19-8.88921E-19
 -1      1327 8.99993E-05-2.69745E-05-2.69941E-05 3.13581E-07-4.70700E-19-1.72981E-18
 -1      1328 9.03409E-05-2.70940E-05-2.70930E-05 3.25305E-07-4.18913E-19-2.23705E-18
 -1      1329 9.13071E-05-2.73439E-05-2.74206E-05 4.16209E-07-7.46481E-19-1.32878E-18
 -1      1330 9.04828E-05-2.71351E-05-2.71402E-05 3.79525E-07-2.54927E-19-2.45853E-18
 -1      1331 9.08708E-05-2.72643E-05-2.72521E-05 3.81567E-07-2.69557E-19-2.85526E-18
 -1      1332 9.14401E-05-2.74180E-05-2.74428E-05 6.44161E-07-6.46040E-19-1.57470E-18
 -1      1333 9.10912E-05-2.73276E-05-2.73223E-05 3.91474E-07-1.77535E-19-2.84610E-18
 -1      1334 9.14957E-05-2.74584E-05-2.74396E-05 3.87300E-07-1.78434E-19-3.18126E-18
 -1      1335 9.17821E-05-2.75386E-05-2.75350E-05 7.26923E-07-4.74972E-19-1.75467E-18
 -1      1336 9.17264E-05-2.75241E-05-2.75126E-05 3.72008E-07-2.84297E-19-3.29592E-18
 -1      1337 9.20857E-05-2.76378E-05-2.76171E-05 3.64582E-07-3.94732E-19-3.61548E-18
 -1      1338 9.22170E-05-2.76807E-05-2.76584E-05 7.23783E-07-4.94215E-19-1.93993E-18
 -1      1339 9.23156E-05-2.77039E-05-2.76892E-05 3.36685E-07-1.89107E-19-3.69893E-18
 -1      1340 9.26363E-05-2.78039E-05-2.77829E-05 3.28003E-07-2.72972E-20-3.85962E-18
 -1      1341 9.26625E-05-2.78189E-05-2.77889E-05 6.74266E-07-4.68975E-19-2.07727E-18
 -1      1342 9.28505E-05-2.78654E-05-2.78500E-05 2.94949E-07 8.18532E-20-3.62775E-18
 -1      1343 9.31285E-05-2.79511E-05-2.79315E-05 2.86139E-07 1.43085E-19-3.50470E-18
 -1      1344 9.30925E-05-2.79493E-05-2.79167E-05 6.02670E-07 1.93563E-19-2.09734E-18
 -1      1345 9.33211E-05-2.80063E-05-2.79917E-05 2.52863E-07 1.28689E-19-3.34316E-18
 -1      1346 9.35573E-05-2.80784E-05-2.80612E-05 2.44728E-07 1.15874E-19-3.27741E-18
 -1      1347 9.34874E-05-2.80669E-05-2.80353E-05 5.24135E-07 1.63502E-19-2.46752E-18
 -1      1348 9.37271E-05-2.81269E-05-2.81142E-05 2.14570E-07-5.34429E-20-3.42963E-18
 -1      1349 9.39261E-05-2.81871E-05-2.81730E-05 2.07641E-07-9.57013E-20-3.50840E-18
 -1      1350 9.38398E-05-2.81702E-05-2.81422E-05 4.48750E-07-1.01977E-19-2.57039E-18
 -1      1351 9.40754E-05-2.82297E-05-2.82195E-05 1.82937E-07-2.11796E-19-3.29819E-18
 -1      1352 9.42441E-05-2.82801E-05-2.82695E-05 1.77594E-07-2.31127E-19-3.48201E-18
 -1      1353 9.41506E-05-2.82601E-05-2.82372E-05 3.83439E-07-1.09031E-19-2.27534E-18
 -1      1354 9.43777E-05-2.83181E-05-2.83111E-05 1.60128E-07-5.15587E-19-3.47023E-18
 -1      1355 9.45247E-05-2.83615E-05-2.83549E-05 1.56684E-07-4.41303E-19-3.96329E-18
 -1      1356 9.44265E-05-2.83386E-05-2.83223E-05 3.33227E-07-4.80985E-19-2.23421E-18
 -1      1357 9.46493E-05-2.83968E-05-2.83937E-05 1.48067E-07-2.82491E-19-4.38464E-18
 -1      1358 9.47852E-05-2.84365E-05-2.84343E-05 1.46826E-07-3.12264E-19-4.90174E-18
 -1      1359 9.46786E-05-2.84093E-05-2.84007E-05 3.02234E-07-6.93407E-19-2.45614E-18
 -1      1360 9.49160E-05-2.84734E-05-2.84750E-05 1.49077E-07-3.13380E-19-5.22063E-18
 -1      1361 9.50600E-05-2.85150E-05-2.85183E-05 1.50764E-07-4.01523E-19-5.66060E-18
 -1      1362 9.49282E-05-2.84783E-05-2.84789E-05 2.94818E-07-6.33349E-19-3.08972E-18
 -1      1363 9.51958E-05-2.85532E-05-2.85605E-05 1.66392E-07-2.65339E-21-5.72373E-18
 -1      1364 9.53502E-05-2.85975E-05-2.86069E-05 1.71130E-07 2.08775E-19-5.66493E-18
 -1      1365 9.51888E-05-2.85492E-05-2.85611E-05 3.16890E-07-4.04300E-19-3.74355E-18
 -1      1366 9.55105E-05-2.86425E-05-2.86569E-05 2.02938E-07 1.65493E-19-5.53818E-18
 -1      1367 9.57006E-05-2.86969E-05-2.87140E-05 2.11740E-07-2.84976E-20-5.27003E-18
 -1      1368 9.54780E-05-2.86271E-05-2.86527E-05 3.73964E-07 2.79809E-19-3.69727E-18
 -1      1369 9.59027E-05-2.87533E-05-2.87772E-05 2.64409E-07 2.10203E-19-5.28606E-18
 -1      1370 9.61529E-05-2.88252E-05-2.88523E-05 2.78485E-07 3.36259E-19-4.83313E-18
 -1      1371 9.58314E-05-2.87218E-05-2.87650E-05 4.75408E-07 1.30781E-19-2.62659E-18
 -1      1372 9.64187E-05-2.88990E-05-2.89357E-05 3.58740E-07-2.71464E-19-4.75139E-18
 -1      1373 9.67613E-05-2.89976E-05-2.90383E-05 3.79897E-07-3.75757E-19-5.10699E-18
 -1      1374 9.62866E-05-2.88432E-05-2.89099E-05 6.34724E-07 4.39109E-20-2.69658E-18
 -1      1375 9.71195E-05-2.90967E-05-2.91512E-05 4.97433E-07-2.50365E-19-5.39052E-18
 -1      1376 9.75986E-05-2.92351E-05-2.92946E-05 5.28321E-07-2.85445E-19-5.46859E-18
 -1      1377 9.68921E-05-2.90041E-05-2.91029E-05 8.71360E-07-6.26327E-19-3.03745E-18
 -1      1378 9.80874E-05-2.93694E-05-2.94493E-05 6.96933E-07-2.36706E-19-5.72288E-18
 -1      1379 9.87641E-05-2.95657E-05-2.96515E-05 7.41379E-07-4.04533E-19-5.80760E-18
 -1      1380 9.77117E-05-2.92210E-05-2.93644E-05 1.21307E-06-6.79760E-19-3.15617E-18
 -1      1381 9.94339E-05-2.97486E-05-2.98646E-05 9.80238E-07-3.67981E-19-5.58719E-18
 -1      1382 1.00393E-04-3.00281E-05-3.01511E-05 1.04379E-06-3.22840E-19-6.00509E-18
 -1      1383 9.88294E-05-2.95158E-05-2.97214E-05 1.69870E-06-2.37702E-19-3.70432E-18
 -1      1384 1.01309E-04-3.02750E-05-3.04444E-05 1.37822E-06-1.51314E-19-5.99352E-18
 -1      1385 1.02670E-04-3.06772E-05-3.08497E-05 1.46776E-06 8.93223E-20-5.73445E-18
 -1      1386 1.00356E-04-2.99181E-05-3.02093E-05 2.38033E-06-3.89225E-19-3.47236E-18
 -1      1387 1.03988E-04-3.10306E-05-3.12733E-05 1.94900E-06-3.17836E-20-5.79654E-18
 -1      1388 1.06015E-04-3.16309E-05-3.18782E-05 2.08722E-06 1.07977E-19-5.99016E-18
 -1      1389 1.02494E-04-3.04795E-05-3.08936E-05 3.35112E-06 1.00152E-19-4.08185E-18
 -1      1390 1.07718E-04-3.20881E-05-3.24283E-05 2.71149E-06 2.11477E-19-6.04641E-18
 -1      1391 1.10421E-04-3.28976E-05-3.32314E-05 2.88299E-06-3.22931E-19-6.16145E-18
 -1      1392 1.05397E-04-3.12535E-05-3.18170E-05 4.67445E-06 1.59606E-19-4.29177E-18
 -1      1393 1.12665E-04-3.35084E-05-3.39552E-05 3.66454E-06-4.47379E-19-6.06566E-18
 -1      1394 1.16322E-04-3.46248E-05-3.50328E-05 3.88310E-06-1.71504E-19-6.48338E-18
 -1      1395 1.09175E-04-3.22814E-05-3.30081E-05 6.34533E-06-2.16119E-19-3.54768E-18
 -1      1396 1.19179E-04-3.54253E-05-3.59441E-05 4.74736E-06 1.32170E-19-6.41442E-18
 -1      1397 1.23882E-04-3.69114E-05-3.73050E-05 4.98703E-06-1.22859E-19-6.28546E-18
 -1      1398 1.14080E-04-3.36927E-05-3.45172E-05 8.31476E-06-2.07914E-19-3.53976E-18
 -1      1399 1.27328E-04-3.79413E-05-3.83637E-05 5.67037E-06 4.03056E-19-5.76247E-18
 -1      1400 1.32810E-04-3.97773E-05-3.98917E-05 5.83788E-06 4.19948E-19-5.16552E-18
 -1      1401 1.20208E-04-3.56408E-05-3.63077E-05 1.02068E-05 5.49705E-19-3.23543E-18
 -1      1402 1.36600E-04-4.10637E-05-4.09520E-05 5.72743E-06 8.53650E-20-4.79431E-18
 -1      1403 1.41780E-04-4.29866E-05-4.22850E-05 5.59414E-06 8.49812E-20-4.69839E-18
 -1      1404 1.27404E-04-3.83266E-05-3.82032E-05 1.10325E-05 8.71723E-19-3.27508E-18
 -1      1405 1.45290E-04-4.44693E-05-4.30656E-05 3.65823E-06 2.25959E-19-4.65169E-18
 -1      1406 1.47766E-04-4.56967E-05-4.35402E-05 2.83993E-06 2.99267E-19-4.44537E-18
 -1      1407 1.34987E-04-4.18489E-05-3.98398E-05 8.89032E-06 3.37225E-19-3.08002E-18
 -1      1408 1.49830E-04-4.69474E-05-4.37281E-05-1.82246E-06 1.77400E-19-5.33821E-18
 -1      1409 1.46253E-04-4.60880E-05-4.26614E-05-3.57363E-06-3.47628E-19-4.41834E-18
 -1      1410 1.41322E-04-4.56137E-05-4.07882E-05 1.37181E-06 8.94943E-20-3.04211E-18
 -1      1411 1.45390E-04-4.59435E-05-4.22484E-05-9.64567E-06-3.11377E-19-4.60108E-18
 -1      1412 1.34863E-04-4.20426E-05-3.98162E-05-1.13314E-05 4.01679E-21-4.62205E-18
 -1      1413 1.43506E-04-4.72829E-05-4.09822E-05-1.13985E-05-5.39759E-19-3.37593E-18
 -1      1414 1.31002E-04-3.98586E-05-3.92359E-05-1.43220E-05 2.10911E-19-4.77705E-18
 -1      1415 1.18159E-04-3.43536E-05-3.66499E-05-1.42983E-05-3.65865E-19-5.34478E-18
 -1      1416 1.39132E-04-4.36264E-05-4.09877E-05-2.27672E-05-3.54695E-20-4.23630E-18
 -1      1417 1.13279E-04-3.10180E-05-3.62856E-05-1.01400E-05-7.39142E-19-5.77126E-18
 -1      1418 1.05695E-04-2.75354E-05-3.49309E-05-7.52477E-06-7.06108E-19-6.64900E-18
 -1      1419 1.30264E-04-3.57792E-05-4.12182E-05-2.19187E-05-1.17208E-18-4.13098E-18
 -1      1420 1.04456E-04-2.67430E-05-3.48168E-05 3.24515E-06-1.23455E-19-6.62335E-18
 -1      1421 1.09380E-04-2.91154E-05-3.56580E-05 6.77607E-06 9.75147E-20-6.23522E-18
 -1      1422 1.23601E-04-2.95883E-05-4.14879E-05-3.83289E-06-6.56874E-19-4.79628E-18
 -1      1423 1.13916E-04-3.22154E-05-3.59321E-05 1.35230E-05 4.07952E-19-6.22357E-18
 -1      1424 1.27629E-04-3.83959E-05-3.85700E-05 1.39910E-05 6.98167E-19-5.43160E-18
 -1      1425 1.27540E-04-3.35069E-05-4.11886E-05 1.82619E-05 4.04458E-19-5.19540E-18
 -1      1426 1.32197E-04-4.09634E-05-3.91568E-05 1.17337E-05-1.69900E-19-5.21539E-18
 -1      1427 1.43534E-04-4.54438E-05-4.17274E-05 9.88934E-06 9.19494E-20-5.13408E-18
 -1      1428 1.37186E-04-4.24195E-05-4.07357E-05 2.29699E-05 4.73333E-19-4.97820E-18
 -1      1429 1.44524E-04-4.55314E-05-4.21405E-05 3.68330E-06-3.22958E-19-4.94392E-18
 -1      1430 1.48217E-04-4.65178E-05-4.32269E-05 1.88731E-06 4.06338E-19-4.97822E-18
 -1      1431 1.42238E-04-4.67856E-05-4.06312E-05 1.17634E-05-1.67845E-19-5.19522E-18
 -1      1432 1.45974E-04-4.51609E-05-4.29920E-05-3.04093E-06 3.89582E-19-4.40679E-18
 -1      1433 1.43165E-04-4.38186E-05-4.24391E-05-3.94004E-06-1.24977E-19-4.01409E-18
 -1      1434 1.39909E-04-4.52210E-05-4.03533E-05-1.62976E-06 8.70273E-19-4.08841E-18
 -1      1435 1.39441E-04-4.23008E-05-4.15801E-05-5.89136E-06-1.84044E-19-2.70722E-18
 -1      1436 1.33971E-04-4.02878E-05-4.01554E-05-6.03354E-06-2.98149E-19-2.60865E-18
 -1      1437 1.33079E-04-4.12597E-05-3.92646E-05-9.43719E-06 1.59666E-19-1.95217E-18
 -1      1438 1.29934E-04-3.89352E-05-3.90188E-05-6.18817E-06-4.94850E-19-2.54904E-18
 -1      1439 1.24119E-04-3.69941E-05-3.73886E-05-6.03608E-06-3.84109E-19-2.70151E-18
 -1      1440 1.25076E-04-3.76492E-05-3.74895E-05-1.16511E-05-5.60322E-19-2.15861E-19
 -1      1441 1.20393E-04-3.58858E-05-3.62470E-05-5.39825E-06-1.93845E-19-2.49303E-18
 -1      1442 1.15302E-04-3.42709E-05-3.47708E-05-5.17200E-06 1.49630E-19-2.96448E-18
 -1      1443 1.17390E-04-3.48226E-05-3.54456E-05-1.09346E-05-1.84693E-19-7.17755E-19
 -1      1444 1.12150E-04-3.33838E-05-3.37745E-05-4.32469E-06-5.14281E-19-3.42643E-18
 -1      1445 1.08079E-04-3.21240E-05-3.25785E-05-4.11036E-06-5.79814E-19-4.60550E-18
 -1      1446 1.10724E-04-3.26984E-05-3.35019E-05-9.12440E-06-1.24332E-18-1.24720E-18
 -1      1447 1.05567E-04-3.14247E-05-3.17817E-05-3.27786E-06 3.53193E-19-4.28135E-18
 -1      1448 1.02507E-04-3.04813E-05-3.08848E-05-3.08785E-06 6.07693E-19-3.03663E-18
 -1      1449 1.05280E-04-3.10845E-05-3.18531E-05-7.12704E-06 1.08308E-19-1.80113E-18
 -1      1450 1.00621E-04-2.99433E-05-3.02980E-05-2.29145E-06 6.12438E-19-4.15893E-18
 -1      1451 9.85357E-05-2.92909E-05-2.96925E-05-2.10297E-06-4.76277E-19-4.54289E-18
 -1      1452 1.01051E-04-2.98414E-05-3.05700E-05-5.20744E-06 2.22379E-19-3.41155E-18
 -1      1453 9.72370E-05-2.89029E-05-2.93066E-05-1.28542E-06-1.55760E-18-4.25006E-18
 -1      1454 9.61627E-05-2.85448E-05-2.89679E-05-1.04129E-06-6.62903E-19-5.15450E-18
 -1      1455 9.79630E-05-2.88806E-05-2.96586E-05-3.31480E-06-1.50212E-18-4.22347E-18
 -1      1456 9.55453E-05-2.83825E-05-2.87954E-05-4.04899E-07 9.04965E-19-5.53668E-18
 -1      1457 9.53543E-05-2.84366E-05-2.85827E-05-2.64362E-07 2.56911E-18-1.93764E-18
 -1      1458 9.53387E-05-2.82561E-05-2.87815E-05-4.03060E-07 7.05274E-18-1.93437E-18
 -1      1459 9.61307E-05-2.82639E-05-2.91219E-05-1.62971E-06-2.18360E-19-3.00969E-18
 -1      1460 9.65770E-05-2.83626E-05-2.97716E-05 2.99480E-06 8.52803E-19 1.17798E-17
 -1      1461 1.02540E-04-2.93997E-05-3.21566E-05 4.46506E-06 6.85885E-19 1.29211E-17
 -1      1462 1.02329E-04-2.67171E-05-3.27067E-05 1.27866E-05 1.25308E-18 9.23912E-18
 -1      1463 9.20195E-05-2.74192E-05-2.77594E-05 1.14808E-06 6.49820E-19 1.00419E-17
 -1      1464 9.39793E-05-2.75841E-05-2.86743E-05 1.48060E-06 6.34666E-19 1.10285E-17
 -1      1465 9.64905E-05-2.80368E-05-2.95336E-05 4.88121E-06 1.32320E-18 7.90853E-18
 -1      1466 9.01926E-05-2.69971E-05-2.70623E-05 3.26546E-07 3.98701E-19 8.89639E-18
 -1      1467 9.08181E-05-2.70260E-05-2.73335E-05 4.96141E-07 4.01202E-19 9.58259E-18
 -1      1468 9.30367E-05-2.75930E-05-2.81016E-05 1.84229E-06 9.05319E-19 6.90366E-18
 -1      1469 8.96767E-05-2.68794E-05-2.68877E-05-5.36767E-08 2.59301E-19 8.23955E-18
 -1      1470 8.97269E-05-2.68297E-05-2.69152E-05 3.90314E-08 2.22586E-19 8.57614E-18
 -1      1471 9.14931E-05-2.73438E-05-2.75170E-05 4.76445E-07 5.83626E-19 5.98132E-18
 -1      1472 8.98096E-05-2.69354E-05-2.69290E-05-2.41346E-07 3.17723E-19 7.65036E-18
 -1      1473 8.95871E-05-2.68336E-05-2.68642E-05-1.90379E-07 1.98346E-19 7.92137E-18
 -1      1474 9.09546E-05-2.72476E-05-2.73195E-05-1.69825E-07 4.16413E-19 5.41662E-18
 -1      1475 9.02623E-05-2.70798E-05-2.70666E-05-3.24499E-07 2.97909E-19 6.96367E-18
 -1      1476 8.99172E-05-2.69542E-05-2.69654E-05-2.97347E-07 2.64857E-19 7.27685E-18
 -1      1477 9.09725E-05-2.72817E-05-2.73074E-05-4.78324E-07 5.54942E-19 4.69512E-18
 -1      1478 9.08561E-05-2.72628E-05-2.72456E-05-3.49142E-07 2.73824E-19 6.25446E-18
 -1      1479 9.04685E-05-2.71320E-05-2.71323E-05-3.36574E-07 2.27997E-19 6.68153E-18
 -1      1480 9.12766E-05-2.73877E-05-2.73883E-05-6.10838E-07 4.69165E-19 4.21469E-18
 -1      1481 9.14892E-05-2.74554E-05-2.74361E-05-3.40346E-07 2.72607E-19 5.56448E-18
 -1      1482 9.11034E-05-2.73302E-05-2.73233E-05-3.36780E-07 3.93798E-19 6.15806E-18
 -1      1483 9.17171E-05-2.75278E-05-2.75140E-05-6.44043E-07 4.63990E-19 3.86253E-18
 -1      1484 9.21034E-05-2.76407E-05-2.76212E-05-3.13313E-07 1.56020E-19 5.20181E-18
 -1      1485 9.17438E-05-2.75269E-05-2.75158E-05-3.15141E-07 6.01234E-20 5.39265E-18
 -1      1486 9.22054E-05-2.76781E-05-2.76566E-05-6.20912E-07 2.69942E-19 3.65275E-18
 -1      1487 9.26675E-05-2.78098E-05-2.77915E-05-2.77773E-07 4.78253E-20 5.32317E-18
 -1      1488 9.23460E-05-2.77100E-05-2.76971E-05-2.82579E-07 8.71393E-20 5.20857E-18
 -1      1489 9.26898E-05-2.78245E-05-2.78001E-05-5.67793E-07 8.34497E-20 3.42422E-18
 -1      1490 9.31676E-05-2.79591E-05-2.79427E-05-2.40097E-07 2.14185E-19 4.64954E-18
 -1      1491 9.28882E-05-2.78736E-05-2.78605E-05-2.46227E-07 1.62169E-19 4.98958E-18
 -1      1492 9.31420E-05-2.79595E-05-2.79351E-05-5.01617E-07 3.05856E-19 3.14388E-18
 -1      1493 9.36013E-05-2.80880E-05-2.80742E-05-2.04498E-07 1.96646E-19 4.25429E-18
 -1      1494 9.33631E-05-2.80159E-05-2.80038E-05-2.10806E-07 1.15203E-19 4.51373E-18
 -1      1495 9.35489E-05-2.80798E-05-2.80575E-05-4.33514E-07 2.52409E-19 2.68748E-18
 -1      1496 9.39741E-05-2.81983E-05-2.81874E-05-1.73770E-07-4.50608E-20 4.22408E-18
 -1      1497 9.37723E-05-2.81378E-05-2.81276E-05-1.79448E-07 2.17406E-20 4.28925E-18
 -1      1498 9.39076E-05-2.81850E-05-2.81661E-05-3.70869E-07-5.05428E-21 2.88115E-18
 -1      1499 9.42963E-05-2.82933E-05-2.82853E-05-1.49788E-07 1.75015E-19 3.99122E-18
 -1      1500 9.41241E-05-2.82419E-05-2.82342E-05-1.54251E-07 1.96811E-20 4.09524E-18
 -1      1501 9.42224E-05-2.82765E-05-2.82618E-05-3.18616E-07 8.55962E-20 2.46323E-18
 -1      1502 9.45820E-05-2.83772E-05-2.83723E-05-1.33837E-07 1.89897E-20 3.72496E-18
 -1      1503 9.44308E-05-2.83321E-05-2.83272E-05-1.36639E-07 2.92994E-19 4.12006E-18
 -1      1504 9.45020E-05-2.83572E-05-2.83473E-05-2.80095E-07 2.43310E-19 2.96534E-18
 -1      1505 9.48474E-05-2.84550E-05-2.84532E-05-1.26817E-07-3.35560E-19 4.08682E-18
 -1      1506 9.47077E-05-2.84131E-05-2.84114E-05-1.27601E-07-2.37068E-19 3.68951E-18
 -1      1507 9.47585E-05-2.84307E-05-2.84262E-05-2.57608E-07-2.50202E-19 3.11984E-18
 -1      1508 9.51105E-05-2.85321E-05-2.85334E-05-1.29330E-07-1.13359E-19 4.51408E-18
 -1      1509 9.49721E-05-2.84901E-05-2.84919E-05-1.27804E-07-1.26749E-19 4.21636E-18
 -1      1510 9.50061E-05-2.85014E-05-2.85025E-05-2.52723E-07-1.86657E-19 3.20676E-18
 -1      1511 9.53903E-05-2.86142E-05-2.86186E-05-1.41639E-07 3.21631E-19 3.72878E-18
 -1      1512 9.52425E-05-2.85687E-05-2.85742E-05-1.37584E-07 2.36029E-19 4.14716E-18
 -1      1513 9.52603E-05-2.85741E-05-2.85809E-05-2.66341E-07 3.16524E-19 2.95904E-18
 -1      1514 9.57054E-05-2.87070E-05-2.87142E-05-1.63478E-07 6.63182E-19 2.28926E-18
 -1      1515 9.55376E-05-2.86547E-05-2.86639E-05-1.56793E-07 5.70524E-19 3.20165E-18
 -1      1516 9.55373E-05-2.86538E-05-2.86661E-05-2.98492E-07 8.16447E-19 1.97241E-18
 -1      1517 9.60732E-05-2.88161E-05-2.88255E-05-1.93687E-07 3.43604E-19 1.63803E-18
 -1      1518 9.58758E-05-2.87538E-05-2.87665E-05-1.84492E-07 1.59404E-19 2.04091E-18
 -1      1519 9.58525E-05-2.87453E-05-2.87626E-05-3.47830E-07 7.26603E-19 1.59132E-18
 -1      1520 9.65068E-05-2.89455E-05-2.89561E-05-2.29649E-07-9.31256E-20 1.18234E-18
 -1      1521 9.62724E-05-2.88710E-05-2.88863E-05-2.18442E-07 2.65556E-20 1.37543E-18
 -1      1522 9.62188E-05-2.88532E-05-2.88740E-05-4.10763E-07 3.74222E-19 5.80234E-19
 -1      1523 9.70115E-05-2.90974E-05-2.91074E-05-2.66509E-07 1.58255E-19 9.47760E-19
 -1      1524 9.67371E-05-2.90100E-05-2.90260E-05-2.54401E-07 7.58789E-20 1.53163E-18
 -1      1525 9.66441E-05-2.89805E-05-2.90021E-05-4.80207E-07-6.42355E-20 4.79020E-19
 -1      1526 9.75793E-05-2.92702E-05-2.92765E-05-2.96247E-07 2.12854E-19 1.07838E-18
 -1      1527 9.72699E-05-2.91715E-05-2.91852E-05-2.85262E-07 9.08122E-20 1.03417E-18
 -1      1528 9.71277E-05-2.91283E-05-2.91460E-05-5.43999E-07 2.09281E-19 1.01407E-18
 -1      1529 9.81822E-05-2.94561E-05-2.94545E-05-3.06765E-07-2.84950E-19 1.91939E-18
 -1      1530 9.78542E-05-2.93518E-05-2.93584E-05-3.00164E-07-4.60588E-19 9.45563E-19
 -1      1531 9.76549E-05-2.92935E-05-2.93003E-05-5.83187E-07-3.80369E-19 7.31355E-19
 -1      1532 9.87633E-05-2.96389E-05-2.96236E-05-2.81375E-07 5.33382E-19 1.72337E-18
 -1      1533 9.84499E-05-2.95403E-05-2.95329E-05-2.83920E-07 4.80165E-19 2.39215E-18
 -1      1534 9.81909E-05-2.94676E-05-2.94536E-05-5.70722E-07-5.93353E-20 6.51327E-19
 -1      1535 9.92294E-05-2.97913E-05-2.97554E-05-1.99401E-07 6.50356E-19 7.48170E-19
 -1      1536 9.89851E-05-2.97167E-05-2.96864E-05-2.17348E-07 3.63071E-19 1.52021E-18
 -1      1537 9.86744E-05-2.96334E-05-2.95864E-05-4.71537E-07 8.62920E-19 5.99002E-19
 -1      1538 9.94468E-05-2.98729E-05-2.98099E-05-3.89603E-08 2.02547E-19-3.89686E-19
 -1      1539 9.93496E-05-2.98485E-05-2.97854E-05-7.94502E-08 3.34062E-19 6.01992E-19
 -1      1540 9.90130E-05-2.97638E-05-2.96704E-05-2.45654E-07 6.26960E-19 6.55230E-19
 -1      1541 9.92462E-05-2.98309E-05-2.97373E-05 2.16809E-07-7.98428E-20 5.28720E-19
 -1      1542 9.93944E-05-2.98896E-05-2.97859E-05 1.47399E-07-3.66286E-19-4.90932E-21
 -1      1543 9.90825E-05-2.98193E-05-2.96693E-05 1.43576E-07-3.11879E-19 6.77398E-19
 -1      1544 9.84441E-05-2.96060E-05-2.94854E-05 5.69266E-07-5.56262E-20 7.97723E-19
 -1      1545 9.89432E-05-2.97829E-05-2.96368E-05 4.68387E-07-8.10753E-20 2.26277E-19
 -1      1546 9.87370E-05-2.97503E-05-2.95425E-05 7.14159E-07-9.10064E-20 5.47500E-19
 -1      1547 9.68872E-05-2.91453E-05-2.90134E-05 9.90689E-07-9.49454E-20 7.10846E-19
 -1      1548 9.78228E-05-2.94681E-05-2.92905E-05 8.63936E-07 1.85381E-19 9.51648E-19
 -1      1549 9.78339E-05-2.95029E-05-2.92537E-05 1.44330E-06-2.76288E-19 6.54637E-19
 -1      1550 9.45195E-05-2.84233E-05-2.83106E-05 1.41268E-06 1.68627E-19 6.79823E-19
 -1      1551 9.59177E-05-2.88989E-05-2.87183E-05 1.27795E-06-1.08048E-19 7.76676E-19
 -1      1552 9.62776E-05-2.90333E-05-2.87836E-05 2.24378E-06 1.34923E-19 3.86376E-19
 -1      1553 9.14589E-05-2.74693E-05-2.74176E-05 1.72635E-06 2.23349E-19-3.48739E-20
 -1      1554 9.32424E-05-2.80683E-05-2.79305E-05 1.61478E-06 6.95047E-20 3.19199E-19
 -1      1555 9.40785E-05-2.83304E-05-2.81449E-05 2.95219E-06 3.09653E-19 2.52561E-19
 -1      1556 8.80500E-05-2.63876E-05-2.64370E-05 1.80519E-06-4.73772E-19 1.44260E-20
 -1      1557 9.00101E-05-2.70355E-05-2.69938E-05 1.75516E-06 1.44017E-19 1.27743E-19
 -1      1558 9.14101E-05-2.74409E-05-2.73946E-05 3.34819E-06-3.33265E-20 9.97454E-19
 -1      1559 8.48461E-05-2.53574E-05-2.55258E-05 1.55366E-06-2.63007E-19 1.22583E-18
 -1      1560 8.66583E-05-2.59407E-05-2.60347E-05 1.59641E-06-3.86462E-19 1.64113E-19
 -1      1561 8.86313E-05-2.64852E-05-2.66345E-05 3.21876E-06-3.73902E-19 1.51466E-18
 -1      1562 8.24900E-05-2.45945E-05-2.48593E-05 9.65113E-07 6.35741E-19 2.42397E-19
 -1      1563 8.37874E-05-2.49887E-05-2.52198E-05 1.10683E-06 1.80812E-19 8.37319E-19
 -1      1564 8.62393E-05-2.56458E-05-2.59943E-05 2.45747E-06 3.51545E-19 8.13833E-19
 -1      1565 8.15101E-05-2.42808E-05-2.45786E-05 1.52754E-07 7.90288E-20-4.00029E-19
 -1      1566 8.20015E-05-2.43928E-05-2.47128E-05 3.64451E-07 3.27352E-19 3.97047E-20
 -1      1567 8.47388E-05-2.51171E-05-2.55982E-05 1.15205E-06 5.06976E-19 4.55379E-19
 -1      1568 8.21174E-05-2.44895E-05-2.47395E-05-6.78960E-07-1.25156E-19 2.13346E-19
 -1      1569 8.16989E-05-2.42953E-05-2.46210E-05-4.53242E-07-3.02417E-19 1.20659E-19
 -1      1570 8.44660E-05-2.50320E-05-2.55258E-05-4.05968E-07-7.40373E-19 4.17602E-19
 -1      1571 8.41169E-05-2.51518E-05-2.52913E-05-1.31644E-06 5.42677E-19-7.71554E-19
 -1      1572 8.29155E-05-2.47083E-05-2.49554E-05-1.13597E-06 4.63681E-19 3.39581E-19
 -1      1573 8.54543E-05-2.54030E-05-2.57835E-05-1.82088E-06 2.89950E-19-3.47535E-19
 -1      1574 8.69843E-05-2.60865E-05-2.60953E-05-1.62425E-06-1.68283E-19-5.49221E-19
 -1      1575 8.53084E-05-2.55078E-05-2.56258E-05-1.52702E-06 2.74368E-19-4.87653E-19
 -1      1576 8.74186E-05-2.61159E-05-2.63020E-05-2.75339E-06 5.23228E-19 6.66046E-20
 -1      1577 9.00654E-05-2.70729E-05-2.69739E-05-1.58683E-06-2.13433E-19 7.32234E-19
 -1      1578 8.82901E-05-2.64875E-05-2.64735E-05-1.57855E-06-5.88735E-19-6.04543E-19
 -1      1579 8.98685E-05-2.69801E-05-2.69606E-05-3.04800E-06-6.94914E-19 9.47704E-19
 -1      1580 9.27879E-05-2.79250E-05-2.77658E-05-1.28911E-06 6.89973E-19 5.57930E-19
 -1      1581 9.12356E-05-2.74355E-05-2.73243E-05-1.34904E-06 2.14319E-19 8.83879E-19
 -1      1582 9.22844E-05-2.78022E-05-2.76264E-05-2.76002E-06 4.35014E-20 4.17799E-19
 -1      1583 9.47941E-05-2.85344E-05-2.83643E-05-8.61459E-07-2.83051E-19-6.58595E-19
 -1      1584 9.36619E-05-2.81961E-05-2.80383E-05-9.57222E-07 4.32900E-19-1.32746E-20
 -1      1585 9.42672E-05-2.84451E-05-2.81904E-05-2.08820E-06 4.99478E-19-4.64763E-19
 -1      1586 9.59703E-05-2.88736E-05-2.87293E-05-4.27169E-07 7.11605E-19-1.40085E-18
 -1      1587 9.53156E-05-2.86951E-05-2.85371E-05-5.28093E-07 5.70518E-19-9.52230E-19
 -1      1588 9.56090E-05-2.88489E-05-2.85894E-05-1.27284E-06 4.01202E-19-1.09742E-18
 -1      1589 9.63998E-05-2.89769E-05-2.88786E-05-7.41087E-08 8.01626E-19-2.45375E-18
 -1      1590 9.61681E-05-2.89322E-05-2.88063E-05-1.57930E-07 1.00905E-18-1.30190E-18
 -1      1591 9.62879E-05-2.90204E-05-2.88094E-05-5.17264E-07 1.19497E-18-1.58948E-18
 -1      1592 9.62900E-05-2.89140E-05-2.88688E-05 1.50061E-07-3.60115E-19-2.31446E-18
 -1      1593 9.63574E-05-2.89580E-05-2.88820E-05 9.63144E-08 4.44213E-20-2.23903E-18
 -1      1594 9.64171E-05-2.90090E-05-2.88757E-05 4.58496E-08 4.41443E-19-8.11219E-19
 -1      1595 9.59023E-05-2.87687E-05-2.87744E-05 2.30932E-07-3.41412E-19-1.15374E-18
 -1      1596 9.61154E-05-2.88496E-05-2.88298E-05 2.12687E-07-3.64770E-19-1.77062E-18
 -1      1597 9.61854E-05-2.88841E-05-2.88380E-05 3.53997E-07-8.44078E-19-6.57719E-19
 -1      1598 9.54961E-05-2.86253E-05-2.86672E-05 1.77132E-07 6.50817E-20-1.96936E-18
 -1      1599 9.57019E-05-2.86911E-05-2.87240E-05 1.95269E-07 4.99006E-19-1.43010E-18
 -1      1600 9.58024E-05-2.87182E-05-2.87529E-05 4.00967E-07 4.40896E-19-6.80770E-19
 -1      1601 9.52685E-05-2.85549E-05-2.85898E-05 4.33295E-08 7.66139E-19-2.13311E-18
 -1      1602 9.53525E-05-2.85682E-05-2.86254E-05 8.22659E-08 4.43278E-19-2.10065E-18
 -1      1603 9.54520E-05-2.85775E-05-2.86648E-05 2.36280E-07 8.47789E-19-1.26165E-18
 -1      1604 9.52254E-05-2.85663E-05-2.85607E-05-1.50218E-08-1.05138E-18-1.20802E-18
 -1      1605 9.52226E-05-2.83628E-05-2.86567E-05 1.46001E-07-2.50470E-19 4.96318E-19
 -1      1606 9.52479E-05-2.84725E-05-2.86140E-05 1.11462E-07-1.09164E-18 8.37645E-19
 -1      1607 9.50809E-05-2.78520E-05-2.88137E-05 3.54052E-07 2.22739E-18 1.06144E-18
 -1      1608 9.51703E-05-2.81571E-05-2.87223E-05 3.11576E-07 5.43024E-19 1.10060E-18
 -1      1609 9.52297E-05-2.81803E-05-2.87414E-05 4.69017E-07 3.93298E-19 1.47114E-18
 -1      1610 9.48271E-05-2.69752E-05-2.90804E-05 5.99239E-07 1.37107E-18 4.01560E-19
 -1      1611 9.49852E-05-2.75054E-05-2.89231E-05 5.47807E-07 1.76838E-18 7.18084E-19
 -1      1612 9.50707E-05-2.76429E-05-2.89131E-05 8.89680E-07 8.35713E-19 1.14309E-18
 -1      1613 9.44372E-05-2.56723E-05-2.94728E-05 8.73688E-07 1.46871E-18 8.59011E-20
 -1      1614 9.46773E-05-2.64538E-05-2.92430E-05 8.17814E-07 1.16883E-18 1.09961E-18
 -1      1615 9.48315E-05-2.67982E-05-2.91745E-05 1.38574E-06 1.92353E-19 3.54199E-21
 -1      1616 9.39149E-05-2.39801E-05-2.99754E-05 1.12811E-06-3.97159E-19 1.19850E-20
 -1      1617 9.42315E-05-2.49820E-05-2.96840E-05 1.07956E-06 1.81497E-19-1.38144E-18
 -1      1618 9.44693E-05-2.56085E-05-2.95291E-05 1.89939E-06-1.63060E-19-1.71855E-18
 -1      1619 9.32676E-05-2.19439E-05-3.05710E-05 1.30191E-06-1.73754E-18-5.53521E-19
 -1      1620 9.36511E-05-2.31271E-05-3.02305E-05 1.27379E-06-1.05262E-18-4.61873E-19
 -1      1621 9.39772E-05-2.40851E-05-2.99669E-05 2.32877E-06-1.30135E-18-7.19088E-19
 -1      1622 9.25734E-05-1.98198E-05-3.11823E-05 1.30741E-06-3.96202E-18-1.81502E-18
 -1      1623 9.29719E-05-2.10203E-05-3.08408E-05 1.31899E-06-1.67025E-18-2.61900E-18
 -1      1624 9.33719E-05-2.23153E-05-3.04563E-05 2.53404E-06-1.86466E-18-1.68480E-18
 -1      1625 9.19452E-05-1.79555E-05-3.17090E-05 1.07438E-06-2.45175E-18 5.74550E-19
 -1      1626 9.22871E-05-1.89589E-05-3.14272E-05 1.13848E-06-3.98593E-18 1.42505E-18
 -1      1627 9.27262E-05-2.05226E-05-3.09332E-05 2.35997E-06-9.77516E-19-1.21962E-18
 -1      1628 9.15226E-05-1.67593E-05-3.20366E-05 5.78599E-07-1.63149E-18 1.50980E-18
 -1      1629 9.17248E-05-1.73255E-05-3.18812E-05 6.96349E-07-3.82328E-18 2.09496E-18
 -1      1630 9.21503E-05-1.90089E-05-3.13178E-05 1.70633E-06-7.86748E-19 7.87847E-19
 -1      1631 9.14369E-05-1.65962E-05-3.20664E-05-1.30964E-07-3.22718E-18-1.49838E-18
 -1      1632 9.14281E-05-1.65247E-05-3.20918E-05 2.49202E-08-1.65650E-18-1.05995E-18
 -1      1633 9.17781E-05-1.81124E-05-3.15274E-05 5.82422E-07-1.67097E-18 8.85259E-19
 -1      1634 9.17589E-05-1.76328E-05-3.17590E-05-9.09474E-07-4.91937E-18 5.23056E-19
 -1      1635 9.15078E-05-1.68582E-05-3.19802E-05-7.52256E-07-3.04592E-18-1.88135E-18
 -1      1636 9.17337E-05-1.81117E-05-3.15010E-05-8.41647E-07-2.45445E-18-2.43694E-18
 -1      1637 9.24853E-05-1.98194E-05-3.11370E-05-1.58874E-06-1.93039E-18 2.68328E-18
 -1      1638 9.20071E-05-1.84026E-05-3.15332E-05-1.46540E-06-3.70474E-18 2.04801E-18
 -1      1639 9.20782E-05-1.91201E-05-3.12216E-05-2.27321E-06-6.57853E-19 1.65852E-18
 -1      1640 9.34833E-05-2.27273E-05-3.03294E-05-1.93302E-06 6.62644E-19 1.35010E-18
 -1      1641 9.28762E-05-2.09733E-05-3.08122E-05-1.89634E-06-1.33148E-18 3.41061E-18
 -1      1642 9.28062E-05-2.10482E-05-3.07262E-05-3.33509E-06 7.26576E-19 3.74777E-18
 -1      1643 9.45328E-05-2.56480E-05-2.95382E-05-1.72661E-06 4.78552E-18 3.13028E-18
 -1      1644 9.39505E-05-2.40310E-05-2.99798E-05-1.84593E-06 1.49429E-18 1.79833E-18
 -1      1645 9.38031E-05-2.35370E-05-3.01178E-05-3.63019E-06 1.30850E-18 2.35303E-18
 -1      1646 9.51782E-05-2.75742E-05-2.89795E-05-1.03733E-06 6.43375E-18 7.57118E-20
 -1      1647 9.48025E-05-2.65406E-05-2.92917E-05-1.27270E-06 5.24959E-18 2.25815E-18
 -1      1648 9.46269E-05-2.57163E-05-2.95691E-05-2.93421E-06 1.24777E-18 3.18068E-18
 -1      1649 9.53491E-05-2.73916E-05-2.91429E-05-1.65836E-06 1.57720E-18-4.99065E-19
 -1      1650 2.05588E-05-6.43959E-05 1.35437E-05-1.73317E-06 6.72883E-18 3.13169E-18
 -1      1651 2.45714E-05-7.84106E-05 1.68512E-05 5.86533E-06 4.52104E-18 1.44080E-18
 -1      1652 2.14123E-05-3.49424E-05 2.10171E-06 7.97476E-06 1.18280E-17 8.02818E-18
 -1      1653 2.56912E-05-6.00118E-05 8.98392E-06 2.45771E-06 8.81168E-18 5.71123E-18
 -1      1654 4.11574E-05-6.97005E-06-1.58643E-05 3.71866E-05 1.29240E-17 8.97008E-18
 -1      1655 3.21126E-05-2.79687E-05-5.91396E-06 1.59848E-05 1.29113E-17 7.59916E-18
 -1      1656 8.68958E-05-1.44502E-06-3.51900E-05 6.75581E-05 9.50032E-18 9.70446E-18
 -1      1657 5.99160E-05-4.31493E-06-2.54044E-05 4.57524E-05 1.24937E-17 1.00577E-17
 -1      1658 1.53910E-04-1.84173E-05-5.40811E-05 8.19804E-05 6.83640E-18 9.65448E-18
 -1      1659 1.10176E-04-3.88399E-06-4.45279E-05 7.14014E-05 7.92823E-18 1.06946E-17
 -1      1660 2.20834E-04-4.64219E-05-6.89499E-05 6.69794E-05 3.77454E-18 7.35055E-18
 -1      1661 1.78379E-04-2.47396E-05-6.21302E-05 7.95899E-05 5.43223E-18 9.24113E-18
 -1      1662 2.56881E-04-6.40233E-05-7.64615E-05 2.23576E-05 2.70161E-18 2.83163E-18
 -1      1663 2.35809E-04-5.18644E-05-7.34164E-05 5.24922E-05 3.48353E-18 6.02198E-18
 -1      1664 2.50356E-04-5.93678E-05-7.61180E-05-3.13694E-05 2.55042E-18-2.48011E-18
 -1      1665 2.58640E-04-6.41553E-05-7.72679E-05 4.87589E-06 2.50468E-18 1.05400E-18
 -1      1666 2.07106E-04-3.77152E-05-6.81985E-05-6.95404E-05 2.56603E-18-5.23297E-18
 -1      1667 2.41091E-04-5.62885E-05-7.32491E-05-4.74986E-05 1.68157E-18-4.46344E-18
 -1      1668 1.41003E-04-1.21465E-05-5.30892E-05-7.63727E-05 4.08651E-18-5.86655E-18
 -1      1669 1.86041E-04-3.16752E-05-6.15628E-05-7.63290E-05 2.87547E-18-5.74204E-18
 -1      1670 7.88968E-05 1.54744E-06-3.48556E-05-6.08336E-05 5.17114E-18-5.38374E-18
 -1      1671 1.14697E-04-4.90708E-06-4.45127E-05-7.89606E-05 5.02206E-18-5.41000E-18
 -1      1672 3.94259E-05-1.16505E-05-1.50005E-05-2.88361E-05 5.22619E-18-3.22381E-18
 -1      1673 5.75233E-05 1.46058E-06-2.52440E-05-5.31166E-05 4.88314E-18-4.93990E-18
 -1      1674 2.57886E-05-4.40317E-05 2.61000E-06-5.67925E-06 7.37427E-18-2.00895E-18
 -1      1675 2.55308E-05-1.79036E-05-5.91828E-06-1.93228E-05 5.98768E-18-2.44030E-18
 -1      1676 2.53675E-05-7.25453E-05 1.40027E-05-3.24065E-06 5.93897E-18-1.92276E-18
 -1      1677 1.98869E-05-5.14038E-05 8.82158E-06-1.33580E-06 7.60381E-18-2.41844E-18
 -1      1678 2.45084E-05-8.31450E-05 1.82141E-05-9.21120E-06 2.55590E-18-6.53486E-19
 -1      1679 2.35603E-05-7.91420E-05 1.73200E-05 2.01886E-06 4.77981E-18-1.48527E-18
 -1      1680 1.92532E-05-6.36312E-05 1.30640E-05-1.13027E-05-2.54110E-20 5.84453E-20
 -1      1681 2.51046E-05-8.02181E-05 1.66733E-05-5.66380E-06 1.02195E-18-7.07273E-20
 -1      1682 2.81174E-05-3.30970E-05-1.63136E-06 1.02563E-05-1.49840E-18-2.30859E-18
 -1      1683 2.84275E-05-5.78114E-05 6.66887E-06-1.03833E-06-4.70950E-19-3.22296E-19
 -1      1684 6.10002E-05-1.51827E-05-2.10225E-05 3.97732E-05-3.10861E-18-3.48131E-18
 -1      1685 4.46498E-05-3.01871E-05-1.05765E-05 1.73552E-05-1.90752E-18-2.97986E-18
 -1      1686 1.20752E-04-1.60882E-05-4.29294E-05 6.88429E-05-2.55973E-18-2.91210E-18
 -1      1687 8.14494E-05-1.27326E-05-3.13918E-05 4.64148E-05-3.54314E-18-2.90193E-18
 -1      1688 2.01680E-04-4.03299E-05-6.33503E-05 7.54883E-05-1.77962E-18-2.32426E-18
 -1      1689 1.48674E-04-2.00450E-05-5.32899E-05 7.14000E-05-3.05440E-18-3.09845E-18
 -1      1690 2.72009E-04-6.92732E-05-7.81207E-05 4.21612E-05-1.82049E-18 1.68475E-18
 -1      1691 2.27795E-04-4.70234E-05-7.14153E-05 6.73267E-05-2.07925E-18-1.42217E-18
 -1      1692 2.84415E-04-7.27683E-05-8.18727E-05-1.22593E-05-1.24641E-18 3.83759E-18
 -1      1693 2.78501E-04-6.96991E-05-8.09923E-05 2.54888E-05-1.21465E-18 1.77708E-18
 -1      1694 2.51382E-04-5.68012E-05-7.60811E-05-5.89752E-05-3.92208E-18 7.77661E-18
 -1      1695 2.83387E-04-7.36962E-05-8.07121E-05-2.81663E-05-2.98177E-18 5.03985E-18
 -1      1696 1.78596E-04-2.83704E-05-6.08953E-05-7.52030E-05-4.15046E-18 9.28518E-18
 -1      1697 2.30173E-04-5.11437E-05-6.96940E-05-6.95922E-05-3.40634E-18 1.02237E-17
 -1      1698 1.02543E-04-1.03124E-05-4.01510E-05-5.98474E-05-7.22011E-18 7.64532E-18
 -1      1699 1.49447E-04-2.17146E-05-5.13627E-05-7.75414E-05-4.98479E-18 8.21961E-18
 -1      1700 5.02626E-05-1.68558E-05-1.82795E-05-2.77168E-05-6.94821E-18 6.75255E-18
 -1      1701 7.54086E-05-7.79594E-06-2.94143E-05-5.35608E-05-7.28025E-18 7.68005E-18
 -1      1702 2.87206E-05-4.29374E-05 1.57549E-07-1.76692E-06-3.79810E-18 4.65953E-18
 -1      1703 3.26147E-05-2.03233E-05-8.68152E-06-1.84664E-05-6.26042E-18 6.29684E-18
 -1      1704 2.55245E-05-7.12503E-05 1.29103E-05 6.22097E-06 3.07769E-18 1.44218E-18
 -1      1705 2.02567E-05-4.91439E-05 7.09389E-06 4.80152E-06-3.54060E-19 3.87454E-18
 -1      1706 2.42844E-05-8.07121E-05 1.78010E-05 8.25509E-07 5.08837E-18 5.55442E-19
 -1      1707 2.15439E-05-7.38937E-05 1.62601E-05 1.04867E-05 3.56643E-18-3.10014E-19
 -1      1708 8.17311E-05-3.36477E-05-2.12103E-05 4.48452E-05 8.29415E-18 5.14149E-18
 -1      1709 1.15493E-05-5.08860E-05 1.25575E-05 6.36286E-06 3.42582E-18 1.58649E-18
 -1      1710 9.52697E-05-2.85524E-05-2.85924E-05 3.24184E-08-1.22073E-18 2.82606E-20
 -1      1711 9.52964E-05-2.84455E-05-2.86519E-05 1.88452E-07 6.20237E-19 5.00617E-19
 -1      1712 2.18474E-05-4.81385E-05 7.44445E-06 2.10127E-05 4.25465E-18 5.62769E-18
 -1      1713 4.56223E-05-4.12611E-05-4.52180E-06 3.38069E-05 7.11084E-18 6.32765E-18
 -1      1714 1.24657E-04-3.01464E-05-3.91270E-05 4.92164E-05 6.95922E-18 7.60212E-18
 -1      1715 1.67979E-04-3.02861E-05-5.56320E-05 4.57565E-05 5.71493E-18 7.01343E-18
 -1      1716 2.02282E-04-3.29418E-05-6.76041E-05 3.04480E-05 4.71628E-18 3.80530E-18
 -1      1717 2.14394E-04-3.27079E-05-7.25710E-05 6.05130E-06 4.46090E-18 1.72763E-18
 -1      1718 2.09120E-04-3.24927E-05-7.06343E-05-1.80926E-05 3.31444E-18-1.15281E-18
 -1      1719 1.83988E-04-3.11173E-05-6.15702E-05-3.68388E-05 2.87187E-18-4.11065E-18
 -1      1720 1.44512E-04-2.84806E-05-4.72818E-05-4.90058E-05 3.56093E-18-3.72525E-18
 -1      1721 9.83473E-05-2.77519E-05-2.98770E-05-4.95134E-05 2.38694E-18-3.23228E-18
 -1      1722 5.83904E-05-3.46543E-05-1.20332E-05-3.88962E-05 3.95734E-18-1.51492E-18
 -1      1723 3.03782E-05-4.45393E-05 2.61054E-06-2.64437E-05 4.71967E-18-1.45383E-18
 -1      1724 1.49522E-05-5.21135E-05 1.15133E-05-1.40562E-05 3.69984E-18-2.66350E-18
 -1      1725 1.30180E-05-5.54001E-05 1.32029E-05 2.43738E-07 1.95072E-18-1.60809E-18
 -1      1726 2.82210E-05-4.99858E-05 5.52808E-06 1.81705E-05 8.44492E-19-7.23154E-19
 -1      1727 6.34888E-05-4.87410E-05-8.85146E-06 3.20047E-05-2.57498E-19-2.50997E-18
 -1      1728 1.06716E-04-4.61944E-05-2.69623E-05 3.73524E-05-1.30951E-18-1.65637E-18
 -1      1729 1.56079E-04-4.31997E-05-4.66410E-05 3.86115E-05-1.41158E-18-9.82558E-19
 -1      1730 2.04870E-04-4.34617E-05-6.41856E-05 3.02671E-05-2.22251E-18-3.97258E-19
 -1      1731 2.31470E-04-4.15102E-05-7.45638E-05 1.17095E-05-2.63512E-18 1.00035E-18
 -1      1732 2.34835E-04-4.05070E-05-7.61066E-05-7.75861E-06-3.16621E-18 1.36626E-18
 -1      1733 2.18287E-04-4.33379E-05-6.89950E-05-2.61148E-05-3.43175E-18 4.14877E-18
 -1      1734 1.74981E-04-4.18621E-05-5.39098E-05-3.90581E-05-3.63631E-18 7.16675E-18
 -1      1735 1.21482E-04-4.03795E-05-3.46475E-05-4.19550E-05-4.69934E-18 4.94498E-18
 -1      1736 7.27382E-05-4.27090E-05-1.52803E-05-3.41416E-05-2.41743E-18 5.38713E-18
 -1      1737 3.82995E-05-4.88109E-05 5.13847E-07-2.16875E-05 4.35375E-19 5.83802E-18
 -1      1738 1.78392E-05-5.24488E-05 1.02766E-05-9.04331E-06 3.66215E-18 1.58565E-18
 -1      1739 1.06051E-04-2.31701E-05-3.56040E-05-1.68541E-05-1.45960E-18 3.33032E-18
 -1      1740 8.91413E-05-1.05807E-05-3.37946E-05-1.33238E-05-1.28087E-18-2.76959E-18
 -1      1741 9.04848E-05-1.16348E-05-3.39353E-05-1.51376E-05-1.63666E-18-2.35703E-18
 -1      1742 9.24898E-05-1.38743E-05-3.38541E-05-1.60038E-05-1.75059E-18-1.75487E-18
 -1      1743 9.42060E-05-1.58203E-05-3.40980E-05-1.76652E-05-2.05916E-18-1.01713E-18
 -1      1744 9.34139E-05-1.63445E-05-3.30455E-05-1.37816E-05-1.82337E-18-1.87845E-18
 -1      1745 8.62084E-05-7.67039E-06-3.37306E-05-7.86782E-06-2.64423E-19-3.23499E-18
 -1      1746 8.66109E-05-7.97095E-06-3.37648E-05-9.25615E-06-4.91759E-19-3.24991E-18
 -1      1747 8.55962E-05-7.03735E-06-3.37275E-05-5.32311E-06 2.14345E-19-3.17641E-18
 -1      1748 8.58295E-05-7.21484E-06-3.37427E-05-6.62780E-06 7.21632E-21-3.24160E-18
 -1      1749 8.75946E-05-9.86889E-06-3.33436E-05-6.93582E-06-1.77412E-19-3.09479E-18
 -1      1750 8.52622E-05-6.67895E-06-3.37309E-05-2.89008E-06 6.38866E-19-2.93946E-18
 -1      1751 8.53826E-05-6.77337E-06-3.37368E-05-4.13019E-06 4.70816E-19-3.10857E-18
 -1      1752 8.69612E-05-9.15747E-06-3.33770E-05-4.53987E-06 3.71536E-19-3.03187E-18
 -1      1753 8.51317E-05-6.53084E-06-3.37345E-05-5.17881E-07 1.05409E-18-2.69319E-18
 -1      1754 8.51672E-05-6.55930E-06-3.37359E-05-1.72789E-06 8.12934E-19-2.82278E-18
 -1      1755 8.66295E-05-8.77810E-06-3.33973E-05-2.21830E-06 7.70114E-19-2.76788E-18
 -1      1756 8.51772E-05-6.56842E-06-3.37361E-05 1.84557E-06 1.39055E-18-2.43330E-18
 -1      1757 8.51355E-05-6.53545E-06-3.37344E-05 6.34537E-07 1.22249E-18-2.60996E-18
 -1      1758 8.65316E-05-8.66455E-06-3.34039E-05 6.51823E-08 1.20218E-18-2.55482E-18
 -1      1759 8.54079E-05-6.79869E-06-3.37368E-05 4.25245E-06 1.72658E-18-2.03518E-18
 -1      1760 8.52802E-05-6.69804E-06-3.37309E-05 3.00917E-06 1.54869E-18-2.25814E-18
 -1      1761 8.66473E-05-8.79778E-06-3.33966E-05 2.34994E-06 1.55619E-18-2.21824E-18
 -1      1762 8.58639E-05-7.25160E-06-3.37419E-05 6.71461E-06 2.01142E-18-1.57804E-18
 -1      1763 8.56264E-05-7.06961E-06-3.37272E-05 5.42699E-06 1.84615E-18-1.87350E-18
 -1      1764 8.69950E-05-9.19479E-06-3.33755E-05 4.65428E-06 1.92181E-18-1.83926E-18
 -1      1765 8.66756E-05-8.04059E-06-3.37623E-05 9.37729E-06 2.37662E-18-7.48407E-19
 -1      1766 8.62558E-05-7.72472E-06-3.37287E-05 7.95623E-06 2.15143E-18-1.21960E-18
 -1      1767 8.76464E-05-9.92744E-06-3.33408E-05 7.03053E-06 2.20573E-18-1.24972E-18
 -1      1768 8.80830E-05-9.38500E-06-3.38173E-05 1.22565E-05 2.63818E-18 3.12185E-19
 -1      1769 8.73465E-05-8.82885E-06-3.37456E-05 1.06635E-05 2.47959E-18-3.01160E-19
 -1      1770 8.87655E-05-1.11618E-05-3.32900E-05 9.50667E-06 2.53281E-18-4.20645E-19
 -1      1771 9.06448E-05-1.18473E-05-3.39271E-05 1.53291E-05 2.67464E-18 1.81869E-18
 -1      1772 8.92729E-05-1.07482E-05-3.37877E-05 1.35034E-05 2.64022E-18 8.72232E-19
 -1      1773 9.06580E-05-1.32256E-05-3.32075E-05 1.19603E-05 2.75905E-18 6.56371E-19
 -1      1774 9.58871E-05-1.70825E-05-3.39932E-05 1.76770E-05 2.28890E-18 4.53655E-18
 -1      1775 9.28439E-05-1.43262E-05-3.38261E-05 1.61791E-05 2.48106E-18 2.96475E-18
 -1      1776 9.38846E-05-1.68596E-05-3.30131E-05 1.38596E-05 2.62674E-18 2.33768E-18
 -1      1777 1.01918E-04-2.50963E-05-3.33599E-05 1.44165E-05 1.67363E-18 7.46765E-18
 -1      1778 9.80670E-05-1.95786E-05-3.36262E-05 1.69729E-05 1.99914E-18 5.53880E-18
 -1      1779 9.74085E-05-2.18777E-05-3.24188E-05 1.32826E-05 2.38473E-18 4.45370E-18
 -1      1780 9.87794E-05-2.61468E-05-3.13427E-05 9.43188E-06 1.75646E-18 6.95245E-18
 -1      1781 1.00154E-04-1.95626E-05-3.42180E-05-1.88702E-05-1.92288E-18 5.44113E-19
 -1      1782 9.53838E-05-2.73076E-05-2.91930E-05 4.10347E-06 1.43779E-18 6.00982E-18
 -1      1783 9.77264E-05-2.73917E-05-3.01941E-05 6.39647E-06 1.56230E-18 6.50797E-18
 -1      1784 9.75802E-05-2.56132E-05-3.08238E-05 8.72185E-06 1.86212E-18 5.05183E-18
 -1      1785 9.98133E-05-2.25396E-05-3.28363E-05-1.44684E-05-1.97282E-18-2.93815E-20
 -1      1786 9.69606E-05-2.69800E-05-2.98766E-05-5.70576E-06-1.67358E-18-9.70010E-20
 -1      1787 9.51511E-05-2.70348E-05-2.91659E-05-3.89953E-06-1.42033E-18-4.33297E-19
 -1      1788 9.43310E-05-2.72350E-05-2.86584E-05-2.42390E-06-1.28171E-18-3.46324E-19
 -1      1789 9.35586E-05-2.73150E-05-2.83533E-05-1.57047E-06-1.01660E-18-6.93846E-19
 -1      1790 9.55053E-05-2.65445E-05-2.95749E-05-4.47678E-06-1.54134E-18-7.83319E-19
 -1      1791 9.30337E-05-2.73659E-05-2.80843E-05-7.43541E-07-7.27992E-19-6.28359E-19
 -1      1792 9.27318E-05-2.74294E-05-2.79621E-05-3.05504E-07-6.04143E-19-9.51415E-19
 -1      1793 9.42941E-05-2.72199E-05-2.87663E-05-1.83178E-06-1.08734E-18-8.10720E-19
 -1      1794 9.24556E-05-2.74568E-05-2.78259E-05 1.49286E-07-6.64267E-19-1.01259E-18
 -1      1795 9.24234E-05-2.75327E-05-2.77958E-05 3.72958E-07-7.50096E-19-1.10400E-18
 -1      1796 9.35926E-05-2.75270E-05-2.83302E-05-3.66192E-07-7.96261E-19-8.41201E-19
 -1      1797 9.23193E-05-2.75632E-05-2.77374E-05 6.11923E-07-8.61649E-19-9.86211E-19
 -1      1798 9.24336E-05-2.76493E-05-2.77563E-05 7.16151E-07-6.68712E-19-1.25080E-18
 -1      1799 9.32707E-05-2.77118E-05-2.81090E-05 4.35118E-07-7.73401E-19-7.82095E-19
 -1      1800 9.24416E-05-2.76888E-05-2.77445E-05 8.29686E-07-5.56751E-19-1.37164E-18
 -1      1801 9.26380E-05-2.77798E-05-2.77915E-05 8.63763E-07-4.69160E-19-1.44269E-18
 -1      1802 9.32062E-05-2.78547E-05-2.80157E-05 8.50249E-07-7.59934E-19-9.41847E-19
 -1      1803 9.27072E-05-2.78193E-05-2.78071E-05 8.93580E-07-5.23544E-19-1.49175E-18
 -1      1804 9.29231E-05-2.79016E-05-2.78635E-05 8.84821E-07-6.02343E-19-1.62086E-18
 -1      1805 9.33068E-05-2.79824E-05-2.80012E-05 1.02494E-06-6.10622E-19-1.13163E-18
 -1      1806 9.30254E-05-2.79427E-05-2.78932E-05 8.71180E-07-5.15446E-19-1.35979E-18
 -1      1807 9.32428E-05-2.80168E-05-2.79524E-05 8.40476E-07-1.03138E-19-1.34302E-18
 -1      1808 9.34911E-05-2.80894E-05-2.80321E-05 1.05385E-06-4.81026E-19-9.51731E-19
 -1      1809 9.33578E-05-2.80555E-05-2.79886E-05 8.03134E-07-8.15170E-20-1.35687E-18
 -1      1810 9.35627E-05-2.81205E-05-2.80459E-05 7.62498E-07 2.02390E-19-1.53064E-18
 -1      1811 9.37151E-05-2.81830E-05-2.80865E-05 1.00398E-06-8.81119E-20-6.62561E-19
 -1      1812 9.36789E-05-2.81554E-05-2.80840E-05 7.14947E-07 2.70766E-19-2.16200E-18
 -1      1813 9.38647E-05-2.82109E-05-2.81370E-05 6.72169E-07 1.15672E-19-2.08218E-18
 -1      1814 9.39495E-05-2.82628E-05-2.81519E-05 9.14075E-07-2.27866E-20-1.48679E-18
 -1      1815 9.39760E-05-2.82415E-05-2.81745E-05 6.23594E-07 8.63390E-21-1.89315E-18
 -1      1816 9.41409E-05-2.82883E-05-2.82223E-05 5.84002E-07-9.74915E-20-1.78105E-18
 -1      1817 9.41779E-05-2.83294E-05-2.82207E-05 8.10159E-07 1.52984E-19-1.49526E-18
 -1      1818 9.42451E-05-2.83148E-05-2.82582E-05 5.40776E-07-4.47271E-20-1.68789E-18
 -1      1819 9.43910E-05-2.83540E-05-2.83012E-05 5.08123E-07 2.02622E-20-1.48703E-18
 -1      1820 9.43926E-05-2.83842E-05-2.82891E-05 7.10084E-07 1.52087E-19-1.50211E-18
 -1      1821 9.44885E-05-2.83770E-05-2.83355E-05 4.74900E-07-2.56947E-19-1.50030E-18
 -1      1822 9.46199E-05-2.84103E-05-2.83748E-05 4.52051E-07-4.82724E-19-1.61700E-18
 -1      1823 9.45924E-05-2.84287E-05-2.83557E-05 6.26522E-07-1.38411E-19-1.30956E-18
 -1      1824 9.47133E-05-2.84308E-05-2.84083E-05 4.32588E-07-6.91895E-19-1.62733E-18
 -1      1825 9.48369E-05-2.84602E-05-2.84457E-05 4.22026E-07-5.83811E-19-1.55745E-18
 -1      1826 9.47804E-05-2.84652E-05-2.84209E-05 5.69123E-07-6.11176E-19-8.46552E-19
 -1      1827 9.49354E-05-2.84803E-05-2.84817E-05 4.19993E-07-8.48950E-19-1.81272E-18
 -1      1828 9.50652E-05-2.85095E-05-2.85216E-05 4.25438E-07-6.58276E-19-2.07976E-18
 -1      1829 9.49684E-05-2.84966E-05-2.84884E-05 5.46402E-07-8.76477E-19-8.96189E-19
 -1      1830 9.51653E-05-2.85286E-05-2.85588E-05 4.45765E-07-6.06191E-19-2.34644E-18
 -1      1831 9.53006E-05-2.85577E-05-2.86007E-05 4.69675E-07-3.89953E-19-2.39847E-18
 -1      1832 9.51622E-05-2.85238E-05-2.85602E-05 5.68661E-07-7.81728E-19-8.49646E-19
 -1      1833 9.54145E-05-2.85782E-05-2.86436E-05 5.16493E-07 3.43596E-19-2.47893E-18
 -1      1834 9.55743E-05-2.86116E-05-2.86933E-05 5.63551E-07 5.58624E-19-2.18813E-18
 -1      1835 9.53703E-05-2.85492E-05-2.86392E-05 6.44837E-07 9.93610E-20-8.14846E-19
 -1      1836 9.57109E-05-2.86352E-05-2.87454E-05 6.43817E-07 3.30815E-19-2.29325E-18
 -1      1837 9.59119E-05-2.86766E-05-2.88079E-05 7.20533E-07 5.36762E-20-2.06389E-18
 -1      1838 9.56133E-05-2.85752E-05-2.87329E-05 7.87995E-07 4.49436E-19-1.39077E-18
 -1      1839 9.60819E-05-2.87047E-05-2.88738E-05 8.43841E-07-2.89291E-19-2.31795E-18
 -1      1840 9.63454E-05-2.87587E-05-2.89554E-05 9.59478E-07-2.25892E-19-2.51130E-18
 -1      1841 9.59104E-05-2.86035E-05-2.88490E-05 1.01638E-06-2.36430E-19-1.78650E-18
 -1      1842 9.65618E-05-2.87928E-05-2.90408E-05 1.13923E-06-6.58145E-19-2.74510E-18
 -1      1843 9.69156E-05-2.88651E-05-2.91500E-05 1.30693E-06-8.10615E-19-2.89034E-18
 -1      1844 9.62847E-05-2.86348E-05-2.89969E-05 1.35529E-06-6.45207E-19-2.54987E-18
 -1      1845 9.71935E-05-2.89066E-05-2.92617E-05 1.56168E-06-7.18602E-19-2.68472E-18
 -1      1846 9.76738E-05-2.90048E-05-2.94096E-05 1.79983E-06-4.40586E-19-2.77302E-18
 -1      1847 9.67633E-05-2.86692E-05-2.91883E-05 1.83965E-06-6.86289E-19-2.55023E-18
 -1      1848 9.80308E-05-2.90545E-05-2.95563E-05 2.15470E-06-3.02786E-19-2.27949E-18
 -1      1849 9.86853E-05-2.91887E-05-2.97571E-05 2.48835E-06-1.91299E-19-2.13616E-18
 -1      1850 9.73781E-05-2.87051E-05-2.94374E-05 2.51693E-06-1.68972E-19-1.53137E-18
 -1      1851 9.91407E-05-2.92466E-05-2.99488E-05 2.97629E-06-3.77254E-19-2.18453E-18
 -1      1852 1.00034E-04-2.94327E-05-3.02208E-05 3.43708E-06-3.40838E-19-2.03439E-18
 -1      1853 9.81653E-05-2.87403E-05-2.97606E-05 3.44944E-06-3.28556E-19-5.74874E-19
 -1      1854 1.00643E-04-2.95060E-05-3.04816E-05 4.13197E-06-8.17387E-20-2.16606E-18
 -1      1855 1.01914E-04-2.97759E-05-3.08683E-05 4.79918E-06 9.80970E-20-1.93574E-18
 -1      1856 9.91935E-05-2.87760E-05-3.01878E-05 4.75308E-06-4.27945E-19-4.54294E-19
 -1      1857 1.02639E-04-2.98633E-05-3.11849E-05 5.68459E-06 3.33168E-19-1.75916E-18
 -1      1858 1.04273E-04-3.02347E-05-3.16736E-05 6.52140E-06 3.46198E-19-1.77857E-18
 -1      1859 1.00493E-04-2.88178E-05-3.07261E-05 6.49639E-06 1.05581E-20 6.72010E-20
 -1      1860 1.05171E-04-3.03642E-05-3.20593E-05 7.64866E-06-3.23130E-20-2.02425E-18
 -1      1861 1.07316E-04-3.09050E-05-3.26853E-05 8.68178E-06 3.69518E-20-1.26808E-18
 -1      1862 1.02080E-04-2.89114E-05-3.13664E-05 8.69640E-06 3.87643E-19 1.70490E-19
 -1      1863 1.08439E-04-3.11449E-05-3.31302E-05 1.00185E-05-1.15236E-19-1.41308E-18
 -1      1864 1.11176E-04-3.19695E-05-3.38914E-05 1.11486E-05-3.32745E-19-1.60052E-18
 -1      1865 1.04073E-04-2.91928E-05-3.21026E-05 1.13804E-05-6.70016E-20 2.69020E-19
 -1      1866 1.12651E-04-3.24872E-05-3.43609E-05 1.25210E-05-1.60235E-19-1.22345E-18
 -1      1867 1.15996E-04-3.37897E-05-3.52074E-05 1.34247E-05 8.65535E-19-1.09269E-18
 -1      1868 1.06662E-04-2.99964E-05-3.28770E-05 1.43364E-05-1.20021E-19 4.93774E-19
 -1      1869 1.18124E-04-3.49346E-05-3.56379E-05 1.43666E-05 8.90146E-19-1.79233E-18
 -1      1870 1.21936E-04-3.69897E-05-3.64418E-05 1.43281E-05 6.52818E-19-1.81906E-18
 -1      1871 1.10286E-04-3.20315E-05-3.35802E-05 1.69223E-05 5.44548E-19 5.15135E-20
 -1      1872 1.25317E-04-3.93112E-05-3.67790E-05 1.38635E-05 7.92465E-19-2.23663E-18
 -1      1873 1.29130E-04-4.22501E-05-3.73512E-05 1.17106E-05 4.39504E-19-1.57620E-18
 -1      1874 1.15854E-04-3.64914E-05-3.40970E-05 1.77245E-05 8.95380E-19-1.20331E-18
 -1      1875 1.34478E-04-4.60816E-05-3.77085E-05 8.30616E-06-3.92838E-19-1.32168E-18
 -1      1876 1.37243E-04-4.90801E-05-3.79764E-05 2.95756E-06-8.87108E-19-2.07726E-18
 -1      1877 1.24708E-04-4.44400E-05-3.45373E-05 1.42672E-05-9.35971E-20-1.65972E-18
 -1      1878 1.43880E-04-5.28292E-05-3.88713E-05-4.16281E-06-4.86779E-19-2.64375E-18
 -1      1879 1.43779E-04-5.29979E-05-3.91529E-05-1.12441E-05-4.64253E-19-2.28304E-18
 -1      1880 1.37084E-04-5.41393E-05-3.57340E-05 4.07206E-06-1.26107E-18-1.12645E-18
 -1      1881 1.48793E-04-5.28789E-05-4.13395E-05-1.93344E-05-3.07155E-19-2.46312E-18
 -1      1882 1.45153E-04-4.73049E-05-4.21469E-05-2.34058E-05-7.82870E-19-3.29382E-18
 -1      1883 1.48960E-04-5.80707E-05-3.92790E-05-1.19380E-05-3.85625E-19-7.16431E-19
 -1      1884 1.42091E-04-4.01212E-05-4.45432E-05-2.54603E-05-6.02770E-19-3.34528E-18
 -1      1885 1.36327E-04-3.17467E-05-4.52584E-05-2.08397E-05-1.22820E-18-3.10623E-18
 -1      1886 1.36784E-04-2.63082E-05-4.80620E-05-1.07310E-05-1.28071E-18-3.08893E-18
 -1      1887 1.35536E-04-2.44378E-05-4.83088E-05 2.18761E-06-5.44007E-19-3.19310E-18
 -1      1888 1.36323E-04-2.79402E-05-4.69007E-05 1.54580E-05-6.91814E-19-4.38212E-18
 -1      1889 1.41716E-04-3.66261E-05-4.58790E-05 2.33176E-05 2.68933E-20-4.67914E-18
 -1      1890 1.43000E-04-4.39844E-05-4.26403E-05 2.39632E-05 2.28911E-19-6.43584E-18
 -1      1891 1.47619E-04-5.12275E-05-4.16984E-05 2.06722E-05 2.54216E-19-5.92560E-18
 -1      1892 1.43116E-04-5.20978E-05-3.92241E-05 1.24464E-05 1.65343E-19-5.37354E-18
 -1      1893 1.43484E-04-5.25149E-05-3.89127E-05 4.94008E-06 8.06772E-19-4.35016E-18
 -1      1894 1.49241E-04-5.62269E-05-4.01662E-05 1.46278E-05 6.17169E-19-6.13008E-18
 -1      1895 1.36579E-04-4.86215E-05-3.78929E-05-2.96052E-06 1.34032E-18-3.48310E-18
 -1      1896 1.33644E-04-4.56047E-05-3.75732E-05-8.62775E-06 2.06975E-18-3.01800E-18
 -1      1897 1.37363E-04-5.34710E-05-3.60851E-05-2.98652E-06 1.44006E-18-3.25993E-18
 -1      1898 1.28281E-04-4.19399E-05-3.71348E-05-1.20986E-05 1.59232E-18-2.61842E-18
 -1      1899 1.24303E-04-3.89728E-05-3.64888E-05-1.42945E-05 5.10205E-19-1.33612E-18
 -1      1900 1.24801E-04-4.40616E-05-3.46983E-05-1.42796E-05 2.02782E-18-2.72739E-18
 -1      1901 1.20741E-04-3.67233E-05-3.60541E-05-1.48824E-05-2.21129E-19-7.29216E-19
 -1      1902 1.16710E-04-3.45925E-05-3.51727E-05-1.49720E-05-4.57510E-19-5.08842E-19
 -1      1903 1.15796E-04-3.64602E-05-3.40655E-05-1.80982E-05 9.65062E-19-1.23995E-18
 -1      1904 1.14305E-04-3.34291E-05-3.46482E-05-1.41575E-05-1.59007E-19-8.05118E-19
 -1      1905 1.10701E-04-3.20110E-05-3.37228E-05-1.33037E-05-1.06425E-19-1.25793E-18
 -1      1906 1.09779E-04-3.20663E-05-3.33444E-05-1.75997E-05 3.23859E-19 5.46571E-19
 -1      1907 1.08930E-04-3.14177E-05-3.31736E-05-1.20183E-05-6.06350E-19-6.36069E-19
 -1      1908 1.05916E-04-3.04514E-05-3.23383E-05-1.09017E-05-8.79329E-19 7.46315E-20
 -1      1909 1.05573E-04-2.98804E-05-3.24620E-05-1.52364E-05-1.60662E-19 7.25570E-19
 -1      1910 1.04513E-04-3.00961E-05-3.18366E-05-9.57417E-06-9.52813E-19-1.10118E-18
 -1      1911 1.02111E-04-2.93904E-05-3.11538E-05-8.46872E-06-1.75792E-19-2.21272E-18
 -1      1912 1.02391E-04-2.87974E-05-3.15538E-05-1.23630E-05-1.34017E-18 1.23881E-18
 -1      1913 1.00953E-04-2.90962E-05-3.07429E-05-7.21909E-06-4.95362E-19-1.57791E-18
 -1      1914 9.91263E-05-2.85432E-05-3.02326E-05-6.15258E-06-1.28398E-18-2.95296E-18
 -1      1915 9.98405E-05-2.81339E-05-3.07449E-05-9.55141E-06-6.14029E-19-1.10931E-18
 -1      1916 9.81835E-05-2.82597E-05-2.99271E-05-4.94873E-06-6.50018E-19-2.43991E-18
 -1      1917 9.68625E-05-2.78019E-05-2.95782E-05-3.89442E-06-8.02802E-19-1.71917E-18
 -1      1918 9.77432E-05-2.75468E-05-3.01059E-05-6.88729E-06-5.44775E-19-2.04201E-19
 -1      1919 9.59709E-05-2.75206E-05-2.93177E-05-2.44869E-06-1.23207E-19-1.11684E-18
 -1      1920 9.27452E-05-2.73550E-05-2.79903E-05 7.90570E-07 8.18174E-19 4.22540E-18
 -1      1921 9.32196E-05-2.73096E-05-2.81865E-05 1.37015E-06 8.83436E-19 4.61325E-18
 -1      1922 9.22076E-05-2.74242E-05-2.77427E-05-8.18246E-08 6.37829E-19 3.65440E-18
 -1      1923 9.23359E-05-2.73659E-05-2.78019E-05 2.07020E-07 6.67101E-19 3.90872E-18
 -1      1924 9.36689E-05-2.74244E-05-2.84068E-05 9.58235E-07 1.00330E-18 2.64231E-18
 -1      1925 9.21010E-05-2.75182E-05-2.76654E-05-5.41539E-07 8.34126E-19 3.12485E-18
 -1      1926 9.20244E-05-2.74394E-05-2.76572E-05-3.98520E-07 7.30696E-19 3.44361E-18
 -1      1927 9.31377E-05-2.75993E-05-2.81023E-05-9.87704E-08 9.76232E-19 2.15881E-18
 -1      1928 9.22496E-05-2.76363E-05-2.76835E-05-7.57472E-07 5.86024E-19 2.76161E-18
 -1      1929 9.20666E-05-2.75479E-05-2.76404E-05-6.96918E-07 7.67922E-19 3.01098E-18
 -1      1930 9.29648E-05-2.77344E-05-2.79661E-05-6.59891E-07 9.91740E-19 1.95789E-18
 -1      1931 9.25337E-05-2.77645E-05-2.77534E-05-8.29297E-07 4.79253E-19 2.50772E-18
 -1      1932 9.23039E-05-2.76755E-05-2.76937E-05-8.17090E-07 3.88735E-19 2.57154E-18
 -1      1933 9.30112E-05-2.78564E-05-2.79301E-05-9.26568E-07 7.45119E-19 1.50333E-18
 -1      1934 9.28776E-05-2.78915E-05-2.78483E-05-8.16905E-07 5.25201E-20 2.51431E-18
 -1      1935 9.26362E-05-2.78077E-05-2.77829E-05-8.32394E-07 3.48655E-19 2.51845E-18
 -1      1936 9.31840E-05-2.79705E-05-2.79526E-05-1.01708E-06 3.93208E-19 1.36896E-18
 -1      1937 9.32349E-05-2.80102E-05-2.79518E-05-7.58261E-07 2.07890E-19 2.44228E-18
 -1      1938 9.30021E-05-2.79346E-05-2.78871E-05-7.88247E-07 1.75760E-19 2.57132E-18
 -1      1939 9.34204E-05-2.80752E-05-2.80071E-05-1.00413E-06 2.45586E-19 1.71356E-18
 -1      1940 9.35787E-05-2.81166E-05-2.80543E-05-6.78229E-07 5.61410E-19 2.00576E-18
 -1      1941 9.33649E-05-2.80506E-05-2.79939E-05-7.14001E-07 4.20972E-19 2.24965E-18
 -1      1942 9.36800E-05-2.81684E-05-2.80772E-05-9.34456E-07 5.53414E-19 1.41702E-18
 -1      1943 9.38956E-05-2.82095E-05-2.81507E-05-5.93383E-07 3.32916E-19 1.77668E-18
 -1      1944 9.37051E-05-2.81531E-05-2.80961E-05-6.29109E-07 5.72633E-19 1.91836E-18
 -1      1945 9.39389E-05-2.82493E-05-2.81528E-05-8.38962E-07 6.59081E-19 1.38401E-18
 -1      1946 9.41817E-05-2.82895E-05-2.82391E-05-5.14860E-07-2.91931E-19 1.77512E-18
 -1      1947 9.40140E-05-2.82417E-05-2.81905E-05-5.46606E-07-3.56302E-20 1.80722E-18
 -1      1948 9.41840E-05-2.83179E-05-2.82281E-05-7.38379E-07 2.54024E-19 1.31945E-18
 -1      1949 9.44388E-05-2.83583E-05-2.83198E-05-4.50199E-07 7.92418E-20 1.99719E-18
 -1      1950 9.42909E-05-2.83177E-05-2.82764E-05-4.75285E-07-1.90045E-19 2.00414E-18
 -1      1951 9.44105E-05-2.83756E-05-2.83004E-05-6.46729E-07-2.63124E-19 9.14083E-19
 -1      1952 9.46736E-05-2.84187E-05-2.83943E-05-4.04562E-07-3.63995E-20 2.28597E-18
 -1      1953 9.45402E-05-2.83833E-05-2.83547E-05-4.21129E-07 3.34195E-19 2.24499E-18
 -1      1954 9.46191E-05-2.84242E-05-2.83690E-05-5.73566E-07-9.61205E-20 1.10313E-18
 -1      1955 9.48956E-05-2.84741E-05-2.84653E-05-3.81506E-07-4.27790E-19 2.11285E-18
 -1      1956 9.47703E-05-2.84417E-05-2.84278E-05-3.88253E-07-1.43241E-19 2.16703E-18
 -1      1957 9.48144E-05-2.84662E-05-2.84349E-05-5.25454E-07 3.83731E-20 1.14038E-18
 -1      1958 9.51164E-05-2.85283E-05-2.85362E-05-3.83389E-07 7.51808E-20 1.77201E-18
 -1      1959 9.49917E-05-2.84965E-05-2.84987E-05-3.79457E-07-1.53173E-19 1.71301E-18
 -1      1960 9.50038E-05-2.85048E-05-2.84998E-05-5.06877E-07-1.78656E-19 6.02274E-19
 -1      1961 9.53487E-05-2.85859E-05-2.86107E-05-4.11409E-07 9.04343E-19 1.24888E-18
 -1      1962 9.52167E-05-2.85519E-05-2.85710E-05-3.96411E-07 4.44229E-19 1.51660E-18
 -1      1963 9.51964E-05-2.85434E-05-2.85662E-05-5.20660E-07 6.67182E-19 8.53095E-20
 -1      1964 9.56057E-05-2.86514E-05-2.86923E-05-4.65251E-07 6.29746E-19 9.19537E-19
 -1      1965 9.54587E-05-2.86124E-05-2.86483E-05-4.39481E-07 8.77272E-19 1.14571E-18
 -1      1966 9.54029E-05-2.85861E-05-2.86367E-05-5.67905E-07 8.07392E-19-7.90789E-20
 -1      1967 9.59000E-05-2.87299E-05-2.87845E-05-5.42278E-07 6.74161E-19 7.78466E-19
 -1      1968 9.57307E-05-2.86831E-05-2.87342E-05-5.07117E-07 4.98825E-19 1.11144E-18
 -1      1969 9.56341E-05-2.86379E-05-2.87141E-05-6.47398E-07 5.26265E-19 7.01798E-20
 -1      1970 9.62417E-05-2.88266E-05-2.88895E-05-6.36234E-07 2.37307E-19 1.04976E-18
 -1      1971 9.60449E-05-2.87693E-05-2.88316E-05-5.94775E-07 7.15968E-19 1.33033E-18
 -1      1972 9.59007E-05-2.87041E-05-2.88003E-05-7.54429E-07 5.89089E-19 1.20973E-18
 -1      1973 9.66362E-05-2.89461E-05-2.90079E-05-7.35426E-07 1.27906E-19 8.59117E-19
 -1      1974 9.64099E-05-2.88760E-05-2.89422E-05-6.93323E-07 1.61273E-19 1.00804E-18
 -1      1975 9.62118E-05-2.87914E-05-2.88964E-05-8.78979E-07 2.80228E-19 1.81437E-18
 -1      1976 9.70813E-05-2.90919E-05-2.91374E-05-8.20523E-07 1.09712E-20 1.19835E-18
 -1      1977 9.68290E-05-2.90080E-05-2.90655E-05-7.86988E-07-4.89317E-20 7.87543E-19
 -1      1978 9.65731E-05-2.89067E-05-2.90019E-05-1.00332E-06-3.32762E-20 1.07307E-18
 -1      1979 9.75626E-05-2.92646E-05-2.92719E-05-8.62355E-07-5.80557E-19 7.36210E-19
 -1      1980 9.72961E-05-2.91680E-05-2.91976E-05-8.51101E-07-7.88327E-20 1.06383E-18
 -1      1981 9.69847E-05-2.90569E-05-2.91136E-05-1.09927E-06-3.15085E-19 9.13799E-19
 -1      1982 9.80485E-05-2.94605E-05-2.93997E-05-8.20539E-07 3.11168E-19 1.76393E-19
 -1      1983 9.77912E-05-2.93555E-05-2.93302E-05-8.50235E-07-6.36384E-19 2.28302E-20
 -1      1984 9.74374E-05-2.92478E-05-2.92251E-05-1.12570E-06-1.98757E-19 3.94013E-19
 -1      1985 9.84854E-05-2.96675E-05-2.95029E-05-6.44459E-07 8.82287E-19 7.21488E-19
 -1      1986 9.82750E-05-2.95640E-05-2.94494E-05-7.37939E-07 9.49885E-19 8.06170E-19
 -1      1987 9.79087E-05-2.94807E-05-2.93260E-05-1.02765E-06 2.38563E-20 7.10038E-19
 -1      1988 9.87937E-05-2.98618E-05-2.95575E-05-2.78938E-07 6.12759E-20 1.29020E-18
 -1      1989 9.86839E-05-2.97769E-05-2.95349E-05-4.60035E-07 5.76278E-19 9.70892E-19
 -1      1990 9.83580E-05-2.97480E-05-2.94020E-05-7.39032E-07 4.64096E-19 1.55372E-18
 -1      1991 9.88682E-05-3.00030E-05-2.95346E-05 3.22519E-07-1.58934E-19 1.15479E-18
 -1      1992 9.89264E-05-2.99630E-05-2.95610E-05 3.57910E-08-5.34541E-20 1.40239E-18
 -1      1993 9.87211E-05-3.00265E-05-2.94352E-05-1.92200E-07 1.16737E-19 1.29131E-18
 -1      1994 9.85859E-05-3.00321E-05-2.94054E-05 1.17465E-06-9.08509E-20 1.03692E-18
 -1      1995 9.88854E-05-3.00720E-05-2.94986E-05 7.81329E-07 1.88538E-19 1.12482E-18
 -1      1996 9.89078E-05-3.02692E-05-2.94073E-05 6.62318E-07 8.98153E-21 1.42958E-18
 -1      1997 9.78267E-05-2.98743E-05-2.91483E-05 2.22870E-06-1.12205E-19 1.09402E-18
 -1      1998 9.84299E-05-3.00337E-05-2.93215E-05 1.75925E-06-4.32705E-19 9.47210E-19
 -1      1999 9.88043E-05-3.03991E-05-2.93028E-05 1.82372E-06 2.61985E-20 1.87092E-18
 -1      2000 9.65113E-05-2.94547E-05-2.87596E-05 3.34106E-06 5.33763E-20 8.00909E-19
 -1      2001 9.74438E-05-2.97667E-05-2.90143E-05 2.86965E-06-5.79225E-20 7.60573E-19
 -1      2002 9.82883E-05-3.03125E-05-2.91150E-05 3.19999E-06 4.46578E-20 1.61806E-18
 -1      2003 9.46529E-05-2.87313E-05-2.82622E-05 4.26268E-06 5.06704E-19 1.32336E-18
 -1      2004 9.58735E-05-2.92028E-05-2.85824E-05 3.90718E-06 4.62030E-19 1.27713E-18
 -1      2005 9.72647E-05-2.99022E-05-2.88508E-05 4.57271E-06-7.02210E-20 1.92613E-18
 -1      2006 9.24115E-05-2.77403E-05-2.77109E-05 4.67691E-06-2.63790E-19 1.90215E-18
 -1      2007 9.37896E-05-2.83303E-05-2.80599E-05 4.57493E-06 2.36839E-19 1.51216E-18
 -1      2008 9.57233E-05-2.91076E-05-2.85345E-05 5.59673E-06 5.05730E-20 2.31116E-18
 -1      2009 9.01171E-05-2.66330E-05-2.71868E-05 4.30224E-06-1.61972E-19 1.60731E-18
 -1      2010 9.14361E-05-2.72410E-05-2.75111E-05 4.55984E-06-4.38935E-19 1.75939E-18
 -1      2011 9.38051E-05-2.79818E-05-2.82053E-05 5.86895E-06-3.26392E-19 2.17637E-18
 -1      2012 8.82258E-05-2.56681E-05-2.67801E-05 3.03873E-06 6.20587E-19 1.23675E-18
 -1      2013 8.92267E-05-2.61501E-05-2.70210E-05 3.66734E-06 6.12521E-19 1.33990E-18
 -1      2014 9.18354E-05-2.67367E-05-2.79106E-05 5.07863E-06 6.65184E-19 1.54514E-18
 -1      2015 8.71879E-05-2.51290E-05-2.65655E-05 1.08081E-06 1.65456E-19 1.17726E-18
 -1      2016 8.76499E-05-2.53491E-05-2.66761E-05 1.96150E-06 4.57037E-19 1.14595E-18
 -1      2017 9.02727E-05-2.57147E-05-2.76948E-05 3.19443E-06 5.19876E-19 1.58189E-18
 -1      2018 8.72678E-05-2.51910E-05-2.65803E-05-1.10148E-06-1.09575E-18 7.47136E-19
 -1      2019 8.70912E-05-2.50853E-05-2.65403E-05-1.89779E-07-5.51842E-19 1.07721E-18
 -1      2020 8.95463E-05-2.52525E-05-2.75891E-05 5.74309E-07-1.47900E-19 1.35970E-18
 -1      2021 8.84171E-05-2.58251E-05-2.68121E-05-2.94086E-06 5.54456E-19-3.28586E-19
 -1      2022 8.76659E-05-2.54344E-05-2.66354E-05-2.23206E-06-1.32868E-19-6.43015E-19
 -1      2023 8.98572E-05-2.55128E-05-2.76062E-05-2.11995E-06-1.00694E-19 6.13969E-19
 -1      2024 9.02931E-05-2.68125E-05-2.72031E-05-4.00957E-06-1.49597E-19-8.61823E-20
 -1      2025 8.91684E-05-2.62616E-05-2.69331E-05-3.65475E-06 2.17029E-19-5.45079E-19
 -1      2026 9.10722E-05-2.63892E-05-2.77373E-05-4.19200E-06 2.80087E-19-1.23983E-19
 -1      2027 9.24063E-05-2.78562E-05-2.76685E-05-4.17272E-06-5.48470E-19-8.79525E-20
 -1      2028 9.11698E-05-2.72944E-05-2.73635E-05-4.19316E-06 4.60831E-20 4.87438E-19
 -1      2029 9.27937E-05-2.75682E-05-2.79536E-05-5.19921E-06-1.52894E-19 2.47284E-19
 -1      2030 9.43073E-05-2.87112E-05-2.81200E-05-3.58223E-06 8.21564E-19-6.70493E-19
 -1      2031 9.31945E-05-2.82546E-05-2.78365E-05-3.88951E-06-1.83364E-19-3.24728E-19
 -1      2032 9.45463E-05-2.86893E-05-2.82123E-05-5.09035E-06 1.29323E-19-1.97087E-19
 -1      2033 9.57092E-05-2.92528E-05-2.84892E-05-2.55165E-06 5.82004E-20-1.19509E-18
 -1      2034 9.48732E-05-2.89582E-05-2.82674E-05-3.00664E-06 9.09841E-19-8.12622E-19
 -1      2035 9.59599E-05-2.94977E-05-2.84663E-05-4.13869E-06 6.76581E-19-2.83870E-19
 -1      2036 9.65142E-05-2.94725E-05-2.87386E-05-1.41211E-06 1.11998E-18-3.01522E-18
 -1      2037 9.60108E-05-2.93424E-05-2.85968E-05-1.88130E-06 2.91019E-19-2.20397E-18
 -1      2038 9.68517E-05-2.99010E-05-2.86761E-05-2.76232E-06 7.00141E-19-1.80140E-18
 -1      2039 9.67731E-05-2.94331E-05-2.88636E-05-4.19419E-07 1.05694E-18-1.47600E-18
 -1      2040 9.65772E-05-2.94363E-05-2.87995E-05-8.06114E-07 1.03274E-18-2.32569E-18
 -1      2041 9.72103E-05-2.99376E-05-2.88177E-05-1.35628E-06 7.02202E-19-2.30251E-18
 -1      2042 9.66243E-05-2.92242E-05-2.88859E-05 2.74105E-07-6.40198E-19-4.45364E-19
 -1      2043 9.66584E-05-2.93152E-05-2.88821E-05 2.37028E-08 6.45864E-19-8.71694E-19
 -1      2044 9.71322E-05-2.97107E-05-2.88860E-05-2.02362E-07-1.48446E-19-2.19147E-19
 -1      2045 9.62414E-05-2.89365E-05-2.88419E-05 6.09318E-07-1.08825E-18 6.10633E-20
 -1      2046 9.64038E-05-2.90669E-05-2.88734E-05 5.12434E-07-8.22774E-19-2.36732E-19
 -1      2047 9.67608E-05-2.93357E-05-2.88921E-05 5.46950E-07-6.86005E-19 4.97906E-19
 -1      2048 9.57876E-05-2.86472E-05-2.87689E-05 5.95551E-07 1.62651E-19 2.72920E-19
 -1      2049 9.59812E-05-2.87723E-05-2.88120E-05 6.45788E-07-7.78538E-19 5.66486E-20
 -1      2050 9.62424E-05-2.89130E-05-2.88554E-05 8.49935E-07-1.03875E-18 5.65884E-19
 -1      2051 9.54295E-05-2.84738E-05-2.86916E-05 3.61481E-07 4.57159E-19 4.35325E-19
 -1      2052 9.55866E-05-2.85495E-05-2.87337E-05 4.89772E-07 5.51978E-19 4.82962E-19
 -1      2053 9.57726E-05-2.85990E-05-2.87927E-05 7.55255E-07-2.01805E-19 1.00302E-18
 -1      2054 9.54053E-05-2.83922E-05-2.87196E-05 4.54876E-07 5.61859E-19 2.53931E-18
 -1      2055 9.50806E-05-2.68124E-05-2.92423E-05 2.03359E-06 2.29270E-19 1.65745E-19
 -1      2056 9.52236E-05-2.73207E-05-2.90943E-05 1.72861E-06-9.68058E-19 1.35988E-18
 -1      2057 9.52830E-05-2.76005E-05-2.89912E-05 1.35817E-06-7.65025E-19 5.26428E-19
 -1      2058 9.53593E-05-2.79508E-05-2.88868E-05 1.08797E-06-4.29662E-19 6.03494E-19
 -1      2059 9.55222E-05-2.77512E-05-2.90551E-05 1.95965E-06-1.12021E-18 9.30241E-19
 -1      2060 9.53727E-05-2.81899E-05-2.87838E-05 6.65649E-07 8.16601E-19 2.03752E-18
 -1      2061 9.47239E-05-2.57286E-05-2.95586E-05 2.70463E-06-8.34911E-19-2.22031E-18
 -1      2062 9.49523E-05-2.64005E-05-2.93716E-05 2.41899E-06-7.31682E-19-1.15479E-18
 -1      2063 9.53381E-05-2.70606E-05-2.92736E-05 2.80162E-06-1.12185E-18-1.15342E-18
 -1      2064 9.41744E-05-2.43250E-05-2.99336E-05 3.24510E-06-1.48210E-18-1.31903E-18
 -1      2065 9.45018E-05-2.51544E-05-2.97125E-05 3.04141E-06-1.25539E-18-5.53372E-19
 -1      2066 9.49524E-05-2.60654E-05-2.95347E-05 3.61753E-06-8.58312E-19-1.13655E-18
 -1      2067 9.34499E-05-2.27138E-05-3.03263E-05 3.44002E-06-3.57498E-19-1.29780E-18
 -1      2068 9.38530E-05-2.36128E-05-3.00970E-05 3.41497E-06-1.40626E-18-3.41926E-19
 -1      2069 9.43135E-05-2.47473E-05-2.98225E-05 4.19790E-06-3.15305E-19-6.92595E-19
 -1      2070 9.26337E-05-2.10943E-05-3.06842E-05 3.09318E-06-1.33265E-18-6.73479E-19
 -1      2071 9.30562E-05-2.19337E-05-3.04797E-05 3.32650E-06-1.20428E-18-1.27806E-18
 -1      2072 9.34443E-05-2.32024E-05-3.01050E-05 4.27713E-06-9.81695E-19-1.87745E-18
 -1      2073 9.18782E-05-1.97513E-05-3.09468E-05 2.09178E-06-7.72324E-19 1.18287E-18
 -1      2074 9.22327E-05-2.03682E-05-3.08051E-05 2.61597E-06-1.12143E-18-5.57851E-21
 -1      2075 9.24586E-05-2.16296E-05-3.03460E-05 3.63029E-06-2.33780E-18-1.08278E-19
 -1      2076 9.13813E-05-1.90011E-05-3.10592E-05 4.83279E-07-2.06475E-18-6.59256E-19
 -1      2077 9.15666E-05-1.92355E-05-3.10143E-05 1.25251E-06-1.96596E-18 1.50623E-18
 -1      2078 9.15611E-05-2.03218E-05-3.05098E-05 2.16307E-06-1.96729E-18 4.71979E-19
 -1      2079 9.13272E-05-1.90912E-05-3.09917E-05-1.44565E-06-2.02224E-18-1.88966E-18
 -1      2080 9.12612E-05-1.88450E-05-3.10598E-05-5.84694E-07-2.93226E-18-6.47385E-19
 -1      2081 9.10108E-05-1.96078E-05-3.05705E-05 2.20962E-08-2.76634E-18-1.04139E-18
 -1      2082 9.18223E-05-2.01241E-05-3.07471E-05-3.33143E-06 1.05008E-18 3.00185E-18
 -1      2083 9.14698E-05-1.93800E-05-3.09255E-05-2.55526E-06-7.20411E-19 1.46195E-18
 -1      2084 9.10310E-05-1.97340E-05-3.05217E-05-2.43045E-06-5.82204E-19 1.10917E-18
 -1      2085 9.28616E-05-2.19907E-05-3.03715E-05-4.62017E-06 1.71716E-18 3.66096E-18
 -1      2086 9.22506E-05-2.08594E-05-3.06262E-05-4.17897E-06 1.90157E-18 2.75940E-18
 -1      2087 9.17460E-05-2.08023E-05-3.03761E-05-4.64395E-06 1.03221E-18 3.02336E-18
 -1      2088 9.42490E-05-2.43382E-05-2.99361E-05-4.85478E-06 1.79595E-18 2.45400E-18
 -1      2089 9.35016E-05-2.30471E-05-3.02200E-05-4.91362E-06 7.72656E-19 2.77454E-18
 -1      2090 9.31452E-05-2.27004E-05-3.01679E-05-5.95717E-06 8.00152E-19 2.35371E-18
 -1      2091 9.36540E-05-2.73458E-05-2.83732E-05 2.02480E-06 1.02843E-18 5.16488E-18
 -1      2092 9.47504E-05-2.73466E-05-2.88273E-05 3.12752E-06 1.22269E-18 5.57379E-18
 -1      2093 9.54879E-05-2.68459E-05-2.94194E-05 4.53341E-06 1.47793E-18 4.32921E-18
 -1      2094 9.44241E-05-2.71777E-05-2.88332E-05 2.49617E-06 1.27073E-18 3.50293E-18
 -1      2095 6.47238E-05-4.06534E-05-1.06447E-05 4.51587E-05 4.18815E-18 3.73203E-18
 -1      2096 4.85156E-05-4.31168E-05-3.58653E-06 3.80082E-05 3.70153E-18 4.88431E-18
 -1      2097 1.41465E-04-4.13908E-05-4.22271E-05 3.70939E-05 4.47911E-18 6.78135E-18
 -1      2098 1.21881E-04-4.34090E-05-3.40473E-05 3.72101E-05 5.69376E-18 5.18596E-18
 -1      2099 1.27740E-05-3.21616E-05 7.46247E-06 1.22367E-05 1.45181E-18 1.09860E-18
 -1      2100 1.21052E-05-3.38626E-05 8.25353E-06 3.50375E-07 1.98455E-18-7.50048E-19
 -1      2101 1.03395E-04-4.18419E-05-2.62483E-05 4.63842E-05 6.57552E-18 2.79479E-18
 -1      2102 8.33134E-05-4.42703E-05-1.76976E-05 4.21244E-05 5.28972E-18 3.38474E-18
 -1      2103 8.72683E-05-8.72452E-06-3.37500E-05-1.05239E-05-7.19862E-19-3.15540E-18
 -1      2104 8.79636E-05-9.25335E-06-3.38202E-05-1.21108E-05-1.08053E-18-2.99372E-18
 -1      2105 9.04690E-05-1.30772E-05-3.32342E-05-1.19221E-05-1.26483E-18-2.64973E-18
 -1      2106 8.86692E-05-1.10339E-05-3.32959E-05-9.41150E-06-6.50475E-19-3.00472E-18
 -1      2107 1.69520E-04-3.44505E-05-5.67615E-05 2.56145E-05 5.21412E-18 4.39525E-18
 -1      2108 1.51206E-04-3.53502E-05-4.96177E-05 2.82535E-05 5.25669E-18 5.58534E-18
 -1      2109 1.81615E-04-2.71776E-05-6.53566E-05 1.00321E-05 4.93481E-18 2.20059E-18
 -1      2110 1.73031E-04-2.83528E-05-6.13946E-05 1.80860E-05 5.22916E-18 3.79428E-18
 -1      2111 1.80112E-04-2.06075E-05-6.77741E-05-1.32947E-06 4.81665E-18 9.53124E-19
 -1      2112 1.80087E-04-2.17639E-05-6.71017E-05 5.68698E-06 5.24652E-18 2.13389E-18
 -1      2113 1.77683E-04-2.46217E-05-6.48875E-05-1.15664E-05 3.21873E-18-8.61009E-19
 -1      2114 1.82019E-04-2.29773E-05-6.73892E-05-3.74815E-06 3.88026E-18 1.01993E-18
 -1      2115 1.61649E-04-3.14407E-05-5.55530E-05-2.16652E-05 2.62930E-18-1.85416E-18
 -1      2116 1.76325E-04-3.05937E-05-6.14041E-05-1.75468E-05 2.63681E-18-8.28398E-19
 -1      2117 1.34820E-04-3.88420E-05-4.12579E-05-3.53951E-05 2.58769E-18-2.77064E-18
 -1      2118 1.53741E-04-3.83780E-05-4.88407E-05-3.14924E-05 2.67514E-18-2.28191E-18
 -1      2119 9.93427E-05-4.16008E-05-2.55241E-05-4.18780E-05 1.25191E-18-2.51399E-18
 -1      2120 1.20303E-04-3.96506E-05-3.41348E-05-4.49171E-05 1.51661E-18-3.73626E-18
 -1      2121 6.35718E-05-4.31662E-05-9.91846E-06-4.11434E-05 2.80368E-18-7.33954E-19
 -1      2122 8.16880E-05-4.00443E-05-1.79046E-05-4.73538E-05 2.24294E-18-8.37504E-19
 -1      2123 3.19478E-05-3.95343E-05 1.97914E-06-3.23494E-05 2.89092E-18-2.57922E-19
 -1      2124 4.43820E-05-3.78037E-05-3.57450E-06-3.97180E-05 3.05609E-18 3.55436E-19
 -1      2125 1.30642E-05-3.80145E-05 9.05464E-06-1.24183E-05 2.24358E-18-2.96504E-18
 -1      2126 1.73102E-05-3.41059E-05 6.16293E-06-2.25823E-05 2.99257E-18-2.66434E-18
 -1      2127 1.46695E-05-3.51975E-05 7.64827E-06 8.59479E-06 7.83929E-19-1.75717E-18
 -1      2128 1.17940E-05-3.64299E-05 9.10086E-06-1.60052E-06 1.88845E-18-2.59361E-18
 -1      2129 4.07565E-05-3.85214E-05-1.46887E-06 3.12521E-05 3.43472E-19-1.27351E-18
 -1      2130 2.64401E-05-3.92145E-05 4.13644E-06 1.94039E-05 7.20613E-19-1.13926E-19
 -1      2131 8.71846E-05-5.13028E-05-1.57415E-05 3.89754E-05-2.03288E-20-2.21256E-18
 -1      2132 6.53398E-05-4.94848E-05-7.93139E-06 3.40615E-05 8.82185E-19-2.58033E-18
 -1      2133 1.31834E-04-5.48426E-05-3.27623E-05 3.31796E-05-1.68687E-18-2.13452E-19
 -1      2134 1.08633E-04-5.60660E-05-2.35995E-05 3.14678E-05-8.06375E-19-6.03511E-19
 -1      2135 1.70764E-04-5.17708E-05-5.00197E-05 2.15117E-05-9.70912E-19-1.13502E-18
 -1      2136 1.47276E-04-5.29868E-05-4.09312E-05 2.24130E-05-9.15219E-19-4.22669E-19
 -1      2137 1.97722E-04-4.36684E-05-6.41299E-05 7.93391E-06-2.15443E-18 8.89808E-19
 -1      2138 1.79889E-04-4.49104E-05-5.71580E-05 1.20722E-05-1.35033E-18-2.28699E-19
 -1      2139 2.03000E-04-3.29218E-05-7.09860E-05-1.87588E-06-1.97443E-18 4.86409E-19
 -1      2140 2.00860E-04-3.63820E-05-6.84680E-05 3.55071E-06-2.22050E-18 1.15196E-19
 -1      2141 2.00341E-04-3.32207E-05-6.96288E-05-2.33599E-06-3.23736E-18 1.84230E-19
 -1      2142 1.99007E-04-3.02300E-05-7.06213E-05 9.84811E-07-2.31791E-18-1.84071E-19
 -1      2143 1.88296E-04-4.10354E-05-6.20131E-05-9.54572E-06-3.23948E-18 2.06253E-18
 -1      2144 2.02032E-04-4.00016E-05-6.75280E-05-4.86729E-06-3.59142E-18-1.03762E-19
 -1      2145 1.60175E-04-4.97014E-05-4.74451E-05-2.06852E-05-2.53708E-18 4.00308E-18
 -1      2146 1.82061E-04-4.89590E-05-5.57870E-05-1.78783E-05-1.63647E-18 4.14030E-18
 -1      2147 1.19029E-04-5.23024E-05-2.97318E-05-3.15513E-05-1.98502E-18 2.67493E-18
 -1      2148 1.44756E-04-5.18564E-05-3.93292E-05-3.30662E-05-2.79182E-18 3.46691E-18
 -1      2149 7.85411E-05-5.15789E-05-1.31265E-05-3.41430E-05 1.61783E-19 3.88799E-18
 -1      2150 1.00488E-04-5.08319E-05-2.15773E-05-3.91511E-05-9.34277E-19 3.79852E-18
 -1      2151 4.18032E-05-4.52015E-05-9.89021E-08-2.81750E-05 3.15139E-18 5.93897E-18
 -1      2152 5.72421E-05-4.45855E-05-6.29312E-06-3.53777E-05 9.71547E-19 5.13233E-18
 -1      2153 1.74482E-05-3.67238E-05 7.04487E-06-1.24238E-05 3.64690E-18 8.59738E-20
 -1      2154 2.61023E-05-3.80534E-05 4.06265E-06-2.19247E-05 3.33562E-18 4.03399E-18
 -1      2155 3.15469E-05-3.73774E-05 1.59982E-06 3.35028E-05 2.99426E-18 7.15277E-18
 -1      2156 2.13590E-05-3.71391E-05 5.61014E-06 2.47753E-05 1.48019E-18 5.12328E-18
 -1      2157 1.53585E-04-4.78636E-05-4.55734E-05-2.47997E-05-2.53580E-19-1.71323E-18
 -1      2158 1.48624E-04-2.83145E-05-5.19772E-05-1.70230E-05-1.50730E-18-2.48022E-18
 -1      2159 9.71856E-05-2.43135E-05-3.13049E-05-1.00026E-05-1.85270E-18-3.97285E-19
 -1      2160 8.63426E-05-4.97022E-05-1.58541E-05 4.61731E-05 2.33569E-18 3.18209E-18
 -1      2161 1.50073E-04-4.56978E-05-4.41507E-05 1.84273E-05 3.67448E-18 3.68968E-18
 -1      2162 9.63456E-05-2.30977E-05-3.14551E-05-1.03847E-05-1.91594E-18-1.02413E-18
 -1      2163 9.59220E-05-2.68961E-05-2.95759E-05-3.98374E-06 3.70909E-19 1.15277E-18
 -1      2164 4.83429E-05-3.87947E-05-4.51940E-06 4.27192E-05 8.56774E-19 5.31683E-18
 -1      2165 9.55763E-05-2.82437E-05-2.88534E-05 1.07977E-06-3.69647E-19 1.10679E-18
 -1      2166 2.04069E-05-2.69033E-05 2.32114E-06 2.15974E-05 7.25907E-19 3.46775E-18
 -1      2167 1.78598E-05-2.52450E-05 2.73339E-06-8.74362E-06 2.16798E-18-8.29245E-19
 -1      2168 9.54178E-05-2.59548E-05-2.97737E-05-4.56493E-06 5.12379E-19 2.50904E-18
 -1      2169 4.16957E-05-3.74556E-05-2.36450E-06-3.16895E-05 3.57109E-18 6.19350E-18
 -1      2170 8.20751E-05-5.31291E-05-1.28296E-05-3.92382E-05 2.65079E-18 3.26920E-18
 -1      2171 1.24233E-04-5.33652E-05-3.00802E-05 3.62190E-05 4.59050E-18 3.51053E-18
 -1      2172 9.54038E-05-2.55302E-05-2.99278E-05-6.07227E-06 5.79953E-19 1.35873E-18
 -1      2173 1.24550E-04-6.26548E-05-2.66638E-05-3.02447E-05 3.22296E-19 1.36542E-18
 -1      2174 1.59735E-04-6.02104E-05-4.20288E-05-1.30329E-05-1.02216E-18 9.99075E-19
 -1      2175 1.78519E-04-4.65065E-05-5.54422E-05 4.42046E-06-1.70571E-18-4.34104E-19
 -1      2176 1.79651E-04-2.91450E-05-6.29635E-05 7.78192E-06-2.95487E-18-1.26377E-18
 -1      2177 1.80482E-04-2.39483E-05-6.55317E-05-1.55473E-06-1.81858E-18-1.99212E-19
 -1      2178 1.82464E-04-3.50477E-05-6.15125E-05-9.33537E-06-2.17264E-18 5.93770E-19
 -1      2179 1.74518E-04-5.30826E-05-5.11648E-05-2.00700E-06-1.11599E-18 2.19382E-19
 -1      2180 1.50478E-04-6.41389E-05-3.67573E-05 1.65933E-05-5.86570E-19 6.99649E-19
 -1      2181 1.11074E-04-6.10392E-05-2.16588E-05 3.31150E-05 1.02915E-19-4.74974E-19
 -1      2182 6.27370E-05-4.42610E-05-8.16558E-06 3.68114E-05 1.19093E-18-2.12351E-18
 -1      2183 2.49359E-05-2.77488E-05 8.78085E-07 1.92890E-05 6.32310E-19-1.29257E-18
 -1      2184 1.35141E-05-2.49015E-05 4.20441E-06-7.38695E-06 1.37714E-18-3.39745E-18
 -1      2185 2.92813E-05-3.17867E-05 4.95431E-07-3.30380E-05 1.77792E-18-1.37241E-18
 -1      2186 6.55278E-05-4.36763E-05-9.66169E-06-4.68957E-05 2.08794E-18 1.90529E-19
 -1      2187 1.04426E-04-5.16493E-05-2.25613E-05-4.32681E-05 7.60636E-19-8.83667E-19
 -1      2188 1.36365E-04-4.98568E-05-3.65365E-05-2.98493E-05 1.01453E-18-1.97952E-18
 -1      2189 1.55918E-04-3.84723E-05-4.95938E-05-1.26655E-05 1.73509E-18 2.81215E-19
 -1      2190 1.61599E-04-2.15891E-05-5.90207E-05-1.53126E-06 2.75603E-18 1.39591E-18
 -1      2191 1.60027E-04-1.16755E-05-6.27750E-05-5.21601E-08 4.52612E-18 1.56653E-18
 -1      2192 1.61235E-04-2.96322E-05-5.54218E-05 5.84227E-06 4.99178E-18 2.84857E-18
 -1      2193 1.60648E-04-1.52174E-05-6.14208E-05-3.15964E-07 5.32530E-18 1.27161E-18
 -1      2194 8.81381E-05-1.11847E-05-3.30194E-05-3.66201E-06 5.00691E-19-2.83192E-18
 -1      2195 8.83721E-05-1.14556E-05-3.30014E-05-4.80405E-06 2.44697E-19-2.94572E-18
 -1      2196 8.87249E-05-1.19408E-05-3.29527E-05-5.82111E-06 4.67948E-20-2.90240E-18
 -1      2197 8.91297E-05-1.24117E-05-3.29243E-05-6.99685E-06-2.37649E-19-2.84300E-18
 -1      2198 8.98919E-05-1.38239E-05-3.25995E-05-4.90288E-06 1.72078E-19-2.68697E-18
 -1      2199 8.77930E-05-1.07258E-05-3.30628E-05 6.15484E-07 1.29514E-18-2.34891E-18
 -1      2200 8.77884E-05-1.07208E-05-3.30631E-05-4.95852E-07 1.07362E-18-2.48899E-18
 -1      2201 8.79740E-05-1.09509E-05-3.30443E-05 2.75839E-06 1.69745E-18-2.00517E-18
 -1      2202 8.78593E-05-1.08178E-05-3.30537E-05 1.63854E-06 1.48901E-18-2.19630E-18
 -1      2203 8.91109E-05-1.27720E-05-3.27199E-05 1.04962E-06 1.32437E-18-2.10854E-18
 -1      2204 8.84075E-05-1.14981E-05-3.29988E-05 4.88905E-06 1.97802E-18-1.67952E-18
 -1      2205 8.81687E-05-1.12215E-05-3.30171E-05 3.76523E-06 1.82461E-18-1.93265E-18
 -1      2206 8.93767E-05-1.31282E-05-3.26798E-05 3.02178E-06 1.71296E-18-1.84326E-18
 -1      2207 8.91855E-05-1.24804E-05-3.29195E-05 7.07697E-06 2.31446E-18-9.82638E-19
 -1      2208 8.87680E-05-1.19937E-05-3.29488E-05 5.90488E-06 2.13616E-18-1.36623E-18
 -1      2209 8.99324E-05-1.38758E-05-3.25949E-05 4.97726E-06 1.93957E-18-1.36724E-18
 -1      2210 9.04556E-05-1.40902E-05-3.27922E-05 9.22466E-06 2.55338E-18-1.60691E-19
 -1      2211 8.97748E-05-1.32797E-05-3.28376E-05 8.04695E-06 2.36582E-18-6.55630E-19
 -1      2212 9.08671E-05-1.51351E-05-3.24495E-05 6.87178E-06 2.23437E-18-6.93065E-19
 -1      2213 9.24525E-05-1.66886E-05-3.25719E-05 1.10611E-05 2.66925E-18 8.07117E-19
 -1      2214 9.13582E-05-1.53128E-05-3.26549E-05 1.00427E-05 2.61345E-18 3.04039E-19
 -1      2215 9.22925E-05-1.70918E-05-3.22084E-05 8.53073E-06 2.35910E-18 1.65519E-19
 -1      2216 9.54953E-05-2.08211E-05-3.20973E-05 1.17074E-05 2.40494E-18 2.61139E-18
 -1      2217 9.38069E-05-1.84799E-05-3.23212E-05 1.14743E-05 2.51959E-18 1.48890E-18
 -1      2218 9.43360E-05-2.00427E-05-3.17902E-05 9.48885E-06 2.31838E-18 1.15567E-18
 -1      2219 9.75073E-05-2.45949E-05-3.13113E-05 9.84905E-06 2.04074E-18 4.22617E-18
 -1      2220 9.62709E-05-2.22277E-05-3.17297E-05 1.10950E-05 2.24578E-18 3.32401E-18
 -1      2221 9.58069E-05-2.31960E-05-3.11174E-05 8.79665E-06 2.21567E-18 2.48824E-18
 -1      2222 9.63151E-05-2.56689E-05-3.02834E-05 6.88262E-06 1.88822E-18 3.94587E-18
 -1      2223 1.50108E-04-2.50678E-05-5.39651E-05 9.26972E-06-1.28707E-18-1.81329E-18
 -1      2224 9.59087E-05-2.50901E-05-3.03030E-05-6.18923E-06-1.50059E-18-1.13086E-18
 -1      2225 9.52493E-05-2.58495E-05-2.97593E-05-4.28359E-06-1.29609E-18-1.10280E-18
 -1      2226 1.01939E-04-5.37954E-05-2.07399E-05 4.49498E-05 2.47164E-18 3.21115E-18
 -1      2227 8.30184E-05-4.87538E-05-1.45031E-05 4.62542E-05 9.69429E-19 2.71580E-18
 -1      2228 3.95043E-05-2.89616E-05-4.22375E-06-2.95516E-05 3.75765E-18 4.84460E-18
 -1      2229 5.66666E-05-3.78842E-05-7.96726E-06-3.81790E-05 4.57123E-18 5.97455E-18
 -1      2230 9.51339E-05-2.65345E-05-2.93424E-05-2.94107E-06-1.12670E-18-9.61336E-19
 -1      2231 9.46656E-05-2.69073E-05-2.90390E-05-1.88002E-06-8.67033E-19-9.84810E-19
 -1      2232 9.53346E-05-2.53518E-05-2.99949E-05-4.29736E-06-1.23008E-18-1.28153E-18
 -1      2233 9.44689E-05-2.72365E-05-2.87754E-05-1.03008E-06-8.51081E-19-8.99233E-19
 -1      2234 9.42105E-05-2.74499E-05-2.86091E-05-4.28295E-07-6.92034E-19-9.60060E-19
 -1      2235 9.50312E-05-2.66995E-05-2.92978E-05-1.92433E-06-8.87518E-19-1.20261E-18
 -1      2236 9.40618E-05-2.76298E-05-2.84480E-05 7.95219E-08-6.47582E-19-9.04127E-19
 -1      2237 9.39632E-05-2.77746E-05-2.83644E-05 4.10380E-07-7.70932E-19-8.76914E-19
 -1      2238 9.47252E-05-2.74266E-05-2.88550E-05-4.44366E-07-7.61087E-19-1.08388E-18
 -1      2239 9.38763E-05-2.78886E-05-2.82677E-05 7.04100E-07-7.86575E-19-8.41908E-19
 -1      2240 9.38842E-05-2.79996E-05-2.82345E-05 8.73256E-07-6.19958E-19-9.17965E-19
 -1      2241 9.45201E-05-2.78586E-05-2.85788E-05 4.39262E-07-8.20031E-19-9.97408E-19
 -1      2242 9.38548E-05-2.80678E-05-2.81879E-05 1.00461E-06-4.78234E-19-8.33435E-19
 -1      2243 9.39247E-05-2.81509E-05-2.81870E-05 1.06438E-06-4.21348E-19-6.93180E-19
 -1      2244 9.44296E-05-2.81333E-05-2.84202E-05 9.15119E-07-5.89875E-19-5.77417E-19
 -1      2245 9.39326E-05-2.81990E-05-2.81689E-05 1.10793E-06-3.87645E-19-4.51569E-19
 -1      2246 9.40337E-05-2.82642E-05-2.81854E-05 1.10835E-06-2.56382E-19-2.53748E-19
 -1      2247 9.44239E-05-2.83043E-05-2.83420E-05 1.12155E-06-2.92798E-19-3.74686E-19
 -1      2248 9.40644E-05-2.82976E-05-2.81853E-05 1.09849E-06-3.94126E-19-2.87505E-19
 -1      2249 9.41780E-05-2.83491E-05-2.82112E-05 1.06583E-06-2.46191E-19-5.16463E-19
 -1      2250 9.44729E-05-2.84178E-05-2.83126E-05 1.17211E-06-4.01422E-19 9.44770E-20
 -1      2251 9.42214E-05-2.83719E-05-2.82221E-05 1.02687E-06-2.61044E-19-6.78628E-19
 -1      2252 9.43363E-05-2.84119E-05-2.82523E-05 9.78643E-07-1.52694E-19-1.02651E-18
 -1      2253 9.45536E-05-2.84917E-05-2.83143E-05 1.13140E-06-5.03297E-19-3.54385E-19
 -1      2254 9.43857E-05-2.84266E-05-2.82697E-05 9.27395E-07 4.51961E-21-9.67710E-19
 -1      2255 9.44958E-05-2.84570E-05-2.83014E-05 8.75565E-07 1.67842E-19-9.29699E-19
 -1      2256 9.46501E-05-2.85370E-05-2.83354E-05 1.04399E-06-1.25018E-19-3.54681E-19
 -1      2257 9.45471E-05-2.84655E-05-2.83225E-05 8.23757E-07 2.22043E-19-1.07847E-18
 -1      2258 9.46501E-05-2.84880E-05-2.83541E-05 7.76698E-07 3.57839E-19-1.07907E-18
 -1      2259 9.47526E-05-2.85613E-05-2.83684E-05 9.40880E-07 1.27006E-19-6.04525E-19
 -1      2260 9.47016E-05-2.84916E-05-2.83776E-05 7.32734E-07 2.15000E-20-1.23884E-18
 -1      2261 9.47980E-05-2.85077E-05-2.84088E-05 6.96574E-07-2.97426E-19-1.22413E-18
 -1      2262 9.48558E-05-2.85696E-05-2.84088E-05 8.43978E-07 1.49550E-19-8.96316E-19
 -1      2263 9.48494E-05-2.85073E-05-2.84341E-05 6.66824E-07-4.47555E-19-1.06926E-18
 -1      2264 9.49420E-05-2.85184E-05-2.84655E-05 6.46421E-07-6.85974E-19-9.35139E-19
 -1      2265 9.49579E-05-2.85653E-05-2.84544E-05 7.69371E-07-3.05837E-19-1.38165E-18
 -1      2266 9.49970E-05-2.85142E-05-2.84942E-05 6.35989E-07-9.52374E-19-7.58139E-19
 -1      2267 9.50940E-05-2.85215E-05-2.85287E-05 6.36965E-07-9.78847E-19-6.94483E-19
 -1      2268 9.50623E-05-2.85499E-05-2.85059E-05 7.29619E-07-7.70574E-19-8.15815E-19
 -1      2269 9.51486E-05-2.85139E-05-2.85592E-05 6.53044E-07-7.05082E-19-2.06581E-19
 -1      2270 9.52475E-05-2.85180E-05-2.85952E-05 6.79726E-07-2.98438E-19-2.42644E-19
 -1      2271 9.51695E-05-2.85235E-05-2.85633E-05 7.38494E-07-5.99464E-19 3.12118E-19
 -1      2272 9.53071E-05-2.85062E-05-2.86302E-05 7.26739E-07-3.73551E-19-6.36540E-20
 -1      2273 9.54194E-05-2.85080E-05-2.86720E-05 7.85085E-07 1.57738E-19-2.46770E-19
 -1      2274 9.52808E-05-2.84865E-05-2.86270E-05 8.06952E-07-4.15342E-19 6.94568E-19
 -1      2275 9.54862E-05-2.84908E-05-2.87135E-05 8.70478E-07 3.52858E-19-8.61644E-19
 -1      2276 9.56205E-05-2.84905E-05-2.87642E-05 9.68583E-07 8.67094E-20-1.25650E-18
 -1      2277 9.54034E-05-2.84357E-05-2.87017E-05 9.48316E-07-3.07037E-19-1.15211E-19
 -1      2278 9.56965E-05-2.84654E-05-2.88146E-05 1.10205E-06 3.31540E-20-1.40443E-18
 -1      2279 9.58634E-05-2.84627E-05-2.88781E-05 1.25095E-06-3.40637E-19-1.11209E-18
 -1      2280 9.55416E-05-2.83657E-05-2.87911E-05 1.18033E-06 2.20086E-20-1.96703E-19
 -1      2281 9.59496E-05-2.84257E-05-2.89404E-05 1.44546E-06-1.04558E-18-1.18667E-18
 -1      2282 9.61614E-05-2.84194E-05-2.90216E-05 1.66027E-06-1.01396E-18-1.38053E-18
 -1      2283 9.56985E-05-2.82681E-05-2.89003E-05 1.52629E-06-8.85021E-19-1.61836E-19
 -1      2284 9.62569E-05-2.83643E-05-2.90990E-05 1.93312E-06-6.53183E-19-1.37324E-18
 -1      2285 9.65280E-05-2.83523E-05-2.92038E-05 2.23430E-06-4.98968E-19-1.09655E-18
 -1      2286 9.58743E-05-2.81302E-05-2.90346E-05 2.01693E-06-9.18257E-19-2.73196E-19
 -1      2287 9.66279E-05-2.82700E-05-2.92996E-05 2.60825E-06-8.12688E-20-1.22652E-18
 -1      2288 9.69748E-05-2.82494E-05-2.94348E-05 3.02289E-06 4.47147E-19-8.40502E-19
 -1      2289 9.60634E-05-2.79333E-05-2.91994E-05 2.69249E-06-5.08116E-19-3.11993E-19
 -1      2290 9.70689E-05-2.81274E-05-2.95516E-05 3.52723E-06-3.76260E-20-7.54442E-19
 -1      2291 9.75127E-05-2.80955E-05-2.97249E-05 4.08891E-06-5.90120E-19-7.62121E-19
 -1      2292 9.62516E-05-2.76521E-05-2.93990E-05 3.60422E-06 1.96922E-19-8.10418E-19
 -1      2293 9.75876E-05-2.79096E-05-2.98702E-05 4.79403E-06-2.19309E-19-4.62815E-19
 -1      2294 9.81703E-05-2.78609E-05-3.00998E-05 5.59113E-06-6.38650E-20-4.24910E-19
 -1      2295 9.64143E-05-2.72471E-05-2.96409E-05 4.85215E-06-1.23903E-19-1.14862E-18
 -1      2296 9.81839E-05-2.76151E-05-3.02561E-05 6.47821E-06-2.04320E-19 5.26854E-19
 -1      2297 9.88826E-05-2.75690E-05-3.05240E-05 7.46709E-06 1.64323E-19 7.91197E-19
 -1      2298 9.65011E-05-2.66888E-05-2.99116E-05 6.48689E-06 2.31478E-19 1.79398E-19
 -1      2299 9.88178E-05-2.72641E-05-3.06835E-05 8.60130E-06 2.79554E-19 4.68595E-19
 -1      2300 9.96872E-05-2.72609E-05-3.09943E-05 9.83611E-06 5.68865E-19 3.42196E-19
 -1      2301 9.64555E-05-2.59996E-05-3.01814E-05 8.53592E-06 2.62777E-19 9.48185E-19
 -1      2302 9.95356E-05-2.69559E-05-3.11277E-05 1.12417E-05 3.26314E-19 1.18673E-19
 -1      2303 1.00642E-04-2.71198E-05-3.14595E-05 1.26809E-05 1.75587E-19 8.26823E-19
 -1      2304 9.62432E-05-2.52489E-05-3.04060E-05 1.10877E-05 2.72452E-19 7.30386E-19
 -1      2305 1.00488E-04-2.70010E-05-3.15145E-05 1.43415E-05-2.20912E-19 9.55308E-19
 -1      2306 1.01987E-04-2.76186E-05-3.18208E-05 1.58102E-05 3.09227E-19 1.00208E-18
 -1      2307 9.59262E-05-2.47226E-05-3.04938E-05 1.41506E-05 6.00235E-20 1.47786E-18
 -1      2308 1.02146E-04-2.81200E-05-3.17223E-05 1.76189E-05 3.03892E-19 5.55790E-19
 -1      2309 1.04401E-04-2.97580E-05-3.19344E-05 1.86962E-05 4.13797E-19 1.77776E-19
 -1      2310 9.58549E-05-2.51196E-05-3.03039E-05 1.76363E-05 1.85494E-19 8.64247E-19
 -1      2311 1.05667E-04-3.17049E-05-3.16155E-05 2.03415E-05 7.91251E-19-3.08878E-19
 -1      2312 1.09353E-04-3.52395E-05-3.16958E-05 2.02267E-05 7.95893E-19-7.91122E-19
 -1      2313 9.70330E-05-2.78527E-05-2.96733E-05 2.12658E-05 2.56661E-19 6.61109E-19
 -1      2314 1.13295E-04-3.97835E-05-3.12520E-05 2.08029E-05 3.39131E-19-1.38080E-18
 -1      2315 1.19169E-04-4.56932E-05-3.13983E-05 1.82243E-05-7.03779E-19-7.10737E-19
 -1      2316 1.01705E-04-3.52292E-05-2.85857E-05 2.42994E-05-2.19170E-20-6.05999E-19
 -1      2317 1.27184E-04-5.27799E-05-3.15023E-05 1.59760E-05-1.07052E-18-5.10787E-19
 -1      2318 1.34290E-04-5.85646E-05-3.24437E-05 1.01649E-05-8.38245E-19-5.48719E-20
 -1      2319 1.12874E-04-4.82118E-05-2.77759E-05 2.47205E-05-6.57298E-19 4.84926E-20
 -1      2320 1.47765E-04-6.35949E-05-3.59126E-05 5.48629E-07-3.70789E-19 6.69368E-19
 -1      2321 1.53446E-04-6.27643E-05-3.88339E-05-7.44521E-06 1.68665E-19 8.31998E-19
 -1      2322 1.53372E-04-4.32110E-05-4.76306E-05 2.41904E-05-8.57409E-19-5.77719E-18
 -1      2323 6.26024E-05-3.93084E-05-9.90407E-06 4.73095E-05 6.95838E-19 3.43154E-18
 -1      2324 4.55391E-05-3.19555E-05-5.49664E-06 4.02499E-05-8.73291E-19 6.07090E-18
 -1      2325 1.37099E-04-5.86379E-05-3.36699E-05-7.07653E-06 1.48241E-18-2.90293E-18
 -1      2326 1.29700E-04-5.30282E-05-3.25536E-05-1.39359E-05 2.06790E-18-1.95065E-18
 -1      2327 1.21213E-04-4.61291E-05-3.21778E-05-1.75494E-05 2.05310E-18-2.11173E-18
 -1      2328 1.15425E-04-4.03952E-05-3.19369E-05-2.03442E-05 2.29885E-18-1.67223E-18
 -1      2329 1.18471E-04-5.00526E-05-2.94750E-05-2.21096E-05 2.05241E-18-7.92426E-19
 -1      2330 1.11136E-04-3.60591E-05-3.21577E-05-2.04462E-05 2.21457E-18-3.87258E-19
 -1      2331 1.07321E-04-3.25289E-05-3.19618E-05-2.07281E-05 2.09559E-18 8.59302E-19
 -1      2332 1.05854E-04-3.67687E-05-2.96819E-05-2.37935E-05 2.67366E-18 6.84641E-19
 -1      2333 1.05550E-04-3.05826E-05-3.21051E-05-1.95261E-05 1.17625E-18 6.88998E-19
 -1      2334 1.03026E-04-2.88102E-05-3.17874E-05-1.85552E-05 7.48900E-19 1.01330E-18
 -1      2335 1.00168E-04-2.94990E-05-3.03161E-05-2.20287E-05 1.89135E-18 1.40184E-18
 -1      2336 1.02385E-04-2.81955E-05-3.17591E-05-1.69423E-05 4.54293E-19 1.30730E-18
 -1      2337 1.00565E-04-2.73813E-05-3.13687E-05-1.55230E-05-3.53805E-19 1.16164E-18
 -1      2338 9.78604E-05-2.64085E-05-3.06245E-05-1.89752E-05 1.06828E-18 2.34156E-18
 -1      2339 1.00298E-04-2.73202E-05-3.12334E-05-1.39096E-05-1.49546E-18 6.94962E-19
 -1      2340 9.88842E-05-2.69154E-05-3.08480E-05-1.24381E-05-1.88697E-18 9.28455E-19
 -1      2341 9.69621E-05-2.55361E-05-3.06015E-05-1.56575E-05-1.41143E-18 1.31391E-18
 -1      2342 9.86658E-05-2.69705E-05-3.06813E-05-1.09327E-05-1.01617E-18 8.85512E-19
 -1      2343 9.75343E-05-2.66888E-05-3.03508E-05-9.54507E-06 1.53058E-19-7.86776E-20
 -1      2344 9.64334E-05-2.54832E-05-3.04024E-05-1.24999E-05-1.44663E-18 2.06327E-18
 -1      2345 9.68174E-05-2.62527E-05-3.01974E-05-8.48795E-06 1.00289E-19 9.62207E-19
 -1      2346 9.59295E-05-2.59639E-05-2.99627E-05-7.12603E-06 9.77066E-21 1.39807E-18
 -1      2347 9.43073E-05-2.43183E-05-3.00334E-05-7.43645E-06 6.70238E-19 1.11452E-18
 -1      2348 9.53618E-05-2.51000E-05-3.01403E-05-9.78976E-06 4.10684E-19 1.23245E-18
 -1      2349 9.37038E-05-2.78490E-05-2.82199E-05-6.55692E-07 9.46001E-19 1.30436E-18
 -1      2350 9.37369E-05-2.77345E-05-2.82689E-05-4.24663E-07 9.83055E-19 1.39669E-18
 -1      2351 9.38638E-05-2.76111E-05-2.83894E-05-4.15902E-08 1.02774E-18 1.42759E-18
 -1      2352 9.40391E-05-2.74560E-05-2.85041E-05 3.98789E-07 1.04098E-18 1.61157E-18
 -1      2353 9.44492E-05-2.76572E-05-2.86372E-05-4.23342E-08 1.13199E-18 8.88390E-19
 -1      2354 9.42414E-05-2.72380E-05-2.87097E-05 1.06514E-06 1.10354E-18 1.75418E-18
 -1      2355 9.46031E-05-2.69969E-05-2.89353E-05 1.86460E-06 1.20266E-18 2.07179E-18
 -1      2356 9.47397E-05-2.71496E-05-2.89830E-05 1.10582E-06 1.22882E-18 1.13202E-18
 -1      2357 9.37010E-05-2.80200E-05-2.81464E-05-9.62280E-07 6.85136E-19 1.00264E-18
 -1      2358 9.36475E-05-2.79286E-05-2.81557E-05-8.57983E-07 8.40517E-19 1.19398E-18
 -1      2359 9.42957E-05-2.79690E-05-2.84348E-05-6.94914E-07 1.03957E-18 8.50148E-19
 -1      2360 9.37969E-05-2.81503E-05-2.81323E-05-1.07719E-06 2.82388E-19 1.05965E-18
 -1      2361 9.36957E-05-2.80756E-05-2.81184E-05-1.04949E-06 4.49219E-19 1.01244E-18
 -1      2362 9.42548E-05-2.81727E-05-2.83273E-05-1.02528E-06 6.87501E-19 7.70340E-19
 -1      2363 9.39475E-05-2.82519E-05-2.81539E-05-1.07664E-06 3.77486E-19 9.60133E-19
 -1      2364 9.38246E-05-2.81908E-05-2.81273E-05-1.09361E-06 2.77746E-19 1.11306E-18
 -1      2365 9.42911E-05-2.83108E-05-2.82814E-05-1.15218E-06 3.99816E-19 5.49792E-19
 -1      2366 9.41229E-05-2.83308E-05-2.81955E-05-1.01149E-06 4.82105E-19 1.05478E-18
 -1      2367 9.39942E-05-2.82815E-05-2.81630E-05-1.05202E-06 4.92161E-19 1.08959E-18
 -1      2368 9.43743E-05-2.84053E-05-2.82750E-05-1.15558E-06 3.31423E-19 4.06017E-19
 -1      2369 9.43039E-05-2.83914E-05-2.82473E-05-9.16258E-07 5.17743E-19 1.34366E-18
 -1      2370 9.41787E-05-2.83522E-05-2.82128E-05-9.66163E-07 6.37690E-19 1.40506E-18
 -1      2371 9.44821E-05-2.84689E-05-2.82929E-05-1.08991E-06 4.02730E-19 9.67169E-19
 -1      2372 9.44801E-05-2.84369E-05-2.83034E-05-8.14489E-07 1.44702E-19 1.24413E-18
 -1      2373 9.43629E-05-2.84063E-05-2.82690E-05-8.64151E-07 5.59264E-19 1.37648E-18
 -1      2374 9.45999E-05-2.85097E-05-2.83252E-05-9.92526E-07 5.41715E-19 1.14581E-18
 -1      2375 9.46472E-05-2.84705E-05-2.83605E-05-7.22331E-07-1.66821E-19 8.58124E-19
 -1      2376 9.45390E-05-2.84467E-05-2.83273E-05-7.65188E-07-7.62004E-20 1.00039E-18
 -1      2377 9.47189E-05-2.85334E-05-2.83657E-05-8.89126E-07 2.65096E-19 1.09076E-18
 -1      2378 9.48052E-05-2.84949E-05-2.84175E-05-6.50921E-07-2.77027E-20 3.62714E-19
 -1      2379 9.47048E-05-2.84765E-05-2.83855E-05-6.82458E-07-1.83136E-19 3.63413E-19
 -1      2380 9.48354E-05-2.85444E-05-2.84107E-05-7.97465E-07 9.75197E-20 5.25103E-19
 -1      2381 9.49574E-05-2.85133E-05-2.84746E-05-6.07978E-07 3.01547E-19 1.51606E-19
 -1      2382 9.48618E-05-2.84983E-05-2.84433E-05-6.25082E-07 1.91015E-19 3.00134E-19
 -1      2383 9.49487E-05-2.85463E-05-2.84584E-05-7.29873E-07 2.79435E-19-3.90361E-19
 -1      2384 9.51096E-05-2.85288E-05-2.85329E-05-5.98788E-07 7.06346E-20-4.24378E-19
 -1      2385 9.50147E-05-2.85152E-05-2.85012E-05-5.99370E-07 2.43591E-19 8.29015E-20
 -1      2386 9.50611E-05-2.85423E-05-2.85084E-05-6.94928E-07 2.62058E-19-4.89639E-19
 -1      2387 9.52692E-05-2.85449E-05-2.85939E-05-6.26621E-07 8.38782E-19-4.57329E-19
 -1      2388 9.51700E-05-2.85306E-05-2.85609E-05-6.09507E-07 5.16951E-19-4.97275E-19
 -1      2389 9.51768E-05-2.85357E-05-2.85610E-05-6.98461E-07 3.27649E-19-8.65960E-19
 -1      2390 9.54446E-05-2.85661E-05-2.86597E-05-6.92598E-07 6.01054E-19-1.67531E-19
 -1      2391 9.53358E-05-2.85485E-05-2.86239E-05-6.57680E-07 6.76394E-19-2.57758E-19
 -1      2392 9.53017E-05-2.85303E-05-2.86171E-05-7.43924E-07 6.27980E-19-2.02264E-19
 -1      2393 9.56453E-05-2.85981E-05-2.87317E-05-7.94949E-07 5.15506E-19 2.36314E-19
 -1      2394 9.55215E-05-2.85739E-05-2.86922E-05-7.43636E-07 4.82416E-19 4.29737E-20
 -1      2395 9.54430E-05-2.85313E-05-2.86775E-05-8.32132E-07 6.53082E-19 2.94317E-19
 -1      2396 9.58808E-05-2.86479E-05-2.88113E-05-9.27604E-07 1.06468E-21 1.06802E-18
 -1      2397 9.57369E-05-2.86134E-05-2.87673E-05-8.63596E-07 4.21538E-19 4.88106E-19
 -1      2398 9.56097E-05-2.85456E-05-2.87431E-05-9.60314E-07 2.09801E-19 4.63214E-19
 -1      2399 9.61600E-05-2.87249E-05-2.88983E-05-1.07808E-06 4.33643E-20 1.21264E-18
 -1      2400 9.59924E-05-2.86752E-05-2.88498E-05-1.00847E-06 6.62208E-20 1.05656E-18
 -1      2401 9.58117E-05-2.85828E-05-2.88141E-05-1.12043E-06-8.14967E-20 3.17156E-19
 -1      2402 9.64905E-05-2.88405E-05-2.89914E-05-1.22477E-06-1.71786E-19 1.24007E-18
 -1      2403 9.62974E-05-2.87703E-05-2.89393E-05-1.16141E-06 1.77236E-19 1.42887E-18
 -1      2404 9.60605E-05-2.86563E-05-2.88896E-05-1.29669E-06 5.39795E-20 1.17615E-18
 -1      2405 9.68760E-05-2.90077E-05-2.90868E-05-1.33381E-06-3.61614E-19 1.25557E-18
 -1      2406 9.66596E-05-2.89115E-05-2.90333E-05-1.29475E-06-2.44735E-19 1.08339E-18
 -1      2407 9.63682E-05-2.87829E-05-2.89675E-05-1.46248E-06-2.02387E-20 1.24259E-18
 -1      2408 9.73146E-05-2.92397E-05-2.91783E-05-1.35654E-06-1.37103E-19 7.87531E-19
 -1      2409 9.70822E-05-2.91128E-05-2.91274E-05-1.36704E-06-2.35452E-19 1.04126E-18
 -1      2410 9.67469E-05-2.89829E-05-2.90443E-05-1.57696E-06-7.58877E-20 1.29336E-18
 -1      2411 9.77943E-05-2.95455E-05-2.92571E-05-1.22864E-06-2.77134E-19 1.73890E-18
 -1      2412 9.75613E-05-2.93869E-05-2.92145E-05-1.32098E-06-4.42555E-19 9.01703E-19
 -1      2413 9.72061E-05-2.92774E-05-2.91149E-05-1.58233E-06-2.95251E-19 1.75622E-18
 -1      2414 9.82882E-05-2.99233E-05-2.93121E-05-8.73713E-07 1.11782E-19 1.23014E-18
 -1      2415 9.80801E-05-2.97391E-05-2.92851E-05-1.08438E-06 2.06175E-19 1.18500E-18
 -1      2416 9.77483E-05-2.96823E-05-2.91736E-05-1.40341E-06-4.46357E-20 9.77669E-19
 -1      2417 9.87465E-05-3.03490E-05-2.93320E-05-2.14646E-07-8.43244E-20 1.09715E-18
 -1      2418 9.86016E-05-3.01583E-05-2.93286E-05-5.77232E-07 2.19564E-19 1.14341E-18
 -1      2419 9.83612E-05-3.01972E-05-2.92148E-05-9.52465E-07 3.61321E-20 1.13904E-18
 -1      2420 9.90901E-05-3.07617E-05-2.93075E-05 8.03140E-07-2.05761E-19 8.19921E-19
 -1      2421 9.90598E-05-3.06028E-05-2.93350E-05 2.71171E-07-2.28664E-19 7.19450E-19
 -1      2422 9.90055E-05-3.07889E-05-2.92355E-05-1.43394E-07 6.15017E-20 1.04350E-18
 -1      2423 9.92058E-05-3.10511E-05-2.92354E-05 2.17377E-06-1.94874E-19 2.03512E-18
 -1      2424 9.93510E-05-3.09858E-05-2.92978E-05 1.49070E-06-1.83265E-19 1.82964E-18
 -1      2425 9.95997E-05-3.13696E-05-2.92379E-05 1.07969E-06-6.68359E-19 1.26328E-18
 -1      2426 9.89553E-05-3.10584E-05-2.91215E-05 3.78158E-06-9.24556E-20 2.33079E-18
 -1      2427 9.93341E-05-3.11665E-05-2.92175E-05 3.02389E-06 3.90524E-19 2.31299E-18
 -1      2428 1.00008E-04-3.17811E-05-2.92313E-05 2.69590E-06-1.75875E-19 2.39205E-18
 -1      2429 9.82086E-05-3.06103E-05-2.89827E-05 5.35744E-06-6.36764E-21 1.96710E-18
 -1      2430 9.88529E-05-3.09661E-05-2.91037E-05 4.67428E-06-1.55224E-19 1.82235E-18
 -1      2431 1.00044E-04-3.18017E-05-2.92318E-05 4.54732E-06 1.84029E-19 1.92397E-18
 -1      2432 9.69135E-05-2.95995E-05-2.88428E-05 6.47788E-06-2.55063E-19 1.82729E-18
 -1      2433 9.77956E-05-3.02278E-05-2.89739E-05 6.07881E-06-2.64921E-20 1.59397E-18
 -1      2434 9.95194E-05-3.12053E-05-2.92585E-05 6.28878E-06 2.05407E-19 6.19195E-19
 -1      2435 9.51855E-05-2.80973E-05-2.87260E-05 6.65305E-06 4.85840E-20 1.35280E-18
 -1      2436 9.61890E-05-2.89218E-05-2.88488E-05 6.75130E-06-5.51776E-20 1.65068E-18
 -1      2437 9.83443E-05-2.98821E-05-2.93235E-05 7.39794E-06 3.02004E-19 3.56380E-20
 -1      2438 9.33676E-05-2.64340E-05-2.86463E-05 5.52395E-06 7.58156E-19 9.70251E-19
 -1      2439 9.42885E-05-2.72558E-05-2.87438E-05 6.23730E-06 1.74001E-19 5.32666E-19
 -1      2440 9.66560E-05-2.79910E-05-2.94214E-05 7.30436E-06 4.31463E-19 5.02525E-19
 -1      2441 9.19765E-05-2.51458E-05-2.86033E-05 3.10708E-06-3.18809E-19 1.53365E-18
 -1      2442 9.25760E-05-2.56956E-05-2.86644E-05 4.35777E-06 8.58834E-19 1.45356E-18
 -1      2443 9.48875E-05-2.60261E-05-2.95236E-05 5.65381E-06-3.52842E-20 1.05495E-19
 -1      2444 9.14943E-05-2.47387E-05-2.85860E-05-7.32659E-08 1.54445E-19 8.28735E-19
 -1      2445 9.16013E-05-2.48083E-05-2.86056E-05 1.41860E-06-4.76681E-19 1.13946E-18
 -1      2446 9.36630E-05-2.46948E-05-2.95861E-05 2.60147E-06 1.02951E-20-1.11691E-19
 -1      2447 9.20931E-05-2.53822E-05-2.85878E-05-3.14516E-06 2.25165E-19-8.18925E-20
 -1      2448 9.16890E-05-2.49485E-05-2.85651E-05-1.81581E-06 6.52612E-19 5.69278E-19
 -1      2449 9.34759E-05-2.45397E-05-2.95729E-05-1.08958E-06 5.42245E-19-2.83181E-19
 -1      2450 9.35287E-05-2.68072E-05-2.86093E-05-5.28062E-06 5.11037E-19-1.36273E-19
 -1      2451 9.27575E-05-2.60440E-05-2.85490E-05-4.44770E-06 1.18517E-19-1.58145E-19
 -1      2452 9.43833E-05-2.56281E-05-2.94815E-05-4.35295E-06 5.86660E-19-4.26325E-19
 -1      2453 9.52766E-05-2.84672E-05-2.86541E-05-6.05423E-06-5.38142E-19-6.26424E-21
 -1      2454 9.43733E-05-2.76445E-05-2.85667E-05-5.84824E-06 1.15292E-19 2.32244E-19
 -1      2455 9.59708E-05-2.75002E-05-2.93411E-05-6.32080E-06-7.12322E-20-4.21250E-19
 -1      2456 9.68108E-05-2.98425E-05-2.87198E-05-5.54925E-06 2.08412E-19 2.67855E-19
 -1      2457 9.59977E-05-2.91883E-05-2.86211E-05-5.88661E-06-1.28255E-19 4.24380E-19
 -1      2458 9.76094E-05-2.94487E-05-2.91952E-05-6.69082E-06-6.58959E-19 8.11411E-19
 -1      2459 9.78113E-05-3.06503E-05-2.87951E-05-4.19498E-06 3.95376E-19 3.02926E-19
 -1      2460 9.72285E-05-3.02746E-05-2.87025E-05-4.86576E-06 5.69458E-19 6.00097E-19
 -1      2461 9.87934E-05-3.08963E-05-2.90787E-05-5.72881E-06 8.92689E-20 9.47345E-19
 -1      2462 9.82037E-05-3.08662E-05-2.88629E-05-2.51431E-06 1.01906E-18-2.21155E-19
 -1      2463 9.78956E-05-3.07661E-05-2.87911E-05-3.28809E-06 9.51426E-19 3.22115E-19
 -1      2464 9.93091E-05-3.15917E-05-2.90054E-05-4.00426E-06 4.95437E-19 9.51200E-19
 -1      2465 9.80835E-05-3.06249E-05-2.89083E-05-9.37713E-07 2.02711E-19-1.95672E-19
 -1      2466 9.80233E-05-3.07337E-05-2.88650E-05-1.63339E-06 9.34969E-19-1.16565E-19
 -1      2467 9.92039E-05-3.15858E-05-2.89692E-05-2.09863E-06 1.31770E-18 6.84206E-19
 -1      2468 9.76155E-05-3.01066E-05-2.89245E-05 2.65825E-07-5.34062E-19-2.52284E-19
 -1      2469 9.77382E-05-3.03421E-05-2.89097E-05-2.42471E-07-4.22339E-19-5.16456E-19
 -1      2470 9.86572E-05-3.10840E-05-2.89552E-05-4.37730E-07-6.01000E-19-3.60502E-19
 -1      2471 9.69605E-05-2.94708E-05-2.89134E-05 9.74870E-07-1.31659E-18 8.66362E-19
 -1      2472 9.71922E-05-2.97593E-05-2.89210E-05 6.99580E-07-6.22171E-19 4.64917E-19
 -1      2473 9.78663E-05-3.03150E-05-2.89486E-05 7.44004E-07-4.37414E-19-2.28693E-19
 -1      2474 9.62679E-05-2.88546E-05-2.88793E-05 1.19227E-06-7.96386E-19 4.74021E-19
 -1      2475 9.65330E-05-2.91295E-05-2.89034E-05 1.13704E-06-8.80236E-19 4.67209E-19
 -1      2476 9.70023E-05-2.94761E-05-2.89389E-05 1.35946E-06-5.84579E-19 1.49589E-18
 -1      2477 9.58027E-05-2.84131E-05-2.88841E-05 1.21529E-06-1.26621E-18 7.64480E-20
 -1      2478 9.53373E-05-2.65148E-05-2.94910E-05 4.36081E-06-6.16942E-20-1.00919E-19
 -1      2479 9.56295E-05-2.70944E-05-2.93632E-05 3.95481E-06-2.08281E-19-1.93517E-18
 -1      2480 9.57855E-05-2.74275E-05-2.92846E-05 3.41480E-06-1.57430E-18-2.24505E-18
 -1      2481 9.59254E-05-2.78465E-05-2.91732E-05 2.96029E-06-1.74266E-18 2.91010E-19
 -1      2482 9.61904E-05-2.79741E-05-2.92494E-05 4.14839E-06-7.85898E-19-9.67507E-19
 -1      2483 9.59321E-05-2.80010E-05-2.90970E-05 2.39871E-06-7.91208E-19 1.17704E-18
 -1      2484 9.59646E-05-2.82710E-05-2.90032E-05 1.99225E-06-7.25959E-19 2.14796E-19
 -1      2485 9.64080E-05-2.84855E-05-2.91097E-05 2.98950E-06-1.26883E-18-4.26220E-19
 -1      2486 2.98686E-05-2.36973E-05-2.39034E-06 3.14073E-05 1.25319E-18 5.72848E-18
 -1      2487 2.13233E-05-1.81781E-05-8.97686E-07 1.61385E-05 5.59412E-19 2.26200E-18
 -1      2488 4.46795E-05-2.56167E-05-7.64711E-06 3.59230E-05-1.68136E-19 4.43464E-18
 -1      2489 9.45093E-05-2.52322E-05-2.96984E-05 5.00011E-06-1.32655E-19-9.24584E-19
 -1      2490 9.49807E-05-2.59552E-05-2.95683E-05 4.78868E-06 2.20835E-19-3.51870E-19
 -1      2491 9.56019E-05-2.70743E-05-2.93825E-05 5.19981E-06 1.86541E-19 7.41819E-20
 -1      2492 9.33356E-05-2.36668E-05-2.98809E-05 5.00898E-06-1.53206E-18-1.27404E-18
 -1      2493 9.39492E-05-2.44615E-05-2.97638E-05 5.12983E-06-6.62766E-19-2.43381E-18
 -1      2494 9.45128E-05-2.57173E-05-2.94954E-05 5.82592E-06-8.51591E-19-1.71048E-18
 -1      2495 9.19840E-05-2.20256E-05-3.00177E-05 4.12539E-06-1.91344E-18 4.98481E-19
 -1      2496 9.26357E-05-2.27669E-05-2.99289E-05 4.67721E-06-2.46418E-18 1.26717E-18
 -1      2497 9.30024E-05-2.40017E-05-2.95758E-05 5.65183E-06-8.68803E-19-9.84246E-19
 -1      2498 9.07643E-05-2.06351E-05-3.00962E-05 2.25996E-06-2.27580E-18 9.48727E-20
 -1      2499 9.12906E-05-2.11626E-05-3.00476E-05 3.24599E-06-2.12447E-18 4.75510E-19
 -1      2500 9.13250E-05-2.21825E-05-2.96242E-05 4.39818E-06-1.67042E-18 7.98258E-19
 -1      2501 9.00656E-05-1.98765E-05-3.01166E-05-3.44777E-07-1.66724E-18-9.68700E-19
 -1      2502 9.02854E-05-2.00367E-05-3.01128E-05 9.15911E-07-2.04912E-18-3.51143E-19
 -1      2503 8.99108E-05-2.06696E-05-2.96529E-05 2.04732E-06-1.59510E-18-5.49459E-19
 -1      2504 9.01939E-05-2.00243E-05-3.00937E-05-3.28461E-06-7.81239E-20 2.75711E-18
 -1      2505 8.99784E-05-1.97252E-05-3.01308E-05-1.96489E-06-1.04968E-18 3.40744E-19
 -1      2506 8.92296E-05-1.98870E-05-2.96856E-05-1.11425E-06-4.77879E-19-1.16092E-19
 -1      2507 9.13253E-05-2.12220E-05-3.00494E-05-5.79703E-06 5.04454E-19 2.86474E-18
 -1      2508 9.06380E-05-2.04495E-05-3.01153E-05-4.79449E-06-2.06498E-19 3.34282E-18
 -1      2509 8.96443E-05-2.01597E-05-2.97478E-05-4.47828E-06-8.29875E-19 2.34185E-18
 -1      2510 9.31939E-05-2.31695E-05-2.99975E-05-7.10919E-06 5.58699E-19 1.98909E-18
 -1      2511 9.21378E-05-2.20456E-05-3.00772E-05-6.73239E-06 5.59071E-19 2.39303E-18
 -1      2512 9.11861E-05-2.14746E-05-2.98451E-05-7.07673E-06-3.50551E-19 2.55858E-18
 -1      2513 9.35424E-05-2.35130E-05-2.99717E-05-8.38097E-06 1.07185E-18 1.62059E-18
 -1      2514 1.20851E-04-6.35027E-05-2.47286E-05-2.85114E-05 1.54922E-18-7.70165E-19
 -1      2515 1.39673E-04-6.60354E-05-3.17353E-05-2.17617E-05 7.90493E-19-1.29638E-18
 -1      2516 9.50702E-05-2.00235E-05-3.22114E-05-1.17366E-05-1.72676E-18-1.69636E-18
 -1      2517 9.54715E-05-2.33862E-05-3.09249E-05-7.98319E-06-1.67106E-18-1.40879E-18
 -1      2518 9.50654E-05-2.25352E-05-3.10519E-05-7.66670E-06-1.48387E-18-1.61613E-18
 -1      2519 9.32164E-05-1.75770E-05-3.24144E-05-1.13667E-05-1.57477E-18-2.11470E-18
 -1      2520 1.50398E-04-4.46087E-05-4.57080E-05 7.59117E-06 3.95601E-18 1.75569E-18
 -1      2521 1.43198E-04-5.14200E-05-3.93674E-05 1.39220E-05 3.68766E-18 2.64359E-18
 -1      2522 1.54624E-04-6.01921E-05-4.04451E-05 1.09140E-05 7.49796E-19-4.36285E-18
 -1      2523 1.49375E-04-6.30374E-05-3.70350E-05 2.54792E-06 1.58602E-18-3.20104E-18
 -1      2524 8.78448E-05-1.08004E-05-3.30548E-05-1.51881E-06 9.17667E-19-2.63497E-18
 -1      2525 8.79501E-05-1.09225E-05-3.30460E-05-2.63792E-06 6.95459E-19-2.74013E-18
 -1      2526 8.93491E-05-1.30947E-05-3.26824E-05-2.93056E-06 5.70473E-19-2.58134E-18
 -1      2527 8.91008E-05-1.27598E-05-3.27208E-05-9.41262E-07 9.28641E-19-2.40538E-18
 -1      2528 1.44167E-04-1.06625E-05-5.79229E-05-4.53047E-06 4.83868E-18 1.04958E-18
 -1      2529 1.48213E-04-1.70978E-05-5.65467E-05-5.15281E-06 4.58393E-18 1.08823E-18
 -1      2530 1.51860E-04-2.62773E-05-5.43610E-05-2.91406E-06 4.56000E-18 1.17801E-18
 -1      2531 1.51026E-04-3.42943E-05-5.03198E-05 4.70560E-07 3.99440E-18 1.81837E-18
 -1      2532 1.46660E-04-1.03294E-05-5.88063E-05 3.26069E-06 3.67739E-18 1.29035E-18
 -1      2533 1.44125E-04-7.72300E-06-5.90315E-05 7.37033E-07 4.72475E-18 1.02504E-18
 -1      2534 1.48393E-04-2.45775E-05-5.34256E-05 4.59540E-06 2.06274E-18 1.29617E-18
 -1      2535 1.47377E-04-1.72997E-05-5.63813E-05 5.22530E-06 2.68954E-18 9.91452E-19
 -1      2536 1.46985E-04-4.43864E-05-4.41241E-05-7.61033E-06 1.05842E-18 1.21613E-18
 -1      2537 1.51258E-04-3.59678E-05-4.99570E-05-1.08478E-06 1.71196E-18 2.55296E-18
 -1      2538 1.30763E-04-5.56360E-05-3.22515E-05-2.75516E-05-4.68833E-19-4.85350E-19
 -1      2539 1.41546E-04-5.28794E-05-3.84220E-05-1.98397E-05 2.23670E-19 4.20552E-19
 -1      2540 1.01522E-04-5.34269E-05-2.04305E-05-4.25577E-05 3.98953E-19-1.32719E-19
 -1      2541 1.18610E-04-5.58179E-05-2.70282E-05-3.83115E-05-2.04135E-19-1.64388E-18
 -1      2542 1.28189E-04-5.88174E-05-2.95166E-05-2.81593E-05-8.79220E-19 8.69268E-20
 -1      2543 6.09540E-05-3.92687E-05-9.02982E-06-4.56526E-05 1.65426E-18 5.22513E-19
 -1      2544 7.96191E-05-4.58187E-05-1.45427E-05-4.88352E-05 1.67353E-18 7.92558E-19
 -1      2545 2.70081E-05-2.27640E-05-1.52679E-06-2.84254E-05 9.29830E-19-1.65404E-18
 -1      2546 4.13725E-05-2.91019E-05-5.13754E-06-4.09293E-05 1.22185E-18 5.63489E-19
 -1      2547 1.71244E-05-1.72092E-05 3.19654E-07-8.60258E-07 5.57401E-19-3.75786E-18
 -1      2548 1.80251E-05-1.83079E-05 3.49432E-07-1.54768E-05 7.33636E-19-3.31486E-18
 -1      2549 3.50279E-05-2.31488E-05-4.73691E-06 2.49168E-05 4.22140E-19-7.75459E-19
 -1      2550 2.37301E-05-1.90352E-05-1.57894E-06 1.18418E-05 6.35222E-19-1.90328E-18
 -1      2551 8.07451E-05-4.69231E-05-1.43482E-05 3.99100E-05 1.04397E-18-3.02867E-18
 -1      2552 5.69655E-05-3.51811E-05-8.89807E-06 3.49121E-05 9.06961E-19-1.99370E-18
 -1      2553 1.28213E-04-6.50908E-05-2.71944E-05 2.71673E-05-5.88688E-20 9.63923E-19
 -1      2554 1.06040E-04-5.87834E-05-2.02680E-05 3.30105E-05 8.47880E-19 5.26947E-20
 -1      2555 1.55466E-04-6.50287E-05-3.91422E-05 4.68961E-06 1.72159E-19 1.68792E-18
 -1      2556 1.41491E-04-6.65894E-05-3.23371E-05 1.39405E-05-5.00914E-19 1.94203E-18
 -1      2557 1.60584E-04-2.10347E-05-6.00458E-05 1.23998E-06-1.71228E-18-1.08277E-18
 -1      2558 1.63912E-04-2.32980E-05-6.03070E-05-7.87945E-06-1.32772E-18-9.03467E-19
 -1      2559 1.48601E-04-6.61168E-05-3.57327E-05-1.01084E-05 8.45868E-19-1.16149E-18
 -1      2560 1.60049E-04-6.18459E-05-4.25074E-05 3.09962E-08 5.27437E-19-1.29448E-18
 -1      2561 1.33242E-04-5.73540E-05-3.29243E-05 2.80973E-05 3.15255E-18 3.27294E-18
 -1      2562 1.18573E-04-5.72930E-05-2.61742E-05 3.56930E-05 3.26383E-18 2.62178E-18
 -1      2563 7.74086E-05-4.77993E-05-1.25963E-05-3.89211E-05 4.60172E-18 2.70172E-18
 -1      2564 9.83847E-05-5.55733E-05-1.84989E-05-3.89654E-05 3.28395E-18 2.22801E-18
 -1      2565 1.90057E-05-1.72700E-05-4.03211E-07-2.41365E-06 1.02343E-18-2.15824E-18
 -1      2566 2.50846E-05-2.12586E-05-1.36522E-06-1.79049E-05 1.75272E-18-6.97108E-19
 -1      2567 1.60850E-04-2.68912E-05-5.79669E-05 1.28196E-05-2.05321E-18-2.10255E-18
 -1      2568 9.60860E-05-2.85435E-05-2.89433E-05 1.58248E-06-7.78651E-19 1.28906E-19
 -1      2569 1.62108E-04-3.19964E-05-5.63463E-05-1.71632E-05-1.66569E-18-1.04143E-18
 -1      2570 1.65242E-04-3.44866E-05-5.62307E-05 1.73668E-05-2.37635E-18-2.94767E-18
 -1      2571 1.62811E-04-4.01748E-05-5.30392E-05-1.99725E-05-1.30443E-18-9.25383E-19
 -1      2572 9.08097E-05-1.50663E-05-3.24575E-05-6.79479E-06-3.78966E-19-2.61114E-18
 -1      2573 8.97068E-05-1.32048E-05-3.28438E-05-7.96909E-06-4.98664E-19-2.81192E-18
 -1      2574 9.04047E-05-1.40314E-05-3.27970E-05-9.14488E-06-8.56837E-19-2.80112E-18
 -1      2575 1.15239E-04-5.80627E-05-2.42239E-05 3.74776E-05 1.74743E-18 3.15848E-18
 -1      2576 9.59586E-05-2.62474E-05-2.98440E-05 5.39576E-06 1.59922E-18 3.55582E-18
 -1      2577 9.59027E-05-2.51608E-05-3.02939E-05 6.48671E-06 1.81669E-18 2.74542E-18
 -1      2578 9.52950E-05-2.64855E-05-2.94618E-05 4.10324E-06 1.49476E-18 3.21644E-18
 -1      2579 3.88832E-05-2.26507E-05-6.44497E-06-2.43752E-05 2.10043E-18 2.16862E-18
 -1      2580 1.46095E-04-4.04265E-05-4.53631E-05-2.45580E-06 3.62043E-18 3.33943E-19
 -1      2581 7.96473E-05-4.47224E-05-1.45920E-05 4.56373E-05 5.20925E-19 3.56167E-18
 -1      2582 7.47742E-05-4.16971E-05-1.36838E-05-3.79312E-05 5.56839E-18 3.16547E-18
 -1      2583 1.60863E-04-6.02529E-05-4.32530E-05-9.55697E-06-2.44184E-20 9.62229E-19
 -1      2584 1.34587E-04-6.24673E-05-3.10417E-05 1.41816E-05-5.05996E-19 1.21660E-18
 -1      2585 1.44629E-04-6.66068E-05-3.32719E-05-1.10373E-05 1.17272E-18-1.91302E-18
 -1      2586 3.10990E-05-1.33495E-05-7.08268E-06 1.59822E-05 2.11425E-18 2.42950E-18
 -1      2587 2.38475E-05-1.50955E-05-3.16829E-06 7.38702E-06 1.53011E-18 1.56955E-18
 -1      2588 2.87900E-05-1.20398E-05-6.58002E-06-7.64896E-07 1.83513E-18-1.05625E-18
 -1      2589 1.16632E-04-6.02979E-05-2.37592E-05-2.97678E-05 3.23800E-18 3.47019E-20
 -1      2590 9.20857E-05-1.62844E-05-3.25216E-05-1.03780E-05-1.31646E-18-2.42702E-18
 -1      2591 9.47153E-05-2.68510E-05-2.90559E-05 2.43575E-06 1.36535E-18 2.33590E-18
 -1      2592 9.50623E-05-2.66655E-05-2.92716E-05 3.31723E-06 1.44386E-18 2.84957E-18
 -1      2593 9.53128E-05-2.61386E-05-2.96572E-05 4.04418E-06 1.52723E-18 2.11355E-18
 -1      2594 9.50273E-05-2.66125E-05-2.93408E-05 2.52924E-06 1.43508E-18 1.51549E-18
 -1      2595 9.64755E-05-2.88828E-05-2.89831E-05 1.96977E-06-7.21558E-20 2.72673E-19
 -1      2596 1.63104E-04-5.58155E-05-4.62001E-05 1.34724E-05 2.51463E-20-3.49232E-18
 -1      2597 1.65725E-04-5.43212E-05-4.77984E-05-7.33549E-06-4.65074E-19 6.51792E-19
 -1      2598 1.58454E-04-5.36668E-05-4.59037E-05-1.98014E-05-1.24726E-19-1.12444E-19
 -1      2599 1.39295E-04-6.29053E-05-3.28921E-05-9.88250E-06 1.65161E-18-1.72091E-18
 -1      2600 1.39223E-04-5.69070E-05-3.51957E-05 1.61519E-05 3.11909E-18 2.03013E-18
 -1      2601 9.93704E-05-5.25456E-05-1.98115E-05 3.37336E-05 9.65829E-19-1.16869E-18
 -1      2602 5.09907E-05-2.75746E-05-9.42619E-06 3.06769E-05 2.20440E-19-1.00649E-18
 -1      2603 4.71320E-05-1.96245E-05-1.11768E-05 2.48366E-05-5.00067E-19-1.25446E-18
 -1      2604 6.64734E-05-3.13928E-05-1.48819E-05 3.31053E-05 6.31463E-19-1.95156E-18
 -1      2605 2.68646E-05-1.42037E-05-4.82856E-06 5.39945E-06-2.82327E-19-2.51823E-18
 -1      2606 2.96804E-05-1.72406E-05-4.76406E-06-2.30495E-05-1.05879E-22-1.78406E-18
 -1      2607 9.66602E-05-5.12035E-05-1.91465E-05-4.37702E-05 9.38089E-19 5.53225E-19
 -1      2608 1.43413E-04-5.08003E-05-3.96532E-05-7.65129E-06 2.07788E-20 2.11716E-18
 -1      2609 1.42867E-04-3.08460E-05-4.82027E-05 6.97495E-06 1.35705E-18 1.31883E-18
 -1      2610 1.36822E-04-1.25764E-05-5.35740E-05 7.42093E-06 3.15795E-18 7.66671E-19
 -1      2611 1.41301E-04-2.09730E-05-5.17866E-05-8.27842E-06 3.97788E-18-1.03020E-19
 -1      2612 1.37409E-04-8.25406E-06-5.58522E-05-2.56288E-06 4.72602E-18 8.31575E-19
 -1      2613 1.28736E-04-9.25205E-06-5.17153E-05-5.80223E-06 4.53988E-18-1.54742E-19
 -1      2614 1.27759E-04-5.95856E-06-5.27395E-05-2.08337E-07 4.44735E-18 4.95971E-19
 -1      2615 5.72917E-05-3.27103E-05-1.00052E-05-4.28605E-05 8.31363E-19 1.93759E-19
 -1      2616 1.70813E-04-4.60390E-05-5.36978E-05-1.36007E-05-1.61593E-18 1.76183E-19
 -1      2617 1.67094E-04-5.13293E-05-4.96375E-05 1.03880E-05-5.50042E-19-1.59496E-18
 -1      2618 1.69329E-04-4.18062E-05-5.48150E-05 1.40141E-05-2.35750E-18-3.10840E-18
 -1      2619 9.05639E-05-1.51762E-05-3.23315E-05 3.19541E-06 1.69571E-18-1.60961E-18
 -1      2620 9.03733E-05-1.49038E-05-3.23644E-05 2.26109E-06 1.50111E-18-1.76736E-18
 -1      2621 9.02384E-05-1.47006E-05-3.23933E-05 1.42257E-06 1.37141E-18-1.93423E-18
 -1      2622 9.01730E-05-1.46079E-05-3.24043E-05 4.65460E-07 1.16985E-18-2.01238E-18
 -1      2623 9.14243E-05-1.65948E-05-3.20570E-05 1.64021E-06 1.26200E-18-1.71098E-18
 -1      2624 9.21418E-05-1.75542E-05-3.20054E-05 6.47695E-06 2.18666E-18-4.70810E-19
 -1      2625 9.16166E-05-1.67562E-05-3.21056E-05 5.63821E-06 2.09508E-18-8.18859E-19
 -1      2626 9.35128E-05-1.97311E-05-3.16794E-05 7.64293E-06 2.24307E-18 3.28212E-19
 -1      2627 9.27738E-05-1.85211E-05-3.18391E-05 7.00757E-06 2.15356E-18-2.17846E-20
 -1      2628 9.34344E-05-1.98489E-05-3.15075E-05 5.74554E-06 2.01935E-18-1.24214E-19
 -1      2629 9.58970E-05-2.43819E-05-3.06414E-05 7.14825E-06 1.93420E-18 2.19748E-18
 -1      2630 9.53317E-05-2.30609E-05-3.09987E-05 7.84577E-06 2.05760E-18 1.54031E-18
 -1      2631 9.55097E-05-2.49944E-05-3.01990E-05 5.56653E-06 1.70323E-18 1.92166E-18
 -1      2632 9.53555E-05-2.59037E-05-2.97376E-05-2.70958E-06-8.27930E-19-1.41681E-18
 -1      2633 9.51927E-05-2.64891E-05-2.94552E-05-1.72484E-06-6.66173E-19-1.35973E-18
 -1      2634 9.52153E-05-2.70051E-05-2.92095E-05-9.83701E-07-6.25965E-19-1.20966E-18
 -1      2635 9.50817E-05-2.73618E-05-2.90296E-05-3.76972E-07-6.94479E-19-1.20721E-18
 -1      2636 9.54171E-05-2.63298E-05-2.96137E-05-1.62453E-06-5.72003E-19-1.41533E-18
 -1      2637 9.50466E-05-2.76803E-05-2.88552E-05 1.08882E-07-6.57085E-19-9.02691E-19
 -1      2638 9.49662E-05-2.79116E-05-2.87411E-05 4.71235E-07-6.41290E-19-7.81019E-19
 -1      2639 9.54154E-05-2.73412E-05-2.91814E-05-3.22797E-07-5.64972E-19-1.04305E-18
 -1      2640 9.49249E-05-2.80897E-05-2.86334E-05 7.30817E-07-5.51404E-19-5.37978E-19
 -1      2641 9.48989E-05-2.82334E-05-2.85719E-05 9.08779E-07-3.95213E-19-4.53446E-19
 -1      2642 9.53535E-05-2.79641E-05-2.88882E-05 4.75962E-07-5.01109E-19-6.40038E-19
 -1      2643 9.48651E-05-2.83415E-05-2.85041E-05 1.03843E-06-2.48291E-19-3.84488E-19
 -1      2644 9.48740E-05-2.84354E-05-2.84735E-05 1.11088E-06-2.27096E-19-2.75110E-19
 -1      2645 9.52899E-05-2.83332E-05-2.87013E-05 9.05252E-07-2.11485E-19-3.61125E-19
 -1      2646 9.48508E-05-2.84976E-05-2.84339E-05 1.15506E-06-2.49213E-19-9.22689E-20
 -1      2647 9.48816E-05-2.85582E-05-2.84236E-05 1.16287E-06-2.99316E-19 1.72490E-20
 -1      2648 9.52423E-05-2.85559E-05-2.85840E-05 1.10529E-06-1.64056E-19-2.50218E-19
 -1      2649 9.48681E-05-2.85899E-05-2.84037E-05 1.15496E-06-5.07417E-19 1.07194E-19
 -1      2650 9.49113E-05-2.86270E-05-2.84064E-05 1.12618E-06-4.26251E-19-1.99168E-20
 -1      2651 9.52125E-05-2.86818E-05-2.85162E-05 1.15873E-06-2.98491E-19-9.86296E-20
 -1      2652 9.49053E-05-2.86382E-05-2.84001E-05 1.09018E-06-1.85162E-19 1.03081E-19
 -1      2653 9.49541E-05-2.86583E-05-2.84112E-05 1.04439E-06 3.46537E-20 1.23953E-19
 -1      2654 9.51978E-05-2.87424E-05-2.84830E-05 1.12571E-06-2.67400E-19 3.67327E-19
 -1      2655 9.49535E-05-2.86554E-05-2.84142E-05 9.97400E-07 1.20741E-19 1.04908E-19
 -1      2656 9.50042E-05-2.86628E-05-2.84305E-05 9.48384E-07 2.02589E-19-1.77713E-19
 -1      2657 9.51943E-05-2.87580E-05-2.84741E-05 1.04944E-06-2.51828E-20 5.56524E-19
 -1      2658 9.50074E-05-2.86498E-05-2.84401E-05 9.02683E-07-1.58434E-19-4.04789E-19
 -1      2659 9.50581E-05-2.86476E-05-2.84600E-05 8.60363E-07-4.82589E-19-1.02676E-18
 -1      2660 9.51987E-05-2.87422E-05-2.84824E-05 9.60887E-07-2.70544E-19 5.80382E-20
 -1      2661 9.50638E-05-2.86269E-05-2.84744E-05 8.24990E-07-1.93452E-19-8.82947E-19
 -1      2662 9.51146E-05-2.86170E-05-2.84970E-05 7.96834E-07-2.23125E-19-9.59210E-19
 -1      2663 9.52084E-05-2.87030E-05-2.85031E-05 8.82572E-07-3.42996E-19-5.74656E-20
 -1      2664 9.51225E-05-2.85880E-05-2.85164E-05 7.78152E-07-3.14597E-19-6.36384E-19
 -1      2665 9.51760E-05-2.85700E-05-2.85431E-05 7.71145E-07-4.03582E-19-6.09968E-22
 -1      2666 9.52217E-05-2.86435E-05-2.85342E-05 8.30869E-07 1.64725E-20-6.94654E-20
 -1      2667 9.51835E-05-2.85350E-05-2.85655E-05 7.78047E-07-5.59361E-19 6.71010E-19
 -1      2668 9.52371E-05-2.85108E-05-2.85943E-05 7.98272E-07-1.40885E-19 1.18035E-18
 -1      2669 9.52365E-05-2.85650E-05-2.85740E-05 8.22252E-07-1.19178E-19 6.68074E-19
 -1      2670 9.52439E-05-2.84670E-05-2.86208E-05 8.34966E-07-3.32082E-19 1.12075E-18
 -1      2671 9.53021E-05-2.84347E-05-2.86541E-05 8.88363E-07-7.17305E-19 1.04952E-18
 -1      2672 9.52501E-05-2.84688E-05-2.86209E-05 8.68877E-07-3.35714E-19 1.40769E-18
 -1      2673 9.53057E-05-2.83790E-05-2.86853E-05 9.61582E-07-6.64191E-19 1.19535E-18
 -1      2674 9.53706E-05-2.83363E-05-2.87248E-05 1.05596E-06-2.85905E-19 9.08590E-19
 -1      2675 9.52594E-05-2.83476E-05-2.86767E-05 9.82703E-07-5.55979E-19 1.44920E-18
 -1      2676 9.53672E-05-2.82636E-05-2.87617E-05 1.17372E-06-1.01553E-19 8.60684E-19
 -1      2677 9.54406E-05-2.82066E-05-2.88094E-05 1.31901E-06-3.26584E-19 5.43072E-19
 -1      2678 9.52585E-05-2.81926E-05-2.87424E-05 1.17842E-06-3.94259E-19 1.55381E-18
 -1      2679 9.54236E-05-2.81095E-05-2.88529E-05 1.49126E-06-8.57535E-19 2.04949E-19
 -1      2680 9.55062E-05-2.80321E-05-2.89109E-05 1.70037E-06-1.16203E-18 1.89685E-19
 -1      2681 9.52372E-05-2.79900E-05-2.88196E-05 1.47362E-06-8.83628E-19 9.29787E-19
 -1      2682 9.54648E-05-2.79000E-05-2.89618E-05 1.93959E-06-1.00212E-18 2.28268E-19
 -1      2683 9.55551E-05-2.77933E-05-2.90326E-05 2.22921E-06-7.74310E-19 3.73821E-19
 -1      2684 9.51789E-05-2.77201E-05-2.89093E-05 1.88980E-06-1.02514E-18 5.77711E-19
 -1      2685 9.54720E-05-2.76113E-05-2.90908E-05 2.55083E-06-1.00630E-18 2.50848E-19
 -1      2686 9.55647E-05-2.74633E-05-2.91763E-05 2.94209E-06-4.76897E-19 2.95747E-19
 -1      2687 9.50564E-05-2.73552E-05-2.90114E-05 2.45305E-06-7.44415E-19 9.25776E-19
 -1      2688 9.54132E-05-2.72118E-05-2.92400E-05 3.36497E-06-4.58989E-19 9.65725E-20
 -1      2689 9.54998E-05-2.70077E-05-2.93412E-05 3.88333E-06-6.81921E-19-5.52932E-19
 -1      2690 9.48267E-05-2.68581E-05-2.91231E-05 3.19432E-06-9.79158E-19 3.62439E-19
 -1      2691 9.52262E-05-2.66421E-05-2.94084E-05 4.45764E-06-1.95463E-19-6.53711E-19
 -1      2692 9.52815E-05-2.63474E-05-2.95280E-05 5.17521E-06 3.17381E-20-7.93608E-19
 -1      2693 9.44120E-05-2.61653E-05-2.92389E-05 4.17797E-06-3.42795E-19-2.11277E-19
 -1      2694 9.48462E-05-2.58745E-05-2.95807E-05 5.87637E-06 6.83708E-19-7.60607E-19
 -1      2695 9.48440E-05-2.55071E-05-2.96995E-05 6.75129E-06 1.14021E-18 2.13993E-19
 -1      2696 9.37196E-05-2.52276E-05-2.93359E-05 5.42144E-06 6.43715E-19-6.53822E-19
 -1      2697 9.41744E-05-2.48981E-05-2.97192E-05 7.62898E-06 5.56837E-19 4.07206E-19
 -1      2698 9.40869E-05-2.44572E-05-2.98229E-05 8.71925E-06 4.20208E-21 4.95810E-19
 -1      2699 9.26464E-05-2.40377E-05-2.93764E-05 6.93240E-06 9.08199E-19-5.06151E-19
 -1      2700 9.31041E-05-2.37307E-05-2.97706E-05 9.80671E-06 1.27886E-19 9.79649E-19
 -1      2701 9.29262E-05-2.32893E-05-2.98223E-05 1.11236E-05 4.49569E-19 1.18419E-18
 -1      2702 9.10327E-05-2.25772E-05-2.92982E-05 8.77940E-06 5.63528E-19-4.70737E-19
 -1      2703 9.15800E-05-2.25523E-05-2.96324E-05 1.24747E-05 8.66656E-20 1.23331E-18
 -1      2704 9.13978E-05-2.23256E-05-2.95696E-05 1.40042E-05-1.79707E-19 1.03721E-18
 -1      2705 8.87416E-05-2.09668E-05-2.89917E-05 1.10304E-05-2.29878E-20 9.96306E-20
 -1      2706 8.97445E-05-2.18716E-05-2.91401E-05 1.57180E-05-5.63327E-19 1.45544E-18
 -1      2707 8.98746E-05-2.23427E-05-2.88762E-05 1.74060E-05 3.30773E-20 8.41661E-19
 -1      2708 8.57445E-05-1.95945E-05-2.82797E-05 1.38368E-05-5.24629E-19 7.50106E-19
 -1      2709 8.82183E-05-2.27874E-05-2.80639E-05 1.96893E-05-7.34801E-20 3.24136E-19
 -1      2710 8.94558E-05-2.49121E-05-2.75129E-05 2.14325E-05-9.62044E-20-1.04152E-19
 -1      2711 8.23040E-05-1.93265E-05-2.69004E-05 1.75415E-05-5.48293E-19 1.49352E-19
 -1      2712 8.86255E-05-2.72755E-05-2.61598E-05 2.44893E-05 5.59703E-20-9.49670E-19
 -1      2713 9.21972E-05-3.25666E-05-2.53250E-05 2.61384E-05-6.18413E-19-1.34776E-18
 -1      2714 7.94471E-05-2.19695E-05-2.45055E-05 2.28249E-05-7.27667E-19-4.71744E-19
 -1      2715 9.77883E-05-3.97400E-05-2.44891E-05 2.85402E-05-3.99164E-19-1.21642E-18
 -1      2716 1.05245E-04-4.83236E-05-2.42450E-05 2.88599E-05 6.71274E-20-2.20202E-19
 -1      2717 1.56545E-04-3.79734E-05-5.06911E-05 2.15371E-05-1.83827E-18-4.07232E-18
 -1      2718 1.56709E-04-5.17497E-05-4.62585E-05 2.22737E-05-6.69897E-19-6.38070E-18
 -1      2719 6.86208E-05-3.32073E-05-1.44643E-05-3.48185E-05 4.83317E-18 3.96898E-18
 -1      2720 8.72170E-05-4.41354E-05-1.84922E-05-3.75329E-05 4.46524E-18 3.03397E-18
 -1      2721 9.69860E-05-2.92728E-05-2.90256E-05 2.48366E-06-1.13988E-19-4.96132E-19
 -1      2722 9.70730E-05-2.94257E-05-2.89758E-05 1.95124E-06-6.68872E-19 4.23737E-19
 -1      2723 9.75148E-05-2.99418E-05-2.89788E-05 1.79889E-06-1.12676E-18 1.21131E-19
 -1      2724 9.90354E-05-3.55030E-05-2.69513E-05-2.58767E-05 2.26512E-18 2.43945E-18
 -1      2725 9.44687E-05-3.02650E-05-2.73883E-05-2.53883E-05 2.48427E-18 2.37839E-18
 -1      2726 9.39413E-05-2.73281E-05-2.84264E-05-2.29026E-05 1.91905E-18 1.83383E-18
 -1      2727 9.21053E-05-2.49277E-05-2.87847E-05-2.15150E-05 2.05069E-18 2.29800E-18
 -1      2728 8.58113E-05-2.54362E-05-2.57757E-05-2.51897E-05 1.83453E-18 3.68571E-18
 -1      2729 9.29648E-05-2.41590E-05-2.94276E-05-1.93733E-05 9.19464E-19 1.43677E-18
 -1      2730 9.22909E-05-2.33820E-05-2.95623E-05-1.77837E-05-1.86683E-19 1.24826E-18
 -1      2731 8.65040E-05-2.17638E-05-2.76942E-05-2.02557E-05 9.62588E-19 9.74303E-19
 -1      2732 9.34087E-05-2.35582E-05-2.99013E-05-1.60295E-05-1.11475E-18 5.68252E-20
 -1      2733 9.31383E-05-2.34718E-05-2.98883E-05-1.44652E-05-1.69301E-18 7.78681E-19
 -1      2734 8.86206E-05-2.12539E-05-2.88242E-05-1.64926E-05-1.42015E-18-1.84936E-18
 -1      2735 9.40806E-05-2.38927E-05-3.00505E-05-1.29719E-05-1.07997E-18 1.18169E-18
 -1      2736 9.38784E-05-2.39645E-05-2.99746E-05-1.15156E-05-2.37179E-19 1.94336E-18
 -1      2737 9.06850E-05-2.19391E-05-2.94314E-05-1.34143E-05-1.42215E-18 3.32005E-19
 -1      2738 9.39971E-05-2.39343E-05-2.99908E-05-1.05438E-05-5.76987E-19 1.85539E-18
 -1      2739 9.33837E-05-2.35943E-05-2.99019E-05-9.26553E-06 1.05640E-19 1.43426E-18
 -1      2740 9.19185E-05-2.24402E-05-2.98137E-05-8.92106E-06 1.50668E-19 3.51115E-18
 -1      2741 9.16205E-05-2.24090E-05-2.96753E-05-1.09449E-05-4.30874E-19 3.20028E-18
 -1      2742 9.48918E-05-2.76443E-05-2.88238E-05-6.68033E-08 1.13095E-18 5.41740E-19
 -1      2743 9.50118E-05-2.73795E-05-2.89635E-05 4.01609E-07 1.23818E-18 5.75161E-19
 -1      2744 9.47896E-05-2.80421E-05-2.86074E-05-6.95755E-07 9.85101E-19 5.01280E-19
 -1      2745 9.48411E-05-2.78690E-05-2.86886E-05-4.35361E-07 1.03309E-18 6.41479E-19
 -1      2746 9.52812E-05-2.76574E-05-2.89897E-05-8.48125E-08 1.08213E-18 1.10263E-19
 -1      2747 9.50403E-05-2.69936E-05-2.91680E-05 1.01871E-06 1.28708E-18 6.30643E-19
 -1      2748 9.52610E-05-2.65931E-05-2.93939E-05 1.82130E-06 1.33555E-18 7.31175E-19
 -1      2749 9.53364E-05-2.68979E-05-2.93414E-05 9.57569E-07 1.31799E-18 1.57997E-19
 -1      2750 9.47452E-05-2.84522E-05-2.84107E-05-1.14933E-06 4.23163E-19 3.47292E-19
 -1      2751 9.47169E-05-2.83752E-05-2.84275E-05-1.10980E-06 4.84981E-19 4.24344E-19
 -1      2752 9.47776E-05-2.85488E-05-2.83828E-05-1.15659E-06 7.46969E-20 3.29596E-19
 -1      2753 9.47311E-05-2.84984E-05-2.83833E-05-1.16790E-06 2.95005E-19 2.81073E-19
 -1      2754 9.51146E-05-2.85792E-05-2.85188E-05-1.15259E-06 3.55635E-19 2.83422E-19
 -1      2755 9.48288E-05-2.86027E-05-2.83814E-05-1.09558E-06 3.19807E-19 5.03354E-19
 -1      2756 9.47734E-05-2.85714E-05-2.83718E-05-1.13398E-06 5.28128E-20 3.85787E-19
 -1      2757 9.51027E-05-2.86734E-05-2.84722E-05-1.16248E-06 9.49282E-20 1.34667E-19
 -1      2758 9.48899E-05-2.86265E-05-2.83973E-05-1.00353E-06 4.53317E-19 7.98479E-19
 -1      2759 9.48316E-05-2.86092E-05-2.83815E-05-1.05255E-06 5.72260E-19 6.75106E-19
 -1      2760 9.51057E-05-2.87154E-05-2.84547E-05-1.10524E-06 2.72275E-19 2.99641E-19
 -1      2761 9.49554E-05-2.86290E-05-2.84242E-05-9.06454E-07 3.66538E-19 6.50364E-19
 -1      2762 9.48972E-05-2.86219E-05-2.84048E-05-9.54697E-07 3.35286E-19 6.90653E-19
 -1      2763 9.51184E-05-2.87216E-05-2.84570E-05-1.01823E-06 5.55732E-19 3.82860E-19
 -1      2764 9.50224E-05-2.86163E-05-2.84582E-05-8.22568E-07 4.65782E-19 1.79069E-20
 -1      2765 9.49656E-05-2.86168E-05-2.84366E-05-8.62099E-07 6.29687E-19 6.37079E-19
 -1      2766 9.51374E-05-2.87030E-05-2.84727E-05-9.27795E-07 7.03775E-19 2.46378E-19
 -1      2767 9.50907E-05-2.85932E-05-2.84972E-05-7.64670E-07 4.66433E-19-4.27465E-19
 -1      2768 9.50349E-05-2.85989E-05-2.84741E-05-7.89941E-07 4.73904E-19-1.84241E-19
 -1      2769 9.51606E-05-2.86672E-05-2.84978E-05-8.52551E-07 6.93298E-19-5.14372E-19
 -1      2770 9.51618E-05-2.85635E-05-2.85402E-05-7.41772E-07 2.10662E-19-4.95953E-19
 -1      2771 9.51053E-05-2.85724E-05-2.85157E-05-7.48926E-07 2.59577E-19-4.87329E-19
 -1      2772 9.51875E-05-2.86196E-05-2.85296E-05-8.05704E-07 3.79014E-19-6.57332E-19
 -1      2773 9.52387E-05-2.85308E-05-2.85869E-05-7.60058E-07 2.14901E-20-3.57689E-19
 -1      2774 9.51791E-05-2.85407E-05-2.85608E-05-7.46554E-07 1.20522E-19-2.50253E-19
 -1      2775 9.52188E-05-2.85646E-05-2.85666E-05-7.96640E-07 6.79477E-20-6.88797E-19
 -1      2776 9.53261E-05-2.84995E-05-2.86376E-05-8.23210E-07 5.09656E-19-1.17698E-19
 -1      2777 9.52602E-05-2.85080E-05-2.86095E-05-7.87771E-07 3.54871E-19-3.00945E-19
 -1      2778 9.52567E-05-2.85064E-05-2.86079E-05-8.31847E-07 1.33424E-19-5.16499E-19
 -1      2779 9.54306E-05-2.84757E-05-2.86923E-05-9.32083E-07 3.26306E-19 3.23569E-19
 -1      2780 9.53543E-05-2.84792E-05-2.86620E-05-8.74973E-07 2.63261E-19 2.01207E-19
 -1      2781 9.53053E-05-2.84503E-05-2.86529E-05-9.15189E-07 5.69216E-20-3.68067E-19
 -1      2782 9.55605E-05-2.84682E-05-2.87512E-05-1.08367E-06 2.97948E-19 3.86059E-19
 -1      2783 9.54692E-05-2.84619E-05-2.87184E-05-1.00733E-06 5.00261E-19 6.63248E-19
 -1      2784 9.53708E-05-2.84039E-05-2.87011E-05-1.04749E-06 2.25483E-19 8.66987E-20
 -1      2785 9.57270E-05-2.84896E-05-2.88134E-05-1.26927E-06-3.56683E-19 4.75709E-19
 -1      2786 9.56153E-05-2.84668E-05-2.87784E-05-1.17935E-06-1.01131E-20 5.25798E-19
 -1      2787 9.54627E-05-2.83786E-05-2.87517E-05-1.22541E-06 5.13239E-20 2.64492E-19
 -1      2788 9.59441E-05-2.85579E-05-2.88777E-05-1.47192E-06 1.84303E-19 6.23193E-19
 -1      2789 9.58059E-05-2.85094E-05-2.88412E-05-1.37865E-06-7.23066E-20 6.46778E-19
 -1      2790 9.55949E-05-2.83915E-05-2.88034E-05-1.43943E-06-2.40840E-19-1.00251E-19
 -1      2791 9.62294E-05-2.86969E-05-2.89414E-05-1.66306E-06-1.29144E-20 6.22450E-19
 -1      2792 9.60585E-05-2.86109E-05-2.89049E-05-1.58293E-06 2.02575E-19 7.48056E-19
 -1      2793 9.57868E-05-2.84666E-05-2.88542E-05-1.67107E-06-1.47038E-19 1.08596E-19
 -1      2794 9.66034E-05-2.89353E-05-2.90012E-05-1.79888E-06-2.03398E-19 1.26476E-18
 -1      2795 9.63941E-05-2.87986E-05-2.89667E-05-1.75629E-06-2.28057E-19 9.83315E-19
 -1      2796 9.60646E-05-2.86358E-05-2.89016E-05-1.88926E-06-3.28516E-19 1.20036E-19
 -1      2797 9.70878E-05-2.93044E-05-2.90533E-05-1.81724E-06-3.27553E-19 1.09768E-18
 -1      2798 9.68363E-05-2.91038E-05-2.90233E-05-1.84552E-06-3.27833E-19 9.35100E-19
 -1      2799 9.64611E-05-2.89379E-05-2.89434E-05-2.04619E-06 7.31513E-20 4.42532E-19
 -1      2800 9.77004E-05-2.98293E-05-2.90946E-05-1.63673E-06-1.68561E-19 6.15772E-19
 -1      2801 9.74081E-05-2.95567E-05-2.90715E-05-1.77753E-06 7.36535E-20 7.78956E-19
 -1      2802 9.70140E-05-2.94136E-05-2.89780E-05-2.07352E-06-1.47939E-19-8.29317E-20
 -1      2803 9.84446E-05-3.05143E-05-2.91248E-05-1.16086E-06 1.91802E-19 7.24590E-19
 -1      2804 9.81233E-05-3.01751E-05-2.91101E-05-1.46027E-06-2.85548E-19 7.91979E-19
 -1      2805 9.77585E-05-3.00941E-05-2.90069E-05-1.88060E-06-2.09948E-19 1.72566E-19
 -1      2806 9.92929E-05-3.13194E-05-2.91486E-05-2.92092E-07 6.57158E-20 6.60171E-19
 -1      2807 9.89718E-05-3.09443E-05-2.91414E-05-7.90935E-07 8.04122E-19 8.41602E-19
 -1      2808 9.87132E-05-3.09811E-05-2.90367E-05-1.35796E-06 3.28441E-19 1.86855E-20
 -1      2809 1.00163E-04-3.21295E-05-2.91788E-05 1.03818E-06-1.17600E-18 1.24435E-18
 -1      2810 9.98967E-05-3.17892E-05-2.91749E-05 3.22236E-07-6.98965E-19 1.17563E-18
 -1      2811 9.98544E-05-3.20134E-05-2.90824E-05-3.92051E-07-3.29125E-19 6.62922E-19
 -1      2812 1.00896E-04-3.27286E-05-2.92374E-05 2.81724E-06-8.17337E-21 1.14442E-18
 -1      2813 1.00768E-04-3.25423E-05-2.92280E-05 1.91727E-06-6.13834E-19 1.14535E-18
 -1      2814 1.01081E-04-3.30278E-05-2.91691E-05 1.10004E-06-7.50379E-19 1.92258E-19
 -1      2815 1.01252E-04-3.28048E-05-2.93520E-05 4.87634E-06 3.50667E-19 1.95214E-19
 -1      2816 1.01363E-04-3.29283E-05-2.93259E-05 3.90939E-06 3.78972E-19 9.73989E-19
 -1      2817 1.02179E-04-3.37278E-05-2.93311E-05 3.10511E-06 2.23091E-19-2.76120E-19
 -1      2818 1.00968E-04-3.20324E-05-2.95468E-05 6.81911E-06 3.24611E-19 2.78725E-20
 -1      2819 1.01399E-04-3.26041E-05-2.94942E-05 6.00736E-06 3.24288E-19 1.23324E-19
 -1      2820 1.02821E-04-3.37052E-05-2.96038E-05 5.41526E-06 2.29131E-19-8.40258E-19
 -1      2821 9.98873E-05-3.02517E-05-2.98251E-05 8.02128E-06 4.33734E-19-4.76280E-19
 -1      2822 1.00637E-04-3.12960E-05-2.97448E-05 7.66828E-06 4.10823E-19-3.49484E-19
 -1      2823 1.02649E-04-3.25718E-05-3.00060E-05 7.53602E-06 6.18969E-19 1.69073E-19
 -1      2824 9.81465E-05-2.77015E-05-3.01517E-05 7.78351E-06 6.66020E-19-4.14150E-19
 -1      2825 9.90696E-05-2.90244E-05-3.00580E-05 8.17531E-06 6.53177E-19-2.72355E-19
 -1      2826 1.01476E-04-3.02094E-05-3.05160E-05 8.69661E-06 3.46722E-19-1.11173E-20
 -1      2827 9.62893E-05-2.51385E-05-3.04487E-05 5.69127E-06-4.90478E-19-4.03385E-19
 -1      2828 9.71005E-05-2.63167E-05-3.03702E-05 6.92372E-06 1.88954E-19-1.90740E-19
 -1      2829 9.95493E-05-2.70728E-05-3.10515E-05 8.07791E-06 1.97802E-19-2.98527E-19
 -1      2830 9.51101E-05-2.36078E-05-3.06182E-05 2.00105E-06 2.19792E-19-6.59271E-19
 -1      2831 9.54882E-05-2.41446E-05-3.05891E-05 3.84207E-06-4.35302E-19-9.72368E-19
 -1      2832 9.76210E-05-2.41974E-05-3.14794E-05 5.31009E-06-5.45129E-20-8.54180E-19
 -1      2833 9.52102E-05-2.38459E-05-3.05891E-05-2.20855E-06 5.83626E-19 1.25723E-19
 -1      2834 9.50120E-05-2.35038E-05-3.06252E-05-3.07078E-07 3.93589E-19-3.00830E-19
 -1      2835 9.66923E-05-2.28958E-05-3.16575E-05 9.31064E-07 3.77840E-20 7.53913E-19
 -1      2836 9.65385E-05-2.57414E-05-3.03723E-05-5.60429E-06 3.72706E-19-2.47727E-19
 -1      2837 9.58564E-05-2.46736E-05-3.04620E-05-4.21257E-06 5.18348E-19-8.18867E-20
 -1      2838 9.72635E-05-2.37607E-05-3.15192E-05-3.62041E-06 2.80107E-19 9.68296E-19
 -1      2839 9.84293E-05-2.84324E-05-3.00393E-05-7.25377E-06-8.61410E-19 3.93056E-19
 -1      2840 9.75599E-05-2.71000E-05-3.01528E-05-6.69231E-06 1.44103E-19-2.29677E-19
 -1      2841 9.90063E-05-2.63943E-05-3.11145E-05-6.81557E-06-1.69089E-19 1.56259E-19
 -1      2842 1.00070E-04-3.08782E-05-2.96852E-05-7.03665E-06-4.39465E-20-1.17697E-19
 -1      2843 9.93218E-05-2.97498E-05-2.97907E-05-7.27855E-06-5.96747E-19-3.92789E-19
 -1      2844 1.00991E-04-2.96099E-05-3.05664E-05-7.87140E-06-2.91271E-19-1.10418E-18
 -1      2845 1.00937E-04-3.24024E-05-2.93871E-05-5.48339E-06-1.74378E-19-2.63283E-19
 -1      2846 1.00499E-04-3.17413E-05-2.94649E-05-6.26113E-06-2.20978E-19-5.16217E-19
 -1      2847 1.02347E-04-3.22349E-05-3.00189E-05-6.96742E-06 9.41042E-20-2.13096E-18
 -1      2848 1.00946E-04-3.28636E-05-2.91776E-05-3.34594E-06 8.37875E-19-7.37535E-19
 -1      2849 1.00851E-04-3.26958E-05-2.92243E-05-4.33392E-06 4.90274E-19-1.38606E-19
 -1      2850 1.02686E-04-3.36335E-05-2.95734E-05-4.88940E-06 7.77686E-20-1.24500E-18
 -1      2851 1.00296E-04-3.24790E-05-2.90539E-05-1.25723E-06 5.26720E-19 1.96074E-19
 -1      2852 1.00476E-04-3.26864E-05-2.90762E-05-2.19250E-06 6.33489E-19 2.57704E-19
 -1      2853 1.02104E-04-3.37941E-05-2.92677E-05-2.48229E-06 1.00980E-19-1.36771E-19
 -1      2854 9.92850E-05-3.15924E-05-2.89942E-05 4.00524E-07 3.55751E-19-2.61226E-19
 -1      2855 9.96316E-05-3.20170E-05-2.90024E-05-3.25615E-07 1.31492E-18 5.84288E-19
 -1      2856 1.00940E-04-3.30615E-05-2.90926E-05-3.58598E-07 8.32080E-19 2.14691E-18
 -1      2857 9.81898E-05-3.05333E-05-2.89756E-05 1.48365E-06-7.28514E-19-1.74945E-19
 -1      2858 9.86115E-05-3.10499E-05-2.89783E-05 1.03476E-06-6.80133E-19-7.65850E-19
 -1      2859 9.95967E-05-3.18808E-05-2.90204E-05 1.20884E-06 4.90735E-19 7.70861E-19
 -1      2860 9.82596E-05-3.05648E-05-2.90124E-05 2.16489E-06-1.23904E-18-4.55109E-19
 -1      2861 9.68081E-05-2.86363E-05-2.92068E-05 4.70860E-06 2.03556E-19 2.17758E-19
 -1      2862 9.70013E-05-2.89905E-05-2.91458E-05 4.11655E-06-8.88294E-19-8.11114E-19
 -1      2863 9.45809E-05-2.62748E-05-2.92905E-05 6.63676E-06-4.21502E-19-2.52744E-18
 -1      2864 9.53812E-05-2.70572E-05-2.92580E-05 6.45885E-06-2.45301E-19-2.11162E-18
 -1      2865 9.70428E-05-2.91534E-05-2.90894E-05 3.06386E-06-1.31422E-18-5.40936E-19
 -1      2866 5.58799E-05-2.74073E-05-1.19362E-05 3.90146E-05 1.17420E-19 4.15173E-18
 -1      2867 4.26306E-05-1.89511E-05-9.50763E-06 2.90066E-05 1.46537E-18 4.19154E-18
 -1      2868 9.25579E-05-2.43418E-05-2.92680E-05 6.37858E-06-1.02339E-18-7.06562E-19
 -1      2869 9.35847E-05-2.52544E-05-2.92539E-05 6.70004E-06 3.18069E-19-2.10667E-18
 -1      2870 9.43031E-05-2.66734E-05-2.90031E-05 7.49489E-06 3.13370E-19-1.79151E-18
 -1      2871 9.03357E-05-2.22436E-05-2.92251E-05 4.83202E-06-7.47894E-19 1.20004E-18
 -1      2872 9.13725E-05-2.31169E-05-2.92221E-05 5.76303E-06-8.34333E-19 9.00173E-19
 -1      2873 9.17614E-05-2.43843E-05-2.88845E-05 7.00281E-06-4.27141E-19-3.53693E-19
 -1      2874 8.85477E-05-2.05068E-05-2.92018E-05 2.02808E-06-1.17466E-18-2.01187E-18
 -1      2875 8.92792E-05-2.11103E-05-2.91960E-05 3.48195E-06-7.25338E-19 5.45186E-19
 -1      2876 8.91388E-05-2.19666E-05-2.87789E-05 5.01194E-06-6.63101E-20 6.37547E-19
 -1      2877 8.77981E-05-1.96221E-05-2.92461E-05-1.72530E-06 1.79760E-19-1.67301E-19
 -1      2878 8.79481E-05-1.97713E-05-2.92196E-05 5.57787E-08-2.08899E-19-1.47272E-18
 -1      2879 8.71965E-05-2.00400E-05-2.87519E-05 1.56300E-06-8.04185E-21-1.05568E-18
 -1      2880 8.86164E-05-2.00353E-05-2.94032E-05-5.55962E-06-9.55369E-19 2.33193E-18
 -1      2881 8.80018E-05-1.95953E-05-2.93385E-05-3.90373E-06-5.93334E-19 1.30077E-18
 -1      2882 8.66910E-05-1.92436E-05-2.88705E-05-2.81377E-06 5.43717E-19 5.63516E-19
 -1      2883 3.69875E-05-1.58993E-05-8.39769E-06-1.77388E-05 8.51956E-19-9.79805E-19
 -1      2884 5.01406E-05-2.40220E-05-1.08754E-05-3.03103E-05 2.70087E-18 3.79026E-18
 -1      2885 9.43328E-05-2.08728E-05-3.15176E-05-8.24631E-06-1.35860E-18-1.97492E-18
 -1      2886 9.47184E-05-2.26470E-05-3.09126E-05-6.40703E-06-1.24041E-18-1.80884E-18
 -1      2887 1.36746E-04-6.58442E-05-3.03800E-05 1.67678E-05-3.46225E-19 1.77708E-18
 -1      2888 1.37615E-04-5.44035E-05-3.55840E-05-8.37485E-06-5.31652E-19 1.43233E-18
 -1      2889 1.39791E-04-4.72234E-05-4.03239E-05 8.56953E-07 6.19658E-19 1.88137E-18
 -1      2890 1.06151E-04-4.83148E-05-2.43920E-05-2.88522E-05 2.87102E-18 2.40471E-18
 -1      2891 9.76743E-05-3.97759E-05-2.45023E-05-2.97041E-05 2.78277E-18 2.83391E-18
 -1      2892 1.39410E-04-5.46022E-05-3.69371E-05 6.86093E-06 1.76876E-18 2.97732E-19
 -1      2893 1.33169E-04-5.89533E-05-3.15393E-05 1.76963E-05 2.11970E-19 1.36383E-18
 -1      2894 9.52683E-05-2.41018E-05-3.04824E-05-5.16110E-06-1.07077E-18-1.61503E-18
 -1      2895 9.51764E-05-2.50825E-05-3.00585E-05-3.67490E-06-9.90853E-19-1.57235E-18
 -1      2896 9.52264E-05-2.47624E-05-3.01901E-05-3.43324E-06-8.27778E-19-1.57615E-18
 -1      2897 9.45856E-05-2.23716E-05-3.09418E-05-5.69533E-06-1.03325E-18-1.84921E-18
 -1      2898 9.11800E-05-1.60913E-05-3.22092E-05 4.91994E-06 2.01618E-18-1.04622E-18
 -1      2899 9.08389E-05-1.55928E-05-3.22702E-05 3.99723E-06 1.76682E-18-1.41986E-18
 -1      2900 9.18175E-05-1.72042E-05-3.19624E-05 3.20063E-06 1.61360E-18-1.36020E-18
 -1      2901 9.24840E-05-1.82647E-05-3.17892E-05 4.62184E-06 1.84395E-18-7.61583E-19
 -1      2902 1.21248E-04-5.93813E-05-2.68961E-05 3.12954E-05 6.06476E-19 1.91498E-18
 -1      2903 1.08282E-04-5.53707E-05-2.22506E-05 3.81481E-05 2.73168E-20 1.62955E-18
 -1      2904 9.47443E-05-2.82936E-05-2.84789E-05-1.02071E-06 5.55649E-19 5.39341E-19
 -1      2905 9.47476E-05-2.81786E-05-2.85213E-05-8.95871E-07 8.65742E-19 5.87037E-19
 -1      2906 9.52040E-05-2.81219E-05-2.87559E-05-7.00242E-07 8.43683E-19 1.75719E-19
 -1      2907 9.51469E-05-2.84082E-05-2.86072E-05-1.02292E-06 6.73122E-19 3.69753E-19
 -1      2908 9.60277E-05-2.77342E-05-2.92707E-05 5.93724E-06-4.64040E-19-6.04053E-19
 -1      2909 9.65148E-05-2.82985E-05-2.92207E-05 5.45077E-06-1.76352E-19 2.58606E-19
 -1      2910 9.73011E-05-2.94086E-05-2.91127E-05 5.45814E-06-1.53303E-19 9.51612E-19
 -1      2911 9.62131E-05-2.83925E-05-2.90859E-05 6.81121E-06-3.14464E-19-1.28626E-18
 -1      2912 9.08010E-05-1.55422E-05-3.22749E-05-3.93325E-06 2.91651E-19-2.48933E-18
 -1      2913 9.11352E-05-1.60282E-05-3.22156E-05-4.85640E-06 3.02611E-20-2.44255E-18
 -1      2914 9.14913E-05-4.80953E-05-1.85889E-05 4.38946E-05 3.19120E-19 2.43088E-18
 -1      2915 7.34115E-05-3.78581E-05-1.46722E-05 4.29807E-05-3.39766E-19 2.79267E-18
 -1      2916 1.01474E-04-5.00968E-05-2.16091E-05 3.74944E-05-8.00023E-19 1.20701E-18
 -1      2917 5.31770E-05-2.58127E-05-1.11351E-05-3.81895E-05 1.57125E-19 3.62530E-19
 -1      2918 6.99244E-05-3.62084E-05-1.43716E-05-4.47346E-05 5.77994E-19 1.13926E-18
 -1      2919 1.31861E-04-1.75406E-05-4.97052E-05-1.05077E-05 4.57101E-18-1.35811E-18
 -1      2920 1.37107E-04-2.63554E-05-4.78672E-05-1.07462E-05 3.63208E-18-2.00112E-20
 -1      2921 1.28855E-04-1.49828E-05-4.92124E-05 1.06202E-05 2.62496E-18 8.04099E-19
 -1      2922 1.27029E-04-9.36804E-06-5.11870E-05 5.84029E-06 3.92303E-18 1.23921E-18
 -1      2923 1.38831E-04-3.65840E-05-4.39884E-05 8.45764E-06 6.80485E-19 1.17791E-18
 -1      2924 1.34327E-04-2.63132E-05-4.70669E-05 1.11814E-05 8.48515E-19 3.25472E-19
 -1      2925 1.22630E-04-5.82160E-05-2.72317E-05-2.87610E-05-5.91970E-19 7.87741E-20
 -1      2926 1.31670E-04-5.88112E-05-3.16651E-05-2.05846E-05-7.97587E-19 1.14635E-18
 -1      2927 8.90070E-05-4.64110E-05-1.77138E-05-4.35608E-05 9.24642E-19 1.42005E-18
 -1      2928 1.07484E-04-5.46606E-05-2.28597E-05-3.93304E-05 9.28560E-20 2.41782E-19
 -1      2929 3.10310E-05-1.15774E-05-7.73900E-06-1.41565E-05-9.75411E-19-2.71728E-18
 -1      2930 3.87670E-05-1.62979E-05-9.27522E-06-2.80639E-05-3.05144E-19-1.39464E-18
 -1      2931 3.54860E-05-1.16241E-05-9.71142E-06 9.85896E-06-1.28770E-18-2.30266E-18
 -1      2932 3.04133E-05-1.00864E-05-8.03794E-06-3.39142E-06-8.77950E-19-2.66222E-18
 -1      2933 3.96944E-05-1.00589E-05-1.20664E-05-8.61946E-06-1.61815E-18-2.93825E-18
 -1      2934 1.23374E-04-6.03701E-05-2.66241E-05 2.54072E-05 2.58451E-19 6.48020E-19
 -1      2935 1.57197E-04-4.10322E-05-4.95575E-05-2.39538E-05-8.25010E-19-1.60449E-18
 -1      2936 9.20386E-05-1.66588E-05-3.23131E-05-9.02482E-06-1.09545E-18-2.42324E-18
 -1      2937 1.40332E-04-3.57666E-05-4.54563E-05-7.70381E-06 3.06700E-18-1.25784E-19
 -1      2938 1.41107E-04-4.45425E-05-4.14799E-05-3.52334E-06 3.47040E-18-1.98735E-19
 -1      2939 1.33547E-04-3.15506E-05-4.40094E-05-1.09648E-05 3.11623E-18-2.79521E-20
 -1      2940 9.12914E-05-1.63925E-05-3.20874E-05 2.87068E-08 1.00974E-18-1.92491E-18
 -1      2941 9.01691E-05-1.46035E-05-3.24047E-05-3.83079E-07 9.88910E-19-2.14920E-18
 -1      2942 9.02258E-05-1.46839E-05-3.23947E-05-1.34092E-06 8.00819E-19-2.36096E-18
 -1      2943 9.44851E-05-2.13986E-05-3.13167E-05 7.87020E-06 2.13613E-18 9.26826E-19
 -1      2944 4.51288E-05-1.43754E-05-1.24525E-05 1.71458E-05-1.12354E-18-1.13418E-18
 -1      2945 4.66364E-05-1.08994E-05-1.49070E-05 9.74571E-06-1.94582E-18-1.54965E-18
 -1      2946 5.63049E-05-1.80049E-05-1.61959E-05 2.25218E-05-1.23593E-18-4.73491E-19
 -1      2947 8.26462E-05-3.15523E-05-2.18456E-05 2.96406E-05-1.54795E-19-2.10313E-18
 -1      2948 1.12870E-04-5.51351E-05-2.43039E-05-2.89047E-05 3.16102E-18 6.05404E-19
 -1      2949 5.14646E-05-1.74578E-05-1.42100E-05 2.52697E-05 1.89190E-18 3.58464E-18
 -1      2950 4.07945E-05-1.51499E-05-1.03551E-05 2.24564E-05 1.98841E-18 3.03238E-18
 -1      2951 4.06896E-05-1.16105E-05-1.19754E-05 1.41872E-05 2.22209E-18 2.84201E-18
 -1      2952 1.32445E-04-6.34793E-05-2.95631E-05-2.00581E-05 1.27860E-18-1.75815E-18
 -1      2953 9.76805E-05-2.98836E-05-2.90650E-05 3.54990E-06-4.52423E-19-2.38426E-19
 -1      2954 8.42398E-05-3.23332E-05-2.19572E-05-3.13463E-05 2.51008E-18 4.31960E-18
 -1      2955 9.15597E-05-1.66695E-05-3.21149E-05-5.58316E-06-1.93920E-19-2.29375E-18
 -1      2956 9.20363E-05-1.73722E-05-3.20229E-05-6.41474E-06-5.54577E-19-2.30310E-18
 -1      2957 9.24297E-05-1.81844E-05-3.17984E-05-4.57970E-06-1.35202E-19-2.07914E-18
 -1      2958 6.99730E-05-3.20092E-05-1.57794E-05 3.80297E-05-9.31736E-20 3.10872E-18
 -1      2959 6.37614E-05-2.67026E-05-1.55357E-05-3.05019E-05 2.90892E-18 2.10043E-18
 -1      2960 3.59095E-05-1.22250E-05-9.42768E-06-9.70186E-06 1.17634E-18-2.57371E-18
 -1      2961 4.54850E-05-1.35258E-05-1.32215E-05-1.52932E-05 1.65934E-18-3.46225E-19
 -1      2962 3.79416E-05-9.99250E-06-1.14930E-05-7.34216E-07 2.03157E-18-5.52054E-19
 -1      2963 9.06159E-05-2.14719E-05-2.96370E-05-8.02692E-06-3.96685E-19 2.72853E-18
 -1      2964 8.95200E-05-2.06251E-05-2.95601E-05-7.01916E-06-8.83776E-19 2.54724E-18
 -1      2965 8.78664E-05-1.98335E-05-2.91486E-05-6.55862E-06-5.20645E-19 3.10670E-18
 -1      2966 9.04010E-05-2.14092E-05-2.95348E-05-8.99391E-06-5.19358E-19 3.97573E-18
 -1      2967 9.53516E-05-2.57594E-05-2.98575E-05 2.57943E-06 1.47178E-18 2.83811E-19
 -1      2968 9.52026E-05-2.59023E-05-2.96995E-05 2.74353E-06 1.39918E-18 8.22853E-19
 -1      2969 9.52274E-05-2.55535E-05-2.98360E-05 3.44927E-06 1.53279E-18 1.01068E-18
 -1      2970 9.97345E-05-4.90702E-05-2.14070E-05 3.19624E-05 3.88788E-19-9.87852E-19
 -1      2971 8.39439E-05-4.05792E-05-1.80783E-05-4.06683E-05-9.67735E-20 1.37643E-18
 -1      2972 1.15013E-04-5.53818E-05-2.53816E-05-3.13975E-05-4.07317E-19 5.30891E-19
 -1      2973 1.36867E-04-4.96411E-05-3.75311E-05-4.65392E-07 1.56918E-18-1.14900E-18
 -1      2974 1.32898E-04-5.58130E-05-3.30449E-05-1.09767E-05-7.43245E-19 9.72659E-19
 -1      2975 8.29412E-05-3.97970E-05-1.78874E-05 3.51026E-05 7.43166E-19-2.31918E-18
 -1      2976 7.47886E-05-3.19563E-05-1.78767E-05 3.19253E-05 2.92438E-19-1.94669E-18
 -1      2977 1.35006E-04-4.24561E-05-3.98247E-05 6.56505E-06 3.09458E-19 7.74559E-19
 -1      2978 9.47557E-05-2.24171E-05-3.09684E-05 6.34534E-06 1.95725E-18 7.58842E-19
 -1      2979 1.26833E-04-5.80976E-05-2.93183E-05 2.11038E-05-1.05106E-18 2.42516E-19
 -1      2980 1.26787E-04-2.16714E-05-4.53983E-05 1.15490E-05 1.73652E-18 1.33847E-18
 -1      2981 1.27044E-04-1.37288E-05-4.90553E-05-9.18451E-06 4.07793E-18-4.61633E-20
 -1      2982 1.24033E-04-1.83925E-05-4.56251E-05-1.10255E-05 3.64690E-18-5.43557E-19
 -1      2983 1.20285E-04-1.02357E-05-4.76033E-05-7.04030E-06 3.48713E-18-1.45584E-21
 -1      2984 9.03509E-05-1.48750E-05-3.23669E-05-2.17791E-06 6.84007E-19-2.32597E-18
 -1      2985 9.05354E-05-1.51387E-05-3.23347E-05-3.12893E-06 4.54502E-19-2.41620E-18
 -1      2986 9.17850E-05-1.71599E-05-3.19668E-05-3.14355E-06 3.18528E-19-2.30270E-18
 -1      2987 9.14103E-05-1.65766E-05-3.20587E-05-1.58326E-06 6.54978E-19-2.21728E-18
 -1      2988 1.21589E-04-8.82428E-06-4.88286E-05 3.28918E-06 3.73711E-18 1.12407E-18
 -1      2989 5.29107E-05-2.04885E-05-1.32736E-05-3.06864E-05-1.76183E-19-9.17443E-19
 -1      2990 9.28213E-05-1.84306E-05-3.18798E-05-7.47238E-06-8.79347E-19-2.31826E-18
 -1      2991 9.42646E-05-2.18860E-05-3.10646E-05 4.98762E-06 1.91012E-18 5.70953E-20
 -1      2992 9.38061E-05-2.09143E-05-3.12457E-05 4.63016E-06 1.82624E-18-3.00262E-19
 -1      2993 9.53782E-05-2.53532E-05-2.99872E-05 4.67739E-06 1.64022E-18 1.58712E-18
 -1      2994 9.56829E-05-2.68927E-05-2.94676E-05-7.31631E-07-3.71793E-19-1.10790E-18
 -1      2995 9.56589E-05-2.73565E-05-2.92808E-05-1.87131E-07-3.62395E-19-9.47585E-19
 -1      2996 9.57007E-05-2.77335E-05-2.91173E-05 1.88176E-07-4.73089E-19-7.63649E-19
 -1      2997 9.56644E-05-2.80143E-05-2.89973E-05 4.96118E-07-3.68130E-19-6.96597E-19
 -1      2998 9.59020E-05-2.73512E-05-2.93823E-05-1.42357E-07-3.33170E-19-7.50325E-19
 -1      2999 9.56551E-05-2.82469E-05-2.88812E-05 7.16887E-07-2.11313E-19-7.79243E-19
 -1      3000 9.56239E-05-2.84227E-05-2.88025E-05 8.80986E-07-1.01932E-19-5.64885E-19
 -1      3001 9.59404E-05-2.80639E-05-2.90938E-05 4.87533E-07-3.34909E-19-6.39744E-19
 -1      3002 9.55910E-05-2.85592E-05-2.87227E-05 9.91375E-07-1.71009E-19-6.08428E-19
 -1      3003 9.55692E-05-2.86649E-05-2.86738E-05 1.06033E-06-1.49756E-19-6.14502E-19
 -1      3004 9.59051E-05-2.85044E-05-2.88896E-05 8.44689E-07-1.94481E-19-8.85040E-19
 -1      3005 9.55269E-05-2.87371E-05-2.86212E-05 1.09749E-06-1.73146E-19-3.32354E-19
 -1      3006 9.55139E-05-2.87949E-05-2.85935E-05 1.10702E-06-2.16887E-19-3.19133E-19
 -1      3007 9.58360E-05-2.87605E-05-2.87497E-05 1.01225E-06-1.38058E-19-6.72344E-19
 -1      3008 9.54696E-05-2.88238E-05-2.85610E-05 1.09952E-06-2.63255E-19 3.09429E-20
 -1      3009 9.54637E-05-2.88484E-05-2.85484E-05 1.07563E-06-2.13432E-19 1.19639E-19
 -1      3010 9.57542E-05-2.88908E-05-2.86582E-05 1.05706E-06-6.09489E-20-5.00368E-19
 -1      3011 9.54208E-05-2.88480E-05-2.85308E-05 1.04468E-06-1.03044E-19 4.34709E-19
 -1      3012 9.54201E-05-2.88495E-05-2.85288E-05 1.00609E-06-1.50676E-20 3.58195E-19
 -1      3013 9.56707E-05-2.89352E-05-2.86029E-05 1.02995E-06-1.12511E-19-1.00758E-19
 -1      3014 9.53800E-05-2.88289E-05-2.85223E-05 9.67244E-07-2.85148E-19 5.86965E-19
 -1      3015 9.53828E-05-2.88136E-05-2.85280E-05 9.27498E-07-4.55080E-19 2.77357E-19
 -1      3016 9.55905E-05-2.89203E-05-2.85745E-05 9.68595E-07-3.95507E-20 2.04012E-19
 -1      3017 9.53456E-05-2.87784E-05-2.85297E-05 8.92107E-07-2.52754E-19 4.19268E-19
 -1      3018 9.53510E-05-2.87505E-05-2.85411E-05 8.61190E-07 7.43978E-20 6.49646E-19
 -1      3019 9.55152E-05-2.88634E-05-2.85662E-05 9.00676E-07-1.94742E-19 4.39526E-19
 -1      3020 9.53140E-05-2.87012E-05-2.85497E-05 8.36757E-07-1.13068E-19 3.52262E-19
 -1      3021 9.53206E-05-2.86600E-05-2.85667E-05 8.22642E-07 1.68903E-19 3.51001E-19
 -1      3022 9.54420E-05-2.87724E-05-2.85736E-05 8.45739E-07-1.38348E-19 5.22212E-19
 -1      3023 9.52843E-05-2.86015E-05-2.85801E-05 8.19096E-07 1.94208E-19 6.27215E-19
 -1      3024 9.52911E-05-2.85514E-05-2.86005E-05 8.29357E-07 7.11484E-20 7.49545E-19
 -1      3025 9.53697E-05-2.86531E-05-2.85933E-05 8.22082E-07 2.85618E-19 6.31767E-19
 -1      3026 9.52513E-05-2.84803E-05-2.86183E-05 8.50647E-07-7.16637E-20 1.08992E-18
 -1      3027 9.52570E-05-2.84178E-05-2.86429E-05 8.90686E-07-4.04596E-19 9.39414E-19
 -1      3028 9.52948E-05-2.85091E-05-2.86225E-05 8.42511E-07 3.48428E-19 1.17897E-18
 -1      3029 9.52086E-05-2.83306E-05-2.86647E-05 9.42365E-07-6.73726E-19 1.03171E-18
 -1      3030 9.52107E-05-2.82521E-05-2.86938E-05 1.01882E-06-6.02431E-19 1.18487E-18
 -1      3031 9.52076E-05-2.83330E-05-2.86602E-05 9.17216E-07-2.90090E-19 1.08922E-18
 -1      3032 9.51467E-05-2.81430E-05-2.87194E-05 1.10663E-06-6.54193E-19 8.29752E-19
 -1      3033 9.51414E-05-2.80427E-05-2.87535E-05 1.22708E-06-5.54017E-19 5.91958E-19
 -1      3034 9.50967E-05-2.81153E-05-2.87053E-05 1.05713E-06-7.61666E-19 5.13454E-19
 -1      3035 9.50514E-05-2.79029E-05-2.87825E-05 1.35724E-06-7.34964E-19 7.74672E-19
 -1      3036 9.50319E-05-2.77724E-05-2.88221E-05 1.53063E-06-9.96085E-19 8.16297E-19
 -1      3037 9.49453E-05-2.78409E-05-2.87571E-05 1.27339E-06-5.57894E-19 1.21253E-19
 -1      3038 9.49009E-05-2.75899E-05-2.88536E-05 1.70990E-06-1.26728E-18 1.21253E-18
 -1      3039 9.48561E-05-2.74173E-05-2.88988E-05 1.94680E-06-8.39748E-19 1.05200E-18
 -1      3040 9.47289E-05-2.74888E-05-2.88138E-05 1.57750E-06-9.63739E-19 8.31696E-19
 -1      3041 9.46620E-05-2.71755E-05-2.89309E-05 2.18225E-06-9.78287E-19 7.45548E-19
 -1      3042 9.45744E-05-2.69447E-05-2.89807E-05 2.49480E-06-1.04411E-18 5.28925E-19
 -1      3043 9.44114E-05-2.70299E-05-2.88722E-05 1.98078E-06-1.04171E-18 1.00527E-18
 -1      3044 9.42854E-05-2.66224E-05-2.90096E-05 2.79335E-06-1.07762E-18-1.58179E-19
 -1      3045 9.41297E-05-2.63129E-05-2.90611E-05 3.19482E-06-1.10157E-18-2.93921E-19
 -1      3046 9.39405E-05-2.64258E-05-2.89259E-05 2.49315E-06-1.48227E-18-5.72042E-20
 -1      3047 9.36768E-05-2.58582E-05-2.90801E-05 3.58114E-06-6.63672E-19-1.83545E-19
 -1      3048 9.33899E-05-2.54205E-05-2.91276E-05 4.11489E-06-2.80247E-19-3.17010E-19
 -1      3049 9.32194E-05-2.56068E-05-2.89635E-05 3.13971E-06-6.62139E-19-3.66197E-19
 -1      3050 9.27432E-05-2.48431E-05-2.91208E-05 4.55773E-06 3.48246E-19-1.49670E-19
 -1      3051 9.22996E-05-2.42931E-05-2.91466E-05 5.18282E-06 1.03201E-18 3.06465E-19
 -1      3052 9.21474E-05-2.45227E-05-2.89603E-05 3.90247E-06 4.35319E-19 1.39794E-20
 -1      3053 9.13639E-05-2.35474E-05-2.90924E-05 5.69909E-06 1.01955E-18-4.75248E-19
 -1      3054 9.06789E-05-2.28515E-05-2.90735E-05 6.44946E-06 7.41397E-19-7.21671E-19
 -1      3055 9.06127E-05-2.31520E-05-2.88795E-05 4.75365E-06 5.65875E-19 1.43544E-19
 -1      3056 8.93431E-05-2.19234E-05-2.89332E-05 7.04122E-06 9.18708E-19-1.13198E-18
 -1      3057 8.83361E-05-2.10957E-05-2.88265E-05 7.92843E-06 4.77071E-19-5.77520E-19
 -1      3058 8.84056E-05-2.14268E-05-2.86583E-05 5.69111E-06 6.39536E-19-3.60349E-19
 -1      3059 8.64677E-05-2.00115E-05-2.85364E-05 8.61205E-06 1.60663E-19-6.00369E-19
 -1      3060 8.50767E-05-1.91360E-05-2.82708E-05 9.66546E-06-6.26871E-20-6.32208E-19
 -1      3061 8.52913E-05-1.93506E-05-2.81933E-05 6.70489E-06 7.84736E-19-1.20755E-18
 -1      3062 8.25116E-05-1.80031E-05-2.77242E-05 1.05236E-05-1.71322E-19 5.16293E-20
 -1      3063 8.07672E-05-1.73296E-05-2.71862E-05 1.18393E-05-4.96687E-19 4.57795E-19
 -1      3064 8.09748E-05-1.70131E-05-2.73140E-05 7.84281E-06 5.48084E-19-1.09935E-18
 -1      3065 7.73308E-05-1.64067E-05-2.62087E-05 1.30740E-05-1.42230E-18 6.06019E-19
 -1      3066 7.54794E-05-1.64335E-05-2.52399E-05 1.48985E-05-9.06941E-19 6.09798E-20
 -1      3067 7.51012E-05-1.47099E-05-2.57308E-05 9.36981E-06-1.20029E-18-3.50744E-19
 -1      3068 7.60446E-05-2.18791E-05-2.30688E-05-2.38383E-05 9.83564E-19 2.22772E-18
 -1      3069 7.62064E-05-1.92283E-05-2.44671E-05-2.08562E-05 1.56195E-18 1.92164E-18
 -1      3070 7.98614E-05-1.89321E-05-2.60376E-05-1.84718E-05 1.65706E-18 8.30393E-19
 -1      3071 8.08979E-05-1.84158E-05-2.68571E-05-1.65866E-05-2.71557E-19-2.16033E-19
 -1      3072 7.14622E-05-1.57106E-05-2.36991E-05-1.66672E-05 1.03652E-18-2.32378E-19
 -1      3073 8.38765E-05-1.89893E-05-2.77863E-05-1.50463E-05-1.23500E-18 7.63163E-19
 -1      3074 8.50870E-05-1.93118E-05-2.82510E-05-1.35577E-05-1.23072E-18 1.28550E-18
 -1      3075 7.80496E-05-1.63524E-05-2.63230E-05-1.33241E-05-1.43367E-20 8.00072E-19
 -1      3076 8.73902E-05-2.01484E-05-2.88119E-05-1.24471E-05-1.07937E-18 1.92477E-18
 -1      3077 8.84063E-05-2.06582E-05-2.90703E-05-1.11815E-05-5.72689E-19 2.89137E-18
 -1      3078 8.33105E-05-1.80513E-05-2.79065E-05-1.11549E-05-5.02372E-19 3.33817E-18
 -1      3079 9.55767E-05-2.76765E-05-2.91058E-05-1.50703E-07 9.82523E-19-2.38127E-20
 -1      3080 9.56302E-05-2.73344E-05-2.92537E-05 2.80293E-07 1.10693E-18-8.65253E-20
 -1      3081 9.55484E-05-2.68561E-05-2.94508E-05 7.51070E-07 1.18921E-18-7.65843E-20
 -1      3082 9.56020E-05-2.63391E-05-2.96625E-05 1.45171E-06 1.25008E-18-9.11711E-20
 -1      3083 9.57914E-05-2.68632E-05-2.95557E-05 6.59874E-07 1.16465E-18-2.30744E-19
 -1      3084 9.54023E-05-2.87891E-05-2.85477E-05-1.11645E-06 5.77251E-20 5.20185E-20
 -1      3085 9.54062E-05-2.87466E-05-2.85661E-05-1.12416E-06 8.26808E-20 2.20925E-19
 -1      3086 9.54469E-05-2.86964E-05-2.86073E-05-1.10993E-06 2.82422E-19 3.09454E-19
 -1      3087 9.54601E-05-2.86151E-05-2.86437E-05-1.06956E-06 5.39644E-19 2.16783E-19
 -1      3088 9.57153E-05-2.87980E-05-2.86817E-05-1.06540E-06 2.71277E-19 1.81605E-19
 -1      3089 9.53351E-05-2.88092E-05-2.85096E-05-9.82702E-07 6.55868E-19-1.26515E-20
 -1      3090 9.53281E-05-2.88123E-05-2.85068E-05-1.02482E-06 5.20715E-19 1.90002E-20
 -1      3091 9.53112E-05-2.87694E-05-2.85162E-05-9.02256E-07 9.43454E-19-3.62022E-19
 -1      3092 9.53014E-05-2.87856E-05-2.85074E-05-9.42022E-07 9.00414E-19-1.28720E-19
 -1      3093 9.54970E-05-2.88760E-05-2.85532E-05-9.52768E-07 8.46068E-19-2.32502E-19
 -1      3094 9.52926E-05-2.87098E-05-2.85336E-05-8.38912E-07 4.09267E-19-3.71417E-19
 -1      3095 9.52808E-05-2.87351E-05-2.85206E-05-8.68166E-07 6.25220E-19-4.05969E-19
 -1      3096 9.54344E-05-2.88149E-05-2.85523E-05-8.83215E-07 7.22325E-19-3.00600E-19
 -1      3097 9.52790E-05-2.86366E-05-2.85590E-05-8.05519E-07 3.42261E-19-1.56401E-19
 -1      3098 9.52651E-05-2.86681E-05-2.85429E-05-8.18437E-07 5.80357E-19-9.68952E-20
 -1      3099 9.53774E-05-2.87314E-05-2.85634E-05-8.32530E-07 3.01979E-19 2.47008E-20
 -1      3100 9.52706E-05-2.85546E-05-2.85904E-05-8.11386E-07-2.59165E-19-1.54595E-19
 -1      3101 9.52539E-05-2.85899E-05-2.85718E-05-8.03825E-07 4.37859E-20-3.09585E-19
 -1      3102 9.53252E-05-2.86324E-05-2.85832E-05-8.13403E-07 2.79556E-19 4.25221E-19
 -1      3103 9.52690E-05-2.84685E-05-2.86265E-05-8.63151E-07 4.75429E-19-3.60368E-19
 -1      3104 9.52481E-05-2.85050E-05-2.86058E-05-8.32325E-07 1.30946E-19-2.41351E-19
 -1      3105 9.52777E-05-2.85234E-05-2.86095E-05-8.35273E-07 1.19759E-19 7.58392E-20
 -1      3106 9.52775E-05-2.83845E-05-2.86660E-05-9.65007E-07 5.85273E-20-3.41558E-19
 -1      3107 9.52499E-05-2.84187E-05-2.86436E-05-9.09488E-07 3.01744E-19-3.46767E-19
 -1      3108 9.52358E-05-2.84099E-05-2.86401E-05-9.05133E-07 2.40218E-19-2.02821E-19
 -1      3109 9.53025E-05-2.83115E-05-2.87078E-05-1.11829E-06-5.43831E-21 3.03684E-19
 -1      3110 9.52642E-05-2.83383E-05-2.86841E-05-1.03835E-06-2.78442E-19-2.23208E-19
 -1      3111 9.52027E-05-2.82992E-05-2.86735E-05-1.02776E-06-3.67382E-20-8.91692E-20
 -1      3112 9.53542E-05-2.82636E-05-2.87503E-05-1.32037E-06-3.76227E-19 5.62268E-19
 -1      3113 9.52996E-05-2.82753E-05-2.87261E-05-1.21869E-06-2.16740E-20 6.87489E-19
 -1      3114 9.51854E-05-2.82027E-05-2.87077E-05-1.20531E-06-2.01064E-19 7.14044E-19
 -1      3115 9.54493E-05-2.82620E-05-2.87918E-05-1.56265E-06 1.33063E-20 5.44368E-19
 -1      3116 9.53699E-05-2.82472E-05-2.87677E-05-1.44548E-06-1.46268E-19 4.96919E-19
 -1      3117 9.51965E-05-2.81381E-05-2.87406E-05-1.43625E-06-1.67325E-19 7.98813E-19
 -1      3118 9.56120E-05-2.83366E-05-2.88297E-05-1.82776E-06-3.55223E-19 1.79140E-19
 -1      3119 9.54965E-05-2.82797E-05-2.88071E-05-1.70644E-06 1.25706E-19 3.96982E-19
 -1      3120 9.52567E-05-2.81321E-05-2.87699E-05-1.71329E-06-3.59736E-21 7.27106E-19
 -1      3121 9.58767E-05-2.85279E-05-2.88617E-05-2.08573E-06-2.89392E-21 1.20983E-19
 -1      3122 9.57099E-05-2.84086E-05-2.88417E-05-1.97865E-06-3.18457E-19 7.01674E-20
 -1      3123 9.53977E-05-2.82227E-05-2.87929E-05-2.02045E-06 1.26758E-20 2.79881E-19
 -1      3124 9.62882E-05-2.88854E-05-2.88861E-05-2.28942E-06 4.28967E-20 6.51723E-19
 -1      3125 9.60518E-05-2.86796E-05-2.88697E-05-2.22404E-06 9.82187E-20 6.12775E-19
 -1      3126 9.56650E-05-2.84601E-05-2.88077E-05-2.32871E-06-1.46124E-19 3.78585E-19
 -1      3127 9.69000E-05-2.94618E-05-2.89032E-05-2.36957E-06 3.90675E-20 4.51741E-19
 -1      3128 9.65746E-05-2.91461E-05-2.88904E-05-2.38424E-06 5.41185E-20 5.19707E-19
 -1      3129 9.61191E-05-2.89055E-05-2.88142E-05-2.59043E-06 6.06516E-20 1.23014E-18
 -1      3130 9.77661E-05-3.03001E-05-2.89183E-05-2.23108E-06-3.10158E-19 2.05881E-19
 -1      3131 9.73364E-05-2.98592E-05-2.89068E-05-2.37538E-06-1.41225E-20 3.39071E-19
 -1      3132 9.68331E-05-2.96234E-05-2.88160E-05-2.73239E-06 2.38485E-19 8.80305E-19
 -1      3133 9.89230E-05-3.14074E-05-2.89443E-05-1.75348E-06 2.38838E-19 4.55068E-19
 -1      3134 9.83878E-05-3.08488E-05-2.89282E-05-2.08532E-06 1.12996E-19 1.56629E-19
 -1      3135 9.78826E-05-3.06638E-05-2.88236E-05-2.64895E-06-3.89840E-19 2.53131E-19
 -1      3136 1.00358E-04-3.27135E-05-2.90056E-05-8.02005E-07-6.81184E-19 6.71059E-19
 -1      3137 9.97460E-05-3.20897E-05-2.89735E-05-1.37781E-06-1.48390E-19 7.58134E-19
 -1      3138 9.93228E-05-3.20286E-05-2.88588E-05-2.19857E-06-2.44971E-19 5.21278E-19
 -1      3139 1.01960E-04-3.40173E-05-2.91401E-05 7.38694E-07-3.43480E-19 1.30061E-19
 -1      3140 1.01351E-04-3.34518E-05-2.90750E-05-1.13906E-07-3.62431E-19 2.84615E-19
 -1      3141 1.01145E-04-3.36188E-05-2.89584E-05-1.21230E-06 1.02370E-19 7.54366E-19
 -1      3142 1.03474E-04-3.49378E-05-2.93974E-05 2.89236E-06 2.03614E-19 2.79183E-19
 -1      3143 1.03008E-04-3.46433E-05-2.92780E-05 1.79367E-06 3.84639E-22 2.38579E-19
 -1      3144 1.03211E-04-3.51643E-05-2.91759E-05 4.67849E-07-1.65636E-19 7.66715E-19
 -1      3145 1.04480E-04-3.49262E-05-2.98273E-05 5.46043E-06-8.98167E-20 5.53165E-19
 -1      3146 1.04345E-04-3.51778E-05-2.96346E-05 4.26938E-06-1.51060E-19 2.99108E-19
 -1      3147 1.05177E-04-3.61597E-05-2.95772E-05 2.89279E-06-1.19454E-19 1.37498E-18
 -1      3148 1.04498E-04-3.34421E-05-3.04526E-05 7.87943E-06 6.79628E-19 2.65814E-19
 -1      3149 1.04852E-04-3.44627E-05-3.01833E-05 6.91509E-06 5.38873E-19 2.23796E-19
 -1      3150 1.06478E-04-3.59100E-05-3.02208E-05 5.81913E-06 8.87962E-20 1.12878E-18
 -1      3151 1.03257E-04-3.03109E-05-3.12340E-05 9.20819E-06 2.90465E-19 6.45655E-19
 -1      3152 1.04107E-04-3.20828E-05-3.09135E-05 8.91949E-06 5.14355E-19 4.18797E-19
 -1      3153 1.06501E-04-3.38043E-05-3.11175E-05 8.52182E-06 3.92829E-19 6.67061E-19
 -1      3154 1.01039E-04-2.61756E-05-3.20347E-05 8.38161E-06 3.50342E-19 4.00006E-19
 -1      3155 1.02118E-04-2.82328E-05-3.17312E-05 9.17423E-06 2.14279E-19 3.05158E-19
 -1      3156 1.04946E-04-2.97630E-05-3.21829E-05 9.79291E-06 1.45918E-19 8.11135E-19
 -1      3157 9.89078E-05-2.26235E-05-3.26425E-05 5.00872E-06-2.27127E-19-1.47031E-20
 -1      3158 9.97242E-05-2.41584E-05-3.24405E-05 6.86625E-06 3.58434E-20-9.30653E-20
 -1      3159 1.02402E-04-2.49312E-05-3.31902E-05 8.35520E-06 2.40895E-19 5.20876E-19
 -1      3160 9.81092E-05-2.14999E-05-3.28352E-05-2.19069E-07 3.02490E-19-2.94675E-20
 -1      3161 9.81459E-05-2.16358E-05-3.28238E-05 2.17439E-06 1.93229E-21-4.48611E-19
 -1      3162 1.00195E-04-2.12911E-05-3.38053E-05 4.05469E-06 3.09696E-19 3.22220E-19
 -1      3163 9.92260E-05-2.34030E-05-3.25398E-05-5.16143E-06 3.99584E-19-5.78848E-19
 -1      3164 9.85615E-05-2.21399E-05-3.27116E-05-3.09025E-06 8.13029E-19-2.57716E-19
 -1      3165 1.00055E-04-2.09654E-05-3.39086E-05-1.88775E-06 8.39962E-19-1.32657E-18
 -1      3166 1.01556E-04-2.73415E-05-3.18747E-05-8.05996E-06-7.33105E-20-1.03453E-18
 -1      3167 1.00511E-04-2.53121E-05-3.21727E-05-7.01795E-06-2.81590E-19-1.24760E-18
 -1      3168 1.01847E-04-2.39742E-05-3.33751E-05-6.79243E-06 5.38303E-19-1.88041E-18
 -1      3169 1.03766E-04-3.14552E-05-3.10435E-05-8.29478E-06-2.67067E-19-1.87635E-18
 -1      3170 1.02842E-04-2.95334E-05-3.13789E-05-8.39814E-06 2.69932E-19-8.86913E-19
 -1      3171 1.04515E-04-2.88194E-05-3.24104E-05-8.91333E-06-7.78666E-20-2.09849E-18
 -1      3172 1.04835E-04-3.42599E-05-3.02697E-05-6.49041E-06-3.13131E-19-1.37535E-18
 -1      3173 1.04380E-04-3.30466E-05-3.05623E-05-7.39149E-06-5.31893E-19-1.39474E-18
 -1      3174 1.06455E-04-3.32579E-05-3.13242E-05-8.08946E-06-7.46580E-19-1.91493E-18
 -1      3175 1.04561E-04-3.53093E-05-2.96758E-05-3.78952E-06-5.92740E-19 6.98941E-19
 -1      3176 1.04631E-04-3.49239E-05-2.98894E-05-5.01359E-06-5.74976E-19 9.59530E-20
 -1      3177 1.06836E-04-3.58816E-05-3.03793E-05-5.47445E-06-1.21379E-18-1.82554E-19
 -1      3178 1.03291E-04-3.49024E-05-2.92912E-05-1.13690E-06-5.48341E-19 1.00812E-18
 -1      3179 1.03760E-04-3.51658E-05-2.94223E-05-2.30669E-06 5.38002E-20 5.34400E-19
 -1      3180 1.05772E-04-3.64753E-05-2.96925E-05-2.39152E-06-5.52304E-19 1.33946E-18
 -1      3181 1.01535E-04-3.36220E-05-2.90904E-05 9.29603E-07 9.31152E-19 1.18518E-18
 -1      3182 1.02214E-04-3.42460E-05-2.91526E-05 4.56972E-08-1.20511E-19 1.13839E-18
 -1      3183 1.03859E-04-3.55678E-05-2.92746E-05 2.75889E-07-4.44220E-19 2.68272E-19
 -1      3184 9.08377E-05-2.44873E-05-2.84804E-05 7.88046E-06 1.27589E-19-1.95787E-19
 -1      3185 9.24858E-05-2.57238E-05-2.85636E-05 8.45319E-06-1.06099E-19-5.41331E-19
 -1      3186 8.10255E-05-3.58428E-05-1.93475E-05 3.67482E-05-7.48671E-19-1.06567E-19
 -1      3187 6.66047E-05-2.56994E-05-1.71518E-05 3.19930E-05 1.05191E-19 2.20917E-18
 -1      3188 6.82034E-05-2.51028E-05-1.81938E-05-2.83629E-05 2.19689E-18 2.48657E-18
 -1      3189 7.18414E-05-2.23680E-05-2.11696E-05-2.55525E-05 1.00662E-18 2.45142E-18
 -1      3190 6.37504E-05-1.58001E-05-2.00259E-05-1.97646E-05 2.51463E-19 5.17167E-19
 -1      3191 5.40117E-05-1.63719E-05-1.52714E-05-2.24326E-05 1.14651E-18 3.48978E-19
 -1      3192 9.41468E-05-2.72018E-05-2.87155E-05 8.47095E-06-5.57161E-19-2.36769E-18
 -1      3193 9.54961E-05-2.82337E-05-2.87889E-05 8.32396E-06-1.38103E-19-2.27807E-18
 -1      3194 9.34628E-05-2.74261E-05-2.83305E-05 9.53014E-06-6.08541E-19-1.73236E-18
 -1      3195 8.51636E-05-1.93768E-05-2.82376E-05 1.36457E-06 4.29093E-19-1.99977E-18
 -1      3196 8.60418E-05-2.01155E-05-2.82272E-05 3.45762E-06 1.18669E-19-6.46005E-19
 -1      3197 8.48760E-05-1.85869E-05-2.84338E-05-3.74855E-06 8.26747E-19 6.11994E-19
 -1      3198 8.46769E-05-1.86214E-05-2.83117E-05-1.38346E-06 1.17038E-18-8.42337E-19
 -1      3199 8.33918E-05-1.85281E-05-2.77577E-05 5.60877E-07 6.67609E-19-1.71510E-18
 -1      3200 9.52831E-05-2.45364E-05-3.03480E-05 4.83974E-06 1.70392E-18 8.11267E-19
 -1      3201 9.85462E-05-3.07443E-05-2.90539E-05 4.67625E-06 1.02536E-18 1.06265E-18
 -1      3202 9.86278E-05-3.08695E-05-2.90249E-05 3.44825E-06-1.80583E-19 6.24231E-19
 -1      3203 9.93344E-05-3.16708E-05-2.90141E-05 3.16296E-06 2.51892E-19 1.59758E-18
 -1      3204 1.15209E-04-1.04062E-05-4.52397E-05 4.92327E-06 3.20771E-18 1.51357E-18
 -1      3205 1.16553E-04-8.80848E-06-4.66801E-05-1.31162E-06 3.39819E-18 7.76954E-19
 -1      3206 1.31413E-04-4.52074E-05-3.67632E-05 5.43782E-06-1.74886E-19 4.56974E-19
 -1      3207 1.28660E-04-3.71256E-05-3.97772E-05 1.05116E-05 7.79906E-19 1.32701E-18
 -1      3208 1.28006E-04-5.58321E-05-3.05704E-05-1.39651E-05-1.04472E-18 1.36552E-18
 -1      3209 1.30858E-04-5.30720E-05-3.38577E-05-4.49405E-06-9.83438E-19 8.83641E-19
 -1      3210 8.75038E-05-2.16247E-05-2.82883E-05 5.49710E-06-5.20429E-20 5.82045E-19
 -1      3211 8.90085E-05-2.27630E-05-2.83448E-05 6.87496E-06-3.23370E-20 6.31753E-19
 -1      3212 8.94555E-05-2.41636E-05-2.79960E-05 8.61377E-06 5.90206E-19 2.98705E-19
 -1      3213 8.56628E-05-2.08534E-05-2.77607E-05 5.55119E-06-1.52541E-19 1.79077E-19
 -1      3214 9.53652E-05-2.88202E-05-2.85180E-05-1.06240E-06 2.44334E-19 6.08381E-20
 -1      3215 9.53625E-05-2.88046E-05-2.85239E-05-1.09541E-06 1.66902E-19-1.08755E-20
 -1      3216 9.56391E-05-2.88862E-05-2.86106E-05-1.07241E-06 1.34849E-19-3.40236E-20
 -1      3217 9.55654E-05-2.89048E-05-2.85706E-05-1.02381E-06 3.79725E-19-4.07763E-19
 -1      3218 9.54924E-05-2.55843E-05-2.99495E-05-2.12526E-06-5.32944E-19-1.37161E-18
 -1      3219 9.55380E-05-2.62817E-05-2.96935E-05-1.31298E-06-4.81765E-19-1.38060E-18
 -1      3220 9.57176E-05-2.62345E-05-2.97797E-05-1.13917E-06-2.52992E-19-1.05742E-18
 -1      3221 1.27710E-04-5.62305E-05-3.08881E-05 1.34505E-05-1.81587E-18-1.62049E-18
 -1      3222 1.19515E-04-5.57114E-05-2.70866E-05 2.44295E-05-1.59134E-18-6.12643E-19
 -1      3223 1.10228E-04-5.29336E-05-2.47514E-05 3.15628E-05-1.56272E-18-2.59907E-19
 -1      3224 9.68757E-05-4.53178E-05-2.17587E-05 3.52728E-05-1.35589E-18-7.21566E-20
 -1      3225 1.14748E-04-5.21734E-05-2.67255E-05 2.36402E-05-2.18950E-18-7.84286E-19
 -1      3226 7.81418E-05-3.46616E-05-1.82398E-05-3.78885E-05-6.16216E-19 1.75696E-18
 -1      3227 9.40920E-05-4.50807E-05-2.11251E-05-3.81668E-05-3.87465E-19 6.86679E-19
 -1      3228 9.23735E-05-1.83409E-05-3.17447E-05 1.81329E-06 1.29690E-18-1.47714E-18
 -1      3229 9.22540E-05-1.81364E-05-3.17764E-05 1.05985E-06 1.10284E-18-1.69220E-18
 -1      3230 5.16716E-05-1.51253E-05-1.52084E-05-2.33107E-05-8.45154E-19-1.34890E-18
 -1      3231 6.34964E-05-2.42896E-05-1.66988E-05-3.35915E-05-5.31619E-19 8.82344E-19
 -1      3232 7.01429E-05-2.38817E-05-1.92369E-05 2.71093E-05-4.72883E-19-1.39909E-18
 -1      3233 1.33155E-04-4.39911E-05-3.85948E-05-6.64204E-06 1.78425E-18-9.77476E-19
 -1      3234 1.32413E-04-5.13878E-05-3.47608E-05 1.57192E-06-2.36799E-19-1.50375E-18
 -1      3235 1.24729E-04-2.69792E-05-4.20139E-05 1.32543E-05 6.53804E-19 2.09662E-18
 -1      3236 1.18779E-04-1.76965E-05-4.37838E-05 1.13123E-05 1.34731E-18 1.72432E-18
 -1      3237 9.34738E-05-1.98499E-05-3.15494E-05-6.23584E-06-7.27438E-19-2.04260E-18
 -1      3238 4.32681E-05-8.79912E-06-1.44586E-05-3.17316E-06-1.55965E-18-3.17119E-18
 -1      3239 4.41349E-05-1.04591E-05-1.41744E-05-1.39730E-05-1.39287E-18-3.12047E-18
 -1      3240 9.47477E-05-2.29538E-05-3.07492E-05 4.97285E-06 1.71905E-18 3.21891E-19
 -1      3241 1.07825E-04-5.11362E-05-2.38532E-05-3.26342E-05-3.10438E-19 8.03265E-19
 -1      3242 1.19258E-04-5.57833E-05-2.75524E-05-2.47145E-05-8.54444E-19 1.67469E-18
 -1      3243 1.27457E-04-2.90312E-05-4.25750E-05-1.22787E-05 2.78489E-18-3.71265E-19
 -1      3244 1.31340E-04-3.71128E-05-4.05273E-05-1.06825E-05 2.19286E-18-2.96038E-19
 -1      3245 1.28652E-04-4.12248E-05-3.76165E-05-8.61521E-06 9.31154E-19-4.85800E-19
 -1      3246 6.59026E-05-1.88987E-05-1.99965E-05 2.19537E-05-1.28061E-18-4.72168E-19
 -1      3247 9.50532E-05-2.37571E-05-3.05077E-05 3.82721E-06 1.59326E-18 1.64418E-19
 -1      3248 9.51982E-05-2.47805E-05-3.01834E-05 2.79750E-06 1.52216E-18-1.65618E-20
 -1      3249 1.01817E-04-4.62958E-05-2.35498E-05-3.15540E-05-5.72012E-19 1.24910E-18
 -1      3250 5.42282E-05-1.13432E-05-1.81750E-05 1.05923E-05-1.63675E-18-1.27463E-18
 -1      3251 4.79701E-05-9.43576E-06-1.59923E-05 3.69159E-06-1.71692E-18-1.65574E-18
 -1      3252 5.08269E-05-9.40042E-06-1.77264E-05-1.21136E-06-9.50665E-19-2.85005E-18
 -1      3253 9.34406E-05-2.02282E-05-3.14062E-05 4.24603E-06 1.79127E-18-6.05007E-19
 -1      3254 9.30809E-05-1.95536E-05-3.15204E-05 3.65274E-06 1.62270E-18-8.56864E-19
 -1      3255 9.43681E-05-2.19958E-05-3.09846E-05 3.59816E-06 1.63641E-18-3.64988E-19
 -1      3256 7.08672E-05-1.62246E-05-2.34814E-05 1.71233E-05-6.41634E-19 2.01329E-19
 -1      3257 6.94989E-05-1.83004E-05-2.17729E-05 2.00923E-05-8.87677E-19-2.15199E-20
 -1      3258 5.52183E-05-1.39513E-05-1.72507E-05-1.78099E-05-1.38813E-18-2.44994E-18
 -1      3259 6.28952E-05-2.17762E-05-1.72330E-05 2.84150E-05 4.53110E-19 3.31910E-18
 -1      3260 5.94996E-05-1.75928E-05-1.77367E-05 2.22805E-05 9.90711E-19 2.78240E-18
 -1      3261 7.35438E-05-2.56652E-05-2.04156E-05 2.72778E-05-3.71636E-20 2.84444E-19
 -1      3262 9.55866E-05-2.79757E-05-2.89658E-05-4.61732E-07 7.95095E-19 3.38682E-20
 -1      3263 9.58485E-05-2.77039E-05-2.92105E-05-1.77876E-07 8.40674E-19-9.70593E-20
 -1      3264 9.55473E-05-2.81968E-05-2.88676E-05-7.04160E-07 6.73289E-19 1.44293E-19
 -1      3265 8.94118E-05-2.10599E-05-2.92780E-05-1.06051E-05 1.26765E-19 3.78490E-18
 -1      3266 8.96019E-05-2.11193E-05-2.93567E-05-9.54323E-06 4.28652E-19 4.28127E-18
 -1      3267 8.81442E-05-2.01454E-05-2.91382E-05-8.53817E-06-1.69000E-19 4.51933E-18
 -1      3268 8.64371E-05-1.93679E-05-2.87168E-05-9.62104E-06 3.94460E-19 4.87656E-18
 -1      3269 9.66340E-05-2.91888E-05-2.89115E-05 7.65722E-06-9.19670E-20-1.40001E-18
 -1      3270 9.74765E-05-2.98617E-05-2.89539E-05 7.04767E-06-9.17803E-19-6.35342E-19
 -1      3271 9.66540E-05-2.98799E-05-2.86479E-05 8.71987E-06-5.10571E-19-1.34877E-18
 -1      3272 9.52658E-05-2.46843E-05-3.02596E-05 2.49399E-06 1.48917E-18-1.90977E-19
 -1      3273 9.51999E-05-2.47079E-05-3.02262E-05-2.84730E-06-6.11754E-19-1.46401E-18
 -1      3274 9.52946E-05-2.46097E-05-3.02864E-05-2.49181E-06-4.96737E-19-1.22281E-18
 -1      3275 9.50362E-05-2.37597E-05-3.05501E-05-3.88436E-06-6.37136E-19-1.60539E-18
 -1      3276 9.57878E-05-2.86077E-05-2.87949E-05-9.57166E-07 7.14466E-19 8.84281E-20
 -1      3277 9.54973E-05-2.85133E-05-2.87086E-05-9.94525E-07 7.55440E-19 2.94835E-19
 -1      3278 9.55225E-05-2.83753E-05-2.87707E-05-8.74401E-07 7.71961E-19 3.48229E-19
 -1      3279 1.00150E-04-3.24070E-05-2.90201E-05 2.52776E-06 3.65605E-19 7.36138E-19
 -1      3280 1.00864E-04-3.31472E-05-2.90387E-05 1.91731E-06 1.21279E-18 1.30566E-18
 -1      3281 1.02087E-04-3.42331E-05-2.90707E-05 2.39790E-06-3.72600E-19-2.99764E-19
 -1      3282 1.00447E-04-3.27391E-05-2.90069E-05 4.02455E-06 1.09907E-18 2.07448E-18
 -1      3283 9.22356E-05-3.95606E-05-2.23469E-05 3.15267E-05-1.03372E-18-6.19128E-20
 -1      3284 1.14773E-04-1.18325E-05-4.44469E-05-4.16785E-06 3.12830E-18 9.57346E-19
 -1      3285 9.79904E-05-3.02865E-05-2.90121E-05 6.29664E-06-5.41735E-19-4.74576E-19
 -1      3286 9.83841E-05-3.06255E-05-2.90232E-05 5.48683E-06 8.11115E-19-5.73071E-19
 -1      3287 9.93189E-05-3.17894E-05-2.89636E-05 5.51576E-06 7.40004E-19-3.67784E-19
 -1      3288 9.85039E-05-3.12351E-05-2.88548E-05 7.16306E-06-2.45050E-19-9.56338E-19
 -1      3289 1.20913E-04-5.36448E-05-2.88078E-05-1.76142E-05-7.48221E-19 1.98257E-18
 -1      3290 1.27759E-04-4.79340E-05-3.42901E-05 1.26102E-06-7.60326E-19 3.30078E-19
 -1      3291 4.27912E-05-1.00826E-05-1.34319E-05 6.37907E-06 1.80511E-18 9.59159E-19
 -1      3292 4.72904E-05-9.94867E-06-1.57365E-05-1.19892E-06 2.07774E-18-1.26822E-18
 -1      3293 4.98362E-05-1.16224E-05-1.61253E-05 1.13758E-05 1.19603E-18 2.15776E-18
 -1      3294 9.27935E-05-1.90632E-05-3.16219E-05 3.11843E-06 1.57844E-18-1.10699E-18
 -1      3295 9.25527E-05-1.86311E-05-3.16897E-05 2.41313E-06 1.40809E-18-1.33293E-18
 -1      3296 9.33495E-05-1.99907E-05-3.14186E-05 1.80743E-06 1.20012E-18-1.32480E-18
 -1      3297 9.37891E-05-2.08090E-05-3.12525E-05 2.83321E-06 1.49185E-18-8.84137E-19
 -1      3298 9.40372E-05-2.14118E-05-3.11320E-05-5.00185E-06-6.54742E-19-1.89940E-18
 -1      3299 5.11148E-05-1.32558E-05-1.59692E-05-1.52306E-05 1.51767E-18-5.18384E-19
 -1      3300 9.30457E-05-1.95016E-05-3.15274E-05-3.61622E-06 7.21881E-21-1.90463E-18
 -1      3301 9.34130E-05-2.01722E-05-3.14151E-05-4.22766E-06-2.40801E-19-1.84395E-18
 -1      3302 1.14329E-04-1.48267E-05-4.29673E-05 8.66628E-06 2.51029E-18 2.24698E-18
 -1      3303 1.09364E-04-1.30768E-05-4.13988E-05 4.75140E-06 2.60013E-18 2.77941E-18
 -1      3304 1.13006E-04-1.98092E-05-4.00904E-05 1.01726E-05 1.81927E-18 1.74131E-18
 -1      3305 1.23649E-04-2.46571E-05-4.27762E-05-1.27265E-05 3.08442E-18-3.28437E-19
 -1      3306 1.22151E-04-2.99191E-05-3.96343E-05-1.21764E-05 2.22706E-18 1.83012E-19
 -1      3307 1.18132E-04-1.96762E-05-4.24620E-05-1.15654E-05 3.25097E-18 5.88026E-19
 -1      3308 8.70348E-05-1.95281E-05-2.89397E-05-6.98817E-06-6.44175E-20 2.60345E-18
 -1      3309 1.22416E-04-3.20331E-05-3.88736E-05 1.19808E-05 6.11822E-19 1.64989E-18
 -1      3310 1.29796E-04-5.42089E-05-3.23908E-05 6.18382E-06-2.01690E-18-8.88101E-19
 -1      3311 1.23148E-04-5.27905E-05-3.02213E-05 1.10518E-05-1.59344E-18-1.03456E-18
 -1      3312 1.27270E-04-4.91076E-05-3.36591E-05-6.23682E-07-9.18065E-19-1.22161E-18
 -1      3313 7.52695E-05-2.90987E-05-1.94572E-05-3.19370E-05-1.01914E-18 1.38297E-18
 -1      3314 9.31491E-05-1.96229E-05-3.14938E-05 6.32512E-07 1.00425E-18-1.61594E-18
 -1      3315 9.21958E-05-1.80386E-05-3.17946E-05 4.09765E-07 1.04827E-18-1.68454E-18
 -1      3316 9.21936E-05-1.80352E-05-3.17951E-05-3.58374E-07 8.02855E-19-1.82511E-18
 -1      3317 6.71669E-05-1.31435E-05-2.29280E-05 1.18653E-05-9.65652E-19-4.32721E-19
 -1      3318 9.25283E-05-1.86045E-05-3.16925E-05-2.37569E-06 4.45114E-19-2.12500E-18
 -1      3319 9.27584E-05-1.90069E-05-3.16265E-05-3.08380E-06 1.78269E-19-2.10995E-18
 -1      3320 9.37470E-05-2.07539E-05-3.12639E-05-2.81233E-06 5.50409E-20-1.77340E-18
 -1      3321 8.52602E-05-1.88288E-05-2.85025E-05-7.70837E-06 7.98135E-19 3.15960E-18
 -1      3322 8.52329E-05-1.86568E-05-2.85282E-05-5.71088E-06 6.72296E-19 1.05145E-18
 -1      3323 8.31303E-05-1.78706E-05-2.79481E-05-4.36429E-06 1.28782E-18 9.24271E-19
 -1      3324 8.43320E-05-1.84044E-05-2.82647E-05-8.26884E-06 7.62402E-19 2.85273E-18
 -1      3325 9.99764E-05-4.28534E-05-2.45352E-05 2.77033E-05-1.08093E-18-7.34060E-19
 -1      3326 8.73001E-05-3.40505E-05-2.26347E-05 2.83785E-05-9.47817E-20-4.16092E-19
 -1      3327 9.56861E-05-2.55592E-05-3.00497E-05-1.46275E-06-2.63695E-19-1.11027E-18
 -1      3328 9.58485E-05-2.62962E-05-2.98167E-05-8.54252E-07-1.90390E-19-1.03828E-18
 -1      3329 9.61699E-05-2.78401E-05-2.92772E-05 2.61251E-07-4.12886E-19-6.30288E-19
 -1      3330 9.61664E-05-2.81536E-05-2.91526E-05 5.12671E-07-3.98943E-19-6.71345E-19
 -1      3331 9.61733E-05-2.84110E-05-2.90354E-05 6.73087E-07-3.85607E-19-6.82669E-19
 -1      3332 9.61429E-05-2.86035E-05-2.89477E-05 8.09043E-07-2.54878E-19-7.04445E-19
 -1      3333 9.63661E-05-2.82249E-05-2.92051E-05 4.89469E-07-4.12491E-19-6.04085E-19
 -1      3334 9.61080E-05-2.87514E-05-2.88632E-05 8.86900E-07-1.08638E-19-8.17173E-19
 -1      3335 9.60671E-05-2.88601E-05-2.88036E-05 9.44647E-07 4.02017E-20-8.30603E-19
 -1      3336 9.63393E-05-2.86829E-05-2.89977E-05 7.47691E-07-1.41958E-19-7.62834E-19
 -1      3337 9.60095E-05-2.89326E-05-2.87448E-05 9.67464E-07-1.63132E-20-7.91912E-19
 -1      3338 9.59658E-05-2.89831E-05-2.87065E-05 9.76193E-07-2.92175E-20-5.50709E-19
 -1      3339 9.62491E-05-2.89394E-05-2.88492E-05 8.65260E-07 2.61651E-20-7.55531E-19
 -1      3340 9.58978E-05-2.90038E-05-2.86675E-05 9.66181E-07 4.02983E-20-3.36201E-19
 -1      3341 9.58551E-05-2.90140E-05-2.86452E-05 9.47848E-07 1.60645E-19-7.49921E-20
 -1      3342 9.61258E-05-2.90546E-05-2.87469E-05 8.92376E-07 1.49623E-19-3.46202E-19
 -1      3343 9.57835E-05-2.89991E-05-2.86214E-05 9.21815E-07 1.10866E-19 1.37123E-19
 -1      3344 9.57434E-05-2.89810E-05-2.86110E-05 8.92655E-07 6.92304E-21 4.72303E-19
 -1      3345 9.59884E-05-2.90717E-05-2.86804E-05 8.68071E-07 2.00388E-19-1.34585E-19
 -1      3346 9.56715E-05-2.89412E-05-2.85989E-05 8.63073E-07-2.39533E-19 2.92278E-19
 -1      3347 9.56341E-05-2.89026E-05-2.85975E-05 8.35073E-07-1.73024E-19 2.71707E-19
 -1      3348 9.58468E-05-2.90202E-05-2.86415E-05 8.21840E-07-1.16720E-19 1.87576E-19
 -1      3349 9.55593E-05-2.88410E-05-2.85943E-05 8.10035E-07-5.99002E-20 3.56753E-19
 -1      3350 9.55213E-05-2.87827E-05-2.86004E-05 7.91873E-07 6.59100E-20 3.15113E-19
 -1      3351 9.57016E-05-2.89161E-05-2.86235E-05 7.74546E-07-6.71525E-20-8.57410E-20
 -1      3352 9.54483E-05-2.87076E-05-2.86044E-05 7.81339E-07 2.18286E-19 3.54211E-19
 -1      3353 9.54117E-05-2.86372E-05-2.86158E-05 7.81575E-07 4.98793E-19 6.69826E-19
 -1      3354 9.55556E-05-2.87715E-05-2.86224E-05 7.44790E-07 2.34898E-19 1.69805E-22
 -1      3355 9.53342E-05-2.85464E-05-2.86251E-05 7.89314E-07 4.68052E-19 5.32033E-19
 -1      3356 9.52936E-05-2.84603E-05-2.86410E-05 8.12797E-07 3.70194E-19 7.16630E-19
 -1      3357 9.54070E-05-2.85948E-05-2.86340E-05 7.45149E-07 4.14093E-19 1.41174E-19
 -1      3358 9.52058E-05-2.83510E-05-2.86544E-05 8.43123E-07-4.91682E-20 2.54107E-19
 -1      3359 9.51564E-05-2.82457E-05-2.86742E-05 8.95106E-07-6.90703E-19 4.34451E-19
 -1      3360 9.52437E-05-2.83809E-05-2.86551E-05 7.84136E-07-2.42237E-19-2.72322E-19
 -1      3361 9.50503E-05-2.81125E-05-2.86907E-05 9.51647E-07-1.14756E-18 4.97723E-19
 -1      3362 9.49851E-05-2.79822E-05-2.87138E-05 1.03716E-06-8.21493E-19 1.80197E-19
 -1      3363 9.50522E-05-2.81220E-05-2.86831E-05 8.69245E-07-7.51922E-19-4.46219E-19
 -1      3364 9.48493E-05-2.78171E-05-2.87320E-05 1.12284E-06-6.90551E-19 6.46222E-20
 -1      3365 9.47580E-05-2.76531E-05-2.87578E-05 1.24677E-06-5.49593E-19-2.80308E-19
 -1      3366 9.48138E-05-2.78052E-05-2.87157E-05 1.00611E-06-9.70128E-19-2.41463E-19
 -1      3367 9.45770E-05-2.74449E-05-2.87760E-05 1.36346E-06-3.72126E-19-6.28955E-19
 -1      3368 9.44444E-05-2.72352E-05-2.88030E-05 1.53033E-06-7.08837E-19 7.03740E-20
 -1      3369 9.45024E-05-2.74115E-05-2.87494E-05 1.19801E-06-5.29581E-19-8.69152E-19
 -1      3370 9.41967E-05-2.69689E-05-2.88186E-05 1.67811E-06-1.13288E-18 2.47977E-19
 -1      3371 9.40006E-05-2.66976E-05-2.88443E-05 1.89139E-06-1.31931E-18-4.16061E-20
 -1      3372 9.40818E-05-2.69158E-05-2.87794E-05 1.44447E-06-7.50638E-19-1.27644E-18
 -1      3373 9.36565E-05-2.63545E-05-2.88526E-05 2.06732E-06-1.74713E-18 3.47203E-19
 -1      3374 9.33664E-05-2.60013E-05-2.88727E-05 2.32849E-06-1.34633E-18 1.78720E-19
 -1      3375 9.35020E-05-2.62852E-05-2.87980E-05 1.73896E-06-1.16262E-18-3.40398E-19
 -1      3376 9.28584E-05-2.55325E-05-2.88653E-05 2.53461E-06-7.09288E-19-7.71253E-20
 -1      3377 9.23986E-05-2.50459E-05-2.88704E-05 2.85745E-06-1.18533E-19 1.83011E-19
 -1      3378 9.26697E-05-2.54575E-05-2.87919E-05 2.07440E-06-9.88233E-19 9.13982E-19
 -1      3379 9.17115E-05-2.44666E-05-2.88344E-05 3.05851E-06 4.33066E-19 2.53599E-19
 -1      3380 9.10637E-05-2.38643E-05-2.88098E-05 3.40226E-06 6.91156E-19 7.63738E-19
 -1      3381 9.15001E-05-2.43963E-05-2.87383E-05 2.40622E-06 7.79051E-20 9.51476E-19
 -1      3382 9.01083E-05-2.31292E-05-2.87252E-05 3.58287E-06 5.54206E-19-3.10358E-21
 -1      3383 8.91679E-05-2.23658E-05-2.86467E-05 3.94542E-06 1.29113E-19-2.25725E-19
 -1      3384 8.99013E-05-2.30856E-05-2.86060E-05 2.67579E-06 9.87647E-20-8.87978E-20
 -1      3385 8.78433E-05-2.14523E-05-2.84802E-05 4.07031E-06 2.99426E-19 3.57288E-19
 -1      3386 8.65000E-05-2.05126E-05-2.83075E-05 4.42890E-06 9.72860E-19 2.93122E-19
 -1      3387 8.76830E-05-2.14576E-05-2.83403E-05 2.81156E-06 4.54075E-19-2.12098E-19
 -1      3388 8.46745E-05-1.94154E-05-2.80064E-05 4.45851E-06 9.58407E-19-8.80747E-20
 -1      3389 8.27906E-05-1.83123E-05-2.76743E-05 4.79620E-06 8.66776E-19-3.49794E-19
 -1      3390 8.46236E-05-1.94865E-05-2.78559E-05 2.71025E-06 7.11995E-19 2.71653E-19
 -1      3391 8.02911E-05-1.70665E-05-2.71539E-05 4.69418E-06 4.65800E-19-6.93736E-19
 -1      3392 7.76622E-05-1.58413E-05-2.65535E-05 5.02810E-06 5.54939E-20-7.98425E-19
 -1      3393 8.04319E-05-1.71904E-05-2.70169E-05 2.26335E-06 4.02382E-19-2.53157E-19
 -1      3394 7.42360E-05-1.45402E-05-2.56656E-05 4.76678E-06-1.25625E-18-1.31614E-18
 -1      3395 7.06813E-05-1.33709E-05-2.46142E-05 5.12520E-06-1.45354E-18-8.40581E-19
 -1      3396 7.48182E-05-1.46891E-05-2.56001E-05 1.39024E-06-8.45700E-19-7.14175E-19
 -1      3397 9.29665E-05-2.78658E-05-2.79352E-05 1.08446E-05-5.52777E-19 3.03769E-19
 -1      3398 9.51506E-05-2.93616E-05-2.81357E-05 1.07208E-05-1.34990E-18-2.05292E-18
 -1      3399 5.47781E-05-1.08161E-05-1.84264E-05-1.10933E-05-1.95669E-18-3.91874E-18
 -1      3400 6.11727E-05-1.59044E-05-1.93608E-05-1.91782E-05-2.00007E-18-1.19569E-18
 -1      3401 1.15363E-04-5.06775E-05-2.73727E-05-1.99664E-05-3.33276E-19 2.43105E-18
 -1      3402 1.21074E-04-5.21538E-05-2.99109E-05-1.16752E-05-7.04063E-19 1.49834E-18
 -1      3403 9.60417E-05-2.69387E-05-2.96078E-05-4.25489E-07-1.73753E-19-8.92965E-19
 -1      3404 9.60932E-05-2.74256E-05-2.94356E-05-1.48779E-08-2.90267E-19-8.13525E-19
 -1      3405 9.60029E-05-2.63278E-05-2.98587E-05-6.90083E-07-1.60950E-19-1.30088E-18
 -1      3406 7.32988E-05-1.46438E-05-2.51528E-05-9.58617E-06 7.03233E-19 1.59514E-19
 -1      3407 7.64369E-05-1.55261E-05-2.61852E-05-8.71114E-06 3.42238E-19 1.26241E-18
 -1      3408 7.95439E-05-1.65150E-05-2.70360E-05-8.90574E-06 1.79778E-19 7.60228E-19
 -1      3409 8.19997E-05-1.74777E-05-2.76934E-05-8.14897E-06 1.65131E-19 1.94984E-18
 -1      3410 8.12153E-05-1.70636E-05-2.74794E-05-6.10298E-06 8.30432E-19 9.07133E-19
 -1      3411 7.58602E-05-1.49640E-05-2.60037E-05-5.36139E-06 5.32445E-19 2.22834E-19
 -1      3412 9.55468E-05-2.88500E-05-2.85826E-05-8.25858E-07 3.28805E-19 2.02853E-20
 -1      3413 9.55776E-05-2.88895E-05-2.85810E-05-8.53736E-07 6.51634E-19-1.27318E-19
 -1      3414 9.56445E-05-2.89330E-05-2.85891E-05-8.84062E-07 8.73381E-19-2.94320E-19
 -1      3415 9.56783E-05-2.89567E-05-2.85949E-05-9.16420E-07 6.77098E-19-5.37868E-19
 -1      3416 9.57436E-05-2.89694E-05-2.86189E-05-8.21276E-07 6.41821E-19-9.68653E-20
 -1      3417 9.53652E-05-2.86176E-05-2.86041E-05-7.83323E-07 1.07193E-19 2.55908E-19
 -1      3418 9.53907E-05-2.86759E-05-2.85933E-05-7.81543E-07 2.80179E-19 3.25968E-19
 -1      3419 9.52798E-05-2.84810E-05-2.86259E-05-8.19992E-07 1.58888E-19-3.66869E-19
 -1      3420 9.53029E-05-2.85442E-05-2.86124E-05-7.96355E-07 1.57775E-19-8.12784E-20
 -1      3421 9.53622E-05-2.85815E-05-2.86208E-05-7.61022E-07 2.22317E-19-3.57069E-20
 -1      3422 9.51982E-05-2.83385E-05-2.86519E-05-9.05560E-07 2.46641E-20-3.05385E-19
 -1      3423 9.52179E-05-2.84034E-05-2.86366E-05-8.56948E-07-1.88662E-20-3.77946E-19
 -1      3424 9.52387E-05-2.84169E-05-2.86382E-05-8.13077E-07 3.14902E-19-5.16598E-19
 -1      3425 9.51235E-05-2.81984E-05-2.86797E-05-1.04557E-06-5.25992E-19 3.58195E-19
 -1      3426 9.51372E-05-2.82602E-05-2.86636E-05-9.69928E-07-2.44482E-19 1.59824E-19
 -1      3427 9.51161E-05-2.82456E-05-2.86589E-05-9.15689E-07-3.05407E-19-5.42273E-20
 -1      3428 9.50628E-05-2.80735E-05-2.87069E-05-1.24361E-06-2.16452E-19 9.71529E-19
 -1      3429 9.50660E-05-2.81249E-05-2.86910E-05-1.14027E-06-3.66449E-19 1.01304E-18
 -1      3430 9.49973E-05-2.80773E-05-2.86802E-05-1.07580E-06-8.81839E-19 9.32830E-19
 -1      3431 9.50304E-05-2.79844E-05-2.87308E-05-1.50034E-06-4.21157E-19 1.50682E-18
 -1      3432 9.50148E-05-2.80140E-05-2.87165E-05-1.37069E-06-1.13001E-19 1.39419E-18
 -1      3433 9.48905E-05-2.79274E-05-2.86990E-05-1.29918E-06-5.98127E-19 1.99671E-18
 -1      3434 9.50506E-05-2.79623E-05-2.87486E-05-1.81166E-06 1.18264E-20 1.53191E-18
 -1      3435 9.50030E-05-2.79531E-05-2.87370E-05-1.66025E-06-1.97950E-19 1.46679E-18
 -1      3436 9.48125E-05-2.78205E-05-2.87121E-05-1.58963E-06-2.57383E-19 2.19575E-18
 -1      3437 9.51612E-05-2.80517E-05-2.87572E-05-2.16575E-06-3.34100E-19 1.37232E-18
 -1      3438 9.50622E-05-2.79801E-05-2.87498E-05-2.00200E-06 5.87570E-20 1.10193E-18
 -1      3439 9.47922E-05-2.77940E-05-2.87160E-05-1.94725E-06-2.89785E-20 1.50256E-18
 -1      3440 9.54173E-05-2.83126E-05-2.87550E-05-2.53865E-06-3.03699E-19 1.10085E-18
 -1      3441 9.52402E-05-2.81476E-05-2.87523E-05-2.37913E-06-2.26335E-19 1.09859E-18
 -1      3442 9.48755E-05-2.79010E-05-2.87080E-05-2.36537E-06-2.07571E-19 1.22089E-18
 -1      3443 9.58938E-05-2.88186E-05-2.87424E-05-2.88768E-06 2.87831E-19 8.72155E-19
 -1      3444 9.56039E-05-2.85238E-05-2.87440E-05-2.75933E-06-9.55302E-20 9.36192E-19
 -1      3445 9.51299E-05-2.82131E-05-2.86865E-05-2.82532E-06-1.15702E-20 9.01195E-19
 -1      3446 9.66827E-05-2.96497E-05-2.87254E-05-3.14253E-06-2.43769E-19 1.44308E-18
 -1      3447 9.62409E-05-2.91880E-05-2.87278E-05-3.08642E-06 3.19382E-19 1.33356E-18
 -1      3448 9.56481E-05-2.88179E-05-2.86540E-05-3.28808E-06-1.13805E-19 1.16793E-18
 -1      3449 9.78832E-05-3.08721E-05-2.87188E-05-3.19439E-06-8.38831E-20 3.29467E-19
 -1      3450 9.72537E-05-3.02184E-05-2.87139E-05-3.26947E-06-2.59075E-19 7.51098E-19
 -1      3451 9.65467E-05-2.98106E-05-2.86196E-05-3.68167E-06 1.65200E-19 1.17469E-18
 -1      3452 9.95750E-05-3.25003E-05-2.87513E-05-2.88617E-06-3.87647E-19 2.33576E-19
 -1      3453 9.87418E-05-3.16634E-05-2.87243E-05-3.17054E-06-5.24340E-19 1.22693E-19
 -1      3454 9.79550E-05-3.12700E-05-2.86046E-05-3.88397E-06-1.19790E-19-4.35453E-19
 -1      3455 1.01767E-04-3.44320E-05-2.88718E-05-2.01133E-06-1.46510E-19 1.01391E-18
 -1      3456 1.00762E-04-3.34912E-05-2.87985E-05-2.59621E-06-3.28032E-19 1.07407E-18
 -1      3457 9.99843E-05-3.32119E-05-2.86484E-05-3.70381E-06-8.54746E-19 2.83342E-19
 -1      3458 1.04315E-04-3.63554E-05-2.91510E-05-3.49159E-07-7.43654E-19 1.90577E-18
 -1      3459 1.03257E-04-3.55059E-05-2.89984E-05-1.31123E-06-1.40896E-19 1.48557E-18
 -1      3460 1.02661E-04-3.55025E-05-2.88167E-05-2.87167E-06-7.09214E-19 1.91131E-18
 -1      3461 1.06821E-04-3.76486E-05-2.96784E-05 2.24275E-06-3.48470E-19 2.44823E-18
 -1      3462 1.05950E-04-3.72500E-05-2.94077E-05 9.00094E-07-4.61580E-19 2.37865E-18
 -1      3463 1.05823E-04-3.77496E-05-2.92037E-05-1.07453E-06-6.23703E-19 2.39352E-18
 -1      3464 1.08582E-04-3.73875E-05-3.05384E-05 5.55714E-06 6.97037E-19 1.32359E-18
 -1      3465 1.08221E-04-3.79025E-05-3.01208E-05 4.03167E-06 2.57196E-19 2.03652E-18
 -1      3466 1.08941E-04-3.91164E-05-2.99287E-05 1.90276E-06-6.85634E-20 2.27265E-18
 -1      3467 1.08757E-04-3.46864E-05-3.17514E-05 8.74628E-06 1.26949E-19 1.75244E-18
 -1      3468 1.09187E-04-3.64631E-05-3.11963E-05 7.53388E-06 5.42323E-19 1.76590E-18
 -1      3469 1.11066E-04-3.84256E-05-3.10953E-05 5.81779E-06 3.68305E-19 2.37196E-18
 -1      3470 1.06962E-04-2.94252E-05-3.32010E-05 1.03400E-05 3.82995E-19 1.88371E-18
 -1      3471 1.08197E-04-3.23574E-05-3.25815E-05 1.01218E-05 2.28527E-19 1.94717E-18
 -1      3472 1.11204E-04-3.48376E-05-3.26985E-05 9.46092E-06 7.94176E-20 2.68940E-18
 -1      3473 1.03849E-04-2.32963E-05-3.44745E-05 8.33674E-06 5.87622E-19 1.52842E-18
 -1      3474 1.05271E-04-2.61015E-05-3.40375E-05 9.90678E-06 5.64250E-19 1.57288E-18
 -1      3475 1.08824E-04-2.82047E-05-3.45481E-05 1.09339E-05 9.19520E-19 2.65177E-18
 -1      3476 1.03493E-04-1.80774E-05-3.66543E-05 4.22737E-06 2.02962E-18 5.09475E-19
 -1      3477 1.04519E-04-1.99962E-05-3.63017E-05 7.10184E-06 1.61290E-18 1.24479E-18
 -1      3478 1.04617E-04-2.47646E-05-3.43447E-05-8.58243E-06 8.30023E-19-1.66550E-18
 -1      3479 1.03265E-04-2.19492E-05-3.47976E-05-6.75831E-06 9.09899E-19-1.15087E-18
 -1      3480 1.07826E-04-3.12297E-05-3.29245E-05-9.59988E-06-5.31887E-19-2.06879E-18
 -1      3481 1.06510E-04-2.81237E-05-3.35430E-05-9.44847E-06 3.28093E-19-1.80218E-18
 -1      3482 1.08289E-04-2.68274E-05-3.49050E-05-9.95073E-06 4.08687E-19-7.53072E-19
 -1      3483 1.09491E-04-3.61131E-05-3.14868E-05-7.38057E-06-1.81381E-18-1.63399E-18
 -1      3484 1.08854E-04-3.39987E-05-3.20660E-05-8.50539E-06-1.11208E-18-2.14769E-18
 -1      3485 1.11194E-04-3.37937E-05-3.31206E-05-9.40099E-06-7.30359E-19-1.34736E-18
 -1      3486 1.09003E-04-3.81773E-05-3.03457E-05-3.81340E-06-2.02878E-18-6.00259E-19
 -1      3487 1.09178E-04-3.73823E-05-3.07916E-05-5.39601E-06-1.87420E-18-1.27241E-18
 -1      3488 1.11826E-04-3.83621E-05-3.14558E-05-5.84729E-06-2.26939E-18-1.32557E-18
 -1      3489 1.06950E-04-3.78442E-05-2.95851E-05-3.88300E-07-1.78367E-19-1.03484E-18
 -1      3490 1.07748E-04-3.81256E-05-2.98733E-05-1.85190E-06-1.03545E-18-1.00206E-18
 -1      3491 1.10166E-04-3.96818E-05-3.02137E-05-1.69762E-06-2.01557E-18-2.15244E-18
 -1      3492 1.04157E-04-3.60686E-05-2.91660E-05 2.14582E-06-7.57934E-19-9.82259E-19
 -1      3493 1.05330E-04-3.69891E-05-2.93198E-05 1.05043E-06-1.66620E-19-7.45282E-19
 -1      3494 1.07199E-04-3.85536E-05-2.94472E-05 1.66668E-06-2.13694E-19-2.11200E-18
 -1      3495 8.06093E-05-1.73617E-05-2.71267E-05 6.43413E-08 1.04666E-18-1.83128E-19
 -1      3496 8.13849E-05-1.81697E-05-2.70583E-05 2.94331E-06 6.21353E-20-1.96065E-18
 -1      3497 9.56574E-05-4.09981E-05-2.31185E-05-3.05864E-05-3.23196E-19 1.12710E-18
 -1      3498 1.06116E-04-4.75088E-05-2.53849E-05-2.67416E-05-3.50169E-19 2.45184E-18
 -1      3499 5.85106E-05-1.27471E-05-1.91138E-05 1.48147E-05-1.35630E-18-4.02129E-19
 -1      3500 1.14530E-04-5.03306E-05-2.76128E-05 1.93374E-05-1.56203E-18-1.26121E-18
 -1      3501 1.07634E-04-4.70256E-05-2.57325E-05 2.48266E-05-1.31134E-18-6.06342E-19
 -1      3502 1.02182E-04-4.21554E-05-2.56501E-05 2.33374E-05-3.93738E-19-7.06492E-19
 -1      3503 1.09962E-04-1.28126E-05-4.18753E-05-3.00966E-06 3.04667E-18 1.76353E-18
 -1      3504 1.13848E-04-1.48809E-05-4.27080E-05-8.29199E-06 3.11862E-18 1.72594E-18
 -1      3505 1.13517E-04-2.00859E-05-4.02272E-05-9.73949E-06 2.48345E-18 1.04803E-18
 -1      3506 1.25091E-04-4.93357E-05-3.21466E-05-1.61548E-06-1.55501E-18-1.82033E-19
 -1      3507 1.23709E-04-4.38873E-05-3.45805E-05 5.84621E-06-6.55326E-19 9.76404E-20
 -1      3508 1.20671E-04-3.53405E-05-3.64314E-05 1.15072E-05 1.04042E-18 5.31500E-19
 -1      3509 1.16142E-04-2.77066E-05-3.81648E-05 1.24027E-05 1.21367E-18 5.32466E-19
 -1      3510 9.22477E-05-1.81269E-05-3.17779E-05-1.00892E-06 7.15335E-19-2.05297E-18
 -1      3511 9.23598E-05-1.83181E-05-3.17472E-05-1.76160E-06 5.19053E-19-2.09017E-18
 -1      3512 9.33472E-05-1.99872E-05-3.14214E-05-1.76455E-06 4.20818E-19-2.05449E-18
 -1      3513 9.45249E-05-2.24697E-05-3.08694E-05-3.31208E-06-3.54380E-19-1.54576E-18
 -1      3514 9.40327E-05-2.13856E-05-3.11270E-05-4.30822E-06-4.52604E-19-1.64089E-18
 -1      3515 9.54539E-05-2.87425E-05-2.85888E-05-7.88339E-07 8.61939E-20 2.33682E-19
 -1      3516 9.54819E-05-2.87931E-05-2.85818E-05-8.04181E-07 2.15777E-19 7.34025E-20
 -1      3517 9.56135E-05-2.88646E-05-2.86077E-05-7.75510E-07 1.15421E-19-2.13378E-20
 -1      3518 9.54867E-05-2.87328E-05-2.86096E-05-7.51620E-07 1.21485E-20 2.77451E-19
 -1      3519 9.57338E-05-2.58176E-05-2.99391E-05 1.24025E-06 1.19767E-18-1.79141E-19
 -1      3520 9.52303E-05-2.42493E-05-3.04410E-05 2.42884E-06 1.43413E-18-2.87803E-19
 -1      3521 9.49747E-05-2.35782E-05-3.06064E-05 2.23158E-06 1.34043E-18-5.03280E-19
 -1      3522 9.59518E-05-2.88979E-05-2.87375E-05-9.93409E-07 1.35687E-19-2.89439E-20
 -1      3523 9.59913E-05-2.88180E-05-2.87853E-05-9.60275E-07 4.10552E-19 2.14211E-19
 -1      3524 5.11365E-05-1.06519E-05-1.68189E-05-8.51511E-06 1.93655E-18 1.69407E-21
 -1      3525 5.73041E-05-1.33053E-05-1.86975E-05-1.47865E-05 5.99845E-19 1.23582E-18
 -1      3526 5.42253E-05-1.07477E-05-1.83602E-05-2.47555E-06 1.34296E-18 1.23879E-20
 -1      3527 9.58692E-05-2.65013E-05-2.97342E-05 7.19085E-07 1.07240E-18-2.36890E-19
 -1      3528 7.10454E-05-2.31937E-05-2.03146E-05-2.63938E-05-9.77423E-19 8.41263E-19
 -1      3529 8.30211E-05-3.28947E-05-2.15112E-05-3.12730E-05-6.63650E-19 1.69322E-18
 -1      3530 9.00439E-05-3.50390E-05-2.34123E-05-2.68813E-05-5.47077E-19 1.03722E-18
 -1      3531 1.23233E-04-3.73262E-05-3.71648E-05-1.04624E-05 4.30809E-19-4.60693E-19
 -1      3532 1.25432E-04-4.21944E-05-3.55816E-05-7.69008E-06-1.04476E-19-9.03890E-19
 -1      3533 5.77221E-05-1.14048E-05-2.00110E-05 9.91568E-06-1.17937E-18-1.13706E-18
 -1      3534 9.62407E-05-2.87914E-05-2.89094E-05-8.39441E-07 3.97111E-19-2.59094E-20
 -1      3535 9.60376E-05-2.87085E-05-2.88567E-05-9.07298E-07 5.05027E-19-2.94305E-20
 -1      3536 9.60736E-05-2.85596E-05-2.89294E-05-8.08157E-07 6.81845E-19-2.47241E-19
 -1      3537 9.42382E-05-2.18150E-05-3.10421E-05-2.11514E-06 2.23710E-19-1.71391E-18
 -1      3538 9.44445E-05-2.22955E-05-3.09366E-05-2.53361E-06-3.51986E-21-1.65455E-18
 -1      3539 9.68167E-05-3.14887E-05-2.80429E-05 1.12740E-05-1.53578E-18-2.02593E-18
 -1      3540 9.70446E-05-3.07879E-05-2.84068E-05 9.82463E-06-1.81434E-18-3.21646E-18
 -1      3541 9.84734E-05-3.17382E-05-2.85669E-05 9.01666E-06-9.33833E-19-1.80131E-18
 -1      3542 9.03688E-05-2.57091E-05-2.76376E-05 1.06897E-05 3.31497E-19-8.64304E-19
 -1      3543 9.17441E-05-2.78690E-05-2.74106E-05 1.22531E-05-1.34838E-19 3.03681E-19
 -1      3544 8.78717E-05-2.39674E-05-2.74526E-05 9.77780E-06 1.86190E-20-3.57879E-19
 -1      3545 6.70268E-05-1.58248E-05-2.15937E-05-1.60313E-05-2.66152E-18-2.13076E-18
 -1      3546 6.84557E-05-1.94190E-05-2.07893E-05-2.19222E-05-1.64041E-18-8.42394E-19
 -1      3547 7.57204E-05-2.30920E-05-2.25241E-05-2.14163E-05-1.15203E-18-5.51213E-19
 -1      3548 1.20000E-04-4.85284E-05-3.06024E-05-5.55607E-06-9.47499E-19 1.51003E-19
 -1      3549 8.31632E-05-3.05855E-05-2.23745E-05 2.73471E-05 4.62553E-19-1.00189E-18
 -1      3550 7.86077E-05-2.64730E-05-2.22724E-05 2.43135E-05 6.38398E-19-5.37442E-19
 -1      3551 9.11389E-05-3.40509E-05-2.43814E-05 2.40047E-05-1.19184E-19-1.97119E-18
 -1      3552 9.58433E-05-2.82679E-05-2.89650E-05-6.87487E-07 7.27260E-19-8.74966E-20
 -1      3553 9.62798E-05-2.74781E-05-2.94865E-05 3.08133E-08-3.11216E-19-8.49994E-19
 -1      3554 1.00500E-04-3.29121E-05-2.89563E-05 5.06913E-06 2.24891E-19 1.10845E-19
 -1      3555 1.01308E-04-3.37847E-05-2.89595E-05 4.44736E-06-4.29660E-19-2.87884E-19
 -1      3556 1.00270E-04-3.27883E-05-2.89109E-05 5.93706E-06-1.17931E-19-2.04243E-18
 -1      3557 9.58768E-05-2.90359E-05-2.86478E-05-8.74065E-07 6.81652E-19-6.17480E-19
 -1      3558 9.57465E-05-2.89805E-05-2.86128E-05-9.47052E-07 5.87774E-19-5.76522E-19
 -1      3559 9.57835E-05-2.89816E-05-2.86285E-05-9.73523E-07 3.85403E-19-3.95660E-19
 -1      3560 1.01628E-04-1.81745E-05-3.57767E-05-1.02874E-06 1.79709E-18-3.56158E-19
 -1      3561 1.06056E-04-1.60111E-05-3.86868E-05 2.16556E-06 2.50413E-18 1.94447E-18
 -1      3562 1.07538E-04-1.38477E-05-4.03693E-05-1.06521E-06 2.79833E-18 2.09006E-18
 -1      3563 1.02358E-04-1.94076E-05-3.56081E-05-3.90877E-06 1.58170E-18-6.74728E-19
 -1      3564 1.05330E-04-1.97519E-05-3.67349E-05-6.23921E-06 1.63923E-18 1.22608E-19
 -1      3565 8.05346E-05-1.87996E-05-2.64539E-05 5.78891E-06-3.51327E-19-7.31412E-19
 -1      3566 8.31334E-05-2.00253E-05-2.71195E-05 6.05160E-06-2.33993E-19-5.55467E-19
 -1      3567 8.51962E-05-2.15318E-05-2.72161E-05 8.10507E-06-1.74173E-19 3.76703E-19
 -1      3568 1.03352E-04-3.54941E-05-2.90771E-05 3.29084E-06-7.81514E-19-9.48942E-19
 -1      3569 9.58509E-05-2.89768E-05-2.86596E-05-9.93280E-07 3.25250E-19-3.12550E-19
 -1      3570 9.58902E-05-2.89449E-05-2.86890E-05-9.99672E-07 2.16049E-19-1.42739E-19
 -1      3571 9.61361E-05-2.89782E-05-2.87843E-05-9.14307E-07 3.09609E-19-1.12099E-19
 -1      3572 9.60100E-05-2.90472E-05-2.87004E-05-9.13955E-07 4.40923E-19-2.44436E-19
 -1      3573 1.18957E-04-3.89823E-05-3.43201E-05 8.20802E-06-9.39015E-21 1.20835E-19
 -1      3574 1.06512E-04-1.58562E-05-3.89123E-05-4.97337E-06 3.33625E-18 1.75042E-18
 -1      3575 9.31453E-05-1.96161E-05-3.14951E-05-5.87070E-07 7.11940E-19-1.82606E-18
 -1      3576 1.23500E-04-4.53756E-05-3.35286E-05-3.32477E-06-1.15671E-18-9.61316E-19
 -1      3577 9.60734E-05-2.77806E-05-2.92750E-05-2.61372E-07 8.81744E-19-3.13831E-19
 -1      3578 9.60718E-05-2.73969E-05-2.94208E-05 9.35270E-08 9.78212E-19-1.76356E-19
 -1      3579 6.15523E-05-1.34791E-05-2.06042E-05-1.41744E-05 2.05101E-19 1.49671E-18
 -1      3580 1.09163E-04-4.66582E-05-2.67226E-05-2.06700E-05-2.86185E-19 2.09844E-18
 -1      3581 5.79714E-05-1.46038E-05-1.81988E-05 1.68642E-05 1.04407E-18 2.85008E-18
 -1      3582 5.76701E-05-1.24761E-05-1.92673E-05 9.87842E-06 1.43685E-18 1.84918E-18
 -1      3583 6.68736E-05-1.84657E-05-2.07272E-05 1.89982E-05 1.06962E-18 3.05252E-18
 -1      3584 1.11993E-04-2.38889E-05-3.78862E-05 1.17402E-05 1.95499E-18 1.28433E-18
 -1      3585 1.07558E-04-2.05913E-05-3.73393E-05 9.41847E-06 2.35911E-18 1.39170E-18
 -1      3586 8.07141E-05-1.69584E-05-2.73433E-05-4.01214E-06 1.43516E-18-8.27983E-20
 -1      3587 5.68270E-05-1.08907E-05-1.95809E-05-4.49488E-06-1.85152E-18-2.89759E-18
 -1      3588 9.60234E-05-2.65425E-05-2.97836E-05 5.89004E-07 1.07194E-18-2.62385E-19
 -1      3589 1.19848E-04-4.97016E-05-3.02126E-05 7.91566E-06-1.54768E-18 4.61210E-19
 -1      3590 1.18851E-04-5.12083E-05-2.88640E-05 1.42515E-05-1.23274E-18-1.26101E-18
 -1      3591 1.12285E-04-4.72119E-05-2.78767E-05 1.62916E-05-5.44014E-19-2.32962E-19
 -1      3592 9.41128E-05-2.15414E-05-3.11152E-05 1.77899E-06 1.20465E-18-1.17260E-18
 -1      3593 9.39649E-05-2.12341E-05-3.11789E-05 1.26160E-06 1.12064E-18-1.36863E-18
 -1      3594 9.47023E-05-2.28720E-05-3.07770E-05-2.63068E-06-1.24764E-19-1.47601E-18
 -1      3595 9.51698E-05-2.40547E-05-3.04876E-05-2.59369E-06-3.09217E-19-1.30806E-18
 -1      3596 9.54364E-05-2.49533E-05-3.02151E-05-1.86025E-06-2.40778E-19-1.13795E-18
 -1      3597 9.51326E-05-2.37918E-05-3.05699E-05-1.92078E-06 9.55259E-21-1.44541E-18
 -1      3598 9.38722E-05-2.10503E-05-3.12210E-05 8.10012E-07 1.01981E-18-1.54965E-18
 -1      3599 9.38245E-05-2.09543E-05-3.12404E-05 2.48085E-07 8.88721E-19-1.54211E-18
 -1      3600 9.46337E-05-2.24079E-05-3.09365E-05 8.30269E-07 1.04162E-18-1.36488E-18
 -1      3601 9.55524E-05-2.49748E-05-3.02418E-05-1.54031E-06-1.12354E-19-1.28870E-18
 -1      3602 1.19483E-04-3.24197E-05-3.74257E-05-1.15263E-05 9.41808E-19-5.53801E-19
 -1      3603 6.44439E-05-1.33431E-05-2.18117E-05-1.17978E-05 6.51492E-19 1.54419E-18
 -1      3604 6.83526E-05-1.34415E-05-2.36008E-05-1.01726E-05 6.45911E-19 5.21216E-19
 -1      3605 6.57260E-05-1.19793E-05-2.31183E-05 5.73217E-06-1.02937E-18-1.07883E-18
 -1      3606 6.12952E-05-1.13323E-05-2.12101E-05 6.71106E-06-9.66881E-19-1.19850E-18
 -1      3607 5.99094E-05-1.10948E-05-2.06770E-05-7.06831E-06 3.32459E-19 1.28299E-18
 -1      3608 7.83642E-05-1.63547E-05-2.65735E-05-1.61679E-06 1.60440E-19 1.34970E-19
 -1      3609 6.61356E-05-1.15033E-05-2.31291E-05 4.37416E-07-1.52953E-18-1.94105E-18
 -1      3610 6.82961E-05-1.27339E-05-2.36087E-05-4.88948E-06 7.97953E-19 1.06800E-18
 -1      3611 9.57111E-05-2.50968E-05-3.02407E-05 1.11407E-06 1.18932E-18-5.19169E-19
 -1      3612 9.48830E-05-2.32194E-05-3.07333E-05 2.05425E-06 1.27113E-18-6.94391E-19
 -1      3613 9.46890E-05-2.27477E-05-3.08398E-05 1.68583E-06 1.17728E-18-9.68476E-19
 -1      3614 9.40795E-05-2.14851E-05-3.11258E-05-1.73722E-06 3.55228E-19-1.91402E-18
 -1      3615 9.48009E-05-2.28610E-05-3.08171E-05-1.54859E-06 2.34802E-19-1.63937E-18
 -1      3616 9.39470E-05-2.12039E-05-3.11834E-05-1.21818E-06 5.01054E-19-1.96434E-18
 -1      3617 6.49604E-05-1.24300E-05-2.25045E-05 1.89003E-07 1.04815E-18 3.11364E-19
 -1      3618 6.99780E-05-1.36403E-05-2.41775E-05-3.30996E-07 5.98091E-19 8.28921E-19
 -1      3619 9.65373E-05-2.85980E-05-2.91133E-05 5.91745E-07-2.99673E-19-5.49346E-19
 -1      3620 9.65038E-05-2.87867E-05-2.90233E-05 6.89087E-07-1.58037E-19-7.28232E-19
 -1      3621 9.64588E-05-2.89279E-05-2.89391E-05 7.34476E-07 1.68501E-19-6.94948E-19
 -1      3622 9.64020E-05-2.90269E-05-2.88754E-05 7.74687E-07 2.24962E-19-4.68219E-19
 -1      3623 9.66294E-05-2.88603E-05-2.90452E-05 6.01730E-07-1.98423E-20-4.96480E-19
 -1      3624 9.63282E-05-2.90884E-05-2.88153E-05 7.83726E-07 2.14596E-19-2.92547E-19
 -1      3625 9.62605E-05-2.91243E-05-2.87722E-05 7.88654E-07 3.29209E-19-2.30499E-19
 -1      3626 9.65114E-05-2.90880E-05-2.88974E-05 6.70186E-07 2.89354E-19-2.41789E-19
 -1      3627 9.61720E-05-2.91304E-05-2.87311E-05 7.76990E-07 4.16368E-19-2.67123E-19
 -1      3628 9.61004E-05-2.91222E-05-2.87039E-05 7.63343E-07 3.07857E-19-2.23122E-20
 -1      3629 9.63504E-05-2.91704E-05-2.87932E-05 6.80607E-07 3.52614E-19 1.27747E-19
 -1      3630 9.60052E-05-2.90897E-05-2.86777E-05 7.42854E-07-1.14006E-19-2.89542E-19
 -1      3631 9.59333E-05-2.90503E-05-2.86628E-05 7.23229E-07-3.61337E-19-2.66117E-19
 -1      3632 9.61684E-05-2.91508E-05-2.87234E-05 6.59867E-07 2.76494E-20-3.41960E-19
 -1      3633 9.58306E-05-2.89866E-05-2.86477E-05 7.01746E-07-3.14010E-19-4.04525E-19
 -1      3634 9.57551E-05-2.89198E-05-2.86422E-05 6.84866E-07 3.60932E-20-3.80172E-19
 -1      3635 9.59722E-05-2.90556E-05-2.86799E-05 6.27390E-07-5.05725E-19-4.33627E-19
 -1      3636 9.56544E-05-2.88367E-05-2.86369E-05 6.71219E-07 1.86897E-19-6.30266E-19
 -1      3637 9.55812E-05-2.87536E-05-2.86390E-05 6.65705E-07 3.03284E-19-3.87202E-19
 -1      3638 9.57710E-05-2.89047E-05-2.86579E-05 6.00018E-07-1.54124E-19-5.16444E-19
 -1      3639 9.54759E-05-2.86514E-05-2.86403E-05 6.63431E-07 5.14656E-19-2.65670E-19
 -1      3640 9.53979E-05-2.85498E-05-2.86478E-05 6.73604E-07 2.61149E-19-4.16618E-19
 -1      3641 9.55675E-05-2.87129E-05-2.86523E-05 5.88845E-07 3.34462E-19-1.08527E-18
 -1      3642 9.52828E-05-2.84276E-05-2.86539E-05 6.85779E-07-3.18357E-19-3.15944E-19
 -1      3643 9.51943E-05-2.83052E-05-2.86656E-05 7.15605E-07-5.44093E-19-7.75608E-19
 -1      3644 9.53497E-05-2.84795E-05-2.86583E-05 6.00648E-07-3.61091E-20-1.18511E-18
 -1      3645 9.50618E-05-2.81592E-05-2.86748E-05 7.44125E-07-2.60456E-19-7.77913E-19
 -1      3646 9.49548E-05-2.80114E-05-2.86893E-05 7.96476E-07-5.80314E-19-3.77040E-19
 -1      3647 9.51053E-05-2.82008E-05-2.86722E-05 6.39975E-07-3.22187E-19-9.60006E-19
 -1      3648 9.47946E-05-2.78353E-05-2.86998E-05 8.41781E-07-9.98664E-19-4.29825E-19
 -1      3649 9.46579E-05-2.76547E-05-2.87155E-05 9.18292E-07-6.46254E-19-5.49275E-19
 -1      3650 9.48169E-05-2.78675E-05-2.86904E-05 7.08351E-07-7.76954E-19-4.36299E-19
 -1      3651 9.44563E-05-2.74395E-05-2.87252E-05 9.78819E-07-6.93466E-19-7.82581E-19
 -1      3652 9.42743E-05-2.72159E-05-2.87401E-05 1.07932E-06-7.24131E-19-9.57989E-19
 -1      3653 9.44607E-05-2.74654E-05-2.87086E-05 8.03378E-07-7.80295E-19-7.66271E-19
 -1      3654 9.40129E-05-2.69502E-05-2.87459E-05 1.15046E-06-3.53232E-19-1.03476E-18
 -1      3655 9.37642E-05-2.66705E-05-2.87568E-05 1.27188E-06-7.19840E-19-9.64363E-19
 -1      3656 9.40056E-05-2.69759E-05-2.87215E-05 9.16960E-07-6.28441E-19-1.23698E-18
 -1      3657 9.34194E-05-2.63404E-05-2.87541E-05 1.34439E-06-7.44481E-19-6.95700E-19
 -1      3658 9.30750E-05-2.59884E-05-2.87562E-05 1.47941E-06-7.41913E-19 3.61820E-20
 -1      3659 9.34107E-05-2.63755E-05-2.87212E-05 1.03245E-06-5.75515E-19-6.58469E-19
 -1      3660 9.25906E-05-2.55541E-05-2.87369E-05 1.53967E-06-6.99750E-19 7.03525E-19
 -1      3661 9.20791E-05-2.50855E-05-2.87201E-05 1.67886E-06-3.72410E-19 9.76326E-19
 -1      3662 9.25992E-05-2.56171E-05-2.86950E-05 1.12214E-06-2.98004E-19-1.09757E-19
 -1      3663 9.14556E-05-2.45689E-05-2.86744E-05 1.69245E-06-2.79140E-20 6.19466E-19
 -1      3664 9.07705E-05-2.40065E-05-2.86273E-05 1.79720E-06 1.64026E-19 6.74079E-19
 -1      3665 9.15128E-05-2.46844E-05-2.86240E-05 1.12863E-06-2.49657E-19 7.91167E-19
 -1      3666 8.99409E-05-2.33741E-05-2.85388E-05 1.72777E-06-8.06764E-20 4.94725E-19
 -1      3667 8.89866E-05-2.26789E-05-2.84399E-05 1.76528E-06-3.96174E-19 9.18370E-20
 -1      3668 9.00949E-05-2.35789E-05-2.84838E-05 9.78427E-07-2.52777E-19 7.30193E-19
 -1      3669 8.78848E-05-2.19193E-05-2.82833E-05 1.55369E-06-5.63633E-20 3.72891E-19
 -1      3670 8.65629E-05-2.10767E-05-2.80994E-05 1.46805E-06 7.79973E-19 5.64178E-19
 -1      3671 8.82123E-05-2.22628E-05-2.82322E-05 5.59989E-07 2.28351E-20 7.19580E-19
 -1      3672 8.51058E-05-2.01912E-05-2.78360E-05 1.03340E-06 7.70715E-19 7.82897E-20
 -1      3673 8.32837E-05-1.91996E-05-2.75148E-05 7.53906E-07 4.33696E-19-2.61532E-19
 -1      3674 8.57256E-05-2.07390E-05-2.78072E-05-2.85532E-07 3.46562E-19-2.52125E-20
 -1      3675 8.13526E-05-1.82016E-05-2.70852E-05-9.79901E-09 2.74290E-19-4.84883E-19
 -1      3676 7.88728E-05-1.70953E-05-2.65437E-05-5.49718E-07 1.94839E-19-7.28433E-19
 -1      3677 8.24542E-05-1.90424E-05-2.71137E-05-1.77640E-06 7.89804E-20-7.12954E-19
 -1      3678 7.62244E-05-1.60062E-05-2.58472E-05-1.74046E-06-7.87329E-19-7.84882E-19
 -1      3679 7.24497E-05-1.46170E-05-2.48914E-05-2.50136E-06-1.38340E-18-1.42289E-18
 -1      3680 7.80297E-05-1.72029E-05-2.59995E-05-4.24839E-06-6.06755E-19-1.58365E-18
 -1      3681 9.58278E-05-2.89955E-05-2.86409E-05-7.28873E-07 4.23560E-19-7.55852E-20
 -1      3682 9.58948E-05-2.90407E-05-2.86516E-05-7.50476E-07 6.01876E-19-1.36958E-19
 -1      3683 9.60886E-05-2.83586E-05-2.90303E-05-6.79773E-07 7.35516E-19-3.04110E-19
 -1      3684 9.61174E-05-2.81144E-05-2.91357E-05-4.76344E-07 7.06716E-19-2.38840E-19
 -1      3685 9.62897E-05-2.78648E-05-2.93330E-05-2.70921E-07 8.61836E-19-3.30203E-19
 -1      3686 9.62962E-05-2.84323E-05-2.90874E-05-6.41929E-07 5.56125E-19-1.85465E-19
 -1      3687 8.62788E-05-3.06912E-05-2.37386E-05-2.38380E-05-5.51253E-19 2.60119E-19
 -1      3688 9.62290E-05-3.82318E-05-2.49773E-05-2.39261E-05-3.22554E-19 9.18528E-19
 -1      3689 9.51947E-05-2.83440E-05-2.86484E-05-7.68718E-07 1.65058E-19 1.64192E-19
 -1      3690 9.52571E-05-2.84360E-05-2.86393E-05-7.30285E-07 2.24742E-19 5.39877E-20
 -1      3691 9.53540E-05-2.85363E-05-2.86344E-05-7.04432E-07 4.70419E-19-1.51606E-19
 -1      3692 9.54167E-05-2.86218E-05-2.86277E-05-6.88472E-07 4.71640E-19 2.28823E-19
 -1      3693 9.53074E-05-2.84700E-05-2.86447E-05-6.53641E-07 2.20710E-19 5.27049E-19
 -1      3694 9.48705E-05-2.79431E-05-2.86806E-05-1.05858E-06-9.84486E-19 1.43718E-18
 -1      3695 9.49285E-05-2.80346E-05-2.86712E-05-9.63865E-07-1.04166E-18 1.08100E-18
 -1      3696 9.47167E-05-2.77614E-05-2.86921E-05-1.30096E-06-7.74570E-19 1.41221E-18
 -1      3697 9.47651E-05-2.78399E-05-2.86848E-05-1.17333E-06-9.15200E-19 1.31451E-18
 -1      3698 9.46975E-05-2.77870E-05-2.86755E-05-1.05215E-06-1.06082E-18 1.06456E-18
 -1      3699 9.45892E-05-2.76246E-05-2.86953E-05-1.61893E-06-2.64587E-20 1.14743E-18
 -1      3700 9.46169E-05-2.76750E-05-2.86921E-05-1.45633E-06-1.19750E-19 1.37453E-18
 -1      3701 9.44911E-05-2.75759E-05-2.86778E-05-1.32044E-06-1.92966E-19 3.92130E-19
 -1      3702 9.45204E-05-2.75740E-05-2.86864E-05-2.01842E-06-2.83136E-19 8.35568E-19
 -1      3703 9.45087E-05-2.75735E-05-2.86889E-05-1.82074E-06-1.41897E-19 9.29787E-19
 -1      3704 9.43076E-05-2.74149E-05-2.86690E-05-1.67778E-06 1.42762E-21 5.27761E-19
 -1      3705 9.45620E-05-2.76695E-05-2.86620E-05-2.50060E-06 7.26758E-20 3.66913E-19
 -1      3706 9.44824E-05-2.75856E-05-2.86716E-05-2.27145E-06 1.41532E-19 7.09204E-19
 -1      3707 9.41827E-05-2.73512E-05-2.86444E-05-2.13774E-06-7.24781E-20 3.08577E-19
 -1      3708 9.47913E-05-2.79922E-05-2.86205E-05-3.05650E-06-1.27076E-19 5.19809E-19
 -1      3709 9.46033E-05-2.77821E-05-2.86373E-05-2.80625E-06-1.18951E-19 1.70319E-19
 -1      3710 9.41751E-05-2.74532E-05-2.86002E-05-2.71112E-06-1.33509E-19 2.67314E-19
 -1      3711 9.53163E-05-2.86444E-05-2.85647E-05-3.65765E-06-3.84495E-19 8.34783E-19
 -1      3712 9.49662E-05-2.82559E-05-2.85864E-05-3.40840E-06-2.66403E-19 8.76393E-19
 -1      3713 9.43740E-05-2.78146E-05-2.85351E-05-3.39985E-06-6.04273E-19 4.55917E-19
 -1      3714 9.62763E-05-2.97413E-05-2.85055E-05-4.24043E-06 7.80321E-19 6.35084E-19
 -1      3715 9.56996E-05-2.91191E-05-2.85252E-05-4.03358E-06 2.95219E-19 1.10444E-18
 -1      3716 9.49071E-05-2.85551E-05-2.84527E-05-4.18511E-06 1.62140E-19 1.22138E-19
 -1      3717 9.78318E-05-3.13879E-05-2.84681E-05-4.68287E-06-6.04745E-19 4.96568E-19
 -1      3718 9.69635E-05-3.04887E-05-2.84714E-05-4.58936E-06 2.57566E-19 5.73468E-19
 -1      3719 9.59438E-05-2.98126E-05-2.83672E-05-5.00631E-06 2.61551E-19 3.27079E-19
 -1      3720 1.00133E-04-3.36286E-05-2.85000E-05-4.77702E-06-8.62584E-19 8.14071E-19
 -1      3721 9.89297E-05-3.24508E-05-2.84608E-05-4.90694E-06-1.05876E-18 5.71528E-19
 -1      3722 9.76883E-05-3.17165E-05-2.83100E-05-5.72857E-06-6.05303E-19 5.04857E-19
 -1      3723 1.03250E-04-3.63474E-05-2.86829E-05-4.19338E-06-1.12520E-18 1.84759E-18
 -1      3724 1.01737E-04-3.49942E-05-2.85593E-05-4.70235E-06-8.14373E-19 1.40235E-18
 -1      3725 1.00353E-04-3.43335E-05-2.83422E-05-6.09656E-06-1.35588E-18 5.75776E-20
 -1      3726 1.07021E-04-3.91189E-05-2.91354E-05-2.53024E-06-5.37888E-19 1.89533E-18
 -1      3727 1.05360E-04-3.78625E-05-2.88710E-05-3.57980E-06-8.21660E-19 1.79133E-18
 -1      3728 1.04050E-04-3.75163E-05-2.85713E-05-5.66920E-06-7.06619E-19 1.31410E-18
 -1      3729 1.10898E-04-4.09399E-05-3.00227E-05 6.63305E-07 5.72051E-19 1.04861E-18
 -1      3730 1.09493E-04-4.04130E-05-2.95434E-05-1.03317E-06 2.58180E-19 8.79397E-19
 -1      3731 1.08697E-04-4.08285E-05-2.91507E-05-3.94515E-06 3.59350E-19 3.98450E-19
 -1      3732 1.07397E-04-1.91166E-05-3.79904E-05-7.73209E-06 2.12620E-18 5.66096E-19
 -1      3733 1.11190E-04-4.13313E-05-2.98716E-05 1.23246E-06-1.11830E-18-2.64618E-18
 -1      3734 1.12433E-04-4.16793E-05-3.03815E-05-5.63332E-07-1.95725E-18-1.91632E-18
 -1      3735 1.07107E-04-3.89390E-05-2.91614E-05 4.28294E-06-1.61595E-19-1.12054E-18
 -1      3736 1.08780E-04-4.01868E-05-2.94332E-05 3.06634E-06-5.74192E-19-2.01982E-18
 -1      3737 1.10821E-04-4.21438E-05-2.95256E-05 4.19077E-06-1.36421E-18-1.88399E-18
 -1      3738 9.93010E-05-3.22566E-05-2.87283E-05 7.90367E-06-5.66359E-19-1.18769E-18
 -1      3739 9.99460E-05-3.26938E-05-2.88066E-05 7.09624E-06 9.85395E-20-2.25593E-18
 -1      3740 1.01111E-04-3.39676E-05-2.88054E-05 6.68178E-06-3.68208E-19-2.21777E-18
 -1      3741 9.98134E-05-3.33588E-05-2.85130E-05 9.04500E-06-9.54481E-19-2.26975E-18
 -1      3742 1.14460E-04-4.15644E-05-3.11863E-05-3.42045E-06-2.44264E-18-1.80234E-18
 -1      3743 1.14603E-04-4.01618E-05-3.19446E-05-5.36485E-06-2.03361E-18-1.18861E-18
 -1      3744 1.15393E-04-4.37703E-05-3.08109E-05-1.46855E-07-1.98178E-18-1.46550E-18
 -1      3745 1.11607E-04-2.35960E-05-3.77924E-05-1.08064E-05 1.09744E-18 4.37142E-19
 -1      3746 9.50327E-05-2.81429E-05-2.86649E-05-8.83952E-07-8.44297E-19 1.21059E-18
 -1      3747 9.50941E-05-2.82376E-05-2.86548E-05-8.19140E-07-3.09744E-19 7.12530E-19
 -1      3748 9.51111E-05-2.82492E-05-2.86549E-05-7.30269E-07-4.85322E-19 1.44110E-18
 -1      3749 1.10900E-04-2.76493E-05-3.56678E-05 1.10919E-05 1.53774E-18 1.72294E-18
 -1      3750 1.16187E-04-3.79704E-05-3.35662E-05-8.64935E-06-9.97740E-19-8.98725E-19
 -1      3751 1.14863E-04-3.41038E-05-3.46007E-05-1.00747E-05 2.51026E-19-8.68262E-19
 -1      3752 7.53957E-05-1.54044E-05-2.57535E-05-7.71675E-07-9.45070E-20 5.42793E-19
 -1      3753 1.13777E-04-2.85777E-05-3.66907E-05-1.13241E-05 9.72520E-19-3.14472E-19
 -1      3754 9.52506E-05-2.39679E-05-3.05489E-05-1.50206E-06 1.52155E-20-1.33133E-18
 -1      3755 9.54628E-05-2.45461E-05-3.03938E-05-1.56299E-06-6.28479E-20-1.34841E-18
 -1      3756 9.56822E-05-2.51674E-05-3.02259E-05-1.15404E-06-8.38150E-20-1.40122E-18
 -1      3757 9.60179E-05-2.60310E-05-2.99943E-05-7.60334E-07-5.12049E-20-1.36297E-18
 -1      3758 9.62037E-05-2.67165E-05-2.97849E-05-3.35892E-07-9.34709E-20-1.25917E-18
 -1      3759 9.59207E-05-2.55892E-05-3.01376E-05-7.82195E-07-6.50806E-20-1.28276E-18
 -1      3760 9.38238E-05-2.09479E-05-3.12414E-05-2.11391E-07 8.00398E-19-1.60006E-18
 -1      3761 9.38672E-05-2.10409E-05-3.12232E-05-7.74703E-07 6.84258E-19-1.98115E-18
 -1      3762 9.46162E-05-2.23808E-05-3.09401E-05-7.91176E-07 5.06463E-19-1.74813E-18
 -1      3763 9.45466E-05-2.22138E-05-3.09797E-05 1.80496E-08 7.14835E-19-1.40600E-18
 -1      3764 9.65201E-05-2.80260E-05-2.93509E-05 3.09268E-07-3.19933E-19-7.78100E-19
 -1      3765 9.65318E-05-2.83421E-05-2.92273E-05 4.90895E-07-2.91252E-19-6.06152E-19
 -1      3766 9.66700E-05-2.84280E-05-2.92472E-05 4.41320E-07-3.21833E-19-6.67495E-19
 -1      3767 1.03479E-04-3.57661E-05-2.90194E-05 4.38030E-06-1.29806E-18-1.76069E-18
 -1      3768 9.63684E-05-2.72176E-05-2.96340E-05-1.20051E-07-5.94666E-20-1.17916E-18
 -1      3769 9.64466E-05-2.76896E-05-2.94715E-05 1.68205E-07-1.83867E-19-9.28502E-19
 -1      3770 9.65898E-05-2.77830E-05-2.94875E-05 1.80892E-07-1.56939E-19-1.05333E-18
 -1      3771 9.63738E-05-2.69266E-05-2.97610E-05-1.88608E-07 4.28230E-20-1.30237E-18
 -1      3772 5.68762E-05-1.04387E-05-1.96840E-05-3.48437E-07 1.13715E-18-1.56701E-20
 -1      3773 1.16419E-04-4.75270E-05-2.92970E-05-8.86684E-06-3.32752E-19-3.35372E-20
 -1      3774 1.18210E-04-4.60397E-05-3.11173E-05-1.01126E-06-6.00163E-19-1.32137E-19
 -1      3775 1.03819E-04-4.23632E-05-2.61174E-05-2.08844E-05 1.82681E-19 1.82269E-18
 -1      3776 1.10381E-04-4.62630E-05-2.77501E-05-1.59361E-05 1.66879E-19 1.66644E-18
 -1      3777 9.94694E-05-3.83337E-05-2.61320E-05-1.92164E-05 1.22138E-19 1.13266E-18
 -1      3778 1.04977E-04-4.26807E-05-2.67792E-05 1.94216E-05 2.92655E-19 9.74869E-19
 -1      3779 9.88713E-05-3.84942E-05-2.58253E-05 2.14345E-05 6.39338E-19-5.82487E-19
 -1      3780 9.63565E-05-2.72751E-05-2.95931E-05 4.19238E-08 8.01548E-19-2.57125E-19
 -1      3781 9.61406E-05-2.63833E-05-2.99032E-05 5.87644E-07 1.01440E-18-3.88981E-19
 -1      3782 9.60829E-05-2.60472E-05-3.00230E-05 5.54375E-07 9.28004E-19-5.98650E-19
 -1      3783 5.87143E-05-9.96411E-06-2.03145E-05 2.36429E-06-1.13900E-18-1.93812E-18
 -1      3784 1.12758E-04-3.19695E-05-3.47135E-05 1.15065E-05 5.36187E-19 1.98169E-18
 -1      3785 1.18951E-04-4.14684E-05-3.33140E-05-6.15990E-06-1.12420E-18-1.07712E-18
 -1      3786 7.38408E-05-1.53904E-05-2.49236E-05 3.63237E-06 1.94505E-19 1.33203E-18
 -1      3787 6.27328E-05-1.27787E-05-2.13023E-05 4.69150E-06 1.35363E-18 7.05975E-19
 -1      3788 9.90544E-05-3.68732E-05-2.65768E-05 1.81716E-05 1.98132E-18 2.64549E-19
 -1      3789 9.56428E-05-3.60989E-05-2.55172E-05 2.18137E-05 1.17293E-18-1.20979E-18
 -1      3790 9.15197E-05-3.26683E-05-2.51888E-05 2.10734E-05 5.11040E-19-1.04178E-18
 -1      3791 6.60576E-05-1.43110E-05-2.21144E-05 9.26317E-06 1.30609E-18 1.81089E-18
 -1      3792 7.19933E-05-1.62025E-05-2.38763E-05 8.43564E-06 5.03098E-19 8.76474E-19
 -1      3793 7.68928E-05-1.76223E-05-2.54644E-05 6.72310E-06-3.92603E-19-7.49366E-19
 -1      3794 7.94322E-05-1.95627E-05-2.55590E-05 9.99424E-06-4.21219E-19-6.95622E-19
 -1      3795 7.08415E-05-1.70335E-05-2.28953E-05 1.27356E-05 8.40842E-19 1.96245E-18
 -1      3796 7.34985E-05-1.72327E-05-2.40260E-05-1.14762E-05-1.75361E-18-2.21692E-18
 -1      3797 6.98805E-05-1.51743E-05-2.34694E-05-8.34822E-06-2.06035E-18-2.01123E-18
 -1      3798 8.56561E-05-2.31621E-05-2.68051E-05 1.06071E-05 2.88082E-20-9.05291E-20
 -1      3799 9.60557E-05-2.91085E-05-2.86932E-05-6.75822E-07 5.97784E-19-1.59575E-19
 -1      3800 9.59881E-05-2.90826E-05-2.86726E-05-7.73392E-07 6.31896E-19-1.71708E-19
 -1      3801 9.60563E-05-2.91025E-05-2.86938E-05-7.92902E-07 6.84926E-19-2.65735E-19
 -1      3802 9.57339E-05-2.89317E-05-2.86299E-05-7.09457E-07 7.39558E-20-1.50014E-19
 -1      3803 9.58703E-05-2.90016E-05-2.86592E-05-6.41882E-07 3.14449E-19 2.63462E-19
 -1      3804 9.56688E-05-2.88687E-05-2.86270E-05-6.94311E-07-2.43346E-19-8.92726E-20
 -1      3805 5.96507E-05-1.16874E-05-2.08227E-05-6.61748E-06-2.07364E-18-2.94259E-18
 -1      3806 9.64288E-05-2.77333E-05-2.94449E-05-1.92841E-07 7.00591E-19-6.85263E-20
 -1      3807 9.55115E-05-2.87132E-05-2.86261E-05-6.82686E-07 1.00180E-19 2.97714E-19
 -1      3808 9.55750E-05-2.87891E-05-2.86233E-05-6.84925E-07-7.35322E-20 1.83715E-19
 -1      3809 9.54976E-05-2.86734E-05-2.86395E-05-6.19764E-07 4.54037E-19 1.30933E-19
 -1      3810 9.49071E-05-2.80177E-05-2.86665E-05-8.59486E-07-9.78228E-19 1.93457E-18
 -1      3811 1.13774E-04-4.03472E-05-3.15006E-05 5.19250E-06-4.08842E-19 1.31567E-18
 -1      3812 1.13106E-04-4.13095E-05-3.07563E-05 3.02532E-06-1.47387E-19 8.27396E-19
 -1      3813 1.14027E-04-3.57113E-05-3.36101E-05 9.47961E-06 1.28160E-19 1.45503E-18
 -1      3814 1.14554E-04-3.85143E-05-3.26321E-05 7.96605E-06-1.18459E-19 1.62972E-18
 -1      3815 1.21536E-04-4.71094E-05-3.17316E-05 3.32651E-08-1.94988E-18-1.26132E-18
 -1      3816 6.51069E-05-1.41839E-05-2.19063E-05-9.82837E-06-2.00839E-18-2.61815E-18
 -1      3817 8.24252E-05-2.68963E-05-2.36903E-05-2.18429E-05-7.44545E-19 2.00161E-19
 -1      3818 8.86559E-05-3.00510E-05-2.50616E-05-1.93355E-05-2.68660E-19-3.66729E-19
 -1      3819 7.90938E-05-2.32908E-05-2.39397E-05-1.81053E-05-1.29971E-18-4.95639E-19
 -1      3820 1.13444E-04-4.27667E-05-3.03039E-05-2.33437E-07 7.12964E-20-1.67114E-19
 -1      3821 7.51193E-05-2.27843E-05-2.21966E-05 2.14795E-05-2.75981E-19 1.27631E-19
 -1      3822 7.22320E-05-1.96780E-05-2.25086E-05 1.69998E-05-4.72552E-20 7.09483E-19
 -1      3823 8.30180E-05-2.71725E-05-2.39286E-05 2.12393E-05-1.53244E-18-2.68021E-18
 -1      3824 9.51581E-05-2.36820E-05-3.06356E-05-1.21109E-06 2.54187E-19-1.53034E-18
 -1      3825 9.64138E-05-2.88879E-05-2.89398E-05-7.68406E-07 3.52965E-19-7.61513E-21
 -1      3826 9.64551E-05-2.87429E-05-2.90166E-05-6.93116E-07 4.39313E-19-1.06303E-19
 -1      3827 9.07053E-05-2.81321E-05-2.68503E-05 1.40403E-05-4.98388E-19-5.30057E-21
 -1      3828 9.40844E-05-3.03816E-05-2.72178E-05 1.40656E-05 9.53731E-20 6.20404E-19
 -1      3829 1.17453E-04-4.64382E-05-3.04282E-05 3.89190E-06-1.58559E-18-5.82282E-19
 -1      3830 9.52208E-05-2.37560E-05-3.06247E-05 1.13358E-06 1.14656E-18-9.69395E-19
 -1      3831 1.11662E-04-4.53739E-05-2.85953E-05 1.19612E-05-6.57658E-20-7.68388E-19
 -1      3832 1.08759E-04-4.41572E-05-2.75873E-05 1.60391E-05 2.42020E-19-1.10089E-18
 -1      3833 1.05374E-04-4.10512E-05-2.75693E-05 1.53113E-05 9.30813E-19-5.19905E-19
 -1      3834 9.62928E-05-2.90594E-05-2.88138E-05-8.18835E-07 2.15510E-19-2.09054E-19
 -1      3835 9.63523E-05-2.89912E-05-2.88671E-05-7.93856E-07 2.42953E-19-2.87544E-19
 -1      3836 9.65432E-05-2.89610E-05-2.89667E-05-6.69955E-07 4.33231E-19-1.30661E-19
 -1      3837 1.16913E-04-4.14449E-05-3.22605E-05 5.37985E-06-4.07082E-19 2.04734E-19
 -1      3838 9.56888E-05-2.47208E-05-3.03954E-05 8.17830E-07 1.02475E-18-9.99709E-19
 -1      3839 9.51990E-05-2.37048E-05-3.06501E-05 8.51666E-07 1.06731E-18-1.15869E-18
 -1      3840 9.67547E-05-3.33041E-05-2.72143E-05 1.47735E-05 4.27848E-19-4.92732E-19
 -1      3841 9.71654E-05-3.25220E-05-2.77157E-05 1.27570E-05-3.52617E-19-1.18302E-18
 -1      3842 9.94741E-05-3.39126E-05-2.80377E-05 1.16692E-05-5.42790E-19-2.92731E-18
 -1      3843 1.11190E-04-4.45778E-05-2.85323E-05-1.05515E-05 5.74163E-20 4.51300E-19
 -1      3844 1.02851E-04-3.55206E-05-2.88253E-05 6.43850E-06-7.79230E-19-1.60558E-18
 -1      3845 1.05052E-04-3.75174E-05-2.89688E-05 5.28458E-06-3.20020E-19-9.25239E-19
 -1      3846 1.06222E-04-3.88865E-05-2.88980E-05 6.69272E-06-4.68973E-19-4.88894E-19
 -1      3847 1.02430E-04-3.54077E-05-2.86999E-05 7.61909E-06-3.64023E-19-1.91189E-18
 -1      3848 1.15330E-04-4.44138E-05-3.04721E-05-1.22830E-06-1.94110E-19 2.32259E-19
 -1      3849 1.18780E-04-4.47477E-05-3.17379E-05 2.38667E-06-9.02990E-19-5.94919E-19
 -1      3850 9.51416E-05-2.35427E-05-3.06939E-05 5.20032E-07 8.87720E-19-1.29079E-18
 -1      3851 8.32185E-05-2.27061E-05-2.59997E-05 1.23148E-05 6.77533E-19 3.46109E-19
 -1      3852 8.69331E-05-2.53008E-05-2.63147E-05 1.38966E-05 5.12004E-19-9.21403E-19
 -1      3853 8.88714E-05-2.81149E-05-2.60500E-05 1.62573E-05-4.60386E-19 2.30850E-19
 -1      3854 7.99825E-05-2.18610E-05-2.49496E-05 1.39492E-05 1.10551E-19-1.83226E-18
 -1      3855 9.66690E-05-2.90798E-05-2.89652E-05 5.35162E-07 2.21318E-19-7.20656E-19
 -1      3856 9.65959E-05-2.91583E-05-2.89018E-05 5.59074E-07 3.55908E-19-5.30158E-19
 -1      3857 9.65056E-05-2.92000E-05-2.88441E-05 5.57881E-07 3.28962E-19-4.64732E-19
 -1      3858 9.64173E-05-2.92153E-05-2.88002E-05 5.59809E-07 3.58465E-19-4.20346E-19
 -1      3859 9.66405E-05-2.91986E-05-2.89052E-05 4.35325E-07 3.95712E-19-1.09095E-18
 -1      3860 9.63117E-05-2.92023E-05-2.87604E-05 5.48491E-07-4.49841E-20-5.89777E-19
 -1      3861 9.62167E-05-2.91732E-05-2.87319E-05 5.39641E-07-5.11763E-19-7.50579E-19
 -1      3862 9.64455E-05-2.92354E-05-2.88059E-05 4.35060E-07-1.41646E-19-1.13424E-18
 -1      3863 9.60977E-05-2.91184E-05-2.87052E-05 5.24454E-07-5.30336E-19-6.49179E-19
 -1      3864 9.59946E-05-2.90528E-05-2.86882E-05 5.12748E-07-4.82778E-19-4.90130E-19
 -1      3865 9.62224E-05-2.91710E-05-2.87378E-05 4.19390E-07-3.82102E-19-8.59150E-19
 -1      3866 9.58765E-05-2.89710E-05-2.86739E-05 5.00133E-07-4.96468E-19-4.19837E-19
 -1      3867 9.57758E-05-2.88837E-05-2.86670E-05 4.93095E-07-1.88666E-19-4.67828E-19
 -1      3868 9.59873E-05-2.90331E-05-2.86958E-05 4.00846E-07-5.94968E-19-6.84513E-19
 -1      3869 9.56531E-05-2.87791E-05-2.86609E-05 4.85944E-07-4.43483E-20-5.36736E-19
 -1      3870 9.55475E-05-2.86705E-05-2.86607E-05 4.87310E-07 2.19087E-19-7.60603E-19
 -1      3871 9.57490E-05-2.88436E-05-2.86743E-05 3.87405E-07-2.12268E-19-4.65894E-19
 -1      3872 9.54166E-05-2.85445E-05-2.86604E-05 4.87361E-07 1.00529E-19-1.44516E-18
 -1      3873 9.53011E-05-2.84145E-05-2.86651E-05 4.99779E-07-4.03848E-19-1.34185E-18
 -1      3874 9.54981E-05-2.86084E-05-2.86670E-05 3.83591E-07-2.57075E-19-9.63205E-19
 -1      3875 9.51558E-05-2.82657E-05-2.86686E-05 5.07549E-07-1.24840E-19-1.48704E-18
 -1      3876 9.50229E-05-2.81114E-05-2.86763E-05 5.32266E-07-7.34639E-20-1.18201E-18
 -1      3877 9.52252E-05-2.83283E-05-2.86693E-05 3.91288E-07-1.42946E-19-1.12673E-18
 -1      3878 9.48549E-05-2.79358E-05-2.86815E-05 5.46556E-07-4.63168E-19-1.24584E-18
 -1      3879 9.46944E-05-2.77521E-05-2.86902E-05 5.82952E-07-8.21438E-19-8.75593E-19
 -1      3880 9.49161E-05-2.79989E-05-2.86770E-05 4.09098E-07-3.41113E-19-1.45954E-18
 -1      3881 9.44926E-05-2.75437E-05-2.86947E-05 6.00244E-07-1.11694E-18-1.19223E-18
 -1      3882 9.42906E-05-2.73233E-05-2.87021E-05 6.45149E-07-7.42804E-19-1.32630E-18
 -1      3883 9.45514E-05-2.76117E-05-2.86855E-05 4.31400E-07-9.30796E-19-1.41282E-18
 -1      3884 9.40414E-05-2.70747E-05-2.87028E-05 6.58524E-07-5.90607E-19-1.25324E-18
 -1      3885 9.37799E-05-2.68084E-05-2.87055E-05 7.04984E-07-6.87913E-19-1.34650E-18
 -1      3886 9.41072E-05-2.71552E-05-2.86893E-05 4.46376E-07-8.21108E-19-1.48020E-18
 -1      3887 9.34667E-05-2.65112E-05-2.86985E-05 7.02470E-07-3.03442E-19-1.34780E-18
 -1      3888 9.31225E-05-2.61888E-05-2.86919E-05 7.38194E-07-3.94400E-19-7.65684E-19
 -1      3889 9.35536E-05-2.66162E-05-2.86811E-05 4.33389E-07-2.57537E-19-1.37690E-18
 -1      3890 9.27034E-05-2.58145E-05-2.86699E-05 6.98116E-07-2.84932E-19-2.29079E-19
 -1      3891 9.22185E-05-2.54030E-05-2.86447E-05 6.99526E-07 1.98899E-19 1.57720E-19
 -1      3892 9.28343E-05-2.59641E-05-2.86499E-05 3.55384E-07-2.35719E-20-3.94682E-19
 -1      3893 9.17071E-05-2.49795E-05-2.86008E-05 5.92886E-07-2.26848E-19 1.09384E-19
 -1      3894 9.10875E-05-2.45074E-05-2.85489E-05 5.26967E-07-4.64610E-19 2.53824E-19
 -1      3895 9.19187E-05-2.52027E-05-2.85808E-05 1.55049E-07-1.36962E-19 1.25109E-19
 -1      3896 9.04427E-05-2.40167E-05-2.84706E-05 3.09678E-07-1.24030E-19 1.74078E-19
 -1      3897 8.96181E-05-2.34607E-05-2.83749E-05 1.26899E-07 7.38102E-20 3.98557E-19
 -1      3898 9.07853E-05-2.43520E-05-2.84560E-05-2.39401E-07-3.18383E-19 1.57163E-19
 -1      3899 8.88120E-05-2.29092E-05-2.82447E-05-2.64848E-07-3.38315E-19 2.18866E-19
 -1      3900 8.77194E-05-2.22711E-05-2.80808E-05-6.36321E-07-3.40506E-19 6.68143E-20
 -1      3901 8.93640E-05-2.34107E-05-2.82459E-05-9.46021E-07-3.63797E-19-2.01710E-19
 -1      3902 8.67265E-05-2.16820E-05-2.78738E-05-1.29048E-06-1.11152E-19-1.01651E-19
 -1      3903 8.52862E-05-2.09790E-05-2.76051E-05-1.95018E-06 6.24095E-20-7.19768E-19
 -1      3904 8.76056E-05-2.24239E-05-2.79098E-05-2.12558E-06-4.86278E-19-1.10207E-18
 -1      3905 8.40887E-05-2.04030E-05-2.72857E-05-2.98725E-06-2.38811E-19-1.13651E-18
 -1      3906 8.22067E-05-1.96726E-05-2.68564E-05-4.08128E-06-2.91371E-19-1.39930E-18
 -1      3907 8.54731E-05-2.14870E-05-2.73904E-05-3.99840E-06-5.21947E-19-1.13493E-18
 -1      3908 8.08334E-05-1.92248E-05-2.63756E-05-5.61419E-06-8.21425E-19-1.50897E-18
 -1      3909 7.83703E-05-1.84853E-05-2.56865E-05-7.50240E-06-1.32688E-18-1.92015E-18
 -1      3910 8.29115E-05-2.07353E-05-2.66086E-05-6.86615E-06-8.18829E-19-2.29757E-18
 -1      3911 1.15070E-04-4.56871E-05-2.95927E-05 6.48704E-06-1.50170E-18-1.19696E-18
 -1      3912 9.61580E-05-2.60511E-05-3.00544E-05 3.65034E-07 8.16950E-19-7.72876E-19
 -1      3913 9.47853E-05-2.78881E-05-2.86683E-05-7.93197E-07-7.95951E-19 1.20873E-18
 -1      3914 9.48900E-05-2.80145E-05-2.86633E-05-7.15719E-07-5.25342E-19 1.49767E-18
 -1      3915 9.42701E-05-2.73733E-05-2.86667E-05-1.27875E-06-3.29923E-19 8.94821E-19
 -1      3916 9.43705E-05-2.74849E-05-2.86688E-05-1.12654E-06-6.69596E-19 5.17276E-19
 -1      3917 9.45298E-05-2.76227E-05-2.86720E-05-9.95207E-07-9.25468E-19 4.74103E-19
 -1      3918 9.46357E-05-2.77474E-05-2.86694E-05-8.83882E-07-1.05776E-18 1.02606E-18
 -1      3919 9.43170E-05-2.74329E-05-2.86632E-05-9.45139E-07-7.39883E-19 9.83052E-19
 -1      3920 9.38349E-05-2.70672E-05-2.86082E-05-2.17025E-06-2.85400E-19 8.12345E-19
 -1      3921 9.38736E-05-2.70880E-05-2.86267E-05-1.91231E-06-2.70321E-19 9.80280E-19
 -1      3922 9.37590E-05-2.71335E-05-2.85446E-05-2.82290E-06-4.46409E-19 8.24373E-19
 -1      3923 9.37181E-05-2.70540E-05-2.85743E-05-2.50133E-06-1.69544E-19 6.48722E-19
 -1      3924 9.33989E-05-2.67671E-05-2.85577E-05-2.25830E-06-3.87807E-19 4.43712E-19
 -1      3925 9.38953E-05-2.74733E-05-2.84541E-05-3.63811E-06-7.61739E-19 4.59510E-19
 -1      3926 9.37202E-05-2.72378E-05-2.84952E-05-3.25151E-06-7.99835E-19 7.36810E-19
 -1      3927 9.32298E-05-2.68111E-05-2.84696E-05-3.02755E-06-4.07598E-19 3.59992E-19
 -1      3928 9.43857E-05-2.82220E-05-2.83399E-05-4.61524E-06 1.38308E-19-1.44965E-19
 -1      3929 9.40004E-05-2.77590E-05-2.83888E-05-4.17472E-06-1.89559E-21 2.63631E-20
 -1      3930 9.32735E-05-2.71529E-05-2.83472E-05-4.02221E-06-3.15313E-19 2.88651E-20
 -1      3931 9.54257E-05-2.95440E-05-2.82161E-05-5.71160E-06-6.53688E-20 2.19526E-19
 -1      3932 9.47329E-05-2.87708E-05-2.82630E-05-5.25376E-06 1.16109E-19-3.86371E-19
 -1      3933 9.36904E-05-2.79495E-05-2.81931E-05-5.26139E-06 1.80975E-19-2.30305E-19
 -1      3934 9.72593E-05-3.16062E-05-2.81166E-05-6.79956E-06-8.48486E-19 2.59002E-19
 -1      3935 9.61505E-05-3.04487E-05-2.81405E-05-6.40758E-06-3.04433E-19 6.56923E-19
 -1      3936 9.47122E-05-2.93988E-05-2.80226E-05-6.71403E-06-3.28149E-19 2.07344E-19
 -1      3937 1.00168E-04-3.45385E-05-2.81105E-05-7.61568E-06-1.45950E-18 4.90847E-19
 -1      3938 9.85351E-05-3.29546E-05-2.80710E-05-7.45093E-06-1.47345E-18 2.12419E-19
 -1      3939 9.66406E-05-3.17017E-05-2.78745E-05-8.27086E-06-6.51682E-19 1.18363E-18
 -1      3940 1.04380E-04-3.82796E-05-2.83295E-05-7.66199E-06-6.56395E-20-2.05544E-19
 -1      3941 1.02198E-04-3.63794E-05-2.81553E-05-7.99354E-06-7.49222E-19 9.26442E-21
 -1      3942 9.98408E-05-3.50280E-05-2.78299E-05-9.61647E-06-8.54080E-19-2.49655E-19
 -1      3943 9.50285E-05-2.81505E-05-2.86604E-05-6.56723E-07-6.35646E-19 1.46505E-18
 -1      3944 9.51295E-05-2.82718E-05-2.86551E-05-6.07048E-07-4.98502E-19 1.40760E-18
 -1      3945 9.49117E-05-2.80294E-05-2.86631E-05-5.84827E-07-5.65805E-19 1.30127E-18
 -1      3946 7.86013E-05-1.93835E-05-2.53402E-05-9.71049E-06-1.34952E-18-1.71109E-18
 -1      3947 7.78445E-05-2.10500E-05-2.42709E-05-1.51764E-05-1.57049E-18-1.15478E-18
 -1      3948 8.32324E-05-2.46431E-05-2.52288E-05-1.56391E-05-1.24091E-18-6.56963E-19
 -1      3949 8.16709E-05-2.15460E-05-2.57964E-05-1.08036E-05-1.29243E-18-1.65152E-18
 -1      3950 1.08786E-04-4.16019E-05-2.87324E-05 8.90829E-06-4.21991E-19-1.73967E-18
 -1      3951 1.11568E-04-4.34169E-05-2.91635E-05 7.37347E-06-1.32306E-18-2.10710E-18
 -1      3952 9.61457E-05-2.91122E-05-2.87278E-05-8.10810E-07 4.79903E-19-2.50248E-19
 -1      3953 9.62126E-05-2.90961E-05-2.87628E-05-8.16186E-07 2.93859E-19-2.04824E-19
 -1      3954 9.62366E-05-2.91563E-05-2.87506E-05-7.06954E-07 6.00400E-19-3.92335E-19
 -1      3955 9.64800E-05-2.85449E-05-2.91169E-05-6.19636E-07 4.46981E-19-1.64798E-19
 -1      3956 9.64975E-05-2.82999E-05-2.92213E-05-4.66309E-07 6.51998E-19-1.26033E-19
 -1      3957 9.66226E-05-2.86266E-05-2.91437E-05-5.46285E-07 4.92128E-19-7.61201E-20
 -1      3958 9.65200E-05-2.69164E-05-2.98112E-05 1.15807E-07 6.79811E-19-7.60908E-19
 -1      3959 9.61469E-05-2.58201E-05-3.01539E-05 3.13284E-07 8.09780E-19-9.23153E-19
 -1      3960 9.67740E-05-2.87921E-05-2.91330E-05 4.56400E-07 2.52871E-20-5.23097E-19
 -1      3961 9.67300E-05-2.89601E-05-2.90452E-05 5.16995E-07 9.91772E-20-5.53465E-19
 -1      3962 9.67916E-05-2.90226E-05-2.90450E-05 4.05543E-07 2.24041E-19-7.60651E-19
 -1      3963 9.57517E-05-2.49878E-05-3.03254E-05-8.58927E-07 3.06896E-20-1.42478E-18
 -1      3964 9.60777E-05-2.58652E-05-3.00976E-05-4.83096E-07-5.22054E-22-1.42604E-18
 -1      3965 1.13347E-04-4.37091E-05-2.97193E-05-3.33155E-06 4.32758E-19-4.34369E-20
 -1      3966 9.53276E-05-2.39755E-05-3.05793E-05-8.67904E-07 1.91776E-19-1.63456E-18
 -1      3967 9.67764E-05-2.82680E-05-2.93588E-05 2.92896E-07-1.60029E-19-8.41585E-19
 -1      3968 9.67842E-05-2.85610E-05-2.92405E-05 4.07243E-07-1.01621E-19-7.16273E-19
 -1      3969 9.68644E-05-2.86509E-05-2.92347E-05 3.26837E-07 1.45077E-19-8.11854E-19
 -1      3970 9.40261E-05-2.71716E-05-2.86473E-05-1.66304E-06-1.88800E-19 1.09766E-18
 -1      3971 9.41073E-05-2.72519E-05-2.86564E-05-1.46207E-06 5.41290E-20 1.01052E-18
 -1      3972 9.36755E-05-2.69055E-05-2.86153E-05-1.67908E-06-2.87601E-19 1.06183E-18
 -1      3973 9.52583E-05-2.83987E-05-2.86527E-05-5.72829E-07-2.52824E-19 1.14619E-18
 -1      3974 9.53557E-05-2.85111E-05-2.86489E-05-5.45693E-07 3.65956E-19 1.07523E-18
 -1      3975 9.51772E-05-2.83069E-05-2.86584E-05-4.93980E-07-5.81354E-19 1.08385E-18
 -1      3976 9.57610E-05-3.48232E-05-2.60595E-05-1.80770E-05-2.10728E-19 9.96997E-19
 -1      3977 1.01527E-04-3.89913E-05-2.69534E-05-1.60045E-05 2.08496E-19 1.58202E-18
 -1      3978 1.06716E-04-4.17373E-05-2.76978E-05-1.32292E-05 1.70376E-19 4.71189E-19
 -1      3979 1.11016E-04-4.36792E-05-2.89763E-05-7.43214E-06 3.16670E-19 2.52570E-19
 -1      3980 1.09253E-04-4.19964E-05-2.88842E-05-6.44774E-06 4.80859E-19-1.50673E-19
 -1      3981 1.02911E-04-3.86339E-05-2.75068E-05-1.28150E-05 4.19848E-19 2.31056E-19
 -1      3982 9.65649E-05-2.78234E-05-2.94653E-05-1.96103E-07 6.69331E-19-6.03058E-20
 -1      3983 9.57236E-05-2.46267E-05-3.04454E-05 3.40698E-07 7.08861E-19-1.06328E-18
 -1      3984 9.51315E-05-2.34805E-05-3.07172E-05 2.26251E-07 7.53887E-19-1.26478E-18
 -1      3985 1.16664E-04-3.59956E-05-3.47215E-05 1.03690E-05 2.64129E-19 2.19646E-19
 -1      3986 9.61051E-05-2.91261E-05-2.87041E-05-5.59092E-07 3.23715E-19 5.12129E-20
 -1      3987 9.61986E-05-2.91668E-05-2.87273E-05-5.71492E-07 4.51204E-19 1.54248E-20
 -1      3988 9.56844E-05-2.88529E-05-2.86429E-05-6.19215E-07-2.59336E-19-7.05823E-20
 -1      3989 8.85117E-05-2.83408E-05-2.57350E-05-1.61619E-05-5.13369E-19-6.45026E-19
 -1      3990 9.22685E-05-3.19058E-05-2.58566E-05-1.77509E-05-2.75207E-19-1.37325E-19
 -1      3991 9.51491E-05-3.28465E-05-2.66508E-05-1.46426E-05 3.88717E-20 6.90347E-19
 -1      3992 9.39941E-05-2.71454E-05-2.86483E-05-1.25250E-06-3.94934E-19 9.71174E-19
 -1      3993 1.03898E-04-3.88033E-05-2.79144E-05 1.29425E-05 2.44516E-19-3.39597E-18
 -1      3994 1.00977E-04-3.71703E-05-2.73062E-05 1.56052E-05 9.74109E-19-1.05570E-18
 -1      3995 9.54770E-05-2.86261E-05-2.86490E-05-5.30360E-07 4.06499E-19 4.37302E-19
 -1      3996 9.55720E-05-2.87272E-05-2.86487E-05-5.20509E-07 3.42148E-20 1.95245E-19
 -1      3997 9.54252E-05-2.85602E-05-2.86567E-05-4.44852E-07-1.10839E-19 3.47410E-19
 -1      3998 9.46252E-05-2.77343E-05-2.86663E-05-7.29732E-07-3.99477E-19 8.86140E-19
 -1      3999 9.58986E-05-2.89984E-05-2.86702E-05-5.33268E-07 3.14104E-20 5.17114E-19
 -1      4000 9.59925E-05-2.90653E-05-2.86830E-05-5.44429E-07 4.01639E-19 5.50218E-19
 -1      4001 9.61182E-05-2.91239E-05-2.87133E-05-4.45107E-07-2.09206E-20 3.56080E-19
 -1      4002 9.51231E-05-2.34792E-05-3.07177E-05-1.39197E-07 6.05637E-19-1.32881E-18
 -1      4003 9.67801E-05-2.83211E-05-2.93361E-05-3.44251E-07 4.08198E-19-2.25573E-19
 -1      4004 9.67086E-05-2.77500E-05-2.95590E-05-1.00380E-07 4.61660E-19-5.43782E-19
 -1      4005 9.67317E-05-2.75440E-05-2.96524E-05-4.56085E-08 2.82061E-19-9.66967E-19
 -1      4006 1.06785E-04-4.00419E-05-2.85101E-05-7.41922E-06 4.65590E-19-1.55475E-19
 -1      4007 1.04387E-04-3.92179E-05-2.80207E-05-1.01394E-05 3.44292E-19-9.94264E-19
 -1      4008 9.00143E-05-2.97472E-05-2.58020E-05 1.78120E-05 1.09439E-19-3.84234E-20
 -1      4009 9.44165E-05-3.27211E-05-2.64430E-05 1.74481E-05 3.44387E-19 1.70548E-20
 -1      4010 1.01804E-04-3.64549E-05-2.80581E-05 1.17142E-05-1.85308E-19-3.95086E-18
 -1      4011 1.01268E-04-3.51124E-05-2.83509E-05 1.01134E-05-2.64545E-19-3.19873E-18
 -1      4012 1.02280E-04-3.56246E-05-2.85457E-05 8.87454E-06 1.09042E-19-2.68767E-18
 -1      4013 1.06017E-04-3.99827E-05-2.83139E-05 1.11903E-05-1.60149E-19-3.06272E-18
 -1      4014 1.19822E-04-4.24072E-05-3.30722E-05 5.72458E-06-2.07430E-19 7.77169E-20
 -1      4015 9.51869E-05-2.36088E-05-3.06822E-05-3.51543E-07 4.96712E-19-1.43442E-18
 -1      4016 9.52538E-05-2.37737E-05-3.06433E-05-6.84131E-07 3.28992E-19-1.64193E-18
 -1      4017 9.58624E-05-2.50405E-05-3.03393E-05-4.15473E-07 2.09669E-19-1.45427E-18
 -1      4018 9.57674E-05-2.47024E-05-3.04337E-05-9.17117E-08 4.34835E-19-1.25145E-18
 -1      4019 9.64045E-05-2.91192E-05-2.88390E-05-7.13619E-07 3.39894E-19-4.80507E-19
 -1      4020 9.67689E-05-2.88211E-05-2.91190E-05-4.77912E-07 5.44077E-19-2.25030E-19
 -1      4021 9.67962E-05-2.86103E-05-2.92218E-05-3.89446E-07 5.40638E-19-1.14124E-19
 -1      4022 9.68922E-05-2.85327E-05-2.92987E-05-2.51184E-07 4.42247E-19-5.18063E-19
 -1      4023 9.61835E-05-2.59650E-05-3.00981E-05-3.61877E-07 6.52915E-20-1.50230E-18
 -1      4024 9.63331E-05-2.65028E-05-2.99229E-05-3.15757E-07 6.36507E-20-1.39382E-18
 -1      4025 9.64842E-05-2.70363E-05-2.97689E-05-7.99695E-08-1.10566E-20-1.45366E-18
 -1      4026 9.61326E-05-2.57332E-05-3.01827E-05 1.24795E-07 6.31723E-19-1.03787E-18
 -1      4027 8.53533E-05-2.76324E-05-2.47317E-05 1.97499E-05-6.67644E-19-1.65541E-18
 -1      4028 9.67183E-05-2.79521E-05-2.94735E-05 2.18965E-07-4.05392E-20-1.10786E-18
 -1      4029 9.68143E-05-2.80734E-05-2.94600E-05 1.94484E-07 1.72284E-19-9.95972E-19
 -1      4030 9.66576E-05-2.75900E-05-2.95964E-05 6.23128E-08 8.32803E-20-1.25744E-18
 -1      4031 9.66583E-05-2.90920E-05-2.89553E-05-5.38995E-07 5.60351E-19-3.39835E-19
 -1      4032 9.67242E-05-2.89831E-05-2.90306E-05-4.98822E-07 6.88724E-19-1.91217E-19
 -1      4033 9.68468E-05-2.89660E-05-2.90945E-05-3.30152E-07 6.05817E-19-3.98169E-19
 -1      4034 7.72170E-05-2.10601E-05-2.41432E-05 1.52025E-05-1.28137E-18-1.62699E-18
 -1      4035 9.67523E-05-2.91950E-05-2.89522E-05 2.95724E-07 2.75207E-19-1.23794E-18
 -1      4036 9.66624E-05-2.92450E-05-2.88927E-05 3.08552E-07 2.57282E-19-1.38665E-18
 -1      4037 9.56904E-05-2.88287E-05-2.86534E-05-5.20928E-07-1.54914E-19 2.09805E-19
 -1      4038 9.57836E-05-2.89144E-05-2.86586E-05-5.24111E-07-7.86086E-20 3.68428E-19
 -1      4039 9.56634E-05-2.87866E-05-2.86624E-05-4.25538E-07 7.30362E-21-1.40497E-19
 -1      4040 9.65578E-05-2.92616E-05-2.88404E-05 3.03008E-07 1.51318E-19-1.26169E-18
 -1      4041 9.64529E-05-2.92535E-05-2.87989E-05 3.04896E-07-1.97264E-19-1.20042E-18
 -1      4042 9.66480E-05-2.92611E-05-2.88819E-05 1.72333E-07 1.44408E-19-1.32359E-18
 -1      4043 9.63292E-05-2.92173E-05-2.87615E-05 2.94424E-07-3.56766E-19-1.11950E-18
 -1      4044 9.62096E-05-2.91625E-05-2.87336E-05 2.91219E-07-2.97076E-19-1.02364E-18
 -1      4045 9.64230E-05-2.92469E-05-2.87919E-05 1.69938E-07-5.36850E-20-1.06684E-18
 -1      4046 9.60847E-05-2.90907E-05-2.87112E-05 2.81593E-07-1.91352E-19-8.48040E-19
 -1      4047 9.59663E-05-2.90076E-05-2.86958E-05 2.77994E-07-2.39937E-19-5.03632E-19
 -1      4048 9.61744E-05-2.91386E-05-2.87318E-05 1.63987E-07-1.39171E-19-1.06849E-18
 -1      4049 9.58367E-05-2.89090E-05-2.86831E-05 2.69699E-07-3.49332E-19-3.30117E-19
 -1      4050 9.57132E-05-2.88013E-05-2.86760E-05 2.68040E-07-2.77895E-19-5.82489E-19
 -1      4051 9.59218E-05-2.89675E-05-2.86962E-05 1.56263E-07-9.33356E-21-6.07156E-19
 -1      4052 9.55769E-05-2.86797E-05-2.86705E-05 2.62619E-07-6.37115E-19-5.31069E-19
 -1      4053 9.54458E-05-2.85507E-05-2.86692E-05 2.64626E-07-5.09495E-19-8.90146E-19
 -1      4054 9.56568E-05-2.87444E-05-2.86772E-05 1.47178E-07-6.32549E-19-6.32714E-19
 -1      4055 9.52990E-05-2.84071E-05-2.86684E-05 2.59237E-07-1.77748E-19-7.01983E-19
 -1      4056 9.51532E-05-2.82554E-05-2.86709E-05 2.65132E-07-8.42323E-20-7.65309E-19
 -1      4057 9.53775E-05-2.84790E-05-2.86706E-05 1.38347E-07-2.89003E-19-1.51387E-19
 -1      4058 9.49898E-05-2.80887E-05-2.86727E-05 2.58617E-07-1.57328E-19-1.23216E-18
 -1      4059 9.48212E-05-2.79118E-05-2.86767E-05 2.66195E-07-4.01003E-19-1.11239E-18
 -1      4060 9.50700E-05-2.81683E-05-2.86710E-05 1.25077E-07-4.53882E-19-1.10762E-18
 -1      4061 9.46332E-05-2.77190E-05-2.86785E-05 2.53996E-07-6.54766E-19-1.19565E-18
 -1      4062 9.44306E-05-2.75126E-05-2.86815E-05 2.58656E-07-1.02837E-18-9.93725E-19
 -1      4063 9.47219E-05-2.78108E-05-2.86738E-05 9.99529E-08-3.58288E-19-1.03576E-18
 -1      4064 9.42088E-05-2.72898E-05-2.86806E-05 2.33271E-07-9.78863E-19-8.65470E-19
 -1      4065 9.39586E-05-2.70490E-05-2.86795E-05 2.26633E-07-4.39541E-19-8.96898E-19
 -1      4066 9.43157E-05-2.74016E-05-2.86739E-05 5.03875E-08-7.82356E-19-4.41066E-19
 -1      4067 9.36926E-05-2.67925E-05-2.86723E-05 1.75938E-07-2.50088E-19-9.89223E-19
 -1      4068 9.33784E-05-2.65129E-05-2.86630E-05 1.44790E-07 3.51715E-20-4.53389E-19
 -1      4069 9.38320E-05-2.69362E-05-2.86647E-05-4.42232E-08-6.30222E-20-4.60387E-20
 -1      4070 9.30408E-05-2.62053E-05-2.86437E-05 4.46298E-08 4.48546E-19-1.48853E-19
 -1      4071 9.26199E-05-2.58656E-05-2.86185E-05-4.04067E-08 3.20802E-19-6.54756E-20
 -1      4072 9.32336E-05-2.63994E-05-2.86372E-05-2.21709E-07 3.24366E-19-7.87596E-20
 -1      4073 9.22322E-05-2.55378E-05-2.85821E-05-2.10798E-07-3.21557E-19-1.83680E-19
 -1      4074 9.17210E-05-2.51706E-05-2.85352E-05-3.74066E-07-3.82349E-19-3.47227E-19
 -1      4075 9.25121E-05-2.58091E-05-2.85801E-05-5.30267E-07 1.77630E-19-3.95204E-19
 -1      4076 9.12643E-05-2.48187E-05-2.84729E-05-6.56961E-07-5.93022E-19 1.50005E-20
 -1      4077 9.06197E-05-2.44169E-05-2.83918E-05-9.50486E-07-5.02667E-19-2.11073E-19
 -1      4078 9.16725E-05-2.51999E-05-2.84810E-05-1.02957E-06-1.28050E-19-1.06682E-18
 -1      4079 9.00956E-05-2.40618E-05-2.82925E-05-1.40150E-06-5.38924E-19-3.05218E-20
 -1      4080 8.92917E-05-2.36448E-05-2.81609E-05-1.89369E-06-6.13803E-19-3.36406E-19
 -1      4081 9.06951E-05-2.45991E-05-2.83203E-05-1.82196E-06-4.04591E-19-4.96300E-19
 -1      4082 8.87168E-05-2.33277E-05-2.80099E-05-2.58693E-06-8.31653E-19-2.99370E-19
 -1      4083 8.77306E-05-2.29351E-05-2.78052E-05-3.37139E-06-8.13718E-19-5.10304E-19
 -1      4084 8.95969E-05-2.40823E-05-2.80737E-05-3.03793E-06-8.38706E-19 4.62909E-20
 -1      4085 8.71480E-05-2.27291E-05-2.75844E-05-4.40252E-06-9.54467E-19-7.19811E-19
 -1      4086 8.59648E-05-2.24275E-05-2.72753E-05-5.60953E-06-7.45829E-19-1.40214E-18
 -1      4087 8.84349E-05-2.37793E-05-2.77115E-05-4.84606E-06-9.92582E-19-4.04426E-19
 -1      4088 8.55036E-05-2.25234E-05-2.69641E-05-7.09549E-06-8.57095E-19-1.42113E-18
 -1      4089 8.42426E-05-2.24293E-05-2.65294E-05-8.95082E-06-1.11002E-18-1.91482E-18
 -1      4090 8.73508E-05-2.39065E-05-2.71990E-05-7.43174E-06-8.75548E-19-7.63596E-19
 -1      4091 9.41191E-05-2.72439E-05-2.86581E-05-8.41380E-07-5.69620E-19 6.80947E-19
 -1      4092 9.42773E-05-2.74077E-05-2.86624E-05-7.18282E-07-5.92435E-19 7.97792E-19
 -1      4093 9.44765E-05-2.75847E-05-2.86661E-05-6.25274E-07-5.03527E-19 4.69903E-19
 -1      4094 9.46253E-05-2.77454E-05-2.86658E-05-5.40872E-07-1.90911E-19 7.55436E-19
 -1      4095 9.42936E-05-2.74070E-05-2.86626E-05-5.18638E-07-5.51663E-19-9.63748E-20
 -1      4096 9.26851E-05-2.63735E-05-2.84052E-05-3.08143E-06-1.95527E-19-6.70938E-19
 -1      4097 9.27198E-05-2.63331E-05-2.84603E-05-2.64050E-06-1.95864E-19-4.59938E-19
 -1      4098 9.29673E-05-2.64050E-05-2.85171E-05-2.22751E-06-3.59116E-19-2.05712E-19
 -1      4099 9.30811E-05-2.64719E-05-2.85546E-05-1.89681E-06-1.37803E-20 2.75878E-19
 -1      4100 9.24142E-05-2.60080E-05-2.84591E-05-2.25694E-06-1.13880E-19-9.66689E-19
 -1      4101 9.28800E-05-2.73673E-05-2.80490E-05-5.69462E-06 1.65823E-19-8.04199E-20
 -1      4102 9.25224E-05-2.68817E-05-2.81392E-05-4.98107E-06-4.36343E-20-1.04860E-19
 -1      4103 9.37730E-05-2.87966E-05-2.78154E-05-7.51258E-06-5.57332E-19 1.07720E-18
 -1      4104 9.30384E-05-2.79183E-05-2.79113E-05-6.67604E-06 7.12159E-20 1.05725E-18
 -1      4105 9.17380E-05-2.68131E-05-2.78519E-05-6.40579E-06-4.84936E-19 4.40119E-19
 -1      4106 9.55778E-05-3.11476E-05-2.75854E-05-9.54416E-06-6.50247E-19 1.08852E-18
 -1      4107 9.43625E-05-2.97860E-05-2.76635E-05-8.65407E-06-3.16277E-19 1.40741E-18
 -1      4108 9.24751E-05-2.83448E-05-2.75360E-05-8.72839E-06-4.16754E-19 6.02559E-19
 -1      4109 9.80647E-05-3.48659E-05-2.70544E-05 1.58516E-05 1.49082E-18-1.08644E-18
 -1      4110 9.48019E-05-2.79120E-05-2.86658E-05-4.81313E-07-4.54445E-19 6.73333E-19
 -1      4111 9.49399E-05-2.80633E-05-2.86636E-05-4.25979E-07-6.65443E-19 7.47970E-19
 -1      4112 9.46642E-05-2.77706E-05-2.86664E-05-3.74468E-07-3.43580E-19-4.38973E-20
 -1      4113 9.63063E-05-2.91955E-05-2.87609E-05-5.84958E-07 5.42067E-19-4.81183E-19
 -1      4114 9.63989E-05-2.91998E-05-2.87981E-05-5.91068E-07 2.49942E-19-5.49559E-19
 -1      4115 9.63355E-05-2.92115E-05-2.87694E-05-4.64489E-07 6.13524E-20-1.77078E-19
 -1      4116 1.06319E-04-3.91484E-05-2.87535E-05 7.83670E-06-2.47100E-19-2.09121E-18
 -1      4117 1.00373E-04-3.63864E-05-2.73828E-05-1.25631E-05 9.90797E-20 2.43195E-19
 -1      4118 8.20693E-05-2.42222E-05-2.46686E-05 1.72165E-05-9.72867E-19-2.62998E-18
 -1      4119 9.68905E-05-2.89721E-05-2.91072E-05 2.64424E-07 1.04489E-19-7.91660E-19
 -1      4120 9.68316E-05-2.91060E-05-2.90251E-05 2.97368E-07 2.20768E-19-9.71233E-19
 -1      4121 9.68335E-05-2.91514E-05-2.90081E-05 1.66007E-07-1.27702E-19-1.00523E-18
 -1      4122 9.69335E-05-2.85301E-05-2.93154E-05 1.95474E-07 1.07872E-19-8.29992E-19
 -1      4123 9.69271E-05-2.87822E-05-2.92053E-05 2.55306E-07 7.29218E-20-8.44782E-19
 -1      4124 9.69474E-05-2.88649E-05-2.91793E-05 1.42540E-07 2.06629E-19-7.28422E-19
 -1      4125 9.69196E-05-3.38698E-05-2.70472E-05-1.34150E-05 1.87122E-19 1.54402E-18
 -1      4126 9.89656E-05-3.46067E-05-2.75429E-05-1.09982E-05-3.11897E-20 4.47659E-19
 -1      4127 9.69628E-05-3.26384E-05-2.75364E-05-1.03776E-05-6.34588E-19 1.37305E-18
 -1      4128 9.38335E-05-3.12075E-05-2.68700E-05-1.30771E-05-1.48873E-19 5.69830E-19
 -1      4129 1.04101E-04-3.74329E-05-2.85742E-05 8.65053E-06-2.92224E-19-1.91359E-18
 -1      4130 9.65203E-05-2.66072E-05-2.99462E-05 5.05476E-08 5.11309E-19-9.42484E-19
 -1      4131 9.61164E-05-2.56384E-05-3.02143E-05 2.46398E-08 5.82841E-19-1.02977E-18
 -1      4132 9.33385E-05-2.66109E-05-2.85913E-05-1.60331E-06-2.42058E-19 1.12662E-19
 -1      4133 9.34889E-05-2.67376E-05-2.86142E-05-1.36048E-06-1.62126E-19 4.02498E-19
 -1      4134 9.29157E-05-2.62796E-05-2.85554E-05-1.55787E-06-2.97137E-19-9.61969E-20
 -1      4135 9.64935E-05-2.91925E-05-2.88423E-05-5.75351E-07 4.14192E-19-6.05191E-19
 -1      4136 9.65785E-05-2.91490E-05-2.88968E-05-5.64867E-07 4.61354E-19-4.71381E-19
 -1      4137 9.67104E-05-2.91680E-05-2.89500E-05-3.87144E-07 6.31524E-19-1.63421E-19
 -1      4138 9.65371E-05-2.92293E-05-2.88490E-05-4.46852E-07 2.79753E-19-2.57075E-19
 -1      4139 9.50981E-05-2.82161E-05-2.86626E-05-3.90299E-07-9.10851E-19 6.84674E-19
 -1      4140 9.52266E-05-2.83548E-05-2.86608E-05-3.56837E-07-5.39146E-19 2.84846E-19
 -1      4141 9.49943E-05-2.81050E-05-2.86656E-05-2.84117E-07-8.11798E-19-3.71703E-19
 -1      4142 9.37344E-05-2.69085E-05-2.86356E-05-1.15602E-06-6.21768E-20 2.26849E-19
 -1      4143 9.38955E-05-2.70635E-05-2.86475E-05-9.81327E-07-2.63046E-19 3.34918E-19
 -1      4144 9.34134E-05-2.66364E-05-2.86150E-05-1.07181E-06-2.03884E-19 5.62459E-20
 -1      4145 9.25994E-05-2.66375E-05-2.82494E-05-4.22154E-06-4.31838E-19-4.48832E-19
 -1      4146 9.24882E-05-2.64215E-05-2.83233E-05-3.64943E-06-5.95439E-19-6.14985E-19
 -1      4147 9.19690E-05-2.59088E-05-2.83153E-05-3.24200E-06-1.26910E-19-1.53540E-18
 -1      4148 9.16861E-05-2.61141E-05-2.81145E-05-4.59664E-06-4.44585E-19-4.18024E-19
 -1      4149 9.58922E-05-2.89762E-05-2.86794E-05-4.28801E-07 5.20898E-20 4.59558E-19
 -1      4150 8.68929E-05-2.63945E-05-2.59498E-05-1.41415E-05-8.51670E-19-1.09109E-18
 -1      4151 9.38763E-05-2.70224E-05-2.86479E-05-7.39938E-07-1.23470E-19-2.70726E-19
 -1      4152 9.52927E-05-2.84064E-05-2.86652E-05-2.30937E-07-7.11603E-19-4.08098E-19
 -1      4153 9.53715E-05-2.84927E-05-2.86613E-05-3.38034E-07-3.71155E-19 1.57115E-19
 -1      4154 9.54938E-05-2.86162E-05-2.86623E-05-3.22103E-07-3.77846E-19-4.23687E-19
 -1      4155 9.68789E-05-2.90573E-05-2.90663E-05-2.28823E-07 5.18220E-19-6.66060E-19
 -1      4156 9.69303E-05-2.89000E-05-2.91548E-05-1.93430E-07 5.39223E-19-7.03530E-19
 -1      4157 9.69694E-05-2.87774E-05-2.92261E-05-8.35966E-08 3.46288E-19-1.07297E-18
 -1      4158 9.69534E-05-2.86829E-05-2.92593E-05-1.92706E-07 4.88219E-19-9.52692E-19
 -1      4159 9.69474E-05-2.84038E-05-2.93769E-05-1.26856E-07 2.43894E-19-1.06091E-18
 -1      4160 9.42642E-05-3.05958E-05-2.73138E-05-1.08173E-05-6.84997E-19 7.73738E-19
 -1      4161 8.47337E-05-2.33552E-05-2.62351E-05-1.09041E-05-1.31627E-18-1.77767E-18
 -1      4162 9.66101E-05-2.72010E-05-2.97486E-05-2.72647E-08 1.76713E-19-1.38196E-18
 -1      4163 9.61148E-05-2.91136E-05-2.87136E-05-3.20240E-07-1.66127E-19 7.57853E-20
 -1      4164 9.62270E-05-2.91752E-05-2.87360E-05-3.24277E-07-9.45241E-20-1.82108E-19
 -1      4165 9.63484E-05-2.92240E-05-2.87664E-05-3.34645E-07-1.11289E-19-1.33231E-19
 -1      4166 9.64579E-05-2.92499E-05-2.88022E-05-3.37644E-07 4.11316E-22-2.23322E-19
 -1      4167 9.63271E-05-2.92151E-05-2.87646E-05-2.01940E-07-8.39742E-20-4.63608E-19
 -1      4168 9.61622E-05-2.57574E-05-3.01845E-05-1.21531E-07 3.51970E-19-1.04711E-18
 -1      4169 9.61382E-05-2.57735E-05-3.01608E-05-2.62186E-07 2.44450E-19-1.37915E-18
 -1      4170 9.69083E-05-2.82606E-05-2.94213E-05 1.78266E-07 3.45000E-19-8.49046E-19
 -1      4171 9.69534E-05-2.83872E-05-2.93853E-05 1.04094E-07 2.30154E-19-8.14981E-19
 -1      4172 9.68516E-05-2.79254E-05-2.95402E-05 1.09152E-07 4.09265E-19-9.41727E-19
 -1      4173 9.69033E-05-2.80189E-05-2.95179E-05-1.08434E-07 1.68875E-19-9.55712E-19
 -1      4174 9.67072E-05-2.72838E-05-2.97614E-05 3.41850E-08 3.91181E-19-1.00600E-18
 -1      4175 9.67025E-05-2.71839E-05-2.97962E-05 5.48460E-09 4.58496E-19-7.82327E-19
 -1      4176 9.69331E-05-2.81593E-05-2.94729E-05-3.65357E-08 2.04602E-19-1.08144E-18
 -1      4177 9.69760E-05-2.88393E-05-2.92022E-05 2.23920E-08 2.93106E-19-9.67021E-19
 -1      4178 9.69385E-05-2.90211E-05-2.91053E-05 3.90298E-08 2.11874E-19-9.23898E-19
 -1      4179 9.67213E-05-2.92619E-05-2.89104E-05 3.30180E-08-4.53962E-20-6.21821E-19
 -1      4180 9.66191E-05-2.92813E-05-2.88574E-05 3.73214E-08 1.89388E-19-8.15413E-19
 -1      4181 9.65110E-05-2.92710E-05-2.88161E-05-2.11431E-08 6.76893E-20-7.00653E-19
 -1      4182 9.63903E-05-2.92391E-05-2.87779E-05-1.75467E-08-1.61395E-19-6.29911E-19
 -1      4183 9.62689E-05-2.91885E-05-2.87472E-05-1.99177E-08-1.21279E-19-6.33120E-19
 -1      4184 9.61438E-05-2.91191E-05-2.87239E-05-1.86339E-08 7.99972E-21-6.44631E-19
 -1      4185 9.57347E-05-2.88132E-05-2.86800E-05 2.46358E-08-5.51804E-19-5.56373E-19
 -1      4186 9.55968E-05-2.86904E-05-2.86739E-05 2.16290E-08-5.16197E-19-4.83868E-19
 -1      4187 9.54798E-05-2.85832E-05-2.86697E-05-3.66015E-08-5.71155E-19-3.08087E-19
 -1      4188 9.53339E-05-2.84429E-05-2.86682E-05-4.22152E-08-4.51376E-19-4.95115E-19
 -1      4189 9.51877E-05-2.82962E-05-2.86675E-05-6.03261E-08-6.18822E-19-6.72335E-19
 -1      4190 9.50241E-05-2.81345E-05-2.86685E-05-7.17990E-08-5.28042E-19-8.57566E-19
 -1      4191 9.48635E-05-2.79687E-05-2.86692E-05-1.02962E-07-4.09912E-19-8.61786E-19
 -1      4192 9.46759E-05-2.77849E-05-2.86701E-05-1.25670E-07-5.82755E-19-9.63796E-19
 -1      4193 9.44962E-05-2.76001E-05-2.86699E-05-1.76595E-07-5.26713E-19-4.77117E-19
 -1      4194 9.42756E-05-2.73926E-05-2.86679E-05-2.18861E-07-4.48228E-19-6.05438E-20
 -1      4195 9.40727E-05-2.71902E-05-2.86638E-05-2.99061E-07-3.15179E-19-1.03283E-19
 -1      4196 9.38095E-05-2.69590E-05-2.86555E-05-3.73972E-07-7.73233E-20-6.67970E-20
 -1      4197 9.35819E-05-2.67431E-05-2.86442E-05-4.96594E-07 4.23764E-20-3.00765E-19
 -1      4198 9.32503E-05-2.64769E-05-2.86238E-05-6.32174E-07-1.40903E-19-6.29677E-19
 -1      4199 9.29997E-05-2.62583E-05-2.86008E-05-8.17668E-07-2.46131E-19-5.25980E-19
 -1      4200 9.26216E-05-2.59904E-05-2.85643E-05-1.03005E-06 7.42695E-20-4.74343E-19
 -1      4201 9.23578E-05-2.57874E-05-2.85248E-05-1.30380E-06 1.99797E-20-8.94628E-19
 -1      4202 9.19160E-05-2.55226E-05-2.84638E-05-1.63860E-06-1.39874E-19-1.14470E-18
 -1      4203 9.16611E-05-2.53671E-05-2.84021E-05-2.03540E-06-1.18394E-19-1.05431E-18
 -1      4204 9.11607E-05-2.51354E-05-2.83068E-05-2.54711E-06-2.93720E-19-1.06685E-18
 -1      4205 9.09556E-05-2.50786E-05-2.82167E-05-3.10979E-06-4.35694E-19-8.56950E-19
 -1      4206 9.04175E-05-2.49313E-05-2.80754E-05-3.86898E-06-6.81486E-19-9.19921E-19
 -1      4207 9.03325E-05-2.50519E-05-2.79514E-05-4.64651E-06-1.06070E-18-4.82920E-19
 -1      4208 8.98062E-05-2.50721E-05-2.77504E-05-5.73762E-06-8.24769E-19-4.56137E-19
 -1      4209 8.99487E-05-2.54864E-05-2.75901E-05-6.78837E-06-5.73313E-19-4.59032E-19
 -1      4210 8.94951E-05-2.57416E-05-2.73135E-05-8.29223E-06-7.65384E-19-7.19382E-19
 -1      4211 9.68193E-05-2.91464E-05-2.90005E-05-2.49870E-07 4.43068E-19-6.38835E-19
 -1      4212 9.68827E-05-2.90877E-05-2.90570E-05-1.24653E-07 2.76828E-19-1.00009E-18
 -1      4213 9.67405E-05-2.92049E-05-2.89431E-05-2.90322E-07 3.55552E-19-4.83577E-19
 -1      4214 9.68828E-05-2.91224E-05-2.90398E-05 2.12647E-09-1.37517E-20-8.07300E-19
 -1      4215 8.88781E-05-2.68377E-05-2.66440E-05-1.17685E-05-1.12950E-18-7.42352E-19
 -1      4216 9.59893E-05-2.90349E-05-2.86947E-05-3.12153E-07 3.62228E-20-1.73237E-19
 -1      4217 9.60836E-05-2.90869E-05-2.87147E-05-1.96171E-07-4.93259E-20-4.74648E-19
 -1      4218 9.58763E-05-2.89482E-05-2.86822E-05-3.10608E-07 3.09853E-19-3.93656E-19
 -1      4219 8.98948E-05-2.66591E-05-2.71073E-05-9.69217E-06-1.01047E-18-6.60057E-19
 -1      4220 9.64761E-05-2.65467E-05-2.99593E-05-1.19053E-07 3.25480E-19-1.06430E-18
 -1      4221 9.25769E-05-2.95849E-05-2.69428E-05-1.20419E-05-9.18157E-19 1.89755E-19
 -1      4222 9.68032E-05-2.92125E-05-2.89664E-05 1.29687E-08-1.60648E-19-8.48624E-19
 -1      4223 9.56100E-05-2.87168E-05-2.86674E-05-2.69083E-07-1.55026E-19-6.27495E-19
 -1      4224 9.57299E-05-2.88272E-05-2.86728E-05-2.62671E-07 2.27381E-19-3.65537E-19
 -1      4225 9.69913E-05-2.85996E-05-2.93093E-05 3.61053E-08 1.88204E-19-1.12147E-18
 -1      4226 9.60165E-05-2.90361E-05-2.87046E-05-2.06013E-08 1.69012E-19-8.34800E-19
 -1      4227 9.66607E-05-2.71777E-05-2.97832E-05 1.64834E-08 3.67072E-19-9.30637E-19
 -1      4228 9.65562E-05-2.92709E-05-2.88389E-05-1.52350E-07 1.52797E-19-3.59322E-19
 -1      4229 9.58852E-05-2.89390E-05-2.86910E-05-2.03140E-08-1.29097E-19-1.06483E-18
 -1      4230 9.55492E-05-2.86522E-05-2.86708E-05-1.56017E-07-4.54176E-19-3.19959E-19
 -1      4231 9.58140E-05-2.88841E-05-2.86852E-05-1.47661E-07 1.26278E-19-9.22820E-19
 -1      4232 9.65672E-05-2.92579E-05-2.88464E-05-2.91217E-07 2.18738E-19-2.59790E-19
 -1      4233 9.69693E-05-2.83360E-05-2.94144E-05 1.22434E-08 2.82751E-19-1.02355E-18
 -1      4234 9.68365E-05-2.77328E-05-2.96108E-05 3.50786E-08 4.35491E-19-8.99992E-19
 -1      4235 9.67459E-05-2.92326E-05-2.89361E-05-1.29862E-07 6.47445E-20-4.22385E-19
 -1      4236 9.66612E-05-2.92474E-05-2.88901E-05-2.59010E-07 3.94207E-19-1.71988E-19
 -1      4237 9.69063E-05-2.79369E-05-2.95593E-05 2.67498E-08 4.31782E-19-8.69169E-19
 -3
    1PSTEP                         4           1           1          
  100CL  101 1.000000000        4237                     0    1           1
 -4  ERROR       1    1
 -5  STR(%)      1    1    0    0
 -1         1 1.30998E+01
 -1         2 2.59348E+01
 -1         3 2.59256E-02
 -1         4 2.93216E-01
 -1         5 1.40400E+01
 -1         6 1.31442E+01
 -1         7 1.31442E+01
 -1         8 3.66344E+00
 -1         9 1.82464E+00
 -1        10 1.28893E+00
 -1        11 1.04614E+00
 -1        12 8.99834E-01
 -1        13 8.08837E-01
 -1        14 7.54008E-01
 -1        15 7.55980E-01
 -1        16 8.13102E-01
 -1        17 9.00659E-01
 -1        18 1.05269E+00
 -1        19 1.30625E+00
 -1        20 1.83110E+00
 -1        21 3.50840E+00
 -1        22 8.64238E+00
 -1        23 1.31442E+01
 -1        24 4.31845E+00
 -1        25 3.34176E+00
 -1        26 2.11248E+00
 -1        27 1.36403E+00
 -1        28 1.01526E+00
 -1        29 7.76702E-01
 -1        30 5.97427E-01
 -1        31 4.63769E-01
 -1        32 3.46301E-01
 -1        33 2.69633E-01
 -1        34 2.08369E-01
 -1        35 1.60732E-01
 -1        36 1.24825E-01
 -1        37 9.89125E-02
 -1        38 8.14712E-02
 -1        39 7.62234E-02
 -1        40 8.19606E-02
 -1        41 1.00238E-01
 -1        42 1.33702E-01
 -1        43 1.83352E-01
 -1        44 2.54472E-01
 -1        45 3.54039E-01
 -1        46 4.90579E-01
 -1        47 6.73023E-01
 -1        48 9.54906E-01
 -1        49 1.20610E+00
 -1        50 1.62047E+00
 -1        51 2.22652E+00
 -1        52 2.92611E+00
 -1        53 3.79422E+00
 -1        54 4.17610E+00
 -1        55 4.17610E+00
 -1        56 3.85803E+00
 -1        57 7.34722E+00
 -1        58 1.17764E+01
 -1        59 1.19082E+01
 -1        60 1.19082E+01
 -1        61 8.46156E+00
 -1        62 3.79835E+00
 -1        63 4.20451E+00
 -1        64 4.20451E+00
 -1        65 3.78653E+00
 -1        66 2.89392E+00
 -1        67 2.14562E+00
 -1        68 1.75867E+00
 -1        69 1.46350E+00
 -1        70 1.10118E+00
 -1        71 8.27839E-01
 -1        72 1.40400E+01
 -1        73 3.39635E+00
 -1        74 2.41824E+00
 -1        75 1.66813E+00
 -1        76 1.14828E+00
 -1        77 9.06930E-01
 -1        78 7.32630E-01
 -1        79 5.89641E-01
 -1        80 4.70836E-01
 -1        81 3.72410E-01
 -1        82 2.98604E-01
 -1        83 2.38337E-01
 -1        84 1.89273E-01
 -1        85 1.50659E-01
 -1        86 1.21515E-01
 -1        87 1.00764E-01
 -1        88 8.72934E-02
 -1        89 8.33609E-02
 -1        90 8.79746E-02
 -1        91 9.83913E-02
 -1        92 1.16094E-01
 -1        93 1.33937E-01
 -1        94 1.47895E-01
 -1        95 1.54335E-01
 -1        96 1.57715E-01
 -1        97 2.11271E-01
 -1        98 2.58383E-01
 -1        99 3.30655E-01
 -1       100 4.60829E-01
 -1       101 5.57792E-01
 -1       102 7.08364E-01
 -1       103 9.02187E-01
 -1       104 1.00203E+00
 -1       105 1.39305E+00
 -1       106 1.82338E+00
 -1       107 2.04234E+00
 -1       108 2.17981E+00
 -1       109 2.27640E+00
 -1       110 2.27640E+00
 -1       111 2.03449E+00
 -1       112 1.56993E+00
 -1       113 1.11800E+00
 -1       114 6.87217E-01
 -1       115 3.84017E-01
 -1       116 1.69049E-01
 -1       117 1.29804E-01
 -1       118 1.29804E-01
 -1       119 1.10336E-01
 -1       120 7.87422E-02
 -1       121 4.29003E-02
 -1       122 5.87112E-02
 -1       123 7.29064E-02
 -1       124 7.95724E-02
 -1       125 7.95724E-02
 -1       126 7.40932E-02
 -1       127 4.70747E-02
 -1       128 8.89315E-02
 -1       129 1.62683E-01
 -1       130 2.10059E-01
 -1       131 2.12806E-01
 -1       132 2.12806E-01
 -1       133 1.53639E-01
 -1       134 1.51322E-01
 -1       135 2.01690E-01
 -1       136 2.01690E-01
 -1       137 2.59348E+01
 -1       138 4.44551E+01
 -1       139 4.44551E+01
 -1       140 1.60387E+01
 -1       141 1.18800E+01
 -1       142 1.22962E+01
 -1       143 1.23240E+01
 -1       144 1.24183E+01
 -1       145 1.24183E+01
 -1       146 1.21672E+01
 -1       147 2.79153E+01
 -1       148 2.98901E+01
 -1       149 2.98901E+01
 -1       150 2.51067E+01
 -1       151 2.48953E+01
 -1       152 2.48953E+01
 -1       153 4.01938E+01
 -1       154 4.01938E+01
 -1       155 1.56092E+01
 -1       156 1.28760E+01
 -1       157 1.30998E+01
 -1       158 1.28521E+01
 -1       159 1.32735E+01
 -1       160 2.67245E+01
 -1       161 2.89844E+01
 -1       162 2.89844E+01
 -1       163 2.53421E+01
 -1       164 6.07758E+00
 -1       165 2.29849E+00
 -1       166 1.50737E+00
 -1       167 1.15773E+00
 -1       168 9.73419E-01
 -1       169 8.64536E-01
 -1       170 7.96080E-01
 -1       171 7.55980E-01
 -1       172 7.99502E-01
 -1       173 8.67113E-01
 -1       174 9.80906E-01
 -1       175 1.17148E+00
 -1       176 1.52701E+00
 -1       177 2.25897E+00
 -1       178 3.93328E+00
 -1       179 1.40400E+01
 -1       180 4.31845E+00
 -1       181 3.34176E+00
 -1       182 2.11248E+00
 -1       183 1.44835E+00
 -1       184 1.02689E+00
 -1       185 7.76702E-01
 -1       186 5.97427E-01
 -1       187 4.73831E-01
 -1       188 3.66761E-01
 -1       189 2.90071E-01
 -1       190 2.34536E-01
 -1       191 1.87760E-01
 -1       192 1.49497E-01
 -1       193 1.19054E-01
 -1       194 9.54947E-02
 -1       195 7.77524E-02
 -1       196 7.62234E-02
 -1       197 8.62110E-02
 -1       198 1.11141E-01
 -1       199 1.47925E-01
 -1       200 2.00141E-01
 -1       201 2.72456E-01
 -1       202 3.80899E-01
 -1       203 5.68045E-01
 -1       204 8.41952E-01
 -1       205 1.20893E+00
 -1       206 1.67061E+00
 -1       207 2.20321E+00
 -1       208 2.71420E+00
 -1       209 3.12705E+00
 -1       210 3.79422E+00
 -1       211 4.17610E+00
 -1       212 3.85803E+00
 -1       213 3.47670E+00
 -1       214 7.34722E+00
 -1       215 1.17764E+01
 -1       216 1.19082E+01
 -1       217 8.46156E+00
 -1       218 3.90581E+00
 -1       219 3.79835E+00
 -1       220 4.20451E+00
 -1       221 3.78653E+00
 -1       222 3.03176E+00
 -1       223 2.43794E+00
 -1       224 1.92648E+00
 -1       225 1.46350E+00
 -1       226 1.10118E+00
 -1       227 8.27839E-01
 -1       228 3.57804E-01
 -1       229 3.39635E+00
 -1       230 2.41824E+00
 -1       231 1.66813E+00
 -1       232 1.14828E+00
 -1       233 9.06930E-01
 -1       234 7.32630E-01
 -1       235 5.89641E-01
 -1       236 4.70836E-01
 -1       237 3.72410E-01
 -1       238 2.98604E-01
 -1       239 2.38337E-01
 -1       240 1.90745E-01
 -1       241 1.53307E-01
 -1       242 1.23858E-01
 -1       243 1.01653E-01
 -1       244 8.72934E-02
 -1       245 8.18142E-02
 -1       246 8.33609E-02
 -1       247 8.79746E-02
 -1       248 1.01479E-01
 -1       249 1.16094E-01
 -1       250 1.39678E-01
 -1       251 1.66821E-01
 -1       252 1.98938E-01
 -1       253 2.18818E-01
 -1       254 2.18818E-01
 -1       255 2.58383E-01
 -1       256 3.30655E-01
 -1       257 4.60829E-01
 -1       258 5.57792E-01
 -1       259 8.65977E-01
 -1       260 1.18706E+00
 -1       261 1.54336E+00
 -1       262 1.77300E+00
 -1       263 1.82338E+00
 -1       264 2.04234E+00
 -1       265 2.17981E+00
 -1       266 2.27640E+00
 -1       267 2.03449E+00
 -1       268 1.56993E+00
 -1       269 1.13250E+00
 -1       270 7.66729E-01
 -1       271 4.42641E-01
 -1       272 2.41346E-01
 -1       273 1.74375E-01
 -1       274 1.36453E-01
 -1       275 1.10336E-01
 -1       276 8.24837E-02
 -1       277 6.85517E-02
 -1       278 1.30637E-01
 -1       279 1.47298E-01
 -1       280 1.50962E-01
 -1       281 1.50962E-01
 -1       282 1.37418E-01
 -1       283 1.32173E-01
 -1       284 2.67753E-01
 -1       285 3.82225E-01
 -1       286 4.08716E-01
 -1       287 4.08716E-01
 -1       288 3.94183E-01
 -1       289 2.57638E-01
 -1       290 6.06525E-01
 -1       291 6.06525E-01
 -1       292 3.11717E+01
 -1       293 3.80202E+01
 -1       294 4.44551E+01
 -1       295 1.73543E+01
 -1       296 1.08371E+01
 -1       297 1.18800E+01
 -1       298 1.22962E+01
 -1       299 1.23240E+01
 -1       300 1.24183E+01
 -1       301 1.19810E+01
 -1       302 1.21672E+01
 -1       303 2.98047E+01
 -1       304 2.98901E+01
 -1       305 2.51509E+01
 -1       306 3.06117E+01
 -1       307 3.06117E+01
 -1       308 3.46407E+01
 -1       309 4.01938E+01
 -1       310 1.56092E+01
 -1       311 1.15781E+01
 -1       312 1.28760E+01
 -1       313 1.30998E+01
 -1       314 1.28521E+01
 -1       315 1.22027E+01
 -1       316 1.32735E+01
 -1       317 2.82321E+01
 -1       318 3.33884E+01
 -1       319 3.33884E+01
 -1       320 3.11717E+01
 -1       321 1.04778E+00
 -1       322 2.47968E+00
 -1       323 7.95037E-01
 -1       324 6.94849E-01
 -1       325 6.31819E-01
 -1       326 5.87654E-01
 -1       327 5.90868E-01
 -1       328 6.34454E-01
 -1       329 7.01043E-01
 -1       330 7.96260E-01
 -1       331 9.30394E-01
 -1       332 1.14438E+00
 -1       333 1.32919E+00
 -1       334 2.19710E+00
 -1       335 1.91342E+00
 -1       336 1.73017E+00
 -1       337 1.26846E+00
 -1       338 9.08359E-01
 -1       339 6.57555E-01
 -1       340 5.39977E-01
 -1       341 4.44923E-01
 -1       342 3.54410E-01
 -1       343 2.90288E-01
 -1       344 2.36087E-01
 -1       345 1.89786E-01
 -1       346 1.53449E-01
 -1       347 1.24395E-01
 -1       348 9.97171E-02
 -1       349 7.89187E-02
 -1       350 6.95497E-02
 -1       351 7.04572E-02
 -1       352 8.62110E-02
 -1       353 1.11141E-01
 -1       354 1.60093E-01
 -1       355 2.41068E-01
 -1       356 3.55428E-01
 -1       357 5.15914E-01
 -1       358 7.47960E-01
 -1       359 1.05937E+00
 -1       360 1.46347E+00
 -1       361 1.96564E+00
 -1       362 2.53456E+00
 -1       363 3.08240E+00
 -1       364 3.46342E+00
 -1       365 4.23372E+00
 -1       366 5.56083E+00
 -1       367 6.09610E+00
 -1       368 3.99073E+00
 -1       369 7.82342E+00
 -1       370 8.85366E+00
 -1       371 7.63159E+00
 -1       372 4.03049E+00
 -1       373 5.20393E+00
 -1       374 4.40936E+00
 -1       375 3.52177E+00
 -1       376 2.92031E+00
 -1       377 2.52465E+00
 -1       378 2.05435E+00
 -1       379 1.54143E+00
 -1       380 1.06369E+00
 -1       381 7.66154E-01
 -1       382 1.13535E+00
 -1       383 8.16096E-01
 -1       384 6.32151E-01
 -1       385 5.18448E-01
 -1       386 4.19277E-01
 -1       387 3.38385E-01
 -1       388 2.74540E-01
 -1       389 2.20596E-01
 -1       390 1.77175E-01
 -1       391 1.43626E-01
 -1       392 1.14889E-01
 -1       393 9.06659E-02
 -1       394 7.03186E-02
 -1       395 6.13319E-02
 -1       396 6.66330E-02
 -1       397 7.56172E-02
 -1       398 8.76541E-02
 -1       399 1.01479E-01
 -1       400 1.24384E-01
 -1       401 1.45633E-01
 -1       402 1.70934E-01
 -1       403 1.98938E-01
 -1       404 2.18818E-01
 -1       405 2.13260E-01
 -1       406 1.91660E-01
 -1       407 2.22234E-01
 -1       408 4.29466E-01
 -1       409 6.65854E-01
 -1       410 9.53471E-01
 -1       411 1.23731E+00
 -1       412 1.54336E+00
 -1       413 1.77300E+00
 -1       414 1.81765E+00
 -1       415 1.76449E+00
 -1       416 1.78532E+00
 -1       417 1.61579E+00
 -1       418 1.31352E+00
 -1       419 1.06643E+00
 -1       420 7.89883E-01
 -1       421 5.71016E-01
 -1       422 3.85061E-01
 -1       423 2.81669E-01
 -1       424 2.04307E-01
 -1       425 1.92797E-01
 -1       426 1.08049E-01
 -1       427 2.01941E-01
 -1       428 1.92797E-01
 -1       429 2.27418E-01
 -1       430 2.27418E-01
 -1       431 2.18790E-01
 -1       432 3.04174E-01
 -1       433 4.99455E-01
 -1       434 6.00285E-01
 -1       435 6.33261E-01
 -1       436 6.33261E-01
 -1       437 5.75716E-01
 -1       438 6.38880E-01
 -1       439 1.35873E+00
 -1       440 2.62351E+01
 -1       441 8.47320E+00
 -1       442 3.31594E+01
 -1       443 1.50142E+01
 -1       444 9.10684E-01
 -1       445 8.06567E+00
 -1       446 1.03106E+01
 -1       447 1.11480E+01
 -1       448 1.05885E+01
 -1       449 9.07450E+00
 -1       450 6.46523E+00
 -1       451 1.16569E+01
 -1       452 2.07334E+01
 -1       453 2.57195E+01
 -1       454 3.60486E+01
 -1       455 3.60486E+01
 -1       456 2.67847E+01
 -1       457 2.27685E+01
 -1       458 1.36201E+01
 -1       459 7.80203E+00
 -1       460 8.85945E+00
 -1       461 1.00114E+01
 -1       462 1.11870E+01
 -1       463 9.91994E+00
 -1       464 7.41046E+00
 -1       465 1.16367E+01
 -1       466 1.98686E+01
 -1       467 3.33884E+01
 -1       468 3.31594E+01
 -1       469 2.53057E+01
 -1       470 4.86422E-01
 -1       471 5.14322E-01
 -1       472 4.31672E-01
 -1       473 4.57532E-01
 -1       474 4.86900E-01
 -1       475 5.10668E-01
 -1       476 5.10668E-01
 -1       477 5.03761E-01
 -1       478 6.39256E-01
 -1       479 1.31624E+00
 -1       480 8.03345E-01
 -1       481 1.20612E+01
 -1       482 2.20762E+01
 -1       483 7.03088E-01
 -1       484 5.90006E-01
 -1       485 4.77663E-01
 -1       486 3.76236E-01
 -1       487 3.22154E-01
 -1       488 2.73006E-01
 -1       489 2.26446E-01
 -1       490 1.87409E-01
 -1       491 1.53983E-01
 -1       492 1.24669E-01
 -1       493 9.97171E-02
 -1       494 7.89187E-02
 -1       495 6.47423E-02
 -1       496 5.50393E-02
 -1       497 6.49461E-02
 -1       498 8.54415E-02
 -1       499 1.33430E-01
 -1       500 1.98175E-01
 -1       501 2.86385E-01
 -1       502 4.06831E-01
 -1       503 5.78090E-01
 -1       504 8.07714E-01
 -1       505 1.11556E+00
 -1       506 1.53236E+00
 -1       507 2.09905E+00
 -1       508 2.87555E+00
 -1       509 3.93971E+00
 -1       510 5.42401E+00
 -1       511 6.47375E+00
 -1       512 1.11581E+01
 -1       513 6.57680E+00
 -1       514 1.83913E+01
 -1       515 1.01605E+01
 -1       516 7.56549E+00
 -1       517 4.47209E+00
 -1       518 3.36752E+00
 -1       519 2.50040E+00
 -1       520 1.80301E+00
 -1       521 1.23911E+00
 -1       522 8.96597E-01
 -1       523 4.45767E-01
 -1       524 5.63196E-01
 -1       525 6.93069E-01
 -1       526 3.68635E-01
 -1       527 3.14294E-01
 -1       528 2.61806E-01
 -1       529 2.15616E-01
 -1       530 1.77893E-01
 -1       531 1.44332E-01
 -1       532 1.15304E-01
 -1       533 9.06659E-02
 -1       534 7.03186E-02
 -1       535 5.34645E-02
 -1       536 5.22477E-02
 -1       537 5.79959E-02
 -1       538 6.59670E-02
 -1       539 8.68533E-02
 -1       540 1.11007E-01
 -1       541 1.33166E-01
 -1       542 1.55804E-01
 -1       543 1.70599E-01
 -1       544 1.81411E-01
 -1       545 1.76383E-01
 -1       546 2.19351E-01
 -1       547 2.66137E-01
 -1       548 3.72865E-01
 -1       549 5.59239E-01
 -1       550 7.77247E-01
 -1       551 1.02650E+00
 -1       552 1.18724E+00
 -1       553 1.32412E+00
 -1       554 1.36262E+00
 -1       555 1.29378E+00
 -1       556 1.34155E+00
 -1       557 1.34722E+00
 -1       558 1.22957E+00
 -1       559 1.11928E+00
 -1       560 9.05720E-01
 -1       561 7.21873E-01
 -1       562 5.55176E-01
 -1       563 4.15319E-01
 -1       564 3.22415E-01
 -1       565 2.29388E-01
 -1       566 3.35424E-01
 -1       567 2.97373E-01
 -1       568 2.29388E-01
 -1       569 2.53057E+01
 -1       570 3.35424E-01
 -1       571 4.28973E-01
 -1       572 5.48068E-01
 -1       573 7.84212E-01
 -1       574 8.43010E-01
 -1       575 9.14068E-01
 -1       576 9.14068E-01
 -1       577 8.22858E-01
 -1       578 9.60945E+00
 -1       579 8.72492E-01
 -1       580 5.44013E+00
 -1       581 5.20393E+00
 -1       582 4.57407E-01
 -1       583 7.31763E+00
 -1       584 5.38326E+00
 -1       585 7.53885E+00
 -1       586 6.71264E+00
 -1       587 4.46172E+00
 -1       588 5.98857E+00
 -1       589 1.06365E+01
 -1       590 1.50043E+01
 -1       591 2.57195E+01
 -1       592 3.60486E+01
 -1       593 2.67847E+01
 -1       594 1.82444E+01
 -1       595 1.11718E+01
 -1       596 7.94557E+00
 -1       597 1.42120E+01
 -1       598 3.31594E+01
 -1       599 5.31109E-01
 -1       600 7.47541E-01
 -1       601 2.11281E+01
 -1       602 6.30486E-01
 -1       603 3.48095E+00
 -1       604 1.61060E+01
 -1       605 7.33977E+00
 -1       606 4.80622E+00
 -1       607 3.58552E-01
 -1       608 3.42814E-01
 -1       609 3.61435E-01
 -1       610 3.42145E-01
 -1       611 5.93920E-01
 -1       612 3.97965E-01
 -1       613 3.85064E-01
 -1       614 3.42656E-01
 -1       615 2.92096E-01
 -1       616 2.42715E-01
 -1       617 2.11496E-01
 -1       618 1.78676E-01
 -1       619 1.47130E-01
 -1       620 1.20443E-01
 -1       621 9.71808E-02
 -1       622 7.68375E-02
 -1       623 5.97324E-02
 -1       624 4.11869E-02
 -1       625 4.11682E-02
 -1       626 5.89787E-02
 -1       627 9.50561E-02
 -1       628 1.40860E-01
 -1       629 1.99852E-01
 -1       630 2.93824E-01
 -1       631 4.44113E-01
 -1       632 6.52186E-01
 -1       633 9.44546E-01
 -1       634 1.35529E+00
 -1       635 1.92643E+00
 -1       636 2.74166E+00
 -1       637 3.93267E+00
 -1       638 5.87198E+00
 -1       639 9.19757E+00
 -1       640 1.00929E+01
 -1       641 1.19110E+01
 -1       642 3.94446E-01
 -1       643 9.21599E+00
 -1       644 5.41068E+00
 -1       645 3.47197E+00
 -1       646 2.42074E+00
 -1       647 1.58209E+00
 -1       648 1.11199E+00
 -1       649 3.88074E-01
 -1       650 3.34615E-01
 -1       651 4.33476E-01
 -1       652 2.37983E-01
 -1       653 2.02777E-01
 -1       654 1.68739E-01
 -1       655 1.39008E-01
 -1       656 1.12503E-01
 -1       657 8.93617E-02
 -1       658 6.92676E-02
 -1       659 5.16200E-02
 -1       660 3.56601E-02
 -1       661 3.89154E-02
 -1       662 4.77069E-02
 -1       663 7.10991E-02
 -1       664 9.60736E-02
 -1       665 1.21768E-01
 -1       666 1.48358E-01
 -1       667 1.70599E-01
 -1       668 1.99993E-01
 -1       669 2.24920E-01
 -1       670 2.47380E-01
 -1       671 3.42283E-01
 -1       672 4.41130E-01
 -1       673 5.59239E-01
 -1       674 7.59085E-01
 -1       675 9.47237E-01
 -1       676 1.08460E+00
 -1       677 1.20585E+00
 -1       678 1.37272E+00
 -1       679 1.43468E+00
 -1       680 1.31011E+00
 -1       681 1.39303E+00
 -1       682 1.26602E+00
 -1       683 1.16074E+00
 -1       684 1.05343E+00
 -1       685 9.05830E-01
 -1       686 7.21873E-01
 -1       687 5.55176E-01
 -1       688 4.76381E-01
 -1       689 4.19353E-01
 -1       690 5.80072E-01
 -1       691 1.45670E+01
 -1       692 7.27028E-01
 -1       693 8.88157E-01
 -1       694 1.18692E+00
 -1       695 1.23283E+00
 -1       696 1.23283E+00
 -1       697 1.73589E+01
 -1       698 5.31109E-01
 -1       699 3.84037E+00
 -1       700 5.64243E+00
 -1       701 4.02410E-01
 -1       702 3.61435E-01
 -1       703 7.36979E+00
 -1       704 2.79269E-01
 -1       705 5.06668E-01
 -1       706 3.58785E-01
 -1       707 1.02617E+01
 -1       708 1.29251E+01
 -1       709 4.34403E+00
 -1       710 5.16346E+00
 -1       711 3.49926E+00
 -1       712 6.76022E+00
 -1       713 9.01550E+00
 -1       714 1.69199E+01
 -1       715 1.48936E+01
 -1       716 2.90163E+00
 -1       717 3.42477E-01
 -1       718 1.05958E+01
 -1       719 1.23357E+01
 -1       720 3.78517E-01
 -1       721 1.18749E+01
 -1       722 1.11199E+00
 -1       723 4.16414E-01
 -1       724 4.88366E+00
 -1       725 3.57575E-01
 -1       726 2.89179E-01
 -1       727 2.58215E-01
 -1       728 2.50054E-01
 -1       729 2.27212E-01
 -1       730 1.98050E-01
 -1       731 1.71868E-01
 -1       732 1.49885E-01
 -1       733 1.26524E-01
 -1       734 1.03509E-01
 -1       735 8.16497E-02
 -1       736 6.07811E-02
 -1       737 4.05737E-02
 -1       738 3.14824E-02
 -1       739 4.08774E-02
 -1       740 7.29968E-02
 -1       741 1.16326E-01
 -1       742 1.76780E-01
 -1       743 2.59820E-01
 -1       744 3.85287E-01
 -1       745 5.43315E-01
 -1       746 7.70968E-01
 -1       747 1.09503E+00
 -1       748 1.56798E+00
 -1       749 2.28876E+00
 -1       750 3.44836E+00
 -1       751 5.43185E+00
 -1       752 6.51026E+00
 -1       753 5.01295E+00
 -1       754 3.29639E+00
 -1       755 2.16602E+00
 -1       756 2.71829E-01
 -1       757 2.71933E-01
 -1       758 1.66529E-01
 -1       759 1.89191E-01
 -1       760 1.18172E-01
 -1       761 9.49429E-02
 -1       762 7.32228E-02
 -1       763 5.29241E-02
 -1       764 3.36007E-02
 -1       765 2.22591E-02
 -1       766 3.02605E-02
 -1       767 5.22648E-02
 -1       768 7.78030E-02
 -1       769 1.06930E-01
 -1       770 1.38735E-01
 -1       771 1.71383E-01
 -1       772 2.04168E-01
 -1       773 2.51380E-01
 -1       774 3.05616E-01
 -1       775 3.55121E-01
 -1       776 4.90815E-01
 -1       777 6.56855E-01
 -1       778 8.03913E-01
 -1       779 9.65990E-01
 -1       780 1.19110E+00
 -1       781 1.27665E+00
 -1       782 1.46523E+00
 -1       783 2.30146E+00
 -1       784 2.94014E+00
 -1       785 1.71735E+00
 -1       786 1.65555E+00
 -1       787 1.29472E+00
 -1       788 1.28730E+00
 -1       789 1.10514E+00
 -1       790 9.05830E-01
 -1       791 7.63586E-01
 -1       792 1.17039E+00
 -1       793 8.74235E+00
 -1       794 9.21599E+00
 -1       795 9.62260E-01
 -1       796 1.70617E+00
 -1       797 1.70617E+00
 -1       798 4.77842E-01
 -1       799 4.16632E+00
 -1       800 2.62639E+00
 -1       801 4.26219E+00
 -1       802 1.42351E+00
 -1       803 1.42457E-01
 -1       804 2.30972E-01
 -1       805 3.90408E+00
 -1       806 6.57331E+00
 -1       807 7.69973E+00
 -1       808 2.88974E-01
 -1       809 1.04503E+01
 -1       810 2.23174E+00
 -1       811 3.49926E+00
 -1       812 9.68884E+00
 -1       813 5.73621E+00
 -1       814 2.46444E+00
 -1       815 8.74773E+00
 -1       816 2.81998E-01
 -1       817 6.83321E+00
 -1       818 8.50149E+00
 -1       819 2.50664E-01
 -1       820 1.49437E+00
 -1       821 7.71284E-01
 -1       822 2.65902E-01
 -1       823 2.21539E-01
 -1       824 8.84116E-01
 -1       825 5.93397E-01
 -1       826 1.03278E+01
 -1       827 2.88974E-01
 -1       828 2.82641E-01
 -1       829 3.65327E+00
 -1       830 3.18125E+00
 -1       831 3.31559E+00
 -1       832 2.81178E-01
 -1       833 2.89036E-01
 -1       834 1.83764E+00
 -1       835 5.40077E+00
 -1       836 1.43464E-01
 -1       837 1.82976E-01
 -1       838 1.75167E-01
 -1       839 1.58801E-01
 -1       840 1.38359E-01
 -1       841 1.21853E-01
 -1       842 1.04403E-01
 -1       843 8.63082E-02
 -1       844 6.81957E-02
 -1       845 5.04033E-02
 -1       846 4.37778E-02
 -1       847 4.77537E-02
 -1       848 6.29057E-02
 -1       849 9.88531E-02
 -1       850 1.45670E-01
 -1       851 2.07370E-01
 -1       852 3.00539E-01
 -1       853 4.03411E-01
 -1       854 5.50259E-01
 -1       855 7.49002E-01
 -1       856 1.02664E+00
 -1       857 1.47223E+00
 -1       858 2.18707E+00
 -1       859 3.67429E+00
 -1       860 1.52077E+00
 -1       861 7.01302E+00
 -1       862 3.87988E+00
 -1       863 1.75623E-01
 -1       864 3.82117E+00
 -1       865 2.34286E+00
 -1       866 8.05193E-02
 -1       867 9.91818E-02
 -1       868 4.48045E-02
 -1       869 3.74032E-02
 -1       870 3.73140E-02
 -1       871 4.97672E-02
 -1       872 7.15358E-02
 -1       873 9.61864E-02
 -1       874 1.24433E-01
 -1       875 1.60850E-01
 -1       876 2.07977E-01
 -1       877 2.60497E-01
 -1       878 3.28610E-01
 -1       879 4.26253E-01
 -1       880 5.35507E-01
 -1       881 6.56855E-01
 -1       882 9.15690E-01
 -1       883 1.20543E+00
 -1       884 1.26225E+00
 -1       885 1.51569E+00
 -1       886 1.46523E+00
 -1       887 3.03230E+00
 -1       888 3.15973E+00
 -1       889 2.27380E+00
 -1       890 2.11052E+00
 -1       891 1.40793E+00
 -1       892 1.18911E+00
 -1       893 8.84116E-01
 -1       894 3.46185E+00
 -1       895 5.21731E+00
 -1       896 3.11366E+00
 -1       897 3.15973E+00
 -1       898 2.67642E+00
 -1       899 2.31600E+00
 -1       900 2.89036E-01
 -1       901 6.23591E-02
 -1       902 2.09582E-01
 -1       903 1.54562E-01
 -1       904 6.84705E+00
 -1       905 6.65438E+00
 -1       906 2.27380E+00
 -1       907 1.74533E-01
 -1       908 2.04634E-01
 -1       909 1.17832E+00
 -1       910 1.86256E+00
 -1       911 6.28785E+00
 -1       912 5.21239E+00
 -1       913 8.84116E-01
 -1       914 1.17848E-01
 -1       915 2.94014E+00
 -1       916 2.19836E+00
 -1       917 1.35233E-01
 -1       918 1.92355E-01
 -1       919 6.76777E+00
 -1       920 2.96788E+00
 -1       921 2.75895E-01
 -1       922 1.76600E-01
 -1       923 2.20179E-01
 -1       924 5.81029E+00
 -1       925 6.28785E+00
 -1       926 2.75895E-01
 -1       927 2.17317E-01
 -1       928 3.94208E+00
 -1       929 1.35071E-01
 -1       930 1.25581E-01
 -1       931 1.11528E-01
 -1       932 9.68249E-02
 -1       933 8.36106E-02
 -1       934 6.94306E-02
 -1       935 5.51008E-02
 -1       936 5.17307E-02
 -1       937 5.41683E-02
 -1       938 6.02294E-02
 -1       939 7.58337E-02
 -1       940 1.07787E-01
 -1       941 1.47470E-01
 -1       942 2.06679E-01
 -1       943 2.77499E-01
 -1       944 3.94000E-01
 -1       945 5.57959E-01
 -1       946 7.87840E-01
 -1       947 1.10941E+00
 -1       948 1.67544E+00
 -1       949 2.87711E+00
 -1       950 8.06155E-02
 -1       951 1.89758E-01
 -1       952 4.27534E+00
 -1       953 4.92921E-02
 -1       954 4.83049E-02
 -1       955 7.08120E-02
 -1       956 9.61864E-02
 -1       957 1.24433E-01
 -1       958 1.57070E-01
 -1       959 2.00977E-01
 -1       960 2.58294E-01
 -1       961 3.48923E-01
 -1       962 4.60775E-01
 -1       963 5.84317E-01
 -1       964 7.83861E-01
 -1       965 9.98373E-01
 -1       966 1.20543E+00
 -1       967 2.03802E+00
 -1       968 1.63858E+00
 -1       969 1.18911E+00
 -1       970 1.02815E+00
 -1       971 2.19577E+00
 -1       972 5.28535E-02
 -1       973 1.31843E-01
 -1       974 8.95343E-02
 -1       975 2.17317E-01
 -1       976 1.36214E-01
 -1       977 1.17112E-01
 -1       978 2.72930E+00
 -1       979 2.99076E+00
 -1       980 2.46843E+00
 -1       981 1.67141E-01
 -1       982 2.63364E+00
 -1       983 3.94208E+00
 -1       984 9.48668E-02
 -1       985 6.58808E-02
 -1       986 5.13570E-02
 -1       987 1.94038E+00
 -1       988 1.51569E+00
 -1       989 3.53329E+00
 -1       990 4.92883E+00
 -1       991 1.37137E-01
 -1       992 2.48719E+00
 -1       993 1.74228E+00
 -1       994 1.24332E-01
 -1       995 1.64431E-01
 -1       996 1.74228E+00
 -1       997 8.80533E-01
 -1       998 2.80152E+00
 -1       999 9.70396E-02
 -1      1000 8.71217E-02
 -1      1001 7.51741E-02
 -1      1002 6.40940E-02
 -1      1003 5.71151E-02
 -1      1004 5.54452E-02
 -1      1005 5.60955E-02
 -1      1006 6.02294E-02
 -1      1007 7.42245E-02
 -1      1008 9.61629E-02
 -1      1009 1.27590E-01
 -1      1010 1.80688E-01
 -1      1011 2.33691E-01
 -1      1012 3.13295E-01
 -1      1013 4.15959E-01
 -1      1014 5.57959E-01
 -1      1015 8.58593E-01
 -1      1016 1.33516E+00
 -1      1017 1.70610E+00
 -1      1018 6.99646E-02
 -1      1019 1.19619E-01
 -1      1020 8.88129E-02
 -1      1021 2.00977E-01
 -1      1022 2.59321E-01
 -1      1023 3.42610E-01
 -1      1024 4.59543E-01
 -1      1025 6.53450E-01
 -1      1026 8.96556E-01
 -1      1027 1.15099E+00
 -1      1028 1.47204E+00
 -1      1029 6.02751E-02
 -1      1030 2.87711E+00
 -1      1031 1.08115E-01
 -1      1032 1.43697E-01
 -1      1033 1.04681E-01
 -1      1034 1.02917E-01
 -1      1035 1.43229E-01
 -1      1036 1.01846E-01
 -1      1037 1.57070E-01
 -1      1038 5.63755E-02
 -1      1039 2.11263E+00
 -1      1040 2.06601E+00
 -1      1041 1.79091E-01
 -1      1042 7.26874E-02
 -1      1043 2.50842E+00
 -1      1044 5.07118E-02
 -1      1045 6.29603E-02
 -1      1046 1.12088E-01
 -1      1047 1.74228E+00
 -1      1048 1.79091E-01
 -1      1049 1.13412E-01
 -1      1050 8.68500E-02
 -1      1051 8.60446E-02
 -1      1052 1.07347E-01
 -1      1053 7.17570E-02
 -1      1054 6.45509E-02
 -1      1055 6.95875E-02
 -1      1056 6.82738E-02
 -1      1057 6.07028E-02
 -1      1058 6.05774E-02
 -1      1059 5.65316E-02
 -1      1060 6.04144E-02
 -1      1061 7.03201E-02
 -1      1062 8.67187E-02
 -1      1063 1.09304E-01
 -1      1064 1.46447E-01
 -1      1065 2.09492E-01
 -1      1066 3.07038E-01
 -1      1067 4.48576E-01
 -1      1068 6.48974E-01
 -1      1069 9.21922E-01
 -1      1070 1.25539E+00
 -1      1071 1.74714E+00
 -1      1072 1.20850E-01
 -1      1073 8.79016E-02
 -1      1074 4.48576E-01
 -1      1075 3.21272E-01
 -1      1076 9.21922E-01
 -1      1077 1.25539E+00
 -1      1078 1.63556E+00
 -1      1079 7.03201E-02
 -1      1080 8.64528E-02
 -1      1081 7.57308E-02
 -1      1082 7.47632E-02
 -1      1083 1.41828E+00
 -1      1084 1.01271E-01
 -1      1085 2.35590E-01
 -1      1086 9.82108E-02
 -1      1087 6.04144E-02
 -1      1088 1.72063E-01
 -1      1089 6.48974E-01
 -1      1090 5.65316E-02
 -1      1091 6.92932E-02
 -1      1092 6.63416E-02
 -1      1093 6.41029E-02
 -1      1094 6.95875E-02
 -1      1095 6.30472E-02
 -1      1096 5.20251E-02
 -1      1097 7.56870E-02
 -1      1098 6.45509E-02
 -1      1099 7.48532E-02
 -1      1100 6.45509E-02
 -1      1101 1.31442E+01
 -1      1102 8.40383E+00
 -1      1103 2.74404E+00
 -1      1104 1.55678E+00
 -1      1105 1.16754E+00
 -1      1106 9.72988E-01
 -1      1107 8.54336E-01
 -1      1108 7.81422E-01
 -1      1109 7.54994E-01
 -1      1110 7.84541E-01
 -1      1111 8.56880E-01
 -1      1112 9.76672E-01
 -1      1113 1.17947E+00
 -1      1114 1.56868E+00
 -1      1115 2.66975E+00
 -1      1116 6.07539E+00
 -1      1117 1.13412E+01
 -1      1118 1.31442E+01
 -1      1119 8.73133E+00
 -1      1120 3.83010E+00
 -1      1121 2.72712E+00
 -1      1122 1.73826E+00
 -1      1123 1.18964E+00
 -1      1124 8.95980E-01
 -1      1125 6.87065E-01
 -1      1126 5.30598E-01
 -1      1127 4.05035E-01
 -1      1128 3.07967E-01
 -1      1129 2.39001E-01
 -1      1130 1.84550E-01
 -1      1131 1.42779E-01
 -1      1132 1.11869E-01
 -1      1133 9.01918E-02
 -1      1134 7.88473E-02
 -1      1135 7.90920E-02
 -1      1136 9.10994E-02
 -1      1137 1.16970E-01
 -1      1138 1.58527E-01
 -1      1139 2.18912E-01
 -1      1140 3.04255E-01
 -1      1141 4.22309E-01
 -1      1142 5.81801E-01
 -1      1143 8.13964E-01
 -1      1144 1.08050E+00
 -1      1145 1.41328E+00
 -1      1146 1.92350E+00
 -1      1147 2.57632E+00
 -1      1148 3.36016E+00
 -1      1149 3.98516E+00
 -1      1150 4.17610E+00
 -1      1151 4.01707E+00
 -1      1152 5.60263E+00
 -1      1153 9.56183E+00
 -1      1154 1.18423E+01
 -1      1155 1.19082E+01
 -1      1156 1.01849E+01
 -1      1157 6.12995E+00
 -1      1158 4.00143E+00
 -1      1159 4.20451E+00
 -1      1160 3.99552E+00
 -1      1161 3.34023E+00
 -1      1162 2.51977E+00
 -1      1163 1.95215E+00
 -1      1164 1.61109E+00
 -1      1165 1.28234E+00
 -1      1166 9.64511E-01
 -1      1167 5.60528E-01
 -1      1168 1.40400E+01
 -1      1169 8.71817E+00
 -1      1170 2.90729E+00
 -1      1171 2.04319E+00
 -1      1172 1.40821E+00
 -1      1173 1.02761E+00
 -1      1174 8.19780E-01
 -1      1175 6.61135E-01
 -1      1176 5.30239E-01
 -1      1177 4.21623E-01
 -1      1178 3.35507E-01
 -1      1179 2.68470E-01
 -1      1180 2.13805E-01
 -1      1181 1.69966E-01
 -1      1182 1.36087E-01
 -1      1183 1.11140E-01
 -1      1184 9.40289E-02
 -1      1185 8.53272E-02
 -1      1186 8.56678E-02
 -1      1187 9.31830E-02
 -1      1188 1.07243E-01
 -1      1189 1.25016E-01
 -1      1190 1.40916E-01
 -1      1191 1.51115E-01
 -1      1192 1.56025E-01
 -1      1193 1.84493E-01
 -1      1194 2.34827E-01
 -1      1195 2.94519E-01
 -1      1196 3.95742E-01
 -1      1197 5.09310E-01
 -1      1198 6.33078E-01
 -1      1199 8.05275E-01
 -1      1200 9.52107E-01
 -1      1201 1.19754E+00
 -1      1202 1.60822E+00
 -1      1203 1.93286E+00
 -1      1204 2.11108E+00
 -1      1205 2.22811E+00
 -1      1206 2.27640E+00
 -1      1207 2.15545E+00
 -1      1208 1.80221E+00
 -1      1209 1.34397E+00
 -1      1210 9.02606E-01
 -1      1211 5.35617E-01
 -1      1212 2.76533E-01
 -1      1213 1.49427E-01
 -1      1214 1.29804E-01
 -1      1215 1.20070E-01
 -1      1216 9.45390E-02
 -1      1217 5.23339E-02
 -1      1218 3.44130E-02
 -1      1219 5.08058E-02
 -1      1220 6.58088E-02
 -1      1221 7.62394E-02
 -1      1222 7.95724E-02
 -1      1223 7.68328E-02
 -1      1224 6.05840E-02
 -1      1225 6.80031E-02
 -1      1226 1.25807E-01
 -1      1227 1.86371E-01
 -1      1228 2.11432E-01
 -1      1229 2.12806E-01
 -1      1230 1.83223E-01
 -1      1231 1.52480E-01
 -1      1232 1.76506E-01
 -1      1233 2.01690E-01
 -1      1234 2.47453E-01
 -1      1235 2.59348E+01
 -1      1236 3.51950E+01
 -1      1237 4.44551E+01
 -1      1238 3.02469E+01
 -1      1239 1.39594E+01
 -1      1240 1.20881E+01
 -1      1241 1.23101E+01
 -1      1242 1.23712E+01
 -1      1243 1.24183E+01
 -1      1244 1.22928E+01
 -1      1245 2.00413E+01
 -1      1246 2.89027E+01
 -1      1247 2.98901E+01
 -1      1248 2.74984E+01
 -1      1249 2.50010E+01
 -1      1250 2.48953E+01
 -1      1251 3.25446E+01
 -1      1252 4.01938E+01
 -1      1253 2.79015E+01
 -1      1254 1.42426E+01
 -1      1255 1.29879E+01
 -1      1256 1.30998E+01
 -1      1257 1.29760E+01
 -1      1258 1.30628E+01
 -1      1259 1.99990E+01
 -1      1260 2.78544E+01
 -1      1261 2.89844E+01
 -1      1262 2.71633E+01
 -1      1263 2.56385E+01
 -1      1264 1.31442E+01
 -1      1265 4.87051E+00
 -1      1266 9.61090E+00
 -1      1267 2.06156E+00
 -1      1268 2.98096E+00
 -1      1269 4.18803E+00
 -1      1270 1.39815E+00
 -1      1271 1.66601E+00
 -1      1272 1.90293E+00
 -1      1273 1.10193E+00
 -1      1274 1.22333E+00
 -1      1275 1.33255E+00
 -1      1276 9.36627E-01
 -1      1277 1.00978E+00
 -1      1278 1.06557E+00
 -1      1279 8.36687E-01
 -1      1280 8.82185E-01
 -1      1281 9.18978E-01
 -1      1282 7.75044E-01
 -1      1283 8.02459E-01
 -1      1284 8.30308E-01
 -1      1285 7.55980E-01
 -1      1286 7.54994E-01
 -1      1287 7.76030E-01
 -1      1288 8.06302E-01
 -1      1289 7.77741E-01
 -1      1290 7.77741E-01
 -1      1291 8.83886E-01
 -1      1292 8.40108E-01
 -1      1293 8.33307E-01
 -1      1294 1.01680E+00
 -1      1295 9.40783E-01
 -1      1296 9.24010E-01
 -1      1297 1.23887E+00
 -1      1298 1.11208E+00
 -1      1299 1.07619E+00
 -1      1300 1.67906E+00
 -1      1301 1.41663E+00
 -1      1302 1.34925E+00
 -1      1303 2.88369E+00
 -1      1304 2.04504E+00
 -1      1305 1.89299E+00
 -1      1306 6.28783E+00
 -1      1307 3.72084E+00
 -1      1308 3.09613E+00
 -1      1309 1.40400E+01
 -1      1310 1.13412E+01
 -1      1311 8.98664E+00
 -1      1312 1.40400E+01
 -1      1313 8.73133E+00
 -1      1314 4.31845E+00
 -1      1315 3.83010E+00
 -1      1316 3.34176E+00
 -1      1317 3.83010E+00
 -1      1318 2.72712E+00
 -1      1319 2.11248E+00
 -1      1320 2.72712E+00
 -1      1321 1.78041E+00
 -1      1322 1.40619E+00
 -1      1323 1.78041E+00
 -1      1324 1.19546E+00
 -1      1325 1.02107E+00
 -1      1326 1.23762E+00
 -1      1327 8.95980E-01
 -1      1328 7.76702E-01
 -1      1329 9.01796E-01
 -1      1330 6.87065E-01
 -1      1331 5.97427E-01
 -1      1332 6.87065E-01
 -1      1333 5.35629E-01
 -1      1334 4.68800E-01
 -1      1335 5.35629E-01
 -1      1336 4.15265E-01
 -1      1337 3.56531E-01
 -1      1338 4.20296E-01
 -1      1339 3.18186E-01
 -1      1340 2.79852E-01
 -1      1341 3.28416E-01
 -1      1342 2.52084E-01
 -1      1343 2.21452E-01
 -1      1344 2.62304E-01
 -1      1345 1.98065E-01
 -1      1346 1.74246E-01
 -1      1347 2.11148E-01
 -1      1348 1.55114E-01
 -1      1349 1.37161E-01
 -1      1350 1.68629E-01
 -1      1351 1.21940E-01
 -1      1352 1.08983E-01
 -1      1353 1.34276E-01
 -1      1354 9.72036E-02
 -1      1355 8.84829E-02
 -1      1356 1.07275E-01
 -1      1357 7.96118E-02
 -1      1358 7.69879E-02
 -1      1359 8.66236E-02
 -1      1360 7.62234E-02
 -1      1361 7.90920E-02
 -1      1362 7.69879E-02
 -1      1363 8.40858E-02
 -1      1364 9.32246E-02
 -1      1365 8.12172E-02
 -1      1366 1.05690E-01
 -1      1367 1.22422E-01
 -1      1368 9.86762E-02
 -1      1369 1.40813E-01
 -1      1370 1.65639E-01
 -1      1371 1.29533E-01
 -1      1372 1.91747E-01
 -1      1373 2.27306E-01
 -1      1374 1.74033E-01
 -1      1375 2.63464E-01
 -1      1376 3.13247E-01
 -1      1377 2.36298E-01
 -1      1378 3.67469E-01
 -1      1379 4.35739E-01
 -1      1380 3.26677E-01
 -1      1381 5.29312E-01
 -1      1382 6.20534E-01
 -1      1383 4.74472E-01
 -1      1384 7.57487E-01
 -1      1385 8.98429E-01
 -1      1386 7.04999E-01
 -1      1387 1.08192E+00
 -1      1388 1.20752E+00
 -1      1389 1.02544E+00
 -1      1390 1.43836E+00
 -1      1391 1.64554E+00
 -1      1392 1.43977E+00
 -1      1393 1.91184E+00
 -1      1394 2.21486E+00
 -1      1395 1.93691E+00
 -1      1396 2.47036E+00
 -1      1397 2.82016E+00
 -1      1398 2.45870E+00
 -1      1399 3.02658E+00
 -1      1400 3.46063E+00
 -1      1401 2.92063E+00
 -1      1402 3.79422E+00
 -1      1403 3.98516E+00
 -1      1404 3.46063E+00
 -1      1405 4.17610E+00
 -1      1406 4.17610E+00
 -1      1407 3.98516E+00
 -1      1408 4.01707E+00
 -1      1409 3.85803E+00
 -1      1410 4.01707E+00
 -1      1411 3.66737E+00
 -1      1412 5.41196E+00
 -1      1413 3.66737E+00
 -1      1414 7.34722E+00
 -1      1415 9.56183E+00
 -1      1416 5.41196E+00
 -1      1417 1.17764E+01
 -1      1418 1.18423E+01
 -1      1419 9.56183E+00
 -1      1420 1.19082E+01
 -1      1421 1.19082E+01
 -1      1422 1.18423E+01
 -1      1423 1.01849E+01
 -1      1424 8.46156E+00
 -1      1425 1.01849E+01
 -1      1426 6.18369E+00
 -1      1427 3.85208E+00
 -1      1428 6.18369E+00
 -1      1429 3.79835E+00
 -1      1430 4.00143E+00
 -1      1431 3.85208E+00
 -1      1432 4.20451E+00
 -1      1433 4.20451E+00
 -1      1434 4.00143E+00
 -1      1435 3.99552E+00
 -1      1436 3.78653E+00
 -1      1437 3.99552E+00
 -1      1438 3.40915E+00
 -1      1439 2.96284E+00
 -1      1440 3.40915E+00
 -1      1441 2.66593E+00
 -1      1442 2.29178E+00
 -1      1443 2.73485E+00
 -1      1444 2.03605E+00
 -1      1445 1.84258E+00
 -1      1446 2.18221E+00
 -1      1447 1.61109E+00
 -1      1448 1.46350E+00
 -1      1449 1.69499E+00
 -1      1450 1.28234E+00
 -1      1451 1.10118E+00
 -1      1452 1.28234E+00
 -1      1453 9.64511E-01
 -1      1454 8.27839E-01
 -1      1455 9.64511E-01
 -1      1456 5.92822E-01
 -1      1457 3.25510E-01
 -1      1458 2.79747E-01
 -1      1459 5.92822E-01
 -1      1460 3.39635E+00
 -1      1461 8.71817E+00
 -1      1462 8.71817E+00
 -1      1463 2.41824E+00
 -1      1464 2.90729E+00
 -1      1465 2.90729E+00
 -1      1466 1.66813E+00
 -1      1467 2.04319E+00
 -1      1468 2.04319E+00
 -1      1469 1.14828E+00
 -1      1470 1.40821E+00
 -1      1471 1.40821E+00
 -1      1472 9.06930E-01
 -1      1473 1.02761E+00
 -1      1474 1.02761E+00
 -1      1475 7.32630E-01
 -1      1476 8.19780E-01
 -1      1477 8.19780E-01
 -1      1478 5.89641E-01
 -1      1479 6.61135E-01
 -1      1480 6.61135E-01
 -1      1481 4.70836E-01
 -1      1482 5.30239E-01
 -1      1483 5.30239E-01
 -1      1484 3.72410E-01
 -1      1485 4.21623E-01
 -1      1486 4.21623E-01
 -1      1487 2.98604E-01
 -1      1488 3.35507E-01
 -1      1489 3.35507E-01
 -1      1490 2.38337E-01
 -1      1491 2.68470E-01
 -1      1492 2.68470E-01
 -1      1493 1.90009E-01
 -1      1494 2.14541E-01
 -1      1495 2.14541E-01
 -1      1496 1.51983E-01
 -1      1497 1.71290E-01
 -1      1498 1.72026E-01
 -1      1499 1.22686E-01
 -1      1500 1.37259E-01
 -1      1501 1.38583E-01
 -1      1502 1.01209E-01
 -1      1503 1.11584E-01
 -1      1504 1.12755E-01
 -1      1505 8.72934E-02
 -1      1506 9.40289E-02
 -1      1507 9.44730E-02
 -1      1508 8.25876E-02
 -1      1509 8.45538E-02
 -1      1510 8.45538E-02
 -1      1511 8.56678E-02
 -1      1512 8.33609E-02
 -1      1513 8.25876E-02
 -1      1514 9.31830E-02
 -1      1515 8.79746E-02
 -1      1516 8.56678E-02
 -1      1517 1.08786E-01
 -1      1518 9.99350E-02
 -1      1519 9.47267E-02
 -1      1520 1.25016E-01
 -1      1521 1.16094E-01
 -1      1522 1.08786E-01
 -1      1523 1.43786E-01
 -1      1524 1.36808E-01
 -1      1525 1.27886E-01
 -1      1526 1.60578E-01
 -1      1527 1.57358E-01
 -1      1528 1.53249E-01
 -1      1529 1.78327E-01
 -1      1530 1.76637E-01
 -1      1531 1.82880E-01
 -1      1532 2.15045E-01
 -1      1533 1.88266E-01
 -1      1534 2.08878E-01
 -1      1535 2.38600E-01
 -1      1536 2.15045E-01
 -1      1537 2.18818E-01
 -1      1538 2.94519E-01
 -1      1539 2.58383E-01
 -1      1540 2.38600E-01
 -1      1541 3.95742E-01
 -1      1542 3.30655E-01
 -1      1543 2.94519E-01
 -1      1544 5.09310E-01
 -1      1545 4.60829E-01
 -1      1546 3.95742E-01
 -1      1547 6.33078E-01
 -1      1548 5.57792E-01
 -1      1549 5.09310E-01
 -1      1550 8.84082E-01
 -1      1551 7.87170E-01
 -1      1552 7.11884E-01
 -1      1553 1.09455E+00
 -1      1554 1.04463E+00
 -1      1555 1.02652E+00
 -1      1556 1.46821E+00
 -1      1557 1.27269E+00
 -1      1558 1.36521E+00
 -1      1559 1.79819E+00
 -1      1560 1.58303E+00
 -1      1561 1.65818E+00
 -1      1562 1.93286E+00
 -1      1563 1.82338E+00
 -1      1564 1.79819E+00
 -1      1565 2.11108E+00
 -1      1566 2.04234E+00
 -1      1567 1.93286E+00
 -1      1568 2.22811E+00
 -1      1569 2.17981E+00
 -1      1570 2.11108E+00
 -1      1571 2.27640E+00
 -1      1572 2.27640E+00
 -1      1573 2.22811E+00
 -1      1574 2.03449E+00
 -1      1575 2.15545E+00
 -1      1576 2.15545E+00
 -1      1577 1.56993E+00
 -1      1578 1.80221E+00
 -1      1579 1.80221E+00
 -1      1580 1.12525E+00
 -1      1581 1.35122E+00
 -1      1582 1.35122E+00
 -1      1583 7.26973E-01
 -1      1584 9.42362E-01
 -1      1585 9.49613E-01
 -1      1586 4.13329E-01
 -1      1587 5.64929E-01
 -1      1588 6.04685E-01
 -1      1589 2.05198E-01
 -1      1590 3.12682E-01
 -1      1591 3.41993E-01
 -1      1592 1.52090E-01
 -1      1593 1.71712E-01
 -1      1594 2.07860E-01
 -1      1595 1.33129E-01
 -1      1596 1.33129E-01
 -1      1597 1.55414E-01
 -1      1598 1.10336E-01
 -1      1599 1.20070E-01
 -1      1600 1.23395E-01
 -1      1601 8.06130E-02
 -1      1602 9.64098E-02
 -1      1603 9.64098E-02
 -1      1604 6.08212E-02
 -1      1605 6.36315E-02
 -1      1606 5.57260E-02
 -1      1607 1.01772E-01
 -1      1608 9.46743E-02
 -1      1609 9.95945E-02
 -1      1610 1.13435E-01
 -1      1611 1.10102E-01
 -1      1612 1.38968E-01
 -1      1613 1.15267E-01
 -1      1614 1.15267E-01
 -1      1615 1.49130E-01
 -1      1616 1.12528E-01
 -1      1617 1.15267E-01
 -1      1618 1.50962E-01
 -1      1619 9.22466E-02
 -1      1620 1.05756E-01
 -1      1621 1.44190E-01
 -1      1622 1.10552E-01
 -1      1623 8.96237E-02
 -1      1624 1.34796E-01
 -1      1625 2.15218E-01
 -1      1626 1.78342E-01
 -1      1627 1.99963E-01
 -1      1628 2.96142E-01
 -1      1629 2.72454E-01
 -1      1630 3.24989E-01
 -1      1631 3.10761E-01
 -1      1632 3.09387E-01
 -1      1633 3.95470E-01
 -1      1634 3.10761E-01
 -1      1635 3.10761E-01
 -1      1636 4.08716E-01
 -1      1637 2.73911E-01
 -1      1638 3.03495E-01
 -1      1639 4.01449E-01
 -1      1640 2.04480E-01
 -1      1641 2.05639E-01
 -1      1642 3.25911E-01
 -1      1643 4.04108E-01
 -1      1644 3.78924E-01
 -1      1645 4.32082E-01
 -1      1646 4.04108E-01
 -1      1647 4.04108E-01
 -1      1648 6.06525E-01
 -1      1649 4.82165E-01
 -1      1650 2.85533E+01
 -1      1651 2.85533E+01
 -1      1652 4.12376E+01
 -1      1653 3.19775E+01
 -1      1654 4.44551E+01
 -1      1655 4.44551E+01
 -1      1656 1.66965E+01
 -1      1657 3.09047E+01
 -1      1658 1.13585E+01
 -1      1659 1.34379E+01
 -1      1660 1.20881E+01
 -1      1661 1.18800E+01
 -1      1662 1.23101E+01
 -1      1663 1.22962E+01
 -1      1664 1.23712E+01
 -1      1665 1.23240E+01
 -1      1666 1.24183E+01
 -1      1667 1.24183E+01
 -1      1668 1.20741E+01
 -1      1669 1.21997E+01
 -1      1670 2.00413E+01
 -1      1671 1.21672E+01
 -1      1672 2.98474E+01
 -1      1673 2.88600E+01
 -1      1674 2.98901E+01
 -1      1675 2.98901E+01
 -1      1676 2.51288E+01
 -1      1677 2.75205E+01
 -1      1678 2.77535E+01
 -1      1679 2.78592E+01
 -1      1680 2.77535E+01
 -1      1681 2.77535E+01
 -1      1682 3.74172E+01
 -1      1683 2.97680E+01
 -1      1684 4.01938E+01
 -1      1685 4.01938E+01
 -1      1686 1.56092E+01
 -1      1687 2.79015E+01
 -1      1688 1.22271E+01
 -1      1689 1.35937E+01
 -1      1690 1.29879E+01
 -1      1691 1.28760E+01
 -1      1692 1.30998E+01
 -1      1693 1.30998E+01
 -1      1694 1.28521E+01
 -1      1695 1.29760E+01
 -1      1696 1.27381E+01
 -1      1697 1.25274E+01
 -1      1698 1.99990E+01
 -1      1699 1.32735E+01
 -1      1700 2.86082E+01
 -1      1701 2.74783E+01
 -1      1702 3.11864E+01
 -1      1703 3.11864E+01
 -1      1704 2.93652E+01
 -1      1705 3.11864E+01
 -1      1706 2.85533E+01
 -1      1707 2.82569E+01
 -1      1708 3.09047E+01
 -1      1709 3.11717E+01
 -1      1710 6.26920E-02
 -1      1711 7.55177E-02
 -1      1712 3.45959E+01
 -1      1713 4.12376E+01
 -1      1714 1.40957E+01
 -1      1715 1.13585E+01
 -1      1716 1.20881E+01
 -1      1717 1.23101E+01
 -1      1718 1.23712E+01
 -1      1719 1.21997E+01
 -1      1720 1.20741E+01
 -1      1721 2.09860E+01
 -1      1722 2.98474E+01
 -1      1723 2.75205E+01
 -1      1724 2.78813E+01
 -1      1725 3.06117E+01
 -1      1726 3.26262E+01
 -1      1727 3.74172E+01
 -1      1728 2.79015E+01
 -1      1729 1.35937E+01
 -1      1730 1.22271E+01
 -1      1731 1.29879E+01
 -1      1732 1.29760E+01
 -1      1733 1.25274E+01
 -1      1734 1.27381E+01
 -1      1735 2.07528E+01
 -1      1736 3.08102E+01
 -1      1737 3.33884E+01
 -1      1738 3.22800E+01
 -1      1739 9.61090E+00
 -1      1740 1.27758E+00
 -1      1741 1.67313E+00
 -1      1742 2.38908E+00
 -1      1743 4.27863E+00
 -1      1744 1.76373E+00
 -1      1745 8.84228E-01
 -1      1746 9.76382E-01
 -1      1747 7.79693E-01
 -1      1748 8.34134E-01
 -1      1749 7.44943E-01
 -1      1750 7.13950E-01
 -1      1751 7.48178E-01
 -1      1752 6.63334E-01
 -1      1753 6.71817E-01
 -1      1754 6.91867E-01
 -1      1755 6.09737E-01
 -1      1756 6.95185E-01
 -1      1757 6.73424E-01
 -1      1758 5.89261E-01
 -1      1759 7.50784E-01
 -1      1760 7.16978E-01
 -1      1761 6.12661E-01
 -1      1762 8.40975E-01
 -1      1763 7.84078E-01
 -1      1764 6.67749E-01
 -1      1765 9.83872E-01
 -1      1766 8.88583E-01
 -1      1767 7.48652E-01
 -1      1768 1.22870E+00
 -1      1769 1.05094E+00
 -1      1770 8.63327E-01
 -1      1771 1.70168E+00
 -1      1772 1.33570E+00
 -1      1773 1.03739E+00
 -1      1774 2.63124E+00
 -1      1775 1.79408E+00
 -1      1776 1.23679E+00
 -1      1777 8.11855E+00
 -1      1778 3.06519E+00
 -1      1779 1.76314E+00
 -1      1780 2.79672E+00
 -1      1781 5.19801E+00
 -1      1782 2.16583E+00
 -1      1783 2.65488E+00
 -1      1784 2.05526E+00
 -1      1785 3.39906E+00
 -1      1786 2.53597E+00
 -1      1787 1.92133E+00
 -1      1788 1.69047E+00
 -1      1789 1.35840E+00
 -1      1790 1.49931E+00
 -1      1791 1.17835E+00
 -1      1792 9.67625E-01
 -1      1793 1.08841E+00
 -1      1794 8.42223E-01
 -1      1795 7.17129E-01
 -1      1796 7.82957E-01
 -1      1797 6.58340E-01
 -1      1798 5.68702E-01
 -1      1799 5.98766E-01
 -1      1800 5.21175E-01
 -1      1801 4.59377E-01
 -1      1802 4.92450E-01
 -1      1803 4.14121E-01
 -1      1804 3.60585E-01
 -1      1805 3.99667E-01
 -1      1806 3.28524E-01
 -1      1807 2.90180E-01
 -1      1808 3.22349E-01
 -1      1809 2.63079E-01
 -1      1810 2.35311E-01
 -1      1811 2.63187E-01
 -1      1812 2.12161E-01
 -1      1813 1.88773E-01
 -1      1814 2.12936E-01
 -1      1815 1.70605E-01
 -1      1816 1.51473E-01
 -1      1817 1.71617E-01
 -1      1818 1.36946E-01
 -1      1819 1.21725E-01
 -1      1820 1.38922E-01
 -1      1821 1.09386E-01
 -1      1822 9.76059E-02
 -1      1823 1.12056E-01
 -1      1824 8.72067E-02
 -1      1825 7.83356E-02
 -1      1826 8.93179E-02
 -1      1827 7.36511E-02
 -1      1828 7.28866E-02
 -1      1829 7.42342E-02
 -1      1830 7.33403E-02
 -1      1831 7.83341E-02
 -1      1832 7.00035E-02
 -1      1833 8.62110E-02
 -1      1834 9.86762E-02
 -1      1835 7.83341E-02
 -1      1836 1.11141E-01
 -1      1837 1.29533E-01
 -1      1838 9.86762E-02
 -1      1839 1.54009E-01
 -1      1840 1.80117E-01
 -1      1841 1.35617E-01
 -1      1842 2.20605E-01
 -1      1843 2.56762E-01
 -1      1844 2.00580E-01
 -1      1845 3.13942E-01
 -1      1846 3.68164E-01
 -1      1847 2.98248E-01
 -1      1848 4.48407E-01
 -1      1849 5.41980E-01
 -1      1850 4.35671E-01
 -1      1851 6.58002E-01
 -1      1852 7.94956E-01
 -1      1853 6.31937E-01
 -1      1854 9.50659E-01
 -1      1855 1.13415E+00
 -1      1856 9.03663E-01
 -1      1857 1.33620E+00
 -1      1858 1.56704E+00
 -1      1859 1.26142E+00
 -1      1860 1.81813E+00
 -1      1861 2.08442E+00
 -1      1862 1.71455E+00
 -1      1863 2.36888E+00
 -1      1864 2.62438E+00
 -1      1865 2.25010E+00
 -1      1866 2.89830E+00
 -1      1867 3.10472E+00
 -1      1868 2.80848E+00
 -1      1869 3.29523E+00
 -1      1870 3.62882E+00
 -1      1871 3.27291E+00
 -1      1872 4.01397E+00
 -1      1873 4.20491E+00
 -1      1874 3.84857E+00
 -1      1875 4.86847E+00
 -1      1876 4.70943E+00
 -1      1877 4.89727E+00
 -1      1878 4.97707E+00
 -1      1879 4.78640E+00
 -1      1880 5.82846E+00
 -1      1881 3.73371E+00
 -1      1882 5.66897E+00
 -1      1883 5.04341E+00
 -1      1884 7.58532E+00
 -1      1885 9.79993E+00
 -1      1886 1.03151E+01
 -1      1887 1.03809E+01
 -1      1888 9.76990E+00
 -1      1889 8.04658E+00
 -1      1890 6.24602E+00
 -1      1891 3.96815E+00
 -1      1892 4.55487E+00
 -1      1893 4.50114E+00
 -1      1894 4.61721E+00
 -1      1895 4.10385E+00
 -1      1896 4.30694E+00
 -1      1897 4.80665E+00
 -1      1898 3.86314E+00
 -1      1899 3.65415E+00
 -1      1900 3.96556E+00
 -1      1901 3.35342E+00
 -1      1902 2.97603E+00
 -1      1903 3.22104E+00
 -1      1904 2.77820E+00
 -1      1905 2.48129E+00
 -1      1906 2.72248E+00
 -1      1907 2.24614E+00
 -1      1908 1.99042E+00
 -1      1909 2.28950E+00
 -1      1910 1.73396E+00
 -1      1911 1.50247E+00
 -1      1912 1.79789E+00
 -1      1913 1.26360E+00
 -1      1914 1.08244E+00
 -1      1915 1.30256E+00
 -1      1916 9.33668E-01
 -1      1917 7.96996E-01
 -1      1918 9.14920E-01
 -1      1919 7.17182E-01
 -1      1920 1.14182E+00
 -1      1921 1.40174E+00
 -1      1922 8.61513E-01
 -1      1923 9.82190E-01
 -1      1924 9.75725E-01
 -1      1925 6.82390E-01
 -1      1926 7.69541E-01
 -1      1927 7.24124E-01
 -1      1928 5.54044E-01
 -1      1929 6.25539E-01
 -1      1930 5.75299E-01
 -1      1931 4.45056E-01
 -1      1932 5.04459E-01
 -1      1933 4.68862E-01
 -1      1934 3.55398E-01
 -1      1935 4.04611E-01
 -1      1936 3.78831E-01
 -1      1937 2.86572E-01
 -1      1938 3.23475E-01
 -1      1939 3.06463E-01
 -1      1940 2.29466E-01
 -1      1941 2.59600E-01
 -1      1942 2.47568E-01
 -1      1943 1.83960E-01
 -1      1944 2.07756E-01
 -1      1945 1.98886E-01
 -1      1946 1.48467E-01
 -1      1947 1.67186E-01
 -1      1948 1.60401E-01
 -1      1949 1.19373E-01
 -1      1950 1.34098E-01
 -1      1951 1.29258E-01
 -1      1952 9.61593E-02
 -1      1953 1.07262E-01
 -1      1954 1.02777E-01
 -1      1955 7.88060E-02
 -1      1956 8.59856E-02
 -1      1957 8.04923E-02
 -1      1958 7.15730E-02
 -1      1959 7.43127E-02
 -1      1960 6.58252E-02
 -1      1961 7.49970E-02
 -1      1962 7.42236E-02
 -1      1963 6.39824E-02
 -1      1964 8.17959E-02
 -1      1965 7.94891E-02
 -1      1966 7.11251E-02
 -1      1967 9.45664E-02
 -1      1968 8.78144E-02
 -1      1969 8.16356E-02
 -1      1970 1.08786E-01
 -1      1971 1.01479E-01
 -1      1972 9.45664E-02
 -1      1973 1.32031E-01
 -1      1974 1.20239E-01
 -1      1975 1.12931E-01
 -1      1976 1.56227E-01
 -1      1977 1.42655E-01
 -1      1978 1.35009E-01
 -1      1979 1.84936E-01
 -1      1980 1.68878E-01
 -1      1981 1.58284E-01
 -1      1982 2.08878E-01
 -1      1983 1.98938E-01
 -1      1984 1.84936E-01
 -1      1985 2.18818E-01
 -1      1986 2.18818E-01
 -1      1987 2.08878E-01
 -1      1988 2.35821E-01
 -1      1989 2.16039E-01
 -1      1990 2.16039E-01
 -1      1991 2.61158E-01
 -1      1992 2.25021E-01
 -1      1993 2.02460E-01
 -1      1994 3.41531E-01
 -1      1995 2.76445E-01
 -1      1996 2.06947E-01
 -1      1997 4.93629E-01
 -1      1998 4.45147E-01
 -1      1999 3.25850E-01
 -1      2000 7.65915E-01
 -1      2001 6.11823E-01
 -1      2002 5.47660E-01
 -1      2003 1.07027E+00
 -1      2004 9.09724E-01
 -1      2005 8.09662E-01
 -1      2006 1.39033E+00
 -1      2007 1.21219E+00
 -1      2008 1.09539E+00
 -1      2009 1.65818E+00
 -1      2010 1.54336E+00
 -1      2011 1.39033E+00
 -1      2012 1.79819E+00
 -1      2013 1.77300E+00
 -1      2014 1.65818E+00
 -1      2015 1.92999E+00
 -1      2016 1.82052E+00
 -1      2017 1.79532E+00
 -1      2018 1.97215E+00
 -1      2019 1.90341E+00
 -1      2020 1.79107E+00
 -1      2021 2.03086E+00
 -1      2022 1.98257E+00
 -1      2023 1.77490E+00
 -1      2024 1.82514E+00
 -1      2025 1.94610E+00
 -1      2026 1.70056E+00
 -1      2027 1.44173E+00
 -1      2028 1.67401E+00
 -1      2029 1.46466E+00
 -1      2030 1.09946E+00
 -1      2031 1.31818E+00
 -1      2032 1.18997E+00
 -1      2033 7.78306E-01
 -1      2034 9.61190E-01
 -1      2035 9.28157E-01
 -1      2036 5.06828E-01
 -1      2037 6.68872E-01
 -1      2038 6.80450E-01
 -1      2039 3.13203E-01
 -1      2040 4.13851E-01
 -1      2041 4.78038E-01
 -1      2042 2.28022E-01
 -1      2043 2.61507E-01
 -1      2044 3.33365E-01
 -1      2045 1.70380E-01
 -1      2046 1.89341E-01
 -1      2047 2.42988E-01
 -1      2048 1.51566E-01
 -1      2049 1.64625E-01
 -1      2050 1.98552E-01
 -1      2051 9.52664E-02
 -1      2052 1.09193E-01
 -1      2053 1.50423E-01
 -1      2054 8.83004E-02
 -1      2055 1.76452E-01
 -1      2056 1.74619E-01
 -1      2057 1.70047E-01
 -1      2058 1.61717E-01
 -1      2059 1.97369E-01
 -1      2060 1.19343E-01
 -1      2061 1.89190E-01
 -1      2062 1.89190E-01
 -1      2063 2.14679E-01
 -1      2064 1.82418E-01
 -1      2065 1.89190E-01
 -1      2066 2.27418E-01
 -1      2067 1.75481E-01
 -1      2068 1.78104E-01
 -1      2069 2.23104E-01
 -1      2070 2.85964E-01
 -1      2071 2.18174E-01
 -1      2072 2.61482E-01
 -1      2073 4.40840E-01
 -1      2074 3.83604E-01
 -1      2075 4.01815E-01
 -1      2076 5.04500E-01
 -1      2077 4.91255E-01
 -1      2078 5.49870E-01
 -1      2079 5.20989E-01
 -1      2080 5.20989E-01
 -1      2081 6.16773E-01
 -1      2082 5.13722E-01
 -1      2083 5.20989E-01
 -1      2084 6.33261E-01
 -1      2085 4.16677E-01
 -1      2086 4.84950E-01
 -1      2087 6.04489E-01
 -1      2088 6.22703E-01
 -1      2089 4.48259E-01
 -1      2090 6.07298E-01
 -1      2091 1.51343E+00
 -1      2092 1.88848E+00
 -1      2093 1.63607E+00
 -1      2094 1.24704E+00
 -1      2095 3.53451E+01
 -1      2096 3.21276E+01
 -1      2097 9.65514E+00
 -1      2098 1.29137E+01
 -1      2099 3.21656E+01
 -1      2100 3.21656E+01
 -1      2101 1.61843E+01
 -1      2102 2.97347E+01
 -1      2103 1.03421E+00
 -1      2104 1.20903E+00
 -1      2105 9.79232E-01
 -1      2106 8.52861E-01
 -1      2107 9.97284E+00
 -1      2108 9.45138E+00
 -1      2109 1.13034E+01
 -1      2110 1.10953E+01
 -1      2111 1.17360E+01
 -1      2112 1.17221E+01
 -1      2113 1.15034E+01
 -1      2114 1.14563E+01
 -1      2115 1.05278E+01
 -1      2116 1.07464E+01
 -1      2117 9.31621E+00
 -1      2118 9.22313E+00
 -1      2119 2.07308E+01
 -1      2120 1.19121E+01
 -1      2121 2.53117E+01
 -1      2122 2.52691E+01
 -1      2123 2.54352E+01
 -1      2124 2.78048E+01
 -1      2125 3.33301E+01
 -1      2126 3.05997E+01
 -1      2127 3.33301E+01
 -1      2128 3.33301E+01
 -1      2129 3.07127E+01
 -1      2130 2.86982E+01
 -1      2131 3.14812E+01
 -1      2132 2.87046E+01
 -1      2133 1.46146E+01
 -1      2134 2.69069E+01
 -1      2135 9.69008E+00
 -1      2136 1.17056E+01
 -1      2137 1.08677E+01
 -1      2138 1.02188E+01
 -1      2139 1.15556E+01
 -1      2140 1.14437E+01
 -1      2141 1.20196E+01
 -1      2142 1.21434E+01
 -1      2143 1.10613E+01
 -1      2144 1.13860E+01
 -1      2145 1.03420E+01
 -1      2146 9.80659E+00
 -1      2147 1.99344E+01
 -1      2148 1.24551E+01
 -1      2149 2.66285E+01
 -1      2150 2.40503E+01
 -1      2151 3.33884E+01
 -1      2152 3.33884E+01
 -1      2153 3.21656E+01
 -1      2154 3.32739E+01
 -1      2155 3.16629E+01
 -1      2156 2.82387E+01
 -1      2157 5.90707E+00
 -1      2158 8.33854E+00
 -1      2159 2.91072E+00
 -1      2160 2.06246E+01
 -1      2161 8.26944E+00
 -1      2162 2.10492E+00
 -1      2163 6.86339E-01
 -1      2164 2.57704E+01
 -1      2165 1.50423E-01
 -1      2166 2.92326E+01
 -1      2167 3.31594E+01
 -1      2168 6.86339E-01
 -1      2169 3.32739E+01
 -1      2170 2.66285E+01
 -1      2171 1.17437E+01
 -1      2172 7.02517E-01
 -1      2173 1.57527E+01
 -1      2174 9.52360E+00
 -1      2175 8.66520E+00
 -1      2176 1.05535E+01
 -1      2177 1.05992E+01
 -1      2178 9.43540E+00
 -1      2179 8.33074E+00
 -1      2180 1.07111E+01
 -1      2181 1.81943E+01
 -1      2182 2.47766E+01
 -1      2183 3.14166E+01
 -1      2184 3.60486E+01
 -1      2185 3.08840E+01
 -1      2186 2.32265E+01
 -1      2187 1.61952E+01
 -1      2188 9.06109E+00
 -1      2189 7.76987E+00
 -1      2190 9.83152E+00
 -1      2191 1.08683E+01
 -1      2192 9.18815E+00
 -1      2193 1.07293E+01
 -1      2194 5.59121E-01
 -1      2195 5.90636E-01
 -1      2196 6.04586E-01
 -1      2197 6.54680E-01
 -1      2198 5.00372E-01
 -1      2199 5.11270E-01
 -1      2200 5.09663E-01
 -1      2201 5.45993E-01
 -1      2202 5.24200E-01
 -1      2203 4.44602E-01
 -1      2204 5.93972E-01
 -1      2205 5.60677E-01
 -1      2206 4.72216E-01
 -1      2207 6.53464E-01
 -1      2208 6.05856E-01
 -1      2209 4.98784E-01
 -1      2210 7.20531E-01
 -1      2211 6.53464E-01
 -1      2212 5.10668E-01
 -1      2213 8.24073E-01
 -1      2214 7.17078E-01
 -1      2215 5.07214E-01
 -1      2216 9.84222E-01
 -1      2217 8.91820E-01
 -1      2218 5.71509E-01
 -1      2219 1.75667E+00
 -1      2220 1.32272E+00
 -1      2221 9.77750E-01
 -1      2222 1.61483E+00
 -1      2223 8.24263E+00
 -1      2224 1.26676E+00
 -1      2225 1.03590E+00
 -1      2226 1.35377E+01
 -1      2227 1.91481E+01
 -1      2228 2.76178E+01
 -1      2229 2.77323E+01
 -1      2230 9.85772E-01
 -1      2231 8.05724E-01
 -1      2232 7.53217E-01
 -1      2233 7.49182E-01
 -1      2234 6.23780E-01
 -1      2235 6.46547E-01
 -1      2236 5.67609E-01
 -1      2237 5.08820E-01
 -1      2238 5.33834E-01
 -1      2239 4.58106E-01
 -1      2240 4.10580E-01
 -1      2241 4.26949E-01
 -1      2242 3.83538E-01
 -1      2243 3.38282E-01
 -1      2244 3.49195E-01
 -1      2245 3.13708E-01
 -1      2246 2.81647E-01
 -1      2247 2.97580E-01
 -1      2248 2.58367E-01
 -1      2249 2.31267E-01
 -1      2250 2.49726E-01
 -1      2251 2.11748E-01
 -1      2252 1.88597E-01
 -1      2253 2.06927E-01
 -1      2254 1.71884E-01
 -1      2255 1.53716E-01
 -1      2256 1.70696E-01
 -1      2257 1.39059E-01
 -1      2258 1.24532E-01
 -1      2259 1.39326E-01
 -1      2260 1.12056E-01
 -1      2261 9.97171E-02
 -1      2262 1.12193E-01
 -1      2263 8.93179E-02
 -1      2264 7.89187E-02
 -1      2265 8.93179E-02
 -1      2266 7.18305E-02
 -1      2267 6.71460E-02
 -1      2268 7.18305E-02
 -1      2269 6.22945E-02
 -1      2270 6.27483E-02
 -1      2271 5.98908E-02
 -1      2272 6.77017E-02
 -1      2273 7.55786E-02
 -1      2274 5.99927E-02
 -1      2275 8.58263E-02
 -1      2276 9.82914E-02
 -1      2277 7.51938E-02
 -1      2278 1.22286E-01
 -1      2279 1.46761E-01
 -1      2280 1.09436E-01
 -1      2281 1.79134E-01
 -1      2282 2.19621E-01
 -1      2283 1.65802E-01
 -1      2284 2.63727E-01
 -1      2285 3.20907E-01
 -1      2286 2.42280E-01
 -1      2287 3.81130E-01
 -1      2288 4.61373E-01
 -1      2289 3.46608E-01
 -1      2290 5.47002E-01
 -1      2291 6.63025E-01
 -1      2292 4.92460E-01
 -1      2293 7.77837E-01
 -1      2294 9.33540E-01
 -1      2295 6.92902E-01
 -1      2296 1.08747E+00
 -1      2297 1.28952E+00
 -1      2298 9.61639E-01
 -1      2299 1.49791E+00
 -1      2300 1.74900E+00
 -1      2301 1.32396E+00
 -1      2302 2.03234E+00
 -1      2303 2.31681E+00
 -1      2304 1.81571E+00
 -1      2305 2.70505E+00
 -1      2306 2.97897E+00
 -1      2307 2.48730E+00
 -1      2308 3.51105E+00
 -1      2309 3.70156E+00
 -1      2310 3.40763E+00
 -1      2311 4.44372E+00
 -1      2312 4.82886E+00
 -1      2313 4.68186E+00
 -1      2314 5.35374E+00
 -1      2315 6.01729E+00
 -1      2316 5.94888E+00
 -1      2317 8.35948E+00
 -1      2318 8.62711E+00
 -1      2319 8.81594E+00
 -1      2320 6.33645E+00
 -1      2321 5.28376E+00
 -1      2322 5.83104E+00
 -1      2323 2.23132E+01
 -1      2324 2.18485E+01
 -1      2325 7.68221E+00
 -1      2326 7.28492E+00
 -1      2327 5.98742E+00
 -1      2328 5.54363E+00
 -1      2329 8.86299E+00
 -1      2330 3.99693E+00
 -1      2331 3.69620E+00
 -1      2332 6.01879E+00
 -1      2333 3.14391E+00
 -1      2334 2.94608E+00
 -1      2335 3.91980E+00
 -1      2336 2.51252E+00
 -1      2337 2.27737E+00
 -1      2338 2.93396E+00
 -1      2339 1.92868E+00
 -1      2340 1.67222E+00
 -1      2341 2.15170E+00
 -1      2342 1.39027E+00
 -1      2343 1.15140E+00
 -1      2344 1.52106E+00
 -1      2345 9.80142E-01
 -1      2346 8.31375E-01
 -1      2347 7.67738E-01
 -1      2348 1.06785E+00
 -1      2349 4.82107E-01
 -1      2350 5.38959E-01
 -1      2351 5.97674E-01
 -1      2352 6.89646E-01
 -1      2353 5.04481E-01
 -1      2354 7.54583E-01
 -1      2355 9.14211E-01
 -1      2356 6.28132E-01
 -1      2357 3.93956E-01
 -1      2358 4.43541E-01
 -1      2359 4.07201E-01
 -1      2360 3.26339E-01
 -1      2361 3.66785E-01
 -1      2362 3.41464E-01
 -1      2363 2.68173E-01
 -1      2364 3.00096E-01
 -1      2365 2.88050E-01
 -1      2366 2.18106E-01
 -1      2367 2.45078E-01
 -1      2368 2.38711E-01
 -1      2369 1.77534E-01
 -1      2370 1.99245E-01
 -1      2371 1.96755E-01
 -1      2372 1.43979E-01
 -1      2373 1.60754E-01
 -1      2374 1.61113E-01
 -1      2375 1.15096E-01
 -1      2376 1.29465E-01
 -1      2377 1.29818E-01
 -1      2378 9.06659E-02
 -1      2379 1.02777E-01
 -1      2380 1.02985E-01
 -1      2381 7.03186E-02
 -1      2382 8.04923E-02
 -1      2383 8.04923E-02
 -1      2384 5.73982E-02
 -1      2385 6.18915E-02
 -1      2386 6.18915E-02
 -1      2387 5.94403E-02
 -1      2388 5.67898E-02
 -1      2389 5.28561E-02
 -1      2390 6.68065E-02
 -1      2391 6.23144E-02
 -1      2392 5.51218E-02
 -1      2393 7.68105E-02
 -1      2394 7.07921E-02
 -1      2395 6.19814E-02
 -1      2396 9.41660E-02
 -1      2397 8.72537E-02
 -1      2398 7.64101E-02
 -1      2399 1.17696E-01
 -1      2400 1.06243E-01
 -1      2401 9.89303E-02
 -1      2402 1.39399E-01
 -1      2403 1.28775E-01
 -1      2404 1.22087E-01
 -1      2405 1.63369E-01
 -1      2406 1.50718E-01
 -1      2407 1.44485E-01
 -1      2408 1.84769E-01
 -1      2409 1.70767E-01
 -1      2410 1.63201E-01
 -1      2411 2.00114E-01
 -1      2412 1.90175E-01
 -1      2413 1.76005E-01
 -1      2414 1.94821E-01
 -1      2415 1.97600E-01
 -1      2416 1.78897E-01
 -1      2417 2.05506E-01
 -1      2418 2.16305E-01
 -1      2419 1.97867E-01
 -1      2420 2.44185E-01
 -1      2421 2.28899E-01
 -1      2422 2.42744E-01
 -1      2423 4.01166E-01
 -1      2424 2.97549E-01
 -1      2425 3.19501E-01
 -1      2426 6.12546E-01
 -1      2427 4.94352E-01
 -1      2428 4.66052E-01
 -1      2429 8.65359E-01
 -1      2430 7.21550E-01
 -1      2431 6.68243E-01
 -1      2432 1.13190E+00
 -1      2433 9.89987E-01
 -1      2434 9.01875E-01
 -1      2435 1.36530E+00
 -1      2436 1.21227E+00
 -1      2437 1.10687E+00
 -1      2438 1.54856E+00
 -1      2439 1.43374E+00
 -1      2440 1.25568E+00
 -1      2441 1.59014E+00
 -1      2442 1.56781E+00
 -1      2443 1.34337E+00
 -1      2444 1.52913E+00
 -1      2445 1.55571E+00
 -1      2446 1.32820E+00
 -1      2447 1.56344E+00
 -1      2448 1.55302E+00
 -1      2449 1.31767E+00
 -1      2450 1.48151E+00
 -1      2451 1.56627E+00
 -1      2452 1.34439E+00
 -1      2453 1.27155E+00
 -1      2454 1.42268E+00
 -1      2455 1.28840E+00
 -1      2456 1.09286E+00
 -1      2457 1.21640E+00
 -1      2458 1.17443E+00
 -1      2459 8.47802E-01
 -1      2460 9.86076E-01
 -1      2461 1.01250E+00
 -1      2462 6.46445E-01
 -1      2463 7.55878E-01
 -1      2464 8.13797E-01
 -1      2465 4.70118E-01
 -1      2466 5.63096E-01
 -1      2467 6.38525E-01
 -1      2468 3.48494E-01
 -1      2469 4.00190E-01
 -1      2470 4.85248E-01
 -1      2471 2.63361E-01
 -1      2472 3.02042E-01
 -1      2473 3.68867E-01
 -1      2474 2.11092E-01
 -1      2475 2.16847E-01
 -1      2476 2.75901E-01
 -1      2477 1.92797E-01
 -1      2478 2.81421E-01
 -1      2479 2.81421E-01
 -1      2480 2.62395E-01
 -1      2481 2.49657E-01
 -1      2482 3.16398E-01
 -1      2483 2.15664E-01
 -1      2484 2.11092E-01
 -1      2485 2.63380E-01
 -1      2486 2.53057E+01
 -1      2487 2.92326E+01
 -1      2488 2.18485E+01
 -1      2489 2.77107E-01
 -1      2490 2.81421E-01
 -1      2491 3.35424E-01
 -1      2492 3.66574E-01
 -1      2493 3.23882E-01
 -1      2494 3.82199E-01
 -1      2495 5.23761E-01
 -1      2496 4.26121E-01
 -1      2497 4.88520E-01
 -1      2498 6.92248E-01
 -1      2499 6.41833E-01
 -1      2500 6.66140E-01
 -1      2501 7.38136E-01
 -1      2502 7.21648E-01
 -1      2503 8.13611E-01
 -1      2504 7.73665E-01
 -1      2505 7.73665E-01
 -1      2506 8.78539E-01
 -1      2507 7.44892E-01
 -1      2508 7.73665E-01
 -1      2509 9.14068E-01
 -1      2510 7.30869E-01
 -1      2511 6.99287E-01
 -1      2512 8.68463E-01
 -1      2513 8.59727E-01
 -1      2514 1.47390E+01
 -1      2515 1.06231E+01
 -1      2516 1.67608E+00
 -1      2517 1.30133E+00
 -1      2518 8.37919E-01
 -1      2519 9.60136E-01
 -1      2520 6.75290E+00
 -1      2521 6.95666E+00
 -1      2522 4.61721E+00
 -1      2523 5.20393E+00
 -1      2524 5.22530E-01
 -1      2525 5.44613E-01
 -1      2526 4.71914E-01
 -1      2527 4.44539E-01
 -1      2528 9.23281E+00
 -1      2529 8.81413E+00
 -1      2530 7.84694E+00
 -1      2531 6.72447E+00
 -1      2532 9.06370E+00
 -1      2533 9.34342E+00
 -1      2534 7.89357E+00
 -1      2535 8.65059E+00
 -1      2536 5.46348E+00
 -1      2537 6.76811E+00
 -1      2538 8.82276E+00
 -1      2539 6.22690E+00
 -1      2540 1.56849E+01
 -1      2541 1.11467E+01
 -1      2542 8.31252E+00
 -1      2543 2.03619E+01
 -1      2544 1.78688E+01
 -1      2545 3.08840E+01
 -1      2546 2.57195E+01
 -1      2547 3.60486E+01
 -1      2548 3.60486E+01
 -1      2549 2.67847E+01
 -1      2550 3.14166E+01
 -1      2551 2.05065E+01
 -1      2552 2.25146E+01
 -1      2553 1.23959E+01
 -1      2554 1.69702E+01
 -1      2555 7.18941E+00
 -1      2556 1.00984E+01
 -1      2557 1.00203E+01
 -1      2558 9.43251E+00
 -1      2559 8.42034E+00
 -1      2560 6.30720E+00
 -1      2561 8.20938E+00
 -1      2562 1.14799E+01
 -1      2563 2.38002E+01
 -1      2564 1.70403E+01
 -1      2565 3.31594E+01
 -1      2566 3.31594E+01
 -1      2567 9.40932E+00
 -1      2568 2.11092E-01
 -1      2569 8.91739E+00
 -1      2570 8.77577E+00
 -1      2571 8.34143E+00
 -1      2572 5.22715E-01
 -1      2573 6.63073E-01
 -1      2574 7.20896E-01
 -1      2575 1.00034E+01
 -1      2576 1.33048E+00
 -1      2577 1.03189E+00
 -1      2578 1.05313E+00
 -1      2579 2.76178E+01
 -1      2580 5.41170E+00
 -1      2581 1.52263E+01
 -1      2582 1.81441E+01
 -1      2583 5.89638E+00
 -1      2584 8.86746E+00
 -1      2585 7.40669E+00
 -1      2586 2.32169E+01
 -1      2587 2.71438E+01
 -1      2588 2.71438E+01
 -1      2589 1.19107E+01
 -1      2590 8.91588E-01
 -1      2591 8.82920E-01
 -1      2592 9.94606E-01
 -1      2593 6.89013E-01
 -1      2594 6.61778E-01
 -1      2595 2.29388E-01
 -1      2596 5.72047E+00
 -1      2597 5.64149E+00
 -1      2598 3.73584E+00
 -1      2599 7.68221E+00
 -1      2600 6.69285E+00
 -1      2601 1.47081E+01
 -1      2602 2.14454E+01
 -1      2603 2.14454E+01
 -1      2604 1.71752E+01
 -1      2605 3.14166E+01
 -1      2606 3.08840E+01
 -1      2607 1.28204E+01
 -1      2608 5.22515E+00
 -1      2609 5.58718E+00
 -1      2610 7.12574E+00
 -1      2611 6.35044E+00
 -1      2612 9.24388E+00
 -1      2613 7.32870E+00
 -1      2614 7.43931E+00
 -1      2615 2.03619E+01
 -1      2616 6.17020E+00
 -1      2617 6.10834E+00
 -1      2618 7.36308E+00
 -1      2619 4.22726E-01
 -1      2620 4.08042E-01
 -1      2621 4.00173E-01
 -1      2622 3.87243E-01
 -1      2623 3.50683E-01
 -1      2624 4.36051E-01
 -1      2625 4.36051E-01
 -1      2626 4.22953E-01
 -1      2627 4.26406E-01
 -1      2628 3.51790E-01
 -1      2629 9.55082E-01
 -1      2630 6.16588E-01
 -1      2631 6.70730E-01
 -1      2632 5.50527E-01
 -1      2633 4.93985E-01
 -1      2634 4.87535E-01
 -1      2635 4.31364E-01
 -1      2636 3.91515E-01
 -1      2637 4.10159E-01
 -1      2638 3.59446E-01
 -1      2639 3.63860E-01
 -1      2640 3.34166E-01
 -1      2641 3.07125E-01
 -1      2642 3.17376E-01
 -1      2643 2.82434E-01
 -1      2644 2.57861E-01
 -1      2645 2.67406E-01
 -1      2646 2.42251E-01
 -1      2647 2.18971E-01
 -1      2648 2.27106E-01
 -1      2649 2.02561E-01
 -1      2650 1.83042E-01
 -1      2651 1.95086E-01
 -1      2652 1.67269E-01
 -1      2653 1.50556E-01
 -1      2654 1.62903E-01
 -1      2655 1.37213E-01
 -1      2656 1.22556E-01
 -1      2657 1.33787E-01
 -1      2658 1.10925E-01
 -1      2659 9.84489E-02
 -1      2660 1.08812E-01
 -1      2661 8.82773E-02
 -1      2662 7.78781E-02
 -1      2663 8.70091E-02
 -1      2664 6.93255E-02
 -1      2665 6.22374E-02
 -1      2666 6.82850E-02
 -1      2667 5.29646E-02
 -1      2668 4.81131E-02
 -1      2669 5.04596E-02
 -1      2670 4.81037E-02
 -1      2671 5.30572E-02
 -1      2672 4.11776E-02
 -1      2673 6.19624E-02
 -1      2674 7.22101E-02
 -1      2675 5.00735E-02
 -1      2676 9.02488E-02
 -1      2677 1.14243E-01
 -1      2678 7.70174E-02
 -1      2679 1.37145E-01
 -1      2680 1.69517E-01
 -1      2681 1.17958E-01
 -1      2682 1.99014E-01
 -1      2683 2.43119E-01
 -1      2684 1.70356E-01
 -1      2685 2.90105E-01
 -1      2686 3.50328E-01
 -1      2687 2.46838E-01
 -1      2688 4.25472E-01
 -1      2689 5.11101E-01
 -1      2690 3.68969E-01
 -1      2691 6.15138E-01
 -1      2692 7.29950E-01
 -1      2693 5.48149E-01
 -1      2694 8.76130E-01
 -1      2695 1.03006E+00
 -1      2696 7.98366E-01
 -1      2697 1.23543E+00
 -1      2698 1.44383E+00
 -1      2699 1.14992E+00
 -1      2700 1.72940E+00
 -1      2701 2.01274E+00
 -1      2702 1.64086E+00
 -1      2703 2.42035E+00
 -1      2704 2.80860E+00
 -1      2705 2.33404E+00
 -1      2706 3.40411E+00
 -1      2707 3.93619E+00
 -1      2708 3.33716E+00
 -1      2709 4.90585E+00
 -1      2710 5.64800E+00
 -1      2711 4.90233E+00
 -1      2712 7.31079E+00
 -1      2713 7.83566E+00
 -1      2714 7.53477E+00
 -1      2715 8.28331E+00
 -1      2716 1.06255E+01
 -1      2717 6.21891E+00
 -1      2718 4.41836E+00
 -1      2719 1.69936E+01
 -1      2720 1.30615E+01
 -1      2721 3.11917E-01
 -1      2722 3.11917E-01
 -1      2723 3.58431E-01
 -1      2724 8.39074E+00
 -1      2725 6.84404E+00
 -1      2726 4.94138E+00
 -1      2727 4.38910E+00
 -1      2728 7.31333E+00
 -1      2729 3.41974E+00
 -1      2730 2.98618E+00
 -1      2731 4.44132E+00
 -1      2732 2.46057E+00
 -1      2733 2.11187E+00
 -1      2734 2.94635E+00
 -1      2735 1.69255E+00
 -1      2736 1.41060E+00
 -1      2737 2.00142E+00
 -1      2738 1.17555E+00
 -1      2739 1.00429E+00
 -1      2740 9.67422E-01
 -1      2741 1.34704E+00
 -1      2742 4.16921E-01
 -1      2743 4.75635E-01
 -1      2744 3.51625E-01
 -1      2745 3.90191E-01
 -1      2746 3.61345E-01
 -1      2747 4.98336E-01
 -1      2748 5.63272E-01
 -1      2749 4.10775E-01
 -1      2750 2.49895E-01
 -1      2751 2.76139E-01
 -1      2752 2.09197E-01
 -1      2753 2.32292E-01
 -1      2754 2.20380E-01
 -1      2755 1.73316E-01
 -1      2756 1.92178E-01
 -1      2757 1.85758E-01
 -1      2758 1.41670E-01
 -1      2759 1.58451E-01
 -1      2760 1.53874E-01
 -1      2761 1.13903E-01
 -1      2762 1.28418E-01
 -1      2763 1.25756E-01
 -1      2764 9.00138E-02
 -1      2765 1.02333E-01
 -1      2766 1.00932E-01
 -1      2767 6.97931E-02
 -1      2768 7.99668E-02
 -1      2769 7.93147E-02
 -1      2770 5.25422E-02
 -1      2771 6.09693E-02
 -1      2772 6.04438E-02
 -1      2773 4.39539E-02
 -1      2774 4.45623E-02
 -1      2775 4.36400E-02
 -1      2776 4.84556E-02
 -1      2777 4.55815E-02
 -1      2778 3.72877E-02
 -1      2779 5.68370E-02
 -1      2780 5.28514E-02
 -1      2781 4.33112E-02
 -1      2782 7.89762E-02
 -1      2783 6.85330E-02
 -1      2784 5.94030E-02
 -1      2785 1.03540E-01
 -1      2786 9.14634E-02
 -1      2787 8.35863E-02
 -1      2788 1.27467E-01
 -1      2789 1.16388E-01
 -1      2790 1.08921E-01
 -1      2791 1.52081E-01
 -1      2792 1.40762E-01
 -1      2793 1.35063E-01
 -1      2794 1.70599E-01
 -1      2795 1.63201E-01
 -1      2796 1.59479E-01
 -1      2797 1.90702E-01
 -1      2798 1.85296E-01
 -1      2799 1.85296E-01
 -1      2800 2.00652E-01
 -1      2801 2.03166E-01
 -1      2802 2.12457E-01
 -1      2803 2.33365E-01
 -1      2804 2.11881E-01
 -1      2805 2.36150E-01
 -1      2806 3.04210E-01
 -1      2807 2.80817E-01
 -1      2808 2.94831E-01
 -1      2809 4.06998E-01
 -1      2810 3.53634E-01
 -1      2811 3.91706E-01
 -1      2812 5.59239E-01
 -1      2813 4.66052E-01
 -1      2814 5.00184E-01
 -1      2815 7.68166E-01
 -1      2816 6.59162E-01
 -1      2817 6.59162E-01
 -1      2818 9.86870E-01
 -1      2819 8.62242E-01
 -1      2820 8.53161E-01
 -1      2821 1.13592E+00
 -1      2822 1.05555E+00
 -1      2823 1.01592E+00
 -1      2824 1.26499E+00
 -1      2825 1.19654E+00
 -1      2826 1.14523E+00
 -1      2827 1.36767E+00
 -1      2828 1.34842E+00
 -1      2829 1.28928E+00
 -1      2830 1.36423E+00
 -1      2831 1.39865E+00
 -1      2832 1.40370E+00
 -1      2833 1.32583E+00
 -1      2834 1.30195E+00
 -1      2835 1.37240E+00
 -1      2836 1.37012E+00
 -1      2837 1.36729E+00
 -1      2838 1.35157E+00
 -1      2839 1.24780E+00
 -1      2840 1.30662E+00
 -1      2841 1.32952E+00
 -1      2842 1.14001E+00
 -1      2843 1.19516E+00
 -1      2844 1.21338E+00
 -1      2845 9.79573E-01
 -1      2846 1.08635E+00
 -1      2847 1.10708E+00
 -1      2848 8.13852E-01
 -1      2849 9.05775E-01
 -1      2850 9.79629E-01
 -1      2851 6.38525E-01
 -1      2852 7.21873E-01
 -1      2853 8.13852E-01
 -1      2854 4.85248E-01
 -1      2855 5.55176E-01
 -1      2856 6.38525E-01
 -1      2857 3.99398E-01
 -1      2858 4.45850E-01
 -1      2859 5.15779E-01
 -1      2860 4.35414E-01
 -1      2861 3.77388E-01
 -1      2862 3.58363E-01
 -1      2863 5.04523E-01
 -1      2864 4.57748E-01
 -1      2865 3.45910E-01
 -1      2866 1.64792E+01
 -1      2867 1.99363E+01
 -1      2868 6.37548E-01
 -1      2869 5.78000E-01
 -1      2870 6.53550E-01
 -1      2871 8.36184E-01
 -1      2872 7.18112E-01
 -1      2873 8.07592E-01
 -1      2874 1.01496E+00
 -1      2875 9.85564E-01
 -1      2876 1.03754E+00
 -1      2877 1.07345E+00
 -1      2878 1.03792E+00
 -1      2879 1.20987E+00
 -1      2880 1.07345E+00
 -1      2881 1.07345E+00
 -1      2882 1.23283E+00
 -1      2883 2.52592E+01
 -1      2884 1.97175E+01
 -1      2885 7.01801E-01
 -1      2886 6.67227E-01
 -1      2887 8.87428E+00
 -1      2888 4.91447E+00
 -1      2889 4.15105E+00
 -1      2890 1.10357E+01
 -1      2891 9.73822E+00
 -1      2892 5.54128E+00
 -1      2893 6.79400E+00
 -1      2894 6.02877E-01
 -1      2895 5.52749E-01
 -1      2896 4.00187E-01
 -1      2897 4.66759E-01
 -1      2898 4.36051E-01
 -1      2899 4.24167E-01
 -1      2900 3.59993E-01
 -1      2901 3.61435E-01
 -1      2902 7.65768E+00
 -1      2903 9.71551E+00
 -1      2904 2.96781E-01
 -1      2905 3.23952E-01
 -1      2906 3.06942E-01
 -1      2907 2.58626E-01
 -1      2908 4.21046E-01
 -1      2909 4.21046E-01
 -1      2910 4.63010E-01
 -1      2911 5.43370E-01
 -1      2912 4.22603E-01
 -1      2913 4.36553E-01
 -1      2914 1.11614E+01
 -1      2915 1.43265E+01
 -1      2916 8.81573E+00
 -1      2917 1.93223E+01
 -1      2918 1.39647E+01
 -1      2919 5.83083E+00
 -1      2920 4.86365E+00
 -1      2921 5.93805E+00
 -1      2922 6.35116E+00
 -1      2923 3.98049E+00
 -1      2924 5.10595E+00
 -1      2925 8.69834E+00
 -1      2926 6.37440E+00
 -1      2927 1.20099E+01
 -1      2928 9.82598E+00
 -1      2929 2.64842E+01
 -1      2930 2.13197E+01
 -1      2931 2.08392E+01
 -1      2932 2.54711E+01
 -1      2933 1.59068E+01
 -1      2934 1.11649E+01
 -1      2935 5.65218E+00
 -1      2936 7.20896E-01
 -1      2937 4.14245E+00
 -1      2938 4.17088E+00
 -1      2939 3.62283E+00
 -1      2940 3.42645E-01
 -1      2941 3.87074E-01
 -1      2942 3.99942E-01
 -1      2943 5.48841E-01
 -1      2944 1.86902E+01
 -1      2945 1.27447E+01
 -1      2946 1.33509E+01
 -1      2947 9.64521E+00
 -1      2948 1.21863E+01
 -1      2949 1.34514E+01
 -1      2950 1.88207E+01
 -1      2951 1.67319E+01
 -1      2952 9.88497E+00
 -1      2953 4.06899E-01
 -1      2954 1.05635E+01
 -1      2955 4.46419E-01
 -1      2956 4.54813E-01
 -1      2957 3.68651E-01
 -1      2958 1.24143E+01
 -1      2959 1.46349E+01
 -1      2960 2.25172E+01
 -1      2961 1.46169E+01
 -1      2962 1.65015E+01
 -1      2963 9.67422E-01
 -1      2964 1.01303E+00
 -1      2965 1.17241E+00
 -1      2966 1.11199E+00
 -1      2967 4.24945E-01
 -1      2968 5.54742E-01
 -1      2969 5.23450E-01
 -1      2970 1.47013E+01
 -1      2971 1.09703E+01
 -1      2972 7.88786E+00
 -1      2973 4.27203E+00
 -1      2974 5.30030E+00
 -1      2975 1.41686E+01
 -1      2976 1.30994E+01
 -1      2977 3.66982E+00
 -1      2978 4.68032E-01
 -1      2979 6.50611E+00
 -1      2980 4.33136E+00
 -1      2981 6.10064E+00
 -1      2982 4.61384E+00
 -1      2983 6.11172E+00
 -1      2984 4.07491E-01
 -1      2985 4.21998E-01
 -1      2986 3.58180E-01
 -1      2987 3.50026E-01
 -1      2988 6.25162E+00
 -1      2989 1.49225E+01
 -1      2990 5.31109E-01
 -1      2991 3.15662E-01
 -1      2992 3.25307E-01
 -1      2993 6.12203E-01
 -1      2994 3.21639E-01
 -1      2995 3.00435E-01
 -1      2996 2.96355E-01
 -1      2997 2.71075E-01
 -1      2998 2.54134E-01
 -1      2999 2.59654E-01
 -1      3000 2.34964E-01
 -1      3001 2.38633E-01
 -1      3002 2.20383E-01
 -1      3003 2.04773E-01
 -1      3004 2.12631E-01
 -1      3005 1.91682E-01
 -1      3006 1.75272E-01
 -1      3007 1.84959E-01
 -1      3008 1.64280E-01
 -1      3009 1.48507E-01
 -1      3010 1.60876E-01
 -1      3011 1.36827E-01
 -1      3012 1.23483E-01
 -1      3013 1.38204E-01
 -1      3014 1.11976E-01
 -1      3015 1.00345E-01
 -1      3016 1.15016E-01
 -1      3017 8.94152E-02
 -1      3018 7.92436E-02
 -1      3019 9.25795E-02
 -1      3020 6.88093E-02
 -1      3021 6.02567E-02
 -1      3022 7.12154E-02
 -1      3023 5.01530E-02
 -1      3024 4.08803E-02
 -1      3025 5.06774E-02
 -1      3026 3.63347E-02
 -1      3027 3.63253E-02
 -1      3028 3.60280E-02
 -1      3029 4.10228E-02
 -1      3030 4.99281E-02
 -1      3031 3.61799E-02
 -1      3032 6.59878E-02
 -1      3033 8.40265E-02
 -1      3034 5.69371E-02
 -1      3035 1.05691E-01
 -1      3036 1.28593E-01
 -1      3037 9.46612E-02
 -1      3038 1.58820E-01
 -1      3039 1.88316E-01
 -1      3040 1.46553E-01
 -1      3041 2.29836E-01
 -1      3042 2.76822E-01
 -1      3043 2.18300E-01
 -1      3044 3.39556E-01
 -1      3045 4.14700E-01
 -1      3046 3.22554E-01
 -1      3047 4.93714E-01
 -1      3048 5.97751E-01
 -1      3049 4.64301E-01
 -1      3050 7.11577E-01
 -1      3051 8.57757E-01
 -1      3052 6.57142E-01
 -1      3053 1.01979E+00
 -1      3054 1.22516E+00
 -1      3055 9.32999E-01
 -1      3056 1.46163E+00
 -1      3057 1.74720E+00
 -1      3058 1.33150E+00
 -1      3059 2.10760E+00
 -1      3060 2.51521E+00
 -1      3061 1.92837E+00
 -1      3062 3.09501E+00
 -1      3063 3.69052E+00
 -1      3064 2.86856E+00
 -1      3065 4.68226E+00
 -1      3066 5.65192E+00
 -1      3067 4.44011E+00
 -1      3068 7.86312E+00
 -1      3069 5.96047E+00
 -1      3070 5.21181E+00
 -1      3071 4.24246E+00
 -1      3072 5.76160E+00
 -1      3073 3.38418E+00
 -1      3074 2.85857E+00
 -1      3075 4.15467E+00
 -1      3076 2.29338E+00
 -1      3077 1.87406E+00
 -1      3078 2.73121E+00
 -1      3079 3.03222E-01
 -1      3080 3.29952E-01
 -1      3081 3.30004E-01
 -1      3082 3.52705E-01
 -1      3083 2.71881E-01
 -1      3084 1.67634E-01
 -1      3085 1.84653E-01
 -1      3086 1.95984E-01
 -1      3087 2.13587E-01
 -1      3088 1.77860E-01
 -1      3089 1.15338E-01
 -1      3090 1.28590E-01
 -1      3091 9.21523E-02
 -1      3092 1.03723E-01
 -1      3093 1.06558E-01
 -1      3094 7.12452E-02
 -1      3095 8.12923E-02
 -1      3096 8.40829E-02
 -1      3097 5.22720E-02
 -1      3098 6.10958E-02
 -1      3099 6.30735E-02
 -1      3100 3.46304E-02
 -1      3101 4.26103E-02
 -1      3102 4.32624E-02
 -1      3103 3.05872E-02
 -1      3104 2.89596E-02
 -1      3105 2.79299E-02
 -1      3106 3.89837E-02
 -1      3107 3.45880E-02
 -1      3108 2.62598E-02
 -1      3109 6.16819E-02
 -1      3110 4.99859E-02
 -1      3111 4.12627E-02
 -1      3112 8.69383E-02
 -1      3113 7.44510E-02
 -1      3114 6.50339E-02
 -1      3115 1.14349E-01
 -1      3116 1.01502E-01
 -1      3117 9.23666E-02
 -1      3118 1.43546E-01
 -1      3119 1.30251E-01
 -1      3120 1.22832E-01
 -1      3121 1.70991E-01
 -1      3122 1.59870E-01
 -1      3123 1.55059E-01
 -1      3124 2.02081E-01
 -1      3125 1.87383E-01
 -1      3126 1.87775E-01
 -1      3127 2.38150E-01
 -1      3128 2.25687E-01
 -1      3129 2.27774E-01
 -1      3130 2.76498E-01
 -1      3131 2.65268E-01
 -1      3132 2.78498E-01
 -1      3133 3.48702E-01
 -1      3134 3.01250E-01
 -1      3135 3.30369E-01
 -1      3136 4.65972E-01
 -1      3137 4.16549E-01
 -1      3138 4.22968E-01
 -1      3139 6.08047E-01
 -1      3140 5.48992E-01
 -1      3141 5.73835E-01
 -1      3142 7.81499E-01
 -1      3143 6.81576E-01
 -1      3144 7.30384E-01
 -1      3145 9.56613E-01
 -1      3146 8.62538E-01
 -1      3147 8.84951E-01
 -1      3148 1.13785E+00
 -1      3149 1.06917E+00
 -1      3150 1.07854E+00
 -1      3151 1.24125E+00
 -1      3152 1.18063E+00
 -1      3153 1.23387E+00
 -1      3154 1.41897E+00
 -1      3155 1.33554E+00
 -1      3156 1.37094E+00
 -1      3157 1.86807E+00
 -1      3158 1.83709E+00
 -1      3159 1.88335E+00
 -1      3160 2.12513E+00
 -1      3161 2.18741E+00
 -1      3162 2.62080E+00
 -1      3163 1.55519E+00
 -1      3164 1.51373E+00
 -1      3165 2.32875E+00
 -1      3166 1.46078E+00
 -1      3167 1.52429E+00
 -1      3168 1.68645E+00
 -1      3169 1.22773E+00
 -1      3170 1.28037E+00
 -1      3171 1.47513E+00
 -1      3172 1.17036E+00
 -1      3173 1.22402E+00
 -1      3174 1.29101E+00
 -1      3175 1.00548E+00
 -1      3176 1.07928E+00
 -1      3177 1.19622E+00
 -1      3178 8.13852E-01
 -1      3179 9.05830E-01
 -1      3180 1.00548E+00
 -1      3181 6.59381E-01
 -1      3182 7.42730E-01
 -1      3183 8.34708E-01
 -1      3184 1.02927E+00
 -1      3185 9.48710E-01
 -1      3186 9.50201E+00
 -1      3187 1.16547E+01
 -1      3188 1.05635E+01
 -1      3189 9.21599E+00
 -1      3190 7.86312E+00
 -1      3191 1.32874E+01
 -1      3192 8.44644E-01
 -1      3193 7.71166E-01
 -1      3194 1.06633E+00
 -1      3195 1.46950E+00
 -1      3196 1.44654E+00
 -1      3197 1.46950E+00
 -1      3198 1.46950E+00
 -1      3199 1.70617E+00
 -1      3200 5.05167E-01
 -1      3201 4.48598E-01
 -1      3202 4.36144E-01
 -1      3203 4.77112E-01
 -1      3204 4.66489E+00
 -1      3205 5.75305E+00
 -1      3206 3.23338E+00
 -1      3207 3.06283E+00
 -1      3208 5.51120E+00
 -1      3209 4.05128E+00
 -1      3210 1.30521E+00
 -1      3211 1.15583E+00
 -1      3212 1.29695E+00
 -1      3213 1.56484E+00
 -1      3214 1.40733E-01
 -1      3215 1.55598E-01
 -1      3216 1.54493E-01
 -1      3217 1.30315E-01
 -1      3218 3.14469E-01
 -1      3219 3.08018E-01
 -1      3220 2.44593E-01
 -1      3221 4.77326E+00
 -1      3222 5.63694E+00
 -1      3223 6.97155E+00
 -1      3224 8.41749E+00
 -1      3225 5.23869E+00
 -1      3226 1.03124E+01
 -1      3227 8.35761E+00
 -1      3228 3.23763E-01
 -1      3229 3.15894E-01
 -1      3230 1.36851E+01
 -1      3231 1.16877E+01
 -1      3232 1.26518E+01
 -1      3233 2.56669E+00
 -1      3234 3.93709E+00
 -1      3235 3.49926E+00
 -1      3236 4.33136E+00
 -1      3237 4.54813E-01
 -1      3238 1.22912E+01
 -1      3239 1.33044E+01
 -1      3240 3.79280E-01
 -1      3241 7.37585E+00
 -1      3242 6.24822E+00
 -1      3243 3.40423E+00
 -1      3244 2.68304E+00
 -1      3245 2.34809E+00
 -1      3246 9.89666E+00
 -1      3247 3.52797E-01
 -1      3248 3.61327E-01
 -1      3249 6.71797E+00
 -1      3250 9.67175E+00
 -1      3251 1.18207E+01
 -1      3252 9.21829E+00
 -1      3253 3.21716E-01
 -1      3254 3.21716E-01
 -1      3255 2.85588E-01
 -1      3256 6.35260E+00
 -1      3257 8.01539E+00
 -1      3258 1.00696E+01
 -1      3259 1.15342E+01
 -1      3260 1.04186E+01
 -1      3261 8.62192E+00
 -1      3262 2.92640E-01
 -1      3263 2.61247E-01
 -1      3264 2.64966E-01
 -1      3265 1.53823E+00
 -1      3266 1.30318E+00
 -1      3267 1.30318E+00
 -1      3268 1.83020E+00
 -1      3269 6.75678E-01
 -1      3270 6.38976E-01
 -1      3271 8.66772E-01
 -1      3272 2.80556E-01
 -1      3273 3.31934E-01
 -1      3274 2.48437E-01
 -1      3275 3.34156E-01
 -1      3276 2.05365E-01
 -1      3277 2.29761E-01
 -1      3278 2.50404E-01
 -1      3279 6.80248E-01
 -1      3280 7.19646E-01
 -1      3281 8.23851E-01
 -1      3282 6.80979E-01
 -1      3283 7.65783E+00
 -1      3284 4.52499E+00
 -1      3285 5.50033E-01
 -1      3286 5.06375E-01
 -1      3287 5.35620E-01
 -1      3288 6.82340E-01
 -1      3289 4.99920E+00
 -1      3290 3.44429E+00
 -1      3291 1.57279E+01
 -1      3292 1.11013E+01
 -1      3293 1.13317E+01
 -1      3294 3.25204E-01
 -1      3295 3.23763E-01
 -1      3296 2.88974E-01
 -1      3297 2.85486E-01
 -1      3298 3.90463E-01
 -1      3299 1.05454E+01
 -1      3300 3.20713E-01
 -1      3301 3.30579E-01
 -1      3302 4.40836E+00
 -1      3303 3.90979E+00
 -1      3304 3.57626E+00
 -1      3305 3.76264E+00
 -1      3306 2.82284E+00
 -1      3307 4.03245E+00
 -1      3308 1.36360E+00
 -1      3309 3.06283E+00
 -1      3310 4.47901E+00
 -1      3311 3.60984E+00
 -1      3312 2.77367E+00
 -1      3313 9.07503E+00
 -1      3314 2.85076E-01
 -1      3315 3.11996E-01
 -1      3316 3.11827E-01
 -1      3317 6.13253E+00
 -1      3318 3.23306E-01
 -1      3319 3.23911E-01
 -1      3320 2.85839E-01
 -1      3321 1.66600E+00
 -1      3322 1.53523E+00
 -1      3323 1.77190E+00
 -1      3324 2.00183E+00
 -1      3325 5.98704E+00
 -1      3326 7.07156E+00
 -1      3327 1.87218E-01
 -1      3328 2.00840E-01
 -1      3329 2.16515E-01
 -1      3330 2.05094E-01
 -1      3331 2.01189E-01
 -1      3332 1.86608E-01
 -1      3333 1.79072E-01
 -1      3334 1.78426E-01
 -1      3335 1.65335E-01
 -1      3336 1.66984E-01
 -1      3337 1.55114E-01
 -1      3338 1.44122E-01
 -1      3339 1.48580E-01
 -1      3340 1.35869E-01
 -1      3341 1.24188E-01
 -1      3342 1.30106E-01
 -1      3343 1.15463E-01
 -1      3344 1.03956E-01
 -1      3345 1.13128E-01
 -1      3346 9.49087E-02
 -1      3347 8.39790E-02
 -1      3348 9.53557E-02
 -1      3349 7.49227E-02
 -1      3350 6.44884E-02
 -1      3351 7.72519E-02
 -1      3352 5.55922E-02
 -1      3353 4.54885E-02
 -1      3354 5.92995E-02
 -1      3355 4.21758E-02
 -1      3356 3.76301E-02
 -1      3357 4.70905E-02
 -1      3358 3.96181E-02
 -1      3359 4.43156E-02
 -1      3360 4.57658E-02
 -1      3361 5.18916E-02
 -1      3362 6.79513E-02
 -1      3363 5.53297E-02
 -1      3364 8.59250E-02
 -1      3365 1.07589E-01
 -1      3366 8.08794E-02
 -1      3367 1.30998E-01
 -1      3368 1.61225E-01
 -1      3369 1.22261E-01
 -1      3370 1.92075E-01
 -1      3371 2.33595E-01
 -1      3372 1.76520E-01
 -1      3373 2.80180E-01
 -1      3374 3.42913E-01
 -1      3375 2.53955E-01
 -1      3376 3.94349E-01
 -1      3377 4.73363E-01
 -1      3378 3.51975E-01
 -1      3379 5.46787E-01
 -1      3380 6.60613E-01
 -1      3381 4.76835E-01
 -1      3382 7.59985E-01
 -1      3383 9.22016E-01
 -1      3384 6.49630E-01
 -1      3385 1.06084E+00
 -1      3386 1.29731E+00
 -1      3387 8.87823E-01
 -1      3388 1.52010E+00
 -1      3389 1.88050E+00
 -1      3390 1.24944E+00
 -1      3391 2.23792E+00
 -1      3392 2.81772E+00
 -1      3393 1.82965E+00
 -1      3394 3.56133E+00
 -1      3395 4.55307E+00
 -1      3396 2.93068E+00
 -1      3397 1.34558E+00
 -1      3398 1.24152E+00
 -1      3399 8.35093E+00
 -1      3400 8.73167E+00
 -1      3401 4.80805E+00
 -1      3402 4.07103E+00
 -1      3403 2.16919E-01
 -1      3404 2.12839E-01
 -1      3405 1.59544E-01
 -1      3406 4.41706E+00
 -1      3407 3.55878E+00
 -1      3408 2.81963E+00
 -1      3409 2.25444E+00
 -1      3410 2.09025E+00
 -1      3411 3.08201E+00
 -1      3412 7.68711E-02
 -1      3413 8.77311E-02
 -1      3414 9.70624E-02
 -1      3415 1.08677E-01
 -1      3416 8.98505E-02
 -1      3417 3.92026E-02
 -1      3418 4.88643E-02
 -1      3419 2.98311E-02
 -1      3420 3.55019E-02
 -1      3421 4.11038E-02
 -1      3422 3.37873E-02
 -1      3423 2.97865E-02
 -1      3424 3.73586E-02
 -1      3425 5.10160E-02
 -1      3426 4.00138E-02
 -1      3427 4.35406E-02
 -1      3428 7.46694E-02
 -1      3429 6.19003E-02
 -1      3430 6.06515E-02
 -1      3431 1.01558E-01
 -1      3432 8.69947E-02
 -1      3433 8.38611E-02
 -1      3434 1.31584E-01
 -1      3435 1.15682E-01
 -1      3436 1.10310E-01
 -1      3437 1.66116E-01
 -1      3438 1.49792E-01
 -1      3439 1.42642E-01
 -1      3440 2.06072E-01
 -1      3441 1.89680E-01
 -1      3442 1.84414E-01
 -1      3443 2.55938E-01
 -1      3444 2.32332E-01
 -1      3445 2.34237E-01
 -1      3446 3.17113E-01
 -1      3447 2.89995E-01
 -1      3448 2.94553E-01
 -1      3449 3.90687E-01
 -1      3450 3.65934E-01
 -1      3451 3.77431E-01
 -1      3452 5.13161E-01
 -1      3453 4.45314E-01
 -1      3454 4.80880E-01
 -1      3455 6.56855E-01
 -1      3456 5.73835E-01
 -1      3457 5.96181E-01
 -1      3458 8.59802E-01
 -1      3459 7.86273E-01
 -1      3460 7.86273E-01
 -1      3461 1.08571E+00
 -1      3462 1.00467E+00
 -1      3463 1.06056E+00
 -1      3464 1.22667E+00
 -1      3465 1.11412E+00
 -1      3466 1.23384E+00
 -1      3467 1.39617E+00
 -1      3468 1.35339E+00
 -1      3469 1.38897E+00
 -1      3470 1.46523E+00
 -1      3471 1.37094E+00
 -1      3472 1.49046E+00
 -1      3473 2.66688E+00
 -1      3474 2.24876E+00
 -1      3475 2.24876E+00
 -1      3476 3.29670E+00
 -1      3477 2.97737E+00
 -1      3478 2.40764E+00
 -1      3479 2.43854E+00
 -1      3480 1.78426E+00
 -1      3481 1.96467E+00
 -1      3482 2.71676E+00
 -1      3483 1.69891E+00
 -1      3484 1.70262E+00
 -1      3485 2.19216E+00
 -1      3486 1.25654E+00
 -1      3487 1.34762E+00
 -1      3488 1.75923E+00
 -1      3489 1.04747E+00
 -1      3490 1.14712E+00
 -1      3491 1.29852E+00
 -1      3492 8.23851E-01
 -1      3493 8.94973E-01
 -1      3494 1.03661E+00
 -1      3495 2.58401E+00
 -1      3496 2.58401E+00
 -1      3497 6.45852E+00
 -1      3498 5.47676E+00
 -1      3499 8.71448E+00
 -1      3500 3.50887E+00
 -1      3501 4.84349E+00
 -1      3502 4.25722E+00
 -1      3503 3.66302E+00
 -1      3504 4.02169E+00
 -1      3505 3.17049E+00
 -1      3506 3.46930E+00
 -1      3507 2.65141E+00
 -1      3508 2.47120E+00
 -1      3509 2.90763E+00
 -1      3510 3.15757E-01
 -1      3511 3.23306E-01
 -1      3512 2.89036E-01
 -1      3513 2.74271E-01
 -1      3514 3.22209E-01
 -1      3515 5.76416E-02
 -1      3516 6.77910E-02
 -1      3517 7.14392E-02
 -1      3518 5.35818E-02
 -1      3519 2.40758E-01
 -1      3520 2.49381E-01
 -1      3521 2.45790E-01
 -1      3522 1.60545E-01
 -1      3523 1.71876E-01
 -1      3524 9.36095E+00
 -1      3525 8.03152E+00
 -1      3526 8.58740E+00
 -1      3527 2.40706E-01
 -1      3528 8.55235E+00
 -1      3529 7.17705E+00
 -1      3530 5.93584E+00
 -1      3531 2.36912E+00
 -1      3532 2.25277E+00
 -1      3533 7.79047E+00
 -1      3534 1.64547E-01
 -1      3535 1.81862E-01
 -1      3536 1.98036E-01
 -1      3537 2.46835E-01
 -1      3538 2.43638E-01
 -1      3539 1.34954E+00
 -1      3540 1.07029E+00
 -1      3541 9.74799E-01
 -1      3542 1.51648E+00
 -1      3543 1.69167E+00
 -1      3544 1.64303E+00
 -1      3545 6.65043E+00
 -1      3546 8.36909E+00
 -1      3547 6.47111E+00
 -1      3548 3.27815E+00
 -1      3549 6.97737E+00
 -1      3550 6.85694E+00
 -1      3551 5.30658E+00
 -1      3552 2.36102E-01
 -1      3553 1.79300E-01
 -1      3554 6.80979E-01
 -1      3555 8.84116E-01
 -1      3556 7.38756E-01
 -1      3557 1.08515E-01
 -1      3558 1.18010E-01
 -1      3559 1.30153E-01
 -1      3560 2.94014E+00
 -1      3561 3.29670E+00
 -1      3562 3.55323E+00
 -1      3563 2.32875E+00
 -1      3564 3.04993E+00
 -1      3565 2.83010E+00
 -1      3566 1.95226E+00
 -1      3567 1.81093E+00
 -1      3568 8.84116E-01
 -1      3569 1.38845E-01
 -1      3570 1.50881E-01
 -1      3571 1.44897E-01
 -1      3572 1.26541E-01
 -1      3573 2.49621E+00
 -1      3574 3.04993E+00
 -1      3575 2.85107E-01
 -1      3576 2.79470E+00
 -1      3577 2.21509E-01
 -1      3578 2.32092E-01
 -1      3579 6.67865E+00
 -1      3580 4.54860E+00
 -1      3581 9.55174E+00
 -1      3582 8.54776E+00
 -1      3583 7.63463E+00
 -1      3584 3.26578E+00
 -1      3585 3.34278E+00
 -1      3586 2.02451E+00
 -1      3587 7.88037E+00
 -1      3588 2.00968E-01
 -1      3589 3.14174E+00
 -1      3590 3.43598E+00
 -1      3591 3.04077E+00
 -1      3592 2.82434E-01
 -1      3593 2.82434E-01
 -1      3594 2.29621E-01
 -1      3595 2.21251E-01
 -1      3596 2.03786E-01
 -1      3597 1.90617E-01
 -1      3598 2.54577E-01
 -1      3599 2.50678E-01
 -1      3600 2.48037E-01
 -1      3601 1.60032E-01
 -1      3602 2.72752E+00
 -1      3603 6.16027E+00
 -1      3604 5.41162E+00
 -1      3605 5.85985E+00
 -1      3606 6.56053E+00
 -1      3607 6.32867E+00
 -1      3608 2.90235E+00
 -1      3609 4.98107E+00
 -1      3610 4.81573E+00
 -1      3611 2.42739E-01
 -1      3612 2.78946E-01
 -1      3613 2.82434E-01
 -1      3614 2.53177E-01
 -1      3615 2.10975E-01
 -1      3616 2.53177E-01
 -1      3617 4.87619E+00
 -1      3618 3.88162E+00
 -1      3619 1.55119E-01
 -1      3620 1.46936E-01
 -1      3621 1.42191E-01
 -1      3622 1.31970E-01
 -1      3623 1.30326E-01
 -1      3624 1.24944E-01
 -1      3625 1.16690E-01
 -1      3626 1.18555E-01
 -1      3627 1.09339E-01
 -1      3628 1.00614E-01
 -1      3629 1.04177E-01
 -1      3630 9.40069E-02
 -1      3631 8.49594E-02
 -1      3632 9.02178E-02
 -1      3633 7.78694E-02
 -1      3634 6.88131E-02
 -1      3635 7.65206E-02
 -1      3636 6.16482E-02
 -1      3637 5.27520E-02
 -1      3638 6.22657E-02
 -1      3639 5.10670E-02
 -1      3640 4.77543E-02
 -1      3641 5.34158E-02
 -1      3642 4.89731E-02
 -1      3643 5.09610E-02
 -1      3644 5.29495E-02
 -1      3645 5.39916E-02
 -1      3646 6.15676E-02
 -1      3647 5.71988E-02
 -1      3648 6.93697E-02
 -1      3649 8.73434E-02
 -1      3650 6.80315E-02
 -1      3651 1.03320E-01
 -1      3652 1.26728E-01
 -1      3653 9.18102E-02
 -1      3654 1.46570E-01
 -1      3655 1.77420E-01
 -1      3656 1.27628E-01
 -1      3657 2.07025E-01
 -1      3658 2.53609E-01
 -1      3659 1.77075E-01
 -1      3660 2.89019E-01
 -1      3661 3.40455E-01
 -1      3662 2.42089E-01
 -1      3663 3.98706E-01
 -1      3664 4.72130E-01
 -1      3665 3.35750E-01
 -1      3666 5.54109E-01
 -1      3667 6.53480E-01
 -1      3668 4.75980E-01
 -1      3669 7.68421E-01
 -1      3670 9.07242E-01
 -1      3671 6.72900E-01
 -1      3672 1.06803E+00
 -1      3673 1.29082E+00
 -1      3674 9.48627E-01
 -1      3675 1.57384E+00
 -1      3676 1.93126E+00
 -1      3677 1.39243E+00
 -1      3678 2.53209E+00
 -1      3679 3.27570E+00
 -1      3680 2.27627E+00
 -1      3681 8.05674E-02
 -1      3682 8.98987E-02
 -1      3683 2.05649E-01
 -1      3684 2.20211E-01
 -1      3685 1.91056E-01
 -1      3686 1.82146E-01
 -1      3687 5.46486E+00
 -1      3688 4.74633E+00
 -1      3689 4.33030E-02
 -1      3690 4.33476E-02
 -1      3691 4.28540E-02
 -1      3692 4.65547E-02
 -1      3693 4.87985E-02
 -1      3694 7.11739E-02
 -1      3695 6.02896E-02
 -1      3696 9.61864E-02
 -1      3697 8.38611E-02
 -1      3698 8.34992E-02
 -1      3699 1.24433E-01
 -1      3700 1.10310E-01
 -1      3701 1.10310E-01
 -1      3702 1.58960E-01
 -1      3703 1.40752E-01
 -1      3704 1.40752E-01
 -1      3705 2.04477E-01
 -1      3706 1.80913E-01
 -1      3707 1.79023E-01
 -1      3708 2.59395E-01
 -1      3709 2.33136E-01
 -1      3710 2.29635E-01
 -1      3711 3.38766E-01
 -1      3712 3.04710E-01
 -1      3713 3.03608E-01
 -1      3714 4.43514E-01
 -1      3715 3.94692E-01
 -1      3716 4.04849E-01
 -1      3717 5.59912E-01
 -1      3718 5.05285E-01
 -1      3719 5.22546E-01
 -1      3720 7.20358E-01
 -1      3721 6.59684E-01
 -1      3722 6.84089E-01
 -1      3723 9.57032E-01
 -1      3724 8.27614E-01
 -1      3725 8.91117E-01
 -1      3726 1.20543E+00
 -1      3727 1.06056E+00
 -1      3728 1.10190E+00
 -1      3729 1.65013E+00
 -1      3730 1.62173E+00
 -1      3731 1.62173E+00
 -1      3732 3.15973E+00
 -1      3733 1.41384E+00
 -1      3734 1.52326E+00
 -1      3735 1.03661E+00
 -1      3736 1.18911E+00
 -1      3737 1.41384E+00
 -1      3738 8.99715E-01
 -1      3739 8.10771E-01
 -1      3740 9.56131E-01
 -1      3741 1.10323E+00
 -1      3742 1.80185E+00
 -1      3743 2.15315E+00
 -1      3744 1.91717E+00
 -1      3745 3.17049E+00
 -1      3746 5.13103E-02
 -1      3747 4.50837E-02
 -1      3748 5.10728E-02
 -1      3749 2.67415E+00
 -1      3750 2.19216E+00
 -1      3751 2.27380E+00
 -1      3752 3.64151E+00
 -1      3753 2.72752E+00
 -1      3754 1.68238E-01
 -1      3755 1.54221E-01
 -1      3756 1.37653E-01
 -1      3757 1.16499E-01
 -1      3758 1.32579E-01
 -1      3759 1.10688E-01
 -1      3760 2.49247E-01
 -1      3761 2.53177E-01
 -1      3762 2.17317E-01
 -1      3763 2.18748E-01
 -1      3764 1.59595E-01
 -1      3765 1.55690E-01
 -1      3766 1.35642E-01
 -1      3767 8.84116E-01
 -1      3768 1.46367E-01
 -1      3769 1.50044E-01
 -1      3770 1.26663E-01
 -1      3771 1.03323E-01
 -1      3772 8.06902E+00
 -1      3773 3.30459E+00
 -1      3774 2.70286E+00
 -1      3775 4.10403E+00
 -1      3776 3.43532E+00
 -1      3777 3.63305E+00
 -1      3778 2.79105E+00
 -1      3779 3.93460E+00
 -1      3780 1.79748E-01
 -1      3781 1.88362E-01
 -1      3782 2.21518E-01
 -1      3783 7.51779E+00
 -1      3784 1.89061E+00
 -1      3785 2.23478E+00
 -1      3786 3.70196E+00
 -1      3787 6.28903E+00
 -1      3788 2.55104E+00
 -1      3789 4.01721E+00
 -1      3790 3.92302E+00
 -1      3791 5.35492E+00
 -1      3792 3.94208E+00
 -1      3793 3.70196E+00
 -1      3794 3.07022E+00
 -1      3795 5.35492E+00
 -1      3796 4.58248E+00
 -1      3797 4.98107E+00
 -1      3798 2.03046E+00
 -1      3799 8.77412E-02
 -1      3800 9.70243E-02
 -1      3801 1.06358E-01
 -1      3802 7.32001E-02
 -1      3803 7.32482E-02
 -1      3804 6.41200E-02
 -1      3805 6.65043E+00
 -1      3806 1.78450E-01
 -1      3807 4.80807E-02
 -1      3808 5.68580E-02
 -1      3809 4.98309E-02
 -1      3810 6.18328E-02
 -1      3811 1.72804E+00
 -1      3812 1.60132E+00
 -1      3813 1.49046E+00
 -1      3814 1.51569E+00
 -1      3815 2.75568E+00
 -1      3816 6.28785E+00
 -1      3817 5.09383E+00
 -1      3818 3.90432E+00
 -1      3819 4.91057E+00
 -1      3820 1.98920E+00
 -1      3821 6.71516E+00
 -1      3822 5.84830E+00
 -1      3823 5.07061E+00
 -1      3824 1.74580E-01
 -1      3825 1.45849E-01
 -1      3826 1.55835E-01
 -1      3827 2.17487E+00
 -1      3828 2.00398E+00
 -1      3829 2.58182E+00
 -1      3830 2.75895E-01
 -1      3831 2.35508E+00
 -1      3832 2.42797E+00
 -1      3833 2.10535E+00
 -1      3834 1.29783E-01
 -1      3835 1.39447E-01
 -1      3836 1.30735E-01
 -1      3837 1.72804E+00
 -1      3838 2.20163E-01
 -1      3839 2.20163E-01
 -1      3840 2.11473E+00
 -1      3841 1.63152E+00
 -1      3842 1.46030E+00
 -1      3843 2.86003E+00
 -1      3844 8.82324E-01
 -1      3845 8.82324E-01
 -1      3846 1.03482E+00
 -1      3847 9.54339E-01
 -1      3848 2.33484E+00
 -1      3849 2.30840E+00
 -1      3850 1.92305E-01
 -1      3851 2.49994E+00
 -1      3852 2.33204E+00
 -1      3853 2.64435E+00
 -1      3854 3.37180E+00
 -1      3855 1.11310E-01
 -1      3856 1.04284E-01
 -1      3857 9.93249E-02
 -1      3858 9.19733E-02
 -1      3859 9.20806E-02
 -1      3860 8.59995E-02
 -1      3861 7.93924E-02
 -1      3862 8.11479E-02
 -1      3863 7.38523E-02
 -1      3864 6.67623E-02
 -1      3865 6.96341E-02
 -1      3866 6.32728E-02
 -1      3867 5.61079E-02
 -1      3868 6.06045E-02
 -1      3869 5.52730E-02
 -1      3870 5.35880E-02
 -1      3871 5.62801E-02
 -1      3872 5.39131E-02
 -1      3873 5.51319E-02
 -1      3874 5.57703E-02
 -1      3875 5.71988E-02
 -1      3876 6.02294E-02
 -1      3877 5.81624E-02
 -1      3878 6.72269E-02
 -1      3879 7.50291E-02
 -1      3880 6.72269E-02
 -1      3881 8.59983E-02
 -1      3882 1.01975E-01
 -1      3883 8.51937E-02
 -1      3884 1.17688E-01
 -1      3885 1.37530E-01
 -1      3886 1.11876E-01
 -1      3887 1.64079E-01
 -1      3888 1.93684E-01
 -1      3889 1.54139E-01
 -1      3890 2.20185E-01
 -1      3891 2.55595E-01
 -1      3892 2.07190E-01
 -1      3893 2.95397E-01
 -1      3894 3.53648E-01
 -1      3895 2.73493E-01
 -1      3896 4.04980E-01
 -1      3897 4.86959E-01
 -1      3898 3.64627E-01
 -1      3899 5.57959E-01
 -1      3900 6.72900E-01
 -1      3901 4.86959E-01
 -1      3902 8.23216E-01
 -1      3903 9.84003E-01
 -1      3904 7.08276E-01
 -1      3905 1.22229E+00
 -1      3906 1.50530E+00
 -1      3907 1.09687E+00
 -1      3908 1.69077E+00
 -1      3909 2.29161E+00
 -1      3910 1.52063E+00
 -1      3911 2.30323E+00
 -1      3912 1.65786E-01
 -1      3913 7.03883E-02
 -1      3914 6.14091E-02
 -1      3915 1.22026E-01
 -1      3916 1.07902E-01
 -1      3917 9.24996E-02
 -1      3918 7.98124E-02
 -1      3919 1.04216E-01
 -1      3920 2.00977E-01
 -1      3921 1.79023E-01
 -1      3922 2.58807E-01
 -1      3923 2.30149E-01
 -1      3924 2.30149E-01
 -1      3925 3.45766E-01
 -1      3926 3.00452E-01
 -1      3927 3.00965E-01
 -1      3928 4.60159E-01
 -1      3929 4.04233E-01
 -1      3930 4.01076E-01
 -1      3931 6.18884E-01
 -1      3932 5.57112E-01
 -1      3933 5.56496E-01
 -1      3934 8.40208E-01
 -1      3935 7.40436E-01
 -1      3936 7.75003E-01
 -1      3937 1.07468E+00
 -1      3938 9.67425E-01
 -1      3939 1.02377E+00
 -1      3940 1.33874E+00
 -1      3941 1.23520E+00
 -1      3942 1.31151E+00
 -1      3943 5.65643E-02
 -1      3944 5.47836E-02
 -1      3945 6.51199E-02
 -1      3946 2.87711E+00
 -1      3947 4.58248E+00
 -1      3948 3.20520E+00
 -1      3949 2.29161E+00
 -1      3950 1.46569E+00
 -1      3951 1.69043E+00
 -1      3952 1.12981E-01
 -1      3953 1.21674E-01
 -1      3954 1.01491E-01
 -1      3955 1.59115E-01
 -1      3956 1.66728E-01
 -1      3957 1.40417E-01
 -1      3958 1.35911E-01
 -1      3959 1.34556E-01
 -1      3960 1.18994E-01
 -1      3961 1.14249E-01
 -1      3962 9.99782E-02
 -1      3963 1.37536E-01
 -1      3964 1.16382E-01
 -1      3965 2.38366E+00
 -1      3966 1.80273E-01
 -1      3967 1.19030E-01
 -1      3968 1.18458E-01
 -1      3969 1.02381E-01
 -1      3970 1.57070E-01
 -1      3971 1.40752E-01
 -1      3972 1.79023E-01
 -1      3973 5.28338E-02
 -1      3974 5.23402E-02
 -1      3975 5.83253E-02
 -1      3976 3.19399E+00
 -1      3977 2.55169E+00
 -1      3978 2.52838E+00
 -1      3979 2.39766E+00
 -1      3980 2.05201E+00
 -1      3981 2.08932E+00
 -1      3982 1.55419E-01
 -1      3983 1.71761E-01
 -1      3984 1.99635E-01
 -1      3985 1.91584E+00
 -1      3986 7.66515E-02
 -1      3987 8.37771E-02
 -1      3988 5.86189E-02
 -1      3989 3.02085E+00
 -1      3990 3.39188E+00
 -1      3991 2.31052E+00
 -1      3992 1.38344E-01
 -1      3993 1.74228E+00
 -1      3994 2.10535E+00
 -1      3995 4.95083E-02
 -1      3996 5.10344E-02
 -1      3997 5.35436E-02
 -1      3998 7.93888E-02
 -1      3999 6.44206E-02
 -1      4000 7.17879E-02
 -1      4001 6.78239E-02
 -1      4002 1.98204E-01
 -1      4003 1.27893E-01
 -1      4004 1.39615E-01
 -1      4005 1.08385E-01
 -1      4006 1.63572E+00
 -1      4007 1.76902E+00
 -1      4008 2.71758E+00
 -1      4009 2.56042E+00
 -1      4010 1.74228E+00
 -1      4011 1.46030E+00
 -1      4012 1.38521E+00
 -1      4013 1.74228E+00
 -1      4014 2.09605E+00
 -1      4015 1.98204E-01
 -1      4016 1.98204E-01
 -1      4017 1.61160E-01
 -1      4018 1.79091E-01
 -1      4019 1.16223E-01
 -1      4020 1.25274E-01
 -1      4021 1.28555E-01
 -1      4022 1.12750E-01
 -1      4023 1.15039E-01
 -1      4024 8.81922E-02
 -1      4025 1.01981E-01
 -1      4026 1.41886E-01
 -1      4027 4.00695E+00
 -1      4028 1.11129E-01
 -1      4029 9.39452E-02
 -1      4030 1.01578E-01
 -1      4031 1.15840E-01
 -1      4032 1.22242E-01
 -1      4033 1.10380E-01
 -1      4034 4.43545E+00
 -1      4035 8.43983E-02
 -1      4036 7.94393E-02
 -1      4037 5.79539E-02
 -1      4038 6.52159E-02
 -1      4039 5.76314E-02
 -1      4040 7.83546E-02
 -1      4041 7.23808E-02
 -1      4042 7.06723E-02
 -1      4043 7.17240E-02
 -1      4044 6.61839E-02
 -1      4045 6.89307E-02
 -1      4046 6.23984E-02
 -1      4047 5.89090E-02
 -1      4048 6.44884E-02
 -1      4049 5.88462E-02
 -1      4050 5.80113E-02
 -1      4051 6.06401E-02
 -1      4052 5.59884E-02
 -1      4053 5.63135E-02
 -1      4054 5.85545E-02
 -1      4055 5.82549E-02
 -1      4056 6.03219E-02
 -1      4057 5.84730E-02
 -1      4058 6.52748E-02
 -1      4059 7.22723E-02
 -1      4060 6.53673E-02
 -1      4061 8.04716E-02
 -1      4062 9.14408E-02
 -1      4063 7.85194E-02
 -1      4064 1.02734E-01
 -1      4065 1.18447E-01
 -1      4066 9.80115E-02
 -1      4067 1.37018E-01
 -1      4068 1.63568E-01
 -1      4069 1.27876E-01
 -1      4070 1.95090E-01
 -1      4071 2.21591E-01
 -1      4072 1.77969E-01
 -1      4073 2.70365E-01
 -1      4074 3.10167E-01
 -1      4075 2.58265E-01
 -1      4076 3.80935E-01
 -1      4077 4.32267E-01
 -1      4078 3.77807E-01
 -1      4079 5.32466E-01
 -1      4080 6.03466E-01
 -1      4081 5.48775E-01
 -1      4082 7.39940E-01
 -1      4083 8.90257E-01
 -1      4084 7.85448E-01
 -1      4085 1.05699E+00
 -1      4086 1.29527E+00
 -1      4087 1.08866E+00
 -1      4088 1.54115E+00
 -1      4089 1.72662E+00
 -1      4090 1.50127E+00
 -1      4091 1.20234E-01
 -1      4092 1.04832E-01
 -1      4093 8.83572E-02
 -1      4094 7.89331E-02
 -1      4095 1.04376E-01
 -1      4096 3.95593E-01
 -1      4097 3.53948E-01
 -1      4098 2.90296E-01
 -1      4099 2.61124E-01
 -1      4100 3.84924E-01
 -1      4101 7.87686E-01
 -1      4102 6.90732E-01
 -1      4103 1.07597E+00
 -1      4104 9.54420E-01
 -1      4105 1.08866E+00
 -1      4106 1.39327E+00
 -1      4107 1.26606E+00
 -1      4108 1.44547E+00
 -1      4109 2.18796E+00
 -1      4110 7.01424E-02
 -1      4111 6.52976E-02
 -1      4112 7.91109E-02
 -1      4113 9.06598E-02
 -1      4114 9.72837E-02
 -1      4115 7.95701E-02
 -1      4116 1.46569E+00
 -1      4117 1.79233E+00
 -1      4118 3.86517E+00
 -1      4119 8.93239E-02
 -1      4120 8.63852E-02
 -1      4121 7.37439E-02
 -1      4122 8.83045E-02
 -1      4123 8.88400E-02
 -1      4124 7.52470E-02
 -1      4125 1.76546E+00
 -1      4126 1.44516E+00
 -1      4127 1.28464E+00
 -1      4128 1.96335E+00
 -1      4129 1.31140E+00
 -1      4130 1.02976E-01
 -1      4131 1.40181E-01
 -1      4132 2.18283E-01
 -1      4133 1.96330E-01
 -1      4134 2.78431E-01
 -1      4135 1.03163E-01
 -1      4136 1.11272E-01
 -1      4137 1.02779E-01
 -1      4138 9.23318E-02
 -1      4139 6.03448E-02
 -1      4140 5.83949E-02
 -1      4141 6.53673E-02
 -1      4142 1.64566E-01
 -1      4143 1.45841E-01
 -1      4144 2.03826E-01
 -1      4145 5.54259E-01
 -1      4146 4.95792E-01
 -1      4147 5.48775E-01
 -1      4148 7.85448E-01
 -1      4149 6.37556E-02
 -1      4150 2.69276E+00
 -1      4151 1.46456E-01
 -1      4152 5.84730E-02
 -1      4153 5.64535E-02
 -1      4154 5.36217E-02
 -1      4155 8.83203E-02
 -1      4156 9.13525E-02
 -1      4157 6.78174E-02
 -1      4158 8.98767E-02
 -1      4159 8.92150E-02
 -1      4160 1.52692E+00
 -1      4161 2.31213E+00
 -1      4162 8.64473E-02
 -1      4163 6.35316E-02
 -1      4164 6.83951E-02
 -1      4165 7.11375E-02
 -1      4166 7.80201E-02
 -1      4167 6.68452E-02
 -1      4168 1.40181E-01
 -1      4169 1.32970E-01
 -1      4170 8.24465E-02
 -1      4171 6.89052E-02
 -1      4172 7.45459E-02
 -1      4173 8.20567E-02
 -1      4174 7.83532E-02
 -1      4175 7.66482E-02
 -1      4176 5.91833E-02
 -1      4177 7.20282E-02
 -1      4178 7.25120E-02
 -1      4179 7.37220E-02
 -1      4180 7.26372E-02
 -1      4181 6.95875E-02
 -1      4182 6.89307E-02
 -1      4183 6.61884E-02
 -1      4184 6.24028E-02
 -1      4185 6.25642E-02
 -1      4186 6.05412E-02
 -1      4187 5.65316E-02
 -1      4188 5.84730E-02
 -1      4189 6.04144E-02
 -1      4190 6.53673E-02
 -1      4191 7.03201E-02
 -1      4192 7.85194E-02
 -1      4193 8.73102E-02
 -1      4194 9.86029E-02
 -1      4195 1.15077E-01
 -1      4196 1.33649E-01
 -1      4197 1.59255E-01
 -1      4198 1.90777E-01
 -1      4199 2.22541E-01
 -1      4200 2.71314E-01
 -1      4201 3.14155E-01
 -1      4202 3.84924E-01
 -1      4203 4.48576E-01
 -1      4204 5.48775E-01
 -1      4205 6.48974E-01
 -1      4206 7.85448E-01
 -1      4207 9.21922E-01
 -1      4208 1.08866E+00
 -1      4209 1.25539E+00
 -1      4210 1.50127E+00
 -1      4211 9.11003E-02
 -1      4212 7.20732E-02
 -1      4213 8.65320E-02
 -1      4214 7.52920E-02
 -1      4215 2.12778E+00
 -1      4216 6.37556E-02
 -1      4217 6.43269E-02
 -1      4218 6.45509E-02
 -1      4219 1.69135E+00
 -1      4220 9.40606E-02
 -1      4221 2.07199E+00
 -1      4222 7.33051E-02
 -1      4223 5.76314E-02
 -1      4224 6.45509E-02
 -1      4225 7.05524E-02
 -1      4226 6.26269E-02
 -1      4227 9.36579E-02
 -1      4228 7.26372E-02
 -1      4229 6.25642E-02
 -1      4230 6.05412E-02
 -1      4231 6.45509E-02
 -1      4232 8.10699E-02
 -1      4233 6.46944E-02
 -1      4234 6.90349E-02
 -1      4235 7.52701E-02
 -1      4236 8.69489E-02
 -1      4237 5.75362E-02
 -3
 9999
